Node Numbers,X Locations (inches),Y Locations (inches),Z Locations (inches),Equivalent Elastic Strains (in/in),Equivalent Stress (psi),Max Principal Elastic Strain (in/in),Max Principal Stress (psi),Middle Principal Elastic Strain (in/in),Middle Principal Stress (psi),Min Principal Elastic Strain (in/in),Min Principal Stress (psi),Total Deformation (in)
1,3,2.1818,0,0.0020404,20390,0.00079396,1531.2,0.00060655,123.09,-0.0020086,-19526,0.058919
2,3,2.3636,0,0.0016076,16065,0.00062755,1142.2,0.00046828,-54.418,-0.0015858,-15488,0.060313
3,3,2.5455,0,0.0014083,14073,0.00053198,811,0.00042386,-1.3996,-0.0013927,-13651,0.061296
4,3,2.7273,0,0.0013056,13047,0.00048379,634.24,0.00039849,-6.6228,-0.0012938,-12722,0.061924
5,3,2.9091,0,0.0012617,12609,0.0004624,552.45,0.00038841,-3.5229,-0.0012515,-12325,0.062232
6,3,3.0909,0,0.0012617,12609,0.0004624,552.45,0.00038841,-3.5229,-0.0012515,-12325,0.062232
7,3,3.2727,0,0.0013056,13047,0.00048379,634.24,0.00039849,-6.6228,-0.0012938,-12722,0.061924
8,3,3.4545,0,0.0014083,14073,0.00053198,811,0.00042386,-1.3995,-0.0013927,-13651,0.061296
9,3,3.6364,0,0.0016076,16065,0.00062755,1142.2,0.00046828,-54.418,-0.0015858,-15488,0.060313
10,3,3.8182,0,0.0020404,20390,0.00079396,1531.2,0.00060655,123.09,-0.0020086,-19526,0.058919
11,3.1667,2.1818,0,0.0020171,20157,0.00078898,1578.1,0.00059849,146.9,-0.001984,-19257,0.067139
12,3.1667,2.3636,0,0.0015955,15944,0.00062747,1192.2,0.00046195,-51.435,-0.0015724,-15337,0.068542
13,3.1667,2.5455,0,0.001402,14010,0.00053522,876.79,0.00041855,0.15124,-0.001385,-13551,0.069533
14,3.1667,2.7273,0,0.0013013,13004,0.00048814,704.95,0.00039355,-5.7778,-0.001288,-12640,0.070167
15,3.1667,2.9091,0,0.0012583,12574,0.00046727,625.81,0.0003836,-2.9189,-0.0012465,-12251,0.070478
16,3.1667,3.0909,0,0.0012583,12574,0.00046727,625.81,0.0003836,-2.9189,-0.0012465,-12251,0.070478
17,3.1667,3.2727,0,0.0013013,13004,0.00048814,704.95,0.00039355,-5.7778,-0.001288,-12640,0.070167
18,3.1667,3.4545,0,0.001402,14010,0.00053522,876.79,0.00041855,0.15125,-0.001385,-13551,0.069533
19,3.1667,3.6364,0,0.0015955,15944,0.00062747,1192.2,0.00046195,-51.435,-0.0015724,-15337,0.068542
20,3.1667,3.8182,0,0.0020171,20157,0.00078898,1578.1,0.00059849,146.9,-0.001984,-19257,0.067139
21,2.8235,5.8182,0,0.00013419,1341,6.2977e-05,203.56,2.9809e-05,-45.659,-0.00012976,-1244.6,0.034056
22,2.8235,5.6364,0,0.00019536,1952.2,9.5421e-05,369.19,4.3378e-05,-21.839,-0.00018648,-1748.9,0.035431
23,2.8235,5.4545,0,0.00026896,2687.7,0.00014154,647.04,5.3362e-05,-15.521,-0.00025201,-2310,0.036837
24,2.8235,5.2727,0,0.00034838,3481.4,0.00019372,977.4,6.1942e-05,-12.757,-0.00032123,-2891.8,0.03829
25,2.8235,5.0909,0,0.00043573,4354.3,0.00025254,1359.6,6.9989e-05,-11.993,-0.00039628,-3515.4,0.039803
26,2.8235,4.9091,0,0.0005356,5352.3,0.00032075,1809.1,7.8084e-05,-14.18,-0.00048123,-4216.6,0.041381
27,2.8235,4.7273,0,0.00065603,6555.7,0.00040323,2358.3,8.7824e-05,-11.532,-0.00058313,-5052.8,0.043028
28,2.8235,4.5455,0,0.0008101,8095.4,0.00050755,3030.4,9.938e-05,-36.485,-0.00071432,-6150.3,0.044739
29,2.8235,4.3636,0,0.0010333,10326,0.00065533,4008.1,0.00012437,18.667,-0.00090528,-7717.8,0.046497
30,2.8235,4.1818,0,0.0013601,13591,0.00081806,4540.9,0.00018423,-221.38,-0.0012225,-10791,0.048256
31,2.8235,4,0,0.0016316,16305,0.0008136,2950.1,0.00031498,-796.34,-0.0015623,-14902,0.049924
32,2.8235,3.8182,0,0.0015361,15351,0.00058954,989.7,0.00045583,-14.89,-0.0015171,-14838,0.05138
33,2.8235,3.6364,0,0.0014212,14203,0.00052687,679.06,0.0004323,-31.532,-0.0014089,-13865,0.052546
34,2.8235,3.4545,0,0.0013056,13047,0.00046789,446.22,0.00040868,1.3413,-0.0012975,-12818,0.05341
35,2.8235,3.2727,0,0.0012392,12384,0.00043714,334.98,0.0003917,-6.4413,-0.0012333,-12216,0.053976
36,2.8235,3.0909,0,0.0012082,12073,0.00042213,280.37,0.00038456,-1.8851,-0.0012032,-11932,0.054255
37,2.8235,2.9091,0,0.0012082,12073,0.00042213,280.37,0.00038456,-1.8851,-0.0012032,-11932,0.054255
38,2.8235,2.7273,0,0.0012392,12384,0.00043714,334.98,0.0003917,-6.4413,-0.0012333,-12216,0.053976
39,2.8235,2.5455,0,0.0013056,13047,0.00046789,446.22,0.00040868,1.3414,-0.0012975,-12818,0.05341
40,2.8235,2.3636,0,0.0014212,14203,0.00052687,679.06,0.0004323,-31.532,-0.0014089,-13865,0.052546
41,2.8235,2.1818,0,0.0015361,15350,0.00058954,989.7,0.00045583,-14.89,-0.0015171,-14838,0.05138
42,2.8235,2,0,0.0016316,16305,0.0008136,2950.1,0.00031498,-796.34,-0.0015623,-14902,0.049924
43,2.8235,1.8182,0,0.0013601,13591,0.00081806,4540.9,0.00018423,-221.38,-0.0012225,-10791,0.048256
44,2.8235,1.6364,0,0.0010333,10326,0.00065533,4008.1,0.00012437,18.667,-0.00090528,-7717.8,0.046497
45,2.8235,1.4545,0,0.0008101,8095.4,0.00050755,3030.4,9.938e-05,-36.485,-0.00071432,-6150.3,0.044739
46,2.8235,1.2727,0,0.00065603,6555.7,0.00040323,2358.3,8.7824e-05,-11.532,-0.00058313,-5052.8,0.043028
47,2.8235,1.0909,0,0.0005356,5352.3,0.00032075,1809.1,7.8084e-05,-14.18,-0.00048123,-4216.6,0.041381
48,2.8235,0.90909,0,0.00043573,4354.3,0.00025254,1359.6,6.9989e-05,-11.993,-0.00039628,-3515.4,0.039803
49,2.8235,0.72727,0,0.00034838,3481.4,0.00019372,977.4,6.1942e-05,-12.757,-0.00032123,-2891.8,0.03829
50,2.8235,0.54545,0,0.00026896,2687.7,0.00014154,647.04,5.3362e-05,-15.521,-0.00025201,-2310,0.036837
51,2.8235,0.36364,0,0.00019536,1952.2,9.5421e-05,369.19,4.3378e-05,-21.839,-0.00018648,-1748.9,0.035431
52,2.8235,0.18182,0,0.00013419,1341,6.2977e-05,203.56,2.9809e-05,-45.659,-0.00012976,-1244.6,0.034056
53,2.6471,5.8182,0,0.00019564,1955.1,7.8206e-05,152.47,5.4966e-05,-22.142,-0.00019284,-1884,0.030249
54,2.6471,5.6364,0,0.0002244,2242.5,8.9018e-05,170.41,6.3857e-05,-18.638,-0.00022122,-2160.6,0.031551
55,2.6471,5.4545,0,0.00027527,2750.8,0.00011736,317.03,7.3777e-05,-10.467,-0.00026859,-2582.9,0.032855
56,2.6471,5.2727,0,0.00033747,3372.4,0.00015497,531,8.3498e-05,-5.9806,-0.00032531,-3077.6,0.034174
57,2.6471,5.0909,0,0.00040878,4085,0.00019889,786.13,9.3699e-05,-4.208,-0.0003897,-3636.3,0.035515
58,2.6471,4.9091,0,0.00049039,4900.6,0.00024869,1072.9,0.00010546,-3.3136,-0.00046325,-4276.3,0.036883
59,2.6471,4.7273,0,0.00058586,5854.6,0.00030511,1384.9,0.00012032,-3.4719,-0.00054987,-5039,0.038274
60,2.6471,4.5455,0,0.00069841,6979.3,0.00036609,1680.7,0.00014164,-5.7784,-0.00065445,-5987.3,0.039675
61,2.6471,4.3636,0,0.00083135,8307.8,0.00042444,1857.1,0.00017694,-2.5446,-0.00078403,-7222.9,0.041062
62,2.6471,4.1818,0,0.00097818,9775.1,0.00046027,1694.8,0.00023614,10.76,-0.00093822,-8812.9,0.042395
63,2.6471,4,0,0.0010772,10765,0.00041735,807.18,0.00032338,101.1,-0.00106,-10293,0.043624
64,2.6471,3.8182,0,0.001157,11563,0.00039614,204.06,0.00037627,54.786,-0.0011526,-11432,0.044709
65,2.6471,3.6364,0,0.0011698,11690,0.00039197,39.889,0.00037964,-52.725,-0.00117,-11696,0.045619
66,2.6471,3.4545,0,0.0011521,11513,0.00038533,17.804,0.0003731,-74.056,-0.001153,-11541,0.046319
67,2.6471,3.2727,0,0.0011286,11278,0.00037778,3.133,0.0003637,-102.65,-0.0011303,-11328,0.04679
68,2.6471,3.0909,0,0.0011152,11144,0.00037383,-0.28402,0.00035814,-118.2,-0.0011172,-11203,0.047026
69,2.6471,2.9091,0,0.0011152,11144,0.00037383,-0.28402,0.00035814,-118.2,-0.0011172,-11203,0.047026
70,2.6471,2.7273,0,0.0011286,11278,0.00037778,3.133,0.0003637,-102.65,-0.0011303,-11328,0.04679
71,2.6471,2.5455,0,0.0011521,11513,0.00038533,17.804,0.0003731,-74.056,-0.001153,-11540,0.046319
72,2.6471,2.3636,0,0.0011698,11690,0.00039197,39.889,0.00037964,-52.725,-0.00117,-11696,0.045619
73,2.6471,2.1818,0,0.001157,11563,0.00039614,204.06,0.00037627,54.785,-0.0011526,-11432,0.044709
74,2.6471,2,0,0.0010772,10765,0.00041735,807.18,0.00032338,101.1,-0.00106,-10293,0.043624
75,2.6471,1.8182,0,0.00097818,9775.1,0.00046027,1694.8,0.00023614,10.76,-0.00093822,-8812.9,0.042395
76,2.6471,1.6364,0,0.00083135,8307.8,0.00042444,1857.1,0.00017694,-2.5446,-0.00078403,-7222.9,0.041062
77,2.6471,1.4545,0,0.00069841,6979.3,0.00036609,1680.7,0.00014164,-5.7784,-0.00065445,-5987.3,0.039675
78,2.6471,1.2727,0,0.00058586,5854.6,0.00030511,1384.9,0.00012032,-3.4719,-0.00054987,-5039,0.038274
79,2.6471,1.0909,0,0.00049039,4900.6,0.00024869,1072.9,0.00010546,-3.3136,-0.00046325,-4276.3,0.036883
80,2.6471,0.90909,0,0.00040878,4085,0.00019889,786.13,9.3699e-05,-4.208,-0.0003897,-3636.3,0.035515
81,2.6471,0.72727,0,0.00033747,3372.4,0.00015497,531,8.3498e-05,-5.9806,-0.00032531,-3077.6,0.034174
82,2.6471,0.54545,0,0.00027527,2750.8,0.00011736,317.03,7.3777e-05,-10.467,-0.00026859,-2582.9,0.032855
83,2.6471,0.36364,0,0.0002244,2242.5,8.9018e-05,170.41,6.3857e-05,-18.638,-0.00022122,-2160.6,0.031551
84,2.6471,0.18182,0,0.00019564,1955.1,7.8206e-05,152.47,5.4966e-05,-22.142,-0.00019284,-1884,0.030249
85,2.4706,5.8182,0,0.00026236,2621.8,0.00010041,159.22,7.7422e-05,-13.521,-0.00025945,-2544.7,0.02653
86,2.4706,5.6364,0,0.00027828,2780.9,0.00010316,126.39,8.4033e-05,-17.323,-0.00027615,-2723.6,0.027753
87,2.4706,5.4545,0,0.00031346,3132.4,0.00011951,185.83,9.289e-05,-14.216,-0.00031006,-3041.8,0.028953
88,2.4706,5.2727,0,0.00036109,3608.4,0.00014449,301.09,0.00010306,-10.223,-0.00035513,-3452.9,0.030141
89,2.4706,5.0909,0,0.00041845,4181.6,0.00017536,448.62,0.00011456,-8.2373,-0.00040908,-3942.7,0.031321
90,2.4706,4.9091,0,0.00048467,4843.4,0.00021008,607.06,0.00012825,-7.8109,-0.00047154,-4514.4,0.032496
91,2.4706,4.7273,0,0.00055966,5592.7,0.00024639,748.83,0.00014564,-8.2004,-0.0005432,-5183.8,0.033659
92,2.4706,4.5455,0,0.00064323,6427.9,0.00028062,829.23,0.00016913,-8.4969,-0.00062516,-5976.5,0.034799
93,2.4706,4.3636,0,0.00073,7295,0.00030425,758.85,0.00020065,-19.575,-0.0007143,-6894.2,0.035896
94,2.4706,4.1818,0,0.00081333,8127.7,0.00030726,457.88,0.00024377,-19.135,-0.00080482,-7897.9,0.036924
95,2.4706,4,0,0.00088792,8873,0.00030026,50.859,0.00028539,-60.839,-0.00088803,-8877.5,0.037861
96,2.4706,3.8182,0,0.00094814,9474.9,0.00032951,-7.3924,0.00028375,-351.26,-0.00095377,-9649.5,0.038687
97,2.4706,3.6364,0,0.00098977,9890.9,0.00035162,9.6492,0.00028449,-494.68,-0.00099706,-10124,0.039385
98,2.4706,3.4545,0,0.0010065,10058,0.00035823,2.237,0.00028737,-530.24,-0.0010144,-10311,0.03993
99,2.4706,3.2727,0,0.00101,10093,0.00035975,1.6855,0.00028786,-538.46,-0.001018,-10350,0.040303
100,2.4706,3.0909,0,0.0010095,10088,0.0003596,0.86585,0.00028758,-540.26,-0.0010176,-10347,0.040492
101,2.4706,2.9091,0,0.0010095,10088,0.0003596,0.86585,0.00028758,-540.26,-0.0010176,-10347,0.040492
102,2.4706,2.7273,0,0.00101,10093,0.00035975,1.6855,0.00028786,-538.46,-0.001018,-10350,0.040303
103,2.4706,2.5455,0,0.0010065,10058,0.00035823,2.237,0.00028737,-530.24,-0.0010144,-10311,0.03993
104,2.4706,2.3636,0,0.00098977,9890.9,0.00035162,9.6492,0.00028449,-494.68,-0.00099706,-10124,0.039385
105,2.4706,2.1818,0,0.00094814,9474.9,0.00032951,-7.3924,0.00028375,-351.26,-0.00095377,-9649.5,0.038687
106,2.4706,2,0,0.00088792,8873,0.00030026,50.859,0.00028539,-60.84,-0.00088803,-8877.5,0.037861
107,2.4706,1.8182,0,0.00081333,8127.7,0.00030726,457.88,0.00024377,-19.135,-0.00080482,-7897.9,0.036924
108,2.4706,1.6364,0,0.00073,7295,0.00030425,758.85,0.00020065,-19.575,-0.0007143,-6894.2,0.035896
109,2.4706,1.4545,0,0.00064323,6427.9,0.00028062,829.23,0.00016913,-8.4969,-0.00062516,-5976.5,0.034799
110,2.4706,1.2727,0,0.00055966,5592.7,0.00024639,748.83,0.00014564,-8.2004,-0.0005432,-5183.8,0.033659
111,2.4706,1.0909,0,0.00048467,4843.4,0.00021008,607.06,0.00012825,-7.8109,-0.00047154,-4514.4,0.032496
112,2.4706,0.90909,0,0.00041845,4181.6,0.00017536,448.62,0.00011456,-8.2373,-0.00040908,-3942.7,0.031321
113,2.4706,0.72727,0,0.00036109,3608.4,0.00014449,301.09,0.00010306,-10.223,-0.00035513,-3452.9,0.030141
114,2.4706,0.54545,0,0.00031346,3132.4,0.00011951,185.83,9.289e-05,-14.216,-0.00031006,-3041.8,0.028953
115,2.4706,0.36364,0,0.00027828,2780.9,0.00010316,126.39,8.4033e-05,-17.323,-0.00027615,-2723.6,0.027753
116,2.4706,0.18182,0,0.00026236,2621.8,0.00010041,159.22,7.7422e-05,-13.521,-0.00025945,-2544.7,0.02653
117,2.2941,5.8182,0,0.00032311,3228.9,0.00012077,165.84,9.7622e-05,-8.0604,-0.00032007,-3146.5,0.022945
118,2.2941,5.6364,0,0.00033296,3327.3,0.00011967,110.26,0.00010328,-12.867,-0.00033113,-3276.9,0.024085
119,2.2941,5.4545,0,0.00035782,3575.8,0.00012841,115.07,0.00011102,-15.575,-0.00035595,-3524.2,0.025183
120,2.2941,5.2727,0,0.00039328,3930.1,0.00014304,151.41,0.00012104,-13.885,-0.00039068,-3858.8,0.026245
121,2.2941,5.0909,0,0.00043742,4371.1,0.00016193,204.99,0.00013306,-11.908,-0.00043373,-4270.6,0.027278
122,2.2941,4.9091,0,0.00048874,4884,0.00018309,256.58,0.00014748,-10.985,-0.00048401,-4755.7,0.02828
123,2.2941,4.7273,0,0.00054583,5454.6,0.0002039,279.86,0.00016509,-11.694,-0.00054069,-5314.7,0.029249
124,2.2941,4.5455,0,0.0006067,6062.8,0.00022102,241.56,0.00018683,-15.348,-0.00060244,-5945.6,0.030176
125,2.2941,4.3636,0,0.00066837,6679.1,0.00023169,115.23,0.00021222,-31.058,-0.00066682,-6635.8,0.031048
126,2.2941,4.1818,0,0.00072687,7263.6,0.00025078,17.548,0.00022286,-192.21,-0.00072961,-7348.7,0.031851
127,2.2941,4,0,0.00078117,7806.3,0.0002821,9.3848,0.00021659,-482.84,-0.00078806,-8031.4,0.032574
128,2.2941,3.8182,0,0.00082909,8285.2,0.00030926,7.8102,0.00021201,-722.87,-0.00083883,-8618.5,0.033208
129,2.2941,3.6364,0,0.00086664,8660.4,0.00032754,2.3948,0.00021329,-856.04,-0.00087796,-9055.2,0.033741
130,2.2941,3.4545,0,0.00089169,8910.7,0.00033811,2.2819,0.00021741,-904.62,-0.00090357,-9327.2,0.034158
131,2.2941,3.2727,0,0.00090522,9045.9,0.0003431,1.771,0.00022092,-916.28,-0.00091727,-9468.2,0.034445
132,2.2941,3.0909,0,0.00091079,9101.6,0.00034498,1.3985,0.00022266,-917.65,-0.00092289,-9524.9,0.034592
133,2.2941,2.9091,0,0.00091079,9101.6,0.00034498,1.3985,0.00022266,-917.65,-0.00092289,-9524.9,0.034592
134,2.2941,2.7273,0,0.00090522,9045.9,0.0003431,1.771,0.00022092,-916.28,-0.00091727,-9468.2,0.034445
135,2.2941,2.5455,0,0.00089169,8910.7,0.00033811,2.2819,0.00021741,-904.62,-0.00090357,-9327.2,0.034158
136,2.2941,2.3636,0,0.00086664,8660.4,0.00032754,2.3948,0.00021329,-856.04,-0.00087796,-9055.2,0.033741
137,2.2941,2.1818,0,0.00082909,8285.2,0.00030926,7.8102,0.00021201,-722.87,-0.00083883,-8618.5,0.033208
138,2.2941,2,0,0.00078117,7806.3,0.0002821,9.3848,0.00021659,-482.84,-0.00078806,-8031.4,0.032574
139,2.2941,1.8182,0,0.00072687,7263.6,0.00025078,17.548,0.00022286,-192.21,-0.00072961,-7348.7,0.031851
140,2.2941,1.6364,0,0.00066837,6679.1,0.00023169,115.23,0.00021222,-31.058,-0.00066682,-6635.8,0.031048
141,2.2941,1.4545,0,0.0006067,6062.8,0.00022102,241.56,0.00018683,-15.348,-0.00060244,-5945.6,0.030176
142,2.2941,1.2727,0,0.00054583,5454.6,0.0002039,279.86,0.00016509,-11.694,-0.00054069,-5314.7,0.029249
143,2.2941,1.0909,0,0.00048874,4884,0.00018309,256.58,0.00014748,-10.985,-0.00048401,-4755.7,0.02828
144,2.2941,0.90909,0,0.00043741,4371.1,0.00016193,204.99,0.00013306,-11.908,-0.00043373,-4270.6,0.027278
145,2.2941,0.72727,0,0.00039328,3930.1,0.00014304,151.41,0.00012104,-13.885,-0.00039068,-3858.8,0.026245
146,2.2941,0.54545,0,0.00035782,3575.8,0.00012841,115.07,0.00011102,-15.575,-0.00035595,-3524.2,0.025183
147,2.2941,0.36364,0,0.00033296,3327.3,0.00011967,110.26,0.00010328,-12.867,-0.00033113,-3276.9,0.024085
148,2.2941,0.18182,0,0.00032311,3228.9,0.00012077,165.84,9.7622e-05,-8.0604,-0.00032007,-3146.5,0.022945
149,2.1176,5.8182,0,0.00037648,3762.2,0.00013819,164.71,0.0001155,-5.7641,-0.00037348,-3679.8,0.019534
150,2.1176,5.6364,0,0.00038248,3822.2,0.00013459,94.226,0.00012061,-10.805,-0.00038096,-3779.4,0.02059
151,2.1176,5.4545,0,0.00040013,3998.5,0.00013838,63.972,0.00012715,-20.423,-0.00039932,-3976.1,0.021588
152,2.1176,5.2727,0,0.00042598,4256.9,0.00014627,50.178,0.00013551,-30.644,-0.00042559,-4246.5,0.022533
153,2.1176,5.0909,0,0.00045879,4584.7,0.00015693,41.882,0.00014584,-41.449,-0.00045872,-4583.9,0.023431
154,2.1176,4.9091,0,0.0004972,4968.6,0.00016968,31.664,0.00015746,-60.133,-0.00049762,-4982.2,0.024283
155,2.1176,4.7273,0,0.00053968,5393.1,0.00018489,19.385,0.0001683,-105.25,-0.00054103,-5434.9,0.025088
156,2.1176,4.5455,0,0.00058437,5839.6,0.00020365,10.392,0.0001753,-202.63,-0.00058734,-5932.8,0.025842
157,2.1176,4.3636,0,0.00062915,6287.1,0.00022597,5.3983,0.00017641,-366.98,-0.00063447,-6459.7,0.026537
158,2.1176,4.1818,0,0.00067249,6720.2,0.00025058,3.2896,0.00017216,-585.88,-0.00068046,-6992.1,0.027168
159,2.1176,4,0,0.00071334,7128.5,0.00027487,1.6528,0.00016584,-817.55,-0.00072368,-7501,0.027729
160,2.1176,3.8182,0,0.00075063,7501.1,0.00029608,1.0051,0.00016165,-1009,-0.00076265,-7953.9,0.028216
161,2.1176,3.6364,0,0.00078224,7817,0.00031231,1.8145,0.00016144,-1131.7,-0.00079527,-8320.1,0.028622
162,2.1176,3.4545,0,0.00080593,8053.8,0.00032302,1.7564,0.00016394,-1193.5,-0.00081952,-8582.9,0.028938
163,2.1176,3.2727,0,0.00082109,8205.2,0.00032918,1.5202,0.00016684,-1218.2,-0.00083495,-8745.3,0.029155
164,2.1176,3.0909,0,0.00082831,8277.4,0.00033192,1.4443,0.00016858,-1225.8,-0.00084228,-8821,0.029266
165,2.1176,2.9091,0,0.00082831,8277.4,0.00033192,1.4443,0.00016858,-1225.8,-0.00084228,-8821,0.029266
166,2.1176,2.7273,0,0.00082109,8205.2,0.00032918,1.5202,0.00016684,-1218.2,-0.00083495,-8745.3,0.029155
167,2.1176,2.5455,0,0.00080593,8053.8,0.00032302,1.7564,0.00016394,-1193.5,-0.00081952,-8582.9,0.028938
168,2.1176,2.3636,0,0.00078224,7817,0.00031231,1.8145,0.00016144,-1131.7,-0.00079527,-8320.1,0.028622
169,2.1176,2.1818,0,0.00075063,7501.1,0.00029608,1.0051,0.00016165,-1009,-0.00076265,-7953.9,0.028216
170,2.1176,2,0,0.00071334,7128.5,0.00027487,1.6528,0.00016584,-817.55,-0.00072368,-7501,0.027729
171,2.1176,1.8182,0,0.00067249,6720.2,0.00025058,3.2896,0.00017216,-585.88,-0.00068046,-6992.1,0.027168
172,2.1176,1.6364,0,0.00062915,6287.1,0.00022597,5.3983,0.00017641,-366.98,-0.00063447,-6459.7,0.026537
173,2.1176,1.4545,0,0.00058437,5839.6,0.00020365,10.392,0.0001753,-202.63,-0.00058734,-5932.8,0.025842
174,2.1176,1.2727,0,0.00053968,5393.1,0.00018489,19.385,0.0001683,-105.25,-0.00054103,-5434.9,0.025088
175,2.1176,1.0909,0,0.0004972,4968.6,0.00016968,31.664,0.00015746,-60.133,-0.00049762,-4982.2,0.024283
176,2.1176,0.90909,0,0.00045879,4584.7,0.00015693,41.882,0.00014584,-41.449,-0.00045872,-4583.9,0.023431
177,2.1176,0.72727,0,0.00042598,4256.9,0.00014627,50.178,0.00013551,-30.644,-0.00042559,-4246.5,0.022533
178,2.1176,0.54545,0,0.00040013,3998.5,0.00013838,63.972,0.00012715,-20.423,-0.00039932,-3976.1,0.021588
179,2.1176,0.36364,0,0.00038248,3822.2,0.00013459,94.226,0.00012061,-10.805,-0.00038096,-3779.4,0.02059
180,2.1176,0.18182,0,0.00037648,3762.2,0.00013819,164.71,0.0001155,-5.7641,-0.00037348,-3679.8,0.019534
181,1.9412,5.8182,0,0.0004224,4221.1,0.00015272,157.67,0.00013111,-4.6586,-0.00041956,-4142.2,0.016334
182,1.9412,5.6364,0,0.00042523,4249.3,0.00014691,72.654,0.00013581,-10.758,-0.00042411,-4217.8,0.017305
183,1.9412,5.4545,0,0.00043726,4369.6,0.00014837,26.48,0.00013982,-37.746,-0.00043742,-4374.9,0.018205
184,1.9412,5.2727,0,0.00045548,4551.6,0.00015602,12.245,0.0001417,-95.375,-0.0004568,-4592.3,0.01904
185,1.9412,5.0909,0,0.00047908,4787.4,0.00016692,7.71,0.0001437,-166.75,-0.00048154,-4864.6,0.019817
186,1.9412,4.9091,0,0.00050706,5067.1,0.00018012,5.4085,0.00014581,-252.42,-0.00051076,-5185.6,0.020539
187,1.9412,4.7273,0,0.00053819,5378.2,0.00019552,3.9238,0.00014691,-361.3,-0.00054334,-5547.5,0.021205
188,1.9412,4.5455,0,0.0005711,5707.1,0.00021303,2.9397,0.0001458,-502.25,-0.00057791,-5939.9,0.021817
189,1.9412,4.3636,0,0.00060447,6040.5,0.00023227,2.3128,0.00014182,-677.25,-0.00061308,-6349.3,0.022371
190,1.9412,4.1818,0,0.00063726,6368.2,0.00025228,1.8444,0.00013561,-874.82,-0.00064756,-6759.2,0.022867
191,1.9412,4,0,0.00066868,6682.2,0.00027164,1.6523,0.00012908,-1069.5,-0.00068038,-7151.5,0.023302
192,1.9412,3.8182,0,0.00069779,6973,0.00028875,1.506,0.00012444,-1233,-0.00071048,-7506.3,0.023675
193,1.9412,3.6364,0,0.00072313,7226.3,0.00030241,1.2446,0.0001227,-1349,-0.00073652,-7804.9,0.023983
194,1.9412,3.4545,0,0.00074318,7426.7,0.00031224,1.2152,0.00012327,-1418.6,-0.00075703,-8032.9,0.024221
195,1.9412,3.2727,0,0.00075684,7563.2,0.0003184,1.2452,0.0001247,-1454.1,-0.00077097,-8183.8,0.024384
196,1.9412,3.0909,0,0.00076369,7631.6,0.00032132,1.2367,0.00012575,-1468.2,-0.00077795,-8258.3,0.024466
197,1.9412,2.9091,0,0.00076369,7631.6,0.00032132,1.2367,0.00012575,-1468.2,-0.00077795,-8258.3,0.024466
198,1.9412,2.7273,0,0.00075684,7563.2,0.0003184,1.2452,0.0001247,-1454.1,-0.00077097,-8183.8,0.024384
199,1.9412,2.5455,0,0.00074318,7426.7,0.00031224,1.2152,0.00012327,-1418.6,-0.00075703,-8032.9,0.024221
200,1.9412,2.3636,0,0.00072313,7226.3,0.00030241,1.2446,0.0001227,-1349,-0.00073652,-7804.9,0.023983
201,1.9412,2.1818,0,0.00069779,6973,0.00028875,1.506,0.00012444,-1233,-0.00071048,-7506.3,0.023675
202,1.9412,2,0,0.00066868,6682.2,0.00027164,1.6523,0.00012908,-1069.5,-0.00068038,-7151.5,0.023302
203,1.9412,1.8182,0,0.00063726,6368.2,0.00025228,1.8444,0.00013561,-874.82,-0.00064756,-6759.2,0.022867
204,1.9412,1.6364,0,0.00060447,6040.5,0.00023227,2.3128,0.00014182,-677.25,-0.00061308,-6349.3,0.022371
205,1.9412,1.4545,0,0.0005711,5707.1,0.00021303,2.9397,0.0001458,-502.25,-0.00057791,-5939.9,0.021817
206,1.9412,1.2727,0,0.00053819,5378.2,0.00019552,3.9238,0.00014691,-361.3,-0.00054334,-5547.5,0.021205
207,1.9412,1.0909,0,0.00050706,5067.1,0.00018012,5.4085,0.00014581,-252.42,-0.00051076,-5185.6,0.020539
208,1.9412,0.90909,0,0.00047908,4787.4,0.00016692,7.71,0.0001437,-166.75,-0.00048154,-4864.6,0.019817
209,1.9412,0.72727,0,0.00045548,4551.6,0.00015602,12.245,0.0001417,-95.375,-0.0004568,-4592.3,0.01904
210,1.9412,0.54545,0,0.00043726,4369.6,0.00014837,26.48,0.00013982,-37.746,-0.00043742,-4374.9,0.018205
211,1.9412,0.36364,0,0.00042523,4249.3,0.00014691,72.654,0.00013581,-10.758,-0.00042411,-4217.8,0.017305
212,1.9412,0.18182,0,0.0004224,4221.1,0.00015272,157.67,0.00013111,-4.6586,-0.00041956,-4142.2,0.016334
213,1.7647,5.8182,0,0.00046114,4608.2,0.00016462,147.09,0.00014447,-4.3192,-0.00045852,-4535,0.013374
214,1.7647,5.6364,0,0.00046091,4605.9,0.00015667,46.567,0.00014862,-13.964,-0.00046033,-4589.3,0.014259
215,1.7647,5.4545,0,0.00046824,4679.2,0.00015934,10.072,0.00014726,-80.699,-0.00046938,-4713.9,0.015065
216,1.7647,5.2727,0,0.00048029,4799.6,0.00016806,5.0259,0.00014256,-186.56,-0.00048309,-4887.5,0.015798
217,1.7647,5.0909,0,0.00049658,4962.4,0.00017899,3.3174,0.00013803,-304.47,-0.00050098,-5105.8,0.016465
218,1.7647,4.9091,0,0.00051646,5161.1,0.00019169,2.4283,0.00013357,-434.2,-0.00052242,-5363.1,0.017072
219,1.7647,4.7273,0,0.00053909,5387.2,0.00020596,1.8752,0.00012866,-578.92,-0.00054655,-5652.2,0.017621
220,1.7647,4.5455,0,0.00056349,5631,0.00022156,1.5094,0.00012275,-740.88,-0.00057238,-5963.9,0.018115
221,1.7647,4.3636,0,0.00058872,5883.1,0.00023805,1.2481,0.00011575,-917.7,-0.0005989,-6287.3,0.018555
222,1.7647,4.1818,0,0.00061396,6135.3,0.00025471,1.0539,0.00010819,-1099.9,-0.00062519,-6610.2,0.018942
223,1.7647,4,0,0.00063846,6380.2,0.00027059,0.888,0.00010122,-1271.7,-0.00065048,-6919.7,0.019277
224,1.7647,3.8182,0,0.00066138,6609.2,0.00028471,0.81431,9.6013e-05,-1417,-0.00067396,-7202.3,0.019561
225,1.7647,3.6364,0,0.00068161,6811.4,0.00029631,0.8582,9.3099e-05,-1526,-0.00069459,-7444.4,0.019793
226,1.7647,3.4545,0,0.00069794,6974.6,0.00030498,0.90912,9.2148e-05,-1598.2,-0.00071122,-7634.4,0.01997
227,1.7647,3.2727,0,0.00070937,7088.8,0.00031064,0.94966,9.2282e-05,-1639.7,-0.00072285,-7764.3,0.020091
228,1.7647,3.0909,0,0.00071522,7147.3,0.00031342,0.97491,9.261e-05,-1658.1,-0.00072881,-7829.9,0.020152
229,1.7647,2.9091,0,0.00071522,7147.3,0.00031342,0.97491,9.261e-05,-1658.1,-0.00072881,-7829.9,0.020152
230,1.7647,2.7273,0,0.00070937,7088.8,0.00031064,0.94966,9.2282e-05,-1639.7,-0.00072285,-7764.3,0.020091
231,1.7647,2.5455,0,0.00069794,6974.6,0.00030498,0.90912,9.2148e-05,-1598.2,-0.00071122,-7634.4,0.01997
232,1.7647,2.3636,0,0.00068161,6811.4,0.00029631,0.8582,9.3099e-05,-1526,-0.00069459,-7444.4,0.019793
233,1.7647,2.1818,0,0.00066138,6609.2,0.00028471,0.81431,9.6013e-05,-1417,-0.00067396,-7202.3,0.019561
234,1.7647,2,0,0.00063846,6380.2,0.00027059,0.888,0.00010122,-1271.7,-0.00065048,-6919.7,0.019277
235,1.7647,1.8182,0,0.00061396,6135.3,0.00025471,1.0539,0.00010819,-1099.9,-0.00062519,-6610.2,0.018942
236,1.7647,1.6364,0,0.00058872,5883.1,0.00023805,1.2481,0.00011575,-917.7,-0.0005989,-6287.2,0.018555
237,1.7647,1.4545,0,0.00056349,5631,0.00022156,1.5094,0.00012275,-740.88,-0.00057238,-5963.9,0.018115
238,1.7647,1.2727,0,0.00053909,5387.2,0.00020596,1.8752,0.00012866,-578.92,-0.00054655,-5652.2,0.017621
239,1.7647,1.0909,0,0.00051646,5161.1,0.00019169,2.4283,0.00013357,-434.2,-0.00052242,-5363.1,0.017072
240,1.7647,0.90909,0,0.00049658,4962.4,0.00017899,3.3174,0.00013803,-304.47,-0.00050098,-5105.8,0.016465
241,1.7647,0.72727,0,0.00048029,4799.6,0.00016806,5.0259,0.00014256,-186.56,-0.00048309,-4887.5,0.015798
242,1.7647,0.54545,0,0.00046824,4679.2,0.00015934,10.072,0.00014726,-80.699,-0.00046938,-4713.9,0.015065
243,1.7647,0.36364,0,0.00046091,4605.9,0.00015667,46.567,0.00014862,-13.964,-0.00046033,-4589.3,0.014259
244,1.7647,0.18182,0,0.00046114,4608.2,0.00016462,147.09,0.00014447,-4.3192,-0.00045852,-4535,0.013374
245,1.5882,5.8182,0,0.0004931,4927.6,0.0001742,135.32,0.0001556,-4.4666,-0.00049072,-4860.6,0.01068
246,1.5882,5.6364,0,0.00048977,4894.3,0.0001648,22.789,0.00015834,-25.749,-0.0004898,-4895.6,0.011479
247,1.5882,5.4545,0,0.000493,4926.6,0.00017005,5.0171,0.00015059,-141.16,-0.00049516,-4993.1,0.012192
248,1.5882,5.2727,0,0.00050004,4996.9,0.00017913,2.8441,0.00014091,-284.31,-0.00050421,-5131.5,0.012828
249,1.5882,5.0909,0,0.00051065,5103,0.00018992,1.9567,0.00013132,-438.3,-0.00051665,-5306.9,0.013395
250,1.5882,4.9091,0,0.00052449,5241.3,0.00020207,1.4812,0.00012202,-599.99,-0.00053207,-5514.6,0.0139
251,1.5882,4.7273,0,0.00054097,5405.9,0.00021531,1.1895,0.0001129,-768.27,-0.00054989,-5748.2,0.014348
252,1.5882,4.5455,0,0.00055935,5589.6,0.00022934,1.0028,0.00010386,-941.82,-0.00056935,-6000.1,0.014743
253,1.5882,4.3636,0,0.00057886,5784.6,0.00024374,0.87414,9.4945e-05,-1117.1,-0.00058968,-6261.1,0.015088
254,1.5882,4.1818,0,0.00059874,5983.3,0.00025794,0.77699,8.6535e-05,-1287.1,-0.00061013,-6521.6,0.015388
255,1.5882,4,0,0.00061826,6178.3,0.00027132,0.71114,7.9248e-05,-1442.4,-0.00063,-6771.5,0.015643
256,1.5882,3.8182,0,0.0006366,6361.6,0.0002832,0.67489,7.3672e-05,-1573.7,-0.00064857,-7000.3,0.015857
257,1.5882,3.6364,0,0.00065286,6524.1,0.00029307,0.67011,7.0048e-05,-1675.1,-0.00066499,-7197.8,0.016029
258,1.5882,3.4545,0,0.00066608,6656.2,0.0003006,0.70234,6.8141e-05,-1745.9,-0.00067834,-7354.7,0.01616
259,1.5882,3.2727,0,0.00067541,6749.5,0.00030562,0.74346,6.7389e-05,-1789.2,-0.00068778,-7463.3,0.016248
260,1.5882,3.0909,0,0.00068024,6797.7,0.00030812,0.76907,6.7197e-05,-1809.4,-0.00069267,-7518.8,0.016292
261,1.5882,2.9091,0,0.00068024,6797.7,0.00030812,0.76907,6.7197e-05,-1809.4,-0.00069267,-7518.8,0.016292
262,1.5882,2.7273,0,0.00067541,6749.5,0.00030562,0.74346,6.7389e-05,-1789.2,-0.00068778,-7463.3,0.016248
263,1.5882,2.5455,0,0.00066608,6656.2,0.0003006,0.70234,6.8141e-05,-1745.9,-0.00067834,-7354.7,0.01616
264,1.5882,2.3636,0,0.00065286,6524.1,0.00029307,0.67011,7.0048e-05,-1675.1,-0.00066499,-7197.8,0.016029
265,1.5882,2.1818,0,0.0006366,6361.6,0.0002832,0.67488,7.3672e-05,-1573.7,-0.00064857,-7000.3,0.015857
266,1.5882,2,0,0.00061826,6178.3,0.00027132,0.71114,7.9248e-05,-1442.4,-0.00063,-6771.5,0.015643
267,1.5882,1.8182,0,0.00059874,5983.3,0.00025794,0.77699,8.6535e-05,-1287.1,-0.00061013,-6521.6,0.015388
268,1.5882,1.6364,0,0.00057886,5784.6,0.00024374,0.87414,9.4945e-05,-1117.1,-0.00058968,-6261.1,0.015088
269,1.5882,1.4545,0,0.00055935,5589.6,0.00022934,1.0028,0.00010386,-941.82,-0.00056935,-6000.1,0.014743
270,1.5882,1.2727,0,0.00054097,5405.9,0.00021531,1.1895,0.0001129,-768.27,-0.00054989,-5748.2,0.014348
271,1.5882,1.0909,0,0.00052449,5241.3,0.00020207,1.4812,0.00012202,-599.99,-0.00053207,-5514.6,0.0139
272,1.5882,0.90909,0,0.00051065,5103,0.00018992,1.9567,0.00013132,-438.3,-0.00051665,-5306.9,0.013395
273,1.5882,0.72727,0,0.00050004,4996.9,0.00017913,2.8441,0.00014091,-284.31,-0.00050421,-5131.5,0.012828
274,1.5882,0.54545,0,0.000493,4926.6,0.00017005,5.0171,0.00015059,-141.16,-0.00049516,-4993.1,0.012192
275,1.5882,0.36364,0,0.00048977,4894.3,0.0001648,22.789,0.00015834,-25.749,-0.0004898,-4895.6,0.011479
276,1.5882,0.18182,0,0.0004931,4927.6,0.0001742,135.32,0.0001556,-4.4666,-0.00049072,-4860.6,0.01068
277,1.4118,5.8182,0,0.00051861,5182.6,0.00018174,124.28,0.00016452,-5.0622,-0.00051647,-5121.7,0.0082713
278,1.4118,5.6364,0,0.00051211,5117.6,0.00017256,10.597,0.00016393,-54.246,-0.00051283,-5139.1,0.0089829
279,1.4118,5.4545,0,0.00051172,5113.7,0.00017951,3.0548,0.00015089,-211.98,-0.00051494,-5214.8,0.0096058
280,1.4118,5.2727,0,0.00051474,5143.8,0.00018892,1.8423,0.00013689,-389.1,-0.00052021,-5326.3,0.01015
281,1.4118,5.0909,0,0.00052113,5207.7,0.00019971,1.2715,0.00012318,-573.79,-0.00052848,-5470.1,0.010624
282,1.4118,4.9091,0,0.00053072,5303.6,0.0002115,0.96388,0.00011024,-759.93,-0.00053952,-5642,0.011037
283,1.4118,4.7273,0,0.00054305,5426.7,0.00022397,0.77427,9.8259e-05,-943.78,-0.00055289,-5836.2,0.011396
284,1.4118,4.5455,0,0.00055743,5570.5,0.00023679,0.65281,8.7282e-05,-1122.7,-0.00056795,-6045.9,0.011707
285,1.4118,4.3636,0,0.00057312,5727.3,0.0002496,0.56666,7.7349e-05,-1293.7,-0.00058404,-6263.1,0.011974
286,1.4118,4.1818,0,0.00058935,5889.5,0.00026198,0.50088,6.8616e-05,-1452.4,-0.00060044,-6479.4,0.012201
287,1.4118,4,0,0.00060537,6049.6,0.00027347,0.45317,6.1336e-05,-1593.4,-0.0006165,-6686.5,0.012392
288,1.4118,3.8182,0,0.00062043,6200,0.00028363,0.43137,5.5733e-05,-1711.9,-0.00063154,-6875.8,0.01255
289,1.4118,3.6364,0,0.00063375,6333.2,0.0002921,0.438,5.1851e-05,-1804.7,-0.00064484,-7039.3,0.012675
290,1.4118,3.4545,0,0.00064458,6441.3,0.0002986,0.46203,4.9484e-05,-1871.3,-0.00065566,-7169.5,0.01277
291,1.4118,3.2727,0,0.00065222,6517.7,0.00030298,0.49002,4.8253e-05,-1913.4,-0.00066332,-7259.9,0.012833
292,1.4118,3.0909,0,0.00065618,6557.3,0.00030518,0.50829,4.7761e-05,-1933.6,-0.0006673,-7306.3,0.012864
293,1.4118,2.9091,0,0.00065618,6557.3,0.00030518,0.50829,4.7761e-05,-1933.6,-0.0006673,-7306.3,0.012864
294,1.4118,2.7273,0,0.00065222,6517.7,0.00030298,0.49002,4.8253e-05,-1913.4,-0.00066332,-7259.9,0.012833
295,1.4118,2.5455,0,0.00064458,6441.3,0.0002986,0.46203,4.9484e-05,-1871.3,-0.00065566,-7169.5,0.01277
296,1.4118,2.3636,0,0.00063375,6333.2,0.0002921,0.438,5.1851e-05,-1804.7,-0.00064484,-7039.3,0.012675
297,1.4118,2.1818,0,0.00062043,6200,0.00028363,0.43137,5.5733e-05,-1711.9,-0.00063154,-6875.8,0.01255
298,1.4118,2,0,0.00060537,6049.6,0.00027347,0.45317,6.1336e-05,-1593.4,-0.0006165,-6686.5,0.012392
299,1.4118,1.8182,0,0.00058935,5889.5,0.00026198,0.50088,6.8616e-05,-1452.4,-0.00060044,-6479.4,0.012201
300,1.4118,1.6364,0,0.00057312,5727.3,0.0002496,0.56666,7.7349e-05,-1293.7,-0.00058404,-6263.1,0.011974
301,1.4118,1.4545,0,0.00055743,5570.5,0.00023679,0.65281,8.7282e-05,-1122.7,-0.00056795,-6045.9,0.011707
302,1.4118,1.2727,0,0.00054305,5426.7,0.00022397,0.77427,9.8259e-05,-943.78,-0.00055289,-5836.2,0.011396
303,1.4118,1.0909,0,0.00053072,5303.6,0.0002115,0.96388,0.00011024,-759.93,-0.00053952,-5641.9,0.011037
304,1.4118,0.90909,0,0.00052113,5207.7,0.00019971,1.2715,0.00012318,-573.79,-0.00052848,-5470.1,0.010624
305,1.4118,0.72727,0,0.00051474,5143.8,0.00018892,1.8423,0.00013689,-389.1,-0.00052021,-5326.3,0.01015
306,1.4118,0.54545,0,0.00051172,5113.7,0.00017951,3.0548,0.00015089,-211.98,-0.00051494,-5214.8,0.0096058
307,1.4118,0.36364,0,0.00051211,5117.6,0.00017256,10.597,0.00016393,-54.246,-0.00051283,-5139.1,0.0089829
308,1.4118,0.18182,0,0.00051861,5182.6,0.00018174,124.28,0.00016452,-5.0622,-0.00051647,-5121.7,0.0082713
309,1.2353,5.8182,0,0.00053786,5374.9,0.00018741,115.56,0.00017124,-5.9516,-0.00053589,-5319,0.0061649
310,1.2353,5.6364,0,0.0005281,5277.4,0.00017952,6.5948,0.00016596,-95.341,-0.00052954,-5321,0.0067873
311,1.2353,5.4545,0,0.00052456,5241.9,0.0001876,2.4384,0.00014832,-292.75,-0.00052887,-5380.9,0.0073201
312,1.2353,5.2727,0,0.00052452,5241.6,0.0001976,1.6573,0.00013027,-504.29,-0.00053123,-5474.5,0.0077748
313,1.2353,5.0909,0,0.0005281,5277.4,0.00020868,1.2527,0.00011309,-717,-0.0005366,-5598.5,0.0081623
314,1.2353,4.9091,0,0.00053515,5347.8,0.00022038,1.0422,9.7496e-05,-922.29,-0.0005448,-5748.3,0.0084923
315,1.2353,4.7273,0,0.00054511,5447.3,0.00023236,0.91335,8.3769e-05,-1115.6,-0.00055541,-5918.1,0.0087729
316,1.2353,4.5455,0,0.00055721,5568.3,0.00024431,0.83137,7.1889e-05,-1294.7,-0.0005678,-6101,0.0090109
317,1.2353,4.3636,0,0.00057063,5702.4,0.00025592,0.77275,6.1745e-05,-1458.2,-0.00058124,-6289.4,0.0092117
318,1.2353,4.1818,0,0.00058457,5841.6,0.00026691,0.7282,5.3252e-05,-1604.6,-0.00059506,-6475.7,0.0093799
319,1.2353,4,0,0.00059827,5978.6,0.00027695,0.69655,4.6384e-05,-1731.7,-0.00060857,-6652.7,0.0095191
320,1.2353,3.8182,0,0.00061105,6106.3,0.00028574,0.67998,4.1119e-05,-1837.3,-0.00062117,-6813.5,0.0096321
321,1.2353,3.6364,0,0.00062227,6218.4,0.00029304,0.67952,3.7371e-05,-1920.3,-0.00063224,-6951.6,0.0097209
322,1.2353,3.4545,0,0.00063132,6308.9,0.00029865,0.69188,3.4941e-05,-1980.7,-0.0006412,-7061,0.0097869
323,1.2353,3.2727,0,0.00063768,6372.4,0.00030245,0.70831,3.3554e-05,-2019.7,-0.00064752,-7137,0.0098306
324,1.2353,3.0909,0,0.00064097,6405.3,0.00030436,0.71939,3.2942e-05,-2038.6,-0.00065079,-7175.9,0.0098524
325,1.2353,2.9091,0,0.00064097,6405.3,0.00030436,0.71939,3.2942e-05,-2038.6,-0.00065079,-7175.9,0.0098524
326,1.2353,2.7273,0,0.00063768,6372.4,0.00030245,0.70831,3.3554e-05,-2019.7,-0.00064752,-7137,0.0098306
327,1.2353,2.5455,0,0.00063132,6308.9,0.00029865,0.69188,3.4941e-05,-1980.7,-0.0006412,-7061,0.0097869
328,1.2353,2.3636,0,0.00062227,6218.4,0.00029304,0.67952,3.7371e-05,-1920.3,-0.00063224,-6951.6,0.0097209
329,1.2353,2.1818,0,0.00061105,6106.3,0.00028574,0.67998,4.1119e-05,-1837.3,-0.00062117,-6813.5,0.0096321
330,1.2353,2,0,0.00059827,5978.6,0.00027695,0.69655,4.6384e-05,-1731.7,-0.00060857,-6652.7,0.0095191
331,1.2353,1.8182,0,0.00058457,5841.6,0.00026691,0.7282,5.3252e-05,-1604.6,-0.00059506,-6475.7,0.0093799
332,1.2353,1.6364,0,0.00057063,5702.4,0.00025592,0.77275,6.1745e-05,-1458.2,-0.00058124,-6289.4,0.0092117
333,1.2353,1.4545,0,0.00055721,5568.3,0.00024431,0.83137,7.1889e-05,-1294.7,-0.0005678,-6101,0.0090109
334,1.2353,1.2727,0,0.00054511,5447.3,0.00023236,0.91335,8.3769e-05,-1115.6,-0.00055541,-5918.1,0.0087729
335,1.2353,1.0909,0,0.00053515,5347.8,0.00022038,1.0422,9.7496e-05,-922.29,-0.0005448,-5748.3,0.0084923
336,1.2353,0.90909,0,0.0005281,5277.4,0.00020868,1.2527,0.00011309,-717,-0.0005366,-5598.5,0.0081623
337,1.2353,0.72727,0,0.00052452,5241.6,0.0001976,1.6573,0.00013027,-504.29,-0.00053123,-5474.5,0.0077748
338,1.2353,0.54545,0,0.00052456,5241.9,0.0001876,2.4384,0.00014832,-292.75,-0.00052887,-5380.9,0.0073201
339,1.2353,0.36364,0,0.0005281,5277.4,0.00017952,6.5948,0.00016596,-95.341,-0.00052954,-5321,0.0067873
340,1.2353,0.18182,0,0.00053786,5374.9,0.00018741,115.56,0.00017124,-5.9516,-0.00053589,-5319,0.0061649
341,1.0588,5.8182,0,0.00055058,5502,0.00019124,110.04,0.00017557,-7.7026,-0.00054874,-5449.9,0.0043716
342,1.0588,5.6364,0,0.00053747,5370.9,0.00018487,4.341,0.00016495,-145.34,-0.00053971,-5439.9,0.0049021
343,1.0588,5.4545,0,0.0005313,5309.3,0.00019425,1.0746,0.00014256,-387.29,-0.0005368,-5491.8,0.0053446
344,1.0588,5.2727,0,0.00052933,5289.6,0.00020527,0.35879,0.00012056,-636.08,-0.00053726,-5578.7,0.0057125
345,1.0588,5.0909,0,0.00053166,5312.9,0.000217,-0.051661,0.00010053,-875.12,-0.00054111,-5696.2,0.0060181
346,1.0588,4.9091,0,0.00053789,5375.2,0.00022892,-0.27137,8.3271e-05,-1094.7,-0.00054809,-5838.5,0.0062721
347,1.0588,4.7273,0,0.00054718,5468,0.00024068,-0.41241,6.8879e-05,-1291.3,-0.00055759,-5998.4,0.0064834
348,1.0588,4.5455,0,0.00055851,5581.3,0.00025202,-0.50731,5.7084e-05,-1465.2,-0.00056883,-6168,0.0066588
349,1.0588,4.3636,0,0.00057094,5705.4,0.00026273,-0.57759,4.7508e-05,-1617.6,-0.000581,-6340,0.0068041
350,1.0588,4.1818,0,0.00058363,5832.3,0.00027261,-0.63136,3.9815e-05,-1749.7,-0.00059338,-6507.3,0.0069235
351,1.0588,4,0,0.00059589,5954.8,0.00028148,-0.67091,3.376e-05,-1861.9,-0.00060533,-6663.8,0.0070208
352,1.0588,3.8182,0,0.00060714,6067.2,0.00028915,-0.69574,2.9165e-05,-1954.1,-0.00061632,-6804,0.0070985
353,1.0588,3.6364,0,0.00061687,6164.4,0.00029547,-0.70638,2.5859e-05,-2026.4,-0.00062585,-6923.1,0.0071588
354,1.0588,3.4545,0,0.00062462,6241.9,0.00030031,-0.70629,2.3655e-05,-2079.4,-0.00063346,-7016.7,0.007203
355,1.0588,3.2727,0,0.00063002,6295.9,0.00030358,-0.70109,2.2344e-05,-2113.8,-0.00063879,-7081.3,0.0072321
356,1.0588,3.0909,0,0.0006328,6323.6,0.00030522,-0.69662,2.1743e-05,-2130.6,-0.00064153,-7114.2,0.0072466
357,1.0588,2.9091,0,0.0006328,6323.6,0.00030522,-0.69662,2.1743e-05,-2130.6,-0.00064153,-7114.2,0.0072466
358,1.0588,2.7273,0,0.00063002,6295.9,0.00030358,-0.70109,2.2344e-05,-2113.8,-0.00063879,-7081.3,0.0072321
359,1.0588,2.5455,0,0.00062462,6241.9,0.00030031,-0.70629,2.3655e-05,-2079.4,-0.00063346,-7016.7,0.007203
360,1.0588,2.3636,0,0.00061687,6164.4,0.00029547,-0.70638,2.5859e-05,-2026.4,-0.00062585,-6923.1,0.0071588
361,1.0588,2.1818,0,0.00060714,6067.2,0.00028915,-0.69574,2.9164e-05,-1954.1,-0.00061632,-6804,0.0070985
362,1.0588,2,0,0.00059589,5954.8,0.00028148,-0.67091,3.376e-05,-1861.9,-0.00060533,-6663.8,0.0070208
363,1.0588,1.8182,0,0.00058363,5832.2,0.00027261,-0.63136,3.9815e-05,-1749.7,-0.00059338,-6507.3,0.0069235
364,1.0588,1.6364,0,0.00057094,5705.4,0.00026273,-0.57759,4.7508e-05,-1617.6,-0.000581,-6340,0.0068041
365,1.0588,1.4545,0,0.00055851,5581.3,0.00025202,-0.50731,5.7084e-05,-1465.2,-0.00056883,-6168,0.0066588
366,1.0588,1.2727,0,0.00054718,5468,0.00024068,-0.41241,6.8878e-05,-1291.3,-0.00055759,-5998.4,0.0064834
367,1.0588,1.0909,0,0.00053789,5375.2,0.00022892,-0.27137,8.3271e-05,-1094.7,-0.00054809,-5838.5,0.0062721
368,1.0588,0.90909,0,0.00053166,5312.9,0.000217,-0.051661,0.00010053,-875.12,-0.00054111,-5696.2,0.0060181
369,1.0588,0.72727,0,0.00052933,5289.6,0.00020527,0.35879,0.00012056,-636.08,-0.00053726,-5578.7,0.0057125
370,1.0588,0.54545,0,0.0005313,5309.3,0.00019425,1.0746,0.00014256,-387.29,-0.0005368,-5491.8,0.0053446
371,1.0588,0.36364,0,0.00053747,5370.9,0.00018487,4.341,0.00016495,-145.34,-0.00053971,-5439.9,0.0049021
372,1.0588,0.18182,0,0.00055058,5502,0.00019124,110.04,0.00017557,-7.7026,-0.00054874,-5449.9,0.0043716
373,0.88235,5.8182,0,0.00055599,5556.1,0.00019298,109.22,0.00017735,-8.2345,-0.00055418,-5504.7,0.0028977
374,0.88235,5.6364,0,0.00053962,5392.5,0.00018867,6.6405,0.00016053,-204.82,-0.00054268,-5488.5,0.0033331
375,0.88235,5.4545,0,0.00053178,5314.1,0.00020009,4.7207,0.00013281,-500.85,-0.00053841,-5544.1,0.0036847
376,0.88235,5.2727,0,0.00052955,5291.8,0.0002128,4.551,0.00010699,-790.42,-0.00053842,-5639.8,0.0039679
377,0.88235,5.0909,0,0.00053268,5323.1,0.00022568,4.4646,8.4986e-05,-1052.7,-0.00054257,-5767.9,0.0041965
378,0.88235,4.9091,0,0.0005401,5397.3,0.00023816,4.4687,6.7269e-05,-1279.6,-0.0005502,-5919,0.0043816
379,0.88235,4.7273,0,0.00055039,5500.1,0.00024994,4.4813,5.3427e-05,-1472.1,-0.00056027,-6083.2,0.0045318
380,0.88235,4.5455,0,0.00056226,5618.7,0.00026087,4.4928,4.2728e-05,-1634.5,-0.00057175,-6251.5,0.004654
381,0.88235,4.3636,0,0.00057468,5742.9,0.00027085,4.4965,3.4458e-05,-1771.7,-0.00058375,-6416.6,0.004753
382,0.88235,4.1818,0,0.00058689,5864.9,0.00027982,4.4941,2.8065e-05,-1887.1,-0.00059556,-6572.7,0.004833
383,0.88235,4,0,0.00059831,5979,0.00028769,4.4891,2.3162e-05,-1983.1,-0.00060664,-6715.2,0.004897
384,0.88235,3.8182,0,0.00060852,6081,0.00029439,4.4854,1.9484e-05,-2061.1,-0.00061658,-6840.2,0.0049473
385,0.88235,3.6364,0,0.00061715,6167.2,0.00029985,4.4851,1.6834e-05,-2122,-0.00062501,-6944.6,0.0049857
386,0.88235,3.4545,0,0.00062391,6234.8,0.000304,4.4882,1.5043e-05,-2166.6,-0.00063165,-7025.6,0.0050136
387,0.88235,3.2727,0,0.00062857,6281.4,0.0003068,4.4927,1.3955e-05,-2195.8,-0.00063623,-7081,0.0050317
388,0.88235,3.0909,0,0.00063094,6305.1,0.0003082,4.4958,1.3447e-05,-2210.1,-0.00063857,-7109.1,0.0050407
389,0.88235,2.9091,0,0.00063094,6305.1,0.0003082,4.4958,1.3447e-05,-2210.1,-0.00063857,-7109.1,0.0050407
390,0.88235,2.7273,0,0.00062857,6281.4,0.0003068,4.4927,1.3955e-05,-2195.8,-0.00063623,-7081,0.0050317
391,0.88235,2.5455,0,0.00062391,6234.8,0.000304,4.4882,1.5043e-05,-2166.6,-0.00063165,-7025.6,0.0050136
392,0.88235,2.3636,0,0.00061715,6167.2,0.00029985,4.4851,1.6834e-05,-2122,-0.00062501,-6944.6,0.0049857
393,0.88235,2.1818,0,0.00060852,6081,0.00029439,4.4854,1.9484e-05,-2061.1,-0.00061658,-6840.2,0.0049473
394,0.88235,2,0,0.00059831,5979,0.00028769,4.4891,2.3162e-05,-1983.1,-0.00060664,-6715.2,0.004897
395,0.88235,1.8182,0,0.00058689,5864.9,0.00027982,4.4941,2.8065e-05,-1887.1,-0.00059556,-6572.7,0.004833
396,0.88235,1.6364,0,0.00057468,5742.9,0.00027085,4.4965,3.4458e-05,-1771.7,-0.00058375,-6416.6,0.004753
397,0.88235,1.4545,0,0.00056226,5618.7,0.00026087,4.4928,4.2727e-05,-1634.5,-0.00057175,-6251.5,0.004654
398,0.88235,1.2727,0,0.00055039,5500.1,0.00024994,4.4813,5.3427e-05,-1472.1,-0.00056027,-6083.2,0.0045318
399,0.88235,1.0909,0,0.0005401,5397.3,0.00023816,4.4687,6.7269e-05,-1279.6,-0.0005502,-5919,0.0043816
400,0.88235,0.90909,0,0.00053268,5323.1,0.00022568,4.4646,8.4986e-05,-1052.7,-0.00054257,-5767.9,0.0041965
401,0.88235,0.72727,0,0.00052955,5291.8,0.0002128,4.551,0.00010699,-790.42,-0.00053842,-5639.8,0.0039679
402,0.88235,0.54545,0,0.00053178,5314.1,0.00020009,4.7207,0.00013281,-500.85,-0.00053841,-5544.1,0.0036847
403,0.88235,0.36364,0,0.00053962,5392.5,0.00018867,6.6405,0.00016053,-204.82,-0.00054268,-5488.5,0.0033331
404,0.88235,0.18182,0,0.00055599,5556.1,0.00019298,109.22,0.00017735,-8.2345,-0.00055418,-5504.7,0.0028977
405,0.70588,5.8182,0,0.00055161,5512.3,0.00019197,109.8,0.00017521,-16.141,-0.00054991,-5464.4,0.0017441
406,0.70588,5.6364,0,0.00053176,5313.9,0.00018919,-4.8361,0.0001514,-288.78,-0.00053618,-5455,0.0020807
407,0.70588,5.4545,0,0.00052367,5233,0.00020344,-10.238,0.00011755,-655.62,-0.000532,-5536,0.0023412
408,0.70588,5.2727,0,0.00052378,5234.2,0.00021853,-12.163,8.8581e-05,-988.51,-0.00053392,-5665.8,0.002543
409,0.70588,5.0909,0,0.0005304,5300.3,0.00023294,-13.446,6.6162e-05,-1266.5,-0.00054094,-5828,0.0027004
410,0.70588,4.9091,0,0.00054113,5407.6,0.00024615,-14.27,4.9684e-05,-1490.4,-0.00055139,-6006.6,0.0028242
411,0.70588,4.7273,0,0.00055388,5535,0.00025801,-14.858,3.7782e-05,-1669.5,-0.00056365,-6188.5,0.0029223
412,0.70588,4.5455,0,0.0005672,5668.1,0.00026855,-15.285,2.915e-05,-1814,-0.00057648,-6364.5,0.0030002
413,0.70588,4.3636,0,0.00058018,5797.8,0.00027784,-15.601,2.28e-05,-1931.9,-0.00058903,-6528.9,0.003062
414,0.70588,4.1818,0,0.00059226,5918.5,0.00028593,-15.833,1.8065e-05,-2028.5,-0.00060077,-6678.2,0.003111
415,0.70588,4,0,0.00060309,6026.7,0.00029287,-16.001,1.4515e-05,-2107.5,-0.00061133,-6809.9,0.0031494
416,0.70588,3.8182,0,0.00061245,6120.2,0.00029867,-16.118,1.1883e-05,-2170.9,-0.00062049,-6922.3,0.0031791
417,0.70588,3.6364,0,0.00062015,6197.3,0.00030332,-16.196,9.9891e-06,-2220.2,-0.00062805,-7014.2,0.0032014
418,0.70588,3.4545,0,0.00062607,6256.4,0.00030683,-16.245,8.6992e-06,-2256.3,-0.00063388,-7084.3,0.0032174
419,0.70588,3.2727,0,0.00063009,6296.6,0.00030917,-16.272,7.9071e-06,-2279.8,-0.00063784,-7131.7,0.0032277
420,0.70588,3.0909,0,0.00063212,6316.9,0.00031034,-16.285,7.533e-06,-2291.4,-0.00063985,-7155.6,0.0032328
421,0.70588,2.9091,0,0.00063212,6316.9,0.00031034,-16.285,7.533e-06,-2291.4,-0.00063985,-7155.6,0.0032328
422,0.70588,2.7273,0,0.00063009,6296.6,0.00030917,-16.272,7.9071e-06,-2279.8,-0.00063784,-7131.7,0.0032277
423,0.70588,2.5455,0,0.00062607,6256.4,0.00030683,-16.245,8.6992e-06,-2256.3,-0.00063388,-7084.3,0.0032174
424,0.70588,2.3636,0,0.00062015,6197.3,0.00030332,-16.196,9.9891e-06,-2220.2,-0.00062805,-7014.2,0.0032014
425,0.70588,2.1818,0,0.00061245,6120.2,0.00029867,-16.118,1.1883e-05,-2170.9,-0.00062049,-6922.3,0.0031791
426,0.70588,2,0,0.00060309,6026.7,0.00029287,-16.001,1.4515e-05,-2107.5,-0.00061133,-6809.9,0.0031494
427,0.70588,1.8182,0,0.00059226,5918.5,0.00028593,-15.833,1.8065e-05,-2028.5,-0.00060077,-6678.2,0.003111
428,0.70588,1.6364,0,0.00058018,5797.8,0.00027784,-15.601,2.28e-05,-1931.9,-0.00058903,-6528.9,0.003062
429,0.70588,1.4545,0,0.0005672,5668.1,0.00026855,-15.285,2.915e-05,-1814,-0.00057648,-6364.5,0.0030002
430,0.70588,1.2727,0,0.00055388,5535,0.00025801,-14.858,3.7782e-05,-1669.5,-0.00056365,-6188.5,0.0029223
431,0.70588,1.0909,0,0.00054113,5407.6,0.00024615,-14.27,4.9683e-05,-1490.4,-0.00055139,-6006.6,0.0028242
432,0.70588,0.90909,0,0.0005304,5300.3,0.00023294,-13.446,6.6162e-05,-1266.5,-0.00054094,-5828,0.0027004
433,0.70588,0.72727,0,0.00052378,5234.2,0.00021853,-12.163,8.8581e-05,-988.51,-0.00053392,-5665.8,0.002543
434,0.70588,0.54545,0,0.00052367,5233,0.00020344,-10.238,0.00011755,-655.62,-0.000532,-5536,0.0023412
435,0.70588,0.36364,0,0.00053176,5313.9,0.00018919,-4.8361,0.0001514,-288.78,-0.00053618,-5455,0.0020807
436,0.70588,0.18182,0,0.00055161,5512.3,0.00019197,109.8,0.00017521,-16.141,-0.00054991,-5464.4,0.0017441
437,0.52941,5.8182,0,0.00053429,5339.2,0.0001865,122.28,0.00017023,0.036896,-0.0005321,-5277,0.00090459
438,0.52941,5.6364,0,0.00051429,5139.4,0.00019229,41.954,0.00013423,-394.29,-0.00051889,-5301.6,0.0011396
439,0.52941,5.4545,0,0.00051165,5112.9,0.00021284,50.222,9.399e-05,-842.81,-0.00051924,-5450.4,0.0013111
440,0.52941,5.2727,0,0.00052003,5196.7,0.00023207,54.74,6.4335e-05,-1205.6,-0.00052801,-5656.2,0.0014373
441,0.52941,5.0909,0,0.00053453,5341.7,0.0002489,57.916,4.4447e-05,-1478.3,-0.00054185,-5883.5,0.0015318
442,0.52941,4.9091,0,0.00055115,5507.7,0.00026324,60.197,3.1465e-05,-1681.3,-0.00055767,-6107.8,0.001604
443,0.52941,4.7273,0,0.00056765,5672.6,0.00027537,61.837,2.2898e-05,-1835.1,-0.00057349,-6316.2,0.0016596
444,0.52941,4.5455,0,0.00058299,5825.9,0.00028562,63.022,1.708e-05,-1954.7,-0.00058833,-6503.5,0.0017028
445,0.52941,4.3636,0,0.00059673,5963.2,0.00029428,63.872,1.2993e-05,-2049.6,-0.00060171,-6668.2,0.0017364
446,0.52941,4.1818,0,0.00060873,6083.1,0.00030156,64.473,1.0036e-05,-2125.9,-0.00061345,-6810.5,0.0017624
447,0.52941,4,0,0.00061898,6185.6,0.00030761,64.889,7.8596e-06,-2187.3,-0.00062351,-6931.2,0.0017824
448,0.52941,3.8182,0,0.00062749,6270.6,0.00031255,65.171,6.2579e-06,-2236.2,-0.00063189,-7030.9,0.0017975
449,0.52941,3.6364,0,0.00063429,6338.5,0.00031643,65.357,5.1052e-06,-2273.8,-0.00063859,-7110.3,0.0018087
450,0.52941,3.4545,0,0.00063939,6389.5,0.00031931,65.475,4.3162e-06,-2301.3,-0.00064363,-7169.7,0.0018166
451,0.52941,3.2727,0,0.00064279,6423.5,0.00032121,65.544,3.8279e-06,-2319.2,-0.000647,-7209.3,0.0018216
452,0.52941,3.0909,0,0.0006445,6440.5,0.00032216,65.576,3.5957e-06,-2328,-0.00064869,-7229,0.001824
453,0.52941,2.9091,0,0.0006445,6440.5,0.00032216,65.576,3.5957e-06,-2328,-0.00064869,-7229,0.001824
454,0.52941,2.7273,0,0.00064279,6423.5,0.00032121,65.544,3.8279e-06,-2319.2,-0.000647,-7209.3,0.0018216
455,0.52941,2.5455,0,0.00063939,6389.5,0.00031931,65.475,4.3161e-06,-2301.3,-0.00064363,-7169.7,0.0018166
456,0.52941,2.3636,0,0.00063429,6338.5,0.00031643,65.357,5.1052e-06,-2273.8,-0.00063859,-7110.3,0.0018087
457,0.52941,2.1818,0,0.00062749,6270.6,0.00031255,65.171,6.2579e-06,-2236.2,-0.00063189,-7030.9,0.0017975
458,0.52941,2,0,0.00061898,6185.6,0.00030761,64.889,7.8596e-06,-2187.3,-0.00062351,-6931.2,0.0017824
459,0.52941,1.8182,0,0.00060873,6083.1,0.00030156,64.473,1.0036e-05,-2125.9,-0.00061345,-6810.5,0.0017624
460,0.52941,1.6364,0,0.00059673,5963.2,0.00029428,63.872,1.2993e-05,-2049.6,-0.00060171,-6668.2,0.0017364
461,0.52941,1.4545,0,0.00058299,5825.9,0.00028562,63.022,1.708e-05,-1954.7,-0.00058833,-6503.5,0.0017028
462,0.52941,1.2727,0,0.00056765,5672.6,0.00027537,61.837,2.2898e-05,-1835.1,-0.00057349,-6316.2,0.0016596
463,0.52941,1.0909,0,0.00055115,5507.7,0.00026324,60.197,3.1465e-05,-1681.3,-0.00055767,-6107.8,0.001604
464,0.52941,0.90909,0,0.00053453,5341.7,0.0002489,57.916,4.4447e-05,-1478.3,-0.00054185,-5883.5,0.0015318
465,0.52941,0.72727,0,0.00052003,5196.7,0.00023207,54.74,6.4335e-05,-1205.6,-0.00052801,-5656.2,0.0014373
466,0.52941,0.54545,0,0.00051165,5112.9,0.00021284,50.222,9.399e-05,-842.81,-0.00051924,-5450.4,0.0013111
467,0.52941,0.36364,0,0.00051429,5139.4,0.00019229,41.954,0.00013423,-394.29,-0.00051889,-5301.6,0.0011396
468,0.52941,0.18182,0,0.00053429,5339.2,0.0001865,122.28,0.00017023,0.036896,-0.0005321,-5277,0.00090459
469,0.35294,5.8182,0,0.0004874,4870.7,0.00017252,87.281,0.00014891,-90.071,-0.00048721,-4869.7,0.00036239
470,0.35294,5.6364,0,0.00046493,4646.1,0.0001744,-140.09,0.00010319,-675.09,-0.00047648,-5030.5,0.00049669
471,0.35294,5.4545,0,0.00047404,4737.1,0.00019891,-185.18,6.0142e-05,-1227.8,-0.00048939,-5356.8,0.00058632
472,0.35294,5.2727,0,0.00049618,4958.4,0.00022046,-208.04,3.596e-05,-1594.3,-0.00051208,-5712,0.00064811
473,0.35294,5.0909,0,0.00052018,5198.2,0.00023781,-222.92,2.2663e-05,-1839.4,-0.00053605,-6037.3,0.0006924
474,0.35294,4.9091,0,0.0005422,5418.3,0.00025165,-233.25,1.5121e-05,-2010.4,-0.00055803,-6316.9,0.00072513
475,0.35294,4.7273,0,0.00056125,5608.6,0.00026279,-240.64,1.0575e-05,-2135.7,-0.00057711,-6551.3,0.00074974
476,0.35294,4.5455,0,0.00057733,5769.4,0.00027181,-246,7.6644e-06,-2230.7,-0.00059325,-6745.7,0.00076841
477,0.35294,4.3636,0,0.00059075,5903.4,0.00027915,-249.87,5.6941e-06,-2304.6,-0.00060673,-6906,0.0007826
478,0.35294,4.1818,0,0.00060181,6014,0.00028513,-252.64,4.2984e-06,-2362.7,-0.00061785,-7037.3,0.00079335
479,0.35294,4,0,0.00061082,6104,0.00028996,-254.59,3.2809e-06,-2408.6,-0.00062691,-7143.6,0.00080141
480,0.35294,3.8182,0,0.00061802,6176,0.0002938,-255.93,2.5337e-06,-2444.4,-0.00063414,-7228.1,0.00080736
481,0.35294,3.6364,0,0.00062359,6231.6,0.00029676,-256.82,1.9942e-06,-2471.6,-0.00063973,-7293.3,0.00081166
482,0.35294,3.4545,0,0.00062767,6272.3,0.00029893,-257.39,1.6229e-06,-2491.2,-0.00064383,-7340.9,0.00081462
483,0.35294,3.2727,0,0.00063034,6299.1,0.00030034,-257.73,1.3917e-06,-2503.9,-0.00064651,-7372,0.00081647
484,0.35294,3.0909,0,0.00063166,6312.3,0.00030104,-257.88,1.2813e-06,-2510.1,-0.00064784,-7387.4,0.00081736
485,0.35294,2.9091,0,0.00063166,6312.3,0.00030104,-257.88,1.2813e-06,-2510.1,-0.00064784,-7387.4,0.00081736
486,0.35294,2.7273,0,0.00063034,6299.1,0.00030034,-257.73,1.3917e-06,-2503.9,-0.00064651,-7372,0.00081647
487,0.35294,2.5455,0,0.00062767,6272.3,0.00029893,-257.39,1.6229e-06,-2491.2,-0.00064383,-7340.9,0.00081462
488,0.35294,2.3636,0,0.00062359,6231.6,0.00029676,-256.82,1.9942e-06,-2471.6,-0.00063973,-7293.3,0.00081166
489,0.35294,2.1818,0,0.00061802,6176,0.0002938,-255.93,2.5336e-06,-2444.4,-0.00063414,-7228.1,0.00080736
490,0.35294,2,0,0.00061082,6104,0.00028996,-254.59,3.2809e-06,-2408.6,-0.00062691,-7143.6,0.00080141
491,0.35294,1.8182,0,0.00060181,6014,0.00028513,-252.64,4.2984e-06,-2362.7,-0.00061785,-7037.3,0.00079335
492,0.35294,1.6364,0,0.00059075,5903.4,0.00027915,-249.87,5.6941e-06,-2304.6,-0.00060673,-6906,0.0007826
493,0.35294,1.4545,0,0.00057733,5769.4,0.00027181,-246,7.6644e-06,-2230.7,-0.00059325,-6745.7,0.00076841
494,0.35294,1.2727,0,0.00056125,5608.6,0.00026279,-240.64,1.0575e-05,-2135.7,-0.00057711,-6551.3,0.00074974
495,0.35294,1.0909,0,0.0005422,5418.3,0.00025165,-233.25,1.5121e-05,-2010.4,-0.00055803,-6316.9,0.00072513
496,0.35294,0.90909,0,0.00052018,5198.2,0.00023781,-222.92,2.2663e-05,-1839.4,-0.00053605,-6037.3,0.0006924
497,0.35294,0.72727,0,0.00049618,4958.4,0.00022046,-208.04,3.596e-05,-1594.3,-0.00051208,-5712,0.00064811
498,0.35294,0.54545,0,0.00047404,4737.1,0.00019891,-185.18,6.0142e-05,-1227.8,-0.00048939,-5356.8,0.00058632
499,0.35294,0.36364,0,0.00046493,4646.1,0.0001744,-140.09,0.00010319,-675.09,-0.00047648,-5030.5,0.00049669
500,0.35294,0.18182,0,0.0004874,4870.7,0.00017252,87.281,0.00014891,-90.071,-0.00048721,-4869.7,0.00036239
501,0.17647,5.8182,0,0.00039928,3990,0.00016054,327.14,0.00011201,-37.504,-0.0003931,-3832.7,8.4227e-05
502,0.17647,5.6364,0,0.00045453,4542.2,0.00023805,621.93,4.2106e-05,-850.34,-0.00044014,-4473.8,0.00013125
503,0.17647,5.4545,0,0.00052302,5226.6,0.00028841,750.57,1.8992e-05,-1273.7,-0.00050162,-5185.4,0.00015853
504,0.17647,5.2727,0,0.00057604,5756.5,0.00032271,834.73,9.6416e-06,-1517.6,-0.00055038,-5725.4,0.00017588
505,0.17647,5.0909,0,0.00061577,6153.5,0.00034668,888.65,5.6944e-06,-1673.4,-0.0005877,-6131.9,0.00018783
506,0.17647,4.9091,0,0.00064577,6453.2,0.00036428,927.22,3.664e-06,-1782.3,-0.00061611,-6439,0.00019642
507,0.17647,4.7273,0,0.00066866,6682,0.00037746,954.85,2.5205e-06,-1862.3,-0.00063794,-6674.4,0.00020272
508,0.17647,4.5455,0,0.00068627,6858,0.00038747,974.97,1.807e-06,-1922.8,-0.0006548,-6856.3,0.0002074
509,0.17647,4.3636,0,0.00069985,6993.6,0.00039512,989.5,1.3283e-06,-1969.3,-0.00066785,-6997.2,0.00021087
510,0.17647,4.1818,0,0.00071028,7097.9,0.00040094,999.88,9.8734e-07,-2005.2,-0.00067792,-7106.2,0.00021343
511,0.17647,4,0,0.00071824,7177.4,0.00040535,1007.2,7.3577e-07,-2033,-0.00068562,-7190,0.00021528
512,0.17647,3.8182,0,0.00072422,7237.2,0.00040864,1012.1,5.4826e-07,-2054.1,-0.00069143,-7253.4,0.00021661
513,0.17647,3.6364,0,0.0007286,7281,0.00041104,1015.4,4.1098e-07,-2069.9,-0.0006957,-7300.2,0.00021753
514,0.17647,3.4545,0,0.00073166,7311.6,0.0004127,1017.5,3.1536e-07,-2081,-0.0006987,-7333.1,0.00021815
515,0.17647,3.2727,0,0.0007336,7331,0.00041375,1018.7,2.5531e-07,-2088.1,-0.0007006,-7354.1,0.00021852
516,0.17647,3.0909,0,0.00073455,7340.4,0.00041426,1019.3,2.2647e-07,-2091.6,-0.00070152,-7364.3,0.0002187
517,0.17647,2.9091,0,0.00073455,7340.4,0.00041426,1019.3,2.2647e-07,-2091.6,-0.00070152,-7364.3,0.0002187
518,0.17647,2.7273,0,0.0007336,7331,0.00041375,1018.7,2.5531e-07,-2088.1,-0.0007006,-7354.1,0.00021852
519,0.17647,2.5455,0,0.00073166,7311.6,0.0004127,1017.5,3.1536e-07,-2081,-0.0006987,-7333.1,0.00021815
520,0.17647,2.3636,0,0.0007286,7281,0.00041104,1015.4,4.1098e-07,-2069.9,-0.0006957,-7300.2,0.00021753
521,0.17647,2.1818,0,0.00072422,7237.2,0.00040864,1012.1,5.4825e-07,-2054.1,-0.00069143,-7253.4,0.00021661
522,0.17647,2,0,0.00071824,7177.4,0.00040535,1007.2,7.3576e-07,-2033,-0.00068562,-7190,0.00021528
523,0.17647,1.8182,0,0.00071028,7097.9,0.00040094,999.88,9.8733e-07,-2005.2,-0.00067792,-7106.2,0.00021343
524,0.17647,1.6364,0,0.00069985,6993.6,0.00039512,989.5,1.3282e-06,-1969.3,-0.00066785,-6997.2,0.00021087
525,0.17647,1.4545,0,0.00068627,6858,0.00038747,974.97,1.807e-06,-1922.8,-0.0006548,-6856.3,0.0002074
526,0.17647,1.2727,0,0.00066866,6682,0.00037746,954.85,2.5205e-06,-1862.3,-0.00063794,-6674.4,0.00020272
527,0.17647,1.0909,0,0.00064577,6453.2,0.00036428,927.22,3.664e-06,-1782.3,-0.00061611,-6439,0.00019642
528,0.17647,0.90909,0,0.00061577,6153.5,0.00034668,888.65,5.6944e-06,-1673.4,-0.0005877,-6131.9,0.00018783
529,0.17647,0.72727,0,0.00057604,5756.5,0.00032271,834.73,9.6416e-06,-1517.6,-0.00055038,-5725.4,0.00017588
530,0.17647,0.54545,0,0.00052302,5226.6,0.00028841,750.57,1.8992e-05,-1273.7,-0.00050162,-5185.4,0.00015853
531,0.17647,0.36364,0,0.00045453,4542.2,0.00023805,621.93,4.2106e-05,-850.34,-0.00044014,-4473.8,0.00013125
532,0.17647,0.18182,0,0.00039928,3990,0.00016054,327.14,0.00011201,-37.504,-0.0003931,-3832.7,8.4227e-05
533,3.351,0.18182,0,0.00010322,1031.5,4.8334e-05,158.49,2.3328e-05,-29.394,-9.9728e-05,-953.99,0.057505
534,3.351,0.36364,0,0.00015058,1504.8,7.6763e-05,327.03,3.1321e-05,-14.403,-0.00014233,-1319.1,0.059305
535,3.351,0.54545,0,0.00021074,2105.9,0.00011759,594.8,3.697e-05,-10.978,-0.00019416,-1747.6,0.061118
536,3.351,0.72727,0,0.00027876,2785.7,0.00016504,914.89,4.1973e-05,-9.776,-0.0002516,-2215.5,0.06295
537,3.351,0.90909,0,0.00035665,3564,0.00021972,1287,4.7133e-05,-9.7561,-0.00031675,-2743.9,0.064804
538,3.351,1.0909,0,0.00044873,4484.2,0.00028419,1724.2,5.3064e-05,-12.351,-0.00039362,-3368.6,0.066682
539,3.351,1.2727,0,0.00056265,5622.6,0.00036293,2255,6.1453e-05,-10.259,-0.00048911,-4147,0.06858
540,3.351,1.4545,0,0.00071166,7111.7,0.00046351,2902.5,7.2741e-05,-33.651,-0.00061582,-5207.2,0.070491
541,3.351,1.6364,0,0.00092716,9265.2,0.00060425,3818.7,9.8221e-05,16.576,-0.00080139,-6742.8,0.072396
542,3.351,1.8182,0,0.0012467,12459,0.00075981,4298.3,0.00016125,-199.04,-0.0011145,-9784.5,0.074249
543,3.351,2,0,0.0015037,15026,0.00075663,2787.9,0.00028351,-766.88,-0.0014374,-13697,0.075968
544,3.351,2.1818,0,0.0014655,14645,0.00057046,1050.3,0.00043062,-0.4424,-0.0014448,-14092,0.077454
545,3.351,2.3636,0,0.0013825,13816,0.00052501,816.29,0.00041315,-24.191,-0.0013671,-13401,0.078647
546,3.351,2.5455,0,0.0012821,12813,0.00047492,627.67,0.00039208,5.2673,-0.0012702,-12485,0.079533
547,3.351,2.7273,0,0.0012228,12220,0.00044862,540.76,0.00037608,-4.3062,-0.0012128,-11942,0.080114
548,3.351,2.9091,0,0.0011945,11937,0.00043541,496.13,0.00036932,-0.49718,-0.0011853,-11681,0.080402
549,3.351,3.0909,0,0.0011945,11937,0.00043541,496.13,0.00036932,-0.49718,-0.0011853,-11681,0.080402
550,3.351,3.2727,0,0.0012228,12220,0.00044862,540.76,0.00037608,-4.3062,-0.0012128,-11942,0.080114
551,3.351,3.4545,0,0.0012821,12813,0.00047492,627.67,0.00039208,5.2672,-0.0012702,-12485,0.079533
552,3.351,3.6364,0,0.0013825,13816,0.00052501,816.29,0.00041315,-24.191,-0.0013671,-13401,0.078647
553,3.351,3.8182,0,0.0014655,14645,0.00057046,1050.3,0.00043062,-0.44242,-0.0014448,-14092,0.077454
554,3.351,4,0,0.0015037,15026,0.00075663,2787.9,0.00028351,-766.88,-0.0014374,-13697,0.075968
555,3.351,4.1818,0,0.0012467,12459,0.00075981,4298.3,0.00016125,-199.04,-0.0011145,-9784.5,0.074249
556,3.351,4.3636,0,0.00092716,9265.2,0.00060425,3818.7,9.8221e-05,16.576,-0.00080139,-6742.8,0.072396
557,3.351,4.5455,0,0.00071166,7111.7,0.00046351,2902.5,7.2741e-05,-33.651,-0.00061582,-5207.2,0.070491
558,3.351,4.7273,0,0.00056265,5622.6,0.00036293,2255,6.1453e-05,-10.259,-0.00048911,-4147,0.06858
559,3.351,4.9091,0,0.00044873,4484.2,0.00028419,1724.2,5.3064e-05,-12.351,-0.00039362,-3368.6,0.066682
560,3.351,5.0909,0,0.00035665,3564,0.00021972,1287,4.7133e-05,-9.7561,-0.00031675,-2743.9,0.064804
561,3.351,5.2727,0,0.00027876,2785.7,0.00016504,914.89,4.1973e-05,-9.776,-0.0002516,-2215.5,0.06295
562,3.351,5.4545,0,0.00021074,2105.9,0.00011759,594.8,3.697e-05,-10.978,-0.00019416,-1747.6,0.061118
563,3.351,5.6364,0,0.00015058,1504.8,7.6763e-05,327.03,3.1321e-05,-14.403,-0.00014233,-1319.1,0.059305
564,3.351,5.8182,0,0.00010322,1031.5,4.8334e-05,158.49,2.3328e-05,-29.394,-9.9728e-05,-953.99,0.057505
565,3.5354,0.18182,0,0.00015534,1552.4,6.1312e-05,116.56,4.4632e-05,-8.7633,-0.00015313,-1494.7,0.071234
566,3.5354,0.36364,0,0.00017992,1798,7.4673e-05,182.64,4.9606e-05,-5.704,-0.00017617,-1702.1,0.07298
567,3.5354,0.54545,0,0.00022223,2220.8,0.00010191,348.42,5.5125e-05,-3.0997,-0.00021426,-2027.1,0.074712
568,3.5354,0.72727,0,0.00027621,2760.2,0.00013748,571.39,6.1231e-05,-1.5427,-0.00026201,-2430.3,0.076434
569,3.5354,0.90909,0,0.00034076,3405.2,0.00017956,833.26,6.8534e-05,-0.97432,-0.00031884,-2911.6,0.078146
570,3.5354,1.0909,0,0.00041729,4170,0.00022797,1125.7,7.8083e-05,-0.49738,-0.00038657,-3491.7,0.079843
571,3.5354,1.2727,0,0.0005093,5089.5,0.00028343,1441.6,9.1439e-05,-0.95476,-0.00046921,-4213.5,0.081518
572,3.5354,1.4545,0,0.00061949,6190.6,0.00034344,1735.7,0.00011214,-2.1918,-0.00057141,-5138.1,0.083155
573,3.5354,1.6364,0,0.00075221,7516.9,0.00040239,1920.3,0.00014726,3.3863,-0.00070091,-6369.5,0.084727
574,3.5354,1.8182,0,0.00089481,8942,0.00043774,1763.4,0.00020471,12.488,-0.00085164,-7924.5,0.086199
575,3.5354,2,0,0.00099932,9986.3,0.00040559,977.7,0.00028869,99.389,-0.0009781,-9418.8,0.087528
576,3.5354,2.1818,0,0.0010859,10851,0.00039162,428.83,0.00034097,48.244,-0.0010773,-10608,0.088684
577,3.5354,2.3636,0,0.0011162,11154,0.00039142,269.87,0.00035385,-12.416,-0.0011115,-11023,0.089646
578,3.5354,2.5455,0,0.0011131,11123,0.00038871,256.53,0.00035451,-0.48004,-0.0011085,-10993,0.090383
579,3.5354,2.7273,0,0.0010985,10978,0.00038264,241.23,0.00035043,-0.76685,-0.0010942,-10855,0.09088
580,3.5354,2.9091,0,0.0010891,10883,0.00037894,234.66,0.0003477,-0.062463,-0.0010849,-10764,0.091129
581,3.5354,3.0909,0,0.0010891,10883,0.00037894,234.66,0.0003477,-0.062463,-0.0010849,-10764,0.091129
582,3.5354,3.2727,0,0.0010985,10978,0.00038264,241.23,0.00035043,-0.76685,-0.0010942,-10855,0.09088
583,3.5354,3.4545,0,0.0011131,11123,0.00038871,256.53,0.00035451,-0.48004,-0.0011085,-10993,0.090383
584,3.5354,3.6364,0,0.0011162,11154,0.00039142,269.87,0.00035385,-12.416,-0.0011116,-11023,0.089646
585,3.5354,3.8182,0,0.0010859,10851,0.00039162,428.83,0.00034097,48.244,-0.0010773,-10608,0.088684
586,3.5354,4,0,0.00099932,9986.3,0.00040559,977.7,0.00028869,99.389,-0.0009781,-9418.8,0.087528
587,3.5354,4.1818,0,0.00089481,8942,0.00043774,1763.4,0.00020471,12.488,-0.00085164,-7924.5,0.086199
588,3.5354,4.3636,0,0.00075221,7516.9,0.00040239,1920.3,0.00014726,3.3863,-0.00070091,-6369.5,0.084727
589,3.5354,4.5455,0,0.00061949,6190.6,0.00034344,1735.7,0.00011214,-2.1918,-0.00057141,-5138.1,0.083155
590,3.5354,4.7273,0,0.0005093,5089.5,0.00028343,1441.6,9.1439e-05,-0.95476,-0.00046921,-4213.5,0.081518
591,3.5354,4.9091,0,0.00041729,4170,0.00022797,1125.7,7.8083e-05,-0.49738,-0.00038657,-3491.7,0.079843
592,3.5354,5.0909,0,0.00034076,3405.2,0.00017956,833.26,6.8534e-05,-0.97432,-0.00031884,-2911.6,0.078146
593,3.5354,5.2727,0,0.00027621,2760.2,0.00013748,571.39,6.1231e-05,-1.5427,-0.00026201,-2430.3,0.076434
594,3.5354,5.4545,0,0.00022223,2220.8,0.00010191,348.42,5.5125e-05,-3.0997,-0.00021426,-2027.1,0.074712
595,3.5354,5.6364,0,0.00017992,1798,7.4673e-05,182.64,4.9606e-05,-5.7041,-0.00017617,-1702.1,0.07298
596,3.5354,5.8182,0,0.00015534,1552.4,6.1312e-05,116.56,4.4632e-05,-8.7633,-0.00015313,-1494.7,0.071234
597,3.7198,0.18182,0,0.00021003,2098.8,7.9163e-05,116.6,6.3116e-05,-3.9707,-0.00020785,-2039.9,0.085055
598,3.7198,0.36364,0,0.00022741,2272.6,8.8468e-05,159.94,6.6632e-05,-4.1322,-0.00022432,-2190.2,0.086745
599,3.7198,0.54545,0,0.00025891,2587.3,0.00010747,265.64,7.163e-05,-3.6261,-0.0002534,-2445.8,0.088399
600,3.7198,0.72727,0,0.00030184,3016.3,0.00013365,414.09,7.8105e-05,-3.2478,-0.00029267,-2789.1,0.090019
601,3.7198,0.90909,0,0.00035504,3548,0.00016529,588.71,8.6505e-05,-3.2174,-0.00034136,-3218,0.091601
602,3.7198,1.0909,0,0.00041828,4179.9,0.00020093,772.01,9.768e-05,-3.7849,-0.00039977,-3741.4,0.093139
603,3.7198,1.2727,0,0.00049155,4912.1,0.00023854,937.87,0.00011314,-4.3539,-0.00046884,-4377.1,0.094623
604,3.7198,1.4545,0,0.00057446,5740.7,0.00027466,1044,0.00013506,-4.8826,-0.00054955,-5148.8,0.096038
605,3.7198,1.6364,0,0.00066109,6606.3,0.00030091,1004.7,0.00016515,-15.316,-0.00063832,-6052.3,0.097363
606,3.7198,1.8182,0,0.00074508,7445.6,0.00030826,751.85,0.00020676,-10.778,-0.00072953,-7045.7,0.098574
607,3.7198,2,0,0.00082067,8201.1,0.00030293,372.66,0.00025009,-24.381,-0.00081403,-8019.7,0.099655
608,3.7198,2.1818,0,0.00088442,8838.1,0.00029847,67.579,0.00028686,-19.693,-0.00088357,-8813.8,0.10059
609,3.7198,2.3636,0,0.00093303,9323.8,0.00031158,9.3179,0.00030253,-58.705,-0.00093385,-9348.4,0.10137
610,3.7198,2.5455,0,0.00095851,9578.5,0.00032002,3.5804,0.00031035,-69.096,-0.00095961,-9611,0.10197
611,3.7198,2.7273,0,0.00096883,9681.6,0.00032273,3.1491,0.0003149,-55.73,-0.00096971,-9707.8,0.10238
612,3.7198,2.9091,0,0.00097183,9711.6,0.00032306,1.4944,0.00031685,-45.131,-0.00097256,-9733.3,0.10259
613,3.7198,3.0909,0,0.00097183,9711.6,0.00032306,1.4944,0.00031685,-45.131,-0.00097256,-9733.3,0.10259
614,3.7198,3.2727,0,0.00096883,9681.6,0.00032273,3.1491,0.0003149,-55.731,-0.00096971,-9707.8,0.10238
615,3.7198,3.4545,0,0.00095851,9578.5,0.00032002,3.5803,0.00031035,-69.096,-0.00095961,-9611.1,0.10197
616,3.7198,3.6364,0,0.00093303,9323.9,0.00031158,9.3179,0.00030253,-58.705,-0.00093385,-9348.4,0.10137
617,3.7198,3.8182,0,0.00088442,8838.1,0.00029847,67.579,0.00028686,-19.693,-0.00088357,-8813.8,0.10059
618,3.7198,4,0,0.00082067,8201.1,0.00030293,372.66,0.00025009,-24.381,-0.00081403,-8019.7,0.099655
619,3.7198,4.1818,0,0.00074508,7445.6,0.00030826,751.85,0.00020676,-10.778,-0.00072953,-7045.7,0.098574
620,3.7198,4.3636,0,0.00066109,6606.3,0.00030091,1004.7,0.00016515,-15.316,-0.00063832,-6052.3,0.097363
621,3.7198,4.5455,0,0.00057446,5740.7,0.00027466,1044,0.00013506,-4.8826,-0.00054955,-5148.8,0.096038
622,3.7198,4.7273,0,0.00049155,4912.1,0.00023854,937.87,0.00011314,-4.3539,-0.00046884,-4377.1,0.094623
623,3.7198,4.9091,0,0.00041828,4179.9,0.00020093,772.01,9.768e-05,-3.7849,-0.00039977,-3741.4,0.093139
624,3.7198,5.0909,0,0.00035504,3548,0.00016529,588.71,8.6505e-05,-3.2174,-0.00034136,-3218,0.091601
625,3.7198,5.2727,0,0.00030184,3016.3,0.00013365,414.09,7.8105e-05,-3.2478,-0.00029267,-2789.1,0.090019
626,3.7198,5.4545,0,0.00025891,2587.3,0.00010747,265.64,7.163e-05,-3.6261,-0.0002534,-2445.8,0.088399
627,3.7198,5.6364,0,0.00022741,2272.6,8.8468e-05,159.94,6.6632e-05,-4.1322,-0.00022432,-2190.2,0.086745
628,3.7198,5.8182,0,0.00021003,2098.8,7.9163e-05,116.6,6.3116e-05,-3.9707,-0.00020785,-2039.9,0.085055
629,3.9041,0.18182,0,0.00025898,2588,9.5178e-05,116.49,7.9547e-05,-0.96041,-0.00025681,-2528.2,0.099007
630,3.9041,0.36364,0,0.00027363,2734.5,0.00010344,157.63,8.2225e-05,-1.8027,-0.00027063,-2653.1,0.10064
631,3.9041,0.54545,0,0.00029858,2983.7,0.0001176,229.66,8.6757e-05,-2.0716,-0.00029403,-2863.1,0.10222
632,3.9041,0.72727,0,0.0003327,3324.7,0.00013653,323.47,9.3186e-05,-2.2201,-0.00032603,-3152.1,0.10375
633,3.9041,0.90909,0,0.00037534,3750.9,0.00015916,428.3,0.00010183,-2.4142,-0.00036624,-3519.3,0.10522
634,3.9041,1.0909,0,0.00042568,4253.9,0.00018385,527.31,0.00011331,-2.7087,-0.00041427,-3966.8,0.10663
635,3.9041,1.2727,0,0.00048246,4821.3,0.00020828,596.24,0.00012847,-3.4101,-0.00046957,-4496.8,0.10796
636,3.9041,1.4545,0,0.00054351,5431.4,0.00022908,602.47,0.0001483,-4.4274,-0.00053079,-5106.9,0.1092
637,3.9041,1.6364,0,0.00060554,6051.2,0.00024217,511.05,0.00017367,-3.6129,-0.00059526,-5781.1,0.11034
638,3.9041,1.8182,0,0.00066427,6638.1,0.00024547,312.16,0.00020293,-7.4886,-0.00065851,-6480,0.11137
639,3.9041,2,0,0.00071891,7184.1,0.00024481,79.5,0.00023168,-19.164,-0.00071783,-7153.4,0.11228
640,3.9041,2.1818,0,0.00076803,7675,0.00026177,10.241,0.00024023,-151.67,-0.0007703,-7744.4,0.11306
641,3.9041,2.3636,0,0.00080863,8080.8,0.00027954,2.0513,0.00024536,-254.8,-0.00081263,-8204.1,0.11371
642,3.9041,2.5455,0,0.00083807,8374.9,0.00029064,2.108,0.00025269,-283,-0.00084248,-8511.7,0.1142
643,3.9041,2.7273,0,0.00085563,8550.4,0.00029623,1.7938,0.00025882,-279.32,-0.00086001,-8685.7,0.11454
644,3.9041,2.9091,0,0.00086352,8629.2,0.00029847,1.5424,0.00026202,-272.28,-0.0008678,-8761.3,0.11471
645,3.9041,3.0909,0,0.00086352,8629.2,0.00029847,1.5424,0.00026202,-272.28,-0.0008678,-8761.3,0.11471
646,3.9041,3.2727,0,0.00085563,8550.4,0.00029623,1.7938,0.00025882,-279.32,-0.00086001,-8685.7,0.11454
647,3.9041,3.4545,0,0.00083807,8374.9,0.00029064,2.108,0.00025269,-283,-0.00084248,-8511.7,0.1142
648,3.9041,3.6364,0,0.00080863,8080.8,0.00027954,2.0513,0.00024536,-254.8,-0.00081263,-8204.1,0.11371
649,3.9041,3.8182,0,0.00076803,7675,0.00026178,10.241,0.00024023,-151.67,-0.0007703,-7744.4,0.11306
650,3.9041,4,0,0.00071891,7184.1,0.00024481,79.5,0.00023168,-19.164,-0.00071783,-7153.4,0.11228
651,3.9041,4.1818,0,0.00066427,6638.1,0.00024547,312.16,0.00020293,-7.4886,-0.00065851,-6480,0.11137
652,3.9041,4.3636,0,0.00060554,6051.2,0.00024217,511.05,0.00017367,-3.6129,-0.00059526,-5781.1,0.11034
653,3.9041,4.5455,0,0.00054351,5431.4,0.00022908,602.47,0.0001483,-4.4274,-0.00053079,-5106.9,0.1092
654,3.9041,4.7273,0,0.00048246,4821.3,0.00020828,596.24,0.00012847,-3.4101,-0.00046957,-4496.8,0.10796
655,3.9041,4.9091,0,0.00042568,4253.9,0.00018385,527.31,0.00011331,-2.7087,-0.00041427,-3966.8,0.10663
656,3.9041,5.0909,0,0.00037534,3750.9,0.00015916,428.3,0.00010183,-2.4142,-0.00036624,-3519.3,0.10522
657,3.9041,5.2727,0,0.0003327,3324.7,0.00013653,323.47,9.3186e-05,-2.2201,-0.00032603,-3152.1,0.10375
658,3.9041,5.4545,0,0.00029858,2983.7,0.0001176,229.66,8.6757e-05,-2.0716,-0.00029403,-2863.1,0.10222
659,3.9041,5.6364,0,0.00027363,2734.5,0.00010344,157.63,8.2225e-05,-1.8027,-0.00027063,-2653.1,0.10064
660,3.9041,5.8182,0,0.00025898,2588,9.5178e-05,116.49,7.9547e-05,-0.96041,-0.00025681,-2528.2,0.099007
661,4.0885,0.18182,0,0.00030099,3007.8,0.00010855,110.99,9.3771e-05,-0.074229,-0.00029895,-2950.8,0.11313
662,4.0885,0.36364,0,0.0003141,3138.8,0.00011647,153.89,9.5848e-05,-1.0493,-0.00031121,-3059.5,0.11471
663,4.0885,0.54545,0,0.00033457,3343.4,0.00012754,206.09,9.9922e-05,-1.4105,-0.0003306,-3236.2,0.11623
664,4.0885,0.72727,0,0.00036183,3615.8,0.00014123,262.97,0.00010599,-1.8182,-0.00035666,-3478,0.11768
665,4.0885,0.90909,0,0.0003955,3952.2,0.00015688,318.1,0.00011425,-2.1919,-0.00038915,-3784.5,0.11905
666,4.0885,1.0909,0,0.00043466,4343.6,0.00017321,359.15,0.00012505,-2.6508,-0.00042747,-4154.1,0.12035
667,4.0885,1.2727,0,0.00047793,4776,0.00018836,369.1,0.0001388,-3.2611,-0.00047061,-4582.1,0.12156
668,4.0885,1.4545,0,0.0005233,5229.4,0.00020013,328.95,0.00015576,-4.4141,-0.00051698,-5059.1,0.12267
669,4.0885,1.6364,0,0.00056842,5680.3,0.00020673,226.3,0.00017564,-7.2751,-0.00056434,-5567.2,0.12368
670,4.0885,1.8182,0,0.00061165,6112.3,0.00020929,78.009,0.00019637,-19.046,-0.00061059,-6082.2,0.12458
671,4.0885,2,0,0.00065209,6516.4,0.00022232,8.4272,0.00020383,-130.46,-0.00065405,-6576.3,0.12537
672,4.0885,2.1818,0,0.00068929,6888.2,0.00024122,2.2949,0.00020409,-276.68,-0.00069354,-7021.1,0.12603
673,4.0885,2.3636,0,0.00072174,7212.4,0.00025648,1.9669,0.00020683,-371.08,-0.0007273,-7389.7,0.12658
674,4.0885,2.5455,0,0.00074716,7466.4,0.00026693,1.6521,0.00021158,-414.27,-0.00075331,-7664,0.127
675,4.0885,2.7273,0,0.00076419,7636.6,0.00027314,1.4662,0.00021616,-426.72,-0.00077052,-7840.2,0.12728
676,4.0885,2.9091,0,0.00077259,7720.5,0.00027598,1.4489,0.00021882,-427.98,-0.00077895,-7924.8,0.12743
677,4.0885,3.0909,0,0.00077259,7720.5,0.00027598,1.4489,0.00021882,-427.98,-0.00077895,-7924.8,0.12743
678,4.0885,3.2727,0,0.00076419,7636.6,0.00027314,1.4662,0.00021616,-426.72,-0.00077052,-7840.2,0.12728
679,4.0885,3.4545,0,0.00074716,7466.4,0.00026693,1.6521,0.00021158,-414.27,-0.00075331,-7664,0.127
680,4.0885,3.6364,0,0.00072174,7212.4,0.00025648,1.9669,0.00020683,-371.08,-0.0007273,-7389.7,0.12658
681,4.0885,3.8182,0,0.00068929,6888.2,0.00024122,2.2949,0.00020409,-276.68,-0.00069354,-7021.1,0.12603
682,4.0885,4,0,0.00065209,6516.4,0.00022232,8.4272,0.00020383,-130.46,-0.00065405,-6576.3,0.12537
683,4.0885,4.1818,0,0.00061165,6112.3,0.00020929,78.01,0.00019637,-19.046,-0.00061059,-6082.2,0.12458
684,4.0885,4.3636,0,0.00056842,5680.3,0.00020673,226.3,0.00017564,-7.2751,-0.00056434,-5567.2,0.12368
685,4.0885,4.5455,0,0.0005233,5229.4,0.00020013,328.95,0.00015576,-4.4141,-0.00051698,-5059.1,0.12267
686,4.0885,4.7273,0,0.00047793,4776,0.00018836,369.1,0.0001388,-3.2611,-0.00047061,-4582.1,0.12156
687,4.0885,4.9091,0,0.00043466,4343.6,0.00017321,359.15,0.00012505,-2.6508,-0.00042747,-4154.1,0.12035
688,4.0885,5.0909,0,0.0003955,3952.2,0.00015688,318.1,0.00011425,-2.1919,-0.00038915,-3784.5,0.11905
689,4.0885,5.2727,0,0.00036183,3615.8,0.00014123,262.97,0.00010599,-1.8182,-0.00035666,-3478,0.11768
690,4.0885,5.4545,0,0.00033457,3343.4,0.00012754,206.09,9.9922e-05,-1.4105,-0.0003306,-3236.2,0.11623
691,4.0885,5.6364,0,0.0003141,3138.8,0.00011647,153.89,9.5848e-05,-1.0493,-0.00031121,-3059.5,0.11471
692,4.0885,5.8182,0,0.00030099,3007.8,0.00010855,110.99,9.3771e-05,-0.07423,-0.00029895,-2950.8,0.11313
693,4.2729,0.18182,0,0.00033604,3358.1,0.00011934,101.64,0.00010584,0.25367,-0.00033419,-3306,0.12744
694,4.2729,0.36364,0,0.00034781,3475.7,0.00012685,145.02,0.00010746,-0.66293,-0.00034512,-3401.2,0.12898
695,4.2729,0.54545,0,0.00036479,3645.4,0.00013571,184.3,0.00011106,-0.93324,-0.00036132,-3550.2,0.13044
696,4.2729,0.72727,0,0.00038659,3863.3,0.00014562,216.89,0.00011656,-1.4008,-0.00038246,-3750.9,0.13182
697,4.2729,0.90909,0,0.00041293,4126.4,0.00015618,239.32,0.00012408,-1.8547,-0.00040836,-4002.4,0.13312
698,4.2729,1.0909,0,0.00044304,4427.3,0.00016653,243.91,0.00013375,-2.4413,-0.00043841,-4301.4,0.13433
699,4.2729,1.2727,0,0.00047573,4754,0.00017546,220.64,0.00014565,-3.3816,-0.00047164,-4641.4,0.13545
700,4.2729,1.4545,0,0.00050955,5092,0.0001818,160.91,0.00015966,-5.419,-0.0005067,-5012.2,0.13646
701,4.2729,1.6364,0,0.00054306,5426.9,0.00018552,67.377,0.00017468,-14.111,-0.00054211,-5399.8,0.13738
702,4.2729,1.8182,0,0.00057523,5748.3,0.00019517,10.514,0.00018171,-90.672,-0.00057652,-5787.7,0.13818
703,4.2729,2,0,0.00060557,6051.5,0.00021124,3.9362,0.00018067,-225.75,-0.00060901,-6159.1,0.13888
704,4.2729,2.1818,0,0.0006336,6331.6,0.00022626,2.2362,0.00017968,-347.74,-0.00063875,-6497.1,0.13947
705,4.2729,2.3636,0,0.00065836,6579.1,0.00023859,1.4049,0.00018044,-435.53,-0.00066466,-6785.2,0.13994
706,4.2729,2.5455,0,0.00067845,6779.8,0.00024767,1.1808,0.00018271,-486.92,-0.00068539,-7009.5,0.1403
707,4.2729,2.7273,0,0.00069251,6920.3,0.00025348,1.1736,0.00018527,-511.32,-0.00069976,-7161.1,0.14055
708,4.2729,2.9091,0,0.0006997,6992.1,0.00025628,1.1697,0.0001869,-520.1,-0.00070707,-7237,0.14067
709,4.2729,3.0909,0,0.0006997,6992.1,0.00025628,1.1697,0.0001869,-520.1,-0.00070707,-7237,0.14067
710,4.2729,3.2727,0,0.00069251,6920.3,0.00025348,1.1736,0.00018527,-511.32,-0.00069976,-7161.1,0.14055
711,4.2729,3.4545,0,0.00067845,6779.8,0.00024767,1.1808,0.00018271,-486.92,-0.00068539,-7009.5,0.1403
712,4.2729,3.6364,0,0.00065836,6579.1,0.00023859,1.4049,0.00018044,-435.53,-0.00066466,-6785.2,0.13994
713,4.2729,3.8182,0,0.0006336,6331.6,0.00022626,2.2362,0.00017968,-347.74,-0.00063875,-6497.1,0.13947
714,4.2729,4,0,0.00060557,6051.5,0.00021124,3.9362,0.00018067,-225.75,-0.00060901,-6159.1,0.13888
715,4.2729,4.1818,0,0.00057523,5748.3,0.00019517,10.514,0.00018171,-90.672,-0.00057653,-5787.7,0.13818
716,4.2729,4.3636,0,0.00054306,5426.9,0.00018552,67.377,0.00017468,-14.111,-0.00054211,-5399.8,0.13738
717,4.2729,4.5455,0,0.00050955,5092,0.0001818,160.91,0.00015966,-5.419,-0.0005067,-5012.2,0.13646
718,4.2729,4.7273,0,0.00047573,4754,0.00017546,220.64,0.00014565,-3.3816,-0.00047164,-4641.4,0.13545
719,4.2729,4.9091,0,0.00044304,4427.3,0.00016653,243.91,0.00013375,-2.4413,-0.00043841,-4301.4,0.13433
720,4.2729,5.0909,0,0.00041293,4126.4,0.00015618,239.32,0.00012408,-1.8547,-0.00040836,-4002.4,0.13312
721,4.2729,5.2727,0,0.00038659,3863.3,0.00014562,216.89,0.00011656,-1.4008,-0.00038246,-3750.9,0.13182
722,4.2729,5.4545,0,0.00036479,3645.4,0.00013571,184.3,0.00011106,-0.93324,-0.00036132,-3550.2,0.13044
723,4.2729,5.6364,0,0.00034781,3475.7,0.00012685,145.02,0.00010746,-0.66293,-0.00034512,-3401.2,0.12898
724,4.2729,5.8182,0,0.00033604,3358.1,0.00011934,101.64,0.00010584,0.25367,-0.00033419,-3306,0.12744
725,4.4572,0.18182,0,0.00036454,3642.9,0.00012778,89.998,0.00011584,0.29039,-0.00036292,-3596.9,0.14198
726,4.4572,0.36364,0,0.00037492,3746.6,0.00013469,131.61,0.00011711,-0.4936,-0.00037251,-3679.3,0.14348
727,4.4572,0.54545,0,0.00038896,3886.9,0.0001418,161.48,0.00012022,-0.66254,-0.00038597,-3803.9,0.14489
728,4.4572,0.72727,0,0.00040633,4060.5,0.00014893,178.19,0.00012507,-1.115,-0.00040302,-3969,0.14622
729,4.4572,0.90909,0,0.00042679,4265,0.00015588,180.19,0.00013168,-1.625,-0.00042346,-4172.8,0.14745
730,4.4572,1.0909,0,0.00044976,4494.5,0.00016212,163.44,0.00014005,-2.4001,-0.00044679,-4411.7,0.1486
731,4.4572,1.2727,0,0.00047437,4740.4,0.000167,123.32,0.00015006,-3.9685,-0.00047221,-4679.4,0.14964
732,4.4572,1.4545,0,0.0004996,4992.5,0.00017031,59.559,0.0001611,-9.661,-0.00049871,-4967.2,0.15058
733,4.4572,1.6364,0,0.00052454,5241.8,0.00017684,11.043,0.00016776,-57.199,-0.00052529,-5264.5,0.15142
734,4.4572,1.8182,0,0.00054855,5481.7,0.00018942,3.8777,0.00016703,-164.33,-0.00055108,-5560,0.15216
735,4.4572,2,0,0.00057123,5708.3,0.00020239,2.0667,0.0001648,-280.43,-0.00057544,-5842.2,0.15279
736,4.4572,2.1818,0,0.00059219,5917.8,0.00021429,1.3087,0.00016288,-384.91,-0.00059777,-6100.2,0.15332
737,4.4572,2.3636,0,0.00061077,6103.5,0.00022427,1.0152,0.00016214,-465.85,-0.00061734,-6322.5,0.15375
738,4.4572,2.5455,0,0.00062598,6255.5,0.00023187,0.90534,0.00016254,-520.07,-0.00063318,-6498.8,0.15407
739,4.4572,2.7273,0,0.00063679,6363.5,0.00023692,0.88003,0.00016346,-551.06,-0.00064435,-6620.6,0.15429
740,4.4572,2.9091,0,0.0006424,6419.6,0.00023941,0.88661,0.00016415,-564.6,-0.00065012,-6682.7,0.15439
741,4.4572,3.0909,0,0.0006424,6419.6,0.00023941,0.88661,0.00016415,-564.6,-0.00065012,-6682.7,0.15439
742,4.4572,3.2727,0,0.00063679,6363.5,0.00023692,0.88003,0.00016346,-551.06,-0.00064435,-6620.6,0.15429
743,4.4572,3.4545,0,0.00062598,6255.5,0.00023187,0.90534,0.00016254,-520.07,-0.00063318,-6498.8,0.15407
744,4.4572,3.6364,0,0.00061077,6103.5,0.00022427,1.0152,0.00016214,-465.85,-0.00061734,-6322.5,0.15375
745,4.4572,3.8182,0,0.00059219,5917.8,0.00021429,1.3087,0.00016288,-384.91,-0.00059777,-6100.2,0.15332
746,4.4572,4,0,0.00057123,5708.3,0.00020239,2.0667,0.0001648,-280.43,-0.00057544,-5842.3,0.15279
747,4.4572,4.1818,0,0.00054855,5481.7,0.00018942,3.8777,0.00016703,-164.33,-0.00055108,-5560,0.15216
748,4.4572,4.3636,0,0.00052454,5241.8,0.00017684,11.043,0.00016776,-57.198,-0.00052529,-5264.5,0.15142
749,4.4572,4.5455,0,0.0004996,4992.5,0.00017031,59.559,0.0001611,-9.661,-0.00049871,-4967.2,0.15058
750,4.4572,4.7273,0,0.00047437,4740.4,0.000167,123.32,0.00015006,-3.9685,-0.00047221,-4679.4,0.14964
751,4.4572,4.9091,0,0.00044976,4494.5,0.00016212,163.44,0.00014005,-2.4001,-0.00044679,-4411.7,0.1486
752,4.4572,5.0909,0,0.00042679,4265,0.00015588,180.19,0.00013168,-1.625,-0.00042346,-4172.8,0.14745
753,4.4572,5.2727,0,0.00040633,4060.5,0.00014893,178.19,0.00012507,-1.115,-0.00040302,-3969,0.14622
754,4.4572,5.4545,0,0.00038896,3886.9,0.0001418,161.48,0.00012022,-0.66254,-0.00038597,-3803.9,0.14489
755,4.4572,5.6364,0,0.00037492,3746.6,0.00013469,131.61,0.00011711,-0.4936,-0.00037251,-3679.3,0.14348
756,4.4572,5.8182,0,0.00036454,3642.9,0.00012778,89.998,0.00011584,0.29039,-0.00036292,-3596.9,0.14198
757,4.6416,0.18182,0,0.00038714,3868.7,0.0001342,77.493,0.00012392,0.24356,-0.00038575,-3829.2,0.15676
758,4.6416,0.36364,0,0.00039608,3958.1,0.00014032,115.36,0.00012492,-0.39176,-0.000394,-3899.3,0.15822
759,4.6416,0.54545,0,0.00040757,4072.9,0.00014598,137.83,0.00012757,-0.48534,-0.00040505,-4002.4,0.1596
760,4.6416,0.72727,0,0.00042131,4210.2,0.00015106,144.11,0.00013176,-0.90288,-0.00041869,-4136.7,0.16088
761,4.6416,0.90909,0,0.00043711,4368.1,0.00015546,133.9,0.00013744,-1.4553,-0.0004347,-4300.3,0.16207
762,4.6416,1.0909,0,0.00045454,4542.2,0.00015892,105.73,0.00014452,-2.498,-0.00045268,-4489.6,0.16316
763,4.6416,1.2727,0,0.00047297,4726.5,0.0001613,59.219,0.00015267,-5.6061,-0.00047203,-4699.3,0.16415
764,4.6416,1.4545,0,0.00049175,4914.1,0.00016485,13.089,0.00015912,-29.966,-0.00049202,-4922.4,0.16504
765,4.6416,1.6364,0,0.00051028,5099.3,0.00017412,3.9625,0.00015902,-109.47,-0.00051198,-5151.1,0.16582
766,4.6416,1.8182,0,0.00052812,5277.6,0.00018464,2.1435,0.00015672,-207.61,-0.0005313,-5377.2,0.16651
767,4.6416,2,0,0.00054496,5445.9,0.00019499,1.3856,0.00015381,-308.04,-0.00054952,-5592.6,0.1671
768,4.6416,2.1818,0,0.00056048,5600.9,0.00020447,0.9809,0.00015118,-399.43,-0.00056618,-5789.4,0.16759
769,4.6416,2.3636,0,0.00057419,5737.9,0.00021252,0.76163,0.00014938,-473.66,-0.00058076,-5959.6,0.16798
770,4.6416,2.5455,0,0.00058541,5850,0.00021877,0.67068,0.00014851,-527.23,-0.00059258,-6095.4,0.16827
771,4.6416,2.7273,0,0.00059341,5930,0.00022299,0.64824,0.00014828,-560.7,-0.00060094,-6190.1,0.16846
772,4.6416,2.9091,0,0.00059758,5971.7,0.00022512,0.64789,0.00014831,-576.49,-0.00060528,-6238.6,0.16856
773,4.6416,3.0909,0,0.00059758,5971.7,0.00022512,0.64789,0.00014831,-576.49,-0.00060528,-6238.6,0.16856
774,4.6416,3.2727,0,0.00059341,5930,0.00022299,0.64824,0.00014828,-560.7,-0.00060094,-6190.1,0.16846
775,4.6416,3.4545,0,0.00058541,5850,0.00021877,0.67068,0.00014851,-527.23,-0.00059258,-6095.4,0.16827
776,4.6416,3.6364,0,0.00057419,5737.9,0.00021252,0.76163,0.00014938,-473.66,-0.00058076,-5959.6,0.16798
777,4.6416,3.8182,0,0.00056048,5600.9,0.00020447,0.9809,0.00015118,-399.43,-0.00056618,-5789.4,0.16759
778,4.6416,4,0,0.00054496,5445.9,0.00019499,1.3856,0.00015381,-308.04,-0.00054952,-5592.6,0.1671
779,4.6416,4.1818,0,0.00052812,5277.6,0.00018464,2.1435,0.00015672,-207.61,-0.0005313,-5377.2,0.16651
780,4.6416,4.3636,0,0.00051028,5099.3,0.00017412,3.9625,0.00015902,-109.47,-0.00051198,-5151.1,0.16582
781,4.6416,4.5455,0,0.00049175,4914.1,0.00016485,13.089,0.00015912,-29.965,-0.00049202,-4922.4,0.16504
782,4.6416,4.7273,0,0.00047297,4726.5,0.0001613,59.219,0.00015267,-5.6061,-0.00047203,-4699.3,0.16415
783,4.6416,4.9091,0,0.00045454,4542.2,0.00015892,105.73,0.00014452,-2.498,-0.00045268,-4489.6,0.16316
784,4.6416,5.0909,0,0.00043711,4368.1,0.00015546,133.9,0.00013744,-1.4553,-0.0004347,-4300.3,0.16207
785,4.6416,5.2727,0,0.00042131,4210.2,0.00015106,144.11,0.00013176,-0.90288,-0.00041869,-4136.7,0.16088
786,4.6416,5.4545,0,0.00040757,4072.9,0.00014598,137.83,0.00012757,-0.48534,-0.00040505,-4002.4,0.1596
787,4.6416,5.6364,0,0.00039608,3958.1,0.00014032,115.36,0.00012492,-0.39176,-0.000394,-3899.3,0.15822
788,4.6416,5.8182,0,0.00038714,3868.7,0.0001342,77.493,0.00012392,0.24356,-0.00038575,-3829.2,0.15676
789,4.826,0.18182,0,0.00040457,4043,0.00013893,65.128,0.00013029,0.17746,-0.00040342,-4009.9,0.1718
790,4.826,0.36364,0,0.0004121,4118.2,0.00014417,97.969,0.00013109,-0.32151,-0.00041035,-4068.5,0.17323
791,4.826,0.54545,0,0.00042138,4210.9,0.00014859,114.3,0.00013332,-0.37106,-0.00041933,-4152.8,0.17457
792,4.826,0.72727,0,0.00043216,4318.6,0.00015211,113.68,0.00013688,-0.75672,-0.00043013,-4261,0.17582
793,4.826,0.90909,0,0.00044427,4439.7,0.00015472,96.563,0.00014169,-1.3634,-0.00044257,-4391.2,0.17697
794,4.826,1.0909,0,0.0004574,4570.9,0.00015636,63.251,0.00014756,-2.8652,-0.00045634,-4540.3,0.17802
795,4.826,1.2727,0,0.00047114,4708.1,0.00015771,19.926,0.00015352,-11.543,-0.00047099,-4703.9,0.17897
796,4.826,1.4545,0,0.00048504,4847,0.00016358,4.2633,0.00015449,-63.982,-0.00048602,-4876.5,0.17982
797,4.826,1.6364,0,0.00049871,4983.6,0.00017177,2.1144,0.00015248,-142.86,-0.00050094,-5052.4,0.18057
798,4.826,1.8182,0,0.00051185,5114.9,0.00018031,1.3515,0.00014945,-230.49,-0.00051535,-5225.6,0.18122
799,4.826,2,0,0.00052422,5238.5,0.00018861,0.94459,0.00014609,-318.54,-0.00052889,-5390,0.18177
800,4.826,2.1818,0,0.00053556,5351.9,0.0001962,0.70232,0.00014296,-399.32,-0.00054121,-5540,0.18223
801,4.826,2.3636,0,0.00054552,5451.4,0.00020269,0.56523,0.00014049,-466.82,-0.00055194,-5669.5,0.18259
802,4.826,2.5455,0,0.00055364,5532.5,0.00020778,0.49714,0.00013882,-517.68,-0.00056061,-5772.9,0.18287
803,4.826,2.7273,0,0.00055941,5590.3,0.00021126,0.47105,0.00013787,-551,-0.00056673,-5845.1,0.18305
804,4.826,2.9091,0,0.00056242,5620.4,0.00021303,0.4647,0.00013746,-567.32,-0.00056991,-5882.2,0.18314
805,4.826,3.0909,0,0.00056242,5620.4,0.00021303,0.4647,0.00013746,-567.32,-0.00056991,-5882.2,0.18314
806,4.826,3.2727,0,0.00055941,5590.3,0.00021126,0.47105,0.00013787,-551,-0.00056673,-5845.1,0.18305
807,4.826,3.4545,0,0.00055364,5532.5,0.00020778,0.49714,0.00013882,-517.68,-0.00056061,-5772.9,0.18287
808,4.826,3.6364,0,0.00054552,5451.4,0.00020269,0.56523,0.00014049,-466.82,-0.00055194,-5669.5,0.18259
809,4.826,3.8182,0,0.00053556,5351.9,0.0001962,0.70232,0.00014296,-399.32,-0.00054121,-5540,0.18223
810,4.826,4,0,0.00052422,5238.5,0.00018861,0.94459,0.00014609,-318.54,-0.00052889,-5390,0.18177
811,4.826,4.1818,0,0.00051185,5114.9,0.00018031,1.3515,0.00014945,-230.49,-0.00051535,-5225.6,0.18122
812,4.826,4.3636,0,0.00049871,4983.6,0.00017177,2.1144,0.00015248,-142.86,-0.00050094,-5052.4,0.18057
813,4.826,4.5455,0,0.00048504,4847,0.00016358,4.2633,0.00015449,-63.982,-0.00048602,-4876.5,0.17982
814,4.826,4.7273,0,0.00047114,4708.1,0.00015771,19.926,0.00015352,-11.543,-0.00047099,-4703.9,0.17897
815,4.826,4.9091,0,0.0004574,4570.9,0.00015636,63.251,0.00014756,-2.8652,-0.00045634,-4540.3,0.17802
816,4.826,5.0909,0,0.00044427,4439.7,0.00015472,96.563,0.00014169,-1.3634,-0.00044257,-4391.2,0.17697
817,4.826,5.2727,0,0.00043216,4318.6,0.00015211,113.68,0.00013688,-0.75672,-0.00043013,-4261,0.17582
818,4.826,5.4545,0,0.00042138,4210.9,0.00014859,114.3,0.00013332,-0.37106,-0.00041933,-4152.8,0.17457
819,4.826,5.6364,0,0.0004121,4118.2,0.00014417,97.969,0.00013109,-0.32151,-0.00041035,-4068.5,0.17323
820,4.826,5.8182,0,0.00040457,4043,0.00013893,65.128,0.00013029,0.17746,-0.00040342,-4009.9,0.1718
821,5.0103,0.18182,0,0.00041762,4173.3,0.00014227,53.545,0.00013516,0.12078,-0.00041668,-4146.2,0.18711
822,5.0103,0.36364,0,0.00042381,4235.2,0.0001466,80.736,0.00013582,-0.26514,-0.00042238,-4194.4,0.18852
823,5.0103,0.54545,0,0.0004312,4309,0.00014996,91.856,0.0001377,-0.29625,-0.00042957,-4262.5,0.18983
824,5.0103,0.72727,0,0.00043956,4392.6,0.0001523,86.624,0.00014069,-0.66231,-0.00043803,-4348.9,0.19105
825,5.0103,0.90909,0,0.00044876,4484.5,0.00015365,65.933,0.0001447,-1.3655,-0.00044762,-4451.8,0.19217
826,5.0103,1.0909,0,0.00045857,4582.5,0.00015418,31.773,0.00014942,-3.9652,-0.00045809,-4568.5,0.19319
827,5.0103,1.2727,0,0.00046872,4683.9,0.00015658,5.5613,0.00015197,-29.012,-0.00046911,-4695.6,0.19411
828,5.0103,1.4545,0,0.00047891,4785.8,0.00016263,2.1436,0.00015043,-89.568,-0.00048033,-4828.9,0.19493
829,5.0103,1.6364,0,0.00048889,4885.5,0.00016941,1.3129,0.00014764,-162.28,-0.00049142,-4963.9,0.19565
830,5.0103,1.8182,0,0.00049845,4981,0.00017633,0.9188,0.00014421,-240.41,-0.00050208,-5096.4,0.19627
831,5.0103,2,0,0.0005074,5070.5,0.00018301,0.67875,0.00014058,-318.14,-0.00051205,-5221.7,0.1968
832,5.0103,2.1818,0,0.00051556,5152,0.00018912,0.52139,0.00013717,-389.81,-0.00052107,-5335.6,0.19724
833,5.0103,2.3636,0,0.00052267,5223.1,0.00019436,0.42185,0.00013432,-450.72,-0.00052887,-5433.6,0.19759
834,5.0103,2.5455,0,0.00052844,5280.7,0.00019849,0.36594,0.00013219,-497.76,-0.00053513,-5511.8,0.19785
835,5.0103,2.7273,0,0.00053252,5321.5,0.00020133,0.3395,0.00013083,-529.4,-0.00053954,-5566.3,0.19802
836,5.0103,2.9091,0,0.00053464,5342.8,0.00020278,0.32997,0.00013017,-545.21,-0.00054182,-5594.3,0.19811
837,5.0103,3.0909,0,0.00053464,5342.8,0.00020278,0.32997,0.00013017,-545.21,-0.00054182,-5594.3,0.19811
838,5.0103,3.2727,0,0.00053252,5321.5,0.00020133,0.3395,0.00013083,-529.4,-0.00053954,-5566.3,0.19802
839,5.0103,3.4545,0,0.00052844,5280.7,0.00019849,0.36594,0.00013219,-497.76,-0.00053513,-5511.8,0.19785
840,5.0103,3.6364,0,0.00052267,5223.1,0.00019436,0.42185,0.00013432,-450.72,-0.00052887,-5433.6,0.19759
841,5.0103,3.8182,0,0.00051556,5152,0.00018912,0.52139,0.00013717,-389.81,-0.00052107,-5335.6,0.19724
842,5.0103,4,0,0.0005074,5070.5,0.00018301,0.67875,0.00014058,-318.14,-0.00051205,-5221.7,0.1968
843,5.0103,4.1818,0,0.00049845,4981,0.00017633,0.9188,0.00014421,-240.41,-0.00050208,-5096.4,0.19627
844,5.0103,4.3636,0,0.00048889,4885.5,0.00016941,1.3129,0.00014764,-162.27,-0.00049142,-4963.9,0.19565
845,5.0103,4.5455,0,0.00047891,4785.8,0.00016263,2.1436,0.00015043,-89.568,-0.00048033,-4828.9,0.19493
846,5.0103,4.7273,0,0.00046872,4683.9,0.00015658,5.5613,0.00015197,-29.012,-0.00046911,-4695.6,0.19411
847,5.0103,4.9091,0,0.00045857,4582.5,0.00015418,31.773,0.00014942,-3.9651,-0.00045809,-4568.5,0.19319
848,5.0103,5.0909,0,0.00044876,4484.5,0.00015365,65.933,0.0001447,-1.3655,-0.00044762,-4451.8,0.19217
849,5.0103,5.2727,0,0.00043956,4392.6,0.0001523,86.625,0.00014069,-0.66231,-0.00043803,-4348.9,0.19105
850,5.0103,5.4545,0,0.0004312,4309,0.00014996,91.856,0.0001377,-0.29625,-0.00042957,-4262.5,0.18983
851,5.0103,5.6364,0,0.00042381,4235.2,0.0001466,80.736,0.00013582,-0.26514,-0.00042238,-4194.4,0.18852
852,5.0103,5.8182,0,0.00041762,4173.3,0.00014227,53.545,0.00013516,0.12078,-0.00041668,-4146.2,0.18711
853,5.1947,0.18182,0,0.00042699,4267,0.0001445,43.101,0.00013877,0.079576,-0.00042624,-4245.2,0.2027
854,5.1947,0.36364,0,0.00043196,4316.7,0.00014794,64.539,0.00013932,-0.21815,-0.00043083,-4284.1,0.20409
855,5.1947,0.54545,0,0.00043775,4374.5,0.0001504,71.198,0.00014089,-0.24996,-0.0004365,-4338.5,0.20538
856,5.1947,0.72727,0,0.00044415,4438.4,0.00015184,62.867,0.00014339,-0.61643,-0.00044306,-4407,0.20658
857,5.1947,0.90909,0,0.00045105,4507.4,0.00015232,40.725,0.0001467,-1.5308,-0.00045037,-4487.7,0.20767
858,5.1947,1.0909,0,0.0004583,4579.9,0.00015255,10.798,0.00015002,-8.1965,-0.00045825,-4578.5,0.20867
859,5.1947,1.2727,0,0.00046571,4653.9,0.00015628,2.3501,0.0001495,-48.577,-0.00046647,-4676.8,0.20956
860,5.1947,1.4545,0,0.00047308,4727.6,0.00016147,1.2774,0.00014712,-106.56,-0.00047478,-4779.3,0.21036
861,5.1947,1.6364,0,0.00048026,4799.2,0.00016703,0.87574,0.00014395,-172.51,-0.00048294,-4882.7,0.21106
862,5.1947,1.8182,0,0.00048709,4867.5,0.00017263,0.64774,0.00014033,-242.11,-0.00049074,-4983.7,0.21167
863,5.1947,2,0,0.00049344,4931,0.00017803,0.49431,0.00013659,-310.9,-0.00049799,-5078.9,0.21218
864,5.1947,2.1818,0,0.0004992,4988.5,0.00018297,0.38661,0.00013308,-374.48,-0.0005045,-5165,0.21261
865,5.1947,2.3636,0,0.00050418,5038.3,0.0001872,0.31365,0.00013006,-429.03,-0.0005101,-5238.9,0.21294
866,5.1947,2.5455,0,0.00050818,5078.3,0.00019055,0.26819,0.00012772,-471.77,-0.00051456,-5297.6,0.21319
867,5.1947,2.7273,0,0.00051101,5106.6,0.00019286,0.24334,0.00012615,-500.94,-0.00051768,-5338.4,0.21336
868,5.1947,2.9091,0,0.00051247,5121.2,0.00019403,0.23285,0.00012537,-515.69,-0.00051929,-5359.4,0.21344
869,5.1947,3.0909,0,0.00051247,5121.2,0.00019403,0.23285,0.00012537,-515.69,-0.00051929,-5359.4,0.21344
870,5.1947,3.2727,0,0.00051101,5106.6,0.00019286,0.24334,0.00012615,-500.94,-0.00051768,-5338.4,0.21336
871,5.1947,3.4545,0,0.00050819,5078.3,0.00019055,0.26819,0.00012772,-471.77,-0.00051456,-5297.6,0.21319
872,5.1947,3.6364,0,0.00050418,5038.3,0.0001872,0.31365,0.00013006,-429.03,-0.0005101,-5238.9,0.21294
873,5.1947,3.8182,0,0.0004992,4988.5,0.00018297,0.38661,0.00013308,-374.48,-0.0005045,-5165,0.21261
874,5.1947,4,0,0.00049344,4931,0.00017803,0.49431,0.00013659,-310.9,-0.00049799,-5078.9,0.21218
875,5.1947,4.1818,0,0.00048709,4867.5,0.00017263,0.64774,0.00014033,-242.11,-0.00049074,-4983.7,0.21167
876,5.1947,4.3636,0,0.00048026,4799.2,0.00016703,0.87574,0.00014395,-172.51,-0.00048294,-4882.7,0.21106
877,5.1947,4.5455,0,0.00047308,4727.6,0.00016147,1.2774,0.00014712,-106.56,-0.00047478,-4779.3,0.21036
878,5.1947,4.7273,0,0.00046571,4653.9,0.00015628,2.3501,0.0001495,-48.577,-0.00046647,-4676.8,0.20956
879,5.1947,4.9091,0,0.0004583,4579.9,0.00015255,10.798,0.00015002,-8.1964,-0.00045825,-4578.5,0.20867
880,5.1947,5.0909,0,0.00045105,4507.4,0.00015232,40.725,0.0001467,-1.5308,-0.00045037,-4487.7,0.20767
881,5.1947,5.2727,0,0.00044415,4438.4,0.00015184,62.867,0.00014339,-0.61643,-0.00044306,-4407,0.20658
882,5.1947,5.4545,0,0.00043775,4374.5,0.0001504,71.198,0.00014089,-0.24996,-0.0004365,-4338.5,0.20538
883,5.1947,5.6364,0,0.00043196,4316.7,0.00014794,64.539,0.00013932,-0.21816,-0.00043083,-4284.1,0.20409
884,5.1947,5.8182,0,0.00042699,4267,0.0001445,43.101,0.00013877,0.079574,-0.00042624,-4245.2,0.2027
885,5.3791,0.18182,0,0.00043334,4330.4,0.00014583,33.951,0.00014132,0.05258,-0.00043275,-4313.3,0.21859
886,5.3791,0.36364,0,0.00043723,4369.3,0.00014846,49.895,0.00014179,-0.17925,-0.00043636,-4344.2,0.21996
887,5.3791,0.54545,0,0.00044167,4413.7,0.00015016,52.754,0.00014311,-0.22651,-0.00044075,-4387.2,0.22123
888,5.3791,0.72727,0,0.00044649,4461.8,0.00015091,42.35,0.00014519,-0.62814,-0.00044576,-4440.8,0.2224
889,5.3791,0.90909,0,0.00045159,4512.8,0.00015083,20.358,0.00014784,-2.1481,-0.00045128,-4503.6,0.22348
890,5.3791,1.0909,0,0.00045686,4565.5,0.00015202,3.113,0.00014892,-20.16,-0.00045715,-4573.9,0.22446
891,5.3791,1.2727,0,0.00046217,4618.6,0.00015578,1.2731,0.0001471,-63.888,-0.0004632,-4649.5,0.22533
892,5.3791,1.4545,0,0.00046741,4670.9,0.00016009,0.82698,0.00014436,-117.33,-0.00046928,-4728,0.22612
893,5.3791,1.6364,0,0.00047245,4721.3,0.00016463,0.60893,0.00014103,-176.67,-0.0004752,-4806.8,0.2268
894,5.3791,1.8182,0,0.00047722,4768.9,0.00016919,0.4678,0.00013738,-238.57,-0.00048082,-4883.5,0.2274
895,5.3791,2,0,0.00048162,4812.9,0.00017357,0.36503,0.00013367,-299.43,-0.00048601,-4955.4,0.2279
896,5.3791,2.1818,0,0.00048557,4852.4,0.00017756,0.28829,0.00013018,-355.71,-0.00049064,-5020.3,0.22831
897,5.3791,2.3636,0,0.00048897,4886.3,0.00018099,0.23286,0.00012715,-404.26,-0.00049458,-5075.7,0.22864
898,5.3791,2.5455,0,0.00049167,4913.4,0.0001837,0.19568,0.00012477,-442.59,-0.0004977,-5119.6,0.22889
899,5.3791,2.7273,0,0.00049357,4932.3,0.00018557,0.17356,0.00012313,-468.98,-0.00049987,-5150,0.22905
900,5.3791,2.9091,0,0.00049455,4942.1,0.00018653,0.16345,0.0001223,-482.41,-0.00050099,-5165.6,0.22913
901,5.3791,3.0909,0,0.00049455,4942.1,0.00018653,0.16345,0.0001223,-482.41,-0.00050099,-5165.6,0.22913
902,5.3791,3.2727,0,0.00049357,4932.3,0.00018557,0.17356,0.00012313,-468.98,-0.00049987,-5150,0.22905
903,5.3791,3.4545,0,0.00049167,4913.4,0.0001837,0.19568,0.00012477,-442.59,-0.0004977,-5119.6,0.22889
904,5.3791,3.6364,0,0.00048897,4886.3,0.00018099,0.23286,0.00012715,-404.26,-0.00049458,-5075.7,0.22864
905,5.3791,3.8182,0,0.00048557,4852.4,0.00017756,0.28829,0.00013018,-355.71,-0.00049064,-5020.3,0.22831
906,5.3791,4,0,0.00048162,4812.9,0.00017357,0.36503,0.00013367,-299.43,-0.00048601,-4955.4,0.2279
907,5.3791,4.1818,0,0.00047722,4768.9,0.00016919,0.4678,0.00013738,-238.57,-0.00048082,-4883.5,0.2274
908,5.3791,4.3636,0,0.00047245,4721.3,0.00016463,0.60893,0.00014103,-176.67,-0.0004752,-4806.8,0.2268
909,5.3791,4.5455,0,0.00046741,4670.9,0.00016009,0.82698,0.00014436,-117.33,-0.00046928,-4728,0.22612
910,5.3791,4.7273,0,0.00046217,4618.6,0.00015578,1.2731,0.0001471,-63.888,-0.0004632,-4649.5,0.22533
911,5.3791,4.9091,0,0.00045686,4565.5,0.00015202,3.113,0.00014892,-20.16,-0.00045715,-4573.9,0.22446
912,5.3791,5.0909,0,0.00045159,4512.8,0.00015083,20.358,0.00014784,-2.1481,-0.00045128,-4503.6,0.22348
913,5.3791,5.2727,0,0.00044649,4461.8,0.00015091,42.35,0.00014519,-0.62814,-0.00044576,-4440.8,0.2224
914,5.3791,5.4545,0,0.00044167,4413.7,0.00015016,52.754,0.00014311,-0.22651,-0.00044075,-4387.2,0.22123
915,5.3791,5.6364,0,0.00043723,4369.3,0.00014846,49.895,0.00014179,-0.17925,-0.00043636,-4344.2,0.21996
916,5.3791,5.8182,0,0.00043334,4330.4,0.00014583,33.952,0.00014132,0.052579,-0.00043275,-4313.3,0.21859
917,5.5634,0.18182,0,0.00043721,4369.1,0.00014646,26.117,0.00014299,0.035867,-0.00043676,-4356,0.23476
918,5.5634,0.36364,0,0.00044017,4398.7,0.00014836,37.05,0.0001434,-0.14877,-0.00043953,-4380.1,0.23612
919,5.5634,0.54545,0,0.0004435,4432,0.00014943,36.713,0.00014451,-0.22605,-0.00044287,-4413.6,0.23738
920,5.5634,0.72727,0,0.00044705,4467.4,0.00014965,25,0.00014622,-0.74494,-0.00044663,-4455.3,0.23853
921,5.5634,0.90909,0,0.00045074,4504.3,0.00014951,6.0983,0.00014802,-5.0994,-0.00045072,-4503.8,0.23959
922,5.5634,1.0909,0,0.00045449,4541.7,0.00015176,1.3343,0.0001471,-33.655,-0.00045502,-4557.8,0.24056
923,5.5634,1.2727,0,0.0004582,4578.9,0.00015497,0.77657,0.00014488,-75.075,-0.00045942,-4615.5,0.24142
924,5.5634,1.4545,0,0.00046182,4615,0.00015853,0.56177,0.000142,-123.64,-0.00046378,-4675.3,0.24219
925,5.5634,1.6364,0,0.00046526,4649.4,0.00016224,0.43451,0.00013866,-176.76,-0.000468,-4735,0.24287
926,5.5634,1.8182,0,0.00046847,4681.5,0.00016596,0.34281,0.00013508,-231.68,-0.00047198,-4792.8,0.24345
927,5.5634,2,0,0.00047141,4710.9,0.00016951,0.27132,0.00013149,-285.44,-0.00047561,-4846.9,0.24395
928,5.5634,2.1818,0,0.00047402,4737,0.00017275,0.21509,0.00012812,-335.12,-0.00047883,-4895.5,0.24436
929,5.5634,2.3636,0,0.00047625,4759.2,0.00017553,0.17239,0.00012519,-378.09,-0.00048155,-4936.8,0.24468
930,5.5634,2.5455,0,0.00047801,4776.8,0.00017773,0.14216,0.00012286,-412.15,-0.00048368,-4969.4,0.24492
931,5.5634,2.7273,0,0.00047924,4789,0.00017925,0.12314,0.00012124,-435.72,-0.00048515,-4991.9,0.24508
932,5.5634,2.9091,0,0.00047987,4795.4,0.00018003,0.11406,0.00012042,-447.75,-0.00048591,-5003.5,0.24516
933,5.5634,3.0909,0,0.00047987,4795.4,0.00018003,0.11406,0.00012042,-447.75,-0.00048591,-5003.5,0.24516
934,5.5634,3.2727,0,0.00047924,4789,0.00017925,0.12314,0.00012124,-435.72,-0.00048515,-4991.9,0.24508
935,5.5634,3.4545,0,0.00047801,4776.8,0.00017773,0.14216,0.00012286,-412.15,-0.00048368,-4969.4,0.24492
936,5.5634,3.6364,0,0.00047625,4759.2,0.00017553,0.17239,0.00012519,-378.09,-0.00048155,-4936.8,0.24468
937,5.5634,3.8182,0,0.00047402,4737,0.00017275,0.21509,0.00012812,-335.12,-0.00047883,-4895.5,0.24436
938,5.5634,4,0,0.00047141,4710.9,0.00016951,0.27132,0.00013149,-285.44,-0.00047561,-4846.9,0.24395
939,5.5634,4.1818,0,0.00046847,4681.5,0.00016596,0.34281,0.00013508,-231.68,-0.00047198,-4792.8,0.24345
940,5.5634,4.3636,0,0.00046526,4649.4,0.00016224,0.43451,0.00013866,-176.76,-0.000468,-4735,0.24287
941,5.5634,4.5455,0,0.00046182,4615,0.00015853,0.56177,0.000142,-123.64,-0.00046378,-4675.3,0.24219
942,5.5634,4.7273,0,0.0004582,4578.9,0.00015497,0.77657,0.00014488,-75.075,-0.00045942,-4615.5,0.24142
943,5.5634,4.9091,0,0.00045449,4541.7,0.00015176,1.3343,0.0001471,-33.654,-0.00045502,-4557.8,0.24056
944,5.5634,5.0909,0,0.00045074,4504.3,0.00014951,6.0983,0.00014802,-5.0994,-0.00045072,-4503.8,0.23959
945,5.5634,5.2727,0,0.00044705,4467.4,0.00014965,25,0.00014622,-0.74494,-0.00044663,-4455.3,0.23853
946,5.5634,5.4545,0,0.0004435,4432,0.00014943,36.713,0.00014451,-0.22605,-0.00044287,-4413.6,0.23738
947,5.5634,5.6364,0,0.00044017,4398.7,0.00014836,37.05,0.0001434,-0.14877,-0.00043953,-4380.1,0.23612
948,5.5634,5.8182,0,0.00043721,4369.1,0.00014646,26.117,0.00014299,0.035865,-0.00043676,-4356,0.23476
949,5.7478,0.18182,0,0.00043909,4387.9,0.00014653,19.541,0.00014393,0.025249,-0.00043876,-4378.1,0.25124
950,5.7478,0.36364,0,0.00044126,4409.6,0.0001478,26.063,0.00014431,-0.12813,-0.00044081,-4396.5,0.25258
951,5.7478,0.54545,0,0.00044368,4433.8,0.00014836,23.1,0.00014525,-0.25933,-0.00044329,-4422.3,0.25382
952,5.7478,0.72727,0,0.00044622,4459.1,0.00014822,10.893,0.00014661,-1.2239,-0.00044605,-4454.3,0.25497
953,5.7478,0.90909,0,0.00044881,4485,0.00014895,1.5504,0.00014682,-14.469,-0.00044902,-4491.4,0.25601
954,5.7478,1.0909,0,0.00045138,4510.7,0.00015123,0.72443,0.00014517,-44.76,-0.00045211,-4532.5,0.25697
955,5.7478,1.2727,0,0.00045388,4535.7,0.00015391,0.50713,0.00014281,-82.895,-0.00045523,-4576.3,0.25782
956,5.7478,1.4545,0,0.00045628,4559.6,0.00015684,0.39397,0.00013992,-126.7,-0.00045829,-4621.4,0.25858
957,5.7478,1.6364,0,0.00045852,4582,0.00015988,0.3157,0.00013667,-174.07,-0.00046122,-4666.4,0.25925
958,5.7478,1.8182,0,0.00046058,4602.6,0.00016291,0.25387,0.00013324,-222.68,-0.00046395,-4709.7,0.25983
959,5.7478,2,0,0.00046243,4621.1,0.0001658,0.20269,0.00012983,-270.07,-0.00046643,-4750.1,0.26032
960,5.7478,2.1818,0,0.00046406,4637.4,0.00016843,0.16058,0.00012665,-313.8,-0.0004686,-4786.2,0.26072
961,5.7478,2.3636,0,0.00046543,4651.1,0.00017069,0.12729,0.00012387,-351.65,-0.00047041,-4816.8,0.26104
962,5.7478,2.5455,0,0.0004665,4661.8,0.00017248,0.10278,0.00012166,-381.72,-0.00047182,-4840.9,0.26128
963,5.7478,2.7273,0,0.00046725,4669.3,0.00017371,0.086798,0.00012012,-402.56,-0.00047279,-4857.5,0.26144
964,5.7478,2.9091,0,0.00046763,4673.1,0.00017434,0.078952,0.00011933,-413.22,-0.00047328,-4865.9,0.26152
965,5.7478,3.0909,0,0.00046763,4673.1,0.00017434,0.078952,0.00011933,-413.22,-0.00047328,-4865.9,0.26152
966,5.7478,3.2727,0,0.00046725,4669.3,0.00017371,0.086798,0.00012012,-402.56,-0.00047279,-4857.5,0.26144
967,5.7478,3.4545,0,0.0004665,4661.8,0.00017248,0.10278,0.00012166,-381.72,-0.00047182,-4840.9,0.26128
968,5.7478,3.6364,0,0.00046543,4651.1,0.00017069,0.12729,0.00012387,-351.65,-0.00047041,-4816.8,0.26104
969,5.7478,3.8182,0,0.00046406,4637.4,0.00016843,0.16058,0.00012665,-313.8,-0.0004686,-4786.2,0.26072
970,5.7478,4,0,0.00046243,4621.1,0.0001658,0.20269,0.00012983,-270.07,-0.00046643,-4750.1,0.26032
971,5.7478,4.1818,0,0.00046058,4602.6,0.00016291,0.25386,0.00013324,-222.68,-0.00046395,-4709.7,0.25983
972,5.7478,4.3636,0,0.00045852,4582,0.00015988,0.3157,0.00013667,-174.07,-0.00046122,-4666.4,0.25925
973,5.7478,4.5455,0,0.00045628,4559.6,0.00015684,0.39397,0.00013992,-126.7,-0.00045829,-4621.4,0.25858
974,5.7478,4.7273,0,0.00045388,4535.7,0.00015391,0.50713,0.00014281,-82.895,-0.00045523,-4576.3,0.25782
975,5.7478,4.9091,0,0.00045138,4510.7,0.00015123,0.72443,0.00014517,-44.76,-0.00045211,-4532.5,0.25697
976,5.7478,5.0909,0,0.00044881,4485,0.00014895,1.5504,0.00014682,-14.469,-0.00044902,-4491.4,0.25601
977,5.7478,5.2727,0,0.00044622,4459.1,0.00014822,10.894,0.00014661,-1.2239,-0.00044605,-4454.3,0.25497
978,5.7478,5.4545,0,0.00044368,4433.8,0.00014836,23.1,0.00014525,-0.25933,-0.00044329,-4422.3,0.25382
979,5.7478,5.6364,0,0.00044126,4409.6,0.0001478,26.063,0.00014431,-0.12813,-0.00044081,-4396.5,0.25258
980,5.7478,5.8182,0,0.00043909,4387.9,0.00014653,19.541,0.00014393,0.025248,-0.00043876,-4378.1,0.25124
981,5.9322,0.18182,0,0.00043937,4390.7,0.00014617,14.121,0.00014429,0.016799,-0.00043913,-4383.6,0.26801
982,5.9322,0.36364,0,0.00044088,4405.8,0.00014691,16.878,0.00014464,-0.1214,-0.0004406,-4397.4,0.26934
983,5.9322,0.54545,0,0.00044257,4422.6,0.00014706,11.861,0.00014543,-0.3793,-0.00044237,-4416.9,0.27057
984,5.9322,0.72727,0,0.0004443,4440,0.00014702,2.1933,0.00014614,-4.4571,-0.00044434,-4441.1,0.2717
985,5.9322,0.90909,0,0.00044603,4457.3,0.00014846,0.66677,0.0001451,-24.621,-0.00044644,-4469.2,0.27274
986,5.9322,1.0909,0,0.00044771,4474,0.00015041,0.44377,0.00014327,-53.245,-0.00044858,-4500.2,0.27368
987,5.9322,1.2727,0,0.0004493,4489.9,0.00015264,0.34647,0.00014088,-87.999,-0.00045073,-4533.1,0.27453
988,5.9322,1.4545,0,0.00045078,4504.7,0.00015504,0.28277,0.00013806,-127.32,-0.0004528,-4566.8,0.27528
989,5.9322,1.6364,0,0.00045212,4518.1,0.00015753,0.23249,0.00013495,-169.44,-0.00045476,-4600.3,0.27595
990,5.9322,1.8182,0,0.00045333,4530.2,0.00016001,0.18944,0.00013172,-212.38,-0.00045657,-4632.5,0.27652
991,5.9322,2,0,0.0004544,4540.8,0.00016237,0.15192,0.00012854,-254.07,-0.00045818,-4662.4,0.27701
992,5.9322,2.1818,0,0.00045531,4549.9,0.00016452,0.11985,0.00012557,-292.47,-0.00045957,-4689.1,0.27741
993,5.9322,2.3636,0,0.00045606,4557.5,0.00016635,0.093691,0.00012299,-325.69,-0.00046073,-4711.5,0.27773
994,5.9322,2.5455,0,0.00045665,4563.3,0.0001678,0.073873,0.00012093,-352.09,-0.00046162,-4729.1,0.27797
995,5.9322,2.7273,0,0.00045705,4567.3,0.00016881,0.060631,0.0001195,-370.41,-0.00046222,-4741.2,0.27812
996,5.9322,2.9091,0,0.00045725,4569.4,0.00016932,0.05402,0.00011877,-379.79,-0.00046253,-4747.4,0.2782
997,5.9322,3.0909,0,0.00045725,4569.4,0.00016932,0.05402,0.00011877,-379.79,-0.00046253,-4747.4,0.2782
998,5.9322,3.2727,0,0.00045705,4567.3,0.00016881,0.060631,0.0001195,-370.41,-0.00046222,-4741.2,0.27812
999,5.9322,3.4545,0,0.00045665,4563.3,0.0001678,0.073873,0.00012093,-352.09,-0.00046162,-4729.1,0.27797
1000,5.9322,3.6364,0,0.00045606,4557.5,0.00016635,0.09369,0.00012299,-325.69,-0.00046073,-4711.5,0.27773
1001,5.9322,3.8182,0,0.00045531,4549.9,0.00016452,0.11985,0.00012557,-292.47,-0.00045957,-4689.1,0.27741
1002,5.9322,4,0,0.0004544,4540.8,0.00016237,0.15192,0.00012854,-254.07,-0.00045818,-4662.4,0.27701
1003,5.9322,4.1818,0,0.00045333,4530.2,0.00016001,0.18944,0.00013172,-212.38,-0.00045657,-4632.5,0.27652
1004,5.9322,4.3636,0,0.00045212,4518.1,0.00015753,0.23249,0.00013495,-169.44,-0.00045476,-4600.3,0.27595
1005,5.9322,4.5455,0,0.00045078,4504.7,0.00015504,0.28277,0.00013806,-127.32,-0.0004528,-4566.8,0.27528
1006,5.9322,4.7273,0,0.0004493,4489.9,0.00015264,0.34647,0.00014088,-87.999,-0.00045073,-4533.1,0.27453
1007,5.9322,4.9091,0,0.00044771,4474,0.00015041,0.44377,0.00014327,-53.245,-0.00044858,-4500.2,0.27368
1008,5.9322,5.0909,0,0.00044603,4457.3,0.00014846,0.66677,0.0001451,-24.621,-0.00044644,-4469.2,0.27274
1009,5.9322,5.2727,0,0.0004443,4440,0.00014702,2.1933,0.00014614,-4.4571,-0.00044434,-4441.1,0.2717
1010,5.9322,5.4545,0,0.00044257,4422.6,0.00014706,11.861,0.00014543,-0.3793,-0.00044237,-4416.9,0.27057
1011,5.9322,5.6364,0,0.00044088,4405.8,0.00014691,16.878,0.00014464,-0.1214,-0.0004406,-4397.4,0.26934
1012,5.9322,5.8182,0,0.00043937,4390.7,0.00014617,14.121,0.00014429,0.016797,-0.00043913,-4383.6,0.26801
1013,6.1165,0.18182,0,0.00043838,4380.8,0.00014548,9.7379,0.00014418,0.006502,-0.00043822,-4375.9,0.28508
1014,6.1165,0.36364,0,0.00043935,4390.5,0.00014578,9.3781,0.00014451,-0.14291,-0.00043919,-4385.9,0.28639
1015,6.1165,0.54545,0,0.00044045,4401.4,0.00014568,3.2955,0.0001451,-1.0628,-0.00044041,-4400.3,0.28761
1016,6.1165,0.72727,0,0.00044155,4412.5,0.00014638,0.59187,0.00014465,-12.399,-0.00044175,-4418.4,0.28874
1017,6.1165,0.90909,0,0.00044262,4423.1,0.00014772,0.37089,0.0001433,-32.848,-0.00044316,-4439.3,0.28977
1018,6.1165,1.0909,0,0.00044362,4433.1,0.00014935,0.29253,0.00014141,-59.388,-0.00044459,-4462.3,0.2907
1019,6.1165,1.2727,0,0.00044452,4442.1,0.00015119,0.24466,0.00013906,-90.905,-0.00044599,-4486.8,0.29154
1020,6.1165,1.4545,0,0.00044532,4450.1,0.00015317,0.20668,0.00013636,-126.1,-0.00044733,-4511.7,0.29229
1021,6.1165,1.6364,0,0.00044601,4457,0.00015522,0.17307,0.00013344,-163.47,-0.00044856,-4536.4,0.29295
1022,6.1165,1.8182,0,0.0004466,4462.9,0.00015725,0.14224,0.00013043,-201.34,-0.00044968,-4560.1,0.29352
1023,6.1165,2,0,0.00044709,4467.8,0.00015918,0.11416,0.00012749,-237.96,-0.00045066,-4581.9,0.29401
1024,6.1165,2.1818,0,0.00044749,4471.8,0.00016093,0.089406,0.00012477,-271.6,-0.00045149,-4601.4,0.29441
1025,6.1165,2.3636,0,0.00044781,4475,0.00016242,0.068708,0.0001224,-300.67,-0.00045216,-4617.7,0.29473
1026,6.1165,2.5455,0,0.00044805,4477.4,0.00016361,0.0527,0.00012051,-323.76,-0.00045267,-4630.4,0.29496
1027,6.1165,2.7273,0,0.00044821,4479,0.00016442,0.041825,0.00011919,-339.79,-0.00045302,-4639.2,0.29512
1028,6.1165,2.9091,0,0.00044829,4479.8,0.00016484,0.036333,0.00011852,-348,-0.00045319,-4643.6,0.2952
1029,6.1165,3.0909,0,0.00044829,4479.8,0.00016484,0.036333,0.00011852,-348,-0.00045319,-4643.6,0.2952
1030,6.1165,3.2727,0,0.00044821,4479,0.00016442,0.041824,0.00011919,-339.79,-0.00045302,-4639.2,0.29512
1031,6.1165,3.4545,0,0.00044805,4477.4,0.00016361,0.0527,0.00012051,-323.76,-0.00045267,-4630.4,0.29496
1032,6.1165,3.6364,0,0.00044781,4475,0.00016242,0.068708,0.0001224,-300.67,-0.00045216,-4617.7,0.29473
1033,6.1165,3.8182,0,0.00044749,4471.8,0.00016093,0.089405,0.00012477,-271.6,-0.00045149,-4601.4,0.29441
1034,6.1165,4,0,0.00044709,4467.8,0.00015918,0.11416,0.00012749,-237.96,-0.00045066,-4581.9,0.29401
1035,6.1165,4.1818,0,0.0004466,4462.9,0.00015725,0.14224,0.00013043,-201.34,-0.00044968,-4560.1,0.29352
1036,6.1165,4.3636,0,0.00044601,4457,0.00015522,0.17307,0.00013344,-163.47,-0.00044856,-4536.4,0.29295
1037,6.1165,4.5455,0,0.00044532,4450.1,0.00015317,0.20668,0.00013636,-126.1,-0.00044733,-4511.7,0.29229
1038,6.1165,4.7273,0,0.00044452,4442.1,0.00015119,0.24466,0.00013906,-90.905,-0.00044599,-4486.8,0.29154
1039,6.1165,4.9091,0,0.00044362,4433.1,0.00014935,0.29253,0.00014141,-59.388,-0.00044459,-4462.3,0.2907
1040,6.1165,5.0909,0,0.00044262,4423.1,0.00014772,0.37089,0.0001433,-32.848,-0.00044316,-4439.3,0.28977
1041,6.1165,5.2727,0,0.00044155,4412.5,0.00014638,0.59187,0.00014465,-12.399,-0.00044175,-4418.4,0.28874
1042,6.1165,5.4545,0,0.00044045,4401.4,0.00014568,3.2955,0.0001451,-1.0628,-0.00044041,-4400.3,0.28761
1043,6.1165,5.6364,0,0.00043935,4390.5,0.00014578,9.3781,0.00014451,-0.14291,-0.00043919,-4385.9,0.28639
1044,6.1165,5.8182,0,0.00043838,4380.8,0.00014548,9.738,0.00014418,0.0065003,-0.00043822,-4375.9,0.28508
1045,6.3009,0.18182,0,0.00043639,4360.9,0.00014453,6.27,0.0001437,-0.01138,-0.00043628,-4357.7,0.30244
1046,6.3009,0.36364,0,0.00043692,4366.2,0.00014449,3.4883,0.00014399,-0.28396,-0.00043686,-4364.6,0.30375
1047,6.3009,0.54545,0,0.00043754,4372.4,0.00014471,0.49953,0.0001439,-5.6215,-0.00043763,-4375,0.30496
1048,6.3009,0.72727,0,0.00043816,4378.6,0.00014558,0.28836,0.00014295,-19.523,-0.00043848,-4388.1,0.30608
1049,6.3009,0.90909,0,0.00043872,4384.2,0.00014673,0.23449,0.0001415,-39.063,-0.00043937,-4403.4,0.3071
1050,6.3009,1.0909,0,0.0004392,4389,0.00014809,0.20285,0.00013961,-63.523,-0.00044024,-4420.3,0.30803
1051,6.3009,1.2727,0,0.0004396,4392.9,0.00014962,0.17733,0.00013734,-92.028,-0.00044109,-4438.1,0.30886
1052,6.3009,1.4545,0,0.0004399,4396,0.00015125,0.15339,0.0001348,-123.48,-0.00044187,-4456.3,0.30961
1053,6.3009,1.6364,0,0.00044012,4398.1,0.00015294,0.13005,0.00013208,-156.59,-0.00044257,-4474.3,0.31026
1054,6.3009,1.8182,0,0.00044026,4399.5,0.0001546,0.10738,0.00012931,-189.95,-0.00044318,-4491.4,0.31083
1055,6.3009,2,0,0.00044034,4400.4,0.00015618,0.085987,0.00012661,-222.07,-0.0004437,-4507.2,0.31131
1056,6.3009,2.1818,0,0.00044038,4400.8,0.00015761,0.066656,0.00012413,-251.5,-0.00044412,-4521.1,0.31171
1057,6.3009,2.3636,0,0.0004404,4400.9,0.00015883,0.050185,0.00012198,-276.88,-0.00044445,-4532.8,0.31203
1058,6.3009,2.5455,0,0.0004404,4400.9,0.0001598,0.037252,0.00012026,-297.03,-0.0004447,-4541.9,0.31227
1059,6.3009,2.7273,0,0.00044039,4400.9,0.00016046,0.028363,0.00011907,-311,-0.00044486,-4548.1,0.31242
1060,6.3009,2.9091,0,0.00044039,4400.9,0.00016081,0.023841,0.00011846,-318.16,-0.00044494,-4551.3,0.3125
1061,6.3009,3.0909,0,0.00044039,4400.9,0.00016081,0.023841,0.00011846,-318.16,-0.00044494,-4551.3,0.3125
1062,6.3009,3.2727,0,0.00044039,4400.9,0.00016046,0.028363,0.00011907,-311,-0.00044486,-4548.1,0.31242
1063,6.3009,3.4545,0,0.0004404,4400.9,0.0001598,0.037252,0.00012026,-297.03,-0.0004447,-4541.9,0.31227
1064,6.3009,3.6364,0,0.0004404,4400.9,0.00015883,0.050185,0.00012198,-276.88,-0.00044445,-4532.8,0.31203
1065,6.3009,3.8182,0,0.00044038,4400.8,0.00015761,0.066656,0.00012413,-251.5,-0.00044412,-4521.1,0.31171
1066,6.3009,4,0,0.00044034,4400.4,0.00015618,0.085987,0.00012661,-222.07,-0.0004437,-4507.2,0.31131
1067,6.3009,4.1818,0,0.00044026,4399.5,0.0001546,0.10738,0.00012931,-189.95,-0.00044318,-4491.4,0.31083
1068,6.3009,4.3636,0,0.00044012,4398.1,0.00015294,0.13005,0.00013208,-156.59,-0.00044257,-4474.3,0.31026
1069,6.3009,4.5455,0,0.0004399,4396,0.00015125,0.15339,0.0001348,-123.48,-0.00044187,-4456.3,0.30961
1070,6.3009,4.7273,0,0.0004396,4392.9,0.00014962,0.17732,0.00013734,-92.028,-0.00044109,-4438.1,0.30886
1071,6.3009,4.9091,0,0.0004392,4389,0.00014809,0.20285,0.00013961,-63.523,-0.00044024,-4420.3,0.30803
1072,6.3009,5.0909,0,0.00043872,4384.2,0.00014673,0.23448,0.0001415,-39.063,-0.00043937,-4403.4,0.3071
1073,6.3009,5.2727,0,0.00043816,4378.6,0.00014558,0.28836,0.00014295,-19.523,-0.00043848,-4388.1,0.30608
1074,6.3009,5.4545,0,0.00043754,4372.4,0.00014471,0.49954,0.0001439,-5.6214,-0.00043763,-4375,0.30496
1075,6.3009,5.6364,0,0.00043692,4366.2,0.00014449,3.4883,0.00014399,-0.28396,-0.00043686,-4364.6,0.30375
1076,6.3009,5.8182,0,0.00043639,4360.9,0.00014453,6.27,0.0001437,-0.011382,-0.00043628,-4357.7,0.30244
1077,6.4853,0.18182,0,0.0004336,4333,0.00014339,3.6064,0.0001429,-0.050193,-0.00043354,-4331.2,0.32011
1078,6.4853,0.36364,0,0.00043378,4334.8,0.00014328,0.43346,0.00014296,-1.9495,-0.00043381,-4335.6,0.3214
1079,6.4853,0.54545,0,0.00043404,4337.4,0.0001438,0.20872,0.0001423,-11.021,-0.00043422,-4342.8,0.3226
1080,6.4853,0.72727,0,0.00043427,4339.7,0.00014456,0.17605,0.00014121,-24.999,-0.00043469,-4352.1,0.32371
1081,6.4853,0.90909,0,0.00043445,4341.5,0.00014553,0.16025,0.00013972,-43.482,-0.00043517,-4363,0.32473
1082,6.4853,1.0909,0,0.00043455,4342.5,0.00014667,0.1461,0.00013787,-65.964,-0.00043563,-4375.1,0.32565
1083,6.4853,1.2727,0,0.00043457,4342.7,0.00014794,0.13132,0.00013572,-91.71,-0.00043606,-4387.8,0.32648
1084,6.4853,1.4545,0,0.00043452,4342.2,0.00014929,0.11537,0.00013334,-119.79,-0.00043643,-4400.8,0.32722
1085,6.4853,1.6364,0,0.0004344,4341,0.00015068,0.098563,0.00013082,-149.11,-0.00043674,-4413.6,0.32787
1086,6.4853,1.8182,0,0.00043423,4339.3,0.00015205,0.081494,0.00012829,-178.47,-0.00043699,-4425.7,0.32844
1087,6.4853,2,0,0.00043403,4337.3,0.00015335,0.064932,0.00012584,-206.62,-0.00043717,-4436.9,0.32892
1088,6.4853,2.1818,0,0.00043382,4335.2,0.00015452,0.049681,0.00012359,-232.34,-0.00043731,-4446.7,0.32932
1089,6.4853,2.3636,0,0.00043363,4333.3,0.00015552,0.036501,0.00012165,-254.47,-0.0004374,-4454.9,0.32964
1090,6.4853,2.5455,0,0.00043347,4331.7,0.00015631,0.026039,0.0001201,-272.02,-0.00043745,-4461.3,0.32987
1091,6.4853,2.7273,0,0.00043335,4330.6,0.00015685,0.01879,0.00011903,-284.18,-0.00043749,-4465.6,0.33003
1092,6.4853,2.9091,0,0.00043329,4330,0.00015713,0.015084,0.00011848,-290.41,-0.0004375,-4467.8,0.33011
1093,6.4853,3.0909,0,0.00043329,4330,0.00015713,0.015083,0.00011848,-290.41,-0.0004375,-4467.8,0.33011
1094,6.4853,3.2727,0,0.00043335,4330.6,0.00015685,0.01879,0.00011903,-284.18,-0.00043749,-4465.6,0.33003
1095,6.4853,3.4545,0,0.00043347,4331.7,0.00015631,0.026039,0.0001201,-272.02,-0.00043745,-4461.3,0.32987
1096,6.4853,3.6364,0,0.00043363,4333.3,0.00015552,0.036501,0.00012165,-254.47,-0.0004374,-4454.9,0.32964
1097,6.4853,3.8182,0,0.00043382,4335.2,0.00015452,0.049681,0.00012359,-232.34,-0.00043731,-4446.7,0.32932
1098,6.4853,4,0,0.00043403,4337.3,0.00015335,0.064932,0.00012584,-206.62,-0.00043717,-4436.9,0.32892
1099,6.4853,4.1818,0,0.00043423,4339.3,0.00015205,0.081493,0.00012829,-178.47,-0.00043699,-4425.7,0.32844
1100,6.4853,4.3636,0,0.0004344,4341,0.00015068,0.098563,0.00013082,-149.11,-0.00043674,-4413.6,0.32787
1101,6.4853,4.5455,0,0.00043452,4342.2,0.00014929,0.11537,0.00013334,-119.79,-0.00043643,-4400.8,0.32722
1102,6.4853,4.7273,0,0.00043457,4342.7,0.00014794,0.13132,0.00013572,-91.71,-0.00043606,-4387.8,0.32648
1103,6.4853,4.9091,0,0.00043455,4342.5,0.00014667,0.1461,0.00013787,-65.964,-0.00043563,-4375.1,0.32565
1104,6.4853,5.0909,0,0.00043445,4341.5,0.00014553,0.16025,0.00013972,-43.482,-0.00043517,-4363,0.32473
1105,6.4853,5.2727,0,0.00043427,4339.7,0.00014456,0.17605,0.00014121,-24.999,-0.00043469,-4352.1,0.32371
1106,6.4853,5.4545,0,0.00043404,4337.4,0.0001438,0.20872,0.0001423,-11.021,-0.00043422,-4342.8,0.3226
1107,6.4853,5.6364,0,0.00043378,4334.8,0.00014328,0.43346,0.00014296,-1.9495,-0.00043381,-4335.6,0.3214
1108,6.4853,5.8182,0,0.0004336,4333,0.00014339,3.6064,0.0001429,-0.050195,-0.00043354,-4331.2,0.32011
1109,6.6696,0.18182,0,0.00043019,4299,0.00014211,1.6817,0.00014187,-0.15983,-0.00043017,-4298.2,0.33807
1110,6.6696,0.36364,0,0.0004301,4298,0.00014221,0.15254,0.00014149,-5.2578,-0.00043019,-4300.6,0.33935
1111,6.6696,0.54545,0,0.00043007,4297.8,0.00014269,0.12578,0.00014065,-15.194,-0.00043033,-4305.3,0.34054
1112,6.6696,0.72727,0,0.00043002,4297.2,0.00014335,0.12065,0.00013948,-28.957,-0.0004305,-4311.6,0.34164
1113,6.6696,0.90909,0,0.00042991,4296.1,0.00014417,0.11551,0.00013798,-46.363,-0.00043068,-4319.1,0.34265
1114,6.6696,1.0909,0,0.00042973,4294.4,0.00014513,0.10841,0.0001362,-66.998,-0.00043083,-4327.4,0.34357
1115,6.6696,1.2727,0,0.00042949,4291.9,0.00014618,0.099058,0.00013416,-90.241,-0.00043095,-4336.3,0.34439
1116,6.6696,1.4545,0,0.00042918,4288.8,0.00014731,0.087832,0.00013195,-115.3,-0.00043102,-4345.3,0.34513
1117,6.6696,1.6364,0,0.00042882,4285.2,0.00014846,0.075304,0.00012965,-141.26,-0.00043105,-4354.1,0.34578
1118,6.6696,1.8182,0,0.00042844,4281.4,0.00014959,0.062169,0.00012734,-167.1,-0.00043103,-4362.5,0.34635
1119,6.6696,2,0,0.00042805,4277.5,0.00015065,0.049163,0.00012512,-191.77,-0.00043099,-4370.1,0.34683
1120,6.6696,2.1818,0,0.00042768,4273.8,0.00015162,0.03702,0.0001231,-214.23,-0.00043092,-4376.9,0.34723
1121,6.6696,2.3636,0,0.00042735,4270.5,0.00015244,0.026418,0.00012135,-233.51,-0.00043084,-4382.5,0.34754
1122,6.6696,2.5455,0,0.00042708,4267.9,0.00015308,0.017938,0.00011997,-248.78,-0.00043077,-4386.8,0.34778
1123,6.6696,2.7273,0,0.0004269,4266,0.00015353,0.012029,0.00011901,-259.35,-0.00043072,-4389.8,0.34794
1124,6.6696,2.9091,0,0.0004268,4265.1,0.00015376,0.0089963,0.00011852,-264.76,-0.00043069,-4391.3,0.34801
1125,6.6696,3.0909,0,0.0004268,4265.1,0.00015376,0.0089964,0.00011852,-264.76,-0.00043069,-4391.3,0.34801
1126,6.6696,3.2727,0,0.0004269,4266,0.00015353,0.012028,0.00011901,-259.35,-0.00043072,-4389.8,0.34794
1127,6.6696,3.4545,0,0.00042708,4267.9,0.00015308,0.017938,0.00011997,-248.78,-0.00043077,-4386.8,0.34778
1128,6.6696,3.6364,0,0.00042735,4270.5,0.00015244,0.026418,0.00012135,-233.51,-0.00043084,-4382.5,0.34754
1129,6.6696,3.8182,0,0.00042768,4273.8,0.00015162,0.03702,0.0001231,-214.23,-0.00043092,-4376.9,0.34723
1130,6.6696,4,0,0.00042805,4277.5,0.00015065,0.049163,0.00012512,-191.77,-0.00043099,-4370.1,0.34683
1131,6.6696,4.1818,0,0.00042844,4281.4,0.00014959,0.062168,0.00012734,-167.1,-0.00043103,-4362.5,0.34635
1132,6.6696,4.3636,0,0.00042882,4285.2,0.00014846,0.075303,0.00012965,-141.26,-0.00043105,-4354.1,0.34578
1133,6.6696,4.5455,0,0.00042918,4288.8,0.00014731,0.087831,0.00013195,-115.3,-0.00043102,-4345.3,0.34513
1134,6.6696,4.7273,0,0.00042949,4291.9,0.00014618,0.099058,0.00013416,-90.241,-0.00043095,-4336.3,0.34439
1135,6.6696,4.9091,0,0.00042973,4294.4,0.00014513,0.10841,0.0001362,-66.998,-0.00043083,-4327.4,0.34357
1136,6.6696,5.0909,0,0.00042991,4296.1,0.00014417,0.11551,0.00013798,-46.363,-0.00043068,-4319.1,0.34265
1137,6.6696,5.2727,0,0.00043002,4297.2,0.00014335,0.12065,0.00013948,-28.957,-0.0004305,-4311.6,0.34164
1138,6.6696,5.4545,0,0.00043007,4297.8,0.00014269,0.12578,0.00014065,-15.194,-0.00043033,-4305.3,0.34054
1139,6.6696,5.6364,0,0.0004301,4298,0.00014221,0.15254,0.00014149,-5.2578,-0.00043019,-4300.6,0.33935
1140,6.6696,5.8182,0,0.00043019,4299,0.00014211,1.6817,0.00014187,-0.15983,-0.00043017,-4298.2,0.33807
1141,6.854,0.18182,0,0.0004263,4260.1,0.00014076,0.60468,0.0001406,-0.55377,-0.0004263,-4260.1,0.35631
1142,6.854,0.36364,0,0.000426,4257,0.00014098,0.102,0.00013992,-7.835,-0.00042613,-4260.9,0.35759
1143,6.854,0.54545,0,0.00042576,4254.6,0.00014141,0.087949,0.00013897,-18.193,-0.00042606,-4263.6,0.35877
1144,6.854,0.72727,0,0.00042549,4251.9,0.00014198,0.088758,0.00013776,-31.61,-0.00042601,-4267.6,0.35987
1145,6.854,0.90909,0,0.00042517,4248.7,0.00014268,0.086566,0.00013629,-47.954,-0.00042596,-4272.5,0.36087
1146,6.854,1.0909,0,0.00042479,4245,0.00014349,0.082424,0.00013457,-66.88,-0.00042588,-4278,0.36178
1147,6.854,1.2727,0,0.00042435,4240.6,0.00014437,0.07593,0.00013267,-87.865,-0.00042578,-4283.8,0.3626
1148,6.854,1.4545,0,0.00042387,4235.8,0.00014531,0.06761,0.00013063,-110.24,-0.00042564,-4289.8,0.36334
1149,6.854,1.6364,0,0.00042336,4230.6,0.00014626,0.057983,0.00012852,-133.23,-0.00042546,-4295.7,0.36398
1150,6.854,1.8182,0,0.00042283,4225.4,0.00014719,0.047677,0.00012643,-155.98,-0.00042527,-4301.2,0.36455
1151,6.854,2,0,0.00042232,4220.3,0.00014807,0.037335,0.00012443,-177.59,-0.00042506,-4306.3,0.36503
1152,6.854,2.1818,0,0.00042185,4215.6,0.00014887,0.027586,0.00012262,-197.21,-0.00042486,-4310.7,0.36542
1153,6.854,2.3636,0,0.00042144,4211.5,0.00014954,0.019015,0.00012106,-214.01,-0.00042467,-4314.4,0.36574
1154,6.854,2.5455,0,0.00042111,4208.2,0.00015007,0.012124,0.00011982,-227.29,-0.00042451,-4317.2,0.36598
1155,6.854,2.7273,0,0.00042088,4205.9,0.00015044,0.0073027,0.00011897,-236.48,-0.0004244,-4319.1,0.36613
1156,6.854,2.9091,0,0.00042076,4204.7,0.00015063,0.0048236,0.00011853,-241.17,-0.00042435,-4320.1,0.36621
1157,6.854,3.0909,0,0.00042076,4204.7,0.00015063,0.0048236,0.00011853,-241.17,-0.00042435,-4320.1,0.36621
1158,6.854,3.2727,0,0.00042088,4205.9,0.00015044,0.0073028,0.00011897,-236.48,-0.0004244,-4319.1,0.36613
1159,6.854,3.4545,0,0.00042111,4208.2,0.00015007,0.012124,0.00011982,-227.29,-0.00042451,-4317.2,0.36598
1160,6.854,3.6364,0,0.00042144,4211.5,0.00014954,0.019015,0.00012106,-214.01,-0.00042467,-4314.4,0.36574
1161,6.854,3.8182,0,0.00042185,4215.6,0.00014887,0.027586,0.00012262,-197.21,-0.00042486,-4310.7,0.36542
1162,6.854,4,0,0.00042232,4220.3,0.00014807,0.037335,0.00012443,-177.59,-0.00042506,-4306.3,0.36503
1163,6.854,4.1818,0,0.00042283,4225.4,0.00014719,0.047677,0.00012643,-155.98,-0.00042527,-4301.2,0.36455
1164,6.854,4.3636,0,0.00042336,4230.6,0.00014626,0.057982,0.00012852,-133.23,-0.00042546,-4295.7,0.36398
1165,6.854,4.5455,0,0.00042387,4235.8,0.00014531,0.067609,0.00013063,-110.24,-0.00042564,-4289.8,0.36334
1166,6.854,4.7273,0,0.00042435,4240.6,0.00014437,0.075929,0.00013267,-87.865,-0.00042578,-4283.8,0.3626
1167,6.854,4.9091,0,0.00042479,4245,0.00014349,0.082424,0.00013457,-66.88,-0.00042588,-4278,0.36178
1168,6.854,5.0909,0,0.00042517,4248.7,0.00014268,0.086565,0.00013629,-47.954,-0.00042596,-4272.5,0.36087
1169,6.854,5.2727,0,0.00042549,4251.9,0.00014198,0.088757,0.00013776,-31.609,-0.00042601,-4267.6,0.35987
1170,6.854,5.4545,0,0.00042576,4254.6,0.00014141,0.087949,0.00013897,-18.193,-0.00042606,-4263.6,0.35877
1171,6.854,5.6364,0,0.000426,4257,0.00014098,0.102,0.00013992,-7.835,-0.00042613,-4260.9,0.35759
1172,6.854,5.8182,0,0.0004263,4260.1,0.00014076,0.60468,0.0001406,-0.55377,-0.0004263,-4260.1,0.35631
1173,7.0383,0.18182,0,0.00042205,4217.6,0.00013936,0.30319,0.00013916,-1.253,-0.00042206,-4218,0.37485
1174,7.0383,0.36364,0,0.00042158,4212.9,0.0001396,0.083176,0.00013831,-9.6381,-0.00042174,-4217.6,0.37612
1175,7.0383,0.54545,0,0.00042117,4208.8,0.00013999,0.066561,0.0001373,-20.19,-0.00042151,-4218.9,0.37729
1176,7.0383,0.72727,0,0.00042075,4204.6,0.00014049,0.068497,0.00013607,-33.17,-0.0004213,-4221,0.37838
1177,7.0383,0.90909,0,0.00042028,4199.9,0.00014109,0.066846,0.00013463,-48.483,-0.00042108,-4223.9,0.37937
1178,7.0383,1.0909,0,0.00041976,4194.7,0.00014177,0.063962,0.000133,-65.836,-0.00042084,-4227.2,0.38028
1179,7.0383,1.2727,0,0.00041919,4189.1,0.00014252,0.059051,0.00013123,-84.791,-0.00042057,-4230.8,0.3811
1180,7.0383,1.4545,0,0.0004186,4183.1,0.0001433,0.052603,0.00012935,-104.79,-0.00042028,-4234.5,0.38183
1181,7.0383,1.6364,0,0.00041798,4177,0.00014409,0.045006,0.00012743,-125.16,-0.00041997,-4238.1,0.38247
1182,7.0383,1.8182,0,0.00041737,4170.9,0.00014487,0.036784,0.00012554,-145.2,-0.00041965,-4241.5,0.38304
1183,7.0383,2,0,0.00041679,4165,0.00014559,0.028468,0.00012374,-164.16,-0.00041934,-4244.7,0.38351
1184,7.0383,2.1818,0,0.00041626,4159.7,0.00014625,0.020584,0.00012212,-181.3,-0.00041905,-4247.4,0.38391
1185,7.0383,2.3636,0,0.0004158,4155.1,0.00014681,0.013622,0.00012073,-195.94,-0.00041879,-4249.6,0.38423
1186,7.0383,2.5455,0,0.00041544,4151.5,0.00014724,0.0080046,0.00011963,-207.49,-0.00041858,-4251.4,0.38446
1187,7.0383,2.7273,0,0.00041519,4149,0.00014755,0.0040653,0.00011887,-215.47,-0.00041843,-4252.5,0.38462
1188,7.0383,2.9091,0,0.00041506,4147.7,0.0001477,0.0020364,0.00011848,-219.55,-0.00041836,-4253.1,0.3847
1189,7.0383,3.0909,0,0.00041506,4147.7,0.0001477,0.0020362,0.00011848,-219.55,-0.00041836,-4253.1,0.3847
1190,7.0383,3.2727,0,0.00041519,4149,0.00014755,0.0040656,0.00011887,-215.47,-0.00041843,-4252.5,0.38462
1191,7.0383,3.4545,0,0.00041544,4151.5,0.00014724,0.0080044,0.00011963,-207.49,-0.00041858,-4251.4,0.38446
1192,7.0383,3.6364,0,0.0004158,4155.1,0.00014681,0.013621,0.00012073,-195.94,-0.00041879,-4249.6,0.38423
1193,7.0383,3.8182,0,0.00041626,4159.7,0.00014625,0.020584,0.00012212,-181.3,-0.00041905,-4247.4,0.38391
1194,7.0383,4,0,0.00041679,4165,0.00014559,0.028468,0.00012374,-164.16,-0.00041934,-4244.7,0.38351
1195,7.0383,4.1818,0,0.00041737,4170.9,0.00014487,0.036784,0.00012554,-145.2,-0.00041965,-4241.5,0.38304
1196,7.0383,4.3636,0,0.00041798,4177,0.00014409,0.045005,0.00012743,-125.16,-0.00041997,-4238.1,0.38247
1197,7.0383,4.5455,0,0.0004186,4183.1,0.0001433,0.052602,0.00012935,-104.79,-0.00042028,-4234.5,0.38183
1198,7.0383,4.7273,0,0.00041919,4189.1,0.00014252,0.05905,0.00013123,-84.791,-0.00042057,-4230.8,0.3811
1199,7.0383,4.9091,0,0.00041976,4194.7,0.00014177,0.063961,0.000133,-65.836,-0.00042084,-4227.2,0.38028
1200,7.0383,5.0909,0,0.00042028,4199.9,0.00014109,0.066844,0.00013463,-48.483,-0.00042108,-4223.9,0.37937
1201,7.0383,5.2727,0,0.00042075,4204.6,0.00014049,0.068496,0.00013607,-33.17,-0.0004213,-4221,0.37838
1202,7.0383,5.4545,0,0.00042117,4208.8,0.00013999,0.066561,0.0001373,-20.19,-0.00042151,-4218.9,0.37729
1203,7.0383,5.6364,0,0.00042158,4212.9,0.0001396,0.083175,0.00013831,-9.6381,-0.00042174,-4217.6,0.37612
1204,7.0383,5.8182,0,0.00042205,4217.6,0.00013936,0.30319,0.00013916,-1.253,-0.00042206,-4218,0.37485
1205,7.2227,0.18182,0,0.0004175,4172.2,0.00013788,0.22686,0.00013762,-1.7889,-0.00041753,-4172.9,0.39368
1206,7.2227,0.36364,0,0.00041691,4166.3,0.00013812,0.073497,0.00013668,-10.784,-0.0004171,-4171.6,0.39494
1207,7.2227,0.54545,0,0.00041639,4161.1,0.00013847,0.052853,0.00013562,-21.354,-0.00041675,-4171.7,0.3961
1208,7.2227,0.72727,0,0.00041585,4155.7,0.00013891,0.054677,0.0001344,-33.833,-0.00041642,-4172.4,0.39718
1209,7.2227,0.90909,0,0.00041528,4149.9,0.00013942,0.052874,0.00013301,-48.152,-0.00041608,-4173.8,0.39817
1210,7.2227,1.0909,0,0.00041467,4143.8,0.00014001,0.050519,0.00013147,-64.063,-0.00041572,-4175.4,0.39907
1211,7.2227,1.2727,0,0.00041402,4137.4,0.00014063,0.046546,0.00012982,-81.197,-0.00041534,-4177.3,0.39988
1212,7.2227,1.4545,0,0.00041336,4130.7,0.00014129,0.041363,0.0001281,-99.081,-0.00041495,-4179.3,0.40061
1213,7.2227,1.6364,0,0.00041268,4124,0.00014195,0.035236,0.00012635,-117.16,-0.00041455,-4181.3,0.40125
1214,7.2227,1.8182,0,0.00041203,4117.4,0.0001426,0.028583,0.00012465,-134.83,-0.00041415,-4183.2,0.40181
1215,7.2227,2,0,0.00041141,4111.2,0.0001432,0.021832,0.00012304,-151.47,-0.00041377,-4184.9,0.40229
1216,7.2227,2.1818,0,0.00041085,4105.6,0.00014374,0.015414,0.00012159,-166.47,-0.00041342,-4186.3,0.40268
1217,7.2227,2.3636,0,0.00041037,4100.8,0.0001442,0.0097329,0.00012035,-179.24,-0.00041312,-4187.5,0.403
1218,7.2227,2.5455,0,0.00040999,4097.1,0.00014457,0.0051407,0.00011937,-189.3,-0.00041288,-4188.4,0.40323
1219,7.2227,2.7273,0,0.00040973,4094.5,0.00014481,0.0019152,0.0001187,-196.23,-0.00041271,-4189.1,0.40339
1220,7.2227,2.9091,0,0.0004096,4093.1,0.00014494,0.00025243,0.00011835,-199.78,-0.00041263,-4189.4,0.40347
1221,7.2227,3.0909,0,0.0004096,4093.1,0.00014494,0.00025255,0.00011835,-199.78,-0.00041263,-4189.4,0.40347
1222,7.2227,3.2727,0,0.00040973,4094.5,0.00014481,0.0019151,0.0001187,-196.23,-0.00041271,-4189.1,0.40339
1223,7.2227,3.4545,0,0.00040999,4097.1,0.00014457,0.0051407,0.00011937,-189.3,-0.00041288,-4188.4,0.40323
1224,7.2227,3.6364,0,0.00041037,4100.9,0.0001442,0.0097327,0.00012035,-179.24,-0.00041312,-4187.5,0.403
1225,7.2227,3.8182,0,0.00041085,4105.6,0.00014374,0.015414,0.00012159,-166.47,-0.00041342,-4186.3,0.40268
1226,7.2227,4,0,0.00041141,4111.2,0.0001432,0.021832,0.00012304,-151.47,-0.00041377,-4184.9,0.40229
1227,7.2227,4.1818,0,0.00041203,4117.4,0.0001426,0.028583,0.00012465,-134.83,-0.00041415,-4183.2,0.40181
1228,7.2227,4.3636,0,0.00041268,4124,0.00014195,0.035236,0.00012635,-117.16,-0.00041455,-4181.3,0.40125
1229,7.2227,4.5455,0,0.00041336,4130.7,0.00014129,0.041363,0.0001281,-99.081,-0.00041495,-4179.3,0.40061
1230,7.2227,4.7273,0,0.00041402,4137.4,0.00014063,0.046545,0.00012982,-81.197,-0.00041534,-4177.3,0.39988
1231,7.2227,4.9091,0,0.00041467,4143.8,0.00014001,0.050519,0.00013147,-64.063,-0.00041572,-4175.4,0.39907
1232,7.2227,5.0909,0,0.00041528,4149.9,0.00013942,0.052874,0.00013301,-48.152,-0.00041608,-4173.8,0.39817
1233,7.2227,5.2727,0,0.00041585,4155.7,0.00013891,0.054677,0.0001344,-33.833,-0.00041642,-4172.4,0.39718
1234,7.2227,5.4545,0,0.00041639,4161.1,0.00013847,0.052852,0.00013562,-21.354,-0.00041675,-4171.7,0.3961
1235,7.2227,5.6364,0,0.00041691,4166.3,0.00013812,0.073496,0.00013668,-10.784,-0.0004171,-4171.6,0.39494
1236,7.2227,5.8182,0,0.0004175,4172.2,0.00013788,0.22686,0.00013762,-1.7889,-0.00041753,-4172.9,0.39368
1237,7.4071,0.18182,0,0.00041274,4124.6,0.00013632,0.20182,0.00013602,-2.0588,-0.00041278,-4125.5,0.41279
1238,7.4071,0.36364,0,0.00041207,4117.8,0.00013655,0.067249,0.00013503,-11.389,-0.00041226,-4123.5,0.41403
1239,7.4071,0.54545,0,0.00041147,4111.8,0.00013687,0.043296,0.00013396,-21.839,-0.00041183,-4122.7,0.41519
1240,7.4071,0.72727,0,0.00041085,4105.7,0.00013725,0.044787,0.00013275,-33.773,-0.00041141,-4122.4,0.41626
1241,7.4071,0.90909,0,0.00041021,4099.2,0.0001377,0.042612,0.00013142,-47.14,-0.00041099,-4122.6,0.41724
1242,7.4071,1.0909,0,0.00040954,4092.5,0.0001382,0.04052,0.00012998,-61.73,-0.00041055,-4123,0.41814
1243,7.4071,1.2727,0,0.00040884,4085.6,0.00013873,0.037149,0.00012845,-77.233,-0.0004101,-4123.7,0.41894
1244,7.4071,1.4545,0,0.00040814,4078.6,0.00013928,0.032869,0.00012687,-93.25,-0.00040965,-4124.4,0.41967
1245,7.4071,1.6364,0,0.00040744,4071.6,0.00013984,0.02784,0.00012528,-109.32,-0.00040919,-4125.1,0.42031
1246,7.4071,1.8182,0,0.00040677,4064.8,0.00014037,0.022394,0.00012375,-124.92,-0.00040875,-4125.9,0.42087
1247,7.4071,2,0,0.00040613,4058.5,0.00014088,0.016868,0.0001223,-139.55,-0.00040833,-4126.5,0.42134
1248,7.4071,2.1818,0,0.00040557,4052.9,0.00014133,0.011612,0.00012101,-152.68,-0.00040795,-4127.1,0.42174
1249,7.4071,2.3636,0,0.00040509,4048.1,0.00014171,0.0069571,0.00011991,-163.84,-0.00040762,-4127.5,0.42205
1250,7.4071,2.5455,0,0.00040471,4044.3,0.00014201,0.0031916,0.00011904,-172.6,-0.00040737,-4127.8,0.42228
1251,7.4071,2.7273,0,0.00040445,4041.7,0.00014222,0.00054479,0.00011844,-178.64,-0.00040719,-4128,0.42244
1252,7.4071,2.9091,0,0.00040431,4040.4,0.00014232,-0.00082019,0.00011814,-181.72,-0.0004071,-4128.2,0.42252
1253,7.4071,3.0909,0,0.00040431,4040.4,0.00014232,-0.00082037,0.00011814,-181.72,-0.0004071,-4128.2,0.42252
1254,7.4071,3.2727,0,0.00040445,4041.7,0.00014222,0.00054509,0.00011844,-178.64,-0.00040719,-4128,0.42244
1255,7.4071,3.4545,0,0.00040471,4044.3,0.00014201,0.0031913,0.00011904,-172.6,-0.00040737,-4127.8,0.42228
1256,7.4071,3.6364,0,0.00040509,4048.1,0.00014171,0.0069573,0.00011991,-163.84,-0.00040762,-4127.5,0.42205
1257,7.4071,3.8182,0,0.00040557,4052.9,0.00014133,0.011612,0.00012101,-152.68,-0.00040795,-4127.1,0.42174
1258,7.4071,4,0,0.00040613,4058.5,0.00014088,0.016868,0.0001223,-139.55,-0.00040833,-4126.5,0.42134
1259,7.4071,4.1818,0,0.00040677,4064.8,0.00014037,0.022393,0.00012375,-124.92,-0.00040875,-4125.9,0.42087
1260,7.4071,4.3636,0,0.00040744,4071.6,0.00013984,0.02784,0.00012528,-109.32,-0.00040919,-4125.1,0.42031
1261,7.4071,4.5455,0,0.00040814,4078.6,0.00013928,0.032867,0.00012687,-93.25,-0.00040965,-4124.4,0.41967
1262,7.4071,4.7273,0,0.00040884,4085.6,0.00013873,0.037149,0.00012845,-77.233,-0.0004101,-4123.7,0.41894
1263,7.4071,4.9091,0,0.00040954,4092.5,0.0001382,0.040519,0.00012998,-61.73,-0.00041055,-4123,0.41814
1264,7.4071,5.0909,0,0.00041021,4099.2,0.0001377,0.042611,0.00013142,-47.14,-0.00041099,-4122.6,0.41724
1265,7.4071,5.2727,0,0.00041085,4105.7,0.00013725,0.044785,0.00013275,-33.773,-0.00041141,-4122.4,0.41626
1266,7.4071,5.4545,0,0.00041147,4111.8,0.00013687,0.043296,0.00013396,-21.839,-0.00041183,-4122.7,0.41519
1267,7.4071,5.6364,0,0.00041207,4117.8,0.00013655,0.067247,0.00013503,-11.389,-0.00041226,-4123.5,0.41403
1268,7.4071,5.8182,0,0.00041274,4124.6,0.00013632,0.20182,0.00013602,-2.0588,-0.00041278,-4125.5,0.41279
1269,7.5914,0.18182,0,0.00040782,4075.4,0.0001347,0.19698,0.0001344,-2.0925,-0.00040786,-4076.4,0.43218
1270,7.5914,0.36364,0,0.00040709,4068.1,0.00013492,0.062443,0.00013337,-11.558,-0.00040728,-4073.8,0.43341
1271,7.5914,0.54545,0,0.00040643,4061.5,0.0001352,0.036214,0.0001323,-21.78,-0.0004068,-4072.3,0.43456
1272,7.5914,0.72727,0,0.00040577,4054.9,0.00013554,0.037356,0.00013113,-33.14,-0.00040632,-4071.3,0.43562
1273,7.5914,0.90909,0,0.00040508,4048,0.00013593,0.034889,0.00012986,-45.599,-0.00040584,-4070.6,0.4366
1274,7.5914,1.0909,0,0.00040438,4041,0.00013636,0.032936,0.0001285,-58.982,-0.00040535,-4070.2,0.43749
1275,7.5914,1.2727,0,0.00040367,4033.9,0.00013681,0.029993,0.00012709,-73.024,-0.00040486,-4069.9,0.43829
1276,7.5914,1.4545,0,0.00040295,4026.7,0.00013728,0.026387,0.00012565,-87.39,-0.00040436,-4069.7,0.43901
1277,7.5914,1.6364,0,0.00040224,4019.7,0.00013775,0.022204,0.00012421,-101.69,-0.00040388,-4069.5,0.43964
1278,7.5914,1.8182,0,0.00040157,4012.9,0.0001382,0.017703,0.00012283,-115.5,-0.00040341,-4069.4,0.4402
1279,7.5914,2,0,0.00040094,4006.7,0.00013862,0.013152,0.00012153,-128.38,-0.00040297,-4069.3,0.44067
1280,7.5914,2.1818,0,0.00040039,4001.1,0.000139,0.0088263,0.00012038,-139.9,-0.00040258,-4069.2,0.44107
1281,7.5914,2.3636,0,0.00039991,3996.4,0.00013932,0.0049973,0.0001194,-149.65,-0.00040225,-4069.1,0.44138
1282,7.5914,2.5455,0,0.00039954,3992.7,0.00013957,0.0018998,0.00011863,-157.3,-0.00040199,-4069,0.44161
1283,7.5914,2.7273,0,0.00039929,3990.2,0.00013974,-0.00027652,0.0001181,-162.57,-0.00040181,-4069,0.44177
1284,7.5914,2.9091,0,0.00039916,3988.9,0.00013982,-0.0014001,0.00011783,-165.25,-0.00040172,-4068.9,0.44185
1285,7.5914,3.0909,0,0.00039916,3988.9,0.00013982,-0.0014002,0.00011783,-165.25,-0.00040172,-4068.9,0.44185
1286,7.5914,3.2727,0,0.00039929,3990.2,0.00013974,-0.00027705,0.0001181,-162.57,-0.00040181,-4069,0.44177
1287,7.5914,3.4545,0,0.00039954,3992.7,0.00013957,0.0018997,0.00011863,-157.3,-0.00040199,-4069,0.44161
1288,7.5914,3.6364,0,0.00039991,3996.4,0.00013932,0.0049964,0.0001194,-149.65,-0.00040225,-4069.1,0.44138
1289,7.5914,3.8182,0,0.00040039,4001.1,0.000139,0.0088258,0.00012038,-139.9,-0.00040258,-4069.2,0.44107
1290,7.5914,4,0,0.00040094,4006.7,0.00013862,0.013151,0.00012153,-128.38,-0.00040297,-4069.3,0.44067
1291,7.5914,4.1818,0,0.00040157,4012.9,0.0001382,0.017703,0.00012283,-115.5,-0.00040341,-4069.4,0.4402
1292,7.5914,4.3636,0,0.00040224,4019.7,0.00013775,0.022204,0.00012421,-101.69,-0.00040388,-4069.5,0.43964
1293,7.5914,4.5455,0,0.00040295,4026.7,0.00013728,0.026386,0.00012565,-87.39,-0.00040436,-4069.7,0.43901
1294,7.5914,4.7273,0,0.00040367,4033.9,0.00013681,0.029992,0.00012709,-73.024,-0.00040486,-4069.9,0.43829
1295,7.5914,4.9091,0,0.00040438,4041,0.00013636,0.032935,0.0001285,-58.982,-0.00040535,-4070.2,0.43749
1296,7.5914,5.0909,0,0.00040508,4048,0.00013593,0.034887,0.00012986,-45.599,-0.00040584,-4070.6,0.4366
1297,7.5914,5.2727,0,0.00040577,4054.9,0.00013554,0.037355,0.00013113,-33.14,-0.00040632,-4071.3,0.43562
1298,7.5914,5.4545,0,0.00040643,4061.5,0.0001352,0.036213,0.0001323,-21.78,-0.0004068,-4072.3,0.43456
1299,7.5914,5.6364,0,0.00040709,4068.1,0.00013492,0.062442,0.00013337,-11.558,-0.00040728,-4073.8,0.43341
1300,7.5914,5.8182,0,0.00040782,4075.4,0.0001347,0.19698,0.0001344,-2.0925,-0.00040786,-4076.4,0.43218
1301,7.7758,0.18182,0,0.00040278,4025,0.00013303,0.20616,0.00013275,-1.9362,-0.00040281,-4025.9,0.45184
1302,7.7758,0.36364,0,0.00040201,4017.3,0.00013323,0.058296,0.00013171,-11.38,-0.0004022,-4022.9,0.45307
1303,7.7758,0.54545,0,0.00040132,4010.4,0.00013349,0.030733,0.00013065,-21.293,-0.00040168,-4021,0.45421
1304,7.7758,0.72727,0,0.00040063,4003.5,0.00013379,0.031603,0.00012952,-32.062,-0.00040116,-4019.4,0.45526
1305,7.7758,0.90909,0,0.00039992,3996.5,0.00013413,0.028942,0.00012832,-43.662,-0.00040065,-4018.1,0.45623
1306,7.7758,1.0909,0,0.00039921,3989.3,0.0001345,0.027096,0.00012705,-55.939,-0.00040013,-4017,0.45711
1307,7.7758,1.2727,0,0.00039849,3982.2,0.00013489,0.024487,0.00012575,-68.672,-0.00039961,-4016,0.45791
1308,7.7758,1.4545,0,0.00039778,3975,0.00013529,0.021409,0.00012443,-81.578,-0.0003991,-4015.2,0.45862
1309,7.7758,1.6364,0,0.00039708,3968.1,0.00013568,0.017897,0.00012313,-94.329,-0.0003986,-4014.4,0.45926
1310,7.7758,1.8182,0,0.00039642,3961.5,0.00013606,0.014151,0.00012188,-106.57,-0.00039813,-4013.7,0.45981
1311,7.7758,2,0,0.00039581,3955.4,0.00013642,0.010379,0.00012072,-117.93,-0.00039769,-4013.1,0.46028
1312,7.7758,2.1818,0,0.00039528,3950,0.00013673,0.0068036,0.00011969,-128.05,-0.0003973,-4012.5,0.46067
1313,7.7758,2.3636,0,0.00039482,3945.5,0.000137,0.0036435,0.00011882,-136.61,-0.00039697,-4012,0.46098
1314,7.7758,2.5455,0,0.00039447,3941.9,0.00013721,0.0010897,0.00011814,-143.3,-0.00039671,-4011.6,0.46122
1315,7.7758,2.7273,0,0.00039422,3939.5,0.00013735,-0.00070503,0.00011767,-147.89,-0.00039653,-4011.4,0.46137
1316,7.7758,2.9091,0,0.0003941,3938.3,0.00013742,-0.0016304,0.00011743,-150.23,-0.00039644,-4011.2,0.46145
1317,7.7758,3.0909,0,0.0003941,3938.3,0.00013742,-0.0016304,0.00011743,-150.23,-0.00039644,-4011.2,0.46145
1318,7.7758,3.2727,0,0.00039422,3939.5,0.00013735,-0.00070485,0.00011767,-147.89,-0.00039653,-4011.4,0.46137
1319,7.7758,3.4545,0,0.00039447,3941.9,0.00013721,0.0010895,0.00011814,-143.3,-0.00039671,-4011.6,0.46122
1320,7.7758,3.6364,0,0.00039482,3945.5,0.000137,0.0036433,0.00011882,-136.61,-0.00039697,-4012,0.46098
1321,7.7758,3.8182,0,0.00039528,3950,0.00013673,0.0068035,0.00011969,-128.05,-0.0003973,-4012.5,0.46067
1322,7.7758,4,0,0.00039581,3955.4,0.00013642,0.010378,0.00012072,-117.93,-0.00039769,-4013.1,0.46028
1323,7.7758,4.1818,0,0.00039642,3961.5,0.00013606,0.014151,0.00012188,-106.57,-0.00039813,-4013.7,0.45981
1324,7.7758,4.3636,0,0.00039708,3968.1,0.00013568,0.017896,0.00012313,-94.329,-0.0003986,-4014.4,0.45926
1325,7.7758,4.5455,0,0.00039778,3975,0.00013529,0.021409,0.00012443,-81.578,-0.0003991,-4015.2,0.45862
1326,7.7758,4.7273,0,0.00039849,3982.2,0.00013489,0.024486,0.00012575,-68.672,-0.00039961,-4016,0.45791
1327,7.7758,4.9091,0,0.00039921,3989.3,0.0001345,0.027096,0.00012705,-55.939,-0.00040013,-4017,0.45711
1328,7.7758,5.0909,0,0.00039992,3996.5,0.00013413,0.028941,0.00012832,-43.662,-0.00040065,-4018.1,0.45623
1329,7.7758,5.2727,0,0.00040063,4003.5,0.00013379,0.031602,0.00012952,-32.062,-0.00040116,-4019.4,0.45526
1330,7.7758,5.4545,0,0.00040132,4010.4,0.00013349,0.030733,0.00013065,-21.293,-0.00040168,-4021,0.45421
1331,7.7758,5.6364,0,0.00040201,4017.3,0.00013323,0.058295,0.00013171,-11.38,-0.0004022,-4022.9,0.45307
1332,7.7758,5.8182,0,0.00040278,4025,0.00013303,0.20616,0.00013275,-1.9362,-0.00040281,-4025.9,0.45184
1333,7.9602,0.18182,0,0.00039765,3973.8,0.00013133,0.23189,0.00013108,-1.6362,-0.00039768,-3974.5,0.47178
1334,7.9602,0.36364,0,0.00039686,3965.8,0.00013151,0.054484,0.00013005,-10.931,-0.00039704,-3971.3,0.473
1335,7.9602,0.54545,0,0.00039615,3958.8,0.00013175,0.026364,0.00012902,-20.475,-0.0003965,-3969,0.47413
1336,7.9602,0.72727,0,0.00039545,3951.8,0.00013202,0.027042,0.00012793,-30.649,-0.00039596,-3967,0.47517
1337,7.9602,0.90909,0,0.00039474,3944.7,0.00013231,0.024293,0.0001268,-41.435,-0.00039543,-3965.3,0.47613
1338,7.9602,1.0909,0,0.00039403,3937.6,0.00013263,0.022554,0.00012562,-52.703,-0.0003949,-3963.7,0.47701
1339,7.9602,1.2727,0,0.00039332,3930.5,0.00013297,0.020224,0.00012441,-64.262,-0.00039438,-3962.2,0.4778
1340,7.9602,1.4545,0,0.00039262,3923.5,0.00013331,0.017577,0.00012321,-75.876,-0.00039386,-3960.9,0.47851
1341,7.9602,1.6364,0,0.00039195,3916.8,0.00013364,0.014607,0.00012203,-87.268,-0.00039336,-3959.7,0.47914
1342,7.9602,1.8182,0,0.00039131,3910.4,0.00013397,0.011472,0.0001209,-98.14,-0.00039289,-3958.6,0.47969
1343,7.9602,2,0,0.00039073,3904.6,0.00013426,0.0083319,0.00011986,-108.18,-0.00039246,-3957.6,0.48015
1344,7.9602,2.1818,0,0.00039022,3899.5,0.00013453,0.0053676,0.00011894,-117.1,-0.00039208,-3956.7,0.48054
1345,7.9602,2.3636,0,0.00038978,3895.1,0.00013475,0.0027513,0.00011817,-124.61,-0.00039175,-3956,0.48085
1346,7.9602,2.5455,0,0.00038945,3891.8,0.00013493,0.00064058,0.00011756,-130.48,-0.0003915,-3955.4,0.48109
1347,7.9602,2.7273,0,0.00038922,3889.5,0.00013505,-0.00084192,0.00011715,-134.5,-0.00039133,-3955,0.48124
1348,7.9602,2.9091,0,0.0003891,3888.3,0.00013511,-0.0016061,0.00011693,-136.55,-0.00039124,-3954.8,0.48132
1349,7.9602,3.0909,0,0.0003891,3888.3,0.00013511,-0.0016061,0.00011693,-136.55,-0.00039124,-3954.8,0.48132
1350,7.9602,3.2727,0,0.00038922,3889.5,0.00013505,-0.00084233,0.00011715,-134.5,-0.00039133,-3955,0.48124
1351,7.9602,3.4545,0,0.00038945,3891.8,0.00013493,0.00064052,0.00011756,-130.48,-0.0003915,-3955.4,0.48109
1352,7.9602,3.6364,0,0.00038978,3895.1,0.00013475,0.0027513,0.00011817,-124.61,-0.00039175,-3956,0.48085
1353,7.9602,3.8182,0,0.00039022,3899.5,0.00013453,0.0053668,0.00011894,-117.1,-0.00039208,-3956.7,0.48054
1354,7.9602,4,0,0.00039073,3904.6,0.00013426,0.0083315,0.00011986,-108.18,-0.00039246,-3957.6,0.48015
1355,7.9602,4.1818,0,0.00039131,3910.4,0.00013397,0.011471,0.0001209,-98.14,-0.00039289,-3958.6,0.47969
1356,7.9602,4.3636,0,0.00039195,3916.8,0.00013364,0.014606,0.00012203,-87.268,-0.00039336,-3959.7,0.47914
1357,7.9602,4.5455,0,0.00039262,3923.5,0.00013331,0.017577,0.00012321,-75.876,-0.00039386,-3960.9,0.47851
1358,7.9602,4.7273,0,0.00039332,3930.5,0.00013297,0.020223,0.00012441,-64.262,-0.00039438,-3962.2,0.4778
1359,7.9602,4.9091,0,0.00039403,3937.6,0.00013263,0.022553,0.00012562,-52.703,-0.0003949,-3963.7,0.47701
1360,7.9602,5.0909,0,0.00039474,3944.7,0.00013231,0.024291,0.0001268,-41.435,-0.00039543,-3965.3,0.47613
1361,7.9602,5.2727,0,0.00039545,3951.8,0.00013202,0.027041,0.00012793,-30.649,-0.00039596,-3967,0.47517
1362,7.9602,5.4545,0,0.00039615,3958.8,0.00013175,0.026364,0.00012902,-20.475,-0.0003965,-3969,0.47413
1363,7.9602,5.6364,0,0.00039686,3965.8,0.00013151,0.054483,0.00013005,-10.931,-0.00039704,-3971.3,0.473
1364,7.9602,5.8182,0,0.00039765,3973.8,0.00013133,0.23189,0.00013108,-1.6362,-0.00039768,-3974.5,0.47178
1365,8.1445,0.18182,0,0.00039246,3921.9,0.0001296,0.28627,0.0001294,-1.2418,-0.00039248,-3922.4,0.49199
1366,8.1445,0.36364,0,0.00039166,3913.9,0.00012976,0.050858,0.00012839,-10.276,-0.00039183,-3919,0.4932
1367,8.1445,0.54545,0,0.00039095,3906.8,0.00012998,0.022787,0.00012739,-19.41,-0.00039128,-3916.5,0.49432
1368,8.1445,0.72727,0,0.00039025,3899.8,0.00013022,0.023346,0.00012636,-28.992,-0.00039074,-3914.2,0.49535
1369,8.1445,0.90909,0,0.00038955,3892.8,0.00013048,0.020598,0.00012529,-39.012,-0.0003902,-3912.2,0.4963
1370,8.1445,1.0909,0,0.00038885,3885.8,0.00013076,0.018976,0.00012419,-49.355,-0.00038967,-3910.3,0.49717
1371,8.1445,1.2727,0,0.00038816,3878.9,0.00013105,0.016895,0.00012308,-59.862,-0.00038914,-3908.5,0.49796
1372,8.1445,1.4545,0,0.00038749,3872.2,0.00013134,0.014608,0.00012198,-70.33,-0.00038863,-3906.9,0.49866
1373,8.1445,1.6364,0,0.00038684,3865.7,0.00013163,0.012086,0.00012091,-80.528,-0.00038815,-3905.4,0.49929
1374,8.1445,1.8182,0,0.00038623,3859.7,0.0001319,0.0094504,0.00011989,-90.207,-0.00038769,-3904,0.49983
1375,8.1445,2,0,0.00038568,3854.1,0.00013215,0.0068302,0.00011896,-99.108,-0.00038727,-3902.7,0.5003
1376,8.1445,2.1818,0,0.00038519,3849.3,0.00013238,0.0043638,0.00011814,-106.98,-0.0003869,-3901.6,0.50068
1377,8.1445,2.3636,0,0.00038478,3845.2,0.00013256,0.0021931,0.00011745,-113.59,-0.00038659,-3900.7,0.50099
1378,8.1445,2.5455,0,0.00038447,3842,0.00013271,0.00044466,0.00011691,-118.75,-0.00038635,-3900,0.50122
1379,8.1445,2.7273,0,0.00038425,3839.9,0.00013281,-0.00078147,0.00011654,-122.27,-0.00038619,-3899.5,0.50138
1380,8.1445,2.9091,0,0.00038414,3838.8,0.00013286,-0.0014145,0.00011635,-124.07,-0.0003861,-3899.3,0.50146
1381,8.1445,3.0909,0,0.00038414,3838.8,0.00013286,-0.0014144,0.00011635,-124.07,-0.0003861,-3899.3,0.50146
1382,8.1445,3.2727,0,0.00038425,3839.9,0.00013281,-0.00078194,0.00011654,-122.27,-0.00038619,-3899.5,0.50138
1383,8.1445,3.4545,0,0.00038447,3842,0.00013271,0.00044526,0.00011691,-118.75,-0.00038635,-3900,0.50122
1384,8.1445,3.6364,0,0.00038478,3845.2,0.00013256,0.0021929,0.00011745,-113.59,-0.00038659,-3900.7,0.50099
1385,8.1445,3.8182,0,0.00038519,3849.3,0.00013238,0.0043633,0.00011814,-106.98,-0.0003869,-3901.6,0.50068
1386,8.1445,4,0,0.00038568,3854.1,0.00013215,0.0068298,0.00011896,-99.108,-0.00038727,-3902.7,0.5003
1387,8.1445,4.1818,0,0.00038623,3859.7,0.0001319,0.0094505,0.00011989,-90.207,-0.00038769,-3904,0.49983
1388,8.1445,4.3636,0,0.00038684,3865.7,0.00013163,0.012085,0.00012091,-80.528,-0.00038815,-3905.4,0.49929
1389,8.1445,4.5455,0,0.00038749,3872.2,0.00013134,0.014607,0.00012198,-70.33,-0.00038863,-3906.9,0.49866
1390,8.1445,4.7273,0,0.00038816,3878.9,0.00013105,0.016894,0.00012308,-59.862,-0.00038914,-3908.5,0.49796
1391,8.1445,4.9091,0,0.00038885,3885.8,0.00013076,0.018976,0.00012419,-49.355,-0.00038967,-3910.3,0.49717
1392,8.1445,5.0909,0,0.00038955,3892.8,0.00013048,0.020596,0.00012529,-39.012,-0.0003902,-3912.2,0.4963
1393,8.1445,5.2727,0,0.00039025,3899.8,0.00013022,0.023345,0.00012636,-28.992,-0.00039074,-3914.2,0.49535
1394,8.1445,5.4545,0,0.00039095,3906.8,0.00012998,0.022786,0.00012739,-19.41,-0.00039128,-3916.5,0.49432
1395,8.1445,5.6364,0,0.00039166,3913.9,0.00012976,0.050857,0.00012839,-10.276,-0.00039183,-3919,0.4932
1396,8.1445,5.8182,0,0.00039246,3921.9,0.0001296,0.28627,0.0001294,-1.2418,-0.00039248,-3922.4,0.49199
1397,8.3289,0.18182,0,0.00038723,3869.7,0.00012786,0.40297,0.0001277,-0.81718,-0.00038724,-3869.9,0.51247
1398,8.3289,0.36364,0,0.00038643,3861.6,0.00012799,0.047354,0.00012673,-9.4685,-0.00038658,-3866.3,0.51366
1399,8.3289,0.54545,0,0.00038573,3854.6,0.00012819,0.01979,0.00012577,-18.165,-0.00038603,-3863.6,0.51477
1400,8.3289,0.72727,0,0.00038504,3847.7,0.00012841,0.020289,0.00012479,-27.166,-0.00038549,-3861.2,0.51579
1401,8.3289,0.90909,0,0.00038435,3840.9,0.00012864,0.017613,0.00012378,-36.464,-0.00038496,-3859,0.51674
1402,8.3289,1.0909,0,0.00038368,3834.1,0.00012888,0.01612,0.00012276,-45.962,-0.00038444,-3856.9,0.5176
1403,8.3289,1.2727,0,0.00038301,3827.4,0.00012913,0.014265,0.00012174,-55.523,-0.00038392,-3854.9,0.51838
1404,8.3289,1.4545,0,0.00038236,3821,0.00012939,0.012288,0.00012074,-64.975,-0.00038343,-3853.1,0.51908
1405,8.3289,1.6364,0,0.00038175,3814.8,0.00012963,0.01014,0.00011976,-74.124,-0.00038295,-3851.3,0.5197
1406,8.3289,1.8182,0,0.00038117,3809.1,0.00012986,0.0079207,0.00011885,-82.759,-0.00038251,-3849.8,0.52024
1407,8.3289,2,0,0.00038065,3803.9,0.00013008,0.005726,0.00011801,-90.666,-0.00038211,-3848.4,0.5207
1408,8.3289,2.1818,0,0.00038019,3799.3,0.00013027,0.0036711,0.00011727,-97.634,-0.00038176,-3847.2,0.52109
1409,8.3289,2.3636,0,0.00037981,3795.5,0.00013043,0.0018672,0.00011666,-103.47,-0.00038146,-3846.2,0.52139
1410,8.3289,2.5455,0,0.00037952,3792.5,0.00013055,0.00041642,0.00011618,-108.01,-0.00038124,-3845.4,0.52162
1411,8.3289,2.7273,0,0.00037931,3790.5,0.00013064,-0.00060006,0.00011585,-111.11,-0.00038108,-3844.9,0.52178
1412,8.3289,2.9091,0,0.00037921,3789.5,0.00013068,-0.0011242,0.00011568,-112.69,-0.000381,-3844.6,0.52185
1413,8.3289,3.0909,0,0.00037921,3789.5,0.00013068,-0.0011245,0.00011568,-112.69,-0.000381,-3844.6,0.52185
1414,8.3289,3.2727,0,0.00037931,3790.5,0.00013064,-0.00060077,0.00011585,-111.11,-0.00038108,-3844.9,0.52178
1415,8.3289,3.4545,0,0.00037952,3792.5,0.00013055,0.00041606,0.00011618,-108.01,-0.00038124,-3845.4,0.52162
1416,8.3289,3.6364,0,0.00037981,3795.5,0.00013043,0.0018667,0.00011666,-103.47,-0.00038146,-3846.2,0.52139
1417,8.3289,3.8182,0,0.00038019,3799.3,0.00013027,0.0036703,0.00011727,-97.634,-0.00038176,-3847.2,0.52109
1418,8.3289,4,0,0.00038065,3803.9,0.00013008,0.0057262,0.00011801,-90.666,-0.00038211,-3848.4,0.5207
1419,8.3289,4.1818,0,0.00038117,3809.1,0.00012986,0.0079198,0.00011885,-82.759,-0.00038251,-3849.8,0.52024
1420,8.3289,4.3636,0,0.00038175,3814.8,0.00012963,0.010139,0.00011976,-74.124,-0.00038295,-3851.3,0.5197
1421,8.3289,4.5455,0,0.00038236,3821,0.00012939,0.012287,0.00012074,-64.975,-0.00038343,-3853.1,0.51908
1422,8.3289,4.7273,0,0.00038301,3827.4,0.00012913,0.014264,0.00012174,-55.523,-0.00038392,-3854.9,0.51838
1423,8.3289,4.9091,0,0.00038368,3834.1,0.00012888,0.016119,0.00012276,-45.962,-0.00038444,-3856.9,0.5176
1424,8.3289,5.0909,0,0.00038435,3840.9,0.00012864,0.017612,0.00012378,-36.464,-0.00038496,-3859,0.51674
1425,8.3289,5.2727,0,0.00038504,3847.7,0.00012841,0.020287,0.00012479,-27.165,-0.00038549,-3861.2,0.51579
1426,8.3289,5.4545,0,0.00038573,3854.6,0.00012819,0.01979,0.00012577,-18.165,-0.00038603,-3863.6,0.51477
1427,8.3289,5.6364,0,0.00038643,3861.6,0.00012799,0.047353,0.00012673,-9.4685,-0.00038658,-3866.3,0.51366
1428,8.3289,5.8182,0,0.00038723,3869.7,0.00012786,0.40297,0.0001277,-0.81718,-0.00038724,-3869.9,0.51247
1429,8.5133,0.18182,0,0.00038197,3817.1,0.00012613,0.65549,0.00012598,-0.46134,-0.00038197,-3817,0.53321
1430,8.5133,0.36364,0,0.00038117,3809.1,0.00012621,0.043968,0.00012507,-8.551,-0.00038132,-3813.4,0.53439
1431,8.5133,0.54545,0,0.00038049,3802.3,0.00012639,0.017245,0.00012416,-16.796,-0.00038077,-3810.6,0.53549
1432,8.5133,0.72727,0,0.00037982,3795.6,0.00012659,0.017725,0.00012323,-25.23,-0.00038024,-3808.1,0.5365
1433,8.5133,0.90909,0,0.00037916,3789,0.0001268,0.015178,0.00012229,-33.853,-0.00037972,-3805.8,0.53744
1434,8.5133,1.0909,0,0.0003785,3782.4,0.00012701,0.013824,0.00012134,-42.578,-0.00037921,-3803.5,0.53829
1435,8.5133,1.2727,0,0.00037787,3776.1,0.00012723,0.012178,0.0001204,-51.287,-0.00037871,-3801.4,0.53906
1436,8.5133,1.4545,0,0.00037725,3769.9,0.00012745,0.01047,0.00011948,-59.836,-0.00037823,-3799.5,0.53976
1437,8.5133,1.6364,0,0.00037667,3764.1,0.00012766,0.0086406,0.0001186,-68.06,-0.00037778,-3797.6,0.54037
1438,8.5133,1.8182,0,0.00037613,3758.7,0.00012786,0.006768,0.00011777,-75.782,-0.00037736,-3796,0.54091
1439,8.5133,2,0,0.00037564,3753.8,0.00012804,0.0049293,0.00011702,-82.823,-0.00037698,-3794.5,0.54137
1440,8.5133,2.1818,0,0.00037521,3749.5,0.0001282,0.0032134,0.00011636,-89.006,-0.00037664,-3793.2,0.54175
1441,8.5133,2.3636,0,0.00037485,3745.9,0.00012834,0.0017118,0.0001158,-94.171,-0.00037637,-3792.1,0.54206
1442,8.5133,2.5455,0,0.00037458,3743.2,0.00012844,0.000507,0.00011538,-98.178,-0.00037615,-3791.3,0.54228
1443,8.5133,2.7273,0,0.00037439,3741.3,0.00012851,-0.00033637,0.00011508,-100.91,-0.00037601,-3790.8,0.54244
1444,8.5133,2.9091,0,0.0003743,3740.4,0.00012855,-0.0007709,0.00011494,-102.3,-0.00037593,-3790.5,0.54251
1445,8.5133,3.0909,0,0.0003743,3740.4,0.00012855,-0.00077113,0.00011494,-102.3,-0.00037593,-3790.5,0.54251
1446,8.5133,3.2727,0,0.00037439,3741.3,0.00012851,-0.00033655,0.00011508,-100.91,-0.00037601,-3790.8,0.54244
1447,8.5133,3.4545,0,0.00037458,3743.2,0.00012844,0.0005076,0.00011538,-98.178,-0.00037615,-3791.3,0.54228
1448,8.5133,3.6364,0,0.00037485,3745.9,0.00012834,0.0017118,0.0001158,-94.171,-0.00037637,-3792.1,0.54206
1449,8.5133,3.8182,0,0.00037521,3749.5,0.0001282,0.0032129,0.00011636,-89.006,-0.00037664,-3793.2,0.54175
1450,8.5133,4,0,0.00037564,3753.8,0.00012804,0.0049294,0.00011702,-82.823,-0.00037698,-3794.5,0.54137
1451,8.5133,4.1818,0,0.00037613,3758.7,0.00012786,0.0067675,0.00011777,-75.782,-0.00037736,-3796,0.54091
1452,8.5133,4.3636,0,0.00037667,3764.1,0.00012766,0.0086399,0.0001186,-68.06,-0.00037778,-3797.6,0.54037
1453,8.5133,4.5455,0,0.00037725,3769.9,0.00012745,0.010469,0.00011948,-59.836,-0.00037823,-3799.5,0.53976
1454,8.5133,4.7273,0,0.00037787,3776.1,0.00012723,0.012177,0.0001204,-51.287,-0.00037871,-3801.4,0.53906
1455,8.5133,4.9091,0,0.0003785,3782.4,0.00012701,0.013823,0.00012134,-42.578,-0.00037921,-3803.5,0.53829
1456,8.5133,5.0909,0,0.00037916,3789,0.0001268,0.015177,0.00012229,-33.853,-0.00037972,-3805.8,0.53744
1457,8.5133,5.2727,0,0.00037982,3795.6,0.00012659,0.017725,0.00012323,-25.23,-0.00038024,-3808.1,0.5365
1458,8.5133,5.4545,0,0.00038049,3802.3,0.00012639,0.017244,0.00012416,-16.796,-0.00038077,-3810.6,0.53549
1459,8.5133,5.6364,0,0.00038117,3809.1,0.00012621,0.043967,0.00012507,-8.551,-0.00038132,-3813.4,0.53439
1460,8.5133,5.8182,0,0.00038197,3817.1,0.00012613,0.65549,0.00012598,-0.46134,-0.00038197,-3817,0.53321
1461,8.6976,0.18182,0,0.0003767,3764.4,0.00012442,1.0997,0.00012424,-0.25086,-0.00037669,-3764,0.55421
1462,8.6976,0.36364,0,0.00037591,3756.5,0.00012443,0.040721,0.00012342,-7.5595,-0.00037604,-3760.3,0.55537
1463,8.6976,0.54545,0,0.00037525,3749.9,0.00012459,0.015069,0.00012255,-15.348,-0.00037551,-3757.6,0.55646
1464,8.6976,0.72727,0,0.0003746,3743.4,0.00012477,0.015567,0.00012167,-23.235,-0.00037499,-3755,0.55747
1465,8.6976,0.90909,0,0.00037396,3737.1,0.00012495,0.013187,0.0001208,-31.225,-0.00037448,-3752.6,0.55839
1466,8.6976,1.0909,0,0.00037334,3730.8,0.00012514,0.011976,0.00011992,-39.243,-0.00037399,-3750.3,0.55924
1467,8.6976,1.2727,0,0.00037273,3724.7,0.00012533,0.010527,0.00011905,-47.185,-0.00037351,-3748.1,0.56
1468,8.6976,1.4545,0,0.00037215,3718.9,0.00012552,0.0090557,0.00011821,-54.93,-0.00037305,-3746.1,0.56069
1469,8.6976,1.6364,0,0.0003716,3713.4,0.0001257,0.0074981,0.00011741,-62.337,-0.00037262,-3744.2,0.5613
1470,8.6976,1.8182,0,0.00037109,3708.4,0.00012588,0.0059189,0.00011666,-69.259,-0.00037222,-3742.5,0.56184
1471,8.6976,2,0,0.00037063,3703.8,0.00012603,0.0043767,0.00011598,-75.544,-0.00037186,-3741,0.56229
1472,8.6976,2.1818,0,0.00037024,3699.8,0.00012617,0.0029435,0.00011538,-81.045,-0.00037155,-3739.7,0.56267
1473,8.6976,2.3636,0,0.00036991,3696.5,0.00012629,0.0016931,0.00011489,-85.628,-0.00037129,-3738.6,0.56297
1474,8.6976,2.5455,0,0.00036965,3694,0.00012638,0.00069119,0.00011451,-89.176,-0.00037109,-3737.8,0.5632
1475,8.6976,2.7273,0,0.00036948,3692.2,0.00012644,-9.3152e-06,0.00011425,-91.595,-0.00037095,-3737.2,0.56335
1476,8.6976,2.9091,0,0.00036939,3691.4,0.00012647,-0.00036987,0.00011411,-92.821,-0.00037088,-3736.9,0.56343
1477,8.6976,3.0909,0,0.00036939,3691.4,0.00012647,-0.00036999,0.00011411,-92.821,-0.00037088,-3736.9,0.56343
1478,8.6976,3.2727,0,0.00036948,3692.2,0.00012644,-9.4338e-06,0.00011425,-91.595,-0.00037095,-3737.2,0.56335
1479,8.6976,3.4545,0,0.00036965,3694,0.00012638,0.00069096,0.00011451,-89.176,-0.00037109,-3737.8,0.5632
1480,8.6976,3.6364,0,0.00036991,3696.5,0.00012629,0.0016925,0.00011489,-85.628,-0.00037129,-3738.6,0.56297
1481,8.6976,3.8182,0,0.00037024,3699.8,0.00012617,0.0029433,0.00011538,-81.045,-0.00037155,-3739.7,0.56267
1482,8.6976,4,0,0.00037063,3703.8,0.00012603,0.0043763,0.00011598,-75.544,-0.00037186,-3741,0.56229
1483,8.6976,4.1818,0,0.00037109,3708.4,0.00012588,0.0059185,0.00011666,-69.259,-0.00037222,-3742.5,0.56184
1484,8.6976,4.3636,0,0.0003716,3713.4,0.0001257,0.0074977,0.00011741,-62.337,-0.00037262,-3744.2,0.5613
1485,8.6976,4.5455,0,0.00037215,3718.9,0.00012552,0.0090554,0.00011821,-54.93,-0.00037305,-3746.1,0.56069
1486,8.6976,4.7273,0,0.00037273,3724.7,0.00012533,0.010526,0.00011905,-47.185,-0.00037351,-3748.1,0.56
1487,8.6976,4.9091,0,0.00037334,3730.8,0.00012514,0.011976,0.00011992,-39.243,-0.00037399,-3750.3,0.55924
1488,8.6976,5.0909,0,0.00037396,3737.1,0.00012495,0.013186,0.0001208,-31.225,-0.00037448,-3752.6,0.55839
1489,8.6976,5.2727,0,0.0003746,3743.4,0.00012477,0.015565,0.00012167,-23.235,-0.00037499,-3755,0.55747
1490,8.6976,5.4545,0,0.00037525,3749.9,0.00012459,0.015068,0.00012255,-15.348,-0.00037551,-3757.6,0.55646
1491,8.6976,5.6364,0,0.00037591,3756.5,0.00012443,0.04072,0.00012342,-7.5595,-0.00037604,-3760.3,0.55537
1492,8.6976,5.8182,0,0.0003767,3764.4,0.00012442,1.0997,0.00012424,-0.25086,-0.00037669,-3764,0.55421
1493,8.882,0.18182,0,0.00037142,3711.7,0.00012272,1.6821,0.00012247,-0.1489,-0.0003714,-3710.9,0.57546
1494,8.882,0.36364,0,0.00037065,3704,0.00012264,0.037627,0.00012177,-6.5225,-0.00037076,-3707.2,0.57662
1495,8.882,0.54545,0,0.00037001,3697.6,0.00012279,0.013187,0.00012094,-13.857,-0.00037024,-3704.5,0.57769
1496,8.882,0.72727,0,0.00036939,3691.3,0.00012295,0.013727,0.00012012,-21.219,-0.00036974,-3701.9,0.57869
1497,8.882,0.90909,0,0.00036878,3685.2,0.00012311,0.011544,0.0001193,-28.619,-0.00036926,-3699.5,0.5796
1498,8.882,1.0909,0,0.00036818,3679.3,0.00012328,0.010479,0.00011849,-35.988,-0.00036878,-3697.1,0.58044
1499,8.882,1.2727,0,0.00036761,3673.5,0.00012345,0.0092135,0.00011769,-43.239,-0.00036832,-3695,0.5812
1500,8.882,1.4545,0,0.00036706,3668.1,0.00012361,0.0079511,0.00011692,-50.266,-0.00036789,-3692.9,0.58188
1501,8.882,1.6364,0,0.00036654,3662.9,0.00012377,0.0066279,0.00011619,-56.951,-0.00036748,-3691,0.58249
1502,8.882,1.8182,0,0.00036607,3658.1,0.00012392,0.0052969,0.00011551,-63.169,-0.0003671,-3689.3,0.58301
1503,8.882,2,0,0.00036564,3653.9,0.00012405,0.0040044,0.0001149,-68.793,-0.00036676,-3687.8,0.58347
1504,8.882,2.1818,0,0.00036527,3650.2,0.00012417,0.0028075,0.00011436,-73.7,-0.00036647,-3686.5,0.58384
1505,8.882,2.3636,0,0.00036497,3647.1,0.00012427,0.0017652,0.00011392,-77.778,-0.00036623,-3685.4,0.58414
1506,8.882,2.5455,0,0.00036473,3644.8,0.00012435,0.00093262,0.00011358,-80.928,-0.00036604,-3684.6,0.58437
1507,8.882,2.7273,0,0.00036457,3643.2,0.0001244,0.00035105,0.00011334,-83.073,-0.00036591,-3684,0.58452
1508,8.882,2.9091,0,0.00036449,3642.4,0.00012443,5.1443e-05,0.00011323,-84.159,-0.00036585,-3683.7,0.58459
1509,8.882,3.0909,0,0.00036449,3642.4,0.00012443,5.1503e-05,0.00011323,-84.159,-0.00036585,-3683.7,0.58459
1510,8.882,3.2727,0,0.00036457,3643.2,0.0001244,0.00035081,0.00011334,-83.073,-0.00036591,-3684,0.58452
1511,8.882,3.4545,0,0.00036473,3644.8,0.00012435,0.00093232,0.00011358,-80.928,-0.00036604,-3684.6,0.58437
1512,8.882,3.6364,0,0.00036497,3647.1,0.00012427,0.0017652,0.00011392,-77.778,-0.00036623,-3685.4,0.58414
1513,8.882,3.8182,0,0.00036527,3650.2,0.00012417,0.0028064,0.00011436,-73.7,-0.00036647,-3686.5,0.58384
1514,8.882,4,0,0.00036564,3653.9,0.00012405,0.0040036,0.0001149,-68.793,-0.00036676,-3687.8,0.58347
1515,8.882,4.1818,0,0.00036607,3658.1,0.00012392,0.0052961,0.00011551,-63.169,-0.0003671,-3689.3,0.58301
1516,8.882,4.3636,0,0.00036654,3662.9,0.00012377,0.0066272,0.00011619,-56.951,-0.00036748,-3691,0.58249
1517,8.882,4.5455,0,0.00036706,3668.1,0.00012361,0.0079502,0.00011692,-50.266,-0.00036789,-3692.9,0.58188
1518,8.882,4.7273,0,0.00036761,3673.5,0.00012345,0.009213,0.00011769,-43.239,-0.00036832,-3695,0.5812
1519,8.882,4.9091,0,0.00036818,3679.3,0.00012328,0.010478,0.00011849,-35.988,-0.00036878,-3697.1,0.58044
1520,8.882,5.0909,0,0.00036878,3685.2,0.00012311,0.011543,0.0001193,-28.619,-0.00036926,-3699.5,0.5796
1521,8.882,5.2727,0,0.00036939,3691.3,0.00012295,0.013726,0.00012012,-21.219,-0.00036974,-3701.9,0.57869
1522,8.882,5.4545,0,0.00037001,3697.6,0.00012279,0.013186,0.00012094,-13.857,-0.00037024,-3704.5,0.57769
1523,8.882,5.6364,0,0.00037065,3704,0.00012264,0.037626,0.00012177,-6.5225,-0.00037076,-3707.2,0.57662
1524,8.882,5.8182,0,0.00037142,3711.7,0.00012272,1.6821,0.00012247,-0.1489,-0.0003714,-3710.9,0.57546
1525,9.0664,0.18182,0,0.00036614,3658.9,0.00012103,2.3308,0.0001207,-0.097223,-0.00036611,-3657.8,0.59697
1526,9.0664,0.36364,0,0.00036539,3651.4,0.00012085,0.034703,0.00012012,-5.4628,-0.00036548,-3654.1,0.59811
1527,9.0664,0.54545,0,0.00036478,3645.3,0.00012099,0.011535,0.00011934,-12.351,-0.00036499,-3651.4,0.59917
1528,9.0664,0.72727,0,0.00036418,3639.3,0.00012113,0.012139,0.00011857,-19.214,-0.0003645,-3648.9,0.60016
1529,9.0664,0.90909,0,0.0003636,3633.5,0.00012128,0.010169,0.00011781,-26.062,-0.00036404,-3646.5,0.60106
1530,9.0664,1.0909,0,0.00036304,3627.9,0.00012143,0.0092498,0.00011705,-32.838,-0.00036358,-3644.2,0.60189
1531,9.0664,1.2727,0,0.00036249,3622.4,0.00012157,0.0081545,0.00011632,-39.463,-0.00036315,-3642,0.60265
1532,9.0664,1.4545,0,0.00036198,3617.3,0.00012172,0.0070784,0.00011561,-45.849,-0.00036273,-3640,0.60332
1533,9.0664,1.6364,0,0.00036149,3612.4,0.00012185,0.0059581,0.00011495,-51.893,-0.00036235,-3638.1,0.60392
1534,9.0664,1.8182,0,0.00036105,3608,0.00012198,0.0048391,0.00011433,-57.492,-0.00036199,-3636.4,0.60444
1535,9.0664,2,0,0.00036065,3604,0.0001221,0.0037566,0.00011378,-62.536,-0.00036168,-3634.9,0.60489
1536,9.0664,2.1818,0,0.00036031,3600.6,0.0001222,0.0027579,0.0001133,-66.925,-0.0003614,-3633.6,0.60526
1537,9.0664,2.3636,0,0.00036003,3597.8,0.00012229,0.0018901,0.0001129,-70.562,-0.00036118,-3632.6,0.60556
1538,9.0664,2.5455,0,0.00035981,3595.6,0.00012235,0.0011988,0.00011259,-73.367,-0.000361,-3631.7,0.60578
1539,9.0664,2.7273,0,0.00035966,3594.2,0.0001224,0.00071509,0.00011238,-75.275,-0.00036089,-3631.2,0.60593
1540,9.0664,2.9091,0,0.00035959,3593.4,0.00012242,0.00046657,0.00011227,-76.24,-0.00036083,-3630.9,0.60601
1541,9.0664,3.0909,0,0.00035959,3593.4,0.00012242,0.00046639,0.00011227,-76.24,-0.00036083,-3630.9,0.60601
1542,9.0664,3.2727,0,0.00035966,3594.2,0.0001224,0.00071527,0.00011238,-75.275,-0.00036089,-3631.2,0.60593
1543,9.0664,3.4545,0,0.00035981,3595.6,0.00012235,0.0011982,0.00011259,-73.367,-0.000361,-3631.7,0.60578
1544,9.0664,3.6364,0,0.00036003,3597.8,0.00012229,0.0018903,0.0001129,-70.562,-0.00036118,-3632.6,0.60556
1545,9.0664,3.8182,0,0.00036031,3600.6,0.0001222,0.0027574,0.0001133,-66.925,-0.0003614,-3633.6,0.60526
1546,9.0664,4,0,0.00036065,3604,0.0001221,0.0037566,0.00011378,-62.536,-0.00036168,-3634.9,0.60489
1547,9.0664,4.1818,0,0.00036105,3608,0.00012198,0.0048383,0.00011433,-57.492,-0.00036199,-3636.4,0.60444
1548,9.0664,4.3636,0,0.00036149,3612.4,0.00012185,0.0059578,0.00011495,-51.893,-0.00036235,-3638.1,0.60392
1549,9.0664,4.5455,0,0.00036198,3617.3,0.00012172,0.0070779,0.00011561,-45.849,-0.00036273,-3640,0.60332
1550,9.0664,4.7273,0,0.00036249,3622.4,0.00012157,0.0081537,0.00011632,-39.463,-0.00036315,-3642,0.60265
1551,9.0664,4.9091,0,0.00036304,3627.9,0.00012143,0.0092494,0.00011705,-32.838,-0.00036358,-3644.2,0.60189
1552,9.0664,5.0909,0,0.0003636,3633.5,0.00012128,0.010168,0.00011781,-26.062,-0.00036404,-3646.5,0.60106
1553,9.0664,5.2727,0,0.00036418,3639.3,0.00012113,0.012137,0.00011857,-19.213,-0.0003645,-3648.9,0.60016
1554,9.0664,5.4545,0,0.00036478,3645.3,0.00012099,0.011535,0.00011934,-12.351,-0.00036499,-3651.4,0.59917
1555,9.0664,5.6364,0,0.00036539,3651.4,0.00012085,0.034702,0.00012012,-5.4628,-0.00036548,-3654.1,0.59811
1556,9.0664,5.8182,0,0.00036614,3658.9,0.00012103,2.3308,0.0001207,-0.097224,-0.00036611,-3657.8,0.59697
1557,9.2507,0.18182,0,0.00036087,3606.2,0.00011934,3.0074,0.00011893,-0.068025,-0.00036082,-3604.8,0.61872
1558,9.2507,0.36364,0,0.00036014,3598.9,0.00011907,0.031998,0.00011848,-4.3982,-0.00036022,-3601.1,0.61985
1559,9.2507,0.54545,0,0.00035955,3593.1,0.00011919,0.010082,0.00011774,-10.854,-0.00035974,-3598.5,0.6209
1560,9.2507,0.72727,0,0.00035899,3587.4,0.00011932,0.010765,0.00011702,-17.241,-0.00035928,-3596,0.62187
1561,9.2507,0.90909,0,0.00035843,3581.9,0.00011945,0.0090179,0.00011631,-23.576,-0.00035883,-3593.6,0.62277
1562,9.2507,1.0909,0,0.0003579,3576.5,0.00011958,0.0082413,0.00011561,-29.808,-0.0003584,-3591.3,0.62359
1563,9.2507,1.2727,0,0.00035739,3571.4,0.00011971,0.0073045,0.00011494,-35.868,-0.00035798,-3589.2,0.62434
1564,9.2507,1.4545,0,0.0003569,3566.6,0.00011984,0.0063936,0.00011429,-41.678,-0.00035759,-3587.2,0.62501
1565,9.2507,1.6364,0,0.00035645,3562.1,0.00011996,0.0054501,0.00011368,-47.154,-0.00035723,-3585.4,0.6256
1566,9.2507,1.8182,0,0.00035604,3557.9,0.00012007,0.0045119,0.00011312,-52.205,-0.0003569,-3583.7,0.62612
1567,9.2507,2,0,0.00035567,3554.3,0.00012017,0.0036075,0.00011262,-56.74,-0.0003566,-3582.3,0.62656
1568,9.2507,2.1818,0,0.00035535,3551.1,0.00012026,0.0027755,0.00011218,-60.675,-0.00035635,-3581,0.62693
1569,9.2507,2.3636,0,0.00035509,3548.5,0.00012033,0.0020539,0.00011182,-63.928,-0.00035614,-3580,0.62722
1570,9.2507,2.5455,0,0.00035489,3546.5,0.00012039,0.0014797,0.00011155,-66.432,-0.00035597,-3579.2,0.62745
1571,9.2507,2.7273,0,0.00035476,3545.1,0.00012043,0.0010788,0.00011136,-68.133,-0.00035587,-3578.7,0.62759
1572,9.2507,2.9091,0,0.00035469,3544.4,0.00012045,0.00087267,0.00011127,-68.993,-0.00035581,-3578.4,0.62767
1573,9.2507,3.0909,0,0.00035469,3544.4,0.00012045,0.00087273,0.00011127,-68.993,-0.00035581,-3578.4,0.62767
1574,9.2507,3.2727,0,0.00035476,3545.1,0.00012043,0.0010787,0.00011136,-68.133,-0.00035587,-3578.7,0.62759
1575,9.2507,3.4545,0,0.00035489,3546.5,0.00012039,0.0014795,0.00011155,-66.432,-0.00035597,-3579.2,0.62745
1576,9.2507,3.6364,0,0.00035509,3548.5,0.00012033,0.0020535,0.00011182,-63.928,-0.00035614,-3580,0.62722
1577,9.2507,3.8182,0,0.00035535,3551.1,0.00012026,0.0027746,0.00011218,-60.675,-0.00035635,-3581,0.62693
1578,9.2507,4,0,0.00035567,3554.3,0.00012017,0.003608,0.00011262,-56.74,-0.0003566,-3582.3,0.62656
1579,9.2507,4.1818,0,0.00035604,3557.9,0.00012007,0.0045112,0.00011312,-52.205,-0.0003569,-3583.7,0.62612
1580,9.2507,4.3636,0,0.00035645,3562.1,0.00011996,0.0054494,0.00011368,-47.154,-0.00035723,-3585.4,0.6256
1581,9.2507,4.5455,0,0.0003569,3566.6,0.00011984,0.0063928,0.00011429,-41.678,-0.00035759,-3587.2,0.62501
1582,9.2507,4.7273,0,0.00035739,3571.4,0.00011971,0.0073039,0.00011494,-35.868,-0.00035798,-3589.2,0.62434
1583,9.2507,4.9091,0,0.0003579,3576.5,0.00011958,0.0082404,0.00011561,-29.808,-0.0003584,-3591.3,0.62359
1584,9.2507,5.0909,0,0.00035843,3581.9,0.00011945,0.009017,0.00011631,-23.576,-0.00035883,-3593.6,0.62277
1585,9.2507,5.2727,0,0.00035899,3587.4,0.00011932,0.010763,0.00011702,-17.241,-0.00035928,-3596,0.62187
1586,9.2507,5.4545,0,0.00035955,3593.1,0.00011919,0.010082,0.00011774,-10.854,-0.00035974,-3598.5,0.6209
1587,9.2507,5.6364,0,0.00036014,3598.9,0.00011907,0.031997,0.00011848,-4.3982,-0.00036022,-3601.1,0.61985
1588,9.2507,5.8182,0,0.00036087,3606.2,0.00011934,3.0074,0.00011893,-0.068026,-0.00036082,-3604.8,0.61872
1589,9.4351,0.18182,0,0.00035561,3553.7,0.00011766,3.6922,0.00011716,-0.049952,-0.00035555,-3551.8,0.64072
1590,9.4351,0.36364,0,0.0003549,3546.6,0.00011729,0.02961,0.00011684,-3.3426,-0.00035496,-3548.2,0.64183
1591,9.4351,0.54545,0,0.00035434,3541,0.0001174,0.0088102,0.00011615,-9.3801,-0.0003545,-3545.6,0.64287
1592,9.4351,0.72727,0,0.0003538,3535.6,0.00011751,0.0095853,0.00011547,-15.318,-0.00035406,-3543.2,0.64384
1593,9.4351,0.90909,0,0.00035328,3530.3,0.00011763,0.0080661,0.00011481,-21.177,-0.00035363,-3540.9,0.64472
1594,9.4351,1.0909,0,0.00035277,3525.3,0.00011775,0.0074249,0.00011416,-26.91,-0.00035322,-3538.7,0.64554
1595,9.4351,1.2727,0,0.00035229,3520.5,0.00011786,0.0066346,0.00011354,-32.457,-0.00035283,-3536.6,0.64627
1596,9.4351,1.4545,0,0.00035184,3516,0.00011797,0.0058708,0.00011295,-37.751,-0.00035247,-3534.7,0.64693
1597,9.4351,1.6364,0,0.00035142,3511.8,0.00011808,0.0050809,0.00011239,-42.72,-0.00035212,-3532.9,0.64752
1598,9.4351,1.8182,0,0.00035103,3507.9,0.00011818,0.004298,0.00011188,-47.286,-0.00035181,-3531.3,0.64803
1599,9.4351,2,0,0.00035069,3504.5,0.00011826,0.0035455,0.00011143,-51.373,-0.00035154,-3529.9,0.64847
1600,9.4351,2.1818,0,0.0003504,3501.6,0.00011834,0.0028532,0.00011103,-54.909,-0.0003513,-3528.7,0.64884
1601,9.4351,2.3636,0,0.00035016,3499.1,0.0001184,0.0022543,0.00011071,-57.826,-0.0003511,-3527.7,0.64913
1602,9.4351,2.5455,0,0.00034997,3497.3,0.00011845,0.001778,0.00011046,-60.068,-0.00035095,-3526.9,0.64935
1603,9.4351,2.7273,0,0.00034985,3496,0.00011849,0.0014464,0.00011029,-61.589,-0.00035085,-3526.4,0.64949
1604,9.4351,2.9091,0,0.00034978,3495.4,0.0001185,0.0012758,0.0001102,-62.358,-0.0003508,-3526.2,0.64957
1605,9.4351,3.0909,0,0.00034978,3495.4,0.0001185,0.0012756,0.0001102,-62.358,-0.0003508,-3526.2,0.64957
1606,9.4351,3.2727,0,0.00034985,3496,0.00011849,0.0014459,0.00011029,-61.589,-0.00035085,-3526.4,0.64949
1607,9.4351,3.4545,0,0.00034997,3497.3,0.00011845,0.0017784,0.00011046,-60.068,-0.00035095,-3526.9,0.64935
1608,9.4351,3.6364,0,0.00035016,3499.1,0.0001184,0.0022545,0.00011071,-57.826,-0.0003511,-3527.7,0.64913
1609,9.4351,3.8182,0,0.0003504,3501.6,0.00011834,0.0028529,0.00011103,-54.909,-0.0003513,-3528.7,0.64884
1610,9.4351,4,0,0.00035069,3504.5,0.00011826,0.0035449,0.00011143,-51.373,-0.00035154,-3529.9,0.64847
1611,9.4351,4.1818,0,0.00035103,3507.9,0.00011818,0.004297,0.00011188,-47.286,-0.00035181,-3531.3,0.64803
1612,9.4351,4.3636,0,0.00035142,3511.8,0.00011808,0.0050805,0.00011239,-42.72,-0.00035212,-3532.9,0.64752
1613,9.4351,4.5455,0,0.00035184,3516,0.00011797,0.0058701,0.00011295,-37.751,-0.00035247,-3534.7,0.64693
1614,9.4351,4.7273,0,0.00035229,3520.5,0.00011786,0.0066339,0.00011354,-32.457,-0.00035283,-3536.6,0.64627
1615,9.4351,4.9091,0,0.00035277,3525.3,0.00011775,0.0074246,0.00011416,-26.91,-0.00035322,-3538.7,0.64554
1616,9.4351,5.0909,0,0.00035328,3530.3,0.00011763,0.0080642,0.00011481,-21.177,-0.00035363,-3540.9,0.64472
1617,9.4351,5.2727,0,0.0003538,3535.6,0.00011751,0.0095838,0.00011547,-15.318,-0.00035406,-3543.2,0.64384
1618,9.4351,5.4545,0,0.00035434,3541,0.0001174,0.0088103,0.00011615,-9.3801,-0.0003545,-3545.6,0.64287
1619,9.4351,5.6364,0,0.0003549,3546.6,0.00011729,0.029608,0.00011684,-3.3426,-0.00035496,-3548.2,0.64183
1620,9.4351,5.8182,0,0.00035561,3553.7,0.00011766,3.6922,0.00011716,-0.049953,-0.00035555,-3551.8,0.64072
1621,9.6195,0.18182,0,0.00035037,3501.2,0.00011599,4.374,0.0001154,-0.037991,-0.00035029,-3499.1,0.66296
1622,9.6195,0.36364,0,0.00034968,3494.3,0.00011551,0.027744,0.0001152,-2.3066,-0.00034971,-3495.5,0.66406
1623,9.6195,0.54545,0,0.00034914,3489,0.00011561,0.0076945,0.00011455,-7.9439,-0.00034928,-3493,0.66509
1624,9.6195,0.72727,0,0.00034863,3483.9,0.00011571,0.0085729,0.00011392,-13.46,-0.00034886,-3490.6,0.66604
1625,9.6195,0.90909,0,0.00034814,3479,0.00011582,0.0072777,0.00011331,-18.876,-0.00034845,-3488.4,0.66692
1626,9.6195,1.0909,0,0.00034766,3474.2,0.00011592,0.0067658,0.00011271,-24.151,-0.00034807,-3486.2,0.66772
1627,9.6195,1.2727,0,0.00034721,3469.7,0.00011602,0.0061093,0.00011213,-29.232,-0.0003477,-3484.2,0.66845
1628,9.6195,1.4545,0,0.00034678,3465.4,0.00011612,0.005476,0.00011159,-34.062,-0.00034735,-3482.4,0.6691
1629,9.6195,1.6364,0,0.00034639,3461.5,0.00011621,0.004819,0.00011108,-38.578,-0.00034703,-3480.6,0.66968
1630,9.6195,1.8182,0,0.00034603,3457.9,0.0001163,0.0041695,0.00011061,-42.713,-0.00034674,-3479.1,0.67019
1631,9.6195,2,0,0.00034572,3454.8,0.00011638,0.0035447,0.0001102,-46.404,-0.00034648,-3477.7,0.67062
1632,9.6195,2.1818,0,0.00034544,3452,0.00011644,0.0029718,0.00010984,-49.589,-0.00034626,-3476.6,0.67099
1633,9.6195,2.3636,0,0.00034522,3449.8,0.0001165,0.0024762,0.00010955,-52.212,-0.00034608,-3475.6,0.67127
1634,9.6195,2.5455,0,0.00034505,3448.1,0.00011654,0.0020831,0.00010932,-54.224,-0.00034594,-3474.9,0.67149
1635,9.6195,2.7273,0,0.00034493,3446.9,0.00011657,0.0018083,0.00010917,-55.588,-0.00034584,-3474.4,0.67164
1636,9.6195,2.9091,0,0.00034487,3446.4,0.00011658,0.0016672,0.00010909,-56.276,-0.0003458,-3474.2,0.67171
1637,9.6195,3.0909,0,0.00034487,3446.4,0.00011658,0.0016671,0.00010909,-56.276,-0.0003458,-3474.2,0.67171
1638,9.6195,3.2727,0,0.00034493,3446.9,0.00011657,0.0018079,0.00010917,-55.588,-0.00034584,-3474.4,0.67164
1639,9.6195,3.4545,0,0.00034505,3448.1,0.00011654,0.0020826,0.00010932,-54.224,-0.00034594,-3474.9,0.67149
1640,9.6195,3.6364,0,0.00034522,3449.8,0.0001165,0.0024754,0.00010955,-52.212,-0.00034608,-3475.6,0.67127
1641,9.6195,3.8182,0,0.00034544,3452,0.00011644,0.0029713,0.00010984,-49.589,-0.00034626,-3476.6,0.67099
1642,9.6195,4,0,0.00034572,3454.8,0.00011638,0.0035445,0.0001102,-46.404,-0.00034648,-3477.7,0.67062
1643,9.6195,4.1818,0,0.00034603,3457.9,0.0001163,0.0041688,0.00011061,-42.713,-0.00034674,-3479.1,0.67019
1644,9.6195,4.3636,0,0.00034639,3461.5,0.00011621,0.0048184,0.00011108,-38.578,-0.00034703,-3480.6,0.66968
1645,9.6195,4.5455,0,0.00034678,3465.4,0.00011612,0.0054751,0.00011159,-34.062,-0.00034735,-3482.4,0.6691
1646,9.6195,4.7273,0,0.00034721,3469.7,0.00011602,0.0061088,0.00011213,-29.232,-0.0003477,-3484.2,0.66845
1647,9.6195,4.9091,0,0.00034766,3474.2,0.00011592,0.0067659,0.00011271,-24.151,-0.00034807,-3486.2,0.66772
1648,9.6195,5.0909,0,0.00034814,3479,0.00011582,0.007276,0.00011331,-18.876,-0.00034845,-3488.4,0.66692
1649,9.6195,5.2727,0,0.00034863,3483.9,0.00011571,0.0085712,0.00011392,-13.459,-0.00034886,-3490.6,0.66604
1650,9.6195,5.4545,0,0.00034914,3489,0.00011561,0.0076948,0.00011455,-7.9439,-0.00034928,-3493,0.66509
1651,9.6195,5.6364,0,0.00034968,3494.4,0.00011551,0.027743,0.0001152,-2.3066,-0.00034972,-3495.5,0.66406
1652,9.6195,5.8182,0,0.00035037,3501.2,0.00011599,4.374,0.0001154,-0.037992,-0.00035029,-3499.1,0.66296
1653,9.8038,0.18182,0,0.00034513,3449,0.00011432,5.0455,0.00011364,-0.029692,-0.00034505,-3446.4,0.68543
1654,9.8038,0.36364,0,0.00034447,3442.3,0.00011374,0.027204,0.00011356,-1.2987,-0.00034449,-3442.9,0.68652
1655,9.8038,0.54545,0,0.00034396,3437.2,0.00011383,0.0067007,0.00011296,-6.554,-0.00034407,-3440.5,0.68754
1656,9.8038,0.72727,0,0.00034347,3432.4,0.00011392,0.0076923,0.00011237,-11.673,-0.00034367,-3438.2,0.68848
1657,9.8038,0.90909,0,0.00034301,3427.7,0.00011402,0.006616,0.0001118,-16.678,-0.00034329,-3436,0.68935
1658,9.8038,1.0909,0,0.00034256,3423.2,0.00011411,0.0062219,0.00011124,-21.533,-0.00034292,-3433.9,0.69014
1659,9.8038,1.2727,0,0.00034214,3419,0.0001142,0.0056853,0.00011071,-26.192,-0.00034257,-3432,0.69086
1660,9.8038,1.4545,0,0.00034174,3415,0.00011429,0.0051667,0.00011021,-30.603,-0.00034225,-3430.2,0.69151
1661,9.8038,1.6364,0,0.00034137,3411.3,0.00011437,0.0046262,0.00010975,-34.713,-0.00034195,-3428.6,0.69208
1662,9.8038,1.8182,0,0.00034104,3408,0.00011444,0.0040895,0.00010932,-38.465,-0.00034168,-3427.1,0.69258
1663,9.8038,2,0,0.00034074,3405.1,0.00011451,0.003575,0.00010895,-41.805,-0.00034143,-3425.8,0.69301
1664,9.8038,2.1818,0,0.00034049,3402.6,0.00011457,0.0031016,0.00010862,-44.681,-0.00034123,-3424.7,0.69337
1665,9.8038,2.3636,0,0.00034028,3400.5,0.00011462,0.0026933,0.00010835,-47.044,-0.00034106,-3423.8,0.69365
1666,9.8038,2.5455,0,0.00034013,3398.9,0.00011465,0.0023692,0.00010815,-48.854,-0.00034093,-3423.1,0.69387
1667,9.8038,2.7273,0,0.00034002,3397.8,0.00011468,0.0021426,0.00010801,-50.08,-0.00034084,-3422.6,0.69401
1668,9.8038,2.9091,0,0.00033997,3397.3,0.00011469,0.0020264,0.00010794,-50.698,-0.0003408,-3422.4,0.69408
1669,9.8038,3.0909,0,0.00033997,3397.3,0.00011469,0.0020266,0.00010794,-50.698,-0.0003408,-3422.4,0.69408
1670,9.8038,3.2727,0,0.00034002,3397.8,0.00011468,0.0021424,0.00010801,-50.08,-0.00034084,-3422.6,0.69401
1671,9.8038,3.4545,0,0.00034013,3398.9,0.00011465,0.002369,0.00010815,-48.854,-0.00034093,-3423.1,0.69387
1672,9.8038,3.6364,0,0.00034028,3400.5,0.00011462,0.0026932,0.00010835,-47.044,-0.00034106,-3423.8,0.69365
1673,9.8038,3.8182,0,0.00034049,3402.6,0.00011457,0.0031017,0.00010862,-44.681,-0.00034123,-3424.7,0.69337
1674,9.8038,4,0,0.00034074,3405.1,0.00011451,0.0035747,0.00010895,-41.805,-0.00034143,-3425.8,0.69301
1675,9.8038,4.1818,0,0.00034104,3408,0.00011444,0.004089,0.00010932,-38.465,-0.00034168,-3427.1,0.69258
1676,9.8038,4.3636,0,0.00034137,3411.3,0.00011437,0.0046251,0.00010975,-34.713,-0.00034195,-3428.6,0.69208
1677,9.8038,4.5455,0,0.00034174,3415,0.00011429,0.0051661,0.00011021,-30.603,-0.00034225,-3430.2,0.69151
1678,9.8038,4.7273,0,0.00034214,3419,0.0001142,0.0056844,0.00011071,-26.192,-0.00034257,-3432,0.69086
1679,9.8038,4.9091,0,0.00034256,3423.2,0.00011411,0.0062215,0.00011124,-21.533,-0.00034292,-3434,0.69014
1680,9.8038,5.0909,0,0.00034301,3427.7,0.00011402,0.0066134,0.0001118,-16.678,-0.00034329,-3436,0.68935
1681,9.8038,5.2727,0,0.00034347,3432.4,0.00011392,0.0076913,0.00011237,-11.673,-0.00034367,-3438.2,0.68848
1682,9.8038,5.4545,0,0.00034396,3437.2,0.00011383,0.0067,0.00011296,-6.554,-0.00034407,-3440.5,0.68754
1683,9.8038,5.6364,0,0.00034447,3442.3,0.00011374,0.027204,0.00011356,-1.2987,-0.00034449,-3442.9,0.68652
1684,9.8038,5.8182,0,0.00034513,3449,0.00011432,5.0454,0.00011364,-0.029692,-0.00034505,-3446.4,0.68543
1685,9.9882,0.18182,0,0.00033992,3396.9,0.00011265,5.7017,0.00011189,-0.023704,-0.00033982,-3394,0.70814
1686,9.9882,0.36364,0,0.00033927,3390.4,0.00011198,0.037423,0.00011193,-0.33382,-0.00033928,-3390.5,0.70922
1687,9.9882,0.54545,0,0.00033879,3385.6,0.00011206,0.0058393,0.00011136,-5.2168,-0.00033888,-3388.2,0.71022
1688,9.9882,0.72727,0,0.00033833,3381,0.00011214,0.0069517,0.00011082,-9.9636,-0.0003385,-3386,0.71115
1689,9.9882,0.90909,0,0.00033789,3376.6,0.00011223,0.0060791,0.00011028,-14.589,-0.00033814,-3383.9,0.71201
1690,9.9882,1.0909,0,0.00033747,3372.4,0.00011231,0.0057927,0.00010977,-19.058,-0.00033779,-3381.9,0.71279
1691,9.9882,1.2727,0,0.00033707,3368.4,0.00011239,0.0053614,0.00010928,-23.332,-0.00033746,-3380,0.7135
1692,9.9882,1.4545,0,0.0003367,3364.7,0.00011246,0.0049428,0.00010882,-27.365,-0.00033716,-3378.3,0.71414
1693,9.9882,1.6364,0,0.00033636,3361.3,0.00011254,0.0045014,0.00010839,-31.111,-0.00033688,-3376.7,0.71471
1694,9.9882,1.8182,0,0.00033605,3358.2,0.0001126,0.0040622,0.00010801,-34.521,-0.00033662,-3375.3,0.71521
1695,9.9882,2,0,0.00033577,3355.4,0.00011266,0.0036398,0.00010766,-37.549,-0.0003364,-3374,0.71563
1696,9.9882,2.1818,0,0.00033554,3353.1,0.00011271,0.0032514,0.00010737,-40.15,-0.0003362,-3373,0.71598
1697,9.9882,2.3636,0,0.00033535,3351.2,0.00011275,0.0029161,0.00010712,-42.284,-0.00033605,-3372.1,0.71627
1698,9.9882,2.5455,0,0.0003352,3349.7,0.00011279,0.0026495,0.00010694,-43.917,-0.00033593,-3371.5,0.71648
1699,9.9882,2.7273,0,0.0003351,3348.7,0.00011281,0.0024636,0.00010681,-45.021,-0.00033585,-3371,0.71662
1700,9.9882,2.9091,0,0.00033505,3348.2,0.00011282,0.0023677,0.00010675,-45.578,-0.00033581,-3370.8,0.71669
1701,9.9882,3.0909,0,0.00033505,3348.2,0.00011282,0.0023679,0.00010675,-45.578,-0.00033581,-3370.8,0.71669
1702,9.9882,3.2727,0,0.0003351,3348.7,0.00011281,0.0024634,0.00010681,-45.021,-0.00033585,-3371,0.71662
1703,9.9882,3.4545,0,0.0003352,3349.7,0.00011279,0.0026491,0.00010694,-43.917,-0.00033593,-3371.5,0.71648
1704,9.9882,3.6364,0,0.00033535,3351.2,0.00011275,0.0029157,0.00010712,-42.284,-0.00033605,-3372.1,0.71627
1705,9.9882,3.8182,0,0.00033554,3353.1,0.00011271,0.0032506,0.00010737,-40.15,-0.0003362,-3373,0.71598
1706,9.9882,4,0,0.00033577,3355.4,0.00011266,0.0036393,0.00010766,-37.549,-0.0003364,-3374,0.71563
1707,9.9882,4.1818,0,0.00033605,3358.2,0.0001126,0.0040622,0.00010801,-34.521,-0.00033662,-3375.3,0.71521
1708,9.9882,4.3636,0,0.00033636,3361.3,0.00011254,0.0045008,0.00010839,-31.111,-0.00033688,-3376.7,0.71471
1709,9.9882,4.5455,0,0.0003367,3364.7,0.00011246,0.0049428,0.00010882,-27.365,-0.00033716,-3378.3,0.71414
1710,9.9882,4.7273,0,0.00033707,3368.4,0.00011239,0.0053614,0.00010928,-23.332,-0.00033746,-3380,0.7135
1711,9.9882,4.9091,0,0.00033747,3372.4,0.00011231,0.0057921,0.00010977,-19.058,-0.00033779,-3381.9,0.71279
1712,9.9882,5.0909,0,0.00033789,3376.6,0.00011223,0.0060775,0.00011028,-14.589,-0.00033814,-3383.9,0.71201
1713,9.9882,5.2727,0,0.00033833,3381,0.00011214,0.0069508,0.00011082,-9.9636,-0.0003385,-3386,0.71115
1714,9.9882,5.4545,0,0.00033879,3385.6,0.00011206,0.0058384,0.00011136,-5.2168,-0.00033888,-3388.2,0.71022
1715,9.9882,5.6364,0,0.00033927,3390.4,0.00011198,0.037423,0.00011193,-0.33383,-0.00033928,-3390.5,0.70922
1716,9.9882,5.8182,0,0.00033992,3396.9,0.00011265,5.7017,0.00011189,-0.023706,-0.00033982,-3394,0.70814
1717,10.173,0.18182,0,0.00033473,3344.9,0.00011099,6.3398,0.00011014,-0.019239,-0.00033462,-3341.8,0.73108
1718,10.173,0.36364,0,0.0003341,3338.7,0.0001103,0.63474,0.00011022,0.0080799,-0.00033409,-3338.3,0.73215
1719,10.173,0.54545,0,0.00033364,3334.1,0.0001103,0.0051353,0.00010977,-3.9361,-0.00033371,-3336.1,0.73314
1720,10.173,0.72727,0,0.00033321,3329.8,0.00011037,0.0063714,0.00010926,-8.3355,-0.00033335,-3333.9,0.73405
1721,10.173,0.90909,0,0.00033279,3325.6,0.00011045,0.0056809,0.00010877,-12.608,-0.000333,-3331.9,0.7349
1722,10.173,1.0909,0,0.0003324,3321.7,0.00011052,0.0054851,0.00010829,-16.724,-0.00033268,-3330,0.73567
1723,10.173,1.2727,0,0.00033202,3317.9,0.00011059,0.0051455,0.00010784,-20.647,-0.00033237,-3328.2,0.73638
1724,10.173,1.4545,0,0.00033167,3314.4,0.00011066,0.0048113,0.00010742,-24.338,-0.00033208,-3326.5,0.73701
1725,10.173,1.6364,0,0.00033135,3311.2,0.00011072,0.0044535,0.00010702,-27.756,-0.00033182,-3325,0.73757
1726,10.173,1.8182,0,0.00033106,3308.4,0.00011078,0.0040956,0.00010667,-30.861,-0.00033158,-3323.7,0.73806
1727,10.173,2,0,0.00033081,3305.8,0.00011083,0.0037511,0.00010635,-33.611,-0.00033137,-3322.5,0.73848
1728,10.173,2.1818,0,0.00033059,3303.6,0.00011087,0.0034339,0.00010608,-35.968,-0.00033119,-3321.5,0.73883
1729,10.173,2.3636,0,0.00033041,3301.9,0.00011091,0.0031592,0.00010586,-37.899,-0.00033104,-3320.6,0.73911
1730,10.173,2.5455,0,0.00033028,3300.5,0.00011094,0.0029411,0.0001057,-39.375,-0.00033093,-3320,0.73932
1731,10.173,2.7273,0,0.00033019,3299.6,0.00011096,0.0027895,0.00010558,-40.371,-0.00033086,-3319.6,0.73946
1732,10.173,2.9091,0,0.00033014,3299.1,0.00011097,0.002711,0.00010553,-40.874,-0.00033082,-3319.4,0.73953
1733,10.173,3.0909,0,0.00033014,3299.1,0.00011097,0.0027105,0.00010553,-40.874,-0.00033082,-3319.4,0.73953
1734,10.173,3.2727,0,0.00033019,3299.6,0.00011096,0.0027897,0.00010558,-40.371,-0.00033086,-3319.6,0.73946
1735,10.173,3.4545,0,0.00033028,3300.5,0.00011094,0.0029417,0.0001057,-39.375,-0.00033093,-3320,0.73932
1736,10.173,3.6364,0,0.00033041,3301.9,0.00011091,0.0031583,0.00010586,-37.899,-0.00033104,-3320.6,0.73911
1737,10.173,3.8182,0,0.00033059,3303.6,0.00011087,0.0034334,0.00010608,-35.968,-0.00033119,-3321.5,0.73883
1738,10.173,4,0,0.00033081,3305.8,0.00011083,0.0037508,0.00010635,-33.611,-0.00033137,-3322.5,0.73848
1739,10.173,4.1818,0,0.00033106,3308.4,0.00011078,0.0040954,0.00010667,-30.861,-0.00033158,-3323.7,0.73806
1740,10.173,4.3636,0,0.00033135,3311.2,0.00011072,0.0044521,0.00010702,-27.756,-0.00033182,-3325,0.73757
1741,10.173,4.5455,0,0.00033167,3314.4,0.00011066,0.0048103,0.00010742,-24.338,-0.00033208,-3326.5,0.73701
1742,10.173,4.7273,0,0.00033202,3317.9,0.00011059,0.0051443,0.00010784,-20.647,-0.00033237,-3328.2,0.73638
1743,10.173,4.9091,0,0.0003324,3321.7,0.00011052,0.0054846,0.00010829,-16.724,-0.00033268,-3330,0.73567
1744,10.173,5.0909,0,0.00033279,3325.6,0.00011045,0.0056794,0.00010877,-12.608,-0.000333,-3331.9,0.7349
1745,10.173,5.2727,0,0.00033321,3329.8,0.00011037,0.0063699,0.00010926,-8.3355,-0.00033335,-3333.9,0.73405
1746,10.173,5.4545,0,0.00033364,3334.1,0.0001103,0.0051347,0.00010977,-3.936,-0.00033371,-3336.1,0.73314
1747,10.173,5.6364,0,0.0003341,3338.7,0.0001103,0.63474,0.00011022,0.0080787,-0.00033409,-3338.3,0.73215
1748,10.173,5.8182,0,0.00033473,3344.9,0.00011099,6.3398,0.00011014,-0.019239,-0.00033462,-3341.8,0.73108
1749,10.357,0.18182,0,0.00032955,3293.2,0.00010933,6.9576,0.00010841,-0.015852,-0.00032943,-3289.7,0.75425
1750,10.357,0.36364,0,0.00032894,3287.1,0.00010868,1.5319,0.00010848,0.011842,-0.00032891,-3286.4,0.7553
1751,10.357,0.54545,0,0.00032851,3282.8,0.00010854,0.0046044,0.00010818,-2.7143,-0.00032855,-3284.1,0.75628
1752,10.357,0.72727,0,0.0003281,3278.7,0.00010861,0.0059331,0.0001077,-6.7898,-0.00032821,-3282.1,0.75718
1753,10.357,0.90909,0,0.00032771,3274.8,0.00010867,0.0053885,0.00010724,-10.736,-0.00032789,-3280.1,0.75802
1754,10.357,1.0909,0,0.00032733,3271.1,0.00010874,0.0052602,0.0001068,-14.527,-0.00032758,-3278.3,0.75878
1755,10.357,1.2727,0,0.00032698,3267.6,0.0001088,0.0049931,0.00010639,-18.13,-0.00032729,-3276.6,0.75947
1756,10.357,1.4545,0,0.00032666,3264.3,0.00010886,0.0047277,0.000106,-21.511,-0.00032702,-3275,0.7601
1757,10.357,1.6364,0,0.00032636,3261.3,0.00010892,0.004439,0.00010564,-24.635,-0.00032677,-3273.6,0.76065
1758,10.357,1.8182,0,0.00032609,3258.6,0.00010897,0.0041498,0.00010531,-27.464,-0.00032654,-3272.3,0.76114
1759,10.357,2,0,0.00032585,3256.2,0.00010901,0.0038695,0.00010502,-29.966,-0.00032635,-3271.1,0.76155
1760,10.357,2.1818,0,0.00032565,3254.2,0.00010905,0.0036112,0.00010478,-32.106,-0.00032618,-3270.2,0.7619
1761,10.357,2.3636,0,0.00032548,3252.6,0.00010908,0.0033865,0.00010458,-33.857,-0.00032605,-3269.4,0.76217
1762,10.357,2.5455,0,0.00032536,3251.3,0.00010911,0.0032097,0.00010442,-35.193,-0.00032594,-3268.8,0.76238
1763,10.357,2.7273,0,0.00032527,3250.5,0.00010912,0.003086,0.00010432,-36.095,-0.00032587,-3268.4,0.76252
1764,10.357,2.9091,0,0.00032523,3250.1,0.00010913,0.0030214,0.00010427,-36.549,-0.00032584,-3268.2,0.76259
1765,10.357,3.0909,0,0.00032523,3250.1,0.00010913,0.0030216,0.00010427,-36.549,-0.00032584,-3268.2,0.76259
1766,10.357,3.2727,0,0.00032527,3250.5,0.00010912,0.0030846,0.00010432,-36.095,-0.00032587,-3268.4,0.76252
1767,10.357,3.4545,0,0.00032536,3251.3,0.00010911,0.0032093,0.00010442,-35.193,-0.00032594,-3268.8,0.76238
1768,10.357,3.6364,0,0.00032548,3252.6,0.00010908,0.0033871,0.00010458,-33.857,-0.00032605,-3269.4,0.76217
1769,10.357,3.8182,0,0.00032565,3254.2,0.00010905,0.0036102,0.00010478,-32.106,-0.00032618,-3270.2,0.7619
1770,10.357,4,0,0.00032585,3256.2,0.00010901,0.0038693,0.00010502,-29.966,-0.00032635,-3271.1,0.76155
1771,10.357,4.1818,0,0.00032609,3258.6,0.00010897,0.0041489,0.00010531,-27.464,-0.00032654,-3272.3,0.76114
1772,10.357,4.3636,0,0.00032636,3261.3,0.00010892,0.0044384,0.00010564,-24.634,-0.00032677,-3273.6,0.76065
1773,10.357,4.5455,0,0.00032666,3264.3,0.00010886,0.004727,0.000106,-21.511,-0.00032702,-3275,0.7601
1774,10.357,4.7273,0,0.00032698,3267.6,0.0001088,0.0049919,0.00010639,-18.13,-0.00032729,-3276.6,0.75947
1775,10.357,4.9091,0,0.00032733,3271.1,0.00010874,0.0052591,0.0001068,-14.527,-0.00032758,-3278.3,0.75878
1776,10.357,5.0909,0,0.00032771,3274.8,0.00010867,0.0053876,0.00010724,-10.736,-0.00032789,-3280.1,0.75802
1777,10.357,5.2727,0,0.0003281,3278.7,0.00010861,0.005931,0.0001077,-6.7897,-0.00032821,-3282.1,0.75718
1778,10.357,5.4545,0,0.00032851,3282.8,0.00010854,0.004604,0.00010818,-2.7143,-0.00032855,-3284.1,0.75628
1779,10.357,5.6364,0,0.00032894,3287.1,0.00010868,1.5319,0.00010848,0.011841,-0.00032891,-3286.4,0.7553
1780,10.357,5.8182,0,0.00032955,3293.2,0.00010933,6.9576,0.00010841,-0.015853,-0.00032943,-3289.7,0.75425
1781,10.541,0.18182,0,0.00032439,3241.7,0.00010768,7.5539,0.00010667,-0.013229,-0.00032427,-3237.9,0.77764
1782,10.541,0.36364,0,0.0003238,3235.8,0.00010705,2.394,0.00010674,0.011329,-0.00032376,-3234.6,0.77868
1783,10.541,0.54545,0,0.00032339,3231.7,0.0001068,0.0044716,0.00010659,-1.5525,-0.00032342,-3232.4,0.77964
1784,10.541,0.72727,0,0.000323,3227.8,0.00010686,0.0056891,0.00010615,-5.3261,-0.00032309,-3230.5,0.78053
1785,10.541,0.90909,0,0.00032263,3224.1,0.00010691,0.0052243,0.00010572,-8.971,-0.00032279,-3228.6,0.78136
1786,10.541,1.0909,0,0.00032228,3220.6,0.00010697,0.0051292,0.00010531,-12.463,-0.00032249,-3226.8,0.78211
1787,10.541,1.2727,0,0.00032195,3217.3,0.00010703,0.0049122,0.00010493,-15.775,-0.00032222,-3225.2,0.78279
1788,10.541,1.4545,0,0.00032165,3214.3,0.00010708,0.0046977,0.00010457,-18.874,-0.00032196,-3223.7,0.78341
1789,10.541,1.6364,0,0.00032137,3211.5,0.00010713,0.0044634,0.00010423,-21.731,-0.00032173,-3222.3,0.78396
1790,10.541,1.8182,0,0.00032112,3208.9,0.00010717,0.0042282,0.00010393,-24.313,-0.00032152,-3221,0.78444
1791,10.541,2,0,0.0003209,3206.7,0.00010721,0.0040005,0.00010367,-26.592,-0.00032134,-3220,0.78484
1792,10.541,2.1818,0,0.00032071,3204.9,0.00010724,0.00379,0.00010345,-28.539,-0.00032118,-3219,0.78519
1793,10.541,2.3636,0,0.00032055,3203.3,0.00010727,0.0036076,0.00010326,-30.129,-0.00032106,-3218.3,0.78546
1794,10.541,2.5455,0,0.00032044,3202.2,0.00010729,0.0034636,0.00010312,-31.341,-0.00032096,-3217.7,0.78566
1795,10.541,2.7273,0,0.00032036,3201.4,0.00010731,0.0033624,0.00010303,-32.159,-0.0003209,-3217.3,0.7858
1796,10.541,2.9091,0,0.00032032,3201,0.00010732,0.0033103,0.00010298,-32.57,-0.00032086,-3217.2,0.78587
1797,10.541,3.0909,0,0.00032032,3201,0.00010732,0.0033104,0.00010298,-32.57,-0.00032086,-3217.2,0.78587
1798,10.541,3.2727,0,0.00032036,3201.4,0.00010731,0.0033624,0.00010303,-32.159,-0.0003209,-3217.3,0.7858
1799,10.541,3.4545,0,0.00032044,3202.2,0.00010729,0.0034633,0.00010312,-31.341,-0.00032096,-3217.7,0.78566
1800,10.541,3.6364,0,0.00032055,3203.3,0.00010727,0.0036078,0.00010326,-30.129,-0.00032106,-3218.3,0.78546
1801,10.541,3.8182,0,0.00032071,3204.9,0.00010724,0.0037893,0.00010345,-28.539,-0.00032118,-3219,0.78519
1802,10.541,4,0,0.0003209,3206.7,0.00010721,0.0040003,0.00010367,-26.592,-0.00032134,-3220,0.78484
1803,10.541,4.1818,0,0.00032112,3208.9,0.00010717,0.0042277,0.00010393,-24.313,-0.00032152,-3221,0.78444
1804,10.541,4.3636,0,0.00032137,3211.5,0.00010713,0.0044633,0.00010423,-21.731,-0.00032173,-3222.3,0.78396
1805,10.541,4.5455,0,0.00032165,3214.3,0.00010708,0.0046972,0.00010457,-18.874,-0.00032196,-3223.7,0.78341
1806,10.541,4.7273,0,0.00032195,3217.3,0.00010703,0.0049126,0.00010493,-15.775,-0.00032222,-3225.2,0.78279
1807,10.541,4.9091,0,0.00032228,3220.6,0.00010697,0.0051283,0.00010531,-12.463,-0.00032249,-3226.8,0.78211
1808,10.541,5.0909,0,0.00032263,3224.1,0.00010691,0.0052224,0.00010572,-8.971,-0.00032279,-3228.6,0.78136
1809,10.541,5.2727,0,0.000323,3227.8,0.00010686,0.0056877,0.00010615,-5.3261,-0.00032309,-3230.5,0.78053
1810,10.541,5.4545,0,0.00032339,3231.7,0.0001068,0.0044711,0.00010659,-1.5524,-0.00032342,-3232.4,0.77964
1811,10.541,5.6364,0,0.0003238,3235.8,0.00010705,2.394,0.00010674,0.011329,-0.00032376,-3234.6,0.77868
1812,10.541,5.8182,0,0.00032439,3241.7,0.00010768,7.5539,0.00010667,-0.013228,-0.00032427,-3237.9,0.77764
1813,10.726,0.18182,0,0.00031926,3190.4,0.00010604,8.1283,0.00010495,-0.011154,-0.00031912,-3186.3,0.80125
1814,10.726,0.36364,0,0.00031868,3184.6,0.00010543,3.2172,0.00010501,0.010151,-0.00031863,-3183,0.80227
1815,10.726,0.54545,0,0.00031829,3180.7,0.00010506,0.0070456,0.000105,-0.45256,-0.0003183,-3181,0.80322
1816,10.726,0.72727,0,0.00031793,3177.1,0.00010511,0.0057659,0.00010459,-3.9433,-0.00031799,-3179,0.8041
1817,10.726,0.90909,0,0.00031758,3173.6,0.00010516,0.0052306,0.00010419,-7.3093,-0.0003177,-3177.2,0.80492
1818,10.726,1.0909,0,0.00031725,3170.3,0.00010521,0.0051132,0.00010381,-10.527,-0.00031743,-3175.5,0.80566
1819,10.726,1.2727,0,0.00031694,3167.2,0.00010526,0.004917,0.00010345,-13.572,-0.00031717,-3174,0.80633
1820,10.726,1.4545,0,0.00031665,3164.3,0.00010531,0.0047321,0.00010312,-16.415,-0.00031693,-3172.5,0.80694
1821,10.726,1.6364,0,0.00031639,3161.7,0.00010535,0.004536,0.00010282,-19.03,-0.00031671,-3171.2,0.80748
1822,10.726,1.8182,0,0.00031615,3159.4,0.00010539,0.0043408,0.00010254,-21.39,-0.00031651,-3170,0.80795
1823,10.726,2,0,0.00031595,3157.3,0.00010542,0.004154,0.0001023,-23.469,-0.00031634,-3169,0.80836
1824,10.726,2.1818,0,0.00031577,3155.5,0.00010545,0.0039814,0.00010209,-25.242,-0.00031619,-3168.1,0.80869
1825,10.726,2.3636,0,0.00031563,3154.1,0.00010548,0.0038321,0.00010193,-26.689,-0.00031608,-3167.4,0.80896
1826,10.726,2.5455,0,0.00031552,3153,0.0001055,0.0037145,0.0001018,-27.79,-0.00031599,-3166.8,0.80916
1827,10.726,2.7273,0,0.00031545,3152.3,0.00010551,0.0036323,0.00010171,-28.533,-0.00031593,-3166.5,0.8093
1828,10.726,2.9091,0,0.00031541,3152,0.00010552,0.0035897,0.00010167,-28.907,-0.00031589,-3166.3,0.80937
1829,10.726,3.0909,0,0.00031541,3152,0.00010552,0.0035887,0.00010167,-28.907,-0.00031589,-3166.3,0.80937
1830,10.726,3.2727,0,0.00031545,3152.3,0.00010551,0.0036321,0.00010171,-28.533,-0.00031593,-3166.5,0.8093
1831,10.726,3.4545,0,0.00031552,3153,0.0001055,0.0037147,0.0001018,-27.79,-0.00031599,-3166.8,0.80916
1832,10.726,3.6364,0,0.00031563,3154.1,0.00010548,0.0038322,0.00010193,-26.689,-0.00031608,-3167.4,0.80896
1833,10.726,3.8182,0,0.00031577,3155.5,0.00010545,0.003981,0.00010209,-25.242,-0.00031619,-3168.1,0.80869
1834,10.726,4,0,0.00031595,3157.3,0.00010542,0.0041533,0.0001023,-23.469,-0.00031634,-3169,0.80836
1835,10.726,4.1818,0,0.00031615,3159.4,0.00010539,0.0043404,0.00010254,-21.39,-0.00031651,-3170,0.80795
1836,10.726,4.3636,0,0.00031639,3161.7,0.00010535,0.0045355,0.00010282,-19.03,-0.00031671,-3171.2,0.80748
1837,10.726,4.5455,0,0.00031665,3164.3,0.00010531,0.0047314,0.00010312,-16.415,-0.00031693,-3172.5,0.80694
1838,10.726,4.7273,0,0.00031694,3167.2,0.00010526,0.0049163,0.00010345,-13.572,-0.00031717,-3174,0.80633
1839,10.726,4.9091,0,0.00031725,3170.3,0.00010521,0.0051131,0.00010381,-10.527,-0.00031743,-3175.5,0.80566
1840,10.726,5.0909,0,0.00031758,3173.6,0.00010516,0.0052286,0.00010419,-7.3093,-0.0003177,-3177.2,0.80492
1841,10.726,5.2727,0,0.00031793,3177.1,0.00010511,0.0057647,0.00010459,-3.9432,-0.00031799,-3179,0.8041
1842,10.726,5.4545,0,0.00031829,3180.7,0.00010506,0.0070448,0.000105,-0.45253,-0.0003183,-3181,0.80322
1843,10.726,5.6364,0,0.00031868,3184.6,0.00010543,3.2172,0.00010501,0.01015,-0.00031863,-3183,0.80227
1844,10.726,5.8182,0,0.00031926,3190.4,0.00010604,8.1283,0.00010495,-0.011155,-0.00031912,-3186.3,0.80125
1845,10.91,0.18182,0,0.00031415,3139.3,0.00010439,8.6808,0.00010324,-0.0094902,-0.000314,-3135,0.82508
1846,10.91,0.36364,0,0.00031358,3133.7,0.00010382,4.0012,0.00010329,0.0088114,-0.00031352,-3131.7,0.82608
1847,10.91,0.54545,0,0.00031321,3130,0.00010341,0.60036,0.00010333,-0.0015055,-0.0003132,-3129.7,0.82702
1848,10.91,0.72727,0,0.00031287,3126.5,0.00010338,0.0064922,0.00010303,-2.6393,-0.00031291,-3127.8,0.82789
1849,10.91,0.90909,0,0.00031254,3123.2,0.00010342,0.0054725,0.00010266,-5.7473,-0.00031264,-3126.1,0.82869
1850,10.91,1.0909,0,0.00031223,3120.1,0.00010347,0.0052354,0.00010231,-8.7132,-0.00031237,-3124.5,0.82942
1851,10.91,1.2727,0,0.00031194,3117.2,0.00010351,0.0050115,0.00010198,-11.513,-0.00031213,-3122.9,0.83009
1852,10.91,1.4545,0,0.00031167,3114.5,0.00010355,0.0048308,0.00010167,-14.123,-0.0003119,-3121.5,0.83069
1853,10.91,1.6364,0,0.00031142,3112.1,0.00010359,0.0046523,0.00010139,-16.52,-0.0003117,-3120.3,0.83122
1854,10.91,1.8182,0,0.0003112,3109.9,0.00010362,0.004484,0.00010113,-18.678,-0.00031151,-3119.2,0.83169
1855,10.91,2,0,0.00031101,3107.9,0.00010365,0.0043249,0.00010091,-20.577,-0.00031135,-3118.2,0.83209
1856,10.91,2.1818,0,0.00031084,3106.3,0.00010368,0.0041807,0.00010072,-22.194,-0.00031122,-3117.3,0.83242
1857,10.91,2.3636,0,0.00031071,3105,0.0001037,0.0040564,0.00010057,-23.512,-0.0003111,-3116.7,0.83268
1858,10.91,2.5455,0,0.00031061,3104,0.00010371,0.0039598,0.00010045,-24.515,-0.00031102,-3116.1,0.83288
1859,10.91,2.7273,0,0.00031054,3103.3,0.00010372,0.0038912,0.00010037,-25.19,-0.00031096,-3115.8,0.83301
1860,10.91,2.9091,0,0.00031051,3102.9,0.00010373,0.0038568,0.00010033,-25.53,-0.00031094,-3115.6,0.83308
1861,10.91,3.0909,0,0.00031051,3102.9,0.00010373,0.0038563,0.00010033,-25.53,-0.00031094,-3115.6,0.83308
1862,10.91,3.2727,0,0.00031054,3103.3,0.00010372,0.0038913,0.00010037,-25.19,-0.00031096,-3115.8,0.83301
1863,10.91,3.4545,0,0.00031061,3104,0.00010371,0.0039596,0.00010045,-24.515,-0.00031102,-3116.1,0.83288
1864,10.91,3.6364,0,0.00031071,3105,0.0001037,0.0040558,0.00010057,-23.512,-0.0003111,-3116.7,0.83268
1865,10.91,3.8182,0,0.00031084,3106.3,0.00010368,0.0041801,0.00010072,-22.194,-0.00031122,-3117.3,0.83242
1866,10.91,4,0,0.00031101,3107.9,0.00010365,0.0043247,0.00010091,-20.577,-0.00031135,-3118.2,0.83209
1867,10.91,4.1818,0,0.0003112,3109.9,0.00010362,0.0044829,0.00010113,-18.678,-0.00031151,-3119.2,0.83169
1868,10.91,4.3636,0,0.00031142,3112.1,0.00010359,0.0046523,0.00010139,-16.52,-0.0003117,-3120.3,0.83122
1869,10.91,4.5455,0,0.00031167,3114.5,0.00010355,0.0048301,0.00010167,-14.123,-0.0003119,-3121.5,0.83069
1870,10.91,4.7273,0,0.00031194,3117.2,0.00010351,0.0050117,0.00010198,-11.513,-0.00031213,-3122.9,0.83009
1871,10.91,4.9091,0,0.00031223,3120.1,0.00010347,0.0052347,0.00010231,-8.7131,-0.00031237,-3124.5,0.82942
1872,10.91,5.0909,0,0.00031254,3123.2,0.00010342,0.0054701,0.00010266,-5.7473,-0.00031264,-3126.1,0.82869
1873,10.91,5.2727,0,0.00031287,3126.5,0.00010338,0.0064916,0.00010303,-2.6392,-0.00031291,-3127.8,0.82789
1874,10.91,5.4545,0,0.00031321,3130,0.00010341,0.60039,0.00010333,-0.0015053,-0.0003132,-3129.7,0.82702
1875,10.91,5.6364,0,0.00031358,3133.7,0.00010382,4.0012,0.00010329,0.0088115,-0.00031352,-3131.7,0.82608
1876,10.91,5.8182,0,0.00031415,3139.3,0.00010439,8.6808,0.00010324,-0.0094908,-0.000314,-3135,0.82508
1877,11.094,0.18182,0,0.00030905,3088.4,0.00010276,9.2118,0.00010153,-0.0081554,-0.0003089,-3083.8,0.84912
1878,11.094,0.36364,0,0.00030851,3082.9,0.0001022,4.747,0.00010157,0.00744,-0.00030843,-3080.6,0.85011
1879,11.094,0.54545,0,0.00030815,3079.4,0.00010182,1.5867,0.00010161,0.00010103,-0.00030813,-3078.6,0.85103
1880,11.094,0.72727,0,0.00030783,3076.1,0.00010165,0.0092848,0.00010146,-1.4127,-0.00030785,-3076.8,0.85189
1881,11.094,0.90909,0,0.00030751,3073,0.00010169,0.0060972,0.00010112,-4.2808,-0.00030759,-3075.2,0.85268
1882,11.094,1.0909,0,0.00030722,3070.1,0.00010173,0.0055265,0.0001008,-7.0145,-0.00030734,-3073.6,0.8534
1883,11.094,1.2727,0,0.00030695,3067.3,0.00010177,0.0052018,0.00010049,-9.591,-0.00030711,-3072.1,0.85406
1884,11.094,1.4545,0,0.00030669,3064.8,0.0001018,0.0049847,0.00010021,-11.989,-0.00030689,-3070.8,0.85465
1885,11.094,1.6364,0,0.00030646,3062.5,0.00010183,0.0048012,9.9946e-05,-14.186,-0.0003067,-3069.6,0.85517
1886,11.094,1.8182,0,0.00030626,3060.4,0.00010186,0.0046406,9.9713e-05,-16.163,-0.00030653,-3068.5,0.85563
1887,11.094,2,0,0.00030608,3058.6,0.00010189,0.0044973,9.9508e-05,-17.898,-0.00030638,-3067.5,0.85602
1888,11.094,2.1818,0,0.00030592,3057.1,0.00010191,0.0043703,9.9334e-05,-19.375,-0.00030625,-3066.8,0.85635
1889,11.094,2.3636,0,0.0003058,3055.9,0.00010193,0.0042636,9.9192e-05,-20.578,-0.00030614,-3066.1,0.85661
1890,11.094,2.5455,0,0.0003057,3054.9,0.00010195,0.0041812,9.9085e-05,-21.492,-0.00030606,-3065.6,0.85681
1891,11.094,2.7273,0,0.00030564,3054.3,0.00010196,0.0041238,9.9012e-05,-22.107,-0.00030601,-3065.3,0.85694
1892,11.094,2.9091,0,0.00030561,3054,0.00010196,0.0040942,9.8976e-05,-22.417,-0.00030598,-3065.1,0.85701
1893,11.094,3.0909,0,0.00030561,3054,0.00010196,0.0040941,9.8976e-05,-22.417,-0.00030598,-3065.1,0.85701
1894,11.094,3.2727,0,0.00030564,3054.3,0.00010196,0.0041232,9.9012e-05,-22.107,-0.00030601,-3065.3,0.85694
1895,11.094,3.4545,0,0.0003057,3054.9,0.00010195,0.0041809,9.9085e-05,-21.492,-0.00030606,-3065.6,0.85681
1896,11.094,3.6364,0,0.0003058,3055.9,0.00010193,0.004263,9.9192e-05,-20.578,-0.00030614,-3066.1,0.85661
1897,11.094,3.8182,0,0.00030592,3057.1,0.00010191,0.0043701,9.9334e-05,-19.375,-0.00030625,-3066.8,0.85635
1898,11.094,4,0,0.00030608,3058.6,0.00010189,0.0044969,9.9508e-05,-17.898,-0.00030638,-3067.5,0.85602
1899,11.094,4.1818,0,0.00030626,3060.4,0.00010186,0.00464,9.9713e-05,-16.163,-0.00030653,-3068.5,0.85563
1900,11.094,4.3636,0,0.00030646,3062.5,0.00010183,0.0048001,9.9946e-05,-14.186,-0.0003067,-3069.6,0.85517
1901,11.094,4.5455,0,0.00030669,3064.8,0.0001018,0.0049841,0.00010021,-11.989,-0.00030689,-3070.8,0.85465
1902,11.094,4.7273,0,0.00030695,3067.3,0.00010177,0.005201,0.00010049,-9.5909,-0.00030711,-3072.1,0.85406
1903,11.094,4.9091,0,0.00030722,3070.1,0.00010173,0.0055255,0.0001008,-7.0145,-0.00030734,-3073.6,0.8534
1904,11.094,5.0909,0,0.00030751,3073,0.00010169,0.0060942,0.00010112,-4.2807,-0.00030759,-3075.2,0.85268
1905,11.094,5.2727,0,0.00030783,3076.1,0.00010165,0.0092839,0.00010146,-1.4126,-0.00030785,-3076.8,0.85189
1906,11.094,5.4545,0,0.00030815,3079.4,0.00010182,1.5867,0.00010161,0.00010062,-0.00030813,-3078.6,0.85103
1907,11.094,5.6364,0,0.00030851,3082.9,0.0001022,4.747,0.00010157,0.0074392,-0.00030843,-3080.6,0.85011
1908,11.094,5.8182,0,0.00030905,3088.4,0.00010276,9.2118,0.00010153,-0.0081559,-0.0003089,-3083.8,0.84912
1909,11.279,0.18182,0,0.00030398,3037.7,0.00010113,9.7218,9.9832e-05,-0.0070542,-0.00030382,-3032.9,0.87336
1910,11.279,0.36364,0,0.00030345,3032.4,0.00010059,5.4558,9.9868e-05,0.0061123,-0.00030335,-3029.6,0.87434
1911,11.279,0.54545,0,0.00030311,3029,0.00010024,2.5205,9.9902e-05,9.6065e-05,-0.00030307,-3027.8,0.87525
1912,11.279,0.72727,0,0.0003028,3025.9,9.9942e-05,0.03694,9.9899e-05,-0.28289,-0.00030281,-3026,0.87609
1913,11.279,0.90909,0,0.00030251,3023,9.9972e-05,0.0075822,9.9584e-05,-2.9053,-0.00030256,-3024.4,0.87687
1914,11.279,1.0909,0,0.00030223,3020.2,0.0001,0.0061222,9.9282e-05,-5.425,-0.00030232,-3022.9,0.87758
1915,11.279,1.2727,0,0.00030197,3017.6,0.00010004,0.0055522,9.8998e-05,-7.7965,-0.0003021,-3021.5,0.87823
1916,11.279,1.4545,0,0.00030173,3015.2,0.00010007,0.0052388,9.8735e-05,-10,-0.0003019,-3020.2,0.87881
1917,11.279,1.6364,0,0.00030151,3013.1,0.00010009,0.005014,9.8495e-05,-12.017,-0.00030172,-3019.1,0.87933
1918,11.279,1.8182,0,0.00030132,3011.1,0.00010012,0.004841,9.8279e-05,-13.828,-0.00030155,-3018,0.87978
1919,11.279,2,0,0.00030115,3009.4,0.00010014,0.0046967,9.8091e-05,-15.416,-0.00030141,-3017.1,0.88017
1920,11.279,2.1818,0,0.00030101,3008,0.00010016,0.0045769,9.7931e-05,-16.767,-0.00030129,-3016.4,0.8805
1921,11.279,2.3636,0,0.00030089,3006.9,0.00010018,0.0044793,9.78e-05,-17.865,-0.00030119,-3015.7,0.88075
1922,11.279,2.5455,0,0.00030081,3006,0.00010019,0.004406,9.7702e-05,-18.699,-0.00030112,-3015.3,0.88095
1923,11.279,2.7273,0,0.00030075,3005.4,0.0001002,0.0043557,9.7635e-05,-19.26,-0.00030107,-3015,0.88108
1924,11.279,2.9091,0,0.00030072,3005.1,0.0001002,0.0043286,9.7602e-05,-19.542,-0.00030104,-3014.8,0.88114
1925,11.279,3.0909,0,0.00030072,3005.1,0.0001002,0.004329,9.7602e-05,-19.542,-0.00030104,-3014.8,0.88114
1926,11.279,3.2727,0,0.00030075,3005.4,0.0001002,0.0043558,9.7635e-05,-19.26,-0.00030107,-3015,0.88108
1927,11.279,3.4545,0,0.00030081,3006,0.00010019,0.0044054,9.7702e-05,-18.699,-0.00030112,-3015.3,0.88095
1928,11.279,3.6364,0,0.00030089,3006.9,0.00010018,0.0044797,9.78e-05,-17.865,-0.00030119,-3015.7,0.88075
1929,11.279,3.8182,0,0.00030101,3008,0.00010016,0.0045765,9.7931e-05,-16.767,-0.00030129,-3016.4,0.8805
1930,11.279,4,0,0.00030115,3009.4,0.00010014,0.0046971,9.8091e-05,-15.416,-0.00030141,-3017.1,0.88017
1931,11.279,4.1818,0,0.00030132,3011.1,0.00010012,0.0048398,9.8279e-05,-13.828,-0.00030155,-3018,0.87978
1932,11.279,4.3636,0,0.00030151,3013.1,0.00010009,0.0050139,9.8495e-05,-12.017,-0.00030172,-3019.1,0.87933
1933,11.279,4.5455,0,0.00030173,3015.2,0.00010007,0.0052379,9.8735e-05,-10,-0.0003019,-3020.2,0.87881
1934,11.279,4.7273,0,0.00030197,3017.6,0.00010004,0.0055513,9.8998e-05,-7.7965,-0.0003021,-3021.5,0.87823
1935,11.279,4.9091,0,0.00030223,3020.2,0.0001,0.0061218,9.9282e-05,-5.425,-0.00030232,-3022.9,0.87758
1936,11.279,5.0909,0,0.00030251,3023,9.9972e-05,0.0075814,9.9584e-05,-2.9053,-0.00030256,-3024.4,0.87687
1937,11.279,5.2727,0,0.0003028,3025.9,9.9942e-05,0.036942,9.9899e-05,-0.28286,-0.00030281,-3026,0.87609
1938,11.279,5.4545,0,0.00030311,3029,0.00010024,2.5205,9.9902e-05,9.6202e-05,-0.00030307,-3027.8,0.87525
1939,11.279,5.6364,0,0.00030345,3032.4,0.00010059,5.4558,9.9868e-05,0.0061122,-0.00030335,-3029.6,0.87434
1940,11.279,5.8182,0,0.00030398,3037.7,0.00010113,9.7218,9.9832e-05,-0.007055,-0.00030382,-3032.9,0.87336
1941,11.463,0.18182,0,0.00029893,2987.3,9.9501e-05,10.212,9.8141e-05,-0.006109,-0.00029876,-2982.2,0.89782
1942,11.463,0.36364,0,0.00029841,2982,9.8987e-05,6.1291,9.8172e-05,0.0048759,-0.0002983,-2979,0.89878
1943,11.463,0.54545,0,0.00029809,2978.8,9.8654e-05,3.4029,9.8201e-05,-0.00010506,-0.00029803,-2977.1,0.89967
1944,11.463,0.72727,0,0.00029779,2975.9,9.8344e-05,0.85368,9.8229e-05,-0.010357,-0.00029778,-2975.5,0.90051
1945,11.463,0.90909,0,0.00029752,2973.1,9.8261e-05,0.011755,9.8044e-05,-1.6177,-0.00029754,-2973.9,0.90127
1946,11.463,1.0909,0,0.00029725,2970.5,9.8289e-05,0.0073082,9.7764e-05,-3.9383,-0.00029732,-2972.4,0.90197
1947,11.463,1.2727,0,0.00029701,2968,9.8316e-05,0.0061736,9.7501e-05,-6.1215,-0.00029711,-2971.1,0.90261
1948,11.463,1.4545,0,0.00029678,2965.8,9.8342e-05,0.0056529,9.7257e-05,-8.1475,-0.00029692,-2969.8,0.90319
1949,11.463,1.6364,0,0.00029658,2963.7,9.8366e-05,0.0053371,9.7035e-05,-9.9991,-0.00029675,-2968.7,0.9037
1950,11.463,1.8182,0,0.0002964,2961.9,9.8388e-05,0.0051192,9.6836e-05,-11.66,-0.00029659,-2967.7,0.90414
1951,11.463,2,0,0.00029624,2960.3,9.8408e-05,0.0049557,9.6662e-05,-13.115,-0.00029646,-2966.9,0.90452
1952,11.463,2.1818,0,0.0002961,2959,9.8425e-05,0.0048289,9.6514e-05,-14.351,-0.00029635,-2966.1,0.90484
1953,11.463,2.3636,0,0.000296,2957.9,9.8438e-05,0.0047294,9.6394e-05,-15.355,-0.00029625,-2965.6,0.9051
1954,11.463,2.5455,0,0.00029591,2957.1,9.8449e-05,0.0046581,9.6303e-05,-16.117,-0.00029618,-2965.1,0.90529
1955,11.463,2.7273,0,0.00029586,2956.5,9.8456e-05,0.0046097,9.6242e-05,-16.63,-0.00029614,-2964.8,0.90542
1956,11.463,2.9091,0,0.00029583,2956.3,9.846e-05,0.0045856,9.6211e-05,-16.887,-0.00029611,-2964.7,0.90548
1957,11.463,3.0909,0,0.00029583,2956.3,9.846e-05,0.0045847,9.6211e-05,-16.887,-0.00029611,-2964.7,0.90548
1958,11.463,3.2727,0,0.00029586,2956.5,9.8456e-05,0.0046095,9.6242e-05,-16.63,-0.00029614,-2964.8,0.90542
1959,11.463,3.4545,0,0.00029591,2957.1,9.8449e-05,0.0046586,9.6303e-05,-16.117,-0.00029618,-2965.1,0.90529
1960,11.463,3.6364,0,0.000296,2957.9,9.8438e-05,0.0047297,9.6394e-05,-15.355,-0.00029625,-2965.6,0.9051
1961,11.463,3.8182,0,0.0002961,2959,9.8425e-05,0.0048289,9.6514e-05,-14.351,-0.00029635,-2966.1,0.90484
1962,11.463,4,0,0.00029624,2960.3,9.8408e-05,0.0049558,9.6662e-05,-13.115,-0.00029646,-2966.9,0.90452
1963,11.463,4.1818,0,0.0002964,2961.9,9.8388e-05,0.005119,9.6836e-05,-11.66,-0.00029659,-2967.7,0.90414
1964,11.463,4.3636,0,0.00029658,2963.7,9.8366e-05,0.0053362,9.7035e-05,-9.9991,-0.00029675,-2968.7,0.9037
1965,11.463,4.5455,0,0.00029678,2965.8,9.8342e-05,0.0056532,9.7257e-05,-8.1475,-0.00029692,-2969.8,0.90319
1966,11.463,4.7273,0,0.00029701,2968,9.8316e-05,0.0061729,9.7501e-05,-6.1215,-0.00029711,-2971.1,0.90261
1967,11.463,4.9091,0,0.00029725,2970.5,9.8289e-05,0.0073072,9.7764e-05,-3.9383,-0.00029732,-2972.4,0.90197
1968,11.463,5.0909,0,0.00029752,2973.1,9.8261e-05,0.011754,9.8044e-05,-1.6176,-0.00029754,-2973.9,0.90127
1969,11.463,5.2727,0,0.00029779,2975.9,9.8344e-05,0.85372,9.8229e-05,-0.010357,-0.00029778,-2975.5,0.90051
1970,11.463,5.4545,0,0.00029809,2978.8,9.8654e-05,3.4029,9.8201e-05,-0.00010525,-0.00029803,-2977.1,0.89967
1971,11.463,5.6364,0,0.00029841,2982,9.8987e-05,6.1291,9.8172e-05,0.0048753,-0.0002983,-2979,0.89878
1972,11.463,5.8182,0,0.00029893,2987.3,9.9501e-05,10.212,9.8141e-05,-0.0061105,-0.00029876,-2982.2,0.89782
1973,11.647,0.18182,0,0.0002939,2937,9.7881e-05,10.683,9.6458e-05,-0.0053474,-0.00029372,-2931.7,0.92247
1974,11.647,0.36364,0,0.00029339,2931.9,9.7384e-05,6.7687,9.6484e-05,0.0036711,-0.00029328,-2928.5,0.92342
1975,11.647,0.54545,0,0.00029309,2928.8,9.7072e-05,4.2363,9.6508e-05,-0.00039613,-0.00029301,-2926.7,0.9243
1976,11.647,0.72727,0,0.00029281,2926,9.6782e-05,1.8723,9.6533e-05,-0.0043327,-0.00029277,-2925.1,0.92512
1977,11.647,0.90909,0,0.00029254,2923.4,9.6563e-05,0.038626,9.65e-05,-0.43299,-0.00029255,-2923.6,0.92587
1978,11.647,1.0909,0,0.00029229,2920.9,9.6583e-05,0.0097995,9.6243e-05,-2.5489,-0.00029234,-2922.2,0.92657
1979,11.647,1.2727,0,0.00029206,2918.6,9.6606e-05,0.0071922,9.5999e-05,-4.5584,-0.00029214,-2920.9,0.9272
1980,11.647,1.4545,0,0.00029185,2916.5,9.6628e-05,0.006237,9.5773e-05,-6.4216,-0.00029196,-2919.7,0.92776
1981,11.647,1.6364,0,0.00029166,2914.5,9.6649e-05,0.0057373,9.5567e-05,-8.1226,-0.00029179,-2918.6,0.92826
1982,11.647,1.8182,0,0.00029148,2912.8,9.6668e-05,0.0054286,9.5383e-05,-9.6467,-0.00029165,-2917.6,0.9287
1983,11.647,2,0,0.00029133,2911.3,9.6684e-05,0.0052183,9.5222e-05,-10.981,-0.00029152,-2916.8,0.92908
1984,11.647,2.1818,0,0.00029121,2910.1,9.6699e-05,0.0050654,9.5086e-05,-12.112,-0.00029141,-2916.1,0.92939
1985,11.647,2.3636,0,0.00029111,2909.1,9.671e-05,0.0049544,9.4975e-05,-13.031,-0.00029133,-2915.5,0.92964
1986,11.647,2.5455,0,0.00029103,2908.3,9.6719e-05,0.0048757,9.4891e-05,-13.728,-0.00029126,-2915.1,0.92983
1987,11.647,2.7273,0,0.00029098,2907.8,9.6725e-05,0.0048257,9.4835e-05,-14.197,-0.00029122,-2914.8,0.92996
1988,11.647,2.9091,0,0.00029095,2907.5,9.6728e-05,0.0047995,9.4807e-05,-14.432,-0.00029119,-2914.7,0.93002
1989,11.647,3.0909,0,0.00029095,2907.5,9.6728e-05,0.0048001,9.4807e-05,-14.432,-0.00029119,-2914.7,0.93002
1990,11.647,3.2727,0,0.00029098,2907.8,9.6725e-05,0.0048253,9.4835e-05,-14.197,-0.00029122,-2914.8,0.92996
1991,11.647,3.4545,0,0.00029103,2908.3,9.6719e-05,0.0048759,9.4891e-05,-13.728,-0.00029126,-2915.1,0.92983
1992,11.647,3.6364,0,0.00029111,2909.1,9.671e-05,0.0049539,9.4975e-05,-13.031,-0.00029133,-2915.5,0.92964
1993,11.647,3.8182,0,0.00029121,2910.1,9.6699e-05,0.0050649,9.5086e-05,-12.112,-0.00029141,-2916.1,0.92939
1994,11.647,4,0,0.00029133,2911.3,9.6684e-05,0.0052174,9.5222e-05,-10.981,-0.00029152,-2916.8,0.92908
1995,11.647,4.1818,0,0.00029148,2912.8,9.6668e-05,0.0054289,9.5383e-05,-9.6467,-0.00029165,-2917.6,0.9287
1996,11.647,4.3636,0,0.00029166,2914.5,9.6649e-05,0.0057368,9.5567e-05,-8.1225,-0.00029179,-2918.6,0.92826
1997,11.647,4.5455,0,0.00029185,2916.5,9.6628e-05,0.006237,9.5773e-05,-6.4216,-0.00029196,-2919.7,0.92776
1998,11.647,4.7273,0,0.00029206,2918.6,9.6606e-05,0.0071918,9.5999e-05,-4.5583,-0.00029214,-2920.9,0.9272
1999,11.647,4.9091,0,0.00029229,2920.9,9.6583e-05,0.0097993,9.6243e-05,-2.5488,-0.00029234,-2922.2,0.92657
2000,11.647,5.0909,0,0.00029254,2923.4,9.6563e-05,0.038628,9.65e-05,-0.43295,-0.00029255,-2923.6,0.92587
2001,11.647,5.2727,0,0.00029281,2926,9.6782e-05,1.8724,9.6533e-05,-0.0043347,-0.00029277,-2925.1,0.92512
2002,11.647,5.4545,0,0.00029309,2928.8,9.7072e-05,4.2363,9.6508e-05,-0.00039701,-0.00029301,-2926.7,0.9243
2003,11.647,5.6364,0,0.00029339,2931.9,9.7384e-05,6.7687,9.6484e-05,0.0036726,-0.00029328,-2928.5,0.92342
2004,11.647,5.8182,0,0.0002939,2937,9.7881e-05,10.683,9.6459e-05,-0.0053464,-0.00029372,-2931.7,0.92247
2005,11.832,0.18182,0,0.0002889,2887,9.6266e-05,11.135,9.4784e-05,-0.0047083,-0.00028871,-2881.4,0.94733
2006,11.832,0.36364,0,0.00028839,2881.9,9.5786e-05,7.3764,9.4804e-05,0.0025314,-0.00028827,-2878.2,0.94826
2007,11.832,0.54545,0,0.0002881,2879,9.5493e-05,5.0235,9.4824e-05,-0.00070666,-0.00028802,-2876.5,0.94913
2008,11.832,0.72727,0,0.00028783,2876.4,9.5222e-05,2.835,9.4845e-05,-0.0028663,-0.00028779,-2874.9,0.94993
2009,11.832,0.90909,0,0.00028758,2873.8,9.4967e-05,0.76204,9.4863e-05,-0.019818,-0.00028757,-2873.5,0.95068
2010,11.832,1.0909,0,0.00028735,2871.5,9.4888e-05,0.017409,9.4719e-05,-1.2538,-0.00028737,-2872.1,0.95136
2011,11.832,1.2727,0,0.00028713,2869.3,9.4906e-05,0.0091506,9.4493e-05,-3.0996,-0.00028718,-2870.8,0.95198
2012,11.832,1.4545,0,0.00028693,2867.3,9.4925e-05,0.0071792,9.4283e-05,-4.8132,-0.00028701,-2869.7,0.95253
2013,11.832,1.6364,0,0.00028674,2865.5,9.4942e-05,0.0063087,9.4092e-05,-6.3762,-0.00028685,-2868.6,0.95303
2014,11.832,1.8182,0,0.00028658,2863.9,9.4958e-05,0.0058281,9.3922e-05,-7.7755,-0.00028671,-2867.7,0.95346
2015,11.832,2,0,0.00028644,2862.4,9.4972e-05,0.0055253,9.3773e-05,-8.9989,-0.00028659,-2866.9,0.95383
2016,11.832,2.1818,0,0.00028632,2861.3,9.4984e-05,0.0053223,9.3647e-05,-10.036,-0.00028649,-2866.3,0.95414
2017,11.832,2.3636,0,0.00028623,2860.3,9.4994e-05,0.0051813,9.3545e-05,-10.877,-0.00028641,-2865.7,0.95439
2018,11.832,2.5455,0,0.00028615,2859.6,9.5001e-05,0.0050877,9.3468e-05,-11.515,-0.00028635,-2865.3,0.95457
2019,11.832,2.7273,0,0.00028611,2859.1,9.5006e-05,0.005027,9.3416e-05,-11.944,-0.00028631,-2865,0.9547
2020,11.832,2.9091,0,0.00028608,2858.8,9.5009e-05,0.0049982,9.339e-05,-12.159,-0.00028629,-2864.9,0.95476
2021,11.832,3.0909,0,0.00028608,2858.8,9.5009e-05,0.0049977,9.339e-05,-12.159,-0.00028629,-2864.9,0.95476
2022,11.832,3.2727,0,0.00028611,2859.1,9.5006e-05,0.0050282,9.3416e-05,-11.944,-0.00028631,-2865,0.9547
2023,11.832,3.4545,0,0.00028615,2859.6,9.5001e-05,0.0050864,9.3468e-05,-11.515,-0.00028635,-2865.3,0.95457
2024,11.832,3.6364,0,0.00028623,2860.3,9.4994e-05,0.0051822,9.3545e-05,-10.877,-0.00028641,-2865.7,0.95439
2025,11.832,3.8182,0,0.00028632,2861.3,9.4984e-05,0.005322,9.3647e-05,-10.036,-0.00028649,-2866.3,0.95414
2026,11.832,4,0,0.00028644,2862.4,9.4972e-05,0.0055256,9.3773e-05,-8.9989,-0.00028659,-2866.9,0.95383
2027,11.832,4.1818,0,0.00028658,2863.9,9.4958e-05,0.005827,9.3922e-05,-7.7754,-0.00028671,-2867.7,0.95346
2028,11.832,4.3636,0,0.00028674,2865.5,9.4942e-05,0.0063087,9.4092e-05,-6.3762,-0.00028685,-2868.6,0.95303
2029,11.832,4.5455,0,0.00028693,2867.3,9.4925e-05,0.0071785,9.4283e-05,-4.8131,-0.00028701,-2869.7,0.95253
2030,11.832,4.7273,0,0.00028713,2869.3,9.4906e-05,0.0091497,9.4493e-05,-3.0995,-0.00028718,-2870.8,0.95198
2031,11.832,4.9091,0,0.00028735,2871.5,9.4888e-05,0.017407,9.4719e-05,-1.2538,-0.00028737,-2872.1,0.95136
2032,11.832,5.0909,0,0.00028758,2873.8,9.4967e-05,0.76208,9.4863e-05,-0.019818,-0.00028757,-2873.5,0.95068
2033,11.832,5.2727,0,0.00028783,2876.4,9.5222e-05,2.835,9.4845e-05,-0.0028686,-0.00028779,-2874.9,0.94993
2034,11.832,5.4545,0,0.0002881,2879,9.5493e-05,5.0236,9.4824e-05,-0.00070762,-0.00028802,-2876.5,0.94913
2035,11.832,5.6364,0,0.00028839,2881.9,9.5786e-05,7.3764,9.4804e-05,0.0025308,-0.00028827,-2878.2,0.94826
2036,11.832,5.8182,0,0.0002889,2887,9.6266e-05,11.135,9.4784e-05,-0.0047098,-0.00028871,-2881.4,0.94733
2037,12.016,0.18182,0,0.00028391,2837.2,9.4657e-05,11.571,9.3117e-05,-0.0041522,-0.00028371,-2831.4,0.97238
2038,12.016,0.36364,0,0.00028342,2832.2,9.4191e-05,7.9543,9.3133e-05,0.0014749,-0.00028328,-2828.2,0.97329
2039,12.016,0.54545,0,0.00028314,2829.4,9.3917e-05,5.7676,9.3149e-05,-0.0009967,-0.00028304,-2826.5,0.97415
2040,12.016,0.72727,0,0.00028288,2826.9,9.3664e-05,3.742,9.3165e-05,-0.0023174,-0.00028282,-2825,0.97494
2041,12.016,0.90909,0,0.00028264,2824.5,9.3424e-05,1.8166,9.3181e-05,-0.0077095,-0.00028261,-2823.6,0.97567
2042,12.016,1.0909,0,0.00028242,2822.2,9.3216e-05,0.13051,9.3179e-05,-0.14739,-0.00028242,-2822.2,0.97634
2043,12.016,1.2727,0,0.00028221,2820.2,9.3217e-05,0.014078,9.2983e-05,-1.7396,-0.00028224,-2821,0.97695
2044,12.016,1.4545,0,0.00028202,2818.2,9.3231e-05,0.0089244,9.2789e-05,-3.3137,-0.00028208,-2819.9,0.9775
2045,12.016,1.6364,0,0.00028185,2816.5,9.3245e-05,0.0072287,9.2612e-05,-4.7501,-0.00028193,-2818.9,0.97799
2046,12.016,1.8182,0,0.00028169,2815,9.3258e-05,0.0064077,9.2454e-05,-6.0351,-0.0002818,-2818,0.97841
2047,12.016,2,0,0.00028156,2813.7,9.327e-05,0.0059363,9.2317e-05,-7.1577,-0.00028168,-2817.2,0.97878
2048,12.016,2.1818,0,0.00028145,2812.5,9.328e-05,0.0056403,9.22e-05,-8.1087,-0.00028159,-2816.6,0.97908
2049,12.016,2.3636,0,0.00028136,2811.6,9.3288e-05,0.0054452,9.2106e-05,-8.8797,-0.00028151,-2816.1,0.97932
2050,12.016,2.5455,0,0.00028129,2811,9.3295e-05,0.0053199,9.2034e-05,-9.464,-0.00028145,-2815.7,0.97951
2051,12.016,2.7273,0,0.00028124,2810.5,9.3299e-05,0.0052422,9.1986e-05,-9.8565,-0.00028141,-2815.4,0.97963
2052,12.016,2.9091,0,0.00028122,2810.3,9.3301e-05,0.0052049,9.1962e-05,-10.054,-0.00028139,-2815.3,0.97969
2053,12.016,3.0909,0,0.00028122,2810.3,9.3301e-05,0.005205,9.1962e-05,-10.054,-0.00028139,-2815.3,0.97969
2054,12.016,3.2727,0,0.00028124,2810.5,9.3299e-05,0.0052423,9.1986e-05,-9.8565,-0.00028141,-2815.4,0.97963
2055,12.016,3.4545,0,0.00028129,2811,9.3295e-05,0.0053196,9.2034e-05,-9.464,-0.00028145,-2815.7,0.97951
2056,12.016,3.6364,0,0.00028136,2811.6,9.3288e-05,0.0054451,9.2106e-05,-8.8796,-0.00028151,-2816.1,0.97932
2057,12.016,3.8182,0,0.00028145,2812.5,9.328e-05,0.0056399,9.22e-05,-8.1086,-0.00028159,-2816.6,0.97908
2058,12.016,4,0,0.00028156,2813.7,9.327e-05,0.0059366,9.2317e-05,-7.1577,-0.00028168,-2817.2,0.97878
2059,12.016,4.1818,0,0.00028169,2815,9.3258e-05,0.0064073,9.2454e-05,-6.035,-0.0002818,-2818,0.97841
2060,12.016,4.3636,0,0.00028185,2816.5,9.3245e-05,0.007228,9.2612e-05,-4.7501,-0.00028193,-2818.9,0.97799
2061,12.016,4.5455,0,0.00028202,2818.2,9.3231e-05,0.0089247,9.2789e-05,-3.3137,-0.00028208,-2819.9,0.9775
2062,12.016,4.7273,0,0.00028221,2820.2,9.3217e-05,0.014078,9.2983e-05,-1.7396,-0.00028224,-2821,0.97695
2063,12.016,4.9091,0,0.00028242,2822.2,9.3216e-05,0.13053,9.3179e-05,-0.14737,-0.00028242,-2822.2,0.97634
2064,12.016,5.0909,0,0.00028264,2824.5,9.3424e-05,1.8166,9.3181e-05,-0.0077109,-0.00028261,-2823.6,0.97567
2065,12.016,5.2727,0,0.00028288,2826.9,9.3664e-05,3.742,9.3165e-05,-0.0023189,-0.00028282,-2825,0.97494
2066,12.016,5.4545,0,0.00028314,2829.4,9.3917e-05,5.7676,9.3149e-05,-0.0009967,-0.00028304,-2826.5,0.97415
2067,12.016,5.6364,0,0.00028342,2832.2,9.4191e-05,7.9543,9.3133e-05,0.0014741,-0.00028328,-2828.2,0.97329
2068,12.016,5.8182,0,0.00028391,2837.2,9.4657e-05,11.571,9.3117e-05,-0.0041529,-0.00028371,-2831.4,0.97238
2069,12.201,0.18182,0,0.00027895,2787.5,9.3054e-05,11.991,9.1458e-05,-0.003677,-0.00027874,-2781.5,0.99762
2070,12.201,0.36364,0,0.00027846,2782.7,9.2602e-05,8.5043,9.147e-05,0.00047723,-0.00027831,-2778.4,0.99852
2071,12.201,0.54545,0,0.00027819,2780,9.2343e-05,6.4713,9.1482e-05,-0.0012797,-0.00027808,-2776.7,0.99936
2072,12.201,0.72727,0,0.00027795,2777.6,9.2107e-05,4.5966,9.1495e-05,-0.0021083,-0.00027787,-2775.3,1.0001
2073,12.201,0.90909,0,0.00027772,2775.3,9.1883e-05,2.8153,9.1507e-05,-0.0047382,-0.00027767,-2773.9,1.0009
2074,12.201,1.0909,0,0.00027751,2773.1,9.1673e-05,1.1406,9.1519e-05,-0.014971,-0.00027749,-2772.6,1.0015
2075,12.201,1.2727,0,0.00027731,2771.2,9.154e-05,0.042703,9.1468e-05,-0.49203,-0.00027732,-2771.4,1.0021
2076,12.201,1.4545,0,0.00027713,2769.4,9.1548e-05,0.013015,9.1291e-05,-1.9165,-0.00027716,-2770.3,1.0027
2077,12.201,1.6364,0,0.00027696,2767.7,9.1559e-05,0.0088793,9.1127e-05,-3.2351,-0.00027702,-2769.3,1.0031
2078,12.201,1.8182,0,0.00027682,2766.3,9.1569e-05,0.0073026,9.0981e-05,-4.4151,-0.00027689,-2768.5,1.0036
2079,12.201,2,0,0.00027669,2765,9.1579e-05,0.0065005,9.0853e-05,-5.4454,-0.00027678,-2767.7,1.0039
2080,12.201,2.1818,0,0.00027659,2764,9.1587e-05,0.0060328,9.0745e-05,-6.3177,-0.00027669,-2767.1,1.0042
2081,12.201,2.3636,0,0.0002765,2763.1,9.1594e-05,0.005742,9.0658e-05,-7.0245,-0.00027662,-2766.6,1.0045
2082,12.201,2.5455,0,0.00027644,2762.5,9.1599e-05,0.0055606,9.0592e-05,-7.5599,-0.00027656,-2766.2,1.0046
2083,12.201,2.7273,0,0.00027639,2762,9.1602e-05,0.0054525,9.0547e-05,-7.9194,-0.00027653,-2766,1.0048
2084,12.201,2.9091,0,0.00027637,2761.8,9.1604e-05,0.0054016,9.0525e-05,-8.0999,-0.00027651,-2765.8,1.0048
2085,12.201,3.0909,0,0.00027637,2761.8,9.1604e-05,0.0054012,9.0525e-05,-8.0999,-0.00027651,-2765.8,1.0048
2086,12.201,3.2727,0,0.00027639,2762,9.1602e-05,0.0054532,9.0547e-05,-7.9194,-0.00027653,-2766,1.0048
2087,12.201,3.4545,0,0.00027644,2762.5,9.1599e-05,0.0055607,9.0592e-05,-7.5599,-0.00027656,-2766.2,1.0046
2088,12.201,3.6364,0,0.0002765,2763.1,9.1594e-05,0.0057421,9.0658e-05,-7.0244,-0.00027662,-2766.6,1.0045
2089,12.201,3.8182,0,0.00027659,2764,9.1587e-05,0.0060319,9.0745e-05,-6.3176,-0.00027669,-2767.1,1.0042
2090,12.201,4,0,0.00027669,2765,9.1579e-05,0.0064993,9.0853e-05,-5.4454,-0.00027678,-2767.7,1.0039
2091,12.201,4.1818,0,0.00027682,2766.3,9.1569e-05,0.0073025,9.0981e-05,-4.415,-0.00027689,-2768.5,1.0036
2092,12.201,4.3636,0,0.00027696,2767.7,9.1559e-05,0.008878,9.1127e-05,-3.2351,-0.00027702,-2769.3,1.0031
2093,12.201,4.5455,0,0.00027713,2769.4,9.1548e-05,0.013015,9.1291e-05,-1.9164,-0.00027716,-2770.3,1.0027
2094,12.201,4.7273,0,0.00027731,2771.2,9.154e-05,0.042704,9.1468e-05,-0.49199,-0.00027732,-2771.4,1.0021
2095,12.201,4.9091,0,0.00027751,2773.1,9.1673e-05,1.1407,9.1519e-05,-0.01497,-0.00027749,-2772.6,1.0015
2096,12.201,5.0909,0,0.00027772,2775.3,9.1883e-05,2.8153,9.1507e-05,-0.0047401,-0.00027767,-2773.9,1.0009
2097,12.201,5.2727,0,0.00027795,2777.6,9.2107e-05,4.5966,9.1495e-05,-0.0021102,-0.00027787,-2775.3,1.0001
2098,12.201,5.4545,0,0.00027819,2780,9.2343e-05,6.4713,9.1482e-05,-0.0012777,-0.00027808,-2776.7,0.99936
2099,12.201,5.6364,0,0.00027846,2782.7,9.2602e-05,8.5043,9.147e-05,0.00047752,-0.00027831,-2778.4,0.99852
2100,12.201,5.8182,0,0.00027895,2787.5,9.3054e-05,11.991,9.1458e-05,-0.0036778,-0.00027874,-2781.5,0.99762
2101,12.385,0.18182,0,0.000274,2738.1,9.1457e-05,12.397,8.9806e-05,-0.0032615,-0.00027379,-2731.9,1.023
2102,12.385,0.36364,0,0.00027352,2733.3,9.1016e-05,9.0285,8.9814e-05,-0.00045005,-0.00027337,-2728.8,1.0239
2103,12.385,0.54545,0,0.00027326,2730.8,9.0773e-05,7.1376,8.9823e-05,-0.0015409,-0.00027314,-2727.2,1.0248
2104,12.385,0.72727,0,0.00027303,2728.4,9.0552e-05,5.4024,8.9832e-05,-0.0020458,-0.00027294,-2725.7,1.0255
2105,12.385,0.90909,0,0.00027281,2726.2,9.0342e-05,3.7555,8.9842e-05,-0.0034629,-0.00027275,-2724.4,1.0262
2106,12.385,1.0909,0,0.00027261,2724.2,9.0146e-05,2.2039,8.9851e-05,-0.0069239,-0.00027257,-2723.1,1.0269
2107,12.385,1.2727,0,0.00027242,2722.3,8.9964e-05,0.76832,8.9859e-05,-0.023253,-0.00027241,-2722,1.0275
2108,12.385,1.4545,0,0.00027225,2720.6,8.9876e-05,0.0329,8.9788e-05,-0.62692,-0.00027226,-2720.9,1.028
2109,12.385,1.6364,0,0.00027209,2719.1,8.9882e-05,0.012826,8.9638e-05,-1.8238,-0.00027212,-2720,1.0285
2110,12.385,1.8182,0,0.00027196,2717.7,8.989e-05,0.0089646,8.9502e-05,-2.9059,-0.00027201,-2719.1,1.0289
2111,12.385,2,0,0.00027184,2716.5,8.9898e-05,0.0073964,8.9384e-05,-3.8514,-0.0002719,-2718.4,1.0292
2112,12.385,2.1818,0,0.00027174,2715.5,8.9904e-05,0.0065856,8.9284e-05,-4.6514,-0.00027182,-2717.8,1.0295
2113,12.385,2.3636,0,0.00027166,2714.7,8.9909e-05,0.0061154,8.9203e-05,-5.2995,-0.00027175,-2717.3,1.0298
2114,12.385,2.5455,0,0.00027159,2714.1,8.9913e-05,0.005836,8.9142e-05,-5.7902,-0.00027169,-2717,1.0299
2115,12.385,2.7273,0,0.00027155,2713.7,8.9916e-05,0.0056738,8.9101e-05,-6.1196,-0.00027166,-2716.7,1.0301
2116,12.385,2.9091,0,0.00027153,2713.5,8.9918e-05,0.0055994,8.908e-05,-6.285,-0.00027164,-2716.6,1.0301
2117,12.385,3.0909,0,0.00027153,2713.5,8.9918e-05,0.005599,8.908e-05,-6.285,-0.00027164,-2716.6,1.0301
2118,12.385,3.2727,0,0.00027155,2713.7,8.9916e-05,0.0056739,8.9101e-05,-6.1196,-0.00027166,-2716.7,1.0301
2119,12.385,3.4545,0,0.00027159,2714.1,8.9913e-05,0.0058351,8.9142e-05,-5.7902,-0.00027169,-2717,1.0299
2120,12.385,3.6364,0,0.00027166,2714.7,8.9909e-05,0.0061162,8.9203e-05,-5.2995,-0.00027175,-2717.3,1.0298
2121,12.385,3.8182,0,0.00027174,2715.5,8.9904e-05,0.0065846,8.9284e-05,-4.6514,-0.00027182,-2717.8,1.0295
2122,12.385,4,0,0.00027184,2716.5,8.9898e-05,0.0073977,8.9384e-05,-3.8513,-0.0002719,-2718.4,1.0292
2123,12.385,4.1818,0,0.00027196,2717.7,8.989e-05,0.0089638,8.9502e-05,-2.9059,-0.00027201,-2719.1,1.0289
2124,12.385,4.3636,0,0.00027209,2719.1,8.9882e-05,0.012827,8.9638e-05,-1.8237,-0.00027212,-2720,1.0285
2125,12.385,4.5455,0,0.00027225,2720.6,8.9876e-05,0.032901,8.9788e-05,-0.62688,-0.00027226,-2720.9,1.028
2126,12.385,4.7273,0,0.00027242,2722.3,8.9964e-05,0.76836,8.9859e-05,-0.023252,-0.00027241,-2722,1.0275
2127,12.385,4.9091,0,0.00027261,2724.2,9.0146e-05,2.204,8.9851e-05,-0.006924,-0.00027257,-2723.1,1.0269
2128,12.385,5.0909,0,0.00027281,2726.2,9.0342e-05,3.7555,8.9842e-05,-0.0034635,-0.00027275,-2724.4,1.0262
2129,12.385,5.2727,0,0.00027303,2728.4,9.0552e-05,5.4024,8.9832e-05,-0.0020473,-0.00027294,-2725.7,1.0255
2130,12.385,5.4545,0,0.00027326,2730.8,9.0773e-05,7.1376,8.9823e-05,-0.0015394,-0.00027314,-2727.2,1.0248
2131,12.385,5.6364,0,0.00027352,2733.3,9.1016e-05,9.0285,8.9814e-05,-0.00045127,-0.00027337,-2728.8,1.0239
2132,12.385,5.8182,0,0.000274,2738.1,9.1457e-05,12.397,8.9806e-05,-0.0032624,-0.00027379,-2731.9,1.023
2133,12.569,0.18182,0,0.00026908,2689,8.9865e-05,12.789,8.8162e-05,-0.0029143,-0.00026886,-2682.5,1.0487
2134,12.569,0.36364,0,0.0002686,2684.2,8.9435e-05,9.5287,8.8167e-05,-0.0013361,-0.00026844,-2679.4,1.0495
2135,12.569,0.54545,0,0.00026836,2681.7,8.9207e-05,7.7692,8.8172e-05,-0.0018003,-0.00026822,-2677.8,1.0503
2136,12.569,0.72727,0,0.00026813,2679.5,8.8999e-05,6.1631,8.8179e-05,-0.0020729,-0.00026803,-2676.4,1.0511
2137,12.569,0.90909,0,0.00026793,2677.4,8.8803e-05,4.6408,8.8185e-05,-0.002801,-0.00026785,-2675.1,1.0518
2138,12.569,1.0909,0,0.00026773,2675.5,8.8619e-05,3.207,8.8192e-05,-0.0042928,-0.00026768,-2673.9,1.0524
2139,12.569,1.2727,0,0.00026755,2673.7,8.8449e-05,1.8722,8.8198e-05,-0.0080214,-0.00026752,-2672.7,1.053
2140,12.569,1.4545,0,0.00026739,2672,8.8294e-05,0.65621,8.8203e-05,-0.025248,-0.00026738,-2671.7,1.0535
2141,12.569,1.6364,0,0.00026724,2670.5,8.8218e-05,0.034911,8.8143e-05,-0.52356,-0.00026725,-2670.8,1.054
2142,12.569,1.8182,0,0.00026711,2669.2,8.8221e-05,0.013347,8.802e-05,-1.5003,-0.00026713,-2670,1.0544
2143,12.569,2,0,0.00026699,2668.1,8.8226e-05,0.0091713,8.791e-05,-2.3659,-0.00026703,-2669.3,1.0548
2144,12.569,2.1818,0,0.0002669,2667.2,8.8231e-05,0.0074905,8.7817e-05,-3.0993,-0.00026695,-2668.7,1.055
2145,12.569,2.3636,0,0.00026682,2666.4,8.8235e-05,0.0066348,8.7743e-05,-3.6934,-0.00026689,-2668.2,1.0553
2146,12.569,2.5455,0,0.00026676,2665.8,8.8238e-05,0.0061591,8.7686e-05,-4.1431,-0.00026684,-2667.9,1.0554
2147,12.569,2.7273,0,0.00026673,2665.4,8.824e-05,0.0058968,8.7648e-05,-4.4449,-0.0002668,-2667.6,1.0556
2148,12.569,2.9091,0,0.00026671,2665.2,8.8241e-05,0.0057798,8.7629e-05,-4.5964,-0.00026678,-2667.5,1.0556
2149,12.569,3.0909,0,0.00026671,2665.2,8.8241e-05,0.0057795,8.7629e-05,-4.5964,-0.00026678,-2667.5,1.0556
2150,12.569,3.2727,0,0.00026673,2665.4,8.824e-05,0.0058974,8.7648e-05,-4.4449,-0.0002668,-2667.6,1.0556
2151,12.569,3.4545,0,0.00026676,2665.8,8.8238e-05,0.0061599,8.7686e-05,-4.1431,-0.00026684,-2667.9,1.0554
2152,12.569,3.6364,0,0.00026682,2666.4,8.8235e-05,0.0066345,8.7743e-05,-3.6933,-0.00026689,-2668.2,1.0553
2153,12.569,3.8182,0,0.0002669,2667.2,8.8231e-05,0.0074906,8.7817e-05,-3.0993,-0.00026695,-2668.7,1.055
2154,12.569,4,0,0.00026699,2668.1,8.8226e-05,0.0091707,8.791e-05,-2.3659,-0.00026703,-2669.3,1.0548
2155,12.569,4.1818,0,0.00026711,2669.2,8.8221e-05,0.013345,8.802e-05,-1.5002,-0.00026713,-2670,1.0544
2156,12.569,4.3636,0,0.00026724,2670.5,8.8218e-05,0.034912,8.8143e-05,-0.52352,-0.00026725,-2670.8,1.054
2157,12.569,4.5455,0,0.00026739,2672,8.8294e-05,0.65625,8.8203e-05,-0.025246,-0.00026738,-2671.7,1.0535
2158,12.569,4.7273,0,0.00026755,2673.7,8.8449e-05,1.8722,8.8198e-05,-0.0080213,-0.00026752,-2672.7,1.053
2159,12.569,4.9091,0,0.00026773,2675.5,8.8619e-05,3.2071,8.8192e-05,-0.0042928,-0.00026768,-2673.9,1.0524
2160,12.569,5.0909,0,0.00026793,2677.4,8.8803e-05,4.6408,8.8185e-05,-0.0028039,-0.00026785,-2675.1,1.0518
2161,12.569,5.2727,0,0.00026813,2679.5,8.8999e-05,6.1632,8.8179e-05,-0.0020739,-0.00026803,-2676.4,1.0511
2162,12.569,5.4545,0,0.00026836,2681.7,8.9207e-05,7.7693,8.8172e-05,-0.0018014,-0.00026822,-2677.8,1.0503
2163,12.569,5.6364,0,0.0002686,2684.2,8.9435e-05,9.5287,8.8167e-05,-0.0013348,-0.00026844,-2679.4,1.0495
2164,12.569,5.8182,0,0.00026908,2689,8.9865e-05,12.789,8.8162e-05,-0.0029148,-0.00026886,-2682.5,1.0487
2165,12.754,0.18182,0,0.00026418,2640,8.8279e-05,13.17,8.6526e-05,-0.0026011,-0.00026395,-2633.4,1.0745
2166,12.754,0.36364,0,0.00026371,2635.3,8.786e-05,10.007,8.6527e-05,-0.0021569,-0.00026354,-2630.2,1.0753
2167,12.754,0.54545,0,0.00026347,2632.9,8.7644e-05,8.369,8.653e-05,-0.0020405,-0.00026333,-2628.7,1.0761
2168,12.754,0.72727,0,0.00026325,2630.7,8.7449e-05,6.8823,8.6533e-05,-0.0021343,-0.00026314,-2627.3,1.0769
2169,12.754,0.90909,0,0.00026305,2628.7,8.7266e-05,5.4752,8.6537e-05,-0.0024102,-0.00026296,-2626,1.0775
2170,12.754,1.0909,0,0.00026287,2626.9,8.7094e-05,4.1512,8.6541e-05,-0.0030124,-0.0002628,-2624.8,1.0782
2171,12.754,1.2727,0,0.0002627,2625.2,8.6934e-05,2.9185,8.6545e-05,-0.0042479,-0.00026265,-2623.7,1.0787
2172,12.754,1.4545,0,0.00026254,2623.6,8.6788e-05,1.7857,8.6549e-05,-0.0071352,-0.00026251,-2622.7,1.0792
2173,12.754,1.6364,0,0.0002624,2622.2,8.6657e-05,0.76605,8.6552e-05,-0.017471,-0.00026239,-2621.8,1.0797
2174,12.754,1.8182,0,0.00026227,2620.9,8.6567e-05,0.061594,8.6528e-05,-0.23057,-0.00026228,-2621,1.0801
2175,12.754,2,0,0.00026217,2619.9,8.6565e-05,0.015348,8.6432e-05,-0.98321,-0.00026218,-2620.3,1.0804
2176,12.754,2.1818,0,0.00026208,2619,8.6568e-05,0.0096601,8.6347e-05,-1.6522,-0.0002621,-2619.8,1.0807
2177,12.754,2.3636,0,0.000262,2618.2,8.657e-05,0.0076248,8.6277e-05,-2.1959,-0.00026204,-2619.3,1.081
2178,12.754,2.5455,0,0.00026195,2617.7,8.6573e-05,0.0066626,8.6225e-05,-2.6077,-0.00026199,-2619,1.0811
2179,12.754,2.7273,0,0.00026191,2617.3,8.6574e-05,0.0061781,8.6189e-05,-2.8841,-0.00026196,-2618.7,1.0812
2180,12.754,2.9091,0,0.00026189,2617.1,8.6575e-05,0.0059699,8.6172e-05,-3.0228,-0.00026194,-2618.6,1.0813
2181,12.754,3.0909,0,0.00026189,2617.1,8.6575e-05,0.0059693,8.6172e-05,-3.0228,-0.00026194,-2618.6,1.0813
2182,12.754,3.2727,0,0.00026191,2617.3,8.6574e-05,0.0061776,8.6189e-05,-2.8841,-0.00026196,-2618.7,1.0812
2183,12.754,3.4545,0,0.00026195,2617.7,8.6573e-05,0.0066617,8.6225e-05,-2.6077,-0.00026199,-2619,1.0811
2184,12.754,3.6364,0,0.000262,2618.2,8.657e-05,0.007623,8.6277e-05,-2.1958,-0.00026204,-2619.3,1.081
2185,12.754,3.8182,0,0.00026208,2619,8.6568e-05,0.0096579,8.6347e-05,-1.6522,-0.0002621,-2619.8,1.0807
2186,12.754,4,0,0.00026217,2619.9,8.6565e-05,0.015349,8.6432e-05,-0.98319,-0.00026218,-2620.3,1.0804
2187,12.754,4.1818,0,0.00026227,2620.9,8.6567e-05,0.061599,8.6528e-05,-0.23054,-0.00026228,-2621,1.0801
2188,12.754,4.3636,0,0.0002624,2622.2,8.6657e-05,0.76609,8.6552e-05,-0.01747,-0.00026239,-2621.8,1.0797
2189,12.754,4.5455,0,0.00026254,2623.6,8.6788e-05,1.7858,8.6549e-05,-0.0071347,-0.00026251,-2622.7,1.0792
2190,12.754,4.7273,0,0.0002627,2625.2,8.6934e-05,2.9186,8.6545e-05,-0.0042488,-0.00026265,-2623.7,1.0787
2191,12.754,4.9091,0,0.00026287,2626.9,8.7094e-05,4.1513,8.6541e-05,-0.0030125,-0.0002628,-2624.8,1.0782
2192,12.754,5.0909,0,0.00026305,2628.7,8.7266e-05,5.4753,8.6537e-05,-0.0024106,-0.00026296,-2626,1.0775
2193,12.754,5.2727,0,0.00026325,2630.7,8.7449e-05,6.8824,8.6533e-05,-0.0021365,-0.00026314,-2627.3,1.0769
2194,12.754,5.4545,0,0.00026347,2632.9,8.7644e-05,8.369,8.653e-05,-0.0020398,-0.00026333,-2628.7,1.0761
2195,12.754,5.6364,0,0.00026371,2635.3,8.786e-05,10.007,8.6527e-05,-0.0021586,-0.00026354,-2630.2,1.0753
2196,12.754,5.8182,0,0.00026418,2640,8.8279e-05,13.17,8.6526e-05,-0.0026001,-0.00026395,-2633.4,1.0745
2197,12.938,0.18182,0,0.0002593,2591.2,8.67e-05,13.539,8.4897e-05,-0.0022973,-0.00025907,-2584.4,1.1004
2198,12.938,0.36364,0,0.00025883,2586.5,8.6289e-05,10.465,8.4895e-05,-0.0029003,-0.00025865,-2581.3,1.1013
2199,12.938,0.54545,0,0.0002586,2584.2,8.6085e-05,8.9397,8.4895e-05,-0.0022352,-0.00025845,-2579.7,1.1021
2200,12.938,0.72727,0,0.00025839,2582.2,8.5902e-05,7.5635,8.4895e-05,-0.0021887,-0.00025827,-2578.4,1.1028
2201,12.938,0.90909,0,0.0002582,2580.2,8.573e-05,6.2631,8.4896e-05,-0.0021365,-0.0002581,-2577.1,1.1035
2202,12.938,1.0909,0,0.00025802,2578.5,8.5569e-05,5.0409,8.4898e-05,-0.0022386,-0.00025794,-2575.9,1.1041
2203,12.938,1.2727,0,0.00025786,2576.8,8.542e-05,3.9039,8.49e-05,-0.0025267,-0.00025779,-2574.9,1.1046
2204,12.938,1.4545,0,0.00025771,2575.3,8.5283e-05,2.8589,8.4902e-05,-0.0031558,-0.00025766,-2573.9,1.1051
2205,12.938,1.6364,0,0.00025758,2574,8.516e-05,1.9129,8.4905e-05,-0.0045042,-0.00025754,-2573,1.1056
2206,12.938,1.8182,0,0.00025746,2572.8,8.5051e-05,1.0731,8.4907e-05,-0.0079327,-0.00025744,-2572.3,1.106
2207,12.938,2,0,0.00025735,2571.8,8.4958e-05,0.35584,8.4907e-05,-0.024221,-0.00025735,-2571.6,1.1063
2208,12.938,2.1818,0,0.00025727,2570.9,8.4916e-05,0.028021,8.487e-05,-0.31547,-0.00025727,-2571,1.1066
2209,12.938,2.3636,0,0.0002572,2570.2,8.4916e-05,0.011389,8.4808e-05,-0.79928,-0.00025721,-2570.6,1.1068
2210,12.938,2.5455,0,0.00025715,2569.7,8.4917e-05,0.0079628,8.4759e-05,-1.1742,-0.00025717,-2570.3,1.107
2211,12.938,2.7273,0,0.00025711,2569.3,8.4918e-05,0.0066857,8.4727e-05,-1.4267,-0.00025713,-2570,1.1071
2212,12.938,2.9091,0,0.00025709,2569.2,8.4918e-05,0.0062048,8.471e-05,-1.5535,-0.00025712,-2569.9,1.1072
2213,12.938,3.0909,0,0.00025709,2569.2,8.4918e-05,0.0062048,8.471e-05,-1.5535,-0.00025712,-2569.9,1.1072
2214,12.938,3.2727,0,0.00025711,2569.3,8.4918e-05,0.0066859,8.4727e-05,-1.4267,-0.00025713,-2570,1.1071
2215,12.938,3.4545,0,0.00025715,2569.7,8.4917e-05,0.0079627,8.4759e-05,-1.1742,-0.00025717,-2570.3,1.107
2216,12.938,3.6364,0,0.0002572,2570.2,8.4916e-05,0.011388,8.4808e-05,-0.79926,-0.00025721,-2570.6,1.1068
2217,12.938,3.8182,0,0.00025727,2570.9,8.4916e-05,0.028022,8.487e-05,-0.31545,-0.00025727,-2571,1.1066
2218,12.938,4,0,0.00025735,2571.8,8.4958e-05,0.35587,8.4907e-05,-0.024219,-0.00025735,-2571.6,1.1063
2219,12.938,4.1818,0,0.00025746,2572.8,8.5051e-05,1.0731,8.4907e-05,-0.0079346,-0.00025744,-2572.3,1.106
2220,12.938,4.3636,0,0.00025758,2574,8.516e-05,1.9129,8.4905e-05,-0.0045037,-0.00025754,-2573,1.1056
2221,12.938,4.5455,0,0.00025771,2575.3,8.5283e-05,2.859,8.4902e-05,-0.0031562,-0.00025766,-2573.9,1.1051
2222,12.938,4.7273,0,0.00025786,2576.8,8.542e-05,3.9039,8.49e-05,-0.0025274,-0.00025779,-2574.9,1.1046
2223,12.938,4.9091,0,0.00025802,2578.5,8.5569e-05,5.041,8.4898e-05,-0.0022387,-0.00025794,-2575.9,1.1041
2224,12.938,5.0909,0,0.0002582,2580.2,8.573e-05,6.2632,8.4896e-05,-0.0021386,-0.0002581,-2577.1,1.1035
2225,12.938,5.2727,0,0.00025839,2582.2,8.5902e-05,7.5636,8.4895e-05,-0.0021898,-0.00025827,-2578.4,1.1028
2226,12.938,5.4545,0,0.0002586,2584.2,8.6085e-05,8.9397,8.4895e-05,-0.002237,-0.00025845,-2579.7,1.1021
2227,12.938,5.6364,0,0.00025883,2586.5,8.6289e-05,10.465,8.4895e-05,-0.0029011,-0.00025865,-2581.3,1.1013
2228,12.938,5.8182,0,0.0002593,2591.2,8.67e-05,13.539,8.4897e-05,-0.0022965,-0.00025907,-2584.4,1.1004
2229,13.122,0.18182,0,0.00025444,2542.7,8.5126e-05,13.899,8.3276e-05,-0.0020508,-0.0002542,-2535.7,1.1266
2230,13.122,0.36364,0,0.00025398,2538,8.4723e-05,10.905,8.3271e-05,-0.0036251,-0.00025379,-2532.5,1.1274
2231,13.122,0.54545,0,0.00025375,2535.8,8.453e-05,9.4837,8.3268e-05,-0.0024478,-0.00025359,-2531,1.1282
2232,13.122,0.72727,0,0.00025355,2533.8,8.4359e-05,8.2099,8.3266e-05,-0.0022842,-0.00025341,-2529.7,1.1289
2233,13.122,0.90909,0,0.00025337,2531.9,8.4197e-05,7.0084,8.3264e-05,-0.0019792,-0.00025325,-2528.4,1.1296
2234,13.122,1.0909,0,0.0002532,2530.2,8.4046e-05,5.8805,8.3264e-05,-0.0017596,-0.0002531,-2527.3,1.1302
2235,13.122,1.2727,0,0.00025304,2528.6,8.3907e-05,4.8324,8.3263e-05,-0.0015677,-0.00025296,-2526.2,1.1307
2236,13.122,1.4545,0,0.0002529,2527.2,8.3779e-05,3.8699,8.3264e-05,-0.0014253,-0.00025283,-2525.3,1.1312
2237,13.122,1.6364,0,0.00025277,2525.9,8.3664e-05,2.9988,8.3264e-05,-0.0013413,-0.00025272,-2524.4,1.1316
2238,13.122,1.8182,0,0.00025265,2524.8,8.3561e-05,2.2243,8.3265e-05,-0.0013343,-0.00025262,-2523.7,1.132
2239,13.122,2,0,0.00025256,2523.8,8.3473e-05,1.5512,8.3266e-05,-0.0014516,-0.00025253,-2523,1.1324
2240,13.122,2.1818,0,0.00025247,2523,8.3398e-05,0.98375,8.3267e-05,-0.0018179,-0.00025246,-2522.5,1.1326
2241,13.122,2.3636,0,0.00025241,2522.3,8.3338e-05,0.52609,8.3268e-05,-0.002864,-0.0002524,-2522.1,1.1329
2242,13.122,2.5455,0,0.00025236,2521.8,8.3293e-05,0.18387,8.3268e-05,-0.0073154,-0.00025235,-2521.7,1.133
2243,13.122,2.7273,0,0.00025232,2521.5,8.3272e-05,0.01726,8.326e-05,-0.073096,-0.00025232,-2521.5,1.1331
2244,13.122,2.9091,0,0.00025231,2521.3,8.3271e-05,0.0068446,8.3246e-05,-0.17926,-0.00025231,-2521.4,1.1332
2245,13.122,3.0909,0,0.00025231,2521.3,8.3271e-05,0.0068446,8.3246e-05,-0.17926,-0.00025231,-2521.4,1.1332
2246,13.122,3.2727,0,0.00025232,2521.5,8.3272e-05,0.01726,8.326e-05,-0.073088,-0.00025232,-2521.5,1.1331
2247,13.122,3.4545,0,0.00025236,2521.8,8.3293e-05,0.18388,8.3268e-05,-0.0073147,-0.00025235,-2521.7,1.133
2248,13.122,3.6364,0,0.00025241,2522.3,8.3338e-05,0.52611,8.3268e-05,-0.0028633,-0.0002524,-2522.1,1.1329
2249,13.122,3.8182,0,0.00025247,2523,8.3398e-05,0.98377,8.3267e-05,-0.0018189,-0.00025246,-2522.5,1.1326
2250,13.122,4,0,0.00025256,2523.8,8.3473e-05,1.5512,8.3266e-05,-0.0014503,-0.00025253,-2523,1.1324
2251,13.122,4.1818,0,0.00025265,2524.8,8.3561e-05,2.2243,8.3265e-05,-0.001333,-0.00025262,-2523.7,1.132
2252,13.122,4.3636,0,0.00025277,2525.9,8.3664e-05,2.9988,8.3264e-05,-0.0013417,-0.00025272,-2524.4,1.1316
2253,13.122,4.5455,0,0.0002529,2527.2,8.3779e-05,3.87,8.3264e-05,-0.0014248,-0.00025283,-2525.3,1.1312
2254,13.122,4.7273,0,0.00025304,2528.6,8.3907e-05,4.8324,8.3263e-05,-0.0015677,-0.00025296,-2526.2,1.1307
2255,13.122,4.9091,0,0.0002532,2530.2,8.4046e-05,5.8806,8.3264e-05,-0.0017592,-0.0002531,-2527.3,1.1302
2256,13.122,5.0909,0,0.00025337,2531.9,8.4197e-05,7.0084,8.3264e-05,-0.0019812,-0.00025325,-2528.4,1.1296
2257,13.122,5.2727,0,0.00025355,2533.8,8.4359e-05,8.21,8.3266e-05,-0.0022868,-0.00025341,-2529.7,1.1289
2258,13.122,5.4545,0,0.00025375,2535.8,8.453e-05,9.4837,8.3268e-05,-0.0024475,-0.00025359,-2531,1.1282
2259,13.122,5.6364,0,0.00025398,2538,8.4723e-05,10.905,8.3271e-05,-0.0036245,-0.00025379,-2532.5,1.1274
2260,13.122,5.8182,0,0.00025444,2542.7,8.5126e-05,13.899,8.3276e-05,-0.0020511,-0.0002542,-2535.7,1.1266
2261,13.307,0.18182,0,0.0002496,2494.3,8.3559e-05,14.25,8.1662e-05,-0.001838,-0.00024936,-2487.1,1.1529
2262,13.307,0.36364,0,0.00024914,2489.7,8.3163e-05,11.329,8.1654e-05,-0.0043129,-0.00024895,-2484,1.1537
2263,13.307,0.54545,0,0.00024892,2487.5,8.298e-05,10.004,8.1648e-05,-0.0026532,-0.00024875,-2482.5,1.1545
2264,13.307,0.72727,0,0.00024873,2485.6,8.2819e-05,8.8247,8.1644e-05,-0.0023936,-0.00024858,-2481.2,1.1552
2265,13.307,0.90909,0,0.00024855,2483.8,8.2667e-05,7.7149,8.164e-05,-0.0018815,-0.00024842,-2480,1.1558
2266,13.307,1.0909,0,0.00024839,2482.2,8.2526e-05,6.6746,8.1637e-05,-0.0014347,-0.00024827,-2478.8,1.1564
2267,13.307,1.2727,0,0.00024824,2480.7,8.2395e-05,5.709,8.1635e-05,-0.00095577,-0.00024814,-2477.8,1.157
2268,13.307,1.4545,0,0.0002481,2479.3,8.2275e-05,4.8234,8.1633e-05,-0.0004517,-0.00024802,-2476.9,1.1574
2269,13.307,1.6364,0,0.00024798,2478,8.2168e-05,4.0225,8.1632e-05,0.00010355,-0.00024791,-2476,1.1579
2270,13.307,1.8182,0,0.00024787,2477,8.2072e-05,3.311,8.1632e-05,0.00073644,-0.00024781,-2475.3,1.1583
2271,13.307,2,0,0.00024777,2476,8.199e-05,2.6928,8.1632e-05,0.0014806,-0.00024773,-2474.7,1.1586
2272,13.307,2.1818,0,0.00024769,2475.2,8.192e-05,2.1716,8.1631e-05,0.0023689,-0.00024766,-2474.1,1.1588
2273,13.307,2.3636,0,0.00024763,2474.6,8.1864e-05,1.7504,8.1631e-05,0.0034187,-0.0002476,-2473.7,1.1591
2274,13.307,2.5455,0,0.00024758,2474.1,8.1822e-05,1.4319,8.1632e-05,0.0045863,-0.00024756,-2473.4,1.1592
2275,13.307,2.7273,0,0.00024755,2473.8,8.1793e-05,1.2181,8.1632e-05,0.0056886,-0.00024753,-2473.2,1.1593
2276,13.307,2.9091,0,0.00024753,2473.6,8.1779e-05,1.1108,8.1632e-05,0.0063946,-0.00024752,-2473.1,1.1594
2277,13.307,3.0909,0,0.00024753,2473.6,8.1779e-05,1.1108,8.1632e-05,0.0063948,-0.00024752,-2473.1,1.1594
2278,13.307,3.2727,0,0.00024755,2473.8,8.1793e-05,1.2181,8.1632e-05,0.0056876,-0.00024753,-2473.2,1.1593
2279,13.307,3.4545,0,0.00024758,2474.1,8.1822e-05,1.4319,8.1632e-05,0.0045854,-0.00024756,-2473.4,1.1592
2280,13.307,3.6364,0,0.00024763,2474.6,8.1864e-05,1.7504,8.1631e-05,0.0034177,-0.0002476,-2473.7,1.1591
2281,13.307,3.8182,0,0.00024769,2475.2,8.192e-05,2.1716,8.1631e-05,0.0023692,-0.00024766,-2474.1,1.1588
2282,13.307,4,0,0.00024777,2476,8.199e-05,2.6928,8.1632e-05,0.0014798,-0.00024773,-2474.7,1.1586
2283,13.307,4.1818,0,0.00024787,2477,8.2072e-05,3.311,8.1632e-05,0.00073581,-0.00024781,-2475.3,1.1583
2284,13.307,4.3636,0,0.00024798,2478,8.2168e-05,4.0225,8.1632e-05,0.00010394,-0.00024791,-2476,1.1579
2285,13.307,4.5455,0,0.0002481,2479.3,8.2276e-05,4.8234,8.1633e-05,-0.00045221,-0.00024802,-2476.9,1.1574
2286,13.307,4.7273,0,0.00024824,2480.7,8.2395e-05,5.7091,8.1635e-05,-0.00095535,-0.00024814,-2477.8,1.157
2287,13.307,4.9091,0,0.00024839,2482.2,8.2526e-05,6.6746,8.1637e-05,-0.0014343,-0.00024827,-2478.8,1.1564
2288,13.307,5.0909,0,0.00024855,2483.8,8.2667e-05,7.7149,8.164e-05,-0.0018829,-0.00024842,-2480,1.1558
2289,13.307,5.2727,0,0.00024873,2485.6,8.2819e-05,8.8248,8.1644e-05,-0.0023944,-0.00024858,-2481.2,1.1552
2290,13.307,5.4545,0,0.00024892,2487.5,8.298e-05,10.004,8.1648e-05,-0.0026535,-0.00024875,-2482.5,1.1545
2291,13.307,5.6364,0,0.00024914,2489.7,8.3163e-05,11.329,8.1654e-05,-0.0043138,-0.00024895,-2484,1.1537
2292,13.307,5.8182,0,0.0002496,2494.3,8.3559e-05,14.25,8.1662e-05,-0.0018377,-0.00024936,-2487.1,1.1529
2293,13.491,0.18182,0,0.00024479,2446.2,8.1997e-05,14.593,8.0055e-05,-0.0016328,-0.00024453,-2438.8,1.1794
2294,13.491,0.36364,0,0.00024433,2441.6,8.1608e-05,11.738,8.0045e-05,-0.0049514,-0.00024412,-2435.7,1.1802
2295,13.491,0.54545,0,0.00024411,2439.5,8.1435e-05,10.502,8.0037e-05,-0.0028352,-0.00024393,-2434.2,1.1809
2296,13.491,0.72727,0,0.00024393,2437.6,8.1282e-05,9.411,8.003e-05,-0.0024907,-0.00024377,-2432.9,1.1816
2297,13.491,0.90909,0,0.00024376,2435.9,8.114e-05,8.3864,8.0024e-05,-0.0018054,-0.00024361,-2431.7,1.1823
2298,13.491,1.0909,0,0.0002436,2434.3,8.1007e-05,7.4275,8.0019e-05,-0.0011866,-0.00024347,-2430.6,1.1828
2299,13.491,1.2727,0,0.00024345,2432.8,8.0885e-05,6.5387,8.0015e-05,-0.00051489,-0.00024334,-2429.6,1.1834
2300,13.491,1.4545,0,0.00024332,2431.5,8.0773e-05,5.7245,8.0011e-05,0.00019633,-0.00024322,-2428.6,1.1838
2301,13.491,1.6364,0,0.0002432,2430.3,8.0673e-05,4.9891,8.0009e-05,0.00096211,-0.00024311,-2427.8,1.1843
2302,13.491,1.8182,0,0.0002431,2429.3,8.0584e-05,4.3364,8.0007e-05,0.0017946,-0.00024302,-2427.1,1.1846
2303,13.491,2,0,0.00024301,2428.4,8.0506e-05,3.7698,8.0005e-05,0.0026977,-0.00024294,-2426.5,1.185
2304,13.491,2.1818,0,0.00024293,2427.6,8.0442e-05,3.2926,8.0004e-05,0.0036496,-0.00024287,-2426,1.1852
2305,13.491,2.3636,0,0.00024287,2427,8.0389e-05,2.9073,8.0003e-05,0.0046157,-0.00024282,-2425.6,1.1854
2306,13.491,2.5455,0,0.00024282,2426.6,8.035e-05,2.6162,8.0003e-05,0.0055127,-0.00024278,-2425.2,1.1856
2307,13.491,2.7273,0,0.00024279,2426.3,8.0324e-05,2.4211,8.0002e-05,0.0062232,-0.00024275,-2425,1.1857
2308,13.491,2.9091,0,0.00024278,2426.1,8.031e-05,2.3233,8.0002e-05,0.0066203,-0.00024274,-2424.9,1.1858
2309,13.491,3.0909,0,0.00024278,2426.1,8.031e-05,2.3233,8.0002e-05,0.0066203,-0.00024274,-2424.9,1.1858
2310,13.491,3.2727,0,0.00024279,2426.3,8.0324e-05,2.4212,8.0002e-05,0.0062234,-0.00024275,-2425,1.1857
2311,13.491,3.4545,0,0.00024282,2426.6,8.035e-05,2.6162,8.0003e-05,0.0055138,-0.00024278,-2425.2,1.1856
2312,13.491,3.6364,0,0.00024287,2427,8.0389e-05,2.9073,8.0003e-05,0.0046159,-0.00024282,-2425.6,1.1854
2313,13.491,3.8182,0,0.00024293,2427.6,8.0442e-05,3.2926,8.0004e-05,0.0036488,-0.00024287,-2426,1.1852
2314,13.491,4,0,0.00024301,2428.4,8.0506e-05,3.7699,8.0005e-05,0.0026968,-0.00024294,-2426.5,1.185
2315,13.491,4.1818,0,0.0002431,2429.3,8.0584e-05,4.3364,8.0007e-05,0.0017952,-0.00024302,-2427.1,1.1846
2316,13.491,4.3636,0,0.0002432,2430.3,8.0673e-05,4.9891,8.0009e-05,0.00096291,-0.00024311,-2427.8,1.1843
2317,13.491,4.5455,0,0.00024332,2431.5,8.0773e-05,5.7245,8.0011e-05,0.00019726,-0.00024322,-2428.6,1.1838
2318,13.491,4.7273,0,0.00024345,2432.8,8.0885e-05,6.5387,8.0015e-05,-0.00051635,-0.00024334,-2429.6,1.1834
2319,13.491,4.9091,0,0.0002436,2434.3,8.1007e-05,7.4275,8.0019e-05,-0.0011876,-0.00024347,-2430.6,1.1828
2320,13.491,5.0909,0,0.00024376,2435.9,8.114e-05,8.3865,8.0024e-05,-0.0018088,-0.00024361,-2431.7,1.1823
2321,13.491,5.2727,0,0.00024393,2437.6,8.1282e-05,9.4111,8.003e-05,-0.0024914,-0.00024377,-2432.9,1.1816
2322,13.491,5.4545,0,0.00024411,2439.5,8.1435e-05,10.502,8.0037e-05,-0.0028356,-0.00024393,-2434.2,1.1809
2323,13.491,5.6364,0,0.00024433,2441.6,8.1608e-05,11.738,8.0045e-05,-0.0049513,-0.00024412,-2435.7,1.1802
2324,13.491,5.8182,0,0.00024479,2446.2,8.1997e-05,14.593,8.0055e-05,-0.0016328,-0.00024453,-2438.8,1.1794
2325,13.676,0.18182,0,0.00023999,2398.2,8.0443e-05,14.93,7.8455e-05,-0.0014496,-0.00023973,-2390.7,1.206
2326,13.676,0.36364,0,0.00023953,2393.7,8.0058e-05,12.134,7.8443e-05,-0.0055565,-0.00023932,-2387.6,1.2068
2327,13.676,0.54545,0,0.00023932,2391.6,7.9894e-05,10.98,7.8432e-05,-0.0030083,-0.00023914,-2386.1,1.2076
2328,13.676,0.72727,0,0.00023914,2389.8,7.9751e-05,9.9718,7.8423e-05,-0.0025911,-0.00023897,-2384.8,1.2082
2329,13.676,0.90909,0,0.00023898,2388.1,7.9617e-05,9.0265,7.8415e-05,-0.0017576,-0.00023882,-2383.6,1.2089
2330,13.676,1.0909,0,0.00023882,2386.6,7.9492e-05,8.1433,7.8408e-05,-0.0009989,-0.00023868,-2382.5,1.2094
2331,13.676,1.2727,0,0.00023868,2385.2,7.9377e-05,7.326,7.8402e-05,-0.00018605,-0.00023856,-2381.5,1.2099
2332,13.676,1.4545,0,0.00023856,2383.9,7.9273e-05,6.5785,7.8397e-05,0.00065877,-0.00023844,-2380.6,1.2104
2333,13.676,1.6364,0,0.00023844,2382.8,7.9179e-05,5.9041,7.8393e-05,0.0015424,-0.00023834,-2379.8,1.2108
2334,13.676,1.8182,0,0.00023834,2381.8,7.9096e-05,5.3063,7.839e-05,0.002461,-0.00023825,-2379.1,1.2112
2335,13.676,2,0,0.00023825,2380.9,7.9024e-05,4.7879,7.8387e-05,0.0033973,-0.00023817,-2378.5,1.2115
2336,13.676,2.1818,0,0.00023818,2380.2,7.8963e-05,4.3517,7.8385e-05,0.0043265,-0.00023811,-2378,1.2118
2337,13.676,2.3636,0,0.00023812,2379.6,7.8915e-05,3.9998,7.8383e-05,0.0051993,-0.00023806,-2377.6,1.212
2338,13.676,2.5455,0,0.00023808,2379.2,7.8878e-05,3.7342,7.8382e-05,0.0059529,-0.00023802,-2377.3,1.2121
2339,13.676,2.7273,0,0.00023805,2378.9,7.8854e-05,3.5563,7.8381e-05,0.0065127,-0.00023799,-2377.1,1.2122
2340,13.676,2.9091,0,0.00023804,2378.7,7.8841e-05,3.467,7.8381e-05,0.0068114,-0.00023798,-2377,1.2123
2341,13.676,3.0909,0,0.00023804,2378.7,7.8841e-05,3.4671,7.8381e-05,0.0068129,-0.00023798,-2377,1.2123
2342,13.676,3.2727,0,0.00023805,2378.9,7.8854e-05,3.5563,7.8381e-05,0.0065121,-0.00023799,-2377.1,1.2122
2343,13.676,3.4545,0,0.00023808,2379.2,7.8878e-05,3.7342,7.8382e-05,0.005953,-0.00023802,-2377.3,1.2121
2344,13.676,3.6364,0,0.00023812,2379.6,7.8915e-05,3.9998,7.8383e-05,0.0051981,-0.00023806,-2377.6,1.212
2345,13.676,3.8182,0,0.00023818,2380.2,7.8963e-05,4.3517,7.8385e-05,0.0043275,-0.00023811,-2378,1.2118
2346,13.676,4,0,0.00023825,2380.9,7.9024e-05,4.7879,7.8387e-05,0.0033973,-0.00023817,-2378.5,1.2115
2347,13.676,4.1818,0,0.00023834,2381.8,7.9096e-05,5.3063,7.839e-05,0.0024594,-0.00023825,-2379.1,1.2112
2348,13.676,4.3636,0,0.00023844,2382.8,7.9179e-05,5.9042,7.8393e-05,0.0015417,-0.00023834,-2379.8,1.2108
2349,13.676,4.5455,0,0.00023856,2383.9,7.9273e-05,6.5785,7.8397e-05,0.00065737,-0.00023844,-2380.6,1.2104
2350,13.676,4.7273,0,0.00023868,2385.2,7.9377e-05,7.3261,7.8402e-05,-0.00018637,-0.00023856,-2381.5,1.2099
2351,13.676,4.9091,0,0.00023882,2386.6,7.9492e-05,8.1434,7.8408e-05,-0.00099904,-0.00023868,-2382.5,1.2094
2352,13.676,5.0909,0,0.00023898,2388.1,7.9617e-05,9.0265,7.8415e-05,-0.0017582,-0.00023882,-2383.6,1.2089
2353,13.676,5.2727,0,0.00023914,2389.8,7.9751e-05,9.9718,7.8423e-05,-0.002592,-0.00023897,-2384.8,1.2082
2354,13.676,5.4545,0,0.00023932,2391.6,7.9894e-05,10.98,7.8432e-05,-0.0030096,-0.00023914,-2386.1,1.2076
2355,13.676,5.6364,0,0.00023953,2393.7,8.0058e-05,12.134,7.8443e-05,-0.005555,-0.00023932,-2387.6,1.2068
2356,13.676,5.8182,0,0.00023999,2398.2,8.0443e-05,14.93,7.8455e-05,-0.0014491,-0.00023973,-2390.7,1.206
2357,13.86,0.18182,0,0.00023521,2350.5,7.8894e-05,15.261,7.6863e-05,-0.0012832,-0.00023495,-2342.8,1.2329
2358,13.86,0.36364,0,0.00023476,2345.9,7.8515e-05,12.518,7.6848e-05,-0.0061317,-0.00023454,-2339.7,1.2336
2359,13.86,0.54545,0,0.00023455,2343.9,7.8359e-05,11.442,7.6835e-05,-0.0031759,-0.00023436,-2338.2,1.2343
2360,13.86,0.72727,0,0.00023438,2342.2,7.8223e-05,10.51,7.6824e-05,-0.0026917,-0.0002342,-2336.9,1.235
2361,13.86,0.90909,0,0.00023422,2340.6,7.8097e-05,9.6384,7.6814e-05,-0.0017235,-0.00023405,-2335.7,1.2356
2362,13.86,1.0909,0,0.00023407,2339.1,7.798e-05,8.826,7.6805e-05,-0.00085317,-0.00023392,-2334.7,1.2362
2363,13.86,1.2727,0,0.00023393,2337.7,7.7873e-05,8.0756,7.6798e-05,7.0997e-05,-0.0002338,-2333.7,1.2367
2364,13.86,1.4545,0,0.00023381,2336.5,7.7775e-05,7.3903,7.6791e-05,0.001011,-0.00023368,-2332.8,1.2372
2365,13.86,1.6364,0,0.0002337,2335.4,7.7687e-05,6.773,7.6786e-05,0.0019702,-0.00023358,-2332,1.2376
2366,13.86,1.8182,0,0.0002336,2334.4,7.7609e-05,6.2265,7.6781e-05,0.002933,-0.0002335,-2331.3,1.2379
2367,13.86,2,0,0.00023352,2333.6,7.7542e-05,5.7532,7.6777e-05,0.0038817,-0.00023342,-2330.7,1.2382
2368,13.86,2.1818,0,0.00023345,2332.9,7.7486e-05,5.3553,7.6774e-05,0.0047793,-0.00023336,-2330.2,1.2385
2369,13.86,2.3636,0,0.0002334,2332.3,7.7441e-05,5.0346,7.6771e-05,0.0055891,-0.00023331,-2329.8,1.2387
2370,13.86,2.5455,0,0.00023335,2331.9,7.7407e-05,4.7927,7.677e-05,0.0062598,-0.00023327,-2329.5,1.2388
2371,13.86,2.7273,0,0.00023333,2331.6,7.7384e-05,4.6307,7.6768e-05,0.0067421,-0.00023325,-2329.3,1.2389
2372,13.86,2.9091,0,0.00023331,2331.5,7.7372e-05,4.5495,7.6768e-05,0.006995,-0.00023323,-2329.2,1.239
2373,13.86,3.0909,0,0.00023331,2331.5,7.7372e-05,4.5495,7.6768e-05,0.0069944,-0.00023323,-2329.2,1.239
2374,13.86,3.2727,0,0.00023333,2331.6,7.7384e-05,4.6307,7.6768e-05,0.0067422,-0.00023325,-2329.3,1.2389
2375,13.86,3.4545,0,0.00023335,2331.9,7.7407e-05,4.7927,7.677e-05,0.0062591,-0.00023327,-2329.5,1.2388
2376,13.86,3.6364,0,0.0002334,2332.3,7.7441e-05,5.0346,7.6771e-05,0.0055881,-0.00023331,-2329.8,1.2387
2377,13.86,3.8182,0,0.00023345,2332.9,7.7486e-05,5.3553,7.6774e-05,0.00478,-0.00023336,-2330.2,1.2385
2378,13.86,4,0,0.00023352,2333.6,7.7542e-05,5.7532,7.6777e-05,0.0038808,-0.00023342,-2330.7,1.2382
2379,13.86,4.1818,0,0.0002336,2334.4,7.7609e-05,6.2265,7.6781e-05,0.0029336,-0.0002335,-2331.3,1.2379
2380,13.86,4.3636,0,0.0002337,2335.4,7.7687e-05,6.7731,7.6786e-05,0.0019694,-0.00023358,-2332,1.2376
2381,13.86,4.5455,0,0.00023381,2336.5,7.7775e-05,7.3904,7.6791e-05,0.0010113,-0.00023368,-2332.8,1.2372
2382,13.86,4.7273,0,0.00023393,2337.7,7.7873e-05,8.0757,7.6798e-05,6.9995e-05,-0.0002338,-2333.7,1.2367
2383,13.86,4.9091,0,0.00023407,2339.1,7.798e-05,8.8261,7.6805e-05,-0.0008535,-0.00023392,-2334.7,1.2362
2384,13.86,5.0909,0,0.00023422,2340.6,7.8097e-05,9.6385,7.6814e-05,-0.0017273,-0.00023405,-2335.7,1.2356
2385,13.86,5.2727,0,0.00023438,2342.2,7.8223e-05,10.51,7.6824e-05,-0.0026935,-0.0002342,-2336.9,1.235
2386,13.86,5.4545,0,0.00023455,2343.9,7.8359e-05,11.442,7.6835e-05,-0.0031753,-0.00023436,-2338.2,1.2343
2387,13.86,5.6364,0,0.00023476,2345.9,7.8515e-05,12.518,7.6848e-05,-0.0061319,-0.00023454,-2339.7,1.2336
2388,13.86,5.8182,0,0.00023521,2350.5,7.8894e-05,15.261,7.6863e-05,-0.0012829,-0.00023495,-2342.8,1.2329
2389,14.044,0.18182,0,0.00023046,2303,7.7352e-05,15.587,7.5278e-05,-0.0011205,-0.00023019,-2295.2,1.2598
2390,14.044,0.36364,0,0.00023,2298.4,7.6977e-05,12.893,7.526e-05,-0.006668,-0.00022978,-2292,1.2606
2391,14.044,0.54545,0,0.0002298,2296.5,7.6828e-05,11.888,7.5246e-05,-0.0033237,-0.0002296,-2290.5,1.2613
2392,14.044,0.72727,0,0.00022964,2294.8,7.67e-05,11.028,7.5232e-05,-0.0027786,-0.00022945,-2289.2,1.2619
2393,14.044,0.90909,0,0.00022948,2293.2,7.6582e-05,10.226,7.5221e-05,-0.0016927,-0.0002293,-2288.1,1.2625
2394,14.044,1.0909,0,0.00022933,2291.8,7.6472e-05,9.4795,7.521e-05,-0.00072395,-0.00022917,-2287,1.2631
2395,14.044,1.2727,0,0.0002292,2290.4,7.6371e-05,8.7917,7.5201e-05,0.00029215,-0.00022905,-2286,1.2636
2396,14.044,1.4545,0,0.00022908,2289.3,7.6279e-05,8.1648,7.5193e-05,0.0013068,-0.00022894,-2285.2,1.264
2397,14.044,1.6364,0,0.00022898,2288.2,7.6197e-05,7.6011,7.5186e-05,0.0023203,-0.00022885,-2284.4,1.2644
2398,14.044,1.8182,0,0.00022888,2287.3,7.6125e-05,7.1027,7.518e-05,0.0033123,-0.00022876,-2283.7,1.2648
2399,14.044,2,0,0.0002288,2286.5,7.6062e-05,6.6716,7.5175e-05,0.0042625,-0.00022869,-2283.1,1.2651
2400,14.044,2.1818,0,0.00022874,2285.8,7.601e-05,6.3096,7.5171e-05,0.0051377,-0.00022863,-2282.6,1.2653
2401,14.044,2.3636,0,0.00022868,2285.3,7.5968e-05,6.0182,7.5168e-05,0.0059046,-0.00022858,-2282.2,1.2655
2402,14.044,2.5455,0,0.00022864,2284.9,7.5936e-05,5.7985,7.5165e-05,0.006524,-0.00022854,-2281.9,1.2657
2403,14.044,2.7273,0,0.00022862,2284.6,7.5915e-05,5.6515,7.5164e-05,0.006962,-0.00022852,-2281.7,1.2658
2404,14.044,2.9091,0,0.0002286,2284.4,7.5904e-05,5.5779,7.5163e-05,0.0071883,-0.00022851,-2281.6,1.2658
2405,14.044,3.0909,0,0.0002286,2284.4,7.5904e-05,5.5779,7.5163e-05,0.0071874,-0.00022851,-2281.6,1.2658
2406,14.044,3.2727,0,0.00022862,2284.6,7.5915e-05,5.6515,7.5164e-05,0.006962,-0.00022852,-2281.7,1.2658
2407,14.044,3.4545,0,0.00022864,2284.9,7.5936e-05,5.7985,7.5165e-05,0.006525,-0.00022854,-2281.9,1.2657
2408,14.044,3.6364,0,0.00022868,2285.3,7.5968e-05,6.0182,7.5168e-05,0.005904,-0.00022858,-2282.2,1.2655
2409,14.044,3.8182,0,0.00022874,2285.8,7.601e-05,6.3097,7.5171e-05,0.0051381,-0.00022863,-2282.6,1.2653
2410,14.044,4,0,0.0002288,2286.5,7.6062e-05,6.6717,7.5175e-05,0.0042627,-0.00022869,-2283.1,1.2651
2411,14.044,4.1818,0,0.00022888,2287.3,7.6125e-05,7.1027,7.518e-05,0.003313,-0.00022876,-2283.7,1.2648
2412,14.044,4.3636,0,0.00022898,2288.2,7.6197e-05,7.6011,7.5186e-05,0.0023204,-0.00022885,-2284.4,1.2644
2413,14.044,4.5455,0,0.00022908,2289.3,7.6279e-05,8.1649,7.5193e-05,0.0013065,-0.00022894,-2285.2,1.264
2414,14.044,4.7273,0,0.0002292,2290.4,7.6371e-05,8.7918,7.5201e-05,0.00029183,-0.00022905,-2286,1.2636
2415,14.044,4.9091,0,0.00022933,2291.8,7.6472e-05,9.4796,7.521e-05,-0.00072363,-0.00022917,-2287,1.2631
2416,14.044,5.0909,0,0.00022948,2293.2,7.6582e-05,10.226,7.5221e-05,-0.001695,-0.0002293,-2288.1,1.2625
2417,14.044,5.2727,0,0.00022964,2294.8,7.6701e-05,11.028,7.5232e-05,-0.0027806,-0.00022945,-2289.2,1.2619
2418,14.044,5.4545,0,0.0002298,2296.5,7.6828e-05,11.888,7.5246e-05,-0.0033235,-0.0002296,-2290.5,1.2613
2419,14.044,5.6364,0,0.00023,2298.4,7.6977e-05,12.893,7.526e-05,-0.0066687,-0.00022978,-2292,1.2606
2420,14.044,5.8182,0,0.00023046,2303,7.7352e-05,15.587,7.5278e-05,-0.0011212,-0.00023019,-2295.2,1.2598
2421,14.229,0.18182,0,0.00022572,2255.7,7.5817e-05,15.91,7.3699e-05,-0.0009734,-0.00022545,-2247.7,1.287
2422,14.229,0.36364,0,0.00022527,2251.1,7.5445e-05,13.258,7.368e-05,-0.0071889,-0.00022504,-2244.5,1.2877
2423,14.229,0.54545,0,0.00022507,2249.2,7.5304e-05,12.321,7.3663e-05,-0.0034684,-0.00022486,-2243,1.2884
2424,14.229,0.72727,0,0.00022491,2247.5,7.5183e-05,11.528,7.3648e-05,-0.0028703,-0.00022471,-2241.8,1.289
2425,14.229,0.90909,0,0.00022476,2246,7.5071e-05,10.791,7.3634e-05,-0.0016738,-0.00022457,-2240.6,1.2896
2426,14.229,1.0909,0,0.00022462,2244.6,7.4968e-05,10.107,7.3622e-05,-0.00061829,-0.00022444,-2239.5,1.2902
2427,14.229,1.2727,0,0.00022449,2243.3,7.4873e-05,9.4785,7.3611e-05,0.00047633,-0.00022433,-2238.6,1.2906
2428,14.229,1.4545,0,0.00022437,2242.2,7.4787e-05,8.9065,7.3602e-05,0.0015531,-0.00022422,-2237.7,1.2911
2429,14.229,1.6364,0,0.00022427,2241.2,7.471e-05,8.3932,7.3594e-05,0.0026087,-0.00022413,-2237,1.2915
2430,14.229,1.8182,0,0.00022418,2240.3,7.4643e-05,7.9402,7.3587e-05,0.0036242,-0.00022405,-2236.3,1.2918
2431,14.229,2,0,0.0002241,2239.5,7.4585e-05,7.549,7.3581e-05,0.004575,-0.00022397,-2235.7,1.2921
2432,14.229,2.1818,0,0.00022404,2238.9,7.4536e-05,7.2209,7.3576e-05,0.0054337,-0.00022392,-2235.2,1.2924
2433,14.229,2.3636,0,0.00022399,2238.3,7.4497e-05,6.957,7.3572e-05,0.006172,-0.00022387,-2234.8,1.2926
2434,14.229,2.5455,0,0.00022395,2237.9,7.4467e-05,6.7583,7.3569e-05,0.0067593,-0.00022383,-2234.6,1.2927
2435,14.229,2.7273,0,0.00022392,2237.7,7.4448e-05,6.6254,7.3567e-05,0.0071678,-0.00022381,-2234.4,1.2928
2436,14.229,2.9091,0,0.00022391,2237.6,7.4438e-05,6.5588,7.3566e-05,0.0073762,-0.0002238,-2234.3,1.2929
2437,14.229,3.0909,0,0.00022391,2237.6,7.4438e-05,6.5588,7.3566e-05,0.0073761,-0.0002238,-2234.3,1.2929
2438,14.229,3.2727,0,0.00022392,2237.7,7.4448e-05,6.6254,7.3567e-05,0.0071678,-0.00022381,-2234.4,1.2928
2439,14.229,3.4545,0,0.00022395,2237.9,7.4467e-05,6.7583,7.3569e-05,0.0067575,-0.00022383,-2234.6,1.2927
2440,14.229,3.6364,0,0.00022399,2238.3,7.4497e-05,6.957,7.3572e-05,0.0061735,-0.00022387,-2234.8,1.2926
2441,14.229,3.8182,0,0.00022404,2238.9,7.4536e-05,7.2209,7.3576e-05,0.0054337,-0.00022392,-2235.2,1.2924
2442,14.229,4,0,0.0002241,2239.5,7.4585e-05,7.549,7.3581e-05,0.0045744,-0.00022397,-2235.7,1.2921
2443,14.229,4.1818,0,0.00022418,2240.3,7.4643e-05,7.9403,7.3587e-05,0.0036233,-0.00022405,-2236.3,1.2918
2444,14.229,4.3636,0,0.00022427,2241.2,7.471e-05,8.3933,7.3594e-05,0.0026085,-0.00022413,-2237,1.2915
2445,14.229,4.5455,0,0.00022437,2242.2,7.4787e-05,8.9066,7.3602e-05,0.0015518,-0.00022422,-2237.7,1.2911
2446,14.229,4.7273,0,0.00022449,2243.3,7.4873e-05,9.4786,7.3611e-05,0.00047595,-0.00022433,-2238.6,1.2906
2447,14.229,4.9091,0,0.00022462,2244.6,7.4968e-05,10.107,7.3622e-05,-0.00061872,-0.00022444,-2239.5,1.2902
2448,14.229,5.0909,0,0.00022476,2246,7.5071e-05,10.791,7.3635e-05,-0.0016753,-0.00022457,-2240.6,1.2896
2449,14.229,5.2727,0,0.00022491,2247.5,7.5183e-05,11.528,7.3648e-05,-0.002871,-0.00022471,-2241.8,1.289
2450,14.229,5.4545,0,0.00022507,2249.2,7.5304e-05,12.321,7.3663e-05,-0.0034694,-0.00022486,-2243,1.2884
2451,14.229,5.6364,0,0.00022527,2251.1,7.5445e-05,13.258,7.368e-05,-0.0071869,-0.00022504,-2244.5,1.2877
2452,14.229,5.8182,0,0.00022572,2255.7,7.5817e-05,15.91,7.3699e-05,-0.00097443,-0.00022545,-2247.7,1.287
2453,14.413,0.18182,0,0.00022101,2208.6,7.4288e-05,16.231,7.2128e-05,-0.00086236,-0.00022073,-2200.4,1.3142
2454,14.413,0.36364,0,0.00022055,2204,7.392e-05,13.617,7.2106e-05,-0.0077099,-0.00022032,-2197.2,1.315
2455,14.413,0.54545,0,0.00022036,2202.1,7.3784e-05,12.743,7.2088e-05,-0.0036351,-0.00022015,-2195.7,1.3156
2456,14.413,0.72727,0,0.0002202,2200.5,7.367e-05,12.013,7.2071e-05,-0.0029806,-0.00022,-2194.5,1.3163
2457,14.413,0.90909,0,0.00022005,2199,7.3565e-05,11.338,7.2056e-05,-0.0016849,-0.00021986,-2193.3,1.3168
2458,14.413,1.0909,0,0.00021992,2197.7,7.3468e-05,10.713,7.2042e-05,-0.00055004,-0.00021973,-2192.3,1.3174
2459,14.413,1.2727,0,0.00021979,2196.4,7.3379e-05,10.14,7.203e-05,0.00061301,-0.00021962,-2191.3,1.3179
2460,14.413,1.4545,0,0.00021968,2195.3,7.3299e-05,9.6198,7.2019e-05,0.0017433,-0.00021952,-2190.5,1.3183
2461,14.413,1.6364,0,0.00021958,2194.3,7.3227e-05,9.1542,7.2009e-05,0.0028363,-0.00021943,-2189.7,1.3187
2462,14.413,1.8182,0,0.0002195,2193.5,7.3164e-05,8.7442,7.2001e-05,0.0038695,-0.00021935,-2189.1,1.319
2463,14.413,2,0,0.00021942,2192.7,7.311e-05,8.3907,7.1994e-05,0.0048232,-0.00021928,-2188.5,1.3193
2464,14.413,2.1818,0,0.00021936,2192.1,7.3065e-05,8.0947,7.1988e-05,0.0056727,-0.00021922,-2188,1.3195
2465,14.413,2.3636,0,0.00021931,2191.6,7.3028e-05,7.8569,7.1984e-05,0.0063902,-0.00021918,-2187.7,1.3197
2466,14.413,2.5455,0,0.00021927,2191.2,7.3001e-05,7.678,7.198e-05,0.0069553,-0.00021914,-2187.4,1.3199
2467,14.413,2.7273,0,0.00021925,2191,7.2983e-05,7.5585,7.1978e-05,0.0073442,-0.00021912,-2187.2,1.32
2468,14.413,2.9091,0,0.00021924,2190.8,7.2974e-05,7.4986,7.1977e-05,0.0075427,-0.00021911,-2187.1,1.32
2469,14.413,3.0909,0,0.00021924,2190.8,7.2974e-05,7.4986,7.1977e-05,0.0075425,-0.00021911,-2187.1,1.32
2470,14.413,3.2727,0,0.00021925,2191,7.2983e-05,7.5585,7.1978e-05,0.0073445,-0.00021912,-2187.2,1.32
2471,14.413,3.4545,0,0.00021927,2191.2,7.3001e-05,7.678,7.198e-05,0.0069557,-0.00021914,-2187.4,1.3199
2472,14.413,3.6364,0,0.00021931,2191.6,7.3028e-05,7.8569,7.1984e-05,0.0063908,-0.00021918,-2187.7,1.3197
2473,14.413,3.8182,0,0.00021936,2192.1,7.3065e-05,8.0947,7.1988e-05,0.0056715,-0.00021922,-2188,1.3195
2474,14.413,4,0,0.00021942,2192.7,7.311e-05,8.3908,7.1994e-05,0.0048243,-0.00021928,-2188.5,1.3193
2475,14.413,4.1818,0,0.0002195,2193.5,7.3164e-05,8.7443,7.2001e-05,0.0038696,-0.00021935,-2189.1,1.319
2476,14.413,4.3636,0,0.00021958,2194.3,7.3227e-05,9.1543,7.2009e-05,0.0028349,-0.00021943,-2189.7,1.3187
2477,14.413,4.5455,0,0.00021968,2195.3,7.3299e-05,9.6199,7.2019e-05,0.0017428,-0.00021952,-2190.5,1.3183
2478,14.413,4.7273,0,0.00021979,2196.4,7.3379e-05,10.14,7.203e-05,0.00061315,-0.00021962,-2191.3,1.3179
2479,14.413,4.9091,0,0.00021992,2197.7,7.3468e-05,10.713,7.2042e-05,-0.00055053,-0.00021973,-2192.3,1.3174
2480,14.413,5.0909,0,0.00022005,2199,7.3565e-05,11.338,7.2056e-05,-0.0016856,-0.00021986,-2193.3,1.3168
2481,14.413,5.2727,0,0.0002202,2200.5,7.367e-05,12.013,7.2071e-05,-0.0029857,-0.00022,-2194.5,1.3163
2482,14.413,5.4545,0,0.00022036,2202.1,7.3784e-05,12.743,7.2088e-05,-0.0036325,-0.00022015,-2195.7,1.3156
2483,14.413,5.6364,0,0.00022055,2204,7.392e-05,13.617,7.2106e-05,-0.0077098,-0.00022032,-2197.2,1.315
2484,14.413,5.8182,0,0.00022101,2208.6,7.4288e-05,16.231,7.2128e-05,-0.00086267,-0.00022073,-2200.4,1.3142
2485,14.597,0.18182,0,0.00021632,2161.7,7.2766e-05,16.549,7.0563e-05,-0.00073374,-0.00021603,-2153.4,1.3417
2486,14.597,0.36364,0,0.00021586,2157.1,7.24e-05,13.97,7.054e-05,-0.0081895,-0.00021562,-2150.1,1.3424
2487,14.597,0.54545,0,0.00021567,2155.3,7.2271e-05,13.156,7.052e-05,-0.003768,-0.00021545,-2148.7,1.343
2488,14.597,0.72727,0,0.00021552,2153.7,7.2163e-05,12.485,7.0501e-05,-0.0030678,-0.0002153,-2147.4,1.3437
2489,14.597,0.90909,0,0.00021537,2152.2,7.2064e-05,11.868,7.0484e-05,-0.0016725,-0.00021517,-2146.3,1.3442
2490,14.597,1.0909,0,0.00021524,2150.9,7.1973e-05,11.299,7.0469e-05,-0.00046647,-0.00021505,-2145.2,1.3447
2491,14.597,1.2727,0,0.00021512,2149.7,7.1889e-05,10.779,7.0455e-05,0.00075929,-0.00021493,-2144.3,1.3452
2492,14.597,1.4545,0,0.00021501,2148.6,7.1814e-05,10.309,7.0443e-05,0.0019351,-0.00021483,-2143.5,1.3456
2493,14.597,1.6364,0,0.00021492,2147.7,7.1748e-05,9.8889,7.0432e-05,0.0030628,-0.00021475,-2142.7,1.346
2494,14.597,1.8182,0,0.00021483,2146.8,7.1689e-05,9.5198,7.0423e-05,0.0041143,-0.00021467,-2142.1,1.3463
2495,14.597,2,0,0.00021476,2146.1,7.1639e-05,9.2022,7.0415e-05,0.0050735,-0.0002146,-2141.5,1.3466
2496,14.597,2.1818,0,0.0002147,2145.5,7.1597e-05,8.9368,7.0408e-05,0.005916,-0.00021455,-2141,1.3469
2497,14.597,2.3636,0,0.00021465,2145,7.1563e-05,8.7239,7.0403e-05,0.0066207,-0.0002145,-2140.7,1.3471
2498,14.597,2.5455,0,0.00021462,2144.7,7.1538e-05,8.5639,7.0399e-05,0.0071715,-0.00021447,-2140.4,1.3472
2499,14.597,2.7273,0,0.00021459,2144.4,7.1521e-05,8.4571,7.0396e-05,0.007546,-0.00021445,-2140.2,1.3473
2500,14.597,2.9091,0,0.00021458,2144.3,7.1513e-05,8.4037,7.0395e-05,0.0077374,-0.00021443,-2140.1,1.3473
2501,14.597,3.0909,0,0.00021458,2144.3,7.1513e-05,8.4037,7.0395e-05,0.0077373,-0.00021443,-2140.1,1.3473
2502,14.597,3.2727,0,0.00021459,2144.4,7.1521e-05,8.4571,7.0396e-05,0.0075459,-0.00021445,-2140.2,1.3473
2503,14.597,3.4545,0,0.00021462,2144.7,7.1538e-05,8.5639,7.0399e-05,0.0071713,-0.00021447,-2140.4,1.3472
2504,14.597,3.6364,0,0.00021465,2145,7.1563e-05,8.7239,7.0403e-05,0.006621,-0.0002145,-2140.7,1.3471
2505,14.597,3.8182,0,0.0002147,2145.5,7.1597e-05,8.9368,7.0408e-05,0.0059152,-0.00021455,-2141,1.3469
2506,14.597,4,0,0.00021476,2146.1,7.1639e-05,9.2023,7.0415e-05,0.0050737,-0.0002146,-2141.5,1.3466
2507,14.597,4.1818,0,0.00021483,2146.8,7.1689e-05,9.5198,7.0423e-05,0.0041135,-0.00021467,-2142.1,1.3463
2508,14.597,4.3636,0,0.00021492,2147.7,7.1748e-05,9.8889,7.0432e-05,0.0030619,-0.00021475,-2142.7,1.346
2509,14.597,4.5455,0,0.00021501,2148.6,7.1814e-05,10.309,7.0443e-05,0.0019367,-0.00021483,-2143.5,1.3456
2510,14.597,4.7273,0,0.00021512,2149.7,7.1889e-05,10.779,7.0455e-05,0.00075933,-0.00021493,-2144.3,1.3452
2511,14.597,4.9091,0,0.00021524,2150.9,7.1973e-05,11.299,7.0469e-05,-0.00046764,-0.00021505,-2145.2,1.3447
2512,14.597,5.0909,0,0.00021537,2152.2,7.2064e-05,11.868,7.0484e-05,-0.0016753,-0.00021517,-2146.3,1.3442
2513,14.597,5.2727,0,0.00021552,2153.7,7.2163e-05,12.485,7.0501e-05,-0.0030698,-0.0002153,-2147.4,1.3437
2514,14.597,5.4545,0,0.00021567,2155.3,7.2271e-05,13.156,7.052e-05,-0.0037668,-0.00021545,-2148.7,1.343
2515,14.597,5.6364,0,0.00021586,2157.1,7.24e-05,13.97,7.054e-05,-0.0081882,-0.00021562,-2150.1,1.3424
2516,14.597,5.8182,0,0.00021632,2161.7,7.2766e-05,16.549,7.0563e-05,-0.00073449,-0.00021603,-2153.4,1.3417
2517,14.782,0.18182,0,0.00021164,2115,7.125e-05,16.866,6.9005e-05,-0.00060914,-0.00021135,-2106.5,1.3692
2518,14.782,0.36364,0,0.00021119,2110.4,7.0887e-05,14.318,6.898e-05,-0.0086496,-0.00021094,-2103.2,1.3699
2519,14.782,0.54545,0,0.000211,2108.6,7.0764e-05,13.561,6.8958e-05,-0.0038905,-0.00021077,-2101.8,1.3706
2520,14.782,0.72727,0,0.00021085,2107,7.0661e-05,12.947,6.8938e-05,-0.0031441,-0.00021063,-2100.5,1.3712
2521,14.782,0.90909,0,0.00021071,2105.6,7.0568e-05,12.386,6.8919e-05,-0.0016607,-0.0002105,-2099.4,1.3717
2522,14.782,1.0909,0,0.00021058,2104.3,7.0482e-05,11.87,6.8902e-05,-0.00038623,-0.00021038,-2098.4,1.3722
2523,14.782,1.2727,0,0.00021046,2103.2,7.0405e-05,11.401,6.8887e-05,0.00090009,-0.00021027,-2097.5,1.3727
2524,14.782,1.4545,0,0.00021036,2102.1,7.0335e-05,10.978,6.8874e-05,0.0021221,-0.00021017,-2096.6,1.3731
2525,14.782,1.6364,0,0.00021026,2101.2,7.0272e-05,10.601,6.8862e-05,0.0032778,-0.00021008,-2095.9,1.3735
2526,14.782,1.8182,0,0.00021018,2100.4,7.0218e-05,10.272,6.8852e-05,0.0043474,-0.00021001,-2095.2,1.3738
2527,14.782,2,0,0.00021011,2099.7,7.0171e-05,9.9885,6.8843e-05,0.0053125,-0.00020994,-2094.7,1.3741
2528,14.782,2.1818,0,0.00021006,2099.1,7.0133e-05,9.7524,6.8835e-05,0.0061524,-0.00020989,-2094.2,1.3743
2529,14.782,2.3636,0,0.00021001,2098.6,7.0101e-05,9.5634,6.883e-05,0.006848,-0.00020985,-2093.8,1.3745
2530,14.782,2.5455,0,0.00020998,2098.3,7.0078e-05,9.4216,6.8825e-05,0.0073891,-0.00020981,-2093.6,1.3747
2531,14.782,2.7273,0,0.00020995,2098.1,7.0063e-05,9.327,6.8822e-05,0.0077548,-0.00020979,-2093.4,1.3747
2532,14.782,2.9091,0,0.00020994,2098,7.0055e-05,9.2797,6.8821e-05,0.0079415,-0.00020978,-2093.3,1.3748
2533,14.782,3.0909,0,0.00020994,2098,7.0055e-05,9.2797,6.8821e-05,0.0079402,-0.00020978,-2093.3,1.3748
2534,14.782,3.2727,0,0.00020995,2098.1,7.0063e-05,9.327,6.8822e-05,0.0077558,-0.00020979,-2093.4,1.3747
2535,14.782,3.4545,0,0.00020998,2098.3,7.0078e-05,9.4216,6.8825e-05,0.0073877,-0.00020981,-2093.6,1.3747
2536,14.782,3.6364,0,0.00021001,2098.6,7.0101e-05,9.5634,6.883e-05,0.0068488,-0.00020985,-2093.8,1.3745
2537,14.782,3.8182,0,0.00021006,2099.1,7.0133e-05,9.7524,6.8835e-05,0.0061511,-0.00020989,-2094.2,1.3743
2538,14.782,4,0,0.00021011,2099.7,7.0171e-05,9.9885,6.8843e-05,0.0053115,-0.00020994,-2094.7,1.3741
2539,14.782,4.1818,0,0.00021018,2100.4,7.0218e-05,10.272,6.8852e-05,0.0043472,-0.00021001,-2095.2,1.3738
2540,14.782,4.3636,0,0.00021026,2101.2,7.0272e-05,10.601,6.8862e-05,0.0032781,-0.00021008,-2095.9,1.3735
2541,14.782,4.5455,0,0.00021036,2102.1,7.0335e-05,10.978,6.8874e-05,0.0021204,-0.00021017,-2096.6,1.3731
2542,14.782,4.7273,0,0.00021046,2103.2,7.0405e-05,11.401,6.8887e-05,0.00089926,-0.00021027,-2097.5,1.3727
2543,14.782,4.9091,0,0.00021058,2104.3,7.0482e-05,11.87,6.8902e-05,-0.00038546,-0.00021038,-2098.4,1.3722
2544,14.782,5.0909,0,0.00021071,2105.6,7.0568e-05,12.386,6.8919e-05,-0.001662,-0.0002105,-2099.4,1.3717
2545,14.782,5.2727,0,0.00021085,2107,7.0661e-05,12.947,6.8938e-05,-0.0031467,-0.00021063,-2100.5,1.3712
2546,14.782,5.4545,0,0.000211,2108.6,7.0764e-05,13.561,6.8958e-05,-0.0038911,-0.00021077,-2101.8,1.3706
2547,14.782,5.6364,0,0.00021119,2110.4,7.0887e-05,14.318,6.898e-05,-0.0086485,-0.00021094,-2103.2,1.3699
2548,14.782,5.8182,0,0.00021164,2115,7.125e-05,16.866,6.9005e-05,-0.00060956,-0.00021135,-2106.5,1.3692
2549,14.966,0.18182,0,0.00020699,2068.5,6.9741e-05,17.183,6.7454e-05,-0.00050222,-0.00020669,-2059.8,1.397
2550,14.966,0.36364,0,0.00020653,2063.9,6.938e-05,14.664,6.7427e-05,-0.0091079,-0.00020628,-2056.5,1.3976
2551,14.966,0.54545,0,0.00020635,2062.1,6.9262e-05,13.96,6.7404e-05,-0.0040215,-0.00020611,-2055.1,1.3983
2552,14.966,0.72727,0,0.0002062,2060.6,6.9166e-05,13.401,6.7382e-05,-0.003231,-0.00020597,-2053.9,1.3989
2553,14.966,0.90909,0,0.00020606,2059.2,6.9078e-05,12.893,6.7362e-05,-0.0016587,-0.00020584,-2052.8,1.3994
2554,14.966,1.0909,0,0.00020594,2058,6.8998e-05,12.429,6.7343e-05,-0.00031889,-0.00020573,-2051.7,1.3999
2555,14.966,1.2727,0,0.00020583,2056.8,6.8925e-05,12.008,6.7327e-05,0.0010201,-0.00020562,-2050.8,1.4004
2556,14.966,1.4545,0,0.00020572,2055.8,6.886e-05,11.631,6.7312e-05,0.0022858,-0.00020552,-2050,1.4008
2557,14.966,1.6364,0,0.00020563,2054.9,6.8802e-05,11.296,6.7299e-05,0.0034699,-0.00020544,-2049.2,1.4011
2558,14.966,1.8182,0,0.00020555,2054.1,6.8752e-05,11.004,6.7288e-05,0.0045584,-0.00020537,-2048.6,1.4014
2559,14.966,2,0,0.00020549,2053.5,6.8709e-05,10.754,6.7278e-05,0.0055303,-0.0002053,-2048.1,1.4017
2560,14.966,2.1818,0,0.00020543,2052.9,6.8673e-05,10.547,6.727e-05,0.0063703,-0.00020525,-2047.6,1.4019
2561,14.966,2.3636,0,0.00020539,2052.5,6.8644e-05,10.381,6.7263e-05,0.0070631,-0.00020521,-2047.2,1.4021
2562,14.966,2.5455,0,0.00020535,2052.1,6.8623e-05,10.257,6.7259e-05,0.0075953,-0.00020518,-2047,1.4023
2563,14.966,2.7273,0,0.00020533,2051.9,6.8608e-05,10.174,6.7255e-05,0.0079568,-0.00020516,-2046.8,1.4023
2564,14.966,2.9091,0,0.00020532,2051.8,6.8601e-05,10.132,6.7254e-05,0.0081387,-0.00020515,-2046.7,1.4024
2565,14.966,3.0909,0,0.00020532,2051.8,6.8601e-05,10.132,6.7254e-05,0.0081382,-0.00020515,-2046.7,1.4024
2566,14.966,3.2727,0,0.00020533,2051.9,6.8608e-05,10.174,6.7255e-05,0.0079575,-0.00020516,-2046.8,1.4023
2567,14.966,3.4545,0,0.00020535,2052.1,6.8623e-05,10.257,6.7259e-05,0.0075962,-0.00020518,-2047,1.4023
2568,14.966,3.6364,0,0.00020539,2052.5,6.8644e-05,10.381,6.7263e-05,0.007063,-0.00020521,-2047.2,1.4021
2569,14.966,3.8182,0,0.00020543,2052.9,6.8673e-05,10.547,6.727e-05,0.0063702,-0.00020525,-2047.6,1.4019
2570,14.966,4,0,0.00020549,2053.5,6.8709e-05,10.755,6.7278e-05,0.005531,-0.0002053,-2048.1,1.4017
2571,14.966,4.1818,0,0.00020555,2054.1,6.8752e-05,11.004,6.7288e-05,0.0045581,-0.00020537,-2048.6,1.4014
2572,14.966,4.3636,0,0.00020563,2054.9,6.8802e-05,11.296,6.7299e-05,0.0034708,-0.00020544,-2049.2,1.4011
2573,14.966,4.5455,0,0.00020572,2055.8,6.886e-05,11.631,6.7312e-05,0.0022846,-0.00020552,-2050,1.4008
2574,14.966,4.7273,0,0.00020583,2056.8,6.8925e-05,12.008,6.7327e-05,0.0010213,-0.00020562,-2050.8,1.4004
2575,14.966,4.9091,0,0.00020594,2058,6.8998e-05,12.429,6.7343e-05,-0.00032183,-0.00020573,-2051.7,1.3999
2576,14.966,5.0909,0,0.00020606,2059.2,6.9078e-05,12.893,6.7362e-05,-0.0016593,-0.00020584,-2052.8,1.3994
2577,14.966,5.2727,0,0.0002062,2060.6,6.9166e-05,13.401,6.7382e-05,-0.0032335,-0.00020597,-2053.9,1.3989
2578,14.966,5.4545,0,0.00020635,2062.1,6.9262e-05,13.96,6.7404e-05,-0.0040221,-0.00020611,-2055.1,1.3983
2579,14.966,5.6364,0,0.00020653,2063.9,6.938e-05,14.664,6.7427e-05,-0.0091075,-0.00020628,-2056.5,1.3976
2580,14.966,5.8182,0,0.00020699,2068.5,6.9741e-05,17.183,6.7454e-05,-0.0005023,-0.00020669,-2059.8,1.397
2581,15.15,0.18182,0,0.00020236,2022.2,6.824e-05,17.501,6.591e-05,-0.00039624,-0.00020206,-2013.4,1.4248
2582,15.15,0.36364,0,0.0002019,2017.6,6.788e-05,15.007,6.5881e-05,-0.0095542,-0.00020164,-2010.1,1.4255
2583,15.15,0.54545,0,0.00020172,2015.8,6.7767e-05,14.355,6.5856e-05,-0.0041478,-0.00020148,-2008.6,1.4261
2584,15.15,0.72727,0,0.00020158,2014.4,6.7676e-05,13.849,6.5832e-05,-0.0033131,-0.00020134,-2007.4,1.4267
2585,15.15,0.90909,0,0.00020144,2013,6.7593e-05,13.392,6.5811e-05,-0.0016537,-0.00020121,-2006.3,1.4272
2586,15.15,1.0909,0,0.00020132,2011.8,6.7518e-05,12.978,6.5791e-05,-0.00025175,-0.00020109,-2005.3,1.4277
2587,15.15,1.2727,0,0.00020121,2010.7,6.7451e-05,12.604,6.5773e-05,0.0011412,-0.00020099,-2004.4,1.4281
2588,15.15,1.4545,0,0.00020111,2009.7,6.739e-05,12.271,6.5757e-05,0.0024455,-0.0002009,-2003.5,1.4285
2589,15.15,1.6364,0,0.00020102,2008.8,6.7337e-05,11.978,6.5743e-05,0.0036604,-0.00020081,-2002.8,1.4289
2590,15.15,1.8182,0,0.00020094,2008.1,6.729e-05,11.722,6.5731e-05,0.004766,-0.00020074,-2002.2,1.4292
2591,15.15,2,0,0.00020088,2007.4,6.7251e-05,11.505,6.572e-05,0.0057473,-0.00020068,-2001.6,1.4295
2592,15.15,2.1818,0,0.00020083,2006.9,6.7218e-05,11.325,6.5711e-05,0.00659,-0.00020063,-2001.2,1.4297
2593,15.15,2.3636,0,0.00020078,2006.4,6.7192e-05,11.181,6.5704e-05,0.0072803,-0.00020059,-2000.8,1.4299
2594,15.15,2.5455,0,0.00020075,2006.1,6.7172e-05,11.074,6.5699e-05,0.0078095,-0.00020056,-2000.6,1.43
2595,15.15,2.7273,0,0.00020073,2005.9,6.7159e-05,11.003,6.5696e-05,0.0081653,-0.00020054,-2000.4,1.4301
2596,15.15,2.9091,0,0.00020072,2005.8,6.7152e-05,10.967,6.5694e-05,0.0083463,-0.00020053,-2000.3,1.4301
2597,15.15,3.0909,0,0.00020072,2005.8,6.7152e-05,10.967,6.5694e-05,0.0083458,-0.00020053,-2000.3,1.4301
2598,15.15,3.2727,0,0.00020073,2005.9,6.7159e-05,11.003,6.5696e-05,0.0081652,-0.00020054,-2000.4,1.4301
2599,15.15,3.4545,0,0.00020075,2006.1,6.7172e-05,11.074,6.5699e-05,0.0078095,-0.00020056,-2000.6,1.43
2600,15.15,3.6364,0,0.00020078,2006.4,6.7192e-05,11.181,6.5704e-05,0.0072799,-0.00020059,-2000.8,1.4299
2601,15.15,3.8182,0,0.00020083,2006.9,6.7218e-05,11.325,6.5711e-05,0.0065894,-0.00020063,-2001.2,1.4297
2602,15.15,4,0,0.00020088,2007.4,6.7251e-05,11.505,6.572e-05,0.0057483,-0.00020068,-2001.6,1.4295
2603,15.15,4.1818,0,0.00020094,2008.1,6.729e-05,11.722,6.5731e-05,0.0047659,-0.00020074,-2002.2,1.4292
2604,15.15,4.3636,0,0.00020102,2008.8,6.7337e-05,11.978,6.5743e-05,0.0036595,-0.00020081,-2002.8,1.4289
2605,15.15,4.5455,0,0.00020111,2009.7,6.739e-05,12.271,6.5757e-05,0.0024464,-0.0002009,-2003.5,1.4285
2606,15.15,4.7273,0,0.00020121,2010.7,6.7451e-05,12.604,6.5773e-05,0.0011406,-0.00020099,-2004.4,1.4281
2607,15.15,4.9091,0,0.00020132,2011.8,6.7518e-05,12.978,6.5791e-05,-0.00025242,-0.00020109,-2005.3,1.4277
2608,15.15,5.0909,0,0.00020144,2013,6.7593e-05,13.392,6.5811e-05,-0.0016551,-0.00020121,-2006.3,1.4272
2609,15.15,5.2727,0,0.00020158,2014.4,6.7676e-05,13.849,6.5832e-05,-0.0033142,-0.00020134,-2007.4,1.4267
2610,15.15,5.4545,0,0.00020172,2015.8,6.7767e-05,14.355,6.5856e-05,-0.0041472,-0.00020148,-2008.6,1.4261
2611,15.15,5.6364,0,0.0002019,2017.6,6.788e-05,15.007,6.5881e-05,-0.0095536,-0.00020164,-2010.1,1.4255
2612,15.15,5.8182,0,0.00020236,2022.2,6.824e-05,17.501,6.591e-05,-0.00039712,-0.00020206,-2013.4,1.4248
2613,15.335,0.18182,0,0.00019775,1976.1,6.6744e-05,17.819,6.4373e-05,-0.00030023,-0.00019744,-1967.2,1.4528
2614,15.335,0.36364,0,0.00019729,1971.5,6.6386e-05,15.349,6.4342e-05,-0.009999,-0.00019702,-1963.8,1.4535
2615,15.335,0.54545,0,0.00019711,1969.8,6.6279e-05,14.748,6.4315e-05,-0.0042741,-0.00019686,-1962.4,1.4541
2616,15.335,0.72727,0,0.00019697,1968.3,6.6193e-05,14.293,6.429e-05,-0.0033958,-0.00019672,-1961.1,1.4546
2617,15.335,0.90909,0,0.00019684,1967,6.6115e-05,13.886,6.4267e-05,-0.0016507,-0.0001966,-1960,1.4551
2618,15.335,1.0909,0,0.00019672,1965.8,6.6045e-05,13.52,6.4246e-05,-0.00019117,-0.00019648,-1959,1.4556
2619,15.335,1.2727,0,0.00019661,1964.7,6.5982e-05,13.193,6.4227e-05,0.0012549,-0.00019638,-1958.1,1.4561
2620,15.335,1.4545,0,0.00019651,1963.8,6.5926e-05,12.903,6.4209e-05,0.0025984,-0.00019629,-1957.3,1.4564
2621,15.335,1.6364,0,0.00019643,1962.9,6.5877e-05,12.649,6.4194e-05,0.0038433,-0.00019621,-1956.6,1.4568
2622,15.335,1.8182,0,0.00019635,1962.2,6.5834e-05,12.43,6.4181e-05,0.0049668,-0.00019614,-1955.9,1.4571
2623,15.335,2,0,0.00019629,1961.6,6.5798e-05,12.245,6.4169e-05,0.0059598,-0.00019608,-1955.4,1.4574
2624,15.335,2.1818,0,0.00019624,1961,6.5768e-05,12.092,6.416e-05,0.0068058,-0.00019603,-1955,1.4576
2625,15.335,2.3636,0,0.0001962,1960.6,6.5744e-05,11.97,6.4152e-05,0.0074959,-0.00019599,-1954.6,1.4577
2626,15.335,2.5455,0,0.00019617,1960.3,6.5727e-05,11.88,6.4147e-05,0.0080234,-0.00019596,-1954.3,1.4579
2627,15.335,2.7273,0,0.00019615,1960.1,6.5715e-05,11.82,6.4143e-05,0.008377,-0.00019594,-1954.2,1.458
2628,15.335,2.9091,0,0.00019614,1960,6.5709e-05,11.79,6.4141e-05,0.0085557,-0.00019593,-1954.1,1.458
2629,15.335,3.0909,0,0.00019614,1960,6.5709e-05,11.79,6.4141e-05,0.0085556,-0.00019593,-1954.1,1.458
2630,15.335,3.2727,0,0.00019615,1960.1,6.5715e-05,11.82,6.4143e-05,0.0083792,-0.00019594,-1954.2,1.458
2631,15.335,3.4545,0,0.00019617,1960.3,6.5727e-05,11.88,6.4147e-05,0.0080231,-0.00019596,-1954.3,1.4579
2632,15.335,3.6364,0,0.0001962,1960.6,6.5744e-05,11.97,6.4152e-05,0.007497,-0.00019599,-1954.6,1.4577
2633,15.335,3.8182,0,0.00019624,1961,6.5768e-05,12.092,6.416e-05,0.0068051,-0.00019603,-1955,1.4576
2634,15.335,4,0,0.00019629,1961.6,6.5798e-05,12.245,6.4169e-05,0.0059589,-0.00019608,-1955.4,1.4574
2635,15.335,4.1818,0,0.00019635,1962.2,6.5834e-05,12.43,6.4181e-05,0.0049656,-0.00019614,-1955.9,1.4571
2636,15.335,4.3636,0,0.00019643,1962.9,6.5877e-05,12.649,6.4194e-05,0.0038433,-0.00019621,-1956.6,1.4568
2637,15.335,4.5455,0,0.00019651,1963.8,6.5926e-05,12.903,6.4209e-05,0.0025981,-0.00019629,-1957.3,1.4564
2638,15.335,4.7273,0,0.00019661,1964.7,6.5982e-05,13.193,6.4227e-05,0.0012548,-0.00019638,-1958.1,1.4561
2639,15.335,4.9091,0,0.00019672,1965.8,6.6045e-05,13.52,6.4246e-05,-0.00019036,-0.00019648,-1959,1.4556
2640,15.335,5.0909,0,0.00019684,1967,6.6115e-05,13.886,6.4267e-05,-0.001655,-0.0001966,-1960,1.4551
2641,15.335,5.2727,0,0.00019697,1968.3,6.6193e-05,14.293,6.429e-05,-0.0033976,-0.00019672,-1961.1,1.4546
2642,15.335,5.4545,0,0.00019711,1969.8,6.6279e-05,14.748,6.4315e-05,-0.0042737,-0.00019686,-1962.4,1.4541
2643,15.335,5.6364,0,0.00019729,1971.5,6.6386e-05,15.349,6.4342e-05,-0.0099975,-0.00019702,-1963.8,1.4535
2644,15.335,5.8182,0,0.00019775,1976.1,6.6744e-05,17.819,6.4373e-05,-0.0002997,-0.00019744,-1967.2,1.4528
2645,15.519,0.18182,0,0.00019316,1930.3,6.5256e-05,18.14,6.2842e-05,-0.00019807,-0.00019284,-1921.1,1.4809
2646,15.519,0.36364,0,0.00019269,1925.6,6.4899e-05,15.692,6.2809e-05,-0.010429,-0.00019242,-1917.7,1.4816
2647,15.519,0.54545,0,0.00019252,1923.9,6.4796e-05,15.139,6.2781e-05,-0.0043876,-0.00019226,-1916.3,1.4822
2648,15.519,0.72727,0,0.00019238,1922.5,6.4716e-05,14.734,6.2754e-05,-0.0034666,-0.00019213,-1915.1,1.4827
2649,15.519,0.90909,0,0.00019225,1921.2,6.4643e-05,14.377,6.273e-05,-0.0016398,-0.000192,-1914,1.4832
2650,15.519,1.0909,0,0.00019214,1920,6.4578e-05,14.059,6.2707e-05,-0.00011872,-0.00019189,-1913,1.4837
2651,15.519,1.2727,0,0.00019203,1919,6.452e-05,13.777,6.2687e-05,0.0013783,-0.00019179,-1912.1,1.4841
2652,15.519,1.4545,0,0.00019194,1918,6.4468e-05,13.53,6.2668e-05,0.0027631,-0.0001917,-1911.2,1.4845
2653,15.519,1.6364,0,0.00019186,1917.2,6.4423e-05,13.316,6.2652e-05,0.0040332,-0.00019162,-1910.5,1.4848
2654,15.519,1.8182,0,0.00019178,1916.5,6.4385e-05,13.132,6.2637e-05,0.0051787,-0.00019156,-1909.9,1.4851
2655,15.519,2,0,0.00019172,1915.9,6.4352e-05,12.978,6.2625e-05,0.0061807,-0.0001915,-1909.4,1.4854
2656,15.519,2.1818,0,0.00019167,1915.4,6.4325e-05,12.852,6.2615e-05,0.0070339,-0.00019145,-1908.9,1.4856
2657,15.519,2.3636,0,0.00019163,1915,6.4303e-05,12.752,6.2607e-05,0.0077281,-0.00019141,-1908.6,1.4858
2658,15.519,2.5455,0,0.0001916,1914.7,6.4287e-05,12.678,6.2601e-05,0.0082522,-0.00019138,-1908.3,1.4859
2659,15.519,2.7273,0,0.00019158,1914.5,6.4276e-05,12.63,6.2597e-05,0.0086062,-0.00019137,-1908.2,1.486
2660,15.519,2.9091,0,0.00019157,1914.4,6.4271e-05,12.605,6.2595e-05,0.0087849,-0.00019136,-1908.1,1.486
2661,15.519,3.0909,0,0.00019157,1914.4,6.4271e-05,12.605,6.2595e-05,0.0087835,-0.00019136,-1908.1,1.486
2662,15.519,3.2727,0,0.00019158,1914.5,6.4276e-05,12.63,6.2597e-05,0.0086059,-0.00019137,-1908.2,1.486
2663,15.519,3.4545,0,0.0001916,1914.7,6.4287e-05,12.679,6.2601e-05,0.0082529,-0.00019138,-1908.3,1.4859
2664,15.519,3.6364,0,0.00019163,1915,6.4303e-05,12.752,6.2607e-05,0.0077266,-0.00019141,-1908.6,1.4858
2665,15.519,3.8182,0,0.00019167,1915.4,6.4325e-05,12.852,6.2615e-05,0.0070338,-0.00019145,-1908.9,1.4856
2666,15.519,4,0,0.00019172,1915.9,6.4352e-05,12.978,6.2625e-05,0.0061822,-0.0001915,-1909.4,1.4854
2667,15.519,4.1818,0,0.00019178,1916.5,6.4385e-05,13.132,6.2637e-05,0.0051782,-0.00019156,-1909.9,1.4851
2668,15.519,4.3636,0,0.00019186,1917.2,6.4423e-05,13.316,6.2652e-05,0.0040325,-0.00019162,-1910.5,1.4848
2669,15.519,4.5455,0,0.00019194,1918,6.4469e-05,13.53,6.2668e-05,0.0027603,-0.0001917,-1911.2,1.4845
2670,15.519,4.7273,0,0.00019203,1919,6.452e-05,13.777,6.2687e-05,0.0013785,-0.00019179,-1912.1,1.4841
2671,15.519,4.9091,0,0.00019214,1920,6.4578e-05,14.059,6.2707e-05,-0.0001183,-0.00019189,-1913,1.4837
2672,15.519,5.0909,0,0.00019225,1921.2,6.4643e-05,14.377,6.273e-05,-0.0016421,-0.000192,-1914,1.4832
2673,15.519,5.2727,0,0.00019238,1922.5,6.4716e-05,14.734,6.2754e-05,-0.0034684,-0.00019213,-1915.1,1.4827
2674,15.519,5.4545,0,0.00019252,1923.9,6.4796e-05,15.139,6.2781e-05,-0.0043882,-0.00019226,-1916.3,1.4822
2675,15.519,5.6364,0,0.00019269,1925.6,6.4899e-05,15.692,6.2809e-05,-0.01043,-0.00019242,-1917.7,1.4816
2676,15.519,5.8182,0,0.00019316,1930.3,6.5256e-05,18.14,6.2842e-05,-0.00019594,-0.00019284,-1921.1,1.4809
2677,15.704,0.18182,0,0.00018859,1884.6,6.3775e-05,18.463,6.1318e-05,-0.00010175,-0.00018827,-1875.3,1.5092
2678,15.704,0.36364,0,0.00018812,1879.9,6.3419e-05,16.036,6.1283e-05,-0.010865,-0.00018784,-1871.9,1.5098
2679,15.704,0.54545,0,0.00018795,1878.2,6.3321e-05,15.532,6.1253e-05,-0.0045097,-0.00018768,-1870.4,1.5104
2680,15.704,0.72727,0,0.00018781,1876.8,6.3245e-05,15.176,6.1225e-05,-0.003542,-0.00018755,-1869.2,1.5109
2681,15.704,0.90909,0,0.00018769,1875.6,6.3178e-05,14.868,6.1199e-05,-0.0016328,-0.00018743,-1868.1,1.5114
2682,15.704,1.0909,0,0.00018757,1874.4,6.3118e-05,14.597,6.1175e-05,-5.0383e-05,-0.00018732,-1867.1,1.5119
2683,15.704,1.2727,0,0.00018747,1873.4,6.3064e-05,14.36,6.1153e-05,0.0014969,-0.00018722,-1866.2,1.5123
2684,15.704,1.4545,0,0.00018738,1872.5,6.3017e-05,14.156,6.1134e-05,0.0029181,-0.00018714,-1865.4,1.5127
2685,15.704,1.6364,0,0.0001873,1871.7,6.2976e-05,13.981,6.1116e-05,0.004221,-0.00018706,-1864.7,1.513
2686,15.704,1.8182,0,0.00018723,1871,6.2941e-05,13.833,6.1101e-05,0.0053853,-0.00018699,-1864.1,1.5133
2687,15.704,2,0,0.00018717,1870.5,6.2912e-05,13.71,6.1088e-05,0.0064023,-0.00018694,-1863.6,1.5135
2688,15.704,2.1818,0,0.00018713,1870,6.2887e-05,13.61,6.1077e-05,0.0072622,-0.00018689,-1863.1,1.5137
2689,15.704,2.3636,0,0.00018709,1869.6,6.2868e-05,13.533,6.1068e-05,0.0079572,-0.00018685,-1862.8,1.5139
2690,15.704,2.5455,0,0.00018706,1869.3,6.2854e-05,13.476,6.1062e-05,0.0084853,-0.00018683,-1862.5,1.514
2691,15.704,2.7273,0,0.00018704,1869.1,6.2844e-05,13.438,6.1057e-05,0.0088381,-0.00018681,-1862.4,1.5141
2692,15.704,2.9091,0,0.00018703,1869,6.284e-05,13.419,6.1055e-05,0.0090152,-0.0001868,-1862.3,1.5142
2693,15.704,3.0909,0,0.00018703,1869,6.284e-05,13.419,6.1055e-05,0.0090141,-0.0001868,-1862.3,1.5142
2694,15.704,3.2727,0,0.00018704,1869.1,6.2844e-05,13.438,6.1057e-05,0.0088387,-0.00018681,-1862.4,1.5141
2695,15.704,3.4545,0,0.00018706,1869.3,6.2854e-05,13.476,6.1062e-05,0.0084837,-0.00018683,-1862.5,1.514
2696,15.704,3.6364,0,0.00018709,1869.6,6.2868e-05,13.533,6.1068e-05,0.0079568,-0.00018685,-1862.8,1.5139
2697,15.704,3.8182,0,0.00018713,1870,6.2887e-05,13.61,6.1077e-05,0.0072614,-0.00018689,-1863.1,1.5137
2698,15.704,4,0,0.00018717,1870.5,6.2912e-05,13.71,6.1088e-05,0.0064002,-0.00018694,-1863.6,1.5135
2699,15.704,4.1818,0,0.00018723,1871,6.2941e-05,13.833,6.1101e-05,0.0053849,-0.00018699,-1864.1,1.5133
2700,15.704,4.3636,0,0.0001873,1871.7,6.2976e-05,13.981,6.1116e-05,0.0042209,-0.00018706,-1864.7,1.513
2701,15.704,4.5455,0,0.00018738,1872.5,6.3017e-05,14.156,6.1134e-05,0.00292,-0.00018714,-1865.4,1.5127
2702,15.704,4.7273,0,0.00018747,1873.4,6.3064e-05,14.36,6.1153e-05,0.001497,-0.00018722,-1866.2,1.5123
2703,15.704,4.9091,0,0.00018757,1874.4,6.3118e-05,14.597,6.1175e-05,-5.2052e-05,-0.00018732,-1867.1,1.5119
2704,15.704,5.0909,0,0.00018769,1875.6,6.3178e-05,14.868,6.1199e-05,-0.0016343,-0.00018743,-1868.1,1.5114
2705,15.704,5.2727,0,0.00018781,1876.8,6.3245e-05,15.176,6.1225e-05,-0.0035454,-0.00018755,-1869.2,1.5109
2706,15.704,5.4545,0,0.00018795,1878.2,6.3321e-05,15.532,6.1253e-05,-0.0045083,-0.00018768,-1870.4,1.5104
2707,15.704,5.6364,0,0.00018812,1879.9,6.3419e-05,16.036,6.1283e-05,-0.010865,-0.00018784,-1871.9,1.5098
2708,15.704,5.8182,0,0.00018859,1884.6,6.3775e-05,18.463,6.1318e-05,-0.00010267,-0.00018827,-1875.3,1.5092
2709,15.888,0.18182,0,0.00018404,1839.1,6.2301e-05,18.79,5.98e-05,-3.1487e-05,-0.00018371,-1829.7,1.5376
2710,15.888,0.36364,0,0.00018357,1834.4,6.1946e-05,16.383,5.9764e-05,-0.011326,-0.00018329,-1826.2,1.5382
2711,15.888,0.54545,0,0.0001834,1832.8,6.1852e-05,15.926,5.9732e-05,-0.0046479,-0.00018313,-1824.8,1.5387
2712,15.888,0.72727,0,0.00018327,1831.4,6.1782e-05,15.62,5.9702e-05,-0.0036381,-0.000183,-1823.5,1.5393
2713,15.888,0.90909,0,0.00018314,1830.2,6.1719e-05,15.36,5.9675e-05,-0.0016436,-0.00018288,-1822.4,1.5398
2714,15.888,1.0909,0,0.00018303,1829.1,6.1664e-05,15.136,5.9649e-05,-2.2368e-06,-0.00018277,-1821.4,1.5402
2715,15.888,1.2727,0,0.00018293,1828.1,6.1615e-05,14.945,5.9626e-05,0.0015975,-0.00018267,-1820.5,1.5406
2716,15.888,1.4545,0,0.00018285,1827.2,6.1573e-05,14.784,5.9605e-05,0.0030588,-0.00018259,-1819.8,1.541
2717,15.888,1.6364,0,0.00018277,1826.4,6.1536e-05,14.648,5.9587e-05,0.0043912,-0.00018251,-1819.1,1.5413
2718,15.888,1.8182,0,0.0001827,1825.8,6.1504e-05,14.536,5.9571e-05,0.0055748,-0.00018245,-1818.4,1.5416
2719,15.888,2,0,0.00018265,1825.2,6.1478e-05,14.445,5.9557e-05,0.006607,-0.0001824,-1817.9,1.5418
2720,15.888,2.1818,0,0.0001826,1824.7,6.1457e-05,14.372,5.9545e-05,0.0074742,-0.00018235,-1817.5,1.542
2721,15.888,2.3636,0,0.00018256,1824.4,6.144e-05,14.316,5.9536e-05,0.0081742,-0.00018231,-1817.2,1.5422
2722,15.888,2.5455,0,0.00018254,1824.1,6.1428e-05,14.276,5.9529e-05,0.0087042,-0.00018229,-1816.9,1.5423
2723,15.888,2.7273,0,0.00018252,1823.9,6.1419e-05,14.25,5.9524e-05,0.0090577,-0.00018227,-1816.7,1.5424
2724,15.888,2.9091,0,0.00018251,1823.8,6.1415e-05,14.237,5.9522e-05,0.0092354,-0.00018226,-1816.7,1.5424
2725,15.888,3.0909,0,0.00018251,1823.8,6.1415e-05,14.237,5.9522e-05,0.0092354,-0.00018226,-1816.7,1.5424
2726,15.888,3.2727,0,0.00018252,1823.9,6.1419e-05,14.25,5.9524e-05,0.0090565,-0.00018227,-1816.7,1.5424
2727,15.888,3.4545,0,0.00018254,1824.1,6.1428e-05,14.276,5.9529e-05,0.0087038,-0.00018229,-1816.9,1.5423
2728,15.888,3.6364,0,0.00018256,1824.4,6.144e-05,14.316,5.9536e-05,0.0081745,-0.00018231,-1817.2,1.5422
2729,15.888,3.8182,0,0.0001826,1824.7,6.1457e-05,14.372,5.9545e-05,0.007475,-0.00018235,-1817.5,1.542
2730,15.888,4,0,0.00018265,1825.2,6.1478e-05,14.445,5.9557e-05,0.0066067,-0.0001824,-1817.9,1.5418
2731,15.888,4.1818,0,0.0001827,1825.8,6.1504e-05,14.536,5.9571e-05,0.0055754,-0.00018245,-1818.4,1.5416
2732,15.888,4.3636,0,0.00018277,1826.4,6.1536e-05,14.648,5.9587e-05,0.0043909,-0.00018251,-1819.1,1.5413
2733,15.888,4.5455,0,0.00018285,1827.2,6.1573e-05,14.784,5.9605e-05,0.0030584,-0.00018259,-1819.8,1.541
2734,15.888,4.7273,0,0.00018293,1828.1,6.1615e-05,14.945,5.9626e-05,0.0015966,-0.00018267,-1820.5,1.5406
2735,15.888,4.9091,0,0.00018303,1829.1,6.1664e-05,15.137,5.9649e-05,-3.2969e-06,-0.00018277,-1821.4,1.5402
2736,15.888,5.0909,0,0.00018314,1830.2,6.1719e-05,15.36,5.9675e-05,-0.0016457,-0.00018288,-1822.4,1.5398
2737,15.888,5.2727,0,0.00018327,1831.4,6.1782e-05,15.62,5.9702e-05,-0.0036382,-0.000183,-1823.5,1.5393
2738,15.888,5.4545,0,0.0001834,1832.8,6.1852e-05,15.926,5.9732e-05,-0.0046478,-0.00018313,-1824.8,1.5387
2739,15.888,5.6364,0,0.00018357,1834.4,6.1946e-05,16.383,5.9764e-05,-0.011326,-0.00018329,-1826.2,1.5382
2740,15.888,5.8182,0,0.00018404,1839.1,6.2301e-05,18.79,5.98e-05,-3.1773e-05,-0.00018371,-1829.7,1.5376
2741,16.072,0.18182,0,0.00017951,1793.9,6.0833e-05,19.121,5.8289e-05,5.4954e-05,-0.00017918,-1784.2,1.5661
2742,16.072,0.36364,0,0.00017904,1789.1,6.0479e-05,16.734,5.8251e-05,-0.011771,-0.00017875,-1780.7,1.5667
2743,16.072,0.54545,0,0.00017887,1787.5,6.0391e-05,16.325,5.8217e-05,-0.0047662,-0.00017859,-1779.3,1.5672
2744,16.072,0.72727,0,0.00017874,1786.2,6.0325e-05,16.068,5.8186e-05,-0.0037128,-0.00017846,-1778.1,1.5677
2745,16.072,0.90909,0,0.00017862,1785,6.0268e-05,15.857,5.8157e-05,-0.0016336,-0.00017834,-1777,1.5682
2746,16.072,1.0909,0,0.00017851,1783.9,6.0217e-05,15.681,5.813e-05,6.9779e-05,-0.00017824,-1776,1.5686
2747,16.072,1.2727,0,0.00017841,1782.9,6.0173e-05,15.536,5.8106e-05,0.0017203,-0.00017815,-1775.1,1.569
2748,16.072,1.4545,0,0.00017833,1782.1,6.0135e-05,15.417,5.8084e-05,0.0032227,-0.00017806,-1774.3,1.5694
2749,16.072,1.6364,0,0.00017826,1781.3,6.0103e-05,15.322,5.8064e-05,0.0045826,-0.00017799,-1773.6,1.5697
2750,16.072,1.8182,0,0.00017819,1780.7,6.0075e-05,15.246,5.8047e-05,0.0057919,-0.00017793,-1773,1.57
2751,16.072,2,0,0.00017814,1780.1,6.0052e-05,15.187,5.8032e-05,0.0068383,-0.00017787,-1772.5,1.5702
2752,16.072,2.1818,0,0.00017809,1779.7,6.0034e-05,15.142,5.802e-05,0.0077137,-0.00017783,-1772.1,1.5704
2753,16.072,2.3636,0,0.00017806,1779.3,6.0019e-05,15.108,5.801e-05,0.0084214,-0.0001778,-1771.7,1.5706
2754,16.072,2.5455,0,0.00017803,1779.1,6.0009e-05,15.085,5.8002e-05,0.008952,-0.00017777,-1771.5,1.5707
2755,16.072,2.7273,0,0.00017801,1778.9,6.0002e-05,15.07,5.7997e-05,0.0093092,-0.00017775,-1771.3,1.5708
2756,16.072,2.9091,0,0.00017801,1778.8,5.9998e-05,15.063,5.7995e-05,0.0094852,-0.00017774,-1771.2,1.5708
2757,16.072,3.0909,0,0.00017801,1778.8,5.9998e-05,15.063,5.7995e-05,0.0094858,-0.00017774,-1771.2,1.5708
2758,16.072,3.2727,0,0.00017801,1778.9,6.0002e-05,15.07,5.7997e-05,0.0093091,-0.00017775,-1771.3,1.5708
2759,16.072,3.4545,0,0.00017803,1779.1,6.0009e-05,15.085,5.8002e-05,0.0089531,-0.00017777,-1771.5,1.5707
2760,16.072,3.6364,0,0.00017806,1779.3,6.0019e-05,15.108,5.801e-05,0.0084196,-0.0001778,-1771.7,1.5706
2761,16.072,3.8182,0,0.00017809,1779.7,6.0034e-05,15.142,5.802e-05,0.0077131,-0.00017783,-1772.1,1.5704
2762,16.072,4,0,0.00017814,1780.1,6.0052e-05,15.187,5.8032e-05,0.0068365,-0.00017787,-1772.5,1.5702
2763,16.072,4.1818,0,0.00017819,1780.7,6.0075e-05,15.246,5.8047e-05,0.0057901,-0.00017793,-1773,1.57
2764,16.072,4.3636,0,0.00017826,1781.3,6.0103e-05,15.322,5.8064e-05,0.0045846,-0.00017799,-1773.6,1.5697
2765,16.072,4.5455,0,0.00017833,1782.1,6.0135e-05,15.417,5.8084e-05,0.0032224,-0.00017806,-1774.3,1.5694
2766,16.072,4.7273,0,0.00017841,1782.9,6.0173e-05,15.536,5.8106e-05,0.0017201,-0.00017815,-1775.1,1.569
2767,16.072,4.9091,0,0.00017851,1783.9,6.0217e-05,15.681,5.813e-05,6.8931e-05,-0.00017824,-1776,1.5686
2768,16.072,5.0909,0,0.00017862,1785,6.0268e-05,15.857,5.8157e-05,-0.001635,-0.00017834,-1777,1.5682
2769,16.072,5.2727,0,0.00017874,1786.2,6.0325e-05,16.068,5.8186e-05,-0.0037139,-0.00017846,-1778.1,1.5677
2770,16.072,5.4545,0,0.00017887,1787.5,6.0391e-05,16.325,5.8217e-05,-0.004768,-0.00017859,-1779.3,1.5672
2771,16.072,5.6364,0,0.00017904,1789.1,6.0479e-05,16.734,5.8251e-05,-0.011771,-0.00017875,-1780.7,1.5667
2772,16.072,5.8182,0,0.00017951,1793.9,6.0833e-05,19.121,5.8289e-05,5.5951e-05,-0.00017918,-1784.2,1.5661
2773,16.257,0.18182,0,0.000175,1748.8,5.9373e-05,19.456,5.6784e-05,0.00014441,-0.00017466,-1739,1.5947
2774,16.257,0.36364,0,0.00017453,1744.1,5.902e-05,17.089,5.6744e-05,-0.01222,-0.00017423,-1735.5,1.5953
2775,16.257,0.54545,0,0.00017436,1742.4,5.8936e-05,16.728,5.6709e-05,-0.004885,-0.00017407,-1734,1.5958
2776,16.257,0.72727,0,0.00017423,1741.1,5.8875e-05,16.522,5.6676e-05,-0.0037831,-0.00017395,-1732.8,1.5963
2777,16.257,0.90909,0,0.00017411,1739.9,5.8823e-05,16.361,5.6645e-05,-0.0016151,-0.00017383,-1731.7,1.5968
2778,16.257,1.0909,0,0.00017401,1738.9,5.8778e-05,16.234,5.6617e-05,0.00014894,-0.00017373,-1730.7,1.5972
2779,16.257,1.2727,0,0.00017392,1738,5.8739e-05,16.135,5.6591e-05,0.001852,-0.00017364,-1729.8,1.5976
2780,16.257,1.4545,0,0.00017383,1737.1,5.8705e-05,16.061,5.6568e-05,0.0033977,-0.00017356,-1729.1,1.5979
2781,16.257,1.6364,0,0.00017376,1736.4,5.8677e-05,16.006,5.6547e-05,0.0047894,-0.00017348,-1728.4,1.5982
2782,16.257,1.8182,0,0.0001737,1735.8,5.8654e-05,15.967,5.6529e-05,0.0060187,-0.00017342,-1727.8,1.5985
2783,16.257,2,0,0.00017365,1735.3,5.8634e-05,15.941,5.6514e-05,0.0070794,-0.00017337,-1727.3,1.5987
2784,16.257,2.1818,0,0.00017361,1734.9,5.8619e-05,15.924,5.65e-05,0.0079685,-0.00017333,-1726.9,1.5989
2785,16.257,2.3636,0,0.00017357,1734.5,5.8607e-05,15.914,5.649e-05,0.0086801,-0.0001733,-1726.5,1.5991
2786,16.257,2.5455,0,0.00017355,1734.3,5.8598e-05,15.908,5.6482e-05,0.0092164,-0.00017327,-1726.3,1.5992
2787,16.257,2.7273,0,0.00017353,1734.1,5.8592e-05,15.905,5.6477e-05,0.0095731,-0.00017326,-1726.1,1.5993
2788,16.257,2.9091,0,0.00017352,1734,5.859e-05,15.903,5.6474e-05,0.0097527,-0.00017325,-1726,1.5993
2789,16.257,3.0909,0,0.00017352,1734,5.859e-05,15.903,5.6474e-05,0.009752,-0.00017325,-1726,1.5993
2790,16.257,3.2727,0,0.00017353,1734.1,5.8592e-05,15.905,5.6477e-05,0.009573,-0.00017326,-1726.1,1.5993
2791,16.257,3.4545,0,0.00017355,1734.3,5.8598e-05,15.908,5.6482e-05,0.0092157,-0.00017327,-1726.3,1.5992
2792,16.257,3.6364,0,0.00017357,1734.5,5.8607e-05,15.914,5.649e-05,0.008681,-0.0001733,-1726.5,1.5991
2793,16.257,3.8182,0,0.00017361,1734.9,5.8619e-05,15.924,5.65e-05,0.0079664,-0.00017333,-1726.9,1.5989
2794,16.257,4,0,0.00017365,1735.3,5.8634e-05,15.941,5.6514e-05,0.0070801,-0.00017337,-1727.3,1.5987
2795,16.257,4.1818,0,0.0001737,1735.8,5.8654e-05,15.967,5.6529e-05,0.0060187,-0.00017342,-1727.8,1.5985
2796,16.257,4.3636,0,0.00017376,1736.4,5.8677e-05,16.006,5.6547e-05,0.0047892,-0.00017348,-1728.4,1.5982
2797,16.257,4.5455,0,0.00017383,1737.1,5.8705e-05,16.061,5.6568e-05,0.0033956,-0.00017356,-1729.1,1.5979
2798,16.257,4.7273,0,0.00017392,1738,5.8739e-05,16.135,5.6591e-05,0.0018521,-0.00017364,-1729.8,1.5976
2799,16.257,4.9091,0,0.00017401,1738.9,5.8778e-05,16.234,5.6617e-05,0.00014793,-0.00017373,-1730.7,1.5972
2800,16.257,5.0909,0,0.00017411,1739.9,5.8823e-05,16.361,5.6645e-05,-0.0016181,-0.00017383,-1731.7,1.5968
2801,16.257,5.2727,0,0.00017423,1741.1,5.8875e-05,16.522,5.6676e-05,-0.0037831,-0.00017395,-1732.8,1.5963
2802,16.257,5.4545,0,0.00017436,1742.4,5.8936e-05,16.729,5.6709e-05,-0.0048852,-0.00017407,-1734,1.5958
2803,16.257,5.6364,0,0.00017453,1744.1,5.902e-05,17.089,5.6744e-05,-0.012218,-0.00017423,-1735.5,1.5953
2804,16.257,5.8182,0,0.000175,1748.8,5.9373e-05,19.456,5.6784e-05,0.00014518,-0.00017466,-1739,1.5947
2805,16.441,0.18182,0,0.00017051,1703.9,5.792e-05,19.797,5.5285e-05,0.00022221,-0.00017017,-1694,1.6234
2806,16.441,0.36364,0,0.00017003,1699.2,5.7568e-05,17.45,5.5244e-05,-0.01269,-0.00016973,-1690.4,1.624
2807,16.441,0.54545,0,0.00016987,1697.6,5.7489e-05,17.139,5.5207e-05,-0.0050139,-0.00016958,-1688.9,1.6245
2808,16.441,0.72727,0,0.00016975,1696.3,5.7433e-05,16.984,5.5172e-05,-0.0038613,-0.00016945,-1687.7,1.625
2809,16.441,0.90909,0,0.00016963,1695.1,5.7386e-05,16.874,5.514e-05,-0.0016077,-0.00016934,-1686.6,1.6255
2810,16.441,1.0909,0,0.00016953,1694.1,5.7346e-05,16.797,5.511e-05,0.0002231,-0.00016924,-1685.7,1.6259
2811,16.441,1.2727,0,0.00016944,1693.2,5.7312e-05,16.746,5.5083e-05,0.0019806,-0.00016915,-1684.8,1.6263
2812,16.441,1.4545,0,0.00016936,1692.4,5.7283e-05,16.717,5.5059e-05,0.0035672,-0.00016907,-1684,1.6266
2813,16.441,1.6364,0,0.00016929,1691.7,5.726e-05,16.705,5.5037e-05,0.0049924,-0.000169,-1683.3,1.6269
2814,16.441,1.8182,0,0.00016923,1691.2,5.724e-05,16.704,5.5018e-05,0.0062443,-0.00016894,-1682.7,1.6272
2815,16.441,2,0,0.00016918,1690.7,5.7224e-05,16.712,5.5001e-05,0.0073225,-0.00016889,-1682.2,1.6274
2816,16.441,2.1818,0,0.00016914,1690.3,5.7212e-05,16.724,5.4987e-05,0.0082229,-0.00016885,-1681.8,1.6276
2817,16.441,2.3636,0,0.00016911,1689.9,5.7203e-05,16.737,5.4976e-05,0.0089425,-0.00016882,-1681.5,1.6277
2818,16.441,2.5455,0,0.00016909,1689.7,5.7196e-05,16.749,5.4968e-05,0.0094827,-0.0001688,-1681.3,1.6278
2819,16.441,2.7273,0,0.00016907,1689.6,5.7191e-05,16.758,5.4962e-05,0.0098427,-0.00016878,-1681.1,1.6279
2820,16.441,2.9091,0,0.00016906,1689.5,5.7189e-05,16.763,5.496e-05,0.010021,-0.00016877,-1681,1.628
2821,16.441,3.0909,0,0.00016906,1689.5,5.7189e-05,16.763,5.496e-05,0.010022,-0.00016877,-1681,1.628
2822,16.441,3.2727,0,0.00016907,1689.6,5.7191e-05,16.758,5.4962e-05,0.0098424,-0.00016878,-1681.1,1.6279
2823,16.441,3.4545,0,0.00016909,1689.7,5.7196e-05,16.749,5.4968e-05,0.0094828,-0.0001688,-1681.3,1.6278
2824,16.441,3.6364,0,0.00016911,1689.9,5.7203e-05,16.737,5.4976e-05,0.0089421,-0.00016882,-1681.5,1.6277
2825,16.441,3.8182,0,0.00016914,1690.3,5.7212e-05,16.724,5.4987e-05,0.0082228,-0.00016885,-1681.8,1.6276
2826,16.441,4,0,0.00016918,1690.7,5.7224e-05,16.712,5.5001e-05,0.0073236,-0.00016889,-1682.2,1.6274
2827,16.441,4.1818,0,0.00016923,1691.2,5.724e-05,16.705,5.5018e-05,0.0062444,-0.00016894,-1682.7,1.6272
2828,16.441,4.3636,0,0.00016929,1691.7,5.726e-05,16.705,5.5037e-05,0.0049921,-0.000169,-1683.3,1.6269
2829,16.441,4.5455,0,0.00016936,1692.4,5.7283e-05,16.717,5.5059e-05,0.0035669,-0.00016907,-1684,1.6266
2830,16.441,4.7273,0,0.00016944,1693.2,5.7312e-05,16.746,5.5083e-05,0.0019804,-0.00016915,-1684.8,1.6263
2831,16.441,4.9091,0,0.00016953,1694.1,5.7346e-05,16.797,5.511e-05,0.00022009,-0.00016924,-1685.7,1.6259
2832,16.441,5.0909,0,0.00016963,1695.1,5.7386e-05,16.874,5.514e-05,-0.0016093,-0.00016934,-1686.6,1.6255
2833,16.441,5.2727,0,0.00016975,1696.3,5.7433e-05,16.984,5.5172e-05,-0.0038638,-0.00016945,-1687.7,1.625
2834,16.441,5.4545,0,0.00016987,1697.6,5.7489e-05,17.139,5.5207e-05,-0.0050139,-0.00016958,-1688.9,1.6245
2835,16.441,5.6364,0,0.00017003,1699.2,5.7568e-05,17.45,5.5244e-05,-0.012689,-0.00016973,-1690.4,1.624
2836,16.441,5.8182,0,0.00017051,1703.9,5.792e-05,19.797,5.5285e-05,0.00022285,-0.00017017,-1694,1.6234
2837,16.625,0.18182,0,0.00016604,1659.3,5.6474e-05,20.144,5.3793e-05,0.00029911,-0.00016569,-1649.1,1.6523
2838,16.625,0.36364,0,0.00016556,1654.5,5.6123e-05,17.817,5.375e-05,-0.013174,-0.00016525,-1645.5,1.6528
2839,16.625,0.54545,0,0.00016541,1652.9,5.6049e-05,17.558,5.3711e-05,-0.0051448,-0.0001651,-1644.1,1.6534
2840,16.625,0.72727,0,0.00016528,1651.6,5.5999e-05,17.456,5.3675e-05,-0.0039396,-0.00016498,-1642.9,1.6538
2841,16.625,0.90909,0,0.00016517,1650.5,5.5957e-05,17.399,5.3641e-05,-0.001594,-0.00016486,-1641.8,1.6543
2842,16.625,1.0909,0,0.00016507,1649.5,5.5922e-05,17.373,5.361e-05,0.00030158,-0.00016477,-1640.8,1.6547
2843,16.625,1.2727,0,0.00016498,1648.7,5.5893e-05,17.373,5.3581e-05,0.0021161,-0.00016468,-1639.9,1.655
2844,16.625,1.4545,0,0.00016491,1647.9,5.587e-05,17.391,5.3555e-05,0.0037459,-0.0001646,-1639.2,1.6554
2845,16.625,1.6364,0,0.00016484,1647.3,5.585e-05,17.422,5.3532e-05,0.0052039,-0.00016454,-1638.5,1.6557
2846,16.625,1.8182,0,0.00016478,1646.7,5.5835e-05,17.462,5.3512e-05,0.0064833,-0.00016448,-1637.9,1.6559
2847,16.625,2,0,0.00016474,1646.2,5.5823e-05,17.505,5.3495e-05,0.0075817,-0.00016443,-1637.4,1.6561
2848,16.625,2.1818,0,0.0001647,1645.9,5.5814e-05,17.547,5.348e-05,0.0084894,-0.00016439,-1637,1.6563
2849,16.625,2.3636,0,0.00016467,1645.6,5.5807e-05,17.584,5.3468e-05,0.0092181,-0.00016436,-1636.7,1.6565
2850,16.625,2.5455,0,0.00016465,1645.3,5.5803e-05,17.615,5.346e-05,0.0097639,-0.00016434,-1636.5,1.6566
2851,16.625,2.7273,0,0.00016463,1645.2,5.58e-05,17.637,5.3454e-05,0.010125,-0.00016433,-1636.3,1.6567
2852,16.625,2.9091,0,0.00016463,1645.1,5.5798e-05,17.649,5.3451e-05,0.010308,-0.00016432,-1636.2,1.6567
2853,16.625,3.0909,0,0.00016463,1645.1,5.5798e-05,17.649,5.3451e-05,0.010306,-0.00016432,-1636.2,1.6567
2854,16.625,3.2727,0,0.00016463,1645.2,5.58e-05,17.637,5.3454e-05,0.010126,-0.00016433,-1636.3,1.6567
2855,16.625,3.4545,0,0.00016465,1645.3,5.5803e-05,17.615,5.346e-05,0.0097644,-0.00016434,-1636.5,1.6566
2856,16.625,3.6364,0,0.00016467,1645.6,5.5807e-05,17.585,5.3468e-05,0.0092188,-0.00016436,-1636.7,1.6565
2857,16.625,3.8182,0,0.0001647,1645.9,5.5814e-05,17.547,5.348e-05,0.0084906,-0.00016439,-1637,1.6563
2858,16.625,4,0,0.00016474,1646.2,5.5823e-05,17.505,5.3495e-05,0.0075794,-0.00016443,-1637.4,1.6561
2859,16.625,4.1818,0,0.00016478,1646.7,5.5835e-05,17.462,5.3512e-05,0.0064824,-0.00016448,-1637.9,1.6559
2860,16.625,4.3636,0,0.00016484,1647.3,5.585e-05,17.422,5.3532e-05,0.0052048,-0.00016454,-1638.5,1.6557
2861,16.625,4.5455,0,0.00016491,1647.9,5.587e-05,17.391,5.3555e-05,0.0037448,-0.0001646,-1639.2,1.6554
2862,16.625,4.7273,0,0.00016498,1648.7,5.5893e-05,17.373,5.3581e-05,0.0021164,-0.00016468,-1639.9,1.655
2863,16.625,4.9091,0,0.00016507,1649.5,5.5922e-05,17.373,5.361e-05,0.00030103,-0.00016477,-1640.8,1.6547
2864,16.625,5.0909,0,0.00016517,1650.5,5.5957e-05,17.399,5.3641e-05,-0.0015944,-0.00016486,-1641.8,1.6543
2865,16.625,5.2727,0,0.00016528,1651.6,5.5999e-05,17.456,5.3675e-05,-0.0039426,-0.00016498,-1642.9,1.6538
2866,16.625,5.4545,0,0.00016541,1652.9,5.6049e-05,17.558,5.3711e-05,-0.0051462,-0.0001651,-1644.1,1.6534
2867,16.625,5.6364,0,0.00016556,1654.5,5.6123e-05,17.817,5.375e-05,-0.013172,-0.00016525,-1645.5,1.6528
2868,16.625,5.8182,0,0.00016604,1659.3,5.6474e-05,20.144,5.3793e-05,0.00029869,-0.00016569,-1649.1,1.6523
2869,16.81,0.18182,0,0.00016159,1614.8,5.5035e-05,20.497,5.2307e-05,0.0003719,-0.00016123,-1604.5,1.6813
2870,16.81,0.36364,0,0.00016111,1610,5.4685e-05,18.193,5.2262e-05,-0.013674,-0.00016079,-1600.8,1.6818
2871,16.81,0.54545,0,0.00016096,1608.4,5.4616e-05,17.986,5.2222e-05,-0.0052831,-0.00016064,-1599.4,1.6823
2872,16.81,0.72727,0,0.00016083,1607.2,5.4572e-05,17.94,5.2183e-05,-0.0040216,-0.00016052,-1598.2,1.6828
2873,16.81,0.90909,0,0.00016072,1606.1,5.4536e-05,17.938,5.2148e-05,-0.0015782,-0.00016041,-1597.1,1.6832
2874,16.81,1.0909,0,0.00016063,1605.2,5.4506e-05,17.966,5.2115e-05,0.00038477,-0.00016032,-1596.1,1.6836
2875,16.81,1.2727,0,0.00016055,1604.3,5.4483e-05,18.018,5.2085e-05,0.0022572,-0.00016023,-1595.3,1.6839
2876,16.81,1.4545,0,0.00016047,1603.6,5.4465e-05,18.085,5.2058e-05,0.0039334,-0.00016016,-1594.5,1.6843
2877,16.81,1.6364,0,0.00016041,1603,5.445e-05,18.163,5.2034e-05,0.0054274,-0.00016009,-1593.8,1.6846
2878,16.81,1.8182,0,0.00016036,1602.5,5.444e-05,18.244,5.2012e-05,0.0067313,-0.00016004,-1593.3,1.6848
2879,16.81,2,0,0.00016031,1602,5.4432e-05,18.323,5.1994e-05,0.0078448,-0.00015999,-1592.8,1.685
2880,16.81,2.1818,0,0.00016028,1601.7,5.4426e-05,18.397,5.1979e-05,0.0087708,-0.00015996,-1592.4,1.6852
2881,16.81,2.3636,0,0.00016025,1601.4,5.4422e-05,18.461,5.1966e-05,0.0095072,-0.00015993,-1592.1,1.6853
2882,16.81,2.5455,0,0.00016023,1601.2,5.4419e-05,18.512,5.1957e-05,0.010057,-0.00015991,-1591.8,1.6854
2883,16.81,2.7273,0,0.00016022,1601.1,5.4418e-05,18.547,5.1951e-05,0.010424,-0.00015989,-1591.7,1.6855
2884,16.81,2.9091,0,0.00016021,1601,5.4417e-05,18.565,5.1948e-05,0.010606,-0.00015988,-1591.6,1.6856
2885,16.81,3.0909,0,0.00016021,1601,5.4417e-05,18.565,5.1948e-05,0.010605,-0.00015988,-1591.6,1.6856
2886,16.81,3.2727,0,0.00016022,1601.1,5.4418e-05,18.547,5.1951e-05,0.010423,-0.00015989,-1591.7,1.6855
2887,16.81,3.4545,0,0.00016023,1601.2,5.4419e-05,18.512,5.1957e-05,0.010057,-0.00015991,-1591.8,1.6854
2888,16.81,3.6364,0,0.00016025,1601.4,5.4422e-05,18.461,5.1966e-05,0.0095058,-0.00015993,-1592.1,1.6853
2889,16.81,3.8182,0,0.00016028,1601.7,5.4426e-05,18.397,5.1979e-05,0.0087714,-0.00015996,-1592.4,1.6852
2890,16.81,4,0,0.00016031,1602,5.4432e-05,18.323,5.1994e-05,0.007846,-0.00015999,-1592.8,1.685
2891,16.81,4.1818,0,0.00016036,1602.5,5.444e-05,18.244,5.2012e-05,0.0067312,-0.00016004,-1593.3,1.6848
2892,16.81,4.3636,0,0.00016041,1603,5.445e-05,18.163,5.2034e-05,0.0054259,-0.00016009,-1593.8,1.6846
2893,16.81,4.5455,0,0.00016047,1603.6,5.4465e-05,18.085,5.2058e-05,0.0039329,-0.00016016,-1594.5,1.6843
2894,16.81,4.7273,0,0.00016055,1604.3,5.4483e-05,18.018,5.2085e-05,0.002257,-0.00016023,-1595.3,1.6839
2895,16.81,4.9091,0,0.00016063,1605.2,5.4506e-05,17.966,5.2115e-05,0.00038387,-0.00016032,-1596.1,1.6836
2896,16.81,5.0909,0,0.00016072,1606.1,5.4536e-05,17.938,5.2148e-05,-0.0015792,-0.00016041,-1597.1,1.6832
2897,16.81,5.2727,0,0.00016083,1607.2,5.4572e-05,17.94,5.2183e-05,-0.0040229,-0.00016052,-1598.2,1.6828
2898,16.81,5.4545,0,0.00016096,1608.4,5.4616e-05,17.986,5.2222e-05,-0.005282,-0.00016064,-1599.4,1.6823
2899,16.81,5.6364,0,0.00016111,1610,5.4685e-05,18.193,5.2262e-05,-0.013674,-0.00016079,-1600.8,1.6818
2900,16.81,5.8182,0,0.00016159,1614.8,5.5035e-05,20.497,5.2307e-05,0.00037257,-0.00016123,-1604.5,1.6813
2901,16.994,0.18182,0,0.00015716,1570.6,5.3603e-05,20.856,5.0828e-05,0.00044728,-0.0001568,-1560,1.7103
2902,16.994,0.36364,0,0.00015668,1565.7,5.3255e-05,18.577,5.078e-05,-0.014191,-0.00015636,-1556.4,1.7109
2903,16.994,0.54545,0,0.00015653,1564.2,5.3191e-05,18.426,5.0738e-05,-0.0054137,-0.00015621,-1554.9,1.7113
2904,16.994,0.72727,0,0.00015641,1563,5.3152e-05,18.437,5.0698e-05,-0.0040985,-0.00015609,-1553.7,1.7118
2905,16.994,0.90909,0,0.0001563,1561.9,5.3122e-05,18.493,5.0661e-05,-0.0015532,-0.00015598,-1552.6,1.7122
2906,16.994,1.0909,0,0.00015621,1561,5.3099e-05,18.579,5.0626e-05,0.00048074,-0.00015589,-1551.7,1.7126
2907,16.994,1.2727,0,0.00015613,1560.2,5.3081e-05,18.685,5.0595e-05,0.0024151,-0.0001558,-1550.8,1.7129
2908,16.994,1.4545,0,0.00015606,1559.5,5.3068e-05,18.805,5.0566e-05,0.0041366,-0.00015573,-1550,1.7133
2909,16.994,1.6364,0,0.000156,1558.9,5.3059e-05,18.93,5.0541e-05,0.0056662,-0.00015567,-1549.4,1.7135
2910,16.994,1.8182,0,0.00015595,1558.5,5.3053e-05,19.055,5.0518e-05,0.0069995,-0.00015562,-1548.8,1.7138
2911,16.994,2,0,0.00015591,1558,5.305e-05,19.174,5.0499e-05,0.0081337,-0.00015558,-1548.4,1.714
2912,16.994,2.1818,0,0.00015588,1557.7,5.3047e-05,19.281,5.0483e-05,0.0090696,-0.00015554,-1548,1.7142
2913,16.994,2.3636,0,0.00015585,1557.4,5.3046e-05,19.372,5.047e-05,0.0098177,-0.00015551,-1547.7,1.7143
2914,16.994,2.5455,0,0.00015583,1557.3,5.3046e-05,19.443,5.046e-05,0.010374,-0.00015549,-1547.4,1.7144
2915,16.994,2.7273,0,0.00015582,1557.1,5.3046e-05,19.492,5.0453e-05,0.010744,-0.00015548,-1547.3,1.7145
2916,16.994,2.9091,0,0.00015581,1557.1,5.3046e-05,19.518,5.045e-05,0.010928,-0.00015547,-1547.2,1.7145
2917,16.994,3.0909,0,0.00015581,1557.1,5.3046e-05,19.518,5.045e-05,0.010929,-0.00015547,-1547.2,1.7145
2918,16.994,3.2727,0,0.00015582,1557.1,5.3046e-05,19.492,5.0453e-05,0.010744,-0.00015548,-1547.3,1.7145
2919,16.994,3.4545,0,0.00015583,1557.3,5.3046e-05,19.443,5.046e-05,0.010374,-0.00015549,-1547.4,1.7144
2920,16.994,3.6364,0,0.00015585,1557.4,5.3046e-05,19.372,5.047e-05,0.0098185,-0.00015551,-1547.7,1.7143
2921,16.994,3.8182,0,0.00015588,1557.7,5.3048e-05,19.281,5.0483e-05,0.0090697,-0.00015554,-1548,1.7142
2922,16.994,4,0,0.00015591,1558,5.305e-05,19.174,5.0499e-05,0.0081343,-0.00015558,-1548.4,1.714
2923,16.994,4.1818,0,0.00015595,1558.5,5.3053e-05,19.055,5.0518e-05,0.0069976,-0.00015562,-1548.8,1.7138
2924,16.994,4.3636,0,0.000156,1558.9,5.3059e-05,18.93,5.0541e-05,0.0056663,-0.00015567,-1549.4,1.7135
2925,16.994,4.5455,0,0.00015606,1559.5,5.3069e-05,18.805,5.0566e-05,0.0041376,-0.00015573,-1550,1.7133
2926,16.994,4.7273,0,0.00015613,1560.2,5.3081e-05,18.685,5.0595e-05,0.0024139,-0.0001558,-1550.8,1.7129
2927,16.994,4.9091,0,0.00015621,1561,5.3099e-05,18.579,5.0626e-05,0.00048107,-0.00015589,-1551.7,1.7126
2928,16.994,5.0909,0,0.0001563,1561.9,5.3122e-05,18.494,5.0661e-05,-0.0015543,-0.00015598,-1552.6,1.7122
2929,16.994,5.2727,0,0.00015641,1563,5.3152e-05,18.437,5.0698e-05,-0.0040986,-0.00015609,-1553.7,1.7118
2930,16.994,5.4545,0,0.00015653,1564.2,5.3191e-05,18.426,5.0738e-05,-0.0054146,-0.00015621,-1554.9,1.7113
2931,16.994,5.6364,0,0.00015668,1565.7,5.3255e-05,18.577,5.078e-05,-0.014192,-0.00015636,-1556.4,1.7109
2932,16.994,5.8182,0,0.00015716,1570.6,5.3603e-05,20.856,5.0828e-05,0.00044801,-0.0001568,-1560,1.7103
2933,17.178,0.18182,0,0.00015276,1526.5,5.2179e-05,21.224,4.9354e-05,0.0005146,-0.00015238,-1515.8,1.7395
2934,17.178,0.36364,0,0.00015227,1521.6,5.1832e-05,18.971,4.9305e-05,-0.014738,-0.00015194,-1512.1,1.74
2935,17.178,0.54545,0,0.00015212,1520.1,5.1774e-05,18.879,4.926e-05,-0.0055585,-0.00015179,-1510.6,1.7405
2936,17.178,0.72727,0,0.000152,1519,5.1741e-05,18.951,4.9219e-05,-0.0041789,-0.00015167,-1509.4,1.7409
2937,17.178,0.90909,0,0.0001519,1518,5.1718e-05,19.068,4.918e-05,-0.0015287,-0.00015157,-1508.3,1.7413
2938,17.178,1.0909,0,0.00015181,1517.1,5.1701e-05,19.214,4.9143e-05,0.0005805,-0.00015148,-1507.4,1.7417
2939,17.178,1.2727,0,0.00015174,1516.3,5.1689e-05,19.378,4.911e-05,0.0025787,-0.0001514,-1506.5,1.7421
2940,17.178,1.4545,0,0.00015167,1515.7,5.1682e-05,19.553,4.908e-05,0.0043488,-0.00015133,-1505.8,1.7424
2941,17.178,1.6364,0,0.00015162,1515.1,5.1678e-05,19.729,4.9053e-05,0.0059154,-0.00015127,-1505.1,1.7426
2942,17.178,1.8182,0,0.00015157,1514.7,5.1677e-05,19.901,4.903e-05,0.0072773,-0.00015122,-1504.6,1.7429
2943,17.178,2,0,0.00015153,1514.3,5.1678e-05,20.061,4.9009e-05,0.0084311,-0.00015118,-1504.1,1.7431
2944,17.178,2.1818,0,0.0001515,1514,5.168e-05,20.203,4.8992e-05,0.0093848,-0.00015115,-1503.8,1.7432
2945,17.178,2.3636,0,0.00015148,1513.7,5.1682e-05,20.323,4.8978e-05,0.010141,-0.00015112,-1503.5,1.7434
2946,17.178,2.5455,0,0.00015146,1513.6,5.1684e-05,20.417,4.8968e-05,0.010705,-0.0001511,-1503.2,1.7435
2947,17.178,2.7273,0,0.00015145,1513.4,5.1685e-05,20.481,4.8961e-05,0.011079,-0.00015109,-1503.1,1.7436
2948,17.178,2.9091,0,0.00015144,1513.4,5.1686e-05,20.513,4.8958e-05,0.011263,-0.00015108,-1503,1.7436
2949,17.178,3.0909,0,0.00015144,1513.4,5.1686e-05,20.513,4.8958e-05,0.011265,-0.00015108,-1503,1.7436
2950,17.178,3.2727,0,0.00015145,1513.4,5.1685e-05,20.481,4.8961e-05,0.011077,-0.00015109,-1503.1,1.7436
2951,17.178,3.4545,0,0.00015146,1513.6,5.1684e-05,20.417,4.8968e-05,0.010706,-0.0001511,-1503.2,1.7435
2952,17.178,3.6364,0,0.00015148,1513.7,5.1682e-05,20.323,4.8978e-05,0.010141,-0.00015112,-1503.5,1.7434
2953,17.178,3.8182,0,0.0001515,1514,5.168e-05,20.203,4.8992e-05,0.0093858,-0.00015115,-1503.8,1.7432
2954,17.178,4,0,0.00015153,1514.3,5.1678e-05,20.061,4.9009e-05,0.0084299,-0.00015118,-1504.1,1.7431
2955,17.178,4.1818,0,0.00015157,1514.7,5.1677e-05,19.901,4.903e-05,0.0072778,-0.00015122,-1504.6,1.7429
2956,17.178,4.3636,0,0.00015162,1515.1,5.1678e-05,19.729,4.9053e-05,0.0059161,-0.00015127,-1505.1,1.7426
2957,17.178,4.5455,0,0.00015167,1515.7,5.1682e-05,19.553,4.908e-05,0.0043488,-0.00015133,-1505.8,1.7424
2958,17.178,4.7273,0,0.00015174,1516.3,5.1689e-05,19.378,4.911e-05,0.0025782,-0.0001514,-1506.5,1.7421
2959,17.178,4.9091,0,0.00015181,1517.1,5.1701e-05,19.214,4.9143e-05,0.00057963,-0.00015148,-1507.4,1.7417
2960,17.178,5.0909,0,0.0001519,1518,5.1718e-05,19.068,4.918e-05,-0.0015301,-0.00015157,-1508.3,1.7413
2961,17.178,5.2727,0,0.000152,1519,5.1741e-05,18.951,4.9219e-05,-0.0041799,-0.00015167,-1509.4,1.7409
2962,17.178,5.4545,0,0.00015212,1520.1,5.1774e-05,18.879,4.926e-05,-0.0055585,-0.00015179,-1510.6,1.7405
2963,17.178,5.6364,0,0.00015227,1521.6,5.1832e-05,18.971,4.9305e-05,-0.014735,-0.00015194,-1512.1,1.74
2964,17.178,5.8182,0,0.00015276,1526.5,5.2179e-05,21.224,4.9354e-05,0.00051587,-0.00015238,-1515.8,1.7395
2965,17.363,0.18182,0,0.00014837,1482.6,5.0762e-05,21.599,4.7887e-05,0.00056407,-0.00014799,-1471.7,1.7688
2966,17.363,0.36364,0,0.00014788,1477.7,5.0416e-05,19.376,4.7835e-05,-0.015329,-0.00014754,-1468,1.7693
2967,17.363,0.54545,0,0.00014773,1476.3,5.0364e-05,19.346,4.7789e-05,-0.0057235,-0.00014739,-1466.5,1.7698
2968,17.363,0.72727,0,0.00014762,1475.1,5.0338e-05,19.483,4.7745e-05,-0.0042785,-0.00014728,-1465.3,1.7702
2969,17.363,0.90909,0,0.00014752,1474.2,5.0321e-05,19.665,4.7704e-05,-0.0015146,-0.00014718,-1464.2,1.7706
2970,17.363,1.0909,0,0.00014744,1473.3,5.0311e-05,19.875,4.7666e-05,0.00067068,-0.00014709,-1463.3,1.7709
2971,17.363,1.2727,0,0.00014736,1472.6,5.0306e-05,20.1,4.7631e-05,0.0027331,-0.00014701,-1462.5,1.7713
2972,17.363,1.4545,0,0.0001473,1472,5.0305e-05,20.333,4.76e-05,0.004557,-0.00014695,-1461.7,1.7716
2973,17.363,1.6364,0,0.00014725,1471.5,5.0307e-05,20.565,4.7571e-05,0.006164,-0.00014689,-1461.1,1.7718
2974,17.363,1.8182,0,0.00014721,1471.1,5.0312e-05,20.786,4.7546e-05,0.0075535,-0.00014684,-1460.6,1.7721
2975,17.363,2,0,0.00014717,1470.7,5.0317e-05,20.99,4.7525e-05,0.0087321,-0.00014681,-1460.1,1.7723
2976,17.363,2.1818,0,0.00014715,1470.5,5.0323e-05,21.17,4.7507e-05,0.0097007,-0.00014678,-1459.7,1.7724
2977,17.363,2.3636,0,0.00014713,1470.2,5.0329e-05,21.321,4.7492e-05,0.010468,-0.00014675,-1459.5,1.7726
2978,17.363,2.5455,0,0.00014711,1470.1,5.0333e-05,21.438,4.7481e-05,0.011039,-0.00014673,-1459.2,1.7727
2979,17.363,2.7273,0,0.0001471,1470,5.0337e-05,21.518,4.7474e-05,0.011417,-0.00014672,-1459.1,1.7727
2980,17.363,2.9091,0,0.00014709,1469.9,5.0338e-05,21.559,4.7471e-05,0.011603,-0.00014672,-1459,1.7728
2981,17.363,3.0909,0,0.00014709,1469.9,5.0338e-05,21.559,4.7471e-05,0.011604,-0.00014672,-1459,1.7728
2982,17.363,3.2727,0,0.0001471,1470,5.0337e-05,21.518,4.7474e-05,0.011414,-0.00014672,-1459.1,1.7727
2983,17.363,3.4545,0,0.00014711,1470.1,5.0333e-05,21.438,4.7481e-05,0.011039,-0.00014673,-1459.2,1.7727
2984,17.363,3.6364,0,0.00014713,1470.2,5.0329e-05,21.321,4.7492e-05,0.010467,-0.00014675,-1459.5,1.7726
2985,17.363,3.8182,0,0.00014715,1470.5,5.0323e-05,21.17,4.7507e-05,0.0096999,-0.00014678,-1459.7,1.7724
2986,17.363,4,0,0.00014717,1470.7,5.0317e-05,20.99,4.7525e-05,0.0087316,-0.00014681,-1460.1,1.7723
2987,17.363,4.1818,0,0.00014721,1471.1,5.0312e-05,20.786,4.7546e-05,0.0075533,-0.00014684,-1460.6,1.7721
2988,17.363,4.3636,0,0.00014725,1471.5,5.0307e-05,20.565,4.7571e-05,0.0061644,-0.00014689,-1461.1,1.7718
2989,17.363,4.5455,0,0.0001473,1472,5.0305e-05,20.334,4.76e-05,0.004557,-0.00014695,-1461.7,1.7716
2990,17.363,4.7273,0,0.00014736,1472.6,5.0306e-05,20.1,4.7631e-05,0.0027335,-0.00014701,-1462.5,1.7713
2991,17.363,4.9091,0,0.00014744,1473.3,5.0311e-05,19.875,4.7666e-05,0.00067032,-0.00014709,-1463.3,1.7709
2992,17.363,5.0909,0,0.00014752,1474.2,5.0321e-05,19.665,4.7704e-05,-0.0015188,-0.00014718,-1464.2,1.7706
2993,17.363,5.2727,0,0.00014762,1475.1,5.0339e-05,19.483,4.7745e-05,-0.0042805,-0.00014728,-1465.3,1.7702
2994,17.363,5.4545,0,0.00014773,1476.3,5.0364e-05,19.346,4.7789e-05,-0.0057248,-0.00014739,-1466.5,1.7698
2995,17.363,5.6364,0,0.00014788,1477.7,5.0416e-05,19.376,4.7835e-05,-0.015327,-0.00014754,-1468,1.7693
2996,17.363,5.8182,0,0.00014837,1482.6,5.0762e-05,21.599,4.7887e-05,0.00056535,-0.00014799,-1471.7,1.7688
2997,17.547,0.18182,0,0.000144,1439,4.9351e-05,21.982,4.6426e-05,0.00062373,-0.00014361,-1427.8,1.7982
2998,17.547,0.36364,0,0.0001435,1434.1,4.9008e-05,19.793,4.6371e-05,-0.015934,-0.00014316,-1424.1,1.7987
2999,17.547,0.54545,0,0.00014336,1432.6,4.8963e-05,19.83,4.6323e-05,-0.0058812,-0.00014301,-1422.6,1.7991
3000,17.547,0.72727,0,0.00014325,1431.5,4.8944e-05,20.036,4.6277e-05,-0.0043636,-0.0001429,-1421.4,1.7995
3001,17.547,0.90909,0,0.00014316,1430.6,4.8934e-05,20.287,4.6234e-05,-0.0014833,-0.0001428,-1420.4,1.7999
3002,17.547,1.0909,0,0.00014308,1429.8,4.8931e-05,20.564,4.6194e-05,0.00078491,-0.00014272,-1419.4,1.8003
3003,17.547,1.2727,0,0.00014301,1429.1,4.8933e-05,20.856,4.6158e-05,0.0029178,-0.00014265,-1418.6,1.8006
3004,17.547,1.4545,0,0.00014296,1428.6,4.8939e-05,21.152,4.6124e-05,0.0047945,-0.00014258,-1417.9,1.8009
3005,17.547,1.6364,0,0.00014291,1428.1,4.8947e-05,21.441,4.6095e-05,0.0064448,-0.00014253,-1417.3,1.8011
3006,17.547,1.8182,0,0.00014287,1427.7,4.8957e-05,21.716,4.6068e-05,0.0078662,-0.00014249,-1416.7,1.8014
3007,17.547,2,0,0.00014284,1427.4,4.8968e-05,21.967,4.6046e-05,0.0090664,-0.00014245,-1416.3,1.8016
3008,17.547,2.1818,0,0.00014282,1427.2,4.8978e-05,22.188,4.6027e-05,0.010052,-0.00014242,-1415.9,1.8017
3009,17.547,2.3636,0,0.0001428,1427,4.8987e-05,22.371,4.6011e-05,0.010831,-0.0001424,-1415.7,1.8018
3010,17.547,2.5455,0,0.00014278,1426.8,4.8995e-05,22.514,4.6e-05,0.011408,-0.00014239,-1415.5,1.8019
3011,17.547,2.7273,0,0.00014277,1426.8,4.9e-05,22.611,4.5992e-05,0.011791,-0.00014238,-1415.3,1.802
3012,17.547,2.9091,0,0.00014277,1426.7,4.9003e-05,22.66,4.5988e-05,0.011981,-0.00014237,-1415.2,1.802
3013,17.547,3.0909,0,0.00014277,1426.7,4.9003e-05,22.66,4.5988e-05,0.011981,-0.00014237,-1415.2,1.802
3014,17.547,3.2727,0,0.00014277,1426.8,4.9e-05,22.611,4.5992e-05,0.011791,-0.00014238,-1415.3,1.802
3015,17.547,3.4545,0,0.00014278,1426.8,4.8995e-05,22.514,4.6e-05,0.011408,-0.00014239,-1415.5,1.8019
3016,17.547,3.6364,0,0.0001428,1427,4.8987e-05,22.371,4.6011e-05,0.010831,-0.0001424,-1415.7,1.8018
3017,17.547,3.8182,0,0.00014282,1427.2,4.8978e-05,22.188,4.6027e-05,0.010053,-0.00014242,-1415.9,1.8017
3018,17.547,4,0,0.00014284,1427.4,4.8968e-05,21.967,4.6046e-05,0.0090659,-0.00014245,-1416.3,1.8016
3019,17.547,4.1818,0,0.00014287,1427.7,4.8957e-05,21.716,4.6068e-05,0.0078641,-0.00014249,-1416.7,1.8014
3020,17.547,4.3636,0,0.00014291,1428.1,4.8947e-05,21.442,4.6095e-05,0.006445,-0.00014253,-1417.3,1.8011
3021,17.547,4.5455,0,0.00014296,1428.6,4.8939e-05,21.152,4.6124e-05,0.0047945,-0.00014258,-1417.9,1.8009
3022,17.547,4.7273,0,0.00014301,1429.1,4.8933e-05,20.856,4.6158e-05,0.0029183,-0.00014265,-1418.6,1.8006
3023,17.547,4.9091,0,0.00014308,1429.8,4.8931e-05,20.564,4.6194e-05,0.00078539,-0.00014272,-1419.4,1.8003
3024,17.547,5.0909,0,0.00014316,1430.6,4.8934e-05,20.287,4.6234e-05,-0.0014854,-0.0001428,-1420.4,1.7999
3025,17.547,5.2727,0,0.00014325,1431.5,4.8944e-05,20.036,4.6277e-05,-0.0043663,-0.0001429,-1421.4,1.7995
3026,17.547,5.4545,0,0.00014336,1432.6,4.8963e-05,19.83,4.6323e-05,-0.0058808,-0.00014301,-1422.6,1.7991
3027,17.547,5.6364,0,0.0001435,1434.1,4.9008e-05,19.793,4.6371e-05,-0.015936,-0.00014316,-1424.1,1.7987
3028,17.547,5.8182,0,0.000144,1439,4.9351e-05,21.982,4.6426e-05,0.00062582,-0.00014361,-1427.8,1.7982
3029,17.732,0.18182,0,0.00013965,1395.5,4.7948e-05,22.374,4.497e-05,0.00068464,-0.00013925,-1384.2,1.8277
3030,17.732,0.36364,0,0.00013915,1390.6,4.7607e-05,20.223,4.4914e-05,-0.016578,-0.0001388,-1380.4,1.8281
3031,17.732,0.54545,0,0.00013901,1389.2,4.7569e-05,20.331,4.4863e-05,-0.0060444,-0.00013866,-1378.9,1.8286
3032,17.732,0.72727,0,0.00013891,1388.1,4.7558e-05,20.611,4.4815e-05,-0.0044483,-0.00013855,-1377.7,1.829
3033,17.732,0.90909,0,0.00013882,1387.2,4.7556e-05,20.936,4.4769e-05,-0.0014443,-0.00013845,-1376.7,1.8293
3034,17.732,1.0909,0,0.00013875,1386.5,4.7561e-05,21.287,4.4728e-05,0.00091325,-0.00013837,-1375.7,1.8297
3035,17.732,1.2727,0,0.00013868,1385.9,4.757e-05,21.649,4.4689e-05,0.0031202,-0.0001383,-1374.9,1.83
3036,17.732,1.4545,0,0.00013863,1385.4,4.7583e-05,22.012,4.4654e-05,0.0050529,-0.00013824,-1374.2,1.8303
3037,17.732,1.6364,0,0.00013859,1384.9,4.7599e-05,22.365,4.4623e-05,0.0067467,-0.0001382,-1373.6,1.8305
3038,17.732,1.8182,0,0.00013856,1384.6,4.7615e-05,22.696,4.4595e-05,0.0082002,-0.00013816,-1373.1,1.8307
3039,17.732,2,0,0.00013853,1384.3,4.7631e-05,22.998,4.4571e-05,0.0094239,-0.00013812,-1372.7,1.8309
3040,17.732,2.1818,0,0.00013851,1384.1,4.7646e-05,23.262,4.4551e-05,0.010429,-0.0001381,-1372.3,1.8311
3041,17.732,2.3636,0,0.00013849,1384,4.7659e-05,23.481,4.4535e-05,0.011219,-0.00013808,-1372.1,1.8312
3042,17.732,2.5455,0,0.00013848,1383.9,4.7669e-05,23.651,4.4523e-05,0.011806,-0.00013806,-1371.9,1.8313
3043,17.732,2.7273,0,0.00013847,1383.8,4.7676e-05,23.766,4.4515e-05,0.012192,-0.00013805,-1371.7,1.8314
3044,17.732,2.9091,0,0.00013847,1383.7,4.768e-05,23.825,4.4511e-05,0.012385,-0.00013805,-1371.7,1.8314
3045,17.732,3.0909,0,0.00013847,1383.7,4.768e-05,23.825,4.4511e-05,0.012384,-0.00013805,-1371.7,1.8314
3046,17.732,3.2727,0,0.00013847,1383.8,4.7676e-05,23.766,4.4515e-05,0.012193,-0.00013805,-1371.7,1.8314
3047,17.732,3.4545,0,0.00013848,1383.9,4.7669e-05,23.651,4.4523e-05,0.011804,-0.00013806,-1371.9,1.8313
3048,17.732,3.6364,0,0.00013849,1384,4.7659e-05,23.481,4.4535e-05,0.01122,-0.00013808,-1372.1,1.8312
3049,17.732,3.8182,0,0.00013851,1384.1,4.7646e-05,23.262,4.4551e-05,0.010427,-0.0001381,-1372.3,1.8311
3050,17.732,4,0,0.00013853,1384.3,4.7631e-05,22.998,4.4571e-05,0.0094251,-0.00013812,-1372.7,1.8309
3051,17.732,4.1818,0,0.00013856,1384.6,4.7615e-05,22.696,4.4595e-05,0.0081999,-0.00013816,-1373.1,1.8307
3052,17.732,4.3636,0,0.00013859,1384.9,4.7599e-05,22.365,4.4623e-05,0.0067464,-0.0001382,-1373.6,1.8305
3053,17.732,4.5455,0,0.00013863,1385.4,4.7583e-05,22.012,4.4654e-05,0.0050537,-0.00013824,-1374.2,1.8303
3054,17.732,4.7273,0,0.00013868,1385.9,4.757e-05,21.649,4.4689e-05,0.003119,-0.0001383,-1374.9,1.83
3055,17.732,4.9091,0,0.00013875,1386.5,4.7561e-05,21.287,4.4728e-05,0.00091205,-0.00013837,-1375.7,1.8297
3056,17.732,5.0909,0,0.00013882,1387.2,4.7556e-05,20.936,4.4769e-05,-0.0014442,-0.00013845,-1376.7,1.8293
3057,17.732,5.2727,0,0.00013891,1388.1,4.7558e-05,20.611,4.4815e-05,-0.0044525,-0.00013855,-1377.7,1.829
3058,17.732,5.4545,0,0.00013901,1389.2,4.757e-05,20.331,4.4863e-05,-0.0060442,-0.00013866,-1378.9,1.8286
3059,17.732,5.6364,0,0.00013915,1390.6,4.7607e-05,20.223,4.4914e-05,-0.016574,-0.0001388,-1380.4,1.8281
3060,17.732,5.8182,0,0.00013965,1395.5,4.7948e-05,22.374,4.497e-05,0.00068147,-0.00013925,-1384.2,1.8277
3061,17.916,0.18182,0,0.00013531,1352.2,4.6552e-05,22.775,4.3521e-05,0.00072712,-0.00013491,-1340.7,1.8572
3062,17.916,0.36364,0,0.00013482,1347.3,4.6215e-05,20.667,4.3462e-05,-0.017265,-0.00013446,-1336.8,1.8577
3063,17.916,0.54545,0,0.00013468,1345.9,4.6184e-05,20.851,4.3408e-05,-0.0062257,-0.00013432,-1335.4,1.8581
3064,17.916,0.72727,0,0.00013458,1344.9,4.6181e-05,21.21,4.3358e-05,-0.0045463,-0.00013421,-1334.2,1.8585
3065,17.916,0.90909,0,0.0001345,1344.1,4.6187e-05,21.616,4.331e-05,-0.0014043,-0.00013412,-1333.2,1.8589
3066,17.916,1.0909,0,0.00013443,1343.4,4.62e-05,22.045,4.3266e-05,0.0010438,-0.00013404,-1332.2,1.8592
3067,17.916,1.2727,0,0.00013438,1342.8,4.6218e-05,22.484,4.3226e-05,0.0033311,-0.00013398,-1331.4,1.8595
3068,17.916,1.4545,0,0.00013433,1342.4,4.6239e-05,22.92,4.3189e-05,0.0053193,-0.00013393,-1330.8,1.8598
3069,17.916,1.6364,0,0.00013429,1342,4.6261e-05,23.339,4.3156e-05,0.0070611,-0.00013388,-1330.2,1.86
3070,17.916,1.8182,0,0.00013426,1341.7,4.6284e-05,23.733,4.3127e-05,0.0085489,-0.00013384,-1329.7,1.8602
3071,17.916,2,0,0.00013424,1341.5,4.6307e-05,24.089,4.3102e-05,0.0098,-0.00013381,-1329.3,1.8604
3072,17.916,2.1818,0,0.00013422,1341.3,4.6327e-05,24.4,4.3081e-05,0.010818,-0.00013379,-1328.9,1.8606
3073,17.916,2.3636,0,0.00013421,1341.2,4.6344e-05,24.658,4.3064e-05,0.011624,-0.00013377,-1328.7,1.8607
3074,17.916,2.5455,0,0.0001342,1341.1,4.6357e-05,24.856,4.3051e-05,0.01222,-0.00013376,-1328.5,1.8608
3075,17.916,2.7273,0,0.0001342,1341,4.6367e-05,24.992,4.3042e-05,0.012615,-0.00013375,-1328.4,1.8608
3076,17.916,2.9091,0,0.00013419,1341,4.6372e-05,25.06,4.3038e-05,0.012808,-0.00013375,-1328.3,1.8609
3077,17.916,3.0909,0,0.00013419,1341,4.6372e-05,25.06,4.3038e-05,0.012808,-0.00013375,-1328.3,1.8609
3078,17.916,3.2727,0,0.0001342,1341,4.6367e-05,24.992,4.3042e-05,0.012612,-0.00013375,-1328.4,1.8608
3079,17.916,3.4545,0,0.0001342,1341.1,4.6357e-05,24.856,4.3051e-05,0.012221,-0.00013376,-1328.5,1.8608
3080,17.916,3.6364,0,0.00013421,1341.2,4.6344e-05,24.658,4.3064e-05,0.011624,-0.00013377,-1328.7,1.8607
3081,17.916,3.8182,0,0.00013422,1341.3,4.6327e-05,24.4,4.3081e-05,0.01082,-0.00013379,-1328.9,1.8606
3082,17.916,4,0,0.00013424,1341.5,4.6307e-05,24.089,4.3102e-05,0.0097982,-0.00013381,-1329.3,1.8604
3083,17.916,4.1818,0,0.00013426,1341.7,4.6284e-05,23.733,4.3127e-05,0.0085481,-0.00013384,-1329.7,1.8602
3084,17.916,4.3636,0,0.00013429,1342,4.6261e-05,23.34,4.3156e-05,0.00706,-0.00013388,-1330.2,1.86
3085,17.916,4.5455,0,0.00013433,1342.4,4.6239e-05,22.92,4.3189e-05,0.0053214,-0.00013393,-1330.8,1.8598
3086,17.916,4.7273,0,0.00013438,1342.8,4.6218e-05,22.484,4.3226e-05,0.0033278,-0.00013398,-1331.4,1.8595
3087,17.916,4.9091,0,0.00013443,1343.4,4.62e-05,22.045,4.3266e-05,0.001045,-0.00013404,-1332.2,1.8592
3088,17.916,5.0909,0,0.0001345,1344.1,4.6187e-05,21.616,4.331e-05,-0.0014072,-0.00013412,-1333.2,1.8589
3089,17.916,5.2727,0,0.00013458,1344.9,4.6181e-05,21.21,4.3358e-05,-0.004545,-0.00013421,-1334.2,1.8585
3090,17.916,5.4545,0,0.00013468,1345.9,4.6184e-05,20.851,4.3408e-05,-0.006223,-0.00013432,-1335.4,1.8581
3091,17.916,5.6364,0,0.00013482,1347.3,4.6215e-05,20.667,4.3462e-05,-0.017265,-0.00013446,-1336.8,1.8577
3092,17.916,5.8182,0,0.00013531,1352.2,4.6552e-05,22.775,4.3521e-05,0.00072428,-0.00013491,-1340.7,1.8572
3093,18.1,0.18182,0,0.000131,1309.1,4.5163e-05,23.185,4.2078e-05,0.00075976,-0.00013059,-1297.4,1.8869
3094,18.1,0.36364,0,0.00013051,1304.2,4.4829e-05,21.126,4.2015e-05,-0.017998,-0.00013014,-1293.5,1.8873
3095,18.1,0.54545,0,0.00013038,1302.9,4.4807e-05,21.392,4.1959e-05,-0.0064081,-0.00013,-1292,1.8877
3096,18.1,0.72727,0,0.00013028,1301.9,4.4813e-05,21.837,4.1906e-05,-0.0046412,-0.0001299,-1290.9,1.8881
3097,18.1,0.90909,0,0.0001302,1301.1,4.4828e-05,22.329,4.1856e-05,-0.0013575,-0.00012981,-1289.8,1.8885
3098,18.1,1.0909,0,0.00013014,1300.5,4.485e-05,22.844,4.181e-05,0.0011907,-0.00012974,-1288.9,1.8888
3099,18.1,1.2727,0,0.00013009,1300,4.4877e-05,23.365,4.1768e-05,0.0035566,-0.00012968,-1288.2,1.8891
3100,18.1,1.4545,0,0.00013005,1299.6,4.4906e-05,23.879,4.1729e-05,0.005612,-0.00012963,-1287.5,1.8894
3101,18.1,1.6364,0,0.00013002,1299.3,4.4937e-05,24.372,4.1694e-05,0.0073994,-0.00012959,-1286.9,1.8896
3102,18.1,1.8182,0,0.00013,1299.1,4.4967e-05,24.832,4.1663e-05,0.008925,-0.00012955,-1286.5,1.8898
3103,18.1,2,0,0.00012998,1298.9,4.4996e-05,25.247,4.1637e-05,0.010201,-0.00012953,-1286.1,1.89
3104,18.1,2.1818,0,0.00012996,1298.7,4.5021e-05,25.609,4.1614e-05,0.011243,-0.00012951,-1285.7,1.8901
3105,18.1,2.3636,0,0.00012996,1298.7,4.5043e-05,25.908,4.1597e-05,0.01206,-0.0001295,-1285.5,1.8902
3106,18.1,2.5455,0,0.00012995,1298.6,4.506e-05,26.138,4.1583e-05,0.012667,-0.00012948,-1285.3,1.8903
3107,18.1,2.7273,0,0.00012995,1298.6,4.5072e-05,26.295,4.1574e-05,0.013063,-0.00012948,-1285.2,1.8904
3108,18.1,2.9091,0,0.00012994,1298.5,4.5078e-05,26.374,4.1569e-05,0.013263,-0.00012947,-1285.1,1.8904
3109,18.1,3.0909,0,0.00012994,1298.5,4.5078e-05,26.374,4.1569e-05,0.013261,-0.00012947,-1285.1,1.8904
3110,18.1,3.2727,0,0.00012995,1298.6,4.5072e-05,26.295,4.1574e-05,0.013064,-0.00012948,-1285.2,1.8904
3111,18.1,3.4545,0,0.00012995,1298.6,4.506e-05,26.138,4.1583e-05,0.012666,-0.00012948,-1285.3,1.8903
3112,18.1,3.6364,0,0.00012996,1298.7,4.5043e-05,25.908,4.1597e-05,0.012061,-0.0001295,-1285.5,1.8902
3113,18.1,3.8182,0,0.00012996,1298.7,4.5021e-05,25.609,4.1614e-05,0.011244,-0.00012951,-1285.7,1.8901
3114,18.1,4,0,0.00012998,1298.9,4.4996e-05,25.247,4.1637e-05,0.010202,-0.00012953,-1286.1,1.89
3115,18.1,4.1818,0,0.00013,1299.1,4.4967e-05,24.832,4.1663e-05,0.0089247,-0.00012955,-1286.5,1.8898
3116,18.1,4.3636,0,0.00013002,1299.3,4.4937e-05,24.372,4.1694e-05,0.0074003,-0.00012959,-1286.9,1.8896
3117,18.1,4.5455,0,0.00013005,1299.6,4.4906e-05,23.879,4.1729e-05,0.0056113,-0.00012963,-1287.5,1.8894
3118,18.1,4.7273,0,0.00013009,1300,4.4877e-05,23.365,4.1768e-05,0.0035567,-0.00012968,-1288.2,1.8891
3119,18.1,4.9091,0,0.00013014,1300.5,4.485e-05,22.844,4.181e-05,0.0011894,-0.00012974,-1288.9,1.8888
3120,18.1,5.0909,0,0.0001302,1301.1,4.4829e-05,22.329,4.1856e-05,-0.0013603,-0.00012981,-1289.8,1.8885
3121,18.1,5.2727,0,0.00013028,1301.9,4.4813e-05,21.838,4.1906e-05,-0.0046426,-0.0001299,-1290.9,1.8881
3122,18.1,5.4545,0,0.00013038,1302.9,4.4807e-05,21.392,4.1959e-05,-0.0064082,-0.00013,-1292,1.8877
3123,18.1,5.6364,0,0.00013051,1304.2,4.4829e-05,21.126,4.2015e-05,-0.017998,-0.00013014,-1293.5,1.8873
3124,18.1,5.8182,0,0.000131,1309.1,4.5163e-05,23.185,4.2078e-05,0.00076124,-0.00013059,-1297.4,1.8869
3125,18.285,0.18182,0,0.00012671,1266.2,4.3781e-05,23.605,4.064e-05,0.00078159,-0.00012629,-1254.3,1.9166
3126,18.285,0.36364,0,0.00012621,1261.3,4.3452e-05,21.6,4.0575e-05,-0.018784,-0.00012583,-1250.3,1.9171
3127,18.285,0.54545,0,0.00012609,1260,4.3439e-05,21.956,4.0516e-05,-0.0066071,-0.0001257,-1248.9,1.9175
3128,18.285,0.72727,0,0.000126,1259.1,4.3454e-05,22.494,4.046e-05,-0.0047401,-0.0001256,-1247.7,1.9178
3129,18.285,0.90909,0,0.00012593,1258.4,4.348e-05,23.08,4.0408e-05,-0.0013058,-0.00012552,-1246.7,1.9182
3130,18.285,1.0909,0,0.00012587,1257.8,4.3511e-05,23.686,4.0359e-05,0.0013475,-0.00012545,-1245.8,1.9185
3131,18.285,1.2727,0,0.00012583,1257.4,4.3547e-05,24.297,4.0314e-05,0.0038013,-0.0001254,-1245.1,1.9188
3132,18.285,1.4545,0,0.00012579,1257.1,4.3586e-05,24.895,4.0273e-05,0.0059228,-0.00012535,-1244.4,1.919
3133,18.285,1.6364,0,0.00012577,1256.8,4.3625e-05,25.468,4.0237e-05,0.0077611,-0.00012532,-1243.9,1.9193
3134,18.285,1.8182,0,0.00012575,1256.6,4.3663e-05,26,4.0204e-05,0.0093257,-0.00012529,-1243.4,1.9195
3135,18.285,2,0,0.00012574,1256.5,4.3699e-05,26.479,4.0176e-05,0.01063,-0.00012527,-1243.1,1.9196
3136,18.285,2.1818,0,0.00012573,1256.4,4.3731e-05,26.896,4.0153e-05,0.011693,-0.00012525,-1242.8,1.9198
3137,18.285,2.3636,0,0.00012572,1256.4,4.3757e-05,27.24,4.0134e-05,0.012523,-0.00012524,-1242.5,1.9199
3138,18.285,2.5455,0,0.00012572,1256.3,4.3778e-05,27.505,4.0119e-05,0.01314,-0.00012523,-1242.4,1.92
3139,18.285,2.7273,0,0.00012572,1256.3,4.3792e-05,27.684,4.011e-05,0.013545,-0.00012523,-1242.3,1.92
3140,18.285,2.9091,0,0.00012572,1256.3,4.38e-05,27.775,4.0105e-05,0.013744,-0.00012522,-1242.2,1.9201
3141,18.285,3.0909,0,0.00012572,1256.3,4.38e-05,27.775,4.0105e-05,0.013746,-0.00012522,-1242.2,1.9201
3142,18.285,3.2727,0,0.00012572,1256.3,4.3792e-05,27.684,4.011e-05,0.013542,-0.00012523,-1242.3,1.92
3143,18.285,3.4545,0,0.00012572,1256.3,4.3778e-05,27.505,4.0119e-05,0.013139,-0.00012523,-1242.4,1.92
3144,18.285,3.6364,0,0.00012572,1256.4,4.3757e-05,27.24,4.0134e-05,0.012525,-0.00012524,-1242.5,1.9199
3145,18.285,3.8182,0,0.00012573,1256.4,4.3731e-05,26.896,4.0153e-05,0.011693,-0.00012525,-1242.8,1.9198
3146,18.285,4,0,0.00012574,1256.5,4.3699e-05,26.479,4.0176e-05,0.010629,-0.00012527,-1243.1,1.9196
3147,18.285,4.1818,0,0.00012575,1256.6,4.3663e-05,26,4.0204e-05,0.0093248,-0.00012529,-1243.4,1.9195
3148,18.285,4.3636,0,0.00012577,1256.8,4.3625e-05,25.468,4.0237e-05,0.0077608,-0.00012532,-1243.9,1.9193
3149,18.285,4.5455,0,0.00012579,1257.1,4.3586e-05,24.895,4.0273e-05,0.0059225,-0.00012535,-1244.4,1.919
3150,18.285,4.7273,0,0.00012583,1257.4,4.3547e-05,24.297,4.0314e-05,0.0038,-0.0001254,-1245.1,1.9188
3151,18.285,4.9091,0,0.00012587,1257.8,4.3511e-05,23.686,4.0359e-05,0.0013463,-0.00012545,-1245.8,1.9185
3152,18.285,5.0909,0,0.00012593,1258.4,4.348e-05,23.08,4.0408e-05,-0.0013081,-0.00012552,-1246.7,1.9182
3153,18.285,5.2727,0,0.000126,1259.1,4.3454e-05,22.494,4.046e-05,-0.0047423,-0.0001256,-1247.7,1.9178
3154,18.285,5.4545,0,0.00012609,1260,4.3439e-05,21.956,4.0516e-05,-0.0066087,-0.0001257,-1248.9,1.9175
3155,18.285,5.6364,0,0.00012621,1261.3,4.3452e-05,21.6,4.0575e-05,-0.018784,-0.00012583,-1250.3,1.9171
3156,18.285,5.8182,0,0.00012671,1266.2,4.3781e-05,23.605,4.064e-05,0.00078393,-0.00012629,-1254.3,1.9166
3157,18.469,0.18182,0,0.00012244,1223.5,4.2407e-05,24.034,3.9208e-05,0.00079787,-0.00012201,-1211.3,1.9465
3158,18.469,0.36364,0,0.00012194,1218.6,4.2082e-05,22.091,3.9139e-05,-0.019624,-0.00012155,-1207.4,1.9469
3159,18.469,0.54545,0,0.00012182,1217.3,4.2079e-05,22.544,3.9078e-05,-0.0068131,-0.00012142,-1205.9,1.9473
3160,18.469,0.72727,0,0.00012174,1216.5,4.2105e-05,23.183,3.9019e-05,-0.0048397,-0.00012133,-1204.8,1.9476
3161,18.469,0.90909,0,0.00012167,1215.9,4.2141e-05,23.87,3.8964e-05,-0.0012398,-0.00012125,-1203.8,1.9479
3162,18.469,1.0909,0,0.00012162,1215.4,4.2183e-05,24.576,3.8912e-05,0.0015247,-0.00012119,-1202.9,1.9483
3163,18.469,1.2727,0,0.00012159,1215,4.223e-05,25.284,3.8865e-05,0.0040713,-0.00012114,-1202.2,1.9485
3164,18.469,1.4545,0,0.00012156,1214.8,4.2278e-05,25.975,3.8822e-05,0.0062649,-0.0001211,-1201.6,1.9488
3165,18.469,1.6364,0,0.00012154,1214.6,4.2327e-05,26.633,3.8783e-05,0.0081554,-0.00012107,-1201,1.949
3166,18.469,1.8182,0,0.00012153,1214.5,4.2374e-05,27.244,3.8749e-05,0.0097612,-0.00012104,-1200.6,1.9492
3167,18.469,2,0,0.00012152,1214.4,4.2417e-05,27.793,3.8719e-05,0.011096,-0.00012103,-1200.3,1.9494
3168,18.469,2.1818,0,0.00012152,1214.4,4.2455e-05,28.269,3.8695e-05,0.012179,-0.00012102,-1200,1.9495
3169,18.469,2.3636,0,0.00012152,1214.4,4.2487e-05,28.662,3.8675e-05,0.013028,-0.00012101,-1199.8,1.9496
3170,18.469,2.5455,0,0.00012152,1214.4,4.2512e-05,28.964,3.8659e-05,0.013651,-0.000121,-1199.6,1.9497
3171,18.469,2.7273,0,0.00012152,1214.4,4.253e-05,29.169,3.8649e-05,0.014065,-0.000121,-1199.5,1.9498
3172,18.469,2.9091,0,0.00012152,1214.4,4.2538e-05,29.272,3.8644e-05,0.014268,-0.000121,-1199.5,1.9498
3173,18.469,3.0909,0,0.00012152,1214.4,4.2538e-05,29.272,3.8644e-05,0.014267,-0.000121,-1199.5,1.9498
3174,18.469,3.2727,0,0.00012152,1214.4,4.253e-05,29.169,3.8649e-05,0.014064,-0.000121,-1199.5,1.9498
3175,18.469,3.4545,0,0.00012152,1214.4,4.2512e-05,28.964,3.8659e-05,0.013654,-0.000121,-1199.6,1.9497
3176,18.469,3.6364,0,0.00012152,1214.4,4.2487e-05,28.662,3.8675e-05,0.013027,-0.00012101,-1199.8,1.9496
3177,18.469,3.8182,0,0.00012152,1214.4,4.2455e-05,28.269,3.8695e-05,0.01218,-0.00012102,-1200,1.9495
3178,18.469,4,0,0.00012152,1214.4,4.2417e-05,27.793,3.8719e-05,0.011097,-0.00012103,-1200.3,1.9494
3179,18.469,4.1818,0,0.00012153,1214.5,4.2374e-05,27.244,3.8749e-05,0.009761,-0.00012104,-1200.6,1.9492
3180,18.469,4.3636,0,0.00012154,1214.6,4.2327e-05,26.633,3.8783e-05,0.0081569,-0.00012107,-1201,1.949
3181,18.469,4.5455,0,0.00012156,1214.8,4.2278e-05,25.975,3.8822e-05,0.0062638,-0.0001211,-1201.6,1.9488
3182,18.469,4.7273,0,0.00012159,1215,4.223e-05,25.284,3.8865e-05,0.004072,-0.00012114,-1202.2,1.9485
3183,18.469,4.9091,0,0.00012162,1215.4,4.2183e-05,24.576,3.8912e-05,0.0015254,-0.00012119,-1202.9,1.9483
3184,18.469,5.0909,0,0.00012167,1215.9,4.2141e-05,23.87,3.8964e-05,-0.0012402,-0.00012125,-1203.8,1.9479
3185,18.469,5.2727,0,0.00012174,1216.5,4.2105e-05,23.183,3.9019e-05,-0.0048415,-0.00012133,-1204.8,1.9476
3186,18.469,5.4545,0,0.00012182,1217.3,4.2079e-05,22.544,3.9078e-05,-0.0068134,-0.00012142,-1205.9,1.9473
3187,18.469,5.6364,0,0.00012194,1218.6,4.2082e-05,22.091,3.9139e-05,-0.01962,-0.00012155,-1207.4,1.9469
3188,18.469,5.8182,0,0.00012244,1223.5,4.2407e-05,24.034,3.9208e-05,0.00079811,-0.00012201,-1211.3,1.9465
3189,18.653,0.18182,0,0.00011818,1181,4.1039e-05,24.474,3.7781e-05,0.00079224,-0.00011775,-1168.6,1.9764
3190,18.653,0.36364,0,0.00011768,1176,4.072e-05,22.6,3.7709e-05,-0.020526,-0.00011728,-1164.6,1.9768
3191,18.653,0.54545,0,0.00011757,1174.9,4.0728e-05,23.159,3.7645e-05,-0.0070351,-0.00011716,-1163.1,1.9771
3192,18.653,0.72727,0,0.00011749,1174.1,4.0765e-05,23.907,3.7583e-05,-0.0049461,-0.00011707,-1162,1.9775
3193,18.653,0.90909,0,0.00011744,1173.6,4.0813e-05,24.704,3.7525e-05,-0.0011682,-0.000117,-1161,1.9778
3194,18.653,1.0909,0,0.0001174,1173.2,4.0867e-05,25.519,3.7471e-05,0.0017204,-0.00011694,-1160.2,1.9781
3195,18.653,1.2727,0,0.00011737,1172.9,4.0925e-05,26.332,3.7421e-05,0.0043614,-0.0001169,-1159.5,1.9784
3196,18.653,1.4545,0,0.00011735,1172.7,4.0984e-05,27.124,3.7375e-05,0.006633,-0.00011687,-1158.9,1.9786
3197,18.653,1.6364,0,0.00011734,1172.6,4.1043e-05,27.875,3.7334e-05,0.0085789,-0.00011684,-1158.4,1.9788
3198,18.653,1.8182,0,0.00011734,1172.6,4.1099e-05,28.571,3.7298e-05,0.010228,-0.00011682,-1158,1.979
3199,18.653,2,0,0.00011734,1172.5,4.1151e-05,29.196,3.7267e-05,0.011593,-0.00011681,-1157.7,1.9792
3200,18.653,2.1818,0,0.00011734,1172.6,4.1196e-05,29.737,3.724e-05,0.0127,-0.0001168,-1157.4,1.9793
3201,18.653,2.3636,0,0.00011734,1172.6,4.1234e-05,30.183,3.7219e-05,0.013566,-0.0001168,-1157.2,1.9794
3202,18.653,2.5455,0,0.00011734,1172.6,4.1264e-05,30.526,3.7203e-05,0.014201,-0.0001168,-1157.1,1.9795
3203,18.653,2.7273,0,0.00011735,1172.7,4.1284e-05,30.758,3.7192e-05,0.014619,-0.00011679,-1157,1.9796
3204,18.653,2.9091,0,0.00011735,1172.7,4.1294e-05,30.875,3.7187e-05,0.014827,-0.00011679,-1156.9,1.9796
3205,18.653,3.0909,0,0.00011735,1172.7,4.1294e-05,30.875,3.7187e-05,0.014827,-0.00011679,-1156.9,1.9796
3206,18.653,3.2727,0,0.00011735,1172.7,4.1284e-05,30.758,3.7192e-05,0.014619,-0.00011679,-1157,1.9796
3207,18.653,3.4545,0,0.00011734,1172.6,4.1264e-05,30.526,3.7203e-05,0.014202,-0.0001168,-1157.1,1.9795
3208,18.653,3.6364,0,0.00011734,1172.6,4.1234e-05,30.183,3.7219e-05,0.013563,-0.0001168,-1157.2,1.9794
3209,18.653,3.8182,0,0.00011734,1172.6,4.1196e-05,29.737,3.724e-05,0.012702,-0.0001168,-1157.4,1.9793
3210,18.653,4,0,0.00011734,1172.5,4.1151e-05,29.196,3.7267e-05,0.011594,-0.00011681,-1157.7,1.9792
3211,18.653,4.1818,0,0.00011734,1172.6,4.1099e-05,28.571,3.7298e-05,0.010228,-0.00011682,-1158,1.979
3212,18.653,4.3636,0,0.00011734,1172.6,4.1043e-05,27.876,3.7334e-05,0.0085806,-0.00011684,-1158.4,1.9788
3213,18.653,4.5455,0,0.00011735,1172.7,4.0984e-05,27.124,3.7375e-05,0.0066292,-0.00011687,-1158.9,1.9786
3214,18.653,4.7273,0,0.00011737,1172.9,4.0925e-05,26.332,3.7421e-05,0.0043634,-0.0001169,-1159.5,1.9784
3215,18.653,4.9091,0,0.0001174,1173.2,4.0867e-05,25.519,3.7471e-05,0.0017189,-0.00011694,-1160.2,1.9781
3216,18.653,5.0909,0,0.00011744,1173.6,4.0813e-05,24.704,3.7525e-05,-0.0011684,-0.000117,-1161,1.9778
3217,18.653,5.2727,0,0.00011749,1174.1,4.0765e-05,23.907,3.7583e-05,-0.0049457,-0.00011707,-1162,1.9775
3218,18.653,5.4545,0,0.00011757,1174.9,4.0728e-05,23.159,3.7645e-05,-0.0070344,-0.00011716,-1163.1,1.9771
3219,18.653,5.6364,0,0.00011768,1176,4.072e-05,22.6,3.7709e-05,-0.020527,-0.00011728,-1164.6,1.9768
3220,18.653,5.8182,0,0.00011818,1181,4.1039e-05,24.474,3.7781e-05,0.00079413,-0.00011775,-1168.6,1.9764
3221,18.838,0.18182,0,0.00011394,1138.7,3.9677e-05,24.923,3.6361e-05,0.00075406,-0.0001135,-1126,2.0064
3222,18.838,0.36364,0,0.00011345,1133.7,3.9366e-05,23.128,3.6285e-05,-0.02151,-0.00011304,-1122,2.0067
3223,18.838,0.54545,0,0.00011334,1132.6,3.9385e-05,23.801,3.6217e-05,-0.0072814,-0.00011292,-1120.5,2.0071
3224,18.838,0.72727,0,0.00011327,1132,3.9435e-05,24.669,3.6151e-05,-0.0050641,-0.00011283,-1119.4,2.0074
3225,18.838,0.90909,0,0.00011323,1131.5,3.9496e-05,25.586,3.609e-05,-0.0010956,-0.00011277,-1118.5,2.0078
3226,18.838,1.0909,0,0.00011319,1131.2,3.9562e-05,26.519,3.6033e-05,0.0019193,-0.00011272,-1117.7,2.008
3227,18.838,1.2727,0,0.00011318,1131,3.9633e-05,27.447,3.598e-05,0.0046709,-0.00011268,-1117,2.0083
3228,18.838,1.4545,0,0.00011317,1130.9,3.9704e-05,28.348,3.5932e-05,0.0070161,-0.00011266,-1116.4,2.0085
3229,18.838,1.6364,0,0.00011316,1130.9,3.9774e-05,29.202,3.5889e-05,0.009027,-0.00011264,-1116,2.0088
3230,18.838,1.8182,0,0.00011317,1130.9,3.9841e-05,29.99,3.5851e-05,0.010716,-0.00011263,-1115.6,2.0089
3231,18.838,2,0,0.00011317,1131,3.9901e-05,30.697,3.5817e-05,0.012117,-0.00011262,-1115.3,2.0091
3232,18.838,2.1818,0,0.00011318,1131,3.9955e-05,31.309,3.5789e-05,0.013247,-0.00011262,-1115,2.0092
3233,18.838,2.3636,0,0.00011319,1131.1,3.9999e-05,31.813,3.5767e-05,0.014131,-0.00011262,-1114.9,2.0093
3234,18.838,2.5455,0,0.0001132,1131.2,4.0034e-05,32.199,3.575e-05,0.014778,-0.00011261,-1114.7,2.0094
3235,18.838,2.7273,0,0.0001132,1131.2,4.0057e-05,32.461,3.5739e-05,0.015204,-0.00011262,-1114.7,2.0095
3236,18.838,2.9091,0,0.00011321,1131.3,4.0069e-05,32.593,3.5733e-05,0.015415,-0.00011262,-1114.6,2.0095
3237,18.838,3.0909,0,0.00011321,1131.3,4.0069e-05,32.593,3.5733e-05,0.015414,-0.00011262,-1114.6,2.0095
3238,18.838,3.2727,0,0.0001132,1131.2,4.0057e-05,32.461,3.5739e-05,0.015203,-0.00011262,-1114.7,2.0095
3239,18.838,3.4545,0,0.0001132,1131.2,4.0034e-05,32.199,3.575e-05,0.014778,-0.00011261,-1114.7,2.0094
3240,18.838,3.6364,0,0.00011319,1131.1,3.9999e-05,31.813,3.5767e-05,0.014131,-0.00011262,-1114.9,2.0093
3241,18.838,3.8182,0,0.00011318,1131,3.9955e-05,31.309,3.5789e-05,0.013249,-0.00011262,-1115,2.0092
3242,18.838,4,0,0.00011317,1131,3.9901e-05,30.697,3.5817e-05,0.012118,-0.00011262,-1115.3,2.0091
3243,18.838,4.1818,0,0.00011317,1130.9,3.9841e-05,29.99,3.5851e-05,0.010716,-0.00011263,-1115.6,2.0089
3244,18.838,4.3636,0,0.00011316,1130.9,3.9774e-05,29.202,3.5889e-05,0.009026,-0.00011264,-1116,2.0088
3245,18.838,4.5455,0,0.00011317,1130.9,3.9704e-05,28.348,3.5932e-05,0.0070168,-0.00011266,-1116.4,2.0085
3246,18.838,4.7273,0,0.00011318,1131,3.9633e-05,27.447,3.598e-05,0.0046701,-0.00011268,-1117,2.0083
3247,18.838,4.9091,0,0.00011319,1131.2,3.9562e-05,26.52,3.6033e-05,0.0019219,-0.00011272,-1117.7,2.008
3248,18.838,5.0909,0,0.00011323,1131.5,3.9496e-05,25.586,3.609e-05,-0.0010972,-0.00011277,-1118.5,2.0078
3249,18.838,5.2727,0,0.00011327,1132,3.9435e-05,24.669,3.6151e-05,-0.0050605,-0.00011283,-1119.4,2.0074
3250,18.838,5.4545,0,0.00011334,1132.6,3.9385e-05,23.801,3.6217e-05,-0.0072847,-0.00011292,-1120.5,2.0071
3251,18.838,5.6364,0,0.00011345,1133.7,3.9366e-05,23.128,3.6285e-05,-0.02151,-0.00011304,-1122,2.0067
3252,18.838,5.8182,0,0.00011394,1138.7,3.9677e-05,24.923,3.6361e-05,0.00075625,-0.0001135,-1126,2.0064
3253,19.022,0.18182,0,0.00010973,1096.5,3.8323e-05,25.381,3.4945e-05,0.00070593,-0.00010927,-1083.6,2.0364
3254,19.022,0.36364,0,0.00010923,1091.6,3.8019e-05,23.675,3.4865e-05,-0.022562,-0.00010881,-1079.5,2.0368
3255,19.022,0.54545,0,0.00010913,1090.6,3.8052e-05,24.474,3.4794e-05,-0.0075316,-0.00010869,-1078.1,2.0371
3256,19.022,0.72727,0,0.00010907,1090,3.8115e-05,25.471,3.4725e-05,-0.0051722,-0.00010862,-1077,2.0375
3257,19.022,0.90909,0,0.00010904,1089.6,3.819e-05,26.519,3.466e-05,-0.00099557,-0.00010856,-1076.1,2.0378
3258,19.022,1.0909,0,0.00010901,1089.4,3.827e-05,27.582,3.46e-05,0.002155,-0.00010852,-1075.3,2.0381
3259,19.022,1.2727,0,0.000109,1089.3,3.8354e-05,28.635,3.4544e-05,0.0050167,-0.00010849,-1074.7,2.0383
3260,19.022,1.4545,0,0.000109,1089.3,3.8439e-05,29.655,3.4493e-05,0.0074485,-0.00010847,-1074.2,2.0385
3261,19.022,1.6364,0,0.00010901,1089.4,3.8521e-05,30.62,3.4447e-05,0.0095216,-0.00010846,-1073.7,2.0387
3262,19.022,1.8182,0,0.00010902,1089.5,3.8599e-05,31.509,3.4406e-05,0.011262,-0.00010845,-1073.4,2.0389
3263,19.022,2,0,0.00010904,1089.6,3.8669e-05,32.306,3.4371e-05,0.012695,-0.00010845,-1073.1,2.0391
3264,19.022,2.1818,0,0.00010905,1089.8,3.8731e-05,32.995,3.4342e-05,0.013855,-0.00010845,-1072.9,2.0392
3265,19.022,2.3636,0,0.00010907,1089.9,3.8783e-05,33.561,3.4318e-05,0.014753,-0.00010846,-1072.7,2.0393
3266,19.022,2.5455,0,0.00010908,1090,3.8822e-05,33.996,3.43e-05,0.015413,-0.00010846,-1072.6,2.0394
3267,19.022,2.7273,0,0.00010909,1090.1,3.885e-05,34.29,3.4288e-05,0.015848,-0.00010846,-1072.6,2.0394
3268,19.022,2.9091,0,0.00010909,1090.2,3.8863e-05,34.439,3.4282e-05,0.016061,-0.00010846,-1072.5,2.0395
3269,19.022,3.0909,0,0.00010909,1090.2,3.8863e-05,34.439,3.4282e-05,0.016062,-0.00010846,-1072.5,2.0395
3270,19.022,3.2727,0,0.00010909,1090.1,3.885e-05,34.29,3.4288e-05,0.015847,-0.00010846,-1072.6,2.0394
3271,19.022,3.4545,0,0.00010908,1090,3.8822e-05,33.996,3.43e-05,0.015414,-0.00010846,-1072.6,2.0394
3272,19.022,3.6364,0,0.00010907,1089.9,3.8783e-05,33.561,3.4318e-05,0.014754,-0.00010846,-1072.7,2.0393
3273,19.022,3.8182,0,0.00010905,1089.8,3.8731e-05,32.995,3.4342e-05,0.013855,-0.00010845,-1072.9,2.0392
3274,19.022,4,0,0.00010904,1089.6,3.8669e-05,32.306,3.4371e-05,0.012695,-0.00010845,-1073.1,2.0391
3275,19.022,4.1818,0,0.00010902,1089.5,3.8599e-05,31.509,3.4406e-05,0.011263,-0.00010845,-1073.4,2.0389
3276,19.022,4.3636,0,0.00010901,1089.4,3.8521e-05,30.62,3.4447e-05,0.0095207,-0.00010846,-1073.7,2.0387
3277,19.022,4.5455,0,0.000109,1089.3,3.8439e-05,29.655,3.4493e-05,0.0074518,-0.00010847,-1074.2,2.0385
3278,19.022,4.7273,0,0.000109,1089.3,3.8354e-05,28.635,3.4544e-05,0.0050172,-0.00010849,-1074.7,2.0383
3279,19.022,4.9091,0,0.00010901,1089.4,3.827e-05,27.582,3.46e-05,0.0021542,-0.00010852,-1075.3,2.0381
3280,19.022,5.0909,0,0.00010904,1089.6,3.819e-05,26.519,3.466e-05,-0.00099951,-0.00010856,-1076.1,2.0378
3281,19.022,5.2727,0,0.00010907,1090,3.8115e-05,25.471,3.4725e-05,-0.0051721,-0.00010862,-1077,2.0375
3282,19.022,5.4545,0,0.00010913,1090.6,3.8052e-05,24.474,3.4794e-05,-0.0075328,-0.00010869,-1078.1,2.0371
3283,19.022,5.6364,0,0.00010923,1091.6,3.8019e-05,23.675,3.4865e-05,-0.022559,-0.00010881,-1079.5,2.0368
3284,19.022,5.8182,0,0.00010973,1096.5,3.8323e-05,25.381,3.4945e-05,0.00070766,-0.00010927,-1083.6,2.0364
3285,19.206,0.18182,0,0.00010553,1054.5,3.6975e-05,25.849,3.3535e-05,0.00062816,-0.00010506,-1041.4,2.0666
3286,19.206,0.36364,0,0.00010503,1049.6,3.6681e-05,24.243,3.3451e-05,-0.023692,-0.0001046,-1037.3,2.0669
3287,19.206,0.54545,0,0.00010494,1048.7,3.6727e-05,25.178,3.3375e-05,-0.0077988,-0.00010449,-1035.9,2.0673
3288,19.206,0.72727,0,0.00010489,1048.2,3.6806e-05,26.318,3.3302e-05,-0.005278,-0.00010442,-1034.8,2.0676
3289,19.206,0.90909,0,0.00010487,1047.9,3.6895e-05,27.508,3.3234e-05,-0.00087822,-0.00010437,-1033.9,2.0679
3290,19.206,1.0909,0,0.00010485,1047.8,3.6991e-05,28.712,3.317e-05,0.0024233,-0.00010434,-1033.2,2.0681
3291,19.206,1.2727,0,0.00010486,1047.8,3.709e-05,29.901,3.3111e-05,0.005403,-0.00010432,-1032.6,2.0684
3292,19.206,1.4545,0,0.00010487,1047.9,3.7189e-05,31.051,3.3057e-05,0.0079237,-0.0001043,-1032.1,2.0686
3293,19.206,1.6364,0,0.00010488,1048.1,3.7285e-05,32.137,3.3009e-05,0.010067,-0.0001043,-1031.7,2.0688
3294,19.206,1.8182,0,0.00010491,1048.3,3.7374e-05,33.137,3.2966e-05,0.011853,-0.0001043,-1031.4,2.069
3295,19.206,2,0,0.00010493,1048.6,3.7456e-05,34.032,3.2928e-05,0.013328,-0.00010431,-1031.1,2.0691
3296,19.206,2.1818,0,0.00010495,1048.8,3.7527e-05,34.804,3.2897e-05,0.014511,-0.00010432,-1030.9,2.0692
3297,19.206,2.3636,0,0.00010497,1049,3.7586e-05,35.44,3.2872e-05,0.01543,-0.00010432,-1030.8,2.0693
3298,19.206,2.5455,0,0.00010499,1049.2,3.7632e-05,35.926,3.2852e-05,0.016107,-0.00010433,-1030.7,2.0694
3299,19.206,2.7273,0,0.000105,1049.3,3.7663e-05,36.256,3.284e-05,0.016545,-0.00010434,-1030.7,2.0695
3300,19.206,2.9091,0,0.00010501,1049.3,3.7679e-05,36.422,3.2833e-05,0.016764,-0.00010434,-1030.6,2.0695
3301,19.206,3.0909,0,0.00010501,1049.3,3.7679e-05,36.422,3.2833e-05,0.016764,-0.00010434,-1030.6,2.0695
3302,19.206,3.2727,0,0.000105,1049.3,3.7663e-05,36.256,3.284e-05,0.016544,-0.00010434,-1030.7,2.0695
3303,19.206,3.4545,0,0.00010499,1049.2,3.7632e-05,35.926,3.2852e-05,0.016106,-0.00010433,-1030.7,2.0694
3304,19.206,3.6364,0,0.00010497,1049,3.7586e-05,35.44,3.2872e-05,0.015431,-0.00010432,-1030.8,2.0693
3305,19.206,3.8182,0,0.00010495,1048.8,3.7527e-05,34.804,3.2897e-05,0.01451,-0.00010432,-1030.9,2.0692
3306,19.206,4,0,0.00010493,1048.6,3.7456e-05,34.032,3.2928e-05,0.013326,-0.00010431,-1031.1,2.0691
3307,19.206,4.1818,0,0.00010491,1048.3,3.7374e-05,33.138,3.2966e-05,0.011854,-0.0001043,-1031.4,2.069
3308,19.206,4.3636,0,0.00010488,1048.1,3.7285e-05,32.137,3.3009e-05,0.010065,-0.0001043,-1031.7,2.0688
3309,19.206,4.5455,0,0.00010487,1047.9,3.7189e-05,31.051,3.3057e-05,0.0079219,-0.0001043,-1032.1,2.0686
3310,19.206,4.7273,0,0.00010486,1047.8,3.709e-05,29.902,3.3111e-05,0.0054025,-0.00010432,-1032.6,2.0684
3311,19.206,4.9091,0,0.00010485,1047.8,3.6991e-05,28.712,3.317e-05,0.0024208,-0.00010434,-1033.2,2.0681
3312,19.206,5.0909,0,0.00010487,1047.9,3.6895e-05,27.508,3.3234e-05,-0.00088147,-0.00010437,-1033.9,2.0679
3313,19.206,5.2727,0,0.00010489,1048.2,3.6806e-05,26.318,3.3303e-05,-0.0052817,-0.00010442,-1034.8,2.0676
3314,19.206,5.4545,0,0.00010494,1048.7,3.6727e-05,25.178,3.3375e-05,-0.0077971,-0.00010449,-1035.9,2.0673
3315,19.206,5.6364,0,0.00010503,1049.6,3.6681e-05,24.243,3.3451e-05,-0.023689,-0.0001046,-1037.3,2.0669
3316,19.206,5.8182,0,0.00010553,1054.5,3.6975e-05,25.849,3.3535e-05,0.00062761,-0.00010506,-1041.4,2.0666
3317,19.391,0.18182,0,0.00010134,1012.7,3.5634e-05,26.326,3.213e-05,0.00050723,-0.00010087,-999.3,2.0968
3318,19.391,0.36364,0,0.00010085,1007.8,3.535e-05,24.832,3.2042e-05,-0.024919,-0.00010041,-995.2,2.0971
3319,19.391,0.54545,0,0.00010077,1007,3.5412e-05,25.917,3.1962e-05,-0.0080829,-0.0001003,-993.81,2.0974
3320,19.391,0.72727,0,0.00010073,1006.6,3.5507e-05,27.211,3.1885e-05,-0.0053873,-0.00010024,-992.76,2.0977
3321,19.391,0.90909,0,0.00010072,1006.5,3.5613e-05,28.557,3.1812e-05,-0.00074893,-0.0001002,-991.9,2.098
3322,19.391,1.0909,0,0.00010072,1006.5,3.5726e-05,29.915,3.1745e-05,0.002715,-0.00010018,-991.2,2.0983
3323,19.391,1.2727,0,0.00010073,1006.6,3.5841e-05,31.254,3.1682e-05,0.0058224,-0.00010016,-990.64,2.0985
3324,19.391,1.4545,0,0.00010076,1006.9,3.5955e-05,32.546,3.1625e-05,0.0084393,-0.00010016,-990.19,2.0987
3325,19.391,1.6364,0,0.00010078,1007.1,3.6065e-05,33.764,3.1573e-05,0.01065,-0.00010017,-989.83,2.0989
3326,19.391,1.8182,0,0.00010082,1007.5,3.6169e-05,34.885,3.1527e-05,0.012494,-0.00010018,-989.56,2.0991
3327,19.391,2,0,0.00010085,1007.8,3.6262e-05,35.886,3.1488e-05,0.014005,-0.00010019,-989.36,2.0992
3328,19.391,2.1818,0,0.00010088,1008.1,3.6343e-05,36.749,3.1454e-05,0.01522,-0.0001002,-989.21,2.0994
3329,19.391,2.3636,0,0.00010091,1008.4,3.6411e-05,37.459,3.1427e-05,0.016159,-0.00010022,-989.1,2.0995
3330,19.391,2.5455,0,0.00010093,1008.6,3.6463e-05,38.003,3.1407e-05,0.016846,-0.00010023,-989.03,2.0995
3331,19.391,2.7273,0,0.00010094,1008.7,3.6498e-05,38.371,3.1394e-05,0.017295,-0.00010023,-988.98,2.0996
3332,19.391,2.9091,0,0.00010095,1008.8,3.6516e-05,38.556,3.1387e-05,0.017519,-0.00010024,-988.96,2.0996
3333,19.391,3.0909,0,0.00010095,1008.8,3.6516e-05,38.556,3.1387e-05,0.017517,-0.00010024,-988.96,2.0996
3334,19.391,3.2727,0,0.00010094,1008.7,3.6498e-05,38.371,3.1394e-05,0.017297,-0.00010023,-988.98,2.0996
3335,19.391,3.4545,0,0.00010093,1008.6,3.6463e-05,38.003,3.1407e-05,0.016846,-0.00010023,-989.03,2.0995
3336,19.391,3.6364,0,0.00010091,1008.4,3.6411e-05,37.459,3.1427e-05,0.016159,-0.00010022,-989.1,2.0995
3337,19.391,3.8182,0,0.00010088,1008.1,3.6343e-05,36.75,3.1454e-05,0.01522,-0.0001002,-989.21,2.0994
3338,19.391,4,0,0.00010085,1007.8,3.6262e-05,35.886,3.1488e-05,0.014005,-0.00010019,-989.36,2.0992
3339,19.391,4.1818,0,0.00010082,1007.5,3.6169e-05,34.885,3.1527e-05,0.012495,-0.00010018,-989.56,2.0991
3340,19.391,4.3636,0,0.00010078,1007.1,3.6065e-05,33.764,3.1573e-05,0.010651,-0.00010017,-989.83,2.0989
3341,19.391,4.5455,0,0.00010076,1006.9,3.5955e-05,32.546,3.1625e-05,0.0084371,-0.00010016,-990.19,2.0987
3342,19.391,4.7273,0,0.00010073,1006.6,3.5841e-05,31.254,3.1682e-05,0.0058227,-0.00010016,-990.64,2.0985
3343,19.391,4.9091,0,0.00010072,1006.5,3.5726e-05,29.915,3.1745e-05,0.0027125,-0.00010018,-991.2,2.0983
3344,19.391,5.0909,0,0.00010072,1006.5,3.5613e-05,28.557,3.1812e-05,-0.0007517,-0.0001002,-991.9,2.098
3345,19.391,5.2727,0,0.00010073,1006.6,3.5507e-05,27.211,3.1885e-05,-0.0053894,-0.00010024,-992.76,2.0977
3346,19.391,5.4545,0,0.00010077,1007,3.5412e-05,25.917,3.1962e-05,-0.008082,-0.0001003,-993.81,2.0974
3347,19.391,5.6364,0,0.00010085,1007.8,3.535e-05,24.832,3.2042e-05,-0.024916,-0.00010041,-995.2,2.0971
3348,19.391,5.8182,0,0.00010134,1012.7,3.5634e-05,26.326,3.213e-05,0.00050852,-0.00010087,-999.3,2.0968
3349,19.575,0.18182,0,9.7176e-05,971.09,3.4299e-05,26.811,3.0731e-05,0.00034241,-9.6692e-05,-957.41,2.127
3350,19.575,0.36364,0,9.6691e-05,966.24,3.4027e-05,25.444,3.0637e-05,-0.026244,-9.6234e-05,-953.28,2.1274
3351,19.575,0.54545,0,9.6619e-05,965.53,3.4106e-05,26.691,3.0552e-05,-0.0083774,-9.6138e-05,-951.91,2.1277
3352,19.575,0.72727,0,9.6594e-05,965.28,3.4219e-05,28.154,3.0471e-05,-0.0054945,-9.6085e-05,-950.9,2.128
3353,19.575,0.90909,0,9.6592e-05,965.25,3.4343e-05,29.671,3.0394e-05,-0.00059524,-9.6053e-05,-950.08,2.1283
3354,19.575,1.0909,0,9.6606e-05,965.4,3.4474e-05,31.197,3.0323e-05,0.0030421,-9.6038e-05,-949.42,2.1285
3355,19.575,1.2727,0,9.6633e-05,965.67,3.4607e-05,32.699,3.0256e-05,0.0062895,-9.6035e-05,-948.9,2.1287
3356,19.575,1.4545,0,9.6669e-05,966.03,3.4739e-05,34.147,3.0195e-05,0.0090065,-9.6043e-05,-948.5,2.1289
3357,19.575,1.6364,0,9.6711e-05,966.44,3.4865e-05,35.509,3.014e-05,0.011295,-9.6057e-05,-948.19,2.1291
3358,19.575,1.8182,0,9.6754e-05,966.87,3.4983e-05,36.761,3.0092e-05,0.013196,-9.6076e-05,-947.96,2.1293
3359,19.575,2,0,9.6797e-05,967.3,3.5089e-05,37.879,3.0049e-05,0.014749,-9.6096e-05,-947.8,2.1294
3360,19.575,2.1818,0,9.6836e-05,967.69,3.5181e-05,38.842,3.0014e-05,0.015993,-9.6117e-05,-947.68,2.1295
3361,19.575,2.3636,0,9.687e-05,968.03,3.5258e-05,39.633,2.9985e-05,0.016954,-9.6135e-05,-947.6,2.1296
3362,19.575,2.5455,0,9.6897e-05,968.3,3.5317e-05,40.238,2.9964e-05,0.017658,-9.615e-05,-947.55,2.1297
3363,19.575,2.7273,0,9.6916e-05,968.49,3.5357e-05,40.648,2.9949e-05,0.018115,-9.616e-05,-947.52,2.1298
3364,19.575,2.9091,0,9.6926e-05,968.59,3.5377e-05,40.854,2.9942e-05,0.018341,-9.6166e-05,-947.51,2.1298
3365,19.575,3.0909,0,9.6926e-05,968.59,3.5377e-05,40.854,2.9942e-05,0.018342,-9.6166e-05,-947.51,2.1298
3366,19.575,3.2727,0,9.6916e-05,968.49,3.5357e-05,40.648,2.9949e-05,0.018112,-9.616e-05,-947.52,2.1298
3367,19.575,3.4545,0,9.6897e-05,968.3,3.5317e-05,40.239,2.9964e-05,0.017654,-9.615e-05,-947.55,2.1297
3368,19.575,3.6364,0,9.687e-05,968.03,3.5258e-05,39.633,2.9985e-05,0.016955,-9.6135e-05,-947.6,2.1296
3369,19.575,3.8182,0,9.6836e-05,967.69,3.5181e-05,38.842,3.0014e-05,0.015992,-9.6117e-05,-947.68,2.1295
3370,19.575,4,0,9.6797e-05,967.3,3.5089e-05,37.879,3.0049e-05,0.014751,-9.6096e-05,-947.8,2.1294
3371,19.575,4.1818,0,9.6754e-05,966.87,3.4983e-05,36.761,3.0092e-05,0.013194,-9.6076e-05,-947.96,2.1293
3372,19.575,4.3636,0,9.6711e-05,966.44,3.4865e-05,35.509,3.014e-05,0.011298,-9.6057e-05,-948.19,2.1291
3373,19.575,4.5455,0,9.6669e-05,966.03,3.4739e-05,34.147,3.0195e-05,0.0090087,-9.6043e-05,-948.5,2.1289
3374,19.575,4.7273,0,9.6633e-05,965.67,3.4607e-05,32.7,3.0256e-05,0.0062869,-9.6035e-05,-948.9,2.1287
3375,19.575,4.9091,0,9.6606e-05,965.4,3.4474e-05,31.197,3.0323e-05,0.003044,-9.6038e-05,-949.42,2.1285
3376,19.575,5.0909,0,9.6592e-05,965.25,3.4343e-05,29.671,3.0394e-05,-0.00059678,-9.6053e-05,-950.08,2.1283
3377,19.575,5.2727,0,9.6594e-05,965.28,3.4219e-05,28.154,3.0471e-05,-0.0054961,-9.6085e-05,-950.9,2.128
3378,19.575,5.4545,0,9.6619e-05,965.53,3.4106e-05,26.691,3.0552e-05,-0.0083794,-9.6138e-05,-951.91,2.1277
3379,19.575,5.6364,0,9.6691e-05,966.24,3.4027e-05,25.444,3.0637e-05,-0.026245,-9.6234e-05,-953.28,2.1274
3380,19.575,5.8182,0,9.7176e-05,971.09,3.4299e-05,26.811,3.0731e-05,0.00034445,-9.6692e-05,-957.41,2.127
3381,19.76,0.18182,0,9.3027e-05,929.62,3.297e-05,27.303,2.9336e-05,0.000125,-9.2532e-05,-915.67,2.1574
3382,19.76,0.36364,0,9.2547e-05,924.83,3.2712e-05,26.078,2.9237e-05,-0.027684,-9.2076e-05,-911.53,2.1577
3383,19.76,0.54545,0,9.2487e-05,924.23,3.2809e-05,27.504,2.9148e-05,-0.0086979,-9.1989e-05,-910.18,2.158
3384,19.76,0.72727,0,9.2476e-05,924.12,3.2942e-05,29.152,2.9061e-05,-0.0055989,-9.1946e-05,-909.2,2.1583
3385,19.76,0.90909,0,9.2488e-05,924.24,3.3086e-05,30.855,2.898e-05,-0.00041057,-9.1924e-05,-908.43,2.1586
3386,19.76,1.0909,0,9.2517e-05,924.53,3.3237e-05,32.565,2.8904e-05,0.0034084,-9.192e-05,-907.82,2.1588
3387,19.76,1.2727,0,9.2559e-05,924.95,3.339e-05,34.246,2.8833e-05,0.0068077,-9.1929e-05,-907.35,2.159
3388,19.76,1.4545,0,9.2609e-05,925.46,3.354e-05,35.863,2.8768e-05,0.0096314,-9.1947e-05,-907,2.1592
3389,19.76,1.6364,0,9.2664e-05,926.01,3.3684e-05,37.383,2.871e-05,0.012005,-9.1972e-05,-906.74,2.1594
3390,19.76,1.8182,0,9.2721e-05,926.57,3.3817e-05,38.779,2.8658e-05,0.013963,-9.2e-05,-906.56,2.1596
3391,19.76,2,0,9.2775e-05,927.11,3.3938e-05,40.023,2.8613e-05,0.01556,-9.2029e-05,-906.44,2.1597
3392,19.76,2.1818,0,9.2824e-05,927.6,3.4042e-05,41.094,2.8575e-05,0.016835,-9.2056e-05,-906.36,2.1598
3393,19.76,2.3636,0,9.2866e-05,928.02,3.4129e-05,41.974,2.8545e-05,0.017818,-9.208e-05,-906.31,2.1599
3394,19.76,2.5455,0,9.2899e-05,928.35,3.4195e-05,42.647,2.8522e-05,0.018536,-9.21e-05,-906.28,2.16
3395,19.76,2.7273,0,9.2922e-05,928.58,3.424e-05,43.101,2.8506e-05,0.019002,-9.2114e-05,-906.27,2.16
3396,19.76,2.9091,0,9.2934e-05,928.7,3.4263e-05,43.331,2.8498e-05,0.019235,-9.2121e-05,-906.26,2.16
3397,19.76,3.0909,0,9.2934e-05,928.7,3.4263e-05,43.331,2.8498e-05,0.019235,-9.2121e-05,-906.26,2.16
3398,19.76,3.2727,0,9.2922e-05,928.58,3.424e-05,43.101,2.8506e-05,0.019004,-9.2114e-05,-906.27,2.16
3399,19.76,3.4545,0,9.2899e-05,928.35,3.4195e-05,42.647,2.8522e-05,0.018536,-9.21e-05,-906.28,2.16
3400,19.76,3.6364,0,9.2866e-05,928.02,3.4129e-05,41.974,2.8545e-05,0.017818,-9.208e-05,-906.31,2.1599
3401,19.76,3.8182,0,9.2824e-05,927.6,3.4042e-05,41.094,2.8575e-05,0.016834,-9.2056e-05,-906.36,2.1598
3402,19.76,4,0,9.2775e-05,927.11,3.3938e-05,40.023,2.8613e-05,0.01556,-9.2029e-05,-906.44,2.1597
3403,19.76,4.1818,0,9.2721e-05,926.57,3.3817e-05,38.779,2.8658e-05,0.013962,-9.2e-05,-906.56,2.1596
3404,19.76,4.3636,0,9.2664e-05,926.01,3.3684e-05,37.383,2.871e-05,0.012003,-9.1972e-05,-906.74,2.1594
3405,19.76,4.5455,0,9.2609e-05,925.46,3.354e-05,35.863,2.8768e-05,0.0096324,-9.1947e-05,-907,2.1592
3406,19.76,4.7273,0,9.2559e-05,924.95,3.339e-05,34.246,2.8833e-05,0.0068056,-9.1929e-05,-907.35,2.159
3407,19.76,4.9091,0,9.2517e-05,924.53,3.3237e-05,32.565,2.8904e-05,0.0034124,-9.192e-05,-907.82,2.1588
3408,19.76,5.0909,0,9.2488e-05,924.24,3.3086e-05,30.855,2.898e-05,-0.00041194,-9.1924e-05,-908.43,2.1586
3409,19.76,5.2727,0,9.2476e-05,924.12,3.2942e-05,29.152,2.9061e-05,-0.0056026,-9.1946e-05,-909.2,2.1583
3410,19.76,5.4545,0,9.2487e-05,924.23,3.2809e-05,27.504,2.9148e-05,-0.0086977,-9.1989e-05,-910.18,2.158
3411,19.76,5.6364,0,9.2547e-05,924.83,3.2712e-05,26.078,2.9237e-05,-0.027682,-9.2076e-05,-911.53,2.1577
3412,19.76,5.8182,0,9.3027e-05,929.62,3.297e-05,27.303,2.9336e-05,0.00012453,-9.2532e-05,-915.67,2.1574
3413,19.944,0.18182,0,8.8894e-05,888.32,3.1647e-05,27.803,2.7947e-05,-0.00016,-8.8388e-05,-874.1,2.1878
3414,19.944,0.36364,0,8.8421e-05,883.6,3.1404e-05,26.736,2.7842e-05,-0.029243,-8.7936e-05,-869.94,2.1881
3415,19.944,0.54545,0,8.8374e-05,883.13,3.1522e-05,28.357,2.7747e-05,-0.0090286,-8.7858e-05,-868.62,2.1884
3416,19.944,0.72727,0,8.8378e-05,883.17,3.1676e-05,30.207,2.7655e-05,-0.0056901,-8.7825e-05,-867.68,2.1887
3417,19.944,0.90909,0,8.8406e-05,883.45,3.1843e-05,32.114,2.7569e-05,-0.00019187,-8.7816e-05,-866.95,2.1889
3418,19.944,1.0909,0,8.8451e-05,883.9,3.2016e-05,34.027,2.7488e-05,0.003837,-8.7823e-05,-866.4,2.1891
3419,19.944,1.2727,0,8.851e-05,884.49,3.219e-05,35.903,2.7412e-05,0.0073903,-8.7844e-05,-865.99,2.1894
3420,19.944,1.4545,0,8.8576e-05,885.15,3.236e-05,37.705,2.7343e-05,0.010328,-8.7874e-05,-865.69,2.1895
3421,19.944,1.6364,0,8.8647e-05,885.85,3.2523e-05,39.398,2.7281e-05,0.012789,-8.791e-05,-865.49,2.1897
3422,19.944,1.8182,0,8.8717e-05,886.55,3.2674e-05,40.949,2.7226e-05,0.014808,-8.7949e-05,-865.36,2.1899
3423,19.944,2,0,8.8783e-05,887.22,3.281e-05,42.332,2.7178e-05,0.016455,-8.7987e-05,-865.29,2.19
3424,19.944,2.1818,0,8.8843e-05,887.82,3.2927e-05,43.521,2.7138e-05,0.01776,-8.8022e-05,-865.25,2.1901
3425,19.944,2.3636,0,8.8894e-05,888.33,3.3025e-05,44.496,2.7105e-05,0.018769,-8.8053e-05,-865.24,2.1902
3426,19.944,2.5455,0,8.8934e-05,888.73,3.3099e-05,45.242,2.708e-05,0.019502,-8.8078e-05,-865.23,2.1903
3427,19.944,2.7273,0,8.8962e-05,889,3.315e-05,45.746,2.7064e-05,0.019979,-8.8095e-05,-865.24,2.1903
3428,19.944,2.9091,0,8.8976e-05,889.14,3.3175e-05,46,2.7056e-05,0.020215,-8.8103e-05,-865.24,2.1903
3429,19.944,3.0909,0,8.8976e-05,889.14,3.3175e-05,46,2.7056e-05,0.020216,-8.8103e-05,-865.24,2.1903
3430,19.944,3.2727,0,8.8962e-05,889,3.315e-05,45.746,2.7064e-05,0.019979,-8.8095e-05,-865.24,2.1903
3431,19.944,3.4545,0,8.8934e-05,888.73,3.3099e-05,45.242,2.708e-05,0.019501,-8.8078e-05,-865.23,2.1903
3432,19.944,3.6364,0,8.8894e-05,888.33,3.3025e-05,44.496,2.7105e-05,0.018769,-8.8053e-05,-865.24,2.1902
3433,19.944,3.8182,0,8.8843e-05,887.82,3.2927e-05,43.521,2.7138e-05,0.017762,-8.8022e-05,-865.25,2.1901
3434,19.944,4,0,8.8783e-05,887.22,3.281e-05,42.332,2.7178e-05,0.016453,-8.7987e-05,-865.29,2.19
3435,19.944,4.1818,0,8.8717e-05,886.55,3.2674e-05,40.949,2.7226e-05,0.01481,-8.7949e-05,-865.36,2.1899
3436,19.944,4.3636,0,8.8647e-05,885.85,3.2523e-05,39.398,2.7281e-05,0.012789,-8.791e-05,-865.49,2.1897
3437,19.944,4.5455,0,8.8576e-05,885.15,3.236e-05,37.705,2.7343e-05,0.010328,-8.7874e-05,-865.69,2.1895
3438,19.944,4.7273,0,8.851e-05,884.49,3.219e-05,35.903,2.7412e-05,0.0073896,-8.7844e-05,-865.99,2.1894
3439,19.944,4.9091,0,8.8452e-05,883.9,3.2016e-05,34.027,2.7488e-05,0.0038334,-8.7823e-05,-866.4,2.1891
3440,19.944,5.0909,0,8.8406e-05,883.45,3.1843e-05,32.114,2.7569e-05,-0.00019279,-8.7816e-05,-866.95,2.1889
3441,19.944,5.2727,0,8.8378e-05,883.17,3.1676e-05,30.207,2.7655e-05,-0.0056916,-8.7825e-05,-867.68,2.1887
3442,19.944,5.4545,0,8.8374e-05,883.13,3.1522e-05,28.357,2.7747e-05,-0.0090258,-8.7858e-05,-868.62,2.1884
3443,19.944,5.6364,0,8.8421e-05,883.6,3.1404e-05,26.736,2.7842e-05,-0.029241,-8.7936e-05,-869.94,2.1881
3444,19.944,5.8182,0,8.8894e-05,888.32,3.1647e-05,27.803,2.7947e-05,-0.00015821,-8.8388e-05,-874.1,2.1878
3445,20.128,0.18182,0,8.4777e-05,847.18,3.033e-05,28.307,2.6562e-05,-0.00052536,-8.426e-05,-832.67,2.2182
3446,20.128,0.36364,0,8.4312e-05,842.54,3.0104e-05,27.418,2.6451e-05,-0.030935,-8.3813e-05,-828.51,2.2185
3447,20.128,0.54545,0,8.428e-05,842.22,3.0245e-05,29.253,2.635e-05,-0.0093719,-8.3745e-05,-827.22,2.2188
3448,20.128,0.72727,0,8.43e-05,842.42,3.0422e-05,31.325,2.6253e-05,-0.0057683,-8.3724e-05,-826.33,2.2191
3449,20.128,0.90909,0,8.4346e-05,842.88,3.0613e-05,33.456,2.6161e-05,7.0895e-05,-8.3727e-05,-825.65,2.2193
3450,20.128,1.0909,0,8.441e-05,843.52,3.081e-05,35.589,2.6074e-05,0.0043156,-8.3748e-05,-825.16,2.2195
3451,20.128,1.2727,0,8.4487e-05,844.28,3.1008e-05,37.679,2.5994e-05,0.0080415,-8.3783e-05,-824.81,2.2198
3452,20.128,1.4545,0,8.4571e-05,845.12,3.1201e-05,39.684,2.5921e-05,0.011106,-8.3826e-05,-824.58,2.2199
3453,20.128,1.6364,0,8.4658e-05,845.99,3.1384e-05,41.564,2.5854e-05,0.013655,-8.3874e-05,-824.44,2.2201
3454,20.128,1.8182,0,8.4743e-05,846.85,3.1554e-05,43.286,2.5795e-05,0.015744,-8.3924e-05,-824.37,2.2203
3455,20.128,2,0,8.4823e-05,847.65,3.1706e-05,44.819,2.5744e-05,0.017437,-8.3972e-05,-824.34,2.2204
3456,20.128,2.1818,0,8.4895e-05,848.37,3.1838e-05,46.136,2.5701e-05,0.018777,-8.4016e-05,-824.35,2.2205
3457,20.128,2.3636,0,8.4956e-05,848.97,3.1947e-05,47.215,2.5666e-05,0.01981,-8.4054e-05,-824.37,2.2206
3458,20.128,2.5455,0,8.5003e-05,849.44,3.2031e-05,48.04,2.5639e-05,0.020559,-8.4084e-05,-824.4,2.2206
3459,20.128,2.7273,0,8.5036e-05,849.77,3.2087e-05,48.597,2.5622e-05,0.021047,-8.4104e-05,-824.42,2.2207
3460,20.128,2.9091,0,8.5052e-05,849.93,3.2115e-05,48.878,2.5613e-05,0.021288,-8.4115e-05,-824.43,2.2207
3461,20.128,3.0909,0,8.5052e-05,849.93,3.2115e-05,48.878,2.5613e-05,0.021288,-8.4115e-05,-824.43,2.2207
3462,20.128,3.2727,0,8.5036e-05,849.77,3.2087e-05,48.597,2.5622e-05,0.021051,-8.4104e-05,-824.42,2.2207
3463,20.128,3.4545,0,8.5003e-05,849.44,3.2031e-05,48.04,2.5639e-05,0.02056,-8.4084e-05,-824.4,2.2206
3464,20.128,3.6364,0,8.4956e-05,848.97,3.1947e-05,47.215,2.5666e-05,0.019809,-8.4054e-05,-824.37,2.2206
3465,20.128,3.8182,0,8.4895e-05,848.37,3.1838e-05,46.136,2.5701e-05,0.01878,-8.4016e-05,-824.35,2.2205
3466,20.128,4,0,8.4823e-05,847.65,3.1706e-05,44.819,2.5744e-05,0.017436,-8.3972e-05,-824.34,2.2204
3467,20.128,4.1818,0,8.4743e-05,846.85,3.1554e-05,43.286,2.5795e-05,0.015743,-8.3924e-05,-824.37,2.2203
3468,20.128,4.3636,0,8.4658e-05,845.99,3.1384e-05,41.564,2.5854e-05,0.013654,-8.3874e-05,-824.44,2.2201
3469,20.128,4.5455,0,8.4571e-05,845.12,3.1201e-05,39.684,2.5921e-05,0.011104,-8.3826e-05,-824.58,2.2199
3470,20.128,4.7273,0,8.4487e-05,844.28,3.1008e-05,37.679,2.5994e-05,0.0080411,-8.3783e-05,-824.81,2.2198
3471,20.128,4.9091,0,8.441e-05,843.52,3.081e-05,35.589,2.6074e-05,0.0043165,-8.3748e-05,-825.16,2.2195
3472,20.128,5.0909,0,8.4346e-05,842.88,3.0613e-05,33.456,2.6161e-05,6.6504e-05,-8.3727e-05,-825.65,2.2193
3473,20.128,5.2727,0,8.4301e-05,842.42,3.0422e-05,31.325,2.6253e-05,-0.0057706,-8.3724e-05,-826.33,2.2191
3474,20.128,5.4545,0,8.428e-05,842.22,3.0245e-05,29.253,2.635e-05,-0.0093747,-8.3745e-05,-827.22,2.2188
3475,20.128,5.6364,0,8.4312e-05,842.54,3.0104e-05,27.418,2.6451e-05,-0.030934,-8.3813e-05,-828.51,2.2185
3476,20.128,5.8182,0,8.4777e-05,847.18,3.033e-05,28.307,2.6562e-05,-0.00052381,-8.426e-05,-832.68,2.2182
3477,20.313,0.18182,0,8.0675e-05,806.2,2.9018e-05,28.816,2.5183e-05,-0.00099646,-8.0147e-05,-791.4,2.2487
3478,20.313,0.36364,0,8.0221e-05,801.65,2.8812e-05,28.125,2.5065e-05,-0.032787,-7.9706e-05,-787.24,2.249
3479,20.313,0.54545,0,8.0205e-05,801.5,2.8977e-05,30.195,2.4957e-05,-0.0097422,-7.9649e-05,-785.98,2.2493
3480,20.313,0.72727,0,8.0244e-05,801.88,2.9181e-05,32.509,2.4853e-05,-0.0058392,-7.9641e-05,-785.14,2.2496
3481,20.313,0.90909,0,8.0309e-05,802.54,2.9398e-05,34.885,2.4755e-05,0.00037495,-7.9659e-05,-784.53,2.2498
3482,20.313,1.0909,0,8.0393e-05,803.38,2.9622e-05,37.261,2.4663e-05,0.004857,-7.9695e-05,-784.1,2.25
3483,20.313,1.2727,0,8.049e-05,804.35,2.9845e-05,39.585,2.4578e-05,0.008768,-7.9744e-05,-783.82,2.2502
3484,20.313,1.4545,0,8.0594e-05,805.38,3.0062e-05,41.811,2.4499e-05,0.011966,-7.9801e-05,-783.66,2.2504
3485,20.313,1.6364,0,8.0699e-05,806.43,3.0268e-05,43.896,2.4428e-05,0.014612,-7.9862e-05,-783.58,2.2506
3486,20.313,1.8182,0,8.0801e-05,807.46,3.0459e-05,45.803,2.4365e-05,0.016772,-7.9924e-05,-783.57,2.2507
3487,20.313,2,0,8.0897e-05,808.41,3.0629e-05,47.499,2.431e-05,0.018515,-7.9983e-05,-783.6,2.2508
3488,20.313,2.1818,0,8.0981e-05,809.25,3.0777e-05,48.955,2.4264e-05,0.019892,-8.0037e-05,-783.65,2.2509
3489,20.313,2.3636,0,8.1052e-05,809.96,3.0898e-05,50.147,2.4227e-05,0.020951,-8.0082e-05,-783.72,2.251
3490,20.313,2.5455,0,8.1108e-05,810.52,3.0991e-05,51.058,2.4198e-05,0.021716,-8.0118e-05,-783.77,2.2511
3491,20.313,2.7273,0,8.1145e-05,810.89,3.1054e-05,51.673,2.418e-05,0.022214,-8.0142e-05,-783.81,2.2511
3492,20.313,2.9091,0,8.1165e-05,811.09,3.1085e-05,51.982,2.417e-05,0.022461,-8.0155e-05,-783.84,2.2511
3493,20.313,3.0909,0,8.1165e-05,811.09,3.1085e-05,51.982,2.417e-05,0.02246,-8.0155e-05,-783.84,2.2511
3494,20.313,3.2727,0,8.1145e-05,810.89,3.1054e-05,51.673,2.418e-05,0.022215,-8.0142e-05,-783.81,2.2511
3495,20.313,3.4545,0,8.1108e-05,810.52,3.0991e-05,51.058,2.4198e-05,0.021717,-8.0118e-05,-783.77,2.2511
3496,20.313,3.6364,0,8.1052e-05,809.96,3.0898e-05,50.147,2.4227e-05,0.02095,-8.0082e-05,-783.72,2.251
3497,20.313,3.8182,0,8.0981e-05,809.25,3.0777e-05,48.955,2.4264e-05,0.019892,-8.0037e-05,-783.65,2.2509
3498,20.313,4,0,8.0897e-05,808.41,3.0629e-05,47.499,2.431e-05,0.018515,-7.9983e-05,-783.6,2.2508
3499,20.313,4.1818,0,8.0801e-05,807.46,3.0459e-05,45.803,2.4365e-05,0.016772,-7.9924e-05,-783.57,2.2507
3500,20.313,4.3636,0,8.0699e-05,806.43,3.0268e-05,43.896,2.4428e-05,0.014613,-7.9862e-05,-783.58,2.2506
3501,20.313,4.5455,0,8.0594e-05,805.38,3.0062e-05,41.811,2.4499e-05,0.011967,-7.9801e-05,-783.66,2.2504
3502,20.313,4.7273,0,8.049e-05,804.35,2.9845e-05,39.585,2.4578e-05,0.0087665,-7.9744e-05,-783.82,2.2502
3503,20.313,4.9091,0,8.0393e-05,803.38,2.9622e-05,37.261,2.4663e-05,0.0048577,-7.9695e-05,-784.1,2.25
3504,20.313,5.0909,0,8.0309e-05,802.54,2.9398e-05,34.886,2.4755e-05,0.00037359,-7.9659e-05,-784.53,2.2498
3505,20.313,5.2727,0,8.0244e-05,801.88,2.9181e-05,32.509,2.4853e-05,-0.0058396,-7.9641e-05,-785.14,2.2496
3506,20.313,5.4545,0,8.0205e-05,801.5,2.8977e-05,30.195,2.4957e-05,-0.0097423,-7.9649e-05,-785.98,2.2493
3507,20.313,5.6364,0,8.0221e-05,801.65,2.8812e-05,28.125,2.5065e-05,-0.032784,-7.9706e-05,-787.24,2.249
3508,20.313,5.8182,0,8.0675e-05,806.2,2.9018e-05,28.816,2.5183e-05,-0.00099451,-8.0147e-05,-791.4,2.2487
3509,20.497,0.18182,0,7.6589e-05,765.36,2.7711e-05,29.327,2.3808e-05,-0.0015784,-7.6048e-05,-750.28,2.2793
3510,20.497,0.36364,0,7.6146e-05,760.93,2.7528e-05,28.857,2.3682e-05,-0.034789,-7.5614e-05,-746.11,2.2796
3511,20.497,0.54545,0,7.6149e-05,760.96,2.7719e-05,31.185,2.3568e-05,-0.010112,-7.557e-05,-744.89,2.2798
3512,20.497,0.72727,0,7.6208e-05,761.56,2.7952e-05,33.766,2.3457e-05,-0.0058701,-7.5578e-05,-744.11,2.2801
3513,20.497,0.90909,0,7.6295e-05,762.43,2.8198e-05,36.411,2.3352e-05,0.00075221,-7.5611e-05,-743.57,2.2803
3514,20.497,1.0909,0,7.6402e-05,763.49,2.8451e-05,39.052,2.3254e-05,0.0054976,-7.5663e-05,-743.22,2.2805
3515,20.497,1.2727,0,7.6521e-05,764.68,2.8702e-05,41.632,2.3162e-05,0.0096033,-7.5728e-05,-743.01,2.2807
3516,20.497,1.4545,0,7.6646e-05,765.93,2.8946e-05,44.099,2.3078e-05,0.012944,-7.58e-05,-742.92,2.2809
3517,20.497,1.6364,0,7.6772e-05,767.19,2.9177e-05,46.408,2.3002e-05,0.015693,-7.5877e-05,-742.92,2.281
3518,20.497,1.8182,0,7.6892e-05,768.39,2.939e-05,48.517,2.2935e-05,0.017928,-7.5952e-05,-742.98,2.2812
3519,20.497,2,0,7.7004e-05,769.51,2.958e-05,50.389,2.2876e-05,0.019724,-7.6023e-05,-743.07,2.2813
3520,20.497,2.1818,0,7.7102e-05,770.49,2.9744e-05,51.995,2.2827e-05,0.02114,-7.6086e-05,-743.17,2.2814
3521,20.497,2.3636,0,7.7185e-05,771.32,2.9879e-05,53.31,2.2787e-05,0.022222,-7.6139e-05,-743.27,2.2815
3522,20.497,2.5455,0,7.7249e-05,771.96,2.9982e-05,54.312,2.2756e-05,0.023006,-7.6181e-05,-743.36,2.2815
3523,20.497,2.7273,0,7.7293e-05,772.39,3.0052e-05,54.989,2.2736e-05,0.023512,-7.621e-05,-743.42,2.2816
3524,20.497,2.9091,0,7.7315e-05,772.61,3.0087e-05,55.33,2.2726e-05,0.023764,-7.6224e-05,-743.45,2.2816
3525,20.497,3.0909,0,7.7315e-05,772.61,3.0087e-05,55.33,2.2726e-05,0.023764,-7.6224e-05,-743.45,2.2816
3526,20.497,3.2727,0,7.7293e-05,772.39,3.0052e-05,54.989,2.2736e-05,0.023514,-7.621e-05,-743.42,2.2816
3527,20.497,3.4545,0,7.7249e-05,771.96,2.9982e-05,54.313,2.2756e-05,0.023004,-7.6181e-05,-743.36,2.2815
3528,20.497,3.6364,0,7.7185e-05,771.32,2.9879e-05,53.31,2.2787e-05,0.022222,-7.6139e-05,-743.27,2.2815
3529,20.497,3.8182,0,7.7102e-05,770.49,2.9744e-05,51.995,2.2827e-05,0.02114,-7.6086e-05,-743.17,2.2814
3530,20.497,4,0,7.7004e-05,769.51,2.958e-05,50.389,2.2876e-05,0.019722,-7.6023e-05,-743.07,2.2813
3531,20.497,4.1818,0,7.6892e-05,768.39,2.939e-05,48.517,2.2935e-05,0.017927,-7.5952e-05,-742.98,2.2812
3532,20.497,4.3636,0,7.6772e-05,767.19,2.9177e-05,46.408,2.3002e-05,0.015694,-7.5877e-05,-742.92,2.281
3533,20.497,4.5455,0,7.6646e-05,765.93,2.8946e-05,44.099,2.3078e-05,0.012945,-7.58e-05,-742.92,2.2809
3534,20.497,4.7273,0,7.6521e-05,764.68,2.8702e-05,41.632,2.3162e-05,0.0096048,-7.5728e-05,-743.01,2.2807
3535,20.497,4.9091,0,7.6402e-05,763.49,2.8451e-05,39.052,2.3254e-05,0.005496,-7.5663e-05,-743.22,2.2805
3536,20.497,5.0909,0,7.6295e-05,762.43,2.8198e-05,36.411,2.3352e-05,0.00074963,-7.5611e-05,-743.57,2.2803
3537,20.497,5.2727,0,7.6208e-05,761.56,2.7952e-05,33.766,2.3457e-05,-0.0058741,-7.5578e-05,-744.11,2.2801
3538,20.497,5.4545,0,7.6149e-05,760.96,2.7719e-05,31.185,2.3568e-05,-0.010112,-7.557e-05,-744.89,2.2798
3539,20.497,5.6364,0,7.6146e-05,760.93,2.7528e-05,28.857,2.3682e-05,-0.034788,-7.5614e-05,-746.11,2.2796
3540,20.497,5.8182,0,7.6589e-05,765.36,2.7711e-05,29.327,2.3808e-05,-0.0015737,-7.6048e-05,-750.28,2.2793
3541,20.681,0.18182,0,7.2517e-05,724.67,2.6409e-05,29.837,2.2437e-05,-0.0023011,-7.1964e-05,-709.29,2.3099
3542,20.681,0.36364,0,7.2088e-05,720.38,2.625e-05,29.616,2.2304e-05,-0.036963,-7.1539e-05,-705.13,2.3102
3543,20.681,0.54545,0,7.2111e-05,720.61,2.6472e-05,32.226,2.2182e-05,-0.010488,-7.1509e-05,-703.96,2.3104
3544,20.681,0.72727,0,7.2194e-05,721.44,2.6736e-05,35.1,2.2064e-05,-0.0058644,-7.1532e-05,-703.25,2.3107
3545,20.681,0.90909,0,7.2305e-05,722.55,2.7014e-05,38.041,2.1952e-05,0.0012132,-7.1583e-05,-702.78,2.3109
3546,20.681,1.0909,0,7.2437e-05,723.87,2.7299e-05,40.973,2.1846e-05,0.0062404,-7.1653e-05,-702.51,2.3111
3547,20.681,1.2727,0,7.258e-05,725.3,2.7581e-05,43.833,2.1748e-05,0.010562,-7.1735e-05,-702.39,2.3113
3548,20.681,1.4545,0,7.2729e-05,726.79,2.7854e-05,46.564,2.1658e-05,0.014056,-7.1825e-05,-702.38,2.3114
3549,20.681,1.6364,0,7.2877e-05,728.26,2.8111e-05,49.116,2.1577e-05,0.016912,-7.1917e-05,-702.46,2.3116
3550,20.681,1.8182,0,7.3018e-05,729.67,2.8348e-05,51.443,2.1504e-05,0.019225,-7.2006e-05,-702.58,2.3117
3551,20.681,2,0,7.3147e-05,730.97,2.856e-05,53.507,2.1441e-05,0.021077,-7.2089e-05,-702.73,2.3118
3552,20.681,2.1818,0,7.3261e-05,732.1,2.8742e-05,55.275,2.1388e-05,0.022529,-7.2163e-05,-702.89,2.3119
3553,20.681,2.3636,0,7.3356e-05,733.05,2.8891e-05,56.721,2.1345e-05,0.02364,-7.2226e-05,-703.03,2.312
3554,20.681,2.5455,0,7.3429e-05,733.78,2.9005e-05,57.823,2.1313e-05,0.024439,-7.2274e-05,-703.15,2.3121
3555,20.681,2.7273,0,7.3479e-05,734.28,2.9083e-05,58.566,2.1291e-05,0.024959,-7.2307e-05,-703.23,2.3121
3556,20.681,2.9091,0,7.3504e-05,734.54,2.9121e-05,58.94,2.128e-05,0.025215,-7.2324e-05,-703.28,2.3121
3557,20.681,3.0909,0,7.3504e-05,734.54,2.9121e-05,58.94,2.128e-05,0.025215,-7.2324e-05,-703.28,2.3121
3558,20.681,3.2727,0,7.3479e-05,734.28,2.9083e-05,58.566,2.1291e-05,0.02496,-7.2307e-05,-703.23,2.3121
3559,20.681,3.4545,0,7.3429e-05,733.78,2.9005e-05,57.823,2.1313e-05,0.024441,-7.2274e-05,-703.15,2.3121
3560,20.681,3.6364,0,7.3356e-05,733.05,2.8891e-05,56.721,2.1345e-05,0.023638,-7.2226e-05,-703.03,2.312
3561,20.681,3.8182,0,7.3261e-05,732.1,2.8742e-05,55.275,2.1388e-05,0.022531,-7.2163e-05,-702.89,2.3119
3562,20.681,4,0,7.3147e-05,730.97,2.856e-05,53.507,2.1441e-05,0.021075,-7.2089e-05,-702.73,2.3118
3563,20.681,4.1818,0,7.3018e-05,729.67,2.8348e-05,51.443,2.1504e-05,0.019225,-7.2006e-05,-702.58,2.3117
3564,20.681,4.3636,0,7.2877e-05,728.26,2.8111e-05,49.116,2.1577e-05,0.016912,-7.1917e-05,-702.46,2.3116
3565,20.681,4.5455,0,7.2729e-05,726.79,2.7854e-05,46.564,2.1658e-05,0.014055,-7.1825e-05,-702.38,2.3114
3566,20.681,4.7273,0,7.258e-05,725.3,2.7581e-05,43.833,2.1748e-05,0.010561,-7.1735e-05,-702.39,2.3113
3567,20.681,4.9091,0,7.2437e-05,723.87,2.7299e-05,40.973,2.1846e-05,0.0062386,-7.1653e-05,-702.51,2.3111
3568,20.681,5.0909,0,7.2305e-05,722.55,2.7014e-05,38.041,2.1952e-05,0.0012103,-7.1583e-05,-702.78,2.3109
3569,20.681,5.2727,0,7.2194e-05,721.44,2.6736e-05,35.1,2.2064e-05,-0.0058655,-7.1532e-05,-703.25,2.3107
3570,20.681,5.4545,0,7.2111e-05,720.61,2.6472e-05,32.226,2.2182e-05,-0.010488,-7.1509e-05,-703.96,2.3104
3571,20.681,5.6364,0,7.2088e-05,720.38,2.625e-05,29.616,2.2304e-05,-0.036963,-7.1539e-05,-705.13,2.3102
3572,20.681,5.8182,0,7.2517e-05,724.67,2.6409e-05,29.837,2.2437e-05,-0.0022988,-7.1964e-05,-709.29,2.3099
3573,20.866,0.18182,0,6.8459e-05,684.12,2.5111e-05,30.345,2.1072e-05,-0.0032069,-6.7893e-05,-668.45,2.3406
3574,20.866,0.36364,0,6.8046e-05,679.99,2.4981e-05,30.4,2.0929e-05,-0.03934,-6.7479e-05,-664.3,2.3408
3575,20.866,0.54545,0,6.8092e-05,680.45,2.5235e-05,33.322,2.0799e-05,-0.010861,-6.7464e-05,-663.19,2.3411
3576,20.866,0.72727,0,6.82e-05,681.53,2.5534e-05,36.519,2.0672e-05,-0.005805,-6.7506e-05,-662.54,2.3413
3577,20.866,0.90909,0,6.8339e-05,682.92,2.5847e-05,39.785,2.0553e-05,0.001769,-6.7575e-05,-662.16,2.3415
3578,20.866,1.0909,0,6.8498e-05,684.51,2.6167e-05,43.036,2.044e-05,0.0071054,-6.7665e-05,-661.98,2.3417
3579,20.866,1.2727,0,6.8669e-05,686.22,2.6482e-05,46.202,2.0335e-05,0.011662,-6.7766e-05,-661.95,2.3419
3580,20.866,1.4545,0,6.8844e-05,687.97,2.6787e-05,49.221,2.0238e-05,0.015318,-6.7874e-05,-662.03,2.342
3581,20.866,1.6364,0,6.9016e-05,689.68,2.7074e-05,52.037,2.0151e-05,0.018292,-6.7983e-05,-662.18,2.3422
3582,20.866,1.8182,0,6.9179e-05,691.31,2.7337e-05,54.601,2.0073e-05,0.020685,-6.8088e-05,-662.38,2.3423
3583,20.866,2,0,6.9328e-05,692.8,2.7571e-05,56.872,2.0005e-05,0.022592,-6.8184e-05,-662.6,2.3424
3584,20.866,2.1818,0,6.9458e-05,694.1,2.7772e-05,58.814,1.9948e-05,0.024085,-6.827e-05,-662.81,2.3425
3585,20.866,2.3636,0,6.9566e-05,695.18,2.7937e-05,60.4,1.9902e-05,0.025222,-6.8341e-05,-663,2.3426
3586,20.866,2.5455,0,6.9649e-05,696.01,2.8063e-05,61.608,1.9867e-05,0.02604,-6.8396e-05,-663.15,2.3427
3587,20.866,2.7273,0,6.9706e-05,696.58,2.8148e-05,62.422,1.9844e-05,0.026569,-6.8434e-05,-663.26,2.3427
3588,20.866,2.9091,0,6.9735e-05,696.87,2.8191e-05,62.831,1.9832e-05,0.026829,-6.8453e-05,-663.31,2.3427
3589,20.866,3.0909,0,6.9735e-05,696.87,2.8191e-05,62.831,1.9832e-05,0.026828,-6.8453e-05,-663.31,2.3427
3590,20.866,3.2727,0,6.9706e-05,696.58,2.8148e-05,62.422,1.9844e-05,0.026569,-6.8434e-05,-663.26,2.3427
3591,20.866,3.4545,0,6.9649e-05,696.01,2.8063e-05,61.608,1.9867e-05,0.026037,-6.8396e-05,-663.15,2.3427
3592,20.866,3.6364,0,6.9566e-05,695.18,2.7937e-05,60.4,1.9902e-05,0.02522,-6.8341e-05,-663,2.3426
3593,20.866,3.8182,0,6.9458e-05,694.1,2.7772e-05,58.814,1.9948e-05,0.024086,-6.827e-05,-662.81,2.3425
3594,20.866,4,0,6.9328e-05,692.8,2.7571e-05,56.872,2.0005e-05,0.022591,-6.8184e-05,-662.6,2.3424
3595,20.866,4.1818,0,6.9179e-05,691.31,2.7337e-05,54.601,2.0073e-05,0.020685,-6.8088e-05,-662.38,2.3423
3596,20.866,4.3636,0,6.9016e-05,689.68,2.7074e-05,52.037,2.0151e-05,0.018291,-6.7983e-05,-662.18,2.3422
3597,20.866,4.5455,0,6.8844e-05,687.97,2.6787e-05,49.222,2.0238e-05,0.015315,-6.7874e-05,-662.03,2.342
3598,20.866,4.7273,0,6.8669e-05,686.22,2.6482e-05,46.202,2.0335e-05,0.011661,-6.7766e-05,-661.95,2.3419
3599,20.866,4.9091,0,6.8498e-05,684.51,2.6167e-05,43.036,2.044e-05,0.0071065,-6.7665e-05,-661.98,2.3417
3600,20.866,5.0909,0,6.8339e-05,682.92,2.5847e-05,39.785,2.0553e-05,0.0017683,-6.7575e-05,-662.16,2.3415
3601,20.866,5.2727,0,6.82e-05,681.53,2.5534e-05,36.519,2.0672e-05,-0.0058088,-6.7506e-05,-662.54,2.3413
3602,20.866,5.4545,0,6.8092e-05,680.46,2.5235e-05,33.322,2.0799e-05,-0.010863,-6.7464e-05,-663.19,2.3411
3603,20.866,5.6364,0,6.8046e-05,679.99,2.4981e-05,30.4,2.0929e-05,-0.039337,-6.7479e-05,-664.3,2.3408
3604,20.866,5.8182,0,6.8459e-05,684.12,2.5111e-05,30.345,2.1072e-05,-0.0032046,-6.7893e-05,-668.45,2.3406
3605,21.05,0.18182,0,6.4415e-05,643.71,2.3816e-05,30.846,1.971e-05,-0.00432,-6.3835e-05,-627.73,2.3713
3606,21.05,0.36364,0,6.4021e-05,639.77,2.3718e-05,31.212,1.9558e-05,-0.041931,-6.3434e-05,-623.61,2.3715
3607,21.05,0.54545,0,6.4093e-05,640.49,2.4009e-05,34.478,1.9419e-05,-0.011226,-6.3437e-05,-622.56,2.3717
3608,21.05,0.72727,0,6.423e-05,641.85,2.4346e-05,38.03,1.9284e-05,-0.0056695,-6.3498e-05,-621.99,2.372
3609,21.05,0.90909,0,6.4399e-05,643.54,2.4698e-05,41.653,1.9155e-05,0.0024542,-6.3589e-05,-621.7,2.3722
3610,21.05,1.0909,0,6.4589e-05,645.44,2.5056e-05,45.255,1.9034e-05,0.008135,-6.3699e-05,-621.62,2.3724
3611,21.05,1.2727,0,6.479e-05,647.45,2.5408e-05,48.757,1.8921e-05,0.012938,-6.3822e-05,-621.69,2.3725
3612,21.05,1.4545,0,6.4993e-05,649.48,2.5748e-05,52.089,1.8817e-05,0.016766,-6.395e-05,-621.86,2.3727
3613,21.05,1.6364,0,6.5192e-05,651.47,2.6066e-05,55.191,1.8723e-05,0.019863,-6.4077e-05,-622.11,2.3728
3614,21.05,1.8182,0,6.5378e-05,653.33,2.6357e-05,58.011,1.8639e-05,0.02234,-6.4198e-05,-622.38,2.373
3615,21.05,2,0,6.5548e-05,655.03,2.6616e-05,60.503,1.8567e-05,0.024308,-6.4308e-05,-622.67,2.3731
3616,21.05,2.1818,0,6.5696e-05,656.5,2.6838e-05,62.631,1.8505e-05,0.025844,-6.4405e-05,-622.93,2.3732
3617,21.05,2.3636,0,6.5818e-05,657.73,2.7019e-05,64.367,1.8456e-05,0.027004,-6.4486e-05,-623.17,2.3732
3618,21.05,2.5455,0,6.5912e-05,658.67,2.7157e-05,65.688,1.8418e-05,0.027837,-6.4548e-05,-623.35,2.3733
3619,21.05,2.7273,0,6.5976e-05,659.31,2.725e-05,66.577,1.8393e-05,0.028378,-6.4591e-05,-623.48,2.3733
3620,21.05,2.9091,0,6.6008e-05,659.63,2.7297e-05,67.025,1.8381e-05,0.028645,-6.4612e-05,-623.55,2.3733
3621,21.05,3.0909,0,6.6008e-05,659.63,2.7297e-05,67.025,1.8381e-05,0.028642,-6.4612e-05,-623.55,2.3733
3622,21.05,3.2727,0,6.5976e-05,659.31,2.725e-05,66.578,1.8393e-05,0.028377,-6.4591e-05,-623.48,2.3733
3623,21.05,3.4545,0,6.5912e-05,658.67,2.7157e-05,65.688,1.8418e-05,0.02784,-6.4548e-05,-623.35,2.3733
3624,21.05,3.6364,0,6.5818e-05,657.73,2.7019e-05,64.367,1.8456e-05,0.027005,-6.4486e-05,-623.17,2.3732
3625,21.05,3.8182,0,6.5696e-05,656.5,2.6838e-05,62.631,1.8505e-05,0.025842,-6.4405e-05,-622.93,2.3732
3626,21.05,4,0,6.5548e-05,655.03,2.6616e-05,60.503,1.8567e-05,0.024306,-6.4308e-05,-622.67,2.3731
3627,21.05,4.1818,0,6.5378e-05,653.33,2.6357e-05,58.011,1.8639e-05,0.022342,-6.4198e-05,-622.38,2.373
3628,21.05,4.3636,0,6.5192e-05,651.47,2.6066e-05,55.191,1.8723e-05,0.019864,-6.4077e-05,-622.11,2.3728
3629,21.05,4.5455,0,6.4993e-05,649.48,2.5748e-05,52.089,1.8817e-05,0.016765,-6.395e-05,-621.86,2.3727
3630,21.05,4.7273,0,6.479e-05,647.45,2.5408e-05,48.757,1.8921e-05,0.012941,-6.3822e-05,-621.69,2.3725
3631,21.05,4.9091,0,6.4589e-05,645.44,2.5056e-05,45.255,1.9034e-05,0.0081315,-6.3699e-05,-621.62,2.3724
3632,21.05,5.0909,0,6.4399e-05,643.54,2.4698e-05,41.653,1.9155e-05,0.0024542,-6.3589e-05,-621.7,2.3722
3633,21.05,5.2727,0,6.423e-05,641.85,2.4346e-05,38.03,1.9284e-05,-0.0056736,-6.3498e-05,-621.99,2.372
3634,21.05,5.4545,0,6.4093e-05,640.49,2.4009e-05,34.478,1.9419e-05,-0.011227,-6.3437e-05,-622.56,2.3717
3635,21.05,5.6364,0,6.4021e-05,639.77,2.3718e-05,31.212,1.9558e-05,-0.041927,-6.3434e-05,-623.61,2.3715
3636,21.05,5.8182,0,6.4415e-05,643.71,2.3816e-05,30.846,1.971e-05,-0.0043219,-6.3835e-05,-627.73,2.3713
3637,21.235,0.18182,0,6.0384e-05,603.42,2.2525e-05,31.338,1.8354e-05,-0.0056994,-5.979e-05,-587.15,2.402
3638,21.235,0.36364,0,6.0012e-05,599.71,2.2463e-05,32.052,1.8191e-05,-0.044751,-5.9403e-05,-583.06,2.4022
3639,21.235,0.54545,0,6.0113e-05,600.71,2.2794e-05,35.696,1.8042e-05,-0.011564,-5.9426e-05,-582.07,2.4025
3640,21.235,0.72727,0,6.0282e-05,602.4,2.3173e-05,39.641,1.7897e-05,-0.0054387,-5.9509e-05,-581.6,2.4027
3641,21.235,0.90909,0,6.0485e-05,604.43,2.3569e-05,43.659,1.7758e-05,0.0032989,-5.9623e-05,-581.41,2.4029
3642,21.235,1.0909,0,6.0709e-05,606.67,2.3968e-05,47.646,1.7628e-05,0.0093533,-5.9757e-05,-581.43,2.4031
3643,21.235,1.2727,0,6.0943e-05,609.01,2.4361e-05,51.514,1.7507e-05,0.014431,-5.9903e-05,-581.61,2.4032
3644,21.235,1.4545,0,6.1178e-05,611.36,2.4737e-05,55.187,1.7395e-05,0.018444,-6.0052e-05,-581.88,2.4034
3645,21.235,1.6364,0,6.1405e-05,613.63,2.509e-05,58.599,1.7294e-05,0.021669,-6.0198e-05,-582.22,2.4035
3646,21.235,1.8182,0,6.1618e-05,615.75,2.5411e-05,61.693,1.7203e-05,0.024237,-6.0336e-05,-582.58,2.4036
3647,21.235,2,0,6.181e-05,617.67,2.5696e-05,64.423,1.7125e-05,0.026261,-6.0461e-05,-582.93,2.4037
3648,21.235,2.1818,0,6.1977e-05,619.34,2.5939e-05,66.75,1.7059e-05,0.027836,-6.0571e-05,-583.25,2.4038
3649,21.235,2.3636,0,6.2114e-05,620.72,2.6138e-05,68.645,1.7006e-05,0.029023,-6.0661e-05,-583.53,2.4039
3650,21.235,2.5455,0,6.222e-05,621.77,2.6289e-05,70.085,1.6966e-05,0.029875,-6.073e-05,-583.75,2.404
3651,21.235,2.7273,0,6.2292e-05,622.49,2.6391e-05,71.054,1.6939e-05,0.030424,-6.0777e-05,-583.9,2.404
3652,21.235,2.9091,0,6.2328e-05,622.85,2.6442e-05,71.541,1.6925e-05,0.030693,-6.0801e-05,-583.97,2.404
3653,21.235,3.0909,0,6.2328e-05,622.85,2.6442e-05,71.541,1.6925e-05,0.030695,-6.0801e-05,-583.97,2.404
3654,21.235,3.2727,0,6.2292e-05,622.49,2.6391e-05,71.054,1.6939e-05,0.030424,-6.0777e-05,-583.9,2.404
3655,21.235,3.4545,0,6.222e-05,621.77,2.6289e-05,70.085,1.6966e-05,0.029874,-6.073e-05,-583.75,2.404
3656,21.235,3.6364,0,6.2114e-05,620.72,2.6138e-05,68.645,1.7006e-05,0.029021,-6.0661e-05,-583.53,2.4039
3657,21.235,3.8182,0,6.1977e-05,619.34,2.5939e-05,66.75,1.7059e-05,0.027836,-6.0571e-05,-583.25,2.4038
3658,21.235,4,0,6.181e-05,617.67,2.5696e-05,64.423,1.7125e-05,0.026261,-6.0461e-05,-582.93,2.4037
3659,21.235,4.1818,0,6.1618e-05,615.75,2.5411e-05,61.693,1.7203e-05,0.024235,-6.0336e-05,-582.58,2.4036
3660,21.235,4.3636,0,6.1405e-05,613.63,2.509e-05,58.599,1.7294e-05,0.02167,-6.0198e-05,-582.22,2.4035
3661,21.235,4.5455,0,6.1178e-05,611.36,2.4737e-05,55.187,1.7395e-05,0.018444,-6.0052e-05,-581.88,2.4034
3662,21.235,4.7273,0,6.0943e-05,609.01,2.4361e-05,51.514,1.7507e-05,0.01443,-5.9903e-05,-581.61,2.4032
3663,21.235,4.9091,0,6.0709e-05,606.67,2.3968e-05,47.646,1.7628e-05,0.0093516,-5.9757e-05,-581.43,2.4031
3664,21.235,5.0909,0,6.0485e-05,604.43,2.3569e-05,43.659,1.7758e-05,0.0032991,-5.9623e-05,-581.41,2.4029
3665,21.235,5.2727,0,6.0282e-05,602.4,2.3173e-05,39.641,1.7897e-05,-0.0054389,-5.9509e-05,-581.6,2.4027
3666,21.235,5.4545,0,6.0113e-05,600.71,2.2794e-05,35.697,1.8042e-05,-0.011559,-5.9426e-05,-582.07,2.4025
3667,21.235,5.6364,0,6.0012e-05,599.71,2.2463e-05,32.052,1.8191e-05,-0.044749,-5.9403e-05,-583.06,2.4022
3668,21.235,5.8182,0,6.0384e-05,603.42,2.2525e-05,31.338,1.8354e-05,-0.0057021,-5.979e-05,-587.15,2.402
3669,21.419,0.18182,0,5.6365e-05,563.26,2.1237e-05,31.816,1.7002e-05,-0.0074144,-5.5757e-05,-546.68,2.4328
3670,21.419,0.36364,0,5.6019e-05,559.81,2.1215e-05,32.919,1.6828e-05,-0.047825,-5.5387e-05,-542.64,2.433
3671,21.419,0.54545,0,5.6153e-05,561.14,2.1591e-05,36.985,1.6667e-05,-0.011836,-5.5432e-05,-541.74,2.4332
3672,21.419,0.72727,0,5.6358e-05,563.19,2.2017e-05,41.365,1.6511e-05,-0.005062,-5.554e-05,-541.37,2.4334
3673,21.419,0.90909,0,5.6599e-05,565.59,2.246e-05,45.819,1.6362e-05,0.0043591,-5.568e-05,-541.29,2.4336
3674,21.419,1.0909,0,5.6861e-05,568.21,2.2905e-05,50.228,1.6222e-05,0.01082,-5.5839e-05,-541.43,2.4338
3675,21.419,1.2727,0,5.7132e-05,570.92,2.3342e-05,54.497,1.6091e-05,0.016192,-5.6009e-05,-541.71,2.434
3676,21.419,1.4545,0,5.7401e-05,573.62,2.3759e-05,58.54,1.597e-05,0.020405,-5.6181e-05,-542.09,2.4341
3677,21.419,1.6364,0,5.766e-05,576.21,2.4148e-05,62.285,1.5861e-05,0.023768,-5.6347e-05,-542.52,2.4342
3678,21.419,1.8182,0,5.7901e-05,578.61,2.4501e-05,65.673,1.5764e-05,0.026421,-5.6503e-05,-542.96,2.4344
3679,21.419,2,0,5.8117e-05,580.77,2.4813e-05,68.655,1.568e-05,0.028509,-5.6644e-05,-543.38,2.4345
3680,21.419,2.1818,0,5.8304e-05,582.64,2.508e-05,71.192,1.5609e-05,0.030122,-5.6765e-05,-543.76,2.4345
3681,21.419,2.3636,0,5.8458e-05,584.17,2.5296e-05,73.254,1.5551e-05,0.031335,-5.6866e-05,-544.08,2.4346
3682,21.419,2.5455,0,5.8575e-05,585.35,2.5461e-05,74.819,1.5508e-05,0.032204,-5.6942e-05,-544.33,2.4347
3683,21.419,2.7273,0,5.8655e-05,586.14,2.5572e-05,75.871,1.5479e-05,0.032762,-5.6994e-05,-544.5,2.4347
3684,21.419,2.9091,0,5.8695e-05,586.54,2.5628e-05,76.4,1.5464e-05,0.033035,-5.702e-05,-544.59,2.4347
3685,21.419,3.0909,0,5.8695e-05,586.54,2.5628e-05,76.4,1.5464e-05,0.033034,-5.702e-05,-544.59,2.4347
3686,21.419,3.2727,0,5.8655e-05,586.14,2.5572e-05,75.871,1.5479e-05,0.03276,-5.6994e-05,-544.5,2.4347
3687,21.419,3.4545,0,5.8575e-05,585.35,2.5461e-05,74.819,1.5508e-05,0.032204,-5.6942e-05,-544.33,2.4347
3688,21.419,3.6364,0,5.8458e-05,584.17,2.5296e-05,73.254,1.5551e-05,0.031335,-5.6866e-05,-544.08,2.4346
3689,21.419,3.8182,0,5.8304e-05,582.64,2.508e-05,71.192,1.5609e-05,0.030122,-5.6765e-05,-543.76,2.4345
3690,21.419,4,0,5.8117e-05,580.77,2.4813e-05,68.655,1.568e-05,0.028508,-5.6644e-05,-543.38,2.4345
3691,21.419,4.1818,0,5.7901e-05,578.61,2.4501e-05,65.673,1.5764e-05,0.02642,-5.6503e-05,-542.96,2.4344
3692,21.419,4.3636,0,5.766e-05,576.21,2.4148e-05,62.285,1.5861e-05,0.023766,-5.6347e-05,-542.52,2.4342
3693,21.419,4.5455,0,5.7401e-05,573.62,2.3759e-05,58.54,1.597e-05,0.020404,-5.6181e-05,-542.09,2.4341
3694,21.419,4.7273,0,5.7132e-05,570.92,2.3342e-05,54.497,1.6091e-05,0.016194,-5.6009e-05,-541.71,2.434
3695,21.419,4.9091,0,5.6861e-05,568.21,2.2905e-05,50.228,1.6222e-05,0.010819,-5.5839e-05,-541.43,2.4338
3696,21.419,5.0909,0,5.6599e-05,565.59,2.246e-05,45.819,1.6362e-05,0.0043578,-5.568e-05,-541.29,2.4336
3697,21.419,5.2727,0,5.6358e-05,563.19,2.2017e-05,41.365,1.6511e-05,-0.0050635,-5.554e-05,-541.37,2.4334
3698,21.419,5.4545,0,5.6153e-05,561.14,2.1591e-05,36.985,1.6667e-05,-0.01184,-5.5432e-05,-541.74,2.4332
3699,21.419,5.6364,0,5.6019e-05,559.81,2.1215e-05,32.919,1.6828e-05,-0.047822,-5.5387e-05,-542.64,2.433
3700,21.419,5.8182,0,5.6365e-05,563.26,2.1237e-05,31.816,1.7002e-05,-0.0074107,-5.5757e-05,-546.68,2.4328
3701,21.603,0.18182,0,5.2359e-05,523.22,1.9951e-05,32.274,1.5654e-05,-0.0095233,-5.1735e-05,-506.35,2.4636
3702,21.603,0.36364,0,5.2043e-05,520.07,1.9975e-05,33.817,1.5468e-05,-0.051181,-5.1386e-05,-502.36,2.4638
3703,21.603,0.54545,0,5.2213e-05,521.77,2.0401e-05,38.351,1.5295e-05,-0.012032,-5.1455e-05,-501.55,2.464
3704,21.603,0.72727,0,5.2459e-05,524.23,2.0878e-05,43.214,1.5126e-05,-0.0044961,-5.159e-05,-501.29,2.4642
3705,21.603,0.90909,0,5.2743e-05,527.07,2.1374e-05,48.149,1.4966e-05,0.0056892,-5.1758e-05,-501.34,2.4644
3706,21.603,1.0909,0,5.3048e-05,530.11,2.187e-05,53.024,1.4814e-05,0.012601,-5.1946e-05,-501.6,2.4646
3707,21.603,1.2727,0,5.336e-05,533.23,2.2354e-05,57.729,1.4673e-05,0.018295,-5.2142e-05,-502.01,2.4647
3708,21.603,1.4545,0,5.3667e-05,536.3,2.2815e-05,62.172,1.4543e-05,0.022715,-5.2338e-05,-502.49,2.4649
3709,21.603,1.6364,0,5.396e-05,539.23,2.3242e-05,66.275,1.4425e-05,0.026216,-5.2526e-05,-503.02,2.465
3710,21.603,1.8182,0,5.4231e-05,541.93,2.363e-05,69.976,1.432e-05,0.028964,-5.27e-05,-503.53,2.4651
3711,21.603,2,0,5.4473e-05,544.35,2.3971e-05,73.224,1.4229e-05,0.031112,-5.2856e-05,-504.02,2.4652
3712,21.603,2.1818,0,5.4681e-05,546.43,2.4261e-05,75.982,1.4153e-05,0.032766,-5.299e-05,-504.45,2.4653
3713,21.603,2.3636,0,5.4851e-05,548.14,2.4496e-05,78.218,1.4091e-05,0.034002,-5.31e-05,-504.81,2.4654
3714,21.603,2.5455,0,5.4982e-05,549.44,2.4675e-05,79.913,1.4044e-05,0.034885,-5.3184e-05,-505.09,2.4654
3715,21.603,2.7273,0,5.5069e-05,550.31,2.4795e-05,81.051,1.4013e-05,0.035455,-5.3241e-05,-505.28,2.4654
3716,21.603,2.9091,0,5.5114e-05,550.76,2.4856e-05,81.623,1.3997e-05,0.03573,-5.3269e-05,-505.38,2.4655
3717,21.603,3.0909,0,5.5114e-05,550.76,2.4856e-05,81.623,1.3997e-05,0.03573,-5.3269e-05,-505.38,2.4655
3718,21.603,3.2727,0,5.5069e-05,550.31,2.4795e-05,81.051,1.4013e-05,0.035454,-5.3241e-05,-505.28,2.4654
3719,21.603,3.4545,0,5.4982e-05,549.44,2.4675e-05,79.913,1.4044e-05,0.034885,-5.3184e-05,-505.09,2.4654
3720,21.603,3.6364,0,5.4851e-05,548.14,2.4496e-05,78.219,1.4091e-05,0.034002,-5.31e-05,-504.81,2.4654
3721,21.603,3.8182,0,5.4681e-05,546.43,2.4261e-05,75.982,1.4153e-05,0.032765,-5.299e-05,-504.45,2.4653
3722,21.603,4,0,5.4473e-05,544.35,2.3971e-05,73.224,1.4229e-05,0.031113,-5.2856e-05,-504.02,2.4652
3723,21.603,4.1818,0,5.4231e-05,541.93,2.363e-05,69.976,1.432e-05,0.028966,-5.27e-05,-503.53,2.4651
3724,21.603,4.3636,0,5.396e-05,539.23,2.3242e-05,66.275,1.4425e-05,0.026216,-5.2526e-05,-503.02,2.465
3725,21.603,4.5455,0,5.3667e-05,536.3,2.2815e-05,62.172,1.4543e-05,0.022713,-5.2338e-05,-502.49,2.4649
3726,21.603,4.7273,0,5.336e-05,533.23,2.2354e-05,57.729,1.4673e-05,0.018293,-5.2142e-05,-502.01,2.4647
3727,21.603,4.9091,0,5.3048e-05,530.11,2.187e-05,53.024,1.4814e-05,0.012601,-5.1946e-05,-501.6,2.4646
3728,21.603,5.0909,0,5.2743e-05,527.07,2.1374e-05,48.15,1.4966e-05,0.0056867,-5.1758e-05,-501.34,2.4644
3729,21.603,5.2727,0,5.2459e-05,524.23,2.0878e-05,43.214,1.5126e-05,-0.0045004,-5.159e-05,-501.29,2.4642
3730,21.603,5.4545,0,5.2213e-05,521.77,2.0401e-05,38.351,1.5295e-05,-0.012032,-5.1455e-05,-501.55,2.464
3731,21.603,5.6364,0,5.2043e-05,520.07,1.9975e-05,33.817,1.5468e-05,-0.051175,-5.1386e-05,-502.36,2.4638
3732,21.603,5.8182,0,5.2359e-05,523.22,1.9951e-05,32.274,1.5654e-05,-0.0095216,-5.1735e-05,-506.35,2.4636
3733,21.788,0.18182,0,4.8364e-05,483.3,1.8666e-05,32.705,1.4312e-05,-0.012143,-4.7724e-05,-466.13,2.4945
3734,21.788,0.36364,0,4.8084e-05,480.51,1.8743e-05,34.746,1.4111e-05,-0.054836,-4.7399e-05,-462.22,2.4947
3735,21.788,0.54545,0,4.8297e-05,482.63,1.9224e-05,39.804,1.3924e-05,-0.012094,-4.7496e-05,-461.5,2.4949
3736,21.788,0.72727,0,4.8589e-05,485.56,1.976e-05,45.206,1.3743e-05,-0.0036766,-4.7662e-05,-461.37,2.4951
3737,21.788,0.90909,0,4.8921e-05,488.87,2.0313e-05,50.675,1.3569e-05,0.007366,-4.7861e-05,-461.56,2.4952
3738,21.788,1.0909,0,4.9273e-05,492.39,2.0865e-05,56.061,1.3405e-05,0.01478,-4.8079e-05,-461.95,2.4954
3739,21.788,1.2727,0,4.963e-05,495.96,2.14e-05,61.241,1.3252e-05,0.020816,-4.8303e-05,-462.48,2.4955
3740,21.788,1.4545,0,4.9979e-05,499.44,2.1907e-05,66.115,1.3112e-05,0.02546,-4.8524e-05,-463.08,2.4957
3741,21.788,1.6364,0,5.0309e-05,502.74,2.2376e-05,70.599,1.2984e-05,0.029106,-4.8734e-05,-463.7,2.4958
3742,21.788,1.8182,0,5.0612e-05,505.77,2.2799e-05,74.63,1.2871e-05,0.031949,-4.8927e-05,-464.29,2.4959
3743,21.788,2,0,5.0881e-05,508.46,2.317e-05,78.157,1.2773e-05,0.034159,-4.9098e-05,-464.84,2.496
3744,21.788,2.1818,0,5.1111e-05,510.76,2.3485e-05,81.144,1.269e-05,0.035847,-4.9245e-05,-465.32,2.4961
3745,21.788,2.3636,0,5.1299e-05,512.64,2.374e-05,83.561,1.2623e-05,0.037112,-4.9364e-05,-465.71,2.4962
3746,21.788,2.5455,0,5.1443e-05,514.07,2.3933e-05,85.389,1.2573e-05,0.038009,-4.9455e-05,-466.02,2.4962
3747,21.788,2.7273,0,5.1539e-05,515.03,2.4062e-05,86.615,1.2539e-05,0.038585,-4.9516e-05,-466.22,2.4962
3748,21.788,2.9091,0,5.1587e-05,515.52,2.4127e-05,87.23,1.2523e-05,0.038866,-4.9546e-05,-466.32,2.4962
3749,21.788,3.0909,0,5.1587e-05,515.52,2.4127e-05,87.23,1.2523e-05,0.038864,-4.9546e-05,-466.32,2.4962
3750,21.788,3.2727,0,5.1539e-05,515.03,2.4062e-05,86.615,1.2539e-05,0.038584,-4.9516e-05,-466.22,2.4962
3751,21.788,3.4545,0,5.1443e-05,514.07,2.3933e-05,85.389,1.2573e-05,0.038009,-4.9455e-05,-466.02,2.4962
3752,21.788,3.6364,0,5.1299e-05,512.64,2.374e-05,83.561,1.2623e-05,0.037111,-4.9364e-05,-465.71,2.4962
3753,21.788,3.8182,0,5.1111e-05,510.76,2.3485e-05,81.144,1.269e-05,0.035849,-4.9245e-05,-465.32,2.4961
3754,21.788,4,0,5.0881e-05,508.46,2.317e-05,78.157,1.2773e-05,0.034157,-4.9098e-05,-464.84,2.496
3755,21.788,4.1818,0,5.0612e-05,505.77,2.2799e-05,74.63,1.2871e-05,0.03195,-4.8927e-05,-464.29,2.4959
3756,21.788,4.3636,0,5.0309e-05,502.74,2.2376e-05,70.599,1.2984e-05,0.029108,-4.8734e-05,-463.7,2.4958
3757,21.788,4.5455,0,4.9979e-05,499.44,2.1907e-05,66.115,1.3112e-05,0.025458,-4.8524e-05,-463.08,2.4957
3758,21.788,4.7273,0,4.963e-05,495.96,2.14e-05,61.241,1.3252e-05,0.020817,-4.8303e-05,-462.48,2.4955
3759,21.788,4.9091,0,4.9273e-05,492.39,2.0865e-05,56.061,1.3405e-05,0.014779,-4.8079e-05,-461.95,2.4954
3760,21.788,5.0909,0,4.8921e-05,488.87,2.0313e-05,50.675,1.3569e-05,0.0073668,-4.7861e-05,-461.56,2.4952
3761,21.788,5.2727,0,4.8589e-05,485.56,1.976e-05,45.206,1.3743e-05,-0.0036748,-4.7662e-05,-461.37,2.4951
3762,21.788,5.4545,0,4.8297e-05,482.63,1.9224e-05,39.804,1.3924e-05,-0.012092,-4.7496e-05,-461.5,2.4949
3763,21.788,5.6364,0,4.8084e-05,480.51,1.8743e-05,34.746,1.4111e-05,-0.054834,-4.7399e-05,-462.22,2.4947
3764,21.788,5.8182,0,4.8364e-05,483.3,1.8666e-05,32.705,1.4312e-05,-0.012142,-4.7724e-05,-466.13,2.4945
3765,21.972,0.18182,0,4.438e-05,443.5,1.7382e-05,33.104,1.2974e-05,-0.015395,-4.3725e-05,-426.03,2.5253
3766,21.972,0.36364,0,4.4143e-05,441.13,1.7518e-05,35.71,1.2757e-05,-0.058805,-4.3428e-05,-422.21,2.5255
3767,21.972,0.54545,0,4.4404e-05,443.73,1.8062e-05,41.357,1.2556e-05,-0.011936,-4.3556e-05,-421.61,2.5257
3768,21.972,0.72727,0,4.475e-05,447.19,1.8663e-05,47.362,1.2359e-05,-0.0024804,-4.3756e-05,-421.63,2.5259
3769,21.972,0.90909,0,4.5137e-05,451.05,1.928e-05,53.424,1.2171e-05,0.0095271,-4.399e-05,-421.96,2.5261
3770,21.972,1.0909,0,4.5542e-05,455.11,1.9893e-05,59.372,1.1993e-05,0.017489,-4.424e-05,-422.5,2.5262
3771,21.972,1.2727,0,4.5949e-05,459.17,2.0484e-05,65.068,1.1827e-05,0.023896,-4.4494e-05,-423.16,2.5264
3772,21.972,1.4545,0,4.6342e-05,463.1,2.1041e-05,70.402,1.1675e-05,0.028773,-4.4741e-05,-423.86,2.5265
3773,21.972,1.6364,0,4.6712e-05,466.8,2.1553e-05,75.29,1.1537e-05,0.032571,-4.4973e-05,-424.56,2.5266
3774,21.972,1.8182,0,4.7049e-05,470.16,2.2013e-05,79.666,1.1415e-05,0.03551,-4.5184e-05,-425.23,2.5267
3775,21.972,2,0,4.7347e-05,473.14,2.2415e-05,83.482,1.1309e-05,0.037775,-4.537e-05,-425.83,2.5268
3776,21.972,2.1818,0,4.76e-05,475.67,2.2754e-05,86.703,1.122e-05,0.039508,-4.5528e-05,-426.34,2.5269
3777,21.972,2.3636,0,4.7806e-05,477.73,2.3028e-05,89.304,1.1148e-05,0.040794,-4.5657e-05,-426.77,2.527
3778,21.972,2.5455,0,4.7963e-05,479.3,2.3235e-05,91.267,1.1094e-05,0.041706,-4.5754e-05,-427.09,2.527
3779,21.972,2.7273,0,4.8068e-05,480.35,2.3374e-05,92.582,1.1058e-05,0.042291,-4.5819e-05,-427.3,2.5271
3780,21.972,2.9091,0,4.8121e-05,480.88,2.3444e-05,93.241,1.104e-05,0.042579,-4.5851e-05,-427.41,2.5271
3781,21.972,3.0909,0,4.8121e-05,480.88,2.3444e-05,93.241,1.104e-05,0.042579,-4.5851e-05,-427.41,2.5271
3782,21.972,3.2727,0,4.8068e-05,480.35,2.3374e-05,92.582,1.1058e-05,0.042293,-4.5819e-05,-427.3,2.5271
3783,21.972,3.4545,0,4.7963e-05,479.3,2.3235e-05,91.267,1.1094e-05,0.041707,-4.5754e-05,-427.09,2.527
3784,21.972,3.6364,0,4.7806e-05,477.73,2.3028e-05,89.304,1.1148e-05,0.040795,-4.5657e-05,-426.77,2.527
3785,21.972,3.8182,0,4.76e-05,475.67,2.2754e-05,86.703,1.122e-05,0.039507,-4.5528e-05,-426.34,2.5269
3786,21.972,4,0,4.7347e-05,473.14,2.2415e-05,83.482,1.1309e-05,0.037775,-4.537e-05,-425.83,2.5268
3787,21.972,4.1818,0,4.7049e-05,470.16,2.2013e-05,79.666,1.1415e-05,0.035508,-4.5184e-05,-425.23,2.5267
3788,21.972,4.3636,0,4.6712e-05,466.8,2.1553e-05,75.29,1.1537e-05,0.032568,-4.4973e-05,-424.56,2.5266
3789,21.972,4.5455,0,4.6342e-05,463.1,2.1041e-05,70.402,1.1675e-05,0.028774,-4.4741e-05,-423.86,2.5265
3790,21.972,4.7273,0,4.5949e-05,459.17,2.0484e-05,65.068,1.1827e-05,0.023895,-4.4494e-05,-423.16,2.5264
3791,21.972,4.9091,0,4.5542e-05,455.11,1.9893e-05,59.372,1.1993e-05,0.017488,-4.424e-05,-422.5,2.5262
3792,21.972,5.0909,0,4.5137e-05,451.05,1.928e-05,53.425,1.2171e-05,0.0095283,-4.399e-05,-421.96,2.5261
3793,21.972,5.2727,0,4.475e-05,447.19,1.8663e-05,47.362,1.2359e-05,-0.0024828,-4.3756e-05,-421.63,2.5259
3794,21.972,5.4545,0,4.4404e-05,443.73,1.8062e-05,41.357,1.2556e-05,-0.011936,-4.3556e-05,-421.61,2.5257
3795,21.972,5.6364,0,4.4143e-05,441.13,1.7518e-05,35.71,1.2757e-05,-0.058806,-4.3428e-05,-422.21,2.5255
3796,21.972,5.8182,0,4.438e-05,443.5,1.7382e-05,33.104,1.2974e-05,-0.015397,-4.3725e-05,-426.03,2.5253
3797,22.156,0.18182,0,4.0409e-05,403.81,1.6097e-05,33.46,1.1641e-05,-0.019463,-3.9736e-05,-386.05,2.5562
3798,22.156,0.36364,0,4.0222e-05,401.94,1.6302e-05,36.713,1.1408e-05,-0.0631,-3.9472e-05,-382.35,2.5564
3799,22.156,0.54545,0,4.0539e-05,405.11,1.6917e-05,43.028,1.1189e-05,-0.011443,-3.9635e-05,-381.89,2.5566
3800,22.156,0.72727,0,4.0947e-05,409.18,1.7591e-05,49.712,1.0975e-05,-0.00077152,-3.9874e-05,-382.06,2.5568
3801,22.156,0.90909,0,4.1396e-05,413.67,1.828e-05,56.434,1.0771e-05,0.012331,-4.0146e-05,-382.55,2.557
3802,22.156,1.0909,0,4.1861e-05,418.32,1.8959e-05,62.997,1.0577e-05,0.020895,-4.0431e-05,-383.24,2.5571
3803,22.156,1.2727,0,4.2322e-05,422.93,1.961e-05,69.249,1.0397e-05,0.0277,-4.0717e-05,-384.02,2.5573
3804,22.156,1.4545,0,4.2765e-05,427.35,2.022e-05,75.074,1.0232e-05,0.032821,-4.099e-05,-384.83,2.5574
3805,22.156,1.6364,0,4.3177e-05,431.47,2.0777e-05,80.384,1.0083e-05,0.036775,-4.1244e-05,-385.61,2.5575
3806,22.156,1.8182,0,4.3549e-05,435.19,2.1274e-05,85.117,9.951e-06,0.039811,-4.1472e-05,-386.33,2.5576
3807,22.156,2,0,4.3877e-05,438.46,2.1706e-05,89.228,9.8366e-06,0.042141,-4.1672e-05,-386.97,2.5577
3808,22.156,2.1818,0,4.4154e-05,441.24,2.207e-05,92.686,9.7405e-06,0.043914,-4.1841e-05,-387.52,2.5578
3809,22.156,2.3636,0,4.4379e-05,443.48,2.2364e-05,95.471,9.6632e-06,0.045227,-4.1977e-05,-387.96,2.5578
3810,22.156,2.5455,0,4.4549e-05,445.18,2.2585e-05,97.569,9.6051e-06,0.046159,-4.2079e-05,-388.29,2.5579
3811,22.156,2.7273,0,4.4663e-05,446.32,2.2732e-05,98.971,9.5661e-06,0.046751,-4.2148e-05,-388.51,2.5579
3812,22.156,2.9091,0,4.472e-05,446.89,2.2806e-05,99.674,9.5467e-06,0.047043,-4.2182e-05,-388.62,2.5579
3813,22.156,3.0909,0,4.472e-05,446.89,2.2806e-05,99.674,9.5467e-06,0.047039,-4.2182e-05,-388.62,2.5579
3814,22.156,3.2727,0,4.4663e-05,446.32,2.2732e-05,98.971,9.5661e-06,0.046751,-4.2148e-05,-388.51,2.5579
3815,22.156,3.4545,0,4.4549e-05,445.18,2.2585e-05,97.569,9.6051e-06,0.046157,-4.2079e-05,-388.29,2.5579
3816,22.156,3.6364,0,4.4379e-05,443.48,2.2364e-05,95.471,9.6632e-06,0.045228,-4.1977e-05,-387.96,2.5578
3817,22.156,3.8182,0,4.4154e-05,441.24,2.207e-05,92.686,9.7405e-06,0.043913,-4.1841e-05,-387.52,2.5578
3818,22.156,4,0,4.3877e-05,438.46,2.1706e-05,89.228,9.8366e-06,0.042142,-4.1672e-05,-386.97,2.5577
3819,22.156,4.1818,0,4.3549e-05,435.19,2.1274e-05,85.117,9.951e-06,0.039812,-4.1472e-05,-386.33,2.5576
3820,22.156,4.3636,0,4.3177e-05,431.47,2.0777e-05,80.385,1.0083e-05,0.036775,-4.1244e-05,-385.61,2.5575
3821,22.156,4.5455,0,4.2765e-05,427.35,2.022e-05,75.074,1.0232e-05,0.032821,-4.099e-05,-384.83,2.5574
3822,22.156,4.7273,0,4.2322e-05,422.93,1.961e-05,69.249,1.0397e-05,0.0277,-4.0717e-05,-384.02,2.5573
3823,22.156,4.9091,0,4.1861e-05,418.32,1.8959e-05,62.997,1.0577e-05,0.020896,-4.0431e-05,-383.24,2.5571
3824,22.156,5.0909,0,4.1396e-05,413.67,1.828e-05,56.434,1.0771e-05,0.012331,-4.0146e-05,-382.55,2.557
3825,22.156,5.2727,0,4.0947e-05,409.18,1.7591e-05,49.712,1.0975e-05,-0.00077138,-3.9874e-05,-382.06,2.5568
3826,22.156,5.4545,0,4.0539e-05,405.11,1.6917e-05,43.028,1.1189e-05,-0.011444,-3.9635e-05,-381.89,2.5566
3827,22.156,5.6364,0,4.0222e-05,401.94,1.6302e-05,36.713,1.1408e-05,-0.063099,-3.9472e-05,-382.35,2.5564
3828,22.156,5.8182,0,4.0409e-05,403.81,1.6097e-05,33.46,1.1641e-05,-0.019465,-3.9736e-05,-386.05,2.5562
3829,22.341,0.18182,0,3.6449e-05,364.24,1.4811e-05,33.762,1.0315e-05,-0.02459,-3.5757e-05,-346.19,2.5872
3830,22.341,0.36364,0,3.6322e-05,362.97,1.5096e-05,37.763,1.0061e-05,-0.067719,-3.5532e-05,-342.64,2.5874
3831,22.341,0.54545,0,3.6706e-05,366.81,1.5792e-05,44.842,9.8229e-06,-0.010449,-3.5737e-05,-342.33,2.5875
3832,22.341,0.72727,0,3.7186e-05,371.6,1.6549e-05,52.294,9.5896e-06,0.0016678,-3.6019e-05,-342.68,2.5877
3833,22.341,0.90909,0,3.7706e-05,376.8,1.7317e-05,59.751,9.3669e-06,0.016006,-3.6333e-05,-343.35,2.5879
3834,22.341,1.0909,0,3.8239e-05,382.12,1.8069e-05,66.987,9.1565e-06,0.02523,-3.6656e-05,-344.19,2.588
3835,22.341,1.2727,0,3.876e-05,387.34,1.8784e-05,73.835,8.9609e-06,0.032464,-3.6972e-05,-345.09,2.5882
3836,22.341,1.4545,0,3.9256e-05,392.28,1.9447e-05,80.176,8.7817e-06,0.037843,-3.7272e-05,-345.99,2.5883
3837,22.341,1.6364,0,3.9712e-05,396.85,2.005e-05,85.922,8.6202e-06,0.041952,-3.7546e-05,-346.83,2.5884
3838,22.341,1.8182,0,4.0122e-05,400.94,2.0585e-05,91.017,8.4774e-06,0.045091,-3.7791e-05,-347.6,2.5885
3839,22.341,2,0,4.048e-05,404.52,2.1048e-05,95.424,8.3541e-06,0.047491,-3.8003e-05,-348.26,2.5886
3840,22.341,2.1818,0,4.0781e-05,407.53,2.1436e-05,99.117,8.2507e-06,0.049304,-3.818e-05,-348.82,2.5887
3841,22.341,2.3636,0,4.1025e-05,409.97,2.1747e-05,102.08,8.1676e-06,0.050649,-3.8323e-05,-349.26,2.5887
3842,22.341,2.5455,0,4.1208e-05,411.8,2.1981e-05,104.31,8.1052e-06,0.0516,-3.843e-05,-349.6,2.5888
3843,22.341,2.7273,0,4.1331e-05,413.03,2.2138e-05,105.8,8.0634e-06,0.052207,-3.8502e-05,-349.82,2.5888
3844,22.341,2.9091,0,4.1393e-05,413.64,2.2216e-05,106.54,8.0425e-06,0.052502,-3.8537e-05,-349.93,2.5888
3845,22.341,3.0909,0,4.1393e-05,413.64,2.2216e-05,106.54,8.0425e-06,0.052504,-3.8537e-05,-349.93,2.5888
3846,22.341,3.2727,0,4.1331e-05,413.03,2.2138e-05,105.8,8.0634e-06,0.052205,-3.8502e-05,-349.82,2.5888
3847,22.341,3.4545,0,4.1208e-05,411.8,2.1981e-05,104.31,8.1052e-06,0.051601,-3.843e-05,-349.6,2.5888
3848,22.341,3.6364,0,4.1025e-05,409.97,2.1747e-05,102.08,8.1676e-06,0.050647,-3.8323e-05,-349.26,2.5887
3849,22.341,3.8182,0,4.0781e-05,407.53,2.1436e-05,99.117,8.2507e-06,0.049305,-3.818e-05,-348.82,2.5887
3850,22.341,4,0,4.048e-05,404.52,2.1048e-05,95.424,8.3541e-06,0.04749,-3.8003e-05,-348.26,2.5886
3851,22.341,4.1818,0,4.0122e-05,400.94,2.0585e-05,91.017,8.4774e-06,0.04509,-3.7791e-05,-347.6,2.5885
3852,22.341,4.3636,0,3.9712e-05,396.85,2.005e-05,85.922,8.6202e-06,0.041953,-3.7546e-05,-346.83,2.5884
3853,22.341,4.5455,0,3.9256e-05,392.28,1.9447e-05,80.176,8.7817e-06,0.03784,-3.7272e-05,-345.99,2.5883
3854,22.341,4.7273,0,3.876e-05,387.34,1.8784e-05,73.836,8.9609e-06,0.032463,-3.6972e-05,-345.09,2.5882
3855,22.341,4.9091,0,3.8239e-05,382.12,1.8069e-05,66.987,9.1565e-06,0.025232,-3.6656e-05,-344.19,2.588
3856,22.341,5.0909,0,3.7706e-05,376.8,1.7317e-05,59.752,9.3669e-06,0.016003,-3.6333e-05,-343.35,2.5879
3857,22.341,5.2727,0,3.7186e-05,371.6,1.6549e-05,52.295,9.5896e-06,0.0016675,-3.6019e-05,-342.68,2.5877
3858,22.341,5.4545,0,3.6706e-05,366.81,1.5792e-05,44.842,9.8229e-06,-0.010451,-3.5737e-05,-342.33,2.5875
3859,22.341,5.6364,0,3.6322e-05,362.97,1.5096e-05,37.763,1.0061e-05,-0.067716,-3.5532e-05,-342.64,2.5874
3860,22.341,5.8182,0,3.6449e-05,364.24,1.4811e-05,33.762,1.0315e-05,-0.024586,-3.5757e-05,-346.19,2.5872
3861,22.525,0.18182,0,3.2501e-05,324.79,1.3523e-05,33.998,8.9945e-06,-0.031065,-3.1789e-05,-306.46,2.6181
3862,22.525,0.36364,0,3.2448e-05,324.26,1.3902e-05,38.874,8.7182e-06,-0.072574,-3.1612e-05,-303.1,2.6183
3863,22.525,0.54545,0,3.2913e-05,328.9,1.4692e-05,46.836,8.4577e-06,-0.0086388,-3.1865e-05,-302.98,2.6185
3864,22.525,0.72727,0,3.3477e-05,334.54,1.5543e-05,55.163,8.2023e-06,0.0052112,-3.2196e-05,-303.53,2.6186
3865,22.525,0.90909,0,3.408e-05,340.57,1.6399e-05,63.438,7.9586e-06,0.020949,-3.2554e-05,-304.38,2.6188
3866,22.525,1.0909,0,3.4687e-05,346.64,1.7228e-05,71.404,7.729e-06,0.030898,-3.2916e-05,-305.36,2.6189
3867,22.525,1.2727,0,3.5275e-05,352.51,1.801e-05,78.884,7.5161e-06,0.038585,-3.3264e-05,-306.37,2.6191
3868,22.525,1.4545,0,3.5826e-05,358.02,1.8729e-05,85.757,7.3216e-06,0.044226,-3.3588e-05,-307.34,2.6192
3869,22.525,1.6364,0,3.633e-05,363.05,1.9378e-05,91.945,7.1468e-06,0.048515,-3.3881e-05,-308.22,2.6193
3870,22.525,1.8182,0,3.6778e-05,367.53,1.9949e-05,97.402,6.9927e-06,0.051764,-3.4139e-05,-309,2.6194
3871,22.525,2,0,3.7167e-05,371.41,2.0441e-05,102.1,6.8599e-06,0.054238,-3.4361e-05,-309.67,2.6195
3872,22.525,2.1818,0,3.7493e-05,374.67,2.0852e-05,106.02,6.7488e-06,0.056107,-3.4546e-05,-310.22,2.6196
3873,22.525,2.3636,0,3.7755e-05,377.29,2.118e-05,109.16,6.6597e-06,0.057492,-3.4694e-05,-310.66,2.6196
3874,22.525,2.5455,0,3.7952e-05,379.25,2.1426e-05,111.51,6.5928e-06,0.058468,-3.4804e-05,-310.98,2.6197
3875,22.525,2.7273,0,3.8083e-05,380.57,2.1591e-05,113.08,6.5482e-06,0.059093,-3.4877e-05,-311.19,2.6197
3876,22.525,2.9091,0,3.8149e-05,381.23,2.1673e-05,113.87,6.5258e-06,0.059401,-3.4914e-05,-311.3,2.6197
3877,22.525,3.0909,0,3.8149e-05,381.23,2.1673e-05,113.87,6.5258e-06,0.059397,-3.4914e-05,-311.3,2.6197
3878,22.525,3.2727,0,3.8083e-05,380.57,2.1591e-05,113.08,6.5481e-06,0.059096,-3.4877e-05,-311.19,2.6197
3879,22.525,3.4545,0,3.7952e-05,379.25,2.1426e-05,111.51,6.5928e-06,0.058468,-3.4804e-05,-310.98,2.6197
3880,22.525,3.6364,0,3.7755e-05,377.29,2.118e-05,109.16,6.6597e-06,0.057493,-3.4694e-05,-310.66,2.6196
3881,22.525,3.8182,0,3.7493e-05,374.67,2.0852e-05,106.02,6.7488e-06,0.056107,-3.4546e-05,-310.22,2.6196
3882,22.525,4,0,3.7167e-05,371.41,2.0441e-05,102.1,6.8599e-06,0.054238,-3.4361e-05,-309.67,2.6195
3883,22.525,4.1818,0,3.6778e-05,367.53,1.9949e-05,97.402,6.9927e-06,0.051763,-3.4139e-05,-309,2.6194
3884,22.525,4.3636,0,3.633e-05,363.05,1.9378e-05,91.946,7.1468e-06,0.048516,-3.3881e-05,-308.22,2.6193
3885,22.525,4.5455,0,3.5826e-05,358.02,1.8729e-05,85.757,7.3216e-06,0.044229,-3.3588e-05,-307.34,2.6192
3886,22.525,4.7273,0,3.5275e-05,352.51,1.801e-05,78.884,7.5161e-06,0.03858,-3.3264e-05,-306.37,2.6191
3887,22.525,4.9091,0,3.4687e-05,346.64,1.7228e-05,71.404,7.729e-06,0.030897,-3.2916e-05,-305.36,2.6189
3888,22.525,5.0909,0,3.408e-05,340.57,1.6399e-05,63.438,7.9586e-06,0.020945,-3.2554e-05,-304.38,2.6188
3889,22.525,5.2727,0,3.3477e-05,334.54,1.5543e-05,55.163,8.2023e-06,0.0052073,-3.2196e-05,-303.53,2.6186
3890,22.525,5.4545,0,3.2913e-05,328.9,1.4692e-05,46.836,8.4577e-06,-0.0086379,-3.1865e-05,-302.98,2.6185
3891,22.525,5.6364,0,3.2448e-05,324.26,1.3902e-05,38.874,8.7182e-06,-0.072566,-3.1612e-05,-303.1,2.6183
3892,22.525,5.8182,0,3.2501e-05,324.79,1.3523e-05,33.998,8.9945e-06,-0.031067,-3.1789e-05,-306.46,2.6181
3893,22.709,0.18182,0,2.8568e-05,285.48,1.2232e-05,34.151,7.6816e-06,-0.039466,-2.7833e-05,-266.89,2.6491
3894,22.709,0.36364,0,2.8607e-05,285.87,1.2722e-05,40.068,7.3789e-06,-0.077645,-2.7714e-05,-263.75,2.6493
3895,22.709,0.54545,0,2.917e-05,291.5,1.3623e-05,49.063,7.0924e-06,-0.0056749,-2.8024e-05,-263.85,2.6494
3896,22.709,0.72727,0,2.9835e-05,298.15,1.4582e-05,58.391,6.8115e-06,0.010227,-2.841e-05,-264.63,2.6496
3897,22.709,0.90909,0,3.0533e-05,305.12,1.5534e-05,67.573,6.5441e-06,0.027558,-2.8817e-05,-265.66,2.6498
3898,22.709,1.0909,0,3.1224e-05,312.03,1.6446e-05,76.324,6.293e-06,0.038295,-2.9217e-05,-266.77,2.6499
3899,22.709,1.2727,0,3.1883e-05,318.61,1.7296e-05,84.461,6.061e-06,0.046468,-2.9595e-05,-267.86,2.65
3900,22.709,1.4545,0,3.2494e-05,324.71,1.8071e-05,91.874,5.8499e-06,0.052403,-2.994e-05,-268.86,2.6501
3901,22.709,1.6364,0,3.3045e-05,330.22,1.8763e-05,98.499,5.6609e-06,0.056876,-3.0248e-05,-269.75,2.6502
3902,22.709,1.8182,0,3.3532e-05,335.09,1.9369e-05,104.31,5.4949e-06,0.060258,-3.0517e-05,-270.52,2.6503
3903,22.709,2,0,3.3952e-05,339.29,1.9888e-05,109.28,5.3522e-06,0.06283,-3.0746e-05,-271.16,2.6504
3904,22.709,2.1818,0,3.4302e-05,342.79,2.0319e-05,113.41,5.2332e-06,0.064768,-3.0935e-05,-271.69,2.6505
3905,22.709,2.3636,0,3.4583e-05,345.59,2.0663e-05,116.71,5.138e-06,0.066208,-3.1085e-05,-272.1,2.6505
3906,22.709,2.5455,0,3.4793e-05,347.69,2.092e-05,119.19,5.0665e-06,0.067223,-3.1197e-05,-272.41,2.6506
3907,22.709,2.7273,0,3.4933e-05,349.09,2.1091e-05,120.83,5.0189e-06,0.067873,-3.1272e-05,-272.61,2.6506
3908,22.709,2.9091,0,3.5003e-05,349.79,2.1177e-05,121.65,4.9951e-06,0.068188,-3.1309e-05,-272.7,2.6506
3909,22.709,3.0909,0,3.5003e-05,349.79,2.1177e-05,121.65,4.9951e-06,0.06819,-3.1309e-05,-272.7,2.6506
3910,22.709,3.2727,0,3.4933e-05,349.09,2.1091e-05,120.83,5.0189e-06,0.06787,-3.1272e-05,-272.61,2.6506
3911,22.709,3.4545,0,3.4793e-05,347.69,2.092e-05,119.19,5.0665e-06,0.067222,-3.1197e-05,-272.41,2.6506
3912,22.709,3.6364,0,3.4583e-05,345.59,2.0663e-05,116.71,5.138e-06,0.066207,-3.1085e-05,-272.1,2.6505
3913,22.709,3.8182,0,3.4302e-05,342.79,2.0319e-05,113.41,5.2332e-06,0.06477,-3.0935e-05,-271.69,2.6505
3914,22.709,4,0,3.3952e-05,339.29,1.9888e-05,109.28,5.3522e-06,0.06283,-3.0746e-05,-271.16,2.6504
3915,22.709,4.1818,0,3.3532e-05,335.09,1.9369e-05,104.31,5.4949e-06,0.060256,-3.0517e-05,-270.52,2.6503
3916,22.709,4.3636,0,3.3045e-05,330.22,1.8763e-05,98.499,5.6609e-06,0.056878,-3.0248e-05,-269.75,2.6502
3917,22.709,4.5455,0,3.2494e-05,324.71,1.8071e-05,91.874,5.8499e-06,0.0524,-2.994e-05,-268.86,2.6501
3918,22.709,4.7273,0,3.1883e-05,318.61,1.7296e-05,84.461,6.061e-06,0.046468,-2.9595e-05,-267.86,2.65
3919,22.709,4.9091,0,3.1224e-05,312.03,1.6446e-05,76.324,6.293e-06,0.038295,-2.9217e-05,-266.77,2.6499
3920,22.709,5.0909,0,3.0533e-05,305.12,1.5534e-05,67.573,6.5441e-06,0.027555,-2.8817e-05,-265.66,2.6498
3921,22.709,5.2727,0,2.9835e-05,298.15,1.4582e-05,58.391,6.8115e-06,0.010227,-2.841e-05,-264.63,2.6496
3922,22.709,5.4545,0,2.917e-05,291.5,1.3623e-05,49.063,7.0924e-06,-0.0056738,-2.8024e-05,-263.85,2.6494
3923,22.709,5.6364,0,2.8607e-05,285.87,1.2722e-05,40.068,7.3789e-06,-0.077643,-2.7714e-05,-263.75,2.6493
3924,22.709,5.8182,0,2.8568e-05,285.48,1.2232e-05,34.151,7.6816e-06,-0.039467,-2.7833e-05,-266.89,2.6491
3925,22.894,0.18182,0,2.4651e-05,246.34,1.0936e-05,34.202,6.3773e-06,-0.050055,-2.3891e-05,-227.47,2.6801
3926,22.894,0.36364,0,2.4808e-05,247.91,1.1562e-05,41.384,6.0435e-06,-0.082085,-2.3844e-05,-224.64,2.6803
3927,22.894,0.54545,0,2.5494e-05,254.77,1.2595e-05,51.609,5.7262e-06,-0.00019674,-2.4221e-05,-225.01,2.6804
3928,22.894,0.72727,0,2.6281e-05,262.63,1.3676e-05,62.084,5.4156e-06,0.018201,-2.4669e-05,-226.02,2.6806
3929,22.894,0.90909,0,2.7089e-05,270.7,1.4734e-05,72.263,5.121e-06,0.037338,-2.5126e-05,-227.22,2.6807
3930,22.894,1.0909,0,2.7873e-05,278.53,1.5731e-05,81.839,4.8459e-06,0.048946,-2.5563e-05,-228.43,2.6809
3931,22.894,1.2727,0,2.8608e-05,285.88,1.6649e-05,90.642,4.5931e-06,0.05766,-2.5966e-05,-229.55,2.681
3932,22.894,1.4545,0,2.9279e-05,292.59,1.7476e-05,98.584,4.3643e-06,0.063932,-2.6329e-05,-230.55,2.6811
3933,22.894,1.6364,0,2.988e-05,298.59,1.8209e-05,105.63,4.1605e-06,0.068639,-2.6647e-05,-231.41,2.6812
3934,22.894,1.8182,0,3.0406e-05,303.85,1.8847e-05,111.76,3.9821e-06,0.072192,-2.6922e-05,-232.13,2.6813
3935,22.894,2,0,3.0856e-05,308.35,1.9389e-05,116.99,3.8294e-06,0.074897,-2.7154e-05,-232.72,2.6814
3936,22.894,2.1818,0,3.123e-05,312.09,1.9838e-05,121.32,3.7023e-06,0.07694,-2.7345e-05,-233.2,2.6814
3937,22.894,2.3636,0,3.1529e-05,315.07,2.0195e-05,124.76,3.6008e-06,0.078454,-2.7495e-05,-233.57,2.6815
3938,22.894,2.5455,0,3.1752e-05,317.3,2.0462e-05,127.34,3.5248e-06,0.079526,-2.7607e-05,-233.84,2.6815
3939,22.894,2.7273,0,3.19e-05,318.78,2.0639e-05,129.05,3.4742e-06,0.080213,-2.7682e-05,-234.01,2.6816
3940,22.894,2.9091,0,3.1974e-05,319.52,2.0727e-05,129.9,3.449e-06,0.080544,-2.7719e-05,-234.1,2.6816
3941,22.894,3.0909,0,3.1974e-05,319.52,2.0727e-05,129.9,3.449e-06,0.080549,-2.7719e-05,-234.1,2.6816
3942,22.894,3.2727,0,3.19e-05,318.78,2.0639e-05,129.05,3.4742e-06,0.080213,-2.7682e-05,-234.01,2.6816
3943,22.894,3.4545,0,3.1752e-05,317.3,2.0462e-05,127.34,3.5248e-06,0.079524,-2.7607e-05,-233.84,2.6815
3944,22.894,3.6364,0,3.1529e-05,315.07,2.0195e-05,124.76,3.6008e-06,0.078452,-2.7495e-05,-233.57,2.6815
3945,22.894,3.8182,0,3.123e-05,312.09,1.9838e-05,121.32,3.7023e-06,0.076938,-2.7345e-05,-233.2,2.6814
3946,22.894,4,0,3.0856e-05,308.35,1.9389e-05,116.99,3.8294e-06,0.074897,-2.7154e-05,-232.72,2.6814
3947,22.894,4.1818,0,3.0406e-05,303.85,1.8847e-05,111.76,3.9821e-06,0.072194,-2.6922e-05,-232.13,2.6813
3948,22.894,4.3636,0,2.988e-05,298.59,1.8209e-05,105.63,4.1605e-06,0.068639,-2.6647e-05,-231.41,2.6812
3949,22.894,4.5455,0,2.9279e-05,292.59,1.7476e-05,98.584,4.3643e-06,0.06393,-2.6329e-05,-230.55,2.6811
3950,22.894,4.7273,0,2.8608e-05,285.88,1.6649e-05,90.642,4.5931e-06,0.057657,-2.5966e-05,-229.55,2.681
3951,22.894,4.9091,0,2.7873e-05,278.53,1.5731e-05,81.839,4.8458e-06,0.048944,-2.5563e-05,-228.43,2.6809
3952,22.894,5.0909,0,2.7089e-05,270.7,1.4734e-05,72.263,5.121e-06,0.037338,-2.5126e-05,-227.22,2.6807
3953,22.894,5.2727,0,2.6281e-05,262.63,1.3676e-05,62.084,5.4156e-06,0.018197,-2.4669e-05,-226.02,2.6806
3954,22.894,5.4545,0,2.5494e-05,254.77,1.2595e-05,51.609,5.7262e-06,-0.00019403,-2.4221e-05,-225.01,2.6804
3955,22.894,5.6364,0,2.4808e-05,247.91,1.1562e-05,41.384,6.0435e-06,-0.082082,-2.3844e-05,-224.64,2.6803
3956,22.894,5.8182,0,2.4651e-05,246.34,1.0936e-05,34.202,6.3773e-06,-0.050054,-2.3891e-05,-227.47,2.6801
3957,23.078,0.18182,0,2.0756e-05,207.42,9.6345e-06,34.13,5.0834e-06,-0.065336,-1.9964e-05,-188.26,2.7111
3958,23.078,0.36364,0,2.1071e-05,210.56,1.0432e-05,42.894,4.7118e-06,-0.087151,-2.0011e-05,-185.84,2.7113
3959,23.078,0.54545,0,2.1915e-05,219,1.1624e-05,54.604,4.3572e-06,0.0069869,-2.0469e-05,-186.53,2.7114
3960,23.078,0.72727,0,2.2849e-05,228.34,1.2843e-05,66.389,4.0114e-06,0.028263,-2.0984e-05,-187.78,2.7116
3961,23.078,0.90909,0,2.3781e-05,237.65,1.4012e-05,77.639,3.686e-06,0.049476,-2.1489e-05,-189.11,2.7117
3962,23.078,1.0909,0,2.4665e-05,246.48,1.5095e-05,88.055,3.3843e-06,0.062047,-2.1958e-05,-190.35,2.7118
3963,23.078,1.2727,0,2.548e-05,254.62,1.6077e-05,97.506,3.1092e-06,0.071383,-2.238e-05,-191.44,2.712
3964,23.078,1.4545,0,2.6213e-05,261.95,1.6952e-05,105.94,2.8619e-06,0.07807,-2.2752e-05,-192.37,2.7121
3965,23.078,1.6364,0,2.6863e-05,268.44,1.772e-05,113.37,2.6428e-06,0.083087,-2.3074e-05,-193.15,2.7122
3966,23.078,1.8182,0,2.7427e-05,274.08,1.8384e-05,119.79,2.452e-06,0.086879,-2.335e-05,-193.78,2.7123
3967,23.078,2,0,2.7907e-05,278.88,1.8946e-05,125.24,2.2892e-06,0.08977,-2.3582e-05,-194.29,2.7124
3968,23.078,2.1818,0,2.8305e-05,282.85,1.941e-05,129.74,2.1542e-06,0.091956,-2.3771e-05,-194.7,2.7124
3969,23.078,2.3636,0,2.8621e-05,286.01,1.9777e-05,133.31,2.0466e-06,0.093586,-2.392e-05,-195.01,2.7125
3970,23.078,2.5455,0,2.8857e-05,288.37,2.0051e-05,135.98,1.9662e-06,0.09474,-2.403e-05,-195.23,2.7125
3971,23.078,2.7273,0,2.9013e-05,289.93,2.0233e-05,137.74,1.9128e-06,0.095475,-2.4103e-05,-195.38,2.7125
3972,23.078,2.9091,0,2.9092e-05,290.72,2.0323e-05,138.62,1.8861e-06,0.095838,-2.4139e-05,-195.45,2.7126
3973,23.078,3.0909,0,2.9092e-05,290.72,2.0323e-05,138.62,1.8861e-06,0.095837,-2.4139e-05,-195.45,2.7126
3974,23.078,3.2727,0,2.9013e-05,289.93,2.0233e-05,137.74,1.9128e-06,0.095477,-2.4103e-05,-195.38,2.7125
3975,23.078,3.4545,0,2.8857e-05,288.37,2.0051e-05,135.98,1.9662e-06,0.094737,-2.403e-05,-195.23,2.7125
3976,23.078,3.6364,0,2.8621e-05,286.01,1.9777e-05,133.31,2.0466e-06,0.093587,-2.392e-05,-195.01,2.7125
3977,23.078,3.8182,0,2.8305e-05,282.85,1.941e-05,129.74,2.1542e-06,0.091958,-2.3771e-05,-194.7,2.7124
3978,23.078,4,0,2.7907e-05,278.88,1.8946e-05,125.24,2.2892e-06,0.089768,-2.3582e-05,-194.29,2.7124
3979,23.078,4.1818,0,2.7427e-05,274.08,1.8384e-05,119.79,2.452e-06,0.086879,-2.335e-05,-193.78,2.7123
3980,23.078,4.3636,0,2.6863e-05,268.44,1.772e-05,113.37,2.6428e-06,0.083086,-2.3074e-05,-193.15,2.7122
3981,23.078,4.5455,0,2.6213e-05,261.95,1.6952e-05,105.94,2.8619e-06,0.078073,-2.2752e-05,-192.37,2.7121
3982,23.078,4.7273,0,2.548e-05,254.62,1.6077e-05,97.506,3.1092e-06,0.071384,-2.238e-05,-191.44,2.712
3983,23.078,4.9091,0,2.4665e-05,246.48,1.5095e-05,88.055,3.3843e-06,0.062045,-2.1958e-05,-190.35,2.7118
3984,23.078,5.0909,0,2.3781e-05,237.65,1.4012e-05,77.639,3.686e-06,0.049474,-2.1489e-05,-189.11,2.7117
3985,23.078,5.2727,0,2.2849e-05,228.34,1.2843e-05,66.389,4.0114e-06,0.02826,-2.0984e-05,-187.78,2.7116
3986,23.078,5.4545,0,2.1915e-05,219,1.1624e-05,54.604,4.3572e-06,0.0069909,-2.0469e-05,-186.53,2.7114
3987,23.078,5.6364,0,2.1071e-05,210.56,1.0432e-05,42.894,4.7118e-06,-0.087153,-2.0011e-05,-185.84,2.7113
3988,23.078,5.8182,0,2.0756e-05,207.42,9.6345e-06,34.13,5.0834e-06,-0.065339,-1.9964e-05,-188.26,2.7111
3989,23.263,0.18182,0,1.6894e-05,168.83,8.3278e-06,33.918,3.8028e-06,-0.080939,-1.606e-05,-149.32,2.7421
3990,23.263,0.36364,0,1.7429e-05,174.17,9.3494e-06,44.741,3.3836e-06,-0.083342,-1.6231e-05,-147.46,2.7423
3991,23.263,0.54545,0,1.8481e-05,184.68,1.0734e-05,58.266,2.9829e-06,0.027868,-1.6786e-05,-148.51,2.7424
3992,23.263,0.72727,0,1.9592e-05,195.78,1.2107e-05,71.514,2.5957e-06,0.052804,-1.737e-05,-149.96,2.7426
3993,23.263,0.90909,0,2.0661e-05,206.47,1.3387e-05,83.867,2.2354e-06,0.076576,-1.7915e-05,-151.33,2.7427
3994,23.263,1.0909,0,2.165e-05,216.35,1.4549e-05,95.092,1.9051e-06,0.09046,-1.8404e-05,-152.51,2.7428
3995,23.263,1.2727,0,2.2544e-05,225.28,1.5586e-05,105.13,1.6067e-06,0.1007,-1.8834e-05,-153.48,2.743
3996,23.263,1.4545,0,2.3338e-05,233.22,1.65e-05,114.01,1.3406e-06,0.10804,-1.9207e-05,-154.28,2.7431
3997,23.263,1.6364,0,2.4035e-05,240.19,1.7296e-05,121.76,1.1063e-06,0.11356,-1.9527e-05,-154.92,2.7432
3998,23.263,1.8182,0,2.4637e-05,246.2,1.798e-05,128.43,9.0336e-07,0.11775,-1.9798e-05,-155.42,2.7433
3999,23.263,2,0,2.5146e-05,251.29,1.8557e-05,134.06,7.3091e-07,0.12095,-2.0025e-05,-155.83,2.7433
4000,23.263,2.1818,0,2.5567e-05,255.49,1.9031e-05,138.7,5.8832e-07,0.12339,-2.0209e-05,-156.14,2.7434
4001,23.263,2.3636,0,2.59e-05,258.82,1.9407e-05,142.37,4.7499e-07,0.1252,-2.0354e-05,-156.37,2.7435
4002,23.263,2.5455,0,2.6148e-05,261.3,1.9686e-05,145.1,3.9044e-07,0.12649,-2.0461e-05,-156.54,2.7435
4003,23.263,2.7273,0,2.6313e-05,262.94,1.9871e-05,146.92,3.3427e-07,0.12732,-2.0532e-05,-156.65,2.7435
4004,23.263,2.9091,0,2.6395e-05,263.77,1.9963e-05,147.82,3.0626e-07,0.12772,-2.0567e-05,-156.71,2.7435
4005,23.263,3.0909,0,2.6395e-05,263.77,1.9963e-05,147.82,3.0626e-07,0.12772,-2.0567e-05,-156.71,2.7435
4006,23.263,3.2727,0,2.6313e-05,262.94,1.9871e-05,146.92,3.3427e-07,0.12732,-2.0532e-05,-156.65,2.7435
4007,23.263,3.4545,0,2.6148e-05,261.3,1.9686e-05,145.1,3.9044e-07,0.12649,-2.0461e-05,-156.54,2.7435
4008,23.263,3.6364,0,2.59e-05,258.82,1.9407e-05,142.37,4.7499e-07,0.1252,-2.0354e-05,-156.37,2.7435
4009,23.263,3.8182,0,2.5567e-05,255.49,1.9031e-05,138.7,5.8832e-07,0.12339,-2.0209e-05,-156.14,2.7434
4010,23.263,4,0,2.5146e-05,251.29,1.8557e-05,134.06,7.3091e-07,0.12095,-2.0025e-05,-155.83,2.7433
4011,23.263,4.1818,0,2.4637e-05,246.2,1.798e-05,128.43,9.0336e-07,0.11775,-1.9798e-05,-155.42,2.7433
4012,23.263,4.3636,0,2.4035e-05,240.19,1.7296e-05,121.76,1.1063e-06,0.11356,-1.9527e-05,-154.92,2.7432
4013,23.263,4.5455,0,2.3338e-05,233.22,1.65e-05,114.01,1.3406e-06,0.10804,-1.9207e-05,-154.28,2.7431
4014,23.263,4.7273,0,2.2544e-05,225.28,1.5586e-05,105.13,1.6067e-06,0.1007,-1.8834e-05,-153.48,2.743
4015,23.263,4.9091,0,2.165e-05,216.35,1.4549e-05,95.092,1.9051e-06,0.090459,-1.8404e-05,-152.51,2.7428
4016,23.263,5.0909,0,2.0661e-05,206.47,1.3387e-05,83.867,2.2354e-06,0.076571,-1.7915e-05,-151.33,2.7427
4017,23.263,5.2727,0,1.9592e-05,195.78,1.2107e-05,71.514,2.5957e-06,0.052806,-1.737e-05,-149.96,2.7426
4018,23.263,5.4545,0,1.8481e-05,184.68,1.0734e-05,58.266,2.9829e-06,0.027872,-1.6786e-05,-148.51,2.7424
4019,23.263,5.6364,0,1.7429e-05,174.17,9.3494e-06,44.741,3.3836e-06,-0.083337,-1.6231e-05,-147.46,2.7423
4020,23.263,5.8182,0,1.6894e-05,168.83,8.3278e-06,33.918,3.8028e-06,-0.080942,-1.606e-05,-149.32,2.7421
4021,23.447,0.18182,0,1.3088e-05,130.79,7.0208e-06,33.567,2.5373e-06,-0.12102,-1.2189e-05,-110.77,2.7731
4022,23.447,0.36364,0,1.3951e-05,139.41,8.3494e-06,47.203,2.0542e-06,-0.096634,-1.2533e-05,-109.7,2.7733
4023,23.447,0.54545,0,1.5276e-05,152.65,9.9656e-06,62.927,1.5947e-06,0.031181,-1.3199e-05,-111.12,2.7734
4024,23.447,0.72727,0,1.6589e-05,165.77,1.1494e-05,77.718,1.159e-06,0.061669,-1.3839e-05,-112.63,2.7736
4025,23.447,0.90909,0,1.7802e-05,177.89,1.2875e-05,91.112,7.6053e-07,0.088365,-1.4407e-05,-113.87,2.7737
4026,23.447,1.0909,0,1.8893e-05,188.8,1.4101e-05,103.04,4.0045e-07,0.10371,-1.49e-05,-114.85,2.7739
4027,23.447,1.2727,0,1.9862e-05,198.49,1.5179e-05,113.57,7.89e-08,0.11511,-1.5324e-05,-115.61,2.774
4028,23.447,1.4545,0,2.0715e-05,207,1.6121e-05,122.8,-2.0544e-07,0.1233,-1.5687e-05,-116.2,2.7741
4029,23.447,1.6364,0,2.1456e-05,214.41,1.6937e-05,130.8,-4.5405e-07,0.1295,-1.5997e-05,-116.66,2.7742
4030,23.447,1.8182,0,2.2093e-05,220.78,1.7634e-05,137.65,-6.684e-07,0.13422,-1.6259e-05,-117.01,2.7743
4031,23.447,2,0,2.263e-05,226.15,1.8221e-05,143.43,-8.4977e-07,0.13786,-1.6477e-05,-117.28,2.7743
4032,23.447,2.1818,0,2.3072e-05,230.56,1.8702e-05,148.17,-9.9928e-07,0.14063,-1.6654e-05,-117.48,2.7744
4033,23.447,2.3636,0,2.3422e-05,234.05,1.9082e-05,151.92,-1.1178e-06,0.1427,-1.6793e-05,-117.63,2.7745
4034,23.447,2.5455,0,2.3682e-05,236.65,1.9364e-05,154.7,-1.2062e-06,0.14417,-1.6896e-05,-117.74,2.7745
4035,23.447,2.7273,0,2.3854e-05,238.37,1.9551e-05,156.55,-1.2647e-06,0.14512,-1.6963e-05,-117.81,2.7745
4036,23.447,2.9091,0,2.394e-05,239.23,1.9644e-05,157.47,-1.294e-06,0.14558,-1.6997e-05,-117.84,2.7745
4037,23.447,3.0909,0,2.394e-05,239.23,1.9644e-05,157.47,-1.294e-06,0.14558,-1.6997e-05,-117.84,2.7745
4038,23.447,3.2727,0,2.3854e-05,238.37,1.9551e-05,156.55,-1.2647e-06,0.14512,-1.6963e-05,-117.81,2.7745
4039,23.447,3.4545,0,2.3682e-05,236.65,1.9364e-05,154.7,-1.2062e-06,0.14417,-1.6896e-05,-117.74,2.7745
4040,23.447,3.6364,0,2.3422e-05,234.05,1.9082e-05,151.92,-1.1178e-06,0.1427,-1.6793e-05,-117.63,2.7745
4041,23.447,3.8182,0,2.3072e-05,230.56,1.8702e-05,148.17,-9.9928e-07,0.14063,-1.6654e-05,-117.48,2.7744
4042,23.447,4,0,2.263e-05,226.15,1.8221e-05,143.43,-8.4977e-07,0.13786,-1.6477e-05,-117.28,2.7743
4043,23.447,4.1818,0,2.2093e-05,220.78,1.7634e-05,137.65,-6.684e-07,0.13422,-1.6259e-05,-117.01,2.7743
4044,23.447,4.3636,0,2.1456e-05,214.41,1.6937e-05,130.8,-4.5406e-07,0.1295,-1.5997e-05,-116.66,2.7742
4045,23.447,4.5455,0,2.0715e-05,207,1.6121e-05,122.8,-2.0545e-07,0.1233,-1.5687e-05,-116.2,2.7741
4046,23.447,4.7273,0,1.9862e-05,198.49,1.5179e-05,113.57,7.8898e-08,0.11511,-1.5324e-05,-115.61,2.774
4047,23.447,4.9091,0,1.8893e-05,188.8,1.4101e-05,103.04,4.0045e-07,0.1037,-1.49e-05,-114.85,2.7739
4048,23.447,5.0909,0,1.7802e-05,177.89,1.2875e-05,91.112,7.6052e-07,0.088364,-1.4407e-05,-113.87,2.7737
4049,23.447,5.2727,0,1.6589e-05,165.77,1.1494e-05,77.718,1.159e-06,0.061664,-1.3839e-05,-112.63,2.7736
4050,23.447,5.4545,0,1.5276e-05,152.65,9.9656e-06,62.927,1.5947e-06,0.031186,-1.3199e-05,-111.12,2.7734
4051,23.447,5.6364,0,1.3951e-05,139.41,8.3494e-06,47.203,2.0542e-06,-0.09663,-1.2533e-05,-109.7,2.7733
4052,23.447,5.8182,0,1.3088e-05,130.79,7.0208e-06,33.567,2.5373e-06,-0.12102,-1.2189e-05,-110.77,2.7731
4053,23.631,0.18182,0,9.4034e-06,93.969,5.7346e-06,33.223,1.2981e-06,-0.11066,-8.3854e-06,-72.869,2.8042
4054,23.631,0.36364,0,1.0798e-05,107.9,7.5113e-06,50.984,7.2607e-07,0.0032404,-8.985e-06,-72.962,2.8043
4055,23.631,0.54545,0,1.2456e-05,124.47,9.3768e-06,69.173,1.9469e-07,0.18282,-9.747e-06,-74.515,2.8045
4056,23.631,0.72727,0,1.3972e-05,139.62,1.1037e-05,85.368,-2.9514e-07,0.22029,-1.0408e-05,-75.763,2.8046
4057,23.631,0.90909,0,1.5315e-05,153.04,1.2489e-05,99.597,-7.3233e-07,0.25526,-1.0967e-05,-76.647,2.8047
4058,23.631,1.0909,0,1.6497e-05,164.85,1.3756e-05,112.05,-1.1208e-06,0.27562,-1.1442e-05,-77.274,2.8049
4059,23.631,1.2727,0,1.7532e-05,175.19,1.4858e-05,122.93,-1.4637e-06,0.2909,-1.1847e-05,-77.722,2.805
4060,23.631,1.4545,0,1.8434e-05,184.21,1.5815e-05,132.39,-1.7644e-06,0.30209,-1.2192e-05,-78.045,2.8051
4061,23.631,1.6364,0,1.9214e-05,192.01,1.664e-05,140.56,-2.0256e-06,0.31066,-1.2485e-05,-78.279,2.8052
4062,23.631,1.8182,0,1.9882e-05,198.68,1.7344e-05,147.54,-2.2497e-06,0.31727,-1.2733e-05,-78.449,2.8053
4063,23.631,2,0,2.0443e-05,204.29,1.7935e-05,153.4,-2.4388e-06,0.32241,-1.2939e-05,-78.572,2.8054
4064,23.631,2.1818,0,2.0904e-05,208.89,1.8418e-05,158.21,-2.5942e-06,0.32636,-1.3107e-05,-78.662,2.8054
4065,23.631,2.3636,0,2.1268e-05,212.53,1.88e-05,162,-2.7171e-06,0.32932,-1.3239e-05,-78.725,2.8055
4066,23.631,2.5455,0,2.1538e-05,215.23,1.9084e-05,164.82,-2.8086e-06,0.33145,-1.3336e-05,-78.767,2.8055
4067,23.631,2.7273,0,2.1717e-05,217.02,1.9271e-05,166.69,-2.8692e-06,0.33282,-1.34e-05,-78.794,2.8055
4068,23.631,2.9091,0,2.1806e-05,217.91,1.9365e-05,167.62,-2.8995e-06,0.33349,-1.3432e-05,-78.806,2.8055
4069,23.631,3.0909,0,2.1806e-05,217.91,1.9365e-05,167.62,-2.8995e-06,0.33349,-1.3432e-05,-78.806,2.8055
4070,23.631,3.2727,0,2.1717e-05,217.02,1.9271e-05,166.69,-2.8692e-06,0.33282,-1.34e-05,-78.794,2.8055
4071,23.631,3.4545,0,2.1538e-05,215.23,1.9084e-05,164.82,-2.8086e-06,0.33145,-1.3336e-05,-78.767,2.8055
4072,23.631,3.6364,0,2.1268e-05,212.53,1.88e-05,162,-2.7171e-06,0.32932,-1.3239e-05,-78.725,2.8055
4073,23.631,3.8182,0,2.0904e-05,208.89,1.8418e-05,158.21,-2.5942e-06,0.32635,-1.3107e-05,-78.662,2.8054
4074,23.631,4,0,2.0443e-05,204.29,1.7935e-05,153.4,-2.4388e-06,0.32241,-1.2939e-05,-78.572,2.8054
4075,23.631,4.1818,0,1.9882e-05,198.68,1.7344e-05,147.54,-2.2497e-06,0.31727,-1.2733e-05,-78.449,2.8053
4076,23.631,4.3636,0,1.9214e-05,192.01,1.664e-05,140.56,-2.0256e-06,0.31066,-1.2485e-05,-78.279,2.8052
4077,23.631,4.5455,0,1.8434e-05,184.21,1.5815e-05,132.39,-1.7644e-06,0.30209,-1.2192e-05,-78.045,2.8051
4078,23.631,4.7273,0,1.7532e-05,175.19,1.4858e-05,122.93,-1.4637e-06,0.2909,-1.1847e-05,-77.722,2.805
4079,23.631,4.9091,0,1.6497e-05,164.85,1.3756e-05,112.05,-1.1208e-06,0.27562,-1.1442e-05,-77.274,2.8049
4080,23.631,5.0909,0,1.5315e-05,153.04,1.2489e-05,99.598,-7.3234e-07,0.25526,-1.0967e-05,-76.647,2.8047
4081,23.631,5.2727,0,1.3972e-05,139.62,1.1037e-05,85.368,-2.9514e-07,0.22029,-1.0408e-05,-75.763,2.8046
4082,23.631,5.4545,0,1.2456e-05,124.47,9.3768e-06,69.173,1.9469e-07,0.18283,-9.747e-06,-74.515,2.8045
4083,23.631,5.6364,0,1.0798e-05,107.9,7.5113e-06,50.984,7.2608e-07,0.0032447,-8.985e-06,-72.962,2.8043
4084,23.631,5.8182,0,9.4034e-06,93.969,5.7346e-06,33.223,1.2981e-06,-0.11066,-8.3854e-06,-72.869,2.8042
4085,23.816,0.18182,0,6.1766e-06,61.723,4.6622e-06,34.187,4.453e-08,-0.50869,-4.8224e-06,-37.077,2.8352
4086,23.816,0.36364,0,8.3393e-06,83.336,7.0157e-06,57.442,-6.6766e-07,-0.28758,-5.6996e-06,-38.095,2.8354
4087,23.816,0.54545,0,1.0286e-05,102.79,9.0537e-06,77.608,-1.28e-06,-0.034921,-6.4598e-06,-38.954,2.8355
4088,23.816,0.72727,0,1.1949e-05,119.4,1.0777e-05,94.673,-1.8208e-06,0.019897,-7.0772e-06,-39.474,2.8356
4089,23.816,0.90909,0,1.338e-05,133.7,1.2252e-05,109.34,-2.2912e-06,0.072361,-7.5905e-06,-39.745,2.8358
4090,23.816,1.0909,0,1.462e-05,146.1,1.3527e-05,122.05,-2.7027e-06,0.10526,-8.0248e-06,-39.883,2.8359
4091,23.816,1.2727,0,1.5697e-05,156.86,1.4631e-05,133.07,-3.0623e-06,0.13101,-8.3956e-06,-39.941,2.836
4092,23.816,1.4545,0,1.6631e-05,166.19,1.5587e-05,142.62,-3.3753e-06,0.15079,-8.7129e-06,-39.954,2.8361
4093,23.816,1.6364,0,1.7436e-05,174.24,1.6409e-05,150.85,-3.646e-06,0.16654,-8.9838e-06,-39.94,2.8362
4094,23.816,1.8182,0,1.8122e-05,181.1,1.711e-05,157.87,-3.8774e-06,0.17913,-9.2131e-06,-39.912,2.8363
4095,23.816,2,0,1.8698e-05,186.85,1.7698e-05,163.76,-4.072e-06,0.1892,-9.4045e-06,-39.878,2.8364
4096,23.816,2.1818,0,1.917e-05,191.57,1.8179e-05,168.58,-4.2316e-06,0.19714,-9.5607e-06,-39.843,2.8364
4097,23.816,2.3636,0,1.9543e-05,195.29,1.8559e-05,172.39,-4.3577e-06,0.20323,-9.6835e-06,-39.812,2.8365
4098,23.816,2.5455,0,1.982e-05,198.06,1.8841e-05,175.22,-4.4515e-06,0.20765,-9.7745e-06,-39.787,2.8365
4099,23.816,2.7273,0,2.0003e-05,199.89,1.9027e-05,177.09,-4.5135e-06,0.21054,-9.8346e-06,-39.77,2.8366
4100,23.816,2.9091,0,2.0094e-05,200.8,1.912e-05,178.02,-4.5445e-06,0.21197,-9.8645e-06,-39.761,2.8366
4101,23.816,3.0909,0,2.0094e-05,200.8,1.912e-05,178.02,-4.5445e-06,0.21197,-9.8645e-06,-39.761,2.8366
4102,23.816,3.2727,0,2.0003e-05,199.89,1.9027e-05,177.09,-4.5135e-06,0.21054,-9.8346e-06,-39.77,2.8366
4103,23.816,3.4545,0,1.982e-05,198.06,1.8841e-05,175.22,-4.4515e-06,0.20765,-9.7745e-06,-39.787,2.8365
4104,23.816,3.6364,0,1.9543e-05,195.29,1.8559e-05,172.39,-4.3577e-06,0.20323,-9.6835e-06,-39.812,2.8365
4105,23.816,3.8182,0,1.917e-05,191.57,1.8179e-05,168.58,-4.2316e-06,0.19714,-9.5607e-06,-39.843,2.8364
4106,23.816,4,0,1.8698e-05,186.85,1.7698e-05,163.76,-4.072e-06,0.1892,-9.4045e-06,-39.878,2.8364
4107,23.816,4.1818,0,1.8122e-05,181.1,1.711e-05,157.87,-3.8774e-06,0.17913,-9.2131e-06,-39.912,2.8363
4108,23.816,4.3636,0,1.7436e-05,174.24,1.6409e-05,150.85,-3.646e-06,0.16654,-8.9838e-06,-39.94,2.8362
4109,23.816,4.5455,0,1.6631e-05,166.19,1.5587e-05,142.62,-3.3753e-06,0.15079,-8.7129e-06,-39.954,2.8361
4110,23.816,4.7273,0,1.5697e-05,156.86,1.4631e-05,133.07,-3.0623e-06,0.13101,-8.3956e-06,-39.941,2.836
4111,23.816,4.9091,0,1.462e-05,146.1,1.3527e-05,122.05,-2.7027e-06,0.10526,-8.0248e-06,-39.882,2.8359
4112,23.816,5.0909,0,1.338e-05,133.7,1.2252e-05,109.34,-2.2912e-06,0.072359,-7.5905e-06,-39.745,2.8358
4113,23.816,5.2727,0,1.1949e-05,119.4,1.0777e-05,94.673,-1.8208e-06,0.019897,-7.0772e-06,-39.474,2.8356
4114,23.816,5.4545,0,1.0286e-05,102.79,9.0537e-06,77.608,-1.28e-06,-0.034919,-6.4598e-06,-38.954,2.8355
4115,23.816,5.6364,0,8.3393e-06,83.336,7.0157e-06,57.442,-6.6766e-07,-0.28758,-5.6996e-06,-38.095,2.8354
4116,23.816,5.8182,0,6.1766e-06,61.723,4.6622e-06,34.187,4.4531e-08,-0.50869,-4.8224e-06,-37.077,2.8352
4117,23.816,5.8182,0.1,6.1766e-06,61.723,4.8224e-06,37.077,-4.4533e-08,0.50869,-4.6622e-06,-34.187,2.8352
4118,23.816,5.6364,0.1,8.3393e-06,83.336,5.6996e-06,38.095,6.6766e-07,0.28758,-7.0157e-06,-57.442,2.8354
4119,23.816,5.4545,0.1,1.0286e-05,102.79,6.4598e-06,38.954,1.2799e-06,0.034917,-9.0537e-06,-77.608,2.8355
4120,23.816,5.2727,0.1,1.1949e-05,119.4,7.0772e-06,39.474,1.8208e-06,-0.019896,-1.0777e-05,-94.673,2.8356
4121,23.816,5.0909,0.1,1.338e-05,133.7,7.5905e-06,39.745,2.2912e-06,-0.07236,-1.2252e-05,-109.34,2.8358
4122,23.816,4.9091,0.1,1.462e-05,146.1,8.0248e-06,39.883,2.7027e-06,-0.10526,-1.3527e-05,-122.05,2.8359
4123,23.816,4.7273,0.1,1.5697e-05,156.86,8.3956e-06,39.941,3.0623e-06,-0.13101,-1.4631e-05,-133.07,2.836
4124,23.816,4.5455,0.1,1.6631e-05,166.19,8.7129e-06,39.954,3.3753e-06,-0.15079,-1.5587e-05,-142.62,2.8361
4125,23.816,4.3636,0.1,1.7436e-05,174.24,8.9838e-06,39.94,3.646e-06,-0.16654,-1.6409e-05,-150.85,2.8362
4126,23.816,4.1818,0.1,1.8122e-05,181.1,9.2131e-06,39.912,3.8774e-06,-0.17913,-1.711e-05,-157.87,2.8363
4127,23.816,4,0.1,1.8698e-05,186.85,9.4045e-06,39.878,4.072e-06,-0.1892,-1.7698e-05,-163.76,2.8364
4128,23.816,3.8182,0.1,1.917e-05,191.57,9.5607e-06,39.843,4.2316e-06,-0.19714,-1.8179e-05,-168.58,2.8364
4129,23.816,3.6364,0.1,1.9543e-05,195.29,9.6835e-06,39.812,4.3577e-06,-0.20323,-1.8559e-05,-172.39,2.8365
4130,23.816,3.4545,0.1,1.982e-05,198.06,9.7745e-06,39.787,4.4515e-06,-0.20765,-1.8841e-05,-175.22,2.8365
4131,23.816,3.2727,0.1,2.0003e-05,199.89,9.8346e-06,39.77,4.5135e-06,-0.21054,-1.9027e-05,-177.09,2.8366
4132,23.816,3.0909,0.1,2.0094e-05,200.8,9.8645e-06,39.761,4.5445e-06,-0.21197,-1.912e-05,-178.02,2.8366
4133,23.816,2.9091,0.1,2.0094e-05,200.8,9.8645e-06,39.761,4.5445e-06,-0.21197,-1.912e-05,-178.02,2.8366
4134,23.816,2.7273,0.1,2.0003e-05,199.89,9.8346e-06,39.77,4.5135e-06,-0.21054,-1.9027e-05,-177.09,2.8366
4135,23.816,2.5455,0.1,1.982e-05,198.06,9.7745e-06,39.787,4.4515e-06,-0.20765,-1.8841e-05,-175.22,2.8365
4136,23.816,2.3636,0.1,1.9543e-05,195.29,9.6835e-06,39.812,4.3577e-06,-0.20323,-1.8559e-05,-172.39,2.8365
4137,23.816,2.1818,0.1,1.917e-05,191.57,9.5607e-06,39.843,4.2316e-06,-0.19714,-1.8179e-05,-168.58,2.8364
4138,23.816,2,0.1,1.8698e-05,186.85,9.4045e-06,39.878,4.072e-06,-0.1892,-1.7698e-05,-163.76,2.8364
4139,23.816,1.8182,0.1,1.8122e-05,181.1,9.2131e-06,39.912,3.8774e-06,-0.17913,-1.711e-05,-157.87,2.8363
4140,23.816,1.6364,0.1,1.7436e-05,174.24,8.9838e-06,39.94,3.646e-06,-0.16654,-1.6409e-05,-150.85,2.8362
4141,23.816,1.4545,0.1,1.6631e-05,166.19,8.7129e-06,39.954,3.3753e-06,-0.15079,-1.5587e-05,-142.62,2.8361
4142,23.816,1.2727,0.1,1.5697e-05,156.86,8.3956e-06,39.941,3.0623e-06,-0.13101,-1.4631e-05,-133.07,2.836
4143,23.816,1.0909,0.1,1.462e-05,146.1,8.0248e-06,39.883,2.7027e-06,-0.10526,-1.3527e-05,-122.05,2.8359
4144,23.816,0.90909,0.1,1.338e-05,133.7,7.5905e-06,39.745,2.2912e-06,-0.072362,-1.2252e-05,-109.34,2.8358
4145,23.816,0.72727,0.1,1.1949e-05,119.4,7.0772e-06,39.474,1.8208e-06,-0.019898,-1.0777e-05,-94.673,2.8356
4146,23.816,0.54545,0.1,1.0286e-05,102.79,6.4598e-06,38.954,1.28e-06,0.03492,-9.0537e-06,-77.608,2.8355
4147,23.816,0.36364,0.1,8.3393e-06,83.336,5.6996e-06,38.095,6.6766e-07,0.28758,-7.0157e-06,-57.442,2.8354
4148,23.816,0.18182,0.1,6.1766e-06,61.723,4.8224e-06,37.077,-4.4532e-08,0.50869,-4.6622e-06,-34.187,2.8352
4149,23.631,5.8182,0.1,9.4034e-06,93.969,8.3854e-06,72.869,-1.2981e-06,0.11066,-5.7346e-06,-33.223,2.8042
4150,23.631,5.6364,0.1,1.0798e-05,107.9,8.985e-06,72.962,-7.2608e-07,-0.003243,-7.5113e-06,-50.984,2.8043
4151,23.631,5.4545,0.1,1.2456e-05,124.47,9.747e-06,74.515,-1.9469e-07,-0.18282,-9.3768e-06,-69.173,2.8045
4152,23.631,5.2727,0.1,1.3972e-05,139.62,1.0408e-05,75.763,2.9514e-07,-0.2203,-1.1037e-05,-85.368,2.8046
4153,23.631,5.0909,0.1,1.5315e-05,153.04,1.0967e-05,76.647,7.3234e-07,-0.25526,-1.2489e-05,-99.598,2.8047
4154,23.631,4.9091,0.1,1.6497e-05,164.85,1.1442e-05,77.274,1.1208e-06,-0.27562,-1.3756e-05,-112.05,2.8049
4155,23.631,4.7273,0.1,1.7532e-05,175.19,1.1847e-05,77.722,1.4637e-06,-0.29091,-1.4858e-05,-122.93,2.805
4156,23.631,4.5455,0.1,1.8434e-05,184.21,1.2192e-05,78.045,1.7644e-06,-0.30209,-1.5815e-05,-132.39,2.8051
4157,23.631,4.3636,0.1,1.9214e-05,192.01,1.2485e-05,78.279,2.0256e-06,-0.31066,-1.664e-05,-140.56,2.8052
4158,23.631,4.1818,0.1,1.9882e-05,198.68,1.2733e-05,78.449,2.2497e-06,-0.31727,-1.7344e-05,-147.54,2.8053
4159,23.631,4,0.1,2.0443e-05,204.29,1.2939e-05,78.572,2.4388e-06,-0.32241,-1.7935e-05,-153.4,2.8054
4160,23.631,3.8182,0.1,2.0904e-05,208.89,1.3107e-05,78.662,2.5942e-06,-0.32635,-1.8418e-05,-158.21,2.8054
4161,23.631,3.6364,0.1,2.1268e-05,212.53,1.3239e-05,78.725,2.7171e-06,-0.32932,-1.88e-05,-162,2.8055
4162,23.631,3.4545,0.1,2.1538e-05,215.23,1.3336e-05,78.767,2.8086e-06,-0.33145,-1.9084e-05,-164.82,2.8055
4163,23.631,3.2727,0.1,2.1717e-05,217.02,1.34e-05,78.794,2.8692e-06,-0.33282,-1.9271e-05,-166.69,2.8055
4164,23.631,3.0909,0.1,2.1806e-05,217.91,1.3432e-05,78.806,2.8995e-06,-0.33349,-1.9365e-05,-167.62,2.8055
4165,23.631,2.9091,0.1,2.1806e-05,217.91,1.3432e-05,78.806,2.8995e-06,-0.33349,-1.9365e-05,-167.62,2.8055
4166,23.631,2.7273,0.1,2.1717e-05,217.02,1.34e-05,78.794,2.8692e-06,-0.33282,-1.9271e-05,-166.69,2.8055
4167,23.631,2.5455,0.1,2.1538e-05,215.23,1.3336e-05,78.767,2.8086e-06,-0.33145,-1.9084e-05,-164.82,2.8055
4168,23.631,2.3636,0.1,2.1268e-05,212.53,1.3239e-05,78.725,2.7171e-06,-0.32932,-1.88e-05,-162,2.8055
4169,23.631,2.1818,0.1,2.0904e-05,208.89,1.3107e-05,78.662,2.5942e-06,-0.32636,-1.8418e-05,-158.21,2.8054
4170,23.631,2,0.1,2.0443e-05,204.29,1.2939e-05,78.572,2.4388e-06,-0.32241,-1.7935e-05,-153.4,2.8054
4171,23.631,1.8182,0.1,1.9882e-05,198.68,1.2733e-05,78.449,2.2497e-06,-0.31727,-1.7344e-05,-147.54,2.8053
4172,23.631,1.6364,0.1,1.9214e-05,192.01,1.2485e-05,78.279,2.0256e-06,-0.31066,-1.664e-05,-140.56,2.8052
4173,23.631,1.4545,0.1,1.8434e-05,184.21,1.2192e-05,78.045,1.7644e-06,-0.30209,-1.5815e-05,-132.39,2.8051
4174,23.631,1.2727,0.1,1.7532e-05,175.19,1.1847e-05,77.722,1.4637e-06,-0.29091,-1.4858e-05,-122.93,2.805
4175,23.631,1.0909,0.1,1.6497e-05,164.85,1.1442e-05,77.274,1.1208e-06,-0.27562,-1.3756e-05,-112.05,2.8049
4176,23.631,0.90909,0.1,1.5315e-05,153.04,1.0967e-05,76.647,7.3233e-07,-0.25526,-1.2489e-05,-99.597,2.8047
4177,23.631,0.72727,0.1,1.3972e-05,139.62,1.0408e-05,75.763,2.9514e-07,-0.22029,-1.1037e-05,-85.368,2.8046
4178,23.631,0.54545,0.1,1.2456e-05,124.47,9.747e-06,74.515,-1.9469e-07,-0.18282,-9.3768e-06,-69.173,2.8045
4179,23.631,0.36364,0.1,1.0798e-05,107.9,8.985e-06,72.962,-7.2608e-07,-0.0032409,-7.5113e-06,-50.984,2.8043
4180,23.631,0.18182,0.1,9.4034e-06,93.969,8.3854e-06,72.869,-1.2981e-06,0.11065,-5.7346e-06,-33.223,2.8042
4181,23.447,5.8182,0.1,1.3088e-05,130.79,1.2189e-05,110.77,-2.5373e-06,0.12102,-7.0208e-06,-33.567,2.7731
4182,23.447,5.6364,0.1,1.3951e-05,139.41,1.2533e-05,109.7,-2.0542e-06,0.096632,-8.3494e-06,-47.203,2.7733
4183,23.447,5.4545,0.1,1.5276e-05,152.65,1.3199e-05,111.12,-1.5947e-06,-0.031187,-9.9656e-06,-62.927,2.7734
4184,23.447,5.2727,0.1,1.6589e-05,165.77,1.3839e-05,112.63,-1.159e-06,-0.061668,-1.1494e-05,-77.718,2.7736
4185,23.447,5.0909,0.1,1.7802e-05,177.89,1.4407e-05,113.87,-7.6052e-07,-0.088365,-1.2875e-05,-91.112,2.7737
4186,23.447,4.9091,0.1,1.8893e-05,188.8,1.49e-05,114.85,-4.0045e-07,-0.1037,-1.4101e-05,-103.04,2.7739
4187,23.447,4.7273,0.1,1.9862e-05,198.49,1.5324e-05,115.61,-7.8898e-08,-0.11511,-1.5179e-05,-113.57,2.774
4188,23.447,4.5455,0.1,2.0715e-05,207,1.5687e-05,116.2,2.0545e-07,-0.1233,-1.6121e-05,-122.8,2.7741
4189,23.447,4.3636,0.1,2.1456e-05,214.41,1.5997e-05,116.66,4.5406e-07,-0.1295,-1.6937e-05,-130.8,2.7742
4190,23.447,4.1818,0.1,2.2093e-05,220.78,1.6259e-05,117.01,6.684e-07,-0.13422,-1.7634e-05,-137.65,2.7743
4191,23.447,4,0.1,2.263e-05,226.15,1.6477e-05,117.28,8.4977e-07,-0.13786,-1.8221e-05,-143.43,2.7743
4192,23.447,3.8182,0.1,2.3072e-05,230.56,1.6654e-05,117.48,9.9928e-07,-0.14063,-1.8702e-05,-148.17,2.7744
4193,23.447,3.6364,0.1,2.3422e-05,234.05,1.6793e-05,117.63,1.1178e-06,-0.1427,-1.9082e-05,-151.92,2.7745
4194,23.447,3.4545,0.1,2.3682e-05,236.65,1.6896e-05,117.74,1.2062e-06,-0.14417,-1.9364e-05,-154.7,2.7745
4195,23.447,3.2727,0.1,2.3854e-05,238.37,1.6963e-05,117.81,1.2647e-06,-0.14512,-1.9551e-05,-156.55,2.7745
4196,23.447,3.0909,0.1,2.394e-05,239.23,1.6997e-05,117.84,1.294e-06,-0.14559,-1.9644e-05,-157.47,2.7745
4197,23.447,2.9091,0.1,2.394e-05,239.23,1.6997e-05,117.84,1.294e-06,-0.14558,-1.9644e-05,-157.47,2.7745
4198,23.447,2.7273,0.1,2.3854e-05,238.37,1.6963e-05,117.81,1.2647e-06,-0.14512,-1.9551e-05,-156.55,2.7745
4199,23.447,2.5455,0.1,2.3682e-05,236.65,1.6896e-05,117.74,1.2062e-06,-0.14417,-1.9364e-05,-154.7,2.7745
4200,23.447,2.3636,0.1,2.3422e-05,234.05,1.6793e-05,117.63,1.1178e-06,-0.1427,-1.9082e-05,-151.92,2.7745
4201,23.447,2.1818,0.1,2.3072e-05,230.56,1.6654e-05,117.48,9.9928e-07,-0.14063,-1.8702e-05,-148.17,2.7744
4202,23.447,2,0.1,2.263e-05,226.15,1.6477e-05,117.28,8.4977e-07,-0.13786,-1.8221e-05,-143.43,2.7743
4203,23.447,1.8182,0.1,2.2093e-05,220.78,1.6259e-05,117.01,6.684e-07,-0.13422,-1.7634e-05,-137.65,2.7743
4204,23.447,1.6364,0.1,2.1456e-05,214.41,1.5997e-05,116.66,4.5405e-07,-0.1295,-1.6937e-05,-130.8,2.7742
4205,23.447,1.4545,0.1,2.0715e-05,207,1.5687e-05,116.2,2.0544e-07,-0.1233,-1.6121e-05,-122.8,2.7741
4206,23.447,1.2727,0.1,1.9862e-05,198.49,1.5324e-05,115.61,-7.89e-08,-0.11511,-1.5179e-05,-113.57,2.774
4207,23.447,1.0909,0.1,1.8893e-05,188.8,1.49e-05,114.85,-4.0045e-07,-0.10371,-1.4101e-05,-103.04,2.7739
4208,23.447,0.90909,0.1,1.7802e-05,177.89,1.4407e-05,113.87,-7.6053e-07,-0.088365,-1.2875e-05,-91.112,2.7737
4209,23.447,0.72727,0.1,1.6589e-05,165.77,1.3839e-05,112.63,-1.159e-06,-0.06167,-1.1494e-05,-77.718,2.7736
4210,23.447,0.54545,0.1,1.5276e-05,152.65,1.3199e-05,111.12,-1.5947e-06,-0.031182,-9.9656e-06,-62.927,2.7734
4211,23.447,0.36364,0.1,1.3951e-05,139.41,1.2533e-05,109.7,-2.0542e-06,0.096634,-8.3494e-06,-47.203,2.7733
4212,23.447,0.18182,0.1,1.3088e-05,130.79,1.2189e-05,110.77,-2.5373e-06,0.12102,-7.0208e-06,-33.567,2.7731
4213,23.263,5.8182,0.1,1.6894e-05,168.83,1.606e-05,149.32,-3.8028e-06,0.080942,-8.3278e-06,-33.918,2.7421
4214,23.263,5.6364,0.1,1.7429e-05,174.17,1.6231e-05,147.46,-3.3836e-06,0.083339,-9.3494e-06,-44.741,2.7423
4215,23.263,5.4545,0.1,1.8481e-05,184.68,1.6786e-05,148.51,-2.9829e-06,-0.027872,-1.0734e-05,-58.266,2.7424
4216,23.263,5.2727,0.1,1.9592e-05,195.78,1.737e-05,149.96,-2.5957e-06,-0.052806,-1.2107e-05,-71.514,2.7426
4217,23.263,5.0909,0.1,2.0661e-05,206.47,1.7915e-05,151.33,-2.2354e-06,-0.076572,-1.3387e-05,-83.867,2.7427
4218,23.263,4.9091,0.1,2.165e-05,216.35,1.8404e-05,152.51,-1.9051e-06,-0.090458,-1.4549e-05,-95.092,2.7428
4219,23.263,4.7273,0.1,2.2544e-05,225.28,1.8834e-05,153.48,-1.6067e-06,-0.1007,-1.5586e-05,-105.13,2.743
4220,23.263,4.5455,0.1,2.3338e-05,233.22,1.9207e-05,154.28,-1.3406e-06,-0.10804,-1.65e-05,-114.01,2.7431
4221,23.263,4.3636,0.1,2.4035e-05,240.19,1.9527e-05,154.92,-1.1063e-06,-0.11356,-1.7296e-05,-121.76,2.7432
4222,23.263,4.1818,0.1,2.4637e-05,246.2,1.9798e-05,155.42,-9.0336e-07,-0.11775,-1.798e-05,-128.43,2.7433
4223,23.263,4,0.1,2.5146e-05,251.29,2.0025e-05,155.83,-7.3091e-07,-0.12095,-1.8557e-05,-134.06,2.7433
4224,23.263,3.8182,0.1,2.5567e-05,255.49,2.0209e-05,156.14,-5.8832e-07,-0.12339,-1.9031e-05,-138.7,2.7434
4225,23.263,3.6364,0.1,2.59e-05,258.82,2.0354e-05,156.37,-4.7499e-07,-0.1252,-1.9407e-05,-142.37,2.7435
4226,23.263,3.4545,0.1,2.6148e-05,261.3,2.0461e-05,156.54,-3.9044e-07,-0.12649,-1.9686e-05,-145.1,2.7435
4227,23.263,3.2727,0.1,2.6313e-05,262.94,2.0532e-05,156.65,-3.3427e-07,-0.12732,-1.9871e-05,-146.92,2.7435
4228,23.263,3.0909,0.1,2.6395e-05,263.77,2.0567e-05,156.71,-3.0626e-07,-0.12772,-1.9963e-05,-147.82,2.7435
4229,23.263,2.9091,0.1,2.6395e-05,263.77,2.0567e-05,156.71,-3.0626e-07,-0.12772,-1.9963e-05,-147.82,2.7435
4230,23.263,2.7273,0.1,2.6313e-05,262.94,2.0532e-05,156.65,-3.3427e-07,-0.12732,-1.9871e-05,-146.92,2.7435
4231,23.263,2.5455,0.1,2.6148e-05,261.3,2.0461e-05,156.54,-3.9044e-07,-0.12649,-1.9686e-05,-145.1,2.7435
4232,23.263,2.3636,0.1,2.59e-05,258.82,2.0354e-05,156.37,-4.7499e-07,-0.1252,-1.9407e-05,-142.37,2.7435
4233,23.263,2.1818,0.1,2.5567e-05,255.49,2.0209e-05,156.14,-5.8832e-07,-0.12339,-1.9031e-05,-138.7,2.7434
4234,23.263,2,0.1,2.5146e-05,251.29,2.0025e-05,155.83,-7.3091e-07,-0.12095,-1.8557e-05,-134.06,2.7433
4235,23.263,1.8182,0.1,2.4637e-05,246.2,1.9798e-05,155.42,-9.0336e-07,-0.11775,-1.798e-05,-128.43,2.7433
4236,23.263,1.6364,0.1,2.4035e-05,240.19,1.9527e-05,154.92,-1.1063e-06,-0.11356,-1.7296e-05,-121.76,2.7432
4237,23.263,1.4545,0.1,2.3338e-05,233.22,1.9207e-05,154.28,-1.3406e-06,-0.10804,-1.65e-05,-114.01,2.7431
4238,23.263,1.2727,0.1,2.2544e-05,225.28,1.8834e-05,153.48,-1.6067e-06,-0.1007,-1.5586e-05,-105.13,2.743
4239,23.263,1.0909,0.1,2.165e-05,216.35,1.8404e-05,152.51,-1.9051e-06,-0.090461,-1.4549e-05,-95.092,2.7428
4240,23.263,0.90909,0.1,2.0661e-05,206.47,1.7915e-05,151.33,-2.2354e-06,-0.076575,-1.3387e-05,-83.867,2.7427
4241,23.263,0.72727,0.1,1.9592e-05,195.78,1.737e-05,149.96,-2.5957e-06,-0.052806,-1.2107e-05,-71.514,2.7426
4242,23.263,0.54545,0.1,1.8481e-05,184.68,1.6786e-05,148.51,-2.9829e-06,-0.027868,-1.0734e-05,-58.266,2.7424
4243,23.263,0.36364,0.1,1.7429e-05,174.17,1.6231e-05,147.46,-3.3836e-06,0.083341,-9.3494e-06,-44.741,2.7423
4244,23.263,0.18182,0.1,1.6894e-05,168.83,1.606e-05,149.32,-3.8028e-06,0.080937,-8.3278e-06,-33.918,2.7421
4245,23.078,5.8182,0.1,2.0756e-05,207.42,1.9964e-05,188.26,-5.0834e-06,0.065337,-9.6345e-06,-34.13,2.7111
4246,23.078,5.6364,0.1,2.1071e-05,210.56,2.0011e-05,185.84,-4.7118e-06,0.087151,-1.0432e-05,-42.894,2.7113
4247,23.078,5.4545,0.1,2.1915e-05,219,2.0469e-05,186.53,-4.3572e-06,-0.006992,-1.1624e-05,-54.604,2.7114
4248,23.078,5.2727,0.1,2.2849e-05,228.34,2.0984e-05,187.78,-4.0114e-06,-0.028261,-1.2843e-05,-66.389,2.7116
4249,23.078,5.0909,0.1,2.3781e-05,237.65,2.1489e-05,189.11,-3.686e-06,-0.049475,-1.4012e-05,-77.639,2.7117
4250,23.078,4.9091,0.1,2.4665e-05,246.48,2.1958e-05,190.35,-3.3843e-06,-0.062046,-1.5095e-05,-88.055,2.7118
4251,23.078,4.7273,0.1,2.548e-05,254.62,2.238e-05,191.44,-3.1092e-06,-0.071384,-1.6077e-05,-97.506,2.712
4252,23.078,4.5455,0.1,2.6213e-05,261.95,2.2752e-05,192.37,-2.8619e-06,-0.078073,-1.6952e-05,-105.94,2.7121
4253,23.078,4.3636,0.1,2.6863e-05,268.44,2.3074e-05,193.15,-2.6428e-06,-0.083087,-1.772e-05,-113.37,2.7122
4254,23.078,4.1818,0.1,2.7427e-05,274.08,2.335e-05,193.78,-2.452e-06,-0.086879,-1.8384e-05,-119.79,2.7123
4255,23.078,4,0.1,2.7907e-05,278.88,2.3581e-05,194.29,-2.2892e-06,-0.08977,-1.8946e-05,-125.24,2.7124
4256,23.078,3.8182,0.1,2.8305e-05,282.85,2.3771e-05,194.7,-2.1542e-06,-0.091959,-1.941e-05,-129.74,2.7124
4257,23.078,3.6364,0.1,2.8621e-05,286.01,2.392e-05,195.01,-2.0466e-06,-0.093585,-1.9777e-05,-133.31,2.7125
4258,23.078,3.4545,0.1,2.8857e-05,288.37,2.403e-05,195.23,-1.9662e-06,-0.094737,-2.0051e-05,-135.98,2.7125
4259,23.078,3.2727,0.1,2.9013e-05,289.93,2.4103e-05,195.38,-1.9128e-06,-0.095478,-2.0233e-05,-137.74,2.7125
4260,23.078,3.0909,0.1,2.9092e-05,290.72,2.4139e-05,195.45,-1.8861e-06,-0.095839,-2.0323e-05,-138.62,2.7126
4261,23.078,2.9091,0.1,2.9092e-05,290.72,2.4139e-05,195.45,-1.8861e-06,-0.09584,-2.0323e-05,-138.62,2.7126
4262,23.078,2.7273,0.1,2.9013e-05,289.93,2.4103e-05,195.38,-1.9128e-06,-0.095477,-2.0233e-05,-137.74,2.7125
4263,23.078,2.5455,0.1,2.8857e-05,288.37,2.403e-05,195.23,-1.9662e-06,-0.094738,-2.0051e-05,-135.98,2.7125
4264,23.078,2.3636,0.1,2.8621e-05,286.01,2.392e-05,195.01,-2.0466e-06,-0.093585,-1.9777e-05,-133.31,2.7125
4265,23.078,2.1818,0.1,2.8305e-05,282.85,2.3771e-05,194.7,-2.1542e-06,-0.091959,-1.941e-05,-129.74,2.7124
4266,23.078,2,0.1,2.7907e-05,278.88,2.3581e-05,194.29,-2.2892e-06,-0.089769,-1.8946e-05,-125.24,2.7124
4267,23.078,1.8182,0.1,2.7427e-05,274.08,2.335e-05,193.78,-2.452e-06,-0.086879,-1.8384e-05,-119.79,2.7123
4268,23.078,1.6364,0.1,2.6863e-05,268.44,2.3074e-05,193.15,-2.6428e-06,-0.083088,-1.772e-05,-113.37,2.7122
4269,23.078,1.4545,0.1,2.6213e-05,261.95,2.2752e-05,192.37,-2.8619e-06,-0.078071,-1.6952e-05,-105.94,2.7121
4270,23.078,1.2727,0.1,2.548e-05,254.62,2.238e-05,191.44,-3.1092e-06,-0.071385,-1.6077e-05,-97.506,2.712
4271,23.078,1.0909,0.1,2.4665e-05,246.48,2.1958e-05,190.35,-3.3843e-06,-0.062047,-1.5095e-05,-88.055,2.7118
4272,23.078,0.90909,0.1,2.3781e-05,237.65,2.1489e-05,189.11,-3.686e-06,-0.049478,-1.4012e-05,-77.639,2.7117
4273,23.078,0.72727,0.1,2.2849e-05,228.34,2.0984e-05,187.78,-4.0114e-06,-0.028261,-1.2843e-05,-66.389,2.7116
4274,23.078,0.54545,0.1,2.1915e-05,219,2.0469e-05,186.53,-4.3572e-06,-0.0069872,-1.1624e-05,-54.604,2.7114
4275,23.078,0.36364,0.1,2.1071e-05,210.56,2.0011e-05,185.84,-4.7118e-06,0.087153,-1.0432e-05,-42.894,2.7113
4276,23.078,0.18182,0.1,2.0756e-05,207.42,1.9964e-05,188.26,-5.0834e-06,0.065337,-9.6345e-06,-34.13,2.7111
4277,22.894,5.8182,0.1,2.4651e-05,246.34,2.3891e-05,227.47,-6.3773e-06,0.050054,-1.0936e-05,-34.202,2.6801
4278,22.894,5.6364,0.1,2.4808e-05,247.91,2.3844e-05,224.64,-6.0435e-06,0.082083,-1.1562e-05,-41.384,2.6803
4279,22.894,5.4545,0.1,2.5494e-05,254.77,2.4221e-05,225.01,-5.7262e-06,0.00019343,-1.2595e-05,-51.609,2.6804
4280,22.894,5.2727,0.1,2.6281e-05,262.63,2.4669e-05,226.02,-5.4156e-06,-0.018198,-1.3676e-05,-62.084,2.6806
4281,22.894,5.0909,0.1,2.7089e-05,270.7,2.5126e-05,227.22,-5.121e-06,-0.037336,-1.4734e-05,-72.263,2.6807
4282,22.894,4.9091,0.1,2.7873e-05,278.53,2.5563e-05,228.43,-4.8458e-06,-0.048944,-1.5731e-05,-81.839,2.6809
4283,22.894,4.7273,0.1,2.8608e-05,285.88,2.5966e-05,229.55,-4.5931e-06,-0.057658,-1.6649e-05,-90.642,2.681
4284,22.894,4.5455,0.1,2.9279e-05,292.59,2.6329e-05,230.55,-4.3643e-06,-0.06393,-1.7476e-05,-98.584,2.6811
4285,22.894,4.3636,0.1,2.988e-05,298.59,2.6647e-05,231.41,-4.1605e-06,-0.06864,-1.8209e-05,-105.63,2.6812
4286,22.894,4.1818,0.1,3.0406e-05,303.85,2.6922e-05,232.13,-3.9821e-06,-0.072194,-1.8847e-05,-111.76,2.6813
4287,22.894,4,0.1,3.0856e-05,308.35,2.7154e-05,232.72,-3.8294e-06,-0.074895,-1.9389e-05,-116.99,2.6814
4288,22.894,3.8182,0.1,3.123e-05,312.09,2.7345e-05,233.2,-3.7023e-06,-0.076939,-1.9838e-05,-121.32,2.6814
4289,22.894,3.6364,0.1,3.1529e-05,315.07,2.7495e-05,233.57,-3.6008e-06,-0.078453,-2.0195e-05,-124.76,2.6815
4290,22.894,3.4545,0.1,3.1752e-05,317.3,2.7607e-05,233.84,-3.5248e-06,-0.079527,-2.0462e-05,-127.34,2.6815
4291,22.894,3.2727,0.1,3.19e-05,318.78,2.7682e-05,234.01,-3.4742e-06,-0.080211,-2.0639e-05,-129.05,2.6816
4292,22.894,3.0909,0.1,3.1974e-05,319.52,2.7719e-05,234.1,-3.449e-06,-0.080548,-2.0727e-05,-129.9,2.6816
4293,22.894,2.9091,0.1,3.1974e-05,319.52,2.7719e-05,234.1,-3.449e-06,-0.080546,-2.0727e-05,-129.9,2.6816
4294,22.894,2.7273,0.1,3.19e-05,318.78,2.7682e-05,234.01,-3.4742e-06,-0.080212,-2.0639e-05,-129.05,2.6816
4295,22.894,2.5455,0.1,3.1752e-05,317.3,2.7607e-05,233.84,-3.5248e-06,-0.079526,-2.0462e-05,-127.34,2.6815
4296,22.894,2.3636,0.1,3.1529e-05,315.07,2.7495e-05,233.57,-3.6008e-06,-0.078453,-2.0195e-05,-124.76,2.6815
4297,22.894,2.1818,0.1,3.123e-05,312.09,2.7345e-05,233.2,-3.7023e-06,-0.076941,-1.9838e-05,-121.32,2.6814
4298,22.894,2,0.1,3.0856e-05,308.35,2.7154e-05,232.72,-3.8294e-06,-0.074896,-1.9389e-05,-116.99,2.6814
4299,22.894,1.8182,0.1,3.0406e-05,303.85,2.6922e-05,232.13,-3.9821e-06,-0.072194,-1.8847e-05,-111.76,2.6813
4300,22.894,1.6364,0.1,2.988e-05,298.59,2.6647e-05,231.41,-4.1605e-06,-0.068639,-1.8209e-05,-105.63,2.6812
4301,22.894,1.4545,0.1,2.9279e-05,292.59,2.6329e-05,230.55,-4.3643e-06,-0.063931,-1.7476e-05,-98.584,2.6811
4302,22.894,1.2727,0.1,2.8608e-05,285.88,2.5966e-05,229.55,-4.5931e-06,-0.057658,-1.6649e-05,-90.642,2.681
4303,22.894,1.0909,0.1,2.7873e-05,278.53,2.5563e-05,228.43,-4.8459e-06,-0.048947,-1.5731e-05,-81.839,2.6809
4304,22.894,0.90909,0.1,2.7089e-05,270.7,2.5126e-05,227.22,-5.121e-06,-0.037337,-1.4734e-05,-72.263,2.6807
4305,22.894,0.72727,0.1,2.6281e-05,262.63,2.4669e-05,226.02,-5.4156e-06,-0.018203,-1.3676e-05,-62.084,2.6806
4306,22.894,0.54545,0.1,2.5494e-05,254.77,2.4221e-05,225.01,-5.7262e-06,0.00019647,-1.2595e-05,-51.609,2.6804
4307,22.894,0.36364,0.1,2.4808e-05,247.91,2.3844e-05,224.64,-6.0435e-06,0.082088,-1.1562e-05,-41.384,2.6803
4308,22.894,0.18182,0.1,2.4651e-05,246.34,2.3891e-05,227.47,-6.3773e-06,0.050052,-1.0936e-05,-34.202,2.6801
4309,22.709,5.8182,0.1,2.8568e-05,285.48,2.7833e-05,266.89,-7.6816e-06,0.039464,-1.2232e-05,-34.151,2.6491
4310,22.709,5.6364,0.1,2.8607e-05,285.87,2.7714e-05,263.75,-7.3789e-06,0.07764,-1.2722e-05,-40.068,2.6493
4311,22.709,5.4545,0.1,2.917e-05,291.5,2.8024e-05,263.85,-7.0924e-06,0.0056736,-1.3623e-05,-49.063,2.6494
4312,22.709,5.2727,0.1,2.9835e-05,298.15,2.841e-05,264.63,-6.8115e-06,-0.010227,-1.4582e-05,-58.391,2.6496
4313,22.709,5.0909,0.1,3.0533e-05,305.12,2.8817e-05,265.66,-6.5441e-06,-0.027557,-1.5534e-05,-67.573,2.6498
4314,22.709,4.9091,0.1,3.1224e-05,312.03,2.9217e-05,266.77,-6.293e-06,-0.038294,-1.6446e-05,-76.324,2.6499
4315,22.709,4.7273,0.1,3.1883e-05,318.61,2.9595e-05,267.86,-6.061e-06,-0.046467,-1.7296e-05,-84.461,2.65
4316,22.709,4.5455,0.1,3.2494e-05,324.71,2.994e-05,268.86,-5.8499e-06,-0.052403,-1.8071e-05,-91.874,2.6501
4317,22.709,4.3636,0.1,3.3045e-05,330.22,3.0248e-05,269.75,-5.6609e-06,-0.056876,-1.8763e-05,-98.499,2.6502
4318,22.709,4.1818,0.1,3.3532e-05,335.09,3.0517e-05,270.52,-5.4949e-06,-0.060258,-1.9369e-05,-104.31,2.6503
4319,22.709,4,0.1,3.3952e-05,339.29,3.0746e-05,271.16,-5.3522e-06,-0.062832,-1.9888e-05,-109.28,2.6504
4320,22.709,3.8182,0.1,3.4302e-05,342.79,3.0935e-05,271.69,-5.2332e-06,-0.064772,-2.0319e-05,-113.41,2.6505
4321,22.709,3.6364,0.1,3.4583e-05,345.59,3.1085e-05,272.1,-5.138e-06,-0.066208,-2.0663e-05,-116.71,2.6505
4322,22.709,3.4545,0.1,3.4793e-05,347.69,3.1197e-05,272.41,-5.0665e-06,-0.067223,-2.092e-05,-119.19,2.6506
4323,22.709,3.2727,0.1,3.4933e-05,349.09,3.1272e-05,272.61,-5.0189e-06,-0.067873,-2.1091e-05,-120.83,2.6506
4324,22.709,3.0909,0.1,3.5003e-05,349.79,3.1309e-05,272.7,-4.9951e-06,-0.06819,-2.1177e-05,-121.65,2.6506
4325,22.709,2.9091,0.1,3.5003e-05,349.79,3.1309e-05,272.7,-4.9951e-06,-0.068189,-2.1177e-05,-121.65,2.6506
4326,22.709,2.7273,0.1,3.4933e-05,349.09,3.1272e-05,272.61,-5.0189e-06,-0.067872,-2.1091e-05,-120.83,2.6506
4327,22.709,2.5455,0.1,3.4793e-05,347.69,3.1197e-05,272.41,-5.0665e-06,-0.067223,-2.092e-05,-119.19,2.6506
4328,22.709,2.3636,0.1,3.4583e-05,345.59,3.1085e-05,272.1,-5.138e-06,-0.066207,-2.0663e-05,-116.71,2.6505
4329,22.709,2.1818,0.1,3.4302e-05,342.79,3.0935e-05,271.69,-5.2332e-06,-0.064771,-2.0319e-05,-113.41,2.6505
4330,22.709,2,0.1,3.3952e-05,339.29,3.0746e-05,271.16,-5.3522e-06,-0.062831,-1.9888e-05,-109.28,2.6504
4331,22.709,1.8182,0.1,3.3532e-05,335.09,3.0517e-05,270.52,-5.4949e-06,-0.060258,-1.9369e-05,-104.31,2.6503
4332,22.709,1.6364,0.1,3.3045e-05,330.22,3.0248e-05,269.75,-5.6609e-06,-0.056877,-1.8763e-05,-98.499,2.6502
4333,22.709,1.4545,0.1,3.2494e-05,324.71,2.994e-05,268.86,-5.8499e-06,-0.052403,-1.8071e-05,-91.874,2.6501
4334,22.709,1.2727,0.1,3.1883e-05,318.61,2.9595e-05,267.86,-6.061e-06,-0.046469,-1.7296e-05,-84.461,2.65
4335,22.709,1.0909,0.1,3.1224e-05,312.03,2.9217e-05,266.77,-6.293e-06,-0.038295,-1.6446e-05,-76.324,2.6499
4336,22.709,0.90909,0.1,3.0533e-05,305.12,2.8817e-05,265.66,-6.5441e-06,-0.027558,-1.5534e-05,-67.573,2.6498
4337,22.709,0.72727,0.1,2.9835e-05,298.15,2.841e-05,264.63,-6.8115e-06,-0.010229,-1.4582e-05,-58.391,2.6496
4338,22.709,0.54545,0.1,2.917e-05,291.5,2.8024e-05,263.85,-7.0924e-06,0.0056767,-1.3623e-05,-49.063,2.6494
4339,22.709,0.36364,0.1,2.8607e-05,285.87,2.7714e-05,263.75,-7.3789e-06,0.077644,-1.2722e-05,-40.068,2.6493
4340,22.709,0.18182,0.1,2.8568e-05,285.48,2.7833e-05,266.89,-7.6816e-06,0.039466,-1.2232e-05,-34.151,2.6491
4341,22.525,5.8182,0.1,3.2501e-05,324.79,3.1789e-05,306.46,-8.9945e-06,0.031065,-1.3523e-05,-33.998,2.6181
4342,22.525,5.6364,0.1,3.2448e-05,324.26,3.1612e-05,303.1,-8.7182e-06,0.072568,-1.3902e-05,-38.874,2.6183
4343,22.525,5.4545,0.1,3.2913e-05,328.9,3.1865e-05,302.98,-8.4577e-06,0.0086381,-1.4692e-05,-46.836,2.6185
4344,22.525,5.2727,0.1,3.3477e-05,334.54,3.2196e-05,303.53,-8.2023e-06,-0.0052092,-1.5543e-05,-55.163,2.6186
4345,22.525,5.0909,0.1,3.408e-05,340.57,3.2554e-05,304.38,-7.9586e-06,-0.020946,-1.6399e-05,-63.438,2.6188
4346,22.525,4.9091,0.1,3.4687e-05,346.64,3.2916e-05,305.36,-7.729e-06,-0.030899,-1.7228e-05,-71.404,2.6189
4347,22.525,4.7273,0.1,3.5275e-05,352.51,3.3264e-05,306.37,-7.5161e-06,-0.038582,-1.801e-05,-78.884,2.6191
4348,22.525,4.5455,0.1,3.5826e-05,358.02,3.3588e-05,307.34,-7.3216e-06,-0.044229,-1.8729e-05,-85.757,2.6192
4349,22.525,4.3636,0.1,3.633e-05,363.05,3.3881e-05,308.22,-7.1468e-06,-0.048515,-1.9378e-05,-91.946,2.6193
4350,22.525,4.1818,0.1,3.6778e-05,367.53,3.4139e-05,309,-6.9927e-06,-0.051765,-1.9949e-05,-97.402,2.6194
4351,22.525,4,0.1,3.7167e-05,371.41,3.4361e-05,309.67,-6.8599e-06,-0.054239,-2.0441e-05,-102.1,2.6195
4352,22.525,3.8182,0.1,3.7493e-05,374.67,3.4546e-05,310.22,-6.7488e-06,-0.056109,-2.0852e-05,-106.02,2.6196
4353,22.525,3.6364,0.1,3.7755e-05,377.29,3.4694e-05,310.65,-6.6597e-06,-0.057493,-2.118e-05,-109.16,2.6196
4354,22.525,3.4545,0.1,3.7952e-05,379.25,3.4804e-05,310.98,-6.5928e-06,-0.058469,-2.1426e-05,-111.51,2.6197
4355,22.525,3.2727,0.1,3.8083e-05,380.57,3.4877e-05,311.19,-6.5481e-06,-0.059095,-2.1591e-05,-113.08,2.6197
4356,22.525,3.0909,0.1,3.8149e-05,381.23,3.4914e-05,311.3,-6.5258e-06,-0.059398,-2.1673e-05,-113.87,2.6197
4357,22.525,2.9091,0.1,3.8149e-05,381.23,3.4914e-05,311.3,-6.5258e-06,-0.059401,-2.1673e-05,-113.87,2.6197
4358,22.525,2.7273,0.1,3.8083e-05,380.57,3.4877e-05,311.19,-6.5481e-06,-0.059094,-2.1591e-05,-113.08,2.6197
4359,22.525,2.5455,0.1,3.7952e-05,379.25,3.4804e-05,310.98,-6.5928e-06,-0.058469,-2.1426e-05,-111.51,2.6197
4360,22.525,2.3636,0.1,3.7755e-05,377.29,3.4694e-05,310.65,-6.6597e-06,-0.057493,-2.118e-05,-109.16,2.6196
4361,22.525,2.1818,0.1,3.7493e-05,374.67,3.4546e-05,310.22,-6.7488e-06,-0.056108,-2.0852e-05,-106.02,2.6196
4362,22.525,2,0.1,3.7167e-05,371.41,3.4361e-05,309.67,-6.8599e-06,-0.054239,-2.0441e-05,-102.1,2.6195
4363,22.525,1.8182,0.1,3.6778e-05,367.53,3.4139e-05,309,-6.9927e-06,-0.051764,-1.9949e-05,-97.402,2.6194
4364,22.525,1.6364,0.1,3.633e-05,363.05,3.3881e-05,308.22,-7.1468e-06,-0.048515,-1.9378e-05,-91.945,2.6193
4365,22.525,1.4545,0.1,3.5826e-05,358.02,3.3588e-05,307.34,-7.3216e-06,-0.044231,-1.8729e-05,-85.757,2.6192
4366,22.525,1.2727,0.1,3.5275e-05,352.51,3.3264e-05,306.37,-7.5161e-06,-0.038585,-1.801e-05,-78.884,2.6191
4367,22.525,1.0909,0.1,3.4687e-05,346.64,3.2916e-05,305.36,-7.729e-06,-0.030898,-1.7228e-05,-71.404,2.6189
4368,22.525,0.90909,0.1,3.408e-05,340.57,3.2554e-05,304.38,-7.9586e-06,-0.020949,-1.6399e-05,-63.438,2.6188
4369,22.525,0.72727,0.1,3.3477e-05,334.54,3.2196e-05,303.53,-8.2023e-06,-0.005211,-1.5543e-05,-55.163,2.6186
4370,22.525,0.54545,0.1,3.2913e-05,328.9,3.1865e-05,302.98,-8.4577e-06,0.0086374,-1.4692e-05,-46.836,2.6185
4371,22.525,0.36364,0.1,3.2448e-05,324.26,3.1612e-05,303.1,-8.7182e-06,0.072571,-1.3902e-05,-38.874,2.6183
4372,22.525,0.18182,0.1,3.2501e-05,324.79,3.1789e-05,306.46,-8.9945e-06,0.031067,-1.3523e-05,-33.998,2.6181
4373,22.341,5.8182,0.1,3.6449e-05,364.24,3.5757e-05,346.19,-1.0315e-05,0.024586,-1.4811e-05,-33.762,2.5872
4374,22.341,5.6364,0.1,3.6322e-05,362.97,3.5532e-05,342.64,-1.0061e-05,0.067717,-1.5096e-05,-37.763,2.5874
4375,22.341,5.4545,0.1,3.6706e-05,366.81,3.5737e-05,342.33,-9.8229e-06,0.010453,-1.5792e-05,-44.842,2.5875
4376,22.341,5.2727,0.1,3.7186e-05,371.6,3.6019e-05,342.68,-9.5896e-06,-0.001667,-1.6549e-05,-52.295,2.5877
4377,22.341,5.0909,0.1,3.7706e-05,376.8,3.6333e-05,343.35,-9.3669e-06,-0.016004,-1.7317e-05,-59.751,2.5879
4378,22.341,4.9091,0.1,3.8239e-05,382.12,3.6656e-05,344.19,-9.1565e-06,-0.02523,-1.8069e-05,-66.987,2.588
4379,22.341,4.7273,0.1,3.876e-05,387.34,3.6972e-05,345.09,-8.9609e-06,-0.032462,-1.8784e-05,-73.836,2.5882
4380,22.341,4.5455,0.1,3.9256e-05,392.28,3.7272e-05,345.99,-8.7817e-06,-0.03784,-1.9447e-05,-80.176,2.5883
4381,22.341,4.3636,0.1,3.9712e-05,396.85,3.7546e-05,346.83,-8.6202e-06,-0.041952,-2.005e-05,-85.922,2.5884
4382,22.341,4.1818,0.1,4.0122e-05,400.94,3.7791e-05,347.6,-8.4774e-06,-0.04509,-2.0585e-05,-91.017,2.5885
4383,22.341,4,0.1,4.048e-05,404.52,3.8003e-05,348.26,-8.3541e-06,-0.047488,-2.1048e-05,-95.424,2.5886
4384,22.341,3.8182,0.1,4.0781e-05,407.53,3.818e-05,348.82,-8.2507e-06,-0.049304,-2.1436e-05,-99.117,2.5887
4385,22.341,3.6364,0.1,4.1025e-05,409.97,3.8323e-05,349.26,-8.1676e-06,-0.050647,-2.1747e-05,-102.08,2.5887
4386,22.341,3.4545,0.1,4.1208e-05,411.8,3.843e-05,349.6,-8.1052e-06,-0.051599,-2.1981e-05,-104.31,2.5888
4387,22.341,3.2727,0.1,4.1331e-05,413.03,3.8502e-05,349.82,-8.0634e-06,-0.052206,-2.2138e-05,-105.8,2.5888
4388,22.341,3.0909,0.1,4.1393e-05,413.64,3.8537e-05,349.93,-8.0425e-06,-0.052502,-2.2216e-05,-106.54,2.5888
4389,22.341,2.9091,0.1,4.1393e-05,413.64,3.8537e-05,349.93,-8.0425e-06,-0.052502,-2.2216e-05,-106.54,2.5888
4390,22.341,2.7273,0.1,4.1331e-05,413.03,3.8502e-05,349.82,-8.0634e-06,-0.052207,-2.2138e-05,-105.8,2.5888
4391,22.341,2.5455,0.1,4.1208e-05,411.8,3.843e-05,349.6,-8.1052e-06,-0.051599,-2.1981e-05,-104.31,2.5888
4392,22.341,2.3636,0.1,4.1025e-05,409.97,3.8323e-05,349.26,-8.1676e-06,-0.050649,-2.1747e-05,-102.08,2.5887
4393,22.341,2.1818,0.1,4.0781e-05,407.53,3.818e-05,348.82,-8.2507e-06,-0.049304,-2.1436e-05,-99.117,2.5887
4394,22.341,2,0.1,4.048e-05,404.52,3.8003e-05,348.26,-8.3541e-06,-0.047491,-2.1048e-05,-95.424,2.5886
4395,22.341,1.8182,0.1,4.0122e-05,400.94,3.7791e-05,347.6,-8.4774e-06,-0.045091,-2.0585e-05,-91.017,2.5885
4396,22.341,1.6364,0.1,3.9712e-05,396.85,3.7546e-05,346.83,-8.6202e-06,-0.041951,-2.005e-05,-85.922,2.5884
4397,22.341,1.4545,0.1,3.9256e-05,392.28,3.7272e-05,345.99,-8.7817e-06,-0.037842,-1.9447e-05,-80.175,2.5883
4398,22.341,1.2727,0.1,3.876e-05,387.34,3.6972e-05,345.09,-8.9609e-06,-0.032464,-1.8784e-05,-73.835,2.5882
4399,22.341,1.0909,0.1,3.8239e-05,382.12,3.6656e-05,344.19,-9.1565e-06,-0.025229,-1.8069e-05,-66.987,2.588
4400,22.341,0.90909,0.1,3.7706e-05,376.8,3.6333e-05,343.35,-9.3669e-06,-0.016004,-1.7317e-05,-59.751,2.5879
4401,22.341,0.72727,0.1,3.7186e-05,371.6,3.6019e-05,342.68,-9.5896e-06,-0.001668,-1.6549e-05,-52.294,2.5877
4402,22.341,0.54545,0.1,3.6706e-05,366.81,3.5737e-05,342.33,-9.8229e-06,0.010452,-1.5792e-05,-44.842,2.5875
4403,22.341,0.36364,0.1,3.6322e-05,362.97,3.5532e-05,342.64,-1.0061e-05,0.067719,-1.5096e-05,-37.763,2.5874
4404,22.341,0.18182,0.1,3.6449e-05,364.24,3.5757e-05,346.19,-1.0315e-05,0.02459,-1.4811e-05,-33.762,2.5872
4405,22.156,5.8182,0.1,4.0409e-05,403.81,3.9736e-05,386.05,-1.1641e-05,0.019465,-1.6097e-05,-33.46,2.5562
4406,22.156,5.6364,0.1,4.0222e-05,401.94,3.9472e-05,382.35,-1.1408e-05,0.063099,-1.6302e-05,-36.713,2.5564
4407,22.156,5.4545,0.1,4.0539e-05,405.11,3.9635e-05,381.89,-1.1189e-05,0.011444,-1.6917e-05,-43.028,2.5566
4408,22.156,5.2727,0.1,4.0947e-05,409.18,3.9874e-05,382.06,-1.0975e-05,0.00077087,-1.7591e-05,-49.712,2.5568
4409,22.156,5.0909,0.1,4.1396e-05,413.67,4.0146e-05,382.55,-1.0771e-05,-0.01233,-1.828e-05,-56.434,2.557
4410,22.156,4.9091,0.1,4.1861e-05,418.32,4.0431e-05,383.24,-1.0577e-05,-0.020894,-1.8959e-05,-62.997,2.5571
4411,22.156,4.7273,0.1,4.2322e-05,422.93,4.0717e-05,384.02,-1.0397e-05,-0.0277,-1.961e-05,-69.249,2.5573
4412,22.156,4.5455,0.1,4.2765e-05,427.35,4.099e-05,384.83,-1.0232e-05,-0.032822,-2.022e-05,-75.074,2.5574
4413,22.156,4.3636,0.1,4.3177e-05,431.47,4.1244e-05,385.61,-1.0083e-05,-0.036774,-2.0777e-05,-80.385,2.5575
4414,22.156,4.1818,0.1,4.3549e-05,435.19,4.1472e-05,386.33,-9.951e-06,-0.039811,-2.1274e-05,-85.117,2.5576
4415,22.156,4,0.1,4.3877e-05,438.46,4.1672e-05,386.97,-9.8366e-06,-0.042144,-2.1706e-05,-89.228,2.5577
4416,22.156,3.8182,0.1,4.4154e-05,441.24,4.1841e-05,387.52,-9.7405e-06,-0.043913,-2.207e-05,-92.686,2.5578
4417,22.156,3.6364,0.1,4.4379e-05,443.48,4.1977e-05,387.96,-9.6632e-06,-0.045226,-2.2364e-05,-95.471,2.5578
4418,22.156,3.4545,0.1,4.4549e-05,445.18,4.2079e-05,388.29,-9.6051e-06,-0.046158,-2.2585e-05,-97.569,2.5579
4419,22.156,3.2727,0.1,4.4663e-05,446.32,4.2148e-05,388.51,-9.5661e-06,-0.046752,-2.2732e-05,-98.971,2.5579
4420,22.156,3.0909,0.1,4.472e-05,446.89,4.2182e-05,388.62,-9.5467e-06,-0.047041,-2.2806e-05,-99.674,2.5579
4421,22.156,2.9091,0.1,4.472e-05,446.89,4.2182e-05,388.62,-9.5467e-06,-0.047041,-2.2806e-05,-99.674,2.5579
4422,22.156,2.7273,0.1,4.4663e-05,446.32,4.2148e-05,388.51,-9.5661e-06,-0.046751,-2.2732e-05,-98.971,2.5579
4423,22.156,2.5455,0.1,4.4549e-05,445.18,4.2079e-05,388.29,-9.6051e-06,-0.046157,-2.2585e-05,-97.569,2.5579
4424,22.156,2.3636,0.1,4.4379e-05,443.48,4.1977e-05,387.96,-9.6632e-06,-0.045229,-2.2364e-05,-95.471,2.5578
4425,22.156,2.1818,0.1,4.4154e-05,441.24,4.1841e-05,387.52,-9.7405e-06,-0.043913,-2.207e-05,-92.686,2.5578
4426,22.156,2,0.1,4.3877e-05,438.46,4.1672e-05,386.97,-9.8366e-06,-0.042143,-2.1706e-05,-89.228,2.5577
4427,22.156,1.8182,0.1,4.3549e-05,435.19,4.1472e-05,386.33,-9.951e-06,-0.039811,-2.1274e-05,-85.117,2.5576
4428,22.156,1.6364,0.1,4.3177e-05,431.47,4.1244e-05,385.61,-1.0083e-05,-0.036775,-2.0777e-05,-80.384,2.5575
4429,22.156,1.4545,0.1,4.2765e-05,427.35,4.099e-05,384.83,-1.0232e-05,-0.032822,-2.022e-05,-75.074,2.5574
4430,22.156,1.2727,0.1,4.2322e-05,422.93,4.0717e-05,384.02,-1.0397e-05,-0.027702,-1.961e-05,-69.249,2.5573
4431,22.156,1.0909,0.1,4.1861e-05,418.32,4.0431e-05,383.24,-1.0577e-05,-0.020896,-1.8959e-05,-62.997,2.5571
4432,22.156,0.90909,0.1,4.1396e-05,413.67,4.0146e-05,382.55,-1.0771e-05,-0.012333,-1.828e-05,-56.434,2.557
4433,22.156,0.72727,0.1,4.0947e-05,409.18,3.9874e-05,382.06,-1.0975e-05,0.00076856,-1.7591e-05,-49.712,2.5568
4434,22.156,0.54545,0.1,4.0539e-05,405.11,3.9635e-05,381.89,-1.1189e-05,0.011443,-1.6917e-05,-43.028,2.5566
4435,22.156,0.36364,0.1,4.0222e-05,401.94,3.9472e-05,382.35,-1.1408e-05,0.0631,-1.6302e-05,-36.713,2.5564
4436,22.156,0.18182,0.1,4.0409e-05,403.81,3.9736e-05,386.05,-1.1641e-05,0.01946,-1.6097e-05,-33.46,2.5562
4437,21.972,5.8182,0.1,4.438e-05,443.5,4.3725e-05,426.03,-1.2974e-05,0.015398,-1.7382e-05,-33.104,2.5253
4438,21.972,5.6364,0.1,4.4143e-05,441.13,4.3428e-05,422.21,-1.2757e-05,0.058804,-1.7518e-05,-35.71,2.5255
4439,21.972,5.4545,0.1,4.4404e-05,443.73,4.3556e-05,421.61,-1.2556e-05,0.011935,-1.8062e-05,-41.357,2.5257
4440,21.972,5.2727,0.1,4.475e-05,447.19,4.3756e-05,421.63,-1.2359e-05,0.0024827,-1.8663e-05,-47.362,2.5259
4441,21.972,5.0909,0.1,4.5137e-05,451.05,4.399e-05,421.96,-1.2171e-05,-0.009528,-1.928e-05,-53.425,2.5261
4442,21.972,4.9091,0.1,4.5542e-05,455.11,4.424e-05,422.5,-1.1993e-05,-0.017488,-1.9893e-05,-59.372,2.5262
4443,21.972,4.7273,0.1,4.5949e-05,459.17,4.4494e-05,423.16,-1.1827e-05,-0.023895,-2.0484e-05,-65.068,2.5264
4444,21.972,4.5455,0.1,4.6342e-05,463.1,4.4741e-05,423.86,-1.1675e-05,-0.028774,-2.1041e-05,-70.402,2.5265
4445,21.972,4.3636,0.1,4.6712e-05,466.8,4.4973e-05,424.56,-1.1537e-05,-0.032569,-2.1553e-05,-75.29,2.5266
4446,21.972,4.1818,0.1,4.7049e-05,470.16,4.5184e-05,425.23,-1.1415e-05,-0.035509,-2.2013e-05,-79.666,2.5267
4447,21.972,4,0.1,4.7347e-05,473.14,4.537e-05,425.83,-1.1309e-05,-0.037776,-2.2415e-05,-83.482,2.5268
4448,21.972,3.8182,0.1,4.76e-05,475.67,4.5528e-05,426.34,-1.122e-05,-0.039508,-2.2754e-05,-86.703,2.5269
4449,21.972,3.6364,0.1,4.7806e-05,477.73,4.5657e-05,426.77,-1.1148e-05,-0.040796,-2.3028e-05,-89.304,2.527
4450,21.972,3.4545,0.1,4.7963e-05,479.3,4.5754e-05,427.09,-1.1094e-05,-0.041706,-2.3235e-05,-91.267,2.527
4451,21.972,3.2727,0.1,4.8068e-05,480.35,4.5819e-05,427.3,-1.1058e-05,-0.042294,-2.3374e-05,-92.582,2.5271
4452,21.972,3.0909,0.1,4.8121e-05,480.88,4.5851e-05,427.41,-1.104e-05,-0.042579,-2.3444e-05,-93.241,2.5271
4453,21.972,2.9091,0.1,4.8121e-05,480.88,4.5851e-05,427.41,-1.104e-05,-0.042578,-2.3444e-05,-93.241,2.5271
4454,21.972,2.7273,0.1,4.8068e-05,480.35,4.5819e-05,427.3,-1.1058e-05,-0.042292,-2.3374e-05,-92.582,2.5271
4455,21.972,2.5455,0.1,4.7963e-05,479.3,4.5754e-05,427.09,-1.1094e-05,-0.041708,-2.3235e-05,-91.267,2.527
4456,21.972,2.3636,0.1,4.7806e-05,477.73,4.5657e-05,426.77,-1.1148e-05,-0.040794,-2.3028e-05,-89.304,2.527
4457,21.972,2.1818,0.1,4.76e-05,475.67,4.5528e-05,426.34,-1.122e-05,-0.039507,-2.2754e-05,-86.703,2.5269
4458,21.972,2,0.1,4.7347e-05,473.14,4.537e-05,425.83,-1.1309e-05,-0.037776,-2.2415e-05,-83.482,2.5268
4459,21.972,1.8182,0.1,4.7049e-05,470.16,4.5184e-05,425.23,-1.1415e-05,-0.03551,-2.2013e-05,-79.666,2.5267
4460,21.972,1.6364,0.1,4.6712e-05,466.8,4.4973e-05,424.56,-1.1537e-05,-0.03257,-2.1553e-05,-75.29,2.5266
4461,21.972,1.4545,0.1,4.6342e-05,463.1,4.4741e-05,423.86,-1.1675e-05,-0.028773,-2.1041e-05,-70.402,2.5265
4462,21.972,1.2727,0.1,4.5949e-05,459.17,4.4494e-05,423.16,-1.1827e-05,-0.023895,-2.0484e-05,-65.067,2.5264
4463,21.972,1.0909,0.1,4.5542e-05,455.11,4.424e-05,422.5,-1.1993e-05,-0.01749,-1.9893e-05,-59.372,2.5262
4464,21.972,0.90909,0.1,4.5137e-05,451.05,4.399e-05,421.96,-1.2171e-05,-0.0095264,-1.928e-05,-53.424,2.5261
4465,21.972,0.72727,0.1,4.475e-05,447.19,4.3756e-05,421.63,-1.2359e-05,0.0024829,-1.8663e-05,-47.362,2.5259
4466,21.972,0.54545,0.1,4.4404e-05,443.73,4.3556e-05,421.61,-1.2556e-05,0.011935,-1.8062e-05,-41.357,2.5257
4467,21.972,0.36364,0.1,4.4143e-05,441.13,4.3428e-05,422.21,-1.2757e-05,0.058808,-1.7518e-05,-35.71,2.5255
4468,21.972,0.18182,0.1,4.438e-05,443.5,4.3725e-05,426.03,-1.2974e-05,0.015395,-1.7382e-05,-33.104,2.5253
4469,21.788,5.8182,0.1,4.8364e-05,483.3,4.7724e-05,466.13,-1.4312e-05,0.012143,-1.8666e-05,-32.705,2.4945
4470,21.788,5.6364,0.1,4.8084e-05,480.51,4.7399e-05,462.22,-1.4111e-05,0.054834,-1.8743e-05,-34.746,2.4947
4471,21.788,5.4545,0.1,4.8297e-05,482.63,4.7496e-05,461.5,-1.3924e-05,0.012092,-1.9224e-05,-39.804,2.4949
4472,21.788,5.2727,0.1,4.8589e-05,485.55,4.7662e-05,461.37,-1.3743e-05,0.0036757,-1.976e-05,-45.206,2.4951
4473,21.788,5.0909,0.1,4.8921e-05,488.87,4.7861e-05,461.56,-1.3569e-05,-0.0073672,-2.0313e-05,-50.675,2.4952
4474,21.788,4.9091,0.1,4.9273e-05,492.39,4.8079e-05,461.95,-1.3405e-05,-0.014779,-2.0865e-05,-56.061,2.4954
4475,21.788,4.7273,0.1,4.963e-05,495.96,4.8303e-05,462.48,-1.3252e-05,-0.020815,-2.14e-05,-61.241,2.4955
4476,21.788,4.5455,0.1,4.9979e-05,499.44,4.8524e-05,463.08,-1.3112e-05,-0.025459,-2.1907e-05,-66.115,2.4957
4477,21.788,4.3636,0.1,5.0309e-05,502.74,4.8734e-05,463.7,-1.2984e-05,-0.029106,-2.2376e-05,-70.599,2.4958
4478,21.788,4.1818,0.1,5.0612e-05,505.77,4.8927e-05,464.29,-1.2871e-05,-0.031949,-2.2799e-05,-74.63,2.4959
4479,21.788,4,0.1,5.0881e-05,508.46,4.9098e-05,464.84,-1.2773e-05,-0.034157,-2.317e-05,-78.157,2.496
4480,21.788,3.8182,0.1,5.1111e-05,510.76,4.9245e-05,465.32,-1.269e-05,-0.035849,-2.3485e-05,-81.144,2.4961
4481,21.788,3.6364,0.1,5.1299e-05,512.64,4.9364e-05,465.71,-1.2623e-05,-0.03711,-2.374e-05,-83.561,2.4962
4482,21.788,3.4545,0.1,5.1443e-05,514.07,4.9455e-05,466.01,-1.2573e-05,-0.03801,-2.3933e-05,-85.389,2.4962
4483,21.788,3.2727,0.1,5.1539e-05,515.03,4.9516e-05,466.22,-1.2539e-05,-0.038584,-2.4062e-05,-86.615,2.4962
4484,21.788,3.0909,0.1,5.1587e-05,515.52,4.9546e-05,466.32,-1.2523e-05,-0.038865,-2.4127e-05,-87.23,2.4962
4485,21.788,2.9091,0.1,5.1587e-05,515.52,4.9546e-05,466.32,-1.2523e-05,-0.038866,-2.4127e-05,-87.23,2.4962
4486,21.788,2.7273,0.1,5.1539e-05,515.03,4.9516e-05,466.22,-1.2539e-05,-0.038585,-2.4062e-05,-86.615,2.4962
4487,21.788,2.5455,0.1,5.1443e-05,514.07,4.9455e-05,466.02,-1.2573e-05,-0.038009,-2.3933e-05,-85.389,2.4962
4488,21.788,2.3636,0.1,5.1299e-05,512.64,4.9364e-05,465.71,-1.2623e-05,-0.037111,-2.374e-05,-83.561,2.4962
4489,21.788,2.1818,0.1,5.1111e-05,510.76,4.9245e-05,465.32,-1.269e-05,-0.035847,-2.3485e-05,-81.143,2.4961
4490,21.788,2,0.1,5.0881e-05,508.46,4.9098e-05,464.84,-1.2773e-05,-0.034158,-2.317e-05,-78.157,2.496
4491,21.788,1.8182,0.1,5.0612e-05,505.77,4.8927e-05,464.29,-1.2871e-05,-0.031948,-2.2799e-05,-74.63,2.4959
4492,21.788,1.6364,0.1,5.0309e-05,502.74,4.8734e-05,463.7,-1.2984e-05,-0.029105,-2.2376e-05,-70.599,2.4958
4493,21.788,1.4545,0.1,4.9979e-05,499.44,4.8524e-05,463.08,-1.3112e-05,-0.02546,-2.1907e-05,-66.115,2.4957
4494,21.788,1.2727,0.1,4.963e-05,495.96,4.8303e-05,462.48,-1.3252e-05,-0.020817,-2.14e-05,-61.241,2.4955
4495,21.788,1.0909,0.1,4.9273e-05,492.39,4.8079e-05,461.95,-1.3405e-05,-0.014779,-2.0865e-05,-56.061,2.4954
4496,21.788,0.90909,0.1,4.8921e-05,488.87,4.7861e-05,461.56,-1.3569e-05,-0.0073674,-2.0313e-05,-50.675,2.4952
4497,21.788,0.72727,0.1,4.8589e-05,485.56,4.7662e-05,461.37,-1.3743e-05,0.0036768,-1.976e-05,-45.206,2.4951
4498,21.788,0.54545,0.1,4.8297e-05,482.63,4.7496e-05,461.5,-1.3924e-05,0.012094,-1.9224e-05,-39.804,2.4949
4499,21.788,0.36364,0.1,4.8084e-05,480.51,4.7399e-05,462.22,-1.4111e-05,0.054835,-1.8743e-05,-34.746,2.4947
4500,21.788,0.18182,0.1,4.8364e-05,483.3,4.7724e-05,466.13,-1.4312e-05,0.012144,-1.8666e-05,-32.705,2.4945
4501,21.603,5.8182,0.1,5.2359e-05,523.22,5.1735e-05,506.35,-1.5654e-05,0.0095238,-1.9951e-05,-32.274,2.4636
4502,21.603,5.6364,0.1,5.2043e-05,520.07,5.1386e-05,502.36,-1.5468e-05,0.051177,-1.9975e-05,-33.817,2.4638
4503,21.603,5.4545,0.1,5.2213e-05,521.77,5.1455e-05,501.55,-1.5295e-05,0.012032,-2.0401e-05,-38.351,2.464
4504,21.603,5.2727,0.1,5.2459e-05,524.23,5.159e-05,501.29,-1.5126e-05,0.0044996,-2.0878e-05,-43.214,2.4642
4505,21.603,5.0909,0.1,5.2743e-05,527.07,5.1758e-05,501.34,-1.4966e-05,-0.0056853,-2.1374e-05,-48.149,2.4644
4506,21.603,4.9091,0.1,5.3048e-05,530.11,5.1946e-05,501.6,-1.4814e-05,-0.012602,-2.187e-05,-53.024,2.4646
4507,21.603,4.7273,0.1,5.336e-05,533.23,5.2142e-05,502.01,-1.4673e-05,-0.018294,-2.2354e-05,-57.729,2.4647
4508,21.603,4.5455,0.1,5.3667e-05,536.3,5.2338e-05,502.49,-1.4543e-05,-0.022714,-2.2815e-05,-62.172,2.4649
4509,21.603,4.3636,0.1,5.396e-05,539.23,5.2526e-05,503.02,-1.4425e-05,-0.026216,-2.3242e-05,-66.275,2.465
4510,21.603,4.1818,0.1,5.4231e-05,541.93,5.27e-05,503.53,-1.432e-05,-0.028966,-2.363e-05,-69.976,2.4651
4511,21.603,4,0.1,5.4473e-05,544.35,5.2856e-05,504.02,-1.4229e-05,-0.031111,-2.3971e-05,-73.224,2.4652
4512,21.603,3.8182,0.1,5.4681e-05,546.43,5.299e-05,504.45,-1.4153e-05,-0.032766,-2.4261e-05,-75.982,2.4653
4513,21.603,3.6364,0.1,5.4851e-05,548.14,5.31e-05,504.81,-1.4091e-05,-0.034002,-2.4496e-05,-78.218,2.4654
4514,21.603,3.4545,0.1,5.4982e-05,549.44,5.3184e-05,505.09,-1.4044e-05,-0.034884,-2.4675e-05,-79.913,2.4654
4515,21.603,3.2727,0.1,5.5069e-05,550.31,5.3241e-05,505.28,-1.4013e-05,-0.035453,-2.4795e-05,-81.051,2.4654
4516,21.603,3.0909,0.1,5.5114e-05,550.76,5.3269e-05,505.38,-1.3997e-05,-0.03573,-2.4856e-05,-81.623,2.4655
4517,21.603,2.9091,0.1,5.5114e-05,550.76,5.3269e-05,505.38,-1.3997e-05,-0.03573,-2.4856e-05,-81.623,2.4655
4518,21.603,2.7273,0.1,5.5069e-05,550.31,5.3241e-05,505.28,-1.4013e-05,-0.035455,-2.4795e-05,-81.051,2.4654
4519,21.603,2.5455,0.1,5.4982e-05,549.44,5.3184e-05,505.09,-1.4044e-05,-0.034885,-2.4675e-05,-79.913,2.4654
4520,21.603,2.3636,0.1,5.4851e-05,548.14,5.31e-05,504.81,-1.4091e-05,-0.034002,-2.4496e-05,-78.218,2.4654
4521,21.603,2.1818,0.1,5.4681e-05,546.43,5.299e-05,504.45,-1.4153e-05,-0.032764,-2.4261e-05,-75.981,2.4653
4522,21.603,2,0.1,5.4473e-05,544.35,5.2856e-05,504.02,-1.4229e-05,-0.031112,-2.3971e-05,-73.224,2.4652
4523,21.603,1.8182,0.1,5.4231e-05,541.93,5.27e-05,503.53,-1.432e-05,-0.028965,-2.363e-05,-69.976,2.4651
4524,21.603,1.6364,0.1,5.396e-05,539.23,5.2526e-05,503.02,-1.4425e-05,-0.026216,-2.3242e-05,-66.275,2.465
4525,21.603,1.4545,0.1,5.3667e-05,536.3,5.2338e-05,502.49,-1.4543e-05,-0.022714,-2.2814e-05,-62.172,2.4649
4526,21.603,1.2727,0.1,5.336e-05,533.23,5.2142e-05,502.01,-1.4673e-05,-0.018294,-2.2354e-05,-57.729,2.4647
4527,21.603,1.0909,0.1,5.3048e-05,530.11,5.1946e-05,501.6,-1.4814e-05,-0.012602,-2.187e-05,-53.024,2.4646
4528,21.603,0.90909,0.1,5.2743e-05,527.07,5.1758e-05,501.34,-1.4966e-05,-0.0056907,-2.1374e-05,-48.149,2.4644
4529,21.603,0.72727,0.1,5.2459e-05,524.23,5.159e-05,501.29,-1.5126e-05,0.0044973,-2.0878e-05,-43.214,2.4642
4530,21.603,0.54545,0.1,5.2213e-05,521.77,5.1455e-05,501.55,-1.5295e-05,0.012031,-2.0401e-05,-38.351,2.464
4531,21.603,0.36364,0.1,5.2043e-05,520.07,5.1386e-05,502.36,-1.5468e-05,0.051181,-1.9975e-05,-33.817,2.4638
4532,21.603,0.18182,0.1,5.2359e-05,523.22,5.1735e-05,506.35,-1.5654e-05,0.0095224,-1.9951e-05,-32.274,2.4636
4533,21.419,5.8182,0.1,5.6365e-05,563.26,5.5757e-05,546.68,-1.7002e-05,0.0074095,-2.1237e-05,-31.816,2.4328
4534,21.419,5.6364,0.1,5.6019e-05,559.81,5.5387e-05,542.64,-1.6828e-05,0.047822,-2.1215e-05,-32.919,2.433
4535,21.419,5.4545,0.1,5.6153e-05,561.14,5.5432e-05,541.74,-1.6667e-05,0.011838,-2.1591e-05,-36.985,2.4332
4536,21.419,5.2727,0.1,5.6358e-05,563.19,5.554e-05,541.37,-1.6511e-05,0.0050634,-2.2017e-05,-41.365,2.4334
4537,21.419,5.0909,0.1,5.6599e-05,565.59,5.568e-05,541.29,-1.6362e-05,-0.0043593,-2.246e-05,-45.819,2.4336
4538,21.419,4.9091,0.1,5.6861e-05,568.21,5.5839e-05,541.43,-1.6222e-05,-0.010821,-2.2905e-05,-50.228,2.4338
4539,21.419,4.7273,0.1,5.7132e-05,570.92,5.6009e-05,541.71,-1.6091e-05,-0.016194,-2.3342e-05,-54.497,2.434
4540,21.419,4.5455,0.1,5.7401e-05,573.62,5.6181e-05,542.09,-1.597e-05,-0.020407,-2.3759e-05,-58.54,2.4341
4541,21.419,4.3636,0.1,5.766e-05,576.21,5.6347e-05,542.52,-1.5861e-05,-0.023765,-2.4148e-05,-62.285,2.4342
4542,21.419,4.1818,0.1,5.7901e-05,578.61,5.6503e-05,542.96,-1.5764e-05,-0.026423,-2.4501e-05,-65.673,2.4344
4543,21.419,4,0.1,5.8117e-05,580.77,5.6644e-05,543.38,-1.568e-05,-0.028511,-2.4813e-05,-68.655,2.4345
4544,21.419,3.8182,0.1,5.8304e-05,582.64,5.6765e-05,543.76,-1.5609e-05,-0.030122,-2.508e-05,-71.192,2.4345
4545,21.419,3.6364,0.1,5.8458e-05,584.17,5.6866e-05,544.08,-1.5551e-05,-0.031336,-2.5296e-05,-73.254,2.4346
4546,21.419,3.4545,0.1,5.8575e-05,585.35,5.6942e-05,544.33,-1.5508e-05,-0.032204,-2.5461e-05,-74.819,2.4347
4547,21.419,3.2727,0.1,5.8655e-05,586.14,5.6994e-05,544.5,-1.5479e-05,-0.032762,-2.5572e-05,-75.871,2.4347
4548,21.419,3.0909,0.1,5.8695e-05,586.54,5.702e-05,544.59,-1.5464e-05,-0.033035,-2.5628e-05,-76.4,2.4347
4549,21.419,2.9091,0.1,5.8695e-05,586.54,5.702e-05,544.59,-1.5464e-05,-0.033036,-2.5628e-05,-76.4,2.4347
4550,21.419,2.7273,0.1,5.8655e-05,586.14,5.6994e-05,544.5,-1.5479e-05,-0.032762,-2.5572e-05,-75.871,2.4347
4551,21.419,2.5455,0.1,5.8575e-05,585.35,5.6942e-05,544.33,-1.5508e-05,-0.032203,-2.5461e-05,-74.819,2.4347
4552,21.419,2.3636,0.1,5.8458e-05,584.17,5.6866e-05,544.08,-1.5551e-05,-0.031335,-2.5296e-05,-73.254,2.4346
4553,21.419,2.1818,0.1,5.8304e-05,582.64,5.6765e-05,543.76,-1.5609e-05,-0.030123,-2.508e-05,-71.192,2.4345
4554,21.419,2,0.1,5.8117e-05,580.77,5.6644e-05,543.38,-1.568e-05,-0.028508,-2.4813e-05,-68.655,2.4345
4555,21.419,1.8182,0.1,5.7901e-05,578.61,5.6503e-05,542.96,-1.5764e-05,-0.026422,-2.4501e-05,-65.673,2.4344
4556,21.419,1.6364,0.1,5.766e-05,576.21,5.6347e-05,542.52,-1.5861e-05,-0.023766,-2.4148e-05,-62.285,2.4342
4557,21.419,1.4545,0.1,5.7401e-05,573.62,5.6181e-05,542.09,-1.597e-05,-0.020406,-2.3759e-05,-58.54,2.4341
4558,21.419,1.2727,0.1,5.7132e-05,570.92,5.6009e-05,541.71,-1.6091e-05,-0.016194,-2.3342e-05,-54.497,2.434
4559,21.419,1.0909,0.1,5.6861e-05,568.21,5.5839e-05,541.43,-1.6222e-05,-0.010821,-2.2905e-05,-50.228,2.4338
4560,21.419,0.90909,0.1,5.6599e-05,565.59,5.568e-05,541.29,-1.6362e-05,-0.004358,-2.246e-05,-45.818,2.4336
4561,21.419,0.72727,0.1,5.6358e-05,563.19,5.554e-05,541.37,-1.6511e-05,0.0050608,-2.2017e-05,-41.365,2.4334
4562,21.419,0.54545,0.1,5.6153e-05,561.14,5.5432e-05,541.74,-1.6667e-05,0.011836,-2.1591e-05,-36.985,2.4332
4563,21.419,0.36364,0.1,5.6019e-05,559.81,5.5387e-05,542.64,-1.6828e-05,0.047825,-2.1215e-05,-32.919,2.433
4564,21.419,0.18182,0.1,5.6365e-05,563.26,5.5757e-05,546.68,-1.7002e-05,0.0074133,-2.1237e-05,-31.816,2.4328
4565,21.235,5.8182,0.1,6.0384e-05,603.42,5.979e-05,587.15,-1.8354e-05,0.0057036,-2.2525e-05,-31.338,2.402
4566,21.235,5.6364,0.1,6.0012e-05,599.71,5.9403e-05,583.06,-1.8191e-05,0.044748,-2.2463e-05,-32.052,2.4022
4567,21.235,5.4545,0.1,6.0113e-05,600.71,5.9426e-05,582.07,-1.8042e-05,0.011559,-2.2794e-05,-35.697,2.4025
4568,21.235,5.2727,0.1,6.0282e-05,602.4,5.9509e-05,581.6,-1.7897e-05,0.0054387,-2.3173e-05,-39.641,2.4027
4569,21.235,5.0909,0.1,6.0485e-05,604.43,5.9623e-05,581.41,-1.7758e-05,-0.0033014,-2.3569e-05,-43.659,2.4029
4570,21.235,4.9091,0.1,6.0709e-05,606.67,5.9757e-05,581.43,-1.7628e-05,-0.0093505,-2.3968e-05,-47.646,2.4031
4571,21.235,4.7273,0.1,6.0943e-05,609.01,5.9903e-05,581.61,-1.7507e-05,-0.014431,-2.4361e-05,-51.514,2.4032
4572,21.235,4.5455,0.1,6.1178e-05,611.36,6.0052e-05,581.88,-1.7395e-05,-0.018445,-2.4737e-05,-55.187,2.4034
4573,21.235,4.3636,0.1,6.1405e-05,613.63,6.0198e-05,582.22,-1.7294e-05,-0.02167,-2.509e-05,-58.599,2.4035
4574,21.235,4.1818,0.1,6.1618e-05,615.75,6.0336e-05,582.58,-1.7203e-05,-0.024236,-2.5411e-05,-61.693,2.4036
4575,21.235,4,0.1,6.181e-05,617.67,6.0461e-05,582.93,-1.7125e-05,-0.026262,-2.5696e-05,-64.423,2.4037
4576,21.235,3.8182,0.1,6.1977e-05,619.34,6.0571e-05,583.25,-1.7059e-05,-0.027835,-2.5939e-05,-66.75,2.4038
4577,21.235,3.6364,0.1,6.2114e-05,620.72,6.0661e-05,583.53,-1.7006e-05,-0.029022,-2.6138e-05,-68.645,2.4039
4578,21.235,3.4545,0.1,6.222e-05,621.77,6.073e-05,583.75,-1.6966e-05,-0.029874,-2.6289e-05,-70.085,2.404
4579,21.235,3.2727,0.1,6.2292e-05,622.49,6.0777e-05,583.9,-1.6939e-05,-0.030425,-2.6391e-05,-71.054,2.404
4580,21.235,3.0909,0.1,6.2328e-05,622.85,6.0801e-05,583.97,-1.6925e-05,-0.030694,-2.6442e-05,-71.541,2.404
4581,21.235,2.9091,0.1,6.2328e-05,622.85,6.0801e-05,583.97,-1.6925e-05,-0.030693,-2.6442e-05,-71.541,2.404
4582,21.235,2.7273,0.1,6.2292e-05,622.49,6.0777e-05,583.9,-1.6939e-05,-0.030425,-2.6391e-05,-71.054,2.404
4583,21.235,2.5455,0.1,6.222e-05,621.77,6.073e-05,583.75,-1.6966e-05,-0.029875,-2.6289e-05,-70.085,2.404
4584,21.235,2.3636,0.1,6.2114e-05,620.72,6.0661e-05,583.53,-1.7006e-05,-0.029024,-2.6138e-05,-68.645,2.4039
4585,21.235,2.1818,0.1,6.1977e-05,619.34,6.0571e-05,583.25,-1.7059e-05,-0.027835,-2.5939e-05,-66.75,2.4038
4586,21.235,2,0.1,6.181e-05,617.67,6.0461e-05,582.93,-1.7125e-05,-0.026262,-2.5696e-05,-64.423,2.4037
4587,21.235,1.8182,0.1,6.1618e-05,615.75,6.0336e-05,582.58,-1.7203e-05,-0.024237,-2.5411e-05,-61.693,2.4036
4588,21.235,1.6364,0.1,6.1405e-05,613.63,6.0198e-05,582.22,-1.7294e-05,-0.021671,-2.509e-05,-58.599,2.4035
4589,21.235,1.4545,0.1,6.1178e-05,611.36,6.0052e-05,581.88,-1.7395e-05,-0.018445,-2.4737e-05,-55.187,2.4034
4590,21.235,1.2727,0.1,6.0943e-05,609.01,5.9903e-05,581.61,-1.7507e-05,-0.014433,-2.4361e-05,-51.514,2.4032
4591,21.235,1.0909,0.1,6.0709e-05,606.67,5.9757e-05,581.43,-1.7628e-05,-0.0093542,-2.3968e-05,-47.646,2.4031
4592,21.235,0.90909,0.1,6.0485e-05,604.43,5.9623e-05,581.41,-1.7758e-05,-0.0032994,-2.3569e-05,-43.659,2.4029
4593,21.235,0.72727,0.1,6.0282e-05,602.4,5.9509e-05,581.6,-1.7897e-05,0.0054365,-2.3173e-05,-39.641,2.4027
4594,21.235,0.54545,0.1,6.0113e-05,600.71,5.9426e-05,582.07,-1.8042e-05,0.011563,-2.2794e-05,-35.696,2.4025
4595,21.235,0.36364,0.1,6.0012e-05,599.71,5.9403e-05,583.06,-1.8191e-05,0.044749,-2.2463e-05,-32.052,2.4022
4596,21.235,0.18182,0.1,6.0384e-05,603.42,5.979e-05,587.15,-1.8354e-05,0.0056995,-2.2525e-05,-31.338,2.402
4597,21.05,5.8182,0.1,6.4415e-05,643.71,6.3835e-05,627.73,-1.971e-05,0.00432,-2.3816e-05,-30.846,2.3713
4598,21.05,5.6364,0.1,6.4021e-05,639.77,6.3434e-05,623.61,-1.9558e-05,0.041928,-2.3718e-05,-31.212,2.3715
4599,21.05,5.4545,0.1,6.4093e-05,640.49,6.3437e-05,622.56,-1.9419e-05,0.011226,-2.4009e-05,-34.478,2.3717
4600,21.05,5.2727,0.1,6.423e-05,641.85,6.3498e-05,621.99,-1.9284e-05,0.0056739,-2.4346e-05,-38.03,2.372
4601,21.05,5.0909,0.1,6.4399e-05,643.54,6.3589e-05,621.7,-1.9155e-05,-0.0024528,-2.4698e-05,-41.653,2.3722
4602,21.05,4.9091,0.1,6.4589e-05,645.44,6.3699e-05,621.62,-1.9034e-05,-0.0081311,-2.5056e-05,-45.255,2.3724
4603,21.05,4.7273,0.1,6.479e-05,647.45,6.3822e-05,621.69,-1.8921e-05,-0.01294,-2.5408e-05,-48.757,2.3725
4604,21.05,4.5455,0.1,6.4993e-05,649.48,6.395e-05,621.86,-1.8817e-05,-0.016766,-2.5748e-05,-52.089,2.3727
4605,21.05,4.3636,0.1,6.5192e-05,651.47,6.4077e-05,622.11,-1.8723e-05,-0.019864,-2.6066e-05,-55.191,2.3728
4606,21.05,4.1818,0.1,6.5378e-05,653.33,6.4198e-05,622.38,-1.8639e-05,-0.022342,-2.6357e-05,-58.011,2.373
4607,21.05,4,0.1,6.5548e-05,655.03,6.4308e-05,622.67,-1.8567e-05,-0.024307,-2.6616e-05,-60.503,2.3731
4608,21.05,3.8182,0.1,6.5696e-05,656.5,6.4405e-05,622.93,-1.8505e-05,-0.025843,-2.6838e-05,-62.631,2.3732
4609,21.05,3.6364,0.1,6.5818e-05,657.73,6.4486e-05,623.17,-1.8456e-05,-0.027003,-2.7019e-05,-64.367,2.3732
4610,21.05,3.4545,0.1,6.5912e-05,658.67,6.4548e-05,623.35,-1.8418e-05,-0.02784,-2.7157e-05,-65.688,2.3733
4611,21.05,3.2727,0.1,6.5976e-05,659.31,6.4591e-05,623.48,-1.8393e-05,-0.028378,-2.725e-05,-66.577,2.3733
4612,21.05,3.0909,0.1,6.6008e-05,659.63,6.4612e-05,623.55,-1.8381e-05,-0.028643,-2.7297e-05,-67.025,2.3733
4613,21.05,2.9091,0.1,6.6008e-05,659.63,6.4612e-05,623.55,-1.8381e-05,-0.028643,-2.7297e-05,-67.025,2.3733
4614,21.05,2.7273,0.1,6.5976e-05,659.31,6.4591e-05,623.48,-1.8393e-05,-0.028378,-2.725e-05,-66.577,2.3733
4615,21.05,2.5455,0.1,6.5912e-05,658.67,6.4548e-05,623.35,-1.8418e-05,-0.027838,-2.7157e-05,-65.688,2.3733
4616,21.05,2.3636,0.1,6.5818e-05,657.73,6.4486e-05,623.17,-1.8456e-05,-0.027002,-2.7019e-05,-64.367,2.3732
4617,21.05,2.1818,0.1,6.5696e-05,656.5,6.4405e-05,622.93,-1.8505e-05,-0.025844,-2.6838e-05,-62.631,2.3732
4618,21.05,2,0.1,6.5548e-05,655.03,6.4308e-05,622.67,-1.8567e-05,-0.024308,-2.6616e-05,-60.503,2.3731
4619,21.05,1.8182,0.1,6.5378e-05,653.33,6.4198e-05,622.38,-1.8639e-05,-0.02234,-2.6357e-05,-58.011,2.373
4620,21.05,1.6364,0.1,6.5192e-05,651.47,6.4077e-05,622.11,-1.8723e-05,-0.019864,-2.6066e-05,-55.191,2.3728
4621,21.05,1.4545,0.1,6.4993e-05,649.48,6.395e-05,621.86,-1.8817e-05,-0.016766,-2.5748e-05,-52.089,2.3727
4622,21.05,1.2727,0.1,6.479e-05,647.45,6.3822e-05,621.69,-1.8921e-05,-0.012937,-2.5408e-05,-48.756,2.3725
4623,21.05,1.0909,0.1,6.4589e-05,645.44,6.3699e-05,621.62,-1.9034e-05,-0.0081343,-2.5056e-05,-45.255,2.3724
4624,21.05,0.90909,0.1,6.4399e-05,643.54,6.3589e-05,621.7,-1.9155e-05,-0.0024514,-2.4698e-05,-41.653,2.3722
4625,21.05,0.72727,0.1,6.423e-05,641.85,6.3498e-05,621.99,-1.9284e-05,0.0056706,-2.4346e-05,-38.03,2.372
4626,21.05,0.54545,0.1,6.4093e-05,640.49,6.3437e-05,622.56,-1.9419e-05,0.01123,-2.4009e-05,-34.477,2.3717
4627,21.05,0.36364,0.1,6.4021e-05,639.77,6.3434e-05,623.61,-1.9558e-05,0.04193,-2.3718e-05,-31.212,2.3715
4628,21.05,0.18182,0.1,6.4415e-05,643.71,6.3835e-05,627.73,-1.971e-05,0.0043183,-2.3816e-05,-30.846,2.3713
4629,20.866,5.8182,0.1,6.8459e-05,684.12,6.7893e-05,668.45,-2.1072e-05,0.003205,-2.5111e-05,-30.345,2.3406
4630,20.866,5.6364,0.1,6.8046e-05,679.99,6.7479e-05,664.3,-2.0929e-05,0.039338,-2.4981e-05,-30.4,2.3408
4631,20.866,5.4545,0.1,6.8092e-05,680.45,6.7464e-05,663.19,-2.0799e-05,0.010863,-2.5235e-05,-33.322,2.3411
4632,20.866,5.2727,0.1,6.82e-05,681.53,6.7506e-05,662.54,-2.0672e-05,0.0058059,-2.5534e-05,-36.519,2.3413
4633,20.866,5.0909,0.1,6.8339e-05,682.92,6.7575e-05,662.16,-2.0553e-05,-0.0017672,-2.5847e-05,-39.785,2.3415
4634,20.866,4.9091,0.1,6.8498e-05,684.51,6.7665e-05,661.98,-2.044e-05,-0.0071055,-2.6167e-05,-43.036,2.3417
4635,20.866,4.7273,0.1,6.8669e-05,686.22,6.7766e-05,661.95,-2.0335e-05,-0.011661,-2.6482e-05,-46.202,2.3419
4636,20.866,4.5455,0.1,6.8844e-05,687.97,6.7874e-05,662.03,-2.0238e-05,-0.015316,-2.6787e-05,-49.222,2.342
4637,20.866,4.3636,0.1,6.9016e-05,689.68,6.7983e-05,662.18,-2.0151e-05,-0.018291,-2.7074e-05,-52.037,2.3422
4638,20.866,4.1818,0.1,6.9179e-05,691.31,6.8088e-05,662.38,-2.0073e-05,-0.020684,-2.7337e-05,-54.601,2.3423
4639,20.866,4,0.1,6.9328e-05,692.8,6.8184e-05,662.6,-2.0005e-05,-0.022592,-2.7571e-05,-56.872,2.3424
4640,20.866,3.8182,0.1,6.9458e-05,694.1,6.827e-05,662.81,-1.9948e-05,-0.024085,-2.7772e-05,-58.814,2.3425
4641,20.866,3.6364,0.1,6.9566e-05,695.18,6.8341e-05,663,-1.9902e-05,-0.02522,-2.7937e-05,-60.4,2.3426
4642,20.866,3.4545,0.1,6.9649e-05,696.01,6.8396e-05,663.15,-1.9867e-05,-0.026037,-2.8063e-05,-61.608,2.3427
4643,20.866,3.2727,0.1,6.9706e-05,696.58,6.8434e-05,663.26,-1.9844e-05,-0.026569,-2.8148e-05,-62.422,2.3427
4644,20.866,3.0909,0.1,6.9735e-05,696.87,6.8453e-05,663.31,-1.9832e-05,-0.026828,-2.8191e-05,-62.831,2.3427
4645,20.866,2.9091,0.1,6.9735e-05,696.87,6.8453e-05,663.31,-1.9832e-05,-0.026829,-2.8191e-05,-62.831,2.3427
4646,20.866,2.7273,0.1,6.9706e-05,696.58,6.8434e-05,663.26,-1.9844e-05,-0.026569,-2.8148e-05,-62.422,2.3427
4647,20.866,2.5455,0.1,6.9649e-05,696.01,6.8396e-05,663.15,-1.9867e-05,-0.026039,-2.8063e-05,-61.608,2.3427
4648,20.866,2.3636,0.1,6.9566e-05,695.18,6.8341e-05,663,-1.9902e-05,-0.025222,-2.7937e-05,-60.4,2.3426
4649,20.866,2.1818,0.1,6.9458e-05,694.1,6.827e-05,662.81,-1.9948e-05,-0.024084,-2.7772e-05,-58.814,2.3425
4650,20.866,2,0.1,6.9328e-05,692.8,6.8184e-05,662.6,-2.0005e-05,-0.022593,-2.7571e-05,-56.872,2.3424
4651,20.866,1.8182,0.1,6.9179e-05,691.31,6.8088e-05,662.38,-2.0073e-05,-0.020685,-2.7337e-05,-54.601,2.3423
4652,20.866,1.6364,0.1,6.9016e-05,689.68,6.7983e-05,662.18,-2.0151e-05,-0.01829,-2.7074e-05,-52.037,2.3422
4653,20.866,1.4545,0.1,6.8844e-05,687.97,6.7874e-05,662.03,-2.0238e-05,-0.015318,-2.6787e-05,-49.221,2.342
4654,20.866,1.2727,0.1,6.8669e-05,686.22,6.7766e-05,661.95,-2.0335e-05,-0.011661,-2.6482e-05,-46.202,2.3419
4655,20.866,1.0909,0.1,6.8498e-05,684.51,6.7665e-05,661.98,-2.044e-05,-0.007106,-2.6167e-05,-43.036,2.3417
4656,20.866,0.90909,0.1,6.8339e-05,682.92,6.7575e-05,662.16,-2.0553e-05,-0.0017682,-2.5847e-05,-39.785,2.3415
4657,20.866,0.72727,0.1,6.82e-05,681.53,6.7506e-05,662.54,-2.0672e-05,0.0058049,-2.5534e-05,-36.519,2.3413
4658,20.866,0.54545,0.1,6.8092e-05,680.45,6.7464e-05,663.19,-2.0799e-05,0.010861,-2.5235e-05,-33.322,2.3411
4659,20.866,0.36364,0.1,6.8046e-05,679.99,6.7479e-05,664.3,-2.0929e-05,0.039341,-2.4981e-05,-30.4,2.3408
4660,20.866,0.18182,0.1,6.8459e-05,684.12,6.7893e-05,668.45,-2.1072e-05,0.003206,-2.5111e-05,-30.345,2.3406
4661,20.681,5.8182,0.1,7.2517e-05,724.67,7.1964e-05,709.29,-2.2437e-05,0.0023001,-2.6409e-05,-29.837,2.3099
4662,20.681,5.6364,0.1,7.2088e-05,720.38,7.1539e-05,705.13,-2.2304e-05,0.036964,-2.625e-05,-29.616,2.3102
4663,20.681,5.4545,0.1,7.2111e-05,720.61,7.1509e-05,703.96,-2.2182e-05,0.010488,-2.6472e-05,-32.226,2.3104
4664,20.681,5.2727,0.1,7.2193e-05,721.44,7.1532e-05,703.25,-2.2064e-05,0.0058651,-2.6736e-05,-35.1,2.3107
4665,20.681,5.0909,0.1,7.2305e-05,722.55,7.1583e-05,702.78,-2.1952e-05,-0.0012097,-2.7014e-05,-38.041,2.3109
4666,20.681,4.9091,0.1,7.2437e-05,723.87,7.1653e-05,702.51,-2.1846e-05,-0.0062399,-2.7299e-05,-40.973,2.3111
4667,20.681,4.7273,0.1,7.258e-05,725.3,7.1735e-05,702.39,-2.1748e-05,-0.010562,-2.7581e-05,-43.833,2.3113
4668,20.681,4.5455,0.1,7.2729e-05,726.79,7.1825e-05,702.38,-2.1658e-05,-0.014054,-2.7854e-05,-46.564,2.3114
4669,20.681,4.3636,0.1,7.2877e-05,728.26,7.1917e-05,702.46,-2.1577e-05,-0.016913,-2.8111e-05,-49.116,2.3116
4670,20.681,4.1818,0.1,7.3018e-05,729.67,7.2006e-05,702.58,-2.1504e-05,-0.019226,-2.8348e-05,-51.443,2.3117
4671,20.681,4,0.1,7.3147e-05,730.97,7.2089e-05,702.73,-2.1441e-05,-0.021076,-2.856e-05,-53.507,2.3118
4672,20.681,3.8182,0.1,7.3261e-05,732.1,7.2163e-05,702.89,-2.1388e-05,-0.022531,-2.8742e-05,-55.275,2.3119
4673,20.681,3.6364,0.1,7.3356e-05,733.05,7.2226e-05,703.03,-2.1345e-05,-0.023639,-2.8891e-05,-56.721,2.312
4674,20.681,3.4545,0.1,7.3429e-05,733.78,7.2274e-05,703.15,-2.1313e-05,-0.024441,-2.9005e-05,-57.823,2.3121
4675,20.681,3.2727,0.1,7.3479e-05,734.28,7.2307e-05,703.23,-2.1291e-05,-0.024959,-2.9083e-05,-58.566,2.3121
4676,20.681,3.0909,0.1,7.3504e-05,734.54,7.2324e-05,703.28,-2.128e-05,-0.025215,-2.9121e-05,-58.94,2.3121
4677,20.681,2.9091,0.1,7.3504e-05,734.54,7.2324e-05,703.28,-2.128e-05,-0.025214,-2.9121e-05,-58.94,2.3121
4678,20.681,2.7273,0.1,7.3479e-05,734.28,7.2307e-05,703.23,-2.1291e-05,-0.02496,-2.9083e-05,-58.566,2.3121
4679,20.681,2.5455,0.1,7.3429e-05,733.78,7.2274e-05,703.15,-2.1313e-05,-0.02444,-2.9005e-05,-57.823,2.3121
4680,20.681,2.3636,0.1,7.3356e-05,733.05,7.2226e-05,703.03,-2.1345e-05,-0.02364,-2.8891e-05,-56.721,2.312
4681,20.681,2.1818,0.1,7.3261e-05,732.1,7.2163e-05,702.89,-2.1388e-05,-0.02253,-2.8742e-05,-55.275,2.3119
4682,20.681,2,0.1,7.3147e-05,730.97,7.2089e-05,702.73,-2.1441e-05,-0.021076,-2.856e-05,-53.507,2.3118
4683,20.681,1.8182,0.1,7.3018e-05,729.67,7.2006e-05,702.58,-2.1504e-05,-0.019224,-2.8348e-05,-51.443,2.3117
4684,20.681,1.6364,0.1,7.2877e-05,728.26,7.1917e-05,702.46,-2.1577e-05,-0.016914,-2.8111e-05,-49.116,2.3116
4685,20.681,1.4545,0.1,7.2729e-05,726.79,7.1825e-05,702.38,-2.1658e-05,-0.014055,-2.7854e-05,-46.564,2.3114
4686,20.681,1.2727,0.1,7.258e-05,725.3,7.1735e-05,702.39,-2.1748e-05,-0.010562,-2.7581e-05,-43.833,2.3113
4687,20.681,1.0909,0.1,7.2437e-05,723.87,7.1653e-05,702.51,-2.1846e-05,-0.0062395,-2.7299e-05,-40.973,2.3111
4688,20.681,0.90909,0.1,7.2305e-05,722.55,7.1583e-05,702.78,-2.1952e-05,-0.0012125,-2.7014e-05,-38.041,2.3109
4689,20.681,0.72727,0.1,7.2194e-05,721.44,7.1532e-05,703.25,-2.2064e-05,0.0058628,-2.6736e-05,-35.1,2.3107
4690,20.681,0.54545,0.1,7.2111e-05,720.61,7.1509e-05,703.96,-2.2182e-05,0.010488,-2.6472e-05,-32.226,2.3104
4691,20.681,0.36364,0.1,7.2088e-05,720.38,7.1539e-05,705.13,-2.2304e-05,0.036965,-2.625e-05,-29.616,2.3102
4692,20.681,0.18182,0.1,7.2517e-05,724.67,7.1964e-05,709.29,-2.2437e-05,0.0023019,-2.6409e-05,-29.837,2.3099
4693,20.497,5.8182,0.1,7.6589e-05,765.36,7.6048e-05,750.28,-2.3808e-05,0.0015756,-2.7711e-05,-29.327,2.2793
4694,20.497,5.6364,0.1,7.6146e-05,760.93,7.5614e-05,746.11,-2.3682e-05,0.034788,-2.7528e-05,-28.857,2.2796
4695,20.497,5.4545,0.1,7.6149e-05,760.96,7.557e-05,744.89,-2.3568e-05,0.010113,-2.7719e-05,-31.185,2.2798
4696,20.497,5.2727,0.1,7.6208e-05,761.56,7.5578e-05,744.11,-2.3457e-05,0.0058731,-2.7952e-05,-33.766,2.2801
4697,20.497,5.0909,0.1,7.6295e-05,762.43,7.5611e-05,743.57,-2.3352e-05,-0.00075127,-2.8198e-05,-36.411,2.2803
4698,20.497,4.9091,0.1,7.6402e-05,763.49,7.5663e-05,743.22,-2.3254e-05,-0.0054977,-2.8451e-05,-39.052,2.2805
4699,20.497,4.7273,0.1,7.6521e-05,764.68,7.5728e-05,743.01,-2.3162e-05,-0.009604,-2.8702e-05,-41.632,2.2807
4700,20.497,4.5455,0.1,7.6646e-05,765.93,7.58e-05,742.92,-2.3078e-05,-0.012947,-2.8946e-05,-44.099,2.2809
4701,20.497,4.3636,0.1,7.6772e-05,767.19,7.5877e-05,742.92,-2.3002e-05,-0.015693,-2.9177e-05,-46.408,2.281
4702,20.497,4.1818,0.1,7.6892e-05,768.39,7.5952e-05,742.98,-2.2935e-05,-0.017927,-2.939e-05,-48.517,2.2812
4703,20.497,4,0.1,7.7004e-05,769.51,7.6023e-05,743.07,-2.2876e-05,-0.019723,-2.958e-05,-50.389,2.2813
4704,20.497,3.8182,0.1,7.7102e-05,770.49,7.6086e-05,743.17,-2.2827e-05,-0.021142,-2.9744e-05,-51.995,2.2814
4705,20.497,3.6364,0.1,7.7185e-05,771.32,7.6139e-05,743.27,-2.2787e-05,-0.022222,-2.9879e-05,-53.31,2.2815
4706,20.497,3.4545,0.1,7.7249e-05,771.96,7.6181e-05,743.36,-2.2756e-05,-0.023005,-2.9982e-05,-54.312,2.2815
4707,20.497,3.2727,0.1,7.7293e-05,772.39,7.621e-05,743.42,-2.2736e-05,-0.023515,-3.0052e-05,-54.989,2.2816
4708,20.497,3.0909,0.1,7.7315e-05,772.61,7.6224e-05,743.45,-2.2726e-05,-0.023764,-3.0087e-05,-55.33,2.2816
4709,20.497,2.9091,0.1,7.7315e-05,772.61,7.6224e-05,743.45,-2.2726e-05,-0.023764,-3.0087e-05,-55.33,2.2816
4710,20.497,2.7273,0.1,7.7293e-05,772.39,7.621e-05,743.42,-2.2736e-05,-0.023513,-3.0052e-05,-54.989,2.2816
4711,20.497,2.5455,0.1,7.7249e-05,771.96,7.6181e-05,743.36,-2.2756e-05,-0.023006,-2.9982e-05,-54.312,2.2815
4712,20.497,2.3636,0.1,7.7185e-05,771.32,7.6139e-05,743.27,-2.2787e-05,-0.022222,-2.9879e-05,-53.31,2.2815
4713,20.497,2.1818,0.1,7.7102e-05,770.49,7.6086e-05,743.17,-2.2827e-05,-0.021141,-2.9744e-05,-51.995,2.2814
4714,20.497,2,0.1,7.7004e-05,769.51,7.6023e-05,743.07,-2.2876e-05,-0.019723,-2.958e-05,-50.389,2.2813
4715,20.497,1.8182,0.1,7.6892e-05,768.39,7.5952e-05,742.98,-2.2935e-05,-0.017929,-2.939e-05,-48.517,2.2812
4716,20.497,1.6364,0.1,7.6772e-05,767.19,7.5877e-05,742.92,-2.3002e-05,-0.015694,-2.9177e-05,-46.408,2.281
4717,20.497,1.4545,0.1,7.6646e-05,765.93,7.58e-05,742.92,-2.3078e-05,-0.012944,-2.8946e-05,-44.099,2.2809
4718,20.497,1.2727,0.1,7.6521e-05,764.68,7.5728e-05,743.01,-2.3162e-05,-0.0096041,-2.8702e-05,-41.632,2.2807
4719,20.497,1.0909,0.1,7.6402e-05,763.49,7.5663e-05,743.22,-2.3254e-05,-0.0054962,-2.8451e-05,-39.052,2.2805
4720,20.497,0.90909,0.1,7.6295e-05,762.43,7.5611e-05,743.57,-2.3352e-05,-0.00075196,-2.8198e-05,-36.411,2.2803
4721,20.497,0.72727,0.1,7.6208e-05,761.56,7.5578e-05,744.11,-2.3457e-05,0.0058711,-2.7952e-05,-33.766,2.2801
4722,20.497,0.54545,0.1,7.6149e-05,760.96,7.557e-05,744.89,-2.3568e-05,0.010112,-2.7719e-05,-31.185,2.2798
4723,20.497,0.36364,0.1,7.6146e-05,760.93,7.5614e-05,746.11,-2.3682e-05,0.034789,-2.7528e-05,-28.857,2.2796
4724,20.497,0.18182,0.1,7.6589e-05,765.36,7.6048e-05,750.28,-2.3808e-05,0.0015791,-2.7711e-05,-29.327,2.2793
4725,20.313,5.8182,0.1,8.0675e-05,806.2,8.0147e-05,791.4,-2.5183e-05,0.00099352,-2.9018e-05,-28.816,2.2487
4726,20.313,5.6364,0.1,8.0221e-05,801.65,7.9706e-05,787.24,-2.5065e-05,0.032785,-2.8812e-05,-28.125,2.249
4727,20.313,5.4545,0.1,8.0205e-05,801.5,7.9649e-05,785.98,-2.4957e-05,0.0097423,-2.8977e-05,-30.195,2.2493
4728,20.313,5.2727,0.1,8.0244e-05,801.88,7.9641e-05,785.14,-2.4853e-05,0.0058418,-2.9181e-05,-32.509,2.2496
4729,20.313,5.0909,0.1,8.0309e-05,802.54,7.9659e-05,784.53,-2.4755e-05,-0.00037441,-2.9398e-05,-34.886,2.2498
4730,20.313,4.9091,0.1,8.0393e-05,803.38,7.9695e-05,784.1,-2.4663e-05,-0.0048586,-2.9622e-05,-37.261,2.25
4731,20.313,4.7273,0.1,8.049e-05,804.35,7.9744e-05,783.82,-2.4578e-05,-0.0087686,-2.9845e-05,-39.585,2.2502
4732,20.313,4.5455,0.1,8.0594e-05,805.38,7.9801e-05,783.66,-2.4499e-05,-0.011967,-3.0062e-05,-41.811,2.2504
4733,20.313,4.3636,0.1,8.0699e-05,806.43,7.9862e-05,783.58,-2.4428e-05,-0.014612,-3.0268e-05,-43.896,2.2506
4734,20.313,4.1818,0.1,8.0801e-05,807.46,7.9924e-05,783.57,-2.4365e-05,-0.016773,-3.0459e-05,-45.803,2.2507
4735,20.313,4,0.1,8.0897e-05,808.41,7.9983e-05,783.6,-2.431e-05,-0.018515,-3.0629e-05,-47.499,2.2508
4736,20.313,3.8182,0.1,8.0981e-05,809.25,8.0037e-05,783.65,-2.4264e-05,-0.019894,-3.0777e-05,-48.955,2.2509
4737,20.313,3.6364,0.1,8.1052e-05,809.96,8.0082e-05,783.72,-2.4227e-05,-0.020949,-3.0898e-05,-50.147,2.251
4738,20.313,3.4545,0.1,8.1108e-05,810.52,8.0118e-05,783.77,-2.4198e-05,-0.021717,-3.0991e-05,-51.058,2.2511
4739,20.313,3.2727,0.1,8.1145e-05,810.89,8.0142e-05,783.81,-2.418e-05,-0.022214,-3.1054e-05,-51.673,2.2511
4740,20.313,3.0909,0.1,8.1165e-05,811.09,8.0155e-05,783.83,-2.417e-05,-0.022461,-3.1085e-05,-51.982,2.2511
4741,20.313,2.9091,0.1,8.1165e-05,811.09,8.0155e-05,783.83,-2.417e-05,-0.022461,-3.1085e-05,-51.982,2.2511
4742,20.313,2.7273,0.1,8.1145e-05,810.89,8.0142e-05,783.81,-2.418e-05,-0.022215,-3.1054e-05,-51.672,2.2511
4743,20.313,2.5455,0.1,8.1108e-05,810.52,8.0118e-05,783.77,-2.4198e-05,-0.021716,-3.0991e-05,-51.058,2.2511
4744,20.313,2.3636,0.1,8.1052e-05,809.96,8.0082e-05,783.72,-2.4227e-05,-0.020951,-3.0898e-05,-50.147,2.251
4745,20.313,2.1818,0.1,8.0981e-05,809.25,8.0037e-05,783.65,-2.4264e-05,-0.019894,-3.0777e-05,-48.955,2.2509
4746,20.313,2,0.1,8.0897e-05,808.41,7.9983e-05,783.6,-2.431e-05,-0.018514,-3.0629e-05,-47.499,2.2508
4747,20.313,1.8182,0.1,8.0801e-05,807.46,7.9924e-05,783.57,-2.4365e-05,-0.016771,-3.0459e-05,-45.803,2.2507
4748,20.313,1.6364,0.1,8.0699e-05,806.43,7.9862e-05,783.58,-2.4428e-05,-0.014613,-3.0268e-05,-43.896,2.2506
4749,20.313,1.4545,0.1,8.0594e-05,805.38,7.9801e-05,783.66,-2.4499e-05,-0.011966,-3.0062e-05,-41.811,2.2504
4750,20.313,1.2727,0.1,8.049e-05,804.35,7.9744e-05,783.82,-2.4578e-05,-0.0087693,-2.9845e-05,-39.585,2.2502
4751,20.313,1.0909,0.1,8.0393e-05,803.38,7.9695e-05,784.1,-2.4663e-05,-0.0048587,-2.9622e-05,-37.261,2.25
4752,20.313,0.90909,0.1,8.0309e-05,802.54,7.9659e-05,784.53,-2.4755e-05,-0.00037607,-2.9398e-05,-34.885,2.2498
4753,20.313,0.72727,0.1,8.0244e-05,801.88,7.9641e-05,785.14,-2.4853e-05,0.0058396,-2.9181e-05,-32.509,2.2496
4754,20.313,0.54545,0.1,8.0205e-05,801.5,7.9649e-05,785.98,-2.4957e-05,0.0097424,-2.8977e-05,-30.195,2.2493
4755,20.313,0.36364,0.1,8.0221e-05,801.65,7.9706e-05,787.24,-2.5065e-05,0.032787,-2.8812e-05,-28.125,2.249
4756,20.313,0.18182,0.1,8.0675e-05,806.2,8.0147e-05,791.4,-2.5183e-05,0.00099566,-2.9018e-05,-28.816,2.2487
4757,20.128,5.8182,0.1,8.4777e-05,847.18,8.426e-05,832.67,-2.6562e-05,0.00052433,-3.033e-05,-28.307,2.2182
4758,20.128,5.6364,0.1,8.4312e-05,842.54,8.3813e-05,828.51,-2.6451e-05,0.030934,-3.0104e-05,-27.418,2.2185
4759,20.128,5.4545,0.1,8.428e-05,842.22,8.3745e-05,827.22,-2.635e-05,0.0093745,-3.0245e-05,-29.253,2.2188
4760,20.128,5.2727,0.1,8.43e-05,842.42,8.3724e-05,826.33,-2.6253e-05,0.0057699,-3.0422e-05,-31.325,2.2191
4761,20.128,5.0909,0.1,8.4346e-05,842.88,8.3727e-05,825.65,-2.6161e-05,-6.7994e-05,-3.0613e-05,-33.456,2.2193
4762,20.128,4.9091,0.1,8.441e-05,843.52,8.3748e-05,825.16,-2.6074e-05,-0.0043162,-3.081e-05,-35.589,2.2195
4763,20.128,4.7273,0.1,8.4487e-05,844.28,8.3782e-05,824.81,-2.5994e-05,-0.0080406,-3.1008e-05,-37.679,2.2198
4764,20.128,4.5455,0.1,8.4571e-05,845.12,8.3826e-05,824.58,-2.5921e-05,-0.011106,-3.1201e-05,-39.684,2.2199
4765,20.128,4.3636,0.1,8.4658e-05,845.99,8.3874e-05,824.44,-2.5854e-05,-0.013657,-3.1384e-05,-41.564,2.2201
4766,20.128,4.1818,0.1,8.4743e-05,846.85,8.3924e-05,824.37,-2.5795e-05,-0.015744,-3.1554e-05,-43.286,2.2203
4767,20.128,4,0.1,8.4823e-05,847.65,8.3972e-05,824.34,-2.5744e-05,-0.017436,-3.1706e-05,-44.819,2.2204
4768,20.128,3.8182,0.1,8.4895e-05,848.37,8.4016e-05,824.35,-2.5701e-05,-0.018779,-3.1838e-05,-46.136,2.2205
4769,20.128,3.6364,0.1,8.4956e-05,848.97,8.4054e-05,824.37,-2.5666e-05,-0.019811,-3.1947e-05,-47.215,2.2206
4770,20.128,3.4545,0.1,8.5003e-05,849.44,8.4084e-05,824.4,-2.5639e-05,-0.02056,-3.2031e-05,-48.04,2.2206
4771,20.128,3.2727,0.1,8.5036e-05,849.77,8.4104e-05,824.42,-2.5622e-05,-0.021049,-3.2087e-05,-48.597,2.2207
4772,20.128,3.0909,0.1,8.5052e-05,849.93,8.4115e-05,824.43,-2.5613e-05,-0.021288,-3.2115e-05,-48.878,2.2207
4773,20.128,2.9091,0.1,8.5052e-05,849.93,8.4115e-05,824.43,-2.5613e-05,-0.021289,-3.2115e-05,-48.878,2.2207
4774,20.128,2.7273,0.1,8.5036e-05,849.77,8.4104e-05,824.42,-2.5622e-05,-0.021048,-3.2087e-05,-48.597,2.2207
4775,20.128,2.5455,0.1,8.5003e-05,849.44,8.4084e-05,824.4,-2.5639e-05,-0.02056,-3.2031e-05,-48.04,2.2206
4776,20.128,2.3636,0.1,8.4956e-05,848.97,8.4054e-05,824.37,-2.5666e-05,-0.019811,-3.1947e-05,-47.215,2.2206
4777,20.128,2.1818,0.1,8.4895e-05,848.37,8.4016e-05,824.35,-2.5701e-05,-0.018778,-3.1838e-05,-46.136,2.2205
4778,20.128,2,0.1,8.4823e-05,847.65,8.3972e-05,824.34,-2.5744e-05,-0.017438,-3.1706e-05,-44.819,2.2204
4779,20.128,1.8182,0.1,8.4743e-05,846.85,8.3924e-05,824.37,-2.5795e-05,-0.015745,-3.1554e-05,-43.286,2.2203
4780,20.128,1.6364,0.1,8.4658e-05,845.99,8.3874e-05,824.44,-2.5854e-05,-0.013656,-3.1384e-05,-41.564,2.2201
4781,20.128,1.4545,0.1,8.4571e-05,845.12,8.3826e-05,824.58,-2.5921e-05,-0.011107,-3.1201e-05,-39.684,2.2199
4782,20.128,1.2727,0.1,8.4487e-05,844.28,8.3782e-05,824.81,-2.5994e-05,-0.0080401,-3.1008e-05,-37.679,2.2198
4783,20.128,1.0909,0.1,8.441e-05,843.52,8.3748e-05,825.16,-2.6074e-05,-0.0043161,-3.081e-05,-35.589,2.2195
4784,20.128,0.90909,0.1,8.4346e-05,842.88,8.3727e-05,825.65,-2.6161e-05,-6.9662e-05,-3.0613e-05,-33.456,2.2193
4785,20.128,0.72727,0.1,8.43e-05,842.42,8.3724e-05,826.33,-2.6253e-05,0.0057678,-3.0422e-05,-31.325,2.2191
4786,20.128,0.54545,0.1,8.428e-05,842.22,8.3745e-05,827.22,-2.635e-05,0.0093724,-3.0245e-05,-29.253,2.2188
4787,20.128,0.36364,0.1,8.4312e-05,842.54,8.3813e-05,828.51,-2.6451e-05,0.030938,-3.0104e-05,-27.418,2.2185
4788,20.128,0.18182,0.1,8.4777e-05,847.18,8.426e-05,832.68,-2.6562e-05,0.00052461,-3.033e-05,-28.307,2.2182
4789,19.944,5.8182,0.1,8.8894e-05,888.32,8.8388e-05,874.1,-2.7947e-05,0.00015655,-3.1647e-05,-27.803,2.1878
4790,19.944,5.6364,0.1,8.8421e-05,883.6,8.7936e-05,869.94,-2.7842e-05,0.029242,-3.1404e-05,-26.736,2.1881
4791,19.944,5.4545,0.1,8.8374e-05,883.13,8.7858e-05,868.62,-2.7747e-05,0.0090265,-3.1522e-05,-28.357,2.1884
4792,19.944,5.2727,0.1,8.8378e-05,883.17,8.7825e-05,867.68,-2.7655e-05,0.0056919,-3.1676e-05,-30.207,2.1887
4793,19.944,5.0909,0.1,8.8406e-05,883.45,8.7816e-05,866.95,-2.7569e-05,0.00019135,-3.1843e-05,-32.114,2.1889
4794,19.944,4.9091,0.1,8.8451e-05,883.9,8.7823e-05,866.4,-2.7488e-05,-0.003835,-3.2016e-05,-34.027,2.1891
4795,19.944,4.7273,0.1,8.851e-05,884.49,8.7844e-05,865.99,-2.7412e-05,-0.0073887,-3.219e-05,-35.903,2.1894
4796,19.944,4.5455,0.1,8.8576e-05,885.15,8.7874e-05,865.69,-2.7343e-05,-0.010332,-3.236e-05,-37.705,2.1895
4797,19.944,4.3636,0.1,8.8647e-05,885.85,8.791e-05,865.49,-2.7281e-05,-0.012787,-3.2523e-05,-39.398,2.1897
4798,19.944,4.1818,0.1,8.8717e-05,886.55,8.7949e-05,865.36,-2.7226e-05,-0.014811,-3.2674e-05,-40.949,2.1899
4799,19.944,4,0.1,8.8783e-05,887.22,8.7987e-05,865.29,-2.7178e-05,-0.016454,-3.281e-05,-42.332,2.19
4800,19.944,3.8182,0.1,8.8843e-05,887.82,8.8022e-05,865.25,-2.7138e-05,-0.017762,-3.2927e-05,-43.521,2.1901
4801,19.944,3.6364,0.1,8.8894e-05,888.33,8.8053e-05,865.24,-2.7105e-05,-0.018767,-3.3025e-05,-44.496,2.1902
4802,19.944,3.4545,0.1,8.8934e-05,888.73,8.8078e-05,865.23,-2.708e-05,-0.019502,-3.3099e-05,-45.242,2.1903
4803,19.944,3.2727,0.1,8.8962e-05,889,8.8095e-05,865.24,-2.7064e-05,-0.019979,-3.315e-05,-45.746,2.1903
4804,19.944,3.0909,0.1,8.8976e-05,889.14,8.8103e-05,865.24,-2.7056e-05,-0.020217,-3.3175e-05,-46,2.1903
4805,19.944,2.9091,0.1,8.8976e-05,889.14,8.8103e-05,865.24,-2.7056e-05,-0.020216,-3.3175e-05,-46,2.1903
4806,19.944,2.7273,0.1,8.8962e-05,889,8.8095e-05,865.24,-2.7064e-05,-0.01998,-3.315e-05,-45.746,2.1903
4807,19.944,2.5455,0.1,8.8934e-05,888.73,8.8078e-05,865.23,-2.708e-05,-0.019501,-3.3099e-05,-45.242,2.1903
4808,19.944,2.3636,0.1,8.8894e-05,888.33,8.8053e-05,865.24,-2.7105e-05,-0.018768,-3.3025e-05,-44.496,2.1902
4809,19.944,2.1818,0.1,8.8843e-05,887.82,8.8022e-05,865.25,-2.7138e-05,-0.01776,-3.2927e-05,-43.521,2.1901
4810,19.944,2,0.1,8.8783e-05,887.22,8.7987e-05,865.29,-2.7178e-05,-0.016455,-3.281e-05,-42.332,2.19
4811,19.944,1.8182,0.1,8.8717e-05,886.55,8.7949e-05,865.36,-2.7226e-05,-0.014809,-3.2674e-05,-40.949,2.1899
4812,19.944,1.6364,0.1,8.8647e-05,885.85,8.791e-05,865.49,-2.7281e-05,-0.012789,-3.2523e-05,-39.398,2.1897
4813,19.944,1.4545,0.1,8.8576e-05,885.15,8.7874e-05,865.69,-2.7343e-05,-0.010329,-3.236e-05,-37.705,2.1895
4814,19.944,1.2727,0.1,8.851e-05,884.49,8.7844e-05,865.99,-2.7412e-05,-0.0073897,-3.219e-05,-35.903,2.1894
4815,19.944,1.0909,0.1,8.8451e-05,883.9,8.7823e-05,866.4,-2.7488e-05,-0.0038363,-3.2016e-05,-34.027,2.1891
4816,19.944,0.90909,0.1,8.8406e-05,883.45,8.7816e-05,866.95,-2.7569e-05,0.00019034,-3.1843e-05,-32.114,2.1889
4817,19.944,0.72727,0.1,8.8378e-05,883.17,8.7825e-05,867.68,-2.7655e-05,0.005691,-3.1676e-05,-30.207,2.1887
4818,19.944,0.54545,0.1,8.8374e-05,883.13,8.7858e-05,868.62,-2.7747e-05,0.0090276,-3.1522e-05,-28.357,2.1884
4819,19.944,0.36364,0.1,8.8421e-05,883.6,8.7936e-05,869.94,-2.7842e-05,0.029244,-3.1404e-05,-26.736,2.1881
4820,19.944,0.18182,0.1,8.8894e-05,888.32,8.8388e-05,874.1,-2.7947e-05,0.00015806,-3.1647e-05,-27.803,2.1878
4821,19.76,5.8182,0.1,9.3027e-05,929.62,9.2532e-05,915.67,-2.9336e-05,-0.00012323,-3.297e-05,-27.303,2.1574
4822,19.76,5.6364,0.1,9.2547e-05,924.83,9.2076e-05,911.53,-2.9237e-05,0.027685,-3.2712e-05,-26.078,2.1577
4823,19.76,5.4545,0.1,9.2487e-05,924.23,9.1989e-05,910.18,-2.9148e-05,0.0086976,-3.2809e-05,-27.504,2.158
4824,19.76,5.2727,0.1,9.2476e-05,924.12,9.1946e-05,909.2,-2.9061e-05,0.0056018,-3.2942e-05,-29.152,2.1583
4825,19.76,5.0909,0.1,9.2488e-05,924.24,9.1924e-05,908.43,-2.898e-05,0.00041388,-3.3086e-05,-30.855,2.1586
4826,19.76,4.9091,0.1,9.2517e-05,924.53,9.192e-05,907.82,-2.8904e-05,-0.0034111,-3.3237e-05,-32.565,2.1588
4827,19.76,4.7273,0.1,9.2559e-05,924.95,9.1929e-05,907.35,-2.8833e-05,-0.0068044,-3.339e-05,-34.246,2.159
4828,19.76,4.5455,0.1,9.2609e-05,925.46,9.1947e-05,907,-2.8768e-05,-0.0096316,-3.354e-05,-35.863,2.1592
4829,19.76,4.3636,0.1,9.2664e-05,926.01,9.1972e-05,906.74,-2.871e-05,-0.012002,-3.3684e-05,-37.383,2.1594
4830,19.76,4.1818,0.1,9.2721e-05,926.57,9.2e-05,906.56,-2.8658e-05,-0.013962,-3.3817e-05,-38.779,2.1596
4831,19.76,4,0.1,9.2775e-05,927.11,9.2029e-05,906.44,-2.8613e-05,-0.01556,-3.3938e-05,-40.023,2.1597
4832,19.76,3.8182,0.1,9.2824e-05,927.6,9.2056e-05,906.36,-2.8575e-05,-0.016834,-3.4042e-05,-41.094,2.1598
4833,19.76,3.6364,0.1,9.2866e-05,928.02,9.208e-05,906.31,-2.8545e-05,-0.017818,-3.4129e-05,-41.974,2.1599
4834,19.76,3.4545,0.1,9.2899e-05,928.35,9.21e-05,906.28,-2.8522e-05,-0.018534,-3.4195e-05,-42.647,2.16
4835,19.76,3.2727,0.1,9.2922e-05,928.58,9.2114e-05,906.27,-2.8506e-05,-0.019003,-3.424e-05,-43.101,2.16
4836,19.76,3.0909,0.1,9.2934e-05,928.7,9.2121e-05,906.26,-2.8498e-05,-0.019234,-3.4263e-05,-43.331,2.16
4837,19.76,2.9091,0.1,9.2934e-05,928.7,9.2121e-05,906.26,-2.8498e-05,-0.019234,-3.4263e-05,-43.331,2.16
4838,19.76,2.7273,0.1,9.2922e-05,928.58,9.2114e-05,906.27,-2.8506e-05,-0.019002,-3.424e-05,-43.101,2.16
4839,19.76,2.5455,0.1,9.2899e-05,928.35,9.21e-05,906.28,-2.8522e-05,-0.018536,-3.4195e-05,-42.647,2.16
4840,19.76,2.3636,0.1,9.2866e-05,928.02,9.208e-05,906.31,-2.8545e-05,-0.017816,-3.4129e-05,-41.974,2.1599
4841,19.76,2.1818,0.1,9.2824e-05,927.6,9.2056e-05,906.36,-2.8575e-05,-0.016834,-3.4042e-05,-41.094,2.1598
4842,19.76,2,0.1,9.2775e-05,927.11,9.2029e-05,906.44,-2.8613e-05,-0.015559,-3.3938e-05,-40.023,2.1597
4843,19.76,1.8182,0.1,9.2721e-05,926.57,9.2e-05,906.56,-2.8658e-05,-0.013961,-3.3817e-05,-38.779,2.1596
4844,19.76,1.6364,0.1,9.2664e-05,926.01,9.1972e-05,906.74,-2.871e-05,-0.012003,-3.3684e-05,-37.383,2.1594
4845,19.76,1.4545,0.1,9.2609e-05,925.46,9.1947e-05,907,-2.8768e-05,-0.009631,-3.354e-05,-35.863,2.1592
4846,19.76,1.2727,0.1,9.2559e-05,924.95,9.1929e-05,907.35,-2.8833e-05,-0.0068071,-3.339e-05,-34.246,2.159
4847,19.76,1.0909,0.1,9.2517e-05,924.53,9.192e-05,907.82,-2.8904e-05,-0.0034092,-3.3237e-05,-32.565,2.1588
4848,19.76,0.90909,0.1,9.2488e-05,924.24,9.1924e-05,908.43,-2.898e-05,0.0004108,-3.3086e-05,-30.855,2.1586
4849,19.76,0.72727,0.1,9.2476e-05,924.12,9.1946e-05,909.2,-2.9061e-05,0.0055997,-3.2942e-05,-29.152,2.1583
4850,19.76,0.54545,0.1,9.2487e-05,924.23,9.1989e-05,910.18,-2.9148e-05,0.0086976,-3.2809e-05,-27.504,2.158
4851,19.76,0.36364,0.1,9.2547e-05,924.83,9.2076e-05,911.53,-2.9237e-05,0.027685,-3.2712e-05,-26.078,2.1577
4852,19.76,0.18182,0.1,9.3027e-05,929.62,9.2532e-05,915.67,-2.9336e-05,-0.00012348,-3.297e-05,-27.303,2.1574
4853,19.575,5.8182,0.1,9.7176e-05,971.09,9.6692e-05,957.41,-3.0731e-05,-0.00034547,-3.4299e-05,-26.811,2.127
4854,19.575,5.6364,0.1,9.6691e-05,966.24,9.6234e-05,953.28,-3.0637e-05,0.026246,-3.4027e-05,-25.444,2.1274
4855,19.575,5.4545,0.1,9.6619e-05,965.53,9.6138e-05,951.91,-3.0552e-05,0.0083795,-3.4106e-05,-26.691,2.1277
4856,19.575,5.2727,0.1,9.6594e-05,965.28,9.6085e-05,950.9,-3.0471e-05,0.0054958,-3.4219e-05,-28.154,2.128
4857,19.575,5.0909,0.1,9.6592e-05,965.25,9.6053e-05,950.08,-3.0394e-05,0.00059543,-3.4343e-05,-29.671,2.1283
4858,19.575,4.9091,0.1,9.6606e-05,965.4,9.6038e-05,949.42,-3.0323e-05,-0.0030418,-3.4474e-05,-31.197,2.1285
4859,19.575,4.7273,0.1,9.6633e-05,965.67,9.6035e-05,948.9,-3.0256e-05,-0.0062888,-3.4607e-05,-32.699,2.1287
4860,19.575,4.5455,0.1,9.6669e-05,966.03,9.6043e-05,948.5,-3.0195e-05,-0.0090068,-3.4739e-05,-34.147,2.1289
4861,19.575,4.3636,0.1,9.6711e-05,966.44,9.6057e-05,948.19,-3.014e-05,-0.011297,-3.4865e-05,-35.509,2.1291
4862,19.575,4.1818,0.1,9.6754e-05,966.87,9.6076e-05,947.96,-3.0092e-05,-0.013196,-3.4983e-05,-36.761,2.1293
4863,19.575,4,0.1,9.6797e-05,967.3,9.6096e-05,947.8,-3.0049e-05,-0.014749,-3.5089e-05,-37.879,2.1294
4864,19.575,3.8182,0.1,9.6836e-05,967.69,9.6117e-05,947.68,-3.0014e-05,-0.015992,-3.5181e-05,-38.842,2.1295
4865,19.575,3.6364,0.1,9.687e-05,968.03,9.6135e-05,947.6,-2.9985e-05,-0.016954,-3.5258e-05,-39.633,2.1296
4866,19.575,3.4545,0.1,9.6897e-05,968.3,9.615e-05,947.55,-2.9964e-05,-0.017655,-3.5317e-05,-40.238,2.1297
4867,19.575,3.2727,0.1,9.6916e-05,968.49,9.616e-05,947.52,-2.9949e-05,-0.018114,-3.5357e-05,-40.648,2.1298
4868,19.575,3.0909,0.1,9.6926e-05,968.59,9.6166e-05,947.51,-2.9942e-05,-0.01834,-3.5377e-05,-40.854,2.1298
4869,19.575,2.9091,0.1,9.6926e-05,968.59,9.6166e-05,947.51,-2.9942e-05,-0.018341,-3.5377e-05,-40.854,2.1298
4870,19.575,2.7273,0.1,9.6916e-05,968.49,9.616e-05,947.52,-2.9949e-05,-0.018114,-3.5357e-05,-40.648,2.1298
4871,19.575,2.5455,0.1,9.6897e-05,968.3,9.615e-05,947.55,-2.9964e-05,-0.017655,-3.5317e-05,-40.238,2.1297
4872,19.575,2.3636,0.1,9.687e-05,968.03,9.6135e-05,947.6,-2.9985e-05,-0.016953,-3.5258e-05,-39.633,2.1296
4873,19.575,2.1818,0.1,9.6836e-05,967.69,9.6117e-05,947.68,-3.0014e-05,-0.015991,-3.5181e-05,-38.842,2.1295
4874,19.575,2,0.1,9.6797e-05,967.3,9.6096e-05,947.8,-3.0049e-05,-0.014749,-3.5089e-05,-37.879,2.1294
4875,19.575,1.8182,0.1,9.6754e-05,966.87,9.6076e-05,947.96,-3.0092e-05,-0.013195,-3.4983e-05,-36.761,2.1293
4876,19.575,1.6364,0.1,9.6711e-05,966.44,9.6057e-05,948.19,-3.014e-05,-0.011295,-3.4865e-05,-35.509,2.1291
4877,19.575,1.4545,0.1,9.6669e-05,966.03,9.6043e-05,948.5,-3.0195e-05,-0.009006,-3.4739e-05,-34.147,2.1289
4878,19.575,1.2727,0.1,9.6633e-05,965.67,9.6035e-05,948.9,-3.0256e-05,-0.0062884,-3.4607e-05,-32.699,2.1287
4879,19.575,1.0909,0.1,9.6606e-05,965.4,9.6038e-05,949.42,-3.0323e-05,-0.0030412,-3.4474e-05,-31.197,2.1285
4880,19.575,0.90909,0.1,9.6592e-05,965.25,9.6053e-05,950.08,-3.0394e-05,0.00059587,-3.4343e-05,-29.671,2.1283
4881,19.575,0.72727,0.1,9.6594e-05,965.28,9.6085e-05,950.9,-3.0471e-05,0.0054959,-3.4219e-05,-28.154,2.128
4882,19.575,0.54545,0.1,9.6619e-05,965.53,9.6138e-05,951.91,-3.0552e-05,0.0083781,-3.4106e-05,-26.691,2.1277
4883,19.575,0.36364,0.1,9.6691e-05,966.24,9.6234e-05,953.28,-3.0637e-05,0.026246,-3.4027e-05,-25.444,2.1274
4884,19.575,0.18182,0.1,9.7176e-05,971.09,9.6692e-05,957.41,-3.0731e-05,-0.0003418,-3.4299e-05,-26.811,2.127
4885,19.391,5.8182,0.1,0.00010134,1012.7,0.00010087,999.3,-3.213e-05,-0.00050833,-3.5634e-05,-26.326,2.0968
4886,19.391,5.6364,0.1,0.00010085,1007.8,0.00010041,995.2,-3.2042e-05,0.024916,-3.535e-05,-24.832,2.0971
4887,19.391,5.4545,0.1,0.00010077,1007,0.0001003,993.81,-3.1962e-05,0.0080819,-3.5412e-05,-25.917,2.0974
4888,19.391,5.2727,0.1,0.00010073,1006.6,0.00010024,992.76,-3.1885e-05,0.0053894,-3.5507e-05,-27.211,2.0977
4889,19.391,5.0909,0.1,0.00010072,1006.5,0.0001002,991.9,-3.1812e-05,0.00075085,-3.5613e-05,-28.557,2.098
4890,19.391,4.9091,0.1,0.00010072,1006.5,0.00010018,991.2,-3.1745e-05,-0.0027136,-3.5726e-05,-29.915,2.0983
4891,19.391,4.7273,0.1,0.00010073,1006.6,0.00010016,990.64,-3.1682e-05,-0.0058233,-3.5841e-05,-31.254,2.0985
4892,19.391,4.5455,0.1,0.00010076,1006.9,0.00010016,990.19,-3.1625e-05,-0.0084384,-3.5955e-05,-32.546,2.0987
4893,19.391,4.3636,0.1,0.00010078,1007.1,0.00010017,989.83,-3.1573e-05,-0.010651,-3.6065e-05,-33.764,2.0989
4894,19.391,4.1818,0.1,0.00010082,1007.5,0.00010018,989.56,-3.1527e-05,-0.012494,-3.6169e-05,-34.885,2.0991
4895,19.391,4,0.1,0.00010085,1007.8,0.00010019,989.36,-3.1488e-05,-0.014006,-3.6262e-05,-35.886,2.0992
4896,19.391,3.8182,0.1,0.00010088,1008.1,0.0001002,989.21,-3.1454e-05,-0.015221,-3.6343e-05,-36.749,2.0994
4897,19.391,3.6364,0.1,0.00010091,1008.4,0.00010022,989.1,-3.1427e-05,-0.01616,-3.6411e-05,-37.459,2.0995
4898,19.391,3.4545,0.1,0.00010093,1008.6,0.00010023,989.03,-3.1407e-05,-0.016846,-3.6463e-05,-38.003,2.0995
4899,19.391,3.2727,0.1,0.00010094,1008.7,0.00010023,988.98,-3.1394e-05,-0.017298,-3.6498e-05,-38.371,2.0996
4900,19.391,3.0909,0.1,0.00010095,1008.8,0.00010024,988.96,-3.1387e-05,-0.017519,-3.6516e-05,-38.556,2.0996
4901,19.391,2.9091,0.1,0.00010095,1008.8,0.00010024,988.96,-3.1387e-05,-0.017519,-3.6516e-05,-38.556,2.0996
4902,19.391,2.7273,0.1,0.00010094,1008.7,0.00010023,988.98,-3.1394e-05,-0.017296,-3.6498e-05,-38.371,2.0996
4903,19.391,2.5455,0.1,0.00010093,1008.6,0.00010023,989.03,-3.1407e-05,-0.016848,-3.6463e-05,-38.003,2.0995
4904,19.391,2.3636,0.1,0.00010091,1008.4,0.00010022,989.1,-3.1427e-05,-0.016159,-3.6411e-05,-37.459,2.0995
4905,19.391,2.1818,0.1,0.00010088,1008.1,0.0001002,989.21,-3.1454e-05,-0.01522,-3.6343e-05,-36.749,2.0994
4906,19.391,2,0.1,0.00010085,1007.8,0.00010019,989.36,-3.1488e-05,-0.014007,-3.6262e-05,-35.886,2.0992
4907,19.391,1.8182,0.1,0.00010082,1007.5,0.00010018,989.56,-3.1527e-05,-0.012495,-3.6169e-05,-34.885,2.0991
4908,19.391,1.6364,0.1,0.00010078,1007.1,0.00010017,989.83,-3.1573e-05,-0.010653,-3.6065e-05,-33.764,2.0989
4909,19.391,1.4545,0.1,0.00010076,1006.9,0.00010016,990.19,-3.1625e-05,-0.0084396,-3.5955e-05,-32.546,2.0987
4910,19.391,1.2727,0.1,0.00010073,1006.6,0.00010016,990.64,-3.1682e-05,-0.0058227,-3.5841e-05,-31.254,2.0985
4911,19.391,1.0909,0.1,0.00010072,1006.5,0.00010018,991.2,-3.1745e-05,-0.0027152,-3.5726e-05,-29.915,2.0983
4912,19.391,0.90909,0.1,0.00010072,1006.5,0.0001002,991.9,-3.1812e-05,0.00074971,-3.5613e-05,-28.557,2.098
4913,19.391,0.72727,0.1,0.00010073,1006.6,0.00010024,992.76,-3.1885e-05,0.0053877,-3.5507e-05,-27.211,2.0977
4914,19.391,0.54545,0.1,0.00010077,1007,0.0001003,993.81,-3.1962e-05,0.0080821,-3.5412e-05,-25.917,2.0974
4915,19.391,0.36364,0.1,0.00010085,1007.8,0.00010041,995.2,-3.2042e-05,0.024918,-3.535e-05,-24.832,2.0971
4916,19.391,0.18182,0.1,0.00010134,1012.7,0.00010087,999.3,-3.213e-05,-0.00050886,-3.5634e-05,-26.326,2.0968
4917,19.206,5.8182,0.1,0.00010553,1054.5,0.00010506,1041.4,-3.3535e-05,-0.00062824,-3.6975e-05,-25.849,2.0666
4918,19.206,5.6364,0.1,0.00010503,1049.6,0.0001046,1037.3,-3.3451e-05,0.023689,-3.6681e-05,-24.243,2.0669
4919,19.206,5.4545,0.1,0.00010494,1048.7,0.00010449,1035.9,-3.3375e-05,0.007796,-3.6727e-05,-25.178,2.0673
4920,19.206,5.2727,0.1,0.00010489,1048.2,0.00010442,1034.8,-3.3302e-05,0.0052794,-3.6806e-05,-26.318,2.0676
4921,19.206,5.0909,0.1,0.00010487,1047.9,0.00010437,1033.9,-3.3234e-05,0.00088149,-3.6895e-05,-27.508,2.0679
4922,19.206,4.9091,0.1,0.00010485,1047.8,0.00010434,1033.2,-3.317e-05,-0.0024221,-3.6991e-05,-28.712,2.0681
4923,19.206,4.7273,0.1,0.00010486,1047.8,0.00010432,1032.6,-3.3111e-05,-0.0054038,-3.709e-05,-29.902,2.0684
4924,19.206,4.5455,0.1,0.00010487,1047.9,0.0001043,1032.1,-3.3057e-05,-0.0079217,-3.7189e-05,-31.051,2.0686
4925,19.206,4.3636,0.1,0.00010488,1048.1,0.0001043,1031.7,-3.3009e-05,-0.010065,-3.7285e-05,-32.137,2.0688
4926,19.206,4.1818,0.1,0.00010491,1048.3,0.0001043,1031.4,-3.2966e-05,-0.011856,-3.7374e-05,-33.137,2.069
4927,19.206,4,0.1,0.00010493,1048.6,0.00010431,1031.1,-3.2928e-05,-0.013329,-3.7456e-05,-34.032,2.0691
4928,19.206,3.8182,0.1,0.00010495,1048.8,0.00010432,1030.9,-3.2897e-05,-0.01451,-3.7527e-05,-34.804,2.0692
4929,19.206,3.6364,0.1,0.00010497,1049,0.00010432,1030.8,-3.2872e-05,-0.015431,-3.7586e-05,-35.44,2.0693
4930,19.206,3.4545,0.1,0.00010499,1049.2,0.00010433,1030.7,-3.2852e-05,-0.016105,-3.7632e-05,-35.926,2.0694
4931,19.206,3.2727,0.1,0.000105,1049.3,0.00010434,1030.7,-3.284e-05,-0.016545,-3.7663e-05,-36.256,2.0695
4932,19.206,3.0909,0.1,0.00010501,1049.3,0.00010434,1030.6,-3.2833e-05,-0.016765,-3.7679e-05,-36.422,2.0695
4933,19.206,2.9091,0.1,0.00010501,1049.3,0.00010434,1030.6,-3.2833e-05,-0.016764,-3.7679e-05,-36.422,2.0695
4934,19.206,2.7273,0.1,0.000105,1049.3,0.00010434,1030.7,-3.284e-05,-0.016545,-3.7663e-05,-36.256,2.0695
4935,19.206,2.5455,0.1,0.00010499,1049.2,0.00010433,1030.7,-3.2852e-05,-0.016106,-3.7632e-05,-35.926,2.0694
4936,19.206,2.3636,0.1,0.00010497,1049,0.00010432,1030.8,-3.2872e-05,-0.01543,-3.7586e-05,-35.44,2.0693
4937,19.206,2.1818,0.1,0.00010495,1048.8,0.00010432,1030.9,-3.2897e-05,-0.014513,-3.7527e-05,-34.804,2.0692
4938,19.206,2,0.1,0.00010493,1048.6,0.00010431,1031.1,-3.2928e-05,-0.013329,-3.7456e-05,-34.032,2.0691
4939,19.206,1.8182,0.1,0.00010491,1048.3,0.0001043,1031.4,-3.2966e-05,-0.011854,-3.7374e-05,-33.137,2.069
4940,19.206,1.6364,0.1,0.00010488,1048.1,0.0001043,1031.7,-3.3009e-05,-0.010065,-3.7285e-05,-32.137,2.0688
4941,19.206,1.4545,0.1,0.00010487,1047.9,0.0001043,1032.1,-3.3057e-05,-0.0079241,-3.7189e-05,-31.051,2.0686
4942,19.206,1.2727,0.1,0.00010486,1047.8,0.00010432,1032.6,-3.3111e-05,-0.0054044,-3.709e-05,-29.901,2.0684
4943,19.206,1.0909,0.1,0.00010485,1047.8,0.00010434,1033.2,-3.317e-05,-0.0024236,-3.6991e-05,-28.712,2.0681
4944,19.206,0.90909,0.1,0.00010487,1047.9,0.00010437,1033.9,-3.3234e-05,0.00087816,-3.6895e-05,-27.508,2.0679
4945,19.206,0.72727,0.1,0.00010489,1048.2,0.00010442,1034.8,-3.3303e-05,0.0052766,-3.6806e-05,-26.317,2.0676
4946,19.206,0.54545,0.1,0.00010494,1048.7,0.00010449,1035.9,-3.3375e-05,0.0077987,-3.6727e-05,-25.178,2.0673
4947,19.206,0.36364,0.1,0.00010503,1049.6,0.0001046,1037.3,-3.3451e-05,0.023691,-3.6681e-05,-24.243,2.0669
4948,19.206,0.18182,0.1,0.00010553,1054.5,0.00010506,1041.4,-3.3535e-05,-0.00062982,-3.6975e-05,-25.849,2.0666
4949,19.022,5.8182,0.1,0.00010973,1096.5,0.00010927,1083.6,-3.4945e-05,-0.00070615,-3.8323e-05,-25.381,2.0364
4950,19.022,5.6364,0.1,0.00010923,1091.6,0.00010881,1079.5,-3.4865e-05,0.02256,-3.8019e-05,-23.675,2.0368
4951,19.022,5.4545,0.1,0.00010913,1090.6,0.00010869,1078.1,-3.4794e-05,0.0075343,-3.8052e-05,-24.474,2.0371
4952,19.022,5.2727,0.1,0.00010907,1090,0.00010862,1077,-3.4725e-05,0.0051728,-3.8115e-05,-25.471,2.0375
4953,19.022,5.0909,0.1,0.00010904,1089.6,0.00010856,1076.1,-3.466e-05,0.000999,-3.819e-05,-26.519,2.0378
4954,19.022,4.9091,0.1,0.00010901,1089.4,0.00010852,1075.3,-3.46e-05,-0.002155,-3.827e-05,-27.582,2.0381
4955,19.022,4.7273,0.1,0.000109,1089.3,0.00010849,1074.7,-3.4544e-05,-0.0050171,-3.8354e-05,-28.635,2.0383
4956,19.022,4.5455,0.1,0.000109,1089.3,0.00010847,1074.2,-3.4493e-05,-0.0074491,-3.8439e-05,-29.655,2.0385
4957,19.022,4.3636,0.1,0.00010901,1089.4,0.00010846,1073.7,-3.4447e-05,-0.0095209,-3.8521e-05,-30.62,2.0387
4958,19.022,4.1818,0.1,0.00010902,1089.5,0.00010845,1073.4,-3.4406e-05,-0.011261,-3.8599e-05,-31.509,2.0389
4959,19.022,4,0.1,0.00010904,1089.6,0.00010845,1073.1,-3.4371e-05,-0.012695,-3.8669e-05,-32.306,2.0391
4960,19.022,3.8182,0.1,0.00010905,1089.8,0.00010845,1072.9,-3.4342e-05,-0.013854,-3.8731e-05,-32.995,2.0392
4961,19.022,3.6364,0.1,0.00010907,1089.9,0.00010846,1072.7,-3.4318e-05,-0.014755,-3.8783e-05,-33.561,2.0393
4962,19.022,3.4545,0.1,0.00010908,1090,0.00010846,1072.6,-3.43e-05,-0.015414,-3.8822e-05,-33.996,2.0394
4963,19.022,3.2727,0.1,0.00010909,1090.1,0.00010846,1072.6,-3.4288e-05,-0.015847,-3.885e-05,-34.29,2.0394
4964,19.022,3.0909,0.1,0.00010909,1090.2,0.00010846,1072.5,-3.4282e-05,-0.01606,-3.8863e-05,-34.439,2.0395
4965,19.022,2.9091,0.1,0.00010909,1090.2,0.00010846,1072.5,-3.4282e-05,-0.016061,-3.8863e-05,-34.439,2.0395
4966,19.022,2.7273,0.1,0.00010909,1090.1,0.00010846,1072.6,-3.4288e-05,-0.015848,-3.885e-05,-34.29,2.0394
4967,19.022,2.5455,0.1,0.00010908,1090,0.00010846,1072.6,-3.43e-05,-0.015414,-3.8822e-05,-33.996,2.0394
4968,19.022,2.3636,0.1,0.00010907,1089.9,0.00010846,1072.7,-3.4318e-05,-0.014754,-3.8783e-05,-33.561,2.0393
4969,19.022,2.1818,0.1,0.00010905,1089.8,0.00010845,1072.9,-3.4342e-05,-0.013853,-3.8731e-05,-32.995,2.0392
4970,19.022,2,0.1,0.00010904,1089.6,0.00010845,1073.1,-3.4371e-05,-0.012696,-3.8669e-05,-32.306,2.0391
4971,19.022,1.8182,0.1,0.00010902,1089.5,0.00010845,1073.4,-3.4406e-05,-0.011262,-3.8599e-05,-31.509,2.0389
4972,19.022,1.6364,0.1,0.00010901,1089.4,0.00010846,1073.7,-3.4447e-05,-0.0095215,-3.8521e-05,-30.619,2.0387
4973,19.022,1.4545,0.1,0.000109,1089.3,0.00010847,1074.2,-3.4493e-05,-0.0074482,-3.8439e-05,-29.655,2.0385
4974,19.022,1.2727,0.1,0.000109,1089.3,0.00010849,1074.7,-3.4544e-05,-0.0050165,-3.8354e-05,-28.635,2.0383
4975,19.022,1.0909,0.1,0.00010901,1089.4,0.00010852,1075.3,-3.46e-05,-0.0021562,-3.827e-05,-27.582,2.0381
4976,19.022,0.90909,0.1,0.00010904,1089.6,0.00010856,1076.1,-3.466e-05,0.00099815,-3.819e-05,-26.519,2.0378
4977,19.022,0.72727,0.1,0.00010907,1090,0.00010862,1077,-3.4725e-05,0.0051715,-3.8115e-05,-25.471,2.0375
4978,19.022,0.54545,0.1,0.00010913,1090.6,0.00010869,1078.1,-3.4794e-05,0.0075322,-3.8052e-05,-24.474,2.0371
4979,19.022,0.36364,0.1,0.00010923,1091.6,0.00010881,1079.5,-3.4865e-05,0.022561,-3.8019e-05,-23.675,2.0368
4980,19.022,0.18182,0.1,0.00010973,1096.5,0.00010927,1083.6,-3.4945e-05,-0.00070415,-3.8323e-05,-25.381,2.0364
4981,18.838,5.8182,0.1,0.00011394,1138.7,0.0001135,1126,-3.6361e-05,-0.00075698,-3.9677e-05,-24.923,2.0064
4982,18.838,5.6364,0.1,0.00011345,1133.7,0.00011304,1122,-3.6285e-05,0.02151,-3.9366e-05,-23.128,2.0067
4983,18.838,5.4545,0.1,0.00011334,1132.6,0.00011292,1120.5,-3.6217e-05,0.0072829,-3.9385e-05,-23.801,2.0071
4984,18.838,5.2727,0.1,0.00011327,1132,0.00011283,1119.4,-3.6151e-05,0.0050643,-3.9435e-05,-24.669,2.0074
4985,18.838,5.0909,0.1,0.00011323,1131.5,0.00011277,1118.5,-3.609e-05,0.0010971,-3.9496e-05,-25.586,2.0078
4986,18.838,4.9091,0.1,0.00011319,1131.2,0.00011272,1117.7,-3.6033e-05,-0.00192,-3.9562e-05,-26.52,2.008
4987,18.838,4.7273,0.1,0.00011318,1131,0.00011268,1117,-3.598e-05,-0.004669,-3.9633e-05,-27.447,2.0083
4988,18.838,4.5455,0.1,0.00011317,1130.9,0.00011266,1116.4,-3.5932e-05,-0.0070167,-3.9704e-05,-28.348,2.0085
4989,18.838,4.3636,0.1,0.00011316,1130.9,0.00011264,1116,-3.5889e-05,-0.0090247,-3.9774e-05,-29.202,2.0088
4990,18.838,4.1818,0.1,0.00011317,1130.9,0.00011263,1115.6,-3.5851e-05,-0.010717,-3.9841e-05,-29.99,2.0089
4991,18.838,4,0.1,0.00011317,1131,0.00011262,1115.3,-3.5817e-05,-0.012117,-3.9901e-05,-30.697,2.0091
4992,18.838,3.8182,0.1,0.00011318,1131,0.00011262,1115,-3.5789e-05,-0.01325,-3.9955e-05,-31.309,2.0092
4993,18.838,3.6364,0.1,0.00011319,1131.1,0.00011262,1114.9,-3.5767e-05,-0.01413,-3.9999e-05,-31.813,2.0093
4994,18.838,3.4545,0.1,0.0001132,1131.2,0.00011261,1114.7,-3.575e-05,-0.014778,-4.0034e-05,-32.199,2.0094
4995,18.838,3.2727,0.1,0.0001132,1131.2,0.00011262,1114.7,-3.5739e-05,-0.015204,-4.0057e-05,-32.461,2.0095
4996,18.838,3.0909,0.1,0.00011321,1131.3,0.00011262,1114.6,-3.5733e-05,-0.015415,-4.0069e-05,-32.593,2.0095
4997,18.838,2.9091,0.1,0.00011321,1131.3,0.00011262,1114.6,-3.5733e-05,-0.015415,-4.0069e-05,-32.593,2.0095
4998,18.838,2.7273,0.1,0.0001132,1131.2,0.00011262,1114.7,-3.5739e-05,-0.015203,-4.0057e-05,-32.461,2.0095
4999,18.838,2.5455,0.1,0.0001132,1131.2,0.00011261,1114.7,-3.575e-05,-0.014777,-4.0034e-05,-32.199,2.0094
5000,18.838,2.3636,0.1,0.00011319,1131.1,0.00011262,1114.9,-3.5767e-05,-0.014131,-3.9999e-05,-31.813,2.0093
5001,18.838,2.1818,0.1,0.00011318,1131,0.00011262,1115,-3.5789e-05,-0.013249,-3.9955e-05,-31.309,2.0092
5002,18.838,2,0.1,0.00011317,1131,0.00011262,1115.3,-3.5817e-05,-0.012117,-3.9901e-05,-30.697,2.0091
5003,18.838,1.8182,0.1,0.00011317,1130.9,0.00011263,1115.6,-3.5851e-05,-0.010716,-3.9841e-05,-29.99,2.0089
5004,18.838,1.6364,0.1,0.00011316,1130.9,0.00011264,1116,-3.5889e-05,-0.009025,-3.9774e-05,-29.202,2.0088
5005,18.838,1.4545,0.1,0.00011317,1130.9,0.00011266,1116.4,-3.5932e-05,-0.0070157,-3.9704e-05,-28.348,2.0085
5006,18.838,1.2727,0.1,0.00011318,1131,0.00011268,1117,-3.598e-05,-0.0046695,-3.9633e-05,-27.447,2.0083
5007,18.838,1.0909,0.1,0.00011319,1131.2,0.00011272,1117.7,-3.6033e-05,-0.0019205,-3.9562e-05,-26.519,2.008
5008,18.838,0.90909,0.1,0.00011323,1131.5,0.00011277,1118.5,-3.609e-05,0.0010954,-3.9496e-05,-25.586,2.0078
5009,18.838,0.72727,0.1,0.00011327,1132,0.00011283,1119.4,-3.6151e-05,0.0050642,-3.9435e-05,-24.669,2.0074
5010,18.838,0.54545,0.1,0.00011334,1132.6,0.00011292,1120.5,-3.6217e-05,0.0072814,-3.9385e-05,-23.801,2.0071
5011,18.838,0.36364,0.1,0.00011345,1133.7,0.00011304,1122,-3.6285e-05,0.021512,-3.9366e-05,-23.128,2.0067
5012,18.838,0.18182,0.1,0.00011394,1138.7,0.0001135,1126,-3.6361e-05,-0.00075577,-3.9677e-05,-24.923,2.0064
5013,18.653,5.8182,0.1,0.00011818,1181,0.00011775,1168.6,-3.7781e-05,-0.00079264,-4.1039e-05,-24.474,1.9764
5014,18.653,5.6364,0.1,0.00011768,1176,0.00011728,1164.6,-3.7709e-05,0.020526,-4.072e-05,-22.6,1.9768
5015,18.653,5.4545,0.1,0.00011757,1174.9,0.00011716,1163.1,-3.7645e-05,0.007035,-4.0728e-05,-23.159,1.9771
5016,18.653,5.2727,0.1,0.00011749,1174.1,0.00011707,1162,-3.7583e-05,0.0049455,-4.0765e-05,-23.907,1.9775
5017,18.653,5.0909,0.1,0.00011744,1173.6,0.000117,1161,-3.7525e-05,0.0011682,-4.0813e-05,-24.704,1.9778
5018,18.653,4.9091,0.1,0.0001174,1173.2,0.00011694,1160.2,-3.7471e-05,-0.0017183,-4.0867e-05,-25.519,1.9781
5019,18.653,4.7273,0.1,0.00011737,1172.9,0.0001169,1159.5,-3.7421e-05,-0.0043637,-4.0925e-05,-26.332,1.9784
5020,18.653,4.5455,0.1,0.00011735,1172.7,0.00011687,1158.9,-3.7375e-05,-0.0066297,-4.0984e-05,-27.124,1.9786
5021,18.653,4.3636,0.1,0.00011734,1172.6,0.00011684,1158.4,-3.7334e-05,-0.0085804,-4.1043e-05,-27.876,1.9788
5022,18.653,4.1818,0.1,0.00011734,1172.6,0.00011682,1158,-3.7298e-05,-0.010227,-4.1099e-05,-28.571,1.979
5023,18.653,4,0.1,0.00011734,1172.5,0.00011681,1157.7,-3.7267e-05,-0.011593,-4.1151e-05,-29.196,1.9792
5024,18.653,3.8182,0.1,0.00011734,1172.6,0.0001168,1157.4,-3.724e-05,-0.012701,-4.1196e-05,-29.737,1.9793
5025,18.653,3.6364,0.1,0.00011734,1172.6,0.0001168,1157.2,-3.7219e-05,-0.013564,-4.1234e-05,-30.183,1.9794
5026,18.653,3.4545,0.1,0.00011734,1172.6,0.0001168,1157.1,-3.7203e-05,-0.014203,-4.1264e-05,-30.526,1.9795
5027,18.653,3.2727,0.1,0.00011735,1172.7,0.00011679,1157,-3.7192e-05,-0.014619,-4.1284e-05,-30.758,1.9796
5028,18.653,3.0909,0.1,0.00011735,1172.7,0.00011679,1156.9,-3.7187e-05,-0.014827,-4.1294e-05,-30.875,1.9796
5029,18.653,2.9091,0.1,0.00011735,1172.7,0.00011679,1156.9,-3.7187e-05,-0.014827,-4.1294e-05,-30.875,1.9796
5030,18.653,2.7273,0.1,0.00011735,1172.7,0.00011679,1157,-3.7192e-05,-0.01462,-4.1284e-05,-30.758,1.9796
5031,18.653,2.5455,0.1,0.00011734,1172.6,0.0001168,1157.1,-3.7203e-05,-0.014203,-4.1264e-05,-30.525,1.9795
5032,18.653,2.3636,0.1,0.00011734,1172.6,0.0001168,1157.2,-3.7219e-05,-0.013566,-4.1234e-05,-30.183,1.9794
5033,18.653,2.1818,0.1,0.00011734,1172.6,0.0001168,1157.4,-3.724e-05,-0.012701,-4.1196e-05,-29.737,1.9793
5034,18.653,2,0.1,0.00011734,1172.5,0.00011681,1157.7,-3.7267e-05,-0.011594,-4.1151e-05,-29.196,1.9792
5035,18.653,1.8182,0.1,0.00011734,1172.6,0.00011682,1158,-3.7298e-05,-0.010226,-4.1099e-05,-28.571,1.979
5036,18.653,1.6364,0.1,0.00011734,1172.6,0.00011684,1158.4,-3.7334e-05,-0.0085812,-4.1043e-05,-27.875,1.9788
5037,18.653,1.4545,0.1,0.00011735,1172.7,0.00011687,1158.9,-3.7375e-05,-0.0066323,-4.0984e-05,-27.124,1.9786
5038,18.653,1.2727,0.1,0.00011737,1172.9,0.0001169,1159.5,-3.7421e-05,-0.0043631,-4.0925e-05,-26.332,1.9784
5039,18.653,1.0909,0.1,0.0001174,1173.2,0.00011694,1160.2,-3.7471e-05,-0.0017211,-4.0867e-05,-25.519,1.9781
5040,18.653,0.90909,0.1,0.00011744,1173.6,0.000117,1161,-3.7525e-05,0.0011662,-4.0813e-05,-24.704,1.9778
5041,18.653,0.72727,0.1,0.00011749,1174.1,0.00011707,1162,-3.7583e-05,0.0049463,-4.0765e-05,-23.907,1.9775
5042,18.653,0.54545,0.1,0.00011757,1174.9,0.00011716,1163.1,-3.7645e-05,0.0070347,-4.0728e-05,-23.159,1.9771
5043,18.653,0.36364,0.1,0.00011768,1176,0.00011728,1164.6,-3.7709e-05,0.020526,-4.072e-05,-22.6,1.9768
5044,18.653,0.18182,0.1,0.00011818,1181,0.00011775,1168.6,-3.7781e-05,-0.00079303,-4.1039e-05,-24.474,1.9764
5045,18.469,5.8182,0.1,0.00012244,1223.5,0.00012201,1211.3,-3.9208e-05,-0.00079852,-4.2407e-05,-24.034,1.9465
5046,18.469,5.6364,0.1,0.00012194,1218.6,0.00012155,1207.4,-3.9139e-05,0.019622,-4.2082e-05,-22.091,1.9469
5047,18.469,5.4545,0.1,0.00012182,1217.3,0.00012142,1205.9,-3.9078e-05,0.0068144,-4.2079e-05,-22.544,1.9473
5048,18.469,5.2727,0.1,0.00012174,1216.5,0.00012133,1204.8,-3.9019e-05,0.0048415,-4.2105e-05,-23.183,1.9476
5049,18.469,5.0909,0.1,0.00012167,1215.9,0.00012125,1203.8,-3.8964e-05,0.0012413,-4.2141e-05,-23.87,1.9479
5050,18.469,4.9091,0.1,0.00012162,1215.4,0.00012119,1202.9,-3.8912e-05,-0.0015257,-4.2183e-05,-24.576,1.9483
5051,18.469,4.7273,0.1,0.00012159,1215,0.00012114,1202.2,-3.8865e-05,-0.0040721,-4.223e-05,-25.284,1.9485
5052,18.469,4.5455,0.1,0.00012156,1214.8,0.0001211,1201.6,-3.8822e-05,-0.0062636,-4.2278e-05,-25.975,1.9488
5053,18.469,4.3636,0.1,0.00012154,1214.6,0.00012107,1201,-3.8783e-05,-0.0081558,-4.2327e-05,-26.633,1.949
5054,18.469,4.1818,0.1,0.00012153,1214.5,0.00012104,1200.6,-3.8749e-05,-0.0097615,-4.2374e-05,-27.244,1.9492
5055,18.469,4,0.1,0.00012152,1214.4,0.00012103,1200.3,-3.8719e-05,-0.011096,-4.2417e-05,-27.793,1.9494
5056,18.469,3.8182,0.1,0.00012152,1214.4,0.00012102,1200,-3.8695e-05,-0.01218,-4.2455e-05,-28.269,1.9495
5057,18.469,3.6364,0.1,0.00012152,1214.4,0.00012101,1199.8,-3.8675e-05,-0.013028,-4.2487e-05,-28.662,1.9496
5058,18.469,3.4545,0.1,0.00012152,1214.4,0.000121,1199.6,-3.8659e-05,-0.013653,-4.2512e-05,-28.964,1.9497
5059,18.469,3.2727,0.1,0.00012152,1214.4,0.000121,1199.5,-3.8649e-05,-0.014064,-4.253e-05,-29.169,1.9498
5060,18.469,3.0909,0.1,0.00012152,1214.4,0.000121,1199.5,-3.8644e-05,-0.014267,-4.2538e-05,-29.272,1.9498
5061,18.469,2.9091,0.1,0.00012152,1214.4,0.000121,1199.5,-3.8644e-05,-0.014269,-4.2538e-05,-29.272,1.9498
5062,18.469,2.7273,0.1,0.00012152,1214.4,0.000121,1199.5,-3.8649e-05,-0.014063,-4.253e-05,-29.169,1.9498
5063,18.469,2.5455,0.1,0.00012152,1214.4,0.000121,1199.6,-3.8659e-05,-0.013652,-4.2512e-05,-28.964,1.9497
5064,18.469,2.3636,0.1,0.00012152,1214.4,0.00012101,1199.8,-3.8675e-05,-0.013027,-4.2487e-05,-28.662,1.9496
5065,18.469,2.1818,0.1,0.00012152,1214.4,0.00012102,1200,-3.8695e-05,-0.01218,-4.2455e-05,-28.269,1.9495
5066,18.469,2,0.1,0.00012152,1214.4,0.00012103,1200.3,-3.8719e-05,-0.011096,-4.2417e-05,-27.793,1.9494
5067,18.469,1.8182,0.1,0.00012153,1214.5,0.00012104,1200.6,-3.8749e-05,-0.0097617,-4.2374e-05,-27.244,1.9492
5068,18.469,1.6364,0.1,0.00012154,1214.6,0.00012107,1201,-3.8783e-05,-0.0081568,-4.2327e-05,-26.633,1.949
5069,18.469,1.4545,0.1,0.00012156,1214.8,0.0001211,1201.6,-3.8822e-05,-0.0062641,-4.2278e-05,-25.975,1.9488
5070,18.469,1.2727,0.1,0.00012159,1215,0.00012114,1202.2,-3.8865e-05,-0.0040721,-4.223e-05,-25.284,1.9485
5071,18.469,1.0909,0.1,0.00012162,1215.4,0.00012119,1202.9,-3.8912e-05,-0.0015261,-4.2183e-05,-24.576,1.9483
5072,18.469,0.90909,0.1,0.00012167,1215.9,0.00012125,1203.8,-3.8964e-05,0.0012397,-4.2141e-05,-23.87,1.9479
5073,18.469,0.72727,0.1,0.00012174,1216.5,0.00012133,1204.8,-3.9019e-05,0.0048399,-4.2105e-05,-23.183,1.9476
5074,18.469,0.54545,0.1,0.00012182,1217.3,0.00012142,1205.9,-3.9078e-05,0.0068139,-4.2079e-05,-22.544,1.9473
5075,18.469,0.36364,0.1,0.00012194,1218.6,0.00012155,1207.4,-3.9139e-05,0.019626,-4.2082e-05,-22.091,1.9469
5076,18.469,0.18182,0.1,0.00012244,1223.5,0.00012201,1211.3,-3.9208e-05,-0.00079776,-4.2407e-05,-24.034,1.9465
5077,18.285,5.8182,0.1,0.00012671,1266.2,0.00012629,1254.3,-4.064e-05,-0.00078329,-4.3781e-05,-23.605,1.9166
5078,18.285,5.6364,0.1,0.00012621,1261.3,0.00012583,1250.3,-4.0575e-05,0.018784,-4.3452e-05,-21.6,1.9171
5079,18.285,5.4545,0.1,0.00012609,1260,0.0001257,1248.9,-4.0516e-05,0.0066084,-4.3439e-05,-21.956,1.9175
5080,18.285,5.2727,0.1,0.000126,1259.1,0.0001256,1247.7,-4.046e-05,0.0047439,-4.3454e-05,-22.494,1.9178
5081,18.285,5.0909,0.1,0.00012593,1258.4,0.00012552,1246.7,-4.0408e-05,0.0013083,-4.348e-05,-23.08,1.9182
5082,18.285,4.9091,0.1,0.00012587,1257.8,0.00012545,1245.8,-4.0359e-05,-0.0013475,-4.3511e-05,-23.686,1.9185
5083,18.285,4.7273,0.1,0.00012583,1257.4,0.0001254,1245.1,-4.0314e-05,-0.0038003,-4.3547e-05,-24.297,1.9188
5084,18.285,4.5455,0.1,0.00012579,1257.1,0.00012535,1244.4,-4.0273e-05,-0.0059231,-4.3586e-05,-24.895,1.919
5085,18.285,4.3636,0.1,0.00012577,1256.8,0.00012532,1243.9,-4.0237e-05,-0.0077616,-4.3625e-05,-25.468,1.9193
5086,18.285,4.1818,0.1,0.00012575,1256.6,0.00012529,1243.4,-4.0204e-05,-0.0093243,-4.3663e-05,-26,1.9195
5087,18.285,4,0.1,0.00012574,1256.5,0.00012527,1243.1,-4.0176e-05,-0.01063,-4.3699e-05,-26.479,1.9196
5088,18.285,3.8182,0.1,0.00012573,1256.4,0.00012525,1242.8,-4.0153e-05,-0.011692,-4.3731e-05,-26.896,1.9198
5089,18.285,3.6364,0.1,0.00012572,1256.4,0.00012524,1242.5,-4.0134e-05,-0.012525,-4.3757e-05,-27.24,1.9199
5090,18.285,3.4545,0.1,0.00012572,1256.3,0.00012523,1242.4,-4.0119e-05,-0.013139,-4.3778e-05,-27.505,1.92
5091,18.285,3.2727,0.1,0.00012572,1256.3,0.00012523,1242.3,-4.011e-05,-0.013544,-4.3792e-05,-27.684,1.92
5092,18.285,3.0909,0.1,0.00012572,1256.3,0.00012522,1242.2,-4.0105e-05,-0.013745,-4.38e-05,-27.775,1.9201
5093,18.285,2.9091,0.1,0.00012572,1256.3,0.00012522,1242.2,-4.0105e-05,-0.013745,-4.38e-05,-27.775,1.9201
5094,18.285,2.7273,0.1,0.00012572,1256.3,0.00012523,1242.3,-4.011e-05,-0.013544,-4.3792e-05,-27.684,1.92
5095,18.285,2.5455,0.1,0.00012572,1256.3,0.00012523,1242.4,-4.0119e-05,-0.01314,-4.3778e-05,-27.505,1.92
5096,18.285,2.3636,0.1,0.00012572,1256.4,0.00012524,1242.5,-4.0134e-05,-0.012524,-4.3757e-05,-27.24,1.9199
5097,18.285,2.1818,0.1,0.00012573,1256.4,0.00012525,1242.8,-4.0153e-05,-0.011692,-4.3731e-05,-26.895,1.9198
5098,18.285,2,0.1,0.00012574,1256.5,0.00012527,1243.1,-4.0176e-05,-0.010629,-4.3699e-05,-26.479,1.9196
5099,18.285,1.8182,0.1,0.00012575,1256.6,0.00012529,1243.4,-4.0204e-05,-0.0093248,-4.3663e-05,-25.999,1.9195
5100,18.285,1.6364,0.1,0.00012577,1256.8,0.00012532,1243.9,-4.0237e-05,-0.0077613,-4.3625e-05,-25.468,1.9193
5101,18.285,1.4545,0.1,0.00012579,1257.1,0.00012535,1244.4,-4.0273e-05,-0.0059223,-4.3586e-05,-24.895,1.919
5102,18.285,1.2727,0.1,0.00012583,1257.4,0.0001254,1245.1,-4.0314e-05,-0.0038013,-4.3547e-05,-24.297,1.9188
5103,18.285,1.0909,0.1,0.00012587,1257.8,0.00012545,1245.8,-4.0359e-05,-0.0013467,-4.3511e-05,-23.686,1.9185
5104,18.285,0.90909,0.1,0.00012593,1258.4,0.00012552,1246.7,-4.0408e-05,0.0013065,-4.348e-05,-23.079,1.9182
5105,18.285,0.72727,0.1,0.000126,1259.1,0.0001256,1247.7,-4.046e-05,0.0047421,-4.3454e-05,-22.494,1.9178
5106,18.285,0.54545,0.1,0.00012609,1260,0.0001257,1248.9,-4.0516e-05,0.0066074,-4.3439e-05,-21.956,1.9175
5107,18.285,0.36364,0.1,0.00012621,1261.3,0.00012583,1250.3,-4.0575e-05,0.018785,-4.3452e-05,-21.6,1.9171
5108,18.285,0.18182,0.1,0.00012671,1266.2,0.00012629,1254.3,-4.064e-05,-0.00078271,-4.3781e-05,-23.605,1.9166
5109,18.1,5.8182,0.1,0.000131,1309.1,0.00013059,1297.4,-4.2078e-05,-0.00076135,-4.5163e-05,-23.185,1.8869
5110,18.1,5.6364,0.1,0.00013051,1304.2,0.00013014,1293.5,-4.2015e-05,0.017999,-4.4829e-05,-21.126,1.8873
5111,18.1,5.4545,0.1,0.00013038,1302.9,0.00013,1292,-4.1959e-05,0.0064086,-4.4807e-05,-21.392,1.8877
5112,18.1,5.2727,0.1,0.00013028,1301.9,0.0001299,1290.9,-4.1906e-05,0.0046427,-4.4813e-05,-21.838,1.8881
5113,18.1,5.0909,0.1,0.0001302,1301.1,0.00012981,1289.8,-4.1856e-05,0.0013589,-4.4829e-05,-22.329,1.8885
5114,18.1,4.9091,0.1,0.00013014,1300.5,0.00012974,1288.9,-4.181e-05,-0.0011896,-4.485e-05,-22.844,1.8888
5115,18.1,4.7273,0.1,0.00013009,1300,0.00012968,1288.2,-4.1768e-05,-0.0035567,-4.4877e-05,-23.365,1.8891
5116,18.1,4.5455,0.1,0.00013005,1299.6,0.00012963,1287.5,-4.1729e-05,-0.0056115,-4.4906e-05,-23.879,1.8894
5117,18.1,4.3636,0.1,0.00013002,1299.3,0.00012959,1286.9,-4.1694e-05,-0.0073996,-4.4937e-05,-24.372,1.8896
5118,18.1,4.1818,0.1,0.00013,1299.1,0.00012955,1286.5,-4.1663e-05,-0.0089247,-4.4967e-05,-24.832,1.8898
5119,18.1,4,0.1,0.00012998,1298.9,0.00012953,1286.1,-4.1637e-05,-0.010202,-4.4996e-05,-25.247,1.89
5120,18.1,3.8182,0.1,0.00012996,1298.7,0.00012951,1285.7,-4.1614e-05,-0.011243,-4.5021e-05,-25.609,1.8901
5121,18.1,3.6364,0.1,0.00012996,1298.7,0.0001295,1285.5,-4.1597e-05,-0.012061,-4.5043e-05,-25.908,1.8902
5122,18.1,3.4545,0.1,0.00012995,1298.6,0.00012948,1285.3,-4.1583e-05,-0.012666,-4.506e-05,-26.138,1.8903
5123,18.1,3.2727,0.1,0.00012995,1298.6,0.00012948,1285.2,-4.1574e-05,-0.013064,-4.5072e-05,-26.295,1.8904
5124,18.1,3.0909,0.1,0.00012994,1298.5,0.00012947,1285.1,-4.1569e-05,-0.013262,-4.5078e-05,-26.374,1.8904
5125,18.1,2.9091,0.1,0.00012994,1298.5,0.00012947,1285.1,-4.1569e-05,-0.013262,-4.5078e-05,-26.374,1.8904
5126,18.1,2.7273,0.1,0.00012995,1298.6,0.00012948,1285.2,-4.1574e-05,-0.013064,-4.5072e-05,-26.295,1.8904
5127,18.1,2.5455,0.1,0.00012995,1298.6,0.00012948,1285.3,-4.1583e-05,-0.012665,-4.506e-05,-26.138,1.8903
5128,18.1,2.3636,0.1,0.00012996,1298.7,0.0001295,1285.5,-4.1597e-05,-0.012061,-4.5043e-05,-25.908,1.8902
5129,18.1,2.1818,0.1,0.00012996,1298.7,0.00012951,1285.7,-4.1614e-05,-0.011243,-4.5021e-05,-25.609,1.8901
5130,18.1,2,0.1,0.00012998,1298.9,0.00012953,1286.1,-4.1637e-05,-0.010203,-4.4996e-05,-25.247,1.89
5131,18.1,1.8182,0.1,0.00013,1299.1,0.00012955,1286.5,-4.1663e-05,-0.0089248,-4.4967e-05,-24.832,1.8898
5132,18.1,1.6364,0.1,0.00013002,1299.3,0.00012959,1286.9,-4.1694e-05,-0.0073998,-4.4937e-05,-24.372,1.8896
5133,18.1,1.4545,0.1,0.00013005,1299.6,0.00012963,1287.5,-4.1729e-05,-0.0056118,-4.4906e-05,-23.879,1.8894
5134,18.1,1.2727,0.1,0.00013009,1300,0.00012968,1288.2,-4.1768e-05,-0.0035562,-4.4877e-05,-23.365,1.8891
5135,18.1,1.0909,0.1,0.00013014,1300.5,0.00012974,1288.9,-4.181e-05,-0.0011901,-4.485e-05,-22.844,1.8888
5136,18.1,0.90909,0.1,0.0001302,1301.1,0.00012981,1289.8,-4.1856e-05,0.0013581,-4.4828e-05,-22.329,1.8885
5137,18.1,0.72727,0.1,0.00013028,1301.9,0.0001299,1290.9,-4.1906e-05,0.0046414,-4.4813e-05,-21.837,1.8881
5138,18.1,0.54545,0.1,0.00013038,1302.9,0.00013,1292,-4.1959e-05,0.006408,-4.4807e-05,-21.392,1.8877
5139,18.1,0.36364,0.1,0.00013051,1304.2,0.00013014,1293.5,-4.2015e-05,0.017997,-4.4829e-05,-21.125,1.8873
5140,18.1,0.18182,0.1,0.000131,1309.1,0.00013059,1297.4,-4.2078e-05,-0.00075943,-4.5163e-05,-23.185,1.8869
5141,17.916,5.8182,0.1,0.00013531,1352.2,0.00013491,1340.7,-4.3521e-05,-0.00072533,-4.6552e-05,-22.775,1.8572
5142,17.916,5.6364,0.1,0.00013482,1347.3,0.00013446,1336.8,-4.3462e-05,0.017265,-4.6215e-05,-20.667,1.8577
5143,17.916,5.4545,0.1,0.00013468,1345.9,0.00013432,1335.4,-4.3408e-05,0.0062221,-4.6184e-05,-20.851,1.8581
5144,17.916,5.2727,0.1,0.00013458,1344.9,0.00013421,1334.2,-4.3358e-05,0.004546,-4.6181e-05,-21.21,1.8585
5145,17.916,5.0909,0.1,0.0001345,1344.1,0.00013412,1333.2,-4.331e-05,0.0014067,-4.6187e-05,-21.616,1.8589
5146,17.916,4.9091,0.1,0.00013443,1343.4,0.00013404,1332.2,-4.3266e-05,-0.0010442,-4.62e-05,-22.045,1.8592
5147,17.916,4.7273,0.1,0.00013438,1342.8,0.00013398,1331.4,-4.3226e-05,-0.003328,-4.6218e-05,-22.484,1.8595
5148,17.916,4.5455,0.1,0.00013433,1342.4,0.00013393,1330.8,-4.3189e-05,-0.0053217,-4.6239e-05,-22.92,1.8598
5149,17.916,4.3636,0.1,0.00013429,1342,0.00013388,1330.2,-4.3156e-05,-0.0070613,-4.6261e-05,-23.339,1.86
5150,17.916,4.1818,0.1,0.00013426,1341.7,0.00013384,1329.7,-4.3127e-05,-0.0085495,-4.6284e-05,-23.733,1.8602
5151,17.916,4,0.1,0.00013424,1341.5,0.00013381,1329.3,-4.3102e-05,-0.0097992,-4.6307e-05,-24.089,1.8604
5152,17.916,3.8182,0.1,0.00013422,1341.3,0.00013379,1328.9,-4.3081e-05,-0.010821,-4.6327e-05,-24.4,1.8606
5153,17.916,3.6364,0.1,0.00013421,1341.2,0.00013377,1328.7,-4.3064e-05,-0.011625,-4.6344e-05,-24.658,1.8607
5154,17.916,3.4545,0.1,0.0001342,1341.1,0.00013376,1328.5,-4.3051e-05,-0.01222,-4.6357e-05,-24.856,1.8608
5155,17.916,3.2727,0.1,0.0001342,1341,0.00013375,1328.4,-4.3042e-05,-0.012613,-4.6367e-05,-24.992,1.8608
5156,17.916,3.0909,0.1,0.00013419,1341,0.00013375,1328.3,-4.3038e-05,-0.012808,-4.6372e-05,-25.06,1.8609
5157,17.916,2.9091,0.1,0.00013419,1341,0.00013375,1328.3,-4.3038e-05,-0.012809,-4.6372e-05,-25.06,1.8609
5158,17.916,2.7273,0.1,0.0001342,1341,0.00013375,1328.4,-4.3042e-05,-0.012613,-4.6367e-05,-24.992,1.8608
5159,17.916,2.5455,0.1,0.0001342,1341.1,0.00013376,1328.5,-4.3051e-05,-0.012221,-4.6357e-05,-24.856,1.8608
5160,17.916,2.3636,0.1,0.00013421,1341.2,0.00013377,1328.7,-4.3064e-05,-0.011625,-4.6344e-05,-24.658,1.8607
5161,17.916,2.1818,0.1,0.00013422,1341.3,0.00013379,1328.9,-4.3081e-05,-0.010822,-4.6327e-05,-24.4,1.8606
5162,17.916,2,0.1,0.00013424,1341.5,0.00013381,1329.3,-4.3102e-05,-0.0098006,-4.6307e-05,-24.089,1.8604
5163,17.916,1.8182,0.1,0.00013426,1341.7,0.00013384,1329.7,-4.3127e-05,-0.0085486,-4.6284e-05,-23.733,1.8602
5164,17.916,1.6364,0.1,0.00013429,1342,0.00013388,1330.2,-4.3156e-05,-0.0070614,-4.6261e-05,-23.339,1.86
5165,17.916,1.4545,0.1,0.00013433,1342.4,0.00013393,1330.8,-4.3189e-05,-0.0053219,-4.6239e-05,-22.92,1.8598
5166,17.916,1.2727,0.1,0.00013438,1342.8,0.00013398,1331.4,-4.3226e-05,-0.0033301,-4.6218e-05,-22.484,1.8595
5167,17.916,1.0909,0.1,0.00013443,1343.4,0.00013404,1332.2,-4.3266e-05,-0.0010444,-4.62e-05,-22.045,1.8592
5168,17.916,0.90909,0.1,0.0001345,1344.1,0.00013412,1333.2,-4.331e-05,0.0014036,-4.6187e-05,-21.616,1.8589
5169,17.916,0.72727,0.1,0.00013458,1344.9,0.00013421,1334.2,-4.3358e-05,0.0045448,-4.6181e-05,-21.21,1.8585
5170,17.916,0.54545,0.1,0.00013468,1345.9,0.00013432,1335.4,-4.3408e-05,0.0062247,-4.6184e-05,-20.851,1.8581
5171,17.916,0.36364,0.1,0.00013482,1347.3,0.00013446,1336.8,-4.3462e-05,0.017264,-4.6215e-05,-20.667,1.8577
5172,17.916,0.18182,0.1,0.00013531,1352.2,0.00013491,1340.7,-4.3521e-05,-0.00072688,-4.6552e-05,-22.775,1.8572
5173,17.732,5.8182,0.1,0.00013965,1395.5,0.00013925,1384.2,-4.497e-05,-0.00068232,-4.7948e-05,-22.374,1.8277
5174,17.732,5.6364,0.1,0.00013915,1390.6,0.0001388,1380.4,-4.4914e-05,0.016574,-4.7607e-05,-20.223,1.8281
5175,17.732,5.4545,0.1,0.00013901,1389.2,0.00013866,1378.9,-4.4863e-05,0.0060434,-4.7569e-05,-20.331,1.8286
5176,17.732,5.2727,0.1,0.00013891,1388.1,0.00013855,1377.7,-4.4815e-05,0.0044513,-4.7558e-05,-20.611,1.829
5177,17.732,5.0909,0.1,0.00013882,1387.2,0.00013845,1376.7,-4.4769e-05,0.001445,-4.7556e-05,-20.936,1.8293
5178,17.732,4.9091,0.1,0.00013875,1386.5,0.00013837,1375.7,-4.4728e-05,-0.00091282,-4.7561e-05,-21.287,1.8297
5179,17.732,4.7273,0.1,0.00013868,1385.9,0.0001383,1374.9,-4.4689e-05,-0.0031207,-4.757e-05,-21.649,1.83
5180,17.732,4.5455,0.1,0.00013863,1385.4,0.00013824,1374.2,-4.4654e-05,-0.0050535,-4.7583e-05,-22.012,1.8303
5181,17.732,4.3636,0.1,0.00013859,1384.9,0.0001382,1373.6,-4.4623e-05,-0.0067471,-4.7599e-05,-22.365,1.8305
5182,17.732,4.1818,0.1,0.00013856,1384.6,0.00013816,1373.1,-4.4595e-05,-0.0082004,-4.7615e-05,-22.696,1.8307
5183,17.732,4,0.1,0.00013853,1384.3,0.00013812,1372.7,-4.4571e-05,-0.0094256,-4.7631e-05,-22.998,1.8309
5184,17.732,3.8182,0.1,0.00013851,1384.1,0.0001381,1372.3,-4.4551e-05,-0.010428,-4.7646e-05,-23.262,1.8311
5185,17.732,3.6364,0.1,0.00013849,1384,0.00013808,1372.1,-4.4535e-05,-0.011219,-4.7659e-05,-23.481,1.8312
5186,17.732,3.4545,0.1,0.00013848,1383.9,0.00013806,1371.9,-4.4523e-05,-0.011806,-4.7669e-05,-23.651,1.8313
5187,17.732,3.2727,0.1,0.00013847,1383.8,0.00013805,1371.7,-4.4515e-05,-0.012193,-4.7676e-05,-23.766,1.8314
5188,17.732,3.0909,0.1,0.00013847,1383.7,0.00013805,1371.7,-4.4511e-05,-0.012385,-4.768e-05,-23.825,1.8314
5189,17.732,2.9091,0.1,0.00013847,1383.7,0.00013805,1371.7,-4.4511e-05,-0.012386,-4.768e-05,-23.825,1.8314
5190,17.732,2.7273,0.1,0.00013847,1383.8,0.00013805,1371.7,-4.4515e-05,-0.012194,-4.7676e-05,-23.766,1.8314
5191,17.732,2.5455,0.1,0.00013848,1383.9,0.00013806,1371.9,-4.4523e-05,-0.011806,-4.7669e-05,-23.651,1.8313
5192,17.732,2.3636,0.1,0.00013849,1384,0.00013808,1372.1,-4.4535e-05,-0.011219,-4.7659e-05,-23.481,1.8312
5193,17.732,2.1818,0.1,0.00013851,1384.1,0.0001381,1372.3,-4.4551e-05,-0.01043,-4.7646e-05,-23.262,1.8311
5194,17.732,2,0.1,0.00013853,1384.3,0.00013812,1372.7,-4.4571e-05,-0.0094252,-4.7631e-05,-22.998,1.8309
5195,17.732,1.8182,0.1,0.00013856,1384.6,0.00013816,1373.1,-4.4595e-05,-0.0082,-4.7615e-05,-22.696,1.8307
5196,17.732,1.6364,0.1,0.00013859,1384.9,0.0001382,1373.6,-4.4623e-05,-0.006746,-4.7599e-05,-22.365,1.8305
5197,17.732,1.4545,0.1,0.00013863,1385.4,0.00013824,1374.2,-4.4654e-05,-0.005053,-4.7583e-05,-22.012,1.8303
5198,17.732,1.2727,0.1,0.00013868,1385.9,0.0001383,1374.9,-4.4689e-05,-0.0031195,-4.757e-05,-21.649,1.83
5199,17.732,1.0909,0.1,0.00013875,1386.5,0.00013837,1375.7,-4.4728e-05,-0.00091362,-4.7561e-05,-21.287,1.8297
5200,17.732,0.90909,0.1,0.00013882,1387.2,0.00013845,1376.7,-4.477e-05,0.0014446,-4.7556e-05,-20.936,1.8293
5201,17.732,0.72727,0.1,0.00013891,1388.1,0.00013855,1377.7,-4.4815e-05,0.0044472,-4.7558e-05,-20.611,1.829
5202,17.732,0.54545,0.1,0.00013901,1389.2,0.00013866,1378.9,-4.4863e-05,0.0060458,-4.7569e-05,-20.331,1.8286
5203,17.732,0.36364,0.1,0.00013915,1390.6,0.0001388,1380.4,-4.4914e-05,0.016576,-4.7607e-05,-20.223,1.8281
5204,17.732,0.18182,0.1,0.00013965,1395.5,0.00013925,1384.2,-4.497e-05,-0.00068414,-4.7948e-05,-22.374,1.8277
5205,17.547,5.8182,0.1,0.000144,1439,0.00014361,1427.8,-4.6426e-05,-0.00062535,-4.9351e-05,-21.982,1.7982
5206,17.547,5.6364,0.1,0.0001435,1434.1,0.00014316,1424.1,-4.6371e-05,0.015935,-4.9008e-05,-19.793,1.7987
5207,17.547,5.4545,0.1,0.00014336,1432.6,0.00014301,1422.6,-4.6323e-05,0.0058822,-4.8963e-05,-19.83,1.7991
5208,17.547,5.2727,0.1,0.00014325,1431.5,0.0001429,1421.4,-4.6277e-05,0.0043665,-4.8944e-05,-20.036,1.7995
5209,17.547,5.0909,0.1,0.00014316,1430.6,0.0001428,1420.4,-4.6234e-05,0.0014858,-4.8934e-05,-20.287,1.7999
5210,17.547,4.9091,0.1,0.00014308,1429.8,0.00014272,1419.4,-4.6194e-05,-0.0007847,-4.8931e-05,-20.564,1.8003
5211,17.547,4.7273,0.1,0.00014301,1429.1,0.00014265,1418.6,-4.6158e-05,-0.0029177,-4.8933e-05,-20.856,1.8006
5212,17.547,4.5455,0.1,0.00014296,1428.6,0.00014258,1417.9,-4.6124e-05,-0.0047928,-4.8939e-05,-21.152,1.8009
5213,17.547,4.3636,0.1,0.00014291,1428.1,0.00014253,1417.3,-4.6095e-05,-0.0064444,-4.8947e-05,-21.441,1.8011
5214,17.547,4.1818,0.1,0.00014287,1427.7,0.00014249,1416.7,-4.6068e-05,-0.0078637,-4.8957e-05,-21.716,1.8014
5215,17.547,4,0.1,0.00014284,1427.4,0.00014245,1416.3,-4.6046e-05,-0.0090651,-4.8968e-05,-21.967,1.8016
5216,17.547,3.8182,0.1,0.00014282,1427.2,0.00014242,1415.9,-4.6027e-05,-0.010052,-4.8978e-05,-22.188,1.8017
5217,17.547,3.6364,0.1,0.0001428,1427,0.0001424,1415.7,-4.6011e-05,-0.010829,-4.8987e-05,-22.371,1.8018
5218,17.547,3.4545,0.1,0.00014278,1426.8,0.00014239,1415.5,-4.6e-05,-0.011408,-4.8995e-05,-22.514,1.8019
5219,17.547,3.2727,0.1,0.00014277,1426.8,0.00014238,1415.3,-4.5992e-05,-0.011791,-4.9e-05,-22.611,1.802
5220,17.547,3.0909,0.1,0.00014277,1426.7,0.00014237,1415.2,-4.5988e-05,-0.011981,-4.9003e-05,-22.66,1.802
5221,17.547,2.9091,0.1,0.00014277,1426.7,0.00014237,1415.2,-4.5988e-05,-0.011981,-4.9003e-05,-22.66,1.802
5222,17.547,2.7273,0.1,0.00014277,1426.8,0.00014238,1415.3,-4.5992e-05,-0.01179,-4.9e-05,-22.611,1.802
5223,17.547,2.5455,0.1,0.00014278,1426.8,0.00014239,1415.5,-4.6e-05,-0.011409,-4.8995e-05,-22.514,1.8019
5224,17.547,2.3636,0.1,0.0001428,1427,0.0001424,1415.7,-4.6011e-05,-0.01083,-4.8987e-05,-22.371,1.8018
5225,17.547,2.1818,0.1,0.00014282,1427.2,0.00014242,1415.9,-4.6027e-05,-0.010052,-4.8978e-05,-22.187,1.8017
5226,17.547,2,0.1,0.00014284,1427.4,0.00014245,1416.3,-4.6046e-05,-0.0090661,-4.8968e-05,-21.967,1.8016
5227,17.547,1.8182,0.1,0.00014287,1427.7,0.00014249,1416.7,-4.6068e-05,-0.0078658,-4.8957e-05,-21.716,1.8014
5228,17.547,1.6364,0.1,0.00014291,1428.1,0.00014253,1417.3,-4.6095e-05,-0.0064431,-4.8947e-05,-21.441,1.8011
5229,17.547,1.4545,0.1,0.00014296,1428.6,0.00014258,1417.9,-4.6124e-05,-0.0047951,-4.8939e-05,-21.152,1.8009
5230,17.547,1.2727,0.1,0.00014301,1429.1,0.00014265,1418.6,-4.6158e-05,-0.0029188,-4.8933e-05,-20.856,1.8006
5231,17.547,1.0909,0.1,0.00014308,1429.8,0.00014272,1419.4,-4.6194e-05,-0.00078415,-4.8931e-05,-20.564,1.8003
5232,17.547,0.90909,0.1,0.00014316,1430.6,0.0001428,1420.4,-4.6234e-05,0.0014844,-4.8934e-05,-20.287,1.7999
5233,17.547,0.72727,0.1,0.00014325,1431.5,0.0001429,1421.4,-4.6277e-05,0.0043642,-4.8944e-05,-20.036,1.7995
5234,17.547,0.54545,0.1,0.00014336,1432.6,0.00014301,1422.6,-4.6323e-05,0.0058804,-4.8963e-05,-19.83,1.7991
5235,17.547,0.36364,0.1,0.0001435,1434.1,0.00014316,1424.1,-4.6371e-05,0.015936,-4.9008e-05,-19.793,1.7987
5236,17.547,0.18182,0.1,0.000144,1439,0.00014361,1427.8,-4.6426e-05,-0.00062374,-4.9351e-05,-21.982,1.7982
5237,17.363,5.8182,0.1,0.00014837,1482.6,0.00014799,1471.7,-4.7887e-05,-0.00056614,-5.0762e-05,-21.599,1.7688
5238,17.363,5.6364,0.1,0.00014788,1477.7,0.00014754,1468,-4.7835e-05,0.015327,-5.0416e-05,-19.376,1.7693
5239,17.363,5.4545,0.1,0.00014773,1476.3,0.00014739,1466.5,-4.7789e-05,0.0057245,-5.0364e-05,-19.346,1.7698
5240,17.363,5.2727,0.1,0.00014762,1475.1,0.00014728,1465.3,-4.7745e-05,0.0042796,-5.0338e-05,-19.483,1.7702
5241,17.363,5.0909,0.1,0.00014752,1474.2,0.00014718,1464.2,-4.7704e-05,0.0015184,-5.0321e-05,-19.665,1.7706
5242,17.363,4.9091,0.1,0.00014744,1473.3,0.00014709,1463.3,-4.7666e-05,-0.00066937,-5.0311e-05,-19.875,1.7709
5243,17.363,4.7273,0.1,0.00014736,1472.6,0.00014701,1462.5,-4.7631e-05,-0.0027335,-5.0306e-05,-20.1,1.7713
5244,17.363,4.5455,0.1,0.0001473,1472,0.00014695,1461.7,-4.76e-05,-0.004557,-5.0305e-05,-20.333,1.7716
5245,17.363,4.3636,0.1,0.00014725,1471.5,0.00014689,1461.1,-4.7571e-05,-0.0061647,-5.0307e-05,-20.565,1.7718
5246,17.363,4.1818,0.1,0.00014721,1471.1,0.00014684,1460.6,-4.7546e-05,-0.0075545,-5.0312e-05,-20.786,1.7721
5247,17.363,4,0.1,0.00014717,1470.7,0.00014681,1460.1,-4.7525e-05,-0.0087314,-5.0317e-05,-20.99,1.7723
5248,17.363,3.8182,0.1,0.00014715,1470.5,0.00014678,1459.7,-4.7507e-05,-0.0097004,-5.0323e-05,-21.17,1.7724
5249,17.363,3.6364,0.1,0.00014713,1470.2,0.00014675,1459.5,-4.7492e-05,-0.010467,-5.0329e-05,-21.321,1.7726
5250,17.363,3.4545,0.1,0.00014711,1470.1,0.00014673,1459.2,-4.7481e-05,-0.011038,-5.0333e-05,-21.438,1.7727
5251,17.363,3.2727,0.1,0.0001471,1470,0.00014672,1459.1,-4.7474e-05,-0.011416,-5.0337e-05,-21.518,1.7727
5252,17.363,3.0909,0.1,0.00014709,1469.9,0.00014672,1459,-4.7471e-05,-0.011604,-5.0338e-05,-21.559,1.7728
5253,17.363,2.9091,0.1,0.00014709,1469.9,0.00014672,1459,-4.7471e-05,-0.011604,-5.0338e-05,-21.559,1.7728
5254,17.363,2.7273,0.1,0.0001471,1470,0.00014672,1459.1,-4.7474e-05,-0.011416,-5.0337e-05,-21.518,1.7727
5255,17.363,2.5455,0.1,0.00014711,1470.1,0.00014673,1459.2,-4.7481e-05,-0.011039,-5.0333e-05,-21.438,1.7727
5256,17.363,2.3636,0.1,0.00014713,1470.2,0.00014675,1459.5,-4.7492e-05,-0.010467,-5.0329e-05,-21.321,1.7726
5257,17.363,2.1818,0.1,0.00014715,1470.5,0.00014678,1459.7,-4.7507e-05,-0.0096999,-5.0323e-05,-21.17,1.7724
5258,17.363,2,0.1,0.00014717,1470.7,0.00014681,1460.1,-4.7525e-05,-0.0087312,-5.0317e-05,-20.99,1.7723
5259,17.363,1.8182,0.1,0.00014721,1471.1,0.00014684,1460.6,-4.7546e-05,-0.0075541,-5.0312e-05,-20.786,1.7721
5260,17.363,1.6364,0.1,0.00014725,1471.5,0.00014689,1461.1,-4.7571e-05,-0.0061647,-5.0307e-05,-20.565,1.7718
5261,17.363,1.4545,0.1,0.0001473,1472,0.00014695,1461.7,-4.76e-05,-0.0045565,-5.0305e-05,-20.333,1.7716
5262,17.363,1.2727,0.1,0.00014736,1472.6,0.00014701,1462.5,-4.7631e-05,-0.0027322,-5.0306e-05,-20.1,1.7713
5263,17.363,1.0909,0.1,0.00014744,1473.3,0.00014709,1463.3,-4.7666e-05,-0.00067161,-5.0311e-05,-19.874,1.7709
5264,17.363,0.90909,0.1,0.00014752,1474.2,0.00014718,1464.2,-4.7704e-05,0.0015154,-5.0321e-05,-19.665,1.7706
5265,17.363,0.72727,0.1,0.00014762,1475.1,0.00014728,1465.3,-4.7745e-05,0.0042788,-5.0338e-05,-19.483,1.7702
5266,17.363,0.54545,0.1,0.00014773,1476.3,0.00014739,1466.5,-4.7789e-05,0.0057241,-5.0364e-05,-19.346,1.7698
5267,17.363,0.36364,0.1,0.00014788,1477.7,0.00014754,1468,-4.7835e-05,0.015329,-5.0416e-05,-19.376,1.7693
5268,17.363,0.18182,0.1,0.00014837,1482.6,0.00014799,1471.7,-4.7887e-05,-0.00056617,-5.0762e-05,-21.599,1.7688
5269,17.178,5.8182,0.1,0.00015276,1526.5,0.00015238,1515.8,-4.9354e-05,-0.0005162,-5.2179e-05,-21.224,1.7395
5270,17.178,5.6364,0.1,0.00015227,1521.6,0.00015194,1512.1,-4.9305e-05,0.014736,-5.1832e-05,-18.971,1.74
5271,17.178,5.4545,0.1,0.00015212,1520.1,0.00015179,1510.6,-4.926e-05,0.0055586,-5.1774e-05,-18.879,1.7405
5272,17.178,5.2727,0.1,0.000152,1519,0.00015167,1509.4,-4.9219e-05,0.0041805,-5.1741e-05,-18.951,1.7409
5273,17.178,5.0909,0.1,0.0001519,1518,0.00015157,1508.3,-4.918e-05,0.0015293,-5.1718e-05,-19.068,1.7413
5274,17.178,4.9091,0.1,0.00015181,1517.1,0.00015148,1507.4,-4.9143e-05,-0.00057963,-5.1701e-05,-19.214,1.7417
5275,17.178,4.7273,0.1,0.00015174,1516.3,0.0001514,1506.5,-4.911e-05,-0.0025773,-5.1689e-05,-19.378,1.7421
5276,17.178,4.5455,0.1,0.00015167,1515.7,0.00015133,1505.8,-4.908e-05,-0.0043484,-5.1682e-05,-19.553,1.7424
5277,17.178,4.3636,0.1,0.00015162,1515.1,0.00015127,1505.1,-4.9053e-05,-0.0059165,-5.1678e-05,-19.729,1.7426
5278,17.178,4.1818,0.1,0.00015157,1514.7,0.00015122,1504.6,-4.903e-05,-0.0072767,-5.1677e-05,-19.901,1.7429
5279,17.178,4,0.1,0.00015153,1514.3,0.00015118,1504.1,-4.9009e-05,-0.0084319,-5.1678e-05,-20.061,1.7431
5280,17.178,3.8182,0.1,0.0001515,1514,0.00015115,1503.8,-4.8992e-05,-0.009385,-5.168e-05,-20.203,1.7432
5281,17.178,3.6364,0.1,0.00015148,1513.7,0.00015112,1503.5,-4.8978e-05,-0.010142,-5.1682e-05,-20.323,1.7434
5282,17.178,3.4545,0.1,0.00015146,1513.6,0.0001511,1503.2,-4.8968e-05,-0.010705,-5.1684e-05,-20.417,1.7435
5283,17.178,3.2727,0.1,0.00015145,1513.4,0.00015109,1503.1,-4.8961e-05,-0.011078,-5.1685e-05,-20.481,1.7436
5284,17.178,3.0909,0.1,0.00015144,1513.4,0.00015108,1503,-4.8958e-05,-0.011264,-5.1686e-05,-20.513,1.7436
5285,17.178,2.9091,0.1,0.00015144,1513.4,0.00015108,1503,-4.8958e-05,-0.011265,-5.1686e-05,-20.513,1.7436
5286,17.178,2.7273,0.1,0.00015145,1513.4,0.00015109,1503.1,-4.8961e-05,-0.011078,-5.1685e-05,-20.481,1.7436
5287,17.178,2.5455,0.1,0.00015146,1513.6,0.0001511,1503.2,-4.8968e-05,-0.010705,-5.1684e-05,-20.417,1.7435
5288,17.178,2.3636,0.1,0.00015148,1513.7,0.00015112,1503.5,-4.8978e-05,-0.010141,-5.1682e-05,-20.323,1.7434
5289,17.178,2.1818,0.1,0.0001515,1514,0.00015115,1503.8,-4.8992e-05,-0.0093856,-5.168e-05,-20.203,1.7432
5290,17.178,2,0.1,0.00015153,1514.3,0.00015118,1504.1,-4.9009e-05,-0.0084324,-5.1678e-05,-20.061,1.7431
5291,17.178,1.8182,0.1,0.00015157,1514.7,0.00015122,1504.6,-4.903e-05,-0.0072769,-5.1677e-05,-19.901,1.7429
5292,17.178,1.6364,0.1,0.00015162,1515.1,0.00015127,1505.1,-4.9053e-05,-0.0059159,-5.1678e-05,-19.729,1.7426
5293,17.178,1.4545,0.1,0.00015167,1515.7,0.00015133,1505.8,-4.908e-05,-0.0043494,-5.1682e-05,-19.552,1.7424
5294,17.178,1.2727,0.1,0.00015174,1516.3,0.0001514,1506.5,-4.911e-05,-0.0025775,-5.1689e-05,-19.378,1.7421
5295,17.178,1.0909,0.1,0.00015181,1517.1,0.00015148,1507.4,-4.9143e-05,-0.0005805,-5.1701e-05,-19.214,1.7417
5296,17.178,0.90909,0.1,0.0001519,1518,0.00015157,1508.3,-4.918e-05,0.0015277,-5.1718e-05,-19.068,1.7413
5297,17.178,0.72727,0.1,0.000152,1519,0.00015167,1509.4,-4.9219e-05,0.0041792,-5.1741e-05,-18.951,1.7409
5298,17.178,0.54545,0.1,0.00015212,1520.1,0.00015179,1510.6,-4.926e-05,0.0055571,-5.1774e-05,-18.879,1.7405
5299,17.178,0.36364,0.1,0.00015227,1521.6,0.00015194,1512.1,-4.9305e-05,0.014738,-5.1832e-05,-18.971,1.74
5300,17.178,0.18182,0.1,0.00015276,1526.5,0.00015238,1515.8,-4.9354e-05,-0.00051577,-5.2179e-05,-21.224,1.7395
5301,16.994,5.8182,0.1,0.00015716,1570.6,0.0001568,1560,-5.0828e-05,-0.00044877,-5.3603e-05,-20.856,1.7103
5302,16.994,5.6364,0.1,0.00015668,1565.7,0.00015636,1556.4,-5.078e-05,0.014192,-5.3255e-05,-18.577,1.7109
5303,16.994,5.4545,0.1,0.00015653,1564.2,0.00015621,1554.9,-5.0738e-05,0.0054149,-5.3191e-05,-18.426,1.7113
5304,16.994,5.2727,0.1,0.00015641,1563,0.00015609,1553.7,-5.0698e-05,0.0040986,-5.3152e-05,-18.437,1.7118
5305,16.994,5.0909,0.1,0.0001563,1561.9,0.00015598,1552.6,-5.0661e-05,0.0015547,-5.3122e-05,-18.494,1.7122
5306,16.994,4.9091,0.1,0.00015621,1561,0.00015589,1551.7,-5.0626e-05,-0.000481,-5.3099e-05,-18.579,1.7126
5307,16.994,4.7273,0.1,0.00015613,1560.2,0.0001558,1550.8,-5.0595e-05,-0.0024143,-5.3081e-05,-18.685,1.7129
5308,16.994,4.5455,0.1,0.00015606,1559.5,0.00015573,1550,-5.0566e-05,-0.004137,-5.3068e-05,-18.805,1.7133
5309,16.994,4.3636,0.1,0.000156,1558.9,0.00015567,1549.4,-5.0541e-05,-0.0056667,-5.3059e-05,-18.93,1.7135
5310,16.994,4.1818,0.1,0.00015595,1558.5,0.00015562,1548.8,-5.0518e-05,-0.0069977,-5.3053e-05,-19.055,1.7138
5311,16.994,4,0.1,0.00015591,1558,0.00015558,1548.4,-5.0499e-05,-0.0081328,-5.305e-05,-19.174,1.714
5312,16.994,3.8182,0.1,0.00015588,1557.7,0.00015554,1548,-5.0483e-05,-0.0090707,-5.3047e-05,-19.281,1.7142
5313,16.994,3.6364,0.1,0.00015585,1557.4,0.00015551,1547.7,-5.047e-05,-0.0098188,-5.3046e-05,-19.372,1.7143
5314,16.994,3.4545,0.1,0.00015583,1557.3,0.00015549,1547.4,-5.046e-05,-0.010374,-5.3046e-05,-19.443,1.7144
5315,16.994,3.2727,0.1,0.00015582,1557.1,0.00015548,1547.3,-5.0453e-05,-0.010744,-5.3046e-05,-19.492,1.7145
5316,16.994,3.0909,0.1,0.00015581,1557.1,0.00015547,1547.2,-5.045e-05,-0.010928,-5.3046e-05,-19.517,1.7145
5317,16.994,2.9091,0.1,0.00015581,1557.1,0.00015547,1547.2,-5.045e-05,-0.010928,-5.3046e-05,-19.517,1.7145
5318,16.994,2.7273,0.1,0.00015582,1557.1,0.00015548,1547.3,-5.0453e-05,-0.010743,-5.3046e-05,-19.492,1.7145
5319,16.994,2.5455,0.1,0.00015583,1557.3,0.00015549,1547.4,-5.046e-05,-0.010374,-5.3046e-05,-19.443,1.7144
5320,16.994,2.3636,0.1,0.00015585,1557.4,0.00015551,1547.7,-5.047e-05,-0.0098172,-5.3046e-05,-19.372,1.7143
5321,16.994,2.1818,0.1,0.00015588,1557.7,0.00015554,1548,-5.0483e-05,-0.0090704,-5.3047e-05,-19.281,1.7142
5322,16.994,2,0.1,0.00015591,1558,0.00015558,1548.4,-5.0499e-05,-0.0081329,-5.305e-05,-19.174,1.714
5323,16.994,1.8182,0.1,0.00015595,1558.5,0.00015562,1548.8,-5.0518e-05,-0.0069995,-5.3053e-05,-19.055,1.7138
5324,16.994,1.6364,0.1,0.000156,1558.9,0.00015567,1549.4,-5.0541e-05,-0.0056663,-5.3059e-05,-18.93,1.7135
5325,16.994,1.4545,0.1,0.00015606,1559.5,0.00015573,1550,-5.0566e-05,-0.0041361,-5.3068e-05,-18.805,1.7133
5326,16.994,1.2727,0.1,0.00015613,1560.2,0.0001558,1550.8,-5.0595e-05,-0.0024144,-5.3081e-05,-18.685,1.7129
5327,16.994,1.0909,0.1,0.00015621,1561,0.00015589,1551.7,-5.0626e-05,-0.0004814,-5.3099e-05,-18.579,1.7126
5328,16.994,0.90909,0.1,0.0001563,1561.9,0.00015598,1552.6,-5.0661e-05,0.0015534,-5.3122e-05,-18.493,1.7122
5329,16.994,0.72727,0.1,0.00015641,1563,0.00015609,1553.7,-5.0698e-05,0.0040988,-5.3152e-05,-18.437,1.7118
5330,16.994,0.54545,0.1,0.00015653,1564.2,0.00015621,1554.9,-5.0738e-05,0.0054139,-5.3191e-05,-18.426,1.7113
5331,16.994,0.36364,0.1,0.00015668,1565.7,0.00015636,1556.4,-5.078e-05,0.014191,-5.3255e-05,-18.577,1.7109
5332,16.994,0.18182,0.1,0.00015716,1570.6,0.0001568,1560,-5.0828e-05,-0.0004474,-5.3603e-05,-20.856,1.7103
5333,16.81,5.8182,0.1,0.00016159,1614.8,0.00016123,1604.5,-5.2307e-05,-0.00037275,-5.5035e-05,-20.497,1.6813
5334,16.81,5.6364,0.1,0.00016111,1610,0.00016079,1600.8,-5.2262e-05,0.013675,-5.4685e-05,-18.193,1.6818
5335,16.81,5.4545,0.1,0.00016096,1608.4,0.00016064,1599.4,-5.2222e-05,0.0052817,-5.4616e-05,-17.986,1.6823
5336,16.81,5.2727,0.1,0.00016083,1607.2,0.00016052,1598.2,-5.2183e-05,0.0040239,-5.4572e-05,-17.94,1.6828
5337,16.81,5.0909,0.1,0.00016072,1606.1,0.00016041,1597.1,-5.2148e-05,0.00158,-5.4536e-05,-17.938,1.6832
5338,16.81,4.9091,0.1,0.00016063,1605.2,0.00016032,1596.1,-5.2115e-05,-0.00038337,-5.4506e-05,-17.966,1.6836
5339,16.81,4.7273,0.1,0.00016055,1604.3,0.00016023,1595.3,-5.2085e-05,-0.0022564,-5.4483e-05,-18.018,1.6839
5340,16.81,4.5455,0.1,0.00016047,1603.6,0.00016016,1594.5,-5.2058e-05,-0.0039334,-5.4465e-05,-18.085,1.6843
5341,16.81,4.3636,0.1,0.00016041,1603,0.00016009,1593.8,-5.2034e-05,-0.0054258,-5.445e-05,-18.163,1.6846
5342,16.81,4.1818,0.1,0.00016036,1602.5,0.00016004,1593.3,-5.2012e-05,-0.0067315,-5.444e-05,-18.244,1.6848
5343,16.81,4,0.1,0.00016031,1602,0.00015999,1592.8,-5.1994e-05,-0.0078451,-5.4432e-05,-18.323,1.685
5344,16.81,3.8182,0.1,0.00016028,1601.7,0.00015996,1592.4,-5.1979e-05,-0.0087703,-5.4426e-05,-18.397,1.6852
5345,16.81,3.6364,0.1,0.00016025,1601.4,0.00015993,1592.1,-5.1966e-05,-0.0095062,-5.4422e-05,-18.461,1.6853
5346,16.81,3.4545,0.1,0.00016023,1601.2,0.00015991,1591.8,-5.1957e-05,-0.010057,-5.4419e-05,-18.512,1.6854
5347,16.81,3.2727,0.1,0.00016022,1601.1,0.00015989,1591.7,-5.1951e-05,-0.010423,-5.4418e-05,-18.547,1.6855
5348,16.81,3.0909,0.1,0.00016021,1601,0.00015988,1591.6,-5.1948e-05,-0.010605,-5.4417e-05,-18.565,1.6856
5349,16.81,2.9091,0.1,0.00016021,1601,0.00015988,1591.6,-5.1948e-05,-0.010605,-5.4417e-05,-18.565,1.6856
5350,16.81,2.7273,0.1,0.00016022,1601.1,0.00015989,1591.7,-5.1951e-05,-0.010423,-5.4418e-05,-18.547,1.6855
5351,16.81,2.5455,0.1,0.00016023,1601.2,0.00015991,1591.8,-5.1957e-05,-0.010057,-5.4419e-05,-18.511,1.6854
5352,16.81,2.3636,0.1,0.00016025,1601.4,0.00015993,1592.1,-5.1966e-05,-0.0095067,-5.4422e-05,-18.461,1.6853
5353,16.81,2.1818,0.1,0.00016028,1601.7,0.00015996,1592.4,-5.1979e-05,-0.0087709,-5.4426e-05,-18.397,1.6852
5354,16.81,2,0.1,0.00016031,1602,0.00015999,1592.8,-5.1994e-05,-0.0078452,-5.4432e-05,-18.323,1.685
5355,16.81,1.8182,0.1,0.00016036,1602.5,0.00016004,1593.3,-5.2012e-05,-0.0067305,-5.444e-05,-18.244,1.6848
5356,16.81,1.6364,0.1,0.00016041,1603,0.00016009,1593.8,-5.2034e-05,-0.005427,-5.445e-05,-18.163,1.6846
5357,16.81,1.4545,0.1,0.00016047,1603.6,0.00016016,1594.5,-5.2058e-05,-0.0039332,-5.4465e-05,-18.085,1.6843
5358,16.81,1.2727,0.1,0.00016055,1604.3,0.00016023,1595.3,-5.2085e-05,-0.0022577,-5.4483e-05,-18.018,1.6839
5359,16.81,1.0909,0.1,0.00016063,1605.2,0.00016032,1596.1,-5.2115e-05,-0.00038434,-5.4506e-05,-17.966,1.6836
5360,16.81,0.90909,0.1,0.00016072,1606.1,0.00016041,1597.1,-5.2148e-05,0.0015794,-5.4536e-05,-17.938,1.6832
5361,16.81,0.72727,0.1,0.00016083,1607.2,0.00016052,1598.2,-5.2183e-05,0.0040223,-5.4572e-05,-17.94,1.6828
5362,16.81,0.54545,0.1,0.00016096,1608.4,0.00016064,1599.4,-5.2222e-05,0.0052832,-5.4616e-05,-17.986,1.6823
5363,16.81,0.36364,0.1,0.00016111,1610,0.00016079,1600.8,-5.2262e-05,0.013675,-5.4685e-05,-18.193,1.6818
5364,16.81,0.18182,0.1,0.00016159,1614.8,0.00016123,1604.5,-5.2307e-05,-0.00037182,-5.5035e-05,-20.497,1.6813
5365,16.625,5.8182,0.1,0.00016604,1659.3,0.00016569,1649.1,-5.3793e-05,-0.00029973,-5.6474e-05,-20.144,1.6523
5366,16.625,5.6364,0.1,0.00016556,1654.5,0.00016525,1645.5,-5.375e-05,0.01317,-5.6123e-05,-17.817,1.6528
5367,16.625,5.4545,0.1,0.00016541,1652.9,0.0001651,1644.1,-5.3711e-05,0.0051456,-5.6049e-05,-17.558,1.6534
5368,16.625,5.2727,0.1,0.00016528,1651.6,0.00016498,1642.9,-5.3675e-05,0.0039411,-5.5999e-05,-17.456,1.6538
5369,16.625,5.0909,0.1,0.00016517,1650.5,0.00016486,1641.8,-5.3641e-05,0.0015938,-5.5957e-05,-17.399,1.6543
5370,16.625,4.9091,0.1,0.00016507,1649.5,0.00016477,1640.8,-5.361e-05,-0.00030127,-5.5922e-05,-17.373,1.6547
5371,16.625,4.7273,0.1,0.00016498,1648.7,0.00016468,1639.9,-5.3581e-05,-0.0021178,-5.5893e-05,-17.373,1.655
5372,16.625,4.5455,0.1,0.00016491,1647.9,0.0001646,1639.2,-5.3555e-05,-0.003746,-5.587e-05,-17.391,1.6554
5373,16.625,4.3636,0.1,0.00016484,1647.3,0.00016454,1638.5,-5.3532e-05,-0.0052052,-5.585e-05,-17.422,1.6557
5374,16.625,4.1818,0.1,0.00016478,1646.7,0.00016448,1637.9,-5.3512e-05,-0.0064839,-5.5835e-05,-17.462,1.6559
5375,16.625,4,0.1,0.00016474,1646.2,0.00016443,1637.4,-5.3495e-05,-0.0075795,-5.5823e-05,-17.505,1.6561
5376,16.625,3.8182,0.1,0.0001647,1645.9,0.00016439,1637,-5.348e-05,-0.008491,-5.5814e-05,-17.547,1.6563
5377,16.625,3.6364,0.1,0.00016467,1645.6,0.00016436,1636.7,-5.3468e-05,-0.0092192,-5.5807e-05,-17.584,1.6565
5378,16.625,3.4545,0.1,0.00016465,1645.3,0.00016434,1636.5,-5.346e-05,-0.0097643,-5.5803e-05,-17.615,1.6566
5379,16.625,3.2727,0.1,0.00016463,1645.2,0.00016433,1636.3,-5.3454e-05,-0.010127,-5.58e-05,-17.637,1.6567
5380,16.625,3.0909,0.1,0.00016463,1645.1,0.00016432,1636.2,-5.3451e-05,-0.010308,-5.5798e-05,-17.649,1.6567
5381,16.625,2.9091,0.1,0.00016463,1645.1,0.00016432,1636.2,-5.3451e-05,-0.010307,-5.5798e-05,-17.649,1.6567
5382,16.625,2.7273,0.1,0.00016463,1645.2,0.00016433,1636.3,-5.3454e-05,-0.010127,-5.58e-05,-17.637,1.6567
5383,16.625,2.5455,0.1,0.00016465,1645.3,0.00016434,1636.5,-5.346e-05,-0.0097645,-5.5803e-05,-17.615,1.6566
5384,16.625,2.3636,0.1,0.00016467,1645.6,0.00016436,1636.7,-5.3468e-05,-0.0092192,-5.5807e-05,-17.584,1.6565
5385,16.625,2.1818,0.1,0.0001647,1645.9,0.00016439,1637,-5.348e-05,-0.0084906,-5.5814e-05,-17.547,1.6563
5386,16.625,2,0.1,0.00016474,1646.2,0.00016443,1637.4,-5.3495e-05,-0.007581,-5.5823e-05,-17.504,1.6561
5387,16.625,1.8182,0.1,0.00016478,1646.7,0.00016448,1637.9,-5.3512e-05,-0.0064837,-5.5835e-05,-17.462,1.6559
5388,16.625,1.6364,0.1,0.00016484,1647.3,0.00016454,1638.5,-5.3532e-05,-0.0052064,-5.585e-05,-17.422,1.6557
5389,16.625,1.4545,0.1,0.00016491,1647.9,0.0001646,1639.2,-5.3555e-05,-0.0037465,-5.587e-05,-17.391,1.6554
5390,16.625,1.2727,0.1,0.00016498,1648.7,0.00016468,1639.9,-5.3581e-05,-0.0021165,-5.5893e-05,-17.373,1.655
5391,16.625,1.0909,0.1,0.00016507,1649.5,0.00016477,1640.8,-5.361e-05,-0.00030258,-5.5922e-05,-17.373,1.6547
5392,16.625,0.90909,0.1,0.00016517,1650.5,0.00016486,1641.8,-5.3641e-05,0.0015919,-5.5957e-05,-17.399,1.6543
5393,16.625,0.72727,0.1,0.00016528,1651.6,0.00016498,1642.9,-5.3675e-05,0.00394,-5.5999e-05,-17.456,1.6538
5394,16.625,0.54545,0.1,0.00016541,1652.9,0.0001651,1644.1,-5.3711e-05,0.0051445,-5.6049e-05,-17.558,1.6534
5395,16.625,0.36364,0.1,0.00016556,1654.5,0.00016525,1645.5,-5.375e-05,0.013172,-5.6123e-05,-17.817,1.6528
5396,16.625,0.18182,0.1,0.00016604,1659.3,0.00016569,1649.1,-5.3793e-05,-0.00029986,-5.6474e-05,-20.144,1.6523
5397,16.441,5.8182,0.1,0.00017051,1703.9,0.00017017,1694,-5.5285e-05,-0.00022195,-5.792e-05,-19.797,1.6234
5398,16.441,5.6364,0.1,0.00017003,1699.2,0.00016973,1690.4,-5.5244e-05,0.012689,-5.7568e-05,-17.45,1.624
5399,16.441,5.4545,0.1,0.00016987,1697.6,0.00016958,1688.9,-5.5207e-05,0.0050151,-5.7489e-05,-17.139,1.6245
5400,16.441,5.2727,0.1,0.00016975,1696.3,0.00016945,1687.7,-5.5172e-05,0.003864,-5.7433e-05,-16.984,1.625
5401,16.441,5.0909,0.1,0.00016963,1695.1,0.00016934,1686.6,-5.514e-05,0.0016087,-5.7386e-05,-16.874,1.6255
5402,16.441,4.9091,0.1,0.00016953,1694.1,0.00016924,1685.7,-5.511e-05,-0.00022068,-5.7346e-05,-16.797,1.6259
5403,16.441,4.7273,0.1,0.00016944,1693.2,0.00016915,1684.8,-5.5083e-05,-0.0019797,-5.7312e-05,-16.746,1.6263
5404,16.441,4.5455,0.1,0.00016936,1692.4,0.00016907,1684,-5.5059e-05,-0.0035656,-5.7283e-05,-16.717,1.6266
5405,16.441,4.3636,0.1,0.00016929,1691.7,0.000169,1683.3,-5.5037e-05,-0.0049908,-5.726e-05,-16.705,1.6269
5406,16.441,4.1818,0.1,0.00016923,1691.2,0.00016894,1682.7,-5.5018e-05,-0.0062449,-5.724e-05,-16.705,1.6272
5407,16.441,4,0.1,0.00016918,1690.7,0.00016889,1682.2,-5.5001e-05,-0.0073227,-5.7224e-05,-16.712,1.6274
5408,16.441,3.8182,0.1,0.00016914,1690.3,0.00016885,1681.8,-5.4987e-05,-0.0082217,-5.7212e-05,-16.724,1.6276
5409,16.441,3.6364,0.1,0.00016911,1689.9,0.00016882,1681.5,-5.4976e-05,-0.0089413,-5.7203e-05,-16.737,1.6277
5410,16.441,3.4545,0.1,0.00016909,1689.7,0.0001688,1681.3,-5.4968e-05,-0.0094829,-5.7196e-05,-16.749,1.6278
5411,16.441,3.2727,0.1,0.00016907,1689.6,0.00016878,1681.1,-5.4962e-05,-0.0098408,-5.7191e-05,-16.758,1.6279
5412,16.441,3.0909,0.1,0.00016906,1689.5,0.00016877,1681,-5.496e-05,-0.010022,-5.7189e-05,-16.763,1.628
5413,16.441,2.9091,0.1,0.00016906,1689.5,0.00016877,1681,-5.496e-05,-0.010021,-5.7189e-05,-16.763,1.628
5414,16.441,2.7273,0.1,0.00016907,1689.6,0.00016878,1681.1,-5.4962e-05,-0.0098422,-5.7191e-05,-16.758,1.6279
5415,16.441,2.5455,0.1,0.00016909,1689.7,0.0001688,1681.3,-5.4968e-05,-0.0094823,-5.7196e-05,-16.749,1.6278
5416,16.441,2.3636,0.1,0.00016911,1689.9,0.00016882,1681.5,-5.4976e-05,-0.0089426,-5.7203e-05,-16.737,1.6277
5417,16.441,2.1818,0.1,0.00016914,1690.3,0.00016885,1681.8,-5.4987e-05,-0.0082216,-5.7212e-05,-16.724,1.6276
5418,16.441,2,0.1,0.00016918,1690.7,0.00016889,1682.2,-5.5001e-05,-0.0073224,-5.7224e-05,-16.712,1.6274
5419,16.441,1.8182,0.1,0.00016923,1691.2,0.00016894,1682.7,-5.5018e-05,-0.0062451,-5.724e-05,-16.704,1.6272
5420,16.441,1.6364,0.1,0.00016929,1691.7,0.000169,1683.3,-5.5037e-05,-0.0049918,-5.726e-05,-16.705,1.6269
5421,16.441,1.4545,0.1,0.00016936,1692.4,0.00016907,1684,-5.5059e-05,-0.0035667,-5.7283e-05,-16.717,1.6266
5422,16.441,1.2727,0.1,0.00016944,1693.2,0.00016915,1684.8,-5.5083e-05,-0.0019803,-5.7312e-05,-16.746,1.6263
5423,16.441,1.0909,0.1,0.00016953,1694.1,0.00016924,1685.7,-5.511e-05,-0.00022079,-5.7346e-05,-16.797,1.6259
5424,16.441,0.90909,0.1,0.00016963,1695.1,0.00016934,1686.6,-5.514e-05,0.0016081,-5.7386e-05,-16.874,1.6255
5425,16.441,0.72727,0.1,0.00016975,1696.3,0.00016945,1687.7,-5.5172e-05,0.0038624,-5.7433e-05,-16.984,1.625
5426,16.441,0.54545,0.1,0.00016987,1697.6,0.00016958,1688.9,-5.5207e-05,0.005014,-5.7489e-05,-17.139,1.6245
5427,16.441,0.36364,0.1,0.00017003,1699.2,0.00016973,1690.4,-5.5244e-05,0.012691,-5.7568e-05,-17.45,1.624
5428,16.441,0.18182,0.1,0.00017051,1703.9,0.00017017,1694,-5.5285e-05,-0.00022164,-5.792e-05,-19.797,1.6234
5429,16.257,5.8182,0.1,0.000175,1748.8,0.00017466,1739,-5.6784e-05,-0.00014528,-5.9373e-05,-19.456,1.5947
5430,16.257,5.6364,0.1,0.00017453,1744.1,0.00017423,1735.5,-5.6744e-05,0.012219,-5.902e-05,-17.089,1.5953
5431,16.257,5.4545,0.1,0.00017436,1742.4,0.00017407,1734,-5.6709e-05,0.004886,-5.8936e-05,-16.728,1.5958
5432,16.257,5.2727,0.1,0.00017423,1741.1,0.00017395,1732.8,-5.6676e-05,0.0037838,-5.8875e-05,-16.522,1.5963
5433,16.257,5.0909,0.1,0.00017411,1739.9,0.00017383,1731.7,-5.6645e-05,0.001618,-5.8823e-05,-16.361,1.5968
5434,16.257,4.9091,0.1,0.00017401,1738.9,0.00017373,1730.7,-5.6617e-05,-0.0001469,-5.8778e-05,-16.234,1.5972
5435,16.257,4.7273,0.1,0.00017392,1738,0.00017364,1729.8,-5.6591e-05,-0.0018523,-5.8739e-05,-16.135,1.5976
5436,16.257,4.5455,0.1,0.00017383,1737.1,0.00017356,1729.1,-5.6568e-05,-0.0033967,-5.8705e-05,-16.061,1.5979
5437,16.257,4.3636,0.1,0.00017376,1736.4,0.00017348,1728.4,-5.6547e-05,-0.0047877,-5.8677e-05,-16.006,1.5982
5438,16.257,4.1818,0.1,0.0001737,1735.8,0.00017342,1727.8,-5.6529e-05,-0.0060194,-5.8654e-05,-15.967,1.5985
5439,16.257,4,0.1,0.00017365,1735.3,0.00017337,1727.3,-5.6514e-05,-0.0070799,-5.8634e-05,-15.941,1.5987
5440,16.257,3.8182,0.1,0.00017361,1734.9,0.00017333,1726.9,-5.65e-05,-0.0079674,-5.8619e-05,-15.924,1.5989
5441,16.257,3.6364,0.1,0.00017357,1734.5,0.0001733,1726.5,-5.649e-05,-0.0086809,-5.8607e-05,-15.914,1.5991
5442,16.257,3.4545,0.1,0.00017355,1734.3,0.00017327,1726.3,-5.6482e-05,-0.009216,-5.8598e-05,-15.908,1.5992
5443,16.257,3.2727,0.1,0.00017353,1734.1,0.00017326,1726.1,-5.6477e-05,-0.0095733,-5.8592e-05,-15.905,1.5993
5444,16.257,3.0909,0.1,0.00017352,1734,0.00017325,1726,-5.6474e-05,-0.0097522,-5.859e-05,-15.903,1.5993
5445,16.257,2.9091,0.1,0.00017352,1734,0.00017325,1726,-5.6474e-05,-0.009752,-5.859e-05,-15.903,1.5993
5446,16.257,2.7273,0.1,0.00017353,1734.1,0.00017326,1726.1,-5.6477e-05,-0.0095724,-5.8592e-05,-15.905,1.5993
5447,16.257,2.5455,0.1,0.00017355,1734.3,0.00017327,1726.3,-5.6482e-05,-0.0092161,-5.8598e-05,-15.908,1.5992
5448,16.257,2.3636,0.1,0.00017357,1734.5,0.0001733,1726.5,-5.649e-05,-0.0086799,-5.8607e-05,-15.913,1.5991
5449,16.257,2.1818,0.1,0.00017361,1734.9,0.00017333,1726.9,-5.65e-05,-0.0079691,-5.8619e-05,-15.924,1.5989
5450,16.257,2,0.1,0.00017365,1735.3,0.00017337,1727.3,-5.6514e-05,-0.0070801,-5.8634e-05,-15.941,1.5987
5451,16.257,1.8182,0.1,0.0001737,1735.8,0.00017342,1727.8,-5.6529e-05,-0.0060191,-5.8654e-05,-15.967,1.5985
5452,16.257,1.6364,0.1,0.00017376,1736.4,0.00017348,1728.4,-5.6547e-05,-0.0047892,-5.8677e-05,-16.006,1.5982
5453,16.257,1.4545,0.1,0.00017383,1737.1,0.00017356,1729.1,-5.6568e-05,-0.0033956,-5.8705e-05,-16.061,1.5979
5454,16.257,1.2727,0.1,0.00017392,1738,0.00017364,1729.8,-5.6591e-05,-0.0018523,-5.8739e-05,-16.135,1.5976
5455,16.257,1.0909,0.1,0.00017401,1738.9,0.00017373,1730.7,-5.6617e-05,-0.0001483,-5.8778e-05,-16.234,1.5972
5456,16.257,0.90909,0.1,0.00017411,1739.9,0.00017383,1731.7,-5.6645e-05,0.0016173,-5.8823e-05,-16.361,1.5968
5457,16.257,0.72727,0.1,0.00017423,1741.1,0.00017395,1732.8,-5.6676e-05,0.0037821,-5.8875e-05,-16.522,1.5963
5458,16.257,0.54545,0.1,0.00017436,1742.4,0.00017407,1734,-5.6709e-05,0.004885,-5.8936e-05,-16.728,1.5958
5459,16.257,0.36364,0.1,0.00017453,1744.1,0.00017423,1735.5,-5.6744e-05,0.01222,-5.902e-05,-17.089,1.5953
5460,16.257,0.18182,0.1,0.000175,1748.8,0.00017466,1739,-5.6784e-05,-0.00014396,-5.9373e-05,-19.456,1.5947
5461,16.072,5.8182,0.1,0.00017951,1793.9,0.00017918,1784.2,-5.8289e-05,-5.5281e-05,-6.0833e-05,-19.121,1.5661
5462,16.072,5.6364,0.1,0.00017904,1789.1,0.00017875,1780.7,-5.8251e-05,0.011772,-6.0479e-05,-16.734,1.5667
5463,16.072,5.4545,0.1,0.00017887,1787.5,0.00017859,1779.3,-5.8217e-05,0.0047681,-6.0391e-05,-16.325,1.5672
5464,16.072,5.2727,0.1,0.00017874,1786.2,0.00017846,1778.1,-5.8186e-05,0.0037136,-6.0325e-05,-16.068,1.5677
5465,16.072,5.0909,0.1,0.00017862,1785,0.00017834,1777,-5.8157e-05,0.0016354,-6.0268e-05,-15.857,1.5682
5466,16.072,4.9091,0.1,0.00017851,1783.9,0.00017824,1776,-5.813e-05,-6.8519e-05,-6.0217e-05,-15.681,1.5686
5467,16.072,4.7273,0.1,0.00017841,1782.9,0.00017815,1775.1,-5.8106e-05,-0.0017202,-6.0173e-05,-15.536,1.569
5468,16.072,4.5455,0.1,0.00017833,1782.1,0.00017806,1774.3,-5.8084e-05,-0.003222,-6.0135e-05,-15.417,1.5694
5469,16.072,4.3636,0.1,0.00017826,1781.3,0.00017799,1773.6,-5.8064e-05,-0.004584,-6.0103e-05,-15.322,1.5697
5470,16.072,4.1818,0.1,0.00017819,1780.7,0.00017793,1773,-5.8047e-05,-0.0057914,-6.0075e-05,-15.246,1.57
5471,16.072,4,0.1,0.00017814,1780.1,0.00017787,1772.5,-5.8032e-05,-0.0068364,-6.0052e-05,-15.187,1.5702
5472,16.072,3.8182,0.1,0.00017809,1779.7,0.00017783,1772.1,-5.802e-05,-0.0077138,-6.0034e-05,-15.142,1.5704
5473,16.072,3.6364,0.1,0.00017806,1779.3,0.0001778,1771.7,-5.801e-05,-0.0084201,-6.0019e-05,-15.108,1.5706
5474,16.072,3.4545,0.1,0.00017803,1779.1,0.00017777,1771.5,-5.8002e-05,-0.0089531,-6.0009e-05,-15.085,1.5707
5475,16.072,3.2727,0.1,0.00017801,1778.9,0.00017775,1771.3,-5.7997e-05,-0.009308,-6.0002e-05,-15.07,1.5708
5476,16.072,3.0909,0.1,0.00017801,1778.8,0.00017774,1771.2,-5.7995e-05,-0.0094845,-5.9998e-05,-15.063,1.5708
5477,16.072,2.9091,0.1,0.00017801,1778.8,0.00017774,1771.2,-5.7995e-05,-0.0094851,-5.9998e-05,-15.063,1.5708
5478,16.072,2.7273,0.1,0.00017801,1778.9,0.00017775,1771.3,-5.7997e-05,-0.0093084,-6.0002e-05,-15.07,1.5708
5479,16.072,2.5455,0.1,0.00017803,1779.1,0.00017777,1771.5,-5.8002e-05,-0.0089522,-6.0009e-05,-15.085,1.5707
5480,16.072,2.3636,0.1,0.00017806,1779.3,0.0001778,1771.7,-5.801e-05,-0.0084207,-6.0019e-05,-15.108,1.5706
5481,16.072,2.1818,0.1,0.00017809,1779.7,0.00017783,1772.1,-5.802e-05,-0.0077138,-6.0034e-05,-15.142,1.5704
5482,16.072,2,0.1,0.00017814,1780.1,0.00017787,1772.5,-5.8032e-05,-0.0068374,-6.0052e-05,-15.187,1.5702
5483,16.072,1.8182,0.1,0.00017819,1780.7,0.00017793,1773,-5.8047e-05,-0.0057909,-6.0075e-05,-15.246,1.57
5484,16.072,1.6364,0.1,0.00017826,1781.3,0.00017799,1773.6,-5.8064e-05,-0.0045835,-6.0103e-05,-15.322,1.5697
5485,16.072,1.4545,0.1,0.00017833,1782.1,0.00017806,1774.3,-5.8084e-05,-0.0032225,-6.0135e-05,-15.417,1.5694
5486,16.072,1.2727,0.1,0.00017841,1782.9,0.00017815,1775.1,-5.8106e-05,-0.0017204,-6.0173e-05,-15.536,1.569
5487,16.072,1.0909,0.1,0.00017851,1783.9,0.00017824,1776,-5.813e-05,-6.9003e-05,-6.0217e-05,-15.681,1.5686
5488,16.072,0.90909,0.1,0.00017862,1785,0.00017834,1777,-5.8157e-05,0.0016342,-6.0268e-05,-15.857,1.5682
5489,16.072,0.72727,0.1,0.00017874,1786.2,0.00017846,1778.1,-5.8186e-05,0.0037127,-6.0325e-05,-16.068,1.5677
5490,16.072,0.54545,0.1,0.00017887,1787.5,0.00017859,1779.3,-5.8217e-05,0.0047682,-6.0391e-05,-16.325,1.5672
5491,16.072,0.36364,0.1,0.00017904,1789.1,0.00017875,1780.7,-5.8251e-05,0.011771,-6.0479e-05,-16.734,1.5667
5492,16.072,0.18182,0.1,0.00017951,1793.9,0.00017918,1784.2,-5.8289e-05,-5.4982e-05,-6.0833e-05,-19.121,1.5661
5493,15.888,5.8182,0.1,0.00018404,1839.1,0.00018371,1829.7,-5.98e-05,3.1438e-05,-6.2301e-05,-18.79,1.5376
5494,15.888,5.6364,0.1,0.00018357,1834.4,0.00018329,1826.2,-5.9764e-05,0.011325,-6.1946e-05,-16.383,1.5382
5495,15.888,5.4545,0.1,0.0001834,1832.8,0.00018313,1824.8,-5.9732e-05,0.004648,-6.1852e-05,-15.926,1.5387
5496,15.888,5.2727,0.1,0.00018327,1831.4,0.000183,1823.5,-5.9702e-05,0.0036398,-6.1782e-05,-15.62,1.5393
5497,15.888,5.0909,0.1,0.00018314,1830.2,0.00018288,1822.4,-5.9675e-05,0.0016455,-6.1719e-05,-15.36,1.5398
5498,15.888,4.9091,0.1,0.00018303,1829.1,0.00018277,1821.4,-5.9649e-05,2.6681e-06,-6.1664e-05,-15.137,1.5402
5499,15.888,4.7273,0.1,0.00018293,1828.1,0.00018267,1820.5,-5.9626e-05,-0.0015964,-6.1615e-05,-14.945,1.5406
5500,15.888,4.5455,0.1,0.00018285,1827.2,0.00018259,1819.8,-5.9605e-05,-0.0030586,-6.1573e-05,-14.784,1.541
5501,15.888,4.3636,0.1,0.00018277,1826.4,0.00018251,1819.1,-5.9587e-05,-0.0043901,-6.1536e-05,-14.648,1.5413
5502,15.888,4.1818,0.1,0.0001827,1825.8,0.00018245,1818.4,-5.9571e-05,-0.005575,-6.1504e-05,-14.536,1.5416
5503,15.888,4,0.1,0.00018265,1825.2,0.0001824,1817.9,-5.9557e-05,-0.0066065,-6.1478e-05,-14.445,1.5418
5504,15.888,3.8182,0.1,0.0001826,1824.7,0.00018235,1817.5,-5.9545e-05,-0.0074739,-6.1457e-05,-14.372,1.542
5505,15.888,3.6364,0.1,0.00018256,1824.4,0.00018231,1817.2,-5.9536e-05,-0.0081745,-6.144e-05,-14.316,1.5422
5506,15.888,3.4545,0.1,0.00018254,1824.1,0.00018229,1816.9,-5.9529e-05,-0.0087049,-6.1428e-05,-14.276,1.5423
5507,15.888,3.2727,0.1,0.00018252,1823.9,0.00018227,1816.7,-5.9524e-05,-0.0090568,-6.1419e-05,-14.25,1.5424
5508,15.888,3.0909,0.1,0.00018251,1823.8,0.00018226,1816.7,-5.9522e-05,-0.0092352,-6.1415e-05,-14.237,1.5424
5509,15.888,2.9091,0.1,0.00018251,1823.8,0.00018226,1816.7,-5.9522e-05,-0.0092347,-6.1415e-05,-14.237,1.5424
5510,15.888,2.7273,0.1,0.00018252,1823.9,0.00018227,1816.7,-5.9524e-05,-0.0090578,-6.1419e-05,-14.25,1.5424
5511,15.888,2.5455,0.1,0.00018254,1824.1,0.00018229,1816.9,-5.9529e-05,-0.008704,-6.1428e-05,-14.276,1.5423
5512,15.888,2.3636,0.1,0.00018256,1824.4,0.00018231,1817.2,-5.9536e-05,-0.0081742,-6.144e-05,-14.316,1.5422
5513,15.888,2.1818,0.1,0.0001826,1824.7,0.00018235,1817.5,-5.9545e-05,-0.0074737,-6.1457e-05,-14.372,1.542
5514,15.888,2,0.1,0.00018265,1825.2,0.0001824,1817.9,-5.9557e-05,-0.0066065,-6.1478e-05,-14.445,1.5418
5515,15.888,1.8182,0.1,0.0001827,1825.8,0.00018245,1818.4,-5.9571e-05,-0.0055758,-6.1504e-05,-14.536,1.5416
5516,15.888,1.6364,0.1,0.00018277,1826.4,0.00018251,1819.1,-5.9587e-05,-0.0043909,-6.1536e-05,-14.648,1.5413
5517,15.888,1.4545,0.1,0.00018285,1827.2,0.00018259,1819.8,-5.9605e-05,-0.0030592,-6.1573e-05,-14.784,1.541
5518,15.888,1.2727,0.1,0.00018293,1828.1,0.00018267,1820.5,-5.9626e-05,-0.0015968,-6.1615e-05,-14.945,1.5406
5519,15.888,1.0909,0.1,0.00018303,1829.1,0.00018277,1821.4,-5.9649e-05,1.5016e-06,-6.1664e-05,-15.136,1.5402
5520,15.888,0.90909,0.1,0.00018314,1830.2,0.00018288,1822.4,-5.9675e-05,0.0016446,-6.1719e-05,-15.36,1.5398
5521,15.888,0.72727,0.1,0.00018327,1831.4,0.000183,1823.5,-5.9702e-05,0.0036379,-6.1782e-05,-15.62,1.5393
5522,15.888,0.54545,0.1,0.0001834,1832.8,0.00018313,1824.8,-5.9732e-05,0.0046482,-6.1852e-05,-15.926,1.5387
5523,15.888,0.36364,0.1,0.00018357,1834.4,0.00018329,1826.2,-5.9764e-05,0.011326,-6.1946e-05,-16.383,1.5382
5524,15.888,0.18182,0.1,0.00018404,1839.1,0.00018371,1829.7,-5.98e-05,3.0723e-05,-6.2301e-05,-18.79,1.5376
5525,15.704,5.8182,0.1,0.00018859,1884.6,0.00018827,1875.3,-6.1318e-05,0.00010276,-6.3775e-05,-18.463,1.5092
5526,15.704,5.6364,0.1,0.00018812,1879.9,0.00018784,1871.9,-6.1283e-05,0.010865,-6.3419e-05,-16.036,1.5098
5527,15.704,5.4545,0.1,0.00018795,1878.2,0.00018768,1870.4,-6.1253e-05,0.0045079,-6.3321e-05,-15.532,1.5104
5528,15.704,5.2727,0.1,0.00018781,1876.8,0.00018755,1869.2,-6.1225e-05,0.0035453,-6.3245e-05,-15.176,1.5109
5529,15.704,5.0909,0.1,0.00018769,1875.6,0.00018743,1868.1,-6.1199e-05,0.0016342,-6.3178e-05,-14.868,1.5114
5530,15.704,4.9091,0.1,0.00018757,1874.4,0.00018732,1867.1,-6.1175e-05,5.1978e-05,-6.3118e-05,-14.597,1.5119
5531,15.704,4.7273,0.1,0.00018747,1873.4,0.00018722,1866.2,-6.1153e-05,-0.001497,-6.3064e-05,-14.36,1.5123
5532,15.704,4.5455,0.1,0.00018738,1872.5,0.00018714,1865.4,-6.1134e-05,-0.0029199,-6.3017e-05,-14.156,1.5127
5533,15.704,4.3636,0.1,0.0001873,1871.7,0.00018706,1864.7,-6.1116e-05,-0.0042212,-6.2976e-05,-13.981,1.513
5534,15.704,4.1818,0.1,0.00018723,1871,0.00018699,1864.1,-6.1101e-05,-0.0053855,-6.2941e-05,-13.833,1.5133
5535,15.704,4,0.1,0.00018717,1870.5,0.00018694,1863.6,-6.1088e-05,-0.0064008,-6.2912e-05,-13.71,1.5135
5536,15.704,3.8182,0.1,0.00018713,1870,0.00018689,1863.1,-6.1077e-05,-0.0072609,-6.2887e-05,-13.61,1.5137
5537,15.704,3.6364,0.1,0.00018709,1869.6,0.00018685,1862.8,-6.1068e-05,-0.0079566,-6.2868e-05,-13.533,1.5139
5538,15.704,3.4545,0.1,0.00018706,1869.3,0.00018683,1862.5,-6.1062e-05,-0.0084844,-6.2854e-05,-13.476,1.514
5539,15.704,3.2727,0.1,0.00018704,1869.1,0.00018681,1862.4,-6.1057e-05,-0.0088383,-6.2844e-05,-13.438,1.5141
5540,15.704,3.0909,0.1,0.00018703,1869,0.0001868,1862.3,-6.1055e-05,-0.0090155,-6.284e-05,-13.419,1.5142
5541,15.704,2.9091,0.1,0.00018703,1869,0.0001868,1862.3,-6.1055e-05,-0.0090149,-6.284e-05,-13.419,1.5142
5542,15.704,2.7273,0.1,0.00018704,1869.1,0.00018681,1862.4,-6.1057e-05,-0.0088374,-6.2844e-05,-13.438,1.5141
5543,15.704,2.5455,0.1,0.00018706,1869.3,0.00018683,1862.5,-6.1062e-05,-0.0084854,-6.2854e-05,-13.476,1.514
5544,15.704,2.3636,0.1,0.00018709,1869.6,0.00018685,1862.8,-6.1068e-05,-0.0079572,-6.2868e-05,-13.533,1.5139
5545,15.704,2.1818,0.1,0.00018713,1870,0.00018689,1863.1,-6.1077e-05,-0.0072611,-6.2887e-05,-13.61,1.5137
5546,15.704,2,0.1,0.00018717,1870.5,0.00018694,1863.6,-6.1088e-05,-0.006403,-6.2912e-05,-13.71,1.5135
5547,15.704,1.8182,0.1,0.00018723,1871,0.00018699,1864.1,-6.1101e-05,-0.0053846,-6.2941e-05,-13.833,1.5133
5548,15.704,1.6364,0.1,0.0001873,1871.7,0.00018706,1864.7,-6.1116e-05,-0.0042212,-6.2976e-05,-13.981,1.513
5549,15.704,1.4545,0.1,0.00018738,1872.5,0.00018714,1865.4,-6.1134e-05,-0.0029197,-6.3017e-05,-14.156,1.5127
5550,15.704,1.2727,0.1,0.00018747,1873.4,0.00018722,1866.2,-6.1153e-05,-0.0014972,-6.3064e-05,-14.36,1.5123
5551,15.704,1.0909,0.1,0.00018757,1874.4,0.00018732,1867.1,-6.1175e-05,5.0351e-05,-6.3118e-05,-14.597,1.5119
5552,15.704,0.90909,0.1,0.00018769,1875.6,0.00018743,1868.1,-6.1199e-05,0.0016315,-6.3178e-05,-14.868,1.5114
5553,15.704,0.72727,0.1,0.00018781,1876.8,0.00018755,1869.2,-6.1225e-05,0.0035428,-6.3245e-05,-15.176,1.5109
5554,15.704,0.54545,0.1,0.00018795,1878.2,0.00018768,1870.4,-6.1253e-05,0.0045091,-6.3321e-05,-15.532,1.5104
5555,15.704,0.36364,0.1,0.00018812,1879.9,0.00018784,1871.9,-6.1283e-05,0.010865,-6.3419e-05,-16.036,1.5098
5556,15.704,0.18182,0.1,0.00018859,1884.6,0.00018827,1875.3,-6.1318e-05,0.00010009,-6.3775e-05,-18.463,1.5092
5557,15.519,5.8182,0.1,0.00019316,1930.3,0.00019284,1921.1,-6.2842e-05,0.0001956,-6.5256e-05,-18.14,1.4809
5558,15.519,5.6364,0.1,0.00019269,1925.6,0.00019242,1917.7,-6.2809e-05,0.01043,-6.4899e-05,-15.692,1.4816
5559,15.519,5.4545,0.1,0.00019252,1923.9,0.00019226,1916.3,-6.2781e-05,0.0043886,-6.4796e-05,-15.139,1.4822
5560,15.519,5.2727,0.1,0.00019238,1922.5,0.00019213,1915.1,-6.2754e-05,0.0034677,-6.4716e-05,-14.734,1.4827
5561,15.519,5.0909,0.1,0.00019225,1921.2,0.000192,1914,-6.273e-05,0.0016418,-6.4643e-05,-14.377,1.4832
5562,15.519,4.9091,0.1,0.00019214,1920,0.00019189,1913,-6.2707e-05,0.00011901,-6.4578e-05,-14.059,1.4837
5563,15.519,4.7273,0.1,0.00019203,1919,0.00019179,1912.1,-6.2687e-05,-0.0013782,-6.452e-05,-13.777,1.4841
5564,15.519,4.5455,0.1,0.00019194,1918,0.0001917,1911.2,-6.2668e-05,-0.0027618,-6.4468e-05,-13.53,1.4845
5565,15.519,4.3636,0.1,0.00019186,1917.2,0.00019162,1910.5,-6.2652e-05,-0.004033,-6.4423e-05,-13.316,1.4848
5566,15.519,4.1818,0.1,0.00019178,1916.5,0.00019156,1909.9,-6.2637e-05,-0.0051785,-6.4385e-05,-13.132,1.4851
5567,15.519,4,0.1,0.00019172,1915.9,0.0001915,1909.4,-6.2625e-05,-0.0061811,-6.4352e-05,-12.978,1.4854
5568,15.519,3.8182,0.1,0.00019167,1915.4,0.00019145,1908.9,-6.2615e-05,-0.0070342,-6.4325e-05,-12.852,1.4856
5569,15.519,3.6364,0.1,0.00019163,1915,0.00019141,1908.6,-6.2607e-05,-0.0077268,-6.4303e-05,-12.752,1.4858
5570,15.519,3.4545,0.1,0.0001916,1914.7,0.00019138,1908.3,-6.2601e-05,-0.008253,-6.4287e-05,-12.679,1.4859
5571,15.519,3.2727,0.1,0.00019158,1914.5,0.00019137,1908.2,-6.2597e-05,-0.0086069,-6.4276e-05,-12.63,1.486
5572,15.519,3.0909,0.1,0.00019157,1914.4,0.00019136,1908.1,-6.2595e-05,-0.0087838,-6.4271e-05,-12.605,1.486
5573,15.519,2.9091,0.1,0.00019157,1914.4,0.00019136,1908.1,-6.2595e-05,-0.0087842,-6.4271e-05,-12.605,1.486
5574,15.519,2.7273,0.1,0.00019158,1914.5,0.00019137,1908.2,-6.2597e-05,-0.0086066,-6.4276e-05,-12.63,1.486
5575,15.519,2.5455,0.1,0.0001916,1914.7,0.00019138,1908.3,-6.2601e-05,-0.0082526,-6.4287e-05,-12.678,1.4859
5576,15.519,2.3636,0.1,0.00019163,1915,0.00019141,1908.6,-6.2607e-05,-0.0077272,-6.4303e-05,-12.752,1.4858
5577,15.519,2.1818,0.1,0.00019167,1915.4,0.00019145,1908.9,-6.2615e-05,-0.0070331,-6.4325e-05,-12.852,1.4856
5578,15.519,2,0.1,0.00019172,1915.9,0.0001915,1909.4,-6.2625e-05,-0.0061821,-6.4352e-05,-12.978,1.4854
5579,15.519,1.8182,0.1,0.00019178,1916.5,0.00019156,1909.9,-6.2637e-05,-0.0051785,-6.4385e-05,-13.132,1.4851
5580,15.519,1.6364,0.1,0.00019186,1917.2,0.00019162,1910.5,-6.2652e-05,-0.004034,-6.4423e-05,-13.316,1.4848
5581,15.519,1.4545,0.1,0.00019194,1918,0.0001917,1911.2,-6.2668e-05,-0.0027619,-6.4468e-05,-13.53,1.4845
5582,15.519,1.2727,0.1,0.00019203,1919,0.00019179,1912.1,-6.2687e-05,-0.0013783,-6.452e-05,-13.777,1.4841
5583,15.519,1.0909,0.1,0.00019214,1920,0.00019189,1913,-6.2707e-05,0.00011881,-6.4578e-05,-14.059,1.4837
5584,15.519,0.90909,0.1,0.00019225,1921.2,0.000192,1914,-6.273e-05,0.0016402,-6.4643e-05,-14.377,1.4832
5585,15.519,0.72727,0.1,0.00019238,1922.5,0.00019213,1915.1,-6.2754e-05,0.0034664,-6.4716e-05,-14.734,1.4827
5586,15.519,0.54545,0.1,0.00019252,1923.9,0.00019226,1916.3,-6.2781e-05,0.0043877,-6.4796e-05,-15.139,1.4822
5587,15.519,0.36364,0.1,0.00019269,1925.6,0.00019242,1917.7,-6.2809e-05,0.01043,-6.4899e-05,-15.692,1.4816
5588,15.519,0.18182,0.1,0.00019316,1930.3,0.00019284,1921.1,-6.2842e-05,0.00019826,-6.5256e-05,-18.14,1.4809
5589,15.335,5.8182,0.1,0.00019775,1976.1,0.00019744,1967.2,-6.4373e-05,0.00029948,-6.6744e-05,-17.819,1.4528
5590,15.335,5.6364,0.1,0.00019729,1971.5,0.00019702,1963.8,-6.4342e-05,0.0099983,-6.6386e-05,-15.349,1.4535
5591,15.335,5.4545,0.1,0.00019711,1969.8,0.00019686,1962.4,-6.4315e-05,0.0042732,-6.6279e-05,-14.748,1.4541
5592,15.335,5.2727,0.1,0.00019697,1968.3,0.00019672,1961.1,-6.429e-05,0.0033979,-6.6193e-05,-14.293,1.4546
5593,15.335,5.0909,0.1,0.00019684,1967,0.0001966,1960,-6.4267e-05,0.0016541,-6.6115e-05,-13.886,1.4551
5594,15.335,4.9091,0.1,0.00019672,1965.8,0.00019648,1959,-6.4246e-05,0.0001916,-6.6045e-05,-13.52,1.4556
5595,15.335,4.7273,0.1,0.00019661,1964.7,0.00019638,1958.1,-6.4227e-05,-0.0012542,-6.5982e-05,-13.193,1.4561
5596,15.335,4.5455,0.1,0.00019651,1963.8,0.00019629,1957.3,-6.4209e-05,-0.0025993,-6.5926e-05,-12.903,1.4564
5597,15.335,4.3636,0.1,0.00019643,1962.9,0.00019621,1956.6,-6.4194e-05,-0.003843,-6.5877e-05,-12.649,1.4568
5598,15.335,4.1818,0.1,0.00019635,1962.2,0.00019614,1955.9,-6.4181e-05,-0.0049672,-6.5834e-05,-12.43,1.4571
5599,15.335,4,0.1,0.00019629,1961.6,0.00019608,1955.4,-6.4169e-05,-0.0059593,-6.5798e-05,-12.245,1.4574
5600,15.335,3.8182,0.1,0.00019624,1961,0.00019603,1955,-6.416e-05,-0.006806,-6.5768e-05,-12.092,1.4576
5601,15.335,3.6364,0.1,0.0001962,1960.6,0.00019599,1954.6,-6.4152e-05,-0.0074968,-6.5744e-05,-11.97,1.4577
5602,15.335,3.4545,0.1,0.00019617,1960.3,0.00019596,1954.3,-6.4147e-05,-0.0080232,-6.5727e-05,-11.88,1.4579
5603,15.335,3.2727,0.1,0.00019615,1960.1,0.00019594,1954.2,-6.4143e-05,-0.008378,-6.5715e-05,-11.82,1.458
5604,15.335,3.0909,0.1,0.00019614,1960,0.00019593,1954.1,-6.4141e-05,-0.0085565,-6.5709e-05,-11.79,1.458
5605,15.335,2.9091,0.1,0.00019614,1960,0.00019593,1954.1,-6.4141e-05,-0.0085561,-6.5709e-05,-11.79,1.458
5606,15.335,2.7273,0.1,0.00019615,1960.1,0.00019594,1954.2,-6.4143e-05,-0.008378,-6.5715e-05,-11.82,1.458
5607,15.335,2.5455,0.1,0.00019617,1960.3,0.00019596,1954.3,-6.4147e-05,-0.0080239,-6.5727e-05,-11.88,1.4579
5608,15.335,2.3636,0.1,0.0001962,1960.6,0.00019599,1954.6,-6.4152e-05,-0.0074961,-6.5744e-05,-11.97,1.4577
5609,15.335,2.1818,0.1,0.00019624,1961,0.00019603,1955,-6.416e-05,-0.0068067,-6.5768e-05,-12.092,1.4576
5610,15.335,2,0.1,0.00019629,1961.6,0.00019608,1955.4,-6.4169e-05,-0.0059594,-6.5798e-05,-12.245,1.4574
5611,15.335,1.8182,0.1,0.00019635,1962.2,0.00019614,1955.9,-6.4181e-05,-0.0049674,-6.5834e-05,-12.43,1.4571
5612,15.335,1.6364,0.1,0.00019643,1962.9,0.00019621,1956.6,-6.4194e-05,-0.0038428,-6.5877e-05,-12.649,1.4568
5613,15.335,1.4545,0.1,0.00019651,1963.8,0.00019629,1957.3,-6.4209e-05,-0.002599,-6.5926e-05,-12.903,1.4564
5614,15.335,1.2727,0.1,0.00019661,1964.7,0.00019638,1958.1,-6.4227e-05,-0.0012554,-6.5982e-05,-13.193,1.4561
5615,15.335,1.0909,0.1,0.00019672,1965.8,0.00019648,1959,-6.4246e-05,0.00019113,-6.6045e-05,-13.52,1.4556
5616,15.335,0.90909,0.1,0.00019684,1967,0.0001966,1960,-6.4267e-05,0.0016504,-6.6115e-05,-13.886,1.4551
5617,15.335,0.72727,0.1,0.00019697,1968.3,0.00019672,1961.1,-6.429e-05,0.0033956,-6.6193e-05,-14.293,1.4546
5618,15.335,0.54545,0.1,0.00019711,1969.8,0.00019686,1962.4,-6.4315e-05,0.0042741,-6.6279e-05,-14.748,1.4541
5619,15.335,0.36364,0.1,0.00019729,1971.5,0.00019702,1963.8,-6.4342e-05,0.0099991,-6.6386e-05,-15.349,1.4535
5620,15.335,0.18182,0.1,0.00019775,1976.1,0.00019744,1967.2,-6.4373e-05,0.00030005,-6.6744e-05,-17.819,1.4528
5621,15.15,5.8182,0.1,0.00020236,2022.2,0.00020206,2013.4,-6.591e-05,0.0003961,-6.824e-05,-17.5,1.4248
5622,15.15,5.6364,0.1,0.0002019,2017.6,0.00020164,2010.1,-6.5881e-05,0.0095541,-6.788e-05,-15.007,1.4255
5623,15.15,5.4545,0.1,0.00020172,2015.8,0.00020148,2008.6,-6.5856e-05,0.0041482,-6.7767e-05,-14.355,1.4261
5624,15.15,5.2727,0.1,0.00020158,2014.4,0.00020134,2007.4,-6.5832e-05,0.0033143,-6.7676e-05,-13.849,1.4267
5625,15.15,5.0909,0.1,0.00020144,2013,0.00020121,2006.3,-6.5811e-05,0.0016557,-6.7593e-05,-13.392,1.4272
5626,15.15,4.9091,0.1,0.00020132,2011.8,0.00020109,2005.3,-6.5791e-05,0.00025264,-6.7518e-05,-12.978,1.4277
5627,15.15,4.7273,0.1,0.00020121,2010.7,0.00020099,2004.4,-6.5773e-05,-0.0011401,-6.7451e-05,-12.604,1.4281
5628,15.15,4.5455,0.1,0.00020111,2009.7,0.0002009,2003.5,-6.5757e-05,-0.0024459,-6.739e-05,-12.271,1.4285
5629,15.15,4.3636,0.1,0.00020102,2008.8,0.00020081,2002.8,-6.5743e-05,-0.0036598,-6.7337e-05,-11.978,1.4289
5630,15.15,4.1818,0.1,0.00020094,2008.1,0.00020074,2002.2,-6.5731e-05,-0.0047661,-6.729e-05,-11.722,1.4292
5631,15.15,4,0.1,0.00020088,2007.4,0.00020068,2001.6,-6.572e-05,-0.0057472,-6.7251e-05,-11.505,1.4295
5632,15.15,3.8182,0.1,0.00020083,2006.9,0.00020063,2001.2,-6.5711e-05,-0.00659,-6.7218e-05,-11.325,1.4297
5633,15.15,3.6364,0.1,0.00020078,2006.4,0.00020059,2000.8,-6.5704e-05,-0.0072798,-6.7192e-05,-11.181,1.4299
5634,15.15,3.4545,0.1,0.00020075,2006.1,0.00020056,2000.6,-6.5699e-05,-0.0078091,-6.7172e-05,-11.074,1.43
5635,15.15,3.2727,0.1,0.00020073,2005.9,0.00020054,2000.4,-6.5696e-05,-0.0081656,-6.7159e-05,-11.003,1.4301
5636,15.15,3.0909,0.1,0.00020072,2005.8,0.00020053,2000.3,-6.5694e-05,-0.0083451,-6.7152e-05,-10.967,1.4301
5637,15.15,2.9091,0.1,0.00020072,2005.8,0.00020053,2000.3,-6.5694e-05,-0.0083455,-6.7152e-05,-10.967,1.4301
5638,15.15,2.7273,0.1,0.00020073,2005.9,0.00020054,2000.4,-6.5696e-05,-0.0081663,-6.7159e-05,-11.003,1.4301
5639,15.15,2.5455,0.1,0.00020075,2006.1,0.00020056,2000.6,-6.5699e-05,-0.0078086,-6.7172e-05,-11.074,1.43
5640,15.15,2.3636,0.1,0.00020078,2006.4,0.00020059,2000.8,-6.5704e-05,-0.0072804,-6.7192e-05,-11.181,1.4299
5641,15.15,2.1818,0.1,0.00020083,2006.9,0.00020063,2001.2,-6.5711e-05,-0.0065899,-6.7218e-05,-11.325,1.4297
5642,15.15,2,0.1,0.00020088,2007.4,0.00020068,2001.6,-6.572e-05,-0.005747,-6.7251e-05,-11.505,1.4295
5643,15.15,1.8182,0.1,0.00020094,2008.1,0.00020074,2002.2,-6.5731e-05,-0.0047656,-6.729e-05,-11.722,1.4292
5644,15.15,1.6364,0.1,0.00020102,2008.8,0.00020081,2002.8,-6.5743e-05,-0.0036599,-6.7337e-05,-11.978,1.4289
5645,15.15,1.4545,0.1,0.00020111,2009.7,0.0002009,2003.5,-6.5757e-05,-0.0024454,-6.739e-05,-12.271,1.4285
5646,15.15,1.2727,0.1,0.00020121,2010.7,0.00020099,2004.4,-6.5773e-05,-0.0011414,-6.7451e-05,-12.604,1.4281
5647,15.15,1.0909,0.1,0.00020132,2011.8,0.00020109,2005.3,-6.5791e-05,0.00025303,-6.7518e-05,-12.978,1.4277
5648,15.15,0.90909,0.1,0.00020144,2013,0.00020121,2006.3,-6.5811e-05,0.0016528,-6.7593e-05,-13.392,1.4272
5649,15.15,0.72727,0.1,0.00020158,2014.4,0.00020134,2007.4,-6.5832e-05,0.0033134,-6.7676e-05,-13.849,1.4267
5650,15.15,0.54545,0.1,0.00020172,2015.8,0.00020148,2008.6,-6.5856e-05,0.004149,-6.7767e-05,-14.355,1.4261
5651,15.15,0.36364,0.1,0.0002019,2017.6,0.00020164,2010.1,-6.5881e-05,0.0095551,-6.788e-05,-15.007,1.4255
5652,15.15,0.18182,0.1,0.00020236,2022.2,0.00020206,2013.4,-6.591e-05,0.00039658,-6.824e-05,-17.5,1.4248
5653,14.966,5.8182,0.1,0.00020699,2068.5,0.00020669,2059.8,-6.7454e-05,0.00050177,-6.9741e-05,-17.183,1.397
5654,14.966,5.6364,0.1,0.00020653,2063.9,0.00020628,2056.5,-6.7427e-05,0.009108,-6.938e-05,-14.664,1.3976
5655,14.966,5.4545,0.1,0.00020635,2062.1,0.00020611,2055.1,-6.7404e-05,0.0040216,-6.9262e-05,-13.96,1.3983
5656,14.966,5.2727,0.1,0.0002062,2060.6,0.00020597,2053.9,-6.7382e-05,0.0032331,-6.9166e-05,-13.401,1.3989
5657,14.966,5.0909,0.1,0.00020606,2059.2,0.00020584,2052.8,-6.7362e-05,0.0016601,-6.9078e-05,-12.893,1.3994
5658,14.966,4.9091,0.1,0.00020594,2058,0.00020573,2051.7,-6.7343e-05,0.0003207,-6.8998e-05,-12.429,1.3999
5659,14.966,4.7273,0.1,0.00020583,2056.8,0.00020562,2050.8,-6.7327e-05,-0.0010202,-6.8925e-05,-12.008,1.4004
5660,14.966,4.5455,0.1,0.00020572,2055.8,0.00020552,2050,-6.7312e-05,-0.0022847,-6.886e-05,-11.631,1.4008
5661,14.966,4.3636,0.1,0.00020563,2054.9,0.00020544,2049.2,-6.7299e-05,-0.0034703,-6.8802e-05,-11.296,1.4011
5662,14.966,4.1818,0.1,0.00020555,2054.1,0.00020537,2048.6,-6.7288e-05,-0.0045581,-6.8752e-05,-11.004,1.4014
5663,14.966,4,0.1,0.00020549,2053.5,0.0002053,2048.1,-6.7278e-05,-0.0055309,-6.8709e-05,-10.754,1.4017
5664,14.966,3.8182,0.1,0.00020543,2052.9,0.00020525,2047.6,-6.727e-05,-0.0063701,-6.8673e-05,-10.547,1.4019
5665,14.966,3.6364,0.1,0.00020539,2052.5,0.00020521,2047.2,-6.7263e-05,-0.0070638,-6.8644e-05,-10.381,1.4021
5666,14.966,3.4545,0.1,0.00020535,2052.1,0.00020518,2047,-6.7259e-05,-0.0075953,-6.8623e-05,-10.257,1.4023
5667,14.966,3.2727,0.1,0.00020533,2051.9,0.00020516,2046.8,-6.7255e-05,-0.0079577,-6.8608e-05,-10.174,1.4023
5668,14.966,3.0909,0.1,0.00020532,2051.8,0.00020515,2046.7,-6.7254e-05,-0.0081387,-6.8601e-05,-10.132,1.4024
5669,14.966,2.9091,0.1,0.00020532,2051.8,0.00020515,2046.7,-6.7254e-05,-0.0081394,-6.8601e-05,-10.132,1.4024
5670,14.966,2.7273,0.1,0.00020533,2051.9,0.00020516,2046.8,-6.7255e-05,-0.0079569,-6.8608e-05,-10.174,1.4023
5671,14.966,2.5455,0.1,0.00020535,2052.1,0.00020518,2047,-6.7259e-05,-0.0075965,-6.8623e-05,-10.257,1.4023
5672,14.966,2.3636,0.1,0.00020539,2052.5,0.00020521,2047.2,-6.7263e-05,-0.0070631,-6.8644e-05,-10.381,1.4021
5673,14.966,2.1818,0.1,0.00020543,2052.9,0.00020525,2047.6,-6.727e-05,-0.0063704,-6.8673e-05,-10.547,1.4019
5674,14.966,2,0.1,0.00020549,2053.5,0.0002053,2048.1,-6.7278e-05,-0.0055307,-6.8709e-05,-10.754,1.4017
5675,14.966,1.8182,0.1,0.00020555,2054.1,0.00020537,2048.6,-6.7288e-05,-0.004558,-6.8752e-05,-11.004,1.4014
5676,14.966,1.6364,0.1,0.00020563,2054.9,0.00020544,2049.2,-6.7299e-05,-0.0034705,-6.8802e-05,-11.296,1.4011
5677,14.966,1.4545,0.1,0.00020572,2055.8,0.00020552,2050,-6.7312e-05,-0.0022858,-6.886e-05,-11.631,1.4008
5678,14.966,1.2727,0.1,0.00020583,2056.8,0.00020562,2050.8,-6.7327e-05,-0.0010209,-6.8925e-05,-12.008,1.4004
5679,14.966,1.0909,0.1,0.00020594,2058,0.00020573,2051.7,-6.7343e-05,0.00031888,-6.8998e-05,-12.429,1.3999
5680,14.966,0.90909,0.1,0.00020606,2059.2,0.00020584,2052.8,-6.7362e-05,0.0016588,-6.9078e-05,-12.893,1.3994
5681,14.966,0.72727,0.1,0.0002062,2060.6,0.00020597,2053.9,-6.7382e-05,0.0032306,-6.9166e-05,-13.401,1.3989
5682,14.966,0.54545,0.1,0.00020635,2062.1,0.00020611,2055.1,-6.7404e-05,0.0040216,-6.9262e-05,-13.96,1.3983
5683,14.966,0.36364,0.1,0.00020653,2063.9,0.00020628,2056.5,-6.7427e-05,0.0091073,-6.938e-05,-14.664,1.3976
5684,14.966,0.18182,0.1,0.00020699,2068.5,0.00020669,2059.8,-6.7454e-05,0.00050126,-6.9741e-05,-17.183,1.397
5685,14.782,5.8182,0.1,0.00021164,2115,0.00021135,2106.5,-6.9005e-05,0.00060977,-7.125e-05,-16.866,1.3692
5686,14.782,5.6364,0.1,0.00021119,2110.4,0.00021094,2103.2,-6.898e-05,0.0086483,-7.0887e-05,-14.318,1.3699
5687,14.782,5.4545,0.1,0.000211,2108.6,0.00021077,2101.8,-6.8958e-05,0.0038909,-7.0764e-05,-13.561,1.3706
5688,14.782,5.2727,0.1,0.00021085,2107,0.00021063,2100.5,-6.8938e-05,0.0031467,-7.0661e-05,-12.947,1.3712
5689,14.782,5.0909,0.1,0.00021071,2105.6,0.0002105,2099.4,-6.8919e-05,0.0016614,-7.0568e-05,-12.386,1.3717
5690,14.782,4.9091,0.1,0.00021058,2104.3,0.00021038,2098.4,-6.8902e-05,0.00038502,-7.0482e-05,-11.87,1.3722
5691,14.782,4.7273,0.1,0.00021046,2103.2,0.00021027,2097.5,-6.8887e-05,-0.00089945,-7.0405e-05,-11.401,1.3727
5692,14.782,4.5455,0.1,0.00021036,2102.1,0.00021017,2096.6,-6.8874e-05,-0.0021211,-7.0335e-05,-10.978,1.3731
5693,14.782,4.3636,0.1,0.00021026,2101.2,0.00021008,2095.9,-6.8862e-05,-0.0032774,-7.0272e-05,-10.601,1.3735
5694,14.782,4.1818,0.1,0.00021018,2100.4,0.00021001,2095.2,-6.8851e-05,-0.0043471,-7.0218e-05,-10.272,1.3738
5695,14.782,4,0.1,0.00021011,2099.7,0.00020994,2094.7,-6.8843e-05,-0.0053114,-7.0171e-05,-9.9885,1.3741
5696,14.782,3.8182,0.1,0.00021006,2099.1,0.00020989,2094.2,-6.8835e-05,-0.0061512,-7.0133e-05,-9.7524,1.3743
5697,14.782,3.6364,0.1,0.00021001,2098.6,0.00020985,2093.8,-6.883e-05,-0.0068486,-7.0101e-05,-9.5634,1.3745
5698,14.782,3.4545,0.1,0.00020998,2098.3,0.00020981,2093.6,-6.8825e-05,-0.0073884,-7.0078e-05,-9.4216,1.3747
5699,14.782,3.2727,0.1,0.00020995,2098.1,0.00020979,2093.4,-6.8822e-05,-0.007755,-7.0063e-05,-9.327,1.3747
5700,14.782,3.0909,0.1,0.00020994,2098,0.00020978,2093.3,-6.8821e-05,-0.0079409,-7.0055e-05,-9.2797,1.3748
5701,14.782,2.9091,0.1,0.00020994,2098,0.00020978,2093.3,-6.8821e-05,-0.0079403,-7.0055e-05,-9.2797,1.3748
5702,14.782,2.7273,0.1,0.00020995,2098.1,0.00020979,2093.4,-6.8822e-05,-0.0077556,-7.0063e-05,-9.327,1.3747
5703,14.782,2.5455,0.1,0.00020998,2098.3,0.00020981,2093.6,-6.8825e-05,-0.0073887,-7.0078e-05,-9.4216,1.3747
5704,14.782,2.3636,0.1,0.00021001,2098.6,0.00020985,2093.8,-6.883e-05,-0.0068489,-7.0101e-05,-9.5634,1.3745
5705,14.782,2.1818,0.1,0.00021006,2099.1,0.00020989,2094.2,-6.8835e-05,-0.0061519,-7.0133e-05,-9.7524,1.3743
5706,14.782,2,0.1,0.00021011,2099.7,0.00020994,2094.7,-6.8843e-05,-0.0053121,-7.0171e-05,-9.9885,1.3741
5707,14.782,1.8182,0.1,0.00021018,2100.4,0.00021001,2095.2,-6.8852e-05,-0.0043479,-7.0218e-05,-10.272,1.3738
5708,14.782,1.6364,0.1,0.00021026,2101.2,0.00021008,2095.9,-6.8862e-05,-0.0032779,-7.0272e-05,-10.601,1.3735
5709,14.782,1.4545,0.1,0.00021036,2102.1,0.00021017,2096.6,-6.8874e-05,-0.002122,-7.0335e-05,-10.978,1.3731
5710,14.782,1.2727,0.1,0.00021046,2103.2,0.00021027,2097.5,-6.8887e-05,-0.00090015,-7.0405e-05,-11.401,1.3727
5711,14.782,1.0909,0.1,0.00021058,2104.3,0.00021038,2098.4,-6.8902e-05,0.00038599,-7.0482e-05,-11.87,1.3722
5712,14.782,0.90909,0.1,0.00021071,2105.6,0.0002105,2099.4,-6.8919e-05,0.0016612,-7.0568e-05,-12.386,1.3717
5713,14.782,0.72727,0.1,0.00021085,2107,0.00021063,2100.5,-6.8938e-05,0.0031443,-7.0661e-05,-12.947,1.3712
5714,14.782,0.54545,0.1,0.000211,2108.6,0.00021077,2101.8,-6.8958e-05,0.0038896,-7.0764e-05,-13.561,1.3706
5715,14.782,0.36364,0.1,0.00021119,2110.4,0.00021094,2103.2,-6.898e-05,0.008649,-7.0887e-05,-14.318,1.3699
5716,14.782,0.18182,0.1,0.00021164,2115,0.00021135,2106.5,-6.9005e-05,0.00060868,-7.125e-05,-16.866,1.3692
5717,14.597,5.8182,0.1,0.00021632,2161.7,0.00021603,2153.4,-7.0563e-05,0.00073478,-7.2766e-05,-16.549,1.3417
5718,14.597,5.6364,0.1,0.00021586,2157.1,0.00021562,2150.1,-7.054e-05,0.0081888,-7.24e-05,-13.97,1.3424
5719,14.597,5.4545,0.1,0.00021567,2155.3,0.00021545,2148.6,-7.052e-05,0.0037674,-7.2271e-05,-13.156,1.343
5720,14.597,5.2727,0.1,0.00021552,2153.7,0.0002153,2147.4,-7.0501e-05,0.003069,-7.2163e-05,-12.485,1.3437
5721,14.597,5.0909,0.1,0.00021537,2152.2,0.00021517,2146.3,-7.0484e-05,0.0016758,-7.2064e-05,-11.868,1.3442
5722,14.597,4.9091,0.1,0.00021524,2150.9,0.00021505,2145.2,-7.0469e-05,0.00046794,-7.1973e-05,-11.299,1.3447
5723,14.597,4.7273,0.1,0.00021512,2149.7,0.00021493,2144.3,-7.0455e-05,-0.00075795,-7.1889e-05,-10.779,1.3452
5724,14.597,4.5455,0.1,0.00021501,2148.6,0.00021483,2143.5,-7.0443e-05,-0.0019369,-7.1814e-05,-10.309,1.3456
5725,14.597,4.3636,0.1,0.00021492,2147.7,0.00021475,2142.7,-7.0432e-05,-0.0030621,-7.1748e-05,-9.8889,1.346
5726,14.597,4.1818,0.1,0.00021483,2146.8,0.00021467,2142.1,-7.0423e-05,-0.0041142,-7.1689e-05,-9.5198,1.3463
5727,14.597,4,0.1,0.00021476,2146.1,0.0002146,2141.5,-7.0415e-05,-0.0050733,-7.1639e-05,-9.2023,1.3466
5728,14.597,3.8182,0.1,0.0002147,2145.5,0.00021455,2141,-7.0408e-05,-0.0059145,-7.1597e-05,-8.9368,1.3469
5729,14.597,3.6364,0.1,0.00021465,2145,0.0002145,2140.7,-7.0403e-05,-0.0066205,-7.1563e-05,-8.7239,1.3471
5730,14.597,3.4545,0.1,0.00021462,2144.7,0.00021447,2140.4,-7.0399e-05,-0.0071706,-7.1538e-05,-8.5639,1.3472
5731,14.597,3.2727,0.1,0.00021459,2144.4,0.00021445,2140.2,-7.0396e-05,-0.0075463,-7.1521e-05,-8.4571,1.3473
5732,14.597,3.0909,0.1,0.00021458,2144.3,0.00021443,2140.1,-7.0395e-05,-0.0077371,-7.1513e-05,-8.4037,1.3473
5733,14.597,2.9091,0.1,0.00021458,2144.3,0.00021443,2140.1,-7.0395e-05,-0.0077369,-7.1513e-05,-8.4037,1.3473
5734,14.597,2.7273,0.1,0.00021459,2144.4,0.00021445,2140.2,-7.0396e-05,-0.0075452,-7.1521e-05,-8.4571,1.3473
5735,14.597,2.5455,0.1,0.00021462,2144.7,0.00021447,2140.4,-7.0399e-05,-0.0071703,-7.1538e-05,-8.5639,1.3472
5736,14.597,2.3636,0.1,0.00021465,2145,0.0002145,2140.7,-7.0403e-05,-0.0066205,-7.1563e-05,-8.7239,1.3471
5737,14.597,2.1818,0.1,0.0002147,2145.5,0.00021455,2141,-7.0408e-05,-0.0059152,-7.1597e-05,-8.9368,1.3469
5738,14.597,2,0.1,0.00021476,2146.1,0.0002146,2141.5,-7.0415e-05,-0.0050731,-7.1639e-05,-9.2022,1.3466
5739,14.597,1.8182,0.1,0.00021483,2146.8,0.00021467,2142.1,-7.0423e-05,-0.0041142,-7.1689e-05,-9.5197,1.3463
5740,14.597,1.6364,0.1,0.00021492,2147.7,0.00021475,2142.7,-7.0432e-05,-0.0030622,-7.1748e-05,-9.8889,1.346
5741,14.597,1.4545,0.1,0.00021501,2148.6,0.00021483,2143.5,-7.0443e-05,-0.0019369,-7.1814e-05,-10.309,1.3456
5742,14.597,1.2727,0.1,0.00021512,2149.7,0.00021493,2144.3,-7.0455e-05,-0.00075831,-7.1889e-05,-10.779,1.3452
5743,14.597,1.0909,0.1,0.00021524,2150.9,0.00021505,2145.2,-7.0469e-05,0.00046727,-7.1973e-05,-11.299,1.3447
5744,14.597,0.90909,0.1,0.00021537,2152.2,0.00021517,2146.3,-7.0484e-05,0.001674,-7.2064e-05,-11.868,1.3442
5745,14.597,0.72727,0.1,0.00021552,2153.7,0.0002153,2147.4,-7.0501e-05,0.0030665,-7.2163e-05,-12.485,1.3437
5746,14.597,0.54545,0.1,0.00021567,2155.3,0.00021545,2148.7,-7.052e-05,0.0037684,-7.2271e-05,-13.156,1.343
5747,14.597,0.36364,0.1,0.00021586,2157.1,0.00021562,2150.1,-7.054e-05,0.0081895,-7.24e-05,-13.97,1.3424
5748,14.597,0.18182,0.1,0.00021632,2161.7,0.00021603,2153.4,-7.0563e-05,0.00073455,-7.2766e-05,-16.549,1.3417
5749,14.413,5.8182,0.1,0.00022101,2208.6,0.00022073,2200.4,-7.2128e-05,0.00086161,-7.4288e-05,-16.231,1.3142
5750,14.413,5.6364,0.1,0.00022055,2204,0.00022032,2197.2,-7.2106e-05,0.0077096,-7.392e-05,-13.617,1.315
5751,14.413,5.4545,0.1,0.00022036,2202.1,0.00022015,2195.7,-7.2088e-05,0.0036329,-7.3784e-05,-12.743,1.3156
5752,14.413,5.2727,0.1,0.0002202,2200.5,0.00022,2194.5,-7.2071e-05,0.0029843,-7.367e-05,-12.013,1.3163
5753,14.413,5.0909,0.1,0.00022005,2199,0.00021986,2193.3,-7.2056e-05,0.0016857,-7.3565e-05,-11.338,1.3168
5754,14.413,4.9091,0.1,0.00021992,2197.7,0.00021973,2192.3,-7.2042e-05,0.00055089,-7.3468e-05,-10.713,1.3174
5755,14.413,4.7273,0.1,0.00021979,2196.4,0.00021962,2191.3,-7.203e-05,-0.00061343,-7.3379e-05,-10.14,1.3179
5756,14.413,4.5455,0.1,0.00021968,2195.3,0.00021952,2190.5,-7.2019e-05,-0.0017432,-7.3299e-05,-9.6199,1.3183
5757,14.413,4.3636,0.1,0.00021958,2194.3,0.00021943,2189.7,-7.2009e-05,-0.0028355,-7.3227e-05,-9.1543,1.3187
5758,14.413,4.1818,0.1,0.0002195,2193.5,0.00021935,2189.1,-7.2001e-05,-0.0038695,-7.3164e-05,-8.7442,1.319
5759,14.413,4,0.1,0.00021942,2192.7,0.00021928,2188.5,-7.1994e-05,-0.0048241,-7.311e-05,-8.3908,1.3193
5760,14.413,3.8182,0.1,0.00021936,2192.1,0.00021922,2188,-7.1988e-05,-0.0056728,-7.3065e-05,-8.0947,1.3195
5761,14.413,3.6364,0.1,0.00021931,2191.6,0.00021918,2187.7,-7.1984e-05,-0.006391,-7.3028e-05,-7.8569,1.3197
5762,14.413,3.4545,0.1,0.00021927,2191.2,0.00021914,2187.4,-7.198e-05,-0.0069555,-7.3001e-05,-7.678,1.3199
5763,14.413,3.2727,0.1,0.00021925,2191,0.00021912,2187.2,-7.1978e-05,-0.0073448,-7.2983e-05,-7.5585,1.32
5764,14.413,3.0909,0.1,0.00021924,2190.8,0.00021911,2187.1,-7.1977e-05,-0.0075432,-7.2974e-05,-7.4986,1.32
5765,14.413,2.9091,0.1,0.00021924,2190.8,0.00021911,2187.1,-7.1977e-05,-0.007543,-7.2974e-05,-7.4986,1.32
5766,14.413,2.7273,0.1,0.00021925,2191,0.00021912,2187.2,-7.1978e-05,-0.0073445,-7.2983e-05,-7.5585,1.32
5767,14.413,2.5455,0.1,0.00021927,2191.2,0.00021914,2187.4,-7.198e-05,-0.0069556,-7.3001e-05,-7.678,1.3199
5768,14.413,2.3636,0.1,0.00021931,2191.6,0.00021918,2187.7,-7.1984e-05,-0.0063908,-7.3028e-05,-7.8569,1.3197
5769,14.413,2.1818,0.1,0.00021936,2192.1,0.00021922,2188,-7.1988e-05,-0.0056726,-7.3065e-05,-8.0947,1.3195
5770,14.413,2,0.1,0.00021942,2192.7,0.00021928,2188.5,-7.1994e-05,-0.0048248,-7.311e-05,-8.3907,1.3193
5771,14.413,1.8182,0.1,0.0002195,2193.5,0.00021935,2189.1,-7.2001e-05,-0.0038705,-7.3164e-05,-8.7442,1.319
5772,14.413,1.6364,0.1,0.00021958,2194.3,0.00021943,2189.7,-7.2009e-05,-0.0028353,-7.3227e-05,-9.1542,1.3187
5773,14.413,1.4545,0.1,0.00021968,2195.3,0.00021952,2190.5,-7.2019e-05,-0.0017441,-7.3299e-05,-9.6198,1.3183
5774,14.413,1.2727,0.1,0.00021979,2196.4,0.00021962,2191.3,-7.203e-05,-0.00061364,-7.3379e-05,-10.14,1.3179
5775,14.413,1.0909,0.1,0.00021992,2197.7,0.00021973,2192.3,-7.2042e-05,0.00055007,-7.3468e-05,-10.713,1.3174
5776,14.413,0.90909,0.1,0.00022005,2199,0.00021986,2193.3,-7.2056e-05,0.0016847,-7.3565e-05,-11.338,1.3168
5777,14.413,0.72727,0.1,0.0002202,2200.5,0.00022,2194.5,-7.2071e-05,0.0029823,-7.367e-05,-12.013,1.3163
5778,14.413,0.54545,0.1,0.00022036,2202.1,0.00022015,2195.7,-7.2088e-05,0.0036333,-7.3784e-05,-12.743,1.3156
5779,14.413,0.36364,0.1,0.00022055,2204,0.00022032,2197.2,-7.2106e-05,0.0077088,-7.392e-05,-13.617,1.315
5780,14.413,0.18182,0.1,0.00022101,2208.6,0.00022073,2200.4,-7.2128e-05,0.00086159,-7.4288e-05,-16.231,1.3142
5781,14.229,5.8182,0.1,0.00022572,2255.7,0.00022545,2247.7,-7.3699e-05,0.0009742,-7.5817e-05,-15.91,1.287
5782,14.229,5.6364,0.1,0.00022527,2251.1,0.00022504,2244.5,-7.368e-05,0.0071872,-7.5445e-05,-13.258,1.2877
5783,14.229,5.4545,0.1,0.00022507,2249.2,0.00022486,2243,-7.3663e-05,0.003469,-7.5304e-05,-12.321,1.2884
5784,14.229,5.2727,0.1,0.00022491,2247.5,0.00022471,2241.8,-7.3648e-05,0.0028714,-7.5183e-05,-11.528,1.289
5785,14.229,5.0909,0.1,0.00022476,2246,0.00022457,2240.6,-7.3634e-05,0.0016758,-7.5071e-05,-10.791,1.2896
5786,14.229,4.9091,0.1,0.00022462,2244.6,0.00022444,2239.5,-7.3622e-05,0.00061808,-7.4968e-05,-10.107,1.2902
5787,14.229,4.7273,0.1,0.00022449,2243.3,0.00022433,2238.6,-7.3611e-05,-0.00047616,-7.4873e-05,-9.4785,1.2906
5788,14.229,4.5455,0.1,0.00022437,2242.2,0.00022422,2237.7,-7.3602e-05,-0.0015528,-7.4787e-05,-8.9066,1.2911
5789,14.229,4.3636,0.1,0.00022427,2241.2,0.00022413,2237,-7.3594e-05,-0.002608,-7.471e-05,-8.3933,1.2915
5790,14.229,4.1818,0.1,0.00022418,2240.3,0.00022405,2236.3,-7.3587e-05,-0.0036232,-7.4643e-05,-7.9403,1.2918
5791,14.229,4,0.1,0.0002241,2239.5,0.00022397,2235.7,-7.3581e-05,-0.0045749,-7.4585e-05,-7.549,1.2921
5792,14.229,3.8182,0.1,0.00022404,2238.9,0.00022392,2235.2,-7.3576e-05,-0.0054333,-7.4536e-05,-7.2209,1.2924
5793,14.229,3.6364,0.1,0.00022399,2238.3,0.00022387,2234.8,-7.3572e-05,-0.0061727,-7.4497e-05,-6.957,1.2926
5794,14.229,3.4545,0.1,0.00022395,2237.9,0.00022383,2234.6,-7.3569e-05,-0.0067583,-7.4467e-05,-6.7583,1.2927
5795,14.229,3.2727,0.1,0.00022392,2237.7,0.00022381,2234.4,-7.3567e-05,-0.0071676,-7.4448e-05,-6.6254,1.2928
5796,14.229,3.0909,0.1,0.00022391,2237.6,0.0002238,2234.3,-7.3566e-05,-0.0073765,-7.4438e-05,-6.5588,1.2929
5797,14.229,2.9091,0.1,0.00022391,2237.6,0.0002238,2234.3,-7.3566e-05,-0.0073757,-7.4438e-05,-6.5588,1.2929
5798,14.229,2.7273,0.1,0.00022392,2237.7,0.00022381,2234.4,-7.3567e-05,-0.007167,-7.4448e-05,-6.6254,1.2928
5799,14.229,2.5455,0.1,0.00022395,2237.9,0.00022383,2234.6,-7.3569e-05,-0.0067593,-7.4467e-05,-6.7583,1.2927
5800,14.229,2.3636,0.1,0.00022399,2238.3,0.00022387,2234.8,-7.3572e-05,-0.0061724,-7.4497e-05,-6.957,1.2926
5801,14.229,2.1818,0.1,0.00022404,2238.9,0.00022392,2235.2,-7.3576e-05,-0.0054329,-7.4536e-05,-7.2209,1.2924
5802,14.229,2,0.1,0.0002241,2239.5,0.00022397,2235.7,-7.3581e-05,-0.0045745,-7.4585e-05,-7.549,1.2921
5803,14.229,1.8182,0.1,0.00022418,2240.3,0.00022405,2236.3,-7.3587e-05,-0.0036237,-7.4643e-05,-7.9402,1.2918
5804,14.229,1.6364,0.1,0.00022427,2241.2,0.00022413,2237,-7.3594e-05,-0.0026085,-7.471e-05,-8.3932,1.2915
5805,14.229,1.4545,0.1,0.00022437,2242.2,0.00022422,2237.7,-7.3602e-05,-0.0015527,-7.4787e-05,-8.9065,1.2911
5806,14.229,1.2727,0.1,0.00022449,2243.3,0.00022433,2238.6,-7.3611e-05,-0.00047555,-7.4873e-05,-9.4785,1.2906
5807,14.229,1.0909,0.1,0.00022462,2244.6,0.00022444,2239.5,-7.3622e-05,0.00061814,-7.4968e-05,-10.107,1.2902
5808,14.229,0.90909,0.1,0.00022476,2246,0.00022457,2240.6,-7.3635e-05,0.0016744,-7.5071e-05,-10.791,1.2896
5809,14.229,0.72727,0.1,0.00022491,2247.5,0.00022471,2241.8,-7.3648e-05,0.0028695,-7.5183e-05,-11.528,1.289
5810,14.229,0.54545,0.1,0.00022507,2249.2,0.00022486,2243,-7.3663e-05,0.0034692,-7.5304e-05,-12.321,1.2884
5811,14.229,0.36364,0.1,0.00022527,2251.1,0.00022504,2244.5,-7.368e-05,0.0071881,-7.5445e-05,-13.258,1.2877
5812,14.229,0.18182,0.1,0.00022572,2255.7,0.00022545,2247.7,-7.3699e-05,0.00097259,-7.5817e-05,-15.91,1.287
5813,14.044,5.8182,0.1,0.00023046,2303,0.00023019,2295.2,-7.5278e-05,0.0011203,-7.7352e-05,-15.587,1.2598
5814,14.044,5.6364,0.1,0.00023,2298.4,0.00022978,2292,-7.526e-05,0.0066686,-7.6977e-05,-12.893,1.2606
5815,14.044,5.4545,0.1,0.0002298,2296.5,0.0002296,2290.5,-7.5246e-05,0.0033235,-7.6828e-05,-11.888,1.2613
5816,14.044,5.2727,0.1,0.00022964,2294.8,0.00022945,2289.2,-7.5232e-05,0.0027807,-7.67e-05,-11.028,1.2619
5817,14.044,5.0909,0.1,0.00022948,2293.2,0.0002293,2288.1,-7.5221e-05,0.0016941,-7.6582e-05,-10.226,1.2625
5818,14.044,4.9091,0.1,0.00022933,2291.8,0.00022917,2287,-7.521e-05,0.00072364,-7.6472e-05,-9.4796,1.2631
5819,14.044,4.7273,0.1,0.0002292,2290.4,0.00022905,2286,-7.5201e-05,-0.00029194,-7.6371e-05,-8.7918,1.2636
5820,14.044,4.5455,0.1,0.00022908,2289.3,0.00022894,2285.2,-7.5193e-05,-0.0013072,-7.6279e-05,-8.1649,1.264
5821,14.044,4.3636,0.1,0.00022898,2288.2,0.00022885,2284.4,-7.5186e-05,-0.0023194,-7.6197e-05,-7.6011,1.2644
5822,14.044,4.1818,0.1,0.00022888,2287.3,0.00022876,2283.7,-7.518e-05,-0.0033121,-7.6125e-05,-7.1027,1.2648
5823,14.044,4,0.1,0.0002288,2286.5,0.00022869,2283.1,-7.5175e-05,-0.0042627,-7.6062e-05,-6.6717,1.2651
5824,14.044,3.8182,0.1,0.00022874,2285.8,0.00022863,2282.6,-7.5171e-05,-0.0051386,-7.601e-05,-6.3097,1.2653
5825,14.044,3.6364,0.1,0.00022868,2285.3,0.00022858,2282.2,-7.5168e-05,-0.0059038,-7.5968e-05,-6.0182,1.2655
5826,14.044,3.4545,0.1,0.00022864,2284.9,0.00022854,2281.9,-7.5165e-05,-0.0065254,-7.5936e-05,-5.7985,1.2657
5827,14.044,3.2727,0.1,0.00022862,2284.6,0.00022852,2281.7,-7.5164e-05,-0.0069619,-7.5915e-05,-5.6515,1.2658
5828,14.044,3.0909,0.1,0.0002286,2284.4,0.00022851,2281.6,-7.5163e-05,-0.0071876,-7.5904e-05,-5.5779,1.2658
5829,14.044,2.9091,0.1,0.0002286,2284.4,0.00022851,2281.6,-7.5163e-05,-0.0071874,-7.5904e-05,-5.5779,1.2658
5830,14.044,2.7273,0.1,0.00022862,2284.6,0.00022852,2281.7,-7.5164e-05,-0.006963,-7.5915e-05,-5.6515,1.2658
5831,14.044,2.5455,0.1,0.00022864,2284.9,0.00022854,2281.9,-7.5165e-05,-0.0065246,-7.5936e-05,-5.7985,1.2657
5832,14.044,2.3636,0.1,0.00022868,2285.3,0.00022858,2282.2,-7.5168e-05,-0.0059045,-7.5968e-05,-6.0182,1.2655
5833,14.044,2.1818,0.1,0.00022874,2285.8,0.00022863,2282.6,-7.5171e-05,-0.0051377,-7.601e-05,-6.3096,1.2653
5834,14.044,2,0.1,0.0002288,2286.5,0.00022869,2283.1,-7.5175e-05,-0.0042631,-7.6062e-05,-6.6716,1.2651
5835,14.044,1.8182,0.1,0.00022888,2287.3,0.00022876,2283.7,-7.518e-05,-0.0033133,-7.6125e-05,-7.1027,1.2648
5836,14.044,1.6364,0.1,0.00022898,2288.2,0.00022885,2284.4,-7.5186e-05,-0.0023201,-7.6197e-05,-7.601,1.2644
5837,14.044,1.4545,0.1,0.00022908,2289.3,0.00022894,2285.2,-7.5193e-05,-0.0013076,-7.6279e-05,-8.1648,1.264
5838,14.044,1.2727,0.1,0.0002292,2290.4,0.00022905,2286,-7.5201e-05,-0.00029338,-7.6371e-05,-8.7917,1.2636
5839,14.044,1.0909,0.1,0.00022933,2291.8,0.00022917,2287,-7.521e-05,0.00072319,-7.6472e-05,-9.4795,1.2631
5840,14.044,0.90909,0.1,0.00022948,2293.2,0.0002293,2288.1,-7.5221e-05,0.0016923,-7.6582e-05,-10.226,1.2625
5841,14.044,0.72727,0.1,0.00022964,2294.8,0.00022945,2289.2,-7.5232e-05,0.0027776,-7.67e-05,-11.028,1.2619
5842,14.044,0.54545,0.1,0.0002298,2296.5,0.0002296,2290.5,-7.5246e-05,0.0033237,-7.6828e-05,-11.888,1.2613
5843,14.044,0.36364,0.1,0.00023,2298.4,0.00022978,2292,-7.526e-05,0.0066686,-7.6977e-05,-12.893,1.2606
5844,14.044,0.18182,0.1,0.00023046,2303,0.00023019,2295.2,-7.5278e-05,0.0011203,-7.7352e-05,-15.587,1.2598
5845,13.86,5.8182,0.1,0.00023521,2350.5,0.00023495,2342.8,-7.6863e-05,0.0012833,-7.8894e-05,-15.261,1.2329
5846,13.86,5.6364,0.1,0.00023476,2345.9,0.00023454,2339.7,-7.6848e-05,0.006132,-7.8515e-05,-12.518,1.2336
5847,13.86,5.4545,0.1,0.00023455,2343.9,0.00023436,2338.2,-7.6835e-05,0.0031756,-7.8359e-05,-11.442,1.2343
5848,13.86,5.2727,0.1,0.00023438,2342.2,0.0002342,2336.9,-7.6824e-05,0.0026937,-7.8223e-05,-10.51,1.235
5849,13.86,5.0909,0.1,0.00023422,2340.6,0.00023405,2335.7,-7.6814e-05,0.0017267,-7.8097e-05,-9.6385,1.2356
5850,13.86,4.9091,0.1,0.00023407,2339.1,0.00023392,2334.7,-7.6805e-05,0.00085335,-7.798e-05,-8.8261,1.2362
5851,13.86,4.7273,0.1,0.00023393,2337.7,0.0002338,2333.7,-7.6798e-05,-7.0258e-05,-7.7873e-05,-8.0757,1.2367
5852,13.86,4.5455,0.1,0.00023381,2336.5,0.00023368,2332.8,-7.6791e-05,-0.0010108,-7.7775e-05,-7.3904,1.2372
5853,13.86,4.3636,0.1,0.0002337,2335.4,0.00023358,2332,-7.6786e-05,-0.0019692,-7.7687e-05,-6.7731,1.2376
5854,13.86,4.1818,0.1,0.0002336,2334.4,0.0002335,2331.3,-7.6781e-05,-0.0029338,-7.7609e-05,-6.2265,1.2379
5855,13.86,4,0.1,0.00023352,2333.6,0.00023342,2330.7,-7.6777e-05,-0.00388,-7.7542e-05,-5.7532,1.2382
5856,13.86,3.8182,0.1,0.00023345,2332.9,0.00023336,2330.2,-7.6774e-05,-0.0047786,-7.7486e-05,-5.3553,1.2385
5857,13.86,3.6364,0.1,0.0002334,2332.3,0.00023331,2329.8,-7.6771e-05,-0.0055889,-7.7441e-05,-5.0346,1.2387
5858,13.86,3.4545,0.1,0.00023335,2331.9,0.00023327,2329.5,-7.677e-05,-0.0062591,-7.7407e-05,-4.7927,1.2388
5859,13.86,3.2727,0.1,0.00023333,2331.6,0.00023325,2329.3,-7.6768e-05,-0.0067423,-7.7384e-05,-4.6307,1.2389
5860,13.86,3.0909,0.1,0.00023331,2331.5,0.00023323,2329.2,-7.6768e-05,-0.0069944,-7.7372e-05,-4.5495,1.239
5861,13.86,2.9091,0.1,0.00023331,2331.5,0.00023323,2329.2,-7.6768e-05,-0.0069947,-7.7372e-05,-4.5495,1.239
5862,13.86,2.7273,0.1,0.00023333,2331.6,0.00023325,2329.3,-7.6768e-05,-0.0067416,-7.7384e-05,-4.6307,1.2389
5863,13.86,2.5455,0.1,0.00023335,2331.9,0.00023327,2329.5,-7.677e-05,-0.0062601,-7.7407e-05,-4.7927,1.2388
5864,13.86,2.3636,0.1,0.0002334,2332.3,0.00023331,2329.8,-7.6771e-05,-0.0055887,-7.7441e-05,-5.0346,1.2387
5865,13.86,2.1818,0.1,0.00023345,2332.9,0.00023336,2330.2,-7.6774e-05,-0.0047791,-7.7486e-05,-5.3552,1.2385
5866,13.86,2,0.1,0.00023352,2333.6,0.00023342,2330.7,-7.6777e-05,-0.0038812,-7.7542e-05,-5.7532,1.2382
5867,13.86,1.8182,0.1,0.0002336,2334.4,0.0002335,2331.3,-7.6781e-05,-0.0029337,-7.7609e-05,-6.2265,1.2379
5868,13.86,1.6364,0.1,0.0002337,2335.4,0.00023358,2332,-7.6786e-05,-0.0019699,-7.7687e-05,-6.773,1.2376
5869,13.86,1.4545,0.1,0.00023381,2336.5,0.00023368,2332.8,-7.6791e-05,-0.0010113,-7.7775e-05,-7.3903,1.2372
5870,13.86,1.2727,0.1,0.00023393,2337.7,0.0002338,2333.7,-7.6798e-05,-7.0745e-05,-7.7873e-05,-8.0756,1.2367
5871,13.86,1.0909,0.1,0.00023407,2339.1,0.00023392,2334.7,-7.6805e-05,0.00085343,-7.798e-05,-8.826,1.2362
5872,13.86,0.90909,0.1,0.00023422,2340.6,0.00023405,2335.7,-7.6814e-05,0.0017245,-7.8097e-05,-9.6384,1.2356
5873,13.86,0.72727,0.1,0.00023438,2342.2,0.0002342,2336.9,-7.6824e-05,0.0026926,-7.8223e-05,-10.51,1.235
5874,13.86,0.54545,0.1,0.00023455,2343.9,0.00023436,2338.2,-7.6835e-05,0.0031766,-7.8359e-05,-11.442,1.2343
5875,13.86,0.36364,0.1,0.00023476,2345.9,0.00023454,2339.7,-7.6848e-05,0.0061312,-7.8515e-05,-12.518,1.2336
5876,13.86,0.18182,0.1,0.00023521,2350.5,0.00023495,2342.8,-7.6863e-05,0.0012831,-7.8894e-05,-15.261,1.2329
5877,13.676,5.8182,0.1,0.00023999,2398.2,0.00023973,2390.7,-7.8455e-05,0.001449,-8.0443e-05,-14.93,1.206
5878,13.676,5.6364,0.1,0.00023953,2393.7,0.00023932,2387.6,-7.8443e-05,0.0055564,-8.0058e-05,-12.134,1.2068
5879,13.676,5.4545,0.1,0.00023932,2391.6,0.00023914,2386.1,-7.8432e-05,0.0030099,-7.9894e-05,-10.98,1.2076
5880,13.676,5.2727,0.1,0.00023914,2389.8,0.00023897,2384.8,-7.8423e-05,0.0025927,-7.9751e-05,-9.9718,1.2082
5881,13.676,5.0909,0.1,0.00023898,2388.1,0.00023882,2383.6,-7.8415e-05,0.0017576,-7.9617e-05,-9.0265,1.2089
5882,13.676,4.9091,0.1,0.00023882,2386.6,0.00023868,2382.5,-7.8408e-05,0.0010005,-7.9492e-05,-8.1434,1.2094
5883,13.676,4.7273,0.1,0.00023868,2385.2,0.00023856,2381.5,-7.8402e-05,0.00018556,-7.9377e-05,-7.3261,1.2099
5884,13.676,4.5455,0.1,0.00023856,2383.9,0.00023844,2380.6,-7.8397e-05,-0.00065766,-7.9273e-05,-6.5785,1.2104
5885,13.676,4.3636,0.1,0.00023844,2382.8,0.00023834,2379.8,-7.8393e-05,-0.0015417,-7.9179e-05,-5.9041,1.2108
5886,13.676,4.1818,0.1,0.00023834,2381.8,0.00023825,2379.1,-7.839e-05,-0.0024598,-7.9096e-05,-5.3063,1.2112
5887,13.676,4,0.1,0.00023825,2380.9,0.00023817,2378.5,-7.8387e-05,-0.0033985,-7.9024e-05,-4.7879,1.2115
5888,13.676,3.8182,0.1,0.00023818,2380.2,0.00023811,2378,-7.8385e-05,-0.0043266,-7.8963e-05,-4.3517,1.2118
5889,13.676,3.6364,0.1,0.00023812,2379.6,0.00023806,2377.6,-7.8383e-05,-0.005199,-7.8915e-05,-3.9998,1.212
5890,13.676,3.4545,0.1,0.00023808,2379.2,0.00023802,2377.3,-7.8382e-05,-0.0059531,-7.8878e-05,-3.7342,1.2121
5891,13.676,3.2727,0.1,0.00023805,2378.9,0.00023799,2377.1,-7.8381e-05,-0.0065122,-7.8854e-05,-3.5563,1.2122
5892,13.676,3.0909,0.1,0.00023804,2378.7,0.00023798,2377,-7.8381e-05,-0.0068116,-7.8841e-05,-3.467,1.2123
5893,13.676,2.9091,0.1,0.00023804,2378.7,0.00023798,2377,-7.8381e-05,-0.0068118,-7.8841e-05,-3.467,1.2123
5894,13.676,2.7273,0.1,0.00023805,2378.9,0.00023799,2377.1,-7.8381e-05,-0.0065124,-7.8854e-05,-3.5563,1.2122
5895,13.676,2.5455,0.1,0.00023808,2379.2,0.00023802,2377.3,-7.8382e-05,-0.0059529,-7.8878e-05,-3.7342,1.2121
5896,13.676,2.3636,0.1,0.00023812,2379.6,0.00023806,2377.6,-7.8383e-05,-0.0051984,-7.8915e-05,-3.9998,1.212
5897,13.676,2.1818,0.1,0.00023818,2380.2,0.00023811,2378,-7.8385e-05,-0.0043267,-7.8963e-05,-4.3517,1.2118
5898,13.676,2,0.1,0.00023825,2380.9,0.00023817,2378.5,-7.8387e-05,-0.0033972,-7.9024e-05,-4.7879,1.2115
5899,13.676,1.8182,0.1,0.00023834,2381.8,0.00023825,2379.1,-7.839e-05,-0.0024602,-7.9096e-05,-5.3063,1.2112
5900,13.676,1.6364,0.1,0.00023844,2382.8,0.00023834,2379.8,-7.8393e-05,-0.0015418,-7.9179e-05,-5.9041,1.2108
5901,13.676,1.4545,0.1,0.00023856,2383.9,0.00023844,2380.6,-7.8397e-05,-0.00065827,-7.9273e-05,-6.5785,1.2104
5902,13.676,1.2727,0.1,0.00023868,2385.2,0.00023856,2381.5,-7.8402e-05,0.00018678,-7.9377e-05,-7.326,1.2099
5903,13.676,1.0909,0.1,0.00023882,2386.6,0.00023868,2382.5,-7.8408e-05,0.00099919,-7.9492e-05,-8.1433,1.2094
5904,13.676,0.90909,0.1,0.00023898,2388.1,0.00023882,2383.6,-7.8415e-05,0.0017561,-7.9617e-05,-9.0264,1.2089
5905,13.676,0.72727,0.1,0.00023914,2389.8,0.00023897,2384.8,-7.8423e-05,0.002591,-7.9751e-05,-9.9718,1.2082
5906,13.676,0.54545,0.1,0.00023932,2391.6,0.00023914,2386.1,-7.8432e-05,0.0030094,-7.9894e-05,-10.98,1.2076
5907,13.676,0.36364,0.1,0.00023953,2393.7,0.00023932,2387.6,-7.8443e-05,0.0055567,-8.0058e-05,-12.134,1.2068
5908,13.676,0.18182,0.1,0.00023999,2398.2,0.00023973,2390.7,-7.8455e-05,0.0014495,-8.0443e-05,-14.93,1.206
5909,13.491,5.8182,0.1,0.00024479,2446.2,0.00024453,2438.8,-8.0055e-05,0.0016327,-8.1997e-05,-14.593,1.1794
5910,13.491,5.6364,0.1,0.00024433,2441.6,0.00024412,2435.7,-8.0045e-05,0.004951,-8.1608e-05,-11.738,1.1802
5911,13.491,5.4545,0.1,0.00024411,2439.5,0.00024393,2434.2,-8.0037e-05,0.002835,-8.1435e-05,-10.502,1.1809
5912,13.491,5.2727,0.1,0.00024393,2437.6,0.00024377,2432.9,-8.003e-05,0.0024917,-8.1282e-05,-9.4111,1.1816
5913,13.491,5.0909,0.1,0.00024376,2435.9,0.00024361,2431.7,-8.0024e-05,0.0018082,-8.114e-05,-8.3865,1.1823
5914,13.491,4.9091,0.1,0.0002436,2434.3,0.00024347,2430.6,-8.0019e-05,0.001187,-8.1007e-05,-7.4275,1.1828
5915,13.491,4.7273,0.1,0.00024345,2432.8,0.00024334,2429.6,-8.0015e-05,0.00051529,-8.0885e-05,-6.5387,1.1834
5916,13.491,4.5455,0.1,0.00024332,2431.5,0.00024322,2428.6,-8.0011e-05,-0.00019601,-8.0773e-05,-5.7245,1.1838
5917,13.491,4.3636,0.1,0.0002432,2430.3,0.00024311,2427.8,-8.0009e-05,-0.00096264,-8.0673e-05,-4.9891,1.1843
5918,13.491,4.1818,0.1,0.0002431,2429.3,0.00024302,2427.1,-8.0007e-05,-0.0017951,-8.0584e-05,-4.3364,1.1846
5919,13.491,4,0.1,0.00024301,2428.4,0.00024294,2426.5,-8.0005e-05,-0.0026966,-8.0506e-05,-3.7699,1.185
5920,13.491,3.8182,0.1,0.00024293,2427.6,0.00024287,2426,-8.0004e-05,-0.0036498,-8.0442e-05,-3.2926,1.1852
5921,13.491,3.6364,0.1,0.00024287,2427,0.00024282,2425.6,-8.0003e-05,-0.0046161,-8.0389e-05,-2.9073,1.1854
5922,13.491,3.4545,0.1,0.00024282,2426.6,0.00024278,2425.2,-8.0003e-05,-0.005513,-8.035e-05,-2.6162,1.1856
5923,13.491,3.2727,0.1,0.00024279,2426.3,0.00024275,2425,-8.0002e-05,-0.0062237,-8.0324e-05,-2.4212,1.1857
5924,13.491,3.0909,0.1,0.00024278,2426.1,0.00024274,2424.9,-8.0002e-05,-0.0066206,-8.031e-05,-2.3233,1.1858
5925,13.491,2.9091,0.1,0.00024278,2426.1,0.00024274,2424.9,-8.0002e-05,-0.0066208,-8.031e-05,-2.3233,1.1858
5926,13.491,2.7273,0.1,0.00024279,2426.3,0.00024275,2425,-8.0002e-05,-0.0062233,-8.0324e-05,-2.4211,1.1857
5927,13.491,2.5455,0.1,0.00024282,2426.6,0.00024278,2425.2,-8.0003e-05,-0.0055126,-8.035e-05,-2.6162,1.1856
5928,13.491,2.3636,0.1,0.00024287,2427,0.00024282,2425.6,-8.0003e-05,-0.0046159,-8.0389e-05,-2.9073,1.1854
5929,13.491,2.1818,0.1,0.00024293,2427.6,0.00024287,2426,-8.0004e-05,-0.0036503,-8.0442e-05,-3.2926,1.1852
5930,13.491,2,0.1,0.00024301,2428.4,0.00024294,2426.5,-8.0005e-05,-0.0026973,-8.0506e-05,-3.7698,1.185
5931,13.491,1.8182,0.1,0.0002431,2429.3,0.00024302,2427.1,-8.0007e-05,-0.0017949,-8.0584e-05,-4.3364,1.1846
5932,13.491,1.6364,0.1,0.0002432,2430.3,0.00024311,2427.8,-8.0009e-05,-0.0009626,-8.0673e-05,-4.9891,1.1843
5933,13.491,1.4545,0.1,0.00024332,2431.5,0.00024322,2428.6,-8.0011e-05,-0.00019686,-8.0773e-05,-5.7245,1.1838
5934,13.491,1.2727,0.1,0.00024345,2432.8,0.00024334,2429.6,-8.0015e-05,0.00051439,-8.0885e-05,-6.5387,1.1834
5935,13.491,1.0909,0.1,0.0002436,2434.3,0.00024347,2430.6,-8.0019e-05,0.0011867,-8.1007e-05,-7.4275,1.1828
5936,13.491,0.90909,0.1,0.00024376,2435.9,0.00024361,2431.7,-8.0024e-05,0.0018058,-8.114e-05,-8.3864,1.1823
5937,13.491,0.72727,0.1,0.00024393,2437.6,0.00024377,2432.9,-8.003e-05,0.0024905,-8.1282e-05,-9.411,1.1816
5938,13.491,0.54545,0.1,0.00024411,2439.5,0.00024393,2434.2,-8.0037e-05,0.0028345,-8.1435e-05,-10.502,1.1809
5939,13.491,0.36364,0.1,0.00024433,2441.6,0.00024412,2435.7,-8.0045e-05,0.0049514,-8.1608e-05,-11.738,1.1802
5940,13.491,0.18182,0.1,0.00024479,2446.2,0.00024453,2438.8,-8.0055e-05,0.0016324,-8.1997e-05,-14.593,1.1794
5941,13.307,5.8182,0.1,0.0002496,2494.3,0.00024936,2487.1,-8.1662e-05,0.0018371,-8.3559e-05,-14.25,1.1529
5942,13.307,5.6364,0.1,0.00024914,2489.7,0.00024895,2484,-8.1654e-05,0.0043139,-8.3163e-05,-11.329,1.1537
5943,13.307,5.4545,0.1,0.00024892,2487.5,0.00024875,2482.5,-8.1648e-05,0.0026535,-8.298e-05,-10.004,1.1545
5944,13.307,5.2727,0.1,0.00024873,2485.6,0.00024858,2481.2,-8.1644e-05,0.0023952,-8.2819e-05,-8.8248,1.1552
5945,13.307,5.0909,0.1,0.00024855,2483.8,0.00024842,2480,-8.164e-05,0.0018835,-8.2667e-05,-7.7149,1.1558
5946,13.307,4.9091,0.1,0.00024839,2482.2,0.00024827,2478.8,-8.1637e-05,0.0014343,-8.2526e-05,-6.6746,1.1564
5947,13.307,4.7273,0.1,0.00024824,2480.7,0.00024814,2477.8,-8.1635e-05,0.00095575,-8.2395e-05,-5.7091,1.157
5948,13.307,4.5455,0.1,0.0002481,2479.3,0.00024802,2476.9,-8.1633e-05,0.00045266,-8.2275e-05,-4.8234,1.1574
5949,13.307,4.3636,0.1,0.00024798,2478,0.00024791,2476,-8.1632e-05,-0.00010404,-8.2168e-05,-4.0225,1.1579
5950,13.307,4.1818,0.1,0.00024787,2477,0.00024781,2475.3,-8.1632e-05,-0.00073581,-8.2072e-05,-3.311,1.1583
5951,13.307,4,0.1,0.00024777,2476,0.00024773,2474.7,-8.1632e-05,-0.001481,-8.199e-05,-2.6928,1.1586
5952,13.307,3.8182,0.1,0.00024769,2475.2,0.00024766,2474.1,-8.1631e-05,-0.0023682,-8.192e-05,-2.1716,1.1588
5953,13.307,3.6364,0.1,0.00024763,2474.6,0.0002476,2473.7,-8.1631e-05,-0.0034186,-8.1864e-05,-1.7504,1.1591
5954,13.307,3.4545,0.1,0.00024758,2474.1,0.00024756,2473.4,-8.1632e-05,-0.004585,-8.1822e-05,-1.4319,1.1592
5955,13.307,3.2727,0.1,0.00024755,2473.8,0.00024753,2473.2,-8.1632e-05,-0.0056883,-8.1793e-05,-1.2181,1.1593
5956,13.307,3.0909,0.1,0.00024753,2473.6,0.00024752,2473.1,-8.1632e-05,-0.0063948,-8.1779e-05,-1.1107,1.1594
5957,13.307,2.9091,0.1,0.00024753,2473.6,0.00024752,2473.1,-8.1632e-05,-0.0063951,-8.1779e-05,-1.1107,1.1594
5958,13.307,2.7273,0.1,0.00024755,2473.8,0.00024753,2473.2,-8.1632e-05,-0.0056879,-8.1793e-05,-1.2181,1.1593
5959,13.307,2.5455,0.1,0.00024758,2474.1,0.00024756,2473.4,-8.1632e-05,-0.004586,-8.1822e-05,-1.4319,1.1592
5960,13.307,2.3636,0.1,0.00024763,2474.6,0.0002476,2473.7,-8.1631e-05,-0.0034184,-8.1864e-05,-1.7504,1.1591
5961,13.307,2.1818,0.1,0.00024769,2475.2,0.00024766,2474.1,-8.1631e-05,-0.0023687,-8.192e-05,-2.1716,1.1588
5962,13.307,2,0.1,0.00024777,2476,0.00024773,2474.7,-8.1632e-05,-0.00148,-8.199e-05,-2.6928,1.1586
5963,13.307,1.8182,0.1,0.00024787,2477,0.00024781,2475.3,-8.1632e-05,-0.00073655,-8.2072e-05,-3.3109,1.1583
5964,13.307,1.6364,0.1,0.00024798,2478,0.00024791,2476,-8.1632e-05,-0.00010331,-8.2168e-05,-4.0225,1.1579
5965,13.307,1.4545,0.1,0.0002481,2479.3,0.00024802,2476.9,-8.1633e-05,0.00045166,-8.2275e-05,-4.8233,1.1574
5966,13.307,1.2727,0.1,0.00024824,2480.7,0.00024814,2477.8,-8.1635e-05,0.00095601,-8.2395e-05,-5.709,1.157
5967,13.307,1.0909,0.1,0.00024839,2482.2,0.00024827,2478.8,-8.1637e-05,0.0014349,-8.2526e-05,-6.6746,1.1564
5968,13.307,0.90909,0.1,0.00024855,2483.8,0.00024842,2480,-8.164e-05,0.0018813,-8.2667e-05,-7.7149,1.1558
5969,13.307,0.72727,0.1,0.00024873,2485.6,0.00024858,2481.2,-8.1644e-05,0.0023933,-8.2819e-05,-8.8247,1.1552
5970,13.307,0.54545,0.1,0.00024892,2487.5,0.00024875,2482.5,-8.1648e-05,0.0026541,-8.298e-05,-10.004,1.1545
5971,13.307,0.36364,0.1,0.00024914,2489.7,0.00024895,2484,-8.1654e-05,0.0043131,-8.3163e-05,-11.329,1.1537
5972,13.307,0.18182,0.1,0.0002496,2494.3,0.00024936,2487.1,-8.1662e-05,0.0018376,-8.3559e-05,-14.25,1.1529
5973,13.122,5.8182,0.1,0.00025444,2542.7,0.0002542,2535.7,-8.3276e-05,0.0020511,-8.5126e-05,-13.899,1.1266
5974,13.122,5.6364,0.1,0.00025398,2538,0.00025379,2532.5,-8.3271e-05,0.0036245,-8.4723e-05,-10.905,1.1274
5975,13.122,5.4545,0.1,0.00025375,2535.8,0.00025359,2531,-8.3268e-05,0.0024477,-8.453e-05,-9.4837,1.1282
5976,13.122,5.2727,0.1,0.00025355,2533.8,0.00025341,2529.7,-8.3266e-05,0.002286,-8.4359e-05,-8.2099,1.1289
5977,13.122,5.0909,0.1,0.00025337,2531.9,0.00025325,2528.4,-8.3264e-05,0.0019811,-8.4197e-05,-7.0084,1.1296
5978,13.122,4.9091,0.1,0.0002532,2530.2,0.0002531,2527.3,-8.3263e-05,0.0017595,-8.4046e-05,-5.8806,1.1302
5979,13.122,4.7273,0.1,0.00025304,2528.6,0.00025296,2526.2,-8.3263e-05,0.0015681,-8.3907e-05,-4.8324,1.1307
5980,13.122,4.5455,0.1,0.0002529,2527.2,0.00025283,2525.3,-8.3264e-05,0.0014246,-8.3779e-05,-3.87,1.1312
5981,13.122,4.3636,0.1,0.00025277,2525.9,0.00025272,2524.4,-8.3264e-05,0.0013413,-8.3664e-05,-2.9988,1.1316
5982,13.122,4.1818,0.1,0.00025265,2524.8,0.00025262,2523.7,-8.3265e-05,0.0013326,-8.3561e-05,-2.2243,1.132
5983,13.122,4,0.1,0.00025256,2523.8,0.00025253,2523,-8.3266e-05,0.0014508,-8.3473e-05,-1.5512,1.1324
5984,13.122,3.8182,0.1,0.00025247,2523,0.00025246,2522.5,-8.3267e-05,0.0018187,-8.3398e-05,-0.98377,1.1326
5985,13.122,3.6364,0.1,0.00025241,2522.3,0.0002524,2522.1,-8.3268e-05,0.0028636,-8.3338e-05,-0.5261,1.1329
5986,13.122,3.4545,0.1,0.00025236,2521.8,0.00025235,2521.7,-8.3268e-05,0.0073139,-8.3293e-05,-0.18388,1.133
5987,13.122,3.2727,0.1,0.00025232,2521.5,0.00025232,2521.5,-8.326e-05,0.073093,-8.3272e-05,-0.017259,1.1331
5988,13.122,3.0909,0.1,0.00025231,2521.3,0.00025231,2521.4,-8.3246e-05,0.17926,-8.3271e-05,-0.006845,1.1332
5989,13.122,2.9091,0.1,0.00025231,2521.3,0.00025231,2521.4,-8.3246e-05,0.17926,-8.3271e-05,-0.0068443,1.1332
5990,13.122,2.7273,0.1,0.00025232,2521.5,0.00025232,2521.5,-8.326e-05,0.073102,-8.3272e-05,-0.01726,1.1331
5991,13.122,2.5455,0.1,0.00025236,2521.8,0.00025235,2521.7,-8.3268e-05,0.0073159,-8.3293e-05,-0.18386,1.133
5992,13.122,2.3636,0.1,0.00025241,2522.3,0.0002524,2522.1,-8.3268e-05,0.0028643,-8.3338e-05,-0.52608,1.1329
5993,13.122,2.1818,0.1,0.00025247,2523,0.00025246,2522.5,-8.3267e-05,0.0018191,-8.3398e-05,-0.98374,1.1326
5994,13.122,2,0.1,0.00025256,2523.8,0.00025253,2523,-8.3266e-05,0.0014508,-8.3473e-05,-1.5512,1.1324
5995,13.122,1.8182,0.1,0.00025265,2524.8,0.00025262,2523.7,-8.3265e-05,0.0013333,-8.3561e-05,-2.2243,1.132
5996,13.122,1.6364,0.1,0.00025277,2525.9,0.00025272,2524.4,-8.3264e-05,0.0013412,-8.3664e-05,-2.9988,1.1316
5997,13.122,1.4545,0.1,0.0002529,2527.2,0.00025283,2525.3,-8.3264e-05,0.001425,-8.3779e-05,-3.8699,1.1312
5998,13.122,1.2727,0.1,0.00025304,2528.6,0.00025296,2526.2,-8.3263e-05,0.0015672,-8.3907e-05,-4.8324,1.1307
5999,13.122,1.0909,0.1,0.0002532,2530.2,0.0002531,2527.3,-8.3264e-05,0.0017595,-8.4046e-05,-5.8805,1.1302
6000,13.122,0.90909,0.1,0.00025337,2531.9,0.00025325,2528.4,-8.3264e-05,0.0019797,-8.4197e-05,-7.0083,1.1296
6001,13.122,0.72727,0.1,0.00025355,2533.8,0.00025341,2529.7,-8.3266e-05,0.0022839,-8.4359e-05,-8.2099,1.1289
6002,13.122,0.54545,0.1,0.00025375,2535.8,0.00025359,2531,-8.3268e-05,0.0024474,-8.453e-05,-9.4837,1.1282
6003,13.122,0.36364,0.1,0.00025398,2538,0.00025379,2532.5,-8.3271e-05,0.0036253,-8.4723e-05,-10.905,1.1274
6004,13.122,0.18182,0.1,0.00025444,2542.7,0.0002542,2535.7,-8.3276e-05,0.0020509,-8.5126e-05,-13.899,1.1266
6005,12.938,5.8182,0.1,0.0002593,2591.2,0.00025907,2584.4,-8.4897e-05,0.0022968,-8.67e-05,-13.539,1.1004
6006,12.938,5.6364,0.1,0.00025883,2586.5,0.00025865,2581.3,-8.4895e-05,0.0029005,-8.6289e-05,-10.465,1.1013
6007,12.938,5.4545,0.1,0.0002586,2584.2,0.00025845,2579.7,-8.4895e-05,0.002237,-8.6085e-05,-8.9397,1.1021
6008,12.938,5.2727,0.1,0.00025839,2582.2,0.00025827,2578.4,-8.4895e-05,0.0021904,-8.5902e-05,-7.5636,1.1028
6009,12.938,5.0909,0.1,0.0002582,2580.2,0.0002581,2577.1,-8.4896e-05,0.0021384,-8.573e-05,-6.2632,1.1035
6010,12.938,4.9091,0.1,0.00025802,2578.5,0.00025794,2575.9,-8.4898e-05,0.0022391,-8.5569e-05,-5.041,1.1041
6011,12.938,4.7273,0.1,0.00025786,2576.8,0.00025779,2574.9,-8.49e-05,0.0025276,-8.542e-05,-3.9039,1.1046
6012,12.938,4.5455,0.1,0.00025771,2575.3,0.00025766,2573.9,-8.4902e-05,0.0031559,-8.5283e-05,-2.859,1.1051
6013,12.938,4.3636,0.1,0.00025758,2574,0.00025754,2573,-8.4905e-05,0.004504,-8.516e-05,-1.9129,1.1056
6014,12.938,4.1818,0.1,0.00025746,2572.8,0.00025744,2572.3,-8.4907e-05,0.0079334,-8.5051e-05,-1.0731,1.106
6015,12.938,4,0.1,0.00025735,2571.8,0.00025735,2571.6,-8.4907e-05,0.02422,-8.4958e-05,-0.35586,1.1063
6016,12.938,3.8182,0.1,0.00025727,2570.9,0.00025727,2571,-8.487e-05,0.31546,-8.4916e-05,-0.028022,1.1066
6017,12.938,3.6364,0.1,0.0002572,2570.2,0.00025721,2570.6,-8.4808e-05,0.79927,-8.4916e-05,-0.011388,1.1068
6018,12.938,3.4545,0.1,0.00025715,2569.7,0.00025717,2570.3,-8.4759e-05,1.1742,-8.4917e-05,-0.0079631,1.107
6019,12.938,3.2727,0.1,0.00025711,2569.3,0.00025713,2570,-8.4727e-05,1.4267,-8.4918e-05,-0.0066855,1.1071
6020,12.938,3.0909,0.1,0.00025709,2569.2,0.00025712,2569.9,-8.471e-05,1.5535,-8.4918e-05,-0.0062048,1.1072
6021,12.938,2.9091,0.1,0.00025709,2569.2,0.00025712,2569.9,-8.471e-05,1.5535,-8.4918e-05,-0.0062049,1.1072
6022,12.938,2.7273,0.1,0.00025711,2569.3,0.00025713,2570,-8.4727e-05,1.4267,-8.4918e-05,-0.006686,1.1071
6023,12.938,2.5455,0.1,0.00025715,2569.7,0.00025717,2570.3,-8.4759e-05,1.1742,-8.4917e-05,-0.0079624,1.107
6024,12.938,2.3636,0.1,0.0002572,2570.2,0.00025721,2570.6,-8.4808e-05,0.79929,-8.4916e-05,-0.011388,1.1068
6025,12.938,2.1818,0.1,0.00025727,2570.9,0.00025727,2571,-8.487e-05,0.31548,-8.4916e-05,-0.028021,1.1066
6026,12.938,2,0.1,0.00025735,2571.8,0.00025735,2571.6,-8.4907e-05,0.024222,-8.4958e-05,-0.35584,1.1063
6027,12.938,1.8182,0.1,0.00025746,2572.8,0.00025744,2572.3,-8.4907e-05,0.0079342,-8.5051e-05,-1.0731,1.106
6028,12.938,1.6364,0.1,0.00025758,2574,0.00025754,2573,-8.4905e-05,0.0045034,-8.516e-05,-1.9129,1.1056
6029,12.938,1.4545,0.1,0.00025771,2575.3,0.00025766,2573.9,-8.4902e-05,0.0031564,-8.5283e-05,-2.8589,1.1051
6030,12.938,1.2727,0.1,0.00025786,2576.8,0.00025779,2574.9,-8.49e-05,0.0025272,-8.542e-05,-3.9039,1.1046
6031,12.938,1.0909,0.1,0.00025802,2578.5,0.00025794,2575.9,-8.4898e-05,0.0022383,-8.5569e-05,-5.0409,1.1041
6032,12.938,0.90909,0.1,0.0002582,2580.2,0.0002581,2577.1,-8.4896e-05,0.0021378,-8.573e-05,-6.2631,1.1035
6033,12.938,0.72727,0.1,0.00025839,2582.2,0.00025827,2578.4,-8.4895e-05,0.0021886,-8.5902e-05,-7.5635,1.1028
6034,12.938,0.54545,0.1,0.0002586,2584.2,0.00025845,2579.7,-8.4895e-05,0.0022358,-8.6085e-05,-8.9397,1.1021
6035,12.938,0.36364,0.1,0.00025883,2586.5,0.00025865,2581.3,-8.4895e-05,0.0029011,-8.6289e-05,-10.465,1.1013
6036,12.938,0.18182,0.1,0.0002593,2591.2,0.00025907,2584.4,-8.4897e-05,0.0022972,-8.67e-05,-13.539,1.1004
6037,12.754,5.8182,0.1,0.00026418,2640,0.00026395,2633.4,-8.6526e-05,0.0026007,-8.8279e-05,-13.17,1.0745
6038,12.754,5.6364,0.1,0.00026371,2635.3,0.00026354,2630.2,-8.6527e-05,0.0021578,-8.786e-05,-10.007,1.0753
6039,12.754,5.4545,0.1,0.00026347,2632.9,0.00026333,2628.7,-8.653e-05,0.00204,-8.7644e-05,-8.369,1.0761
6040,12.754,5.2727,0.1,0.00026325,2630.7,0.00026314,2627.3,-8.6533e-05,0.0021355,-8.7449e-05,-6.8824,1.0769
6041,12.754,5.0909,0.1,0.00026305,2628.7,0.00026296,2626,-8.6537e-05,0.0024109,-8.7266e-05,-5.4753,1.0775
6042,12.754,4.9091,0.1,0.00026287,2626.9,0.0002628,2624.8,-8.6541e-05,0.0030123,-8.7094e-05,-4.1513,1.0782
6043,12.754,4.7273,0.1,0.0002627,2625.2,0.00026265,2623.7,-8.6545e-05,0.004248,-8.6934e-05,-2.9185,1.0787
6044,12.754,4.5455,0.1,0.00026254,2623.6,0.00026251,2622.7,-8.6549e-05,0.0071349,-8.6788e-05,-1.7858,1.0792
6045,12.754,4.3636,0.1,0.0002624,2622.2,0.00026239,2621.8,-8.6552e-05,0.017469,-8.6657e-05,-0.76609,1.0797
6046,12.754,4.1818,0.1,0.00026227,2620.9,0.00026228,2621,-8.6528e-05,0.23055,-8.6567e-05,-0.061598,1.0801
6047,12.754,4,0.1,0.00026217,2619.9,0.00026218,2620.3,-8.6432e-05,0.98319,-8.6565e-05,-0.015349,1.0804
6048,12.754,3.8182,0.1,0.00026208,2619,0.0002621,2619.8,-8.6347e-05,1.6522,-8.6568e-05,-0.0096593,1.0807
6049,12.754,3.6364,0.1,0.000262,2618.2,0.00026204,2619.3,-8.6277e-05,2.1958,-8.657e-05,-0.0076238,1.081
6050,12.754,3.4545,0.1,0.00026195,2617.7,0.00026199,2619,-8.6225e-05,2.6077,-8.6573e-05,-0.006662,1.0811
6051,12.754,3.2727,0.1,0.00026191,2617.3,0.00026196,2618.7,-8.6189e-05,2.8841,-8.6574e-05,-0.0061781,1.0812
6052,12.754,3.0909,0.1,0.00026189,2617.1,0.00026194,2618.6,-8.6172e-05,3.0228,-8.6575e-05,-0.0059705,1.0813
6053,12.754,2.9091,0.1,0.00026189,2617.1,0.00026194,2618.6,-8.6172e-05,3.0229,-8.6575e-05,-0.0059699,1.0813
6054,12.754,2.7273,0.1,0.00026191,2617.3,0.00026196,2618.7,-8.6189e-05,2.8841,-8.6574e-05,-0.0061783,1.0812
6055,12.754,2.5455,0.1,0.00026195,2617.7,0.00026199,2619,-8.6225e-05,2.6077,-8.6573e-05,-0.0066627,1.0811
6056,12.754,2.3636,0.1,0.000262,2618.2,0.00026204,2619.3,-8.6277e-05,2.1959,-8.657e-05,-0.0076237,1.081
6057,12.754,2.1818,0.1,0.00026208,2619,0.0002621,2619.8,-8.6347e-05,1.6522,-8.6568e-05,-0.0096604,1.0807
6058,12.754,2,0.1,0.00026217,2619.9,0.00026218,2620.3,-8.6432e-05,0.98322,-8.6565e-05,-0.015348,1.0804
6059,12.754,1.8182,0.1,0.00026227,2620.9,0.00026228,2621,-8.6528e-05,0.23058,-8.6567e-05,-0.061594,1.0801
6060,12.754,1.6364,0.1,0.0002624,2622.2,0.00026239,2621.8,-8.6552e-05,0.017472,-8.6657e-05,-0.76605,1.0797
6061,12.754,1.4545,0.1,0.00026254,2623.6,0.00026251,2622.7,-8.6549e-05,0.0071348,-8.6788e-05,-1.7857,1.0792
6062,12.754,1.2727,0.1,0.0002627,2625.2,0.00026265,2623.7,-8.6545e-05,0.0042484,-8.6934e-05,-2.9185,1.0787
6063,12.754,1.0909,0.1,0.00026287,2626.9,0.0002628,2624.8,-8.6541e-05,0.0030118,-8.7094e-05,-4.1512,1.0782
6064,12.754,0.90909,0.1,0.00026305,2628.7,0.00026296,2626,-8.6537e-05,0.0024096,-8.7266e-05,-5.4752,1.0775
6065,12.754,0.72727,0.1,0.00026325,2630.7,0.00026314,2627.3,-8.6533e-05,0.0021341,-8.7449e-05,-6.8823,1.0769
6066,12.754,0.54545,0.1,0.00026347,2632.9,0.00026333,2628.7,-8.653e-05,0.0020398,-8.7644e-05,-8.369,1.0761
6067,12.754,0.36364,0.1,0.00026371,2635.3,0.00026354,2630.2,-8.6527e-05,0.0021573,-8.786e-05,-10.007,1.0753
6068,12.754,0.18182,0.1,0.00026418,2640,0.00026395,2633.4,-8.6526e-05,0.0026005,-8.8279e-05,-13.17,1.0745
6069,12.569,5.8182,0.1,0.00026908,2689,0.00026886,2682.5,-8.8162e-05,0.0029142,-8.9865e-05,-12.789,1.0487
6070,12.569,5.6364,0.1,0.0002686,2684.2,0.00026844,2679.4,-8.8167e-05,0.0013354,-8.9435e-05,-9.5287,1.0495
6071,12.569,5.4545,0.1,0.00026836,2681.7,0.00026822,2677.8,-8.8172e-05,0.0018014,-8.9207e-05,-7.7693,1.0503
6072,12.569,5.2727,0.1,0.00026813,2679.5,0.00026803,2676.4,-8.8179e-05,0.0020742,-8.8999e-05,-6.1632,1.0511
6073,12.569,5.0909,0.1,0.00026793,2677.4,0.00026785,2675.1,-8.8185e-05,0.0028032,-8.8803e-05,-4.6408,1.0518
6074,12.569,4.9091,0.1,0.00026773,2675.5,0.00026768,2673.9,-8.8192e-05,0.0042937,-8.8619e-05,-3.2071,1.0524
6075,12.569,4.7273,0.1,0.00026755,2673.7,0.00026752,2672.7,-8.8198e-05,0.0080218,-8.8449e-05,-1.8722,1.053
6076,12.569,4.5455,0.1,0.00026739,2672,0.00026738,2671.7,-8.8203e-05,0.025246,-8.8294e-05,-0.65625,1.0535
6077,12.569,4.3636,0.1,0.00026724,2670.5,0.00026725,2670.8,-8.8143e-05,0.52353,-8.8218e-05,-0.034911,1.054
6078,12.569,4.1818,0.1,0.00026711,2669.2,0.00026713,2670,-8.802e-05,1.5002,-8.8221e-05,-0.013345,1.0544
6079,12.569,4,0.1,0.00026699,2668.1,0.00026703,2669.3,-8.791e-05,2.3659,-8.8226e-05,-0.0091703,1.0548
6080,12.569,3.8182,0.1,0.0002669,2667.2,0.00026695,2668.7,-8.7817e-05,3.0993,-8.8231e-05,-0.0074901,1.055
6081,12.569,3.6364,0.1,0.00026682,2666.4,0.00026689,2668.2,-8.7743e-05,3.6934,-8.8235e-05,-0.0066341,1.0553
6082,12.569,3.4545,0.1,0.00026676,2665.8,0.00026684,2667.9,-8.7686e-05,4.1431,-8.8238e-05,-0.0061594,1.0554
6083,12.569,3.2727,0.1,0.00026673,2665.4,0.0002668,2667.6,-8.7648e-05,4.4449,-8.824e-05,-0.0058975,1.0556
6084,12.569,3.0909,0.1,0.00026671,2665.2,0.00026678,2667.5,-8.7629e-05,4.5964,-8.8241e-05,-0.0057795,1.0556
6085,12.569,2.9091,0.1,0.00026671,2665.2,0.00026678,2667.5,-8.7629e-05,4.5964,-8.8241e-05,-0.0057795,1.0556
6086,12.569,2.7273,0.1,0.00026673,2665.4,0.0002668,2667.6,-8.7648e-05,4.4449,-8.824e-05,-0.0058977,1.0556
6087,12.569,2.5455,0.1,0.00026676,2665.8,0.00026684,2667.9,-8.7686e-05,4.1431,-8.8238e-05,-0.0061591,1.0554
6088,12.569,2.3636,0.1,0.00026682,2666.4,0.00026689,2668.2,-8.7743e-05,3.6934,-8.8235e-05,-0.0066346,1.0553
6089,12.569,2.1818,0.1,0.0002669,2667.2,0.00026695,2668.7,-8.7817e-05,3.0993,-8.8231e-05,-0.00749,1.055
6090,12.569,2,0.1,0.00026699,2668.1,0.00026703,2669.3,-8.791e-05,2.3659,-8.8226e-05,-0.0091709,1.0548
6091,12.569,1.8182,0.1,0.00026711,2669.2,0.00026713,2670,-8.802e-05,1.5003,-8.8221e-05,-0.013346,1.0544
6092,12.569,1.6364,0.1,0.00026724,2670.5,0.00026725,2670.8,-8.8143e-05,0.52357,-8.8218e-05,-0.03491,1.054
6093,12.569,1.4545,0.1,0.00026739,2672,0.00026738,2671.7,-8.8203e-05,0.025248,-8.8294e-05,-0.6562,1.0535
6094,12.569,1.2727,0.1,0.00026755,2673.7,0.00026752,2672.7,-8.8198e-05,0.008022,-8.8449e-05,-1.8722,1.053
6095,12.569,1.0909,0.1,0.00026773,2675.5,0.00026768,2673.9,-8.8192e-05,0.0042929,-8.8619e-05,-3.207,1.0524
6096,12.569,0.90909,0.1,0.00026793,2677.4,0.00026785,2675.1,-8.8185e-05,0.0028015,-8.8803e-05,-4.6407,1.0518
6097,12.569,0.72727,0.1,0.00026813,2679.5,0.00026803,2676.4,-8.8179e-05,0.0020728,-8.8999e-05,-6.1631,1.0511
6098,12.569,0.54545,0.1,0.00026836,2681.7,0.00026822,2677.8,-8.8172e-05,0.0018009,-8.9207e-05,-7.7692,1.0503
6099,12.569,0.36364,0.1,0.0002686,2684.2,0.00026844,2679.4,-8.8167e-05,0.001335,-8.9435e-05,-9.5287,1.0495
6100,12.569,0.18182,0.1,0.00026908,2689,0.00026886,2682.5,-8.8162e-05,0.002914,-8.9865e-05,-12.789,1.0487
6101,12.385,5.8182,0.1,0.000274,2738.1,0.00027379,2731.9,-8.9806e-05,0.0032627,-9.1457e-05,-12.397,1.023
6102,12.385,5.6364,0.1,0.00027352,2733.3,0.00027337,2728.8,-8.9814e-05,0.00045143,-9.1016e-05,-9.0285,1.0239
6103,12.385,5.4545,0.1,0.00027326,2730.8,0.00027314,2727.2,-8.9823e-05,0.0015407,-9.0773e-05,-7.1376,1.0248
6104,12.385,5.2727,0.1,0.00027303,2728.4,0.00027294,2725.7,-8.9832e-05,0.0020469,-9.0552e-05,-5.4024,1.0255
6105,12.385,5.0909,0.1,0.00027281,2726.2,0.00027275,2724.4,-8.9842e-05,0.0034639,-9.0342e-05,-3.7555,1.0262
6106,12.385,4.9091,0.1,0.00027261,2724.2,0.00027257,2723.1,-8.9851e-05,0.0069235,-9.0146e-05,-2.204,1.0269
6107,12.385,4.7273,0.1,0.00027242,2722.3,0.00027241,2722,-8.9859e-05,0.023253,-8.9964e-05,-0.76835,1.0275
6108,12.385,4.5455,0.1,0.00027225,2720.6,0.00027226,2720.9,-8.9788e-05,0.62689,-8.9876e-05,-0.0329,1.028
6109,12.385,4.3636,0.1,0.00027209,2719.1,0.00027212,2720,-8.9638e-05,1.8237,-8.9882e-05,-0.012827,1.0285
6110,12.385,4.1818,0.1,0.00027196,2717.7,0.00027201,2719.1,-8.9502e-05,2.9059,-8.989e-05,-0.0089633,1.0289
6111,12.385,4,0.1,0.00027184,2716.5,0.0002719,2718.4,-8.9384e-05,3.8513,-8.9898e-05,-0.0073973,1.0292
6112,12.385,3.8182,0.1,0.00027174,2715.5,0.00027182,2717.8,-8.9284e-05,4.6514,-8.9904e-05,-0.0065847,1.0295
6113,12.385,3.6364,0.1,0.00027166,2714.7,0.00027175,2717.3,-8.9203e-05,5.2995,-8.9909e-05,-0.0061156,1.0298
6114,12.385,3.4545,0.1,0.00027159,2714.1,0.00027169,2717,-8.9142e-05,5.7902,-8.9913e-05,-0.0058354,1.0299
6115,12.385,3.2727,0.1,0.00027155,2713.7,0.00027166,2716.7,-8.9101e-05,6.1196,-8.9916e-05,-0.0056733,1.0301
6116,12.385,3.0909,0.1,0.00027153,2713.5,0.00027164,2716.6,-8.908e-05,6.285,-8.9918e-05,-0.0055988,1.0301
6117,12.385,2.9091,0.1,0.00027153,2713.5,0.00027164,2716.6,-8.908e-05,6.285,-8.9918e-05,-0.0055988,1.0301
6118,12.385,2.7273,0.1,0.00027155,2713.7,0.00027166,2716.7,-8.9101e-05,6.1196,-8.9916e-05,-0.0056732,1.0301
6119,12.385,2.5455,0.1,0.00027159,2714.1,0.00027169,2717,-8.9142e-05,5.7902,-8.9913e-05,-0.005835,1.0299
6120,12.385,2.3636,0.1,0.00027166,2714.7,0.00027175,2717.3,-8.9203e-05,5.2995,-8.9909e-05,-0.006116,1.0298
6121,12.385,2.1818,0.1,0.00027174,2715.5,0.00027182,2717.8,-8.9284e-05,4.6514,-8.9904e-05,-0.006585,1.0295
6122,12.385,2,0.1,0.00027184,2716.5,0.0002719,2718.4,-8.9384e-05,3.8514,-8.9898e-05,-0.0073975,1.0292
6123,12.385,1.8182,0.1,0.00027196,2717.7,0.00027201,2719.1,-8.9502e-05,2.9059,-8.989e-05,-0.0089641,1.0289
6124,12.385,1.6364,0.1,0.00027209,2719.1,0.00027212,2720,-8.9638e-05,1.8238,-8.9882e-05,-0.012826,1.0285
6125,12.385,1.4545,0.1,0.00027225,2720.6,0.00027226,2720.9,-8.9788e-05,0.62693,-8.9876e-05,-0.0329,1.028
6126,12.385,1.2727,0.1,0.00027242,2722.3,0.00027241,2722,-8.9859e-05,0.023254,-8.9964e-05,-0.76831,1.0275
6127,12.385,1.0909,0.1,0.00027261,2724.2,0.00027257,2723.1,-8.9851e-05,0.006924,-9.0146e-05,-2.2039,1.0269
6128,12.385,0.90909,0.1,0.00027281,2726.2,0.00027275,2724.4,-8.9842e-05,0.0034635,-9.0342e-05,-3.7555,1.0262
6129,12.385,0.72727,0.1,0.00027303,2728.4,0.00027294,2725.7,-8.9832e-05,0.002046,-9.0552e-05,-5.4024,1.0255
6130,12.385,0.54545,0.1,0.00027326,2730.8,0.00027314,2727.2,-8.9823e-05,0.0015407,-9.0773e-05,-7.1376,1.0248
6131,12.385,0.36364,0.1,0.00027352,2733.3,0.00027337,2728.8,-8.9814e-05,0.0004515,-9.1016e-05,-9.0284,1.0239
6132,12.385,0.18182,0.1,0.000274,2738.1,0.00027379,2731.9,-8.9806e-05,0.003262,-9.1457e-05,-12.397,1.023
6133,12.201,5.8182,0.1,0.00027895,2787.5,0.00027874,2781.5,-9.1458e-05,0.0036782,-9.3054e-05,-11.991,0.99762
6134,12.201,5.6364,0.1,0.00027846,2782.7,0.00027831,2778.4,-9.147e-05,-0.00047768,-9.2602e-05,-8.5043,0.99852
6135,12.201,5.4545,0.1,0.00027819,2780,0.00027808,2776.7,-9.1482e-05,0.0012778,-9.2343e-05,-6.4713,0.99936
6136,12.201,5.2727,0.1,0.00027795,2777.6,0.00027787,2775.3,-9.1495e-05,0.0021101,-9.2107e-05,-4.5966,1.0001
6137,12.201,5.0909,0.1,0.00027772,2775.3,0.00027767,2773.9,-9.1507e-05,0.0047397,-9.1883e-05,-2.8153,1.0009
6138,12.201,4.9091,0.1,0.00027751,2773.1,0.00027749,2772.6,-9.1519e-05,0.01497,-9.1673e-05,-1.1407,1.0015
6139,12.201,4.7273,0.1,0.00027731,2771.2,0.00027732,2771.4,-9.1468e-05,0.492,-9.154e-05,-0.042704,1.0021
6140,12.201,4.5455,0.1,0.00027713,2769.4,0.00027716,2770.3,-9.1291e-05,1.9164,-9.1548e-05,-0.013016,1.0027
6141,12.201,4.3636,0.1,0.00027696,2767.7,0.00027702,2769.3,-9.1127e-05,3.2351,-9.1559e-05,-0.0088786,1.0031
6142,12.201,4.1818,0.1,0.00027682,2766.3,0.00027689,2768.5,-9.0981e-05,4.415,-9.1569e-05,-0.0073024,1.0036
6143,12.201,4,0.1,0.00027669,2765,0.00027678,2767.7,-9.0853e-05,5.4454,-9.1579e-05,-0.0065002,1.0039
6144,12.201,3.8182,0.1,0.00027659,2764,0.00027669,2767.1,-9.0745e-05,6.3176,-9.1587e-05,-0.0060327,1.0042
6145,12.201,3.6364,0.1,0.0002765,2763.1,0.00027662,2766.6,-9.0658e-05,7.0244,-9.1594e-05,-0.0057423,1.0045
6146,12.201,3.4545,0.1,0.00027644,2762.5,0.00027656,2766.2,-9.0592e-05,7.5599,-9.1599e-05,-0.0055611,1.0046
6147,12.201,3.2727,0.1,0.00027639,2762,0.00027653,2766,-9.0547e-05,7.9194,-9.1602e-05,-0.0054526,1.0048
6148,12.201,3.0909,0.1,0.00027637,2761.8,0.00027651,2765.8,-9.0525e-05,8.1,-9.1604e-05,-0.005402,1.0048
6149,12.201,2.9091,0.1,0.00027637,2761.8,0.00027651,2765.8,-9.0525e-05,8.1,-9.1604e-05,-0.005402,1.0048
6150,12.201,2.7273,0.1,0.00027639,2762,0.00027653,2766,-9.0547e-05,7.9194,-9.1602e-05,-0.0054528,1.0048
6151,12.201,2.5455,0.1,0.00027644,2762.5,0.00027656,2766.2,-9.0592e-05,7.5599,-9.1599e-05,-0.0055607,1.0046
6152,12.201,2.3636,0.1,0.0002765,2763.1,0.00027662,2766.6,-9.0658e-05,7.0245,-9.1594e-05,-0.0057428,1.0045
6153,12.201,2.1818,0.1,0.00027659,2764,0.00027669,2767.1,-9.0745e-05,6.3177,-9.1587e-05,-0.0060324,1.0042
6154,12.201,2,0.1,0.00027669,2765,0.00027678,2767.7,-9.0853e-05,5.4455,-9.1579e-05,-0.0065006,1.0039
6155,12.201,1.8182,0.1,0.00027682,2766.3,0.00027689,2768.5,-9.0981e-05,4.4151,-9.1569e-05,-0.0073027,1.0036
6156,12.201,1.6364,0.1,0.00027696,2767.7,0.00027702,2769.3,-9.1127e-05,3.2351,-9.1559e-05,-0.0088798,1.0031
6157,12.201,1.4545,0.1,0.00027713,2769.4,0.00027716,2770.3,-9.1291e-05,1.9165,-9.1548e-05,-0.013015,1.0027
6158,12.201,1.2727,0.1,0.00027731,2771.2,0.00027732,2771.4,-9.1468e-05,0.49204,-9.154e-05,-0.042702,1.0021
6159,12.201,1.0909,0.1,0.00027751,2773.1,0.00027749,2772.6,-9.1519e-05,0.014971,-9.1673e-05,-1.1406,1.0015
6160,12.201,0.90909,0.1,0.00027772,2775.3,0.00027767,2773.9,-9.1507e-05,0.0047378,-9.1883e-05,-2.8153,1.0009
6161,12.201,0.72727,0.1,0.00027795,2777.6,0.00027787,2775.3,-9.1495e-05,0.002108,-9.2107e-05,-4.5965,1.0001
6162,12.201,0.54545,0.1,0.00027819,2780,0.00027808,2776.7,-9.1482e-05,0.0012793,-9.2343e-05,-6.4713,0.99936
6163,12.201,0.36364,0.1,0.00027846,2782.7,0.00027831,2778.4,-9.147e-05,-0.00047743,-9.2602e-05,-8.5043,0.99852
6164,12.201,0.18182,0.1,0.00027895,2787.5,0.00027874,2781.5,-9.1458e-05,0.0036762,-9.3054e-05,-11.991,0.99762
6165,12.016,5.8182,0.1,0.00028391,2837.2,0.00028371,2831.4,-9.3117e-05,0.0041525,-9.4657e-05,-11.571,0.97238
6166,12.016,5.6364,0.1,0.00028342,2832.2,0.00028328,2828.2,-9.3133e-05,-0.0014734,-9.4191e-05,-7.9543,0.97329
6167,12.016,5.4545,0.1,0.00028314,2829.4,0.00028304,2826.5,-9.3149e-05,0.00099644,-9.3917e-05,-5.7676,0.97415
6168,12.016,5.2727,0.1,0.00028288,2826.9,0.00028282,2825,-9.3165e-05,0.0023193,-9.3664e-05,-3.742,0.97494
6169,12.016,5.0909,0.1,0.00028264,2824.5,0.00028261,2823.6,-9.3181e-05,0.0077111,-9.3424e-05,-1.8166,0.97567
6170,12.016,4.9091,0.1,0.00028242,2822.2,0.00028242,2822.2,-9.3179e-05,0.14737,-9.3216e-05,-0.13053,0.97634
6171,12.016,4.7273,0.1,0.00028221,2820.2,0.00028224,2821,-9.2983e-05,1.7396,-9.3217e-05,-0.014078,0.97695
6172,12.016,4.5455,0.1,0.00028202,2818.2,0.00028208,2819.9,-9.2789e-05,3.3137,-9.3231e-05,-0.0089244,0.9775
6173,12.016,4.3636,0.1,0.00028185,2816.5,0.00028193,2818.9,-9.2612e-05,4.7501,-9.3245e-05,-0.0072279,0.97799
6174,12.016,4.1818,0.1,0.00028169,2815,0.0002818,2818,-9.2454e-05,6.035,-9.3258e-05,-0.0064076,0.97841
6175,12.016,4,0.1,0.00028156,2813.7,0.00028168,2817.2,-9.2317e-05,7.1577,-9.327e-05,-0.0059365,0.97878
6176,12.016,3.8182,0.1,0.00028145,2812.5,0.00028159,2816.6,-9.22e-05,8.1086,-9.328e-05,-0.0056397,0.97908
6177,12.016,3.6364,0.1,0.00028136,2811.6,0.00028151,2816.1,-9.2106e-05,8.8796,-9.3288e-05,-0.0054451,0.97932
6178,12.016,3.4545,0.1,0.00028129,2811,0.00028145,2815.7,-9.2034e-05,9.464,-9.3295e-05,-0.0053196,0.97951
6179,12.016,3.2727,0.1,0.00028124,2810.5,0.00028141,2815.4,-9.1986e-05,9.8565,-9.3299e-05,-0.0052421,0.97963
6180,12.016,3.0909,0.1,0.00028122,2810.3,0.00028139,2815.3,-9.1962e-05,10.054,-9.3301e-05,-0.0052053,0.97969
6181,12.016,2.9091,0.1,0.00028122,2810.3,0.00028139,2815.3,-9.1962e-05,10.054,-9.3301e-05,-0.0052051,0.97969
6182,12.016,2.7273,0.1,0.00028124,2810.5,0.00028141,2815.4,-9.1986e-05,9.8565,-9.3299e-05,-0.0052424,0.97963
6183,12.016,2.5455,0.1,0.00028129,2811,0.00028145,2815.7,-9.2034e-05,9.464,-9.3295e-05,-0.0053194,0.97951
6184,12.016,2.3636,0.1,0.00028136,2811.6,0.00028151,2816.1,-9.2106e-05,8.8797,-9.3288e-05,-0.0054457,0.97932
6185,12.016,2.1818,0.1,0.00028145,2812.5,0.00028159,2816.6,-9.22e-05,8.1087,-9.328e-05,-0.0056399,0.97908
6186,12.016,2,0.1,0.00028156,2813.7,0.00028168,2817.2,-9.2317e-05,7.1578,-9.327e-05,-0.0059368,0.97878
6187,12.016,1.8182,0.1,0.00028169,2815,0.0002818,2818,-9.2454e-05,6.0351,-9.3258e-05,-0.0064082,0.97841
6188,12.016,1.6364,0.1,0.00028185,2816.5,0.00028193,2818.9,-9.2612e-05,4.7501,-9.3245e-05,-0.0072285,0.97799
6189,12.016,1.4545,0.1,0.00028202,2818.2,0.00028208,2819.9,-9.2789e-05,3.3137,-9.3231e-05,-0.008925,0.9775
6190,12.016,1.2727,0.1,0.00028221,2820.2,0.00028224,2821,-9.2983e-05,1.7396,-9.3217e-05,-0.014078,0.97695
6191,12.016,1.0909,0.1,0.00028242,2822.2,0.00028242,2822.2,-9.3179e-05,0.1474,-9.3216e-05,-0.13051,0.97634
6192,12.016,0.90909,0.1,0.00028264,2824.5,0.00028261,2823.6,-9.3181e-05,0.0077093,-9.3424e-05,-1.8166,0.97567
6193,12.016,0.72727,0.1,0.00028288,2826.9,0.00028282,2825,-9.3165e-05,0.0023174,-9.3664e-05,-3.742,0.97494
6194,12.016,0.54545,0.1,0.00028314,2829.4,0.00028304,2826.5,-9.3149e-05,0.00099646,-9.3917e-05,-5.7676,0.97415
6195,12.016,0.36364,0.1,0.00028342,2832.2,0.00028328,2828.2,-9.3133e-05,-0.0014753,-9.4191e-05,-7.9543,0.97329
6196,12.016,0.18182,0.1,0.00028391,2837.2,0.00028371,2831.4,-9.3117e-05,0.0041525,-9.4657e-05,-11.571,0.97238
6197,11.832,5.8182,0.1,0.0002889,2887,0.00028871,2881.4,-9.4784e-05,0.0047094,-9.6266e-05,-11.135,0.94733
6198,11.832,5.6364,0.1,0.00028839,2881.9,0.00028827,2878.2,-9.4804e-05,-0.0025307,-9.5786e-05,-7.3764,0.94826
6199,11.832,5.4545,0.1,0.0002881,2879,0.00028802,2876.5,-9.4824e-05,0.00070727,-9.5493e-05,-5.0236,0.94913
6200,11.832,5.2727,0.1,0.00028783,2876.4,0.00028779,2874.9,-9.4845e-05,0.0028677,-9.5222e-05,-2.835,0.94993
6201,11.832,5.0909,0.1,0.00028758,2873.8,0.00028757,2873.5,-9.4863e-05,0.019818,-9.4967e-05,-0.76208,0.95068
6202,11.832,4.9091,0.1,0.00028735,2871.5,0.00028737,2872.1,-9.4719e-05,1.2538,-9.4888e-05,-0.017408,0.95136
6203,11.832,4.7273,0.1,0.00028713,2869.3,0.00028718,2870.8,-9.4493e-05,3.0995,-9.4906e-05,-0.0091501,0.95198
6204,11.832,4.5455,0.1,0.00028693,2867.3,0.00028701,2869.7,-9.4283e-05,4.8131,-9.4925e-05,-0.0071788,0.95253
6205,11.832,4.3636,0.1,0.00028674,2865.5,0.00028685,2868.6,-9.4092e-05,6.3762,-9.4942e-05,-0.006309,0.95303
6206,11.832,4.1818,0.1,0.00028658,2863.9,0.00028671,2867.7,-9.3922e-05,7.7754,-9.4958e-05,-0.0058276,0.95346
6207,11.832,4,0.1,0.00028644,2862.4,0.00028659,2866.9,-9.3773e-05,8.9989,-9.4972e-05,-0.0055254,0.95383
6208,11.832,3.8182,0.1,0.00028632,2861.3,0.00028649,2866.3,-9.3647e-05,10.036,-9.4984e-05,-0.0053216,0.95414
6209,11.832,3.6364,0.1,0.00028623,2860.3,0.00028641,2865.7,-9.3545e-05,10.877,-9.4994e-05,-0.0051815,0.95439
6210,11.832,3.4545,0.1,0.00028615,2859.6,0.00028635,2865.3,-9.3468e-05,11.515,-9.5001e-05,-0.0050871,0.95457
6211,11.832,3.2727,0.1,0.00028611,2859.1,0.00028631,2865,-9.3416e-05,11.944,-9.5006e-05,-0.0050282,0.9547
6212,11.832,3.0909,0.1,0.00028608,2858.8,0.00028629,2864.9,-9.339e-05,12.159,-9.5009e-05,-0.0049978,0.95476
6213,11.832,2.9091,0.1,0.00028608,2858.8,0.00028629,2864.9,-9.339e-05,12.159,-9.5009e-05,-0.0049988,0.95476
6214,11.832,2.7273,0.1,0.00028611,2859.1,0.00028631,2865,-9.3416e-05,11.944,-9.5006e-05,-0.0050275,0.9547
6215,11.832,2.5455,0.1,0.00028615,2859.6,0.00028635,2865.3,-9.3468e-05,11.515,-9.5001e-05,-0.0050875,0.95457
6216,11.832,2.3636,0.1,0.00028623,2860.3,0.00028641,2865.7,-9.3545e-05,10.877,-9.4994e-05,-0.0051813,0.95439
6217,11.832,2.1818,0.1,0.00028632,2861.3,0.00028649,2866.3,-9.3647e-05,10.036,-9.4984e-05,-0.0053222,0.95414
6218,11.832,2,0.1,0.00028644,2862.4,0.00028659,2866.9,-9.3773e-05,8.9989,-9.4972e-05,-0.0055256,0.95383
6219,11.832,1.8182,0.1,0.00028658,2863.9,0.00028671,2867.7,-9.3922e-05,7.7755,-9.4958e-05,-0.0058282,0.95346
6220,11.832,1.6364,0.1,0.00028674,2865.5,0.00028685,2868.6,-9.4092e-05,6.3762,-9.4942e-05,-0.0063091,0.95303
6221,11.832,1.4545,0.1,0.00028693,2867.3,0.00028701,2869.7,-9.4283e-05,4.8132,-9.4925e-05,-0.0071792,0.95253
6222,11.832,1.2727,0.1,0.00028713,2869.3,0.00028718,2870.8,-9.4493e-05,3.0996,-9.4906e-05,-0.0091508,0.95198
6223,11.832,1.0909,0.1,0.00028735,2871.5,0.00028737,2872.1,-9.4719e-05,1.2539,-9.4888e-05,-0.017408,0.95136
6224,11.832,0.90909,0.1,0.00028758,2873.8,0.00028757,2873.5,-9.4863e-05,0.019818,-9.4967e-05,-0.76203,0.95068
6225,11.832,0.72727,0.1,0.00028783,2876.4,0.00028779,2874.9,-9.4845e-05,0.0028659,-9.5222e-05,-2.835,0.94993
6226,11.832,0.54545,0.1,0.0002881,2879,0.00028802,2876.5,-9.4824e-05,0.00070717,-9.5493e-05,-5.0235,0.94913
6227,11.832,0.36364,0.1,0.00028839,2881.9,0.00028827,2878.2,-9.4804e-05,-0.0025316,-9.5786e-05,-7.3764,0.94826
6228,11.832,0.18182,0.1,0.0002889,2887,0.00028871,2881.4,-9.4784e-05,0.0047094,-9.6266e-05,-11.135,0.94733
6229,11.647,5.8182,0.1,0.0002939,2937,0.00029372,2931.7,-9.6458e-05,0.0053467,-9.7881e-05,-10.683,0.92247
6230,11.647,5.6364,0.1,0.00029339,2931.9,0.00029328,2928.5,-9.6484e-05,-0.0036726,-9.7384e-05,-6.7687,0.92342
6231,11.647,5.4545,0.1,0.00029309,2928.8,0.00029301,2926.7,-9.6508e-05,0.00039707,-9.7072e-05,-4.2363,0.9243
6232,11.647,5.2727,0.1,0.00029281,2926,0.00029277,2925.1,-9.6533e-05,0.0043344,-9.6782e-05,-1.8724,0.92512
6233,11.647,5.0909,0.1,0.00029254,2923.4,0.00029255,2923.6,-9.65e-05,0.43295,-9.6563e-05,-0.038627,0.92587
6234,11.647,4.9091,0.1,0.00029229,2920.9,0.00029234,2922.2,-9.6243e-05,2.5488,-9.6583e-05,-0.0097991,0.92657
6235,11.647,4.7273,0.1,0.00029206,2918.6,0.00029214,2920.9,-9.5999e-05,4.5583,-9.6606e-05,-0.0071915,0.9272
6236,11.647,4.5455,0.1,0.00029185,2916.5,0.00029196,2919.7,-9.5773e-05,6.4216,-9.6628e-05,-0.006237,0.92776
6237,11.647,4.3636,0.1,0.00029166,2914.5,0.00029179,2918.6,-9.5567e-05,8.1225,-9.6649e-05,-0.0057363,0.92826
6238,11.647,4.1818,0.1,0.00029148,2912.8,0.00029165,2917.6,-9.5383e-05,9.6467,-9.6668e-05,-0.0054285,0.9287
6239,11.647,4,0.1,0.00029133,2911.3,0.00029152,2916.8,-9.5222e-05,10.981,-9.6684e-05,-0.0052176,0.92908
6240,11.647,3.8182,0.1,0.00029121,2910.1,0.00029141,2916.1,-9.5086e-05,12.112,-9.6699e-05,-0.0050653,0.92939
6241,11.647,3.6364,0.1,0.00029111,2909.1,0.00029133,2915.5,-9.4975e-05,13.031,-9.671e-05,-0.0049535,0.92964
6242,11.647,3.4545,0.1,0.00029103,2908.3,0.00029126,2915.1,-9.4891e-05,13.728,-9.6719e-05,-0.004876,0.92983
6243,11.647,3.2727,0.1,0.00029098,2907.8,0.00029122,2914.8,-9.4835e-05,14.197,-9.6725e-05,-0.0048251,0.92996
6244,11.647,3.0909,0.1,0.00029095,2907.5,0.00029119,2914.7,-9.4807e-05,14.432,-9.6728e-05,-0.0047995,0.93002
6245,11.647,2.9091,0.1,0.00029095,2907.5,0.00029119,2914.7,-9.4807e-05,14.432,-9.6728e-05,-0.0047997,0.93002
6246,11.647,2.7273,0.1,0.00029098,2907.8,0.00029122,2914.8,-9.4835e-05,14.197,-9.6725e-05,-0.0048259,0.92996
6247,11.647,2.5455,0.1,0.00029103,2908.3,0.00029126,2915.1,-9.4891e-05,13.728,-9.6719e-05,-0.0048762,0.92983
6248,11.647,2.3636,0.1,0.00029111,2909.1,0.00029133,2915.5,-9.4975e-05,13.031,-9.671e-05,-0.0049544,0.92964
6249,11.647,2.1818,0.1,0.00029121,2910.1,0.00029141,2916.1,-9.5086e-05,12.112,-9.6699e-05,-0.0050649,0.92939
6250,11.647,2,0.1,0.00029133,2911.3,0.00029152,2916.8,-9.5222e-05,10.981,-9.6684e-05,-0.0052177,0.92908
6251,11.647,1.8182,0.1,0.00029148,2912.8,0.00029165,2917.6,-9.5383e-05,9.6467,-9.6668e-05,-0.0054281,0.9287
6252,11.647,1.6364,0.1,0.00029166,2914.5,0.00029179,2918.6,-9.5567e-05,8.1226,-9.6649e-05,-0.0057379,0.92826
6253,11.647,1.4545,0.1,0.00029185,2916.5,0.00029196,2919.7,-9.5773e-05,6.4216,-9.6628e-05,-0.0062374,0.92776
6254,11.647,1.2727,0.1,0.00029206,2918.6,0.00029214,2920.9,-9.5999e-05,4.5584,-9.6606e-05,-0.0071924,0.9272
6255,11.647,1.0909,0.1,0.00029229,2920.9,0.00029234,2922.2,-9.6243e-05,2.5489,-9.6583e-05,-0.0098001,0.92657
6256,11.647,0.90909,0.1,0.00029254,2923.4,0.00029255,2923.6,-9.65e-05,0.433,-9.6563e-05,-0.038625,0.92587
6257,11.647,0.72727,0.1,0.00029281,2926,0.00029277,2925.1,-9.6533e-05,0.0043327,-9.6782e-05,-1.8723,0.92512
6258,11.647,0.54545,0.1,0.00029309,2928.8,0.00029301,2926.7,-9.6508e-05,0.00039673,-9.7072e-05,-4.2362,0.9243
6259,11.647,0.36364,0.1,0.00029339,2931.9,0.00029328,2928.5,-9.6484e-05,-0.0036711,-9.7384e-05,-6.7687,0.92342
6260,11.647,0.18182,0.1,0.0002939,2937,0.00029372,2931.7,-9.6459e-05,0.0053465,-9.7881e-05,-10.683,0.92247
6261,11.463,5.8182,0.1,0.00029893,2987.3,0.00029876,2982.2,-9.8141e-05,0.0061101,-9.9501e-05,-10.212,0.89782
6262,11.463,5.6364,0.1,0.00029841,2982,0.0002983,2979,-9.8172e-05,-0.0048752,-9.8987e-05,-6.1291,0.89878
6263,11.463,5.4545,0.1,0.00029809,2978.8,0.00029803,2977.1,-9.8201e-05,0.00010535,-9.8654e-05,-3.4029,0.89967
6264,11.463,5.2727,0.1,0.00029779,2975.9,0.00029778,2975.5,-9.8229e-05,0.010357,-9.8344e-05,-0.85371,0.90051
6265,11.463,5.0909,0.1,0.00029752,2973.1,0.00029754,2973.9,-9.8044e-05,1.6176,-9.8261e-05,-0.011753,0.90127
6266,11.463,4.9091,0.1,0.00029725,2970.5,0.00029732,2972.4,-9.7764e-05,3.9383,-9.8289e-05,-0.0073068,0.90197
6267,11.463,4.7273,0.1,0.00029701,2968,0.00029711,2971.1,-9.7501e-05,6.1215,-9.8316e-05,-0.0061728,0.90261
6268,11.463,4.5455,0.1,0.00029678,2965.8,0.00029692,2969.8,-9.7257e-05,8.1475,-9.8342e-05,-0.0056531,0.90319
6269,11.463,4.3636,0.1,0.00029658,2963.7,0.00029675,2968.7,-9.7035e-05,9.9991,-9.8366e-05,-0.0053361,0.9037
6270,11.463,4.1818,0.1,0.0002964,2961.9,0.00029659,2967.7,-9.6836e-05,11.66,-9.8388e-05,-0.0051188,0.90414
6271,11.463,4,0.1,0.00029624,2960.3,0.00029646,2966.9,-9.6662e-05,13.115,-9.8408e-05,-0.0049554,0.90452
6272,11.463,3.8182,0.1,0.0002961,2959,0.00029635,2966.1,-9.6514e-05,14.351,-9.8425e-05,-0.0048282,0.90484
6273,11.463,3.6364,0.1,0.000296,2957.9,0.00029625,2965.6,-9.6394e-05,15.355,-9.8438e-05,-0.0047297,0.9051
6274,11.463,3.4545,0.1,0.00029591,2957.1,0.00029618,2965.1,-9.6303e-05,16.117,-9.8449e-05,-0.0046583,0.90529
6275,11.463,3.2727,0.1,0.00029586,2956.5,0.00029614,2964.8,-9.6242e-05,16.63,-9.8456e-05,-0.0046096,0.90542
6276,11.463,3.0909,0.1,0.00029583,2956.3,0.00029611,2964.7,-9.6211e-05,16.887,-9.846e-05,-0.0045851,0.90548
6277,11.463,2.9091,0.1,0.00029583,2956.3,0.00029611,2964.7,-9.6211e-05,16.887,-9.846e-05,-0.0045848,0.90548
6278,11.463,2.7273,0.1,0.00029586,2956.5,0.00029614,2964.8,-9.6242e-05,16.63,-9.8456e-05,-0.0046094,0.90542
6279,11.463,2.5455,0.1,0.00029591,2957.1,0.00029618,2965.1,-9.6303e-05,16.117,-9.8449e-05,-0.0046582,0.90529
6280,11.463,2.3636,0.1,0.000296,2957.9,0.00029625,2965.6,-9.6394e-05,15.355,-9.8438e-05,-0.0047292,0.9051
6281,11.463,2.1818,0.1,0.0002961,2959,0.00029635,2966.1,-9.6514e-05,14.351,-9.8425e-05,-0.0048288,0.90484
6282,11.463,2,0.1,0.00029624,2960.3,0.00029646,2966.9,-9.6662e-05,13.115,-9.8408e-05,-0.0049563,0.90452
6283,11.463,1.8182,0.1,0.0002964,2961.9,0.00029659,2967.7,-9.6836e-05,11.66,-9.8388e-05,-0.0051187,0.90414
6284,11.463,1.6364,0.1,0.00029658,2963.7,0.00029675,2968.7,-9.7035e-05,9.9991,-9.8366e-05,-0.0053362,0.9037
6285,11.463,1.4545,0.1,0.00029678,2965.8,0.00029692,2969.8,-9.7257e-05,8.1475,-9.8342e-05,-0.0056532,0.90319
6286,11.463,1.2727,0.1,0.00029701,2968,0.00029711,2971.1,-9.7501e-05,6.1216,-9.8316e-05,-0.0061738,0.90261
6287,11.463,1.0909,0.1,0.00029725,2970.5,0.00029732,2972.4,-9.7764e-05,3.9383,-9.8289e-05,-0.0073075,0.90197
6288,11.463,0.90909,0.1,0.00029752,2973.1,0.00029754,2973.9,-9.8044e-05,1.6177,-9.8261e-05,-0.011755,0.90127
6289,11.463,0.72727,0.1,0.00029779,2975.9,0.00029778,2975.5,-9.8229e-05,0.010358,-9.8344e-05,-0.85367,0.90051
6290,11.463,0.54545,0.1,0.00029809,2978.8,0.00029803,2977.1,-9.8201e-05,0.0001064,-9.8654e-05,-3.4029,0.89967
6291,11.463,0.36364,0.1,0.00029841,2982,0.0002983,2979,-9.8172e-05,-0.004876,-9.8987e-05,-6.1291,0.89878
6292,11.463,0.18182,0.1,0.00029893,2987.3,0.00029876,2982.2,-9.8141e-05,0.0061089,-9.9501e-05,-10.212,0.89782
6293,11.279,5.8182,0.1,0.00030398,3037.7,0.00030382,3032.9,-9.9832e-05,0.0070546,-0.00010113,-9.7218,0.87336
6294,11.279,5.6364,0.1,0.00030345,3032.4,0.00030335,3029.6,-9.9868e-05,-0.0061118,-0.00010059,-5.4558,0.87434
6295,11.279,5.4545,0.1,0.00030311,3029,0.00030307,3027.8,-9.9902e-05,-9.6264e-05,-0.00010024,-2.5205,0.87525
6296,11.279,5.2727,0.1,0.0003028,3025.9,0.00030281,3026,-9.9899e-05,0.28286,-9.9942e-05,-0.036941,0.87609
6297,11.279,5.0909,0.1,0.00030251,3023,0.00030256,3024.4,-9.9584e-05,2.9053,-9.9972e-05,-0.0075812,0.87687
6298,11.279,4.9091,0.1,0.00030223,3020.2,0.00030232,3022.9,-9.9282e-05,5.425,-0.0001,-0.0061217,0.87758
6299,11.279,4.7273,0.1,0.00030197,3017.6,0.0003021,3021.5,-9.8998e-05,7.7965,-0.00010004,-0.005552,0.87823
6300,11.279,4.5455,0.1,0.00030173,3015.2,0.0003019,3020.2,-9.8735e-05,10,-0.00010007,-0.0052375,0.87881
6301,11.279,4.3636,0.1,0.00030151,3013.1,0.00030172,3019.1,-9.8495e-05,12.017,-0.00010009,-0.0050139,0.87933
6302,11.279,4.1818,0.1,0.00030132,3011.1,0.00030155,3018,-9.8279e-05,13.828,-0.00010012,-0.0048399,0.87978
6303,11.279,4,0.1,0.00030115,3009.4,0.00030141,3017.1,-9.8091e-05,15.416,-0.00010014,-0.0046975,0.88017
6304,11.279,3.8182,0.1,0.00030101,3008,0.00030129,3016.4,-9.7931e-05,16.767,-0.00010016,-0.0045769,0.8805
6305,11.279,3.6364,0.1,0.00030089,3006.9,0.00030119,3015.7,-9.78e-05,17.865,-0.00010018,-0.0044795,0.88075
6306,11.279,3.4545,0.1,0.00030081,3006,0.00030112,3015.3,-9.7702e-05,18.699,-0.00010019,-0.0044057,0.88095
6307,11.279,3.2727,0.1,0.00030075,3005.4,0.00030107,3015,-9.7635e-05,19.26,-0.0001002,-0.0043551,0.88108
6308,11.279,3.0909,0.1,0.00030072,3005.1,0.00030104,3014.8,-9.7602e-05,19.542,-0.0001002,-0.0043288,0.88114
6309,11.279,2.9091,0.1,0.00030072,3005.1,0.00030104,3014.8,-9.7602e-05,19.542,-0.0001002,-0.0043291,0.88114
6310,11.279,2.7273,0.1,0.00030075,3005.4,0.00030107,3015,-9.7635e-05,19.26,-0.0001002,-0.0043551,0.88108
6311,11.279,2.5455,0.1,0.00030081,3006,0.00030112,3015.3,-9.7702e-05,18.699,-0.00010019,-0.004406,0.88095
6312,11.279,2.3636,0.1,0.00030089,3006.9,0.00030119,3015.7,-9.78e-05,17.865,-0.00010018,-0.0044795,0.88075
6313,11.279,2.1818,0.1,0.00030101,3008,0.00030129,3016.4,-9.7931e-05,16.767,-0.00010016,-0.0045769,0.8805
6314,11.279,2,0.1,0.00030115,3009.4,0.00030141,3017.1,-9.8091e-05,15.416,-0.00010014,-0.0046973,0.88017
6315,11.279,1.8182,0.1,0.00030132,3011.1,0.00030155,3018,-9.8279e-05,13.828,-0.00010012,-0.0048408,0.87978
6316,11.279,1.6364,0.1,0.00030151,3013.1,0.00030172,3019.1,-9.8495e-05,12.017,-0.00010009,-0.0050148,0.87933
6317,11.279,1.4545,0.1,0.00030173,3015.2,0.0003019,3020.2,-9.8735e-05,10,-0.00010007,-0.0052386,0.87881
6318,11.279,1.2727,0.1,0.00030197,3017.6,0.0003021,3021.5,-9.8998e-05,7.7965,-0.00010004,-0.0055523,0.87823
6319,11.279,1.0909,0.1,0.00030223,3020.2,0.00030232,3022.9,-9.9282e-05,5.425,-0.0001,-0.0061222,0.87758
6320,11.279,0.90909,0.1,0.00030251,3023,0.00030256,3024.4,-9.9584e-05,2.9054,-9.9972e-05,-0.0075824,0.87687
6321,11.279,0.72727,0.1,0.0003028,3025.9,0.00030281,3026,-9.9899e-05,0.2829,-9.9942e-05,-0.036938,0.87609
6322,11.279,0.54545,0.1,0.00030311,3029,0.00030307,3027.8,-9.9902e-05,-9.6261e-05,-0.00010024,-2.5205,0.87525
6323,11.279,0.36364,0.1,0.00030345,3032.4,0.00030335,3029.6,-9.9868e-05,-0.0061133,-0.00010059,-5.4558,0.87434
6324,11.279,0.18182,0.1,0.00030398,3037.7,0.00030382,3032.9,-9.9832e-05,0.0070533,-0.00010113,-9.7218,0.87336
6325,11.094,5.8182,0.1,0.00030905,3088.4,0.0003089,3083.8,-0.00010153,0.0081562,-0.00010276,-9.2118,0.84912
6326,11.094,5.6364,0.1,0.00030851,3082.9,0.00030843,3080.6,-0.00010157,-0.0074394,-0.0001022,-4.747,0.85011
6327,11.094,5.4545,0.1,0.00030815,3079.4,0.00030813,3078.6,-0.00010161,-0.00010073,-0.00010182,-1.5867,0.85103
6328,11.094,5.2727,0.1,0.00030783,3076.1,0.00030785,3076.8,-0.00010146,1.4126,-0.00010165,-0.0092838,0.85189
6329,11.094,5.0909,0.1,0.00030751,3073,0.00030759,3075.2,-0.00010112,4.2807,-0.00010169,-0.0060947,0.85268
6330,11.094,4.9091,0.1,0.00030722,3070.1,0.00030734,3073.6,-0.0001008,7.0145,-0.00010173,-0.0055262,0.8534
6331,11.094,4.7273,0.1,0.00030695,3067.3,0.00030711,3072.1,-0.00010049,9.591,-0.00010177,-0.0052009,0.85406
6332,11.094,4.5455,0.1,0.00030669,3064.8,0.00030689,3070.8,-0.00010021,11.989,-0.0001018,-0.0049843,0.85465
6333,11.094,4.3636,0.1,0.00030646,3062.5,0.0003067,3069.6,-9.9946e-05,14.186,-0.00010183,-0.0048002,0.85517
6334,11.094,4.1818,0.1,0.00030626,3060.4,0.00030653,3068.5,-9.9713e-05,16.163,-0.00010186,-0.0046401,0.85563
6335,11.094,4,0.1,0.00030608,3058.6,0.00030638,3067.5,-9.9508e-05,17.898,-0.00010189,-0.0044967,0.85602
6336,11.094,3.8182,0.1,0.00030592,3057.1,0.00030625,3066.8,-9.9334e-05,19.375,-0.00010191,-0.0043697,0.85635
6337,11.094,3.6364,0.1,0.0003058,3055.9,0.00030614,3066.1,-9.9192e-05,20.578,-0.00010193,-0.0042634,0.85661
6338,11.094,3.4545,0.1,0.0003057,3054.9,0.00030606,3065.6,-9.9085e-05,21.492,-0.00010195,-0.0041812,0.85681
6339,11.094,3.2727,0.1,0.00030564,3054.3,0.00030601,3065.3,-9.9012e-05,22.107,-0.00010196,-0.0041238,0.85694
6340,11.094,3.0909,0.1,0.00030561,3054,0.00030598,3065.1,-9.8976e-05,22.417,-0.00010196,-0.004094,0.85701
6341,11.094,2.9091,0.1,0.00030561,3054,0.00030598,3065.1,-9.8976e-05,22.417,-0.00010196,-0.0040945,0.85701
6342,11.094,2.7273,0.1,0.00030564,3054.3,0.00030601,3065.3,-9.9012e-05,22.107,-0.00010196,-0.004124,0.85694
6343,11.094,2.5455,0.1,0.0003057,3054.9,0.00030606,3065.6,-9.9085e-05,21.492,-0.00010195,-0.004181,0.85681
6344,11.094,2.3636,0.1,0.0003058,3055.9,0.00030614,3066.1,-9.9192e-05,20.578,-0.00010193,-0.0042637,0.85661
6345,11.094,2.1818,0.1,0.00030592,3057.1,0.00030625,3066.8,-9.9334e-05,19.375,-0.00010191,-0.0043706,0.85635
6346,11.094,2,0.1,0.00030608,3058.6,0.00030638,3067.5,-9.9508e-05,17.898,-0.00010189,-0.0044976,0.85602
6347,11.094,1.8182,0.1,0.00030626,3060.4,0.00030653,3068.5,-9.9713e-05,16.163,-0.00010186,-0.0046406,0.85563
6348,11.094,1.6364,0.1,0.00030646,3062.5,0.0003067,3069.6,-9.9946e-05,14.186,-0.00010183,-0.0048006,0.85517
6349,11.094,1.4545,0.1,0.00030669,3064.8,0.00030689,3070.8,-0.00010021,11.989,-0.0001018,-0.0049844,0.85465
6350,11.094,1.2727,0.1,0.00030695,3067.3,0.00030711,3072.1,-0.00010049,9.591,-0.00010177,-0.005202,0.85406
6351,11.094,1.0909,0.1,0.00030722,3070.1,0.00030734,3073.6,-0.0001008,7.0145,-0.00010173,-0.0055267,0.8534
6352,11.094,0.90909,0.1,0.00030751,3073,0.00030759,3075.2,-0.00010112,4.2808,-0.00010169,-0.0060972,0.85268
6353,11.094,0.72727,0.1,0.00030783,3076.1,0.00030785,3076.8,-0.00010146,1.4127,-0.00010165,-0.009285,0.85189
6354,11.094,0.54545,0.1,0.00030815,3079.4,0.00030813,3078.6,-0.00010161,-0.00010089,-0.00010182,-1.5867,0.85103
6355,11.094,0.36364,0.1,0.00030851,3082.9,0.00030843,3080.6,-0.00010157,-0.0074399,-0.0001022,-4.747,0.85011
6356,11.094,0.18182,0.1,0.00030905,3088.4,0.0003089,3083.8,-0.00010153,0.0081554,-0.00010276,-9.2118,0.84912
6357,10.91,5.8182,0.1,0.00031415,3139.3,0.000314,3135,-0.00010324,0.0094904,-0.00010439,-8.6808,0.82508
6358,10.91,5.6364,0.1,0.00031358,3133.7,0.00031352,3131.7,-0.00010329,-0.0088108,-0.00010382,-4.0012,0.82608
6359,10.91,5.4545,0.1,0.00031321,3130,0.0003132,3129.7,-0.00010333,0.0015051,-0.00010341,-0.60038,0.82702
6360,10.91,5.2727,0.1,0.00031287,3126.5,0.00031291,3127.8,-0.00010303,2.6392,-0.00010338,-0.0064914,0.82789
6361,10.91,5.0909,0.1,0.00031254,3123.2,0.00031264,3126.1,-0.00010266,5.7473,-0.00010342,-0.00547,0.82869
6362,10.91,4.9091,0.1,0.00031223,3120.1,0.00031237,3124.5,-0.00010231,8.7131,-0.00010347,-0.0052344,0.82942
6363,10.91,4.7273,0.1,0.00031194,3117.2,0.00031213,3122.9,-0.00010198,11.513,-0.00010351,-0.0050115,0.83009
6364,10.91,4.5455,0.1,0.00031167,3114.5,0.0003119,3121.5,-0.00010167,14.123,-0.00010355,-0.0048299,0.83069
6365,10.91,4.3636,0.1,0.00031142,3112.1,0.0003117,3120.3,-0.00010139,16.52,-0.00010359,-0.004652,0.83122
6366,10.91,4.1818,0.1,0.0003112,3109.9,0.00031151,3119.2,-0.00010113,18.678,-0.00010362,-0.0044828,0.83169
6367,10.91,4,0.1,0.00031101,3107.9,0.00031135,3118.2,-0.00010091,20.577,-0.00010365,-0.0043246,0.83209
6368,10.91,3.8182,0.1,0.00031084,3106.3,0.00031122,3117.3,-0.00010072,22.194,-0.00010368,-0.0041798,0.83242
6369,10.91,3.6364,0.1,0.00031071,3105,0.0003111,3116.7,-0.00010057,23.512,-0.0001037,-0.0040562,0.83268
6370,10.91,3.4545,0.1,0.00031061,3104,0.00031102,3116.1,-0.00010045,24.515,-0.00010371,-0.0039594,0.83288
6371,10.91,3.2727,0.1,0.00031054,3103.3,0.00031096,3115.8,-0.00010037,25.19,-0.00010372,-0.0038915,0.83301
6372,10.91,3.0909,0.1,0.00031051,3102.9,0.00031094,3115.6,-0.00010033,25.53,-0.00010373,-0.0038562,0.83308
6373,10.91,2.9091,0.1,0.00031051,3102.9,0.00031094,3115.6,-0.00010033,25.53,-0.00010373,-0.0038559,0.83308
6374,10.91,2.7273,0.1,0.00031054,3103.3,0.00031096,3115.8,-0.00010037,25.19,-0.00010372,-0.0038917,0.83301
6375,10.91,2.5455,0.1,0.00031061,3104,0.00031102,3116.1,-0.00010045,24.515,-0.00010371,-0.0039594,0.83288
6376,10.91,2.3636,0.1,0.00031071,3105,0.0003111,3116.7,-0.00010057,23.512,-0.0001037,-0.0040566,0.83268
6377,10.91,2.1818,0.1,0.00031084,3106.3,0.00031122,3117.3,-0.00010072,22.194,-0.00010368,-0.0041803,0.83242
6378,10.91,2,0.1,0.00031101,3107.9,0.00031135,3118.2,-0.00010091,20.577,-0.00010365,-0.0043247,0.83209
6379,10.91,1.8182,0.1,0.0003112,3109.9,0.00031151,3119.2,-0.00010113,18.678,-0.00010362,-0.0044835,0.83169
6380,10.91,1.6364,0.1,0.00031142,3112.1,0.0003117,3120.3,-0.00010139,16.52,-0.00010359,-0.0046524,0.83122
6381,10.91,1.4545,0.1,0.00031167,3114.5,0.0003119,3121.5,-0.00010167,14.124,-0.00010355,-0.0048309,0.83069
6382,10.91,1.2727,0.1,0.00031194,3117.2,0.00031213,3122.9,-0.00010198,11.513,-0.00010351,-0.0050117,0.83009
6383,10.91,1.0909,0.1,0.00031223,3120.1,0.00031237,3124.5,-0.00010231,8.7132,-0.00010347,-0.0052357,0.82942
6384,10.91,0.90909,0.1,0.00031254,3123.2,0.00031264,3126.1,-0.00010266,5.7473,-0.00010342,-0.0054722,0.82869
6385,10.91,0.72727,0.1,0.00031287,3126.5,0.00031291,3127.8,-0.00010303,2.6393,-0.00010338,-0.0064923,0.82789
6386,10.91,0.54545,0.1,0.00031321,3130,0.0003132,3129.7,-0.00010333,0.0015054,-0.00010341,-0.60036,0.82702
6387,10.91,0.36364,0.1,0.00031358,3133.7,0.00031352,3131.7,-0.00010329,-0.0088118,-0.00010382,-4.0012,0.82608
6388,10.91,0.18182,0.1,0.00031415,3139.3,0.000314,3135,-0.00010324,0.0094904,-0.00010439,-8.6808,0.82508
6389,10.726,5.8182,0.1,0.00031926,3190.4,0.00031912,3186.3,-0.00010495,0.011155,-0.00010604,-8.1283,0.80125
6390,10.726,5.6364,0.1,0.00031868,3184.6,0.00031863,3183,-0.00010501,-0.01015,-0.00010543,-3.2172,0.80227
6391,10.726,5.4545,0.1,0.00031829,3180.7,0.0003183,3181,-0.000105,0.45254,-0.00010506,-0.0070449,0.80322
6392,10.726,5.2727,0.1,0.00031793,3177.1,0.00031799,3179,-0.00010459,3.9432,-0.00010511,-0.0057646,0.8041
6393,10.726,5.0909,0.1,0.00031758,3173.6,0.0003177,3177.2,-0.00010419,7.3093,-0.00010516,-0.0052281,0.80492
6394,10.726,4.9091,0.1,0.00031725,3170.3,0.00031743,3175.5,-0.00010381,10.527,-0.00010521,-0.0051132,0.80566
6395,10.726,4.7273,0.1,0.00031694,3167.2,0.00031717,3174,-0.00010345,13.572,-0.00010526,-0.004916,0.80633
6396,10.726,4.5455,0.1,0.00031665,3164.3,0.00031693,3172.5,-0.00010312,16.415,-0.00010531,-0.0047315,0.80694
6397,10.726,4.3636,0.1,0.00031639,3161.7,0.00031671,3171.2,-0.00010282,19.03,-0.00010535,-0.0045353,0.80748
6398,10.726,4.1818,0.1,0.00031615,3159.4,0.00031651,3170,-0.00010254,21.39,-0.00010539,-0.0043408,0.80795
6399,10.726,4,0.1,0.00031595,3157.3,0.00031634,3169,-0.0001023,23.469,-0.00010542,-0.0041536,0.80836
6400,10.726,3.8182,0.1,0.00031577,3155.5,0.00031619,3168.1,-0.00010209,25.242,-0.00010545,-0.0039807,0.80869
6401,10.726,3.6364,0.1,0.00031563,3154.1,0.00031608,3167.4,-0.00010193,26.689,-0.00010548,-0.0038315,0.80896
6402,10.726,3.4545,0.1,0.00031552,3153,0.00031599,3166.8,-0.0001018,27.79,-0.0001055,-0.0037142,0.80916
6403,10.726,3.2727,0.1,0.00031545,3152.3,0.00031593,3166.5,-0.00010171,28.533,-0.00010551,-0.0036319,0.8093
6404,10.726,3.0909,0.1,0.00031541,3152,0.00031589,3166.3,-0.00010167,28.907,-0.00010552,-0.0035896,0.80937
6405,10.726,2.9091,0.1,0.00031541,3152,0.00031589,3166.3,-0.00010167,28.907,-0.00010552,-0.0035896,0.80937
6406,10.726,2.7273,0.1,0.00031545,3152.3,0.00031593,3166.5,-0.00010171,28.533,-0.00010551,-0.0036322,0.8093
6407,10.726,2.5455,0.1,0.00031552,3153,0.00031599,3166.8,-0.0001018,27.79,-0.0001055,-0.0037145,0.80916
6408,10.726,2.3636,0.1,0.00031563,3154.1,0.00031608,3167.4,-0.00010193,26.689,-0.00010548,-0.003832,0.80896
6409,10.726,2.1818,0.1,0.00031577,3155.5,0.00031619,3168.1,-0.00010209,25.242,-0.00010545,-0.0039807,0.80869
6410,10.726,2,0.1,0.00031595,3157.3,0.00031634,3169,-0.0001023,23.469,-0.00010542,-0.004154,0.80836
6411,10.726,1.8182,0.1,0.00031615,3159.4,0.00031651,3170,-0.00010254,21.39,-0.00010539,-0.0043413,0.80795
6412,10.726,1.6364,0.1,0.00031639,3161.7,0.00031671,3171.2,-0.00010282,19.03,-0.00010535,-0.0045353,0.80748
6413,10.726,1.4545,0.1,0.00031665,3164.3,0.00031693,3172.5,-0.00010312,16.415,-0.00010531,-0.0047323,0.80694
6414,10.726,1.2727,0.1,0.00031694,3167.2,0.00031717,3174,-0.00010345,13.572,-0.00010526,-0.004917,0.80633
6415,10.726,1.0909,0.1,0.00031725,3170.3,0.00031743,3175.5,-0.00010381,10.527,-0.00010521,-0.0051134,0.80566
6416,10.726,0.90909,0.1,0.00031758,3173.6,0.0003177,3177.2,-0.00010419,7.3093,-0.00010516,-0.0052303,0.80492
6417,10.726,0.72727,0.1,0.00031793,3177.1,0.00031799,3179,-0.00010459,3.9433,-0.00010511,-0.0057658,0.8041
6418,10.726,0.54545,0.1,0.00031829,3180.7,0.0003183,3181,-0.000105,0.45256,-0.00010506,-0.0070455,0.80322
6419,10.726,0.36364,0.1,0.00031868,3184.6,0.00031863,3183,-0.00010501,-0.01015,-0.00010543,-3.2172,0.80227
6420,10.726,0.18182,0.1,0.00031926,3190.4,0.00031912,3186.3,-0.00010495,0.011154,-0.00010604,-8.1283,0.80125
6421,10.541,5.8182,0.1,0.00032439,3241.7,0.00032427,3237.9,-0.00010667,0.013229,-0.00010768,-7.5539,0.77764
6422,10.541,5.6364,0.1,0.0003238,3235.8,0.00032376,3234.6,-0.00010674,-0.011328,-0.00010705,-2.394,0.77868
6423,10.541,5.4545,0.1,0.00032339,3231.7,0.00032342,3232.4,-0.00010659,1.5524,-0.0001068,-0.0044706,0.77964
6424,10.541,5.2727,0.1,0.000323,3227.8,0.00032309,3230.5,-0.00010615,5.3261,-0.00010686,-0.0056883,0.78053
6425,10.541,5.0909,0.1,0.00032263,3224.1,0.00032279,3228.6,-0.00010572,8.971,-0.00010691,-0.0052229,0.78136
6426,10.541,4.9091,0.1,0.00032228,3220.6,0.00032249,3226.8,-0.00010531,12.463,-0.00010697,-0.0051285,0.78211
6427,10.541,4.7273,0.1,0.00032195,3217.3,0.00032222,3225.2,-0.00010493,15.775,-0.00010703,-0.0049117,0.78279
6428,10.541,4.5455,0.1,0.00032165,3214.3,0.00032196,3223.7,-0.00010457,18.874,-0.00010708,-0.0046973,0.78341
6429,10.541,4.3636,0.1,0.00032137,3211.5,0.00032173,3222.3,-0.00010423,21.731,-0.00010713,-0.0044633,0.78396
6430,10.541,4.1818,0.1,0.00032112,3208.9,0.00032152,3221,-0.00010393,24.313,-0.00010717,-0.0042279,0.78444
6431,10.541,4,0.1,0.0003209,3206.7,0.00032134,3220,-0.00010367,26.592,-0.00010721,-0.004,0.78484
6432,10.541,3.8182,0.1,0.00032071,3204.9,0.00032118,3219,-0.00010345,28.539,-0.00010724,-0.0037898,0.78519
6433,10.541,3.6364,0.1,0.00032055,3203.3,0.00032106,3218.3,-0.00010326,30.129,-0.00010727,-0.0036076,0.78546
6434,10.541,3.4545,0.1,0.00032044,3202.2,0.00032096,3217.7,-0.00010312,31.341,-0.00010729,-0.0034636,0.78566
6435,10.541,3.2727,0.1,0.00032036,3201.4,0.0003209,3217.3,-0.00010303,32.159,-0.00010731,-0.0033623,0.7858
6436,10.541,3.0909,0.1,0.00032032,3201,0.00032086,3217.2,-0.00010298,32.57,-0.00010732,-0.0033107,0.78587
6437,10.541,2.9091,0.1,0.00032032,3201,0.00032086,3217.2,-0.00010298,32.57,-0.00010732,-0.0033102,0.78587
6438,10.541,2.7273,0.1,0.00032036,3201.4,0.0003209,3217.3,-0.00010303,32.159,-0.00010731,-0.0033625,0.7858
6439,10.541,2.5455,0.1,0.00032044,3202.2,0.00032096,3217.7,-0.00010312,31.341,-0.00010729,-0.0034637,0.78566
6440,10.541,2.3636,0.1,0.00032055,3203.3,0.00032106,3218.3,-0.00010326,30.129,-0.00010727,-0.0036076,0.78546
6441,10.541,2.1818,0.1,0.00032071,3204.9,0.00032118,3219,-0.00010345,28.539,-0.00010724,-0.00379,0.78519
6442,10.541,2,0.1,0.0003209,3206.7,0.00032134,3220,-0.00010367,26.592,-0.00010721,-0.0040006,0.78484
6443,10.541,1.8182,0.1,0.00032112,3208.9,0.00032152,3221,-0.00010393,24.313,-0.00010717,-0.0042284,0.78444
6444,10.541,1.6364,0.1,0.00032137,3211.5,0.00032173,3222.3,-0.00010423,21.731,-0.00010713,-0.0044633,0.78396
6445,10.541,1.4545,0.1,0.00032165,3214.3,0.00032196,3223.7,-0.00010457,18.874,-0.00010708,-0.004698,0.78341
6446,10.541,1.2727,0.1,0.00032195,3217.3,0.00032222,3225.2,-0.00010493,15.775,-0.00010703,-0.0049123,0.78279
6447,10.541,1.0909,0.1,0.00032228,3220.6,0.00032249,3226.8,-0.00010531,12.463,-0.00010697,-0.0051288,0.78211
6448,10.541,0.90909,0.1,0.00032263,3224.1,0.00032279,3228.6,-0.00010572,8.9711,-0.00010691,-0.0052243,0.78136
6449,10.541,0.72727,0.1,0.000323,3227.8,0.00032309,3230.5,-0.00010615,5.3261,-0.00010686,-0.0056892,0.78053
6450,10.541,0.54545,0.1,0.00032339,3231.7,0.00032342,3232.4,-0.00010659,1.5525,-0.0001068,-0.0044714,0.77964
6451,10.541,0.36364,0.1,0.0003238,3235.8,0.00032376,3234.6,-0.00010674,-0.011329,-0.00010705,-2.394,0.77868
6452,10.541,0.18182,0.1,0.00032439,3241.7,0.00032427,3237.9,-0.00010667,0.013229,-0.00010768,-7.5539,0.77764
6453,10.357,5.8182,0.1,0.00032955,3293.2,0.00032943,3289.7,-0.00010841,0.015852,-0.00010933,-6.9576,0.75425
6454,10.357,5.6364,0.1,0.00032894,3287.1,0.00032891,3286.4,-0.00010848,-0.011842,-0.00010868,-1.5319,0.7553
6455,10.357,5.4545,0.1,0.00032851,3282.8,0.00032855,3284.1,-0.00010818,2.7143,-0.00010854,-0.0046041,0.75628
6456,10.357,5.2727,0.1,0.0003281,3278.7,0.00032821,3282.1,-0.0001077,6.7897,-0.00010861,-0.0059308,0.75718
6457,10.357,5.0909,0.1,0.00032771,3274.8,0.00032789,3280.1,-0.00010724,10.736,-0.00010867,-0.0053877,0.75802
6458,10.357,4.9091,0.1,0.00032733,3271.1,0.00032758,3278.3,-0.0001068,14.527,-0.00010874,-0.0052599,0.75878
6459,10.357,4.7273,0.1,0.00032698,3267.6,0.00032729,3276.6,-0.00010639,18.13,-0.0001088,-0.0049926,0.75947
6460,10.357,4.5455,0.1,0.00032666,3264.3,0.00032702,3275,-0.000106,21.511,-0.00010886,-0.0047271,0.7601
6461,10.357,4.3636,0.1,0.00032636,3261.3,0.00032677,3273.6,-0.00010564,24.634,-0.00010892,-0.0044384,0.76065
6462,10.357,4.1818,0.1,0.00032609,3258.6,0.00032654,3272.3,-0.00010531,27.464,-0.00010897,-0.0041491,0.76114
6463,10.357,4,0.1,0.00032585,3256.2,0.00032635,3271.1,-0.00010502,29.966,-0.00010901,-0.0038693,0.76155
6464,10.357,3.8182,0.1,0.00032565,3254.2,0.00032618,3270.2,-0.00010478,32.106,-0.00010905,-0.0036111,0.7619
6465,10.357,3.6364,0.1,0.00032548,3252.6,0.00032605,3269.4,-0.00010458,33.857,-0.00010908,-0.0033865,0.76217
6466,10.357,3.4545,0.1,0.00032536,3251.3,0.00032594,3268.8,-0.00010442,35.193,-0.00010911,-0.0032096,0.76238
6467,10.357,3.2727,0.1,0.00032527,3250.5,0.00032587,3268.4,-0.00010432,36.095,-0.00010912,-0.0030854,0.76252
6468,10.357,3.0909,0.1,0.00032523,3250.1,0.00032584,3268.2,-0.00010427,36.549,-0.00010913,-0.0030213,0.76259
6469,10.357,2.9091,0.1,0.00032523,3250.1,0.00032584,3268.2,-0.00010427,36.549,-0.00010913,-0.0030215,0.76259
6470,10.357,2.7273,0.1,0.00032527,3250.5,0.00032587,3268.4,-0.00010432,36.095,-0.00010912,-0.003086,0.76252
6471,10.357,2.5455,0.1,0.00032536,3251.3,0.00032594,3268.8,-0.00010442,35.193,-0.00010911,-0.0032097,0.76238
6472,10.357,2.3636,0.1,0.00032548,3252.6,0.00032605,3269.4,-0.00010458,33.857,-0.00010908,-0.003387,0.76217
6473,10.357,2.1818,0.1,0.00032565,3254.2,0.00032618,3270.2,-0.00010478,32.106,-0.00010905,-0.0036104,0.7619
6474,10.357,2,0.1,0.00032585,3256.2,0.00032635,3271.1,-0.00010502,29.966,-0.00010901,-0.00387,0.76155
6475,10.357,1.8182,0.1,0.00032609,3258.6,0.00032654,3272.3,-0.00010531,27.464,-0.00010897,-0.0041495,0.76114
6476,10.357,1.6364,0.1,0.00032636,3261.3,0.00032677,3273.6,-0.00010564,24.635,-0.00010892,-0.0044388,0.76065
6477,10.357,1.4545,0.1,0.00032666,3264.3,0.00032702,3275,-0.000106,21.511,-0.00010886,-0.004728,0.7601
6478,10.357,1.2727,0.1,0.00032698,3267.6,0.00032729,3276.6,-0.00010639,18.13,-0.0001088,-0.0049934,0.75947
6479,10.357,1.0909,0.1,0.00032733,3271.1,0.00032758,3278.3,-0.0001068,14.527,-0.00010874,-0.0052601,0.75878
6480,10.357,0.90909,0.1,0.00032771,3274.8,0.00032789,3280.1,-0.00010724,10.736,-0.00010867,-0.0053893,0.75802
6481,10.357,0.72727,0.1,0.0003281,3278.7,0.00032821,3282.1,-0.0001077,6.7898,-0.00010861,-0.0059331,0.75718
6482,10.357,0.54545,0.1,0.00032851,3282.8,0.00032855,3284.1,-0.00010818,2.7143,-0.00010854,-0.0046046,0.75628
6483,10.357,0.36364,0.1,0.00032894,3287.1,0.00032891,3286.4,-0.00010848,-0.011842,-0.00010868,-1.5319,0.7553
6484,10.357,0.18182,0.1,0.00032955,3293.2,0.00032943,3289.7,-0.00010841,0.015851,-0.00010933,-6.9576,0.75425
6485,10.173,5.8182,0.1,0.00033473,3344.9,0.00033462,3341.8,-0.00011014,0.019239,-0.00011099,-6.3398,0.73108
6486,10.173,5.6364,0.1,0.0003341,3338.7,0.00033409,3338.3,-0.00011022,-0.0080783,-0.0001103,-0.63473,0.73215
6487,10.173,5.4545,0.1,0.00033364,3334.1,0.00033371,3336.1,-0.00010977,3.9361,-0.0001103,-0.0051349,0.73314
6488,10.173,5.2727,0.1,0.00033321,3329.8,0.00033335,3333.9,-0.00010926,8.3355,-0.00011037,-0.0063702,0.73405
6489,10.173,5.0909,0.1,0.00033279,3325.6,0.000333,3331.9,-0.00010877,12.608,-0.00011045,-0.0056797,0.7349
6490,10.173,4.9091,0.1,0.0003324,3321.7,0.00033268,3330,-0.00010829,16.724,-0.00011052,-0.0054842,0.73567
6491,10.173,4.7273,0.1,0.00033202,3317.9,0.00033237,3328.2,-0.00010784,20.647,-0.00011059,-0.005144,0.73638
6492,10.173,4.5455,0.1,0.00033167,3314.4,0.00033208,3326.5,-0.00010742,24.338,-0.00011066,-0.0048103,0.73701
6493,10.173,4.3636,0.1,0.00033135,3311.2,0.00033182,3325,-0.00010702,27.756,-0.00011072,-0.0044523,0.73757
6494,10.173,4.1818,0.1,0.00033106,3308.4,0.00033158,3323.7,-0.00010667,30.861,-0.00011078,-0.0040955,0.73806
6495,10.173,4,0.1,0.00033081,3305.8,0.00033137,3322.5,-0.00010635,33.611,-0.00011083,-0.0037509,0.73848
6496,10.173,3.8182,0.1,0.00033059,3303.6,0.00033119,3321.5,-0.00010608,35.968,-0.00011087,-0.0034331,0.73883
6497,10.173,3.6364,0.1,0.00033041,3301.9,0.00033104,3320.6,-0.00010586,37.899,-0.00011091,-0.0031588,0.73911
6498,10.173,3.4545,0.1,0.00033028,3300.5,0.00033093,3320,-0.0001057,39.375,-0.00011094,-0.0029417,0.73932
6499,10.173,3.2727,0.1,0.00033019,3299.6,0.00033086,3319.6,-0.00010558,40.371,-0.00011096,-0.0027892,0.73946
6500,10.173,3.0909,0.1,0.00033014,3299.1,0.00033082,3319.4,-0.00010553,40.874,-0.00011097,-0.0027108,0.73953
6501,10.173,2.9091,0.1,0.00033014,3299.1,0.00033082,3319.4,-0.00010553,40.874,-0.00011097,-0.0027106,0.73953
6502,10.173,2.7273,0.1,0.00033019,3299.6,0.00033086,3319.6,-0.00010558,40.371,-0.00011096,-0.0027893,0.73946
6503,10.173,2.5455,0.1,0.00033028,3300.5,0.00033093,3320,-0.0001057,39.375,-0.00011094,-0.0029416,0.73932
6504,10.173,2.3636,0.1,0.00033041,3301.9,0.00033104,3320.6,-0.00010586,37.899,-0.00011091,-0.0031586,0.73911
6505,10.173,2.1818,0.1,0.00033059,3303.6,0.00033119,3321.5,-0.00010608,35.968,-0.00011087,-0.0034337,0.73883
6506,10.173,2,0.1,0.00033081,3305.8,0.00033137,3322.5,-0.00010635,33.611,-0.00011083,-0.0037514,0.73848
6507,10.173,1.8182,0.1,0.00033106,3308.4,0.00033158,3323.7,-0.00010667,30.861,-0.00011078,-0.0040959,0.73806
6508,10.173,1.6364,0.1,0.00033135,3311.2,0.00033182,3325,-0.00010702,27.756,-0.00011072,-0.0044535,0.73757
6509,10.173,1.4545,0.1,0.00033167,3314.4,0.00033208,3326.5,-0.00010742,24.338,-0.00011066,-0.0048109,0.73701
6510,10.173,1.2727,0.1,0.00033202,3317.9,0.00033237,3328.2,-0.00010784,20.647,-0.00011059,-0.0051451,0.73638
6511,10.173,1.0909,0.1,0.0003324,3321.7,0.00033268,3330,-0.00010829,16.724,-0.00011052,-0.0054848,0.73567
6512,10.173,0.90909,0.1,0.00033279,3325.6,0.000333,3331.9,-0.00010877,12.608,-0.00011045,-0.0056808,0.7349
6513,10.173,0.72727,0.1,0.00033321,3329.8,0.00033335,3333.9,-0.00010926,8.3355,-0.00011037,-0.0063713,0.73405
6514,10.173,0.54545,0.1,0.00033364,3334.1,0.00033371,3336.1,-0.00010977,3.9361,-0.0001103,-0.0051358,0.73314
6515,10.173,0.36364,0.1,0.0003341,3338.7,0.00033409,3338.3,-0.00011022,-0.0080796,-0.0001103,-0.63473,0.73215
6516,10.173,0.18182,0.1,0.00033473,3344.9,0.00033462,3341.8,-0.00011014,0.019238,-0.00011099,-6.3398,0.73108
6517,9.9882,5.8182,0.1,0.00033992,3396.9,0.00033982,3394,-0.00011189,0.023705,-0.00011265,-5.7017,0.70814
6518,9.9882,5.6364,0.1,0.00033927,3390.4,0.00033928,3390.5,-0.00011193,0.33383,-0.00011198,-0.037423,0.70922
6519,9.9882,5.4545,0.1,0.00033879,3385.6,0.00033888,3388.2,-0.00011136,5.2168,-0.00011206,-0.0058379,0.71022
6520,9.9882,5.2727,0.1,0.00033833,3381,0.0003385,3386,-0.00011082,9.9636,-0.00011214,-0.0069508,0.71115
6521,9.9882,5.0909,0.1,0.00033789,3376.6,0.00033814,3383.9,-0.00011028,14.589,-0.00011223,-0.0060777,0.71201
6522,9.9882,4.9091,0.1,0.00033747,3372.4,0.00033779,3381.9,-0.00010977,19.058,-0.00011231,-0.0057919,0.71279
6523,9.9882,4.7273,0.1,0.00033707,3368.4,0.00033746,3380,-0.00010928,23.332,-0.00011239,-0.0053616,0.7135
6524,9.9882,4.5455,0.1,0.0003367,3364.7,0.00033716,3378.3,-0.00010882,27.365,-0.00011246,-0.0049427,0.71414
6525,9.9882,4.3636,0.1,0.00033636,3361.3,0.00033688,3376.7,-0.00010839,31.111,-0.00011254,-0.0045006,0.71471
6526,9.9882,4.1818,0.1,0.00033605,3358.2,0.00033662,3375.3,-0.00010801,34.521,-0.0001126,-0.0040617,0.71521
6527,9.9882,4,0.1,0.00033577,3355.4,0.0003364,3374,-0.00010766,37.549,-0.00011266,-0.0036396,0.71563
6528,9.9882,3.8182,0.1,0.00033554,3353.1,0.0003362,3373,-0.00010737,40.15,-0.00011271,-0.003251,0.71598
6529,9.9882,3.6364,0.1,0.00033535,3351.2,0.00033605,3372.1,-0.00010712,42.284,-0.00011275,-0.0029152,0.71627
6530,9.9882,3.4545,0.1,0.0003352,3349.7,0.00033593,3371.5,-0.00010694,43.917,-0.00011279,-0.0026495,0.71648
6531,9.9882,3.2727,0.1,0.0003351,3348.7,0.00033585,3371,-0.00010681,45.021,-0.00011281,-0.0024635,0.71662
6532,9.9882,3.0909,0.1,0.00033505,3348.2,0.00033581,3370.8,-0.00010675,45.578,-0.00011282,-0.0023679,0.71669
6533,9.9882,2.9091,0.1,0.00033505,3348.2,0.00033581,3370.8,-0.00010675,45.578,-0.00011282,-0.0023684,0.71669
6534,9.9882,2.7273,0.1,0.0003351,3348.7,0.00033585,3371,-0.00010681,45.021,-0.00011281,-0.0024637,0.71662
6535,9.9882,2.5455,0.1,0.0003352,3349.7,0.00033593,3371.5,-0.00010694,43.917,-0.00011279,-0.0026497,0.71648
6536,9.9882,2.3636,0.1,0.00033535,3351.2,0.00033605,3372.1,-0.00010712,42.284,-0.00011275,-0.0029159,0.71627
6537,9.9882,2.1818,0.1,0.00033554,3353.1,0.0003362,3373,-0.00010737,40.15,-0.00011271,-0.0032517,0.71598
6538,9.9882,2,0.1,0.00033577,3355.4,0.0003364,3374,-0.00010766,37.549,-0.00011266,-0.0036396,0.71563
6539,9.9882,1.8182,0.1,0.00033605,3358.2,0.00033662,3375.3,-0.00010801,34.521,-0.0001126,-0.004062,0.71521
6540,9.9882,1.6364,0.1,0.00033636,3361.3,0.00033688,3376.7,-0.00010839,31.111,-0.00011254,-0.0045013,0.71471
6541,9.9882,1.4545,0.1,0.0003367,3364.7,0.00033716,3378.3,-0.00010882,27.365,-0.00011246,-0.0049434,0.71414
6542,9.9882,1.2727,0.1,0.00033707,3368.4,0.00033746,3380,-0.00010928,23.332,-0.00011239,-0.005362,0.7135
6543,9.9882,1.0909,0.1,0.00033747,3372.4,0.00033779,3381.9,-0.00010977,19.058,-0.00011231,-0.0057927,0.71279
6544,9.9882,0.90909,0.1,0.00033789,3376.6,0.00033814,3383.9,-0.00011028,14.589,-0.00011223,-0.0060789,0.71201
6545,9.9882,0.72727,0.1,0.00033833,3381,0.0003385,3386,-0.00011082,9.9636,-0.00011214,-0.0069518,0.71115
6546,9.9882,0.54545,0.1,0.00033879,3385.6,0.00033888,3388.2,-0.00011136,5.2168,-0.00011206,-0.0058387,0.71022
6547,9.9882,0.36364,0.1,0.00033927,3390.4,0.00033928,3390.5,-0.00011193,0.33383,-0.00011198,-0.037423,0.70922
6548,9.9882,0.18182,0.1,0.00033992,3396.9,0.00033982,3394,-0.00011189,0.023704,-0.00011265,-5.7017,0.70814
6549,9.8038,5.8182,0.1,0.00034513,3449,0.00034505,3446.4,-0.00011364,0.029692,-0.00011432,-5.0454,0.68543
6550,9.8038,5.6364,0.1,0.00034447,3442.3,0.00034449,3442.9,-0.00011356,1.2987,-0.00011374,-0.027204,0.68652
6551,9.8038,5.4545,0.1,0.00034396,3437.2,0.00034407,3440.5,-0.00011296,6.554,-0.00011383,-0.0067003,0.68754
6552,9.8038,5.2727,0.1,0.00034347,3432.4,0.00034367,3438.2,-0.00011237,11.673,-0.00011392,-0.007691,0.68848
6553,9.8038,5.0909,0.1,0.00034301,3427.7,0.00034329,3436,-0.0001118,16.678,-0.00011402,-0.0066137,0.68935
6554,9.8038,4.9091,0.1,0.00034256,3423.2,0.00034292,3433.9,-0.00011124,21.533,-0.00011411,-0.0062212,0.69014
6555,9.8038,4.7273,0.1,0.00034214,3419,0.00034257,3432,-0.00011071,26.192,-0.0001142,-0.0056846,0.69086
6556,9.8038,4.5455,0.1,0.00034174,3415,0.00034225,3430.2,-0.00011021,30.603,-0.00011429,-0.0051662,0.69151
6557,9.8038,4.3636,0.1,0.00034137,3411.3,0.00034195,3428.6,-0.00010975,34.713,-0.00011437,-0.0046255,0.69208
6558,9.8038,4.1818,0.1,0.00034104,3408,0.00034168,3427.1,-0.00010932,38.465,-0.00011444,-0.0040891,0.69258
6559,9.8038,4,0.1,0.00034074,3405.1,0.00034143,3425.8,-0.00010895,41.805,-0.00011451,-0.0035744,0.69301
6560,9.8038,3.8182,0.1,0.00034049,3402.6,0.00034123,3424.7,-0.00010862,44.681,-0.00011457,-0.0031013,0.69337
6561,9.8038,3.6364,0.1,0.00034028,3400.5,0.00034106,3423.8,-0.00010835,47.044,-0.00011462,-0.0026932,0.69365
6562,9.8038,3.4545,0.1,0.00034013,3398.9,0.00034093,3423.1,-0.00010815,48.854,-0.00011465,-0.0023686,0.69387
6563,9.8038,3.2727,0.1,0.00034002,3397.8,0.00034084,3422.6,-0.00010801,50.08,-0.00011468,-0.0021424,0.69401
6564,9.8038,3.0909,0.1,0.00033997,3397.3,0.0003408,3422.4,-0.00010794,50.698,-0.00011469,-0.0020263,0.69408
6565,9.8038,2.9091,0.1,0.00033997,3397.3,0.0003408,3422.4,-0.00010794,50.698,-0.00011469,-0.002026,0.69408
6566,9.8038,2.7273,0.1,0.00034002,3397.8,0.00034084,3422.6,-0.00010801,50.08,-0.00011468,-0.0021424,0.69401
6567,9.8038,2.5455,0.1,0.00034013,3398.9,0.00034093,3423.1,-0.00010815,48.854,-0.00011465,-0.0023689,0.69387
6568,9.8038,2.3636,0.1,0.00034028,3400.5,0.00034106,3423.8,-0.00010835,47.044,-0.00011462,-0.0026928,0.69365
6569,9.8038,2.1818,0.1,0.00034049,3402.6,0.00034123,3424.7,-0.00010862,44.681,-0.00011457,-0.003102,0.69337
6570,9.8038,2,0.1,0.00034074,3405.1,0.00034143,3425.8,-0.00010895,41.805,-0.00011451,-0.0035748,0.69301
6571,9.8038,1.8182,0.1,0.00034104,3408,0.00034168,3427.1,-0.00010932,38.465,-0.00011444,-0.0040897,0.69258
6572,9.8038,1.6364,0.1,0.00034137,3411.3,0.00034195,3428.6,-0.00010975,34.713,-0.00011437,-0.0046257,0.69208
6573,9.8038,1.4545,0.1,0.00034174,3415,0.00034225,3430.2,-0.00011021,30.603,-0.00011429,-0.0051667,0.69151
6574,9.8038,1.2727,0.1,0.00034214,3419,0.00034257,3432,-0.00011071,26.192,-0.0001142,-0.0056855,0.69086
6575,9.8038,1.0909,0.1,0.00034256,3423.2,0.00034292,3434,-0.00011124,21.533,-0.00011411,-0.0062222,0.69014
6576,9.8038,0.90909,0.1,0.00034301,3427.7,0.00034329,3436,-0.0001118,16.678,-0.00011402,-0.0066152,0.68935
6577,9.8038,0.72727,0.1,0.00034347,3432.4,0.00034367,3438.2,-0.00011237,11.673,-0.00011392,-0.007692,0.68848
6578,9.8038,0.54545,0.1,0.00034396,3437.2,0.00034407,3440.5,-0.00011296,6.554,-0.00011383,-0.0067009,0.68754
6579,9.8038,0.36364,0.1,0.00034447,3442.3,0.00034449,3442.9,-0.00011356,1.2987,-0.00011374,-0.027204,0.68652
6580,9.8038,0.18182,0.1,0.00034513,3449,0.00034505,3446.4,-0.00011364,0.029691,-0.00011432,-5.0454,0.68543
6581,9.6195,5.8182,0.1,0.00035037,3501.2,0.00035029,3499.1,-0.0001154,0.037992,-0.00011599,-4.374,0.66296
6582,9.6195,5.6364,0.1,0.00034968,3494.3,0.00034971,3495.5,-0.0001152,2.3066,-0.00011551,-0.027743,0.66406
6583,9.6195,5.4545,0.1,0.00034914,3489,0.00034928,3493,-0.00011455,7.9439,-0.00011561,-0.0076943,0.66509
6584,9.6195,5.2727,0.1,0.00034863,3483.9,0.00034886,3490.6,-0.00011392,13.459,-0.00011571,-0.0085714,0.66604
6585,9.6195,5.0909,0.1,0.00034814,3479,0.00034845,3488.4,-0.00011331,18.876,-0.00011582,-0.007276,0.66692
6586,9.6195,4.9091,0.1,0.00034766,3474.2,0.00034807,3486.2,-0.00011271,24.151,-0.00011592,-0.0067652,0.66772
6587,9.6195,4.7273,0.1,0.00034721,3469.7,0.0003477,3484.2,-0.00011213,29.232,-0.00011602,-0.0061082,0.66845
6588,9.6195,4.5455,0.1,0.00034678,3465.4,0.00034735,3482.4,-0.00011159,34.062,-0.00011612,-0.0054754,0.6691
6589,9.6195,4.3636,0.1,0.00034639,3461.5,0.00034703,3480.6,-0.00011108,38.578,-0.00011621,-0.0048184,0.66968
6590,9.6195,4.1818,0.1,0.00034603,3457.9,0.00034674,3479.1,-0.00011061,42.713,-0.0001163,-0.0041687,0.67019
6591,9.6195,4,0.1,0.00034572,3454.8,0.00034648,3477.7,-0.0001102,46.404,-0.00011638,-0.0035443,0.67062
6592,9.6195,3.8182,0.1,0.00034544,3452,0.00034626,3476.6,-0.00010984,49.589,-0.00011644,-0.0029714,0.67099
6593,9.6195,3.6364,0.1,0.00034522,3449.8,0.00034608,3475.6,-0.00010955,52.212,-0.0001165,-0.0024758,0.67127
6594,9.6195,3.4545,0.1,0.00034505,3448.1,0.00034594,3474.9,-0.00010932,54.224,-0.00011654,-0.0020824,0.67149
6595,9.6195,3.2727,0.1,0.00034493,3446.9,0.00034584,3474.4,-0.00010917,55.588,-0.00011657,-0.0018078,0.67164
6596,9.6195,3.0909,0.1,0.00034487,3446.4,0.0003458,3474.2,-0.00010909,56.276,-0.00011658,-0.0016671,0.67171
6597,9.6195,2.9091,0.1,0.00034487,3446.4,0.0003458,3474.2,-0.00010909,56.276,-0.00011658,-0.001667,0.67171
6598,9.6195,2.7273,0.1,0.00034493,3446.9,0.00034584,3474.4,-0.00010917,55.588,-0.00011657,-0.0018084,0.67164
6599,9.6195,2.5455,0.1,0.00034505,3448.1,0.00034594,3474.9,-0.00010932,54.224,-0.00011654,-0.0020829,0.67149
6600,9.6195,2.3636,0.1,0.00034522,3449.8,0.00034608,3475.6,-0.00010955,52.212,-0.0001165,-0.0024765,0.67127
6601,9.6195,2.1818,0.1,0.00034544,3452,0.00034626,3476.6,-0.00010984,49.589,-0.00011644,-0.0029715,0.67099
6602,9.6195,2,0.1,0.00034572,3454.8,0.00034648,3477.7,-0.0001102,46.404,-0.00011638,-0.0035445,0.67062
6603,9.6195,1.8182,0.1,0.00034603,3457.9,0.00034674,3479.1,-0.00011061,42.713,-0.0001163,-0.0041695,0.67019
6604,9.6195,1.6364,0.1,0.00034639,3461.5,0.00034703,3480.6,-0.00011108,38.578,-0.00011621,-0.004819,0.66968
6605,9.6195,1.4545,0.1,0.00034678,3465.4,0.00034735,3482.4,-0.00011159,34.062,-0.00011612,-0.0054759,0.6691
6606,9.6195,1.2727,0.1,0.00034721,3469.7,0.0003477,3484.2,-0.00011213,29.232,-0.00011602,-0.0061084,0.66845
6607,9.6195,1.0909,0.1,0.00034766,3474.2,0.00034807,3486.2,-0.00011271,24.151,-0.00011592,-0.0067666,0.66772
6608,9.6195,0.90909,0.1,0.00034814,3479,0.00034845,3488.4,-0.00011331,18.876,-0.00011582,-0.0072779,0.66692
6609,9.6195,0.72727,0.1,0.00034863,3483.9,0.00034886,3490.6,-0.00011392,13.46,-0.00011571,-0.0085726,0.66604
6610,9.6195,0.54545,0.1,0.00034914,3489,0.00034928,3493,-0.00011455,7.9439,-0.00011561,-0.0076947,0.66509
6611,9.6195,0.36364,0.1,0.00034968,3494.4,0.00034971,3495.5,-0.0001152,2.3066,-0.00011551,-0.027743,0.66406
6612,9.6195,0.18182,0.1,0.00035037,3501.2,0.00035029,3499.1,-0.0001154,0.03799,-0.00011599,-4.374,0.66296
6613,9.4351,5.8182,0.1,0.00035561,3553.7,0.00035555,3551.8,-0.00011716,0.049952,-0.00011766,-3.6922,0.64072
6614,9.4351,5.6364,0.1,0.0003549,3546.6,0.00035496,3548.2,-0.00011684,3.3426,-0.00011729,-0.029608,0.64183
6615,9.4351,5.4545,0.1,0.00035434,3541,0.0003545,3545.6,-0.00011615,9.3801,-0.0001174,-0.0088105,0.64287
6616,9.4351,5.2727,0.1,0.0003538,3535.6,0.00035406,3543.2,-0.00011547,15.318,-0.00011751,-0.0095839,0.64384
6617,9.4351,5.0909,0.1,0.00035328,3530.3,0.00035363,3540.9,-0.00011481,21.177,-0.00011763,-0.0080642,0.64472
6618,9.4351,4.9091,0.1,0.00035277,3525.3,0.00035322,3538.7,-0.00011416,26.91,-0.00011775,-0.0074247,0.64554
6619,9.4351,4.7273,0.1,0.00035229,3520.5,0.00035283,3536.6,-0.00011354,32.457,-0.00011786,-0.0066341,0.64627
6620,9.4351,4.5455,0.1,0.00035184,3516,0.00035247,3534.7,-0.00011295,37.751,-0.00011797,-0.0058702,0.64693
6621,9.4351,4.3636,0.1,0.00035142,3511.8,0.00035212,3532.9,-0.00011239,42.72,-0.00011808,-0.0050805,0.64752
6622,9.4351,4.1818,0.1,0.00035103,3507.9,0.00035181,3531.3,-0.00011188,47.286,-0.00011818,-0.0042972,0.64803
6623,9.4351,4,0.1,0.00035069,3504.5,0.00035154,3529.9,-0.00011143,51.373,-0.00011826,-0.0035446,0.64847
6624,9.4351,3.8182,0.1,0.0003504,3501.6,0.0003513,3528.7,-0.00011103,54.909,-0.00011834,-0.0028527,0.64884
6625,9.4351,3.6364,0.1,0.00035016,3499.1,0.0003511,3527.7,-0.00011071,57.826,-0.0001184,-0.0022543,0.64913
6626,9.4351,3.4545,0.1,0.00034997,3497.3,0.00035095,3526.9,-0.00011046,60.068,-0.00011845,-0.0017787,0.64935
6627,9.4351,3.2727,0.1,0.00034985,3496,0.00035085,3526.4,-0.00011029,61.589,-0.00011849,-0.0014463,0.64949
6628,9.4351,3.0909,0.1,0.00034978,3495.4,0.0003508,3526.2,-0.0001102,62.358,-0.0001185,-0.0012758,0.64957
6629,9.4351,2.9091,0.1,0.00034978,3495.4,0.0003508,3526.2,-0.0001102,62.358,-0.0001185,-0.0012758,0.64957
6630,9.4351,2.7273,0.1,0.00034985,3496,0.00035085,3526.4,-0.00011029,61.589,-0.00011849,-0.0014466,0.64949
6631,9.4351,2.5455,0.1,0.00034997,3497.3,0.00035095,3526.9,-0.00011046,60.068,-0.00011845,-0.0017782,0.64935
6632,9.4351,2.3636,0.1,0.00035016,3499.1,0.0003511,3527.7,-0.00011071,57.826,-0.0001184,-0.0022545,0.64913
6633,9.4351,2.1818,0.1,0.0003504,3501.6,0.0003513,3528.7,-0.00011103,54.909,-0.00011834,-0.002853,0.64884
6634,9.4351,2,0.1,0.00035069,3504.5,0.00035154,3529.9,-0.00011143,51.373,-0.00011826,-0.0035456,0.64847
6635,9.4351,1.8182,0.1,0.00035103,3507.9,0.00035181,3531.3,-0.00011188,47.286,-0.00011818,-0.0042977,0.64803
6636,9.4351,1.6364,0.1,0.00035142,3511.8,0.00035212,3532.9,-0.00011239,42.72,-0.00011808,-0.0050807,0.64752
6637,9.4351,1.4545,0.1,0.00035184,3516,0.00035247,3534.7,-0.00011295,37.751,-0.00011797,-0.0058713,0.64693
6638,9.4351,1.2727,0.1,0.00035229,3520.5,0.00035283,3536.6,-0.00011354,32.457,-0.00011786,-0.0066348,0.64627
6639,9.4351,1.0909,0.1,0.00035277,3525.3,0.00035322,3538.7,-0.00011416,26.91,-0.00011775,-0.0074249,0.64554
6640,9.4351,0.90909,0.1,0.00035328,3530.3,0.00035363,3540.9,-0.00011481,21.177,-0.00011763,-0.0080662,0.64472
6641,9.4351,0.72727,0.1,0.0003538,3535.6,0.00035406,3543.2,-0.00011547,15.318,-0.00011751,-0.0095852,0.64384
6642,9.4351,0.54545,0.1,0.00035434,3541,0.0003545,3545.6,-0.00011615,9.3801,-0.0001174,-0.0088108,0.64287
6643,9.4351,0.36364,0.1,0.0003549,3546.6,0.00035496,3548.2,-0.00011684,3.3426,-0.00011729,-0.029609,0.64183
6644,9.4351,0.18182,0.1,0.00035561,3553.7,0.00035555,3551.8,-0.00011716,0.049951,-0.00011766,-3.6922,0.64072
6645,9.2507,5.8182,0.1,0.00036087,3606.2,0.00036082,3604.8,-0.00011893,0.068025,-0.00011934,-3.0073,0.61872
6646,9.2507,5.6364,0.1,0.00036014,3598.9,0.00036022,3601.1,-0.00011848,4.3982,-0.00011907,-0.031997,0.61985
6647,9.2507,5.4545,0.1,0.00035955,3593.1,0.00035974,3598.5,-0.00011774,10.854,-0.00011919,-0.010082,0.6209
6648,9.2507,5.2727,0.1,0.00035899,3587.4,0.00035928,3596,-0.00011702,17.241,-0.00011932,-0.010763,0.62187
6649,9.2507,5.0909,0.1,0.00035843,3581.9,0.00035883,3593.6,-0.00011631,23.576,-0.00011945,-0.0090167,0.62277
6650,9.2507,4.9091,0.1,0.0003579,3576.5,0.0003584,3591.3,-0.00011561,29.808,-0.00011958,-0.0082401,0.62359
6651,9.2507,4.7273,0.1,0.00035739,3571.4,0.00035798,3589.2,-0.00011494,35.868,-0.00011971,-0.0073041,0.62434
6652,9.2507,4.5455,0.1,0.0003569,3566.6,0.00035759,3587.2,-0.00011429,41.678,-0.00011984,-0.0063935,0.62501
6653,9.2507,4.3636,0.1,0.00035645,3562.1,0.00035723,3585.4,-0.00011368,47.154,-0.00011996,-0.0054494,0.6256
6654,9.2507,4.1818,0.1,0.00035604,3557.9,0.0003569,3583.7,-0.00011312,52.205,-0.00012007,-0.0045115,0.62612
6655,9.2507,4,0.1,0.00035567,3554.3,0.0003566,3582.3,-0.00011262,56.74,-0.00012017,-0.0036076,0.62656
6656,9.2507,3.8182,0.1,0.00035535,3551.1,0.00035635,3581,-0.00011218,60.675,-0.00012026,-0.0027747,0.62693
6657,9.2507,3.6364,0.1,0.00035509,3548.5,0.00035614,3580,-0.00011182,63.928,-0.00012033,-0.0020538,0.62722
6658,9.2507,3.4545,0.1,0.00035489,3546.5,0.00035597,3579.2,-0.00011155,66.432,-0.00012039,-0.0014799,0.62745
6659,9.2507,3.2727,0.1,0.00035476,3545.1,0.00035587,3578.7,-0.00011136,68.133,-0.00012043,-0.001079,0.62759
6660,9.2507,3.0909,0.1,0.00035469,3544.4,0.00035581,3578.4,-0.00011126,68.993,-0.00012045,-0.00087279,0.62767
6661,9.2507,2.9091,0.1,0.00035469,3544.4,0.00035581,3578.4,-0.00011126,68.993,-0.00012045,-0.00087285,0.62767
6662,9.2507,2.7273,0.1,0.00035476,3545.1,0.00035587,3578.7,-0.00011136,68.133,-0.00012043,-0.0010787,0.62759
6663,9.2507,2.5455,0.1,0.00035489,3546.5,0.00035597,3579.2,-0.00011155,66.432,-0.00012039,-0.0014795,0.62745
6664,9.2507,2.3636,0.1,0.00035509,3548.5,0.00035614,3580,-0.00011182,63.928,-0.00012033,-0.0020542,0.62722
6665,9.2507,2.1818,0.1,0.00035535,3551.1,0.00035635,3581,-0.00011218,60.675,-0.00012026,-0.0027757,0.62693
6666,9.2507,2,0.1,0.00035567,3554.3,0.0003566,3582.3,-0.00011262,56.74,-0.00012017,-0.0036076,0.62656
6667,9.2507,1.8182,0.1,0.00035604,3557.9,0.0003569,3583.7,-0.00011312,52.205,-0.00012007,-0.0045115,0.62612
6668,9.2507,1.6364,0.1,0.00035645,3562.1,0.00035723,3585.4,-0.00011368,47.154,-0.00011996,-0.0054499,0.6256
6669,9.2507,1.4545,0.1,0.0003569,3566.6,0.00035759,3587.2,-0.00011429,41.678,-0.00011984,-0.0063942,0.62501
6670,9.2507,1.2727,0.1,0.00035739,3571.4,0.00035798,3589.2,-0.00011494,35.868,-0.00011971,-0.0073042,0.62434
6671,9.2507,1.0909,0.1,0.0003579,3576.5,0.0003584,3591.3,-0.00011561,29.808,-0.00011958,-0.0082413,0.62359
6672,9.2507,0.90909,0.1,0.00035843,3581.9,0.00035883,3593.6,-0.00011631,23.576,-0.00011945,-0.0090185,0.62277
6673,9.2507,0.72727,0.1,0.00035899,3587.4,0.00035928,3596,-0.00011702,17.241,-0.00011932,-0.010764,0.62187
6674,9.2507,0.54545,0.1,0.00035955,3593.1,0.00035974,3598.5,-0.00011774,10.854,-0.00011919,-0.010082,0.6209
6675,9.2507,0.36364,0.1,0.00036014,3598.9,0.00036022,3601.1,-0.00011848,4.3982,-0.00011907,-0.031998,0.61985
6676,9.2507,0.18182,0.1,0.00036087,3606.2,0.00036082,3604.8,-0.00011893,0.068025,-0.00011934,-3.0073,0.61872
6677,9.0664,5.8182,0.1,0.00036614,3658.9,0.00036611,3657.8,-0.0001207,0.097224,-0.00012103,-2.3308,0.59697
6678,9.0664,5.6364,0.1,0.00036539,3651.4,0.00036548,3654.1,-0.00012012,5.4628,-0.00012085,-0.034702,0.59811
6679,9.0664,5.4545,0.1,0.00036478,3645.3,0.00036499,3651.4,-0.00011934,12.351,-0.00012099,-0.011535,0.59917
6680,9.0664,5.2727,0.1,0.00036418,3639.3,0.0003645,3648.9,-0.00011857,19.213,-0.00012113,-0.012137,0.60016
6681,9.0664,5.0909,0.1,0.0003636,3633.5,0.00036404,3646.4,-0.00011781,26.062,-0.00012128,-0.010167,0.60106
6682,9.0664,4.9091,0.1,0.00036304,3627.9,0.00036358,3644.2,-0.00011705,32.838,-0.00012143,-0.0092492,0.60189
6683,9.0664,4.7273,0.1,0.00036249,3622.4,0.00036315,3642,-0.00011632,39.463,-0.00012157,-0.0081539,0.60265
6684,9.0664,4.5455,0.1,0.00036198,3617.3,0.00036273,3640,-0.00011561,45.849,-0.00012172,-0.0070779,0.60332
6685,9.0664,4.3636,0.1,0.00036149,3612.4,0.00036235,3638.1,-0.00011495,51.893,-0.00012185,-0.0059577,0.60392
6686,9.0664,4.1818,0.1,0.00036105,3608,0.00036199,3636.4,-0.00011433,57.492,-0.00012198,-0.0048388,0.60444
6687,9.0664,4,0.1,0.00036065,3604,0.00036168,3634.9,-0.00011378,62.536,-0.0001221,-0.0037564,0.60489
6688,9.0664,3.8182,0.1,0.00036031,3600.6,0.0003614,3633.6,-0.0001133,66.925,-0.0001222,-0.0027575,0.60526
6689,9.0664,3.6364,0.1,0.00036003,3597.8,0.00036118,3632.6,-0.0001129,70.562,-0.00012229,-0.00189,0.60556
6690,9.0664,3.4545,0.1,0.00035981,3595.6,0.000361,3631.7,-0.00011259,73.367,-0.00012235,-0.0011984,0.60578
6691,9.0664,3.2727,0.1,0.00035966,3594.2,0.00036089,3631.2,-0.00011238,75.275,-0.0001224,-0.00071509,0.60593
6692,9.0664,3.0909,0.1,0.00035959,3593.4,0.00036083,3630.9,-0.00011227,76.24,-0.00012242,-0.00046675,0.60601
6693,9.0664,2.9091,0.1,0.00035959,3593.4,0.00036083,3630.9,-0.00011227,76.24,-0.00012242,-0.00046663,0.60601
6694,9.0664,2.7273,0.1,0.00035966,3594.2,0.00036089,3631.2,-0.00011238,75.275,-0.0001224,-0.00071515,0.60593
6695,9.0664,2.5455,0.1,0.00035981,3595.6,0.000361,3631.7,-0.00011259,73.367,-0.00012235,-0.0011984,0.60578
6696,9.0664,2.3636,0.1,0.00036003,3597.8,0.00036118,3632.6,-0.0001129,70.562,-0.00012229,-0.0018904,0.60556
6697,9.0664,2.1818,0.1,0.00036031,3600.6,0.0003614,3633.6,-0.0001133,66.925,-0.0001222,-0.0027577,0.60526
6698,9.0664,2,0.1,0.00036065,3604,0.00036168,3634.9,-0.00011378,62.536,-0.0001221,-0.0037572,0.60489
6699,9.0664,1.8182,0.1,0.00036105,3608,0.00036199,3636.4,-0.00011433,57.492,-0.00012198,-0.0048391,0.60444
6700,9.0664,1.6364,0.1,0.00036149,3612.4,0.00036235,3638.1,-0.00011495,51.893,-0.00012185,-0.0059583,0.60392
6701,9.0664,1.4545,0.1,0.00036198,3617.3,0.00036273,3640,-0.00011561,45.849,-0.00012172,-0.0070784,0.60332
6702,9.0664,1.2727,0.1,0.00036249,3622.4,0.00036315,3642,-0.00011632,39.463,-0.00012157,-0.0081548,0.60265
6703,9.0664,1.0909,0.1,0.00036304,3627.9,0.00036358,3644.2,-0.00011705,32.838,-0.00012143,-0.0092496,0.60189
6704,9.0664,0.90909,0.1,0.0003636,3633.5,0.00036404,3646.5,-0.00011781,26.062,-0.00012128,-0.010169,0.60106
6705,9.0664,0.72727,0.1,0.00036418,3639.3,0.0003645,3648.9,-0.00011857,19.214,-0.00012113,-0.012139,0.60016
6706,9.0664,0.54545,0.1,0.00036478,3645.3,0.00036499,3651.4,-0.00011934,12.352,-0.00012099,-0.011535,0.59917
6707,9.0664,0.36364,0.1,0.00036539,3651.4,0.00036548,3654.1,-0.00012012,5.4628,-0.00012085,-0.034703,0.59811
6708,9.0664,0.18182,0.1,0.00036614,3658.9,0.00036611,3657.8,-0.0001207,0.097223,-0.00012103,-2.3308,0.59697
6709,8.882,5.8182,0.1,0.00037142,3711.7,0.0003714,3710.9,-0.00012247,0.1489,-0.00012272,-1.6821,0.57546
6710,8.882,5.6364,0.1,0.00037065,3704,0.00037076,3707.2,-0.00012177,6.5225,-0.00012264,-0.037627,0.57662
6711,8.882,5.4545,0.1,0.00037001,3697.6,0.00037024,3704.5,-0.00012094,13.857,-0.00012279,-0.013186,0.57769
6712,8.882,5.2727,0.1,0.00036939,3691.3,0.00036974,3701.9,-0.00012012,21.219,-0.00012295,-0.013726,0.57869
6713,8.882,5.0909,0.1,0.00036878,3685.2,0.00036926,3699.5,-0.0001193,28.619,-0.00012311,-0.011543,0.5796
6714,8.882,4.9091,0.1,0.00036818,3679.3,0.00036878,3697.1,-0.00011849,35.988,-0.00012328,-0.010478,0.58044
6715,8.882,4.7273,0.1,0.00036761,3673.5,0.00036832,3695,-0.00011769,43.239,-0.00012345,-0.0092132,0.5812
6716,8.882,4.5455,0.1,0.00036706,3668.1,0.00036789,3692.9,-0.00011692,50.266,-0.00012361,-0.0079504,0.58188
6717,8.882,4.3636,0.1,0.00036654,3662.9,0.00036748,3691,-0.00011619,56.951,-0.00012377,-0.006627,0.58249
6718,8.882,4.1818,0.1,0.00036607,3658.1,0.0003671,3689.3,-0.00011551,63.169,-0.00012392,-0.0052965,0.58301
6719,8.882,4,0.1,0.00036564,3653.9,0.00036676,3687.8,-0.0001149,68.793,-0.00012405,-0.0040035,0.58347
6720,8.882,3.8182,0.1,0.00036527,3650.2,0.00036647,3686.5,-0.00011436,73.7,-0.00012417,-0.0028068,0.58384
6721,8.882,3.6364,0.1,0.00036497,3647.1,0.00036623,3685.4,-0.00011392,77.778,-0.00012427,-0.0017648,0.58414
6722,8.882,3.4545,0.1,0.00036473,3644.8,0.00036604,3684.6,-0.00011358,80.928,-0.00012435,-0.00093244,0.58437
6723,8.882,3.2727,0.1,0.00036457,3643.2,0.00036591,3684,-0.00011334,83.073,-0.0001244,-0.00035058,0.58452
6724,8.882,3.0909,0.1,0.00036449,3642.4,0.00036585,3683.7,-0.00011323,84.159,-0.00012443,-5.1563e-05,0.58459
6725,8.882,2.9091,0.1,0.00036449,3642.4,0.00036585,3683.7,-0.00011323,84.159,-0.00012443,-5.1503e-05,0.58459
6726,8.882,2.7273,0.1,0.00036457,3643.2,0.00036591,3684,-0.00011334,83.073,-0.0001244,-0.00035081,0.58452
6727,8.882,2.5455,0.1,0.00036473,3644.8,0.00036604,3684.6,-0.00011358,80.928,-0.00012435,-0.00093274,0.58437
6728,8.882,2.3636,0.1,0.00036497,3647.1,0.00036623,3685.4,-0.00011392,77.778,-0.00012427,-0.0017653,0.58414
6729,8.882,2.1818,0.1,0.00036527,3650.2,0.00036647,3686.5,-0.00011436,73.7,-0.00012417,-0.0028071,0.58384
6730,8.882,2,0.1,0.00036564,3653.9,0.00036676,3687.8,-0.0001149,68.793,-0.00012405,-0.0040042,0.58347
6731,8.882,1.8182,0.1,0.00036607,3658.1,0.0003671,3689.3,-0.00011551,63.169,-0.00012392,-0.0052972,0.58301
6732,8.882,1.6364,0.1,0.00036654,3662.9,0.00036748,3691,-0.00011619,56.951,-0.00012377,-0.006628,0.58249
6733,8.882,1.4545,0.1,0.00036706,3668.1,0.00036789,3692.9,-0.00011692,50.266,-0.00012361,-0.0079512,0.58188
6734,8.882,1.2727,0.1,0.00036761,3673.5,0.00036832,3695,-0.00011769,43.239,-0.00012345,-0.0092137,0.5812
6735,8.882,1.0909,0.1,0.00036818,3679.3,0.00036878,3697.1,-0.00011849,35.988,-0.00012328,-0.010479,0.58044
6736,8.882,0.90909,0.1,0.00036878,3685.2,0.00036926,3699.5,-0.0001193,28.619,-0.00012311,-0.011544,0.5796
6737,8.882,0.72727,0.1,0.00036939,3691.3,0.00036974,3701.9,-0.00012012,21.219,-0.00012295,-0.013727,0.57869
6738,8.882,0.54545,0.1,0.00037001,3697.6,0.00037024,3704.5,-0.00012094,13.857,-0.00012279,-0.013187,0.57769
6739,8.882,0.36364,0.1,0.00037065,3704,0.00037076,3707.2,-0.00012177,6.5225,-0.00012264,-0.037627,0.57662
6740,8.882,0.18182,0.1,0.00037142,3711.7,0.0003714,3710.9,-0.00012247,0.1489,-0.00012272,-1.6821,0.57546
6741,8.6976,5.8182,0.1,0.0003767,3764.4,0.00037669,3764,-0.00012424,0.25086,-0.00012442,-1.0997,0.55421
6742,8.6976,5.6364,0.1,0.00037591,3756.5,0.00037604,3760.3,-0.00012342,7.5595,-0.00012443,-0.04072,0.55537
6743,8.6976,5.4545,0.1,0.00037525,3749.9,0.00037551,3757.6,-0.00012255,15.348,-0.00012459,-0.015068,0.55646
6744,8.6976,5.2727,0.1,0.0003746,3743.4,0.00037499,3755,-0.00012167,23.235,-0.00012477,-0.015565,0.55747
6745,8.6976,5.0909,0.1,0.00037396,3737.1,0.00037448,3752.6,-0.0001208,31.225,-0.00012495,-0.013186,0.55839
6746,8.6976,4.9091,0.1,0.00037334,3730.8,0.00037399,3750.3,-0.00011992,39.243,-0.00012514,-0.011976,0.55924
6747,8.6976,4.7273,0.1,0.00037273,3724.7,0.00037351,3748.1,-0.00011905,47.185,-0.00012533,-0.010526,0.56
6748,8.6976,4.5455,0.1,0.00037215,3718.9,0.00037305,3746.1,-0.00011821,54.93,-0.00012552,-0.0090553,0.56069
6749,8.6976,4.3636,0.1,0.0003716,3713.4,0.00037262,3744.2,-0.00011741,62.337,-0.0001257,-0.0074972,0.5613
6750,8.6976,4.1818,0.1,0.00037109,3708.4,0.00037222,3742.5,-0.00011666,69.259,-0.00012588,-0.0059185,0.56184
6751,8.6976,4,0.1,0.00037063,3703.8,0.00037186,3741,-0.00011598,75.544,-0.00012603,-0.0043764,0.56229
6752,8.6976,3.8182,0.1,0.00037024,3699.8,0.00037155,3739.7,-0.00011538,81.045,-0.00012617,-0.002943,0.56267
6753,8.6976,3.6364,0.1,0.00036991,3696.5,0.00037129,3738.6,-0.00011489,85.628,-0.00012629,-0.0016926,0.56297
6754,8.6976,3.4545,0.1,0.00036965,3694,0.00037109,3737.8,-0.00011451,89.176,-0.00012638,-0.00069084,0.5632
6755,8.6976,3.2727,0.1,0.00036948,3692.2,0.00037095,3737.2,-0.00011425,91.595,-0.00012644,9.0766e-06,0.56335
6756,8.6976,3.0909,0.1,0.00036939,3691.4,0.00037088,3736.9,-0.00011411,92.821,-0.00012647,0.00036993,0.56343
6757,8.6976,2.9091,0.1,0.00036939,3691.4,0.00037088,3736.9,-0.00011411,92.821,-0.00012647,0.00037041,0.56343
6758,8.6976,2.7273,0.1,0.00036948,3692.2,0.00037095,3737.2,-0.00011425,91.595,-0.00012644,9.4353e-06,0.56335
6759,8.6976,2.5455,0.1,0.00036965,3694,0.00037109,3737.8,-0.00011451,89.176,-0.00012638,-0.00069149,0.5632
6760,8.6976,2.3636,0.1,0.00036991,3696.5,0.00037129,3738.6,-0.00011489,85.628,-0.00012629,-0.0016931,0.56297
6761,8.6976,2.1818,0.1,0.00037024,3699.8,0.00037155,3739.7,-0.00011538,81.045,-0.00012617,-0.0029436,0.56267
6762,8.6976,2,0.1,0.00037063,3703.8,0.00037186,3741,-0.00011598,75.544,-0.00012603,-0.0043766,0.56229
6763,8.6976,1.8182,0.1,0.00037109,3708.4,0.00037222,3742.5,-0.00011666,69.259,-0.00012588,-0.0059187,0.56184
6764,8.6976,1.6364,0.1,0.0003716,3713.4,0.00037262,3744.2,-0.00011741,62.337,-0.0001257,-0.0074979,0.5613
6765,8.6976,1.4545,0.1,0.00037215,3718.9,0.00037305,3746.1,-0.00011821,54.93,-0.00012552,-0.0090558,0.56069
6766,8.6976,1.2727,0.1,0.00037273,3724.7,0.00037351,3748.1,-0.00011905,47.185,-0.00012533,-0.010527,0.56
6767,8.6976,1.0909,0.1,0.00037334,3730.8,0.00037399,3750.3,-0.00011992,39.243,-0.00012514,-0.011977,0.55924
6768,8.6976,0.90909,0.1,0.00037396,3737.1,0.00037448,3752.6,-0.0001208,31.225,-0.00012495,-0.013187,0.55839
6769,8.6976,0.72727,0.1,0.0003746,3743.4,0.00037499,3755,-0.00012167,23.235,-0.00012477,-0.015567,0.55747
6770,8.6976,0.54545,0.1,0.00037525,3749.9,0.00037551,3757.6,-0.00012255,15.348,-0.00012459,-0.015069,0.55646
6771,8.6976,0.36364,0.1,0.00037591,3756.5,0.00037604,3760.3,-0.00012342,7.5595,-0.00012443,-0.040721,0.55537
6772,8.6976,0.18182,0.1,0.0003767,3764.4,0.00037669,3764,-0.00012424,0.25086,-0.00012442,-1.0997,0.55421
6773,8.5133,5.8182,0.1,0.00038197,3817.1,0.00038197,3817,-0.00012598,0.46134,-0.00012613,-0.65548,0.53321
6774,8.5133,5.6364,0.1,0.00038117,3809.1,0.00038132,3813.4,-0.00012507,8.551,-0.00012621,-0.043967,0.53439
6775,8.5133,5.4545,0.1,0.00038049,3802.3,0.00038077,3810.6,-0.00012416,16.796,-0.00012639,-0.017244,0.53549
6776,8.5133,5.2727,0.1,0.00037982,3795.6,0.00038024,3808.1,-0.00012323,25.23,-0.00012659,-0.017724,0.5365
6777,8.5133,5.0909,0.1,0.00037916,3789,0.00037972,3805.8,-0.00012229,33.853,-0.0001268,-0.015177,0.53744
6778,8.5133,4.9091,0.1,0.0003785,3782.4,0.00037921,3803.5,-0.00012134,42.578,-0.00012701,-0.013823,0.53829
6779,8.5133,4.7273,0.1,0.00037787,3776.1,0.00037871,3801.4,-0.0001204,51.287,-0.00012723,-0.012178,0.53906
6780,8.5133,4.5455,0.1,0.00037725,3769.9,0.00037823,3799.5,-0.00011948,59.836,-0.00012745,-0.010469,0.53976
6781,8.5133,4.3636,0.1,0.00037667,3764.1,0.00037778,3797.6,-0.0001186,68.06,-0.00012766,-0.0086401,0.54037
6782,8.5133,4.1818,0.1,0.00037613,3758.7,0.00037736,3796,-0.00011777,75.782,-0.00012786,-0.0067677,0.54091
6783,8.5133,4,0.1,0.00037564,3753.8,0.00037698,3794.5,-0.00011702,82.823,-0.00012804,-0.0049291,0.54137
6784,8.5133,3.8182,0.1,0.00037521,3749.5,0.00037664,3793.2,-0.00011636,89.006,-0.0001282,-0.0032131,0.54175
6785,8.5133,3.6364,0.1,0.00037485,3745.9,0.00037637,3792.1,-0.0001158,94.171,-0.00012834,-0.0017115,0.54206
6786,8.5133,3.4545,0.1,0.00037458,3743.2,0.00037615,3791.3,-0.00011538,98.178,-0.00012844,-0.00050724,0.54228
6787,8.5133,3.2727,0.1,0.00037439,3741.3,0.00037601,3790.8,-0.00011508,100.91,-0.00012851,0.0003369,0.54244
6788,8.5133,3.0909,0.1,0.0003743,3740.4,0.00037593,3790.5,-0.00011494,102.3,-0.00012855,0.00077107,0.54251
6789,8.5133,2.9091,0.1,0.0003743,3740.4,0.00037593,3790.5,-0.00011494,102.3,-0.00012855,0.00077084,0.54251
6790,8.5133,2.7273,0.1,0.00037439,3741.3,0.00037601,3790.8,-0.00011508,100.91,-0.00012851,0.00033631,0.54244
6791,8.5133,2.5455,0.1,0.00037458,3743.2,0.00037615,3791.3,-0.00011538,98.178,-0.00012844,-0.00050712,0.54228
6792,8.5133,2.3636,0.1,0.00037485,3745.9,0.00037637,3792.1,-0.0001158,94.171,-0.00012834,-0.0017119,0.54206
6793,8.5133,2.1818,0.1,0.00037521,3749.5,0.00037664,3793.2,-0.00011636,89.006,-0.0001282,-0.0032136,0.54175
6794,8.5133,2,0.1,0.00037564,3753.8,0.00037698,3794.5,-0.00011702,82.823,-0.00012804,-0.0049294,0.54137
6795,8.5133,1.8182,0.1,0.00037613,3758.7,0.00037736,3796,-0.00011777,75.782,-0.00012786,-0.0067683,0.54091
6796,8.5133,1.6364,0.1,0.00037667,3764.1,0.00037778,3797.6,-0.0001186,68.06,-0.00012766,-0.0086402,0.54037
6797,8.5133,1.4545,0.1,0.00037725,3769.9,0.00037823,3799.5,-0.00011948,59.836,-0.00012745,-0.01047,0.53976
6798,8.5133,1.2727,0.1,0.00037787,3776.1,0.00037871,3801.4,-0.0001204,51.287,-0.00012723,-0.012178,0.53906
6799,8.5133,1.0909,0.1,0.0003785,3782.4,0.00037921,3803.5,-0.00012134,42.578,-0.00012701,-0.013824,0.53829
6800,8.5133,0.90909,0.1,0.00037916,3789,0.00037972,3805.8,-0.00012229,33.853,-0.0001268,-0.015179,0.53744
6801,8.5133,0.72727,0.1,0.00037982,3795.6,0.00038024,3808.1,-0.00012323,25.23,-0.00012659,-0.017725,0.5365
6802,8.5133,0.54545,0.1,0.00038049,3802.3,0.00038077,3810.6,-0.00012416,16.796,-0.00012639,-0.017245,0.53549
6803,8.5133,0.36364,0.1,0.00038117,3809.1,0.00038132,3813.4,-0.00012507,8.551,-0.00012621,-0.043967,0.53439
6804,8.5133,0.18182,0.1,0.00038197,3817.1,0.00038197,3817,-0.00012598,0.46134,-0.00012613,-0.65549,0.53321
6805,8.3289,5.8182,0.1,0.00038723,3869.7,0.00038724,3869.9,-0.0001277,0.81718,-0.00012786,-0.40297,0.51247
6806,8.3289,5.6364,0.1,0.00038643,3861.6,0.00038658,3866.3,-0.00012673,9.4685,-0.00012799,-0.047353,0.51366
6807,8.3289,5.4545,0.1,0.00038573,3854.6,0.00038603,3863.6,-0.00012577,18.165,-0.00012819,-0.01979,0.51477
6808,8.3289,5.2727,0.1,0.00038504,3847.7,0.00038549,3861.2,-0.00012479,27.165,-0.00012841,-0.020287,0.51579
6809,8.3289,5.0909,0.1,0.00038435,3840.9,0.00038496,3859,-0.00012378,36.464,-0.00012864,-0.017612,0.51674
6810,8.3289,4.9091,0.1,0.00038368,3834.1,0.00038444,3856.9,-0.00012276,45.962,-0.00012888,-0.016119,0.5176
6811,8.3289,4.7273,0.1,0.00038301,3827.4,0.00038392,3854.9,-0.00012174,55.523,-0.00012913,-0.014264,0.51838
6812,8.3289,4.5455,0.1,0.00038236,3821,0.00038343,3853.1,-0.00012074,64.975,-0.00012939,-0.012287,0.51908
6813,8.3289,4.3636,0.1,0.00038175,3814.8,0.00038295,3851.3,-0.00011976,74.124,-0.00012963,-0.010139,0.5197
6814,8.3289,4.1818,0.1,0.00038117,3809.1,0.00038251,3849.8,-0.00011885,82.759,-0.00012986,-0.0079199,0.52024
6815,8.3289,4,0.1,0.00038065,3803.9,0.00038211,3848.4,-0.00011801,90.666,-0.00013008,-0.0057262,0.5207
6816,8.3289,3.8182,0.1,0.00038019,3799.3,0.00038176,3847.2,-0.00011727,97.634,-0.00013027,-0.0036703,0.52109
6817,8.3289,3.6364,0.1,0.00037981,3795.5,0.00038146,3846.2,-0.00011666,103.47,-0.00013043,-0.0018668,0.52139
6818,8.3289,3.4545,0.1,0.00037952,3792.5,0.00038124,3845.4,-0.00011618,108.01,-0.00013055,-0.00041612,0.52162
6819,8.3289,3.2727,0.1,0.00037931,3790.5,0.00038108,3844.9,-0.00011585,111.11,-0.00013064,0.00060053,0.52178
6820,8.3289,3.0909,0.1,0.00037921,3789.5,0.000381,3844.6,-0.00011568,112.69,-0.00013068,0.0011243,0.52185
6821,8.3289,2.9091,0.1,0.00037921,3789.5,0.000381,3844.6,-0.00011568,112.69,-0.00013068,0.0011242,0.52185
6822,8.3289,2.7273,0.1,0.00037931,3790.5,0.00038108,3844.9,-0.00011585,111.11,-0.00013064,0.00060047,0.52178
6823,8.3289,2.5455,0.1,0.00037952,3792.5,0.00038124,3845.4,-0.00011618,108.01,-0.00013055,-0.00041636,0.52162
6824,8.3289,2.3636,0.1,0.00037981,3795.5,0.00038146,3846.2,-0.00011666,103.47,-0.00013043,-0.0018673,0.52139
6825,8.3289,2.1818,0.1,0.00038019,3799.3,0.00038176,3847.2,-0.00011727,97.634,-0.00013027,-0.0036711,0.52109
6826,8.3289,2,0.1,0.00038065,3803.9,0.00038211,3848.4,-0.00011801,90.666,-0.00013008,-0.0057261,0.5207
6827,8.3289,1.8182,0.1,0.00038117,3809.1,0.00038251,3849.8,-0.00011885,82.759,-0.00012986,-0.0079205,0.52024
6828,8.3289,1.6364,0.1,0.00038175,3814.8,0.00038295,3851.3,-0.00011976,74.124,-0.00012963,-0.01014,0.5197
6829,8.3289,1.4545,0.1,0.00038236,3821,0.00038343,3853.1,-0.00012074,64.975,-0.00012939,-0.012288,0.51908
6830,8.3289,1.2727,0.1,0.00038301,3827.4,0.00038392,3854.9,-0.00012174,55.523,-0.00012913,-0.014265,0.51838
6831,8.3289,1.0909,0.1,0.00038368,3834.1,0.00038444,3856.9,-0.00012276,45.962,-0.00012888,-0.01612,0.5176
6832,8.3289,0.90909,0.1,0.00038435,3840.9,0.00038496,3859,-0.00012378,36.464,-0.00012864,-0.017613,0.51674
6833,8.3289,0.72727,0.1,0.00038504,3847.7,0.00038549,3861.2,-0.00012479,27.166,-0.00012841,-0.020288,0.51579
6834,8.3289,0.54545,0.1,0.00038573,3854.6,0.00038603,3863.6,-0.00012577,18.165,-0.00012819,-0.01979,0.51477
6835,8.3289,0.36364,0.1,0.00038643,3861.6,0.00038658,3866.3,-0.00012673,9.4685,-0.00012799,-0.047354,0.51366
6836,8.3289,0.18182,0.1,0.00038723,3869.7,0.00038724,3869.9,-0.0001277,0.81718,-0.00012786,-0.40297,0.51247
6837,8.1445,5.8182,0.1,0.00039246,3921.9,0.00039248,3922.4,-0.0001294,1.2418,-0.0001296,-0.28627,0.49199
6838,8.1445,5.6364,0.1,0.00039166,3913.9,0.00039183,3919,-0.00012839,10.276,-0.00012976,-0.050857,0.4932
6839,8.1445,5.4545,0.1,0.00039095,3906.8,0.00039128,3916.5,-0.00012739,19.41,-0.00012998,-0.022787,0.49432
6840,8.1445,5.2727,0.1,0.00039025,3899.8,0.00039074,3914.2,-0.00012636,28.992,-0.00013022,-0.023345,0.49535
6841,8.1445,5.0909,0.1,0.00038955,3892.8,0.0003902,3912.2,-0.00012529,39.012,-0.00013048,-0.020597,0.4963
6842,8.1445,4.9091,0.1,0.00038885,3885.8,0.00038967,3910.3,-0.00012419,49.355,-0.00013076,-0.018976,0.49717
6843,8.1445,4.7273,0.1,0.00038816,3878.9,0.00038914,3908.5,-0.00012308,59.862,-0.00013105,-0.016894,0.49796
6844,8.1445,4.5455,0.1,0.00038749,3872.2,0.00038863,3906.9,-0.00012198,70.33,-0.00013134,-0.014608,0.49866
6845,8.1445,4.3636,0.1,0.00038684,3865.7,0.00038815,3905.4,-0.00012091,80.528,-0.00013163,-0.012085,0.49929
6846,8.1445,4.1818,0.1,0.00038623,3859.7,0.00038769,3904,-0.00011989,90.207,-0.0001319,-0.0094506,0.49983
6847,8.1445,4,0.1,0.00038568,3854.1,0.00038727,3902.7,-0.00011896,99.108,-0.00013215,-0.0068297,0.5003
6848,8.1445,3.8182,0.1,0.00038519,3849.3,0.0003869,3901.6,-0.00011814,106.98,-0.00013238,-0.004363,0.50068
6849,8.1445,3.6364,0.1,0.00038478,3845.2,0.00038659,3900.7,-0.00011745,113.59,-0.00013256,-0.0021931,0.50099
6850,8.1445,3.4545,0.1,0.00038447,3842,0.00038635,3900,-0.00011691,118.75,-0.00013271,-0.00044508,0.50122
6851,8.1445,3.2727,0.1,0.00038425,3839.9,0.00038619,3899.5,-0.00011654,122.27,-0.00013281,0.00078194,0.50138
6852,8.1445,3.0909,0.1,0.00038414,3838.8,0.0003861,3899.3,-0.00011635,124.07,-0.00013286,0.0014141,0.50146
6853,8.1445,2.9091,0.1,0.00038414,3838.8,0.0003861,3899.3,-0.00011635,124.07,-0.00013286,0.0014141,0.50146
6854,8.1445,2.7273,0.1,0.00038425,3839.9,0.00038619,3899.5,-0.00011654,122.27,-0.00013281,0.00078194,0.50138
6855,8.1445,2.5455,0.1,0.00038447,3842,0.00038635,3900,-0.00011691,118.75,-0.00013271,-0.00044508,0.50122
6856,8.1445,2.3636,0.1,0.00038478,3845.2,0.00038659,3900.7,-0.00011745,113.59,-0.00013256,-0.0021932,0.50099
6857,8.1445,2.1818,0.1,0.00038519,3849.3,0.0003869,3901.6,-0.00011814,106.98,-0.00013238,-0.0043638,0.50068
6858,8.1445,2,0.1,0.00038568,3854.1,0.00038727,3902.7,-0.00011896,99.108,-0.00013215,-0.00683,0.5003
6859,8.1445,1.8182,0.1,0.00038623,3859.7,0.00038769,3904,-0.00011989,90.207,-0.0001319,-0.009451,0.49983
6860,8.1445,1.6364,0.1,0.00038684,3865.7,0.00038815,3905.4,-0.00012091,80.528,-0.00013163,-0.012086,0.49929
6861,8.1445,1.4545,0.1,0.00038749,3872.2,0.00038863,3906.9,-0.00012198,70.33,-0.00013134,-0.014608,0.49866
6862,8.1445,1.2727,0.1,0.00038816,3878.9,0.00038914,3908.5,-0.00012308,59.862,-0.00013105,-0.016895,0.49796
6863,8.1445,1.0909,0.1,0.00038885,3885.8,0.00038967,3910.3,-0.00012419,49.355,-0.00013076,-0.018977,0.49717
6864,8.1445,0.90909,0.1,0.00038955,3892.8,0.0003902,3912.2,-0.00012529,39.012,-0.00013048,-0.020599,0.4963
6865,8.1445,0.72727,0.1,0.00039025,3899.8,0.00039074,3914.2,-0.00012636,28.992,-0.00013022,-0.023347,0.49535
6866,8.1445,0.54545,0.1,0.00039095,3906.8,0.00039128,3916.5,-0.00012739,19.41,-0.00012998,-0.022787,0.49432
6867,8.1445,0.36364,0.1,0.00039166,3913.9,0.00039183,3919,-0.00012839,10.276,-0.00012976,-0.050859,0.4932
6868,8.1445,0.18182,0.1,0.00039246,3921.9,0.00039248,3922.4,-0.0001294,1.2418,-0.0001296,-0.28627,0.49199
6869,7.9602,5.8182,0.1,0.00039765,3973.8,0.00039768,3974.5,-0.00013108,1.6362,-0.00013133,-0.23189,0.47178
6870,7.9602,5.6364,0.1,0.00039686,3965.8,0.00039704,3971.3,-0.00013005,10.931,-0.00013151,-0.054483,0.473
6871,7.9602,5.4545,0.1,0.00039615,3958.8,0.0003965,3969,-0.00012902,20.475,-0.00013175,-0.026363,0.47413
6872,7.9602,5.2727,0.1,0.00039545,3951.8,0.00039596,3967,-0.00012793,30.649,-0.00013202,-0.027041,0.47517
6873,7.9602,5.0909,0.1,0.00039474,3944.7,0.00039543,3965.3,-0.0001268,41.435,-0.00013231,-0.024291,0.47613
6874,7.9602,4.9091,0.1,0.00039403,3937.6,0.0003949,3963.7,-0.00012562,52.703,-0.00013263,-0.022553,0.47701
6875,7.9602,4.7273,0.1,0.00039332,3930.5,0.00039438,3962.2,-0.00012441,64.262,-0.00013297,-0.020224,0.4778
6876,7.9602,4.5455,0.1,0.00039262,3923.5,0.00039386,3960.9,-0.00012321,75.876,-0.00013331,-0.017577,0.47851
6877,7.9602,4.3636,0.1,0.00039195,3916.8,0.00039336,3959.7,-0.00012203,87.268,-0.00013364,-0.014606,0.47914
6878,7.9602,4.1818,0.1,0.00039131,3910.4,0.00039289,3958.6,-0.0001209,98.14,-0.00013397,-0.011471,0.47969
6879,7.9602,4,0.1,0.00039073,3904.6,0.00039246,3957.6,-0.00011986,108.18,-0.00013426,-0.0083318,0.48015
6880,7.9602,3.8182,0.1,0.00039022,3899.5,0.00039208,3956.7,-0.00011894,117.1,-0.00013453,-0.0053671,0.48054
6881,7.9602,3.6364,0.1,0.00038978,3895.1,0.00039175,3956,-0.00011817,124.61,-0.00013475,-0.0027513,0.48085
6882,7.9602,3.4545,0.1,0.00038945,3891.8,0.0003915,3955.4,-0.00011756,130.48,-0.00013493,-0.00064058,0.48109
6883,7.9602,3.2727,0.1,0.00038922,3889.5,0.00039133,3955,-0.00011715,134.5,-0.00013505,0.00084216,0.48124
6884,7.9602,3.0909,0.1,0.0003891,3888.3,0.00039124,3954.8,-0.00011693,136.55,-0.00013511,0.0016062,0.48132
6885,7.9602,2.9091,0.1,0.0003891,3888.3,0.00039124,3954.8,-0.00011693,136.55,-0.00013511,0.0016064,0.48132
6886,7.9602,2.7273,0.1,0.00038922,3889.5,0.00039133,3955,-0.00011715,134.5,-0.00013505,0.00084198,0.48124
6887,7.9602,2.5455,0.1,0.00038945,3891.8,0.0003915,3955.4,-0.00011756,130.48,-0.00013493,-0.00064052,0.48109
6888,7.9602,2.3636,0.1,0.00038978,3895.1,0.00039175,3956,-0.00011817,124.61,-0.00013475,-0.0027518,0.48085
6889,7.9602,2.1818,0.1,0.00039022,3899.5,0.00039208,3956.7,-0.00011894,117.1,-0.00013453,-0.0053672,0.48054
6890,7.9602,2,0.1,0.00039073,3904.6,0.00039246,3957.6,-0.00011986,108.18,-0.00013426,-0.0083321,0.48015
6891,7.9602,1.8182,0.1,0.00039131,3910.4,0.00039289,3958.6,-0.0001209,98.14,-0.00013397,-0.011472,0.47969
6892,7.9602,1.6364,0.1,0.00039195,3916.8,0.00039336,3959.7,-0.00012203,87.268,-0.00013364,-0.014607,0.47914
6893,7.9602,1.4545,0.1,0.00039262,3923.5,0.00039386,3960.9,-0.00012321,75.876,-0.00013331,-0.017577,0.47851
6894,7.9602,1.2727,0.1,0.00039332,3930.5,0.00039438,3962.2,-0.00012441,64.262,-0.00013297,-0.020224,0.4778
6895,7.9602,1.0909,0.1,0.00039403,3937.6,0.0003949,3963.7,-0.00012562,52.703,-0.00013263,-0.022554,0.47701
6896,7.9602,0.90909,0.1,0.00039474,3944.7,0.00039543,3965.3,-0.0001268,41.435,-0.00013231,-0.024293,0.47613
6897,7.9602,0.72727,0.1,0.00039545,3951.8,0.00039596,3967,-0.00012793,30.649,-0.00013202,-0.027042,0.47517
6898,7.9602,0.54545,0.1,0.00039615,3958.8,0.0003965,3969,-0.00012902,20.475,-0.00013175,-0.026363,0.47413
6899,7.9602,0.36364,0.1,0.00039686,3965.8,0.00039704,3971.3,-0.00013005,10.931,-0.00013151,-0.054484,0.473
6900,7.9602,0.18182,0.1,0.00039765,3973.8,0.00039768,3974.5,-0.00013108,1.6362,-0.00013133,-0.23189,0.47178
6901,7.7758,5.8182,0.1,0.00040278,4025,0.00040281,4025.9,-0.00013275,1.9362,-0.00013303,-0.20616,0.45184
6902,7.7758,5.6364,0.1,0.00040201,4017.3,0.0004022,4022.9,-0.00013171,11.38,-0.00013323,-0.058295,0.45307
6903,7.7758,5.4545,0.1,0.00040132,4010.4,0.00040168,4021,-0.00013065,21.293,-0.00013349,-0.030733,0.45421
6904,7.7758,5.2727,0.1,0.00040063,4003.5,0.00040116,4019.4,-0.00012952,32.062,-0.00013379,-0.031601,0.45526
6905,7.7758,5.0909,0.1,0.00039992,3996.5,0.00040065,4018.1,-0.00012832,43.662,-0.00013413,-0.028941,0.45623
6906,7.7758,4.9091,0.1,0.00039921,3989.3,0.00040013,4017,-0.00012705,55.939,-0.0001345,-0.027096,0.45711
6907,7.7758,4.7273,0.1,0.00039849,3982.2,0.00039961,4016,-0.00012575,68.672,-0.00013489,-0.024486,0.45791
6908,7.7758,4.5455,0.1,0.00039778,3975,0.0003991,4015.2,-0.00012443,81.578,-0.00013529,-0.021409,0.45862
6909,7.7758,4.3636,0.1,0.00039708,3968.1,0.0003986,4014.4,-0.00012313,94.329,-0.00013568,-0.017896,0.45926
6910,7.7758,4.1818,0.1,0.00039642,3961.5,0.00039813,4013.7,-0.00012188,106.57,-0.00013606,-0.014151,0.45981
6911,7.7758,4,0.1,0.00039581,3955.4,0.00039769,4013.1,-0.00012072,117.93,-0.00013642,-0.010378,0.46028
6912,7.7758,3.8182,0.1,0.00039528,3950,0.0003973,4012.5,-0.00011969,128.05,-0.00013673,-0.0068034,0.46067
6913,7.7758,3.6364,0.1,0.00039482,3945.5,0.00039697,4012,-0.00011882,136.61,-0.000137,-0.0036433,0.46098
6914,7.7758,3.4545,0.1,0.00039447,3941.9,0.00039671,4011.6,-0.00011814,143.3,-0.00013721,-0.0010895,0.46122
6915,7.7758,3.2727,0.1,0.00039422,3939.5,0.00039653,4011.4,-0.00011767,147.89,-0.00013735,0.00070467,0.46137
6916,7.7758,3.0909,0.1,0.0003941,3938.3,0.00039644,4011.2,-0.00011743,150.23,-0.00013742,0.0016306,0.46145
6917,7.7758,2.9091,0.1,0.0003941,3938.3,0.00039644,4011.2,-0.00011743,150.23,-0.00013742,0.0016303,0.46145
6918,7.7758,2.7273,0.1,0.00039422,3939.5,0.00039653,4011.4,-0.00011767,147.89,-0.00013735,0.00070473,0.46137
6919,7.7758,2.5455,0.1,0.00039447,3941.9,0.00039671,4011.6,-0.00011814,143.3,-0.00013721,-0.0010897,0.46122
6920,7.7758,2.3636,0.1,0.00039482,3945.5,0.00039697,4012,-0.00011882,136.61,-0.000137,-0.0036433,0.46098
6921,7.7758,2.1818,0.1,0.00039528,3950,0.0003973,4012.5,-0.00011969,128.05,-0.00013673,-0.0068039,0.46067
6922,7.7758,2,0.1,0.00039581,3955.4,0.00039769,4013.1,-0.00012072,117.93,-0.00013642,-0.010379,0.46028
6923,7.7758,1.8182,0.1,0.00039642,3961.5,0.00039813,4013.7,-0.00012188,106.57,-0.00013606,-0.014151,0.45981
6924,7.7758,1.6364,0.1,0.00039708,3968.1,0.0003986,4014.4,-0.00012313,94.329,-0.00013568,-0.017897,0.45926
6925,7.7758,1.4545,0.1,0.00039778,3975,0.0003991,4015.2,-0.00012443,81.578,-0.00013529,-0.021409,0.45862
6926,7.7758,1.2727,0.1,0.00039849,3982.2,0.00039961,4016,-0.00012575,68.672,-0.00013489,-0.024487,0.45791
6927,7.7758,1.0909,0.1,0.00039921,3989.3,0.00040013,4017,-0.00012705,55.939,-0.0001345,-0.027096,0.45711
6928,7.7758,0.90909,0.1,0.00039992,3996.5,0.00040065,4018.1,-0.00012832,43.662,-0.00013413,-0.028942,0.45623
6929,7.7758,0.72727,0.1,0.00040063,4003.5,0.00040116,4019.4,-0.00012952,32.062,-0.00013379,-0.031603,0.45526
6930,7.7758,0.54545,0.1,0.00040132,4010.4,0.00040168,4021,-0.00013065,21.293,-0.00013349,-0.030733,0.45421
6931,7.7758,0.36364,0.1,0.00040201,4017.3,0.0004022,4022.9,-0.00013171,11.38,-0.00013323,-0.058296,0.45307
6932,7.7758,0.18182,0.1,0.00040278,4025,0.00040281,4025.9,-0.00013275,1.9362,-0.00013303,-0.20616,0.45184
6933,7.5914,5.8182,0.1,0.00040782,4075.4,0.00040786,4076.4,-0.0001344,2.0925,-0.0001347,-0.19698,0.43218
6934,7.5914,5.6364,0.1,0.00040709,4068.1,0.00040728,4073.8,-0.00013337,11.558,-0.00013492,-0.062442,0.43341
6935,7.5914,5.4545,0.1,0.00040643,4061.5,0.0004068,4072.3,-0.0001323,21.78,-0.0001352,-0.036214,0.43456
6936,7.5914,5.2727,0.1,0.00040577,4054.9,0.00040632,4071.3,-0.00013113,33.14,-0.00013554,-0.037355,0.43562
6937,7.5914,5.0909,0.1,0.00040508,4048,0.00040584,4070.6,-0.00012986,45.599,-0.00013593,-0.034887,0.4366
6938,7.5914,4.9091,0.1,0.00040438,4041,0.00040535,4070.2,-0.0001285,58.982,-0.00013636,-0.032935,0.43749
6939,7.5914,4.7273,0.1,0.00040367,4033.9,0.00040486,4069.9,-0.00012709,73.024,-0.00013681,-0.029992,0.43829
6940,7.5914,4.5455,0.1,0.00040295,4026.7,0.00040436,4069.7,-0.00012565,87.39,-0.00013728,-0.026386,0.43901
6941,7.5914,4.3636,0.1,0.00040224,4019.7,0.00040388,4069.5,-0.00012421,101.69,-0.00013775,-0.022204,0.43964
6942,7.5914,4.1818,0.1,0.00040157,4012.9,0.00040341,4069.4,-0.00012283,115.5,-0.0001382,-0.017703,0.4402
6943,7.5914,4,0.1,0.00040094,4006.7,0.00040297,4069.3,-0.00012153,128.38,-0.00013862,-0.013151,0.44067
6944,7.5914,3.8182,0.1,0.00040039,4001.1,0.00040258,4069.2,-0.00012038,139.9,-0.000139,-0.0088261,0.44107
6945,7.5914,3.6364,0.1,0.00039991,3996.4,0.00040225,4069.1,-0.0001194,149.65,-0.00013932,-0.0049963,0.44138
6946,7.5914,3.4545,0.1,0.00039954,3992.7,0.00040199,4069,-0.00011863,157.3,-0.00013957,-0.0018998,0.44161
6947,7.5914,3.2727,0.1,0.00039929,3990.2,0.00040181,4069,-0.0001181,162.57,-0.00013974,0.00027723,0.44177
6948,7.5914,3.0909,0.1,0.00039916,3988.9,0.00040172,4068.9,-0.00011783,165.25,-0.00013982,0.0013998,0.44185
6949,7.5914,2.9091,0.1,0.00039916,3988.9,0.00040172,4068.9,-0.00011783,165.25,-0.00013982,0.0014001,0.44185
6950,7.5914,2.7273,0.1,0.00039929,3990.2,0.00040181,4069,-0.0001181,162.57,-0.00013974,0.00027658,0.44177
6951,7.5914,2.5455,0.1,0.00039954,3992.7,0.00040199,4069,-0.00011863,157.3,-0.00013957,-0.0018998,0.44161
6952,7.5914,2.3636,0.1,0.00039991,3996.4,0.00040225,4069.1,-0.0001194,149.65,-0.00013932,-0.004997,0.44138
6953,7.5914,2.1818,0.1,0.00040039,4001.1,0.00040258,4069.2,-0.00012038,139.9,-0.000139,-0.0088264,0.44107
6954,7.5914,2,0.1,0.00040094,4006.7,0.00040297,4069.3,-0.00012153,128.38,-0.00013862,-0.013152,0.44067
6955,7.5914,1.8182,0.1,0.00040157,4012.9,0.00040341,4069.4,-0.00012283,115.5,-0.0001382,-0.017704,0.4402
6956,7.5914,1.6364,0.1,0.00040224,4019.7,0.00040388,4069.5,-0.00012421,101.69,-0.00013775,-0.022204,0.43964
6957,7.5914,1.4545,0.1,0.00040295,4026.7,0.00040436,4069.7,-0.00012565,87.39,-0.00013728,-0.026387,0.43901
6958,7.5914,1.2727,0.1,0.00040367,4033.9,0.00040486,4069.9,-0.00012709,73.024,-0.00013681,-0.029993,0.43829
6959,7.5914,1.0909,0.1,0.00040438,4041,0.00040535,4070.2,-0.0001285,58.982,-0.00013636,-0.032936,0.43749
6960,7.5914,0.90909,0.1,0.00040508,4048,0.00040584,4070.6,-0.00012986,45.599,-0.00013593,-0.034889,0.4366
6961,7.5914,0.72727,0.1,0.00040577,4054.9,0.00040632,4071.3,-0.00013113,33.14,-0.00013554,-0.037356,0.43562
6962,7.5914,0.54545,0.1,0.00040643,4061.5,0.0004068,4072.3,-0.0001323,21.78,-0.0001352,-0.036214,0.43456
6963,7.5914,0.36364,0.1,0.00040709,4068.1,0.00040728,4073.8,-0.00013337,11.558,-0.00013492,-0.062443,0.43341
6964,7.5914,0.18182,0.1,0.00040782,4075.4,0.00040786,4076.4,-0.0001344,2.0925,-0.0001347,-0.19698,0.43218
6965,7.4071,5.8182,0.1,0.00041274,4124.6,0.00041278,4125.5,-0.00013602,2.0588,-0.00013632,-0.20182,0.41279
6966,7.4071,5.6364,0.1,0.00041207,4117.8,0.00041226,4123.5,-0.00013503,11.389,-0.00013655,-0.067247,0.41403
6967,7.4071,5.4545,0.1,0.00041147,4111.8,0.00041183,4122.7,-0.00013396,21.839,-0.00013687,-0.043296,0.41519
6968,7.4071,5.2727,0.1,0.00041085,4105.7,0.00041141,4122.4,-0.00013275,33.773,-0.00013725,-0.044785,0.41626
6969,7.4071,5.0909,0.1,0.00041021,4099.2,0.00041099,4122.6,-0.00013142,47.14,-0.0001377,-0.04261,0.41724
6970,7.4071,4.9091,0.1,0.00040954,4092.5,0.00041055,4123,-0.00012998,61.73,-0.0001382,-0.040519,0.41814
6971,7.4071,4.7273,0.1,0.00040884,4085.6,0.0004101,4123.7,-0.00012845,77.233,-0.00013873,-0.037149,0.41894
6972,7.4071,4.5455,0.1,0.00040814,4078.6,0.00040965,4124.4,-0.00012687,93.25,-0.00013928,-0.032867,0.41967
6973,7.4071,4.3636,0.1,0.00040744,4071.6,0.00040919,4125.1,-0.00012528,109.32,-0.00013984,-0.027839,0.42031
6974,7.4071,4.1818,0.1,0.00040677,4064.8,0.00040875,4125.9,-0.00012375,124.92,-0.00014037,-0.022393,0.42087
6975,7.4071,4,0.1,0.00040613,4058.5,0.00040833,4126.5,-0.0001223,139.55,-0.00014088,-0.016868,0.42134
6976,7.4071,3.8182,0.1,0.00040557,4052.9,0.00040795,4127.1,-0.00012101,152.68,-0.00014133,-0.011612,0.42174
6977,7.4071,3.6364,0.1,0.00040509,4048.1,0.00040762,4127.5,-0.00011991,163.84,-0.00014171,-0.0069571,0.42205
6978,7.4071,3.4545,0.1,0.00040471,4044.3,0.00040737,4127.8,-0.00011904,172.6,-0.00014201,-0.0031916,0.42228
6979,7.4071,3.2727,0.1,0.00040445,4041.7,0.00040719,4128,-0.00011844,178.64,-0.00014222,-0.00054503,0.42244
6980,7.4071,3.0909,0.1,0.00040431,4040.4,0.0004071,4128.2,-0.00011814,181.72,-0.00014232,0.00082013,0.42252
6981,7.4071,2.9091,0.1,0.00040431,4040.4,0.0004071,4128.2,-0.00011814,181.72,-0.00014232,0.00082013,0.42252
6982,7.4071,2.7273,0.1,0.00040445,4041.7,0.00040719,4128,-0.00011844,178.64,-0.00014222,-0.00054479,0.42244
6983,7.4071,2.5455,0.1,0.00040471,4044.3,0.00040737,4127.8,-0.00011904,172.6,-0.00014201,-0.0031918,0.42228
6984,7.4071,2.3636,0.1,0.00040509,4048.1,0.00040762,4127.5,-0.00011991,163.84,-0.00014171,-0.006957,0.42205
6985,7.4071,2.1818,0.1,0.00040557,4052.9,0.00040795,4127.1,-0.00012101,152.68,-0.00014133,-0.011613,0.42174
6986,7.4071,2,0.1,0.00040613,4058.5,0.00040833,4126.5,-0.0001223,139.55,-0.00014088,-0.016868,0.42134
6987,7.4071,1.8182,0.1,0.00040677,4064.8,0.00040875,4125.9,-0.00012375,124.92,-0.00014037,-0.022394,0.42087
6988,7.4071,1.6364,0.1,0.00040744,4071.6,0.00040919,4125.1,-0.00012528,109.32,-0.00013984,-0.02784,0.42031
6989,7.4071,1.4545,0.1,0.00040814,4078.6,0.00040965,4124.4,-0.00012687,93.25,-0.00013928,-0.032868,0.41967
6990,7.4071,1.2727,0.1,0.00040884,4085.6,0.0004101,4123.7,-0.00012845,77.233,-0.00013873,-0.037149,0.41894
6991,7.4071,1.0909,0.1,0.00040954,4092.5,0.00041055,4123,-0.00012998,61.73,-0.0001382,-0.04052,0.41814
6992,7.4071,0.90909,0.1,0.00041021,4099.2,0.00041099,4122.6,-0.00013142,47.14,-0.0001377,-0.042611,0.41724
6993,7.4071,0.72727,0.1,0.00041085,4105.7,0.00041141,4122.4,-0.00013275,33.773,-0.00013725,-0.044786,0.41626
6994,7.4071,0.54545,0.1,0.00041147,4111.8,0.00041183,4122.7,-0.00013396,21.839,-0.00013687,-0.043296,0.41519
6995,7.4071,0.36364,0.1,0.00041207,4117.8,0.00041226,4123.5,-0.00013503,11.389,-0.00013655,-0.067248,0.41403
6996,7.4071,0.18182,0.1,0.00041274,4124.6,0.00041278,4125.5,-0.00013602,2.0588,-0.00013632,-0.20182,0.41279
6997,7.2227,5.8182,0.1,0.0004175,4172.2,0.00041753,4172.9,-0.00013762,1.7889,-0.00013788,-0.22686,0.39368
6998,7.2227,5.6364,0.1,0.00041691,4166.3,0.0004171,4171.6,-0.00013668,10.784,-0.00013812,-0.073496,0.39494
6999,7.2227,5.4545,0.1,0.00041639,4161.1,0.00041675,4171.7,-0.00013562,21.354,-0.00013847,-0.052852,0.3961
7000,7.2227,5.2727,0.1,0.00041585,4155.7,0.00041642,4172.4,-0.0001344,33.833,-0.00013891,-0.054677,0.39718
7001,7.2227,5.0909,0.1,0.00041528,4149.9,0.00041608,4173.8,-0.00013301,48.152,-0.00013942,-0.052874,0.39817
7002,7.2227,4.9091,0.1,0.00041467,4143.8,0.00041572,4175.4,-0.00013147,64.063,-0.00014001,-0.050519,0.39907
7003,7.2227,4.7273,0.1,0.00041402,4137.4,0.00041534,4177.3,-0.00012982,81.197,-0.00014063,-0.046545,0.39988
7004,7.2227,4.5455,0.1,0.00041336,4130.7,0.00041495,4179.3,-0.0001281,99.081,-0.00014129,-0.041362,0.40061
7005,7.2227,4.3636,0.1,0.00041268,4124,0.00041455,4181.3,-0.00012635,117.16,-0.00014195,-0.035236,0.40125
7006,7.2227,4.1818,0.1,0.00041203,4117.4,0.00041415,4183.2,-0.00012465,134.83,-0.0001426,-0.028583,0.40181
7007,7.2227,4,0.1,0.00041141,4111.2,0.00041377,4184.9,-0.00012304,151.47,-0.0001432,-0.021832,0.40229
7008,7.2227,3.8182,0.1,0.00041085,4105.6,0.00041342,4186.3,-0.00012159,166.47,-0.00014374,-0.015414,0.40268
7009,7.2227,3.6364,0.1,0.00041037,4100.8,0.00041312,4187.5,-0.00012035,179.24,-0.0001442,-0.0097324,0.403
7010,7.2227,3.4545,0.1,0.00040999,4097.1,0.00041288,4188.4,-0.00011937,189.3,-0.00014457,-0.0051405,0.40323
7011,7.2227,3.2727,0.1,0.00040973,4094.5,0.00041271,4189.1,-0.0001187,196.23,-0.00014481,-0.0019152,0.40339
7012,7.2227,3.0909,0.1,0.0004096,4093.1,0.00041263,4189.4,-0.00011835,199.78,-0.00014494,-0.00025255,0.40347
7013,7.2227,2.9091,0.1,0.0004096,4093.1,0.00041263,4189.4,-0.00011835,199.78,-0.00014494,-0.00025237,0.40347
7014,7.2227,2.7273,0.1,0.00040973,4094.5,0.00041271,4189.1,-0.0001187,196.23,-0.00014481,-0.0019154,0.40339
7015,7.2227,2.5455,0.1,0.00040999,4097.1,0.00041288,4188.4,-0.00011937,189.3,-0.00014457,-0.0051406,0.40323
7016,7.2227,2.3636,0.1,0.00041037,4100.8,0.00041312,4187.5,-0.00012035,179.24,-0.0001442,-0.0097327,0.403
7017,7.2227,2.1818,0.1,0.00041085,4105.6,0.00041342,4186.3,-0.00012159,166.47,-0.00014374,-0.015414,0.40268
7018,7.2227,2,0.1,0.00041141,4111.2,0.00041377,4184.9,-0.00012304,151.47,-0.0001432,-0.021833,0.40229
7019,7.2227,1.8182,0.1,0.00041203,4117.4,0.00041415,4183.2,-0.00012465,134.83,-0.0001426,-0.028584,0.40181
7020,7.2227,1.6364,0.1,0.00041268,4124,0.00041455,4181.3,-0.00012635,117.16,-0.00014195,-0.035236,0.40125
7021,7.2227,1.4545,0.1,0.00041336,4130.7,0.00041495,4179.3,-0.0001281,99.081,-0.00014129,-0.041363,0.40061
7022,7.2227,1.2727,0.1,0.00041402,4137.4,0.00041534,4177.3,-0.00012982,81.197,-0.00014063,-0.046546,0.39988
7023,7.2227,1.0909,0.1,0.00041467,4143.8,0.00041572,4175.4,-0.00013147,64.063,-0.00014001,-0.050519,0.39907
7024,7.2227,0.90909,0.1,0.00041528,4149.9,0.00041608,4173.8,-0.00013301,48.152,-0.00013942,-0.052874,0.39817
7025,7.2227,0.72727,0.1,0.00041585,4155.7,0.00041642,4172.4,-0.0001344,33.833,-0.00013891,-0.054677,0.39718
7026,7.2227,0.54545,0.1,0.00041639,4161.1,0.00041675,4171.7,-0.00013562,21.354,-0.00013847,-0.052853,0.3961
7027,7.2227,0.36364,0.1,0.00041691,4166.3,0.0004171,4171.6,-0.00013668,10.784,-0.00013812,-0.073497,0.39494
7028,7.2227,0.18182,0.1,0.0004175,4172.2,0.00041753,4172.9,-0.00013762,1.7889,-0.00013788,-0.22686,0.39368
7029,7.0383,5.8182,0.1,0.00042205,4217.6,0.00042206,4218,-0.00013916,1.253,-0.00013936,-0.30319,0.37485
7030,7.0383,5.6364,0.1,0.00042158,4212.9,0.00042174,4217.6,-0.00013831,9.6381,-0.0001396,-0.083175,0.37612
7031,7.0383,5.4545,0.1,0.00042117,4208.8,0.00042151,4218.9,-0.0001373,20.19,-0.00013999,-0.06656,0.37729
7032,7.0383,5.2727,0.1,0.00042075,4204.6,0.0004213,4221,-0.00013607,33.17,-0.00014049,-0.068496,0.37838
7033,7.0383,5.0909,0.1,0.00042028,4199.9,0.00042108,4223.9,-0.00013463,48.483,-0.00014109,-0.066844,0.37937
7034,7.0383,4.9091,0.1,0.00041976,4194.7,0.00042084,4227.2,-0.000133,65.836,-0.00014177,-0.063961,0.38028
7035,7.0383,4.7273,0.1,0.00041919,4189.1,0.00042057,4230.8,-0.00013123,84.791,-0.00014252,-0.05905,0.3811
7036,7.0383,4.5455,0.1,0.0004186,4183.1,0.00042028,4234.5,-0.00012935,104.79,-0.0001433,-0.052602,0.38183
7037,7.0383,4.3636,0.1,0.00041798,4177,0.00041997,4238.1,-0.00012743,125.16,-0.00014409,-0.045005,0.38247
7038,7.0383,4.1818,0.1,0.00041737,4170.9,0.00041965,4241.5,-0.00012554,145.2,-0.00014487,-0.036784,0.38304
7039,7.0383,4,0.1,0.00041679,4165,0.00041934,4244.7,-0.00012374,164.16,-0.00014559,-0.028468,0.38351
7040,7.0383,3.8182,0.1,0.00041626,4159.7,0.00041905,4247.4,-0.00012212,181.3,-0.00014625,-0.020584,0.38391
7041,7.0383,3.6364,0.1,0.0004158,4155.1,0.00041879,4249.6,-0.00012073,195.94,-0.00014681,-0.013622,0.38423
7042,7.0383,3.4545,0.1,0.00041544,4151.5,0.00041858,4251.4,-0.00011963,207.49,-0.00014724,-0.0080046,0.38446
7043,7.0383,3.2727,0.1,0.00041519,4149,0.00041843,4252.5,-0.00011887,215.47,-0.00014755,-0.0040653,0.38462
7044,7.0383,3.0909,0.1,0.00041506,4147.7,0.00041836,4253.1,-0.00011848,219.55,-0.0001477,-0.0020363,0.3847
7045,7.0383,2.9091,0.1,0.00041506,4147.7,0.00041836,4253.1,-0.00011848,219.55,-0.0001477,-0.0020365,0.3847
7046,7.0383,2.7273,0.1,0.00041519,4149,0.00041843,4252.5,-0.00011887,215.47,-0.00014755,-0.0040656,0.38462
7047,7.0383,2.5455,0.1,0.00041544,4151.5,0.00041858,4251.4,-0.00011963,207.49,-0.00014724,-0.0080045,0.38446
7048,7.0383,2.3636,0.1,0.0004158,4155.1,0.00041879,4249.6,-0.00012073,195.94,-0.00014681,-0.013622,0.38423
7049,7.0383,2.1818,0.1,0.00041626,4159.7,0.00041905,4247.4,-0.00012212,181.3,-0.00014625,-0.020584,0.38391
7050,7.0383,2,0.1,0.00041679,4165,0.00041934,4244.7,-0.00012374,164.16,-0.00014559,-0.028468,0.38351
7051,7.0383,1.8182,0.1,0.00041737,4170.9,0.00041965,4241.5,-0.00012554,145.2,-0.00014487,-0.036784,0.38304
7052,7.0383,1.6364,0.1,0.00041798,4177,0.00041997,4238.1,-0.00012743,125.16,-0.00014409,-0.045006,0.38247
7053,7.0383,1.4545,0.1,0.0004186,4183.1,0.00042028,4234.5,-0.00012935,104.79,-0.0001433,-0.052603,0.38183
7054,7.0383,1.2727,0.1,0.00041919,4189.1,0.00042057,4230.8,-0.00013123,84.791,-0.00014252,-0.059051,0.3811
7055,7.0383,1.0909,0.1,0.00041976,4194.7,0.00042084,4227.2,-0.000133,65.836,-0.00014177,-0.063962,0.38028
7056,7.0383,0.90909,0.1,0.00042028,4199.9,0.00042108,4223.9,-0.00013463,48.483,-0.00014109,-0.066846,0.37937
7057,7.0383,0.72727,0.1,0.00042075,4204.6,0.0004213,4221,-0.00013607,33.17,-0.00014049,-0.068497,0.37838
7058,7.0383,0.54545,0.1,0.00042117,4208.8,0.00042151,4218.9,-0.0001373,20.19,-0.00013999,-0.066561,0.37729
7059,7.0383,0.36364,0.1,0.00042158,4212.9,0.00042174,4217.6,-0.00013831,9.6381,-0.0001396,-0.083176,0.37612
7060,7.0383,0.18182,0.1,0.00042205,4217.6,0.00042206,4218,-0.00013916,1.253,-0.00013936,-0.30319,0.37485
7061,6.854,5.8182,0.1,0.0004263,4260.1,0.0004263,4260.1,-0.0001406,0.55377,-0.00014076,-0.60467,0.35631
7062,6.854,5.6364,0.1,0.000426,4257,0.00042613,4260.9,-0.00013992,7.835,-0.00014098,-0.102,0.35759
7063,6.854,5.4545,0.1,0.00042576,4254.6,0.00042606,4263.6,-0.00013897,18.193,-0.00014141,-0.087949,0.35877
7064,6.854,5.2727,0.1,0.00042549,4251.9,0.00042601,4267.6,-0.00013776,31.61,-0.00014198,-0.088757,0.35987
7065,6.854,5.0909,0.1,0.00042517,4248.7,0.00042596,4272.5,-0.00013629,47.954,-0.00014268,-0.086565,0.36087
7066,6.854,4.9091,0.1,0.00042479,4245,0.00042588,4278,-0.00013457,66.88,-0.00014349,-0.082424,0.36178
7067,6.854,4.7273,0.1,0.00042435,4240.6,0.00042578,4283.8,-0.00013267,87.865,-0.00014437,-0.075929,0.3626
7068,6.854,4.5455,0.1,0.00042387,4235.8,0.00042564,4289.8,-0.00013063,110.24,-0.00014531,-0.067609,0.36334
7069,6.854,4.3636,0.1,0.00042336,4230.6,0.00042546,4295.7,-0.00012852,133.23,-0.00014626,-0.057982,0.36398
7070,6.854,4.1818,0.1,0.00042283,4225.4,0.00042527,4301.2,-0.00012643,155.98,-0.00014719,-0.047677,0.36455
7071,6.854,4,0.1,0.00042232,4220.3,0.00042506,4306.3,-0.00012443,177.59,-0.00014807,-0.037334,0.36503
7072,6.854,3.8182,0.1,0.00042185,4215.6,0.00042486,4310.7,-0.00012262,197.21,-0.00014887,-0.027586,0.36542
7073,6.854,3.6364,0.1,0.00042144,4211.5,0.00042467,4314.4,-0.00012106,214.01,-0.00014954,-0.019015,0.36574
7074,6.854,3.4545,0.1,0.00042111,4208.2,0.00042451,4317.2,-0.00011982,227.29,-0.00015007,-0.012124,0.36598
7075,6.854,3.2727,0.1,0.00042088,4205.9,0.0004244,4319.1,-0.00011897,236.48,-0.00015044,-0.0073029,0.36613
7076,6.854,3.0909,0.1,0.00042076,4204.7,0.00042435,4320.1,-0.00011853,241.17,-0.00015063,-0.0048234,0.36621
7077,6.854,2.9091,0.1,0.00042076,4204.7,0.00042435,4320.1,-0.00011853,241.17,-0.00015063,-0.0048235,0.36621
7078,6.854,2.7273,0.1,0.00042088,4205.9,0.0004244,4319.1,-0.00011897,236.48,-0.00015044,-0.007303,0.36613
7079,6.854,2.5455,0.1,0.00042111,4208.2,0.00042451,4317.2,-0.00011982,227.29,-0.00015007,-0.012124,0.36598
7080,6.854,2.3636,0.1,0.00042144,4211.5,0.00042467,4314.4,-0.00012106,214.01,-0.00014954,-0.019016,0.36574
7081,6.854,2.1818,0.1,0.00042185,4215.6,0.00042486,4310.7,-0.00012262,197.21,-0.00014887,-0.027586,0.36542
7082,6.854,2,0.1,0.00042232,4220.3,0.00042506,4306.3,-0.00012443,177.59,-0.00014807,-0.037335,0.36503
7083,6.854,1.8182,0.1,0.00042283,4225.4,0.00042527,4301.2,-0.00012643,155.98,-0.00014719,-0.047677,0.36455
7084,6.854,1.6364,0.1,0.00042336,4230.6,0.00042546,4295.7,-0.00012852,133.23,-0.00014626,-0.057983,0.36398
7085,6.854,1.4545,0.1,0.00042387,4235.8,0.00042564,4289.8,-0.00013063,110.24,-0.00014531,-0.06761,0.36334
7086,6.854,1.2727,0.1,0.00042435,4240.6,0.00042578,4283.8,-0.00013267,87.865,-0.00014437,-0.07593,0.3626
7087,6.854,1.0909,0.1,0.00042479,4245,0.00042588,4278,-0.00013457,66.88,-0.00014349,-0.082424,0.36178
7088,6.854,0.90909,0.1,0.00042517,4248.7,0.00042596,4272.5,-0.00013629,47.954,-0.00014268,-0.086567,0.36087
7089,6.854,0.72727,0.1,0.00042549,4251.9,0.00042601,4267.6,-0.00013776,31.61,-0.00014198,-0.088758,0.35987
7090,6.854,0.54545,0.1,0.00042576,4254.6,0.00042606,4263.6,-0.00013897,18.193,-0.00014141,-0.087949,0.35877
7091,6.854,0.36364,0.1,0.000426,4257,0.00042613,4260.9,-0.00013992,7.835,-0.00014098,-0.102,0.35759
7092,6.854,0.18182,0.1,0.0004263,4260.1,0.0004263,4260.1,-0.0001406,0.55377,-0.00014076,-0.60468,0.35631
7093,6.6696,5.8182,0.1,0.00043019,4299,0.00043017,4298.2,-0.00014187,0.15983,-0.00014211,-1.6817,0.33807
7094,6.6696,5.6364,0.1,0.0004301,4298,0.00043019,4300.6,-0.00014149,5.2578,-0.00014221,-0.15254,0.33935
7095,6.6696,5.4545,0.1,0.00043007,4297.8,0.00043033,4305.3,-0.00014065,15.194,-0.00014269,-0.12578,0.34054
7096,6.6696,5.2727,0.1,0.00043002,4297.2,0.0004305,4311.6,-0.00013948,28.957,-0.00014335,-0.12065,0.34164
7097,6.6696,5.0909,0.1,0.00042991,4296.1,0.00043068,4319.1,-0.00013798,46.363,-0.00014417,-0.11551,0.34265
7098,6.6696,4.9091,0.1,0.00042973,4294.4,0.00043083,4327.4,-0.0001362,66.998,-0.00014513,-0.10841,0.34357
7099,6.6696,4.7273,0.1,0.00042949,4291.9,0.00043095,4336.3,-0.00013416,90.241,-0.00014618,-0.099058,0.34439
7100,6.6696,4.5455,0.1,0.00042918,4288.8,0.00043102,4345.3,-0.00013195,115.3,-0.00014731,-0.087831,0.34513
7101,6.6696,4.3636,0.1,0.00042882,4285.2,0.00043105,4354.1,-0.00012965,141.26,-0.00014846,-0.075303,0.34578
7102,6.6696,4.1818,0.1,0.00042844,4281.4,0.00043103,4362.5,-0.00012734,167.1,-0.00014959,-0.062168,0.34635
7103,6.6696,4,0.1,0.00042805,4277.5,0.00043099,4370.1,-0.00012512,191.77,-0.00015065,-0.049163,0.34683
7104,6.6696,3.8182,0.1,0.00042768,4273.8,0.00043092,4376.9,-0.0001231,214.23,-0.00015162,-0.037019,0.34723
7105,6.6696,3.6364,0.1,0.00042735,4270.5,0.00043084,4382.5,-0.00012135,233.51,-0.00015244,-0.026418,0.34754
7106,6.6696,3.4545,0.1,0.00042708,4267.9,0.00043077,4386.8,-0.00011997,248.78,-0.00015308,-0.017938,0.34778
7107,6.6696,3.2727,0.1,0.0004269,4266,0.00043072,4389.8,-0.00011901,259.35,-0.00015353,-0.012028,0.34794
7108,6.6696,3.0909,0.1,0.0004268,4265.1,0.00043069,4391.3,-0.00011852,264.76,-0.00015376,-0.0089965,0.34801
7109,6.6696,2.9091,0.1,0.0004268,4265.1,0.00043069,4391.3,-0.00011852,264.76,-0.00015376,-0.0089965,0.34801
7110,6.6696,2.7273,0.1,0.0004269,4266,0.00043072,4389.8,-0.00011901,259.35,-0.00015353,-0.012028,0.34794
7111,6.6696,2.5455,0.1,0.00042708,4267.9,0.00043077,4386.8,-0.00011997,248.78,-0.00015308,-0.017938,0.34778
7112,6.6696,2.3636,0.1,0.00042735,4270.5,0.00043084,4382.5,-0.00012135,233.51,-0.00015244,-0.026418,0.34754
7113,6.6696,2.1818,0.1,0.00042768,4273.8,0.00043092,4376.9,-0.0001231,214.23,-0.00015162,-0.03702,0.34723
7114,6.6696,2,0.1,0.00042805,4277.5,0.00043099,4370.1,-0.00012512,191.77,-0.00015065,-0.049163,0.34683
7115,6.6696,1.8182,0.1,0.00042844,4281.4,0.00043103,4362.5,-0.00012734,167.1,-0.00014959,-0.062168,0.34635
7116,6.6696,1.6364,0.1,0.00042882,4285.2,0.00043105,4354.1,-0.00012965,141.26,-0.00014846,-0.075304,0.34578
7117,6.6696,1.4545,0.1,0.00042918,4288.8,0.00043102,4345.3,-0.00013195,115.3,-0.00014731,-0.087832,0.34513
7118,6.6696,1.2727,0.1,0.00042949,4291.9,0.00043095,4336.3,-0.00013416,90.241,-0.00014618,-0.099058,0.34439
7119,6.6696,1.0909,0.1,0.00042973,4294.4,0.00043083,4327.4,-0.0001362,66.998,-0.00014513,-0.10841,0.34357
7120,6.6696,0.90909,0.1,0.00042991,4296.1,0.00043068,4319.1,-0.00013798,46.363,-0.00014417,-0.11551,0.34265
7121,6.6696,0.72727,0.1,0.00043002,4297.2,0.0004305,4311.6,-0.00013948,28.957,-0.00014335,-0.12065,0.34164
7122,6.6696,0.54545,0.1,0.00043007,4297.8,0.00043033,4305.3,-0.00014065,15.194,-0.00014269,-0.12578,0.34054
7123,6.6696,0.36364,0.1,0.0004301,4298,0.00043019,4300.6,-0.00014149,5.2578,-0.00014221,-0.15254,0.33935
7124,6.6696,0.18182,0.1,0.00043019,4299,0.00043017,4298.2,-0.00014187,0.15983,-0.00014211,-1.6817,0.33807
7125,6.4853,5.8182,0.1,0.0004336,4333,0.00043354,4331.2,-0.0001429,0.050195,-0.00014339,-3.6064,0.32011
7126,6.4853,5.6364,0.1,0.00043378,4334.8,0.00043381,4335.6,-0.00014296,1.9495,-0.00014328,-0.43345,0.3214
7127,6.4853,5.4545,0.1,0.00043404,4337.4,0.00043422,4342.8,-0.0001423,11.021,-0.0001438,-0.20872,0.3226
7128,6.4853,5.2727,0.1,0.00043427,4339.7,0.00043469,4352.1,-0.00014121,24.999,-0.00014456,-0.17605,0.32371
7129,6.4853,5.0909,0.1,0.00043445,4341.5,0.00043517,4363,-0.00013972,43.482,-0.00014553,-0.16025,0.32473
7130,6.4853,4.9091,0.1,0.00043455,4342.5,0.00043563,4375.1,-0.00013787,65.964,-0.00014667,-0.1461,0.32565
7131,6.4853,4.7273,0.1,0.00043457,4342.7,0.00043606,4387.8,-0.00013572,91.71,-0.00014794,-0.13132,0.32648
7132,6.4853,4.5455,0.1,0.00043452,4342.2,0.00043643,4400.8,-0.00013334,119.79,-0.00014929,-0.11537,0.32722
7133,6.4853,4.3636,0.1,0.0004344,4341,0.00043674,4413.6,-0.00013082,149.11,-0.00015068,-0.098562,0.32787
7134,6.4853,4.1818,0.1,0.00043423,4339.3,0.00043699,4425.7,-0.00012829,178.47,-0.00015205,-0.081493,0.32844
7135,6.4853,4,0.1,0.00043403,4337.3,0.00043717,4436.9,-0.00012584,206.62,-0.00015335,-0.064932,0.32892
7136,6.4853,3.8182,0.1,0.00043382,4335.2,0.00043731,4446.7,-0.00012359,232.34,-0.00015452,-0.049681,0.32932
7137,6.4853,3.6364,0.1,0.00043363,4333.3,0.0004374,4454.9,-0.00012165,254.47,-0.00015552,-0.036501,0.32964
7138,6.4853,3.4545,0.1,0.00043347,4331.7,0.00043745,4461.3,-0.0001201,272.02,-0.00015631,-0.026039,0.32987
7139,6.4853,3.2727,0.1,0.00043335,4330.6,0.00043749,4465.6,-0.00011903,284.18,-0.00015685,-0.01879,0.33003
7140,6.4853,3.0909,0.1,0.00043329,4330,0.0004375,4467.8,-0.00011848,290.41,-0.00015713,-0.015084,0.33011
7141,6.4853,2.9091,0.1,0.00043329,4330,0.0004375,4467.8,-0.00011848,290.41,-0.00015713,-0.015084,0.33011
7142,6.4853,2.7273,0.1,0.00043335,4330.6,0.00043749,4465.6,-0.00011903,284.18,-0.00015685,-0.01879,0.33003
7143,6.4853,2.5455,0.1,0.00043347,4331.7,0.00043745,4461.3,-0.0001201,272.02,-0.00015631,-0.026039,0.32987
7144,6.4853,2.3636,0.1,0.00043363,4333.3,0.0004374,4454.9,-0.00012165,254.47,-0.00015552,-0.036501,0.32964
7145,6.4853,2.1818,0.1,0.00043382,4335.2,0.00043731,4446.7,-0.00012359,232.34,-0.00015452,-0.049681,0.32932
7146,6.4853,2,0.1,0.00043403,4337.3,0.00043717,4436.9,-0.00012584,206.62,-0.00015335,-0.064932,0.32892
7147,6.4853,1.8182,0.1,0.00043423,4339.3,0.00043699,4425.7,-0.00012829,178.47,-0.00015205,-0.081494,0.32844
7148,6.4853,1.6364,0.1,0.0004344,4341,0.00043674,4413.6,-0.00013082,149.11,-0.00015068,-0.098563,0.32787
7149,6.4853,1.4545,0.1,0.00043452,4342.2,0.00043643,4400.8,-0.00013334,119.79,-0.00014929,-0.11537,0.32722
7150,6.4853,1.2727,0.1,0.00043457,4342.7,0.00043606,4387.8,-0.00013572,91.71,-0.00014794,-0.13132,0.32648
7151,6.4853,1.0909,0.1,0.00043455,4342.5,0.00043563,4375.1,-0.00013787,65.964,-0.00014667,-0.1461,0.32565
7152,6.4853,0.90909,0.1,0.00043445,4341.5,0.00043517,4363,-0.00013972,43.482,-0.00014553,-0.16025,0.32473
7153,6.4853,0.72727,0.1,0.00043427,4339.7,0.00043469,4352.1,-0.00014121,24.999,-0.00014456,-0.17605,0.32371
7154,6.4853,0.54545,0.1,0.00043404,4337.4,0.00043422,4342.8,-0.0001423,11.021,-0.0001438,-0.20872,0.3226
7155,6.4853,0.36364,0.1,0.00043378,4334.8,0.00043381,4335.6,-0.00014296,1.9495,-0.00014328,-0.43346,0.3214
7156,6.4853,0.18182,0.1,0.0004336,4333,0.00043354,4331.2,-0.0001429,0.050194,-0.00014339,-3.6064,0.32011
7157,6.3009,5.8182,0.1,0.00043639,4360.9,0.00043628,4357.7,-0.0001437,0.011382,-0.00014453,-6.27,0.30244
7158,6.3009,5.6364,0.1,0.00043692,4366.2,0.00043686,4364.6,-0.00014399,0.28397,-0.00014449,-3.4883,0.30375
7159,6.3009,5.4545,0.1,0.00043754,4372.4,0.00043763,4375,-0.0001439,5.6215,-0.00014471,-0.49954,0.30496
7160,6.3009,5.2727,0.1,0.00043816,4378.6,0.00043848,4388.1,-0.00014295,19.523,-0.00014558,-0.28836,0.30608
7161,6.3009,5.0909,0.1,0.00043872,4384.2,0.00043937,4403.4,-0.0001415,39.063,-0.00014673,-0.23448,0.3071
7162,6.3009,4.9091,0.1,0.0004392,4389,0.00044024,4420.3,-0.00013961,63.523,-0.00014809,-0.20285,0.30803
7163,6.3009,4.7273,0.1,0.0004396,4392.9,0.00044109,4438.1,-0.00013734,92.028,-0.00014962,-0.17732,0.30886
7164,6.3009,4.5455,0.1,0.0004399,4396,0.00044187,4456.3,-0.0001348,123.48,-0.00015125,-0.15339,0.30961
7165,6.3009,4.3636,0.1,0.00044012,4398.1,0.00044257,4474.3,-0.00013208,156.59,-0.00015294,-0.13005,0.31026
7166,6.3009,4.1818,0.1,0.00044026,4399.5,0.00044318,4491.4,-0.00012931,189.95,-0.0001546,-0.10738,0.31083
7167,6.3009,4,0.1,0.00044034,4400.4,0.0004437,4507.2,-0.00012661,222.07,-0.00015618,-0.085986,0.31131
7168,6.3009,3.8182,0.1,0.00044038,4400.8,0.00044412,4521.1,-0.00012413,251.5,-0.00015761,-0.066656,0.31171
7169,6.3009,3.6364,0.1,0.0004404,4400.9,0.00044445,4532.8,-0.00012198,276.88,-0.00015883,-0.050185,0.31203
7170,6.3009,3.4545,0.1,0.0004404,4400.9,0.0004447,4541.9,-0.00012026,297.03,-0.0001598,-0.037252,0.31227
7171,6.3009,3.2727,0.1,0.00044039,4400.9,0.00044486,4548.1,-0.00011907,311,-0.00016046,-0.028363,0.31242
7172,6.3009,3.0909,0.1,0.00044039,4400.9,0.00044494,4551.3,-0.00011846,318.16,-0.00016081,-0.023841,0.3125
7173,6.3009,2.9091,0.1,0.00044039,4400.9,0.00044494,4551.3,-0.00011846,318.16,-0.00016081,-0.023841,0.3125
7174,6.3009,2.7273,0.1,0.00044039,4400.9,0.00044486,4548.1,-0.00011907,311,-0.00016046,-0.028363,0.31242
7175,6.3009,2.5455,0.1,0.0004404,4400.9,0.0004447,4541.9,-0.00012026,297.03,-0.0001598,-0.037252,0.31227
7176,6.3009,2.3636,0.1,0.0004404,4400.9,0.00044445,4532.8,-0.00012198,276.88,-0.00015883,-0.050185,0.31203
7177,6.3009,2.1818,0.1,0.00044038,4400.8,0.00044412,4521.1,-0.00012413,251.5,-0.00015761,-0.066657,0.31171
7178,6.3009,2,0.1,0.00044034,4400.4,0.0004437,4507.2,-0.00012661,222.07,-0.00015618,-0.085987,0.31131
7179,6.3009,1.8182,0.1,0.00044026,4399.5,0.00044318,4491.4,-0.00012931,189.95,-0.0001546,-0.10738,0.31083
7180,6.3009,1.6364,0.1,0.00044012,4398.1,0.00044257,4474.3,-0.00013208,156.59,-0.00015294,-0.13005,0.31026
7181,6.3009,1.4545,0.1,0.0004399,4396,0.00044187,4456.3,-0.0001348,123.48,-0.00015125,-0.15339,0.30961
7182,6.3009,1.2727,0.1,0.0004396,4392.9,0.00044109,4438.1,-0.00013734,92.028,-0.00014962,-0.17733,0.30886
7183,6.3009,1.0909,0.1,0.0004392,4389,0.00044024,4420.3,-0.00013961,63.523,-0.00014809,-0.20285,0.30803
7184,6.3009,0.90909,0.1,0.00043872,4384.2,0.00043937,4403.4,-0.0001415,39.063,-0.00014673,-0.23449,0.3071
7185,6.3009,0.72727,0.1,0.00043816,4378.6,0.00043848,4388.1,-0.00014295,19.523,-0.00014558,-0.28836,0.30608
7186,6.3009,0.54545,0.1,0.00043754,4372.4,0.00043763,4375,-0.0001439,5.6215,-0.00014471,-0.49954,0.30496
7187,6.3009,0.36364,0.1,0.00043692,4366.2,0.00043686,4364.6,-0.00014399,0.28396,-0.00014449,-3.4883,0.30375
7188,6.3009,0.18182,0.1,0.00043639,4360.9,0.00043628,4357.7,-0.0001437,0.01138,-0.00014453,-6.27,0.30244
7189,6.1165,5.8182,0.1,0.00043838,4380.8,0.00043822,4375.9,-0.00014418,-0.0065003,-0.00014548,-9.7379,0.28508
7190,6.1165,5.6364,0.1,0.00043935,4390.5,0.00043919,4385.9,-0.00014451,0.14291,-0.00014578,-9.3781,0.28639
7191,6.1165,5.4545,0.1,0.00044045,4401.4,0.00044041,4400.3,-0.0001451,1.0628,-0.00014568,-3.2955,0.28761
7192,6.1165,5.2727,0.1,0.00044155,4412.5,0.00044175,4418.4,-0.00014465,12.399,-0.00014638,-0.59187,0.28874
7193,6.1165,5.0909,0.1,0.00044262,4423.1,0.00044316,4439.3,-0.0001433,32.848,-0.00014772,-0.37089,0.28977
7194,6.1165,4.9091,0.1,0.00044362,4433.1,0.00044459,4462.3,-0.00014141,59.388,-0.00014935,-0.29253,0.2907
7195,6.1165,4.7273,0.1,0.00044452,4442.1,0.00044599,4486.8,-0.00013906,90.905,-0.00015119,-0.24466,0.29154
7196,6.1165,4.5455,0.1,0.00044532,4450.1,0.00044733,4511.7,-0.00013636,126.1,-0.00015317,-0.20668,0.29229
7197,6.1165,4.3636,0.1,0.00044601,4457,0.00044856,4536.4,-0.00013344,163.47,-0.00015522,-0.17307,0.29295
7198,6.1165,4.1818,0.1,0.0004466,4462.9,0.00044968,4560.1,-0.00013043,201.34,-0.00015725,-0.14224,0.29352
7199,6.1165,4,0.1,0.00044709,4467.8,0.00045066,4581.9,-0.00012749,237.96,-0.00015918,-0.11416,0.29401
7200,6.1165,3.8182,0.1,0.00044749,4471.8,0.00045149,4601.4,-0.00012477,271.6,-0.00016093,-0.089405,0.29441
7201,6.1165,3.6364,0.1,0.00044781,4475,0.00045216,4617.7,-0.0001224,300.67,-0.00016242,-0.068708,0.29473
7202,6.1165,3.4545,0.1,0.00044805,4477.4,0.00045267,4630.4,-0.00012051,323.76,-0.00016361,-0.0527,0.29496
7203,6.1165,3.2727,0.1,0.00044821,4479,0.00045302,4639.2,-0.00011919,339.79,-0.00016442,-0.041824,0.29512
7204,6.1165,3.0909,0.1,0.00044829,4479.8,0.00045319,4643.6,-0.00011852,348,-0.00016484,-0.036333,0.2952
7205,6.1165,2.9091,0.1,0.00044829,4479.8,0.00045319,4643.6,-0.00011852,348,-0.00016484,-0.036333,0.2952
7206,6.1165,2.7273,0.1,0.00044821,4479,0.00045302,4639.2,-0.00011919,339.79,-0.00016442,-0.041824,0.29512
7207,6.1165,2.5455,0.1,0.00044805,4477.4,0.00045267,4630.4,-0.00012051,323.76,-0.00016361,-0.0527,0.29496
7208,6.1165,2.3636,0.1,0.00044781,4475,0.00045216,4617.7,-0.0001224,300.67,-0.00016242,-0.068708,0.29473
7209,6.1165,2.1818,0.1,0.00044749,4471.8,0.00045149,4601.4,-0.00012477,271.6,-0.00016093,-0.089406,0.29441
7210,6.1165,2,0.1,0.00044709,4467.8,0.00045066,4581.9,-0.00012749,237.96,-0.00015918,-0.11416,0.29401
7211,6.1165,1.8182,0.1,0.0004466,4462.9,0.00044968,4560.1,-0.00013043,201.34,-0.00015725,-0.14224,0.29352
7212,6.1165,1.6364,0.1,0.00044601,4457,0.00044856,4536.4,-0.00013344,163.47,-0.00015522,-0.17307,0.29295
7213,6.1165,1.4545,0.1,0.00044532,4450.1,0.00044733,4511.7,-0.00013636,126.1,-0.00015317,-0.20668,0.29229
7214,6.1165,1.2727,0.1,0.00044452,4442.1,0.00044599,4486.8,-0.00013906,90.905,-0.00015119,-0.24466,0.29154
7215,6.1165,1.0909,0.1,0.00044362,4433.1,0.00044459,4462.3,-0.00014141,59.388,-0.00014935,-0.29253,0.2907
7216,6.1165,0.90909,0.1,0.00044262,4423.1,0.00044316,4439.3,-0.0001433,32.848,-0.00014772,-0.37089,0.28977
7217,6.1165,0.72727,0.1,0.00044155,4412.5,0.00044175,4418.4,-0.00014465,12.399,-0.00014638,-0.59187,0.28874
7218,6.1165,0.54545,0.1,0.00044045,4401.4,0.00044041,4400.3,-0.0001451,1.0628,-0.00014568,-3.2955,0.28761
7219,6.1165,0.36364,0.1,0.00043935,4390.5,0.00043919,4385.9,-0.00014451,0.14291,-0.00014578,-9.3781,0.28639
7220,6.1165,0.18182,0.1,0.00043838,4380.8,0.00043822,4375.9,-0.00014418,-0.0065017,-0.00014548,-9.7379,0.28508
7221,5.9322,5.8182,0.1,0.00043937,4390.7,0.00043913,4383.6,-0.00014429,-0.016797,-0.00014617,-14.121,0.26801
7222,5.9322,5.6364,0.1,0.00044088,4405.8,0.0004406,4397.4,-0.00014464,0.1214,-0.00014691,-16.878,0.26934
7223,5.9322,5.4545,0.1,0.00044257,4422.6,0.00044237,4416.9,-0.00014543,0.3793,-0.00014706,-11.861,0.27057
7224,5.9322,5.2727,0.1,0.0004443,4440,0.00044434,4441.1,-0.00014614,4.4571,-0.00014702,-2.1933,0.2717
7225,5.9322,5.0909,0.1,0.00044603,4457.3,0.00044644,4469.2,-0.0001451,24.621,-0.00014846,-0.66677,0.27274
7226,5.9322,4.9091,0.1,0.00044771,4474,0.00044858,4500.2,-0.00014327,53.245,-0.00015041,-0.44377,0.27368
7227,5.9322,4.7273,0.1,0.0004493,4489.9,0.00045073,4533.1,-0.00014088,87.999,-0.00015264,-0.34647,0.27453
7228,5.9322,4.5455,0.1,0.00045078,4504.7,0.0004528,4566.8,-0.00013806,127.32,-0.00015504,-0.28277,0.27528
7229,5.9322,4.3636,0.1,0.00045212,4518.1,0.00045476,4600.3,-0.00013495,169.44,-0.00015753,-0.23249,0.27595
7230,5.9322,4.1818,0.1,0.00045333,4530.2,0.00045657,4632.5,-0.00013172,212.38,-0.00016001,-0.18944,0.27652
7231,5.9322,4,0.1,0.0004544,4540.8,0.00045818,4662.4,-0.00012854,254.07,-0.00016237,-0.15192,0.27701
7232,5.9322,3.8182,0.1,0.00045531,4549.9,0.00045957,4689.1,-0.00012557,292.47,-0.00016452,-0.11985,0.27741
7233,5.9322,3.6364,0.1,0.00045606,4557.5,0.00046073,4711.5,-0.00012299,325.69,-0.00016635,-0.09369,0.27773
7234,5.9322,3.4545,0.1,0.00045665,4563.3,0.00046162,4729.1,-0.00012093,352.09,-0.0001678,-0.073873,0.27797
7235,5.9322,3.2727,0.1,0.00045705,4567.3,0.00046222,4741.2,-0.0001195,370.41,-0.00016881,-0.060631,0.27812
7236,5.9322,3.0909,0.1,0.00045725,4569.4,0.00046253,4747.4,-0.00011877,379.79,-0.00016932,-0.05402,0.2782
7237,5.9322,2.9091,0.1,0.00045725,4569.4,0.00046253,4747.4,-0.00011877,379.79,-0.00016932,-0.05402,0.2782
7238,5.9322,2.7273,0.1,0.00045705,4567.3,0.00046222,4741.2,-0.0001195,370.41,-0.00016881,-0.060631,0.27812
7239,5.9322,2.5455,0.1,0.00045665,4563.3,0.00046162,4729.1,-0.00012093,352.09,-0.0001678,-0.073873,0.27797
7240,5.9322,2.3636,0.1,0.00045606,4557.5,0.00046073,4711.5,-0.00012299,325.69,-0.00016635,-0.093691,0.27773
7241,5.9322,2.1818,0.1,0.00045531,4549.9,0.00045957,4689.1,-0.00012557,292.47,-0.00016452,-0.11985,0.27741
7242,5.9322,2,0.1,0.0004544,4540.8,0.00045818,4662.4,-0.00012854,254.07,-0.00016237,-0.15192,0.27701
7243,5.9322,1.8182,0.1,0.00045333,4530.2,0.00045657,4632.5,-0.00013172,212.38,-0.00016001,-0.18944,0.27652
7244,5.9322,1.6364,0.1,0.00045212,4518.1,0.00045476,4600.3,-0.00013495,169.44,-0.00015753,-0.23249,0.27595
7245,5.9322,1.4545,0.1,0.00045078,4504.7,0.0004528,4566.8,-0.00013806,127.32,-0.00015504,-0.28277,0.27528
7246,5.9322,1.2727,0.1,0.0004493,4489.9,0.00045073,4533.1,-0.00014088,87.999,-0.00015264,-0.34647,0.27453
7247,5.9322,1.0909,0.1,0.00044771,4474,0.00044858,4500.2,-0.00014327,53.245,-0.00015041,-0.44377,0.27368
7248,5.9322,0.90909,0.1,0.00044603,4457.3,0.00044644,4469.2,-0.0001451,24.621,-0.00014846,-0.66677,0.27274
7249,5.9322,0.72727,0.1,0.0004443,4440,0.00044434,4441.1,-0.00014614,4.4571,-0.00014702,-2.1933,0.2717
7250,5.9322,0.54545,0.1,0.00044257,4422.6,0.00044237,4416.9,-0.00014543,0.3793,-0.00014706,-11.861,0.27057
7251,5.9322,0.36364,0.1,0.00044088,4405.8,0.0004406,4397.4,-0.00014464,0.1214,-0.00014691,-16.878,0.26934
7252,5.9322,0.18182,0.1,0.00043937,4390.7,0.00043913,4383.6,-0.00014429,-0.016799,-0.00014617,-14.121,0.26801
7253,5.7478,5.8182,0.1,0.00043909,4387.9,0.00043876,4378.1,-0.00014393,-0.025248,-0.00014653,-19.541,0.25124
7254,5.7478,5.6364,0.1,0.00044126,4409.6,0.00044081,4396.5,-0.00014431,0.12813,-0.0001478,-26.063,0.25258
7255,5.7478,5.4545,0.1,0.00044368,4433.8,0.00044329,4422.3,-0.00014525,0.25933,-0.00014836,-23.1,0.25382
7256,5.7478,5.2727,0.1,0.00044622,4459.1,0.00044605,4454.3,-0.00014661,1.2239,-0.00014822,-10.893,0.25497
7257,5.7478,5.0909,0.1,0.00044881,4485,0.00044902,4491.4,-0.00014682,14.469,-0.00014895,-1.5504,0.25601
7258,5.7478,4.9091,0.1,0.00045138,4510.7,0.00045211,4532.5,-0.00014517,44.76,-0.00015123,-0.72443,0.25697
7259,5.7478,4.7273,0.1,0.00045388,4535.7,0.00045523,4576.3,-0.00014281,82.895,-0.00015391,-0.50713,0.25782
7260,5.7478,4.5455,0.1,0.00045628,4559.6,0.00045829,4621.4,-0.00013992,126.7,-0.00015684,-0.39397,0.25858
7261,5.7478,4.3636,0.1,0.00045852,4582,0.00046122,4666.4,-0.00013667,174.07,-0.00015988,-0.3157,0.25925
7262,5.7478,4.1818,0.1,0.00046058,4602.6,0.00046395,4709.7,-0.00013324,222.68,-0.00016291,-0.25386,0.25983
7263,5.7478,4,0.1,0.00046243,4621.1,0.00046643,4750.1,-0.00012983,270.07,-0.0001658,-0.20269,0.26032
7264,5.7478,3.8182,0.1,0.00046406,4637.4,0.0004686,4786.2,-0.00012665,313.8,-0.00016843,-0.16058,0.26072
7265,5.7478,3.6364,0.1,0.00046543,4651.1,0.00047041,4816.8,-0.00012387,351.65,-0.00017069,-0.12729,0.26104
7266,5.7478,3.4545,0.1,0.0004665,4661.8,0.00047182,4840.9,-0.00012166,381.72,-0.00017248,-0.10278,0.26128
7267,5.7478,3.2727,0.1,0.00046725,4669.3,0.00047279,4857.5,-0.00012012,402.56,-0.00017371,-0.086798,0.26144
7268,5.7478,3.0909,0.1,0.00046763,4673.1,0.00047328,4865.9,-0.00011933,413.22,-0.00017434,-0.078952,0.26152
7269,5.7478,2.9091,0.1,0.00046763,4673.1,0.00047328,4865.9,-0.00011933,413.22,-0.00017434,-0.078952,0.26152
7270,5.7478,2.7273,0.1,0.00046725,4669.3,0.00047279,4857.5,-0.00012012,402.56,-0.00017371,-0.086798,0.26144
7271,5.7478,2.5455,0.1,0.0004665,4661.8,0.00047182,4840.9,-0.00012166,381.72,-0.00017248,-0.10278,0.26128
7272,5.7478,2.3636,0.1,0.00046543,4651.1,0.00047041,4816.8,-0.00012387,351.65,-0.00017069,-0.12729,0.26104
7273,5.7478,2.1818,0.1,0.00046406,4637.4,0.0004686,4786.2,-0.00012665,313.8,-0.00016843,-0.16058,0.26072
7274,5.7478,2,0.1,0.00046243,4621.1,0.00046643,4750.1,-0.00012983,270.07,-0.0001658,-0.20269,0.26032
7275,5.7478,1.8182,0.1,0.00046058,4602.6,0.00046395,4709.7,-0.00013324,222.68,-0.00016291,-0.25387,0.25983
7276,5.7478,1.6364,0.1,0.00045852,4582,0.00046122,4666.4,-0.00013667,174.07,-0.00015988,-0.3157,0.25925
7277,5.7478,1.4545,0.1,0.00045628,4559.6,0.00045829,4621.4,-0.00013992,126.7,-0.00015684,-0.39397,0.25858
7278,5.7478,1.2727,0.1,0.00045388,4535.7,0.00045523,4576.3,-0.00014281,82.895,-0.00015391,-0.50713,0.25782
7279,5.7478,1.0909,0.1,0.00045138,4510.7,0.00045211,4532.5,-0.00014517,44.76,-0.00015123,-0.72443,0.25697
7280,5.7478,0.90909,0.1,0.00044881,4485,0.00044902,4491.4,-0.00014682,14.469,-0.00014895,-1.5504,0.25601
7281,5.7478,0.72727,0.1,0.00044622,4459.1,0.00044605,4454.3,-0.00014661,1.2239,-0.00014822,-10.893,0.25497
7282,5.7478,0.54545,0.1,0.00044368,4433.8,0.00044329,4422.3,-0.00014525,0.25933,-0.00014836,-23.1,0.25382
7283,5.7478,0.36364,0.1,0.00044126,4409.6,0.00044081,4396.5,-0.00014431,0.12813,-0.0001478,-26.063,0.25258
7284,5.7478,0.18182,0.1,0.00043909,4387.9,0.00043876,4378.1,-0.00014393,-0.025249,-0.00014653,-19.541,0.25124
7285,5.5634,5.8182,0.1,0.00043721,4369.1,0.00043676,4356,-0.00014299,-0.035865,-0.00014646,-26.117,0.23476
7286,5.5634,5.6364,0.1,0.00044017,4398.7,0.00043953,4380.1,-0.0001434,0.14877,-0.00014836,-37.05,0.23612
7287,5.5634,5.4545,0.1,0.0004435,4432,0.00044287,4413.6,-0.00014451,0.22605,-0.00014943,-36.713,0.23738
7288,5.5634,5.2727,0.1,0.00044705,4467.4,0.00044663,4455.3,-0.00014622,0.74494,-0.00014965,-25,0.23853
7289,5.5634,5.0909,0.1,0.00045074,4504.3,0.00045072,4503.8,-0.00014802,5.0994,-0.00014951,-6.0983,0.23959
7290,5.5634,4.9091,0.1,0.00045449,4541.7,0.00045502,4557.8,-0.0001471,33.655,-0.00015176,-1.3343,0.24056
7291,5.5634,4.7273,0.1,0.0004582,4578.9,0.00045942,4615.5,-0.00014488,75.075,-0.00015497,-0.77657,0.24142
7292,5.5634,4.5455,0.1,0.00046182,4615,0.00046378,4675.3,-0.000142,123.64,-0.00015853,-0.56177,0.24219
7293,5.5634,4.3636,0.1,0.00046526,4649.4,0.000468,4735,-0.00013866,176.76,-0.00016224,-0.43451,0.24287
7294,5.5634,4.1818,0.1,0.00046847,4681.5,0.00047198,4792.8,-0.00013508,231.68,-0.00016596,-0.34281,0.24345
7295,5.5634,4,0.1,0.00047141,4710.9,0.00047561,4846.9,-0.00013149,285.44,-0.00016951,-0.27132,0.24395
7296,5.5634,3.8182,0.1,0.00047402,4737,0.00047883,4895.5,-0.00012812,335.12,-0.00017275,-0.21508,0.24436
7297,5.5634,3.6364,0.1,0.00047625,4759.2,0.00048155,4936.8,-0.00012519,378.09,-0.00017553,-0.17239,0.24468
7298,5.5634,3.4545,0.1,0.00047801,4776.8,0.00048368,4969.4,-0.00012286,412.15,-0.00017773,-0.14216,0.24492
7299,5.5634,3.2727,0.1,0.00047924,4789,0.00048515,4991.9,-0.00012124,435.72,-0.00017925,-0.12314,0.24508
7300,5.5634,3.0909,0.1,0.00047987,4795.4,0.00048591,5003.5,-0.00012042,447.75,-0.00018003,-0.11406,0.24516
7301,5.5634,2.9091,0.1,0.00047987,4795.4,0.00048591,5003.5,-0.00012042,447.75,-0.00018003,-0.11406,0.24516
7302,5.5634,2.7273,0.1,0.00047924,4789,0.00048515,4991.9,-0.00012124,435.72,-0.00017925,-0.12314,0.24508
7303,5.5634,2.5455,0.1,0.00047801,4776.8,0.00048368,4969.4,-0.00012286,412.15,-0.00017773,-0.14216,0.24492
7304,5.5634,2.3636,0.1,0.00047625,4759.2,0.00048155,4936.8,-0.00012519,378.09,-0.00017553,-0.17239,0.24468
7305,5.5634,2.1818,0.1,0.00047402,4737,0.00047883,4895.5,-0.00012812,335.12,-0.00017275,-0.21509,0.24436
7306,5.5634,2,0.1,0.00047141,4710.9,0.00047561,4846.9,-0.00013149,285.44,-0.00016951,-0.27132,0.24395
7307,5.5634,1.8182,0.1,0.00046847,4681.5,0.00047198,4792.8,-0.00013508,231.68,-0.00016596,-0.34281,0.24345
7308,5.5634,1.6364,0.1,0.00046526,4649.4,0.000468,4735,-0.00013866,176.76,-0.00016224,-0.43451,0.24287
7309,5.5634,1.4545,0.1,0.00046182,4615,0.00046378,4675.3,-0.000142,123.64,-0.00015853,-0.56177,0.24219
7310,5.5634,1.2727,0.1,0.0004582,4578.9,0.00045942,4615.5,-0.00014488,75.075,-0.00015497,-0.77657,0.24142
7311,5.5634,1.0909,0.1,0.00045449,4541.7,0.00045502,4557.8,-0.0001471,33.655,-0.00015176,-1.3343,0.24056
7312,5.5634,0.90909,0.1,0.00045074,4504.3,0.00045072,4503.8,-0.00014802,5.0994,-0.00014951,-6.0983,0.23959
7313,5.5634,0.72727,0.1,0.00044705,4467.4,0.00044663,4455.3,-0.00014622,0.74494,-0.00014965,-25,0.23853
7314,5.5634,0.54545,0.1,0.0004435,4432,0.00044287,4413.6,-0.00014451,0.22605,-0.00014943,-36.713,0.23738
7315,5.5634,0.36364,0.1,0.00044017,4398.7,0.00043953,4380.1,-0.0001434,0.14877,-0.00014836,-37.05,0.23612
7316,5.5634,0.18182,0.1,0.00043721,4369.1,0.00043676,4356,-0.00014299,-0.035867,-0.00014646,-26.117,0.23476
7317,5.3791,5.8182,0.1,0.00043334,4330.4,0.00043275,4313.3,-0.00014132,-0.052579,-0.00014583,-33.951,0.21859
7318,5.3791,5.6364,0.1,0.00043723,4369.3,0.00043636,4344.2,-0.00014179,0.17925,-0.00014846,-49.895,0.21996
7319,5.3791,5.4545,0.1,0.00044167,4413.7,0.00044075,4387.2,-0.00014311,0.22651,-0.00015016,-52.754,0.22123
7320,5.3791,5.2727,0.1,0.00044649,4461.8,0.00044576,4440.8,-0.00014519,0.62815,-0.00015091,-42.35,0.2224
7321,5.3791,5.0909,0.1,0.00045159,4512.8,0.00045128,4503.6,-0.00014784,2.1481,-0.00015083,-20.358,0.22348
7322,5.3791,4.9091,0.1,0.00045686,4565.5,0.00045715,4573.9,-0.00014892,20.16,-0.00015202,-3.113,0.22446
7323,5.3791,4.7273,0.1,0.00046217,4618.6,0.0004632,4649.5,-0.0001471,63.888,-0.00015578,-1.2731,0.22533
7324,5.3791,4.5455,0.1,0.00046741,4670.9,0.00046928,4728,-0.00014436,117.33,-0.00016009,-0.82698,0.22612
7325,5.3791,4.3636,0.1,0.00047245,4721.3,0.0004752,4806.8,-0.00014103,176.67,-0.00016463,-0.60893,0.2268
7326,5.3791,4.1818,0.1,0.00047722,4768.9,0.00048082,4883.5,-0.00013738,238.57,-0.00016919,-0.4678,0.2274
7327,5.3791,4,0.1,0.00048162,4812.9,0.00048601,4955.4,-0.00013367,299.43,-0.00017357,-0.36503,0.2279
7328,5.3791,3.8182,0.1,0.00048557,4852.4,0.00049064,5020.3,-0.00013018,355.71,-0.00017756,-0.28829,0.22831
7329,5.3791,3.6364,0.1,0.00048897,4886.3,0.00049458,5075.7,-0.00012715,404.26,-0.00018099,-0.23286,0.22864
7330,5.3791,3.4545,0.1,0.00049167,4913.4,0.0004977,5119.6,-0.00012477,442.59,-0.0001837,-0.19568,0.22889
7331,5.3791,3.2727,0.1,0.00049357,4932.3,0.00049987,5150,-0.00012313,468.98,-0.00018557,-0.17356,0.22905
7332,5.3791,3.0909,0.1,0.00049455,4942.1,0.00050099,5165.6,-0.0001223,482.41,-0.00018653,-0.16345,0.22913
7333,5.3791,2.9091,0.1,0.00049455,4942.1,0.00050099,5165.6,-0.0001223,482.41,-0.00018653,-0.16345,0.22913
7334,5.3791,2.7273,0.1,0.00049357,4932.3,0.00049987,5150,-0.00012313,468.98,-0.00018557,-0.17356,0.22905
7335,5.3791,2.5455,0.1,0.00049167,4913.4,0.0004977,5119.6,-0.00012477,442.59,-0.0001837,-0.19568,0.22889
7336,5.3791,2.3636,0.1,0.00048897,4886.3,0.00049458,5075.7,-0.00012715,404.26,-0.00018099,-0.23286,0.22864
7337,5.3791,2.1818,0.1,0.00048557,4852.4,0.00049064,5020.3,-0.00013018,355.71,-0.00017756,-0.28829,0.22831
7338,5.3791,2,0.1,0.00048162,4812.9,0.00048601,4955.4,-0.00013367,299.43,-0.00017357,-0.36504,0.2279
7339,5.3791,1.8182,0.1,0.00047722,4768.9,0.00048082,4883.5,-0.00013738,238.57,-0.00016919,-0.4678,0.2274
7340,5.3791,1.6364,0.1,0.00047245,4721.3,0.0004752,4806.8,-0.00014103,176.67,-0.00016463,-0.60893,0.2268
7341,5.3791,1.4545,0.1,0.00046741,4670.9,0.00046928,4728,-0.00014436,117.33,-0.00016009,-0.82698,0.22612
7342,5.3791,1.2727,0.1,0.00046217,4618.6,0.0004632,4649.5,-0.0001471,63.888,-0.00015578,-1.2731,0.22533
7343,5.3791,1.0909,0.1,0.00045686,4565.5,0.00045715,4573.9,-0.00014892,20.16,-0.00015202,-3.113,0.22446
7344,5.3791,0.90909,0.1,0.00045159,4512.8,0.00045128,4503.6,-0.00014784,2.1481,-0.00015083,-20.358,0.22348
7345,5.3791,0.72727,0.1,0.00044649,4461.8,0.00044576,4440.8,-0.00014519,0.62814,-0.00015091,-42.35,0.2224
7346,5.3791,0.54545,0.1,0.00044167,4413.7,0.00044075,4387.2,-0.00014311,0.22651,-0.00015016,-52.754,0.22123
7347,5.3791,0.36364,0.1,0.00043723,4369.3,0.00043636,4344.2,-0.00014179,0.17925,-0.00014846,-49.895,0.21996
7348,5.3791,0.18182,0.1,0.00043334,4330.4,0.00043275,4313.3,-0.00014132,-0.05258,-0.00014583,-33.951,0.21859
7349,5.1947,5.8182,0.1,0.00042699,4267,0.00042624,4245.2,-0.00013877,-0.079574,-0.0001445,-43.101,0.2027
7350,5.1947,5.6364,0.1,0.00043196,4316.7,0.00043083,4284.1,-0.00013932,0.21816,-0.00014794,-64.539,0.20409
7351,5.1947,5.4545,0.1,0.00043775,4374.5,0.0004365,4338.5,-0.00014089,0.24996,-0.0001504,-71.198,0.20538
7352,5.1947,5.2727,0.1,0.00044415,4438.4,0.00044306,4407,-0.00014339,0.61644,-0.00015184,-62.867,0.20658
7353,5.1947,5.0909,0.1,0.00045105,4507.4,0.00045037,4487.7,-0.0001467,1.5308,-0.00015232,-40.725,0.20767
7354,5.1947,4.9091,0.1,0.0004583,4579.9,0.00045825,4578.5,-0.00015002,8.1965,-0.00015255,-10.798,0.20867
7355,5.1947,4.7273,0.1,0.00046571,4653.9,0.00046647,4676.8,-0.0001495,48.577,-0.00015628,-2.3501,0.20956
7356,5.1947,4.5455,0.1,0.00047308,4727.6,0.00047478,4779.3,-0.00014712,106.56,-0.00016147,-1.2774,0.21036
7357,5.1947,4.3636,0.1,0.00048026,4799.2,0.00048294,4882.7,-0.00014395,172.51,-0.00016703,-0.87574,0.21106
7358,5.1947,4.1818,0.1,0.00048709,4867.5,0.00049074,4983.7,-0.00014033,242.11,-0.00017263,-0.64774,0.21167
7359,5.1947,4,0.1,0.00049344,4931,0.00049799,5078.9,-0.00013659,310.9,-0.00017803,-0.49431,0.21218
7360,5.1947,3.8182,0.1,0.0004992,4988.5,0.0005045,5165,-0.00013308,374.48,-0.00018297,-0.38661,0.21261
7361,5.1947,3.6364,0.1,0.00050418,5038.3,0.0005101,5238.9,-0.00013006,429.03,-0.0001872,-0.31365,0.21294
7362,5.1947,3.4545,0.1,0.00050818,5078.3,0.00051456,5297.6,-0.00012772,471.77,-0.00019055,-0.26819,0.21319
7363,5.1947,3.2727,0.1,0.00051101,5106.6,0.00051768,5338.4,-0.00012615,500.94,-0.00019286,-0.24334,0.21336
7364,5.1947,3.0909,0.1,0.00051247,5121.2,0.00051929,5359.4,-0.00012537,515.69,-0.00019403,-0.23285,0.21344
7365,5.1947,2.9091,0.1,0.00051247,5121.2,0.00051929,5359.4,-0.00012537,515.69,-0.00019403,-0.23285,0.21344
7366,5.1947,2.7273,0.1,0.00051101,5106.6,0.00051768,5338.4,-0.00012615,500.94,-0.00019286,-0.24334,0.21336
7367,5.1947,2.5455,0.1,0.00050819,5078.3,0.00051456,5297.6,-0.00012772,471.77,-0.00019055,-0.26819,0.21319
7368,5.1947,2.3636,0.1,0.00050418,5038.3,0.0005101,5238.9,-0.00013006,429.03,-0.0001872,-0.31365,0.21294
7369,5.1947,2.1818,0.1,0.0004992,4988.5,0.0005045,5165,-0.00013308,374.48,-0.00018297,-0.38661,0.21261
7370,5.1947,2,0.1,0.00049344,4931,0.00049799,5078.9,-0.00013659,310.9,-0.00017803,-0.49431,0.21218
7371,5.1947,1.8182,0.1,0.00048709,4867.5,0.00049074,4983.7,-0.00014033,242.11,-0.00017263,-0.64774,0.21167
7372,5.1947,1.6364,0.1,0.00048026,4799.2,0.00048294,4882.7,-0.00014395,172.51,-0.00016703,-0.87574,0.21106
7373,5.1947,1.4545,0.1,0.00047308,4727.6,0.00047478,4779.3,-0.00014712,106.56,-0.00016147,-1.2774,0.21036
7374,5.1947,1.2727,0.1,0.00046571,4653.9,0.00046647,4676.8,-0.0001495,48.577,-0.00015628,-2.3501,0.20956
7375,5.1947,1.0909,0.1,0.0004583,4579.9,0.00045825,4578.5,-0.00015002,8.1965,-0.00015255,-10.798,0.20867
7376,5.1947,0.90909,0.1,0.00045105,4507.4,0.00045037,4487.7,-0.0001467,1.5308,-0.00015232,-40.725,0.20767
7377,5.1947,0.72727,0.1,0.00044415,4438.4,0.00044306,4407,-0.00014339,0.61643,-0.00015184,-62.867,0.20658
7378,5.1947,0.54545,0.1,0.00043775,4374.5,0.0004365,4338.5,-0.00014089,0.24996,-0.0001504,-71.198,0.20538
7379,5.1947,0.36364,0.1,0.00043196,4316.7,0.00043083,4284.1,-0.00013932,0.21815,-0.00014794,-64.539,0.20409
7380,5.1947,0.18182,0.1,0.00042699,4267,0.00042624,4245.2,-0.00013877,-0.079576,-0.0001445,-43.101,0.2027
7381,5.0103,5.8182,0.1,0.00041762,4173.3,0.00041668,4146.2,-0.00013516,-0.12078,-0.00014227,-53.545,0.18711
7382,5.0103,5.6364,0.1,0.00042381,4235.2,0.00042238,4194.4,-0.00013582,0.26514,-0.0001466,-80.736,0.18852
7383,5.0103,5.4545,0.1,0.0004312,4309,0.00042957,4262.5,-0.0001377,0.29625,-0.00014996,-91.856,0.18983
7384,5.0103,5.2727,0.1,0.00043956,4392.6,0.00043803,4348.9,-0.00014069,0.66232,-0.0001523,-86.624,0.19105
7385,5.0103,5.0909,0.1,0.00044876,4484.5,0.00044762,4451.8,-0.0001447,1.3655,-0.00015365,-65.933,0.19217
7386,5.0103,4.9091,0.1,0.00045857,4582.5,0.00045809,4568.5,-0.00014942,3.9652,-0.00015418,-31.773,0.19319
7387,5.0103,4.7273,0.1,0.00046872,4683.9,0.00046911,4695.6,-0.00015197,29.012,-0.00015658,-5.5613,0.19411
7388,5.0103,4.5455,0.1,0.00047891,4785.8,0.00048033,4828.9,-0.00015043,89.568,-0.00016263,-2.1436,0.19493
7389,5.0103,4.3636,0.1,0.00048889,4885.5,0.00049142,4963.9,-0.00014764,162.28,-0.00016941,-1.3129,0.19565
7390,5.0103,4.1818,0.1,0.00049845,4981,0.00050208,5096.4,-0.00014421,240.41,-0.00017633,-0.9188,0.19627
7391,5.0103,4,0.1,0.0005074,5070.5,0.00051205,5221.7,-0.00014058,318.14,-0.00018301,-0.67875,0.1968
7392,5.0103,3.8182,0.1,0.00051556,5152,0.00052107,5335.6,-0.00013717,389.81,-0.00018912,-0.52139,0.19724
7393,5.0103,3.6364,0.1,0.00052267,5223.1,0.00052887,5433.6,-0.00013432,450.72,-0.00019436,-0.42185,0.19759
7394,5.0103,3.4545,0.1,0.00052844,5280.7,0.00053513,5511.8,-0.00013219,497.76,-0.00019849,-0.36594,0.19785
7395,5.0103,3.2727,0.1,0.00053252,5321.5,0.00053954,5566.3,-0.00013083,529.4,-0.00020133,-0.3395,0.19802
7396,5.0103,3.0909,0.1,0.00053464,5342.8,0.00054182,5594.3,-0.00013017,545.21,-0.00020278,-0.32997,0.19811
7397,5.0103,2.9091,0.1,0.00053464,5342.8,0.00054182,5594.3,-0.00013017,545.21,-0.00020278,-0.32997,0.19811
7398,5.0103,2.7273,0.1,0.00053252,5321.5,0.00053954,5566.3,-0.00013083,529.4,-0.00020133,-0.3395,0.19802
7399,5.0103,2.5455,0.1,0.00052844,5280.7,0.00053513,5511.8,-0.00013219,497.76,-0.00019849,-0.36594,0.19785
7400,5.0103,2.3636,0.1,0.00052267,5223.1,0.00052887,5433.6,-0.00013432,450.72,-0.00019436,-0.42185,0.19759
7401,5.0103,2.1818,0.1,0.00051556,5152,0.00052107,5335.6,-0.00013717,389.81,-0.00018912,-0.52139,0.19724
7402,5.0103,2,0.1,0.0005074,5070.5,0.00051205,5221.7,-0.00014058,318.14,-0.00018301,-0.67875,0.1968
7403,5.0103,1.8182,0.1,0.00049845,4981,0.00050208,5096.4,-0.00014421,240.41,-0.00017633,-0.9188,0.19627
7404,5.0103,1.6364,0.1,0.00048889,4885.5,0.00049142,4963.9,-0.00014764,162.27,-0.00016941,-1.3129,0.19565
7405,5.0103,1.4545,0.1,0.00047891,4785.8,0.00048033,4828.9,-0.00015043,89.568,-0.00016263,-2.1436,0.19493
7406,5.0103,1.2727,0.1,0.00046872,4683.9,0.00046911,4695.6,-0.00015197,29.012,-0.00015658,-5.5613,0.19411
7407,5.0103,1.0909,0.1,0.00045857,4582.5,0.00045809,4568.5,-0.00014942,3.9651,-0.00015418,-31.773,0.19319
7408,5.0103,0.90909,0.1,0.00044876,4484.5,0.00044762,4451.8,-0.0001447,1.3655,-0.00015365,-65.933,0.19217
7409,5.0103,0.72727,0.1,0.00043956,4392.6,0.00043803,4348.9,-0.00014069,0.66231,-0.0001523,-86.624,0.19105
7410,5.0103,0.54545,0.1,0.0004312,4309,0.00042957,4262.5,-0.0001377,0.29625,-0.00014996,-91.856,0.18983
7411,5.0103,0.36364,0.1,0.00042381,4235.2,0.00042238,4194.4,-0.00013582,0.26514,-0.0001466,-80.736,0.18852
7412,5.0103,0.18182,0.1,0.00041762,4173.3,0.00041668,4146.2,-0.00013516,-0.12078,-0.00014227,-53.545,0.18711
7413,4.826,5.8182,0.1,0.00040457,4043,0.00040342,4009.9,-0.00013029,-0.17746,-0.00013893,-65.128,0.1718
7414,4.826,5.6364,0.1,0.0004121,4118.2,0.00041035,4068.5,-0.00013109,0.32151,-0.00014417,-97.969,0.17323
7415,4.826,5.4545,0.1,0.00042138,4210.9,0.00041933,4152.8,-0.00013332,0.37107,-0.00014859,-114.3,0.17457
7416,4.826,5.2727,0.1,0.00043216,4318.6,0.00043013,4261,-0.00013688,0.75672,-0.00015211,-113.68,0.17582
7417,4.826,5.0909,0.1,0.00044427,4439.7,0.00044257,4391.2,-0.00014169,1.3634,-0.00015472,-96.563,0.17697
7418,4.826,4.9091,0.1,0.0004574,4570.9,0.00045634,4540.3,-0.00014756,2.8652,-0.00015636,-63.251,0.17802
7419,4.826,4.7273,0.1,0.00047114,4708.1,0.00047099,4703.9,-0.00015352,11.543,-0.00015771,-19.926,0.17897
7420,4.826,4.5455,0.1,0.00048504,4847,0.00048602,4876.5,-0.00015449,63.982,-0.00016358,-4.2633,0.17982
7421,4.826,4.3636,0.1,0.00049871,4983.6,0.00050094,5052.4,-0.00015248,142.86,-0.00017177,-2.1144,0.18057
7422,4.826,4.1818,0.1,0.00051185,5114.9,0.00051535,5225.6,-0.00014945,230.49,-0.00018031,-1.3515,0.18122
7423,4.826,4,0.1,0.00052422,5238.5,0.00052889,5390,-0.00014609,318.54,-0.00018861,-0.94458,0.18177
7424,4.826,3.8182,0.1,0.00053556,5351.9,0.00054121,5540,-0.00014296,399.32,-0.0001962,-0.70232,0.18223
7425,4.826,3.6364,0.1,0.00054552,5451.4,0.00055194,5669.5,-0.00014049,466.82,-0.00020269,-0.56523,0.18259
7426,4.826,3.4545,0.1,0.00055364,5532.5,0.00056061,5772.9,-0.00013882,517.68,-0.00020778,-0.49714,0.18287
7427,4.826,3.2727,0.1,0.00055941,5590.3,0.00056673,5845.1,-0.00013787,551,-0.00021126,-0.47105,0.18305
7428,4.826,3.0909,0.1,0.00056242,5620.4,0.00056991,5882.2,-0.00013746,567.32,-0.00021303,-0.4647,0.18314
7429,4.826,2.9091,0.1,0.00056242,5620.4,0.00056991,5882.2,-0.00013746,567.32,-0.00021303,-0.4647,0.18314
7430,4.826,2.7273,0.1,0.00055941,5590.3,0.00056673,5845.1,-0.00013787,551,-0.00021126,-0.47105,0.18305
7431,4.826,2.5455,0.1,0.00055364,5532.5,0.00056061,5772.9,-0.00013882,517.68,-0.00020778,-0.49714,0.18287
7432,4.826,2.3636,0.1,0.00054552,5451.4,0.00055194,5669.5,-0.00014049,466.82,-0.00020269,-0.56523,0.18259
7433,4.826,2.1818,0.1,0.00053556,5351.9,0.00054121,5540,-0.00014296,399.32,-0.0001962,-0.70232,0.18223
7434,4.826,2,0.1,0.00052422,5238.5,0.00052889,5390,-0.00014609,318.54,-0.00018861,-0.94459,0.18177
7435,4.826,1.8182,0.1,0.00051185,5114.9,0.00051535,5225.6,-0.00014945,230.49,-0.00018031,-1.3515,0.18122
7436,4.826,1.6364,0.1,0.00049871,4983.6,0.00050094,5052.4,-0.00015248,142.86,-0.00017177,-2.1144,0.18057
7437,4.826,1.4545,0.1,0.00048504,4847,0.00048602,4876.5,-0.00015449,63.982,-0.00016358,-4.2633,0.17982
7438,4.826,1.2727,0.1,0.00047114,4708.1,0.00047099,4703.9,-0.00015352,11.543,-0.00015771,-19.926,0.17897
7439,4.826,1.0909,0.1,0.0004574,4570.9,0.00045634,4540.3,-0.00014756,2.8652,-0.00015636,-63.251,0.17802
7440,4.826,0.90909,0.1,0.00044427,4439.7,0.00044257,4391.2,-0.00014169,1.3634,-0.00015472,-96.563,0.17697
7441,4.826,0.72727,0.1,0.00043216,4318.6,0.00043013,4261,-0.00013688,0.75672,-0.00015211,-113.68,0.17582
7442,4.826,0.54545,0.1,0.00042138,4210.9,0.00041933,4152.8,-0.00013332,0.37106,-0.00014859,-114.3,0.17457
7443,4.826,0.36364,0.1,0.0004121,4118.2,0.00041035,4068.5,-0.00013109,0.32151,-0.00014417,-97.969,0.17323
7444,4.826,0.18182,0.1,0.00040457,4043,0.00040342,4009.9,-0.00013029,-0.17746,-0.00013893,-65.128,0.1718
7445,4.6416,5.8182,0.1,0.00038714,3868.7,0.00038575,3829.2,-0.00012392,-0.24356,-0.0001342,-77.493,0.15676
7446,4.6416,5.6364,0.1,0.00039608,3958.1,0.000394,3899.3,-0.00012492,0.39176,-0.00014032,-115.36,0.15822
7447,4.6416,5.4545,0.1,0.00040757,4072.9,0.00040505,4002.4,-0.00012757,0.48534,-0.00014598,-137.83,0.1596
7448,4.6416,5.2727,0.1,0.00042131,4210.2,0.00041869,4136.7,-0.00013176,0.90288,-0.00015106,-144.11,0.16088
7449,4.6416,5.0909,0.1,0.00043711,4368.1,0.0004347,4300.3,-0.00013744,1.4553,-0.00015546,-133.9,0.16207
7450,4.6416,4.9091,0.1,0.00045454,4542.2,0.00045268,4489.6,-0.00014452,2.498,-0.00015892,-105.73,0.16316
7451,4.6416,4.7273,0.1,0.00047297,4726.5,0.00047203,4699.3,-0.00015267,5.6061,-0.0001613,-59.219,0.16415
7452,4.6416,4.5455,0.1,0.00049175,4914.1,0.00049202,4922.4,-0.00015912,29.966,-0.00016485,-13.089,0.16504
7453,4.6416,4.3636,0.1,0.00051028,5099.3,0.00051198,5151.1,-0.00015902,109.47,-0.00017412,-3.9625,0.16582
7454,4.6416,4.1818,0.1,0.00052812,5277.6,0.0005313,5377.2,-0.00015672,207.61,-0.00018464,-2.1435,0.16651
7455,4.6416,4,0.1,0.00054496,5445.9,0.00054952,5592.6,-0.00015381,308.04,-0.00019499,-1.3856,0.1671
7456,4.6416,3.8182,0.1,0.00056048,5600.9,0.00056618,5789.4,-0.00015118,399.43,-0.00020447,-0.9809,0.16759
7457,4.6416,3.6364,0.1,0.00057419,5737.9,0.00058076,5959.6,-0.00014938,473.66,-0.00021252,-0.76163,0.16798
7458,4.6416,3.4545,0.1,0.00058541,5850,0.00059258,6095.4,-0.00014851,527.23,-0.00021877,-0.67068,0.16827
7459,4.6416,3.2727,0.1,0.00059341,5930,0.00060094,6190.1,-0.00014828,560.7,-0.00022299,-0.64824,0.16846
7460,4.6416,3.0909,0.1,0.00059758,5971.7,0.00060528,6238.6,-0.00014831,576.49,-0.00022512,-0.64789,0.16856
7461,4.6416,2.9091,0.1,0.00059758,5971.7,0.00060528,6238.6,-0.00014831,576.49,-0.00022512,-0.64789,0.16856
7462,4.6416,2.7273,0.1,0.00059341,5930,0.00060094,6190.1,-0.00014828,560.7,-0.00022299,-0.64824,0.16846
7463,4.6416,2.5455,0.1,0.00058541,5850,0.00059258,6095.4,-0.00014851,527.23,-0.00021877,-0.67068,0.16827
7464,4.6416,2.3636,0.1,0.00057419,5737.9,0.00058076,5959.6,-0.00014938,473.66,-0.00021252,-0.76163,0.16798
7465,4.6416,2.1818,0.1,0.00056048,5600.9,0.00056618,5789.4,-0.00015118,399.43,-0.00020447,-0.9809,0.16759
7466,4.6416,2,0.1,0.00054496,5445.9,0.00054952,5592.6,-0.00015381,308.04,-0.00019499,-1.3856,0.1671
7467,4.6416,1.8182,0.1,0.00052812,5277.6,0.0005313,5377.2,-0.00015672,207.61,-0.00018464,-2.1435,0.16651
7468,4.6416,1.6364,0.1,0.00051028,5099.3,0.00051198,5151.1,-0.00015902,109.47,-0.00017412,-3.9625,0.16582
7469,4.6416,1.4545,0.1,0.00049175,4914.1,0.00049202,4922.4,-0.00015912,29.965,-0.00016485,-13.089,0.16504
7470,4.6416,1.2727,0.1,0.00047297,4726.5,0.00047203,4699.3,-0.00015267,5.6061,-0.0001613,-59.219,0.16415
7471,4.6416,1.0909,0.1,0.00045454,4542.2,0.00045268,4489.6,-0.00014452,2.498,-0.00015892,-105.73,0.16316
7472,4.6416,0.90909,0.1,0.00043711,4368.1,0.0004347,4300.3,-0.00013744,1.4553,-0.00015546,-133.9,0.16207
7473,4.6416,0.72727,0.1,0.00042131,4210.2,0.00041869,4136.7,-0.00013176,0.90288,-0.00015106,-144.11,0.16088
7474,4.6416,0.54545,0.1,0.00040757,4072.9,0.00040505,4002.4,-0.00012757,0.48534,-0.00014598,-137.83,0.1596
7475,4.6416,0.36364,0.1,0.00039608,3958.1,0.000394,3899.3,-0.00012492,0.39176,-0.00014032,-115.36,0.15822
7476,4.6416,0.18182,0.1,0.00038714,3868.7,0.00038575,3829.2,-0.00012392,-0.24356,-0.0001342,-77.493,0.15676
7477,4.4572,5.8182,0.1,0.00036454,3642.9,0.00036292,3596.9,-0.00011584,-0.29039,-0.00012778,-89.998,0.14198
7478,4.4572,5.6364,0.1,0.00037492,3746.6,0.00037251,3679.3,-0.00011711,0.4936,-0.00013469,-131.61,0.14348
7479,4.4572,5.4545,0.1,0.00038896,3886.9,0.00038597,3803.9,-0.00012022,0.66254,-0.0001418,-161.48,0.14489
7480,4.4572,5.2727,0.1,0.00040633,4060.5,0.00040302,3969,-0.00012507,1.115,-0.00014893,-178.19,0.14622
7481,4.4572,5.0909,0.1,0.00042679,4265,0.00042346,4172.8,-0.00013168,1.625,-0.00015588,-180.19,0.14745
7482,4.4572,4.9091,0.1,0.00044976,4494.5,0.00044679,4411.7,-0.00014005,2.4001,-0.00016212,-163.44,0.1486
7483,4.4572,4.7273,0.1,0.00047437,4740.4,0.00047221,4679.4,-0.00015006,3.9685,-0.000167,-123.32,0.14964
7484,4.4572,4.5455,0.1,0.0004996,4992.5,0.00049871,4967.2,-0.0001611,9.661,-0.00017031,-59.559,0.15058
7485,4.4572,4.3636,0.1,0.00052454,5241.8,0.00052529,5264.5,-0.00016776,57.199,-0.00017684,-11.043,0.15142
7486,4.4572,4.1818,0.1,0.00054855,5481.7,0.00055108,5560,-0.00016703,164.33,-0.00018942,-3.8777,0.15216
7487,4.4572,4,0.1,0.00057123,5708.3,0.00057544,5842.2,-0.0001648,280.43,-0.00020239,-2.0667,0.15279
7488,4.4572,3.8182,0.1,0.00059219,5917.8,0.00059777,6100.2,-0.00016288,384.91,-0.00021429,-1.3087,0.15332
7489,4.4572,3.6364,0.1,0.00061077,6103.5,0.00061734,6322.5,-0.00016214,465.85,-0.00022427,-1.0152,0.15375
7490,4.4572,3.4545,0.1,0.00062598,6255.5,0.00063318,6498.8,-0.00016254,520.07,-0.00023187,-0.90534,0.15407
7491,4.4572,3.2727,0.1,0.00063679,6363.5,0.00064435,6620.6,-0.00016346,551.06,-0.00023692,-0.88003,0.15429
7492,4.4572,3.0909,0.1,0.0006424,6419.6,0.00065012,6682.7,-0.00016415,564.6,-0.00023941,-0.88661,0.15439
7493,4.4572,2.9091,0.1,0.0006424,6419.6,0.00065012,6682.7,-0.00016415,564.6,-0.00023941,-0.88661,0.15439
7494,4.4572,2.7273,0.1,0.00063679,6363.5,0.00064435,6620.6,-0.00016346,551.06,-0.00023692,-0.88003,0.15429
7495,4.4572,2.5455,0.1,0.00062598,6255.5,0.00063318,6498.8,-0.00016254,520.07,-0.00023187,-0.90534,0.15407
7496,4.4572,2.3636,0.1,0.00061077,6103.5,0.00061734,6322.5,-0.00016214,465.85,-0.00022427,-1.0152,0.15375
7497,4.4572,2.1818,0.1,0.00059219,5917.8,0.00059777,6100.2,-0.00016288,384.91,-0.00021429,-1.3087,0.15332
7498,4.4572,2,0.1,0.00057123,5708.3,0.00057544,5842.3,-0.0001648,280.43,-0.00020239,-2.0667,0.15279
7499,4.4572,1.8182,0.1,0.00054855,5481.7,0.00055108,5560,-0.00016703,164.33,-0.00018942,-3.8777,0.15216
7500,4.4572,1.6364,0.1,0.00052454,5241.8,0.00052529,5264.5,-0.00016776,57.198,-0.00017684,-11.043,0.15142
7501,4.4572,1.4545,0.1,0.0004996,4992.5,0.00049871,4967.2,-0.0001611,9.661,-0.00017031,-59.559,0.15058
7502,4.4572,1.2727,0.1,0.00047437,4740.4,0.00047221,4679.4,-0.00015006,3.9685,-0.000167,-123.32,0.14964
7503,4.4572,1.0909,0.1,0.00044976,4494.5,0.00044679,4411.7,-0.00014005,2.4001,-0.00016212,-163.44,0.1486
7504,4.4572,0.90909,0.1,0.00042679,4265,0.00042346,4172.8,-0.00013168,1.625,-0.00015588,-180.19,0.14745
7505,4.4572,0.72727,0.1,0.00040633,4060.5,0.00040302,3969,-0.00012507,1.115,-0.00014893,-178.19,0.14622
7506,4.4572,0.54545,0.1,0.00038896,3886.9,0.00038597,3803.9,-0.00012022,0.66254,-0.0001418,-161.48,0.14489
7507,4.4572,0.36364,0.1,0.00037492,3746.6,0.00037251,3679.3,-0.00011711,0.4936,-0.00013469,-131.61,0.14348
7508,4.4572,0.18182,0.1,0.00036454,3642.9,0.00036292,3596.9,-0.00011584,-0.29039,-0.00012778,-89.998,0.14198
7509,4.2729,5.8182,0.1,0.00033604,3358.1,0.00033419,3306,-0.00010584,-0.25367,-0.00011934,-101.64,0.12744
7510,4.2729,5.6364,0.1,0.00034781,3475.7,0.00034512,3401.2,-0.00010746,0.66293,-0.00012685,-145.02,0.12898
7511,4.2729,5.4545,0.1,0.00036479,3645.4,0.00036132,3550.2,-0.00011106,0.93324,-0.00013571,-184.3,0.13044
7512,4.2729,5.2727,0.1,0.00038659,3863.3,0.00038246,3750.9,-0.00011656,1.4008,-0.00014562,-216.89,0.13182
7513,4.2729,5.0909,0.1,0.00041293,4126.4,0.00040836,4002.4,-0.00012408,1.8547,-0.00015618,-239.32,0.13312
7514,4.2729,4.9091,0.1,0.00044304,4427.3,0.00043841,4301.4,-0.00013375,2.4413,-0.00016653,-243.91,0.13433
7515,4.2729,4.7273,0.1,0.00047573,4754,0.00047164,4641.4,-0.00014565,3.3816,-0.00017546,-220.64,0.13545
7516,4.2729,4.5455,0.1,0.00050955,5092,0.0005067,5012.2,-0.00015966,5.419,-0.0001818,-160.91,0.13646
7517,4.2729,4.3636,0.1,0.00054306,5426.9,0.00054211,5399.8,-0.00017468,14.111,-0.00018552,-67.377,0.13738
7518,4.2729,4.1818,0.1,0.00057523,5748.3,0.00057652,5787.7,-0.00018171,90.672,-0.00019517,-10.514,0.13818
7519,4.2729,4,0.1,0.00060557,6051.5,0.00060901,6159.1,-0.00018067,225.75,-0.00021124,-3.9362,0.13888
7520,4.2729,3.8182,0.1,0.0006336,6331.6,0.00063875,6497.1,-0.00017968,347.74,-0.00022626,-2.2362,0.13947
7521,4.2729,3.6364,0.1,0.00065836,6579.1,0.00066466,6785.2,-0.00018044,435.53,-0.00023859,-1.4049,0.13994
7522,4.2729,3.4545,0.1,0.00067845,6779.8,0.00068539,7009.5,-0.00018271,486.92,-0.00024767,-1.1808,0.1403
7523,4.2729,3.2727,0.1,0.00069251,6920.3,0.00069976,7161.1,-0.00018527,511.32,-0.00025348,-1.1736,0.14055
7524,4.2729,3.0909,0.1,0.0006997,6992.1,0.00070707,7237,-0.0001869,520.1,-0.00025628,-1.1697,0.14067
7525,4.2729,2.9091,0.1,0.0006997,6992.1,0.00070707,7237,-0.0001869,520.1,-0.00025628,-1.1697,0.14067
7526,4.2729,2.7273,0.1,0.00069251,6920.3,0.00069976,7161.1,-0.00018527,511.32,-0.00025348,-1.1736,0.14055
7527,4.2729,2.5455,0.1,0.00067845,6779.8,0.00068539,7009.5,-0.00018271,486.92,-0.00024767,-1.1808,0.1403
7528,4.2729,2.3636,0.1,0.00065836,6579.1,0.00066466,6785.2,-0.00018044,435.53,-0.00023859,-1.4049,0.13994
7529,4.2729,2.1818,0.1,0.0006336,6331.6,0.00063875,6497.1,-0.00017968,347.74,-0.00022626,-2.2362,0.13947
7530,4.2729,2,0.1,0.00060557,6051.5,0.00060901,6159.1,-0.00018067,225.75,-0.00021124,-3.9362,0.13888
7531,4.2729,1.8182,0.1,0.00057523,5748.3,0.00057653,5787.7,-0.00018171,90.672,-0.00019517,-10.514,0.13818
7532,4.2729,1.6364,0.1,0.00054306,5426.9,0.00054211,5399.8,-0.00017468,14.111,-0.00018552,-67.377,0.13738
7533,4.2729,1.4545,0.1,0.00050955,5092,0.0005067,5012.2,-0.00015966,5.419,-0.0001818,-160.91,0.13646
7534,4.2729,1.2727,0.1,0.00047573,4754,0.00047164,4641.4,-0.00014565,3.3816,-0.00017546,-220.64,0.13545
7535,4.2729,1.0909,0.1,0.00044304,4427.3,0.00043841,4301.4,-0.00013375,2.4413,-0.00016653,-243.91,0.13433
7536,4.2729,0.90909,0.1,0.00041293,4126.4,0.00040836,4002.4,-0.00012408,1.8547,-0.00015618,-239.32,0.13312
7537,4.2729,0.72727,0.1,0.00038659,3863.3,0.00038246,3750.9,-0.00011656,1.4008,-0.00014562,-216.89,0.13182
7538,4.2729,0.54545,0.1,0.00036479,3645.4,0.00036132,3550.2,-0.00011106,0.93324,-0.00013571,-184.3,0.13044
7539,4.2729,0.36364,0.1,0.00034781,3475.7,0.00034512,3401.2,-0.00010746,0.66293,-0.00012685,-145.02,0.12898
7540,4.2729,0.18182,0.1,0.00033604,3358.1,0.00033419,3306,-0.00010584,-0.25367,-0.00011934,-101.64,0.12744
7541,4.0885,5.8182,0.1,0.00030099,3007.8,0.00029895,2950.8,-9.3771e-05,0.07423,-0.00010855,-110.99,0.11313
7542,4.0885,5.6364,0.1,0.0003141,3138.8,0.00031121,3059.5,-9.5848e-05,1.0493,-0.00011647,-153.89,0.11471
7543,4.0885,5.4545,0.1,0.00033457,3343.4,0.0003306,3236.2,-9.9922e-05,1.4105,-0.00012754,-206.09,0.11623
7544,4.0885,5.2727,0.1,0.00036183,3615.8,0.00035666,3478,-0.00010599,1.8182,-0.00014123,-262.97,0.11768
7545,4.0885,5.0909,0.1,0.0003955,3952.2,0.00038915,3784.5,-0.00011425,2.1919,-0.00015688,-318.1,0.11905
7546,4.0885,4.9091,0.1,0.00043466,4343.6,0.00042747,4154.1,-0.00012505,2.6508,-0.00017321,-359.15,0.12035
7547,4.0885,4.7273,0.1,0.00047793,4776,0.00047061,4582.1,-0.0001388,3.2611,-0.00018836,-369.1,0.12156
7548,4.0885,4.5455,0.1,0.0005233,5229.4,0.00051698,5059.1,-0.00015576,4.4141,-0.00020013,-328.95,0.12267
7549,4.0885,4.3636,0.1,0.00056842,5680.3,0.00056434,5567.2,-0.00017564,7.2751,-0.00020673,-226.3,0.12368
7550,4.0885,4.1818,0.1,0.00061165,6112.3,0.00061059,6082.2,-0.00019637,19.046,-0.00020929,-78.009,0.12458
7551,4.0885,4,0.1,0.00065209,6516.4,0.00065405,6576.3,-0.00020383,130.46,-0.00022232,-8.4272,0.12537
7552,4.0885,3.8182,0.1,0.00068929,6888.2,0.00069354,7021.1,-0.00020409,276.68,-0.00024122,-2.2949,0.12603
7553,4.0885,3.6364,0.1,0.00072174,7212.4,0.0007273,7389.7,-0.00020683,371.08,-0.00025648,-1.9669,0.12658
7554,4.0885,3.4545,0.1,0.00074716,7466.4,0.00075331,7664,-0.00021158,414.27,-0.00026693,-1.6521,0.127
7555,4.0885,3.2727,0.1,0.00076419,7636.6,0.00077052,7840.2,-0.00021616,426.72,-0.00027314,-1.4662,0.12728
7556,4.0885,3.0909,0.1,0.00077259,7720.5,0.00077895,7924.8,-0.00021882,427.98,-0.00027598,-1.4489,0.12743
7557,4.0885,2.9091,0.1,0.00077259,7720.5,0.00077895,7924.8,-0.00021882,427.98,-0.00027598,-1.4489,0.12743
7558,4.0885,2.7273,0.1,0.00076419,7636.6,0.00077052,7840.2,-0.00021616,426.72,-0.00027314,-1.4662,0.12728
7559,4.0885,2.5455,0.1,0.00074716,7466.4,0.00075331,7664,-0.00021158,414.27,-0.00026693,-1.6521,0.127
7560,4.0885,2.3636,0.1,0.00072174,7212.4,0.0007273,7389.7,-0.00020683,371.08,-0.00025648,-1.9669,0.12658
7561,4.0885,2.1818,0.1,0.00068929,6888.2,0.00069354,7021.1,-0.00020409,276.68,-0.00024122,-2.2949,0.12603
7562,4.0885,2,0.1,0.00065209,6516.4,0.00065405,6576.3,-0.00020383,130.46,-0.00022232,-8.4272,0.12537
7563,4.0885,1.8182,0.1,0.00061165,6112.3,0.00061059,6082.2,-0.00019637,19.046,-0.00020929,-78.01,0.12458
7564,4.0885,1.6364,0.1,0.00056842,5680.3,0.00056434,5567.2,-0.00017564,7.2751,-0.00020673,-226.3,0.12368
7565,4.0885,1.4545,0.1,0.0005233,5229.4,0.00051698,5059.1,-0.00015576,4.4141,-0.00020013,-328.95,0.12267
7566,4.0885,1.2727,0.1,0.00047793,4776,0.00047061,4582.1,-0.0001388,3.2611,-0.00018836,-369.1,0.12156
7567,4.0885,1.0909,0.1,0.00043466,4343.6,0.00042747,4154.1,-0.00012505,2.6508,-0.00017321,-359.15,0.12035
7568,4.0885,0.90909,0.1,0.0003955,3952.2,0.00038915,3784.5,-0.00011425,2.1919,-0.00015688,-318.1,0.11905
7569,4.0885,0.72727,0.1,0.00036183,3615.8,0.00035666,3478,-0.00010599,1.8182,-0.00014123,-262.97,0.11768
7570,4.0885,0.54545,0.1,0.00033457,3343.4,0.0003306,3236.2,-9.9922e-05,1.4105,-0.00012754,-206.09,0.11623
7571,4.0885,0.36364,0.1,0.0003141,3138.8,0.00031121,3059.5,-9.5848e-05,1.0493,-0.00011647,-153.89,0.11471
7572,4.0885,0.18182,0.1,0.00030099,3007.8,0.00029895,2950.8,-9.3771e-05,0.074229,-0.00010855,-110.99,0.11313
7573,3.9041,5.8182,0.1,0.00025898,2588,0.00025681,2528.2,-7.9547e-05,0.96041,-9.5178e-05,-116.49,0.099007
7574,3.9041,5.6364,0.1,0.00027363,2734.5,0.00027063,2653.1,-8.2225e-05,1.8027,-0.00010344,-157.63,0.10064
7575,3.9041,5.4545,0.1,0.00029858,2983.7,0.00029403,2863.1,-8.6757e-05,2.0716,-0.0001176,-229.66,0.10222
7576,3.9041,5.2727,0.1,0.0003327,3324.7,0.00032603,3152.1,-9.3186e-05,2.2201,-0.00013653,-323.47,0.10375
7577,3.9041,5.0909,0.1,0.00037534,3750.9,0.00036624,3519.3,-0.00010183,2.4142,-0.00015916,-428.3,0.10522
7578,3.9041,4.9091,0.1,0.00042568,4253.9,0.00041427,3966.8,-0.00011331,2.7087,-0.00018385,-527.31,0.10663
7579,3.9041,4.7273,0.1,0.00048246,4821.3,0.00046957,4496.8,-0.00012847,3.4101,-0.00020828,-596.24,0.10796
7580,3.9041,4.5455,0.1,0.00054351,5431.4,0.00053079,5106.9,-0.0001483,4.4274,-0.00022908,-602.47,0.1092
7581,3.9041,4.3636,0.1,0.00060554,6051.2,0.00059526,5781.1,-0.00017367,3.6129,-0.00024217,-511.05,0.11034
7582,3.9041,4.1818,0.1,0.00066427,6638.1,0.00065851,6480,-0.00020293,7.4886,-0.00024547,-312.16,0.11137
7583,3.9041,4,0.1,0.00071891,7184.1,0.00071783,7153.4,-0.00023168,19.164,-0.00024481,-79.5,0.11228
7584,3.9041,3.8182,0.1,0.00076803,7675,0.0007703,7744.4,-0.00024023,151.67,-0.00026177,-10.241,0.11306
7585,3.9041,3.6364,0.1,0.00080863,8080.8,0.00081263,8204.1,-0.00024536,254.8,-0.00027954,-2.0513,0.11371
7586,3.9041,3.4545,0.1,0.00083807,8374.9,0.00084248,8511.7,-0.00025269,283,-0.00029064,-2.108,0.1142
7587,3.9041,3.2727,0.1,0.00085563,8550.4,0.00086001,8685.7,-0.00025882,279.32,-0.00029623,-1.7938,0.11454
7588,3.9041,3.0909,0.1,0.00086352,8629.2,0.0008678,8761.3,-0.00026202,272.28,-0.00029847,-1.5424,0.11471
7589,3.9041,2.9091,0.1,0.00086352,8629.2,0.0008678,8761.3,-0.00026202,272.28,-0.00029847,-1.5424,0.11471
7590,3.9041,2.7273,0.1,0.00085563,8550.4,0.00086001,8685.7,-0.00025882,279.32,-0.00029623,-1.7938,0.11454
7591,3.9041,2.5455,0.1,0.00083807,8374.9,0.00084248,8511.7,-0.00025269,283,-0.00029064,-2.108,0.1142
7592,3.9041,2.3636,0.1,0.00080863,8080.8,0.00081263,8204.1,-0.00024536,254.8,-0.00027954,-2.0513,0.11371
7593,3.9041,2.1818,0.1,0.00076803,7675,0.0007703,7744.4,-0.00024023,151.67,-0.00026178,-10.241,0.11306
7594,3.9041,2,0.1,0.00071891,7184.1,0.00071783,7153.4,-0.00023168,19.164,-0.00024481,-79.5,0.11228
7595,3.9041,1.8182,0.1,0.00066427,6638.1,0.00065851,6480,-0.00020293,7.4886,-0.00024547,-312.16,0.11137
7596,3.9041,1.6364,0.1,0.00060554,6051.2,0.00059526,5781.1,-0.00017367,3.6129,-0.00024217,-511.05,0.11034
7597,3.9041,1.4545,0.1,0.00054351,5431.4,0.00053079,5106.9,-0.0001483,4.4274,-0.00022908,-602.47,0.1092
7598,3.9041,1.2727,0.1,0.00048246,4821.3,0.00046957,4496.8,-0.00012847,3.4101,-0.00020828,-596.24,0.10796
7599,3.9041,1.0909,0.1,0.00042568,4253.9,0.00041427,3966.8,-0.00011331,2.7087,-0.00018385,-527.31,0.10663
7600,3.9041,0.90909,0.1,0.00037534,3750.9,0.00036624,3519.3,-0.00010183,2.4142,-0.00015916,-428.3,0.10522
7601,3.9041,0.72727,0.1,0.0003327,3324.7,0.00032603,3152.1,-9.3186e-05,2.2201,-0.00013653,-323.47,0.10375
7602,3.9041,0.54545,0.1,0.00029858,2983.7,0.00029403,2863.1,-8.6757e-05,2.0716,-0.0001176,-229.66,0.10222
7603,3.9041,0.36364,0.1,0.00027363,2734.5,0.00027063,2653.1,-8.2225e-05,1.8027,-0.00010344,-157.63,0.10064
7604,3.9041,0.18182,0.1,0.00025898,2588,0.00025681,2528.2,-7.9547e-05,0.96041,-9.5178e-05,-116.49,0.099007
7605,3.7198,5.8182,0.1,0.00021003,2098.8,0.00020785,2039.9,-6.3116e-05,3.9707,-7.9163e-05,-116.6,0.085055
7606,3.7198,5.6364,0.1,0.00022741,2272.6,0.00022432,2190.2,-6.6632e-05,4.1322,-8.8468e-05,-159.94,0.086745
7607,3.7198,5.4545,0.1,0.00025891,2587.3,0.0002534,2445.8,-7.163e-05,3.6261,-0.00010747,-265.64,0.088399
7608,3.7198,5.2727,0.1,0.00030184,3016.3,0.00029267,2789.1,-7.8105e-05,3.2478,-0.00013365,-414.09,0.090019
7609,3.7198,5.0909,0.1,0.00035504,3548,0.00034136,3218,-8.6505e-05,3.2174,-0.00016529,-588.71,0.091601
7610,3.7198,4.9091,0.1,0.00041828,4179.9,0.00039977,3741.4,-9.768e-05,3.7849,-0.00020093,-772.01,0.093139
7611,3.7198,4.7273,0.1,0.00049155,4912.1,0.00046884,4377.1,-0.00011314,4.3539,-0.00023854,-937.87,0.094623
7612,3.7198,4.5455,0.1,0.00057446,5740.7,0.00054955,5148.8,-0.00013506,4.8826,-0.00027466,-1044,0.096038
7613,3.7198,4.3636,0.1,0.00066109,6606.3,0.00063832,6052.3,-0.00016515,15.316,-0.00030091,-1004.7,0.097363
7614,3.7198,4.1818,0.1,0.00074508,7445.6,0.00072953,7045.7,-0.00020676,10.778,-0.00030826,-751.85,0.098574
7615,3.7198,4,0.1,0.00082067,8201.1,0.00081403,8019.7,-0.00025009,24.381,-0.00030293,-372.66,0.099655
7616,3.7198,3.8182,0.1,0.00088442,8838.1,0.00088357,8813.8,-0.00028686,19.693,-0.00029847,-67.579,0.10059
7617,3.7198,3.6364,0.1,0.00093303,9323.8,0.00093385,9348.4,-0.00030253,58.705,-0.00031158,-9.3179,0.10137
7618,3.7198,3.4545,0.1,0.00095851,9578.5,0.00095961,9611,-0.00031035,69.096,-0.00032002,-3.5804,0.10197
7619,3.7198,3.2727,0.1,0.00096883,9681.6,0.00096971,9707.8,-0.0003149,55.73,-0.00032273,-3.1491,0.10238
7620,3.7198,3.0909,0.1,0.00097183,9711.6,0.00097256,9733.3,-0.00031685,45.131,-0.00032306,-1.4944,0.10259
7621,3.7198,2.9091,0.1,0.00097183,9711.6,0.00097256,9733.3,-0.00031685,45.131,-0.00032306,-1.4944,0.10259
7622,3.7198,2.7273,0.1,0.00096883,9681.6,0.00096971,9707.8,-0.0003149,55.73,-0.00032273,-3.1491,0.10238
7623,3.7198,2.5455,0.1,0.00095851,9578.5,0.00095961,9611.1,-0.00031035,69.096,-0.00032002,-3.5803,0.10197
7624,3.7198,2.3636,0.1,0.00093303,9323.9,0.00093385,9348.4,-0.00030253,58.705,-0.00031158,-9.3179,0.10137
7625,3.7198,2.1818,0.1,0.00088442,8838.1,0.00088357,8813.8,-0.00028686,19.693,-0.00029847,-67.579,0.10059
7626,3.7198,2,0.1,0.00082067,8201.1,0.00081403,8019.7,-0.00025009,24.381,-0.00030293,-372.66,0.099655
7627,3.7198,1.8182,0.1,0.00074508,7445.6,0.00072953,7045.7,-0.00020676,10.778,-0.00030826,-751.85,0.098574
7628,3.7198,1.6364,0.1,0.00066109,6606.3,0.00063832,6052.3,-0.00016515,15.316,-0.00030091,-1004.7,0.097363
7629,3.7198,1.4545,0.1,0.00057446,5740.7,0.00054955,5148.8,-0.00013506,4.8826,-0.00027466,-1044,0.096038
7630,3.7198,1.2727,0.1,0.00049155,4912.1,0.00046884,4377.1,-0.00011314,4.3539,-0.00023854,-937.87,0.094623
7631,3.7198,1.0909,0.1,0.00041828,4179.9,0.00039977,3741.4,-9.768e-05,3.7849,-0.00020093,-772.01,0.093139
7632,3.7198,0.90909,0.1,0.00035504,3548,0.00034136,3218,-8.6505e-05,3.2174,-0.00016529,-588.71,0.091601
7633,3.7198,0.72727,0.1,0.00030184,3016.3,0.00029267,2789.1,-7.8105e-05,3.2478,-0.00013365,-414.09,0.090019
7634,3.7198,0.54545,0.1,0.00025891,2587.3,0.0002534,2445.8,-7.163e-05,3.6261,-0.00010747,-265.64,0.088399
7635,3.7198,0.36364,0.1,0.00022741,2272.6,0.00022432,2190.2,-6.6632e-05,4.1322,-8.8468e-05,-159.94,0.086745
7636,3.7198,0.18182,0.1,0.00021003,2098.8,0.00020785,2039.9,-6.3116e-05,3.9707,-7.9163e-05,-116.6,0.085055
7637,3.5354,5.8182,0.1,0.00015534,1552.4,0.00015313,1494.7,-4.4632e-05,8.7633,-6.1312e-05,-116.56,0.071234
7638,3.5354,5.6364,0.1,0.00017992,1798,0.00017617,1702.1,-4.9606e-05,5.704,-7.4673e-05,-182.64,0.07298
7639,3.5354,5.4545,0.1,0.00022223,2220.8,0.00021426,2027.1,-5.5125e-05,3.0997,-0.00010191,-348.42,0.074712
7640,3.5354,5.2727,0.1,0.00027621,2760.2,0.00026201,2430.3,-6.1231e-05,1.5427,-0.00013748,-571.39,0.076434
7641,3.5354,5.0909,0.1,0.00034076,3405.2,0.00031884,2911.6,-6.8534e-05,0.97432,-0.00017956,-833.26,0.078146
7642,3.5354,4.9091,0.1,0.00041729,4170,0.00038657,3491.7,-7.8083e-05,0.49738,-0.00022797,-1125.7,0.079843
7643,3.5354,4.7273,0.1,0.0005093,5089.5,0.00046921,4213.5,-9.1439e-05,0.95476,-0.00028343,-1441.6,0.081518
7644,3.5354,4.5455,0.1,0.00061949,6190.6,0.00057141,5138.1,-0.00011214,2.1918,-0.00034344,-1735.7,0.083155
7645,3.5354,4.3636,0.1,0.00075221,7516.9,0.00070091,6369.5,-0.00014726,-3.3863,-0.00040239,-1920.3,0.084727
7646,3.5354,4.1818,0.1,0.00089481,8942,0.00085164,7924.5,-0.00020471,-12.488,-0.00043774,-1763.4,0.086199
7647,3.5354,4,0.1,0.00099932,9986.3,0.0009781,9418.8,-0.00028869,-99.389,-0.00040559,-977.7,0.087528
7648,3.5354,3.8182,0.1,0.0010859,10851,0.0010773,10608,-0.00034097,-48.244,-0.00039162,-428.83,0.088684
7649,3.5354,3.6364,0.1,0.0011162,11154,0.0011115,11023,-0.00035385,12.416,-0.00039142,-269.87,0.089646
7650,3.5354,3.4545,0.1,0.0011131,11123,0.0011085,10993,-0.00035451,0.48004,-0.00038871,-256.53,0.090383
7651,3.5354,3.2727,0.1,0.0010985,10978,0.0010942,10855,-0.00035043,0.76685,-0.00038264,-241.23,0.09088
7652,3.5354,3.0909,0.1,0.0010891,10883,0.0010849,10764,-0.0003477,0.062463,-0.00037894,-234.66,0.091129
7653,3.5354,2.9091,0.1,0.0010891,10883,0.0010849,10764,-0.0003477,0.062463,-0.00037894,-234.66,0.091129
7654,3.5354,2.7273,0.1,0.0010985,10978,0.0010942,10855,-0.00035043,0.76685,-0.00038264,-241.23,0.09088
7655,3.5354,2.5455,0.1,0.0011131,11123,0.0011085,10993,-0.00035451,0.48004,-0.00038871,-256.53,0.090383
7656,3.5354,2.3636,0.1,0.0011162,11154,0.0011116,11023,-0.00035385,12.416,-0.00039142,-269.87,0.089646
7657,3.5354,2.1818,0.1,0.0010859,10851,0.0010773,10608,-0.00034097,-48.244,-0.00039162,-428.83,0.088684
7658,3.5354,2,0.1,0.00099932,9986.3,0.0009781,9418.8,-0.00028869,-99.389,-0.00040559,-977.7,0.087528
7659,3.5354,1.8182,0.1,0.00089481,8942,0.00085164,7924.5,-0.00020471,-12.488,-0.00043774,-1763.4,0.086199
7660,3.5354,1.6364,0.1,0.00075221,7516.9,0.00070091,6369.5,-0.00014726,-3.3863,-0.00040239,-1920.3,0.084727
7661,3.5354,1.4545,0.1,0.00061949,6190.6,0.00057141,5138.1,-0.00011214,2.1918,-0.00034344,-1735.7,0.083155
7662,3.5354,1.2727,0.1,0.0005093,5089.5,0.00046921,4213.5,-9.1439e-05,0.95476,-0.00028343,-1441.6,0.081518
7663,3.5354,1.0909,0.1,0.00041729,4170,0.00038657,3491.7,-7.8083e-05,0.49738,-0.00022797,-1125.7,0.079843
7664,3.5354,0.90909,0.1,0.00034076,3405.2,0.00031884,2911.6,-6.8534e-05,0.97432,-0.00017956,-833.26,0.078146
7665,3.5354,0.72727,0.1,0.00027621,2760.2,0.00026201,2430.3,-6.1231e-05,1.5427,-0.00013748,-571.39,0.076434
7666,3.5354,0.54545,0.1,0.00022223,2220.8,0.00021426,2027.1,-5.5125e-05,3.0997,-0.00010191,-348.42,0.074712
7667,3.5354,0.36364,0.1,0.00017992,1798,0.00017617,1702.1,-4.9606e-05,5.704,-7.4673e-05,-182.64,0.07298
7668,3.5354,0.18182,0.1,0.00015534,1552.4,0.00015313,1494.7,-4.4632e-05,8.7633,-6.1312e-05,-116.56,0.071234
7669,3.351,5.8182,0.1,0.00010322,1031.5,9.9728e-05,953.99,-2.3328e-05,29.394,-4.8334e-05,-158.49,0.057505
7670,3.351,5.6364,0.1,0.00015058,1504.8,0.00014233,1319.1,-3.1321e-05,14.403,-7.6763e-05,-327.03,0.059305
7671,3.351,5.4545,0.1,0.00021074,2105.9,0.00019416,1747.6,-3.697e-05,10.978,-0.00011759,-594.8,0.061118
7672,3.351,5.2727,0.1,0.00027876,2785.7,0.0002516,2215.5,-4.1973e-05,9.776,-0.00016504,-914.89,0.06295
7673,3.351,5.0909,0.1,0.00035665,3564,0.00031675,2743.9,-4.7133e-05,9.7561,-0.00021972,-1287,0.064804
7674,3.351,4.9091,0.1,0.00044873,4484.2,0.00039362,3368.6,-5.3064e-05,12.351,-0.00028419,-1724.2,0.066682
7675,3.351,4.7273,0.1,0.00056265,5622.6,0.00048911,4147,-6.1453e-05,10.259,-0.00036293,-2255,0.06858
7676,3.351,4.5455,0.1,0.00071166,7111.7,0.00061582,5207.2,-7.2741e-05,33.651,-0.00046351,-2902.5,0.070491
7677,3.351,4.3636,0.1,0.00092716,9265.2,0.00080139,6742.8,-9.8221e-05,-16.576,-0.00060425,-3818.7,0.072396
7678,3.351,4.1818,0.1,0.0012467,12459,0.0011145,9784.5,-0.00016125,199.04,-0.00075981,-4298.3,0.074249
7679,3.351,4,0.1,0.0015037,15026,0.0014374,13697,-0.00028351,766.88,-0.00075663,-2787.9,0.075968
7680,3.351,3.8182,0.1,0.0014655,14645,0.0014448,14092,-0.00043062,0.4424,-0.00057046,-1050.3,0.077454
7681,3.351,3.6364,0.1,0.0013825,13816,0.0013671,13401,-0.00041315,24.191,-0.00052501,-816.29,0.078647
7682,3.351,3.4545,0.1,0.0012821,12813,0.0012702,12485,-0.00039208,-5.2673,-0.00047492,-627.67,0.079533
7683,3.351,3.2727,0.1,0.0012228,12220,0.0012128,11942,-0.00037608,4.3062,-0.00044862,-540.76,0.080114
7684,3.351,3.0909,0.1,0.0011945,11937,0.0011853,11681,-0.00036932,0.49718,-0.00043541,-496.13,0.080402
7685,3.351,2.9091,0.1,0.0011945,11937,0.0011853,11681,-0.00036932,0.49718,-0.00043541,-496.13,0.080402
7686,3.351,2.7273,0.1,0.0012228,12220,0.0012128,11942,-0.00037608,4.3062,-0.00044862,-540.76,0.080114
7687,3.351,2.5455,0.1,0.0012821,12813,0.0012702,12485,-0.00039208,-5.2672,-0.00047492,-627.67,0.079533
7688,3.351,2.3636,0.1,0.0013825,13816,0.0013671,13401,-0.00041315,24.191,-0.00052501,-816.29,0.078647
7689,3.351,2.1818,0.1,0.0014655,14645,0.0014448,14092,-0.00043062,0.44242,-0.00057046,-1050.3,0.077454
7690,3.351,2,0.1,0.0015037,15026,0.0014374,13697,-0.00028351,766.88,-0.00075663,-2787.9,0.075968
7691,3.351,1.8182,0.1,0.0012467,12459,0.0011145,9784.5,-0.00016125,199.04,-0.00075981,-4298.3,0.074249
7692,3.351,1.6364,0.1,0.00092716,9265.2,0.00080139,6742.8,-9.8221e-05,-16.576,-0.00060425,-3818.7,0.072396
7693,3.351,1.4545,0.1,0.00071166,7111.7,0.00061582,5207.2,-7.2741e-05,33.651,-0.00046351,-2902.5,0.070491
7694,3.351,1.2727,0.1,0.00056265,5622.6,0.00048911,4147,-6.1453e-05,10.259,-0.00036293,-2255,0.06858
7695,3.351,1.0909,0.1,0.00044873,4484.2,0.00039362,3368.6,-5.3064e-05,12.351,-0.00028419,-1724.2,0.066682
7696,3.351,0.90909,0.1,0.00035665,3564,0.00031675,2743.9,-4.7133e-05,9.7561,-0.00021972,-1287,0.064804
7697,3.351,0.72727,0.1,0.00027876,2785.7,0.0002516,2215.5,-4.1973e-05,9.776,-0.00016504,-914.89,0.06295
7698,3.351,0.54545,0.1,0.00021074,2105.9,0.00019416,1747.6,-3.697e-05,10.978,-0.00011759,-594.8,0.061118
7699,3.351,0.36364,0.1,0.00015058,1504.8,0.00014233,1319.1,-3.1321e-05,14.403,-7.6763e-05,-327.03,0.059305
7700,3.351,0.18182,0.1,0.00010322,1031.5,9.9728e-05,953.99,-2.3328e-05,29.394,-4.8334e-05,-158.49,0.057505
7701,0.17647,0.18182,0.1,0.00039928,3990,0.0003931,3832.7,-0.00011201,37.504,-0.00016054,-327.14,8.4227e-05
7702,0.17647,0.36364,0.1,0.00045453,4542.2,0.00044014,4473.8,-4.2106e-05,850.34,-0.00023805,-621.93,0.00013125
7703,0.17647,0.54545,0.1,0.00052302,5226.6,0.00050162,5185.4,-1.8992e-05,1273.7,-0.00028841,-750.57,0.00015853
7704,0.17647,0.72727,0.1,0.00057604,5756.5,0.00055038,5725.4,-9.6416e-06,1517.6,-0.00032271,-834.73,0.00017588
7705,0.17647,0.90909,0.1,0.00061577,6153.5,0.0005877,6131.9,-5.6944e-06,1673.4,-0.00034668,-888.65,0.00018783
7706,0.17647,1.0909,0.1,0.00064577,6453.2,0.00061611,6439,-3.664e-06,1782.3,-0.00036428,-927.22,0.00019642
7707,0.17647,1.2727,0.1,0.00066866,6682,0.00063794,6674.4,-2.5205e-06,1862.3,-0.00037746,-954.85,0.00020272
7708,0.17647,1.4545,0.1,0.00068627,6858,0.0006548,6856.3,-1.807e-06,1922.8,-0.00038747,-974.97,0.0002074
7709,0.17647,1.6364,0.1,0.00069985,6993.6,0.00066785,6997.2,-1.3283e-06,1969.3,-0.00039512,-989.5,0.00021087
7710,0.17647,1.8182,0.1,0.00071028,7097.9,0.00067792,7106.2,-9.8734e-07,2005.2,-0.00040094,-999.88,0.00021343
7711,0.17647,2,0.1,0.00071824,7177.4,0.00068562,7190,-7.3577e-07,2033,-0.00040535,-1007.2,0.00021528
7712,0.17647,2.1818,0.1,0.00072422,7237.2,0.00069143,7253.4,-5.4826e-07,2054.1,-0.00040864,-1012.1,0.00021661
7713,0.17647,2.3636,0.1,0.0007286,7281,0.0006957,7300.2,-4.1098e-07,2069.9,-0.00041104,-1015.4,0.00021753
7714,0.17647,2.5455,0.1,0.00073166,7311.6,0.0006987,7333.1,-3.1536e-07,2081,-0.0004127,-1017.5,0.00021815
7715,0.17647,2.7273,0.1,0.0007336,7331,0.0007006,7354.1,-2.5531e-07,2088.1,-0.00041375,-1018.7,0.00021852
7716,0.17647,2.9091,0.1,0.00073455,7340.4,0.00070152,7364.3,-2.2647e-07,2091.6,-0.00041426,-1019.3,0.0002187
7717,0.17647,3.0909,0.1,0.00073455,7340.4,0.00070152,7364.3,-2.2647e-07,2091.6,-0.00041426,-1019.3,0.0002187
7718,0.17647,3.2727,0.1,0.0007336,7331,0.0007006,7354.1,-2.5531e-07,2088.1,-0.00041375,-1018.7,0.00021852
7719,0.17647,3.4545,0.1,0.00073166,7311.6,0.0006987,7333.1,-3.1536e-07,2081,-0.0004127,-1017.5,0.00021815
7720,0.17647,3.6364,0.1,0.0007286,7281,0.0006957,7300.2,-4.1097e-07,2069.9,-0.00041104,-1015.4,0.00021753
7721,0.17647,3.8182,0.1,0.00072422,7237.2,0.00069143,7253.4,-5.4825e-07,2054.1,-0.00040864,-1012.1,0.00021661
7722,0.17647,4,0.1,0.00071824,7177.4,0.00068562,7190,-7.3576e-07,2033,-0.00040535,-1007.2,0.00021528
7723,0.17647,4.1818,0.1,0.00071028,7097.9,0.00067792,7106.2,-9.8733e-07,2005.2,-0.00040094,-999.88,0.00021343
7724,0.17647,4.3636,0.1,0.00069985,6993.6,0.00066785,6997.2,-1.3282e-06,1969.3,-0.00039512,-989.5,0.00021087
7725,0.17647,4.5455,0.1,0.00068627,6858,0.0006548,6856.3,-1.807e-06,1922.8,-0.00038747,-974.97,0.0002074
7726,0.17647,4.7273,0.1,0.00066866,6682,0.00063794,6674.4,-2.5205e-06,1862.3,-0.00037746,-954.85,0.00020272
7727,0.17647,4.9091,0.1,0.00064577,6453.2,0.00061611,6439,-3.664e-06,1782.3,-0.00036428,-927.22,0.00019642
7728,0.17647,5.0909,0.1,0.00061577,6153.5,0.0005877,6131.9,-5.6944e-06,1673.4,-0.00034668,-888.65,0.00018783
7729,0.17647,5.2727,0.1,0.00057604,5756.5,0.00055038,5725.4,-9.6416e-06,1517.6,-0.00032271,-834.73,0.00017588
7730,0.17647,5.4545,0.1,0.00052302,5226.6,0.00050162,5185.4,-1.8992e-05,1273.7,-0.00028841,-750.57,0.00015853
7731,0.17647,5.6364,0.1,0.00045453,4542.2,0.00044014,4473.8,-4.2106e-05,850.34,-0.00023805,-621.93,0.00013125
7732,0.17647,5.8182,0.1,0.00039928,3990,0.0003931,3832.7,-0.00011201,37.504,-0.00016054,-327.14,8.4227e-05
7733,0.35294,0.18182,0.1,0.0004874,4870.7,0.00048721,4869.7,-0.00014891,90.071,-0.00017252,-87.281,0.00036239
7734,0.35294,0.36364,0.1,0.00046493,4646.1,0.00047648,5030.5,-0.00010319,675.09,-0.0001744,140.09,0.00049669
7735,0.35294,0.54545,0.1,0.00047404,4737.1,0.00048939,5356.8,-6.0142e-05,1227.8,-0.00019891,185.18,0.00058632
7736,0.35294,0.72727,0.1,0.00049618,4958.4,0.00051208,5712,-3.596e-05,1594.3,-0.00022046,208.04,0.00064811
7737,0.35294,0.90909,0.1,0.00052018,5198.2,0.00053605,6037.3,-2.2663e-05,1839.4,-0.00023781,222.92,0.0006924
7738,0.35294,1.0909,0.1,0.0005422,5418.3,0.00055803,6316.9,-1.5121e-05,2010.4,-0.00025165,233.25,0.00072513
7739,0.35294,1.2727,0.1,0.00056125,5608.6,0.00057711,6551.3,-1.0575e-05,2135.7,-0.00026279,240.64,0.00074974
7740,0.35294,1.4545,0.1,0.00057733,5769.4,0.00059325,6745.7,-7.6644e-06,2230.7,-0.00027181,246,0.00076841
7741,0.35294,1.6364,0.1,0.00059075,5903.4,0.00060673,6906,-5.6941e-06,2304.6,-0.00027915,249.87,0.0007826
7742,0.35294,1.8182,0.1,0.00060181,6014,0.00061785,7037.3,-4.2984e-06,2362.7,-0.00028513,252.64,0.00079335
7743,0.35294,2,0.1,0.00061082,6104,0.00062691,7143.6,-3.2809e-06,2408.6,-0.00028996,254.59,0.00080141
7744,0.35294,2.1818,0.1,0.00061802,6176,0.00063414,7228.1,-2.5336e-06,2444.4,-0.0002938,255.93,0.00080736
7745,0.35294,2.3636,0.1,0.00062359,6231.6,0.00063973,7293.3,-1.9942e-06,2471.6,-0.00029676,256.82,0.00081166
7746,0.35294,2.5455,0.1,0.00062767,6272.3,0.00064383,7340.9,-1.6229e-06,2491.2,-0.00029893,257.39,0.00081462
7747,0.35294,2.7273,0.1,0.00063034,6299.1,0.00064651,7372,-1.3917e-06,2503.9,-0.00030034,257.73,0.00081647
7748,0.35294,2.9091,0.1,0.00063166,6312.3,0.00064784,7387.4,-1.2813e-06,2510.1,-0.00030104,257.88,0.00081736
7749,0.35294,3.0909,0.1,0.00063166,6312.3,0.00064784,7387.4,-1.2813e-06,2510.1,-0.00030104,257.88,0.00081736
7750,0.35294,3.2727,0.1,0.00063034,6299.1,0.00064651,7372,-1.3917e-06,2503.9,-0.00030034,257.73,0.00081647
7751,0.35294,3.4545,0.1,0.00062767,6272.3,0.00064383,7340.9,-1.6229e-06,2491.2,-0.00029893,257.39,0.00081462
7752,0.35294,3.6364,0.1,0.00062359,6231.6,0.00063973,7293.3,-1.9942e-06,2471.6,-0.00029676,256.82,0.00081166
7753,0.35294,3.8182,0.1,0.00061802,6176,0.00063414,7228.1,-2.5336e-06,2444.4,-0.0002938,255.93,0.00080736
7754,0.35294,4,0.1,0.00061082,6104,0.00062691,7143.6,-3.2809e-06,2408.6,-0.00028996,254.59,0.00080141
7755,0.35294,4.1818,0.1,0.00060181,6014,0.00061785,7037.3,-4.2984e-06,2362.7,-0.00028513,252.64,0.00079335
7756,0.35294,4.3636,0.1,0.00059075,5903.4,0.00060673,6906,-5.6941e-06,2304.6,-0.00027915,249.87,0.0007826
7757,0.35294,4.5455,0.1,0.00057733,5769.4,0.00059325,6745.7,-7.6644e-06,2230.7,-0.00027181,246,0.00076841
7758,0.35294,4.7273,0.1,0.00056125,5608.6,0.00057711,6551.3,-1.0575e-05,2135.7,-0.00026279,240.64,0.00074974
7759,0.35294,4.9091,0.1,0.0005422,5418.3,0.00055803,6316.9,-1.5121e-05,2010.4,-0.00025165,233.25,0.00072513
7760,0.35294,5.0909,0.1,0.00052018,5198.2,0.00053605,6037.3,-2.2663e-05,1839.4,-0.00023781,222.92,0.0006924
7761,0.35294,5.2727,0.1,0.00049618,4958.4,0.00051208,5712,-3.596e-05,1594.3,-0.00022046,208.04,0.00064811
7762,0.35294,5.4545,0.1,0.00047404,4737.1,0.00048939,5356.8,-6.0142e-05,1227.8,-0.00019891,185.18,0.00058632
7763,0.35294,5.6364,0.1,0.00046493,4646.1,0.00047648,5030.5,-0.00010319,675.09,-0.0001744,140.09,0.00049669
7764,0.35294,5.8182,0.1,0.0004874,4870.7,0.00048721,4869.7,-0.00014891,90.071,-0.00017252,-87.281,0.00036239
7765,0.52941,0.18182,0.1,0.00053429,5339.2,0.0005321,5277,-0.00017023,-0.036897,-0.0001865,-122.28,0.00090459
7766,0.52941,0.36364,0.1,0.00051429,5139.4,0.00051889,5301.6,-0.00013423,394.29,-0.00019229,-41.954,0.0011396
7767,0.52941,0.54545,0.1,0.00051165,5112.9,0.00051924,5450.4,-9.399e-05,842.81,-0.00021284,-50.222,0.0013111
7768,0.52941,0.72727,0.1,0.00052003,5196.7,0.00052801,5656.2,-6.4335e-05,1205.6,-0.00023207,-54.74,0.0014373
7769,0.52941,0.90909,0.1,0.00053453,5341.7,0.00054185,5883.5,-4.4447e-05,1478.3,-0.0002489,-57.916,0.0015318
7770,0.52941,1.0909,0.1,0.00055115,5507.7,0.00055767,6107.8,-3.1465e-05,1681.3,-0.00026324,-60.197,0.001604
7771,0.52941,1.2727,0.1,0.00056765,5672.6,0.00057349,6316.2,-2.2898e-05,1835.1,-0.00027537,-61.837,0.0016596
7772,0.52941,1.4545,0.1,0.00058299,5825.9,0.00058833,6503.5,-1.708e-05,1954.7,-0.00028562,-63.022,0.0017028
7773,0.52941,1.6364,0.1,0.00059673,5963.2,0.00060171,6668.2,-1.2993e-05,2049.6,-0.00029428,-63.872,0.0017364
7774,0.52941,1.8182,0.1,0.00060873,6083.1,0.00061345,6810.5,-1.0036e-05,2125.9,-0.00030156,-64.473,0.0017624
7775,0.52941,2,0.1,0.00061898,6185.6,0.00062351,6931.2,-7.8596e-06,2187.3,-0.00030761,-64.889,0.0017824
7776,0.52941,2.1818,0.1,0.00062749,6270.6,0.00063189,7030.9,-6.2579e-06,2236.2,-0.00031255,-65.171,0.0017975
7777,0.52941,2.3636,0.1,0.00063429,6338.5,0.00063859,7110.3,-5.1052e-06,2273.8,-0.00031643,-65.357,0.0018087
7778,0.52941,2.5455,0.1,0.00063939,6389.5,0.00064363,7169.7,-4.3162e-06,2301.3,-0.00031931,-65.475,0.0018166
7779,0.52941,2.7273,0.1,0.00064279,6423.5,0.000647,7209.3,-3.8279e-06,2319.2,-0.00032121,-65.544,0.0018216
7780,0.52941,2.9091,0.1,0.0006445,6440.5,0.00064869,7229,-3.5957e-06,2328,-0.00032216,-65.576,0.001824
7781,0.52941,3.0909,0.1,0.0006445,6440.5,0.00064869,7229,-3.5957e-06,2328,-0.00032216,-65.576,0.001824
7782,0.52941,3.2727,0.1,0.00064279,6423.5,0.000647,7209.3,-3.8279e-06,2319.2,-0.00032121,-65.544,0.0018216
7783,0.52941,3.4545,0.1,0.00063939,6389.5,0.00064363,7169.7,-4.3161e-06,2301.3,-0.00031931,-65.475,0.0018166
7784,0.52941,3.6364,0.1,0.00063429,6338.5,0.00063859,7110.3,-5.1052e-06,2273.8,-0.00031643,-65.357,0.0018087
7785,0.52941,3.8182,0.1,0.00062749,6270.6,0.00063189,7030.9,-6.2579e-06,2236.2,-0.00031255,-65.171,0.0017975
7786,0.52941,4,0.1,0.00061898,6185.6,0.00062351,6931.2,-7.8596e-06,2187.3,-0.00030761,-64.889,0.0017824
7787,0.52941,4.1818,0.1,0.00060873,6083.1,0.00061345,6810.5,-1.0036e-05,2125.9,-0.00030156,-64.473,0.0017624
7788,0.52941,4.3636,0.1,0.00059673,5963.2,0.00060171,6668.2,-1.2993e-05,2049.6,-0.00029428,-63.872,0.0017364
7789,0.52941,4.5455,0.1,0.00058299,5825.9,0.00058833,6503.5,-1.708e-05,1954.7,-0.00028562,-63.022,0.0017028
7790,0.52941,4.7273,0.1,0.00056765,5672.6,0.00057349,6316.2,-2.2898e-05,1835.1,-0.00027537,-61.837,0.0016596
7791,0.52941,4.9091,0.1,0.00055115,5507.7,0.00055767,6107.8,-3.1465e-05,1681.3,-0.00026324,-60.197,0.001604
7792,0.52941,5.0909,0.1,0.00053453,5341.7,0.00054185,5883.5,-4.4447e-05,1478.3,-0.0002489,-57.916,0.0015318
7793,0.52941,5.2727,0.1,0.00052003,5196.7,0.00052801,5656.2,-6.4335e-05,1205.6,-0.00023207,-54.74,0.0014373
7794,0.52941,5.4545,0.1,0.00051165,5112.9,0.00051924,5450.4,-9.399e-05,842.81,-0.00021284,-50.222,0.0013111
7795,0.52941,5.6364,0.1,0.00051429,5139.4,0.00051889,5301.6,-0.00013423,394.29,-0.00019229,-41.954,0.0011396
7796,0.52941,5.8182,0.1,0.00053429,5339.2,0.0005321,5277,-0.00017023,-0.036895,-0.0001865,-122.28,0.00090459
7797,0.70588,0.18182,0.1,0.00055161,5512.3,0.00054991,5464.4,-0.00017521,16.141,-0.00019197,-109.8,0.0017441
7798,0.70588,0.36364,0.1,0.00053176,5313.9,0.00053618,5455,-0.0001514,288.78,-0.00018919,4.8361,0.0020807
7799,0.70588,0.54545,0.1,0.00052367,5233,0.000532,5536,-0.00011755,655.62,-0.00020344,10.238,0.0023412
7800,0.70588,0.72727,0.1,0.00052378,5234.2,0.00053392,5665.8,-8.8581e-05,988.51,-0.00021853,12.163,0.002543
7801,0.70588,0.90909,0.1,0.0005304,5300.3,0.00054094,5828,-6.6162e-05,1266.5,-0.00023294,13.446,0.0027004
7802,0.70588,1.0909,0.1,0.00054113,5407.6,0.00055139,6006.6,-4.9684e-05,1490.4,-0.00024615,14.27,0.0028242
7803,0.70588,1.2727,0.1,0.00055388,5535,0.00056365,6188.5,-3.7782e-05,1669.5,-0.00025801,14.858,0.0029223
7804,0.70588,1.4545,0.1,0.0005672,5668.1,0.00057648,6364.5,-2.915e-05,1814,-0.00026855,15.285,0.0030002
7805,0.70588,1.6364,0.1,0.00058018,5797.8,0.00058903,6528.9,-2.28e-05,1931.9,-0.00027784,15.601,0.003062
7806,0.70588,1.8182,0.1,0.00059226,5918.5,0.00060077,6678.2,-1.8065e-05,2028.5,-0.00028593,15.833,0.003111
7807,0.70588,2,0.1,0.00060309,6026.7,0.00061133,6809.9,-1.4515e-05,2107.5,-0.00029287,16.001,0.0031494
7808,0.70588,2.1818,0.1,0.00061245,6120.2,0.00062049,6922.3,-1.1883e-05,2170.9,-0.00029867,16.118,0.0031791
7809,0.70588,2.3636,0.1,0.00062015,6197.3,0.00062805,7014.2,-9.9891e-06,2220.2,-0.00030332,16.196,0.0032014
7810,0.70588,2.5455,0.1,0.00062607,6256.4,0.00063388,7084.3,-8.6992e-06,2256.3,-0.00030683,16.245,0.0032174
7811,0.70588,2.7273,0.1,0.00063009,6296.6,0.00063784,7131.7,-7.9071e-06,2279.8,-0.00030917,16.272,0.0032277
7812,0.70588,2.9091,0.1,0.00063212,6316.9,0.00063985,7155.6,-7.533e-06,2291.4,-0.00031034,16.285,0.0032328
7813,0.70588,3.0909,0.1,0.00063212,6316.9,0.00063985,7155.6,-7.533e-06,2291.4,-0.00031034,16.285,0.0032328
7814,0.70588,3.2727,0.1,0.00063009,6296.6,0.00063784,7131.7,-7.9071e-06,2279.8,-0.00030917,16.272,0.0032277
7815,0.70588,3.4545,0.1,0.00062607,6256.4,0.00063388,7084.3,-8.6992e-06,2256.3,-0.00030683,16.245,0.0032174
7816,0.70588,3.6364,0.1,0.00062015,6197.3,0.00062805,7014.2,-9.9891e-06,2220.2,-0.00030332,16.196,0.0032014
7817,0.70588,3.8182,0.1,0.00061245,6120.2,0.00062049,6922.3,-1.1883e-05,2170.9,-0.00029867,16.118,0.0031791
7818,0.70588,4,0.1,0.00060309,6026.7,0.00061133,6809.9,-1.4515e-05,2107.5,-0.00029287,16.001,0.0031494
7819,0.70588,4.1818,0.1,0.00059226,5918.5,0.00060077,6678.2,-1.8065e-05,2028.5,-0.00028593,15.833,0.003111
7820,0.70588,4.3636,0.1,0.00058018,5797.8,0.00058903,6528.9,-2.28e-05,1931.9,-0.00027784,15.601,0.003062
7821,0.70588,4.5455,0.1,0.0005672,5668.1,0.00057648,6364.5,-2.915e-05,1814,-0.00026855,15.285,0.0030002
7822,0.70588,4.7273,0.1,0.00055388,5535,0.00056365,6188.5,-3.7782e-05,1669.5,-0.00025801,14.858,0.0029223
7823,0.70588,4.9091,0.1,0.00054113,5407.6,0.00055139,6006.6,-4.9683e-05,1490.4,-0.00024615,14.27,0.0028242
7824,0.70588,5.0909,0.1,0.0005304,5300.3,0.00054094,5828,-6.6162e-05,1266.5,-0.00023294,13.446,0.0027004
7825,0.70588,5.2727,0.1,0.00052378,5234.2,0.00053392,5665.8,-8.8581e-05,988.51,-0.00021853,12.163,0.002543
7826,0.70588,5.4545,0.1,0.00052367,5233,0.000532,5536,-0.00011755,655.62,-0.00020344,10.238,0.0023412
7827,0.70588,5.6364,0.1,0.00053176,5313.9,0.00053618,5455,-0.0001514,288.78,-0.00018919,4.8361,0.0020807
7828,0.70588,5.8182,0.1,0.00055161,5512.3,0.00054991,5464.4,-0.00017521,16.141,-0.00019197,-109.8,0.0017441
7829,0.88235,0.18182,0.1,0.00055599,5556.1,0.00055418,5504.7,-0.00017735,8.2345,-0.00019298,-109.22,0.0028977
7830,0.88235,0.36364,0.1,0.00053962,5392.5,0.00054268,5488.5,-0.00016053,204.82,-0.00018867,-6.6405,0.0033331
7831,0.88235,0.54545,0.1,0.00053178,5314.1,0.00053841,5544.1,-0.00013281,500.85,-0.00020009,-4.7207,0.0036847
7832,0.88235,0.72727,0.1,0.00052955,5291.8,0.00053842,5639.8,-0.00010699,790.42,-0.0002128,-4.551,0.0039679
7833,0.88235,0.90909,0.1,0.00053268,5323.1,0.00054257,5767.9,-8.4986e-05,1052.7,-0.00022568,-4.4646,0.0041965
7834,0.88235,1.0909,0.1,0.0005401,5397.3,0.0005502,5919,-6.7269e-05,1279.6,-0.00023816,-4.4687,0.0043816
7835,0.88235,1.2727,0.1,0.00055039,5500.1,0.00056027,6083.2,-5.3427e-05,1472.1,-0.00024994,-4.4813,0.0045318
7836,0.88235,1.4545,0.1,0.00056226,5618.7,0.00057175,6251.5,-4.2728e-05,1634.5,-0.00026087,-4.4928,0.004654
7837,0.88235,1.6364,0.1,0.00057468,5742.9,0.00058375,6416.6,-3.4458e-05,1771.7,-0.00027085,-4.4965,0.004753
7838,0.88235,1.8182,0.1,0.00058689,5864.9,0.00059556,6572.7,-2.8065e-05,1887.1,-0.00027982,-4.4941,0.004833
7839,0.88235,2,0.1,0.00059831,5979,0.00060664,6715.2,-2.3162e-05,1983.1,-0.00028769,-4.4891,0.004897
7840,0.88235,2.1818,0.1,0.00060852,6081,0.00061658,6840.2,-1.9484e-05,2061.1,-0.00029439,-4.4854,0.0049473
7841,0.88235,2.3636,0.1,0.00061715,6167.2,0.00062501,6944.6,-1.6834e-05,2122,-0.00029985,-4.4851,0.0049857
7842,0.88235,2.5455,0.1,0.00062391,6234.8,0.00063165,7025.6,-1.5043e-05,2166.6,-0.000304,-4.4882,0.0050136
7843,0.88235,2.7273,0.1,0.00062857,6281.4,0.00063623,7081,-1.3955e-05,2195.8,-0.0003068,-4.4927,0.0050317
7844,0.88235,2.9091,0.1,0.00063094,6305.1,0.00063857,7109.1,-1.3447e-05,2210.1,-0.0003082,-4.4958,0.0050407
7845,0.88235,3.0909,0.1,0.00063094,6305.1,0.00063857,7109.1,-1.3447e-05,2210.1,-0.0003082,-4.4958,0.0050407
7846,0.88235,3.2727,0.1,0.00062857,6281.4,0.00063623,7081,-1.3955e-05,2195.8,-0.0003068,-4.4927,0.0050317
7847,0.88235,3.4545,0.1,0.00062391,6234.8,0.00063165,7025.6,-1.5043e-05,2166.6,-0.000304,-4.4882,0.0050136
7848,0.88235,3.6364,0.1,0.00061715,6167.2,0.00062501,6944.6,-1.6834e-05,2122,-0.00029985,-4.4851,0.0049857
7849,0.88235,3.8182,0.1,0.00060852,6081,0.00061658,6840.2,-1.9484e-05,2061.1,-0.00029439,-4.4854,0.0049473
7850,0.88235,4,0.1,0.00059831,5979,0.00060664,6715.2,-2.3162e-05,1983.1,-0.00028769,-4.4891,0.004897
7851,0.88235,4.1818,0.1,0.00058689,5864.9,0.00059556,6572.7,-2.8065e-05,1887.1,-0.00027982,-4.4941,0.004833
7852,0.88235,4.3636,0.1,0.00057468,5742.9,0.00058375,6416.6,-3.4458e-05,1771.7,-0.00027085,-4.4965,0.004753
7853,0.88235,4.5455,0.1,0.00056226,5618.7,0.00057175,6251.5,-4.2727e-05,1634.5,-0.00026087,-4.4928,0.004654
7854,0.88235,4.7273,0.1,0.00055039,5500.1,0.00056027,6083.2,-5.3427e-05,1472.1,-0.00024994,-4.4813,0.0045318
7855,0.88235,4.9091,0.1,0.0005401,5397.3,0.0005502,5919,-6.7269e-05,1279.6,-0.00023816,-4.4687,0.0043816
7856,0.88235,5.0909,0.1,0.00053268,5323.1,0.00054257,5767.9,-8.4986e-05,1052.7,-0.00022568,-4.4646,0.0041965
7857,0.88235,5.2727,0.1,0.00052955,5291.8,0.00053842,5639.8,-0.00010699,790.42,-0.0002128,-4.551,0.0039679
7858,0.88235,5.4545,0.1,0.00053178,5314.1,0.00053841,5544.1,-0.00013281,500.85,-0.00020009,-4.7207,0.0036847
7859,0.88235,5.6364,0.1,0.00053962,5392.5,0.00054268,5488.5,-0.00016053,204.82,-0.00018867,-6.6405,0.0033331
7860,0.88235,5.8182,0.1,0.00055599,5556.1,0.00055418,5504.7,-0.00017735,8.2345,-0.00019298,-109.22,0.0028977
7861,1.0588,0.18182,0.1,0.00055058,5502,0.00054874,5449.9,-0.00017557,7.7026,-0.00019124,-110.04,0.0043716
7862,1.0588,0.36364,0.1,0.00053747,5370.9,0.00053971,5439.9,-0.00016495,145.34,-0.00018487,-4.341,0.0049021
7863,1.0588,0.54545,0.1,0.0005313,5309.3,0.0005368,5491.8,-0.00014256,387.29,-0.00019425,-1.0746,0.0053446
7864,1.0588,0.72727,0.1,0.00052933,5289.6,0.00053726,5578.7,-0.00012056,636.08,-0.00020527,-0.35879,0.0057125
7865,1.0588,0.90909,0.1,0.00053166,5312.9,0.00054111,5696.2,-0.00010053,875.12,-0.000217,0.051661,0.0060181
7866,1.0588,1.0909,0.1,0.00053789,5375.2,0.00054809,5838.5,-8.3271e-05,1094.7,-0.00022892,0.27137,0.0062721
7867,1.0588,1.2727,0.1,0.00054718,5468,0.00055759,5998.4,-6.8879e-05,1291.3,-0.00024068,0.41241,0.0064834
7868,1.0588,1.4545,0.1,0.00055851,5581.3,0.00056883,6168,-5.7084e-05,1465.2,-0.00025202,0.50731,0.0066588
7869,1.0588,1.6364,0.1,0.00057094,5705.4,0.000581,6340,-4.7508e-05,1617.6,-0.00026273,0.57759,0.0068041
7870,1.0588,1.8182,0.1,0.00058363,5832.3,0.00059338,6507.3,-3.9815e-05,1749.7,-0.00027261,0.63136,0.0069235
7871,1.0588,2,0.1,0.00059589,5954.8,0.00060533,6663.8,-3.376e-05,1861.9,-0.00028148,0.67091,0.0070208
7872,1.0588,2.1818,0.1,0.00060714,6067.2,0.00061632,6804,-2.9165e-05,1954.1,-0.00028915,0.69574,0.0070985
7873,1.0588,2.3636,0.1,0.00061687,6164.4,0.00062585,6923.1,-2.5859e-05,2026.4,-0.00029547,0.70638,0.0071588
7874,1.0588,2.5455,0.1,0.00062462,6241.9,0.00063346,7016.7,-2.3655e-05,2079.4,-0.00030031,0.70629,0.007203
7875,1.0588,2.7273,0.1,0.00063002,6295.9,0.00063879,7081.3,-2.2344e-05,2113.8,-0.00030358,0.70109,0.0072321
7876,1.0588,2.9091,0.1,0.0006328,6323.6,0.00064153,7114.2,-2.1743e-05,2130.6,-0.00030522,0.69662,0.0072466
7877,1.0588,3.0909,0.1,0.0006328,6323.6,0.00064153,7114.2,-2.1743e-05,2130.6,-0.00030522,0.69662,0.0072466
7878,1.0588,3.2727,0.1,0.00063002,6295.9,0.00063879,7081.3,-2.2344e-05,2113.8,-0.00030358,0.70109,0.0072321
7879,1.0588,3.4545,0.1,0.00062462,6241.9,0.00063346,7016.7,-2.3655e-05,2079.4,-0.00030031,0.70629,0.007203
7880,1.0588,3.6364,0.1,0.00061687,6164.4,0.00062585,6923.1,-2.5859e-05,2026.4,-0.00029547,0.70638,0.0071588
7881,1.0588,3.8182,0.1,0.00060714,6067.2,0.00061632,6804,-2.9164e-05,1954.1,-0.00028915,0.69574,0.0070985
7882,1.0588,4,0.1,0.00059589,5954.8,0.00060533,6663.8,-3.376e-05,1861.9,-0.00028148,0.67091,0.0070208
7883,1.0588,4.1818,0.1,0.00058363,5832.2,0.00059338,6507.3,-3.9815e-05,1749.7,-0.00027261,0.63136,0.0069235
7884,1.0588,4.3636,0.1,0.00057094,5705.4,0.000581,6340,-4.7508e-05,1617.6,-0.00026273,0.57759,0.0068041
7885,1.0588,4.5455,0.1,0.00055851,5581.3,0.00056883,6168,-5.7084e-05,1465.2,-0.00025202,0.50731,0.0066588
7886,1.0588,4.7273,0.1,0.00054718,5468,0.00055759,5998.4,-6.8878e-05,1291.3,-0.00024068,0.41241,0.0064834
7887,1.0588,4.9091,0.1,0.00053789,5375.2,0.00054809,5838.5,-8.3271e-05,1094.7,-0.00022892,0.27137,0.0062721
7888,1.0588,5.0909,0.1,0.00053166,5312.9,0.00054111,5696.2,-0.00010053,875.12,-0.000217,0.051661,0.0060181
7889,1.0588,5.2727,0.1,0.00052933,5289.6,0.00053726,5578.7,-0.00012056,636.08,-0.00020527,-0.35879,0.0057125
7890,1.0588,5.4545,0.1,0.0005313,5309.3,0.0005368,5491.8,-0.00014256,387.29,-0.00019425,-1.0746,0.0053446
7891,1.0588,5.6364,0.1,0.00053747,5370.9,0.00053971,5439.9,-0.00016495,145.34,-0.00018487,-4.341,0.0049021
7892,1.0588,5.8182,0.1,0.00055058,5502,0.00054874,5449.9,-0.00017557,7.7026,-0.00019124,-110.04,0.0043716
7893,1.2353,0.18182,0.1,0.00053786,5374.9,0.00053589,5319,-0.00017124,5.9516,-0.00018741,-115.56,0.0061649
7894,1.2353,0.36364,0.1,0.0005281,5277.4,0.00052954,5321,-0.00016596,95.341,-0.00017952,-6.5948,0.0067873
7895,1.2353,0.54545,0.1,0.00052456,5241.9,0.00052887,5380.9,-0.00014832,292.75,-0.0001876,-2.4384,0.0073201
7896,1.2353,0.72727,0.1,0.00052452,5241.6,0.00053123,5474.5,-0.00013027,504.29,-0.0001976,-1.6573,0.0077748
7897,1.2353,0.90909,0.1,0.0005281,5277.4,0.0005366,5598.5,-0.00011309,717,-0.00020868,-1.2527,0.0081623
7898,1.2353,1.0909,0.1,0.00053515,5347.8,0.0005448,5748.3,-9.7496e-05,922.29,-0.00022038,-1.0422,0.0084923
7899,1.2353,1.2727,0.1,0.00054511,5447.3,0.00055541,5918.1,-8.3769e-05,1115.6,-0.00023236,-0.91335,0.0087729
7900,1.2353,1.4545,0.1,0.00055721,5568.3,0.0005678,6101,-7.1889e-05,1294.7,-0.00024431,-0.83137,0.0090109
7901,1.2353,1.6364,0.1,0.00057063,5702.4,0.00058124,6289.4,-6.1745e-05,1458.2,-0.00025592,-0.77275,0.0092117
7902,1.2353,1.8182,0.1,0.00058457,5841.6,0.00059506,6475.7,-5.3252e-05,1604.6,-0.00026691,-0.7282,0.0093799
7903,1.2353,2,0.1,0.00059827,5978.6,0.00060857,6652.7,-4.6384e-05,1731.7,-0.00027695,-0.69655,0.0095191
7904,1.2353,2.1818,0.1,0.00061105,6106.3,0.00062117,6813.5,-4.1119e-05,1837.3,-0.00028574,-0.67998,0.0096321
7905,1.2353,2.3636,0.1,0.00062227,6218.4,0.00063224,6951.6,-3.7371e-05,1920.3,-0.00029304,-0.67952,0.0097209
7906,1.2353,2.5455,0.1,0.00063132,6308.9,0.0006412,7061,-3.4941e-05,1980.7,-0.00029865,-0.69188,0.0097869
7907,1.2353,2.7273,0.1,0.00063768,6372.4,0.00064752,7137,-3.3554e-05,2019.7,-0.00030245,-0.70831,0.0098306
7908,1.2353,2.9091,0.1,0.00064097,6405.3,0.00065079,7175.9,-3.2942e-05,2038.6,-0.00030436,-0.71939,0.0098524
7909,1.2353,3.0909,0.1,0.00064097,6405.3,0.00065079,7175.9,-3.2942e-05,2038.6,-0.00030436,-0.71939,0.0098524
7910,1.2353,3.2727,0.1,0.00063768,6372.4,0.00064752,7137,-3.3554e-05,2019.7,-0.00030245,-0.70831,0.0098306
7911,1.2353,3.4545,0.1,0.00063132,6308.9,0.0006412,7061,-3.4941e-05,1980.7,-0.00029865,-0.69188,0.0097869
7912,1.2353,3.6364,0.1,0.00062227,6218.4,0.00063224,6951.6,-3.7371e-05,1920.3,-0.00029304,-0.67952,0.0097209
7913,1.2353,3.8182,0.1,0.00061105,6106.3,0.00062117,6813.5,-4.1119e-05,1837.3,-0.00028574,-0.67998,0.0096321
7914,1.2353,4,0.1,0.00059827,5978.6,0.00060857,6652.7,-4.6384e-05,1731.7,-0.00027695,-0.69655,0.0095191
7915,1.2353,4.1818,0.1,0.00058457,5841.6,0.00059506,6475.7,-5.3252e-05,1604.6,-0.00026691,-0.7282,0.0093799
7916,1.2353,4.3636,0.1,0.00057063,5702.4,0.00058124,6289.4,-6.1745e-05,1458.2,-0.00025592,-0.77275,0.0092117
7917,1.2353,4.5455,0.1,0.00055721,5568.3,0.0005678,6101,-7.1889e-05,1294.7,-0.00024431,-0.83137,0.0090109
7918,1.2353,4.7273,0.1,0.00054511,5447.3,0.00055541,5918.1,-8.3769e-05,1115.6,-0.00023236,-0.91335,0.0087729
7919,1.2353,4.9091,0.1,0.00053515,5347.8,0.0005448,5748.3,-9.7496e-05,922.29,-0.00022038,-1.0422,0.0084923
7920,1.2353,5.0909,0.1,0.0005281,5277.4,0.0005366,5598.5,-0.00011309,717,-0.00020868,-1.2527,0.0081623
7921,1.2353,5.2727,0.1,0.00052452,5241.6,0.00053123,5474.5,-0.00013027,504.29,-0.0001976,-1.6573,0.0077748
7922,1.2353,5.4545,0.1,0.00052456,5241.9,0.00052887,5380.9,-0.00014832,292.75,-0.0001876,-2.4384,0.0073201
7923,1.2353,5.6364,0.1,0.0005281,5277.4,0.00052954,5321,-0.00016596,95.341,-0.00017952,-6.5948,0.0067873
7924,1.2353,5.8182,0.1,0.00053786,5374.9,0.00053589,5319,-0.00017124,5.9516,-0.00018741,-115.56,0.0061649
7925,1.4118,0.18182,0.1,0.00051861,5182.6,0.00051647,5121.7,-0.00016452,5.0622,-0.00018174,-124.28,0.0082713
7926,1.4118,0.36364,0.1,0.00051211,5117.6,0.00051283,5139.1,-0.00016393,54.246,-0.00017256,-10.597,0.0089829
7927,1.4118,0.54545,0.1,0.00051172,5113.7,0.00051494,5214.8,-0.00015089,211.98,-0.00017951,-3.0548,0.0096058
7928,1.4118,0.72727,0.1,0.00051474,5143.8,0.00052021,5326.3,-0.00013689,389.1,-0.00018892,-1.8423,0.01015
7929,1.4118,0.90909,0.1,0.00052113,5207.7,0.00052848,5470.1,-0.00012318,573.79,-0.00019971,-1.2715,0.010624
7930,1.4118,1.0909,0.1,0.00053072,5303.6,0.00053952,5642,-0.00011024,759.93,-0.0002115,-0.96388,0.011037
7931,1.4118,1.2727,0.1,0.00054305,5426.7,0.00055289,5836.2,-9.8259e-05,943.78,-0.00022397,-0.77427,0.011396
7932,1.4118,1.4545,0.1,0.00055743,5570.5,0.00056795,6045.9,-8.7282e-05,1122.7,-0.00023679,-0.65281,0.011707
7933,1.4118,1.6364,0.1,0.00057312,5727.3,0.00058404,6263.1,-7.7349e-05,1293.7,-0.0002496,-0.56666,0.011974
7934,1.4118,1.8182,0.1,0.00058935,5889.5,0.00060044,6479.4,-6.8616e-05,1452.4,-0.00026198,-0.50088,0.012201
7935,1.4118,2,0.1,0.00060537,6049.6,0.0006165,6686.5,-6.1336e-05,1593.4,-0.00027347,-0.45317,0.012392
7936,1.4118,2.1818,0.1,0.00062043,6200,0.00063154,6875.8,-5.5733e-05,1711.9,-0.00028363,-0.43137,0.01255
7937,1.4118,2.3636,0.1,0.00063375,6333.2,0.00064484,7039.3,-5.1851e-05,1804.7,-0.0002921,-0.438,0.012675
7938,1.4118,2.5455,0.1,0.00064458,6441.3,0.00065566,7169.5,-4.9484e-05,1871.3,-0.0002986,-0.46203,0.01277
7939,1.4118,2.7273,0.1,0.00065222,6517.7,0.00066332,7259.9,-4.8253e-05,1913.4,-0.00030298,-0.49002,0.012833
7940,1.4118,2.9091,0.1,0.00065618,6557.3,0.0006673,7306.3,-4.7761e-05,1933.6,-0.00030518,-0.50829,0.012864
7941,1.4118,3.0909,0.1,0.00065618,6557.3,0.0006673,7306.3,-4.7761e-05,1933.6,-0.00030518,-0.50829,0.012864
7942,1.4118,3.2727,0.1,0.00065222,6517.7,0.00066332,7259.9,-4.8253e-05,1913.4,-0.00030298,-0.49002,0.012833
7943,1.4118,3.4545,0.1,0.00064458,6441.3,0.00065566,7169.5,-4.9484e-05,1871.3,-0.0002986,-0.46203,0.01277
7944,1.4118,3.6364,0.1,0.00063375,6333.2,0.00064484,7039.3,-5.1851e-05,1804.7,-0.0002921,-0.438,0.012675
7945,1.4118,3.8182,0.1,0.00062043,6200,0.00063154,6875.8,-5.5733e-05,1711.9,-0.00028363,-0.43137,0.01255
7946,1.4118,4,0.1,0.00060537,6049.6,0.0006165,6686.5,-6.1336e-05,1593.4,-0.00027347,-0.45317,0.012392
7947,1.4118,4.1818,0.1,0.00058935,5889.5,0.00060044,6479.4,-6.8616e-05,1452.4,-0.00026198,-0.50088,0.012201
7948,1.4118,4.3636,0.1,0.00057312,5727.3,0.00058404,6263.1,-7.7349e-05,1293.7,-0.0002496,-0.56666,0.011974
7949,1.4118,4.5455,0.1,0.00055743,5570.5,0.00056795,6045.9,-8.7282e-05,1122.7,-0.00023679,-0.65281,0.011707
7950,1.4118,4.7273,0.1,0.00054305,5426.7,0.00055289,5836.2,-9.8259e-05,943.78,-0.00022397,-0.77427,0.011396
7951,1.4118,4.9091,0.1,0.00053072,5303.6,0.00053952,5641.9,-0.00011024,759.93,-0.0002115,-0.96388,0.011037
7952,1.4118,5.0909,0.1,0.00052113,5207.7,0.00052848,5470.1,-0.00012318,573.79,-0.00019971,-1.2715,0.010624
7953,1.4118,5.2727,0.1,0.00051474,5143.8,0.00052021,5326.3,-0.00013689,389.1,-0.00018892,-1.8423,0.01015
7954,1.4118,5.4545,0.1,0.00051172,5113.7,0.00051494,5214.8,-0.00015089,211.98,-0.00017951,-3.0548,0.0096058
7955,1.4118,5.6364,0.1,0.00051211,5117.6,0.00051283,5139.1,-0.00016393,54.246,-0.00017256,-10.597,0.0089829
7956,1.4118,5.8182,0.1,0.00051861,5182.6,0.00051647,5121.7,-0.00016452,5.0622,-0.00018174,-124.28,0.0082713
7957,1.5882,0.18182,0.1,0.0004931,4927.6,0.00049072,4860.6,-0.0001556,4.4666,-0.0001742,-135.32,0.01068
7958,1.5882,0.36364,0.1,0.00048977,4894.3,0.0004898,4895.6,-0.00015834,25.749,-0.0001648,-22.789,0.011479
7959,1.5882,0.54545,0.1,0.000493,4926.6,0.00049516,4993.1,-0.00015059,141.16,-0.00017005,-5.0171,0.012192
7960,1.5882,0.72727,0.1,0.00050004,4996.9,0.00050421,5131.5,-0.00014091,284.31,-0.00017913,-2.8441,0.012828
7961,1.5882,0.90909,0.1,0.00051065,5103,0.00051665,5306.9,-0.00013132,438.3,-0.00018992,-1.9567,0.013395
7962,1.5882,1.0909,0.1,0.00052449,5241.3,0.00053207,5514.6,-0.00012202,599.99,-0.00020207,-1.4812,0.0139
7963,1.5882,1.2727,0.1,0.00054097,5405.9,0.00054989,5748.2,-0.0001129,768.27,-0.00021531,-1.1895,0.014348
7964,1.5882,1.4545,0.1,0.00055935,5589.6,0.00056935,6000.1,-0.00010386,941.82,-0.00022934,-1.0028,0.014743
7965,1.5882,1.6364,0.1,0.00057886,5784.6,0.00058968,6261.1,-9.4945e-05,1117.1,-0.00024374,-0.87414,0.015088
7966,1.5882,1.8182,0.1,0.00059874,5983.3,0.00061013,6521.6,-8.6535e-05,1287.1,-0.00025794,-0.77699,0.015388
7967,1.5882,2,0.1,0.00061826,6178.3,0.00063,6771.5,-7.9248e-05,1442.4,-0.00027132,-0.71114,0.015643
7968,1.5882,2.1818,0.1,0.0006366,6361.6,0.00064857,7000.3,-7.3672e-05,1573.7,-0.0002832,-0.67489,0.015857
7969,1.5882,2.3636,0.1,0.00065286,6524.1,0.00066499,7197.8,-7.0048e-05,1675.1,-0.00029307,-0.67011,0.016029
7970,1.5882,2.5455,0.1,0.00066608,6656.2,0.00067834,7354.7,-6.8141e-05,1745.9,-0.0003006,-0.70234,0.01616
7971,1.5882,2.7273,0.1,0.00067541,6749.5,0.00068778,7463.3,-6.7389e-05,1789.2,-0.00030562,-0.74346,0.016248
7972,1.5882,2.9091,0.1,0.00068024,6797.7,0.00069267,7518.8,-6.7197e-05,1809.4,-0.00030812,-0.76907,0.016292
7973,1.5882,3.0909,0.1,0.00068024,6797.7,0.00069267,7518.8,-6.7197e-05,1809.4,-0.00030812,-0.76907,0.016292
7974,1.5882,3.2727,0.1,0.00067541,6749.5,0.00068778,7463.3,-6.7389e-05,1789.2,-0.00030562,-0.74346,0.016248
7975,1.5882,3.4545,0.1,0.00066608,6656.2,0.00067834,7354.7,-6.8141e-05,1745.9,-0.0003006,-0.70234,0.01616
7976,1.5882,3.6364,0.1,0.00065286,6524.1,0.00066499,7197.8,-7.0048e-05,1675.1,-0.00029307,-0.67011,0.016029
7977,1.5882,3.8182,0.1,0.0006366,6361.6,0.00064857,7000.3,-7.3672e-05,1573.7,-0.0002832,-0.67488,0.015857
7978,1.5882,4,0.1,0.00061826,6178.3,0.00063,6771.5,-7.9248e-05,1442.4,-0.00027132,-0.71114,0.015643
7979,1.5882,4.1818,0.1,0.00059874,5983.3,0.00061013,6521.6,-8.6535e-05,1287.1,-0.00025794,-0.77699,0.015388
7980,1.5882,4.3636,0.1,0.00057886,5784.6,0.00058968,6261.1,-9.4945e-05,1117.1,-0.00024374,-0.87414,0.015088
7981,1.5882,4.5455,0.1,0.00055935,5589.6,0.00056935,6000.1,-0.00010386,941.82,-0.00022934,-1.0028,0.014743
7982,1.5882,4.7273,0.1,0.00054097,5405.9,0.00054989,5748.2,-0.0001129,768.27,-0.00021531,-1.1895,0.014348
7983,1.5882,4.9091,0.1,0.00052449,5241.3,0.00053207,5514.6,-0.00012202,599.99,-0.00020207,-1.4812,0.0139
7984,1.5882,5.0909,0.1,0.00051065,5103,0.00051665,5306.9,-0.00013132,438.3,-0.00018992,-1.9567,0.013395
7985,1.5882,5.2727,0.1,0.00050004,4996.9,0.00050421,5131.5,-0.00014091,284.31,-0.00017913,-2.8441,0.012828
7986,1.5882,5.4545,0.1,0.000493,4926.6,0.00049516,4993.1,-0.00015059,141.16,-0.00017005,-5.0171,0.012192
7987,1.5882,5.6364,0.1,0.00048977,4894.3,0.0004898,4895.6,-0.00015834,25.749,-0.0001648,-22.789,0.011479
7988,1.5882,5.8182,0.1,0.0004931,4927.6,0.00049072,4860.6,-0.0001556,4.4666,-0.0001742,-135.32,0.01068
7989,1.7647,0.18182,0.1,0.00046114,4608.2,0.00045852,4535,-0.00014447,4.3192,-0.00016462,-147.09,0.013374
7990,1.7647,0.36364,0.1,0.00046091,4605.9,0.00046033,4589.3,-0.00014862,13.964,-0.00015667,-46.567,0.014259
7991,1.7647,0.54545,0.1,0.00046824,4679.2,0.00046938,4713.9,-0.00014726,80.699,-0.00015934,-10.072,0.015065
7992,1.7647,0.72727,0.1,0.00048029,4799.6,0.00048309,4887.5,-0.00014256,186.56,-0.00016806,-5.0259,0.015798
7993,1.7647,0.90909,0.1,0.00049658,4962.4,0.00050098,5105.8,-0.00013803,304.47,-0.00017899,-3.3174,0.016465
7994,1.7647,1.0909,0.1,0.00051646,5161.1,0.00052242,5363.1,-0.00013357,434.2,-0.00019169,-2.4283,0.017072
7995,1.7647,1.2727,0.1,0.00053909,5387.2,0.00054655,5652.2,-0.00012866,578.92,-0.00020596,-1.8752,0.017621
7996,1.7647,1.4545,0.1,0.00056349,5631,0.00057238,5963.9,-0.00012275,740.88,-0.00022156,-1.5094,0.018115
7997,1.7647,1.6364,0.1,0.00058872,5883.1,0.0005989,6287.3,-0.00011575,917.7,-0.00023805,-1.2481,0.018555
7998,1.7647,1.8182,0.1,0.00061396,6135.3,0.00062519,6610.2,-0.00010819,1099.9,-0.00025471,-1.0539,0.018942
7999,1.7647,2,0.1,0.00063846,6380.2,0.00065048,6919.7,-0.00010122,1271.7,-0.00027059,-0.888,0.019277
8000,1.7647,2.1818,0.1,0.00066138,6609.2,0.00067396,7202.3,-9.6013e-05,1417,-0.00028471,-0.81431,0.019561
8001,1.7647,2.3636,0.1,0.00068161,6811.4,0.00069459,7444.4,-9.3099e-05,1526,-0.00029631,-0.8582,0.019793
8002,1.7647,2.5455,0.1,0.00069794,6974.6,0.00071122,7634.4,-9.2148e-05,1598.2,-0.00030498,-0.90912,0.01997
8003,1.7647,2.7273,0.1,0.00070937,7088.8,0.00072285,7764.3,-9.2282e-05,1639.7,-0.00031064,-0.94966,0.020091
8004,1.7647,2.9091,0.1,0.00071522,7147.3,0.00072881,7829.9,-9.261e-05,1658.1,-0.00031342,-0.97491,0.020152
8005,1.7647,3.0909,0.1,0.00071522,7147.3,0.00072881,7829.9,-9.261e-05,1658.1,-0.00031342,-0.97491,0.020152
8006,1.7647,3.2727,0.1,0.00070937,7088.8,0.00072285,7764.3,-9.2282e-05,1639.7,-0.00031064,-0.94966,0.020091
8007,1.7647,3.4545,0.1,0.00069794,6974.6,0.00071122,7634.4,-9.2148e-05,1598.2,-0.00030498,-0.90912,0.01997
8008,1.7647,3.6364,0.1,0.00068161,6811.4,0.00069459,7444.4,-9.3099e-05,1526,-0.00029631,-0.8582,0.019793
8009,1.7647,3.8182,0.1,0.00066138,6609.2,0.00067396,7202.3,-9.6013e-05,1417,-0.00028471,-0.81431,0.019561
8010,1.7647,4,0.1,0.00063846,6380.2,0.00065048,6919.7,-0.00010122,1271.7,-0.00027059,-0.888,0.019277
8011,1.7647,4.1818,0.1,0.00061396,6135.3,0.00062519,6610.2,-0.00010819,1099.9,-0.00025471,-1.0539,0.018942
8012,1.7647,4.3636,0.1,0.00058872,5883.1,0.0005989,6287.2,-0.00011575,917.7,-0.00023805,-1.2481,0.018555
8013,1.7647,4.5455,0.1,0.00056349,5631,0.00057238,5963.9,-0.00012275,740.88,-0.00022156,-1.5094,0.018115
8014,1.7647,4.7273,0.1,0.00053909,5387.2,0.00054655,5652.2,-0.00012866,578.92,-0.00020596,-1.8752,0.017621
8015,1.7647,4.9091,0.1,0.00051646,5161.1,0.00052242,5363.1,-0.00013357,434.2,-0.00019169,-2.4283,0.017072
8016,1.7647,5.0909,0.1,0.00049658,4962.4,0.00050098,5105.8,-0.00013803,304.47,-0.00017899,-3.3174,0.016465
8017,1.7647,5.2727,0.1,0.00048029,4799.6,0.00048309,4887.5,-0.00014256,186.56,-0.00016806,-5.0259,0.015798
8018,1.7647,5.4545,0.1,0.00046824,4679.2,0.00046938,4713.9,-0.00014726,80.699,-0.00015934,-10.072,0.015065
8019,1.7647,5.6364,0.1,0.00046091,4605.9,0.00046033,4589.3,-0.00014862,13.964,-0.00015667,-46.567,0.014259
8020,1.7647,5.8182,0.1,0.00046114,4608.2,0.00045852,4535,-0.00014447,4.3192,-0.00016462,-147.09,0.013374
8021,1.9412,0.18182,0.1,0.0004224,4221.1,0.00041956,4142.2,-0.00013111,4.6586,-0.00015272,-157.67,0.016334
8022,1.9412,0.36364,0.1,0.00042523,4249.3,0.00042411,4217.8,-0.00013581,10.758,-0.00014691,-72.654,0.017305
8023,1.9412,0.54545,0.1,0.00043726,4369.6,0.00043742,4374.9,-0.00013982,37.746,-0.00014837,-26.48,0.018205
8024,1.9412,0.72727,0.1,0.00045548,4551.6,0.0004568,4592.3,-0.0001417,95.375,-0.00015602,-12.245,0.01904
8025,1.9412,0.90909,0.1,0.00047908,4787.4,0.00048154,4864.6,-0.0001437,166.75,-0.00016692,-7.71,0.019817
8026,1.9412,1.0909,0.1,0.00050706,5067.1,0.00051076,5185.6,-0.00014581,252.42,-0.00018012,-5.4085,0.020539
8027,1.9412,1.2727,0.1,0.00053819,5378.2,0.00054334,5547.5,-0.00014691,361.3,-0.00019552,-3.9238,0.021205
8028,1.9412,1.4545,0.1,0.0005711,5707.1,0.00057791,5939.9,-0.0001458,502.25,-0.00021303,-2.9397,0.021817
8029,1.9412,1.6364,0.1,0.00060447,6040.5,0.00061308,6349.3,-0.00014182,677.25,-0.00023227,-2.3128,0.022371
8030,1.9412,1.8182,0.1,0.00063726,6368.2,0.00064756,6759.2,-0.00013561,874.82,-0.00025228,-1.8444,0.022867
8031,1.9412,2,0.1,0.00066868,6682.2,0.00068038,7151.5,-0.00012908,1069.5,-0.00027164,-1.6523,0.023302
8032,1.9412,2.1818,0.1,0.00069779,6973,0.00071048,7506.3,-0.00012444,1233,-0.00028875,-1.506,0.023675
8033,1.9412,2.3636,0.1,0.00072313,7226.3,0.00073652,7804.9,-0.0001227,1349,-0.00030241,-1.2446,0.023983
8034,1.9412,2.5455,0.1,0.00074318,7426.7,0.00075703,8032.9,-0.00012327,1418.6,-0.00031224,-1.2152,0.024221
8035,1.9412,2.7273,0.1,0.00075684,7563.2,0.00077097,8183.8,-0.0001247,1454.1,-0.0003184,-1.2452,0.024384
8036,1.9412,2.9091,0.1,0.00076369,7631.6,0.00077795,8258.3,-0.00012575,1468.2,-0.00032132,-1.2367,0.024466
8037,1.9412,3.0909,0.1,0.00076369,7631.6,0.00077795,8258.3,-0.00012575,1468.2,-0.00032132,-1.2367,0.024466
8038,1.9412,3.2727,0.1,0.00075684,7563.2,0.00077097,8183.8,-0.0001247,1454.1,-0.0003184,-1.2452,0.024384
8039,1.9412,3.4545,0.1,0.00074318,7426.7,0.00075703,8032.9,-0.00012327,1418.6,-0.00031224,-1.2152,0.024221
8040,1.9412,3.6364,0.1,0.00072313,7226.3,0.00073652,7804.9,-0.0001227,1349,-0.00030241,-1.2446,0.023983
8041,1.9412,3.8182,0.1,0.00069779,6973,0.00071048,7506.3,-0.00012444,1233,-0.00028875,-1.506,0.023675
8042,1.9412,4,0.1,0.00066868,6682.2,0.00068038,7151.5,-0.00012908,1069.5,-0.00027164,-1.6523,0.023302
8043,1.9412,4.1818,0.1,0.00063726,6368.2,0.00064756,6759.2,-0.00013561,874.82,-0.00025228,-1.8444,0.022867
8044,1.9412,4.3636,0.1,0.00060447,6040.5,0.00061308,6349.3,-0.00014182,677.25,-0.00023227,-2.3128,0.022371
8045,1.9412,4.5455,0.1,0.0005711,5707.1,0.00057791,5939.9,-0.0001458,502.25,-0.00021303,-2.9397,0.021817
8046,1.9412,4.7273,0.1,0.00053819,5378.2,0.00054334,5547.5,-0.00014691,361.3,-0.00019552,-3.9238,0.021205
8047,1.9412,4.9091,0.1,0.00050706,5067.1,0.00051076,5185.6,-0.00014581,252.42,-0.00018012,-5.4085,0.020539
8048,1.9412,5.0909,0.1,0.00047908,4787.4,0.00048154,4864.6,-0.0001437,166.75,-0.00016692,-7.71,0.019817
8049,1.9412,5.2727,0.1,0.00045548,4551.6,0.0004568,4592.3,-0.0001417,95.375,-0.00015602,-12.245,0.01904
8050,1.9412,5.4545,0.1,0.00043726,4369.6,0.00043742,4374.9,-0.00013982,37.746,-0.00014837,-26.48,0.018205
8051,1.9412,5.6364,0.1,0.00042523,4249.3,0.00042411,4217.8,-0.00013581,10.758,-0.00014691,-72.654,0.017305
8052,1.9412,5.8182,0.1,0.0004224,4221.1,0.00041956,4142.2,-0.00013111,4.6586,-0.00015272,-157.67,0.016334
8053,2.1176,0.18182,0.1,0.00037648,3762.2,0.00037348,3679.8,-0.0001155,5.7641,-0.00013819,-164.71,0.019534
8054,2.1176,0.36364,0.1,0.00038248,3822.2,0.00038096,3779.4,-0.00012061,10.805,-0.00013459,-94.226,0.02059
8055,2.1176,0.54545,0.1,0.00040013,3998.5,0.00039932,3976.1,-0.00012715,20.423,-0.00013838,-63.972,0.021588
8056,2.1176,0.72727,0.1,0.00042598,4256.9,0.00042559,4246.5,-0.00013551,30.644,-0.00014627,-50.178,0.022533
8057,2.1176,0.90909,0.1,0.00045879,4584.7,0.00045872,4583.9,-0.00014584,41.449,-0.00015693,-41.882,0.023431
8058,2.1176,1.0909,0.1,0.0004972,4968.6,0.00049762,4982.2,-0.00015746,60.133,-0.00016968,-31.664,0.024283
8059,2.1176,1.2727,0.1,0.00053968,5393.1,0.00054103,5434.9,-0.0001683,105.25,-0.00018489,-19.385,0.025088
8060,2.1176,1.4545,0.1,0.00058437,5839.6,0.00058734,5932.8,-0.0001753,202.63,-0.00020365,-10.392,0.025842
8061,2.1176,1.6364,0.1,0.00062915,6287.1,0.00063447,6459.7,-0.00017641,366.98,-0.00022597,-5.3983,0.026537
8062,2.1176,1.8182,0.1,0.00067249,6720.2,0.00068046,6992.1,-0.00017216,585.88,-0.00025058,-3.2896,0.027168
8063,2.1176,2,0.1,0.00071334,7128.5,0.00072368,7501,-0.00016584,817.55,-0.00027487,-1.6528,0.027729
8064,2.1176,2.1818,0.1,0.00075063,7501.1,0.00076265,7953.9,-0.00016165,1009,-0.00029608,-1.0051,0.028216
8065,2.1176,2.3636,0.1,0.00078224,7817,0.00079527,8320.1,-0.00016144,1131.7,-0.00031231,-1.8145,0.028622
8066,2.1176,2.5455,0.1,0.00080593,8053.8,0.00081952,8582.9,-0.00016394,1193.5,-0.00032302,-1.7564,0.028938
8067,2.1176,2.7273,0.1,0.00082109,8205.2,0.00083495,8745.3,-0.00016684,1218.2,-0.00032918,-1.5202,0.029155
8068,2.1176,2.9091,0.1,0.00082831,8277.4,0.00084228,8821,-0.00016858,1225.8,-0.00033192,-1.4443,0.029266
8069,2.1176,3.0909,0.1,0.00082831,8277.4,0.00084228,8821,-0.00016858,1225.8,-0.00033192,-1.4443,0.029266
8070,2.1176,3.2727,0.1,0.00082109,8205.2,0.00083495,8745.3,-0.00016684,1218.2,-0.00032918,-1.5202,0.029155
8071,2.1176,3.4545,0.1,0.00080593,8053.8,0.00081952,8582.9,-0.00016394,1193.5,-0.00032302,-1.7564,0.028938
8072,2.1176,3.6364,0.1,0.00078224,7817,0.00079527,8320.1,-0.00016144,1131.7,-0.00031231,-1.8145,0.028622
8073,2.1176,3.8182,0.1,0.00075063,7501.1,0.00076265,7953.9,-0.00016165,1009,-0.00029608,-1.0051,0.028216
8074,2.1176,4,0.1,0.00071334,7128.5,0.00072368,7501,-0.00016584,817.55,-0.00027487,-1.6528,0.027729
8075,2.1176,4.1818,0.1,0.00067249,6720.2,0.00068046,6992.1,-0.00017216,585.88,-0.00025058,-3.2896,0.027168
8076,2.1176,4.3636,0.1,0.00062915,6287.1,0.00063447,6459.7,-0.00017641,366.98,-0.00022597,-5.3983,0.026537
8077,2.1176,4.5455,0.1,0.00058437,5839.6,0.00058734,5932.8,-0.0001753,202.63,-0.00020365,-10.392,0.025842
8078,2.1176,4.7273,0.1,0.00053968,5393.1,0.00054103,5434.9,-0.0001683,105.25,-0.00018489,-19.385,0.025088
8079,2.1176,4.9091,0.1,0.0004972,4968.6,0.00049762,4982.2,-0.00015746,60.133,-0.00016968,-31.664,0.024283
8080,2.1176,5.0909,0.1,0.00045879,4584.7,0.00045872,4583.9,-0.00014584,41.449,-0.00015693,-41.882,0.023431
8081,2.1176,5.2727,0.1,0.00042598,4256.9,0.00042559,4246.5,-0.00013551,30.644,-0.00014627,-50.178,0.022533
8082,2.1176,5.4545,0.1,0.00040013,3998.5,0.00039932,3976.1,-0.00012715,20.423,-0.00013838,-63.972,0.021588
8083,2.1176,5.6364,0.1,0.00038248,3822.2,0.00038096,3779.4,-0.00012061,10.805,-0.00013459,-94.226,0.02059
8084,2.1176,5.8182,0.1,0.00037648,3762.2,0.00037348,3679.8,-0.0001155,5.7641,-0.00013819,-164.71,0.019534
8085,2.2941,0.18182,0.1,0.00032311,3228.9,0.00032007,3146.5,-9.7622e-05,8.0604,-0.00012077,-165.84,0.022945
8086,2.2941,0.36364,0.1,0.00033296,3327.3,0.00033113,3276.9,-0.00010328,12.867,-0.00011967,-110.26,0.024085
8087,2.2941,0.54545,0.1,0.00035782,3575.8,0.00035595,3524.2,-0.00011102,15.575,-0.00012841,-115.07,0.025183
8088,2.2941,0.72727,0.1,0.00039328,3930.1,0.00039068,3858.8,-0.00012104,13.885,-0.00014304,-151.41,0.026245
8089,2.2941,0.90909,0.1,0.00043742,4371.1,0.00043373,4270.6,-0.00013306,11.908,-0.00016193,-204.99,0.027278
8090,2.2941,1.0909,0.1,0.00048874,4884,0.00048401,4755.7,-0.00014748,10.985,-0.00018309,-256.58,0.02828
8091,2.2941,1.2727,0.1,0.00054583,5454.6,0.00054069,5314.7,-0.00016509,11.694,-0.0002039,-279.86,0.029249
8092,2.2941,1.4545,0.1,0.0006067,6062.8,0.00060244,5945.6,-0.00018683,15.348,-0.00022102,-241.56,0.030176
8093,2.2941,1.6364,0.1,0.00066837,6679.1,0.00066682,6635.8,-0.00021222,31.058,-0.00023169,-115.23,0.031048
8094,2.2941,1.8182,0.1,0.00072687,7263.6,0.00072961,7348.7,-0.00022286,192.21,-0.00025078,-17.548,0.031851
8095,2.2941,2,0.1,0.00078117,7806.3,0.00078806,8031.4,-0.00021659,482.84,-0.0002821,-9.3848,0.032574
8096,2.2941,2.1818,0.1,0.00082909,8285.2,0.00083883,8618.5,-0.00021201,722.87,-0.00030926,-7.8102,0.033208
8097,2.2941,2.3636,0.1,0.00086664,8660.4,0.00087796,9055.2,-0.00021329,856.04,-0.00032754,-2.3948,0.033741
8098,2.2941,2.5455,0.1,0.00089169,8910.7,0.00090357,9327.2,-0.00021741,904.62,-0.00033811,-2.2819,0.034158
8099,2.2941,2.7273,0.1,0.00090522,9045.9,0.00091727,9468.2,-0.00022092,916.28,-0.0003431,-1.771,0.034445
8100,2.2941,2.9091,0.1,0.00091079,9101.6,0.00092289,9524.9,-0.00022266,917.65,-0.00034498,-1.3985,0.034592
8101,2.2941,3.0909,0.1,0.00091079,9101.6,0.00092289,9524.9,-0.00022266,917.65,-0.00034498,-1.3985,0.034592
8102,2.2941,3.2727,0.1,0.00090522,9045.9,0.00091727,9468.2,-0.00022092,916.28,-0.0003431,-1.771,0.034445
8103,2.2941,3.4545,0.1,0.00089169,8910.7,0.00090357,9327.2,-0.00021741,904.62,-0.00033811,-2.2819,0.034158
8104,2.2941,3.6364,0.1,0.00086664,8660.4,0.00087796,9055.2,-0.00021329,856.04,-0.00032754,-2.3948,0.033741
8105,2.2941,3.8182,0.1,0.00082909,8285.2,0.00083883,8618.5,-0.00021201,722.87,-0.00030926,-7.8102,0.033208
8106,2.2941,4,0.1,0.00078117,7806.3,0.00078806,8031.4,-0.00021659,482.84,-0.0002821,-9.3848,0.032574
8107,2.2941,4.1818,0.1,0.00072687,7263.6,0.00072961,7348.7,-0.00022286,192.21,-0.00025078,-17.548,0.031851
8108,2.2941,4.3636,0.1,0.00066837,6679.1,0.00066682,6635.8,-0.00021222,31.058,-0.00023169,-115.23,0.031048
8109,2.2941,4.5455,0.1,0.0006067,6062.8,0.00060244,5945.6,-0.00018683,15.348,-0.00022102,-241.56,0.030176
8110,2.2941,4.7273,0.1,0.00054583,5454.6,0.00054069,5314.7,-0.00016509,11.694,-0.0002039,-279.86,0.029249
8111,2.2941,4.9091,0.1,0.00048874,4884,0.00048401,4755.7,-0.00014748,10.985,-0.00018309,-256.58,0.02828
8112,2.2941,5.0909,0.1,0.00043741,4371.1,0.00043373,4270.6,-0.00013306,11.908,-0.00016193,-204.99,0.027278
8113,2.2941,5.2727,0.1,0.00039328,3930.1,0.00039068,3858.8,-0.00012104,13.885,-0.00014304,-151.41,0.026245
8114,2.2941,5.4545,0.1,0.00035782,3575.8,0.00035595,3524.2,-0.00011102,15.575,-0.00012841,-115.07,0.025183
8115,2.2941,5.6364,0.1,0.00033296,3327.3,0.00033113,3276.9,-0.00010328,12.867,-0.00011967,-110.26,0.024085
8116,2.2941,5.8182,0.1,0.00032311,3228.9,0.00032007,3146.5,-9.7622e-05,8.0604,-0.00012077,-165.84,0.022945
8117,2.4706,0.18182,0.1,0.00026236,2621.8,0.00025945,2544.7,-7.7422e-05,13.521,-0.00010041,-159.22,0.02653
8118,2.4706,0.36364,0.1,0.00027828,2780.9,0.00027615,2723.6,-8.4033e-05,17.323,-0.00010316,-126.39,0.027753
8119,2.4706,0.54545,0.1,0.00031346,3132.4,0.00031006,3041.8,-9.289e-05,14.216,-0.00011951,-185.83,0.028953
8120,2.4706,0.72727,0.1,0.00036109,3608.4,0.00035513,3452.9,-0.00010306,10.223,-0.00014449,-301.09,0.030141
8121,2.4706,0.90909,0.1,0.00041845,4181.6,0.00040908,3942.7,-0.00011456,8.2373,-0.00017536,-448.62,0.031321
8122,2.4706,1.0909,0.1,0.00048467,4843.4,0.00047154,4514.4,-0.00012825,7.8109,-0.00021008,-607.06,0.032496
8123,2.4706,1.2727,0.1,0.00055966,5592.7,0.0005432,5183.8,-0.00014564,8.2004,-0.00024639,-748.83,0.033659
8124,2.4706,1.4545,0.1,0.00064323,6427.9,0.00062516,5976.5,-0.00016913,8.4969,-0.00028062,-829.23,0.034799
8125,2.4706,1.6364,0.1,0.00073,7295,0.0007143,6894.2,-0.00020065,19.575,-0.00030425,-758.85,0.035896
8126,2.4706,1.8182,0.1,0.00081333,8127.7,0.00080482,7897.9,-0.00024377,19.135,-0.00030726,-457.88,0.036924
8127,2.4706,2,0.1,0.00088792,8873,0.00088803,8877.5,-0.00028539,60.839,-0.00030026,-50.859,0.037861
8128,2.4706,2.1818,0.1,0.00094814,9474.9,0.00095377,9649.5,-0.00028375,351.26,-0.00032951,7.3924,0.038687
8129,2.4706,2.3636,0.1,0.00098977,9890.9,0.00099706,10124,-0.00028449,494.68,-0.00035162,-9.6492,0.039385
8130,2.4706,2.5455,0.1,0.0010065,10058,0.0010144,10311,-0.00028737,530.24,-0.00035823,-2.237,0.03993
8131,2.4706,2.7273,0.1,0.00101,10093,0.001018,10350,-0.00028786,538.46,-0.00035975,-1.6855,0.040303
8132,2.4706,2.9091,0.1,0.0010095,10088,0.0010176,10347,-0.00028758,540.26,-0.0003596,-0.86585,0.040492
8133,2.4706,3.0909,0.1,0.0010095,10088,0.0010176,10347,-0.00028758,540.26,-0.0003596,-0.86585,0.040492
8134,2.4706,3.2727,0.1,0.00101,10093,0.001018,10350,-0.00028786,538.46,-0.00035975,-1.6855,0.040303
8135,2.4706,3.4545,0.1,0.0010065,10058,0.0010144,10311,-0.00028737,530.24,-0.00035823,-2.237,0.03993
8136,2.4706,3.6364,0.1,0.00098977,9890.9,0.00099706,10124,-0.00028449,494.68,-0.00035162,-9.6492,0.039385
8137,2.4706,3.8182,0.1,0.00094814,9474.9,0.00095377,9649.5,-0.00028375,351.26,-0.00032951,7.3924,0.038687
8138,2.4706,4,0.1,0.00088792,8873,0.00088803,8877.5,-0.00028539,60.84,-0.00030026,-50.859,0.037861
8139,2.4706,4.1818,0.1,0.00081333,8127.7,0.00080482,7897.9,-0.00024377,19.135,-0.00030726,-457.88,0.036924
8140,2.4706,4.3636,0.1,0.00073,7295,0.0007143,6894.2,-0.00020065,19.575,-0.00030425,-758.85,0.035896
8141,2.4706,4.5455,0.1,0.00064323,6427.9,0.00062516,5976.5,-0.00016913,8.4969,-0.00028062,-829.23,0.034799
8142,2.4706,4.7273,0.1,0.00055966,5592.7,0.0005432,5183.8,-0.00014564,8.2004,-0.00024639,-748.83,0.033659
8143,2.4706,4.9091,0.1,0.00048467,4843.4,0.00047154,4514.4,-0.00012825,7.8109,-0.00021008,-607.06,0.032496
8144,2.4706,5.0909,0.1,0.00041845,4181.6,0.00040908,3942.7,-0.00011456,8.2373,-0.00017536,-448.62,0.031321
8145,2.4706,5.2727,0.1,0.00036109,3608.4,0.00035513,3452.9,-0.00010306,10.223,-0.00014449,-301.09,0.030141
8146,2.4706,5.4545,0.1,0.00031346,3132.4,0.00031006,3041.8,-9.289e-05,14.216,-0.00011951,-185.83,0.028953
8147,2.4706,5.6364,0.1,0.00027828,2780.9,0.00027615,2723.6,-8.4033e-05,17.323,-0.00010316,-126.39,0.027753
8148,2.4706,5.8182,0.1,0.00026236,2621.8,0.00025945,2544.7,-7.7422e-05,13.521,-0.00010041,-159.22,0.02653
8149,2.6471,0.18182,0.1,0.00019564,1955.1,0.00019284,1884,-5.4966e-05,22.142,-7.8206e-05,-152.47,0.030249
8150,2.6471,0.36364,0.1,0.0002244,2242.5,0.00022122,2160.6,-6.3857e-05,18.638,-8.9018e-05,-170.41,0.031551
8151,2.6471,0.54545,0.1,0.00027527,2750.8,0.00026859,2582.9,-7.3777e-05,10.467,-0.00011736,-317.03,0.032855
8152,2.6471,0.72727,0.1,0.00033747,3372.4,0.00032531,3077.6,-8.3498e-05,5.9806,-0.00015497,-531,0.034174
8153,2.6471,0.90909,0.1,0.00040878,4085,0.0003897,3636.3,-9.3699e-05,4.208,-0.00019889,-786.13,0.035515
8154,2.6471,1.0909,0.1,0.00049039,4900.6,0.00046325,4276.3,-0.00010546,3.3136,-0.00024869,-1072.9,0.036883
8155,2.6471,1.2727,0.1,0.00058586,5854.6,0.00054987,5039,-0.00012032,3.4719,-0.00030511,-1384.9,0.038274
8156,2.6471,1.4545,0.1,0.00069841,6979.3,0.00065445,5987.3,-0.00014164,5.7784,-0.00036609,-1680.7,0.039675
8157,2.6471,1.6364,0.1,0.00083135,8307.8,0.00078403,7222.9,-0.00017694,2.5446,-0.00042444,-1857.1,0.041062
8158,2.6471,1.8182,0.1,0.00097818,9775.1,0.00093822,8812.9,-0.00023614,-10.76,-0.00046027,-1694.8,0.042395
8159,2.6471,2,0.1,0.0010772,10765,0.00106,10293,-0.00032338,-101.1,-0.00041735,-807.18,0.043624
8160,2.6471,2.1818,0.1,0.001157,11563,0.0011526,11432,-0.00037627,-54.786,-0.00039614,-204.06,0.044709
8161,2.6471,2.3636,0.1,0.0011698,11690,0.00117,11696,-0.00037964,52.725,-0.00039197,-39.889,0.045619
8162,2.6471,2.5455,0.1,0.0011521,11513,0.001153,11541,-0.0003731,74.056,-0.00038533,-17.804,0.046319
8163,2.6471,2.7273,0.1,0.0011286,11278,0.0011303,11328,-0.0003637,102.65,-0.00037778,-3.133,0.04679
8164,2.6471,2.9091,0.1,0.0011152,11144,0.0011172,11203,-0.00035814,118.2,-0.00037383,0.28402,0.047026
8165,2.6471,3.0909,0.1,0.0011152,11144,0.0011172,11203,-0.00035814,118.2,-0.00037383,0.28402,0.047026
8166,2.6471,3.2727,0.1,0.0011286,11278,0.0011303,11328,-0.0003637,102.65,-0.00037778,-3.133,0.04679
8167,2.6471,3.4545,0.1,0.0011521,11513,0.001153,11540,-0.0003731,74.056,-0.00038533,-17.804,0.046319
8168,2.6471,3.6364,0.1,0.0011698,11690,0.00117,11696,-0.00037964,52.725,-0.00039197,-39.889,0.045619
8169,2.6471,3.8182,0.1,0.001157,11563,0.0011526,11432,-0.00037627,-54.785,-0.00039614,-204.06,0.044709
8170,2.6471,4,0.1,0.0010772,10765,0.00106,10293,-0.00032338,-101.1,-0.00041735,-807.18,0.043624
8171,2.6471,4.1818,0.1,0.00097818,9775.1,0.00093822,8812.9,-0.00023614,-10.76,-0.00046027,-1694.8,0.042395
8172,2.6471,4.3636,0.1,0.00083135,8307.8,0.00078403,7222.9,-0.00017694,2.5447,-0.00042444,-1857.1,0.041062
8173,2.6471,4.5455,0.1,0.00069841,6979.3,0.00065445,5987.3,-0.00014164,5.7784,-0.00036609,-1680.7,0.039675
8174,2.6471,4.7273,0.1,0.00058586,5854.6,0.00054987,5039,-0.00012032,3.4719,-0.00030511,-1384.9,0.038274
8175,2.6471,4.9091,0.1,0.00049039,4900.6,0.00046325,4276.3,-0.00010546,3.3136,-0.00024869,-1072.9,0.036883
8176,2.6471,5.0909,0.1,0.00040878,4085,0.0003897,3636.3,-9.3699e-05,4.208,-0.00019889,-786.13,0.035515
8177,2.6471,5.2727,0.1,0.00033747,3372.4,0.00032531,3077.6,-8.3498e-05,5.9806,-0.00015497,-531,0.034174
8178,2.6471,5.4545,0.1,0.00027527,2750.8,0.00026859,2582.9,-7.3777e-05,10.467,-0.00011736,-317.03,0.032855
8179,2.6471,5.6364,0.1,0.0002244,2242.5,0.00022122,2160.6,-6.3857e-05,18.638,-8.9018e-05,-170.41,0.031551
8180,2.6471,5.8182,0.1,0.00019564,1955.1,0.00019284,1884,-5.4966e-05,22.142,-7.8206e-05,-152.47,0.030249
8181,2.8235,0.18182,0.1,0.00013419,1341,0.00012976,1244.6,-2.9809e-05,45.659,-6.2977e-05,-203.56,0.034056
8182,2.8235,0.36364,0.1,0.00019536,1952.2,0.00018648,1748.9,-4.3378e-05,21.839,-9.5421e-05,-369.19,0.035431
8183,2.8235,0.54545,0.1,0.00026896,2687.7,0.00025201,2310,-5.3362e-05,15.521,-0.00014154,-647.04,0.036837
8184,2.8235,0.72727,0.1,0.00034838,3481.4,0.00032123,2891.8,-6.1942e-05,12.757,-0.00019372,-977.4,0.03829
8185,2.8235,0.90909,0.1,0.00043573,4354.3,0.00039628,3515.4,-6.9989e-05,11.993,-0.00025254,-1359.6,0.039803
8186,2.8235,1.0909,0.1,0.0005356,5352.3,0.00048123,4216.6,-7.8084e-05,14.18,-0.00032075,-1809.1,0.041381
8187,2.8235,1.2727,0.1,0.00065603,6555.7,0.00058313,5052.8,-8.7824e-05,11.532,-0.00040323,-2358.3,0.043028
8188,2.8235,1.4545,0.1,0.0008101,8095.4,0.00071432,6150.3,-9.938e-05,36.485,-0.00050755,-3030.4,0.044739
8189,2.8235,1.6364,0.1,0.0010333,10326,0.00090528,7717.8,-0.00012437,-18.667,-0.00065533,-4008.1,0.046497
8190,2.8235,1.8182,0.1,0.0013601,13591,0.0012225,10791,-0.00018423,221.38,-0.00081806,-4540.9,0.048256
8191,2.8235,2,0.1,0.0016316,16305,0.0015623,14902,-0.00031498,796.34,-0.0008136,-2950.1,0.049924
8192,2.8235,2.1818,0.1,0.0015361,15351,0.0015171,14838,-0.00045583,14.89,-0.00058954,-989.7,0.05138
8193,2.8235,2.3636,0.1,0.0014212,14203,0.0014089,13865,-0.0004323,31.532,-0.00052687,-679.06,0.052546
8194,2.8235,2.5455,0.1,0.0013056,13047,0.0012975,12818,-0.00040868,-1.3413,-0.00046789,-446.22,0.05341
8195,2.8235,2.7273,0.1,0.0012392,12384,0.0012333,12216,-0.0003917,6.4413,-0.00043714,-334.98,0.053976
8196,2.8235,2.9091,0.1,0.0012082,12073,0.0012032,11932,-0.00038456,1.8851,-0.00042213,-280.37,0.054255
8197,2.8235,3.0909,0.1,0.0012082,12073,0.0012032,11932,-0.00038456,1.8851,-0.00042213,-280.37,0.054255
8198,2.8235,3.2727,0.1,0.0012392,12384,0.0012333,12216,-0.0003917,6.4413,-0.00043714,-334.98,0.053976
8199,2.8235,3.4545,0.1,0.0013056,13047,0.0012975,12818,-0.00040868,-1.3414,-0.00046789,-446.22,0.05341
8200,2.8235,3.6364,0.1,0.0014212,14203,0.0014089,13865,-0.0004323,31.532,-0.00052687,-679.06,0.052546
8201,2.8235,3.8182,0.1,0.0015361,15350,0.0015171,14838,-0.00045583,14.89,-0.00058954,-989.7,0.05138
8202,2.8235,4,0.1,0.0016316,16305,0.0015623,14902,-0.00031498,796.34,-0.0008136,-2950.1,0.049924
8203,2.8235,4.1818,0.1,0.0013601,13591,0.0012225,10791,-0.00018423,221.38,-0.00081806,-4540.9,0.048256
8204,2.8235,4.3636,0.1,0.0010333,10326,0.00090528,7717.8,-0.00012437,-18.667,-0.00065533,-4008.1,0.046497
8205,2.8235,4.5455,0.1,0.0008101,8095.4,0.00071432,6150.3,-9.938e-05,36.485,-0.00050755,-3030.4,0.044739
8206,2.8235,4.7273,0.1,0.00065603,6555.7,0.00058313,5052.8,-8.7824e-05,11.532,-0.00040323,-2358.3,0.043028
8207,2.8235,4.9091,0.1,0.0005356,5352.3,0.00048123,4216.6,-7.8084e-05,14.18,-0.00032075,-1809.1,0.041381
8208,2.8235,5.0909,0.1,0.00043573,4354.3,0.00039628,3515.4,-6.9989e-05,11.993,-0.00025254,-1359.6,0.039803
8209,2.8235,5.2727,0.1,0.00034838,3481.4,0.00032123,2891.8,-6.1942e-05,12.757,-0.00019372,-977.4,0.03829
8210,2.8235,5.4545,0.1,0.00026896,2687.7,0.00025201,2310,-5.3362e-05,15.521,-0.00014154,-647.04,0.036837
8211,2.8235,5.6364,0.1,0.00019536,1952.2,0.00018648,1748.9,-4.3378e-05,21.839,-9.5421e-05,-369.19,0.035431
8212,2.8235,5.8182,0.1,0.00013419,1341,0.00012976,1244.6,-2.9809e-05,45.659,-6.2977e-05,-203.56,0.034056
8213,3.1667,3.8182,0.1,0.0020171,20157,0.001984,19257,-0.00059849,-146.9,-0.00078898,-1578.1,0.067139
8214,3.1667,3.6364,0.1,0.0015955,15944,0.0015724,15337,-0.00046195,51.435,-0.00062747,-1192.2,0.068542
8215,3.1667,3.4545,0.1,0.001402,14010,0.001385,13551,-0.00041855,-0.15124,-0.00053522,-876.79,0.069533
8216,3.1667,3.2727,0.1,0.0013013,13004,0.001288,12640,-0.00039355,5.7778,-0.00048814,-704.95,0.070167
8217,3.1667,3.0909,0.1,0.0012583,12574,0.0012465,12251,-0.0003836,2.9189,-0.00046727,-625.81,0.070478
8218,3.1667,2.9091,0.1,0.0012583,12574,0.0012465,12251,-0.0003836,2.9189,-0.00046727,-625.81,0.070478
8219,3.1667,2.7273,0.1,0.0013013,13004,0.001288,12640,-0.00039355,5.7778,-0.00048814,-704.95,0.070167
8220,3.1667,2.5455,0.1,0.001402,14010,0.001385,13551,-0.00041855,-0.15125,-0.00053522,-876.79,0.069533
8221,3.1667,2.3636,0.1,0.0015955,15944,0.0015724,15337,-0.00046195,51.435,-0.00062747,-1192.2,0.068542
8222,3.1667,2.1818,0.1,0.0020171,20157,0.001984,19257,-0.00059849,-146.9,-0.00078898,-1578.1,0.067139
8223,3,3.8182,0.1,0.0020404,20390,0.0020086,19526,-0.00060655,-123.09,-0.00079396,-1531.2,0.058919
8224,3,3.6364,0.1,0.0016076,16065,0.0015858,15488,-0.00046828,54.418,-0.00062755,-1142.2,0.060313
8225,3,3.4545,0.1,0.0014083,14073,0.0013927,13651,-0.00042386,1.3996,-0.00053198,-811,0.061296
8226,3,3.2727,0.1,0.0013056,13047,0.0012938,12722,-0.00039849,6.6228,-0.00048379,-634.24,0.061924
8227,3,3.0909,0.1,0.0012617,12609,0.0012515,12325,-0.00038841,3.5229,-0.0004624,-552.45,0.062232
8228,3,2.9091,0.1,0.0012617,12609,0.0012515,12325,-0.00038841,3.5229,-0.0004624,-552.45,0.062232
8229,3,2.7273,0.1,0.0013056,13047,0.0012938,12722,-0.00039849,6.6228,-0.00048379,-634.24,0.061924
8230,3,2.5455,0.1,0.0014083,14073,0.0013927,13651,-0.00042386,1.3995,-0.00053198,-811,0.061296
8231,3,2.3636,0.1,0.0016076,16065,0.0015858,15488,-0.00046828,54.418,-0.00062755,-1142.2,0.060313
8232,3,2.1818,0.1,0.0020404,20390,0.0020086,19526,-0.00060655,-123.09,-0.00079396,-1531.2,0.058919
8233,3.1667,5.8182,0.1,5.6502e-05,564.64,5.4025e-05,501.69,-1.4635e-05,-14.193,-2.6257e-05,-101.52,0.043828
8234,3.1667,5.6364,0.1,0.00010362,1035.5,9.6853e-05,876.41,-2.2482e-05,-20.224,-5.398e-05,-256.89,0.045677
8235,3.1667,5.4545,0.1,0.00014839,1482.8,0.00013592,1205.4,-2.7247e-05,-20.61,-8.3429e-05,-442.74,0.047569
8236,3.1667,5.2727,0.1,0.00019592,1957.8,0.00017626,1535.2,-3.1114e-05,-22.935,-0.00011623,-662.46,0.049512
8237,3.1667,5.0909,0.1,0.00024929,2491.1,0.00022064,1890.8,-3.4576e-05,-26.741,-0.0001541,-924.83,0.051514
8238,3.1667,4.9091,0.1,0.00031242,3122.1,0.00027237,2300.4,-3.7795e-05,-29.994,-0.00019975,-1246.8,0.053582
8239,3.1667,4.7273,0.1,0.00039154,3912.7,0.00033663,2801.5,-4.2099e-05,-44.15,-0.00025721,-1660.4,0.055722
8240,3.1667,4.5455,0.1,0.00050165,5013,0.00042438,3483.5,-4.447e-05,-39.188,-0.00033946,-2255.7,0.05794
8241,3.1667,4.3636,0.1,0.00064069,6402.4,0.00054295,4420,-6.5289e-05,-150.07,-0.00043097,-2897.6,0.060245
8242,3.1667,4.1818,0.1,0.0011256,11248,0.00087743,6701.8,-1.1456e-05,23.073,-0.000851,-6284.9,0.062634
8243,3.1667,4,0.1,0.0029407,29387,0.0028461,27445,-0.00062146,1391.1,-0.0013935,-4410,0.065197
8244,3,4,0.1,0.0030418,30397,0.0029473,28500,-0.00063578,1578.5,-0.00144,-4464,0.056981
8245,3,4.1818,0.1,0.0011968,11959,0.00095002,7374.2,-3.1184e-05,1.8163,-0.00088646,-6424.4,0.054406
8246,3,4.3636,0.1,0.00071047,7099.8,0.00061765,5157.6,-9.1813e-05,-173.07,-0.00045498,-2901.7,0.052076
8247,3,4.5455,0.1,0.00057433,5739.3,0.0005018,4251.2,-7.0201e-05,-46.6,-0.00036566,-2266.5,0.049884
8248,3,4.7273,0.1,0.00046233,4620.2,0.00041185,3552.1,-6.7685e-05,-50.864,-0.0002814,-1656.6,0.047834
8249,3,4.9091,0.1,0.00038023,3799.7,0.00034375,3012.8,-6.1981e-05,-35.695,-0.00022281,-1244.1,0.045915
8250,3,5.0909,0.1,0.00031216,3119.5,0.00028608,2542.5,-5.6565e-05,-32.012,-0.00017562,-926.55,0.044118
8251,3,5.2727,0.1,0.00025189,2517.2,0.00023378,2105.6,-5.0198e-05,-28.066,-0.00013571,-670.54,0.042432
8252,3,5.4545,0.1,0.00019524,1951.1,0.00018344,1674.1,-4.2783e-05,-25.674,-0.0001001,-456.34,0.040844
8253,3,5.6364,0.1,0.00013879,1386.9,0.00013204,1220.8,-3.39e-05,-26.034,-6.6782e-05,-273.1,0.039339
8254,3,5.8182,0.1,7.62e-05,761.47,7.3437e-05,689.67,-2.0672e-05,-17.429,-3.3855e-05,-116.48,0.0379
8255,3.1667,0.18182,0.1,5.6502e-05,564.64,5.4025e-05,501.69,-1.4635e-05,-14.193,-2.6257e-05,-101.52,0.043828
8256,3.1667,0.36364,0.1,0.00010362,1035.5,9.6853e-05,876.41,-2.2482e-05,-20.224,-5.398e-05,-256.89,0.045677
8257,3.1667,0.54545,0.1,0.00014839,1482.8,0.00013592,1205.4,-2.7247e-05,-20.61,-8.3429e-05,-442.74,0.047569
8258,3.1667,0.72727,0.1,0.00019592,1957.8,0.00017626,1535.2,-3.1114e-05,-22.935,-0.00011623,-662.46,0.049512
8259,3.1667,0.90909,0.1,0.00024929,2491.1,0.00022064,1890.8,-3.4576e-05,-26.741,-0.0001541,-924.83,0.051514
8260,3.1667,1.0909,0.1,0.00031242,3122.1,0.00027237,2300.4,-3.7795e-05,-29.994,-0.00019975,-1246.8,0.053582
8261,3.1667,1.2727,0.1,0.00039154,3912.7,0.00033663,2801.5,-4.2099e-05,-44.15,-0.00025721,-1660.4,0.055722
8262,3.1667,1.4545,0.1,0.00050165,5013,0.00042438,3483.5,-4.447e-05,-39.188,-0.00033946,-2255.7,0.05794
8263,3.1667,1.6364,0.1,0.00064069,6402.4,0.00054295,4420,-6.5289e-05,-150.07,-0.00043097,-2897.6,0.060245
8264,3.1667,1.8182,0.1,0.0011256,11248,0.00087743,6701.8,-1.1456e-05,23.073,-0.000851,-6284.9,0.062634
8265,3.1667,2,0.1,0.0029407,29387,0.0028461,27445,-0.00062146,1391.1,-0.0013935,-4410,0.065197
8266,3,2,0.1,0.0030418,30397,0.0029473,28500,-0.00063578,1578.5,-0.00144,-4464,0.056981
8267,3,1.8182,0.1,0.0011968,11959,0.00095002,7374.2,-3.1184e-05,1.8159,-0.00088646,-6424.4,0.054406
8268,3,1.6364,0.1,0.00071047,7099.8,0.00061765,5157.6,-9.1813e-05,-173.07,-0.00045498,-2901.7,0.052076
8269,3,1.4545,0.1,0.00057433,5739.3,0.0005018,4251.2,-7.0201e-05,-46.6,-0.00036566,-2266.5,0.049884
8270,3,1.2727,0.1,0.00046233,4620.2,0.00041185,3552.1,-6.7685e-05,-50.864,-0.0002814,-1656.6,0.047834
8271,3,1.0909,0.1,0.00038023,3799.7,0.00034375,3012.8,-6.1981e-05,-35.695,-0.00022281,-1244.1,0.045915
8272,3,0.90909,0.1,0.00031216,3119.5,0.00028608,2542.5,-5.6565e-05,-32.012,-0.00017562,-926.55,0.044118
8273,3,0.72727,0.1,0.00025189,2517.2,0.00023378,2105.6,-5.0198e-05,-28.066,-0.00013571,-670.54,0.042432
8274,3,0.54545,0.1,0.00019524,1951.1,0.00018344,1674.1,-4.2783e-05,-25.674,-0.0001001,-456.34,0.040844
8275,3,0.36364,0.1,0.00013879,1386.9,0.00013204,1220.8,-3.39e-05,-26.034,-6.6782e-05,-273.1,0.039339
8276,3,0.18182,0.1,7.62e-05,761.47,7.3437e-05,689.67,-2.0672e-05,-17.429,-3.3855e-05,-116.48,0.0379
8277,3.1667,6,0.1,7.1942e-06,71.892,5.5526e-06,65.295,2.7767e-06,44.438,-5.0967e-06,-14.719,0.042006
8278,3.351,6,0.1,6.8663e-05,686.16,6.8306e-05,676.52,-2.1069e-05,4.9901,-2.4846e-05,-23.391,0.055705
8279,3.5354,6,0.1,0.00013431,1342.1,0.00013377,1326.8,-4.3277e-05,-3.4823,-4.6387e-05,-26.855,0.069468
8280,3.7198,6,0.1,0.00019203,1918.9,0.00019151,1904.1,-6.1982e-05,-0.56194,-6.5745e-05,-28.841,0.083328
8281,3.9041,6,0.1,0.00024298,2428.1,0.00024249,2414.1,-7.8782e-05,0.11794,-8.2526e-05,-28.012,0.09732
8282,4.0885,6,0.1,0.0002869,2867,0.00028648,2854.8,-9.3336e-05,0.98613,-9.684e-05,-25.342,0.11148
8283,4.2729,6,0.1,0.00032386,3236.4,0.00032351,3226,-0.00010566,1.4052,-0.00010878,-22.041,0.12583
8284,4.4572,6,0.1,0.00035421,3539.7,0.00035392,3531.1,-0.00011583,1.5938,-0.00011853,-18.647,0.1404
8285,4.6416,6,0.1,0.00037853,3782.7,0.00037829,3775.7,-0.00012401,1.5889,-0.00012629,-15.488,0.15521
8286,4.826,6,0.1,0.00039751,3972.4,0.00039732,3966.8,-0.00013043,1.4682,-0.00013231,-12.699,0.17027
8287,5.0103,6,0.1,0.00041192,4116.3,0.00041176,4111.8,-0.00013531,1.2825,-0.00013686,-10.322,0.18561
8288,5.1947,6,0.1,0.00042245,4221.6,0.00042233,4218,-0.00013891,1.0701,-0.00014016,-8.343,0.20122
8289,5.3791,6,0.1,0.00042978,4294.8,0.00042968,4291.9,-0.00014142,0.8556,-0.00014243,-6.7225,0.21712
8290,5.5634,6,0.1,0.00043447,4341.7,0.00043439,4339.3,-0.00014305,0.65406,-0.00014386,-5.4144,0.23331
8291,5.7478,6,0.1,0.00043702,4367.2,0.00043696,4365.3,-0.00014396,0.47345,-0.00014461,-4.3728,0.2498
8292,5.9322,6,0.1,0.00043785,4375.5,0.0004378,4373.9,-0.00014429,0.31715,-0.0001448,-3.556,0.26659
8293,6.1165,6,0.1,0.0004373,4370,0.00043725,4368.6,-0.00014415,0.18564,-0.00014456,-2.9277,0.28367
8294,6.3009,6,0.1,0.00043565,4353.5,0.00043561,4352.3,-0.00014364,0.077649,-0.00014397,-2.4572,0.30104
8295,6.4853,6,0.1,0.00043313,4328.4,0.0004331,4327.3,-0.00014283,-0.0089875,-0.00014311,-2.1186,0.31872
8296,6.6696,6,0.1,0.00042993,4296.4,0.0004299,4295.4,-0.00014179,-0.076812,-0.00014203,-1.8901,0.33669
8297,6.854,6,0.1,0.0004262,4259.1,0.00042617,4258.1,-0.00014057,-0.12843,-0.00014079,-1.7532,0.35495
8298,7.0383,6,0.1,0.00042205,4217.6,0.00042202,4216.7,-0.00013921,-0.16634,-0.00013941,-1.6923,0.3735
8299,7.2227,6,0.1,0.00041758,4172.9,0.00041755,4172,-0.00013773,-0.19285,-0.00013793,-1.694,0.39233
8300,7.4071,6,0.1,0.00041286,4125.8,0.00041283,4124.8,-0.00013618,-0.21001,-0.00013638,-1.7469,0.41145
8301,7.5914,6,0.1,0.00040796,4076.8,0.00040793,4075.8,-0.00013455,-0.21963,-0.00013477,-1.8413,0.43085
8302,7.7758,6,0.1,0.00040292,4026.4,0.00040288,4025.3,-0.00013288,-0.22327,-0.00013312,-1.9686,0.45053
8303,7.9602,6,0.1,0.00039778,3975,0.00039774,3973.9,-0.00013118,-0.22227,-0.00013143,-2.1219,0.47048
8304,8.1445,6,0.1,0.00039256,3922.9,0.00039252,3921.6,-0.00012945,-0.21772,-0.00012973,-2.295,0.49071
8305,8.3289,6,0.1,0.00038729,3870.3,0.00038725,3868.9,-0.0001277,-0.21051,-0.000128,-2.4828,0.51119
8306,8.5133,6,0.1,0.00038199,3817.3,0.00038194,3815.8,-0.00012594,-0.20138,-0.00012627,-2.6811,0.53195
8307,8.6976,6,0.1,0.00037667,3764.1,0.00037662,3762.6,-0.00012417,-0.19093,-0.00012453,-2.8864,0.55296
8308,8.882,6,0.1,0.00037134,3710.9,0.00037129,3709.2,-0.00012241,-0.17962,-0.00012279,-3.0957,0.57422
8309,9.0664,6,0.1,0.00036601,3657.6,0.00036596,3655.9,-0.00012064,-0.16781,-0.00012105,-3.3067,0.59574
8310,9.2507,6,0.1,0.00036069,3604.4,0.00036063,3602.6,-0.00011887,-0.15579,-0.00011931,-3.5175,0.61751
8311,9.4351,6,0.1,0.00035538,3551.3,0.00035531,3549.4,-0.0001171,-0.1438,-0.00011758,-3.7267,0.63952
8312,9.6195,6,0.1,0.00035008,3498.4,0.00035001,3496.3,-0.00011534,-0.13199,-0.00011585,-3.9331,0.66178
8313,9.8038,6,0.1,0.0003448,3445.6,0.00034472,3443.4,-0.00011359,-0.12047,-0.00011412,-4.1358,0.68427
8314,9.9882,6,0.1,0.00033953,3393,0.00033946,3390.7,-0.00011184,-0.10935,-0.0001124,-4.3343,0.70699
8315,10.173,6,0.1,0.00033429,3340.6,0.00033421,3338.3,-0.0001101,-0.098699,-0.00011069,-4.5281,0.72995
8316,10.357,6,0.1,0.00032906,3288.4,0.00032898,3286,-0.00010836,-0.088531,-0.00010898,-4.717,0.75313
8317,10.541,6,0.1,0.00032386,3236.4,0.00032378,3233.9,-0.00010664,-0.078873,-0.00010728,-4.9008,0.77654
8318,10.726,6,0.1,0.00031868,3184.6,0.0003186,3182.1,-0.00010492,-0.069743,-0.00010559,-5.0797,0.80016
8319,10.91,6,0.1,0.00031353,3133.1,0.00031344,3130.5,-0.00010321,-0.061134,-0.0001039,-5.2535,0.82401
8320,11.094,6,0.1,0.0003084,3081.8,0.0003083,3079.1,-0.00010151,-0.053025,-0.00010222,-5.4225,0.84806
8321,11.279,6,0.1,0.00030329,3030.8,0.00030319,3027.9,-9.9811e-05,-0.045415,-0.00010055,-5.5869,0.87232
8322,11.463,6,0.1,0.0002982,2979.9,0.0002981,2977,-9.8124e-05,-0.038309,-9.8883e-05,-5.747,0.89679
8323,11.647,6,0.1,0.00029313,2929.3,0.00029303,2926.3,-9.6444e-05,-0.031628,-9.7225e-05,-5.9028,0.92146
8324,11.832,6,0.1,0.00028809,2878.9,0.00028799,2875.9,-9.4772e-05,-0.025371,-9.5574e-05,-6.0549,0.94633
8325,12.016,6,0.1,0.00028307,2828.8,0.00028297,2825.6,-9.3108e-05,-0.019529,-9.3931e-05,-6.2035,0.9714
8326,12.201,6,0.1,0.00027807,2778.8,0.00027797,2775.6,-9.1451e-05,-0.014064,-9.2294e-05,-6.3488,0.99666
8327,12.385,6,0.1,0.0002731,2729.1,0.00027299,2725.9,-8.9802e-05,-0.0089516,-9.0665e-05,-6.4913,1.0221
8328,12.569,6,0.1,0.00026815,2679.6,0.00026803,2676.3,-8.816e-05,-0.0041596,-8.9042e-05,-6.6312,1.0477
8329,12.754,6,0.1,0.00026322,2630.4,0.0002631,2627,-8.6526e-05,0.0003273,-8.7427e-05,-6.7688,1.0735
8330,12.938,6,0.1,0.00025831,2581.3,0.00025819,2577.9,-8.4899e-05,0.0045088,-8.5819e-05,-6.9045,1.0995
8331,13.122,6,0.1,0.00025342,2532.5,0.0002533,2529,-8.328e-05,0.0084599,-8.4218e-05,-7.0385,1.1257
8332,13.307,6,0.1,0.00024856,2483.9,0.00024844,2480.3,-8.1668e-05,0.012182,-8.2624e-05,-7.1712,1.152
8333,13.491,6,0.1,0.00024371,2435.5,0.00024359,2431.8,-8.0062e-05,0.015683,-8.1036e-05,-7.3029,1.1785
8334,13.676,6,0.1,0.00023889,2387.3,0.00023877,2383.6,-7.8464e-05,0.018995,-7.9456e-05,-7.4338,1.2052
8335,13.86,6,0.1,0.00023409,2339.3,0.00023396,2335.5,-7.6873e-05,0.022136,-7.7883e-05,-7.5643,1.232
8336,14.044,6,0.1,0.00022931,2291.5,0.00022918,2287.7,-7.5289e-05,0.025117,-7.6317e-05,-7.6946,1.259
8337,14.229,6,0.1,0.00022455,2244,0.00022442,2240.1,-7.3712e-05,0.027968,-7.4757e-05,-7.8249,1.2862
8338,14.413,6,0.1,0.00021982,2196.6,0.00021968,2192.7,-7.2142e-05,0.030724,-7.3205e-05,-7.9556,1.3135
8339,14.597,6,0.1,0.0002151,2149.5,0.00021496,2145.5,-7.0579e-05,0.033361,-7.1659e-05,-8.0868,1.3409
8340,14.782,6,0.1,0.0002104,2102.6,0.00021026,2098.5,-6.9022e-05,0.03591,-7.0121e-05,-8.2189,1.3685
8341,14.966,6,0.1,0.00020573,2055.8,0.00020558,2051.7,-6.7472e-05,0.038401,-6.8589e-05,-8.3521,1.3962
8342,15.15,6,0.1,0.00020107,2009.3,0.00020093,2005.1,-6.5929e-05,0.040841,-6.7064e-05,-8.4865,1.4241
8343,15.335,6,0.1,0.00019644,1963,0.00019629,1958.7,-6.4393e-05,0.043247,-6.5546e-05,-8.6224,1.4521
8344,15.519,6,0.1,0.00019182,1916.9,0.00019167,1912.5,-6.2863e-05,0.045625,-6.4035e-05,-8.7601,1.4803
8345,15.704,6,0.1,0.00018723,1871,0.00018708,1866.5,-6.134e-05,0.048003,-6.2531e-05,-8.8997,1.5085
8346,15.888,6,0.1,0.00018265,1825.3,0.0001825,1820.8,-5.9823e-05,0.050409,-6.1033e-05,-9.0415,1.5369
8347,16.072,6,0.1,0.0001781,1779.8,0.00017794,1775.2,-5.8313e-05,0.052822,-5.9543e-05,-9.1855,1.5654
8348,16.257,6,0.1,0.00017357,1734.5,0.00017341,1729.8,-5.681e-05,0.055275,-5.8059e-05,-9.3321,1.5941
8349,16.441,6,0.1,0.00016905,1689.4,0.00016889,1684.6,-5.5312e-05,0.057792,-5.6582e-05,-9.4814,1.6228
8350,16.625,6,0.1,0.00016456,1644.4,0.00016439,1639.6,-5.3821e-05,0.060379,-5.5112e-05,-9.6335,1.6517
8351,16.81,6,0.1,0.00016008,1599.7,0.00015992,1594.8,-5.2337e-05,0.063061,-5.3648e-05,-9.7886,1.6807
8352,16.994,6,0.1,0.00015563,1555.2,0.00015546,1550.2,-5.0858e-05,0.065841,-5.2191e-05,-9.9469,1.7098
8353,17.178,6,0.1,0.00015119,1510.9,0.00015102,1505.8,-4.9386e-05,0.068749,-5.0741e-05,-10.109,1.739
8354,17.363,6,0.1,0.00014678,1466.8,0.0001466,1461.6,-4.7921e-05,0.071815,-4.9297e-05,-10.273,1.7683
8355,17.547,6,0.1,0.00014238,1422.8,0.0001422,1417.6,-4.6461e-05,0.07503,-4.786e-05,-10.442,1.7977
8356,17.732,6,0.1,0.000138,1379.1,0.00013782,1373.8,-4.5007e-05,0.078427,-4.643e-05,-10.614,1.8272
8357,17.916,6,0.1,0.00013364,1335.5,0.00013346,1330.1,-4.3559e-05,0.082035,-4.5006e-05,-10.79,1.8567
8358,18.1,6,0.1,0.0001293,1292.1,0.00012911,1286.6,-4.2118e-05,0.085869,-4.3589e-05,-10.969,1.8864
8359,18.285,6,0.1,0.00012498,1248.9,0.00012479,1243.4,-4.0682e-05,0.08996,-4.2178e-05,-11.152,1.9162
8360,18.469,6,0.1,0.00012068,1205.9,0.00012048,1200.3,-3.9252e-05,0.094323,-4.0774e-05,-11.339,1.946
8361,18.653,6,0.1,0.00011639,1163.1,0.00011619,1157.3,-3.7828e-05,0.098995,-3.9375e-05,-11.529,1.9759
8362,18.838,6,0.1,0.00011212,1120.4,0.00011192,1114.6,-3.6409e-05,0.10402,-3.7983e-05,-11.723,2.0059
8363,19.022,6,0.1,0.00010787,1078,0.00010767,1072,-3.4996e-05,0.1094,-3.6597e-05,-11.92,2.036
8364,19.206,6,0.1,0.00010364,1035.7,0.00010343,1029.6,-3.3589e-05,0.11518,-3.5218e-05,-12.12,2.0662
8365,19.391,6,0.1,9.9424e-05,993.55,9.9211e-05,987.39,-3.2187e-05,0.12142,-3.3844e-05,-12.323,2.0964
8366,19.575,6,0.1,9.5226e-05,951.6,9.5008e-05,945.34,-3.0791e-05,0.12813,-3.2476e-05,-12.529,2.1267
8367,19.76,6,0.1,9.1044e-05,909.81,9.0823e-05,903.44,-2.94e-05,0.13538,-3.1113e-05,-12.737,2.157
8368,19.944,6,0.1,8.6879e-05,868.19,8.6654e-05,861.71,-2.8014e-05,0.14321,-2.9756e-05,-12.946,2.1874
8369,20.128,6,0.1,8.273e-05,826.73,8.2501e-05,820.15,-2.6634e-05,0.15167,-2.8405e-05,-13.157,2.2179
8370,20.313,6,0.1,7.8597e-05,785.43,7.8364e-05,778.74,-2.5259e-05,0.16084,-2.7059e-05,-13.367,2.2484
8371,20.497,6,0.1,7.448e-05,744.28,7.4242e-05,737.48,-2.3888e-05,0.17077,-2.5718e-05,-13.577,2.279
8372,20.681,6,0.1,7.0378e-05,703.29,7.0136e-05,696.39,-2.2523e-05,0.18155,-2.4382e-05,-13.785,2.3096
8373,20.866,6,0.1,6.6291e-05,662.45,6.6045e-05,655.44,-2.1163e-05,0.19326,-2.3051e-05,-13.991,2.3403
8374,21.05,6,0.1,6.222e-05,621.77,6.1969e-05,614.65,-1.9808e-05,0.20602,-2.1724e-05,-14.191,2.371
8375,21.235,6,0.1,5.8164e-05,581.23,5.7909e-05,574.01,-1.8458e-05,0.21994,-2.0402e-05,-14.386,2.4018
8376,21.419,6,0.1,5.4122e-05,540.85,5.3863e-05,533.53,-1.7114e-05,0.23517,-1.9085e-05,-14.572,2.4325
8377,21.603,6,0.1,5.0097e-05,500.62,4.9833e-05,493.21,-1.5775e-05,0.25189,-1.7771e-05,-14.747,2.4634
8378,21.788,6,0.1,4.6087e-05,460.55,4.5819e-05,453.05,-1.4441e-05,0.27031,-1.6462e-05,-14.909,2.4942
8379,21.972,6,0.1,4.2094e-05,420.65,4.1822e-05,413.06,-1.3114e-05,0.29071,-1.5156e-05,-15.053,2.5251
8380,22.156,6,0.1,3.8118e-05,380.92,3.7842e-05,373.25,-1.1793e-05,0.31343,-1.3855e-05,-15.174,2.556
8381,22.341,6,0.1,3.4162e-05,341.38,3.3881e-05,333.65,-1.048e-05,0.33894,-1.2557e-05,-15.268,2.587
8382,22.525,6,0.1,3.0227e-05,302.07,2.9942e-05,294.28,-9.1751e-06,0.36784,-1.1264e-05,-15.326,2.6179
8383,22.709,6,0.1,2.6318e-05,263,2.6029e-05,255.18,-7.8801e-06,0.40105,-9.9748e-06,-15.338,2.6489
8384,22.894,6,0.1,2.2439e-05,224.24,2.2145e-05,216.4,-6.5972e-06,0.43958,-8.6907e-06,-15.29,2.6799
8385,23.078,6,0.1,1.8599e-05,185.86,1.83e-05,178.03,-5.3298e-06,0.48624,-7.4121e-06,-15.159,2.7109
8386,23.263,6,0.1,1.4809e-05,147.99,1.4504e-05,140.2,-4.0832e-06,0.54005,-6.14e-06,-14.914,2.742
8387,23.447,6,0.1,1.1089e-05,110.82,1.0776e-05,103.12,-2.8651e-06,0.62469,-4.8736e-06,-14.467,2.773
8388,23.631,6,0.1,7.4868e-06,74.817,7.1576e-06,67.202,-1.6933e-06,0.70006,-3.6238e-06,-13.805,2.804
8389,23.816,6,0.1,4.0122e-06,40.094,3.6838e-06,33.366,-6.1573e-07,1.0603,-2.2883e-06,-11.507,2.8351
8390,24,6,0.1,9.4721e-07,9.4656,7.41e-07,5.1707,-8.6604e-08,-1.0477,-7.0883e-07,-5.7229,2.8661
8391,24,5.8182,0.1,3.9739e-06,39.712,1.9553e-06,6.7377,7.745e-07,-2.1346,-3.8205e-06,-36.66,2.8663
8392,24,5.6364,0.1,6.7117e-06,67.071,2.9018e-06,7.1269,1.6647e-06,-2.1682,-6.5788e-06,-64.107,2.8664
8393,24,5.4545,0.1,8.8204e-06,88.143,3.6211e-06,7.2507,2.3403e-06,-2.3727,-8.6979e-06,-85.31,2.8665
8394,24,5.2727,0.1,1.0578e-05,105.71,4.208e-06,7.2907,2.9175e-06,-2.4057,-1.0461e-05,-102.93,2.8667
8395,24,5.0909,0.1,1.2076e-05,120.67,4.7038e-06,7.2699,3.411e-06,-2.4433,-1.1964e-05,-117.97,2.8668
8396,24,4.9091,0.1,1.3368e-05,133.59,5.1291e-06,7.23,3.8387e-06,-2.4653,-1.3261e-05,-130.94,2.8669
8397,24,4.7273,0.1,1.4488e-05,144.78,5.496e-06,7.1797,4.21e-06,-2.4829,-1.4384e-05,-142.19,2.8671
8398,24,4.5455,0.1,1.5458e-05,154.47,5.8127e-06,7.1272,4.532e-06,-2.496,-1.5356e-05,-151.93,2.8672
8399,24,4.3636,0.1,1.6292e-05,162.81,6.0848e-06,7.0759,4.8095e-06,-2.5063,-1.6193e-05,-160.31,2.8673
8400,24,4.1818,0.1,1.7003e-05,169.92,6.3163e-06,7.0284,5.0462e-06,-2.5144,-1.6906e-05,-167.46,2.8673
8401,24,4,0.1,1.76e-05,175.88,6.5102e-06,6.986,5.245e-06,-2.5207,-1.7505e-05,-173.45,2.8674
8402,24,3.8182,0.1,1.8089e-05,180.76,6.669e-06,6.9498,5.4079e-06,-2.5256,-1.7995e-05,-178.36,2.8675
8403,24,3.6364,0.1,1.8474e-05,184.62,6.7941e-06,6.9203,5.5365e-06,-2.5293,-1.8382e-05,-182.24,2.8675
8404,24,3.4545,0.1,1.8761e-05,187.48,6.887e-06,6.8978,5.6319e-06,-2.532,-1.8669e-05,-185.12,2.8676
8405,24,3.2727,0.1,1.895e-05,189.37,6.9484e-06,6.8828,5.6951e-06,-2.5337,-1.8859e-05,-187.02,2.8676
8406,24,3.0909,0.1,1.9045e-05,190.31,6.979e-06,6.8752,5.7266e-06,-2.5346,-1.8953e-05,-187.97,2.8676
8407,24,2.9091,0.1,1.9045e-05,190.31,6.979e-06,6.8752,5.7266e-06,-2.5346,-1.8953e-05,-187.97,2.8676
8408,24,2.7273,0.1,1.895e-05,189.37,6.9484e-06,6.8828,5.6951e-06,-2.5337,-1.8859e-05,-187.02,2.8676
8409,24,2.5455,0.1,1.8761e-05,187.48,6.887e-06,6.8978,5.6319e-06,-2.532,-1.8669e-05,-185.12,2.8676
8410,24,2.3636,0.1,1.8474e-05,184.62,6.7941e-06,6.9203,5.5364e-06,-2.5293,-1.8382e-05,-182.24,2.8675
8411,24,2.1818,0.1,1.8089e-05,180.76,6.669e-06,6.9498,5.4079e-06,-2.5256,-1.7995e-05,-178.36,2.8675
8412,24,2,0.1,1.76e-05,175.88,6.5102e-06,6.986,5.245e-06,-2.5207,-1.7505e-05,-173.45,2.8674
8413,24,1.8182,0.1,1.7003e-05,169.92,6.3163e-06,7.0284,5.0462e-06,-2.5144,-1.6906e-05,-167.46,2.8673
8414,24,1.6364,0.1,1.6292e-05,162.81,6.0848e-06,7.0759,4.8095e-06,-2.5063,-1.6193e-05,-160.31,2.8673
8415,24,1.4545,0.1,1.5458e-05,154.47,5.8127e-06,7.1272,4.532e-06,-2.496,-1.5356e-05,-151.93,2.8672
8416,24,1.2727,0.1,1.4488e-05,144.78,5.496e-06,7.1797,4.21e-06,-2.4829,-1.4384e-05,-142.19,2.8671
8417,24,1.0909,0.1,1.3368e-05,133.59,5.1291e-06,7.23,3.8387e-06,-2.4653,-1.3261e-05,-130.94,2.8669
8418,24,0.90909,0.1,1.2076e-05,120.67,4.7037e-06,7.2699,3.411e-06,-2.4433,-1.1964e-05,-117.97,2.8668
8419,24,0.72727,0.1,1.0578e-05,105.71,4.208e-06,7.2907,2.9175e-06,-2.4057,-1.0461e-05,-102.93,2.8667
8420,24,0.54545,0.1,8.8204e-06,88.143,3.6211e-06,7.2507,2.3403e-06,-2.3727,-8.6979e-06,-85.31,2.8665
8421,24,0.36364,0.1,6.7117e-06,67.071,2.9018e-06,7.1269,1.6647e-06,-2.1682,-6.5788e-06,-64.107,2.8664
8422,24,0.18182,0.1,3.9739e-06,39.712,1.9553e-06,6.7376,7.745e-07,-2.1346,-3.8205e-06,-36.66,2.8663
8423,1.5894e-15,0.18182,0.1,0.00014187,1417.7,0.00018157,2594.4,2.7479e-06,1250.8,-1.563e-05,1112.7,0
8424,3.1789e-15,0.36364,0.1,0.00024017,2400.1,0.00031871,4709.6,3.6403e-06,2342.3,-4.9103e-06,2278.1,0
8425,4.7683e-15,0.54545,0.1,0.00029131,2911.1,0.00038762,5742.1,2.7392e-06,2850.3,-2.3341e-06,2812.1,0
8426,6.3578e-15,0.72727,0.1,0.00032381,3235.8,0.0004308,6380.5,1.6946e-06,3156.4,-1.4162e-06,3133,0
8427,7.9472e-15,0.90909,0.1,0.00034552,3452.8,0.00045963,6806.8,1.1392e-06,3361.9,-9.4747e-07,3346.2,0
8428,9.5366e-15,1.0909,0.1,0.00036087,3606.2,0.00048003,7108.4,8.0446e-07,3507.7,-6.6366e-07,3496.7,0
8429,1.1126e-14,1.2727,0.1,0.00037199,3717.3,0.0004948,7326.9,5.7908e-07,3613.5,-4.7319e-07,3605.6,0
8430,1.2716e-14,1.4545,0.1,0.00038011,3798.4,0.00050558,7486.4,4.2094e-07,3690.8,-3.375e-07,3685.1,0
8431,1.4305e-14,1.6364,0.1,0.00038602,3857.5,0.00051344,7602.6,3.0576e-07,3747.1,-2.3801e-07,3743,0
8432,1.5894e-14,1.8182,0.1,0.00039028,3900.1,0.0005191,7686.3,2.2049e-07,3787.7,-1.6452e-07,3784.8,0
8433,1.7484e-14,2,0.1,0.0003933,3930.3,0.00052311,7745.6,1.5724e-07,3816.4,-1.1056e-07,3814.4,0
8434,1.9073e-14,2.1818,0.1,0.00039539,3951.2,0.00052589,7786.8,1.107e-07,3836.2,-7.1525e-08,3834.9,0
8435,2.0663e-14,2.3636,0.1,0.00039681,3965.3,0.00052777,7814.5,7.6956e-08,3849.6,-4.372e-08,3848.7,0
8436,2.2252e-14,2.5455,0.1,0.00039772,3974.4,0.00052898,7832.4,5.2862e-08,3858.2,-2.408e-08,3857.7,0
8437,2.3842e-14,2.7273,0.1,0.00039826,3979.8,0.0005297,7843,3.6044e-08,3863.3,-1.0232e-08,3863,0
8438,2.5431e-14,2.9091,0.1,0.00039851,3982.3,0.00053003,7847.9,2.58e-08,3865.7,-1.4718e-09,3865.5,0
8439,2.702e-14,3.0909,0.1,0.00039851,3982.3,0.00053003,7847.9,2.58e-08,3865.7,-1.4717e-09,3865.5,0
8440,2.861e-14,3.2727,0.1,0.00039826,3979.8,0.0005297,7843,3.6044e-08,3863.3,-1.0232e-08,3863,0
8441,3.0199e-14,3.4545,0.1,0.00039772,3974.4,0.00052898,7832.4,5.2862e-08,3858.2,-2.408e-08,3857.7,0
8442,3.1789e-14,3.6364,0.1,0.00039681,3965.3,0.00052777,7814.5,7.6956e-08,3849.6,-4.372e-08,3848.7,0
8443,3.3378e-14,3.8182,0.1,0.00039539,3951.2,0.00052589,7786.8,1.107e-07,3836.2,-7.1525e-08,3834.9,0
8444,3.4968e-14,4,0.1,0.0003933,3930.3,0.00052311,7745.6,1.5724e-07,3816.4,-1.1056e-07,3814.3,0
8445,3.6557e-14,4.1818,0.1,0.00039028,3900.1,0.0005191,7686.3,2.2049e-07,3787.7,-1.6451e-07,3784.8,0
8446,3.8147e-14,4.3636,0.1,0.00038602,3857.5,0.00051344,7602.6,3.0576e-07,3747.1,-2.3801e-07,3743,0
8447,3.9736e-14,4.5455,0.1,0.00038011,3798.4,0.00050558,7486.4,4.2094e-07,3690.8,-3.375e-07,3685.1,0
8448,4.1325e-14,4.7273,0.1,0.00037199,3717.3,0.0004948,7326.9,5.7908e-07,3613.5,-4.7319e-07,3605.6,0
8449,4.2915e-14,4.9091,0.1,0.00036087,3606.2,0.00048003,7108.4,8.0446e-07,3507.7,-6.6366e-07,3496.7,0
8450,4.4504e-14,5.0909,0.1,0.00034552,3452.8,0.00045963,6806.8,1.1392e-06,3361.9,-9.4747e-07,3346.2,0
8451,4.6094e-14,5.2727,0.1,0.00032381,3235.8,0.0004308,6380.5,1.6946e-06,3156.4,-1.4162e-06,3133,0
8452,4.7683e-14,5.4545,0.1,0.00029131,2911.1,0.00038762,5742.1,2.7392e-06,2850.3,-2.3341e-06,2812.1,0
8453,4.9273e-14,5.6364,0.1,0.00024017,2400.1,0.00031871,4709.6,3.6403e-06,2342.3,-4.9103e-06,2278.1,0
8454,5.0862e-14,5.8182,0.1,0.00014187,1417.7,0.00018157,2594.4,2.748e-06,1250.8,-1.563e-05,1112.7,0
8455,24,0,0.1,9.4721e-07,9.4655,7.41e-07,5.1706,-8.6604e-08,-1.0477,-7.0883e-07,-5.7229,2.8661
8456,23.816,0,0.1,4.0122e-06,40.094,3.6838e-06,33.366,-6.1573e-07,1.0603,-2.2883e-06,-11.507,2.8351
8457,23.631,0,0.1,7.4868e-06,74.817,7.1576e-06,67.202,-1.6933e-06,0.70007,-3.6238e-06,-13.805,2.804
8458,23.447,0,0.1,1.1089e-05,110.82,1.0776e-05,103.12,-2.8651e-06,0.62469,-4.8736e-06,-14.467,2.773
8459,23.263,0,0.1,1.4809e-05,147.99,1.4504e-05,140.2,-4.0832e-06,0.54005,-6.14e-06,-14.914,2.742
8460,23.078,0,0.1,1.8599e-05,185.86,1.83e-05,178.03,-5.3298e-06,0.48624,-7.4121e-06,-15.159,2.7109
8461,22.894,0,0.1,2.2439e-05,224.24,2.2145e-05,216.4,-6.5972e-06,0.43958,-8.6907e-06,-15.29,2.6799
8462,22.709,0,0.1,2.6318e-05,263,2.6029e-05,255.18,-7.8801e-06,0.40105,-9.9748e-06,-15.338,2.6489
8463,22.525,0,0.1,3.0227e-05,302.07,2.9942e-05,294.28,-9.1751e-06,0.36784,-1.1264e-05,-15.326,2.6179
8464,22.341,0,0.1,3.4162e-05,341.38,3.3881e-05,333.65,-1.048e-05,0.33894,-1.2557e-05,-15.268,2.587
8465,22.156,0,0.1,3.8118e-05,380.92,3.7842e-05,373.25,-1.1793e-05,0.31343,-1.3855e-05,-15.174,2.556
8466,21.972,0,0.1,4.2094e-05,420.65,4.1822e-05,413.06,-1.3114e-05,0.29071,-1.5156e-05,-15.053,2.5251
8467,21.788,0,0.1,4.6087e-05,460.55,4.5819e-05,453.05,-1.4441e-05,0.27031,-1.6462e-05,-14.909,2.4942
8468,21.603,0,0.1,5.0097e-05,500.62,4.9833e-05,493.21,-1.5775e-05,0.25189,-1.7771e-05,-14.747,2.4634
8469,21.419,0,0.1,5.4122e-05,540.85,5.3863e-05,533.53,-1.7114e-05,0.23517,-1.9085e-05,-14.572,2.4325
8470,21.235,0,0.1,5.8164e-05,581.23,5.7909e-05,574.01,-1.8458e-05,0.21995,-2.0402e-05,-14.386,2.4018
8471,21.05,0,0.1,6.222e-05,621.77,6.1969e-05,614.65,-1.9808e-05,0.20602,-2.1724e-05,-14.191,2.371
8472,20.866,0,0.1,6.6291e-05,662.45,6.6045e-05,655.44,-2.1163e-05,0.19326,-2.3051e-05,-13.991,2.3403
8473,20.681,0,0.1,7.0378e-05,703.29,7.0136e-05,696.39,-2.2523e-05,0.18155,-2.4382e-05,-13.785,2.3096
8474,20.497,0,0.1,7.448e-05,744.28,7.4242e-05,737.48,-2.3888e-05,0.17077,-2.5718e-05,-13.577,2.279
8475,20.313,0,0.1,7.8597e-05,785.43,7.8364e-05,778.74,-2.5259e-05,0.16084,-2.7059e-05,-13.367,2.2484
8476,20.128,0,0.1,8.273e-05,826.73,8.2501e-05,820.15,-2.6634e-05,0.15167,-2.8405e-05,-13.157,2.2179
8477,19.944,0,0.1,8.6879e-05,868.19,8.6654e-05,861.71,-2.8014e-05,0.14321,-2.9756e-05,-12.946,2.1874
8478,19.76,0,0.1,9.1044e-05,909.81,9.0823e-05,903.44,-2.94e-05,0.13539,-3.1113e-05,-12.737,2.157
8479,19.575,0,0.1,9.5226e-05,951.6,9.5008e-05,945.34,-3.0791e-05,0.12814,-3.2476e-05,-12.529,2.1267
8480,19.391,0,0.1,9.9424e-05,993.55,9.9211e-05,987.39,-3.2187e-05,0.12142,-3.3844e-05,-12.323,2.0964
8481,19.206,0,0.1,0.00010364,1035.7,0.00010343,1029.6,-3.3589e-05,0.11519,-3.5218e-05,-12.12,2.0662
8482,19.022,0,0.1,0.00010787,1078,0.00010767,1072,-3.4996e-05,0.1094,-3.6597e-05,-11.92,2.036
8483,18.838,0,0.1,0.00011212,1120.4,0.00011192,1114.6,-3.6409e-05,0.10402,-3.7983e-05,-11.723,2.0059
8484,18.653,0,0.1,0.00011639,1163.1,0.00011619,1157.3,-3.7828e-05,0.098997,-3.9375e-05,-11.529,1.9759
8485,18.469,0,0.1,0.00012068,1205.9,0.00012048,1200.3,-3.9252e-05,0.094323,-4.0774e-05,-11.339,1.946
8486,18.285,0,0.1,0.00012498,1248.9,0.00012479,1243.4,-4.0682e-05,0.089962,-4.2178e-05,-11.152,1.9162
8487,18.1,0,0.1,0.0001293,1292.1,0.00012911,1286.6,-4.2118e-05,0.085871,-4.3589e-05,-10.969,1.8864
8488,17.916,0,0.1,0.00013364,1335.5,0.00013346,1330.1,-4.3559e-05,0.082038,-4.5006e-05,-10.79,1.8567
8489,17.732,0,0.1,0.000138,1379.1,0.00013782,1373.8,-4.5007e-05,0.078428,-4.643e-05,-10.614,1.8272
8490,17.547,0,0.1,0.00014238,1422.8,0.0001422,1417.6,-4.6461e-05,0.075031,-4.786e-05,-10.442,1.7977
8491,17.363,0,0.1,0.00014678,1466.8,0.0001466,1461.6,-4.7921e-05,0.071816,-4.9297e-05,-10.273,1.7683
8492,17.178,0,0.1,0.00015119,1510.9,0.00015102,1505.8,-4.9386e-05,0.068749,-5.0741e-05,-10.109,1.739
8493,16.994,0,0.1,0.00015563,1555.2,0.00015546,1550.2,-5.0858e-05,0.065841,-5.2191e-05,-9.9469,1.7098
8494,16.81,0,0.1,0.00016008,1599.7,0.00015992,1594.8,-5.2337e-05,0.063059,-5.3648e-05,-9.7886,1.6807
8495,16.625,0,0.1,0.00016456,1644.4,0.00016439,1639.6,-5.3821e-05,0.060381,-5.5112e-05,-9.6335,1.6517
8496,16.441,0,0.1,0.00016905,1689.4,0.00016889,1684.6,-5.5312e-05,0.057791,-5.6582e-05,-9.4814,1.6228
8497,16.257,0,0.1,0.00017357,1734.5,0.00017341,1729.8,-5.681e-05,0.055275,-5.8059e-05,-9.3321,1.5941
8498,16.072,0,0.1,0.0001781,1779.8,0.00017794,1775.2,-5.8313e-05,0.052823,-5.9543e-05,-9.1855,1.5654
8499,15.888,0,0.1,0.00018265,1825.3,0.0001825,1820.8,-5.9823e-05,0.050409,-6.1033e-05,-9.0415,1.5369
8500,15.704,0,0.1,0.00018723,1871,0.00018708,1866.5,-6.134e-05,0.048004,-6.2531e-05,-8.8997,1.5085
8501,15.519,0,0.1,0.00019182,1916.9,0.00019167,1912.5,-6.2863e-05,0.045625,-6.4035e-05,-8.7601,1.4803
8502,15.335,0,0.1,0.00019644,1963,0.00019629,1958.7,-6.4393e-05,0.043247,-6.5546e-05,-8.6224,1.4521
8503,15.15,0,0.1,0.00020107,2009.3,0.00020093,2005.1,-6.5929e-05,0.040841,-6.7064e-05,-8.4865,1.4241
8504,14.966,0,0.1,0.00020573,2055.8,0.00020558,2051.7,-6.7472e-05,0.038402,-6.8589e-05,-8.3521,1.3962
8505,14.782,0,0.1,0.0002104,2102.6,0.00021026,2098.5,-6.9022e-05,0.035911,-7.0121e-05,-8.2189,1.3685
8506,14.597,0,0.1,0.0002151,2149.5,0.00021496,2145.5,-7.0579e-05,0.033361,-7.1659e-05,-8.0868,1.3409
8507,14.413,0,0.1,0.00021982,2196.6,0.00021968,2192.7,-7.2142e-05,0.030725,-7.3205e-05,-7.9556,1.3135
8508,14.229,0,0.1,0.00022455,2244,0.00022442,2240.1,-7.3712e-05,0.02797,-7.4757e-05,-7.8249,1.2862
8509,14.044,0,0.1,0.00022931,2291.5,0.00022918,2287.7,-7.5289e-05,0.025119,-7.6317e-05,-7.6946,1.259
8510,13.86,0,0.1,0.00023409,2339.3,0.00023396,2335.5,-7.6873e-05,0.022135,-7.7883e-05,-7.5643,1.232
8511,13.676,0,0.1,0.00023889,2387.3,0.00023877,2383.6,-7.8464e-05,0.018994,-7.9456e-05,-7.4338,1.2052
8512,13.491,0,0.1,0.00024371,2435.5,0.00024359,2431.8,-8.0062e-05,0.015684,-8.1036e-05,-7.3029,1.1785
8513,13.307,0,0.1,0.00024856,2483.9,0.00024844,2480.3,-8.1668e-05,0.012183,-8.2624e-05,-7.1712,1.152
8514,13.122,0,0.1,0.00025342,2532.5,0.0002533,2529,-8.328e-05,0.0084605,-8.4218e-05,-7.0385,1.1257
8515,12.938,0,0.1,0.00025831,2581.3,0.00025819,2577.9,-8.4899e-05,0.0045078,-8.5819e-05,-6.9045,1.0995
8516,12.754,0,0.1,0.00026322,2630.4,0.0002631,2627,-8.6526e-05,0.00032637,-8.7427e-05,-6.7688,1.0735
8517,12.569,0,0.1,0.00026815,2679.6,0.00026803,2676.3,-8.816e-05,-0.0041595,-8.9042e-05,-6.6312,1.0477
8518,12.385,0,0.1,0.0002731,2729.1,0.00027299,2725.9,-8.9802e-05,-0.0089524,-9.0665e-05,-6.4913,1.0221
8519,12.201,0,0.1,0.00027807,2778.8,0.00027797,2775.6,-9.1451e-05,-0.014063,-9.2294e-05,-6.3488,0.99666
8520,12.016,0,0.1,0.00028307,2828.8,0.00028297,2825.6,-9.3108e-05,-0.019528,-9.3931e-05,-6.2035,0.9714
8521,11.832,0,0.1,0.00028809,2878.9,0.00028799,2875.9,-9.4772e-05,-0.025371,-9.5575e-05,-6.0549,0.94633
8522,11.647,0,0.1,0.00029313,2929.3,0.00029303,2926.3,-9.6444e-05,-0.031631,-9.7225e-05,-5.9028,0.92146
8523,11.463,0,0.1,0.0002982,2979.9,0.0002981,2977,-9.8124e-05,-0.038308,-9.8883e-05,-5.747,0.89679
8524,11.279,0,0.1,0.00030329,3030.8,0.00030319,3027.9,-9.9811e-05,-0.045414,-0.00010055,-5.5869,0.87232
8525,11.094,0,0.1,0.0003084,3081.8,0.0003083,3079.1,-0.00010151,-0.053025,-0.00010222,-5.4225,0.84806
8526,10.91,0,0.1,0.00031353,3133.1,0.00031344,3130.5,-0.00010321,-0.061135,-0.0001039,-5.2535,0.82401
8527,10.726,0,0.1,0.00031868,3184.6,0.0003186,3182.1,-0.00010492,-0.069743,-0.00010559,-5.0797,0.80016
8528,10.541,0,0.1,0.00032386,3236.4,0.00032378,3233.9,-0.00010664,-0.078873,-0.00010728,-4.9008,0.77654
8529,10.357,0,0.1,0.00032906,3288.4,0.00032898,3286,-0.00010836,-0.088531,-0.00010898,-4.717,0.75313
8530,10.173,0,0.1,0.00033429,3340.6,0.00033421,3338.3,-0.0001101,-0.0987,-0.00011069,-4.5281,0.72995
8531,9.9882,0,0.1,0.00033953,3393,0.00033946,3390.7,-0.00011184,-0.10935,-0.0001124,-4.3343,0.70699
8532,9.8038,0,0.1,0.0003448,3445.6,0.00034472,3443.4,-0.00011359,-0.12047,-0.00011412,-4.1358,0.68427
8533,9.6195,0,0.1,0.00035008,3498.4,0.00035001,3496.3,-0.00011534,-0.13199,-0.00011585,-3.9331,0.66178
8534,9.4351,0,0.1,0.00035538,3551.3,0.00035531,3549.4,-0.0001171,-0.1438,-0.00011758,-3.7267,0.63952
8535,9.2507,0,0.1,0.00036069,3604.4,0.00036063,3602.6,-0.00011887,-0.15579,-0.00011931,-3.5175,0.61751
8536,9.0664,0,0.1,0.00036601,3657.6,0.00036596,3655.9,-0.00012064,-0.16781,-0.00012105,-3.3067,0.59574
8537,8.882,0,0.1,0.00037134,3710.9,0.00037129,3709.2,-0.00012241,-0.17962,-0.00012279,-3.0957,0.57422
8538,8.6976,0,0.1,0.00037667,3764.1,0.00037662,3762.6,-0.00012417,-0.19093,-0.00012453,-2.8864,0.55296
8539,8.5133,0,0.1,0.00038199,3817.3,0.00038194,3815.8,-0.00012594,-0.20138,-0.00012627,-2.6811,0.53195
8540,8.3289,0,0.1,0.00038729,3870.3,0.00038725,3868.9,-0.0001277,-0.21051,-0.000128,-2.4828,0.51119
8541,8.1445,0,0.1,0.00039256,3922.9,0.00039252,3921.6,-0.00012945,-0.21772,-0.00012973,-2.295,0.49071
8542,7.9602,0,0.1,0.00039778,3975,0.00039774,3973.9,-0.00013118,-0.22227,-0.00013143,-2.1219,0.47048
8543,7.7758,0,0.1,0.00040292,4026.4,0.00040288,4025.3,-0.00013288,-0.22327,-0.00013312,-1.9686,0.45053
8544,7.5914,0,0.1,0.00040796,4076.8,0.00040793,4075.8,-0.00013455,-0.21963,-0.00013477,-1.8413,0.43085
8545,7.4071,0,0.1,0.00041286,4125.8,0.00041283,4124.8,-0.00013618,-0.21001,-0.00013638,-1.7469,0.41145
8546,7.2227,0,0.1,0.00041758,4172.9,0.00041755,4172,-0.00013773,-0.19285,-0.00013793,-1.694,0.39233
8547,7.0383,0,0.1,0.00042205,4217.6,0.00042202,4216.7,-0.00013921,-0.16634,-0.00013941,-1.6923,0.3735
8548,6.854,0,0.1,0.0004262,4259.1,0.00042617,4258.1,-0.00014057,-0.12843,-0.00014079,-1.7532,0.35495
8549,6.6696,0,0.1,0.00042993,4296.4,0.0004299,4295.4,-0.00014179,-0.076812,-0.00014203,-1.8901,0.33669
8550,6.4853,0,0.1,0.00043313,4328.4,0.0004331,4327.3,-0.00014283,-0.0089883,-0.00014311,-2.1186,0.31872
8551,6.3009,0,0.1,0.00043565,4353.5,0.00043561,4352.3,-0.00014364,0.077649,-0.00014397,-2.4572,0.30104
8552,6.1165,0,0.1,0.0004373,4370,0.00043725,4368.6,-0.00014415,0.18564,-0.00014456,-2.9277,0.28367
8553,5.9322,0,0.1,0.00043785,4375.5,0.0004378,4373.9,-0.00014429,0.31714,-0.0001448,-3.556,0.26659
8554,5.7478,0,0.1,0.00043702,4367.2,0.00043696,4365.3,-0.00014396,0.47345,-0.00014461,-4.3728,0.2498
8555,5.5634,0,0.1,0.00043447,4341.7,0.00043439,4339.3,-0.00014305,0.65406,-0.00014386,-5.4144,0.23331
8556,5.3791,0,0.1,0.00042978,4294.8,0.00042968,4291.9,-0.00014142,0.8556,-0.00014243,-6.7225,0.21712
8557,5.1947,0,0.1,0.00042245,4221.6,0.00042233,4218,-0.00013891,1.0701,-0.00014016,-8.343,0.20122
8558,5.0103,0,0.1,0.00041192,4116.3,0.00041176,4111.8,-0.00013531,1.2825,-0.00013686,-10.322,0.18561
8559,4.826,0,0.1,0.00039751,3972.4,0.00039732,3966.8,-0.00013043,1.4682,-0.00013231,-12.699,0.17027
8560,4.6416,0,0.1,0.00037853,3782.7,0.00037829,3775.7,-0.00012401,1.5889,-0.00012629,-15.488,0.15521
8561,4.4572,0,0.1,0.00035421,3539.7,0.00035392,3531.1,-0.00011583,1.5938,-0.00011853,-18.647,0.1404
8562,4.2729,0,0.1,0.00032386,3236.4,0.00032351,3226,-0.00010566,1.4052,-0.00010878,-22.041,0.12583
8563,4.0885,0,0.1,0.0002869,2867,0.00028648,2854.8,-9.3336e-05,0.98613,-9.684e-05,-25.342,0.11148
8564,3.9041,0,0.1,0.00024298,2428.1,0.00024249,2414,-7.8782e-05,0.11794,-8.2526e-05,-28.012,0.09732
8565,3.7198,0,0.1,0.00019203,1918.9,0.00019151,1904.1,-6.1982e-05,-0.56194,-6.5745e-05,-28.841,0.083328
8566,3.5354,0,0.1,0.00013431,1342.1,0.00013377,1326.8,-4.3277e-05,-3.4823,-4.6387e-05,-26.855,0.069468
8567,3.351,0,0.1,6.8663e-05,686.16,6.8306e-05,676.52,-2.1069e-05,4.9901,-2.4846e-05,-23.391,0.055705
8568,3.1667,0,0.1,7.1942e-06,71.892,5.5526e-06,65.295,2.7767e-06,44.438,-5.0967e-06,-14.719,0.042006
8569,3,0,0.1,9.0518e-06,90.456,6.9949e-06,80.167,3.26e-06,52.104,-6.4688e-06,-20.994,0.036503
8570,2.8235,6.28e-31,0.1,8.5531e-05,854.72,8.4893e-05,837.5,-2.5935e-05,4.7789,-3.1582e-05,-37.646,0.032691
8571,2.6471,5.8875e-31,0.1,0.00016574,1656.3,0.00016471,1626.9,-5.2774e-05,-7.2357,-5.8559e-05,-50.708,0.028931
8572,2.4706,5.495e-31,0.1,0.00023594,2357.8,0.00023478,2324.5,-7.5149e-05,-4.1545,-8.2772e-05,-61.43,0.025271
8573,2.2941,5.1025e-31,0.1,0.00029864,2984.4,0.00029738,2948.3,-9.5495e-05,-3.6277,-0.000104,-67.505,0.021751
8574,2.1176,4.71e-31,0.1,0.00035388,3536.4,0.00035259,3499.3,-0.00011352,-2.844,-0.0001225,-70.327,0.018411
8575,1.9412,4.3175e-31,0.1,0.00040177,4015,0.00040046,3977.3,-0.00012923,-2.5886,-0.00013845,-71.894,0.015285
8576,1.7647,3.925e-31,0.1,0.00044248,4421.8,0.00044115,4383.3,-0.00014259,-2.633,-0.00015201,-73.4,0.012402
8577,1.5882,3.5325e-31,0.1,0.00047627,4759.4,0.00047488,4719.6,-0.00015365,-2.9618,-0.00016334,-75.834,0.0097871
8578,1.4118,3.14e-31,0.1,0.00050335,5030,0.00050188,4987.8,-0.00016242,-3.4912,-0.0001726,-80.023,0.0074618
8579,1.2353,2.7475e-31,0.1,0.00052378,5234.2,0.00052218,5188.2,-0.00016888,-4.2358,-0.00017988,-86.879,0.0054423
8580,1.0588,2.355e-31,0.1,0.00053726,5368.9,0.00053545,5317.1,-0.00017287,-4.9908,-0.00018517,-97.398,0.0037407
8581,0.88235,1.9625e-31,0.1,0.00054283,5424.5,0.0005407,5363.7,-0.00017401,-6.351,-0.00018829,-113.68,0.0023645
8582,0.70588,1.57e-31,0.1,0.00053828,5379,0.0005357,5305.8,-0.00017132,-6.4747,-0.00018877,-137.62,0.0013158
8583,0.52941,1.1775e-31,0.1,0.00051878,5184.2,0.00051536,5087.6,-0.00016313,-10.238,-0.00018556,-178.77,0.00059001
8584,0.35294,7.85e-32,0.1,0.00047473,4744,0.00046984,4608.9,-0.00014524,-12.56,-0.00017669,-248.87,0.0001745
8585,0.17647,3.925e-32,0.1,0.00037057,3703.1,0.00036157,3482.6,-9.6792e-05,38.726,-0.00015974,-434.21,4.6727e-05
8586,0,0,0.1,0.0002206,2204.5,0.00014934,826.85,-1.0694e-06,-303.28,-0.00018876,-1713.5,0
8587,3.937e-14,6,0.1,0.0002206,2204.5,0.00014934,826.85,-1.0694e-06,-303.28,-0.00018876,-1713.5,0
8588,0.17647,6,0.1,0.00037057,3703.1,0.00036157,3482.6,-9.6792e-05,38.726,-0.00015974,-434.21,4.6727e-05
8589,0.35294,6,0.1,0.00047473,4744,0.00046984,4608.9,-0.00014524,-12.56,-0.00017669,-248.87,0.0001745
8590,0.52941,6,0.1,0.00051878,5184.2,0.00051536,5087.6,-0.00016313,-10.238,-0.00018556,-178.77,0.00059001
8591,0.70588,6,0.1,0.00053828,5379,0.0005357,5305.8,-0.00017132,-6.4747,-0.00018877,-137.62,0.0013158
8592,0.88235,6,0.1,0.00054283,5424.5,0.0005407,5363.7,-0.00017401,-6.351,-0.00018829,-113.68,0.0023645
8593,1.0588,6,0.1,0.00053726,5368.9,0.00053545,5317.1,-0.00017287,-4.9908,-0.00018517,-97.398,0.0037407
8594,1.2353,6,0.1,0.00052378,5234.2,0.00052218,5188.2,-0.00016888,-4.2358,-0.00017988,-86.879,0.0054423
8595,1.4118,6,0.1,0.00050335,5030,0.00050188,4987.8,-0.00016242,-3.4912,-0.0001726,-80.023,0.0074618
8596,1.5882,6,0.1,0.00047627,4759.4,0.00047488,4719.6,-0.00015365,-2.9618,-0.00016334,-75.834,0.0097871
8597,1.7647,6,0.1,0.00044248,4421.8,0.00044115,4383.3,-0.00014259,-2.633,-0.00015201,-73.4,0.012402
8598,1.9412,6,0.1,0.00040177,4015,0.00040046,3977.3,-0.00012923,-2.5886,-0.00013845,-71.893,0.015285
8599,2.1176,6,0.1,0.00035388,3536.4,0.00035259,3499.3,-0.00011352,-2.844,-0.0001225,-70.327,0.018411
8600,2.2941,6,0.1,0.00029864,2984.4,0.00029738,2948.3,-9.5495e-05,-3.6277,-0.000104,-67.505,0.021751
8601,2.4706,6,0.1,0.00023594,2357.8,0.00023478,2324.5,-7.5149e-05,-4.1545,-8.2772e-05,-61.43,0.025271
8602,2.6471,6,0.1,0.00016574,1656.3,0.00016471,1626.9,-5.2774e-05,-7.2357,-5.8559e-05,-50.708,0.028931
8603,2.8235,6,0.1,8.5531e-05,854.72,8.4893e-05,837.5,-2.5935e-05,4.7789,-3.1582e-05,-37.646,0.032691
8604,3,6,0.1,9.0518e-06,90.456,6.9949e-06,80.167,3.26e-06,52.104,-6.4688e-06,-20.994,0.036503
8605,2.8235,6,0,8.5531e-05,854.72,3.1582e-05,37.646,2.5935e-05,-4.7789,-8.4893e-05,-837.5,0.032691
8606,2.6471,6,0,0.00016574,1656.3,5.8559e-05,50.708,5.2774e-05,7.2357,-0.00016471,-1626.9,0.028931
8607,2.4706,6,0,0.00023594,2357.8,8.2772e-05,61.43,7.5149e-05,4.1545,-0.00023478,-2324.5,0.025271
8608,2.2941,6,0,0.00029864,2984.4,0.000104,67.505,9.5495e-05,3.6277,-0.00029738,-2948.3,0.021751
8609,2.1176,6,0,0.00035388,3536.4,0.0001225,70.327,0.00011352,2.844,-0.00035259,-3499.3,0.018411
8610,1.9412,6,0,0.00040177,4015,0.00013845,71.894,0.00012923,2.5886,-0.00040046,-3977.3,0.015285
8611,1.7647,6,0,0.00044248,4421.8,0.00015201,73.4,0.00014259,2.633,-0.00044115,-4383.3,0.012402
8612,1.5882,6,0,0.00047627,4759.4,0.00016334,75.834,0.00015365,2.9618,-0.00047488,-4719.6,0.0097871
8613,1.4118,6,0,0.00050335,5030,0.0001726,80.023,0.00016242,3.4912,-0.00050188,-4987.8,0.0074618
8614,1.2353,6,0,0.00052378,5234.2,0.00017988,86.879,0.00016888,4.2358,-0.00052218,-5188.2,0.0054423
8615,1.0588,6,0,0.00053726,5368.9,0.00018517,97.398,0.00017287,4.9908,-0.00053545,-5317.1,0.0037407
8616,0.88235,6,0,0.00054283,5424.5,0.00018829,113.68,0.00017401,6.351,-0.0005407,-5363.7,0.0023645
8617,0.70588,6,0,0.00053828,5379,0.00018877,137.62,0.00017132,6.4747,-0.0005357,-5305.8,0.0013158
8618,0.52941,6,0,0.00051878,5184.2,0.00018556,178.77,0.00016313,10.238,-0.00051536,-5087.6,0.00059001
8619,0.35294,6,0,0.00047473,4744,0.00017669,248.87,0.00014524,12.56,-0.00046984,-4608.9,0.0001745
8620,0.17647,6,0,0.00037057,3703.1,0.00015974,434.21,9.6792e-05,-38.726,-0.00036157,-3482.6,4.6727e-05
8621,3,6,0,9.0518e-06,90.456,6.4688e-06,20.994,-3.26e-06,-52.104,-6.9949e-06,-80.167,0.036503
8622,3.937e-14,6,0,0.0002206,2204.5,0.00018876,1713.5,1.0694e-06,303.28,-0.00014934,-826.85,0
8623,0.17647,3.925e-32,0,0.00037057,3703.1,0.00015974,434.21,9.6792e-05,-38.726,-0.00036157,-3482.6,4.6727e-05
8624,0.35294,7.85e-32,0,0.00047473,4744,0.00017669,248.87,0.00014524,12.56,-0.00046984,-4608.9,0.0001745
8625,0.52941,1.1775e-31,0,0.00051878,5184.2,0.00018556,178.77,0.00016313,10.238,-0.00051536,-5087.6,0.00059001
8626,0.70588,1.57e-31,0,0.00053828,5379,0.00018877,137.62,0.00017132,6.4747,-0.0005357,-5305.8,0.0013158
8627,0.88235,1.9625e-31,0,0.00054283,5424.5,0.00018829,113.68,0.00017401,6.351,-0.0005407,-5363.7,0.0023645
8628,1.0588,2.355e-31,0,0.00053726,5368.9,0.00018517,97.398,0.00017287,4.9908,-0.00053545,-5317.1,0.0037407
8629,1.2353,2.7475e-31,0,0.00052378,5234.2,0.00017988,86.879,0.00016888,4.2358,-0.00052218,-5188.2,0.0054423
8630,1.4118,3.14e-31,0,0.00050335,5030,0.0001726,80.023,0.00016242,3.4912,-0.00050188,-4987.8,0.0074618
8631,1.5882,3.5325e-31,0,0.00047627,4759.4,0.00016334,75.834,0.00015365,2.9618,-0.00047488,-4719.6,0.0097871
8632,1.7647,3.925e-31,0,0.00044248,4421.8,0.00015201,73.4,0.00014259,2.633,-0.00044115,-4383.3,0.012402
8633,1.9412,4.3175e-31,0,0.00040177,4015,0.00013845,71.893,0.00012923,2.5886,-0.00040046,-3977.3,0.015285
8634,2.1176,4.71e-31,0,0.00035388,3536.4,0.0001225,70.327,0.00011352,2.844,-0.00035259,-3499.3,0.018411
8635,2.2941,5.1025e-31,0,0.00029864,2984.4,0.000104,67.505,9.5495e-05,3.6277,-0.00029738,-2948.3,0.021751
8636,2.4706,5.495e-31,0,0.00023594,2357.8,8.2772e-05,61.43,7.5149e-05,4.1545,-0.00023478,-2324.5,0.025271
8637,2.6471,5.8875e-31,0,0.00016574,1656.3,5.8559e-05,50.708,5.2774e-05,7.2357,-0.00016471,-1626.9,0.028931
8638,2.8235,6.28e-31,0,8.5531e-05,854.72,3.1582e-05,37.646,2.5935e-05,-4.7789,-8.4893e-05,-837.5,0.032691
8639,3,0,0,9.0518e-06,90.456,6.4688e-06,20.994,-3.26e-06,-52.104,-6.9949e-06,-80.167,0.036503
8640,0,0,0,0.0002206,2204.5,0.00018876,1713.5,1.0694e-06,303.28,-0.00014934,-826.85,0
8641,3.351,0,0,6.8663e-05,686.16,2.4846e-05,23.391,2.1069e-05,-4.9901,-6.8306e-05,-676.52,0.055705
8642,3.5354,0,0,0.00013431,1342.1,4.6387e-05,26.855,4.3277e-05,3.4823,-0.00013377,-1326.8,0.069468
8643,3.7198,0,0,0.00019203,1918.9,6.5745e-05,28.841,6.1982e-05,0.56194,-0.00019151,-1904.1,0.083328
8644,3.9041,0,0,0.00024298,2428.1,8.2526e-05,28.012,7.8782e-05,-0.11794,-0.00024249,-2414.1,0.09732
8645,4.0885,0,0,0.0002869,2867,9.684e-05,25.342,9.3336e-05,-0.98613,-0.00028648,-2854.8,0.11148
8646,4.2729,0,0,0.00032386,3236.4,0.00010878,22.041,0.00010566,-1.4052,-0.00032351,-3226,0.12583
8647,4.4572,0,0,0.00035421,3539.7,0.00011853,18.647,0.00011583,-1.5938,-0.00035392,-3531.1,0.1404
8648,4.6416,0,0,0.00037853,3782.7,0.00012629,15.488,0.00012401,-1.5889,-0.00037829,-3775.7,0.15521
8649,4.826,0,0,0.00039751,3972.4,0.00013231,12.699,0.00013043,-1.4682,-0.00039732,-3966.8,0.17027
8650,5.0103,0,0,0.00041192,4116.3,0.00013686,10.322,0.00013531,-1.2825,-0.00041176,-4111.8,0.18561
8651,5.1947,0,0,0.00042245,4221.6,0.00014016,8.343,0.00013891,-1.0701,-0.00042233,-4218,0.20122
8652,5.3791,0,0,0.00042978,4294.8,0.00014243,6.7225,0.00014142,-0.8556,-0.00042968,-4291.9,0.21712
8653,5.5634,0,0,0.00043447,4341.7,0.00014386,5.4144,0.00014305,-0.65406,-0.00043439,-4339.3,0.23331
8654,5.7478,0,0,0.00043702,4367.2,0.00014461,4.3728,0.00014396,-0.47345,-0.00043696,-4365.3,0.2498
8655,5.9322,0,0,0.00043785,4375.5,0.0001448,3.556,0.00014429,-0.31714,-0.0004378,-4373.9,0.26659
8656,6.1165,0,0,0.0004373,4370,0.00014456,2.9277,0.00014415,-0.18564,-0.00043725,-4368.6,0.28367
8657,6.3009,0,0,0.00043565,4353.5,0.00014397,2.4572,0.00014364,-0.077649,-0.00043561,-4352.3,0.30104
8658,6.4853,0,0,0.00043313,4328.4,0.00014311,2.1186,0.00014283,0.0089887,-0.0004331,-4327.3,0.31872
8659,6.6696,0,0,0.00042993,4296.4,0.00014203,1.8901,0.00014179,0.076812,-0.0004299,-4295.4,0.33669
8660,6.854,0,0,0.0004262,4259.1,0.00014079,1.7532,0.00014057,0.12843,-0.00042617,-4258.1,0.35495
8661,7.0383,0,0,0.00042205,4217.6,0.00013941,1.6923,0.00013921,0.16634,-0.00042202,-4216.7,0.3735
8662,7.2227,0,0,0.00041758,4172.9,0.00013793,1.694,0.00013773,0.19285,-0.00041755,-4172,0.39233
8663,7.4071,0,0,0.00041286,4125.8,0.00013638,1.7469,0.00013618,0.21001,-0.00041283,-4124.8,0.41145
8664,7.5914,0,0,0.00040796,4076.8,0.00013477,1.8413,0.00013455,0.21963,-0.00040793,-4075.8,0.43085
8665,7.7758,0,0,0.00040292,4026.4,0.00013312,1.9687,0.00013288,0.22327,-0.00040288,-4025.3,0.45053
8666,7.9602,0,0,0.00039778,3975,0.00013143,2.1219,0.00013118,0.22227,-0.00039774,-3973.9,0.47048
8667,8.1445,0,0,0.00039256,3922.9,0.00012973,2.295,0.00012945,0.21772,-0.00039252,-3921.6,0.49071
8668,8.3289,0,0,0.00038729,3870.3,0.000128,2.4828,0.0001277,0.21051,-0.00038725,-3868.9,0.51119
8669,8.5133,0,0,0.00038199,3817.3,0.00012627,2.6812,0.00012594,0.20138,-0.00038194,-3815.8,0.53195
8670,8.6976,0,0,0.00037667,3764.1,0.00012453,2.8864,0.00012417,0.19093,-0.00037662,-3762.6,0.55296
8671,8.882,0,0,0.00037134,3710.9,0.00012279,3.0957,0.00012241,0.17962,-0.00037129,-3709.2,0.57422
8672,9.0664,0,0,0.00036601,3657.6,0.00012105,3.3067,0.00012064,0.16781,-0.00036596,-3655.9,0.59574
8673,9.2507,0,0,0.00036069,3604.4,0.00011931,3.5175,0.00011887,0.15579,-0.00036063,-3602.6,0.61751
8674,9.4351,0,0,0.00035538,3551.3,0.00011758,3.7267,0.0001171,0.1438,-0.00035531,-3549.4,0.63952
8675,9.6195,0,0,0.00035008,3498.4,0.00011585,3.9331,0.00011534,0.13199,-0.00035001,-3496.3,0.66178
8676,9.8038,0,0,0.0003448,3445.6,0.00011412,4.1358,0.00011359,0.12047,-0.00034472,-3443.4,0.68427
8677,9.9882,0,0,0.00033953,3393,0.0001124,4.3343,0.00011184,0.10935,-0.00033946,-3390.7,0.70699
8678,10.173,0,0,0.00033429,3340.6,0.00011069,4.5281,0.0001101,0.0987,-0.00033421,-3338.3,0.72995
8679,10.357,0,0,0.00032906,3288.4,0.00010898,4.717,0.00010836,0.088532,-0.00032898,-3286,0.75313
8680,10.541,0,0,0.00032386,3236.4,0.00010728,4.9009,0.00010664,0.078874,-0.00032378,-3233.9,0.77654
8681,10.726,0,0,0.00031868,3184.6,0.00010559,5.0797,0.00010492,0.069743,-0.0003186,-3182.1,0.80016
8682,10.91,0,0,0.00031353,3133.1,0.0001039,5.2535,0.00010321,0.061135,-0.00031344,-3130.5,0.82401
8683,11.094,0,0,0.0003084,3081.8,0.00010222,5.4225,0.00010151,0.053025,-0.0003083,-3079.1,0.84806
8684,11.279,0,0,0.00030329,3030.8,0.00010055,5.5869,9.9811e-05,0.045415,-0.00030319,-3027.9,0.87232
8685,11.463,0,0,0.0002982,2979.9,9.8883e-05,5.747,9.8124e-05,0.038309,-0.0002981,-2977,0.89679
8686,11.647,0,0,0.00029313,2929.3,9.7225e-05,5.9029,9.6444e-05,0.031632,-0.00029303,-2926.3,0.92146
8687,11.832,0,0,0.00028809,2878.9,9.5575e-05,6.0549,9.4772e-05,0.02537,-0.00028799,-2875.9,0.94633
8688,12.016,0,0,0.00028307,2828.8,9.3931e-05,6.2035,9.3108e-05,0.019528,-0.00028297,-2825.6,0.9714
8689,12.201,0,0,0.00027807,2778.8,9.2294e-05,6.3488,9.1451e-05,0.014063,-0.00027797,-2775.6,0.99666
8690,12.385,0,0,0.0002731,2729.1,9.0665e-05,6.4913,8.9802e-05,0.0089535,-0.00027299,-2725.9,1.0221
8691,12.569,0,0,0.00026815,2679.6,8.9042e-05,6.6312,8.816e-05,0.0041598,-0.00026803,-2676.3,1.0477
8692,12.754,0,0,0.00026322,2630.4,8.7427e-05,6.7688,8.6526e-05,-0.00032798,-0.0002631,-2627,1.0735
8693,12.938,0,0,0.00025831,2581.3,8.5819e-05,6.9045,8.4899e-05,-0.0045073,-0.00025819,-2577.9,1.0995
8694,13.122,0,0,0.00025342,2532.5,8.4218e-05,7.0385,8.328e-05,-0.0084589,-0.0002533,-2529,1.1257
8695,13.307,0,0,0.00024856,2483.9,8.2624e-05,7.1712,8.1668e-05,-0.012182,-0.00024844,-2480.3,1.152
8696,13.491,0,0,0.00024371,2435.5,8.1036e-05,7.3029,8.0062e-05,-0.015682,-0.00024359,-2431.8,1.1785
8697,13.676,0,0,0.00023889,2387.3,7.9456e-05,7.4338,7.8464e-05,-0.018994,-0.00023877,-2383.6,1.2052
8698,13.86,0,0,0.00023409,2339.3,7.7883e-05,7.5643,7.6873e-05,-0.022137,-0.00023396,-2335.5,1.232
8699,14.044,0,0,0.00022931,2291.5,7.6317e-05,7.6946,7.5289e-05,-0.025117,-0.00022918,-2287.7,1.259
8700,14.229,0,0,0.00022455,2244,7.4757e-05,7.8249,7.3712e-05,-0.027969,-0.00022442,-2240.1,1.2862
8701,14.413,0,0,0.00021982,2196.6,7.3205e-05,7.9556,7.2142e-05,-0.030724,-0.00021968,-2192.7,1.3135
8702,14.597,0,0,0.0002151,2149.5,7.1659e-05,8.0868,7.0579e-05,-0.033362,-0.00021496,-2145.5,1.3409
8703,14.782,0,0,0.0002104,2102.6,7.0121e-05,8.2189,6.9022e-05,-0.035912,-0.00021026,-2098.5,1.3685
8704,14.966,0,0,0.00020573,2055.8,6.8589e-05,8.3521,6.7472e-05,-0.038403,-0.00020558,-2051.7,1.3962
8705,15.15,0,0,0.00020107,2009.3,6.7064e-05,8.4865,6.5929e-05,-0.040839,-0.00020093,-2005.1,1.4241
8706,15.335,0,0,0.00019644,1963,6.5546e-05,8.6224,6.4393e-05,-0.043246,-0.00019629,-1958.7,1.4521
8707,15.519,0,0,0.00019182,1916.9,6.4035e-05,8.7601,6.2863e-05,-0.045626,-0.00019167,-1912.5,1.4803
8708,15.704,0,0,0.00018723,1871,6.2531e-05,8.8997,6.134e-05,-0.048004,-0.00018708,-1866.5,1.5085
8709,15.888,0,0,0.00018265,1825.3,6.1033e-05,9.0415,5.9823e-05,-0.050407,-0.0001825,-1820.8,1.5369
8710,16.072,0,0,0.0001781,1779.8,5.9543e-05,9.1855,5.8313e-05,-0.052823,-0.00017794,-1775.2,1.5654
8711,16.257,0,0,0.00017357,1734.5,5.8059e-05,9.3321,5.681e-05,-0.055274,-0.00017341,-1729.8,1.5941
8712,16.441,0,0,0.00016905,1689.4,5.6582e-05,9.4814,5.5312e-05,-0.057792,-0.00016889,-1684.6,1.6228
8713,16.625,0,0,0.00016456,1644.4,5.5112e-05,9.6335,5.3821e-05,-0.060381,-0.00016439,-1639.6,1.6517
8714,16.81,0,0,0.00016008,1599.7,5.3648e-05,9.7887,5.2337e-05,-0.063059,-0.00015992,-1594.8,1.6807
8715,16.994,0,0,0.00015563,1555.2,5.2191e-05,9.9469,5.0858e-05,-0.065839,-0.00015546,-1550.2,1.7098
8716,17.178,0,0,0.00015119,1510.9,5.0741e-05,10.109,4.9386e-05,-0.068747,-0.00015102,-1505.8,1.739
8717,17.363,0,0,0.00014678,1466.8,4.9297e-05,10.273,4.7921e-05,-0.071816,-0.0001466,-1461.6,1.7683
8718,17.547,0,0,0.00014238,1422.8,4.786e-05,10.442,4.6461e-05,-0.07503,-0.0001422,-1417.6,1.7977
8719,17.732,0,0,0.000138,1379.1,4.643e-05,10.614,4.5007e-05,-0.07843,-0.00013782,-1373.8,1.8272
8720,17.916,0,0,0.00013364,1335.5,4.5006e-05,10.79,4.3559e-05,-0.082033,-0.00013346,-1330.1,1.8567
8721,18.1,0,0,0.0001293,1292.1,4.3589e-05,10.969,4.2118e-05,-0.085872,-0.00012911,-1286.6,1.8864
8722,18.285,0,0,0.00012498,1248.9,4.2178e-05,11.152,4.0682e-05,-0.089958,-0.00012479,-1243.4,1.9162
8723,18.469,0,0,0.00012068,1205.9,4.0774e-05,11.339,3.9252e-05,-0.094323,-0.00012048,-1200.3,1.946
8724,18.653,0,0,0.00011639,1163.1,3.9375e-05,11.529,3.7828e-05,-0.098994,-0.00011619,-1157.3,1.9759
8725,18.838,0,0,0.00011212,1120.4,3.7983e-05,11.723,3.6409e-05,-0.10402,-0.00011192,-1114.6,2.0059
8726,19.022,0,0,0.00010787,1078,3.6597e-05,11.92,3.4996e-05,-0.1094,-0.00010767,-1072,2.036
8727,19.206,0,0,0.00010364,1035.7,3.5218e-05,12.12,3.3589e-05,-0.11518,-0.00010343,-1029.6,2.0662
8728,19.391,0,0,9.9424e-05,993.55,3.3844e-05,12.323,3.2187e-05,-0.12142,-9.9211e-05,-987.39,2.0964
8729,19.575,0,0,9.5226e-05,951.6,3.2476e-05,12.529,3.0791e-05,-0.12813,-9.5008e-05,-945.34,2.1267
8730,19.76,0,0,9.1044e-05,909.81,3.1113e-05,12.737,2.94e-05,-0.13538,-9.0823e-05,-903.44,2.157
8731,19.944,0,0,8.6879e-05,868.19,2.9756e-05,12.946,2.8014e-05,-0.14321,-8.6654e-05,-861.71,2.1874
8732,20.128,0,0,8.273e-05,826.73,2.8405e-05,13.157,2.6634e-05,-0.15167,-8.2501e-05,-820.15,2.2179
8733,20.313,0,0,7.8597e-05,785.43,2.7059e-05,13.367,2.5259e-05,-0.16084,-7.8364e-05,-778.74,2.2484
8734,20.497,0,0,7.448e-05,744.28,2.5718e-05,13.577,2.3888e-05,-0.17077,-7.4242e-05,-737.48,2.279
8735,20.681,0,0,7.0378e-05,703.29,2.4382e-05,13.785,2.2523e-05,-0.18155,-7.0136e-05,-696.39,2.3096
8736,20.866,0,0,6.6291e-05,662.45,2.3051e-05,13.991,2.1163e-05,-0.19326,-6.6045e-05,-655.44,2.3403
8737,21.05,0,0,6.222e-05,621.77,2.1724e-05,14.191,1.9808e-05,-0.20602,-6.1969e-05,-614.65,2.371
8738,21.235,0,0,5.8164e-05,581.23,2.0402e-05,14.386,1.8458e-05,-0.21994,-5.7909e-05,-574.01,2.4018
8739,21.419,0,0,5.4122e-05,540.85,1.9085e-05,14.572,1.7114e-05,-0.23517,-5.3863e-05,-533.53,2.4325
8740,21.603,0,0,5.0097e-05,500.62,1.7771e-05,14.747,1.5775e-05,-0.25188,-4.9833e-05,-493.21,2.4634
8741,21.788,0,0,4.6087e-05,460.55,1.6462e-05,14.909,1.4441e-05,-0.27032,-4.5819e-05,-453.05,2.4942
8742,21.972,0,0,4.2094e-05,420.65,1.5156e-05,15.053,1.3114e-05,-0.29071,-4.1822e-05,-413.06,2.5251
8743,22.156,0,0,3.8118e-05,380.92,1.3855e-05,15.174,1.1793e-05,-0.31343,-3.7842e-05,-373.25,2.556
8744,22.341,0,0,3.4162e-05,341.38,1.2557e-05,15.268,1.048e-05,-0.33894,-3.3881e-05,-333.65,2.587
8745,22.525,0,0,3.0227e-05,302.07,1.1264e-05,15.326,9.1751e-06,-0.36784,-2.9942e-05,-294.28,2.6179
8746,22.709,0,0,2.6318e-05,263,9.9748e-06,15.338,7.8801e-06,-0.40105,-2.6029e-05,-255.18,2.6489
8747,22.894,0,0,2.2439e-05,224.24,8.6907e-06,15.29,6.5972e-06,-0.43958,-2.2145e-05,-216.4,2.6799
8748,23.078,0,0,1.8599e-05,185.86,7.4121e-06,15.159,5.3298e-06,-0.48624,-1.83e-05,-178.03,2.7109
8749,23.263,0,0,1.4809e-05,147.99,6.14e-06,14.914,4.0832e-06,-0.54004,-1.4504e-05,-140.2,2.742
8750,23.447,0,0,1.1089e-05,110.82,4.8736e-06,14.467,2.8651e-06,-0.62469,-1.0776e-05,-103.12,2.773
8751,23.631,0,0,7.4868e-06,74.817,3.6238e-06,13.805,1.6933e-06,-0.70006,-7.1576e-06,-67.202,2.804
8752,23.816,0,0,4.0122e-06,40.094,2.2883e-06,11.507,6.1573e-07,-1.0603,-3.6839e-06,-33.366,2.8351
8753,3.1667,0,0,7.1942e-06,71.892,5.0967e-06,14.719,-2.7767e-06,-44.438,-5.5526e-06,-65.295,0.042006
8754,24,0,0,9.4721e-07,9.4656,7.0883e-07,5.7229,8.6605e-08,1.0477,-7.41e-07,-5.1706,2.8661
8755,5.0862e-14,5.8182,0,0.00014187,1417.7,1.563e-05,-1112.7,-2.7479e-06,-1250.8,-0.00018157,-2594.4,0
8756,4.9273e-14,5.6364,0,0.00024017,2400.1,4.9103e-06,-2278.1,-3.6403e-06,-2342.3,-0.00031871,-4709.6,0
8757,4.7683e-14,5.4545,0,0.00029131,2911.1,2.3341e-06,-2812.1,-2.7392e-06,-2850.3,-0.00038762,-5742.1,0
8758,4.6094e-14,5.2727,0,0.00032381,3235.8,1.4162e-06,-3133,-1.6946e-06,-3156.4,-0.0004308,-6380.5,0
8759,4.4504e-14,5.0909,0,0.00034552,3452.8,9.4747e-07,-3346.2,-1.1392e-06,-3361.9,-0.00045963,-6806.8,0
8760,4.2915e-14,4.9091,0,0.00036087,3606.2,6.6366e-07,-3496.7,-8.0446e-07,-3507.7,-0.00048003,-7108.4,0
8761,4.1325e-14,4.7273,0,0.00037199,3717.3,4.7319e-07,-3605.6,-5.7908e-07,-3613.5,-0.0004948,-7326.9,0
8762,3.9736e-14,4.5455,0,0.00038011,3798.4,3.375e-07,-3685.1,-4.2094e-07,-3690.8,-0.00050558,-7486.4,0
8763,3.8147e-14,4.3636,0,0.00038602,3857.5,2.3801e-07,-3743,-3.0576e-07,-3747.1,-0.00051344,-7602.6,0
8764,3.6557e-14,4.1818,0,0.00039028,3900.1,1.6452e-07,-3784.8,-2.2049e-07,-3787.7,-0.0005191,-7686.3,0
8765,3.4968e-14,4,0,0.0003933,3930.3,1.1056e-07,-3814.4,-1.5724e-07,-3816.4,-0.00052311,-7745.6,0
8766,3.3378e-14,3.8182,0,0.00039539,3951.2,7.1525e-08,-3834.9,-1.107e-07,-3836.2,-0.00052589,-7786.8,0
8767,3.1789e-14,3.6364,0,0.00039681,3965.3,4.372e-08,-3848.7,-7.6956e-08,-3849.6,-0.00052777,-7814.5,0
8768,3.0199e-14,3.4545,0,0.00039772,3974.4,2.408e-08,-3857.7,-5.2862e-08,-3858.2,-0.00052898,-7832.4,0
8769,2.861e-14,3.2727,0,0.00039826,3979.8,1.0232e-08,-3863,-3.6044e-08,-3863.3,-0.0005297,-7843,0
8770,2.702e-14,3.0909,0,0.00039851,3982.3,1.4718e-09,-3865.5,-2.58e-08,-3865.7,-0.00053003,-7847.9,0
8771,2.5431e-14,2.9091,0,0.00039851,3982.3,1.4717e-09,-3865.5,-2.58e-08,-3865.7,-0.00053003,-7847.9,0
8772,2.3842e-14,2.7273,0,0.00039826,3979.8,1.0232e-08,-3863,-3.6044e-08,-3863.3,-0.0005297,-7843,0
8773,2.2252e-14,2.5455,0,0.00039772,3974.4,2.408e-08,-3857.7,-5.2862e-08,-3858.2,-0.00052898,-7832.4,0
8774,2.0663e-14,2.3636,0,0.00039681,3965.3,4.372e-08,-3848.7,-7.6956e-08,-3849.6,-0.00052777,-7814.5,0
8775,1.9073e-14,2.1818,0,0.00039539,3951.2,7.1525e-08,-3834.9,-1.107e-07,-3836.2,-0.00052589,-7786.8,0
8776,1.7484e-14,2,0,0.0003933,3930.3,1.1056e-07,-3814.3,-1.5724e-07,-3816.4,-0.00052311,-7745.6,0
8777,1.5894e-14,1.8182,0,0.00039028,3900.1,1.6451e-07,-3784.8,-2.2049e-07,-3787.7,-0.0005191,-7686.3,0
8778,1.4305e-14,1.6364,0,0.00038602,3857.5,2.3801e-07,-3743,-3.0576e-07,-3747.1,-0.00051344,-7602.6,0
8779,1.2716e-14,1.4545,0,0.00038011,3798.4,3.375e-07,-3685.1,-4.2094e-07,-3690.8,-0.00050558,-7486.4,0
8780,1.1126e-14,1.2727,0,0.00037199,3717.3,4.7319e-07,-3605.6,-5.7908e-07,-3613.5,-0.0004948,-7326.9,0
8781,9.5366e-15,1.0909,0,0.00036087,3606.2,6.6366e-07,-3496.7,-8.0446e-07,-3507.7,-0.00048003,-7108.4,0
8782,7.9472e-15,0.90909,0,0.00034552,3452.8,9.4747e-07,-3346.2,-1.1392e-06,-3361.9,-0.00045963,-6806.8,0
8783,6.3578e-15,0.72727,0,0.00032381,3235.8,1.4162e-06,-3133,-1.6946e-06,-3156.4,-0.0004308,-6380.5,0
8784,4.7683e-15,0.54545,0,0.00029131,2911.1,2.3341e-06,-2812.1,-2.7392e-06,-2850.3,-0.00038762,-5742.1,0
8785,3.1789e-15,0.36364,0,0.00024017,2400.1,4.9103e-06,-2278.1,-3.6403e-06,-2342.3,-0.00031871,-4709.6,0
8786,1.5894e-15,0.18182,0,0.00014187,1417.7,1.563e-05,-1112.7,-2.748e-06,-1250.8,-0.00018157,-2594.4,0
8787,24,0.18182,0,3.9739e-06,39.712,3.8205e-06,36.66,-7.745e-07,2.1346,-1.9553e-06,-6.7376,2.8663
8788,24,0.36364,0,6.7117e-06,67.071,6.5788e-06,64.107,-1.6647e-06,2.1682,-2.9018e-06,-7.1269,2.8664
8789,24,0.54545,0,8.8204e-06,88.143,8.6979e-06,85.31,-2.3403e-06,2.3727,-3.6211e-06,-7.2507,2.8665
8790,24,0.72727,0,1.0578e-05,105.71,1.0461e-05,102.93,-2.9175e-06,2.4057,-4.208e-06,-7.2907,2.8667
8791,24,0.90909,0,1.2076e-05,120.67,1.1964e-05,117.97,-3.411e-06,2.4433,-4.7037e-06,-7.2699,2.8668
8792,24,1.0909,0,1.3368e-05,133.59,1.3261e-05,130.94,-3.8387e-06,2.4653,-5.1291e-06,-7.2299,2.8669
8793,24,1.2727,0,1.4488e-05,144.78,1.4384e-05,142.19,-4.21e-06,2.4829,-5.496e-06,-7.1797,2.8671
8794,24,1.4545,0,1.5458e-05,154.47,1.5356e-05,151.93,-4.532e-06,2.496,-5.8127e-06,-7.1272,2.8672
8795,24,1.6364,0,1.6292e-05,162.81,1.6193e-05,160.31,-4.8095e-06,2.5063,-6.0848e-06,-7.0759,2.8673
8796,24,1.8182,0,1.7003e-05,169.92,1.6906e-05,167.46,-5.0462e-06,2.5144,-6.3163e-06,-7.0283,2.8673
8797,24,2,0,1.76e-05,175.88,1.7505e-05,173.45,-5.245e-06,2.5207,-6.5102e-06,-6.986,2.8674
8798,24,2.1818,0,1.8089e-05,180.76,1.7995e-05,178.36,-5.4079e-06,2.5256,-6.669e-06,-6.9497,2.8675
8799,24,2.3636,0,1.8474e-05,184.62,1.8382e-05,182.24,-5.5365e-06,2.5293,-6.7941e-06,-6.9202,2.8675
8800,24,2.5455,0,1.8761e-05,187.48,1.8669e-05,185.12,-5.6319e-06,2.532,-6.887e-06,-6.8978,2.8676
8801,24,2.7273,0,1.895e-05,189.37,1.8859e-05,187.02,-5.6951e-06,2.5337,-6.9484e-06,-6.8828,2.8676
8802,24,2.9091,0,1.9045e-05,190.31,1.8953e-05,187.97,-5.7266e-06,2.5346,-6.979e-06,-6.8752,2.8676
8803,24,3.0909,0,1.9045e-05,190.31,1.8953e-05,187.97,-5.7266e-06,2.5346,-6.979e-06,-6.8752,2.8676
8804,24,3.2727,0,1.895e-05,189.37,1.8859e-05,187.02,-5.6951e-06,2.5337,-6.9484e-06,-6.8828,2.8676
8805,24,3.4545,0,1.8761e-05,187.48,1.8669e-05,185.12,-5.6319e-06,2.532,-6.887e-06,-6.8978,2.8676
8806,24,3.6364,0,1.8474e-05,184.62,1.8382e-05,182.24,-5.5365e-06,2.5293,-6.7941e-06,-6.9202,2.8675
8807,24,3.8182,0,1.8089e-05,180.76,1.7995e-05,178.36,-5.4079e-06,2.5256,-6.669e-06,-6.9497,2.8675
8808,24,4,0,1.76e-05,175.88,1.7505e-05,173.45,-5.245e-06,2.5207,-6.5102e-06,-6.986,2.8674
8809,24,4.1818,0,1.7003e-05,169.92,1.6906e-05,167.46,-5.0462e-06,2.5144,-6.3163e-06,-7.0283,2.8673
8810,24,4.3636,0,1.6292e-05,162.81,1.6193e-05,160.31,-4.8095e-06,2.5063,-6.0848e-06,-7.0759,2.8673
8811,24,4.5455,0,1.5458e-05,154.47,1.5356e-05,151.93,-4.532e-06,2.496,-5.8127e-06,-7.1271,2.8672
8812,24,4.7273,0,1.4488e-05,144.78,1.4384e-05,142.19,-4.21e-06,2.4829,-5.496e-06,-7.1797,2.8671
8813,24,4.9091,0,1.3368e-05,133.59,1.3261e-05,130.94,-3.8387e-06,2.4653,-5.1291e-06,-7.2299,2.8669
8814,24,5.0909,0,1.2076e-05,120.67,1.1964e-05,117.97,-3.411e-06,2.4433,-4.7037e-06,-7.2699,2.8668
8815,24,5.2727,0,1.0578e-05,105.71,1.0461e-05,102.93,-2.9175e-06,2.4057,-4.208e-06,-7.2906,2.8667
8816,24,5.4545,0,8.8204e-06,88.143,8.6979e-06,85.31,-2.3403e-06,2.3727,-3.6211e-06,-7.2507,2.8665
8817,24,5.6364,0,6.7117e-06,67.071,6.5788e-06,64.107,-1.6647e-06,2.1682,-2.9018e-06,-7.1269,2.8664
8818,24,5.8182,0,3.9739e-06,39.712,3.8205e-06,36.66,-7.745e-07,2.1346,-1.9553e-06,-6.7376,2.8663
8819,24,6,0,9.4721e-07,9.4655,7.0883e-07,5.7229,8.6606e-08,1.0477,-7.41e-07,-5.1706,2.8661
8820,23.816,6,0,4.0122e-06,40.094,2.2883e-06,11.507,6.1573e-07,-1.0603,-3.6838e-06,-33.366,2.8351
8821,23.631,6,0,7.4868e-06,74.817,3.6238e-06,13.805,1.6933e-06,-0.70006,-7.1576e-06,-67.202,2.804
8822,23.447,6,0,1.1089e-05,110.82,4.8736e-06,14.467,2.8651e-06,-0.62469,-1.0776e-05,-103.12,2.773
8823,23.263,6,0,1.4809e-05,147.99,6.14e-06,14.914,4.0832e-06,-0.54005,-1.4504e-05,-140.2,2.742
8824,23.078,6,0,1.8599e-05,185.86,7.4121e-06,15.159,5.3298e-06,-0.48624,-1.83e-05,-178.03,2.7109
8825,22.894,6,0,2.2439e-05,224.24,8.6907e-06,15.29,6.5972e-06,-0.43958,-2.2145e-05,-216.4,2.6799
8826,22.709,6,0,2.6318e-05,263,9.9748e-06,15.338,7.8801e-06,-0.40105,-2.6029e-05,-255.18,2.6489
8827,22.525,6,0,3.0227e-05,302.07,1.1264e-05,15.326,9.1751e-06,-0.36784,-2.9942e-05,-294.28,2.6179
8828,22.341,6,0,3.4162e-05,341.38,1.2557e-05,15.268,1.048e-05,-0.33894,-3.3881e-05,-333.65,2.587
8829,22.156,6,0,3.8118e-05,380.92,1.3855e-05,15.174,1.1793e-05,-0.31343,-3.7842e-05,-373.25,2.556
8830,21.972,6,0,4.2094e-05,420.65,1.5156e-05,15.053,1.3114e-05,-0.29071,-4.1822e-05,-413.06,2.5251
8831,21.788,6,0,4.6087e-05,460.55,1.6462e-05,14.909,1.4441e-05,-0.27031,-4.5819e-05,-453.05,2.4942
8832,21.603,6,0,5.0097e-05,500.62,1.7771e-05,14.747,1.5775e-05,-0.25188,-4.9833e-05,-493.21,2.4634
8833,21.419,6,0,5.4122e-05,540.85,1.9085e-05,14.572,1.7114e-05,-0.23517,-5.3863e-05,-533.53,2.4325
8834,21.235,6,0,5.8164e-05,581.23,2.0402e-05,14.386,1.8458e-05,-0.21994,-5.7909e-05,-574.01,2.4018
8835,21.05,6,0,6.222e-05,621.77,2.1724e-05,14.191,1.9808e-05,-0.20602,-6.1969e-05,-614.65,2.371
8836,20.866,6,0,6.6291e-05,662.45,2.3051e-05,13.991,2.1163e-05,-0.19326,-6.6045e-05,-655.44,2.3403
8837,20.681,6,0,7.0378e-05,703.29,2.4382e-05,13.785,2.2523e-05,-0.18155,-7.0136e-05,-696.39,2.3096
8838,20.497,6,0,7.448e-05,744.28,2.5718e-05,13.577,2.3888e-05,-0.17077,-7.4242e-05,-737.48,2.279
8839,20.313,6,0,7.8597e-05,785.43,2.7059e-05,13.367,2.5259e-05,-0.16084,-7.8364e-05,-778.74,2.2484
8840,20.128,6,0,8.273e-05,826.73,2.8405e-05,13.157,2.6634e-05,-0.15167,-8.2501e-05,-820.15,2.2179
8841,19.944,6,0,8.6879e-05,868.19,2.9756e-05,12.946,2.8014e-05,-0.14321,-8.6654e-05,-861.71,2.1874
8842,19.76,6,0,9.1044e-05,909.81,3.1113e-05,12.737,2.94e-05,-0.13538,-9.0823e-05,-903.44,2.157
8843,19.575,6,0,9.5226e-05,951.6,3.2476e-05,12.529,3.0791e-05,-0.12813,-9.5008e-05,-945.34,2.1267
8844,19.391,6,0,9.9424e-05,993.55,3.3844e-05,12.323,3.2187e-05,-0.12142,-9.9211e-05,-987.39,2.0964
8845,19.206,6,0,0.00010364,1035.7,3.5218e-05,12.12,3.3589e-05,-0.11518,-0.00010343,-1029.6,2.0662
8846,19.022,6,0,0.00010787,1078,3.6597e-05,11.92,3.4996e-05,-0.1094,-0.00010767,-1072,2.036
8847,18.838,6,0,0.00011212,1120.4,3.7983e-05,11.723,3.6409e-05,-0.10402,-0.00011192,-1114.6,2.0059
8848,18.653,6,0,0.00011639,1163.1,3.9375e-05,11.529,3.7828e-05,-0.098996,-0.00011619,-1157.3,1.9759
8849,18.469,6,0,0.00012068,1205.9,4.0774e-05,11.339,3.9252e-05,-0.094322,-0.00012048,-1200.3,1.946
8850,18.285,6,0,0.00012498,1248.9,4.2178e-05,11.152,4.0682e-05,-0.089959,-0.00012479,-1243.4,1.9162
8851,18.1,6,0,0.0001293,1292.1,4.3589e-05,10.969,4.2118e-05,-0.085869,-0.00012911,-1286.6,1.8864
8852,17.916,6,0,0.00013364,1335.5,4.5006e-05,10.79,4.3559e-05,-0.082034,-0.00013346,-1330.1,1.8567
8853,17.732,6,0,0.000138,1379.1,4.643e-05,10.614,4.5007e-05,-0.078427,-0.00013782,-1373.8,1.8272
8854,17.547,6,0,0.00014238,1422.8,4.786e-05,10.442,4.6461e-05,-0.075029,-0.0001422,-1417.6,1.7977
8855,17.363,6,0,0.00014678,1466.8,4.9297e-05,10.273,4.7921e-05,-0.071815,-0.0001466,-1461.6,1.7683
8856,17.178,6,0,0.00015119,1510.9,5.0741e-05,10.109,4.9386e-05,-0.068748,-0.00015102,-1505.8,1.739
8857,16.994,6,0,0.00015563,1555.2,5.2191e-05,9.9469,5.0858e-05,-0.065839,-0.00015546,-1550.2,1.7098
8858,16.81,6,0,0.00016008,1599.7,5.3648e-05,9.7887,5.2337e-05,-0.063059,-0.00015992,-1594.8,1.6807
8859,16.625,6,0,0.00016456,1644.4,5.5112e-05,9.6335,5.3821e-05,-0.060379,-0.00016439,-1639.6,1.6517
8860,16.441,6,0,0.00016905,1689.4,5.6582e-05,9.4814,5.5312e-05,-0.057791,-0.00016889,-1684.6,1.6228
8861,16.257,6,0,0.00017357,1734.5,5.8059e-05,9.3321,5.681e-05,-0.055272,-0.00017341,-1729.8,1.5941
8862,16.072,6,0,0.0001781,1779.8,5.9543e-05,9.1855,5.8313e-05,-0.052822,-0.00017794,-1775.2,1.5654
8863,15.888,6,0,0.00018265,1825.3,6.1033e-05,9.0415,5.9823e-05,-0.050407,-0.0001825,-1820.8,1.5369
8864,15.704,6,0,0.00018723,1871,6.2531e-05,8.8997,6.134e-05,-0.048003,-0.00018708,-1866.5,1.5085
8865,15.519,6,0,0.00019182,1916.9,6.4035e-05,8.7601,6.2863e-05,-0.045625,-0.00019167,-1912.5,1.4803
8866,15.335,6,0,0.00019644,1963,6.5546e-05,8.6224,6.4393e-05,-0.043247,-0.00019629,-1958.7,1.4521
8867,15.15,6,0,0.00020107,2009.3,6.7064e-05,8.4865,6.5929e-05,-0.04084,-0.00020093,-2005.1,1.4241
8868,14.966,6,0,0.00020573,2055.8,6.8589e-05,8.3521,6.7472e-05,-0.038402,-0.00020558,-2051.7,1.3962
8869,14.782,6,0,0.0002104,2102.6,7.0121e-05,8.2189,6.9022e-05,-0.035909,-0.00021026,-2098.5,1.3685
8870,14.597,6,0,0.0002151,2149.5,7.1659e-05,8.0868,7.0579e-05,-0.03336,-0.00021496,-2145.5,1.3409
8871,14.413,6,0,0.00021982,2196.6,7.3205e-05,7.9556,7.2142e-05,-0.030725,-0.00021968,-2192.7,1.3135
8872,14.229,6,0,0.00022455,2244,7.4757e-05,7.8249,7.3712e-05,-0.027968,-0.00022442,-2240.1,1.2862
8873,14.044,6,0,0.00022931,2291.5,7.6317e-05,7.6946,7.5289e-05,-0.025117,-0.00022918,-2287.7,1.259
8874,13.86,6,0,0.00023409,2339.3,7.7883e-05,7.5643,7.6873e-05,-0.022136,-0.00023396,-2335.5,1.232
8875,13.676,6,0,0.00023889,2387.3,7.9456e-05,7.4338,7.8464e-05,-0.018994,-0.00023877,-2383.6,1.2052
8876,13.491,6,0,0.00024371,2435.5,8.1036e-05,7.3029,8.0062e-05,-0.015683,-0.00024359,-2431.8,1.1785
8877,13.307,6,0,0.00024856,2483.9,8.2624e-05,7.1712,8.1668e-05,-0.012181,-0.00024844,-2480.3,1.152
8878,13.122,6,0,0.00025342,2532.5,8.4218e-05,7.0385,8.328e-05,-0.0084587,-0.0002533,-2529,1.1257
8879,12.938,6,0,0.00025831,2581.3,8.5819e-05,6.9045,8.4899e-05,-0.0045082,-0.00025819,-2577.9,1.0995
8880,12.754,6,0,0.00026322,2630.4,8.7427e-05,6.7688,8.6526e-05,-0.00032582,-0.0002631,-2627,1.0735
8881,12.569,6,0,0.00026815,2679.6,8.9042e-05,6.6312,8.816e-05,0.0041602,-0.00026803,-2676.3,1.0477
8882,12.385,6,0,0.0002731,2729.1,9.0665e-05,6.4913,8.9802e-05,0.0089531,-0.00027299,-2725.9,1.0221
8883,12.201,6,0,0.00027807,2778.8,9.2294e-05,6.3488,9.1451e-05,0.014063,-0.00027797,-2775.6,0.99666
8884,12.016,6,0,0.00028307,2828.8,9.3931e-05,6.2035,9.3108e-05,0.01953,-0.00028297,-2825.6,0.9714
8885,11.832,6,0,0.00028809,2878.9,9.5575e-05,6.0549,9.4772e-05,0.025372,-0.00028799,-2875.9,0.94633
8886,11.647,6,0,0.00029313,2929.3,9.7225e-05,5.9029,9.6444e-05,0.031629,-0.00029303,-2926.3,0.92146
8887,11.463,6,0,0.0002982,2979.9,9.8883e-05,5.747,9.8124e-05,0.03831,-0.0002981,-2977,0.89679
8888,11.279,6,0,0.00030329,3030.8,0.00010055,5.5869,9.9811e-05,0.045415,-0.00030319,-3027.9,0.87232
8889,11.094,6,0,0.0003084,3081.8,0.00010222,5.4225,0.00010151,0.053025,-0.0003083,-3079.1,0.84806
8890,10.91,6,0,0.00031353,3133.1,0.0001039,5.2535,0.00010321,0.061134,-0.00031344,-3130.5,0.82401
8891,10.726,6,0,0.00031868,3184.6,0.00010559,5.0797,0.00010492,0.069743,-0.0003186,-3182.1,0.80016
8892,10.541,6,0,0.00032386,3236.4,0.00010728,4.9008,0.00010664,0.078872,-0.00032378,-3233.9,0.77654
8893,10.357,6,0,0.00032906,3288.4,0.00010898,4.717,0.00010836,0.088531,-0.00032898,-3286,0.75313
8894,10.173,6,0,0.00033429,3340.6,0.00011069,4.5281,0.0001101,0.0987,-0.00033421,-3338.3,0.72995
8895,9.9882,6,0,0.00033953,3393,0.0001124,4.3343,0.00011184,0.10935,-0.00033946,-3390.7,0.70699
8896,9.8038,6,0,0.0003448,3445.6,0.00011412,4.1358,0.00011359,0.12047,-0.00034472,-3443.4,0.68427
8897,9.6195,6,0,0.00035008,3498.4,0.00011585,3.9331,0.00011534,0.13199,-0.00035001,-3496.3,0.66178
8898,9.4351,6,0,0.00035538,3551.3,0.00011758,3.7267,0.0001171,0.1438,-0.00035531,-3549.4,0.63952
8899,9.2507,6,0,0.00036069,3604.4,0.00011931,3.5175,0.00011887,0.15579,-0.00036063,-3602.6,0.61751
8900,9.0664,6,0,0.00036601,3657.6,0.00012105,3.3067,0.00012064,0.16781,-0.00036596,-3655.9,0.59574
8901,8.882,6,0,0.00037134,3710.9,0.00012279,3.0957,0.00012241,0.17962,-0.00037129,-3709.2,0.57422
8902,8.6976,6,0,0.00037667,3764.1,0.00012453,2.8864,0.00012417,0.19093,-0.00037662,-3762.6,0.55296
8903,8.5133,6,0,0.00038199,3817.3,0.00012627,2.6811,0.00012594,0.20138,-0.00038194,-3815.8,0.53195
8904,8.3289,6,0,0.00038729,3870.3,0.000128,2.4828,0.0001277,0.21051,-0.00038725,-3868.9,0.51119
8905,8.1445,6,0,0.00039256,3922.9,0.00012973,2.295,0.00012945,0.21772,-0.00039252,-3921.6,0.49071
8906,7.9602,6,0,0.00039778,3975,0.00013143,2.1219,0.00013118,0.22227,-0.00039774,-3973.9,0.47048
8907,7.7758,6,0,0.00040292,4026.4,0.00013312,1.9686,0.00013288,0.22327,-0.00040288,-4025.3,0.45053
8908,7.5914,6,0,0.00040796,4076.8,0.00013477,1.8413,0.00013455,0.21963,-0.00040793,-4075.8,0.43085
8909,7.4071,6,0,0.00041286,4125.8,0.00013638,1.7469,0.00013618,0.21001,-0.00041283,-4124.8,0.41145
8910,7.2227,6,0,0.00041758,4172.9,0.00013793,1.694,0.00013773,0.19285,-0.00041755,-4172,0.39233
8911,7.0383,6,0,0.00042205,4217.6,0.00013941,1.6923,0.00013921,0.16634,-0.00042202,-4216.7,0.3735
8912,6.854,6,0,0.0004262,4259.1,0.00014079,1.7532,0.00014057,0.12843,-0.00042617,-4258.1,0.35495
8913,6.6696,6,0,0.00042993,4296.4,0.00014203,1.8901,0.00014179,0.076812,-0.0004299,-4295.4,0.33669
8914,6.4853,6,0,0.00043313,4328.4,0.00014311,2.1186,0.00014283,0.0089876,-0.0004331,-4327.3,0.31872
8915,6.3009,6,0,0.00043565,4353.5,0.00014397,2.4572,0.00014364,-0.077649,-0.00043561,-4352.3,0.30104
8916,6.1165,6,0,0.0004373,4370,0.00014456,2.9277,0.00014415,-0.18564,-0.00043725,-4368.6,0.28367
8917,5.9322,6,0,0.00043785,4375.5,0.0001448,3.556,0.00014429,-0.31715,-0.0004378,-4373.9,0.26659
8918,5.7478,6,0,0.00043702,4367.2,0.00014461,4.3728,0.00014396,-0.47345,-0.00043696,-4365.3,0.2498
8919,5.5634,6,0,0.00043447,4341.7,0.00014386,5.4144,0.00014305,-0.65406,-0.00043439,-4339.3,0.23331
8920,5.3791,6,0,0.00042978,4294.8,0.00014243,6.7225,0.00014142,-0.8556,-0.00042968,-4291.9,0.21712
8921,5.1947,6,0,0.00042245,4221.6,0.00014016,8.343,0.00013891,-1.0701,-0.00042233,-4218,0.20122
8922,5.0103,6,0,0.00041192,4116.3,0.00013686,10.322,0.00013531,-1.2825,-0.00041176,-4111.8,0.18561
8923,4.826,6,0,0.00039751,3972.4,0.00013231,12.699,0.00013043,-1.4682,-0.00039732,-3966.8,0.17027
8924,4.6416,6,0,0.00037853,3782.7,0.00012629,15.488,0.00012401,-1.5889,-0.00037829,-3775.7,0.15521
8925,4.4572,6,0,0.00035421,3539.7,0.00011853,18.647,0.00011583,-1.5938,-0.00035392,-3531.1,0.1404
8926,4.2729,6,0,0.00032386,3236.4,0.00010878,22.041,0.00010566,-1.4052,-0.00032351,-3226,0.12583
8927,4.0885,6,0,0.0002869,2867,9.684e-05,25.342,9.3336e-05,-0.98613,-0.00028648,-2854.8,0.11148
8928,3.9041,6,0,0.00024298,2428.1,8.2526e-05,28.012,7.8782e-05,-0.11794,-0.00024249,-2414,0.09732
8929,3.7198,6,0,0.00019203,1918.9,6.5745e-05,28.841,6.1982e-05,0.56194,-0.00019151,-1904.1,0.083328
8930,3.5354,6,0,0.00013431,1342.1,4.6387e-05,26.855,4.3277e-05,3.4823,-0.00013377,-1326.8,0.069468
8931,3.351,6,0,6.8663e-05,686.16,2.4846e-05,23.391,2.1069e-05,-4.9901,-6.8306e-05,-676.52,0.055705
8932,3.1667,6,0,7.1942e-06,71.892,5.0967e-06,14.719,-2.7767e-06,-44.438,-5.5526e-06,-65.295,0.042006
8933,3,1.8182,0,0.0011968,11959,0.00088646,6424.4,3.1184e-05,-1.8162,-0.00095002,-7374.2,0.054406
8934,3,1.6364,0,0.00071047,7099.8,0.00045498,2901.7,9.1813e-05,173.07,-0.00061765,-5157.6,0.052076
8935,3,1.4545,0,0.00057433,5739.3,0.00036566,2266.5,7.0201e-05,46.6,-0.0005018,-4251.2,0.049884
8936,3,1.2727,0,0.00046233,4620.2,0.0002814,1656.6,6.7685e-05,50.864,-0.00041185,-3552.1,0.047834
8937,3,1.0909,0,0.00038023,3799.7,0.00022281,1244.1,6.1981e-05,35.695,-0.00034375,-3012.8,0.045915
8938,3,0.90909,0,0.00031216,3119.5,0.00017562,926.55,5.6565e-05,32.012,-0.00028608,-2542.5,0.044118
8939,3,0.72727,0,0.00025189,2517.2,0.00013571,670.54,5.0198e-05,28.066,-0.00023378,-2105.6,0.042432
8940,3,0.54545,0,0.00019524,1951.1,0.0001001,456.34,4.2783e-05,25.674,-0.00018344,-1674.1,0.040844
8941,3,0.36364,0,0.00013879,1386.9,6.6782e-05,273.1,3.39e-05,26.034,-0.00013204,-1220.8,0.039339
8942,3,0.18182,0,7.62e-05,761.47,3.3855e-05,116.48,2.0672e-05,17.429,-7.3437e-05,-689.67,0.0379
8943,3,2,0,0.0030418,30397,0.00144,4464,0.00063578,-1578.5,-0.0029473,-28500,0.056981
8944,3.1667,0.18182,0,5.6502e-05,564.64,2.6257e-05,101.52,1.4635e-05,14.193,-5.4025e-05,-501.69,0.043828
8945,3.1667,0.36364,0,0.00010362,1035.5,5.398e-05,256.89,2.2482e-05,20.224,-9.6853e-05,-876.41,0.045677
8946,3.1667,0.54545,0,0.00014839,1482.8,8.3429e-05,442.74,2.7247e-05,20.61,-0.00013592,-1205.4,0.047569
8947,3.1667,0.72727,0,0.00019592,1957.8,0.00011623,662.46,3.1114e-05,22.935,-0.00017626,-1535.2,0.049512
8948,3.1667,0.90909,0,0.00024929,2491.1,0.0001541,924.83,3.4576e-05,26.741,-0.00022064,-1890.8,0.051514
8949,3.1667,1.0909,0,0.00031242,3122.1,0.00019975,1246.8,3.7795e-05,29.994,-0.00027237,-2300.4,0.053582
8950,3.1667,1.2727,0,0.00039154,3912.7,0.00025721,1660.4,4.2099e-05,44.15,-0.00033663,-2801.5,0.055722
8951,3.1667,1.4545,0,0.00050165,5013,0.00033946,2255.7,4.447e-05,39.188,-0.00042438,-3483.5,0.05794
8952,3.1667,1.6364,0,0.00064069,6402.4,0.00043097,2897.6,6.5289e-05,150.07,-0.00054295,-4420,0.060245
8953,3.1667,1.8182,0,0.0011256,11248,0.000851,6284.9,1.1456e-05,-23.073,-0.00087743,-6701.8,0.062634
8954,3.1667,2,0,0.0029407,29387,0.0013935,4410,0.00062146,-1391.1,-0.0028461,-27445,0.065197
8955,3,4.1818,0,0.0011968,11959,0.00088646,6424.4,3.1184e-05,-1.8159,-0.00095002,-7374.2,0.054406
8956,3,4.3636,0,0.00071047,7099.8,0.00045498,2901.7,9.1813e-05,173.07,-0.00061765,-5157.6,0.052076
8957,3,4.5455,0,0.00057433,5739.3,0.00036566,2266.5,7.0201e-05,46.6,-0.0005018,-4251.2,0.049884
8958,3,4.7273,0,0.00046233,4620.2,0.0002814,1656.6,6.7685e-05,50.864,-0.00041185,-3552.1,0.047834
8959,3,4.9091,0,0.00038023,3799.7,0.00022281,1244.1,6.1981e-05,35.695,-0.00034375,-3012.8,0.045915
8960,3,5.0909,0,0.00031216,3119.5,0.00017562,926.55,5.6565e-05,32.012,-0.00028608,-2542.5,0.044118
8961,3,5.2727,0,0.00025189,2517.2,0.00013571,670.54,5.0198e-05,28.066,-0.00023378,-2105.6,0.042432
8962,3,5.4545,0,0.00019524,1951.1,0.0001001,456.34,4.2783e-05,25.674,-0.00018344,-1674.1,0.040844
8963,3,5.6364,0,0.00013879,1386.9,6.6782e-05,273.1,3.39e-05,26.034,-0.00013204,-1220.8,0.039339
8964,3,5.8182,0,7.62e-05,761.47,3.3855e-05,116.48,2.0672e-05,17.429,-7.3437e-05,-689.67,0.0379
8965,3,4,0,0.0030418,30397,0.00144,4464,0.00063578,-1578.5,-0.0029473,-28500,0.056981
8966,3.1667,5.8182,0,5.6502e-05,564.64,2.6257e-05,101.52,1.4635e-05,14.193,-5.4025e-05,-501.69,0.043828
8967,3.1667,5.6364,0,0.00010362,1035.5,5.398e-05,256.89,2.2482e-05,20.224,-9.6853e-05,-876.41,0.045677
8968,3.1667,5.4545,0,0.00014839,1482.8,8.3429e-05,442.74,2.7247e-05,20.61,-0.00013592,-1205.4,0.047569
8969,3.1667,5.2727,0,0.00019592,1957.8,0.00011623,662.46,3.1114e-05,22.935,-0.00017626,-1535.2,0.049512
8970,3.1667,5.0909,0,0.00024929,2491.1,0.0001541,924.83,3.4576e-05,26.741,-0.00022064,-1890.8,0.051514
8971,3.1667,4.9091,0,0.00031242,3122.1,0.00019975,1246.8,3.7795e-05,29.994,-0.00027237,-2300.4,0.053582
8972,3.1667,4.7273,0,0.00039154,3912.7,0.00025721,1660.4,4.2099e-05,44.15,-0.00033663,-2801.5,0.055722
8973,3.1667,4.5455,0,0.00050165,5013,0.00033946,2255.7,4.447e-05,39.188,-0.00042438,-3483.5,0.05794
8974,3.1667,4.3636,0,0.00064069,6402.4,0.00043097,2897.6,6.5289e-05,150.07,-0.00054295,-4420,0.060245
8975,3.1667,4.1818,0,0.0011256,11248,0.000851,6284.9,1.1456e-05,-23.073,-0.00087743,-6701.8,0.062634
8976,3.1667,4,0,0.0029407,29387,0.0013935,4410,0.00062146,-1391.1,-0.0028461,-27445,0.065197
8977,3,2.2727,0,0.0018228,18215,0.00070963,1328.3,0.00053754,35.286,-0.0017962,-17499,0.059674
8978,3.0833,2.1818,0,0.001999,19976,0.00076646,1366.8,0.00060193,130.58,-0.0019707,-19199,0.062884
8979,2.9118,2.1818,0,0.0017676,17664,0.00067459,1131.6,0.00053055,49.291,-0.001745,-17048,0.055016
8980,3,2.1818,0.05,0.00010765,1075.8,8.2662e-05,621.09,5.7473e-11,0.0013075,-8.2662e-05,-621.09,0.058857
8981,3,2.0909,0,0.0024811,24794,0.0010834,2745.7,0.00060596,-841.91,-0.0024292,-23647,0.058031
8982,3,2.4545,0,0.0015074,15064,0.0005793,973.15,0.00044613,-27.45,-0.0014889,-14566,0.060853
8983,3.0833,2.3636,0,0.0015924,15913,0.00061964,1108.1,0.00046511,-52.955,-0.0015712,-15353,0.064318
8984,2.9118,2.3636,0,0.0015084,15074,0.00057207,872.06,0.00045033,-42.699,-0.0014922,-14638,0.056315
8985,3,2.3636,0.05,1.9699e-05,196.85,1.5126e-05,113.65,3.9338e-11,0.00093588,-1.5126e-05,-113.65,0.060255
8986,3,2.6364,0,0.0013568,13558,0.00050773,721.49,0.00041118,-3.9801,-0.0013431,-13185,0.061652
8987,3.0833,2.5455,0,0.0014027,14017,0.0005315,828.08,0.0004212,-0.67659,-0.0013868,-13585,0.065318
8988,2.9118,2.5455,0,0.0013549,13539,0.0004981,614.83,0.00041637,0.727,-0.0013434,-13221,0.057249
8989,3,2.5455,0.05,8.3708e-06,83.65,6.4277e-06,48.296,2.173e-11,0.0004491,-6.4277e-06,-48.295,0.06124
8990,3,2.8182,0,0.0012836,12827,0.00047299,592.54,0.00039346,-5.0084,-0.0012725,-12522,0.062117
8991,3.0833,2.7273,0,0.0013028,13019,0.00048541,665.43,0.00039602,-6.2238,-0.0012903,-12677,0.065956
8992,2.9118,2.7273,0,0.0012718,12710,0.00045999,481.05,0.00039511,-6.4583,-0.0012631,-12465,0.057852
8993,3,2.7273,0.05,3.9766e-06,39.739,3.0536e-06,22.943,8.4186e-12,0.00028375,-3.0536e-06,-22.943,0.061869
8994,3,3,0,0.0012616,12608,0.00046231,551.76,0.00038841,-3.4677,-0.0012514,-12324,0.06227
8995,3.0833,2.9091,0,0.0012599,12591,0.00046479,588.74,0.000386,-3.2471,-0.0012489,-12287,0.066268
8996,2.9118,2.9091,0,0.0012348,12340,0.00044222,416.06,0.00038648,-2.7117,-0.0012273,-12128,0.058148
8997,3,2.9091,0.05,1.4807e-06,14.797,1.137e-06,8.543,7.579e-13,4.6871e-05,-1.137e-06,-8.5429,0.062177
8998,3,3.1818,0,0.0012836,12827,0.00047299,592.54,0.00039346,-5.0084,-0.0012725,-12522,0.062117
8999,3.0833,3.0909,0,0.0012599,12591,0.00046479,588.74,0.000386,-3.2471,-0.0012489,-12287,0.066268
9000,2.9118,3.0909,0,0.0012348,12340,0.00044222,416.06,0.00038648,-2.7117,-0.0012273,-12128,0.058148
9001,3,3.0909,0.05,1.4807e-06,14.797,1.137e-06,8.5428,-2.7808e-12,-0.00012865,-1.137e-06,-8.5431,0.062177
9002,3,3.3636,0,0.0013568,13558,0.00050773,721.49,0.00041118,-3.9801,-0.0013431,-13185,0.061652
9003,3.0833,3.2727,0,0.0013028,13019,0.00048541,665.43,0.00039602,-6.2238,-0.0012903,-12677,0.065956
9004,2.9118,3.2727,0,0.0012718,12710,0.00045999,481.05,0.00039511,-6.4583,-0.0012631,-12465,0.057852
9005,3,3.2727,0.05,3.9766e-06,39.739,3.0536e-06,22.943,-1.9891e-11,-0.0003989,-3.0536e-06,-22.944,0.061869
9006,3,3.5455,0,0.0015074,15064,0.0005793,973.15,0.00044613,-27.45,-0.0014889,-14566,0.060853
9007,3.0833,3.4545,0,0.0014027,14017,0.0005315,828.07,0.0004212,-0.67658,-0.0013868,-13585,0.065318
9008,2.9118,3.4545,0,0.0013549,13539,0.0004981,614.83,0.00041637,0.727,-0.0013434,-13221,0.057249
9009,3,3.4545,0.05,8.3708e-06,83.65,6.4277e-06,48.295,-3.4871e-11,-0.00052625,-6.4277e-06,-48.296,0.06124
9010,3,3.7273,0,0.0018228,18216,0.00070963,1328.3,0.00053754,35.286,-0.0017962,-17499,0.059674
9011,3.0833,3.6364,0,0.0015924,15913,0.00061964,1108.1,0.00046511,-52.955,-0.0015712,-15353,0.064318
9012,2.9118,3.6364,0,0.0015084,15074,0.00057207,872.06,0.00045033,-42.699,-0.0014922,-14638,0.056315
9013,3,3.6364,0.05,1.9699e-05,196.85,1.5126e-05,113.65,-5.0996e-11,-0.0011162,-1.5126e-05,-113.65,0.060255
9014,3.0833,3.8182,0,0.001999,19976,0.00076646,1366.8,0.00060194,130.58,-0.0019707,-19199,0.062884
9015,2.9118,3.8182,0,0.0017676,17664,0.00067459,1131.5,0.00053055,49.291,-0.001745,-17048,0.055016
9016,3,3.8182,0.05,0.00010765,1075.8,8.2662e-05,621.09,-7.0596e-11,-0.0013651,-8.2662e-05,-621.09,0.058857
9017,3,3.9091,0,0.0024811,24794,0.0010834,2745.7,0.00060596,-841.91,-0.0024292,-23647,0.058031
9018,3.1667,2.2727,0,0.0018051,18038,0.00070718,1377.3,0.00053021,47.65,-0.0017771,-17289,0.067899
9019,3.2588,2.1818,0,0.0017224,17212,0.00066395,1195.7,0.00051406,69.524,-0.0016981,-16552,0.072155
9020,3.1667,2.1818,0.05,0.00011618,1161,8.9214e-05,670.32,3.7279e-11,0.001171,-8.9214e-05,-670.32,0.06707
9021,3.1667,2.0909,0,0.0024186,24169,0.0010565,2732.7,0.00059557,-730.35,-0.0023658,-22981,0.066246
9022,3.1667,2.4545,0,0.0014983,14973,0.00058094,1031.4,0.00044033,-25.083,-0.0014784,-14441,0.069086
9023,3.2588,2.3636,0,0.0014832,14822,0.00057131,967.18,0.00043755,-37.798,-0.0014649,-14332,0.073471
9024,3.1667,2.3636,0.05,2.2778e-05,227.62,1.7491e-05,131.42,4.7965e-11,0.00067186,-1.7491e-05,-131.42,0.06848
9025,3.1667,2.6364,0,0.0013515,13506,0.0005116,790.25,0.00040605,-2.7856,-0.0013364,-13095,0.069893
9026,3.2588,2.5455,0,0.00134,13391,0.0005033,738.91,0.00040536,3.011,-0.0013259,-13005,0.07442
9027,3.1667,2.5455,0.05,1.2083e-05,120.75,9.2783e-06,69.714,1.0267e-11,0.00043728,-9.2783e-06,-69.713,0.069474
9028,3.1667,2.8182,0,0.0012797,12789,0.00047766,665.04,0.00038858,-4.2898,-0.0012672,-12445,0.070362
9029,3.2588,2.7273,0,0.0012615,12606,0.00046791,619.33,0.00038481,-5.0519,-0.0012499,-12288,0.075035
9030,3.1667,2.7273,0.05,7.2244e-06,72.194,5.5474e-06,41.681,8.5583e-12,0.00018028,-5.5474e-06,-41.681,0.07011
9031,3.1667,3,0,0.0012582,12574,0.00046724,625.56,0.0003836,-2.8714,-0.0012465,-12251,0.070516
9032,3.2588,2.9091,0,0.0012263,12255,0.0004513,560.63,0.00037645,-1.7324,-0.0012158,-11966,0.075336
9033,3.1667,2.9091,0.05,5.4028e-06,53.991,4.1487e-06,31.172,-2.3695e-12,2.6929e-05,-4.1487e-06,-31.172,0.070421
9034,3.1667,3.1818,0,0.0012797,12789,0.00047766,665.04,0.00038858,-4.2898,-0.0012672,-12445,0.070362
9035,3.2588,3.0909,0,0.0012263,12255,0.0004513,560.62,0.00037645,-1.7324,-0.0012158,-11966,0.075336
9036,3.1667,3.0909,0.05,5.4028e-06,53.991,4.1487e-06,31.172,1.9615e-12,-8.9434e-05,-4.1487e-06,-31.172,0.070421
9037,3.1667,3.3636,0,0.0013515,13506,0.0005116,790.25,0.00040605,-2.7856,-0.0013364,-13095,0.069893
9038,3.2588,3.2727,0,0.0012615,12606,0.00046791,619.33,0.00038481,-5.0519,-0.0012499,-12288,0.075035
9039,3.1667,3.2727,0.05,7.2244e-06,72.194,5.5474e-06,41.681,-8.3739e-12,-0.00022864,-5.5474e-06,-41.681,0.07011
9040,3.1667,3.5455,0,0.0014983,14973,0.00058094,1031.4,0.00044033,-25.083,-0.0014784,-14441,0.069086
9041,3.2588,3.4545,0,0.00134,13391,0.0005033,738.91,0.00040536,3.011,-0.0013259,-13005,0.07442
9042,3.1667,3.4545,0.05,1.2083e-05,120.75,9.2783e-06,69.713,-2.5555e-11,-0.00050597,-9.2783e-06,-69.714,0.069474
9043,3.1667,3.7273,0,0.0018051,18038,0.00070718,1377.3,0.00053021,47.65,-0.0017771,-17289,0.067899
9044,3.2588,3.6364,0,0.0014832,14822,0.00057131,967.17,0.00043755,-37.798,-0.0014649,-14332,0.073471
9045,3.1667,3.6364,0.05,2.2778e-05,227.62,1.7491e-05,131.42,-4.7081e-11,-0.00077805,-1.7491e-05,-131.42,0.06848
9046,3.2588,3.8182,0,0.0017224,17212,0.00066395,1195.7,0.00051406,69.524,-0.0016981,-16552,0.072155
9047,3.1667,3.8182,0.05,0.00011618,1161,8.9214e-05,670.32,-3.9425e-11,-0.0012641,-8.9214e-05,-670.32,0.06707
9048,3.1667,3.9091,0,0.0024186,24169,0.0010565,2732.7,0.00059557,-730.35,-0.0023658,-22981,0.066246
9049,2.8235,5.7273,0,0.00016358,1634.7,7.8065e-05,277.86,3.6788e-05,-32.283,-0.00015718,-1489.7,0.034741
9050,2.7353,5.8182,0,0.00016178,1616.6,6.8449e-05,161.92,4.1961e-05,-37.106,-0.00015873,-1545,0.032145
9051,2.8235,5.8182,0.05,1.7618e-05,176.06,1.3529e-05,101.65,1.8506e-12,8.701e-06,-1.3529e-05,-101.65,0.034036
9052,2.8235,5.9091,0,0.0001024,1023.2,4.1261e-05,75.379,2.7744e-05,-26.18,-0.00010118,-994.86,0.033374
9053,2.9118,5.8182,0,9.4924e-05,948.59,3.8432e-05,84.996,2.6841e-05,-2.0926,-9.3213e-05,-904.13,0.035977
9054,2.8235,5.5455,0,0.00023194,2317.8,0.00011824,506.3,4.8503e-05,-17.681,-0.00021914,-2028.6,0.036129
9055,2.7353,5.6364,0,0.00020529,2051.5,8.8851e-05,244.49,5.3336e-05,-22.354,-0.0002002,-1927.4,0.033484
9056,2.8235,5.6364,0.05,1.5653e-05,156.42,1.202e-05,90.31,-1.6221e-13,1.4619e-05,-1.202e-05,-90.31,0.03541
9057,2.9118,5.6364,0,0.00015572,1556.1,7.1233e-05,247,3.9246e-05,6.6623,-0.00015,-1415.3,0.037385
9058,2.8235,5.3636,0,0.00030861,3083.9,0.00016759,811.88,5.7691e-05,-13.844,-0.00028662,-2600.8,0.037557
9059,2.7353,5.4545,0,0.00026771,2675.2,0.00012628,458.18,6.3449e-05,-13.901,-0.00025701,-2421.7,0.034839
9060,2.8235,5.4545,0.05,1.6385e-05,163.73,1.2581e-05,94.532,3.6127e-13,9.127e-06,-1.2581e-05,-94.532,0.036816
9061,2.9118,5.4545,0,0.00021883,2186.8,0.00011014,471.42,4.7991e-05,4.464,-0.00020696,-1911.2,0.038841
9062,2.8235,5.1818,0,0.00039201,3917.4,0.00022311,1168.4,6.5979e-05,-12.267,-0.00035875,-3203.5,0.039039
9063,2.7353,5.2727,0,0.0003387,3384.7,0.00017141,732.16,7.2633e-05,-10.02,-0.00032025,-2962,0.036225
9064,2.8235,5.2727,0.05,1.7988e-05,179.75,1.3812e-05,103.78,-2.9298e-21,8.6219e-06,-1.3812e-05,-103.78,0.038269
9065,2.9118,5.2727,0,0.00028425,2840.5,0.00015232,730.81,5.5645e-05,4.459,-0.00026468,-2402.3,0.040362
9066,2.8235,5,0,0.00048559,4852.5,0.0002866,1584,7.4042e-05,-13.045,-0.00043872,-3865.7,0.040584
9067,2.7353,5.0909,0,0.00041792,4176.3,0.00022277,1050.8,8.1772e-05,-8.6409,-0.00038998,-3553.2,0.037651
9068,2.8235,5.0909,0.05,2.04e-05,203.86,1.5664e-05,117.7,-3.6224e-12,-2.4965e-14,-1.5664e-05,-117.7,0.03978
9069,2.9118,5.0909,0,0.00035478,3545.4,0.00019935,1032.4,6.2601e-05,4.9339,-0.00032578,-2913.2,0.041961
9070,2.8235,4.8182,0,0.00059566,5952.5,0.00036189,2083,8.2955e-05,-12.853,-0.00053208,-4634,0.042196
9071,2.7353,4.9091,0,0.00050812,5077.7,0.00028147,1416.6,9.1706e-05,-9.2274,-0.00046893,-4221.6,0.039123
9072,2.8235,4.9091,0.05,2.3815e-05,237.98,1.8287e-05,137.4,-8.6022e-12,-6.3566e-05,-1.8287e-05,-137.4,0.041357
9073,2.9118,4.9091,0,0.00043464,4343.4,0.00025414,1394,6.9002e-05,3.015,-0.00039382,-3474.4,0.043649
9074,2.8235,4.6364,0,0.00073267,7321.7,0.00045511,2692.2,9.3599e-05,-24.03,-0.00064844,-5599.4,0.043876
9075,2.7353,4.7273,0,0.00061487,6144.5,0.00035015,1841.5,0.00010402,-7.9216,-0.00056243,-5015.3,0.040639
9076,2.8235,4.7273,0.05,2.9076e-05,290.56,2.2327e-05,167.76,-8.5163e-12,-0.00013562,-2.2327e-05,-167.76,0.043002
9077,2.9118,4.7273,0,0.00053054,5301.7,0.00032062,1844.5,7.6586e-05,10.883,-0.00047462,-4130.7,0.045431
9078,2.8235,4.4545,0,0.00092103,9204,0.00058091,3515.2,0.00011188,-8.8801,-0.00080928,-6930.1,0.045614
9079,2.7353,4.5455,0,0.00074608,7455.6,0.00043152,2315.7,0.00012045,-21.573,-0.00067903,-6028.5,0.042189
9080,2.8235,4.5455,0.05,3.5994e-05,359.69,2.7639e-05,207.67,-2.4022e-11,-0.00020267,-2.7639e-05,-207.67,0.04471
9081,2.9118,4.5455,0,0.00065589,6554.4,0.0004105,2452.3,8.1352e-05,-20.774,-0.00057852,-4978.8,0.04731
9082,2.8235,4.2727,0,0.0011897,11889,0.00073139,4234.7,0.00015419,-102.21,-0.0010585,-9213.6,0.047382
9083,2.7353,4.3636,0,0.00091843,9178,0.00053083,2864.5,0.00015062,7.8032,-0.00083557,-7402.1,0.043752
9084,2.8235,4.3636,0.05,5.2242e-05,522.06,4.0115e-05,301.41,-5.3099e-11,-0.00048469,-4.0115e-05,-301.41,0.046465
9085,2.9118,4.3636,0,0.00082297,8224,0.00051609,3161.4,0.0001093,104.94,-0.00072361,-6153.2,0.04928
9086,2.8235,4.0909,0,0.0014722,14711,0.00079954,3623.1,0.00024843,-517.71,-0.0013749,-12715,0.049118
9087,2.7353,4.1818,0,0.0011561,11553,0.00063164,3061.3,0.00021012,-105.8,-0.0010728,-9744.8,0.045279
9088,2.8235,4.1818,0.05,0.00010087,1008,7.7457e-05,581.98,-1.4506e-10,-0.0014525,-7.7457e-05,-581.98,0.048218
9089,2.9118,4.1818,0,0.0011576,11568,0.00078868,5005,6.4528e-05,-436.04,-0.00097948,-8280.3,0.051324
9090,2.8235,3.9091,0,0.0015568,15557,0.00067586,1776.7,0.00039302,-348.46,-0.0015216,-14734,0.050679
9091,2.7353,4,0,0.0013477,13467,0.00061355,1864.2,0.00031814,-355.46,-0.0013082,-12575,0.046701
9092,2.8235,4,0.05,0.00017385,1737.3,0.00013349,1003,-6.4298e-11,-0.00087202,-0.00013349,-1003,0.049879
9093,2.9118,4,0,0.0022989,22973,0.0010332,3003.8,0.00055096,-619.54,-0.0022368,-21565,0.053325
9094,2.8235,3.7273,0,0.0014721,14710,0.00055203,788.02,0.00044458,-19.342,-0.0014573,-14309,0.052
9095,2.7353,3.8182,0,0.0013459,13450,0.00049246,594.07,0.00041617,20.81,-0.0013346,-13133,0.047952
9096,2.8235,3.8182,0.05,8.3282e-05,832.25,6.395e-05,480.5,3.2927e-11,-0.00037961,-6.3951e-05,-480.5,0.051328
9097,2.8235,3.5455,0,0.0013611,13602,0.00049538,547.6,0.00042049,-15.108,-0.0013512,-13327,0.053016
9098,2.7353,3.6364,0,0.0012944,12935,0.00045659,338.21,0.00040809,-26.227,-0.0012887,-12775,0.048988
9099,2.8235,3.6364,0.05,3.3072e-05,330.49,2.5395e-05,190.81,3.3088e-12,-0.00042358,-2.5395e-05,-190.81,0.052494
9100,2.8235,3.3636,0,0.0012714,12705,0.00045155,383.34,0.00040023,-2.231,-0.0012645,-12510,0.053729
9101,2.7353,3.4545,0,0.0012282,12273,0.00042185,196.25,0.00039519,-4.0811,-0.0012248,-12176,0.049771
9102,2.8235,3.4545,0.05,1.7402e-05,173.9,1.3363e-05,100.4,3.7212e-12,-0.00028075,-1.3363e-05,-100.4,0.053357
9103,2.8235,3.1818,0,0.001223,12222,0.00042905,303.25,0.00038815,-4.0591,-0.0012177,-12069,0.054151
9104,2.7353,3.2727,0,0.0011836,11828,0.00040079,118.9,0.0003842,-5.6898,-0.0011816,-11771,0.050291
9105,2.8235,3.2727,0.05,9.595e-06,95.884,7.3678e-06,55.358,1.528e-11,-0.00013386,-7.3678e-06,-55.359,0.053923
9106,2.8235,3,0,0.0012076,12068,0.00042162,276.55,0.00038458,-1.7514,-0.0012027,-11928,0.05429
9107,2.7353,3.0909,0,0.0011615,11607,0.00039018,81.406,0.00037914,-1.5545,-0.0011602,-11567,0.050551
9108,2.8235,3.0909,0.05,6.8681e-06,68.634,5.2739e-06,39.626,1.7456e-12,-3.8575e-05,-5.2739e-06,-39.626,0.054203
9109,2.8235,2.8182,0,0.001223,12222,0.00042905,303.25,0.00038815,-4.0591,-0.0012177,-12069,0.054151
9110,2.7353,2.9091,0,0.0011615,11607,0.00039018,81.407,0.00037914,-1.5545,-0.0011602,-11567,0.050551
9111,2.8235,2.9091,0.05,6.8681e-06,68.634,5.2739e-06,39.626,-2.0203e-12,-6.3371e-06,-5.2739e-06,-39.626,0.054203
9112,2.8235,2.6364,0,0.0012714,12705,0.00045155,383.34,0.00040023,-2.231,-0.0012645,-12510,0.053729
9113,2.7353,2.7273,0,0.0011836,11828,0.00040079,118.9,0.0003842,-5.6898,-0.0011816,-11771,0.050291
9114,2.8235,2.7273,0.05,9.595e-06,95.884,7.3678e-06,55.359,-1.6129e-11,8.8764e-05,-7.3678e-06,-55.358,0.053923
9115,2.8235,2.4545,0,0.0013611,13602,0.00049538,547.6,0.00042049,-15.108,-0.0013512,-13327,0.053016
9116,2.7353,2.5455,0,0.0012282,12273,0.00042185,196.25,0.00039519,-4.0811,-0.0012248,-12176,0.049771
9117,2.8235,2.5455,0.05,1.7402e-05,173.9,1.3363e-05,100.4,-9.3469e-13,0.00021822,-1.3363e-05,-100.4,0.053357
9118,2.8235,2.2727,0,0.0014721,14710,0.00055203,788.02,0.00044458,-19.342,-0.0014573,-14309,0.052
9119,2.7353,2.3636,0,0.0012944,12935,0.00045659,338.21,0.00040809,-26.227,-0.0012887,-12775,0.048988
9120,2.8235,2.3636,0.05,3.3072e-05,330.49,2.5395e-05,190.81,-3.3088e-12,0.0003832,-2.5395e-05,-190.81,0.052494
9121,2.8235,2.0909,0,0.0015568,15557,0.00067586,1776.7,0.00039302,-348.46,-0.0015216,-14734,0.050679
9122,2.7353,2.1818,0,0.0013459,13450,0.00049246,594.07,0.00041617,20.81,-0.0013346,-13133,0.047952
9123,2.8235,2.1818,0.05,8.3282e-05,832.25,6.3951e-05,480.5,-3.0204e-11,0.00033434,-6.395e-05,-480.5,0.051328
9124,2.8235,1.9091,0,0.0014722,14711,0.00079954,3623.1,0.00024843,-517.71,-0.0013749,-12715,0.049118
9125,2.7353,2,0,0.0013477,13467,0.00061355,1864.2,0.00031814,-355.46,-0.0013082,-12575,0.046701
9126,2.8235,2,0.05,0.00017385,1737.3,0.00013349,1003,6.7334e-11,0.00097145,-0.00013349,-1003,0.049879
9127,2.9118,2,0,0.0022989,22973,0.0010332,3003.8,0.00055096,-619.54,-0.0022368,-21565,0.053325
9128,2.8235,1.7273,0,0.0011897,11889,0.00073139,4234.7,0.00015419,-102.21,-0.0010585,-9213.6,0.047382
9129,2.7353,1.8182,0,0.0011561,11553,0.00063164,3061.3,0.00021012,-105.8,-0.0010728,-9744.8,0.045279
9130,2.8235,1.8182,0.05,0.00010087,1008,7.7457e-05,581.98,1.4365e-10,0.0014162,-7.7457e-05,-581.98,0.048218
9131,2.9118,1.8182,0,0.0011576,11568,0.00078868,5005,6.4528e-05,-436.04,-0.00097948,-8280.3,0.051324
9132,2.8235,1.5455,0,0.00092103,9204,0.00058091,3515.2,0.00011188,-8.8801,-0.00080928,-6930.1,0.045614
9133,2.7353,1.6364,0,0.00091843,9178,0.00053083,2864.5,0.00015062,7.8032,-0.00083557,-7402.1,0.043752
9134,2.8235,1.6364,0.05,5.2242e-05,522.06,4.0115e-05,301.41,5.2333e-11,0.00047612,-4.0115e-05,-301.41,0.046465
9135,2.9118,1.6364,0,0.00082297,8224,0.00051609,3161.4,0.0001093,104.94,-0.00072361,-6153.2,0.04928
9136,2.8235,1.3636,0,0.00073267,7321.7,0.00045511,2692.2,9.3599e-05,-24.03,-0.00064844,-5599.4,0.043876
9137,2.7353,1.4545,0,0.00074608,7455.6,0.00043152,2315.7,0.00012045,-21.573,-0.00067903,-6028.5,0.042189
9138,2.8235,1.4545,0.05,3.5994e-05,359.69,2.7639e-05,207.67,2.4565e-11,0.00018445,-2.7639e-05,-207.67,0.04471
9139,2.9118,1.4545,0,0.00065589,6554.4,0.0004105,2452.3,8.1352e-05,-20.774,-0.00057852,-4978.8,0.04731
9140,2.8235,1.1818,0,0.00059566,5952.5,0.00036189,2083,8.2955e-05,-12.853,-0.00053208,-4634,0.042196
9141,2.7353,1.2727,0,0.00061487,6144.5,0.00035015,1841.5,0.00010402,-7.9216,-0.00056243,-5015.3,0.040639
9142,2.8235,1.2727,0.05,2.9076e-05,290.56,2.2327e-05,167.76,8.5163e-12,0.00012708,-2.2327e-05,-167.76,0.043002
9143,2.9118,1.2727,0,0.00053054,5301.7,0.00032062,1844.5,7.6586e-05,10.883,-0.00047462,-4130.7,0.045431
9144,2.8235,1,0,0.00048559,4852.5,0.0002866,1584,7.4042e-05,-13.045,-0.00043872,-3865.7,0.040584
9145,2.7353,1.0909,0,0.00050812,5077.7,0.00028147,1416.6,9.1706e-05,-9.2274,-0.00046893,-4221.6,0.039123
9146,2.8235,1.0909,0.05,2.3815e-05,237.98,1.8287e-05,137.4,8.6022e-12,6.3566e-05,-1.8287e-05,-137.4,0.041357
9147,2.9118,1.0909,0,0.00043464,4343.4,0.00025414,1394,6.9002e-05,3.015,-0.00039382,-3474.4,0.043649
9148,2.8235,0.81818,0,0.00039201,3917.4,0.00022311,1168.4,6.5979e-05,-12.267,-0.00035875,-3203.5,0.039039
9149,2.7353,0.90909,0,0.00041792,4176.3,0.00022277,1050.8,8.1772e-05,-8.6409,-0.00038998,-3553.2,0.037651
9150,2.8235,0.90909,0.05,2.04e-05,203.86,1.5664e-05,117.7,4.616e-12,8.3349e-06,-1.5664e-05,-117.7,0.03978
9151,2.9118,0.90909,0,0.00035478,3545.4,0.00019935,1032.4,6.2601e-05,4.9339,-0.00032578,-2913.2,0.041961
9152,2.8235,0.63636,0,0.00030861,3083.9,0.00016759,811.88,5.7691e-05,-13.844,-0.00028662,-2600.8,0.037557
9153,2.7353,0.72727,0,0.0003387,3384.7,0.00017141,732.16,7.2633e-05,-10.02,-0.00032025,-2962,0.036225
9154,2.8235,0.72727,0.05,1.7988e-05,179.75,1.3812e-05,103.78,-2.9298e-21,8.6219e-06,-1.3812e-05,-103.78,0.038269
9155,2.9118,0.72727,0,0.00028425,2840.5,0.00015232,730.81,5.5645e-05,4.459,-0.00026468,-2402.3,0.040362
9156,2.8235,0.45455,0,0.00023194,2317.8,0.00011824,506.3,4.8503e-05,-17.681,-0.00021914,-2028.6,0.036129
9157,2.7353,0.54545,0,0.00026771,2675.2,0.00012628,458.18,6.3449e-05,-13.901,-0.00025701,-2421.7,0.034839
9158,2.8235,0.54545,0.05,1.6385e-05,163.73,1.2581e-05,94.532,-2.6687e-21,-4.5635e-06,-1.2581e-05,-94.532,0.036816
9159,2.9118,0.54545,0,0.00021883,2186.8,0.00011014,471.42,4.7991e-05,4.464,-0.00020696,-1911.2,0.038841
9160,2.8235,0.27273,0,0.00016358,1634.7,7.8065e-05,277.86,3.6788e-05,-32.283,-0.00015718,-1489.7,0.034741
9161,2.7353,0.36364,0,0.00020529,2051.5,8.8851e-05,244.49,5.3336e-05,-22.354,-0.0002002,-1927.4,0.033484
9162,2.8235,0.36364,0.05,1.5653e-05,156.42,1.202e-05,90.31,1.6221e-13,-1.4619e-05,-1.202e-05,-90.31,0.03541
9163,2.9118,0.36364,0,0.00015572,1556.1,7.1233e-05,247,3.9246e-05,6.6623,-0.00015,-1415.3,0.037385
9164,2.7353,0.18182,0,0.00016178,1616.6,6.8449e-05,161.92,4.1961e-05,-37.106,-0.00015873,-1545,0.032145
9165,2.8235,0.18182,0.05,1.7618e-05,176.06,1.3529e-05,101.65,-1.5988e-12,-1.9953e-06,-1.3529e-05,-101.65,0.034036
9166,2.8235,0.090909,0,0.0001024,1023.2,4.1261e-05,75.379,2.7744e-05,-26.18,-0.00010118,-994.86,0.033374
9167,2.9118,0.18182,0,9.4924e-05,948.59,3.8432e-05,84.996,2.6841e-05,-2.0926,-9.3213e-05,-904.13,0.035977
9168,2.6471,5.7273,0,0.00020879,2086.4,8.2752e-05,154.98,5.9201e-05,-21.969,-0.00020596,-2014.3,0.030901
9169,2.5588,5.8182,0,0.00022822,2280.6,8.8629e-05,150.74,6.6211e-05,-17.698,-0.00022549,-2209.4,0.028376
9170,2.6471,5.8182,0.05,1.554e-05,155.29,1.1933e-05,89.66,1.0302e-12,2.7364e-06,-1.1933e-05,-89.66,0.030227
9171,2.6471,5.9091,0,0.00017524,1751.2,6.3101e-05,61.911,5.4513e-05,-2.6231,-0.00017414,-1720.6,0.029593
9172,2.6471,5.5455,0,0.00024921,2490.4,0.00010256,239.01,6.8951e-05,-13.55,-0.00024441,-2368,0.032202
9173,2.5588,5.6364,0,0.0002495,2493.3,9.4685e-05,137.85,7.3773e-05,-19.271,-0.00024711,-2430.3,0.029639
9174,2.6471,5.6364,0.05,1.2964e-05,129.55,9.9545e-06,74.794,1.8999e-12,3.552e-06,-9.9545e-06,-74.794,0.031529
9175,2.6471,5.3636,0,0.00030615,3059.4,0.00013596,422.51,7.8703e-05,-7.7321,-0.00029682,-2829.2,0.033512
9176,2.5588,5.4545,0,0.00029184,2916.4,0.00011641,236.21,8.3276e-05,-12.771,-0.00028724,-2796.7,0.030891
9177,2.6471,5.4545,0.05,1.2818e-05,128.1,9.843e-06,73.957,-1.2027e-12,-1.6587e-05,-9.843e-06,-73.957,0.032832
9178,2.6471,5.1818,0,0.00037306,3728,0.00017689,658.27,8.8623e-05,-4.9133,-0.00035749,-3356.8,0.034841
9179,2.5588,5.2727,0,0.00034641,3461.7,0.00014747,399.05,9.3272e-05,-8.1456,-0.00033796,-3248.2,0.032143
9180,2.6471,5.2727,0.05,1.3269e-05,132.6,1.0189e-05,76.559,-2.8586e-12,-5.3456e-05,-1.0189e-05,-76.559,0.03415
9181,2.6471,5,0,0.00044955,4492.4,0.00022377,929.38,9.9586e-05,-3.6928,-0.00042647,-3956.3,0.036196
9182,2.5588,5.0909,0,0.00041047,4101.9,0.00018474,599.44,0.00010413,-6.1841,-0.00039701,-3771.6,0.033403
9183,2.6471,5.0909,0.05,1.4253e-05,142.43,1.0945e-05,82.234,-9.0883e-12,-8.1231e-05,-1.0945e-05,-82.234,0.035491
9184,2.6471,4.8182,0,0.00053799,5376.2,0.0002768,1228.2,0.00011289,-3.3647,-0.00050647,-4657,0.037576
9185,2.5588,4.9091,0,0.00048403,4836.9,0.00022682,820.69,0.00011686,-5.5004,-0.00046484,-4376.1,0.034672
9186,2.6471,4.9091,0.05,1.586e-05,158.49,1.2179e-05,91.505,-8.7999e-12,-0.0001313,-1.2179e-05,-91.505,0.036857
9187,2.6471,4.6364,0,0.00064172,6412.8,0.00033527,1530.3,0.00013098,-4.6357,-0.00060183,-5510.6,0.038974
9188,2.5588,4.7273,0,0.00056875,5683.6,0.00027292,1045.6,0.00013299,-5.7164,-0.00054372,-5090.3,0.035944
9189,2.6471,4.7273,0.05,1.7944e-05,179.32,1.3779e-05,103.53,-2.6164e-11,-0.00023198,-1.3779e-05,-103.53,0.038246
9190,2.6471,4.4545,0,0.00076345,7629.2,0.00039412,1760.3,0.00015929,-4.1651,-0.0007181,-6596.5,0.040373
9191,2.5588,4.5455,0,0.00066621,6657.5,0.00032021,1231.4,0.0001554,-6.9899,-0.00063668,-5958.4,0.037209
9192,2.6471,4.5455,0.05,2.2122e-05,221.06,1.6987e-05,127.63,-3.8636e-11,-0.00038024,-1.6987e-05,-127.63,0.039644
9193,2.6471,4.2727,0,0.000902,9013.8,0.0004402,1759.7,0.00020664,4.8473,-0.00085907,-8002.4,0.041739
9194,2.5588,4.3636,0,0.00077629,7757.6,0.00036153,1286.8,0.00018884,-10.721,-0.0007464,-7037.7,0.038441
9195,2.6471,4.3636,0.05,2.2341e-05,223.25,1.7155e-05,128.89,-6.7338e-11,-0.00079744,-1.7155e-05,-128.89,0.041028
9196,2.6471,4.0909,0,0.0010223,10216,0.00043522,1224,0.00027976,55.941,-0.00099554,-9526.2,0.043025
9197,2.5588,4.1818,0,0.00089214,8915.2,0.00038158,1059.9,0.00024002,-3.73,-0.0008694,-8339.4,0.03961
9198,2.6471,4.1818,0.05,3.1701e-05,316.79,2.4342e-05,182.9,-9.7602e-11,-0.0010957,-2.4342e-05,-182.9,0.042358
9199,2.6471,3.9091,0,0.0011136,11129,0.0004036,481.97,0.00035017,80.581,-0.0011035,-10842,0.044186
9200,2.5588,4,0,0.00098143,9807.6,0.00035603,408.17,0.00030648,35.846,-0.00097335,-9580.3,0.040679
9201,2.6471,4,0.05,2.7787e-05,277.68,2.1337e-05,160.32,-1.8101e-12,-0.00039101,-2.1337e-05,-160.32,0.043582
9202,2.6471,3.7273,0,0.0011601,11593,0.00038972,89.428,0.00037933,11.321,-0.0011583,-11542,0.045188
9203,2.5588,3.8182,0,0.0010521,10514,0.0003529,23.775,0.00033975,-75.087,-0.001053,-10540,0.041625
9204,2.6471,3.8182,0.05,3.9248e-05,392.21,3.0138e-05,226.44,3.1348e-11,-0.00010013,-3.0138e-05,-226.45,0.044663
9205,2.6471,3.5455,0,0.0011586,11578,0.00038755,20.6,0.00037542,-70.506,-0.0011594,-11603,0.045997
9206,2.5588,3.6364,0,0.0010795,10788,0.00036911,4.607,0.00033475,-253.55,-0.0010835,-10910,0.042422
9207,2.6471,3.6364,0.05,2.6292e-05,262.73,2.0189e-05,151.69,3.2885e-11,-0.00010296,-2.0189e-05,-151.69,0.045571
9208,2.6471,3.3636,0,0.0011389,11381,0.00038125,8.1855,0.00036738,-95.984,-0.0011403,-11424,0.046584
9209,2.5588,3.4545,0,0.001079,10783,0.00037104,4.4832,0.00033094,-296.8,-0.0010837,-10926,0.043042
9210,2.6471,3.4545,0.05,1.871e-05,186.97,1.4367e-05,107.95,1.9429e-11,-8.9545e-05,-1.4367e-05,-107.95,0.04627
9211,2.6471,3.1818,0,0.0011208,11200,0.00037573,0.83608,0.00036002,-117.16,-0.0011227,-11258,0.046938
9212,2.5588,3.2727,0,0.0010691,10683,0.00036862,1.3142,0.00032591,-319.61,-0.0010741,-10839,0.043464
9213,2.6471,3.2727,0.05,1.2715e-05,127.07,9.7638e-06,73.361,1.9383e-11,-2.5286e-05,-9.7638e-06,-73.362,0.046741
9214,2.6471,3,0,0.0011142,11135,0.0003738,-0.53463,0.0003573,-124.5,-0.0011163,-11197,0.047056
9215,2.5588,3.0909,0,0.0010621,10614,0.00036671,0.213,0.00032287,-329.18,-0.0010674,-10775,0.043676
9216,2.6471,3.0909,0.05,1.0183e-05,101.75,7.8189e-06,58.748,6.8261e-12,-1.5151e-05,-7.8189e-06,-58.748,0.046977
9217,2.6471,2.8182,0,0.0011208,11200,0.00037573,0.83608,0.00036002,-117.16,-0.0011227,-11258,0.046938
9218,2.5588,2.9091,0,0.0010621,10614,0.00036671,0.213,0.00032287,-329.18,-0.0010674,-10775,0.043676
9219,2.6471,2.9091,0.05,1.0183e-05,101.75,7.8189e-06,58.748,-6.764e-12,-2.4003e-05,-7.8189e-06,-58.748,0.046977
9220,2.6471,2.6364,0,0.0011389,11381,0.00038125,8.1856,0.00036738,-95.984,-0.0011403,-11424,0.046584
9221,2.5588,2.7273,0,0.0010691,10683,0.00036862,1.3142,0.00032591,-319.61,-0.0010741,-10839,0.043464
9222,2.6471,2.7273,0.05,1.2715e-05,127.07,9.7638e-06,73.362,-1.9698e-11,-1.5466e-05,-9.7638e-06,-73.361,0.046741
9223,2.6471,2.4545,0,0.0011586,11578,0.00038755,20.6,0.00037542,-70.505,-0.0011594,-11603,0.045997
9224,2.5588,2.5455,0,0.001079,10783,0.00037104,4.4832,0.00033094,-296.8,-0.0010837,-10926,0.043042
9225,2.6471,2.5455,0.05,1.871e-05,186.97,1.4367e-05,107.95,-1.9258e-11,5.4597e-05,-1.4367e-05,-107.95,0.04627
9226,2.6471,2.2727,0,0.0011601,11593,0.00038972,89.428,0.00037933,11.322,-0.0011583,-11542,0.045188
9227,2.5588,2.3636,0,0.0010795,10788,0.00036911,4.607,0.00033475,-253.55,-0.0010835,-10910,0.042422
9228,2.6471,2.3636,0.05,2.6292e-05,262.73,2.0189e-05,151.69,-2.9439e-11,8.2801e-05,-2.0189e-05,-151.69,0.045571
9229,2.6471,2.0909,0,0.0011136,11129,0.0004036,481.97,0.00035017,80.581,-0.0011035,-10842,0.044186
9230,2.5588,2.1818,0,0.0010521,10514,0.0003529,23.775,0.00033975,-75.087,-0.001053,-10540,0.041625
9231,2.6471,2.1818,0.05,3.9248e-05,392.21,3.0138e-05,226.45,-3.1348e-11,9.2868e-05,-3.0138e-05,-226.44,0.044663
9232,2.6471,1.9091,0,0.0010223,10216,0.00043522,1224,0.00027976,55.941,-0.00099554,-9526.2,0.043025
9233,2.5588,2,0,0.00098143,9807.6,0.00035603,408.17,0.00030648,35.846,-0.00097335,-9580.3,0.040679
9234,2.6471,2,0.05,2.7787e-05,277.68,2.1337e-05,160.32,-2.1286e-12,0.00040743,-2.1337e-05,-160.32,0.043582
9235,2.6471,1.7273,0,0.000902,9013.8,0.0004402,1759.7,0.00020664,4.8473,-0.00085907,-8002.4,0.041739
9236,2.5588,1.8182,0,0.00089214,8915.2,0.00038158,1059.9,0.00024002,-3.73,-0.0008694,-8339.4,0.03961
9237,2.6471,1.8182,0.05,3.1701e-05,316.79,2.4342e-05,182.9,9.0813e-11,0.0010947,-2.4342e-05,-182.9,0.042358
9238,2.6471,1.5455,0,0.00076345,7629.2,0.00039412,1760.3,0.00015929,-4.1651,-0.0007181,-6596.5,0.040373
9239,2.5588,1.6364,0,0.00077629,7757.6,0.00036153,1286.8,0.00018884,-10.721,-0.0007464,-7037.7,0.038441
9240,2.6471,1.6364,0.05,2.2341e-05,223.25,1.7155e-05,128.89,6.4855e-11,0.00069958,-1.7155e-05,-128.89,0.041028
9241,2.6471,1.3636,0,0.00064172,6412.8,0.00033527,1530.3,0.00013098,-4.6357,-0.00060183,-5510.6,0.038974
9242,2.5588,1.4545,0,0.00066621,6657.5,0.00032021,1231.4,0.0001554,-6.9899,-0.00063668,-5958.4,0.037209
9243,2.6471,1.4545,0.05,2.2122e-05,221.06,1.6987e-05,127.63,3.7406e-11,0.00035515,-1.6987e-05,-127.63,0.039644
9244,2.6471,1.1818,0,0.00053799,5376.2,0.0002768,1228.2,0.00011289,-3.3647,-0.00050647,-4657,0.037576
9245,2.5588,1.2727,0,0.00056875,5683.6,0.00027292,1045.6,0.00013299,-5.7164,-0.00054372,-5090.3,0.035944
9246,2.6471,1.2727,0.05,1.7944e-05,179.32,1.3779e-05,103.53,2.3795e-11,0.00023198,-1.3779e-05,-103.53,0.038246
9247,2.6471,1,0,0.00044955,4492.4,0.00022377,929.38,9.9586e-05,-3.6928,-0.00042647,-3956.2,0.036196
9248,2.5588,1.0909,0,0.00048403,4836.9,0.00022682,820.69,0.00011686,-5.5004,-0.00046484,-4376.1,0.034672
9249,2.6471,1.0909,0.05,1.586e-05,158.49,1.2179e-05,91.505,9.638e-12,0.00011724,-1.2179e-05,-91.505,0.036857
9250,2.6471,0.81818,0,0.00037306,3728,0.00017689,658.27,8.8623e-05,-4.9133,-0.00035749,-3356.8,0.034841
9251,2.5588,0.90909,0,0.00041047,4101.9,0.00018474,599.44,0.00010413,-6.1841,-0.00039701,-3771.6,0.033403
9252,2.6471,0.90909,0.05,1.4253e-05,142.43,1.0945e-05,82.234,9.5033e-12,8.1231e-05,-1.0945e-05,-82.234,0.035491
9253,2.6471,0.63636,0,0.00030615,3059.4,0.00013596,422.51,7.8703e-05,-7.7321,-0.00029682,-2829.2,0.033512
9254,2.5588,0.72727,0,0.00034641,3461.7,0.00014747,399.05,9.3272e-05,-8.1456,-0.00033796,-3248.2,0.032143
9255,2.6471,0.72727,0.05,1.3269e-05,132.6,1.0189e-05,76.559,3.5512e-12,5.3456e-05,-1.0189e-05,-76.559,0.03415
9256,2.6471,0.45455,0,0.00024921,2490.4,0.00010256,239.01,6.8951e-05,-13.55,-0.00024441,-2368,0.032202
9257,2.5588,0.54545,0,0.00029184,2916.4,0.00011641,236.21,8.3276e-05,-12.771,-0.00028724,-2796.7,0.030891
9258,2.6471,0.54545,0.05,1.2818e-05,128.1,9.843e-06,73.957,2.3782e-12,9.8611e-06,-9.843e-06,-73.957,0.032832
9259,2.6471,0.27273,0,0.00020879,2086.4,8.2752e-05,154.98,5.9201e-05,-21.969,-0.00020596,-2014.3,0.030901
9260,2.5588,0.36364,0,0.0002495,2493.3,9.4685e-05,137.85,7.3773e-05,-19.271,-0.00024711,-2430.3,0.029639
9261,2.6471,0.36364,0.05,1.2964e-05,129.55,9.9545e-06,74.794,-1.838e-12,6.6511e-06,-9.9545e-06,-74.794,0.031529
9262,2.5588,0.18182,0,0.00022822,2280.6,8.8629e-05,150.74,6.6211e-05,-17.698,-0.00022549,-2209.4,0.028376
9263,2.6471,0.18182,0.05,1.554e-05,155.29,1.1933e-05,89.66,-7.0399e-13,-4.4635e-06,-1.1933e-05,-89.66,0.030227
9264,2.6471,0.090909,0,0.00017524,1751.2,6.3101e-05,61.911,5.4513e-05,-2.6231,-0.00017414,-1720.6,0.029593
9265,2.4706,5.7273,0,0.00026967,2694.8,0.00010129,139.11,8.0653e-05,-15.98,-0.00026724,-2629.9,0.027145
9266,2.3824,5.8182,0,0.0002924,2922,0.00011029,160.25,8.7538e-05,-10.666,-0.00028948,-2843.4,0.024718
9267,2.4706,5.8182,0.05,1.4716e-05,147.06,1.13e-05,84.906,4.2214e-13,-2.6976e-06,-1.13e-05,-84.906,0.026506
9268,2.4706,5.9091,0,0.00024464,2444.7,8.7213e-05,77.428,7.6794e-05,-0.862,-0.00024325,-2405.5,0.025906
9269,2.4706,5.5455,0,0.00029531,2951.1,0.00011087,152.58,8.8454e-05,-15.824,-0.00029263,-2879.1,0.028356
9270,2.3824,5.6364,0,0.00030481,3046,0.00011078,113.54,9.3597e-05,-15.547,-0.00030294,-2995,0.0259
9271,2.4706,5.6364,0.05,1.1997e-05,119.89,9.2124e-06,69.218,-1.6399e-12,-1.3756e-05,-9.2124e-06,-69.218,0.027729
9272,2.4706,5.3636,0,0.00033701,3367.7,0.00013174,241.48,9.8026e-05,-11.834,-0.00033238,-3245.8,0.029548
9273,2.3824,5.4545,0,0.00033432,3340.9,0.00012289,142.36,0.00010191,-15.244,-0.00033188,-3274.6,0.027049
9274,2.4706,5.4545,0.05,1.189e-05,118.81,9.1298e-06,68.598,-4.646e-12,-3.4202e-05,-9.1298e-06,-68.598,0.028929
9275,2.4706,5.1818,0,0.00038969,3894.2,0.00015985,374.27,0.00010884,-9.0151,-0.00038206,-3697.4,0.030732
9276,2.3824,5.2727,0,0.00037547,3752.1,0.00014231,215.29,0.00011209,-11.769,-0.00037149,-3645.1,0.028173
9277,2.4706,5.2727,0.05,1.2167e-05,121.59,9.343e-06,70.2,-6.6363e-12,-9.15e-05,-9.343e-06,-70.2,0.030115
9278,2.4706,5,0,0.00045155,4512.3,0.00019271,527.75,0.00012142,-7.9342,-0.00044031,-4228.5,0.03191
9279,2.3824,5.0909,0,0.0004259,4256.1,0.00016696,314.15,0.00012389,-9.5213,-0.00041979,-4094.5,0.029278
9280,2.4706,5.0909,0.05,1.2701e-05,126.93,9.7531e-06,73.281,-1.299e-11,-0.00013387,-9.7531e-06,-73.281,0.031295
9281,2.4706,4.8182,0,0.00052209,5217.3,0.00022817,677.48,0.00013695,-7.9841,-0.00050731,-4848.7,0.03308
9282,2.3824,4.9091,0,0.00048442,4840.8,0.00019476,418.08,0.00013796,-8.6906,-0.00047604,-4622,0.030363
9283,2.4706,4.9091,0.05,1.3444e-05,134.35,1.0323e-05,77.567,-2.0427e-11,-0.00019644,-1.0323e-05,-77.567,0.032468
9284,2.4706,4.6364,0,0.00060114,6007.2,0.00026325,787.1,0.00015738,-8.3486,-0.00058392,-5578.2,0.034233
9285,2.3824,4.7273,0,0.00055027,5498.9,0.00022322,499.88,0.00015549,-8.977,-0.00054015,-5235.7,0.031425
9286,2.4706,4.7273,0.05,1.4258e-05,142.48,1.0949e-05,82.263,-2.704e-11,-0.00031015,-1.0949e-05,-82.263,0.033629
9287,2.4706,4.4545,0,0.00068586,6853.9,0.00029182,789.43,0.00018489,-13.985,-0.00066913,-6430.8,0.035354
9288,2.3824,4.5455,0,0.00062246,6220.3,0.00024884,520.49,0.00017824,-9.9457,-0.00061208,-5948.1,0.032453
9289,2.4706,4.5455,0.05,1.4436e-05,144.26,1.1085e-05,83.287,-4.636e-11,-0.0004883,-1.1085e-05,-83.287,0.034767
9290,2.4706,4.2727,0,0.00077029,7697.6,0.00030464,600.03,0.00022229,-18.735,-0.00075853,-7388.3,0.03642
9291,2.3824,4.3636,0,0.00069696,6964.8,0.00026539,417.68,0.00020757,-16.782,-0.00068912,-6754.2,0.03343
9292,2.4706,4.3636,0.05,1.454e-05,145.3,1.1165e-05,83.888,-7.2504e-11,-0.00068806,-1.1165e-05,-83.888,0.035861
9293,2.4706,4.0909,0,0.00084912,8485.4,0.00030106,234.1,0.00026617,-28.071,-0.00084531,-8379.3,0.037405
9294,2.3824,4.1818,0,0.00076856,7680.3,0.00026817,156.18,0.00024322,-31.284,-0.00076626,-7616.1,0.034338
9295,2.4706,4.1818,0.05,1.4532e-05,145.22,1.1159e-05,83.844,-7.0003e-11,-0.00082891,-1.1159e-05,-83.844,0.036887
9296,2.4706,3.9091,0,0.0009166,9159.6,0.00031156,-3.2904,0.00028674,-189.77,-0.00091974,-9254.8,0.038289
9297,2.3824,4,0,0.0008336,8330.2,0.00028791,5.5164,0.0002537,-251.46,-0.00083748,-8450.2,0.03516
9298,2.4706,4,0.05,1.7442e-05,174.3,1.3393e-05,100.63,-1.7565e-11,-0.00037301,-1.3393e-05,-100.63,0.03782
9299,2.4706,3.7273,0,0.00096746,9667.9,0.00034045,0.28784,0.0002829,-432.15,-0.00097408,-9876.6,0.039053
9300,2.3824,3.8182,0,0.00088808,8874.7,0.00031937,0.051132,0.00024762,-539.05,-0.00089602,-9131.9,0.035884
9301,2.4706,3.8182,0.05,1.8674e-05,186.61,1.4339e-05,107.74,9.5514e-12,-0.00022338,-1.4339e-05,-107.74,0.038644
9302,2.4706,3.5455,0,0.00099664,9959.5,0.00035492,5.901,0.00028459,-522.55,-0.0010044,-10207,0.039677
9303,2.3824,3.6364,0,0.0009279,9272.6,0.00033956,5.8598,0.00024882,-675.89,-0.00093742,-9588.8,0.036493
9304,2.4706,3.6364,0.05,1.8574e-05,185.61,1.4262e-05,107.16,2.8996e-11,-3.044e-05,-1.4262e-05,-107.16,0.03934
9305,2.4706,3.3636,0,0.0010069,10062,0.00035899,1.9303,0.00028645,-543.13,-0.001015,-10322,0.040139
9306,2.3824,3.4545,0,0.00094884,9481.9,0.00034816,2.1412,0.00025239,-717.44,-0.00095896,-9819,0.036971
9307,2.4706,3.4545,0.05,1.5214e-05,152.03,1.1682e-05,87.775,2.4627e-11,7.3612e-06,-1.1682e-05,-87.776,0.039884
9308,2.4706,3.1818,0,0.0010086,10079,0.00035967,1.249,0.0002867,-547,-0.0010168,-10341,0.040421
9309,2.3824,3.2727,0,0.00095739,9567.3,0.00035142,1.6861,0.00025439,-727.33,-0.00096765,-9909.3,0.037299
9310,2.4706,3.2727,0.05,1.2563e-05,125.54,9.6469e-06,72.483,2.1534e-11,1.3849e-05,-9.6469e-06,-72.483,0.040256
9311,2.4706,3,0,0.0010084,10077,0.0003596,0.84212,0.00028662,-547.5,-0.0010166,-10339,0.040516
9312,2.3824,3.0909,0,0.00095993,9592.6,0.00035229,1.1276,0.00025512,-728.95,-0.00097022,-9935.7,0.037466
9313,2.4706,3.0909,0.05,1.1043e-05,110.36,8.4799e-06,63.714,1.076e-11,1.0331e-05,-8.4799e-06,-63.715,0.040445
9314,2.4706,2.8182,0,0.0010086,10079,0.00035967,1.249,0.0002867,-547,-0.0010168,-10341,0.040421
9315,2.3824,2.9091,0,0.00095993,9592.6,0.00035229,1.1276,0.00025512,-728.95,-0.00097022,-9935.7,0.037466
9316,2.4706,2.9091,0.05,1.1043e-05,110.36,8.4799e-06,63.715,-1.076e-11,-2.2575e-05,-8.4799e-06,-63.714,0.040445
9317,2.4706,2.6364,0,0.0010069,10062,0.00035899,1.9303,0.00028645,-543.13,-0.001015,-10322,0.040139
9318,2.3824,2.7273,0,0.00095739,9567.3,0.00035142,1.6861,0.00025439,-727.33,-0.00096765,-9909.3,0.037299
9319,2.4706,2.7273,0.05,1.2563e-05,125.54,9.6469e-06,72.483,-2.1419e-11,-2.9047e-05,-9.6469e-06,-72.483,0.040256
9320,2.4706,2.4545,0,0.00099664,9959.5,0.00035492,5.901,0.00028459,-522.55,-0.0010044,-10207,0.039677
9321,2.3824,2.5455,0,0.00094884,9481.9,0.00034816,2.1412,0.00025239,-717.44,-0.00095896,-9819,0.036971
9322,2.4706,2.5455,0.05,1.5214e-05,152.03,1.1682e-05,87.776,-2.4627e-11,-2.1788e-05,-1.1682e-05,-87.775,0.039884
9323,2.4706,2.2727,0,0.00096746,9667.9,0.00034045,0.28784,0.0002829,-432.15,-0.00097408,-9876.6,0.039053
9324,2.3824,2.3636,0,0.0009279,9272.6,0.00033956,5.8598,0.00024882,-675.89,-0.00093742,-9588.8,0.036493
9325,2.4706,2.3636,0.05,1.8574e-05,185.61,1.4262e-05,107.16,-2.9074e-11,2.6029e-05,-1.4262e-05,-107.16,0.03934
9326,2.4706,2.0909,0,0.0009166,9159.6,0.00031156,-3.2904,0.00028674,-189.77,-0.00091974,-9254.8,0.038289
9327,2.3824,2.1818,0,0.00088808,8874.7,0.00031937,0.05113,0.00024762,-539.05,-0.00089602,-9131.9,0.035884
9328,2.4706,2.1818,0.05,1.8674e-05,186.61,1.4339e-05,107.74,-6.5281e-12,0.00018442,-1.4339e-05,-107.74,0.038644
9329,2.4706,1.9091,0,0.00084912,8485.4,0.00030106,234.1,0.00026617,-28.071,-0.00084531,-8379.3,0.037405
9330,2.3824,2,0,0.0008336,8330.2,0.00028791,5.5164,0.0002537,-251.46,-0.00083748,-8450.2,0.03516
9331,2.4706,2,0.05,1.7442e-05,174.3,1.3393e-05,100.63,9.1262e-12,0.00039399,-1.3393e-05,-100.63,0.03782
9332,2.4706,1.7273,0,0.00077029,7697.6,0.00030464,600.03,0.00022229,-18.735,-0.00075853,-7388.3,0.03642
9333,2.3824,1.8182,0,0.00076856,7680.3,0.00026817,156.18,0.00024322,-31.284,-0.00076626,-7616.1,0.034338
9334,2.4706,1.8182,0.05,1.4532e-05,145.22,1.1159e-05,83.844,6.1868e-11,0.00076551,-1.1159e-05,-83.844,0.036887
9335,2.4706,1.5455,0,0.00068586,6853.9,0.00029182,789.43,0.00018489,-13.985,-0.00066913,-6430.8,0.035354
9336,2.3824,1.6364,0,0.00069696,6964.8,0.00026539,417.68,0.00020757,-16.782,-0.00068912,-6754.2,0.03343
9337,2.4706,1.6364,0.05,1.454e-05,145.3,1.1165e-05,83.888,7.1607e-11,0.0006496,-1.1165e-05,-83.888,0.035861
9338,2.4706,1.3636,0,0.00060114,6007.2,0.00026325,787.1,0.00015738,-8.3486,-0.00058392,-5578.2,0.034233
9339,2.3824,1.4545,0,0.00062246,6220.3,0.00024884,520.49,0.00017824,-9.9457,-0.00061208,-5948.1,0.032453
9340,2.4706,1.4545,0.05,1.4436e-05,144.26,1.1085e-05,83.287,4.5009e-11,0.0004236,-1.1085e-05,-83.287,0.034767
9341,2.4706,1.1818,0,0.00052209,5217.3,0.00022817,677.48,0.00013695,-7.9841,-0.00050731,-4848.7,0.03308
9342,2.3824,1.2727,0,0.00055027,5498.9,0.00022322,499.88,0.00015549,-8.977,-0.00054015,-5235.7,0.031425
9343,2.4706,1.2727,0.05,1.4258e-05,142.48,1.0949e-05,82.263,2.5745e-11,0.00029704,-1.0949e-05,-82.263,0.033629
9344,2.4706,1,0,0.00045154,4512.3,0.00019271,527.75,0.00012142,-7.9342,-0.00044031,-4228.5,0.03191
9345,2.3824,1.0909,0,0.00048442,4840.8,0.00019476,418.08,0.00013796,-8.6905,-0.00047604,-4622,0.030363
9346,2.4706,1.0909,0.05,1.3444e-05,134.35,1.0323e-05,77.567,1.9816e-11,0.00017785,-1.0323e-05,-77.567,0.032468
9347,2.4706,0.81818,0,0.00038969,3894.2,0.00015985,374.27,0.00010884,-9.0151,-0.00038206,-3697.4,0.030732
9348,2.3824,0.90909,0,0.0004259,4256.1,0.00016696,314.15,0.00012389,-9.5213,-0.00041979,-4094.5,0.029278
9349,2.4706,0.90909,0.05,1.2701e-05,126.93,9.7531e-06,73.281,1.2682e-11,0.00012699,-9.7531e-06,-73.281,0.031295
9350,2.4706,0.63636,0,0.00033701,3367.7,0.00013174,241.49,9.8026e-05,-11.834,-0.00033238,-3245.8,0.029548
9351,2.3824,0.72727,0,0.00037547,3752.1,0.00014231,215.29,0.00011209,-11.769,-0.00037149,-3645.1,0.028173
9352,2.4706,0.72727,0.05,1.2167e-05,121.59,9.343e-06,70.2,6.3292e-12,9.15e-05,-9.343e-06,-70.2,0.030115
9353,2.4706,0.45455,0,0.00029531,2951.1,0.00011087,152.58,8.8454e-05,-15.824,-0.00029263,-2879.1,0.028356
9354,2.3824,0.54545,0,0.00033432,3340.9,0.00012289,142.36,0.00010191,-15.244,-0.00033188,-3274.6,0.027049
9355,2.4706,0.54545,0.05,1.189e-05,118.81,9.1298e-06,68.598,4.646e-12,3.4202e-05,-9.1298e-06,-68.598,0.028929
9356,2.4706,0.27273,0,0.00026967,2694.8,0.00010129,139.11,8.0653e-05,-15.98,-0.00026724,-2629.9,0.027145
9357,2.3824,0.36364,0,0.00030481,3046,0.00011078,113.54,9.3597e-05,-15.547,-0.00030294,-2995,0.0259
9358,2.4706,0.36364,0.05,1.1997e-05,119.89,9.2124e-06,69.218,1.6399e-12,1.3756e-05,-9.2124e-06,-69.218,0.027729
9359,2.3824,0.18182,0,0.0002924,2922,0.00011029,160.25,8.7538e-05,-10.666,-0.00028948,-2843.4,0.024718
9360,2.4706,0.18182,0.05,1.4716e-05,147.06,1.13e-05,84.906,-4.2214e-13,2.6976e-06,-1.13e-05,-84.906,0.026506
9361,2.4706,0.090909,0,0.00024464,2444.7,8.7213e-05,77.428,7.6794e-05,-0.862,-0.00024325,-2405.5,0.025906
9362,2.2941,5.7273,0,0.00032771,3274.8,0.00011993,135.9,0.00010046,-10.38,-0.00032533,-3209.6,0.023521
9363,2.2059,5.8182,0,0.00034962,3493.8,0.00012932,164.12,0.00010657,-6.8657,-0.00034663,-3412,0.021215
9364,2.2941,5.8182,0.05,1.3793e-05,137.84,1.0591e-05,79.58,-8.7164e-13,-6.3978e-06,-1.0591e-05,-79.58,0.022919
9365,2.2941,5.9091,0,0.00030696,3067.5,0.00010865,88.661,9.6907e-05,0.40277,-0.00030535,-3022,0.022355
9366,2.2941,5.5455,0,0.00034503,3447.9,0.00012377,110.63,0.00010711,-14.539,-0.00034323,-3398.2,0.024639
9367,2.2059,5.6364,0,0.00035733,3570.8,0.00012682,99.871,0.00011192,-12.02,-0.0003557,-3525.6,0.022314
9368,2.2941,5.6364,0.05,1.0841e-05,108.34,8.3246e-06,62.548,-1.7658e-21,-2.5516e-05,-8.3246e-06,-62.548,0.024059
9369,2.2941,5.3636,0,0.00037535,3750.9,0.00013555,131.95,0.00011603,-14.758,-0.00037314,-3690.2,0.025718
9370,2.2059,5.4545,0,0.0003783,3780.3,0.0001328,85.064,0.00011909,-17.962,-0.00037705,-3745.7,0.023361
9371,2.2941,5.4545,0.05,1.0752e-05,107.44,8.256e-06,62.032,-6.7108e-12,-6.3056e-05,-8.256e-06,-62.032,0.025157
9372,2.2941,5.1818,0,0.00041528,4150,0.00015241,177.66,0.00012707,-12.768,-0.00041215,-4064.3,0.026765
9373,2.2059,5.2727,0,0.00040867,4083.9,0.00014347,91.95,0.00012864,-19.544,-0.00040732,-4046.5,0.024364
9374,2.2941,5.2727,0.05,1.0896e-05,108.88,8.3667e-06,62.864,-8.9432e-12,-0.0001157,-8.3667e-06,-62.864,0.026219
9375,2.2941,5,0,0.00046307,4627.6,0.0001725,230.7,0.00014028,-11.38,-0.00045887,-4513.1,0.027783
9376,2.2059,5.0909,0,0.0004469,4465.9,0.00015743,108.38,0.00014048,-18.999,-0.00044524,-4419.9,0.025327
9377,2.2941,5.0909,0.05,1.1097e-05,110.89,8.5209e-06,64.023,-1.6455e-11,-0.00015366,-8.5209e-06,-64.023,0.02725
9378,2.2941,4.8182,0,0.00051725,5168.9,0.00019346,267.98,0.00015628,-11.338,-0.00051232,-5035,0.028769
9379,2.2059,4.9091,0,0.0004916,4912.6,0.00017315,119.84,0.00015462,-19.371,-0.00048974,-4860.9,0.026252
9380,2.2941,4.9091,0.05,1.1268e-05,112.6,8.6524e-06,65.011,-2.4561e-11,-0.00023819,-8.6524e-06,-65.011,0.028251
9381,2.2941,4.6364,0,0.00057609,5756.9,0.0002123,259.49,0.00017597,-13.41,-0.00057142,-5629,0.029719
9382,2.2059,4.7273,0,0.0005413,5409.3,0.00018872,107.03,0.00017128,-24.059,-0.00053977,-5366.6,0.027136
9383,2.2941,4.7273,0.05,1.1243e-05,112.35,8.633e-06,64.865,-3.3233e-11,-0.00031349,-8.633e-06,-64.865,0.029219
9384,2.2941,4.4545,0,0.00063713,6366.9,0.00022566,173.16,0.0001999,-20.386,-0.00063431,-6288.3,0.03062
9385,2.2059,4.5455,0,0.00059412,5937.1,0.00020323,57.577,0.00018916,-48.138,-0.00059389,-5931.7,0.027971
9386,2.2941,4.5455,0.05,1.0952e-05,109.44,8.4096e-06,63.186,-4.9964e-11,-0.00050236,-8.4095e-06,-63.186,0.030143
9387,2.2941,4.2727,0,0.00069701,6965.2,0.00023759,38.989,0.00022072,-87.748,-0.00069775,-6988.8,0.031459
9388,2.2059,4.3636,0,0.00064755,6471,0.00022319,17.903,0.00019914,-162.77,-0.00064983,-6541.6,0.028749
9389,2.2941,4.3636,0.05,1.0496e-05,104.88,8.0594e-06,60.555,-8.2979e-11,-0.00070309,-8.0593e-06,-60.555,0.031013
9390,2.2941,4.0909,0,0.00075333,7528.1,0.00026605,10.515,0.00021959,-338.58,-0.0007583,-7686,0.032223
9391,2.2059,4.1818,0,0.00069876,6982.8,0.00025022,7.0182,0.00019737,-390.14,-0.00070443,-7165.9,0.029461
9392,2.2941,4.1818,0.05,1.0451e-05,104.44,8.0249e-06,60.296,-7.1478e-11,-0.00066155,-8.0249e-06,-60.296,0.031814
9393,2.2941,3.9091,0,0.00080443,8038.8,0.00029561,8.0471,0.00021378,-606.78,-0.00081285,-8320.5,0.032903
9394,2.2059,4,0,0.00074662,7461.1,0.00027844,5.1933,0.00019085,-652.95,-0.00075546,-7763.1,0.030098
9395,2.2941,4,0.05,1.1233e-05,112.25,8.6253e-06,64.807,-4.2951e-11,-0.0004794,-8.6253e-06,-64.807,0.032535
9396,2.2941,3.7273,0,0.0008471,8465.2,0.00031838,4.9788,0.00021197,-794.58,-0.0008577,-8831.6,0.033488
9397,2.2059,3.8182,0,0.00078943,7888.8,0.00030267,4.3914,0.00018658,-867.86,-0.00080049,-8284.3,0.030654
9398,2.2941,3.8182,0.05,1.2042e-05,120.34,9.2466e-06,69.475,-2.3039e-12,-0.00020688,-9.2467e-06,-69.476,0.033167
9399,2.2941,3.5455,0,0.00087829,8776.9,0.00033282,2.312,0.00021454,-886.44,-0.00088995,-9185.1,0.033965
9400,2.2059,3.6364,0,0.00082413,8235.6,0.00031992,2.0947,0.00018723,-994.91,-0.00083648,-8686.6,0.031119
9401,2.2941,3.6364,0.05,1.2297e-05,122.89,9.4427e-06,70.948,1.7447e-11,-5.719e-05,-9.4427e-06,-70.949,0.033698
9402,2.2941,3.3636,0,0.00089755,8969.3,0.00034061,2.024,0.00021831,-916.84,-0.00090957,-9391.3,0.034319
9403,2.2059,3.4545,0,0.00084858,8479.9,0.00033056,2.0035,0.00019062,-1049.5,-0.00086149,-8954.6,0.031482
9404,2.2941,3.4545,0.05,1.1725e-05,117.17,9.003e-06,67.645,1.8972e-11,-1.3085e-05,-9.0031e-06,-67.646,0.034114
9405,2.2941,3.1818,0,0.00090711,9064.8,0.00034404,1.5832,0.00022095,-923.25,-0.00091924,-9490.2,0.034536
9406,2.2059,3.2727,0,0.00086295,8623.6,0.00033614,1.6374,0.00019386,-1067.4,-0.0008761,-9106.6,0.031733
9407,2.2941,3.2727,0.05,1.0808e-05,108.01,8.2993e-06,62.357,1.3747e-11,3.4526e-06,-8.2993e-06,-62.358,0.034401
9408,2.2941,3,0,0.00090991,9092.8,0.00034498,1.3965,0.00022184,-923.86,-0.00092206,-9518.6,0.03461
9409,2.2059,3.0909,0,0.00086936,8687.6,0.00033845,1.4198,0.00019562,-1071.8,-0.00088258,-9172.9,0.03186
9410,2.2941,3.0909,0.05,1.0192e-05,101.85,7.8262e-06,58.803,7.1114e-12,6.3828e-06,-7.8262e-06,-58.803,0.034547
9411,2.2941,2.8182,0,0.00090711,9064.8,0.00034404,1.5832,0.00022095,-923.25,-0.00091924,-9490.2,0.034536
9412,2.2059,2.9091,0,0.00086936,8687.6,0.00033845,1.4198,0.00019562,-1071.8,-0.00088258,-9172.9,0.03186
9413,2.2941,2.9091,0.05,1.0192e-05,101.85,7.8262e-06,58.803,-5.2885e-12,-1.4001e-05,-7.8262e-06,-58.803,0.034547
9414,2.2941,2.6364,0,0.00089755,8969.3,0.00034061,2.024,0.00021831,-916.84,-0.00090957,-9391.3,0.034319
9415,2.2059,2.7273,0,0.00086295,8623.6,0.00033614,1.6374,0.00019386,-1067.4,-0.0008761,-9106.6,0.031733
9416,2.2941,2.7273,0.05,1.0808e-05,108.01,8.2993e-06,62.358,-1.3752e-11,-2.5959e-05,-8.2992e-06,-62.357,0.034401
9417,2.2941,2.4545,0,0.00087829,8776.9,0.00033282,2.312,0.00021454,-886.44,-0.00088995,-9185.1,0.033965
9418,2.2059,2.5455,0,0.00084858,8479.9,0.00033056,2.0035,0.00019062,-1049.5,-0.00086149,-8954.6,0.031482
9419,2.2941,2.5455,0.05,1.1725e-05,117.17,9.0031e-06,67.646,-1.7252e-11,5.5389e-06,-9.003e-06,-67.645,0.034114
9420,2.2941,2.2727,0,0.0008471,8465.2,0.00031838,4.9788,0.00021197,-794.58,-0.0008577,-8831.6,0.033488
9421,2.2059,2.3636,0,0.00082413,8235.6,0.00031992,2.0947,0.00018723,-994.91,-0.00083648,-8686.6,0.031119
9422,2.2941,2.3636,0.05,1.2297e-05,122.89,9.4427e-06,70.949,-1.3701e-11,5.719e-05,-9.4427e-06,-70.948,0.033698
9423,2.2941,2.0909,0,0.00080443,8038.8,0.00029561,8.0471,0.00021378,-606.78,-0.00081285,-8320.5,0.032903
9424,2.2059,2.1818,0,0.00078942,7888.8,0.00030267,4.3914,0.00018658,-867.86,-0.00080049,-8284.3,0.030654
9425,2.2941,2.1818,0.05,1.2042e-05,120.34,9.2467e-06,69.476,-9.3601e-13,0.00015488,-9.2467e-06,-69.476,0.033167
9426,2.2941,1.9091,0,0.00075333,7528.1,0.00026605,10.515,0.00021959,-338.58,-0.0007583,-7686,0.032223
9427,2.2059,2,0,0.00074662,7461.1,0.00027844,5.1933,0.00019085,-652.95,-0.00075546,-7763.1,0.030098
9428,2.2941,2,0.05,1.1233e-05,112.25,8.6253e-06,64.807,4.3405e-11,0.00053222,-8.6253e-06,-64.807,0.032535
9429,2.2941,1.7273,0,0.00069701,6965.2,0.00023759,38.988,0.00022072,-87.748,-0.00069775,-6988.8,0.031459
9430,2.2059,1.8182,0,0.00069876,6982.8,0.00025022,7.0182,0.00019737,-390.14,-0.00070443,-7165.9,0.029461
9431,2.2941,1.8182,0.05,1.0451e-05,104.44,8.0249e-06,60.296,7.1794e-11,0.00060141,-8.0249e-06,-60.296,0.031814
9432,2.2941,1.5455,0,0.00063713,6366.9,0.00022566,173.16,0.0001999,-20.386,-0.00063431,-6288.3,0.03062
9433,2.2059,1.6364,0,0.00064755,6471,0.00022319,17.903,0.00019914,-162.77,-0.00064983,-6541.6,0.028749
9434,2.2941,1.6364,0.05,1.0496e-05,104.88,8.0593e-06,60.555,7.1158e-11,0.00062839,-8.0594e-06,-60.555,0.031013
9435,2.2941,1.3636,0,0.00057609,5756.9,0.0002123,259.49,0.00017597,-13.41,-0.00057142,-5629,0.029719
9436,2.2059,1.4545,0,0.00059412,5937.1,0.00020323,57.577,0.00018916,-48.138,-0.00059389,-5931.7,0.027971
9437,2.2941,1.4545,0.05,1.0952e-05,109.44,8.4095e-06,63.186,4.6352e-11,0.00046352,-8.4096e-06,-63.186,0.030143
9438,2.2941,1.1818,0,0.00051725,5168.9,0.00019346,267.98,0.00015628,-11.338,-0.00051232,-5035,0.028769
9439,2.2059,1.2727,0,0.0005413,5409.3,0.00018872,107.03,0.00017128,-24.059,-0.00053977,-5366.6,0.027136
9440,2.2941,1.2727,0.05,1.1243e-05,112.35,8.633e-06,64.865,3.2557e-11,0.00031349,-8.633e-06,-64.865,0.029219
9441,2.2941,1,0,0.00046307,4627.6,0.0001725,230.7,0.00014028,-11.38,-0.00045887,-4513.1,0.027783
9442,2.2059,1.0909,0,0.0004916,4912.6,0.00017315,119.84,0.00015462,-19.371,-0.00048974,-4860.9,0.026252
9443,2.2941,1.0909,0.05,1.1268e-05,112.6,8.6524e-06,65.011,2.3814e-11,0.00022566,-8.6524e-06,-65.011,0.028251
9444,2.2941,0.81818,0,0.00041528,4150,0.00015241,177.66,0.00012707,-12.768,-0.00041215,-4064.3,0.026765
9445,2.2059,0.90909,0,0.0004469,4465.9,0.00015743,108.38,0.00014048,-18.999,-0.00044524,-4419.9,0.025327
9446,2.2941,0.90909,0.05,1.1097e-05,110.89,8.5209e-06,64.023,1.5676e-11,0.00014927,-8.5209e-06,-64.023,0.02725
9447,2.2941,0.63636,0,0.00037535,3750.9,0.00013555,131.95,0.00011603,-14.758,-0.00037314,-3690.2,0.025718
9448,2.2059,0.72727,0,0.00040867,4083.9,0.00014347,91.95,0.00012864,-19.544,-0.00040732,-4046.5,0.024364
9449,2.2941,0.72727,0.05,1.0896e-05,108.88,8.3667e-06,62.864,8.9432e-12,0.00010904,-8.3667e-06,-62.864,0.026219
9450,2.2941,0.45455,0,0.00034503,3447.9,0.00012377,110.63,0.00010711,-14.539,-0.00034323,-3398.2,0.024639
9451,2.2059,0.54545,0,0.0003783,3780.3,0.0001328,85.064,0.00011909,-17.962,-0.00037705,-3745.7,0.023361
9452,2.2941,0.54545,0.05,1.0752e-05,107.44,8.256e-06,62.032,5.894e-12,6.3056e-05,-8.256e-06,-62.032,0.025157
9453,2.2941,0.27273,0,0.00032771,3274.8,0.00011993,135.9,0.00010046,-10.38,-0.00032533,-3209.6,0.023521
9454,2.2059,0.36364,0,0.00035733,3570.8,0.00012682,99.871,0.00011192,-12.02,-0.0003557,-3525.6,0.022314
9455,2.2941,0.36364,0.05,1.0841e-05,108.34,8.3246e-06,62.548,-1.7658e-21,2.8977e-05,-8.3246e-06,-62.548,0.024059
9456,2.2059,0.18182,0,0.00034962,3493.8,0.00012932,164.12,0.00010657,-6.8657,-0.00034663,-3412,0.021215
9457,2.2941,0.18182,0.05,1.3793e-05,137.84,1.0591e-05,79.58,-2.2466e-21,3.6559e-06,-1.0591e-05,-79.58,0.022919
9458,2.2941,0.090909,0,0.00030696,3067.5,0.00010865,88.661,9.6907e-05,0.40277,-0.00030535,-3022,0.022355
9459,2.1176,5.7273,0,0.00037932,3790.6,0.00013621,128.07,0.00011811,-7.8621,-0.00037709,-3728.6,0.02007
9460,2.0294,5.8182,0,0.00039934,3990.7,0.00014537,160.59,0.00012331,-5.2003,-0.00039644,-3910.4,0.017906
9461,2.1176,5.8182,0.05,1.277e-05,127.61,9.8056e-06,73.675,-1.0052e-12,-1.6355e-05,-9.8056e-06,-73.675,0.019507
9462,2.1176,5.9091,0,0.00036168,3614.3,0.00012705,92.763,0.00011477,0.5259,-0.00036,-3566.8,0.018982
9463,2.1176,5.5455,0,0.0003911,3908.3,0.00013624,77.24,0.00012395,-15.107,-0.00038996,-3876.4,0.021096
9464,2.0294,5.6364,0,0.00040366,4033.8,0.00014059,82.204,0.0001282,-10.841,-0.00040236,-3997.3,0.018919
9465,2.1176,5.6364,0.05,9.6288e-06,96.222,7.3937e-06,55.554,-1.4453e-12,-2.8891e-05,-7.3937e-06,-55.554,0.020563
9466,2.1176,5.3636,0,0.00041293,4126.5,0.00014219,56.078,0.00013135,-25.363,-0.00041235,-4110.5,0.022066
9467,2.0294,5.4545,0,0.00041834,4180.5,0.00014286,41.396,0.00013369,-27.55,-0.00041807,-4173.2,0.019868
9468,2.1176,5.4545,0.05,9.5377e-06,95.311,7.3238e-06,55.028,-8.0143e-12,-6.9365e-05,-7.3238e-06,-55.028,0.02156
9469,2.1176,5.1818,0,0.00044234,4420.4,0.00015154,45.607,0.0001407,-35.905,-0.00044212,-4415,0.022988
9470,2.0294,5.2727,0,0.00044021,4399,0.00015005,22.99,0.00013925,-58.129,-0.00044075,-4416.1,0.020757
9471,2.1176,5.2727,0.05,9.6047e-06,95.981,7.3753e-06,55.415,-1.1491e-11,-9.508e-05,-7.3753e-06,-55.415,0.022505
9472,2.1176,5,0,0.00047799,4776.6,0.00016323,36.222,0.00015172,-50.251,-0.00047817,-4783,0.023863
9473,2.0294,5.0909,0,0.00046826,4679.3,0.00016064,15.088,0.00014551,-98.593,-0.00046957,-4720.1,0.021593
9474,2.1176,5.0909,0.05,9.6255e-06,96.188,7.3912e-06,55.534,-1.8383e-11,-0.00017844,-7.3912e-06,-55.534,0.023402
9475,2.1176,4.8182,0,0.00051842,5180.6,0.00017711,24.172,0.00016305,-81.475,-0.00051931,-5208.4,0.024692
9476,2.0294,4.9091,0,0.00050134,5010,0.00017383,10.467,0.00015208,-152.93,-0.00050356,-5079.2,0.022378
9477,2.1176,4.9091,0.05,9.5305e-06,95.239,7.3182e-06,54.986,-2.557e-11,-0.00027314,-7.3182e-06,-54.986,0.024253
9478,2.1176,4.6364,0,0.00056191,5615.3,0.00019408,13.477,0.00017191,-153.16,-0.0005641,-5683.2,0.025472
9479,2.0294,4.7273,0,0.0005381,5377.2,0.00018961,7.2138,0.00015756,-233.66,-0.00054154,-5486.4,0.023111
9480,2.1176,4.7273,0.05,9.2619e-06,92.555,7.112e-06,53.437,-3.5628e-11,-0.0003638,-7.112e-06,-53.437,0.025057
9481,2.1176,4.4545,0,0.00060653,6061.1,0.00021471,7.1105,0.00017579,-285.31,-0.00061074,-6194.9,0.026197
9482,2.0294,4.5455,0,0.00057692,5765.2,0.0002081,4.8861,0.00016019,-355.12,-0.00058204,-5931.9,0.02379
9483,2.1176,4.5455,0.05,8.8094e-06,88.033,6.7645e-06,50.826,-4.6376e-11,-0.00051703,-6.7645e-06,-50.826,0.025809
9484,2.1176,4.2727,0,0.0006505,6500.5,0.00023822,3.9566,0.00017409,-477.89,-0.00065722,-6724,0.026861
9485,2.0294,4.3636,0,0.0006161,6156.7,0.00022904,3.2262,0.0001587,-525.24,-0.00062327,-6400.7,0.024411
9486,2.1176,4.3636,0.05,8.3607e-06,83.549,6.42e-06,48.237,-5.4371e-11,-0.00061267,-6.4199e-06,-48.237,0.026502
9487,2.1176,4.0909,0,0.00069255,6920.7,0.00026269,2.2679,0.00016873,-703.72,-0.00070177,-7244.4,0.027458
9488,2.0294,4.1818,0,0.0006543,6538.5,0.0002514,2.3618,0.00015352,-733.09,-0.00066362,-6872.7,0.02497
9489,2.1176,4.1818,0.05,8.1853e-06,81.796,6.2853e-06,47.225,-6.4636e-11,-0.00066428,-6.2852e-06,-47.225,0.027131
9490,2.1176,3.9091,0,0.0007316,7310.9,0.00028546,1.2222,0.00016342,-915.74,-0.00074282,-7724.9,0.027982
9491,2.0294,4,0,0.00069057,6900.9,0.00027325,1.5976,0.00014717,-945.69,-0.00070173,-7324,0.025464
9492,2.1176,4,0.05,8.2583e-06,82.526,6.3414e-06,47.647,-4.4295e-11,-0.0004901,-6.3414e-06,-47.647,0.027691
9493,2.1176,3.7273,0,0.00076599,7654.6,0.00030419,1.3588,0.00016114,-1073.4,-0.00077854,-8133.9,0.028429
9494,2.0294,3.8182,0,0.00072387,7233.7,0.00029241,1.2451,0.00014284,-1122.6,-0.00073636,-7728.6,0.025891
9495,2.1176,3.8182,0.05,8.4599e-06,84.54,6.4961e-06,48.809,-1.7201e-11,-0.00026199,-6.4961e-06,-48.809,0.028176
9496,2.1176,3.5455,0,0.00079356,7930.2,0.00031766,1.7675,0.00016219,-1166.4,-0.00080689,-8447.7,0.028792
9497,2.0294,3.6364,0,0.00075242,7519.1,0.00030736,1.5262,0.00014194,-1241.3,-0.00076577,-8061.5,0.026244
9498,2.1176,3.6364,0.05,8.7092e-06,87.032,6.6876e-06,50.248,2.7684e-12,-0.00011476,-6.6876e-06,-50.248,0.02858
9499,2.1176,3.3636,0,0.00081292,8123.6,0.0003261,1.6344,0.00016482,-1210.2,-0.00082667,-8659.8,0.02906
9500,2.0294,3.4545,0,0.00077435,7738.2,0.00031763,1.4816,0.00014354,-1306.6,-0.00078821,-8307.4,0.026519
9501,2.1176,3.4545,0.05,8.7928e-06,87.867,6.7518e-06,50.73,8.6677e-12,-8.2746e-05,-6.7518e-06,-50.73,0.028896
9502,2.1176,3.1818,0,0.00082407,8235.1,0.00033055,1.4818,0.0001671,-1226.6,-0.00083801,-8778.6,0.029225
9503,2.0294,3.2727,0,0.0007888,7882.5,0.00032379,1.3794,0.00014575,-1336.3,-0.00080294,-8464.4,0.026707
9504,2.1176,3.2727,0.05,8.6682e-06,86.622,6.6561e-06,50.011,7.9899e-12,-7.6954e-07,-6.6561e-06,-50.012,0.029112
9505,2.1176,3,0,0.00082767,8271,0.00033192,1.4442,0.00016797,-1230.4,-0.00084167,-8816.4,0.02928
9506,2.0294,3.0909,0,0.00079585,7953,0.00032662,1.3385,0.00014716,-1347.1,-0.00081011,-8539.6,0.026803
9507,2.1176,3.0909,0.05,8.5302e-06,85.243,6.5502e-06,49.215,4.3009e-12,-2.2286e-05,-6.5502e-06,-49.215,0.029223
9508,2.1176,2.8182,0,0.00082407,8235.1,0.00033055,1.4818,0.0001671,-1226.6,-0.00083801,-8778.6,0.029225
9509,2.0294,2.9091,0,0.00079585,7953,0.00032662,1.3385,0.00014716,-1347.1,-0.00081011,-8539.6,0.026803
9510,2.1176,2.9091,0.05,8.5302e-06,85.243,6.5502e-06,49.215,-2.4706e-12,2.2286e-05,-6.5501e-06,-49.215,0.029223
9511,2.1176,2.6364,0,0.00081292,8123.6,0.0003261,1.6344,0.00016482,-1210.2,-0.00082667,-8659.8,0.02906
9512,2.0294,2.7273,0,0.0007888,7882.5,0.00032379,1.3794,0.00014575,-1336.3,-0.00080294,-8464.4,0.026707
9513,2.1176,2.7273,0.05,8.6682e-06,86.622,6.6561e-06,50.012,-4.5398e-12,1.0516e-06,-6.6561e-06,-50.011,0.029112
9514,2.1176,2.4545,0,0.00079356,7930.2,0.00031766,1.7675,0.00016219,-1166.4,-0.00080689,-8447.7,0.028792
9515,2.0294,2.5455,0,0.00077435,7738.2,0.00031763,1.4816,0.00014354,-1306.6,-0.00078821,-8307.4,0.026519
9516,2.1176,2.5455,0.05,8.7928e-06,87.867,6.7518e-06,50.73,-8.6677e-12,5.0922e-05,-6.7518e-06,-50.73,0.028896
9517,2.1176,2.2727,0,0.00076599,7654.6,0.00030419,1.3588,0.00016114,-1073.4,-0.00077854,-8133.9,0.028429
9518,2.0294,2.3636,0,0.00075242,7519,0.00030736,1.5262,0.00014194,-1241.3,-0.00076577,-8061.5,0.026244
9519,2.1176,2.3636,0.05,8.7092e-06,87.032,6.6876e-06,50.248,-9.5858e-13,0.00011542,-6.6876e-06,-50.248,0.02858
9520,2.1176,2.0909,0,0.0007316,7310.9,0.00028546,1.2222,0.00016342,-915.74,-0.00074282,-7724.9,0.027982
9521,2.0294,2.1818,0,0.00072387,7233.7,0.00029241,1.2451,0.00014284,-1122.6,-0.00073636,-7728.6,0.025891
9522,2.1176,2.1818,0.05,8.4599e-06,84.54,6.4961e-06,48.809,1.3631e-11,0.00027722,-6.4961e-06,-48.809,0.028176
9523,2.1176,1.9091,0,0.00069255,6920.7,0.00026269,2.2679,0.00016873,-703.72,-0.00070177,-7244.4,0.027458
9524,2.0294,2,0,0.00069057,6900.9,0.00027325,1.5976,0.00014717,-945.69,-0.00070173,-7324,0.025464
9525,2.1176,2,0.05,8.2583e-06,82.526,6.3414e-06,47.647,4.8601e-11,0.0004901,-6.3414e-06,-47.647,0.027691
9526,2.1176,1.7273,0,0.0006505,6500.5,0.00023822,3.9566,0.00017409,-477.89,-0.00065722,-6724,0.026861
9527,2.0294,1.8182,0,0.0006543,6538.5,0.0002514,2.3618,0.00015352,-733.09,-0.00066362,-6872.7,0.02497
9528,2.1176,1.8182,0.05,8.1853e-06,81.796,6.2852e-06,47.225,5.7362e-11,0.00060413,-6.2853e-06,-47.225,0.027131
9529,2.1176,1.5455,0,0.00060653,6061.1,0.00021471,7.1105,0.00017579,-285.31,-0.00061074,-6194.9,0.026197
9530,2.0294,1.6364,0,0.0006161,6156.7,0.00022904,3.2262,0.0001587,-525.24,-0.00062327,-6400.7,0.024411
9531,2.1176,1.6364,0.05,8.3607e-06,83.549,6.4199e-06,48.237,4.5717e-11,0.00059042,-6.42e-06,-48.237,0.026502
9532,2.1176,1.3636,0,0.00056191,5615.3,0.00019408,13.477,0.00017191,-153.16,-0.0005641,-5683.2,0.025472
9533,2.0294,1.4545,0,0.00057692,5765.2,0.0002081,4.8861,0.00016019,-355.12,-0.00058204,-5931.9,0.02379
9534,2.1176,1.4545,0.05,8.8094e-06,88.033,6.7645e-06,50.826,4.2796e-11,0.0005139,-6.7645e-06,-50.826,0.025809
9535,2.1176,1.1818,0,0.00051842,5180.6,0.00017711,24.172,0.00016305,-81.475,-0.00051931,-5208.4,0.024692
9536,2.0294,1.2727,0,0.0005381,5377.2,0.00018961,7.2138,0.00015756,-233.66,-0.00054154,-5486.4,0.023111
9537,2.1176,1.2727,0.05,9.2619e-06,92.555,7.112e-06,53.437,3.2087e-11,0.0003341,-7.112e-06,-53.437,0.025057
9538,2.1176,1,0,0.00047799,4776.6,0.00016323,36.222,0.00015172,-50.251,-0.00047817,-4783,0.023863
9539,2.0294,1.0909,0,0.00050134,5010,0.00017383,10.467,0.00015208,-152.93,-0.00050356,-5079.2,0.022378
9540,2.1176,1.0909,0.05,9.5305e-06,95.239,7.3182e-06,54.986,2.2342e-11,0.00026756,-7.3182e-06,-54.986,0.024253
9541,2.1176,0.81818,0,0.00044234,4420.4,0.00015154,45.607,0.0001407,-35.905,-0.00044212,-4415,0.022988
9542,2.0294,0.90909,0,0.00046826,4679.3,0.00016064,15.088,0.00014551,-98.593,-0.00046957,-4720.1,0.021593
9543,2.1176,0.90909,0.05,9.6255e-06,96.188,7.3912e-06,55.534,1.6911e-11,0.00016633,-7.3912e-06,-55.534,0.023402
9544,2.1176,0.63636,0,0.00041293,4126.5,0.00014219,56.078,0.00013135,-25.363,-0.00041235,-4110.5,0.022066
9545,2.0294,0.72727,0,0.00044021,4399,0.00015005,22.99,0.00013925,-58.129,-0.00044075,-4416.1,0.020757
9546,2.1176,0.72727,0.05,9.6047e-06,95.981,7.3753e-06,55.415,1.0133e-11,9.508e-05,-7.3753e-06,-55.415,0.022505
9547,2.1176,0.45455,0,0.0003911,3908.3,0.00013624,77.24,0.00012395,-15.107,-0.00038996,-3876.4,0.021096
9548,2.0294,0.54545,0,0.00041834,4180.5,0.00014286,41.396,0.00013369,-27.55,-0.00041807,-4173.2,0.019868
9549,2.1176,0.54545,0.05,9.5377e-06,95.311,7.3238e-06,55.028,8.0143e-12,6.6069e-05,-7.3238e-06,-55.028,0.02156
9550,2.1176,0.27273,0,0.00037932,3790.6,0.00013621,128.07,0.00011811,-7.8621,-0.00037709,-3728.6,0.02007
9551,2.0294,0.36364,0,0.00040366,4033.8,0.00014059,82.204,0.0001282,-10.841,-0.00040236,-3997.3,0.018919
9552,2.1176,0.36364,0.05,9.6288e-06,96.222,7.3937e-06,55.554,3.6167e-12,2.8891e-05,-7.3937e-06,-55.554,0.020563
9553,2.0294,0.18182,0,0.00039934,3990.7,0.00014537,160.59,0.00012331,-5.2003,-0.00039644,-3910.4,0.017906
9554,2.1176,0.18182,0.05,1.277e-05,127.61,9.8056e-06,73.675,1.6754e-12,1.6815e-05,-9.8056e-06,-73.675,0.019507
9555,2.1176,0.090909,0,0.00036168,3614.3,0.00012705,92.763,0.00011477,0.5259,-0.00036,-3566.8,0.018982
9556,1.9412,5.7273,0,0.00042373,4234.3,0.00014964,113.83,0.00013358,-6.8127,-0.00042178,-4179.5,0.016829
9557,1.8529,5.8182,0,0.00044172,4414.2,0.00015863,152.09,0.00013779,-4.4884,-0.000439,-4338.3,0.014822
9558,1.9412,5.8182,0.05,1.1713e-05,117.05,8.9944e-06,67.58,1.6265e-12,-7.1079e-06,-8.9944e-06,-67.581,0.016305
9559,1.9412,5.9091,0,0.00040888,4086,0.00014257,92.162,0.0001304,0.6676,-0.00040723,-4038.8,0.015819
9560,1.9412,5.5455,0,0.00043112,4308.3,0.00014698,44.657,0.00013837,-20.066,-0.00043067,-4295.6,0.017763
9561,1.8529,5.6364,0,0.00044297,4426.6,0.00015167,58.738,0.00014224,-12.125,-0.00044213,-4402.9,0.01575
9562,1.9412,5.6364,0.05,8.4389e-06,84.33,6.48e-06,48.688,-4.3368e-12,-4.3319e-05,-6.48e-06,-48.688,0.017276
9563,1.9412,5.3636,0,0.0004463,4459.9,0.00015186,16.814,0.00014104,-64.45,-0.00044705,-4483.1,0.01863
9564,1.8529,5.4545,0,0.00045257,4522.6,0.0001535,15.598,0.00014374,-57.703,-0.00045324,-4543.2,0.016603
9565,1.9412,5.4545,0.05,8.3671e-06,83.613,6.4249e-06,48.274,-8.6679e-12,-0.00010423,-6.4249e-06,-48.274,0.018176
9566,1.9412,5.1818,0,0.00046725,4669.2,0.0001614,9.4,0.00014276,-130.62,-0.00046915,-4728.3,0.019436
9567,1.8529,5.2727,0,0.00046761,4672.9,0.00016188,7.3796,0.00014207,-141.46,-0.00046971,-4738.1,0.017386
9568,1.9412,5.2727,0.05,8.4243e-06,84.184,6.4688e-06,48.604,-1.2323e-11,-0.00012918,-6.4688e-06,-48.604,0.019011
9569,1.9412,5,0,0.00049305,4927.1,0.00017349,6.3298,0.00014478,-209.36,-0.00049615,-5025.1,0.020185
9570,1.8529,5.0909,0,0.00048746,4871.2,0.00017286,4.7873,0.00014066,-237.17,-0.00049096,-4982.9,0.018107
9571,1.9412,5.0909,0.05,8.3937e-06,83.879,6.4453e-06,48.428,-1.9123e-11,-0.00016799,-6.4453e-06,-48.428,0.019787
9572,1.9412,4.8182,0,0.00052259,5222.3,0.0001878,4.5241,0.00014636,-306.82,-0.00052704,-5366.5,0.020879
9573,1.8529,4.9091,0,0.00051132,5109.6,0.00018584,3.4531,0.0001394,-345.5,-0.00051624,-5271.7,0.018769
9574,1.9412,4.9091,0.05,8.2342e-06,82.286,6.3229e-06,47.508,-2.6617e-11,-0.00028906,-6.3229e-06,-47.508,0.020508
9575,1.9412,4.6364,0,0.00055456,5541.8,0.00020426,3.3237,0.00014631,-432.07,-0.00056057,-5743.3,0.021518
9576,1.8529,4.7273,0,0.00053816,5377.8,0.0002007,2.6056,0.00013745,-472.61,-0.00054457,-5597.1,0.019375
9577,1.9412,4.7273,0.05,7.9299e-06,79.244,6.0892e-06,45.752,-3.6568e-11,-0.0003339,-6.0892e-06,-45.752,0.021173
9578,1.9412,4.4545,0,0.00058764,5872.4,0.00022264,2.5388,0.00014372,-590.44,-0.00059539,-6143.8,0.022101
9579,1.8529,4.5455,0,0.00056681,5664.2,0.00021727,2.0501,0.00013394,-624.06,-0.00057479,-5949.2,0.019925
9580,1.9412,4.5455,0.05,7.5166e-06,75.114,5.7718e-06,43.367,-5.7032e-11,-0.00043994,-5.7718e-06,-43.367,0.021784
9581,1.9412,4.2727,0,0.00062067,6202.4,0.00024227,2.009,0.00013858,-777.07,-0.00063017,-6553.2,0.022627
9582,1.8529,4.3636,0,0.00059616,5957.5,0.00023515,1.6864,0.00012848,-799.74,-0.00060567,-6315.9,0.020419
9583,1.9412,4.3636,0.05,7.0788e-06,70.74,5.4357e-06,40.842,-6.1238e-11,-0.00055518,-5.4356e-06,-40.841,0.022337
9584,1.9412,4.0909,0,0.00065275,6523,0.00026196,1.6951,0.00013217,-973.46,-0.00066379,-6954,0.023092
9585,1.8529,4.1818,0,0.00062523,6248,0.00025349,1.4046,0.00012164,-989.25,-0.00063612,-6682.8,0.020858
9586,1.9412,4.1818,0.05,6.7084e-06,67.037,5.1512e-06,38.704,-5.9535e-11,-0.00062052,-5.1512e-06,-38.704,0.022831
9587,1.9412,3.9091,0,0.000683,6825.3,0.00028019,1.5415,0.00012655,-1152.8,-0.00069522,-7327.3,0.023496
9588,1.8529,4,0,0.00065327,6528.2,0.00027112,1.2526,0.00011495,-1172.1,-0.00066522,-7034,0.02124
9589,1.9412,4,0.05,6.4369e-06,64.325,4.9428e-06,37.138,-4.7524e-11,-0.00047807,-4.9427e-06,-37.138,0.023264
9590,1.9412,3.7273,0,0.00071018,7096.9,0.00029558,1.352,0.00012332,-1293,-0.00072324,-7653.7,0.023837
9591,1.8529,3.8182,0,0.00067933,6788.7,0.00028673,1.1543,0.00011007,-1326.2,-0.00069207,-7353.1,0.021566
9592,1.9412,3.8182,0.05,6.314e-06,63.097,4.8484e-06,36.429,-2.5394e-11,-0.0003726,-4.8484e-06,-36.429,0.023636
9593,1.9412,3.5455,0,0.00073283,7323.2,0.00030732,1.2183,0.00012267,-1386.2,-0.00074646,-7916.5,0.024111
9594,1.8529,3.6364,0,0.00070217,7016.9,0.00029936,1.0488,0.0001078,-1438.3,-0.00071545,-7623.9,0.021833
9595,1.9412,3.6364,0.05,6.3695e-06,63.651,4.891e-06,36.749,-1.1236e-11,-0.000218,-4.891e-06,-36.749,0.023943
9596,1.9412,3.3636,0,0.00074964,7491.2,0.00031532,1.2254,0.00012361,-1439.2,-0.00076363,-8105.6,0.024312
9597,1.8529,3.4545,0,0.0007204,7199.1,0.00030861,1.0597,0.00010765,-1508.8,-0.00073407,-7833.2,0.022039
9598,1.9412,3.4545,0.05,6.5148e-06,65.103,5.0025e-06,37.587,-1.563e-12,-9.9974e-05,-5.0025e-06,-37.587,0.02418
9599,1.9412,3.1818,0,0.00075986,7593.3,0.00031986,1.239,0.00012482,-1464.2,-0.00077406,-8218,0.024435
9600,1.8529,3.2727,0,0.00073297,7324.7,0.00031452,1.0949,0.00010847,-1547.1,-0.00074689,-7973.9,0.022179
9601,1.9412,3.2727,0.05,6.6195e-06,66.149,5.0829e-06,38.191,2.0023e-12,-2.7317e-05,-5.0829e-06,-38.191,0.024342
9602,1.9412,3,0,0.00076327,7627.4,0.00032132,1.2354,0.00012533,-1471.3,-0.00077754,-8255.1,0.024477
9603,1.8529,3.0909,0,0.00073934,7388.3,0.00031737,1.1035,0.00010918,-1563.2,-0.00075338,-8044.1,0.022251
9604,1.9412,3.0909,0.05,6.6597e-06,66.551,5.1138e-06,38.423,5.58e-13,-3.7454e-05,-5.1138e-06,-38.423,0.024424
9605,1.9412,2.8182,0,0.00075986,7593.3,0.00031986,1.239,0.00012482,-1464.2,-0.00077406,-8218,0.024435
9606,1.8529,2.9091,0,0.00073934,7388.3,0.00031737,1.1035,0.00010918,-1563.2,-0.00075338,-8044.1,0.022251
9607,1.9412,2.9091,0.05,6.6597e-06,66.551,5.1138e-06,38.423,1.3527e-12,3.676e-05,-5.1138e-06,-38.423,0.024424
9608,1.9412,2.6364,0,0.00074964,7491.2,0.00031532,1.2254,0.00012361,-1439.2,-0.00076363,-8105.6,0.024312
9609,1.8529,2.7273,0,0.00073297,7324.7,0.00031452,1.0949,0.00010847,-1547.1,-0.00074689,-7973.9,0.022179
9610,1.9412,2.7273,0.05,6.6195e-06,66.149,5.0829e-06,38.191,3.5199e-13,2.9391e-05,-5.0829e-06,-38.191,0.024342
9611,1.9412,2.4545,0,0.00073283,7323.2,0.00030732,1.2183,0.00012267,-1386.2,-0.00074646,-7916.5,0.024111
9612,1.8529,2.5455,0,0.0007204,7199.1,0.00030861,1.0597,0.00010765,-1508.8,-0.00073407,-7833.2,0.022039
9613,1.9412,2.5455,0.05,6.5148e-06,65.103,5.0025e-06,37.587,2.4282e-12,8.4297e-05,-5.0025e-06,-37.587,0.02418
9614,1.9412,2.2727,0,0.00071018,7096.9,0.00029558,1.352,0.00012332,-1293,-0.00072324,-7653.7,0.023837
9615,1.8529,2.3636,0,0.00070217,7016.9,0.00029936,1.0488,0.0001078,-1438.3,-0.00071545,-7623.9,0.021833
9616,1.9412,2.3636,0.05,6.3695e-06,63.651,4.891e-06,36.749,1.4387e-11,0.00018722,-4.891e-06,-36.749,0.023943
9617,1.9412,2.0909,0,0.000683,6825.3,0.00028019,1.5415,0.00012655,-1152.8,-0.00069522,-7327.3,0.023496
9618,1.8529,2.1818,0,0.00067933,6788.7,0.00028673,1.1543,0.00011007,-1326.2,-0.00069207,-7353.1,0.021566
9619,1.9412,2.1818,0.05,6.314e-06,63.097,4.8484e-06,36.429,2.9273e-11,0.00038742,-4.8484e-06,-36.429,0.023636
9620,1.9412,1.9091,0,0.00065275,6523,0.00026196,1.6951,0.00013217,-973.46,-0.00066379,-6954,0.023092
9621,1.8529,2,0,0.00065327,6528.2,0.00027112,1.2526,0.00011495,-1172.1,-0.00066522,-7034,0.02124
9622,1.9412,2,0.05,6.4369e-06,64.325,4.9427e-06,37.138,4.316e-11,0.00048557,-4.9428e-06,-37.138,0.023264
9623,1.9412,1.7273,0,0.00062067,6202.4,0.00024227,2.009,0.00013858,-777.07,-0.00063017,-6553.2,0.022627
9624,1.8529,1.8182,0,0.00062523,6248,0.00025349,1.4046,0.00012164,-989.25,-0.00063612,-6682.8,0.020858
9625,1.9412,1.8182,0.05,6.7084e-06,67.037,5.1512e-06,38.704,5.9535e-11,0.00055854,-5.1512e-06,-38.704,0.022831
9626,1.9412,1.5455,0,0.00058764,5872.4,0.00022264,2.5388,0.00014372,-590.44,-0.00059539,-6143.8,0.022101
9627,1.8529,1.6364,0,0.00059616,5957.5,0.00023515,1.6864,0.00012848,-799.74,-0.00060567,-6315.9,0.020419
9628,1.9412,1.6364,0.05,7.0788e-06,70.74,5.4356e-06,40.841,5.8917e-11,0.00043742,-5.4357e-06,-40.842,0.022337
9629,1.9412,1.3636,0,0.00055456,5541.8,0.00020426,3.3237,0.00014631,-432.07,-0.00056057,-5743.3,0.021518
9630,1.8529,1.4545,0,0.00056681,5664.2,0.00021727,2.0501,0.00013394,-624.06,-0.00057479,-5949.2,0.019925
9631,1.9412,1.4545,0.05,7.5166e-06,75.114,5.7718e-06,43.367,5.7032e-11,0.00040404,-5.7718e-06,-43.367,0.021784
9632,1.9412,1.1818,0,0.00052259,5222.3,0.0001878,4.5241,0.00014636,-306.82,-0.00052704,-5366.5,0.020879
9633,1.8529,1.2727,0,0.00053816,5377.8,0.0002007,2.6056,0.00013745,-472.61,-0.00054457,-5597.1,0.019375
9634,1.9412,1.2727,0.05,7.9299e-06,79.244,6.0892e-06,45.752,3.6568e-11,0.0003339,-6.0892e-06,-45.752,0.021173
9635,1.9412,1,0,0.00049305,4927.1,0.00017349,6.3298,0.00014478,-209.36,-0.00049615,-5025.1,0.020185
9636,1.8529,1.0909,0,0.00051132,5109.6,0.00018584,3.4531,0.0001394,-345.5,-0.00051624,-5271.7,0.018769
9637,1.9412,1.0909,0.05,8.2342e-06,82.286,6.3229e-06,47.508,2.6617e-11,0.00026202,-6.3229e-06,-47.508,0.020508
9638,1.9412,0.81818,0,0.00046725,4669.2,0.0001614,9.4,0.00014276,-130.62,-0.00046915,-4728.3,0.019436
9639,1.8529,0.90909,0,0.00048746,4871.2,0.00017286,4.7873,0.00014066,-237.17,-0.00049096,-4982.9,0.018107
9640,1.9412,0.90909,0.05,8.3937e-06,83.879,6.4453e-06,48.428,1.6834e-11,0.0001625,-6.4453e-06,-48.428,0.019787
9641,1.9412,0.63636,0,0.0004463,4459.9,0.00015186,16.814,0.00014104,-64.45,-0.00044705,-4483.1,0.01863
9642,1.8529,0.72727,0,0.00046761,4672.9,0.00016188,7.3796,0.00014207,-141.46,-0.00046971,-4738.1,0.017386
9643,1.9412,0.72727,0.05,8.4243e-06,84.184,6.4688e-06,48.604,1.2323e-11,0.00012622,-6.4688e-06,-48.604,0.019011
9644,1.9412,0.45455,0,0.00043112,4308.3,0.00014698,44.657,0.00013837,-20.066,-0.00043067,-4295.6,0.017763
9645,1.8529,0.54545,0,0.00045257,4522.6,0.0001535,15.598,0.00014374,-57.703,-0.00045324,-4543.2,0.016603
9646,1.9412,0.54545,0.05,8.3671e-06,83.613,6.4249e-06,48.274,8.6679e-12,8.9508e-05,-6.4249e-06,-48.274,0.018176
9647,1.9412,0.27273,0,0.00042373,4234.3,0.00014964,113.83,0.00013358,-6.8127,-0.00042178,-4179.5,0.016829
9648,1.8529,0.36364,0,0.00044297,4426.6,0.00015167,58.738,0.00014224,-12.125,-0.00044213,-4402.9,0.01575
9649,1.9412,0.36364,0.05,8.4389e-06,84.33,6.48e-06,48.688,2.7337e-12,4.5e-05,-6.48e-06,-48.688,0.017276
9650,1.8529,0.18182,0,0.00044172,4414.2,0.00015863,152.09,0.00013779,-4.4884,-0.000439,-4338.3,0.014822
9651,1.9412,0.18182,0.05,1.1713e-05,117.05,8.9944e-06,67.581,-2.1689e-12,7.5679e-06,-8.9944e-06,-67.58,0.016305
9652,1.9412,0.090909,0,0.00040888,4086,0.00014257,92.162,0.0001304,0.6676,-0.00040723,-4038.8,0.015819
9653,1.7647,5.7273,0,0.00046097,4606.6,0.00016033,94.445,0.00014684,-6.939,-0.0004594,-4562,0.013827
9654,1.6765,5.8182,0,0.0004771,4767.7,0.00016939,141.09,0.00015003,-4.3913,-0.00047461,-4697.7,0.011992
9655,1.7647,5.8182,0.05,1.0685e-05,106.77,8.2045e-06,61.645,-3.2059e-12,-1.6086e-05,-8.2045e-06,-61.645,0.013344
9656,1.7647,5.9091,0,0.0004488,4484.9,0.00015547,88.9,0.00014374,0.76575,-0.00044721,-4439.4,0.012899
9657,1.7647,5.5455,0,0.0004645,4641.8,0.00015679,19.158,0.00014911,-38.533,-0.0004648,-4651.2,0.014671
9658,1.6765,5.6364,0,0.0004753,4749.7,0.00016053,33.148,0.00015364,-18.606,-0.00047503,-4742.2,0.012834
9659,1.7647,5.6364,0.05,7.3334e-06,73.283,5.6311e-06,42.31,-3.016e-12,-6.0651e-05,-5.6311e-06,-42.31,0.014229
9660,1.7647,5.3636,0,0.00047422,4738.9,0.00016357,6.5804,0.00014501,-132.85,-0.00047621,-4800.5,0.01544
9661,1.6765,5.4545,0,0.00048053,4802,0.0001646,6.8357,0.00014895,-110.76,-0.00048219,-4852.9,0.013594
9662,1.7647,5.4545,0.05,7.3222e-06,73.171,5.6225e-06,42.246,-1.1227e-11,-9.1821e-05,-5.6225e-06,-42.246,0.015035
9663,1.7647,5.1818,0,0.00048841,4880.7,0.0001735,3.9703,0.00014032,-245.36,-0.00049203,-4996.6,0.016139
9664,1.6765,5.2727,0,0.00049002,4896.8,0.00017356,3.6752,0.00014166,-236.05,-0.00049353,-5008.6,0.014278
9665,1.7647,5.2727,0.05,7.4275e-06,74.224,5.7034e-06,42.853,-1.5037e-11,-0.00012635,-5.7034e-06,-42.853,0.015768
9666,1.7647,5,0,0.0005065,5061.5,0.00018533,2.7909,0.00013581,-369.26,-0.0005117,-5234.4,0.016776
9667,1.6765,5.0909,0,0.00050341,5030.6,0.00018444,2.4856,0.00013454,-372.44,-0.00050865,-5205.1,0.014894
9668,1.7647,5.0909,0.05,7.4279e-06,74.228,5.7037e-06,42.856,-2.0072e-11,-0.00022598,-5.7037e-06,-42.856,0.016435
9669,1.7647,4.8182,0,0.00052774,5273.7,0.00019881,2.1032,0.00013111,-506.61,-0.00053447,-5507.5,0.017353
9670,1.6765,4.9091,0,0.00052022,5198.6,0.00019686,1.854,0.00012761,-518.46,-0.00052705,-5437.4,0.015448
9671,1.7647,4.9091,0.05,7.2953e-06,72.902,5.6019e-06,42.09,-2.9223e-11,-0.00030496,-5.6018e-06,-42.09,0.01704
9672,1.7647,4.6364,0,0.00055122,5508.4,0.00021375,1.6563,0.00012567,-660.17,-0.00055943,-5807.7,0.017874
9673,1.6765,4.7273,0,0.00053974,5393.7,0.00021063,1.464,0.00012057,-675.14,-0.00054801,-5698.6,0.015945
9674,1.7647,4.7273,0.05,7.0289e-06,70.241,5.3974e-06,40.554,-3.5281e-11,-0.00037137,-5.3973e-06,-40.554,0.017588
9675,1.7647,4.4545,0,0.00057599,5756,0.0002298,1.3488,0.00011918,-829.8,-0.00058557,-6125,0.018341
9676,1.6765,4.5455,0,0.00056112,5607.3,0.00022544,1.2111,0.0001131,-842.92,-0.00057065,-5980.3,0.016387
9677,1.7647,4.5455,0.05,6.6507e-06,66.461,5.1069e-06,38.371,-4.4742e-11,-0.00041963,-5.1069e-06,-38.371,0.018081
9678,1.7647,4.2727,0,0.0006012,6007.9,0.00024638,1.1252,0.00011187,-1009.5,-0.00061194,-6448,0.018755
9679,1.6765,4.3636,0,0.00058351,5831,0.00024089,1.0333,0.00010515,-1018.9,-0.00059409,-6272.7,0.016778
9680,1.7647,4.3636,0.05,6.2023e-06,61.98,4.7626e-06,35.784,-6.2802e-11,-0.00054142,-4.7625e-06,-35.784,0.01852
9681,1.7647,4.0909,0,0.00062606,6256.3,0.00026265,0.94918,0.00010459,-1186.7,-0.00063772,-6764,0.019116
9682,1.6765,4.1818,0,0.0006061,6056.8,0.00025633,0.89977,9.7189e-05,-1194.8,-0.00061749,-6564.6,0.017119
9683,1.7647,4.1818,0.05,5.723e-06,57.191,4.3946e-06,33.019,-6.0312e-11,-0.000568,-4.3946e-06,-33.019,0.018906
9684,1.7647,3.9091,0,0.00064976,6493.2,0.00027765,0.83392,9.8476e-05,-1345.4,-0.00066208,-7059.9,0.019426
9685,1.6765,4,0,0.00062815,6277.1,0.00027095,0.79173,9.009e-05,-1358.1,-0.0006401,-6844.5,0.017412
9686,1.7647,4,0.05,5.2596e-06,52.559,4.0387e-06,30.345,-5.2745e-11,-0.00050544,-4.0387e-06,-30.345,0.01924
9687,1.7647,3.7273,0,0.00067132,6708.6,0.00029051,0.82396,9.4385e-05,-1472.8,-0.0006841,-7322,0.019684
9688,1.6765,3.8182,0,0.00064881,6483.6,0.00028396,0.74087,8.473e-05,-1496.2,-0.00066115,-7100.4,0.017659
9689,1.7647,3.8182,0.05,4.8983e-06,48.949,3.7613e-06,28.261,-4.1296e-11,-0.00037273,-3.7613e-06,-28.261,0.019523
9690,1.7647,3.5455,0,0.00068957,6891,0.00030064,0.87593,9.2418e-05,-1563.7,-0.0007027,-7537.9,0.019888
9691,1.6765,3.6364,0,0.00066709,6666.3,0.00029469,0.7619,8.1496e-05,-1601.1,-0.00067971,-7320.5,0.017859
9692,1.7647,3.6364,0.05,4.729e-06,47.258,3.6313e-06,27.284,-2.7652e-11,-0.0002649,-3.6313e-06,-27.284,0.019753
9693,1.7647,3.3636,0,0.00070342,7029.4,0.00030781,0.92497,9.1976e-05,-1620.8,-0.00071679,-7697.5,0.020038
9694,1.6765,3.4545,0,0.0006819,6814.3,0.00030279,0.80367,8.01e-05,-1672.4,-0.00069474,-7494.2,0.018011
9695,1.7647,3.4545,0.05,4.7371e-06,47.339,3.6375e-06,27.331,-1.2489e-11,-0.00013814,-3.6375e-06,-27.331,0.01993
9696,1.7647,3.1818,0,0.00071204,7115.5,0.00031203,0.95964,9.2184e-05,-1650.9,-0.00072557,-7795.1,0.020129
9697,1.6765,3.2727,0,0.0006923,6918.2,0.00030813,0.84441,7.9819e-05,-1714.6,-0.0007053,-7613.7,0.018114
9698,1.7647,3.2727,0.05,4.818e-06,48.147,3.6997e-06,27.798,-3.933e-12,-6.4668e-05,-3.6997e-06,-27.798,0.02005
9699,1.7647,3,0,0.00071496,7144.6,0.00031342,0.97279,9.234e-05,-1660.1,-0.00072854,-7827.9,0.020159
9700,1.6765,3.0909,0,0.00069765,6971.7,0.00031077,0.8698,7.9902e-05,-1733.8,-0.00071074,-7674.3,0.018167
9701,1.7647,3.0909,0.05,4.8777e-06,48.743,3.7455e-06,28.142,-2.0042e-14,-3.3019e-05,-3.7455e-06,-28.142,0.020111
9702,1.7647,2.8182,0,0.00071204,7115.5,0.00031203,0.95964,9.2184e-05,-1650.9,-0.00072557,-7795.1,0.020129
9703,1.6765,2.9091,0,0.00069765,6971.7,0.00031077,0.8698,7.9902e-05,-1733.8,-0.00071074,-7674.3,0.018167
9704,1.7647,2.9091,0.05,4.8777e-06,48.743,3.7455e-06,28.142,1.8088e-12,3.2773e-05,-3.7455e-06,-28.142,0.020111
9705,1.7647,2.6364,0,0.00070342,7029.4,0.00030781,0.92497,9.1976e-05,-1620.8,-0.00071679,-7697.5,0.020038
9706,1.6765,2.7273,0,0.0006923,6918.2,0.00030813,0.84441,7.9819e-05,-1714.6,-0.0007053,-7613.7,0.018114
9707,1.7647,2.7273,0.05,4.818e-06,48.147,3.6997e-06,27.798,5.3047e-12,6.2336e-05,-3.6997e-06,-27.798,0.02005
9708,1.7647,2.4545,0,0.00068957,6891,0.00030064,0.87593,9.2418e-05,-1563.7,-0.0007027,-7537.8,0.019888
9709,1.6765,2.5455,0,0.0006819,6814.3,0.00030279,0.80367,8.01e-05,-1672.4,-0.00069474,-7494.2,0.018011
9710,1.7647,2.5455,0.05,4.7371e-06,47.339,3.6375e-06,27.331,1.3855e-11,0.00014335,-3.6375e-06,-27.331,0.01993
9711,1.7647,2.2727,0,0.00067132,6708.6,0.00029051,0.82396,9.4385e-05,-1472.8,-0.0006841,-7322,0.019684
9712,1.6765,2.3636,0,0.00066709,6666.3,0.00029469,0.7619,8.1495e-05,-1601.1,-0.00067971,-7320.5,0.017859
9713,1.7647,2.3636,0.05,4.729e-06,47.258,3.6313e-06,27.284,3.0426e-11,0.00028014,-3.6313e-06,-27.284,0.019753
9714,1.7647,2.0909,0,0.00064976,6493.2,0.00027765,0.83392,9.8476e-05,-1345.4,-0.00066208,-7059.9,0.019426
9715,1.6765,2.1818,0,0.00064881,6483.6,0.00028396,0.74087,8.473e-05,-1496.2,-0.00066115,-7100.4,0.017659
9716,1.7647,2.1818,0.05,4.8983e-06,48.949,3.7613e-06,28.261,4.3227e-11,0.00038548,-3.7613e-06,-28.261,0.019523
9717,1.7647,1.9091,0,0.00062606,6256.3,0.00026265,0.94918,0.00010459,-1186.7,-0.00063772,-6764,0.019116
9718,1.6765,2,0,0.00062815,6277.1,0.00027095,0.79173,9.009e-05,-1358.1,-0.0006401,-6844.5,0.017412
9719,1.7647,2,0.05,5.2596e-06,52.559,4.0387e-06,30.345,5.3414e-11,0.00045709,-4.0387e-06,-30.345,0.01924
9720,1.7647,1.7273,0,0.0006012,6007.9,0.00024638,1.1252,0.00011187,-1009.5,-0.00061194,-6448,0.018755
9721,1.6765,1.8182,0,0.0006061,6056.8,0.00025633,0.89977,9.7189e-05,-1194.8,-0.00061749,-6564.6,0.017119
9722,1.7647,1.8182,0.05,5.723e-06,57.191,4.3946e-06,33.019,5.3128e-11,0.00050747,-4.3946e-06,-33.019,0.018906
9723,1.7647,1.5455,0,0.00057599,5756,0.0002298,1.3488,0.00011918,-829.8,-0.00058557,-6125,0.018341
9724,1.6765,1.6364,0,0.00058351,5831,0.00024089,1.0333,0.00010515,-1018.9,-0.00059409,-6272.7,0.016778
9725,1.7647,1.6364,0.05,6.2023e-06,61.98,4.7625e-06,35.784,6.1621e-11,0.00046788,-4.7626e-06,-35.784,0.01852
9726,1.7647,1.3636,0,0.00055122,5508.4,0.00021375,1.6563,0.00012567,-660.17,-0.00055943,-5807.7,0.017874
9727,1.6765,1.4545,0,0.00056112,5607.3,0.00022544,1.2111,0.0001131,-842.92,-0.00057065,-5980.3,0.016387
9728,1.7647,1.4545,0.05,6.6507e-06,66.461,5.1069e-06,38.371,4.1476e-11,0.0003577,-5.1069e-06,-38.371,0.018081
9729,1.7647,1.1818,0,0.00052774,5273.7,0.00019881,2.1032,0.00013111,-506.61,-0.00053447,-5507.5,0.017353
9730,1.6765,1.2727,0,0.00053974,5393.7,0.00021062,1.464,0.00012057,-675.14,-0.00054801,-5698.6,0.015945
9731,1.7647,1.2727,0.05,7.0289e-06,70.241,5.3973e-06,40.554,3.348e-11,0.00033334,-5.3974e-06,-40.554,0.017588
9732,1.7647,1,0,0.0005065,5061.5,0.00018533,2.7909,0.00013581,-369.26,-0.0005117,-5234.4,0.016776
9733,1.6765,1.0909,0,0.00052022,5198.6,0.00019686,1.854,0.00012761,-518.46,-0.00052705,-5437.4,0.015448
9734,1.7647,1.0909,0.05,7.2953e-06,72.902,5.6018e-06,42.09,2.7412e-11,0.00028559,-5.6019e-06,-42.09,0.01704
9735,1.7647,0.81818,0,0.00048841,4880.7,0.0001735,3.9703,0.00014032,-245.36,-0.00049203,-4996.6,0.016139
9736,1.6765,0.90909,0,0.00050341,5030.6,0.00018444,2.4856,0.00013454,-372.44,-0.00050865,-5205.1,0.014894
9737,1.7647,0.90909,0.05,7.4279e-06,74.228,5.7037e-06,42.856,2.0072e-11,0.00022598,-5.7037e-06,-42.856,0.016435
9738,1.7647,0.63636,0,0.00047422,4738.9,0.00016357,6.5804,0.00014501,-132.85,-0.00047621,-4800.5,0.01544
9739,1.6765,0.72727,0,0.00049002,4896.8,0.00017356,3.6752,0.00014166,-236.05,-0.00049353,-5008.6,0.014278
9740,1.7647,0.72727,0.05,7.4275e-06,74.224,5.7034e-06,42.853,1.5037e-11,0.00011242,-5.7034e-06,-42.853,0.015768
9741,1.7647,0.45455,0,0.0004645,4641.8,0.00015679,19.158,0.00014911,-38.533,-0.0004648,-4651.2,0.014671
9742,1.6765,0.54545,0,0.00048053,4802,0.0001646,6.8357,0.00014895,-110.76,-0.00048219,-4852.9,0.013594
9743,1.7647,0.54545,0.05,7.3222e-06,73.171,5.6225e-06,42.246,1.053e-11,8.8897e-05,-5.6225e-06,-42.246,0.015035
9744,1.7647,0.27273,0,0.00046097,4606.6,0.00016033,94.445,0.00014684,-6.939,-0.0004594,-4562,0.013827
9745,1.6765,0.36364,0,0.0004753,4749.7,0.00016053,33.148,0.00015364,-18.606,-0.00047503,-4742.2,0.012834
9746,1.7647,0.36364,0.05,7.3334e-06,73.283,5.6311e-06,42.31,2.2506e-12,5.9045e-05,-5.6311e-06,-42.31,0.014229
9747,1.6765,0.18182,0,0.0004771,4767.7,0.00016939,141.09,0.00015003,-4.3913,-0.00047461,-4697.7,0.011992
9748,1.7647,0.18182,0.05,1.0685e-05,106.77,8.2045e-06,61.645,3.2059e-12,1.167e-05,-8.2045e-06,-61.645,0.013344
9749,1.7647,0.090909,0,0.0004488,4484.9,0.00015547,88.9,0.00014374,0.76575,-0.00044721,-4439.4,0.012899
9750,1.5882,5.7273,0,0.00049139,4910.5,0.00016859,72.22,0.00015787,-8.3412,-0.00049025,-4878.1,0.01109
9751,1.5,5.8182,0,0.00050585,5055,0.00017797,129.77,0.00016006,-4.757,-0.00050359,-4991.2,0.0094386
9752,1.5882,5.8182,0.05,9.7264e-06,97.197,7.4687e-06,56.117,-1.4487e-12,-1.1342e-05,-7.4687e-06,-56.117,0.010649
9753,1.5882,5.9091,0,0.00048176,4814.3,0.000166,84.749,0.00015484,0.89192,-0.00048025,-4770.9,0.010245
9754,1.5882,5.5455,0,0.00049133,4909.9,0.00016669,8.3977,0.00015518,-78.112,-0.00049246,-4944.2,0.011845
9755,1.5,5.6364,0,0.00050093,5005.8,0.00016847,15.084,0.00016134,-38.483,-0.0005013,-5017.3,0.010194
9756,1.5882,5.6364,0.05,6.36e-06,63.556,4.8837e-06,36.694,-6.672e-12,-9.9382e-05,-4.8837e-06,-36.694,0.011448
9757,1.5882,5.3636,0,0.00049647,4961.3,0.00017454,3.5588,0.00014579,-212.43,-0.00049967,-5062.2,0.012519
9758,1.5,5.4545,0,0.00050232,5019.7,0.00017475,3.837,0.00015074,-176.59,-0.00050502,-5103.7,0.010862
9759,1.5882,5.4545,0.05,6.4547e-06,64.503,4.9564e-06,37.241,-1.4171e-11,-9.3424e-05,-4.9564e-06,-37.241,0.012162
9760,1.5882,5.1818,0,0.0005053,5049.5,0.00018451,2.3042,0.00013613,-361.21,-0.00051043,-5219.2,0.01312
9761,1.5,5.2727,0,0.00050731,5069.6,0.00018401,2.26,0.00013886,-337.03,-0.00051215,-5228.5,0.011452
9762,1.5882,5.2727,0.05,6.648e-06,66.434,5.1048e-06,38.356,-2.0807e-11,-0.00017138,-5.1048e-06,-38.355,0.012798
9763,1.5882,5,0,0.00051753,5171.7,0.00019599,1.6765,0.00012667,-519.13,-0.00052436,-5410.7,0.013655
9764,1.5,5.0909,0,0.00051577,5154.1,0.00019481,1.5631,0.00012717,-506.62,-0.00052248,-5387.9,0.011972
9765,1.5882,5.0909,0.05,6.7163e-06,67.117,5.1573e-06,38.75,-2.5705e-11,-0.00024761,-5.1573e-06,-38.75,0.013364
9766,1.5882,4.8182,0,0.00053267,5323,0.00020869,1.3101,0.00011745,-684.23,-0.00054096,-5631.3,0.014131
9767,1.5,4.9091,0,0.00052745,5270.9,0.00020678,1.1875,0.00011602,-680.75,-0.00053569,-5577.4,0.012429
9768,1.5882,4.9091,0.05,6.6372e-06,66.327,5.0966e-06,38.294,-3.2005e-11,-0.00031345,-5.0966e-06,-38.294,0.013868
9769,1.5882,4.6364,0,0.00055008,5497,0.00022232,1.078,0.00010835,-855.31,-0.00055958,-5873.9,0.014551
9770,1.5,4.7273,0,0.00054182,5414.5,0.00021964,0.95721,0.00010546,-856.97,-0.00055126,-5791.3,0.012831
9771,1.5882,4.7273,0.05,6.4131e-06,64.086,4.9245e-06,37,-3.927e-11,-0.00036952,-4.9244e-06,-37,0.014315
9772,1.5882,4.4545,0,0.00056901,5686.2,0.00023654,0.92361,9.9346e-05,-1029.9,-0.00057946,-6130.1,0.014921
9773,1.5,4.5455,0,0.00055819,5578.1,0.00023306,0.81067,9.5436e-05,-1033.3,-0.00056852,-6022,0.013182
9774,1.5882,4.5455,0.05,6.0584e-06,60.542,4.6521e-06,34.954,-3.58e-11,-0.00031936,-4.6521e-06,-34.954,0.014709
9775,1.5882,4.2727,0,0.0005887,5882.9,0.00025084,0.81273,9.0666e-05,-1202.7,-0.00059983,-6390.8,0.015244
9776,1.5,4.3636,0,0.0005758,5754,0.00024667,0.70896,8.6014e-05,-1206.4,-0.00058673,-6261.1,0.013487
9777,1.5882,4.3636,0.05,5.595e-06,55.911,4.2963e-06,32.28,-5.3217e-11,-0.00034665,-4.2962e-06,-32.28,0.015053
9778,1.5882,4.0909,0,0.00060839,6079.7,0.00026463,0.73295,8.2804e-05,-1365.4,-0.00061998,-6645.9,0.015521
9779,1.5,4.1818,0,0.00059387,5934.6,0.00025996,0.63173,7.7454e-05,-1370.7,-0.00060517,-6499.6,0.013749
9780,1.5882,4.1818,0.05,5.0509e-06,50.474,3.8785e-06,29.141,-5.2785e-11,-0.00049967,-3.8784e-06,-29.141,0.015351
9781,1.5882,3.9091,0,0.00062732,6268.9,0.00027726,0.68374,7.6359e-05,-1508.8,-0.00063918,-6885.1,0.015755
9782,1.5,4,0,0.00061166,6112.4,0.00027239,0.57786,7.0188e-05,-1518.7,-0.00062315,-6728.2,0.01397
9783,1.5882,4,0.05,4.4715e-06,44.684,3.4336e-06,25.799,-5.0635e-11,-0.00048617,-3.4335e-06,-25.798,0.015606
9784,1.5882,3.7273,0,0.00064461,6441.7,0.00028814,0.66526,7.1744e-05,-1625.2,-0.00065666,-7098.2,0.015948
9785,1.5,3.8182,0,0.00062839,6279.5,0.00028342,0.55052,6.4621e-05,-1643.4,-0.00063997,-6937.4,0.014154
9786,1.5882,3.8182,0.05,3.937e-06,39.343,3.0232e-06,22.715,-4.7293e-11,-0.00045441,-3.0231e-06,-22.715,0.015819
9787,1.5882,3.5455,0,0.00065934,6588.8,0.00029683,0.681,6.896e-05,-1711.5,-0.00067153,-7275.2,0.0161
9788,1.5,3.6364,0,0.0006432,6427.6,0.00029259,0.55217,6.0892e-05,-1740.3,-0.00065485,-7118.1,0.014302
9789,1.5882,3.6364,0.05,3.5458e-06,35.433,2.7227e-06,20.457,-3.9636e-11,-0.00038676,-2.7227e-06,-20.457,0.01599
9790,1.5882,3.3636,0,0.0006706,6701.4,0.00030311,0.71929,6.7612e-05,-1768.7,-0.00068291,-7407.8,0.016209
9791,1.5,3.4545,0,0.00065525,6548,0.0002996,0.58044,5.878e-05,-1808.8,-0.00066697,-7261.8,0.014413
9792,1.5882,3.4545,0.05,3.3465e-06,33.442,2.5697e-06,19.308,-2.7846e-11,-0.00023634,-2.5697e-06,-19.308,0.01612
9793,1.5882,3.1818,0,0.00067767,6772,0.00030687,0.75364,6.7127e-05,-1800.6,-0.00069006,-7489.8,0.016275
9794,1.5,3.2727,0,0.00066375,6633,0.0003043,0.61492,5.7808e-05,-1851.4,-0.00067554,-7361.5,0.014488
9795,1.5882,3.2727,0.05,3.2931e-06,32.909,2.5287e-06,19,-1.0883e-11,-0.00011427,-2.5287e-06,-19,0.016207
9796,1.5882,3,0,0.00068008,6796.1,0.00030812,0.76677,6.7026e-05,-1810.7,-0.0006925,-7517.5,0.016297
9797,1.5,3.0909,0,0.00066815,6676.9,0.00030665,0.6368,5.7478e-05,-1871.6,-0.00067998,-7412.5,0.014525
9798,1.5882,3.0909,0.05,3.2961e-06,32.938,2.531e-06,19.017,-3.3353e-12,-2.7899e-05,-2.531e-06,-19.017,0.016252
9799,1.5882,2.8182,0,0.00067767,6772,0.00030687,0.75364,6.7127e-05,-1800.6,-0.00069006,-7489.8,0.016275
9800,1.5,2.9091,0,0.00066815,6676.9,0.00030665,0.6368,5.7478e-05,-1871.6,-0.00067998,-7412.5,0.014525
9801,1.5882,2.9091,0.05,3.2961e-06,32.938,2.531e-06,19.017,4.1831e-12,2.8348e-05,-2.531e-06,-19.017,0.016252
9802,1.5882,2.6364,0,0.0006706,6701.4,0.00030311,0.71929,6.7612e-05,-1768.7,-0.00068291,-7407.8,0.016209
9803,1.5,2.7273,0,0.00066375,6633,0.0003043,0.61492,5.7808e-05,-1851.4,-0.00067554,-7361.5,0.014488
9804,1.5882,2.7273,0.05,3.2931e-06,32.909,2.5287e-06,19,1.4657e-11,0.00011685,-2.5287e-06,-19,0.016207
9805,1.5882,2.4545,0,0.00065934,6588.8,0.00029683,0.681,6.8959e-05,-1711.5,-0.00067153,-7275.2,0.0161
9806,1.5,2.5455,0,0.00065525,6548,0.0002996,0.58043,5.878e-05,-1808.8,-0.00066697,-7261.8,0.014413
9807,1.5882,2.5455,0.05,3.3465e-06,33.442,2.5697e-06,19.308,2.1256e-11,0.00022458,-2.5697e-06,-19.308,0.01612
9808,1.5882,2.2727,0,0.00064461,6441.7,0.00028814,0.66526,7.1743e-05,-1625.2,-0.00065666,-7098.2,0.015948
9809,1.5,2.3636,0,0.0006432,6427.6,0.00029259,0.55217,6.0892e-05,-1740.3,-0.00065485,-7118.1,0.014302
9810,1.5882,2.3636,0.05,3.5458e-06,35.433,2.7227e-06,20.457,2.6166e-11,0.00031767,-2.7227e-06,-20.457,0.01599
9811,1.5882,2.0909,0,0.00062732,6268.9,0.00027726,0.68374,7.6359e-05,-1508.8,-0.00063918,-6885.1,0.015755
9812,1.5,2.1818,0,0.00062839,6279.5,0.00028342,0.55052,6.4621e-05,-1643.4,-0.00063997,-6937.4,0.014154
9813,1.5882,2.1818,0.05,3.937e-06,39.343,3.0231e-06,22.715,3.5031e-11,0.00035091,-3.0232e-06,-22.715,0.015819
9814,1.5882,1.9091,0,0.00060839,6079.7,0.00026463,0.73295,8.2804e-05,-1365.4,-0.00061998,-6645.9,0.015521
9815,1.5,2,0,0.00061166,6112.4,0.00027239,0.57786,7.0188e-05,-1518.7,-0.00062315,-6728.2,0.01397
9816,1.5882,2,0.05,4.4715e-06,44.684,3.4335e-06,25.798,4.3449e-11,0.00048688,-3.4336e-06,-25.799,0.015606
9817,1.5882,1.7273,0,0.0005887,5882.9,0.00025084,0.81273,9.0666e-05,-1202.7,-0.00059983,-6390.8,0.015244
9818,1.5,1.8182,0,0.00059387,5934.6,0.00025996,0.63173,7.7454e-05,-1370.7,-0.00060517,-6499.6,0.013749
9819,1.5882,1.8182,0.05,5.0509e-06,50.474,3.8784e-06,29.141,3.7499e-11,0.00037652,-3.8785e-06,-29.141,0.015351
9820,1.5882,1.5455,0,0.00056901,5686.2,0.00023654,0.92361,9.9346e-05,-1029.9,-0.00057946,-6130.1,0.014921
9821,1.5,1.6364,0,0.0005758,5754,0.00024667,0.70896,8.6014e-05,-1206.4,-0.00058673,-6261.1,0.013487
9822,1.5882,1.6364,0.05,5.595e-06,55.911,4.2962e-06,32.28,4.5713e-11,0.00033056,-4.2963e-06,-32.28,0.015053
9823,1.5882,1.3636,0,0.00055008,5497,0.00022232,1.078,0.00010835,-855.31,-0.00055958,-5873.9,0.014551
9824,1.5,1.4545,0,0.00055819,5578.1,0.00023306,0.81067,9.5436e-05,-1033.3,-0.00056852,-6022,0.013182
9825,1.5882,1.4545,0.05,6.0584e-06,60.542,4.6521e-06,34.954,3.4434e-11,0.0002883,-4.6521e-06,-34.954,0.014709
9826,1.5882,1.1818,0,0.00053267,5323,0.00020869,1.3101,0.00011745,-684.23,-0.00054096,-5631.3,0.014131
9827,1.5,1.2727,0,0.00054182,5414.5,0.00021964,0.95721,0.00010546,-856.97,-0.00055126,-5791.3,0.012831
9828,1.5882,1.2727,0.05,6.4131e-06,64.086,4.9244e-06,37,3.157e-11,0.00035182,-4.9245e-06,-37,0.014315
9829,1.5882,1,0,0.00051753,5171.7,0.00019599,1.6765,0.00012667,-519.13,-0.00052436,-5410.7,0.013655
9830,1.5,1.0909,0,0.00052745,5270.9,0.00020678,1.1875,0.00011602,-680.75,-0.00053569,-5577.4,0.012429
9831,1.5882,1.0909,0.05,6.6372e-06,66.327,5.0966e-06,38.294,2.8802e-11,0.00027763,-5.0966e-06,-38.294,0.013868
9832,1.5882,0.81818,0,0.0005053,5049.5,0.00018451,2.3042,0.00013613,-361.21,-0.00051043,-5219.2,0.01312
9833,1.5,0.90909,0,0.00051577,5154.1,0.00019481,1.5631,0.00012717,-506.62,-0.00052248,-5387.9,0.011972
9834,1.5882,0.90909,0.05,6.7163e-06,67.117,5.1573e-06,38.75,2.043e-11,0.0002047,-5.1573e-06,-38.75,0.013364
9835,1.5882,0.63636,0,0.00049647,4961.3,0.00017454,3.5588,0.00014579,-212.43,-0.00049967,-5062.2,0.012519
9836,1.5,0.72727,0,0.00050731,5069.6,0.00018401,2.26,0.00013886,-337.03,-0.00051215,-5228.5,0.011452
9837,1.5882,0.72727,0.05,6.648e-06,66.434,5.1048e-06,38.355,1.8523e-11,0.0001565,-5.1048e-06,-38.356,0.012798
9838,1.5882,0.45455,0,0.00049133,4909.9,0.00016669,8.3977,0.00015518,-78.112,-0.00049246,-4944.2,0.011845
9839,1.5,0.54545,0,0.00050232,5019.7,0.00017475,3.837,0.00015074,-176.59,-0.00050502,-5103.7,0.010862
9840,1.5882,0.54545,0.05,6.4547e-06,64.503,4.9564e-06,37.241,1.4171e-11,7.9143e-05,-4.9564e-06,-37.241,0.012162
9841,1.5882,0.27273,0,0.00049139,4910.5,0.00016859,72.22,0.00015787,-8.3412,-0.00049025,-4878.1,0.01109
9842,1.5,0.36364,0,0.00050093,5005.8,0.00016847,15.084,0.00016134,-38.483,-0.0005013,-5017.3,0.010194
9843,1.5882,0.36364,0.05,6.36e-06,63.556,4.8837e-06,36.694,6.672e-12,9.4977e-05,-4.8837e-06,-36.694,0.011448
9844,1.5,0.18182,0,0.00050585,5055,0.00017797,129.77,0.00016006,-4.757,-0.00050359,-4991.2,0.0094386
9845,1.5882,0.18182,0.05,9.7264e-06,97.197,7.4687e-06,56.117,1.4487e-12,1.0442e-05,-7.4687e-06,-56.117,0.010649
9846,1.5882,0.090909,0,0.00048176,4814.3,0.000166,84.749,0.00015484,0.89192,-0.00048025,-4770.9,0.010245
9847,1.4118,5.7273,0,0.00051531,5149.6,0.00017481,49.841,0.00016657,-12.084,-0.00051464,-5130.4,0.0086388
9848,1.3235,5.8182,0,0.00052824,5278.7,0.00018457,119.9,0.00016788,-5.494,-0.00052618,-5220.4,0.0071796
9849,1.4118,5.8182,0.05,8.8585e-06,88.524,6.8022e-06,51.109,6.782e-13,-2.7034e-05,-6.8022e-06,-51.109,0.0082397
9850,1.4118,5.9091,0,0.00050806,5077.1,0.00017437,81.12,0.00016371,1.0068,-0.00050661,-5035.5,0.0078791
9851,1.4118,5.5455,0,0.00051186,5115.1,0.00017576,4.7552,0.00015768,-131.1,-0.00051387,-5176.9,0.0093048
9852,1.3235,5.6364,0,0.0005201,5197.4,0.00017597,8.0661,0.00016501,-74.278,-0.00052118,-5230.1,0.0078469
9853,1.4118,5.6364,0.05,5.5665e-06,55.626,4.2744e-06,32.116,-9.1291e-12,-0.00010147,-4.2744e-06,-32.116,0.0089521
9854,1.4118,5.3636,0,0.00051317,5128.2,0.00018419,2.2587,0.00014392,-300.36,-0.00051757,-5270.5,0.009887
9855,1.3235,5.4545,0,0.00051812,5177.6,0.00018355,2.6755,0.0001496,-252.36,-0.0005219,-5297.7,0.0084247
9856,1.4118,5.4545,0.05,5.8098e-06,58.058,4.4612e-06,33.52,-1.7801e-11,-0.00014393,-4.4612e-06,-33.52,0.0095751
9857,1.4118,5.1818,0,0.00051787,5175.1,0.00019431,1.4991,0.00013004,-481.4,-0.00052434,-5398.2,0.010395
9858,1.3235,5.2727,0,0.00051958,5192.2,0.00019326,1.7159,0.00013356,-446.84,-0.0005257,-5400.2,0.0089236
9859,1.4118,5.2727,0.05,6.1059e-06,61.016,4.6885e-06,35.228,-2.3792e-11,-0.00024522,-4.6885e-06,-35.228,0.010119
9860,1.4118,5,0,0.00052586,5255,0.0002056,1.0907,0.0001167,-666.91,-0.00053399,-5555.9,0.010838
9861,1.3235,5.0909,0,0.00052454,5241.7,0.00020419,1.2402,0.00011809,-645.7,-0.00053249,-5533.9,0.0093539
9862,1.4118,5.0909,0.05,6.2424e-06,62.381,4.7934e-06,36.016,-2.6229e-11,-0.00025124,-4.7934e-06,-36.016,0.010592
9863,1.4118,4.8182,0,0.00053681,5364.4,0.00021774,0.85306,0.00010423,-852.03,-0.00054618,-5738.9,0.011223
9864,1.3235,4.9091,0,0.00053282,5324.6,0.00021594,0.98755,0.0001038,-841.59,-0.0005421,-5694.6,0.0097245
9865,1.4118,4.9091,0.05,6.2059e-06,62.016,4.7654e-06,35.805,-3.2407e-11,-0.00028806,-4.7654e-06,-35.805,0.011005
9866,1.4118,4.6364,0,0.00055016,5497.8,0.00023038,0.70229,9.2732e-05,-1033.5,-0.00056038,-5940.8,0.011557
9867,1.3235,4.7273,0,0.00054394,5435.7,0.00022817,0.83256,9.0932e-05,-1030.3,-0.00055406,-5876.5,0.010043
9868,1.4118,4.7273,0.05,6.0057e-06,60.015,4.6116e-06,34.65,-3.7935e-11,-0.00032388,-4.6116e-06,-34.65,0.011363
9869,1.4118,4.4545,0,0.00056519,5648,0.0002432,0.60084,8.2263e-05,-1208.6,-0.00057594,-6154.1,0.011845
9870,1.3235,4.5455,0,0.00055718,5567.9,0.00024055,0.73392,7.9492e-05,-1209.4,-0.00056778,-6072.7,0.010316
9871,1.4118,4.5455,0.05,5.6579e-06,56.54,4.3445e-06,32.643,-4.2844e-11,-0.00036422,-4.3445e-06,-32.643,0.011672
9872,1.4118,4.2727,0,0.00058115,5807.5,0.00025579,0.52624,7.292e-05,-1373.5,-0.00059218,-6370.8,0.012092
9873,1.3235,4.3636,0,0.00057173,5713.4,0.00025276,0.66389,6.9451e-05,-1376.7,-0.00058254,-6275.5,0.010548
9874,1.4118,4.3636,0.05,5.1827e-06,51.791,3.9797e-06,29.902,-4.2692e-11,-0.00035749,-3.9796e-06,-29.902,0.011938
9875,1.4118,4.0909,0,0.00059728,5968.7,0.00026772,0.4705,6.4908e-05,-1523.4,-0.0006084,-6582.4,0.012301
9876,1.3235,4.1818,0,0.00058683,5864.2,0.00026444,0.61051,6.0844e-05,-1529.2,-0.00059766,-6476.9,0.010745
9877,1.4118,4.1818,0.05,4.6057e-06,46.025,3.5366e-06,26.573,-3.6849e-11,-0.00036973,-3.5366e-06,-26.572,0.012165
9878,1.4118,3.9091,0,0.00061282,6124,0.00027855,0.43669,5.8461e-05,-1653.2,-0.00062395,-6780.6,0.012475
9879,1.3235,4,0,0.00060171,6012.9,0.00027521,0.57211,5.3782e-05,-1663.1,-0.00061246,-6669,0.010909
9880,1.4118,4,0.05,3.9643e-06,39.615,3.0441e-06,22.872,-4.3083e-11,-0.00042336,-3.0441e-06,-22.872,0.012355
9881,1.4118,3.7273,0,0.00062701,6265.8,0.00028787,0.43009,5.3711e-05,-1758.9,-0.00063811,-6957,0.012617
9882,1.3235,3.8182,0,0.00061565,6152.2,0.00028469,0.55373,4.8365e-05,-1775.1,-0.00062629,-6844.2,0.011043
9883,1.4118,3.8182,0.05,3.3166e-06,33.143,2.5467e-06,19.135,-4.3844e-11,-0.00042892,-2.5467e-06,-19.135,0.012512
9884,1.4118,3.5455,0,0.00063908,6386.4,0.00029535,0.44639,5.0579e-05,-1838.6,-0.00065016,-7103.7,0.012726
9885,1.3235,3.6364,0,0.00062794,6275,0.00029257,0.5572,4.4568e-05,-1862.8,-0.0006385,-6995.1,0.011149
9886,1.4118,3.6364,0.05,2.7393e-06,27.374,2.1034e-06,15.804,-3.1278e-11,-0.00026464,-2.1034e-06,-15.804,0.012637
9887,1.4118,3.3636,0,0.00064831,6478.6,0.00030079,0.47322,4.8771e-05,-1893.1,-0.0006594,-7214,0.012805
9888,1.3235,3.4545,0,0.00063789,6374.5,0.00029862,0.57551,4.2188e-05,-1926.2,-0.00064841,-7115.1,0.011228
9889,1.4118,3.4545,0.05,2.3056e-06,23.04,1.7704e-06,13.302,-3.4882e-11,-0.00033872,-1.7704e-06,-13.302,0.01273
9890,1.4118,3.1818,0,0.00065411,6536.6,0.00030408,0.49688,4.7903e-05,-1924.3,-0.00066521,-7282.3,0.012852
9891,1.3235,3.2727,0,0.00064491,6444.7,0.00030271,0.59769,4.0894e-05,-1966.6,-0.00065541,-7198.4,0.011281
9892,1.4118,3.2727,0.05,2.0468e-06,20.454,1.5717e-06,11.809,-2.1153e-11,-0.00019255,-1.5717e-06,-11.809,0.012793
9893,1.4118,3,0,0.00065608,6556.3,0.00030518,0.5062,4.7655e-05,-1934.4,-0.00066719,-7305.5,0.012868
9894,1.3235,3.0909,0,0.00064854,6480.9,0.00030477,0.61233,4.0351e-05,-1986.1,-0.00065904,-7241.1,0.011307
9895,1.4118,3.0909,0.05,1.9374e-06,19.361,1.4877e-06,11.178,-4.7677e-12,-6.2407e-05,-1.4877e-06,-11.178,0.012824
9896,1.4118,2.8182,0,0.00065411,6536.6,0.00030408,0.49688,4.7903e-05,-1924.3,-0.00066521,-7282.3,0.012852
9897,1.3235,2.9091,0,0.00064854,6480.9,0.00030477,0.61233,4.0351e-05,-1986.1,-0.00065904,-7241.1,0.011307
9898,1.4118,2.9091,0.05,1.9374e-06,19.361,1.4877e-06,11.178,7.8796e-12,6.0586e-05,-1.4877e-06,-11.178,0.012824
9899,1.4118,2.6364,0,0.00064831,6478.6,0.00030079,0.47322,4.8771e-05,-1893.1,-0.0006594,-7214,0.012805
9900,1.3235,2.7273,0,0.00064491,6444.7,0.00030271,0.59769,4.0894e-05,-1966.6,-0.00065541,-7198.4,0.011281
9901,1.4118,2.7273,0.05,2.0468e-06,20.454,1.5717e-06,11.809,2.1471e-11,0.00017823,-1.5717e-06,-11.809,0.012793
9902,1.4118,2.4545,0,0.00063908,6386.4,0.00029535,0.44639,5.0579e-05,-1838.6,-0.00065016,-7103.7,0.012726
9903,1.3235,2.5455,0,0.00063789,6374.5,0.00029862,0.57551,4.2188e-05,-1926.2,-0.00064841,-7115.1,0.011228
9904,1.4118,2.5455,0.05,2.3056e-06,23.04,1.7704e-06,13.302,2.7646e-11,0.00026672,-1.7704e-06,-13.302,0.01273
9905,1.4118,2.2727,0,0.00062701,6265.8,0.00028787,0.43009,5.3711e-05,-1758.9,-0.00063811,-6957,0.012617
9906,1.3235,2.3636,0,0.00062794,6275,0.00029257,0.5572,4.4568e-05,-1862.8,-0.0006385,-6995.1,0.011149
9907,1.4118,2.3636,0.05,2.7393e-06,27.374,2.1034e-06,15.804,3.255e-11,0.0002713,-2.1034e-06,-15.804,0.012637
9908,1.4118,2.0909,0,0.00061282,6124,0.00027855,0.43669,5.8461e-05,-1653.2,-0.00062395,-6780.6,0.012475
9909,1.3235,2.1818,0,0.00061565,6152.2,0.00028469,0.55373,4.8365e-05,-1775.1,-0.00062629,-6844.2,0.011043
9910,1.4118,2.1818,0.05,3.3166e-06,33.143,2.5467e-06,19.135,4.4027e-11,0.00036953,-2.5467e-06,-19.135,0.012512
9911,1.4118,1.9091,0,0.00059728,5968.7,0.00026772,0.4705,6.4908e-05,-1523.4,-0.0006084,-6582.4,0.012301
9912,1.3235,2,0,0.00060171,6012.9,0.00027521,0.57211,5.3782e-05,-1663.1,-0.00061246,-6669,0.010909
9913,1.4118,2,0.05,3.9643e-06,39.615,3.0441e-06,22.872,4.2558e-11,0.00023765,-3.0441e-06,-22.872,0.012355
9914,1.4118,1.7273,0,0.00058115,5807.5,0.00025579,0.52624,7.292e-05,-1373.5,-0.00059218,-6370.8,0.012092
9915,1.3235,1.8182,0,0.00058683,5864.2,0.00026444,0.61051,6.0844e-05,-1529.2,-0.00059766,-6476.9,0.010745
9916,1.4118,1.8182,0.05,4.6057e-06,46.025,3.5366e-06,26.572,2.9428e-11,0.00029653,-3.5366e-06,-26.573,0.012165
9917,1.4118,1.5455,0,0.00056519,5648,0.0002432,0.60084,8.2263e-05,-1208.6,-0.00057594,-6154.1,0.011845
9918,1.3235,1.6364,0,0.00057173,5713.4,0.00025276,0.66389,6.9451e-05,-1376.7,-0.00058254,-6275.5,0.010548
9919,1.4118,1.6364,0.05,5.1827e-06,51.791,3.9796e-06,29.902,4.2324e-11,0.00030199,-3.9797e-06,-29.902,0.011938
9920,1.4118,1.3636,0,0.00055016,5497.8,0.00023038,0.70229,9.2732e-05,-1033.5,-0.00056038,-5940.8,0.011557
9921,1.3235,1.4545,0,0.00055718,5567.9,0.00024055,0.73392,7.9492e-05,-1209.4,-0.00056778,-6072.7,0.010316
9922,1.4118,1.4545,0.05,5.6579e-06,56.54,4.3445e-06,32.643,2.9871e-11,0.00030639,-4.3445e-06,-32.643,0.011672
9923,1.4118,1.1818,0,0.00053681,5364.4,0.00021774,0.85306,0.00010423,-852.03,-0.00054618,-5738.9,0.011223
9924,1.3235,1.2727,0,0.00054394,5435.7,0.00022817,0.83256,9.0931e-05,-1030.3,-0.00055406,-5876.5,0.010043
9925,1.4118,1.2727,0.05,6.0057e-06,60.015,4.6116e-06,34.65,3.6199e-11,0.00030396,-4.6116e-06,-34.65,0.011363
9926,1.4118,1,0,0.00052586,5255,0.0002056,1.0907,0.0001167,-666.91,-0.00053399,-5555.9,0.010838
9927,1.3235,1.0909,0,0.00053282,5324.6,0.00021594,0.98755,0.0001038,-841.59,-0.0005421,-5694.6,0.0097245
9928,1.4118,1.0909,0.05,6.2059e-06,62.016,4.7654e-06,35.805,2.8829e-11,0.00025805,-4.7654e-06,-35.805,0.011005
9929,1.4118,0.81818,0,0.00051787,5175.1,0.00019431,1.4991,0.00013004,-481.4,-0.00052434,-5398.2,0.010395
9930,1.3235,0.90909,0,0.00052454,5241.7,0.00020419,1.2402,0.00011809,-645.7,-0.00053249,-5533.9,0.0093539
9931,1.4118,0.90909,0.05,6.2424e-06,62.381,4.7934e-06,36.016,2.6229e-11,0.00021449,-4.7934e-06,-36.016,0.010592
9932,1.4118,0.63636,0,0.00051317,5128.2,0.00018419,2.2587,0.00014392,-300.36,-0.00051757,-5270.5,0.009887
9933,1.3235,0.72727,0,0.00051958,5192.2,0.00019326,1.7159,0.00013356,-446.84,-0.0005257,-5400.2,0.0089236
9934,1.4118,0.72727,0.05,6.1059e-06,61.016,4.6885e-06,35.228,2.1056e-11,0.00022997,-4.6885e-06,-35.228,0.010119
9935,1.4118,0.45455,0,0.00051186,5115.1,0.00017576,4.7552,0.00015768,-131.1,-0.00051387,-5176.9,0.0093048
9936,1.3235,0.54545,0,0.00051812,5177.6,0.00018355,2.6755,0.0001496,-252.36,-0.0005219,-5297.7,0.0084247
9937,1.4118,0.54545,0.05,5.8098e-06,58.058,4.4612e-06,33.52,1.599e-11,0.00014185,-4.4612e-06,-33.52,0.0095751
9938,1.4118,0.27273,0,0.00051531,5149.6,0.00017481,49.841,0.00016657,-12.084,-0.00051464,-5130.4,0.0086388
9939,1.3235,0.36364,0,0.0005201,5197.4,0.00017597,8.0661,0.00016501,-74.278,-0.00052118,-5230.1,0.0078469
9940,1.4118,0.36364,0.05,5.5665e-06,55.626,4.2744e-06,32.116,6.1051e-12,0.00010147,-4.2744e-06,-32.116,0.0089521
9941,1.3235,0.18182,0,0.00052824,5278.7,0.00018457,119.9,0.00016788,-5.494,-0.00052618,-5220.4,0.0071796
9942,1.4118,0.18182,0.05,8.8585e-06,88.524,6.8022e-06,51.109,-6.782e-13,2.7034e-05,-6.8022e-06,-51.109,0.0082397
9943,1.4118,0.090909,0,0.00050806,5077.1,0.00017437,81.12,0.00016371,1.0068,-0.00050661,-5035.5,0.0078791
9944,1.2353,5.7273,0,0.00053291,5325.4,0.00017948,31.094,0.00017258,-20.7,-0.00053271,-5320,0.006488
9945,1.1471,5.8182,0,0.00054421,5438.4,0.00018932,112.75,0.0001734,-6.8159,-0.00054231,-5384.4,0.0052286
9946,1.2353,5.8182,0.05,8.0796e-06,80.74,6.2041e-06,46.615,-2.1158e-12,-3.3905e-05,-6.2041e-06,-46.615,0.0061329
9947,1.2353,5.9091,0,0.0005278,5274.3,0.00018072,79.249,0.00017033,1.2016,-0.00052639,-5233.7,0.0058165
9948,1.2353,5.5455,0,0.00052626,5258.9,0.00018343,3.5493,0.00015726,-193.09,-0.0005292,-5350.9,0.0070642
9949,1.1471,5.6364,0,0.00053278,5324.1,0.00018218,5.3112,0.00016547,-120.19,-0.00053462,-5380.4,0.0058055
9950,1.2353,5.6364,0.05,5.0252e-06,50.217,3.8587e-06,28.993,-2.0639e-11,-0.00016065,-3.8587e-06,-28.993,0.0067563
9951,1.2353,5.3636,0,0.00052446,5240.9,0.00019259,1.9254,0.00013931,-398.41,-0.00053005,-5427.7,0.0075565
9952,1.1471,5.4545,0,0.00052791,5275.5,0.00019092,1.7271,0.00014544,-340,-0.00053283,-5436.3,0.0062932
9953,1.2353,5.4545,0.05,5.4441e-06,54.403,4.1804e-06,31.41,-2.2079e-11,-0.00016031,-4.1804e-06,-31.41,0.0072892
9954,1.2353,5.1818,0,0.00052622,5258.6,0.00020314,1.4135,0.00012167,-610.67,-0.00053391,-5536.4,0.0079763
9955,1.1471,5.2727,0,0.00052688,5265.2,0.00020143,0.99239,0.00012541,-570.25,-0.00053424,-5526.5,0.0067042
9956,1.2353,5.2727,0.05,5.8228e-06,58.188,4.4712e-06,33.595,-2.7602e-11,-0.00024676,-4.4712e-06,-33.595,0.0077435
9957,1.2353,5,0,0.00053153,5311.7,0.00021453,1.1274,0.00010527,-819.79,-0.00054068,-5673.2,0.0083339
9958,1.1471,5.0909,0,0.00052981,5294.5,0.00021284,0.58987,0.00010678,-796.24,-0.00053883,-5647.1,0.0070501
9959,1.2353,5.0909,0.05,5.9948e-06,59.906,4.6032e-06,34.587,-3.0457e-11,-0.00026158,-4.6032e-06,-34.587,0.0081303
9960,1.2353,4.8182,0,0.00054003,5396.6,0.00022637,0.96605,9.0598e-05,-1019.2,-0.00055007,-5832.9,0.0086383
9961,1.1471,4.9091,0,0.00053642,5360.5,0.00022465,0.37757,9.0338e-05,-1008.8,-0.0005464,-5793,0.0073413
9962,1.2353,4.9091,0.05,5.9679e-06,59.638,4.5826e-06,34.432,-2.9994e-11,-0.00030628,-4.5826e-06,-34.432,0.0084595
9963,1.2353,4.6364,0,0.00055107,5506.9,0.00023834,0.86443,7.7783e-05,-1205.5,-0.00056156,-6009.2,0.0088968
9964,1.1471,4.7273,0,0.00054603,5456.5,0.00023652,0.24453,7.626e-05,-1203.9,-0.00055644,-5957.8,0.0075861
9965,1.2353,4.7273,0.05,5.7652e-06,57.612,4.427e-06,33.262,-2.8812e-11,-0.00030595,-4.4269e-06,-33.262,0.0087391
9966,1.2353,4.4545,0,0.00056384,5634.5,0.00025012,0.79603,6.6765e-05,-1376.8,-0.00057447,-6194.8,0.0091156
9967,1.1471,4.5455,0,0.00055774,5573.6,0.00024816,0.15748,6.4412e-05,-1380.5,-0.00056824,-6134,0.0077917
9968,1.2353,4.5455,0.05,5.4103e-06,54.065,4.1544e-06,31.215,-3.825e-11,-0.0003337,-4.1544e-06,-31.215,0.0089761
9969,1.2353,4.2727,0,0.00057753,5771.3,0.00026142,0.74552,5.7444e-05,-1531.8,-0.00058809,-6382.1,0.0092996
9970,1.1471,4.3636,0,0.00057067,5702.8,0.00025932,0.094116,5.455e-05,-1538.5,-0.00058104,-6314.1,0.0079635
9971,1.2353,4.3636,0.05,4.9269e-06,49.235,3.7833e-06,28.426,-3.8535e-11,-0.00028779,-3.7832e-06,-28.426,0.009176
9972,1.2353,4.0909,0,0.00059135,5909.4,0.00027193,0.70815,4.9763e-05,-1668.5,-0.00060176,-6563.8,0.0094529
9973,1.1471,4.1818,0,0.00058399,5835.9,0.00026976,0.0458,4.6462e-05,-1677.7,-0.00059414,-6491,0.0081061
9974,1.2353,4.1818,0.05,4.3409e-06,43.379,3.3333e-06,25.045,-3.1464e-11,-0.00041691,-3.3333e-06,-25.045,0.0093433
9975,1.2353,3.9091,0,0.0006046,6041.8,0.00028134,0.68463,4.3696e-05,-1784.9,-0.00061482,-6732.7,0.0095787
9976,1.1471,4,0,0.00059699,5965.8,0.00027921,0.010841,4.001e-05,-1797.2,-0.00060689,-6657.8,0.0082231
9977,1.2353,4,0.05,3.6829e-06,36.803,2.828e-06,21.248,-2.5173e-11,-0.00037164,-2.828e-06,-21.248,0.0094817
9978,1.2353,3.7273,0,0.00061661,6161.8,0.00028939,0.67668,3.9189e-05,-1879.3,-0.00062665,-6882.1,0.0096794
9979,1.1471,3.8182,0,0.00060903,6086.1,0.00028745,-0.0094119,3.5094e-05,-1896.1,-0.0006187,-6808.4,0.0083174
9980,1.2353,3.8182,0.05,2.9906e-06,29.886,2.2965e-06,17.255,-3.8542e-11,-0.00032825,-2.2964e-06,-17.254,0.0095939
9981,1.2353,3.5455,0,0.00062674,6263.1,0.00029585,0.68315,3.6097e-05,-1951,-0.00063667,-7005.9,0.0097567
9982,1.1471,3.6364,0,0.00061951,6190.9,0.00029426,-0.01471,3.1582e-05,-1973.6,-0.00062901,-6937.1,0.0083911
9983,1.2353,3.6364,0.05,2.3079e-06,23.063,1.7722e-06,13.315,-2.7658e-11,-0.00029445,-1.7722e-06,-13.315,0.0096821
9984,1.2353,3.3636,0,0.00063445,6340.1,0.00030055,0.69798,3.4186e-05,-2000.7,-0.0006443,-7098.6,0.0098115
9985,1.1471,3.4545,0,0.00062793,6275,0.00029948,-0.0083777,2.9279e-05,-2030.2,-0.00063732,-7038.7,0.0084454
9986,1.2353,3.4545,0.05,1.6793e-06,16.781,1.2895e-06,9.6888,-3.2982e-11,-0.00027415,-1.2895e-06,-9.6887,0.0097476
9987,1.2353,3.1818,0,0.00063927,6388.3,0.00030341,0.71202,3.3185e-05,-2029.6,-0.00064909,-7156,0.0098442
9988,1.1471,3.2727,0,0.00063382,6333.9,0.00030301,0.00246,2.7942e-05,-2066.8,-0.00064315,-7109.1,0.0084813
9989,1.2353,3.2727,0.05,1.1511e-06,11.503,8.8389e-07,6.6412,-3.0787e-11,-0.00025041,-8.8387e-07,-6.6411,0.009791
9990,1.2353,3,0,0.00064091,6404.7,0.00030436,0.71766,3.2878e-05,-2039.1,-0.00065073,-7175.5,0.0098551
9991,1.1471,3.0909,0,0.00063686,6364.2,0.00030479,0.010229,2.7342e-05,-2084.6,-0.00064616,-7145.1,0.0084992
9992,1.2353,3.0909,0.05,8.0529e-07,8.0474,6.1837e-07,4.6461,-1.3941e-11,-0.00014189,-6.1836e-07,-4.6462,0.0098127
9993,1.2353,2.8182,0,0.00063927,6388.3,0.00030341,0.71202,3.3185e-05,-2029.6,-0.00064909,-7156,0.0098442
9994,1.1471,2.9091,0,0.00063686,6364.2,0.00030479,0.010229,2.7342e-05,-2084.6,-0.00064616,-7145.1,0.0084992
9995,1.2353,2.9091,0.05,8.0529e-07,8.0474,6.1836e-07,4.6461,1.4736e-11,0.00011287,-6.1837e-07,-4.6462,0.0098127
9996,1.2353,2.6364,0,0.00063445,6340.1,0.00030055,0.69798,3.4186e-05,-2000.7,-0.0006443,-7098.6,0.0098115
9997,1.1471,2.7273,0,0.00063382,6333.9,0.00030301,0.0024598,2.7942e-05,-2066.8,-0.00064315,-7109.1,0.0084813
9998,1.2353,2.7273,0.05,1.1511e-06,11.503,8.8387e-07,6.641,2.0986e-11,0.00021004,-8.8389e-07,-6.6412,0.009791
9999,1.2353,2.4545,0,0.00062674,6263.1,0.00029585,0.68315,3.6097e-05,-1951,-0.00063667,-7005.9,0.0097567
10000,1.1471,2.5455,0,0.00062793,6275,0.00029948,-0.0083779,2.9279e-05,-2030.2,-0.00063732,-7038.7,0.0084454
10001,1.2353,2.5455,0.05,1.6793e-06,16.781,1.2895e-06,9.6887,3.3507e-11,0.00021747,-1.2895e-06,-9.6888,0.0097476
10002,1.2353,2.2727,0,0.00061661,6161.8,0.00028939,0.67668,3.9189e-05,-1879.3,-0.00062665,-6882.1,0.0096794
10003,1.1471,2.3636,0,0.00061951,6190.9,0.00029426,-0.01471,3.1582e-05,-1973.6,-0.00062901,-6937.1,0.0083911
10004,1.2353,2.3636,0.05,2.3079e-06,23.063,1.7722e-06,13.315,2.761e-11,0.00029306,-1.7722e-06,-13.315,0.0096821
10005,1.2353,2.0909,0,0.0006046,6041.8,0.00028134,0.68463,4.3696e-05,-1784.9,-0.00061482,-6732.7,0.0095787
10006,1.1471,2.1818,0,0.00060903,6086.1,0.00028745,-0.0094121,3.5094e-05,-1896.1,-0.0006187,-6808.4,0.0083174
10007,1.2353,2.1818,0.05,2.9906e-06,29.886,2.2964e-06,17.254,2.4172e-11,0.00026528,-2.2965e-06,-17.255,0.0095939
10008,1.2353,1.9091,0,0.00059135,5909.4,0.00027193,0.70815,4.9763e-05,-1668.5,-0.00060176,-6563.8,0.0094529
10009,1.1471,2,0,0.00059699,5965.8,0.00027921,0.010841,4.001e-05,-1797.2,-0.00060689,-6657.8,0.0082231
10010,1.2353,2,0.05,3.6829e-06,36.803,2.828e-06,21.248,2.3032e-11,0.00025424,-2.828e-06,-21.248,0.0094817
10011,1.2353,1.7273,0,0.00057753,5771.3,0.00026142,0.74552,5.7444e-05,-1531.8,-0.00058809,-6382.1,0.0092996
10012,1.1471,1.8182,0,0.00058399,5835.9,0.00026976,0.0458,4.6462e-05,-1677.7,-0.00059414,-6491,0.0081061
10013,1.2353,1.8182,0.05,4.3409e-06,43.379,3.3333e-06,25.045,2.9841e-11,0.00034952,-3.3333e-06,-25.045,0.0093433
10014,1.2353,1.5455,0,0.00056384,5634.5,0.00025012,0.79603,6.6765e-05,-1376.8,-0.00057447,-6194.8,0.0091156
10015,1.1471,1.6364,0,0.00057067,5702.8,0.00025932,0.094116,5.455e-05,-1538.5,-0.00058104,-6314.1,0.0079635
10016,1.2353,1.6364,0.05,4.9269e-06,49.235,3.7832e-06,28.426,2.4635e-11,0.00027449,-3.7833e-06,-28.426,0.009176
10017,1.2353,1.3636,0,0.00055107,5506.9,0.00023834,0.86443,7.7783e-05,-1205.5,-0.00056156,-6009.2,0.0088968
10018,1.1471,1.4545,0,0.00055774,5573.6,0.00024816,0.15748,6.4412e-05,-1380.5,-0.00056824,-6134,0.0077917
10019,1.2353,1.4545,0.05,5.4103e-06,54.065,4.1544e-06,31.215,2.6902e-11,0.00027731,-4.1544e-06,-31.215,0.0089761
10020,1.2353,1.1818,0,0.00054003,5396.6,0.00022637,0.96605,9.0598e-05,-1019.2,-0.00055007,-5832.9,0.0086383
10021,1.1471,1.2727,0,0.00054603,5456.5,0.00023652,0.24453,7.626e-05,-1203.9,-0.00055644,-5957.8,0.0075861
10022,1.2353,1.2727,0.05,5.7652e-06,57.612,4.4269e-06,33.262,2.8261e-11,0.00029147,-4.427e-06,-33.262,0.0087391
10023,1.2353,1,0,0.00053153,5311.7,0.00021453,1.1274,0.00010527,-819.79,-0.00054068,-5673.2,0.0083339
10024,1.1471,1.0909,0,0.00053642,5360.5,0.00022465,0.37757,9.0338e-05,-1008.8,-0.0005464,-5793,0.0073413
10025,1.2353,1.0909,0.05,5.9679e-06,59.638,4.5826e-06,34.432,2.8245e-11,0.00030074,-4.5826e-06,-34.432,0.0084595
10026,1.2353,0.81818,0,0.00052622,5258.6,0.00020314,1.4135,0.00012167,-610.67,-0.00053391,-5536.4,0.0079763
10027,1.1471,0.90909,0,0.00052981,5294.5,0.00021284,0.58987,0.00010678,-796.24,-0.00053883,-5647.1,0.0070501
10028,1.2353,0.90909,0.05,5.9948e-06,59.906,4.6032e-06,34.587,2.7281e-11,0.00024685,-4.6032e-06,-34.587,0.0081303
10029,1.2353,0.63636,0,0.00052446,5240.9,0.00019259,1.9254,0.00013931,-398.41,-0.00053005,-5427.7,0.0075565
10030,1.1471,0.72727,0,0.00052688,5265.2,0.00020143,0.99239,0.00012541,-570.25,-0.00053424,-5526.5,0.0067042
10031,1.2353,0.72727,0.05,5.8228e-06,58.188,4.4712e-06,33.595,2.7602e-11,0.00023939,-4.4712e-06,-33.595,0.0077435
10032,1.2353,0.45455,0,0.00052626,5258.9,0.00018343,3.5493,0.00015726,-193.09,-0.0005292,-5350.9,0.0070642
10033,1.1471,0.54545,0,0.00052791,5275.5,0.00019092,1.7271,0.00014544,-340,-0.00053283,-5436.3,0.0062932
10034,1.2353,0.54545,0.05,5.4441e-06,54.403,4.1804e-06,31.41,1.997e-11,0.00014551,-4.1804e-06,-31.41,0.0072892
10035,1.2353,0.27273,0,0.00053291,5325.4,0.00017948,31.093,0.00017258,-20.7,-0.00053271,-5320,0.006488
10036,1.1471,0.36364,0,0.00053278,5324.1,0.00018218,5.3112,0.00016547,-120.19,-0.00053462,-5380.4,0.0058055
10037,1.2353,0.36364,0.05,5.0252e-06,50.217,3.8587e-06,28.993,2.0639e-11,0.00011043,-3.8587e-06,-28.993,0.0067563
10038,1.1471,0.18182,0,0.00054421,5438.4,0.00018932,112.75,0.0001734,-6.8159,-0.00054231,-5384.4,0.0052286
10039,1.2353,0.18182,0.05,8.0796e-06,80.74,6.2041e-06,46.615,2.1158e-12,2.357e-05,-6.2041e-06,-46.615,0.0061329
10040,1.2353,0.090909,0,0.0005278,5274.3,0.00018072,79.249,0.00017033,1.2016,-0.00052639,-5233.7,0.0058165
10041,1.0588,5.7273,0,0.00054391,5435.3,0.00018297,19.02,0.00017533,-38.429,-0.00054421,-5444.8,0.0046487
10042,0.97059,5.8182,0,0.00055326,5528.8,0.00019209,109.48,0.00017646,-7.9671,-0.00055144,-5477.1,0.0035946
10043,1.0588,5.8182,0.05,7.3806e-06,73.755,5.6674e-06,42.582,-4.6321e-13,-6.5738e-05,-5.6674e-06,-42.582,0.0043396
10044,1.0588,5.9091,0,0.0005407,5403.3,0.00018505,80.062,0.00017454,1.0905,-0.00053928,-5362.3,0.0040691
10045,1.0588,5.5455,0,0.00053427,5339,0.00018948,2.0964,0.00015384,-265.71,-0.00053825,-5465.8,0.0051336
10046,0.97059,5.6364,0,0.00053853,5381.6,0.00018676,5.4253,0.00016274,-175.07,-0.00054119,-5464.1,0.004078
10047,1.0588,5.6364,0.05,4.8663e-06,48.63,3.7367e-06,28.076,-2.7214e-11,-0.00024152,-3.7367e-06,-28.076,0.0048712
10048,1.0588,5.3636,0,0.00053019,5298.2,0.00019974,0.62093,0.00013156,-511.66,-0.00053702,-5535.2,0.0055371
10049,0.97059,5.4545,0,0.00053151,5311.5,0.00019717,2.8825,0.00013769,-444.06,-0.0005376,-5517.9,0.0044751
10050,1.0588,5.4545,0.05,5.4373e-06,54.335,4.1751e-06,31.37,-2.4659e-11,-0.00020709,-4.1751e-06,-31.37,0.0053138
10051,1.0588,5.1818,0,0.00053037,5300,0.00021113,0.11892,0.00011053,-755.75,-0.00053916,-5637.3,0.0058724
10052,0.97059,5.2727,0,0.00052939,5290.2,0.00020903,2.4462,0.00011377,-713.29,-0.00053783,-5609.2,0.0048003
10053,1.0588,5.2727,0.05,5.8272e-06,58.232,4.4746e-06,33.62,-2.6429e-11,-0.00026007,-4.4746e-06,-33.62,0.0056811
10054,1.0588,5,0,0.00053466,5342.9,0.00022296,-0.17835,9.1863e-05,-985.18,-0.00054456,-5767,0.006151
10055,0.97059,5.0909,0,0.00053209,5317.2,0.00022134,2.2003,9.2738e-05,-964.06,-0.00054182,-5731.9,0.0050667
10056,1.0588,5.0909,0.05,5.97e-06,59.659,4.5842e-06,34.444,-3.0667e-11,-0.00027556,-4.5842e-06,-34.444,0.0059859
10057,1.0588,4.8182,0,0.00054243,5420.6,0.0002348,-0.35151,7.6025e-05,-1193.3,-0.00055279,-5918,0.0063826
10058,0.97059,4.9091,0,0.00053889,5385.2,0.00023354,2.0939,7.5226e-05,-1187.4,-0.0005491,-5878.4,0.0052854
10059,1.0588,4.9091,0.05,5.9065e-06,59.024,4.5355e-06,34.078,-2.9008e-11,-0.00025734,-4.5355e-06,-34.078,0.006239
10060,1.0588,4.6364,0,0.00055275,5523.7,0.00024635,-0.4661,6.2927e-05,-1378.6,-0.00056316,-6082.8,0.0065752
10061,0.97059,4.7273,0,0.00054867,5482.9,0.00024531,2.0306,6.1091e-05,-1382.1,-0.00055887,-6040.3,0.0054651
10062,1.0588,4.7273,0.05,5.6737e-06,56.698,4.3567e-06,32.735,-2.7393e-11,-0.0002853,-4.3567e-06,-32.735,0.0064492
10063,1.0588,4.4545,0,0.00056465,5642.6,0.00025737,-0.54696,5.2243e-05,-1541.8,-0.00057486,-6253.6,0.0067349
10064,0.97059,4.5455,0,0.00056027,5598.9,0.00025644,1.9897,4.9836e-05,-1550.4,-0.00057022,-6209.2,0.0056128
10065,1.0588,4.5455,0.05,5.3003e-06,52.967,4.07e-06,30.58,-2.4064e-11,-0.00026657,-4.07e-06,-30.58,0.0066237
10066,1.0588,4.2727,0,0.00057722,5768.2,0.00026767,-0.60803,4.3612e-05,-1684.1,-0.00058714,-6423.3,0.0068668
10067,0.97059,4.3636,0,0.00057271,5723.1,0.00026679,1.9569,4.0913e-05,-1695.2,-0.0005823,-6377.8,0.0057338
10068,1.0588,4.3636,0.05,4.8121e-06,48.087,3.6951e-06,27.763,-2.2287e-11,-0.00028398,-3.6951e-06,-27.763,0.006768
10069,1.0588,4.0909,0,0.00058971,5893,0.00027704,-0.65409,3.6743e-05,-1806.2,-0.00059931,-6585.2,0.0069747
10070,0.97059,4.1818,0,0.00058517,5847.7,0.00027621,1.9293,3.3877e-05,-1818.9,-0.0005944,-6539.5,0.0058324
10071,1.0588,4.1818,0.05,4.2348e-06,42.319,3.2518e-06,24.433,-2.4446e-11,-0.00022213,-3.2518e-06,-24.433,0.0068866
10072,1.0588,3.9091,0,0.00060147,6010.6,0.00028531,-0.68584,3.1422e-05,-1908.3,-0.00061078,-6733.6,0.0070619
10073,0.97059,4,0,0.00059703,5966.2,0.00028458,1.9075,2.8409e-05,-1922.9,-0.00060594,-6689.1,0.005912
10074,1.0588,4,0.05,3.5957e-06,35.932,2.7611e-06,20.745,-2.701e-11,-0.0002168,-2.761e-06,-20.745,0.0069831
10075,1.0588,3.7273,0,0.00061197,6115.5,0.00029231,-0.7032,2.7474e-05,-1990.6,-0.00062104,-6863.3,0.0071307
10076,0.97059,3.8182,0,0.00060778,6073.6,0.00029177,1.8935,2.4285e-05,-2007.9,-0.00061641,-6821.8,0.0059751
10077,1.0588,3.8182,0.05,2.9231e-06,29.211,2.2446e-06,16.865,-2.5607e-11,-0.00023559,-2.2446e-06,-16.865,0.0070602
10078,1.0588,3.5455,0,0.00062071,6202.8,0.00029789,-0.70815,2.472e-05,-2053.2,-0.00062962,-6969.6,0.0071828
10079,0.97059,3.6364,0,0.00061697,6165.4,0.00029766,1.8883,2.1321e-05,-2074.4,-0.0006254,-6933.7,0.0060237
10080,1.0588,3.6364,0.05,2.2447e-06,22.432,1.7237e-06,12.951,-1.3294e-11,-0.00017416,-1.7237e-06,-12.951,0.0071199
10081,1.0588,3.3636,0,0.00062729,6268.5,0.00030194,-0.70525,2.2963e-05,-2096.8,-0.00063609,-7048.7,0.0072194
10082,0.97059,3.4545,0,0.00062424,6238.1,0.00030215,1.89,1.9335e-05,-2123.1,-0.00063254,-7021,0.0060591
10083,1.0588,3.4545,0.05,1.5834e-06,15.823,1.2159e-06,9.1356,-6.5961e-12,-0.00012478,-1.2159e-06,-9.1357,0.0071637
10084,1.0588,3.1818,0,0.00063138,6309.4,0.0003044,-0.70025,2.2007e-05,-2122.5,-0.00064013,-7097.5,0.0072411
10085,0.97059,3.2727,0,0.00062928,6288.4,0.00030519,1.8949,1.8144e-05,-2154.8,-0.0006375,-7081.1,0.0060823
10086,1.0588,3.2727,0.05,9.5484e-07,9.5418,7.332e-07,5.509,7.3767e-12,-2.5303e-06,-7.332e-07,-5.509,0.0071925
10087,1.0588,3,0,0.00063276,6323.3,0.00030522,-0.69796,2.1706e-05,-2130.9,-0.0006415,-7114,0.0072484
10088,0.97059,3.0909,0,0.00063186,6314.2,0.00030671,1.8988,1.7595e-05,-2170.4,-0.00064005,-7111.7,0.0060938
10089,1.0588,3.0909,0.05,3.9059e-07,3.9032,2.9991e-07,2.2534,1.1602e-11,7.9989e-05,-2.9994e-07,-2.2536,0.0072068
10090,1.0588,2.8182,0,0.00063138,6309.4,0.0003044,-0.70025,2.2007e-05,-2122.5,-0.00064013,-7097.5,0.0072411
10091,0.97059,2.9091,0,0.00063186,6314.2,0.00030671,1.8988,1.7595e-05,-2170.4,-0.00064005,-7111.7,0.0060938
10092,1.0588,2.9091,0.05,3.9059e-07,3.9032,2.9993e-07,2.2536,-1.8631e-11,-0.00014866,-2.9992e-07,-2.2535,0.0072068
10093,1.0588,2.6364,0,0.00062729,6268.5,0.00030194,-0.70525,2.2963e-05,-2096.8,-0.00063609,-7048.7,0.0072194
10094,0.97059,2.7273,0,0.00062928,6288.4,0.00030519,1.8949,1.8144e-05,-2154.8,-0.0006375,-7081.1,0.0060823
10095,1.0588,2.7273,0.05,9.5484e-07,9.5418,7.332e-07,5.509,-1.3496e-11,-0.00010361,-7.332e-07,-5.509,0.0071925
10096,1.0588,2.4545,0,0.00062071,6202.8,0.00029789,-0.70816,2.472e-05,-2053.2,-0.00062962,-6969.6,0.0071828
10097,0.97059,2.5455,0,0.00062424,6238.1,0.00030215,1.89,1.9335e-05,-2123.1,-0.00063254,-7021,0.0060591
10098,1.0588,2.5455,0.05,1.5834e-06,15.823,1.2159e-06,9.1357,-6.1727e-12,0.00011917,-1.2159e-06,-9.1356,0.0071637
10099,1.0588,2.2727,0,0.00061197,6115.5,0.00029231,-0.7032,2.7474e-05,-1990.6,-0.00062104,-6863.3,0.0071307
10100,0.97059,2.3636,0,0.00061697,6165.4,0.00029766,1.8883,2.1321e-05,-2074.4,-0.0006254,-6933.7,0.0060237
10101,1.0588,2.3636,0.05,2.2447e-06,22.432,1.7237e-06,12.951,1.2209e-11,6.6677e-05,-1.7237e-06,-12.951,0.0071199
10102,1.0588,2.0909,0,0.00060147,6010.6,0.00028531,-0.68584,3.1422e-05,-1908.3,-0.00061078,-6733.6,0.0070619
10103,0.97059,2.1818,0,0.00060778,6073.6,0.00029177,1.8935,2.4285e-05,-2007.9,-0.00061641,-6821.8,0.0059751
10104,1.0588,2.1818,0.05,2.9231e-06,29.211,2.2446e-06,16.865,1.3811e-11,0.00018247,-2.2446e-06,-16.865,0.0070602
10105,1.0588,1.9091,0,0.00058971,5893,0.00027704,-0.65409,3.6743e-05,-1806.2,-0.00059931,-6585.2,0.0069747
10106,0.97059,2,0,0.00059703,5966.2,0.00028458,1.9075,2.8409e-05,-1922.9,-0.00060594,-6689.1,0.005912
10107,1.0588,2,0.05,3.5957e-06,35.932,2.761e-06,20.745,2.0638e-11,0.0001997,-2.7611e-06,-20.745,0.0069831
10108,1.0588,1.7273,0,0.00057722,5768.2,0.00026767,-0.60803,4.3612e-05,-1684.1,-0.00058714,-6423.3,0.0068668
10109,0.97059,1.8182,0,0.00058517,5847.7,0.00027621,1.9293,3.3877e-05,-1818.9,-0.0005944,-6539.5,0.0058324
10110,1.0588,1.8182,0.05,4.2348e-06,42.319,3.2518e-06,24.433,2.2484e-11,0.00020794,-3.2518e-06,-24.433,0.0068866
10111,1.0588,1.5455,0,0.00056465,5642.6,0.00025737,-0.54696,5.2243e-05,-1541.8,-0.00057486,-6253.6,0.0067349
10112,0.97059,1.6364,0,0.00057271,5723.1,0.00026679,1.9569,4.0913e-05,-1695.2,-0.0005823,-6377.8,0.0057338
10113,1.0588,1.6364,0.05,4.8121e-06,48.087,3.6951e-06,27.763,2.1893e-11,0.0002315,-3.6951e-06,-27.763,0.006768
10114,1.0588,1.3636,0,0.00055275,5523.7,0.00024635,-0.4661,6.2927e-05,-1378.6,-0.00056316,-6082.8,0.0065752
10115,0.97059,1.4545,0,0.00056027,5598.9,0.00025644,1.9897,4.9836e-05,-1550.4,-0.00057022,-6209.2,0.0056128
10116,1.0588,1.4545,0.05,5.3003e-06,52.967,4.07e-06,30.58,2.3682e-11,0.00022021,-4.07e-06,-30.58,0.0066237
10117,1.0588,1.1818,0,0.00054243,5420.6,0.0002348,-0.35151,7.6025e-05,-1193.3,-0.00055279,-5918,0.0063826
10118,0.97059,1.2727,0,0.00054867,5482.9,0.00024531,2.0306,6.1091e-05,-1382.1,-0.00055887,-6040.3,0.0054651
10119,1.0588,1.2727,0.05,5.6737e-06,56.698,4.3567e-06,32.735,2.5265e-11,0.0002725,-4.3567e-06,-32.735,0.0064492
10120,1.0588,1,0,0.00053466,5342.9,0.00022296,-0.17835,9.1863e-05,-985.18,-0.00054456,-5767,0.006151
10121,0.97059,1.0909,0,0.00053889,5385.2,0.00023354,2.0939,7.5226e-05,-1187.4,-0.0005491,-5878.4,0.0052854
10122,1.0588,1.0909,0.05,5.9065e-06,59.024,4.5355e-06,34.078,2.7594e-11,0.00023772,-4.5355e-06,-34.078,0.006239
10123,1.0588,0.81818,0,0.00053037,5300,0.00021113,0.11892,0.00011053,-755.75,-0.00053916,-5637.3,0.0058724
10124,0.97059,0.90909,0,0.00053209,5317.2,0.00022134,2.2003,9.2737e-05,-964.06,-0.00054182,-5731.9,0.0050667
10125,1.0588,0.90909,0.05,5.97e-06,59.659,4.5842e-06,34.444,2.586e-11,0.00025455,-4.5842e-06,-34.444,0.0059859
10126,1.0588,0.63636,0,0.00053019,5298.2,0.00019974,0.62093,0.00013156,-511.66,-0.00053702,-5535.2,0.0055371
10127,0.97059,0.72727,0,0.00052939,5290.2,0.00020903,2.4462,0.00011377,-713.29,-0.00053783,-5609.2,0.0048003
10128,1.0588,0.72727,0.05,5.8272e-06,58.232,4.4746e-06,33.62,2.6889e-11,0.00026007,-4.4746e-06,-33.62,0.0056811
10129,1.0588,0.45455,0,0.00053427,5339,0.00018948,2.0964,0.00015384,-265.71,-0.00053825,-5465.8,0.0051336
10130,0.97059,0.54545,0,0.00053151,5311.5,0.00019717,2.8825,0.00013769,-444.06,-0.0005376,-5517.9,0.0044751
10131,1.0588,0.54545,0.05,5.4373e-06,54.335,4.1751e-06,31.37,2.3187e-11,0.00019474,-4.1751e-06,-31.37,0.0053138
10132,1.0588,0.27273,0,0.00054391,5435.3,0.00018297,19.02,0.00017533,-38.429,-0.00054421,-5444.8,0.0046487
10133,0.97059,0.36364,0,0.00053853,5381.6,0.00018676,5.4253,0.00016274,-175.07,-0.00054119,-5464.1,0.004078
10134,1.0588,0.36364,0.05,4.8663e-06,48.63,3.7367e-06,28.076,2.7214e-11,0.00022894,-3.7367e-06,-28.076,0.0048712
10135,0.97059,0.18182,0,0.00055326,5528.8,0.00019209,109.48,0.00017646,-7.9671,-0.00055144,-5477.1,0.0035946
10136,1.0588,0.18182,0.05,7.3806e-06,73.755,5.6674e-06,42.582,4.6321e-13,6.4251e-05,-5.6674e-06,-42.582,0.0043396
10137,1.0588,0.090909,0,0.0005407,5403.3,0.00018505,80.062,0.00017454,1.0905,-0.00053928,-5362.3,0.0040691
10138,0.88235,5.7273,0,0.00054762,5472.4,0.00018517,15.385,0.00017458,-64.165,-0.00054841,-5496.4,0.0031269
10139,0.79412,5.8182,0,0.00055375,5533.7,0.00019243,109.2,0.00017627,-12.233,-0.000552,-5484.2,0.0022812
10140,0.88235,5.8182,0.05,6.7639e-06,67.592,5.1938e-06,39.024,-1.0309e-11,-8.5536e-05,-5.1938e-06,-39.024,0.0028662
10141,0.88235,5.9091,0,0.00054589,5455.2,0.00018715,85.269,0.00017608,2.0638,-0.00054436,-5411,0.0026438
10142,0.88235,5.5455,0,0.00053553,5351.6,0.00019432,5.214,0.00014672,-352.44,-0.00054054,-5516.2,0.0035184
10143,0.79412,5.6364,0,0.00053566,5352.9,0.00018893,0.88443,0.00015595,-246.92,-0.00053942,-5471.6,0.0026675
10144,0.88235,5.6364,0.05,5.2861e-06,52.824,4.0591e-06,30.498,-3.12e-11,-0.0001995,-4.0591e-06,-30.498,0.0033026
10145,0.88235,5.3636,0,0.00053048,5301.1,0.00020643,4.5497,0.00011988,-645.79,-0.00053838,-5591.7,0.003834
10146,0.79412,5.4545,0,0.00052768,5273.2,0.00020177,-2.7641,0.00012518,-578.24,-0.0005352,-5540.1,0.0029735
10147,0.88235,5.4545,0.05,5.8803e-06,58.762,4.5153e-06,33.926,-2.3461e-11,-0.0002742,-4.5153e-06,-33.926,0.003654
10148,0.88235,5.1818,0,0.00053094,5305.7,0.00021924,4.4752,9.594e-05,-921.92,-0.00054044,-5703.4,0.0040883
10149,0.79412,5.2727,0,0.00052659,5262.3,0.00021566,-3.8096,9.778e-05,-889.53,-0.00053616,-5652.7,0.0032155
10150,0.88235,5.2727,0.05,6.1415e-06,61.372,4.7159e-06,35.433,-3.3742e-11,-0.00027741,-4.7159e-06,-35.433,0.0039365
10151,0.88235,5,0,0.00053624,5358.7,0.00023192,4.4509,7.6062e-05,-1166.6,-0.00054632,-5842.9,0.0042939
10152,0.79412,5.0909,0,0.00053143,5310.7,0.00022931,-4.4939,7.554e-05,-1159.8,-0.00054172,-5797.7,0.0034077
10153,0.88235,5.0909,0.05,6.162e-06,61.578,4.7317e-06,35.552,-3.1887e-11,-0.0003191,-4.7317e-06,-35.552,0.0041641
10154,0.88235,4.8182,0,0.00054513,5447.5,0.00024405,4.4663,6.0281e-05,-1376.3,-0.00055517,-6000.6,0.0044606
10155,0.79412,4.9091,0,0.00054049,5401.2,0.00024215,-4.9034,5.8417e-05,-1385.4,-0.00055074,-5962.4,0.003561
10156,0.88235,4.9091,0.05,6.0116e-06,60.074,4.6162e-06,34.684,-2.8293e-11,-0.00023334,-4.6161e-06,-34.684,0.0043481
10157,0.88235,4.6364,0,0.00055624,5558.5,0.00025541,4.4817,4.8017e-05,-1553.8,-0.00056595,-6166.9,0.0045961
10158,0.79412,4.7273,0,0.00055202,5516.4,0.00025398,-5.1909,4.5531e-05,-1571.4,-0.00056189,-6135.3,0.003684
10159,0.88235,4.7273,0.05,5.7245e-06,57.205,4.3957e-06,33.028,-2.5623e-11,-0.00023688,-4.3957e-06,-33.028,0.0044973
10160,0.88235,4.4545,0,0.00056841,5680.1,0.00026586,4.491,3.8541e-05,-1703.5,-0.0005777,-6333.7,0.0047061
10161,0.79412,4.5455,0,0.00056462,5642.4,0.00026471,-5.3984,3.5863e-05,-1724.9,-0.00057404,-6307.4,0.0037829
10162,0.88235,4.5455,0.05,5.3234e-06,53.197,4.0877e-06,30.713,-2.0754e-11,-0.00024097,-4.0877e-06,-30.713,0.0046184
10163,0.88235,4.2727,0,0.00058074,5803.4,0.00027533,4.4925,3.122e-05,-1829.7,-0.00058961,-6494.4,0.0047952
10164,0.79412,4.3636,0,0.00057734,5769.4,0.00027434,-5.5543,2.856e-05,-1852.3,-0.00058632,-6472.3,0.0038623
10165,0.88235,4.3636,0.05,4.8306e-06,48.273,3.7093e-06,27.87,-2.3881e-11,-0.00020534,-3.7093e-06,-27.87,0.0047165
10166,0.88235,4.0909,0,0.00059257,5921.6,0.00028375,4.4894,2.5579e-05,-1935.3,-0.00060107,-6643.7,0.0048668
10167,0.79412,4.1818,0,0.0005895,5891,0.00028287,-5.6713,2.3007e-05,-1958.2,-0.00059811,-6625,0.0039257
10168,0.88235,4.1818,0.05,4.2707e-06,42.678,3.2794e-06,24.64,-1.9899e-11,-0.00020209,-3.2794e-06,-24.64,0.0047957
10169,0.88235,3.9091,0,0.00060339,6029.7,0.00029104,4.4854,2.1295e-05,-2022.3,-0.00061158,-6777.5,0.0049237
10170,0.79412,4,0,0.00060065,6002.4,0.00029028,-5.7573,1.8794e-05,-2045.6,-0.00060894,-6762.2,0.003976
10171,0.88235,4,0.05,3.6697e-06,36.671,2.8178e-06,21.172,-8.3922e-12,-0.00010951,-2.8178e-06,-21.172,0.0048589
10172,0.88235,3.7273,0,0.00061281,6123.9,0.00029712,4.4837,1.8135e-05,-2091.7,-0.00062077,-6892.2,0.0049679
10173,0.79412,3.8182,0,0.00061044,6100.2,0.00029653,-5.8174,1.5652e-05,-2116.2,-0.0006185,-6881,0.0040151
10174,0.88235,3.8182,0.05,3.0543e-06,30.522,2.3453e-06,17.622,-4.1291e-12,-0.00010748,-2.3453e-06,-17.622,0.0049086
10175,0.88235,3.5455,0,0.00062051,6200.8,0.00030193,4.4853,1.5917e-05,-2144.5,-0.00062831,-6984.9,0.0050009
10176,0.79412,3.6364,0,0.00061863,6182,0.00030159,-5.8564,1.3391e-05,-2171.3,-0.00062651,-6979.2,0.0040449
10177,0.88235,3.6364,0.05,2.4521e-06,24.504,1.8829e-06,14.147,8.7068e-14,-4.1025e-05,-1.8829e-06,-14.148,0.0049466
10178,0.88235,3.3636,0,0.00062622,6257.9,0.0003054,4.4893,1.4478e-05,-2181.4,-0.00063392,-7053.2,0.0050238
10179,0.79412,3.4545,0,0.00062498,6245.5,0.00030541,-5.8791,1.186e-05,-2211.5,-0.00063275,-7054.9,0.0040663
10180,0.88235,3.4545,0.05,1.8936e-06,18.923,1.454e-06,10.925,1.425e-11,3.6298e-05,-1.454e-06,-10.925,0.0049741
10181,0.88235,3.1818,0,0.00062974,6293,0.0003075,4.4932,1.3681e-05,-2203.1,-0.00063738,-7094.9,0.0050373
10182,0.79412,3.2727,0,0.00062932,6288.9,0.00030798,-5.8905,1.0927e-05,-2237.8,-0.00063703,-7106.3,0.0040802
10183,0.88235,3.2727,0.05,1.4227e-06,14.217,1.0924e-06,8.208,1.1493e-11,7.6964e-05,-1.0924e-06,-8.2082,0.004992
10184,0.88235,3,0,0.00063093,6304.9,0.0003082,4.4948,1.3427e-05,-2210.3,-0.00063855,-7109,0.0050418
10185,0.79412,3.0909,0,0.00063153,6310.9,0.00030927,-5.895,1.049e-05,-2250.8,-0.00063921,-7132.4,0.004087
10186,0.88235,3.0909,0.05,1.1255e-06,11.248,8.6426e-07,6.4937,9.2029e-12,4.4526e-05,-8.6427e-07,-6.4938,0.0050008
10187,0.88235,2.8182,0,0.00062974,6293,0.0003075,4.4932,1.3681e-05,-2203.1,-0.00063738,-7094.9,0.0050373
10188,0.79412,2.9091,0,0.00063153,6310.9,0.00030927,-5.895,1.049e-05,-2250.8,-0.00063921,-7132.4,0.004087
10189,0.88235,2.9091,0.05,1.1255e-06,11.248,8.6427e-07,6.4938,-7.5955e-12,-4.4939e-05,-8.6426e-07,-6.4937,0.0050008
10190,0.88235,2.6364,0,0.00062622,6257.9,0.0003054,4.4893,1.4478e-05,-2181.4,-0.00063392,-7053.2,0.0050238
10191,0.79412,2.7273,0,0.00062932,6288.9,0.00030798,-5.8905,1.0927e-05,-2237.8,-0.00063703,-7106.3,0.0040802
10192,0.88235,2.7273,0.05,1.4227e-06,14.217,1.0924e-06,8.2082,-1.447e-11,-8.0382e-05,-1.0924e-06,-8.208,0.004992
10193,0.88235,2.4545,0,0.00062051,6200.8,0.00030193,4.4853,1.5917e-05,-2144.5,-0.00062831,-6984.9,0.0050009
10194,0.79412,2.5455,0,0.00062498,6245.5,0.00030541,-5.8791,1.186e-05,-2211.5,-0.00063275,-7054.9,0.0040663
10195,0.88235,2.5455,0.05,1.8936e-06,18.923,1.454e-06,10.925,-1.4027e-11,-9.6883e-05,-1.454e-06,-10.925,0.0049741
10196,0.88235,2.2727,0,0.00061281,6123.9,0.00029712,4.4837,1.8135e-05,-2091.7,-0.00062077,-6892.2,0.0049679
10197,0.79412,2.3636,0,0.00061862,6182,0.00030159,-5.8564,1.3391e-05,-2171.3,-0.00062651,-6979.2,0.0040449
10198,0.88235,2.3636,0.05,2.4521e-06,24.504,1.8829e-06,14.148,-3.8683e-12,2.9581e-05,-1.8829e-06,-14.147,0.0049466
10199,0.88235,2.0909,0,0.00060339,6029.7,0.00029104,4.4854,2.1295e-05,-2022.3,-0.00061158,-6777.5,0.0049237
10200,0.79412,2.1818,0,0.00061044,6100.2,0.00029653,-5.8174,1.5652e-05,-2116.2,-0.0006185,-6881,0.0040151
10201,0.88235,2.1818,0.05,3.0543e-06,30.522,2.3453e-06,17.622,2.3994e-13,6.3846e-05,-2.3453e-06,-17.622,0.0049086
10202,0.88235,1.9091,0,0.00059257,5921.6,0.00028375,4.4894,2.5579e-05,-1935.3,-0.00060107,-6643.7,0.0048668
10203,0.79412,2,0,0.00060065,6002.4,0.00029028,-5.7573,1.8794e-05,-2045.6,-0.00060894,-6762.2,0.003976
10204,0.88235,2,0.05,3.6697e-06,36.671,2.8178e-06,21.172,6.5476e-12,9.8096e-05,-2.8178e-06,-21.172,0.0048589
10205,0.88235,1.7273,0,0.00058074,5803.4,0.00027533,4.4925,3.122e-05,-1829.7,-0.00058961,-6494.4,0.0047952
10206,0.79412,1.8182,0,0.0005895,5891,0.00028287,-5.6713,2.3007e-05,-1958.2,-0.00059811,-6625,0.0039257
10207,0.88235,1.8182,0.05,4.2707e-06,42.678,3.2794e-06,24.64,1.1482e-11,0.00019067,-3.2794e-06,-24.64,0.0047957
10208,0.88235,1.5455,0,0.00056841,5680.1,0.00026586,4.491,3.8541e-05,-1703.5,-0.0005777,-6333.7,0.0047061
10209,0.79412,1.6364,0,0.00057734,5769.4,0.00027434,-5.5543,2.856e-05,-1852.3,-0.00058632,-6472.3,0.0038623
10210,0.88235,1.6364,0.05,4.8306e-06,48.273,3.7093e-06,27.87,1.5812e-11,0.00018315,-3.7093e-06,-27.87,0.0047165
10211,0.88235,1.3636,0,0.00055624,5558.5,0.00025541,4.4817,4.8017e-05,-1553.8,-0.00056595,-6166.9,0.0045961
10212,0.79412,1.4545,0,0.00056462,5642.4,0.00026471,-5.3984,3.5863e-05,-1724.9,-0.00057404,-6307.4,0.0037829
10213,0.88235,1.4545,0.05,5.3234e-06,53.197,4.0877e-06,30.713,1.7143e-11,0.00022583,-4.0877e-06,-30.713,0.0046184
10214,0.88235,1.1818,0,0.00054513,5447.5,0.00024405,4.4663,6.0281e-05,-1376.3,-0.00055517,-6000.6,0.0044606
10215,0.79412,1.2727,0,0.00055202,5516.4,0.00025398,-5.1909,4.5531e-05,-1571.4,-0.00056189,-6135.3,0.003684
10216,0.88235,1.2727,0.05,5.7245e-06,57.205,4.3957e-06,33.028,2.1345e-11,0.00020827,-4.3957e-06,-33.028,0.0044973
10217,0.88235,1,0,0.00053624,5358.7,0.00023192,4.4509,7.6062e-05,-1166.6,-0.00054632,-5842.9,0.0042939
10218,0.79412,1.0909,0,0.00054049,5401.2,0.00024215,-4.9034,5.8417e-05,-1385.4,-0.00055074,-5962.4,0.003561
10219,0.88235,1.0909,0.05,6.0116e-06,60.074,4.6161e-06,34.684,2.0929e-11,0.00021884,-4.6162e-06,-34.684,0.0043481
10220,0.88235,0.81818,0,0.00053094,5305.7,0.00021924,4.4752,9.594e-05,-921.92,-0.00054044,-5703.4,0.0040883
10221,0.79412,0.90909,0,0.00053143,5310.7,0.00022931,-4.4939,7.554e-05,-1159.8,-0.00054172,-5797.7,0.0034077
10222,0.88235,0.90909,0.05,6.162e-06,61.578,4.7317e-06,35.552,2.8925e-11,0.00024723,-4.7317e-06,-35.552,0.0041641
10223,0.88235,0.63636,0,0.00053048,5301.1,0.00020643,4.5497,0.00011988,-645.79,-0.00053838,-5591.7,0.003834
10224,0.79412,0.72727,0,0.00052659,5262.3,0.00021566,-3.8096,9.778e-05,-889.53,-0.00053616,-5652.7,0.0032155
10225,0.88235,0.72727,0.05,6.1415e-06,61.372,4.7159e-06,35.433,2.632e-11,0.00020948,-4.7159e-06,-35.433,0.0039365
10226,0.88235,0.45455,0,0.00053553,5351.6,0.00019432,5.214,0.00014672,-352.44,-0.00054054,-5516.2,0.0035184
10227,0.79412,0.54545,0,0.00052768,5273.2,0.00020177,-2.7641,0.00012518,-578.24,-0.0005352,-5540.1,0.0029735
10228,0.88235,0.54545,0.05,5.8803e-06,58.762,4.5153e-06,33.926,1.6752e-11,0.00026602,-4.5153e-06,-33.926,0.003654
10229,0.88235,0.27273,0,0.00054762,5472.4,0.00018517,15.385,0.00017458,-64.165,-0.00054841,-5496.4,0.0031269
10230,0.79412,0.36364,0,0.00053566,5352.9,0.00018893,0.88443,0.00015595,-246.92,-0.00053942,-5471.6,0.0026675
10231,0.88235,0.36364,0.05,5.2861e-06,52.824,4.0591e-06,30.498,2.9876e-11,0.00013495,-4.0591e-06,-30.498,0.0033026
10232,0.79412,0.18182,0,0.00055375,5533.7,0.00019243,109.2,0.00017627,-12.233,-0.000552,-5484.2,0.0022812
10233,0.88235,0.18182,0.05,6.7639e-06,67.592,5.1938e-06,39.024,9.6547e-12,8.5536e-05,-5.1938e-06,-39.024,0.0028662
10234,0.88235,0.090909,0,0.00054589,5455.2,0.00018715,85.269,0.00017608,2.0638,-0.00054436,-5411,0.0026438
10235,0.70588,5.7273,0,0.00054137,5410,0.00018429,5.2162,0.00016954,-105.59,-0.00054299,-5459.3,0.0019231
10236,0.61765,5.8182,0,0.00054285,5424.7,0.00018914,115.37,0.00017272,-8.0404,-0.00054092,-5370,0.0012859
10237,0.70588,5.8182,0.05,6.4344e-06,64.3,4.9408e-06,37.123,-1.2716e-11,-0.00015351,-4.9408e-06,-37.123,0.0017135
10238,0.70588,5.9091,0,0.00054101,5406.4,0.00018642,94.009,0.00017377,-0.98989,-0.00053936,-5359.2,0.0015417
10239,0.70588,5.5455,0,0.00052742,5270.6,0.00019626,-7.9911,0.00013449,-472.05,-0.00053405,-5495.2,0.0022194
10240,0.61765,5.6364,0,0.00052295,5225.9,0.00019074,18.514,0.0001428,-341.64,-0.00052752,-5378.2,0.0015719
10241,0.70588,5.6364,0.05,6.5573e-06,65.528,5.0352e-06,37.833,-2.8143e-11,-0.00023632,-5.0352e-06,-37.833,0.0020511
10242,0.70588,5.3636,0,0.00052343,5230.7,0.00021097,-11.294,0.00010299,-822.6,-0.00053288,-5600.3,0.0024485
10243,0.61765,5.4545,0,0.00051752,5171.7,0.00020814,19.981,0.00010577,-749.22,-0.00052562,-5493.2,0.0017874
10244,0.70588,5.4545,0.05,6.8712e-06,68.664,5.2762e-06,39.643,-3.1457e-11,-0.0002653,-5.2762e-06,-39.643,0.0023111
10245,0.70588,5.1818,0,0.00052686,5264.9,0.00022573,-12.84,7.7271e-05,-1128.3,-0.00053732,-5746.1,0.0026265
10246,0.61765,5.2727,0,0.0005217,5213.4,0.0002253,21.282,7.6419e-05,-1097.3,-0.00053092,-5660.7,0.0019504
10247,0.70588,5.2727,0.05,6.7932e-06,67.885,5.2164e-06,39.194,-3.3562e-11,-0.00027601,-5.2163e-06,-39.194,0.0025117
10248,0.70588,5,0,0.0005356,5352.3,0.00023954,-13.874,5.7824e-05,-1379.2,-0.00054606,-5916.6,0.002766
10249,0.61765,5.0909,0,0.00053225,5318.8,0.00024092,22.23,5.522e-05,-1373,-0.00054131,-5855.1,0.0020751
10250,0.70588,5.0909,0.05,6.595e-06,65.904,5.0641e-06,38.05,-3.2094e-11,-0.00025961,-5.0641e-06,-38.05,0.0026678
10251,0.70588,4.8182,0,0.00054739,5470.2,0.00025208,-14.572,4.3652e-05,-1580.6,-0.00055744,-6097,0.0028761
10252,0.61765,4.9091,0,0.00054594,5455.6,0.00025469,22.959,4.0468e-05,-1586.6,-0.00055442,-6056.4,0.0021717
10253,0.70588,4.9091,0.05,6.3196e-06,63.152,4.8526e-06,36.461,-2.5443e-11,-0.00030408,-4.8526e-06,-36.461,0.0027904
10254,0.70588,4.6364,0,0.00056047,5600.8,0.00026328,-15.076,3.3405e-05,-1742.3,-0.00057,-6276,0.0029634
10255,0.61765,4.7273,0,0.0005606,5602.1,0.00026669,23.486,3.0235e-05,-1753.1,-0.00056847,-6251.5,0.0022472
10256,0.70588,4.7273,0.05,5.9608e-06,59.567,4.5772e-06,34.391,-2.4355e-11,-0.00023345,-4.5771e-06,-34.391,0.0028872
10257,0.70588,4.4545,0,0.00057364,5732.4,0.00027319,-15.446,2.593e-05,-1873.3,-0.00058271,-6446.4,0.0030329
10258,0.61765,4.5455,0,0.00057496,5745.7,0.00027708,23.866,2.3023e-05,-1885,-0.00058231,-6433.3,0.0023065
10259,0.70588,4.5455,0.05,5.5211e-06,55.173,4.2395e-06,31.854,-1.4938e-11,-0.00019745,-4.2395e-06,-31.854,0.0029641
10260,0.70588,4.2727,0,0.00058618,5857.8,0.00028189,-15.72,2.04e-05,-1980.4,-0.00059487,-6603.3,0.003088
10261,0.61765,4.3636,0,0.00058835,5879.5,0.00028606,24.133,1.7823e-05,-1991.3,-0.0005953,-6598,0.0023531
10262,0.70588,4.3636,0.05,5.0157e-06,50.122,3.8514e-06,28.938,-1.3626e-11,-0.00012591,-3.8514e-06,-28.938,0.003025
10263,0.70588,4.0909,0,0.00059765,5972.4,0.0002894,-15.919,1.6266e-05,-2068.2,-0.00060603,-6743.8,0.0031314
10264,0.61765,4.1818,0,0.00060042,6000.1,0.00029375,24.318,1.3995e-05,-2077.6,-0.00060705,-6743.9,0.0023896
10265,0.70588,4.1818,0.05,4.4672e-06,44.641,3.4302e-06,25.773,-6.034e-12,-0.0001326,-3.4302e-06,-25.774,0.0030732
10266,0.70588,3.9091,0,0.00060775,6073.3,0.00029577,-16.061,1.3181e-05,-2139.3,-0.00061589,-6866,0.0031652
10267,0.61765,4,0,0.00061098,6105.6,0.00030024,24.443,1.1148e-05,-2147.7,-0.00061738,-6870.2,0.0024179
10268,0.70588,4,0.05,3.9013e-06,38.986,2.9957e-06,22.509,-1.5141e-12,-7.0105e-05,-2.9957e-06,-22.509,0.003111
10269,0.70588,3.7273,0,0.00061629,6158.6,0.000301,-16.158,1.0922e-05,-2195.7,-0.00062426,-6968.1,0.0031911
10270,0.61765,3.8182,0,0.00061993,6195,0.00030561,24.526,9.0439e-06,-2203.8,-0.00062616,-6976.4,0.0024396
10271,0.70588,3.8182,0.05,3.3448e-06,33.425,2.5684e-06,19.298,2.814e-12,-1.3903e-05,-2.5684e-06,-19.298,0.0031401
10272,0.70588,3.5455,0,0.0006231,6226.7,0.00030508,-16.221,9.3323e-06,-2238.3,-0.00063095,-7049.2,0.0032102
10273,0.61765,3.6364,0,0.0006272,6267.6,0.00030988,24.58,7.5309e-06,-2247.1,-0.00063331,-7062.1,0.0024558
10274,0.70588,3.6364,0.05,2.8257e-06,28.238,2.1698e-06,16.303,6.4779e-12,1.9319e-05,-2.1698e-06,-16.303,0.003162
10275,0.70588,3.3636,0,0.00062807,6276.4,0.000308,-16.259,8.2927e-06,-2268.1,-0.00063585,-7107.9,0.0032232
10276,0.61765,3.4545,0,0.00063271,6322.8,0.00031307,24.615,6.4993e-06,-2278.8,-0.00063875,-7126.9,0.0024673
10277,0.70588,3.4545,0.05,2.3753e-06,23.737,1.8239e-06,13.704,1.0653e-11,1.6502e-05,-1.8239e-06,-13.704,0.0031777
10278,0.70588,3.1818,0,0.0006311,6306.6,0.00030975,-16.279,7.7103e-06,-2285.7,-0.00063883,-7143.6,0.0032309
10279,0.61765,3.2727,0,0.00063643,6359.9,0.00031519,24.636,5.8644e-06,-2299.5,-0.00064242,-7170.5,0.0024747
10280,0.70588,3.2727,0.05,2.0318e-06,20.304,1.5602e-06,11.722,1.0988e-11,6.9955e-05,-1.5602e-06,-11.723,0.0031878
10281,0.70588,3,0,0.00063212,6316.8,0.00031034,-16.285,7.5235e-06,-2291.5,-0.00063984,-7155.5,0.0032334
10282,0.61765,3.0909,0,0.0006383,6378.6,0.00031625,24.645,5.564e-06,-2309.7,-0.00064427,-7192.3,0.0024782
10283,0.70588,3.0909,0.05,1.8412e-06,18.4,1.4138e-06,10.623,5.4285e-12,1.9638e-05,-1.4138e-06,-10.623,0.0031927
10284,0.70588,2.8182,0,0.0006311,6306.6,0.00030975,-16.279,7.7103e-06,-2285.7,-0.00063883,-7143.6,0.0032309
10285,0.61765,2.9091,0,0.0006383,6378.6,0.00031625,24.645,5.564e-06,-2309.7,-0.00064427,-7192.3,0.0024782
10286,0.70588,2.9091,0.05,1.8412e-06,18.4,1.4138e-06,10.623,-3.6528e-12,-2.0692e-05,-1.4138e-06,-10.623,0.0031927
10287,0.70588,2.6364,0,0.00062807,6276.4,0.000308,-16.259,8.2926e-06,-2268.1,-0.00063585,-7107.9,0.0032232
10288,0.61765,2.7273,0,0.00063643,6359.9,0.00031519,24.636,5.8644e-06,-2299.5,-0.00064242,-7170.5,0.0024747
10289,0.70588,2.7273,0.05,2.0318e-06,20.304,1.5602e-06,11.723,-1.0893e-11,-7.2195e-05,-1.5602e-06,-11.722,0.0031878
10290,0.70588,2.4545,0,0.0006231,6226.7,0.00030508,-16.221,9.3323e-06,-2238.3,-0.00063095,-7049.2,0.0032102
10291,0.61765,2.5455,0,0.00063271,6322.8,0.00031307,24.615,6.4993e-06,-2278.8,-0.00063875,-7126.9,0.0024673
10292,0.70588,2.5455,0.05,2.3753e-06,23.737,1.8239e-06,13.704,-1.105e-11,-4.562e-05,-1.8239e-06,-13.704,0.0031777
10293,0.70588,2.2727,0,0.00061629,6158.6,0.000301,-16.158,1.0922e-05,-2195.7,-0.00062426,-6968.1,0.0031911
10294,0.61765,2.3636,0,0.0006272,6267.6,0.00030988,24.58,7.5309e-06,-2247.1,-0.00063331,-7062.1,0.0024558
10295,0.70588,2.3636,0.05,2.8257e-06,28.238,2.1698e-06,16.303,-8.2886e-12,-5.9034e-05,-2.1698e-06,-16.303,0.003162
10296,0.70588,2.0909,0,0.00060775,6073.3,0.00029577,-16.061,1.3181e-05,-2139.3,-0.00061589,-6866,0.0031652
10297,0.61765,2.1818,0,0.00061993,6195,0.00030561,24.526,9.0439e-06,-2203.8,-0.00062616,-6976.4,0.0024396
10298,0.70588,2.1818,0.05,3.3448e-06,33.425,2.5684e-06,19.298,-3.4476e-12,-3.2229e-05,-2.5684e-06,-19.298,0.0031401
10299,0.70588,1.9091,0,0.00059765,5972.4,0.0002894,-15.919,1.6266e-05,-2068.2,-0.00060603,-6743.8,0.0031314
10300,0.61765,2,0,0.00061098,6105.6,0.00030024,24.443,1.1148e-05,-2147.7,-0.00061738,-6870.2,0.0024179
10301,0.70588,2,0.05,3.9013e-06,38.986,2.9957e-06,22.509,-1.9846e-12,5.9166e-05,-2.9957e-06,-22.509,0.003111
10302,0.70588,1.7273,0,0.00058618,5857.8,0.00028189,-15.72,2.04e-05,-1980.4,-0.00059487,-6603.3,0.003088
10303,0.61765,1.8182,0,0.00060042,6000.1,0.00029375,24.318,1.3995e-05,-2077.6,-0.00060705,-6743.9,0.0023896
10304,0.70588,1.8182,0.05,4.4672e-06,44.641,3.4302e-06,25.774,4.8311e-12,0.00011204,-3.4302e-06,-25.773,0.0030732
10305,0.70588,1.5455,0,0.00057364,5732.4,0.00027319,-15.446,2.593e-05,-1873.3,-0.00058271,-6446.4,0.0030329
10306,0.61765,1.6364,0,0.00058835,5879.5,0.00028606,24.133,1.7823e-05,-1991.3,-0.0005953,-6598,0.0023531
10307,0.70588,1.6364,0.05,5.0157e-06,50.122,3.8514e-06,28.938,5.6764e-12,0.00010715,-3.8514e-06,-28.938,0.003025
10308,0.70588,1.3636,0,0.00056047,5600.8,0.00026328,-15.076,3.3405e-05,-1742.3,-0.00057,-6276,0.0029634
10309,0.61765,1.4545,0,0.00057496,5745.7,0.00027708,23.866,2.3023e-05,-1885,-0.00058231,-6433.3,0.0023065
10310,0.70588,1.4545,0.05,5.5211e-06,55.173,4.2395e-06,31.854,1.3954e-11,0.00013943,-4.2395e-06,-31.854,0.0029641
10311,0.70588,1.1818,0,0.00054739,5470.2,0.00025208,-14.572,4.3652e-05,-1580.6,-0.00055744,-6096.9,0.0028761
10312,0.61765,1.2727,0,0.0005606,5602.1,0.00026669,23.486,3.0235e-05,-1753.1,-0.00056847,-6251.5,0.0022472
10313,0.70588,1.2727,0.05,5.9608e-06,59.567,4.5771e-06,34.391,1.3444e-11,0.00018698,-4.5772e-06,-34.391,0.0028872
10314,0.70588,1,0,0.0005356,5352.3,0.00023954,-13.874,5.7824e-05,-1379.2,-0.00054606,-5916.6,0.002766
10315,0.61765,1.0909,0,0.00054594,5455.6,0.00025469,22.959,4.0468e-05,-1586.6,-0.00055442,-6056.4,0.0021717
10316,0.70588,1.0909,0.05,6.3196e-06,63.152,4.8526e-06,36.461,2.3666e-11,0.00023005,-4.8526e-06,-36.461,0.0027904
10317,0.70588,0.81818,0,0.00052686,5264.9,0.00022573,-12.84,7.7271e-05,-1128.3,-0.00053732,-5746.1,0.0026265
10318,0.61765,0.90909,0,0.00053225,5318.8,0.00024092,22.23,5.522e-05,-1373,-0.00054131,-5855.1,0.0020751
10319,0.70588,0.90909,0.05,6.595e-06,65.904,5.0641e-06,38.05,2.6445e-11,0.00025284,-5.0641e-06,-38.05,0.0026678
10320,0.70588,0.63636,0,0.00052343,5230.7,0.00021097,-11.294,0.00010299,-822.6,-0.00053288,-5600.3,0.0024485
10321,0.61765,0.72727,0,0.0005217,5213.4,0.0002253,21.282,7.6419e-05,-1097.3,-0.00053092,-5660.7,0.0019504
10322,0.70588,0.72727,0.05,6.7932e-06,67.885,5.2163e-06,39.194,3.1738e-11,0.00026071,-5.2164e-06,-39.194,0.0025117
10323,0.70588,0.45455,0,0.00052742,5270.6,0.00019626,-7.9911,0.00013449,-472.05,-0.00053405,-5495.2,0.0022194
10324,0.61765,0.54545,0,0.00051752,5171.7,0.00020814,19.981,0.00010577,-749.22,-0.00052562,-5493.2,0.0017874
10325,0.70588,0.54545,0.05,6.8712e-06,68.664,5.2762e-06,39.643,2.3296e-11,0.00025677,-5.2762e-06,-39.643,0.0023111
10326,0.70588,0.27273,0,0.00054137,5410,0.00018429,5.2162,0.00016954,-105.59,-0.00054299,-5459.3,0.0019231
10327,0.61765,0.36364,0,0.00052295,5225.9,0.00019074,18.514,0.0001428,-341.64,-0.00052752,-5378.2,0.0015719
10328,0.70588,0.36364,0.05,6.5573e-06,65.528,5.0352e-06,37.833,2.8143e-11,0.0002363,-5.0352e-06,-37.833,0.0020511
10329,0.61765,0.18182,0,0.00054285,5424.7,0.00018914,115.37,0.00017272,-8.0404,-0.00054092,-5370,0.0012859
10330,0.70588,0.18182,0.05,6.4344e-06,64.3,4.9408e-06,37.123,1.2716e-11,0.00015351,-4.9408e-06,-37.123,0.0017135
10331,0.70588,0.090909,0,0.00054101,5406.4,0.00018642,94.009,0.00017377,-0.98989,-0.00053936,-5359.2,0.0015417
10332,0.52941,5.7273,0,0.00052365,5232.9,0.00018335,36.713,0.00015814,-152.72,-0.00052537,-5288.3,0.0010314
10333,0.44118,5.8182,0,0.00051058,5102.3,0.00017934,103.5,0.00015952,-45.428,-0.00050943,-5071.6,0.00059807
10334,0.52941,5.8182,0.05,7.1154e-06,71.104,5.4637e-06,41.052,-2.9855e-11,-0.0002516,-5.4637e-06,-41.052,0.00087578
10335,0.52941,5.9091,0,0.0005221,5217.4,0.00018144,116.08,0.0001674,10.574,-0.00051987,-5153.3,0.00075696
10336,0.52941,5.5455,0,0.00051242,5120.7,0.00020251,45.675,0.00011402,-619.21,-0.00051893,-5374.9,0.0012321
10337,0.44118,5.6364,0,0.00048955,4892.1,0.00018334,-49.133,0.00011871,-534.74,-0.00049767,-5165.9,0.00078226
10338,0.52941,5.6364,0.05,9.0095e-06,90.033,6.9182e-06,51.98,-1.9611e-11,-0.00026212,-6.9182e-06,-51.98,0.0011114
10339,0.52941,5.3636,0,0.00051541,5150.6,0.00022244,52.38,7.8985e-05,-1025.5,-0.00052343,-5551.9,0.0013789
10340,0.44118,5.4545,0,0.0004927,4923.6,0.00020588,-67.487,7.7024e-05,-1035.6,-0.00050427,-5403.3,0.00091127
10341,0.52941,5.4545,0.05,8.4171e-06,84.113,6.4633e-06,48.563,-1.6296e-11,-0.00025726,-6.4633e-06,-48.563,0.0012815
10342,0.52941,5.1818,0,0.00052701,5266.5,0.00024048,56.291,5.4227e-05,-1343.2,-0.00053476,-5768.6,0.0014878
10343,0.44118,5.2727,0,0.0005079,5075.5,0.00022626,-76.654,5.0005e-05,-1401,-0.0005199,-5683,0.0010034
10344,0.52941,5.2727,0.05,7.7257e-06,77.204,5.9324e-06,44.574,-3.2467e-11,-0.00027776,-5.9324e-06,-44.574,0.001406
10345,0.52941,5,0,0.00054269,5423.1,0.00025607,59.041,3.7838e-05,-1580.7,-0.00054964,-5994.7,0.0015703
10346,0.44118,5.0909,0,0.00052717,5268,0.00024335,-82.503,3.3379e-05,-1660.2,-0.00053877,-5959.1,0.0010709
10347,0.52941,5.0909,0.05,7.2303e-06,72.253,5.552e-06,41.715,-2.842e-11,-0.00025001,-5.552e-06,-41.715,0.0014989
10348,0.52941,4.8182,0,0.00055931,5589.3,0.0002693,61.009,2.7104e-05,-1758.8,-0.0005655,-6211.4,0.0016335
10349,0.44118,4.9091,0,0.00054653,5461.5,0.00025744,-86.531,2.3135e-05,-1847,-0.00055769,-6211.1,0.0011216
10350,0.52941,4.9091,0.05,6.7874e-06,67.827,5.2119e-06,39.16,-2.2374e-11,-0.00023821,-5.2119e-06,-39.16,0.0015695
10351,0.52941,4.6364,0,0.00057527,5748.7,0.00028049,62.425,1.9939e-05,-1895.3,-0.00058086,-6409.4,0.0016825
10352,0.44118,4.7273,0,0.00056434,5639.5,0.00026908,-89.406,1.6612e-05,-1986.3,-0.00057518,-6432.8,0.0011602
10353,0.52941,4.7273,0.05,6.3217e-06,63.173,4.8543e-06,36.473,-1.3444e-11,-0.00018089,-4.8543e-06,-36.473,0.0016239
10354,0.52941,4.4545,0,0.00058983,5894.2,0.00028995,63.444,1.5004e-05,-2002.4,-0.00059498,-6585.6,0.0017206
10355,0.44118,4.5455,0,0.00058008,5796.8,0.00027871,-91.491,1.2281e-05,-2093.4,-0.0005907,-6623.9,0.0011898
10356,0.52941,4.5455,0.05,5.8096e-06,58.056,4.4611e-06,33.519,-1.0293e-11,-0.00016184,-4.4611e-06,-33.519,0.001666
10357,0.52941,4.2727,0,0.00060271,6023,0.00029792,64.17,1.1494e-05,-2087.9,-0.00060756,-6739.2,0.0017502
10358,0.44118,4.3636,0,0.00059368,5932.7,0.00028672,-93.002,9.2786e-06,-2177.6,-0.00060415,-6786.6,0.0012126
10359,0.52941,4.3636,0.05,5.2607e-06,52.57,4.0395e-06,30.351,-5.7102e-12,-0.00012536,-4.0395e-06,-30.352,0.0016987
10360,0.52941,4.0909,0,0.00061385,6134.2,0.00030459,64.68,8.9339e-06,-2156.7,-0.00061847,-6870.8,0.001773
10361,0.44118,4.1818,0,0.00060523,6048.1,0.00029335,-94.088,7.1227e-06,-2244.7,-0.0006156,-6923.6,0.00123
10362,0.52941,4.1818,0.05,4.6954e-06,46.921,3.6055e-06,27.09,-1.4084e-12,-7.4745e-05,-3.6055e-06,-27.09,0.001724
10363,0.52941,3.9091,0,0.00062323,6228,0.00031008,65.029,7.0491e-06,-2211.8,-0.00062769,-6981,0.0017905
10364,0.44118,4,0,0.00061487,6144.4,0.00029879,-94.854,5.5406e-06,-2298.2,-0.00062518,-7037.2,0.0012433
10365,0.52941,4,0.05,4.1377e-06,41.348,3.1772e-06,23.872,4.0133e-12,-6.4755e-06,-3.1772e-06,-23.873,0.0017434
10366,0.52941,3.7273,0,0.00063088,6304.5,0.00031449,65.264,5.6747e-06,-2255,-0.00063523,-7070.6,0.0018035
10367,0.44118,3.8182,0,0.00062273,6223,0.00030318,-95.382,4.3771e-06,-2340.4,-0.00063299,-7129.4,0.0012532
10368,0.52941,3.8182,0.05,3.6121e-06,36.096,2.7736e-06,20.84,6.941e-12,-1.7146e-05,-2.7736e-06,-20.84,0.001758
10369,0.52941,3.5455,0,0.00063683,6363.9,0.00031787,65.416,4.7054e-06,-2287.6,-0.00064111,-7140,0.001813
10370,0.44118,3.6364,0,0.00062892,6284.9,0.0003066,-95.735,3.539e-06,-2372.8,-0.00063915,-7201.7,0.0012605
10371,0.52941,3.6364,0.05,3.143e-06,31.408,2.4134e-06,18.133,9.7972e-12,4.5171e-05,-2.4134e-06,-18.134,0.0017688
10372,0.52941,3.3636,0,0.00064109,6406.4,0.00032026,65.509,4.0677e-06,-2310.3,-0.00064531,-7189.4,0.0018194
10373,0.44118,3.4545,0,0.00063351,6330.7,0.00030912,-95.96,2.9642e-06,-2396.3,-0.00064372,-7255.2,0.0012655
10374,0.52941,3.4545,0.05,2.7554e-06,27.535,2.1158e-06,15.897,8.5658e-12,2.1907e-05,-2.1158e-06,-15.897,0.0017764
10375,0.52941,3.1818,0,0.00064364,6432,0.00032169,65.559,3.7079e-06,-2323.6,-0.00064784,-7219.1,0.0018231
10376,0.44118,3.2727,0,0.00063655,6361.1,0.00031078,-96.092,2.6079e-06,-2411.5,-0.00064675,-7290.6,0.0012687
10377,0.52941,3.2727,0.05,2.4753e-06,24.736,1.9007e-06,14.281,7.9825e-12,5.4405e-05,-1.9007e-06,-14.281,0.0017812
10378,0.52941,3,0,0.00064449,6440.5,0.00032216,65.575,3.592e-06,-2328,-0.00064869,-7229,0.0018243
10379,0.44118,3.0909,0,0.00063807,6376.3,0.0003116,-96.153,2.4383e-06,-2419.1,-0.00064827,-7308.2,0.0012703
10380,0.52941,3.0909,0.05,2.3271e-06,23.255,1.7869e-06,13.426,3.6953e-12,1.0728e-05,-1.7869e-06,-13.426,0.0017836
10381,0.52941,2.8182,0,0.00064364,6432,0.00032169,65.559,3.7079e-06,-2323.6,-0.00064784,-7219.1,0.0018231
10382,0.44118,2.9091,0,0.00063807,6376.3,0.0003116,-96.153,2.4383e-06,-2419.1,-0.00064827,-7308.2,0.0012703
10383,0.52941,2.9091,0.05,2.3271e-06,23.255,1.7869e-06,13.426,-2.2018e-12,-1.1228e-05,-1.7869e-06,-13.426,0.0017836
10384,0.52941,2.6364,0,0.00064109,6406.4,0.00032026,65.509,4.0676e-06,-2310.3,-0.00064531,-7189.4,0.0018194
10385,0.44118,2.7273,0,0.00063655,6361.1,0.00031078,-96.092,2.6079e-06,-2411.5,-0.00064675,-7290.6,0.0012687
10386,0.52941,2.7273,0.05,2.4753e-06,24.736,1.9007e-06,14.281,-7.0679e-12,-5.8242e-05,-1.9007e-06,-14.281,0.0017812
10387,0.52941,2.4545,0,0.00063683,6363.9,0.00031787,65.416,4.7054e-06,-2287.6,-0.00064111,-7140,0.001813
10388,0.44118,2.5455,0,0.00063351,6330.7,0.00030912,-95.96,2.9642e-06,-2396.3,-0.00064372,-7255.2,0.0012655
10389,0.52941,2.5455,0.05,2.7554e-06,27.535,2.1158e-06,15.897,-8.4885e-12,-3.123e-05,-2.1158e-06,-15.897,0.0017764
10390,0.52941,2.2727,0,0.00063088,6304.5,0.00031449,65.264,5.6746e-06,-2255,-0.00063523,-7070.6,0.0018035
10391,0.44118,2.3636,0,0.00062892,6284.8,0.0003066,-95.735,3.5389e-06,-2372.8,-0.00063915,-7201.7,0.0012605
10392,0.52941,2.3636,0.05,3.143e-06,31.408,2.4134e-06,18.134,-9.4596e-12,-7.7989e-05,-2.4134e-06,-18.133,0.0017688
10393,0.52941,2.0909,0,0.00062323,6228,0.00031008,65.029,7.0491e-06,-2211.8,-0.00062769,-6981,0.0017905
10394,0.44118,2.1818,0,0.00062273,6223,0.00030318,-95.382,4.3771e-06,-2340.4,-0.00063299,-7129.4,0.0012532
10395,0.52941,2.1818,0.05,3.6121e-06,36.096,2.7736e-06,20.84,-9.9187e-12,-5.0697e-05,-2.7736e-06,-20.84,0.001758
10396,0.52941,1.9091,0,0.00061385,6134.2,0.00030459,64.68,8.9339e-06,-2156.7,-0.00061847,-6870.8,0.001773
10397,0.44118,2,0,0.00061487,6144.4,0.00029879,-94.854,5.5406e-06,-2298.2,-0.00062518,-7037.2,0.0012433
10398,0.52941,2,0.05,4.1377e-06,41.348,3.1772e-06,23.873,-4.4492e-12,-3.0246e-06,-3.1772e-06,-23.872,0.0017434
10399,0.52941,1.7273,0,0.00060271,6023,0.00029792,64.17,1.1494e-05,-2087.9,-0.00060756,-6739.2,0.0017502
10400,0.44118,1.8182,0,0.00060523,6048.1,0.00029335,-94.088,7.1227e-06,-2244.7,-0.0006156,-6923.6,0.00123
10401,0.52941,1.8182,0.05,4.6954e-06,46.921,3.6055e-06,27.09,5.0267e-13,4.7603e-05,-3.6055e-06,-27.09,0.001724
10402,0.52941,1.5455,0,0.00058983,5894.2,0.00028995,63.444,1.5004e-05,-2002.4,-0.00059498,-6585.6,0.0017206
10403,0.44118,1.6364,0,0.00059368,5932.7,0.00028672,-93.002,9.2785e-06,-2177.6,-0.00060415,-6786.6,0.0012126
10404,0.52941,1.6364,0.05,5.2607e-06,52.57,4.0395e-06,30.352,4.5403e-12,9.3698e-05,-4.0395e-06,-30.351,0.0016987
10405,0.52941,1.3636,0,0.00057527,5748.7,0.00028049,62.425,1.9939e-05,-1895.3,-0.00058086,-6409.4,0.0016825
10406,0.44118,1.4545,0,0.00058008,5796.8,0.00027871,-91.491,1.228e-05,-2093.4,-0.0005907,-6623.9,0.0011898
10407,0.52941,1.4545,0.05,5.8096e-06,58.056,4.4611e-06,33.519,6.8202e-12,0.00011935,-4.4611e-06,-33.519,0.001666
10408,0.52941,1.1818,0,0.00055931,5589.3,0.0002693,61.009,2.7103e-05,-1758.8,-0.0005655,-6211.4,0.0016335
10409,0.44118,1.2727,0,0.00056434,5639.5,0.00026908,-89.406,1.6612e-05,-1986.3,-0.00057518,-6432.8,0.0011602
10410,0.52941,1.2727,0.05,6.3217e-06,63.173,4.8543e-06,36.473,8.3428e-12,0.00016065,-4.8543e-06,-36.473,0.0016239
10411,0.52941,1,0,0.00054269,5423.1,0.00025607,59.041,3.7838e-05,-1580.7,-0.00054964,-5994.7,0.0015703
10412,0.44118,1.0909,0,0.00054653,5461.5,0.00025744,-86.531,2.3135e-05,-1847,-0.00055769,-6211.1,0.0011216
10413,0.52941,1.0909,0.05,6.7874e-06,67.827,5.2119e-06,39.16,2.1575e-11,0.00019133,-5.2119e-06,-39.16,0.0015695
10414,0.52941,0.81818,0,0.00052701,5266.5,0.00024048,56.291,5.4227e-05,-1343.2,-0.00053476,-5768.6,0.0014878
10415,0.44118,0.90909,0,0.00052717,5268,0.00024335,-82.503,3.3379e-05,-1660.2,-0.00053877,-5959.1,0.0010709
10416,0.52941,0.90909,0.05,7.2303e-06,72.253,5.552e-06,41.715,2.6156e-11,0.00022136,-5.552e-06,-41.715,0.0014989
10417,0.52941,0.63636,0,0.00051541,5150.6,0.00022244,52.38,7.8985e-05,-1025.5,-0.00052343,-5551.9,0.0013789
10418,0.44118,0.72727,0,0.0005079,5075.5,0.00022626,-76.654,5.0005e-05,-1401,-0.0005199,-5683,0.0010034
10419,0.52941,0.72727,0.05,7.7257e-06,77.204,5.9324e-06,44.574,3.0572e-11,0.00021785,-5.9324e-06,-44.574,0.001406
10420,0.52941,0.45455,0,0.00051242,5120.7,0.00020251,45.675,0.00011402,-619.21,-0.00051893,-5374.9,0.0012321
10421,0.44118,0.54545,0,0.0004927,4923.6,0.00020588,-67.487,7.7024e-05,-1035.6,-0.00050427,-5403.3,0.00091127
10422,0.52941,0.54545,0.05,8.4171e-06,84.113,6.4633e-06,48.563,1.5661e-11,0.00025448,-6.4633e-06,-48.563,0.0012815
10423,0.52941,0.27273,0,0.00052365,5232.9,0.00018335,36.713,0.00015814,-152.72,-0.00052537,-5288.3,0.0010314
10424,0.44118,0.36364,0,0.00048955,4892.1,0.00018334,-49.133,0.00011871,-534.74,-0.00049767,-5165.9,0.00078226
10425,0.52941,0.36364,0.05,9.0095e-06,90.033,6.9182e-06,51.98,2.048e-11,0.00020395,-6.9182e-06,-51.98,0.0011114
10426,0.44118,0.18182,0,0.00051058,5102.3,0.00017934,103.5,0.00015952,-45.428,-0.00050943,-5071.6,0.00059807
10427,0.52941,0.18182,0.05,7.1154e-06,71.104,5.4637e-06,41.052,2.9419e-11,0.0002516,-5.4637e-06,-41.052,0.00087578
10428,0.52941,0.090909,0,0.0005221,5217.4,0.00018144,116.08,0.0001674,10.574,-0.00051987,-5153.3,0.00075696
10429,0.35294,5.7273,0,0.0004748,4744.7,0.00016464,-92.624,0.00013443,-319.66,-0.0004814,-4946.8,0.00043655
10430,0.26471,5.8182,0,0.00044281,4425.1,0.00016098,165.54,0.00013593,-22.679,-0.00044008,-4350.6,0.00019364
10431,0.35294,5.8182,0.05,1.189e-05,118.82,9.1299e-06,68.599,-1.9346e-11,-0.00023417,-9.1299e-06,-68.599,0.00033709
10432,0.35294,5.9091,0,0.00047596,4756.3,0.00016877,124.24,0.00014853,-27.85,-0.00047414,-4706.3,0.00027236
10433,0.35294,5.5455,0,0.0004685,4681.7,0.00018653,-163.53,8.1326e-05,-954.02,-0.00048247,-5190.2,0.00054594
10434,0.26471,5.6364,0,0.00045725,4569.3,0.00020614,240.25,7.2224e-05,-765.91,-0.0004578,-4748.3,0.00028092
10435,0.35294,5.6364,0.05,1.3239e-05,132.3,1.0166e-05,76.382,-2.4816e-11,-0.00020223,-1.0166e-05,-76.383,0.00047088
10436,0.35294,5.3636,0,0.0004846,4842.7,0.00020966,-196.78,4.7727e-05,-1413.5,-0.00050039,-5531.8,0.0006199
10437,0.26471,5.4545,0,0.00049627,4959.3,0.00024363,282.51,3.8657e-05,-1257.6,-0.00049457,-5264.1,0.00033568
10438,0.35294,5.4545,0.05,1.069e-05,106.82,8.2083e-06,61.674,-2.8998e-11,-0.00032865,-8.2083e-06,-61.674,0.00055796
10439,0.35294,5.1818,0,0.00050795,5076,0.00022912,-215.53,2.9126e-05,-1718.2,-0.00052387,-5873.2,0.00067196
10440,0.26471,5.2727,0,0.00053454,5341.7,0.00027157,313.25,2.207e-05,-1561.4,-0.00053049,-5713.1,0.00037202
10441,0.35294,5.2727,0.05,9.3569e-06,93.505,7.185e-06,53.985,-2.4514e-11,-0.00031304,-7.185e-06,-53.985,0.00061729
10442,0.35294,5,0,0.00053108,5307.2,0.00024473,-228.1,1.8795e-05,-1925.7,-0.00054694,-6176.4,0.00070992
10443,0.26471,5.0909,0,0.00056691,5665.2,0.00029224,332.82,1.3701e-05,-1760,-0.00056139,-6081,0.00039755
10444,0.35294,5.0909,0.05,8.5448e-06,85.389,6.5614e-06,49.3,-1.597e-11,-0.00020664,-6.5614e-06,-49.3,0.00065957
10445,0.35294,4.8182,0,0.00055167,5512.9,0.00025722,-236.96,1.2796e-05,-2073.4,-0.00056752,-6433.7,0.00073826
10446,0.26471,4.9091,0,0.00059321,5928,0.00030796,346.96,9.0963e-06,-1898.6,-0.00058677,-6375.7,0.00041615
10447,0.35294,4.9091,0.05,7.9147e-06,79.093,6.0775e-06,45.664,-1.6887e-11,-0.00019576,-6.0775e-06,-45.664,0.00069067
10448,0.35294,4.6364,0,0.00056926,5688.7,0.0002673,-243.33,9.0909e-06,-2183.4,-0.00058515,-6648.3,0.00075969
10449,0.26471,4.7273,0,0.00061435,6139.2,0.00032012,357.09,6.3653e-06,-2000.3,-0.00060734,-6611.5,0.00042997
10450,0.35294,4.7273,0.05,7.3002e-06,72.951,5.6056e-06,42.118,-8.4545e-12,-0.00016014,-5.6056e-06,-42.118,0.00071399
10451,0.35294,4.4545,0,0.00058402,5836.2,0.00027548,-247.94,6.6627e-06,-2267.7,-0.00059997,-6825.8,0.00077597
10452,0.26471,4.5455,0,0.0006313,6308.6,0.00032964,364.47,4.6237e-06,-2077.6,-0.00062391,-6800.1,0.00044034
10453,0.35294,4.5455,0.05,6.6752e-06,66.706,5.1257e-06,38.513,-5.6124e-12,-0.00011542,-5.1257e-06,-38.513,0.00073163
10454,0.35294,4.2727,0,0.00059627,5958.6,0.00028214,-251.26,4.9864e-06,-2333.7,-0.00061228,-6971.6,0.00078834
10455,0.26471,4.3636,0,0.00064486,6444.1,0.00033713,369.8,3.4425e-06,-2137.4,-0.00063722,-6951.1,0.00044813
10456,0.35294,4.3636,0.05,6.0472e-06,60.43,4.6435e-06,34.889,-1.5129e-12,-8.8855e-05,-4.6435e-06,-34.889,0.00074499
10457,0.35294,4.0909,0,0.00060631,6058.9,0.00028755,-253.62,3.7836e-06,-2385.7,-0.00062237,-7090.4,0.00079766
10458,0.26471,4.1818,0,0.00065565,6552,0.00034304,373.61,2.6012e-06,-2184.3,-0.00064784,-7071.5,0.00045395
10459,0.35294,4.1818,0.05,5.4334e-06,54.296,4.1721e-06,31.348,1.9717e-12,-5.1135e-05,-4.1721e-06,-31.348,0.00075508
10460,0.35294,3.9091,0,0.00061442,6140,0.00029188,-255.26,2.9035e-06,-2426.5,-0.00063052,-7185.8,0.0008046
10461,0.26471,4,0,0.00066416,6637,0.00034766,376.27,1.9835e-06,-2221,-0.00065624,-7166.6,0.00045826
10462,0.35294,4,0.05,4.8538e-06,48.505,3.7271e-06,28.004,5.973e-12,-2.3501e-05,-3.7271e-06,-28.004,0.00076261
10463,0.35294,3.7273,0,0.0006208,6203.8,0.00029528,-256.38,2.2615e-06,-2458,-0.00063693,-7260.7,0.00080968
10464,0.26471,3.8182,0,0.00067077,6703,0.00035122,378.09,1.5267e-06,-2249.4,-0.00066277,-7240.7,0.00046139
10465,0.35294,3.8182,0.05,4.3291e-06,43.261,3.3242e-06,24.977,6.9518e-12,-8.5113e-06,-3.3242e-06,-24.977,0.00076816
10466,0.35294,3.5455,0,0.00062563,6252,0.00029784,-257.11,1.8069e-06,-2481.4,-0.00064178,-7317.1,0.00081328
10467,0.26471,3.6364,0,0.00067576,6752.9,0.0003539,379.3,1.195e-06,-2270.8,-0.00066771,-7296.7,0.00046362
10468,0.35294,3.6364,0.05,3.8788e-06,38.761,2.9784e-06,22.379,8.0037e-12,3.9251e-06,-2.9784e-06,-22.379,0.00077215
10469,0.35294,3.3636,0,0.000629,6285.7,0.00029963,-257.56,1.506e-06,-2497.6,-0.00064517,-7356.4,0.00081566
10470,0.26471,3.4545,0,0.00067933,6788.7,0.00035581,380.06,9.656e-07,-2286.1,-0.00067126,-7337,0.00046514
10471,0.35294,3.4545,0.05,3.5213e-06,35.188,2.7039e-06,20.316,7.2654e-12,1.0668e-05,-2.7039e-06,-20.316,0.00077489
10472,0.35294,3.1818,0,0.000631,6305.7,0.00030069,-257.8,1.3354e-06,-2507,-0.00064717,-7379.7,0.00081702
10473,0.26471,3.2727,0,0.00068165,6811.8,0.00035704,380.5,8.2231e-07,-2296,-0.00067355,-7363,0.00046607
10474,0.35294,3.2727,0.05,3.2724e-06,32.701,2.5128e-06,18.88,5.3655e-12,1.4519e-05,-2.5128e-06,-18.88,0.0007766
10475,0.35294,3,0,0.00063166,6312.3,0.00030104,-257.88,1.2802e-06,-2510.1,-0.00064784,-7387.4,0.00081746
10476,0.26471,3.0909,0,0.00068278,6823.1,0.00035765,380.71,7.5373e-07,-2300.9,-0.00067468,-7375.8,0.00046652
10477,0.35294,3.0909,0.05,3.1445e-06,31.423,2.4146e-06,18.142,2.3411e-12,5.4232e-06,-2.4146e-06,-18.142,0.00077742
10478,0.35294,2.8182,0,0.000631,6305.7,0.00030069,-257.8,1.3354e-06,-2507,-0.00064717,-7379.7,0.00081702
10479,0.26471,2.9091,0,0.00068278,6823.1,0.00035765,380.71,7.5373e-07,-2300.9,-0.00067468,-7375.8,0.00046652
10480,0.35294,2.9091,0.05,3.1445e-06,31.423,2.4146e-06,18.142,-1.2284e-12,-5.6113e-06,-2.4146e-06,-18.142,0.00077742
10481,0.35294,2.6364,0,0.000629,6285.7,0.00029963,-257.56,1.506e-06,-2497.6,-0.00064517,-7356.4,0.00081566
10482,0.26471,2.7273,0,0.00068165,6811.8,0.00035704,380.5,8.2231e-07,-2296,-0.00067355,-7363,0.00046607
10483,0.35294,2.7273,0.05,3.2724e-06,32.701,2.5128e-06,18.88,-4.5588e-12,-1.5331e-05,-2.5128e-06,-18.88,0.0007766
10484,0.35294,2.4545,0,0.00062563,6252,0.00029784,-257.11,1.8068e-06,-2481.4,-0.00064178,-7317.1,0.00081328
10485,0.26471,2.5455,0,0.00067933,6788.7,0.00035581,380.06,9.6559e-07,-2286.1,-0.00067126,-7337,0.00046514
10486,0.35294,2.5455,0.05,3.5213e-06,35.188,2.7039e-06,20.316,-6.5641e-12,-1.4513e-05,-2.7039e-06,-20.316,0.00077489
10487,0.35294,2.2727,0,0.0006208,6203.8,0.00029528,-256.38,2.2615e-06,-2458,-0.00063693,-7260.7,0.00080968
10488,0.26471,2.3636,0,0.00067576,6752.9,0.0003539,379.3,1.195e-06,-2270.8,-0.00066771,-7296.7,0.00046362
10489,0.35294,2.3636,0.05,3.8788e-06,38.761,2.9784e-06,22.379,-7.9499e-12,-1.1018e-05,-2.9784e-06,-22.379,0.00077215
10490,0.35294,2.0909,0,0.00061442,6140,0.00029188,-255.26,2.9035e-06,-2426.5,-0.00063052,-7185.8,0.0008046
10491,0.26471,2.1818,0,0.00067077,6703,0.00035122,378.09,1.5267e-06,-2249.4,-0.00066277,-7240.7,0.00046139
10492,0.35294,2.1818,0.05,4.3291e-06,43.261,3.3242e-06,24.977,-7.4792e-12,-1.9845e-06,-3.3242e-06,-24.977,0.00076816
10493,0.35294,1.9091,0,0.00060631,6058.9,0.00028755,-253.62,3.7836e-06,-2385.7,-0.00062237,-7090.4,0.00079766
10494,0.26471,2,0,0.00066416,6637,0.00034766,376.27,1.9835e-06,-2221,-0.00065624,-7166.6,0.00045826
10495,0.35294,2,0.05,4.8538e-06,48.505,3.7271e-06,28.004,-6.3051e-12,-1.7141e-05,-3.7271e-06,-28.004,0.00076261
10496,0.35294,1.7273,0,0.00059627,5958.6,0.00028214,-251.26,4.9864e-06,-2333.7,-0.00061228,-6971.6,0.00078834
10497,0.26471,1.8182,0,0.00065565,6552,0.00034304,373.61,2.6012e-06,-2184.3,-0.00064784,-7071.5,0.00045395
10498,0.35294,1.8182,0.05,5.4334e-06,54.296,4.1721e-06,31.348,-3.6189e-12,2.6323e-05,-4.1721e-06,-31.348,0.00075508
10499,0.35294,1.5455,0,0.00058402,5836.2,0.00027548,-247.94,6.6627e-06,-2267.7,-0.00059997,-6825.8,0.00077597
10500,0.26471,1.6364,0,0.00064486,6444.1,0.00033713,369.8,3.4425e-06,-2137.4,-0.00063722,-6951.1,0.00044813
10501,0.35294,1.6364,0.05,6.0472e-06,60.43,4.6435e-06,34.889,6.0347e-13,5.2036e-05,-4.6435e-06,-34.889,0.00074499
10502,0.35294,1.3636,0,0.00056926,5688.7,0.0002673,-243.33,9.0909e-06,-2183.4,-0.00058515,-6648.3,0.00075969
10503,0.26471,1.4545,0,0.0006313,6308.6,0.00032964,364.47,4.6236e-06,-2077.6,-0.00062391,-6800.1,0.00044034
10504,0.35294,1.4545,0.05,6.6752e-06,66.706,5.1257e-06,38.513,2.7117e-12,0.0001016,-5.1257e-06,-38.513,0.00073163
10505,0.35294,1.1818,0,0.00055167,5512.9,0.00025722,-236.96,1.2796e-05,-2073.4,-0.00056752,-6433.7,0.00073826
10506,0.26471,1.2727,0,0.00061435,6139.2,0.00032012,357.09,6.3653e-06,-2000.3,-0.00060734,-6611.5,0.00042997
10507,0.35294,1.2727,0.05,7.3002e-06,72.951,5.6056e-06,42.118,5.0989e-12,0.00013059,-5.6056e-06,-42.118,0.00071399
10508,0.35294,1,0,0.00053108,5307.2,0.00024473,-228.1,1.8795e-05,-1925.7,-0.00054694,-6176.4,0.00070992
10509,0.26471,1.0909,0,0.00059321,5928,0.00030796,346.96,9.0963e-06,-1898.6,-0.00058677,-6375.7,0.00041615
10510,0.35294,1.0909,0.05,7.9147e-06,79.093,6.0775e-06,45.664,1.1462e-11,0.0001848,-6.0775e-06,-45.664,0.00069067
10511,0.35294,0.81818,0,0.00050795,5076,0.00022912,-215.53,2.9126e-05,-1718.2,-0.00052387,-5873.2,0.00067196
10512,0.26471,0.90909,0,0.00056691,5665.2,0.00029224,332.82,1.3701e-05,-1760,-0.00056139,-6081,0.00039755
10513,0.35294,0.90909,0.05,8.5448e-06,85.389,6.5614e-06,49.3,1.3241e-11,0.00020282,-6.5614e-06,-49.3,0.00065957
10514,0.35294,0.63636,0,0.0004846,4842.7,0.00020966,-196.78,4.7727e-05,-1413.5,-0.00050039,-5531.8,0.0006199
10515,0.26471,0.72727,0,0.00053454,5341.7,0.00027157,313.25,2.207e-05,-1561.4,-0.00053049,-5713.1,0.00037202
10516,0.35294,0.72727,0.05,9.3569e-06,93.505,7.185e-06,53.985,2.4514e-11,0.00026196,-7.185e-06,-53.985,0.00061729
10517,0.35294,0.45455,0,0.0004685,4681.7,0.00018653,-163.53,8.1326e-05,-954.02,-0.00048247,-5190.2,0.00054594
10518,0.26471,0.54545,0,0.00049627,4959.3,0.00024363,282.51,3.8657e-05,-1257.6,-0.00049457,-5264.1,0.00033568
10519,0.35294,0.54545,0.05,1.069e-05,106.82,8.2083e-06,61.674,2.4781e-11,0.00026713,-8.2083e-06,-61.674,0.00055796
10520,0.35294,0.27273,0,0.0004748,4744.7,0.00016464,-92.624,0.00013443,-319.66,-0.0004814,-4946.8,0.00043655
10521,0.26471,0.36364,0,0.00045725,4569.3,0.00020614,240.25,7.2224e-05,-765.9,-0.0004578,-4748.3,0.00028092
10522,0.35294,0.36364,0.05,1.3239e-05,132.3,1.0166e-05,76.383,2.1326e-11,0.00020525,-1.0166e-05,-76.382,0.00047088
10523,0.26471,0.18182,0,0.00044281,4425.1,0.00016098,165.54,0.00013593,-22.679,-0.00044008,-4350.6,0.00019364
10524,0.35294,0.18182,0.05,1.189e-05,118.82,9.1299e-06,68.599,1.9346e-11,0.00018123,-9.1299e-06,-68.599,0.00033709
10525,0.35294,0.090909,0,0.00047596,4756.3,0.00016877,124.24,0.00014853,-27.85,-0.00047414,-4706.3,0.00027236
10526,0.17647,5.7273,0,0.00042217,4218.8,0.00019757,461.57,7.6674e-05,-446.81,-0.00041451,-4137.4,0.00011087
10527,0.17647,5.8182,0.05,2.9128e-05,291.08,2.2367e-05,168.06,-1.5255e-11,-0.00023568,-2.2367e-05,-168.06,6.503e-05
10528,0.17647,5.9091,0,0.00037724,3769.8,0.00013705,207.17,0.00012213,95.098,-0.00037197,-3617.4,5.0562e-05
10529,0.088235,5.8182,0,0.00027,2698.2,8.4303e-05,-421.22,5.8216e-05,-617.22,-0.00028714,-3212.1,2.5618e-05
10530,0.17647,5.5455,0,0.00048788,4875.4,0.00026315,685.67,2.9861e-05,-1067.2,-0.00047012,-4823.8,0.00014638
10531,0.17647,5.6364,0.05,1.866e-05,186.47,1.4328e-05,107.66,-2.9506e-11,-0.0004306,-1.4328e-05,-107.66,0.00010797
10532,0.088235,5.6364,0,0.00034228,3420.4,0.00011943,-843.49,1.9367e-05,-1595.3,-0.00037751,-4577.3,4.1667e-05
10533,0.17647,5.3636,0,0.00054932,5489.4,0.00030554,792.53,1.4119e-05,-1397.1,-0.00052579,-5453.8,0.00016795
10534,0.17647,5.4545,0.05,1.3425e-05,134.16,1.0309e-05,77.455,-2.6666e-11,-0.00033333,-1.0309e-05,-77.455,0.00013102
10535,0.088235,5.4545,0,0.00040092,4006.4,0.00014435,-1038.4,8.2574e-06,-2061,-0.00044373,-5457.1,5.0495e-05
10536,0.17647,5.1818,0,0.00059585,5954.3,0.00033469,861.66,7.6021e-06,-1596,-0.00056897,-5928.1,0.00018229
10537,0.17647,5.2727,0.05,1.0767e-05,107.6,8.2679e-06,62.122,-1.8329e-11,-0.00024833,-8.2679e-06,-62.122,0.00014533
10538,0.088235,5.2727,0,0.00044282,4425.2,0.00016143,-1153.9,4.1981e-06,-2335.3,-0.00049018,-6049.9,5.605e-05
10539,0.17647,5,0,0.00063075,6303.1,0.00035548,907.92,4.6531e-06,-1728,-0.00060188,-6285.3,0.00019241
10540,0.17647,5.0909,0.05,9.2619e-06,92.555,7.112e-06,53.436,-1.7595e-11,-0.0002098,-7.112e-06,-53.437,0.00015509
10541,0.088235,5.0909,0,0.00047297,4726.5,0.00017338,-1232,2.5016e-06,-2515.9,-0.00052346,-6467.8,5.9802e-05
10542,0.17647,4.8182,0,0.0006572,6567.5,0.00037087,941.03,3.0804e-06,-1822.4,-0.00062701,-6556.6,0.00019977
10543,0.17647,4.9091,0.05,8.0795e-06,80.739,6.2041e-06,46.615,-1.4946e-11,-0.00016672,-6.2041e-06,-46.615,0.00016204
10544,0.088235,4.9091,0,0.00049525,4949.1,0.00018217,-1287,1.6242e-06,-2643.5,-0.00054796,-6772.9,6.2468e-05
10545,0.17647,4.6364,0,0.00067746,6769.9,0.00038246,964.91,2.1578e-06,-1892.6,-0.00064636,-6765.3,0.00020521
10546,0.17647,4.7273,0.05,7.0699e-06,70.65,5.4288e-06,40.79,-1.0407e-11,-0.0001375,-5.4288e-06,-40.79,0.00016713
10547,0.088235,4.7273,0,0.00051197,5116.1,0.00018875,-1327,1.1284e-06,-2736.7,-0.00056631,-7000.2,6.4408e-05
10548,0.17647,4.4545,0,0.00069306,6925.8,0.00039129,982.23,1.5644e-06,-1946,-0.00066132,-6926.7,0.00020924
10549,0.17647,4.5455,0.05,6.1641e-06,61.598,4.7332e-06,35.564,-5.0505e-12,-0.00013493,-4.7332e-06,-35.564,0.00017087
10550,0.088235,4.5455,0,0.00052462,5242.6,0.00019375,-1356.2,8.1563e-07,-2805.9,-0.00058016,-7171.1,6.5831e-05
10551,0.17647,4.2727,0,0.00070506,7045.8,0.00039803,994.69,1.156e-06,-1987.3,-0.00067288,-7051.7,0.00021223
10552,0.17647,4.3636,0.05,5.3366e-06,53.33,4.0979e-06,30.79,-2.9424e-12,-0.00010477,-4.0979e-06,-30.79,0.00017363
10553,0.088235,4.3636,0,0.0005342,5338.3,0.00019757,-1377.6,6.0332e-07,-2857.5,-0.00059063,-7299.8,6.6872e-05
10554,0.17647,4.0909,0,0.00071426,7137.6,0.00040315,1003.5,8.6054e-07,-2019.1,-0.00068177,-7148.1,0.00021442
10555,0.17647,4.1818,0.05,4.5818e-06,45.786,3.5182e-06,26.434,-6.5159e-14,-8.0731e-05,-3.5182e-06,-26.435,0.00017563
10556,0.088235,4.1818,0,0.00054143,5410.6,0.00020048,-1393,4.5025e-07,-2895.9,-0.0005985,-7396.2,6.7628e-05
10557,0.17647,3.9091,0,0.00072123,7207.3,0.000407,1009.6,6.4143e-07,-2043.6,-0.00068852,-7221.7,0.00021599
10558,0.17647,4,0.05,3.9039e-06,39.012,2.9977e-06,22.524,2.1306e-12,-7.2704e-05,-2.9977e-06,-22.524,0.00017708
10559,0.088235,4,0,0.00054684,5464.6,0.00020268,-1404,3.36e-07,-2924.3,-0.00060436,-7467.8,6.8167e-05
10560,0.17647,3.7273,0,0.00072641,7259.1,0.00040984,1013.8,4.7927e-07,-2062,-0.00069357,-7276.8,0.00021711
10561,0.17647,3.8182,0.05,3.3128e-06,33.105,2.5438e-06,19.113,4.6418e-12,8.0764e-08,-2.5438e-06,-19.113,0.0001781
10562,0.088235,3.8182,0,0.00055081,5504.3,0.00020432,-1411.6,2.5006e-07,-2945,-0.00060866,-7520.1,6.8544e-05
10563,0.17647,3.5455,0,0.00073013,7296.3,0.00041187,1016.5,3.6296e-07,-2075.4,-0.0006972,-7316.7,0.00021787
10564,0.17647,3.6364,0.05,2.8199e-06,28.18,2.1653e-06,16.269,5.5541e-12,-8.8411e-06,-2.1653e-06,-16.27,0.0001788
10565,0.088235,3.6364,0,0.00055367,5532.9,0.00020552,-1416.8,1.867e-07,-2959.6,-0.00061173,-7557.3,6.8801e-05
10566,0.17647,3.3636,0,0.00073263,7321.3,0.00041323,1018.1,2.852e-07,-2084.6,-0.00069965,-7343.6,0.00021836
10567,0.17647,3.4545,0.05,2.4369e-06,24.353,1.8713e-06,14.06,5.1351e-12,1.4791e-05,-1.8713e-06,-14.06,0.00017926
10568,0.088235,3.4545,0,0.00055563,5552.5,0.00020635,-1420.2,1.4237e-07,-2969.5,-0.00061384,-7582.8,6.8969e-05
10569,0.17647,3.1818,0,0.00073408,7335.7,0.000414,1019,2.4078e-07,-2089.8,-0.00070106,-7359.2,0.00021863
10570,0.17647,3.2727,0.05,2.1743e-06,21.728,1.6696e-06,12.545,3.7887e-12,-1.5897e-05,-1.6696e-06,-12.545,0.00017953
10571,0.088235,3.2727,0,0.00055685,5564.7,0.00020688,-1422.2,1.1444e-07,-2975.7,-0.00061515,-7598.5,6.9069e-05
10572,0.17647,3,0,0.00073455,7340.4,0.00041426,1019.3,2.2637e-07,-2091.6,-0.00070152,-7364.3,0.00021872
10573,0.17647,3.0909,0.05,2.0405e-06,20.391,1.5669e-06,11.773,1.6013e-12,5.4388e-06,-1.5669e-06,-11.773,0.00017966
10574,0.088235,3.0909,0,0.00055744,5570.6,0.00020713,-1423.1,1.0101e-07,-2978.6,-0.00061578,-7606.1,6.9115e-05
10575,0.17647,2.8182,0,0.00073408,7335.7,0.000414,1019,2.4078e-07,-2089.8,-0.00070106,-7359.2,0.00021863
10576,0.17647,2.9091,0.05,2.0405e-06,20.391,1.5669e-06,11.773,-1.0141e-12,-5.5309e-06,-1.5669e-06,-11.773,0.00017966
10577,0.088235,2.9091,0,0.00055744,5570.6,0.00020713,-1423.1,1.0101e-07,-2978.6,-0.00061578,-7606.1,6.9115e-05
10578,0.17647,2.6364,0,0.00073263,7321.3,0.00041323,1018.1,2.8519e-07,-2084.6,-0.00069965,-7343.6,0.00021836
10579,0.17647,2.7273,0.05,2.1743e-06,21.728,1.6696e-06,12.545,-3.2986e-12,-1.5021e-05,-1.6696e-06,-12.545,0.00017953
10580,0.088235,2.7273,0,0.00055685,5564.7,0.00020688,-1422.2,1.1444e-07,-2975.7,-0.00061515,-7598.5,6.9069e-05
10581,0.17647,2.4545,0,0.00073013,7296.3,0.00041187,1016.5,3.6295e-07,-2075.4,-0.0006972,-7316.7,0.00021787
10582,0.17647,2.5455,0.05,2.4369e-06,24.353,1.8713e-06,14.06,-4.843e-12,-1.6808e-05,-1.8713e-06,-14.06,0.00017926
10583,0.088235,2.5455,0,0.00055563,5552.5,0.00020635,-1420.2,1.4236e-07,-2969.5,-0.00061384,-7582.8,6.8969e-05
10584,0.17647,2.2727,0,0.00072641,7259.1,0.00040984,1013.8,4.7927e-07,-2062,-0.00069357,-7276.8,0.00021711
10585,0.17647,2.3636,0.05,2.8199e-06,28.18,2.1653e-06,16.27,-5.8669e-12,2.4018e-06,-2.1653e-06,-16.269,0.0001788
10586,0.088235,2.3636,0,0.00055367,5532.9,0.00020552,-1416.8,1.867e-07,-2959.6,-0.00061173,-7557.3,6.8801e-05
10587,0.17647,2.0909,0,0.00072123,7207.3,0.000407,1009.6,6.4142e-07,-2043.6,-0.00068852,-7221.7,0.00021599
10588,0.17647,2.1818,0.05,3.3128e-06,33.105,2.5438e-06,19.113,-4.8815e-12,-9.3461e-06,-2.5438e-06,-19.113,0.0001781
10589,0.088235,2.1818,0,0.00055081,5504.3,0.00020432,-1411.6,2.5005e-07,-2945,-0.00060866,-7520.1,6.8544e-05
10590,0.17647,1.9091,0,0.00071426,7137.6,0.00040315,1003.5,8.6053e-07,-2019.1,-0.00068177,-7148.1,0.00021442
10591,0.17647,2,0.05,3.9039e-06,39.012,2.9977e-06,22.524,-3.2299e-12,1.9138e-05,-2.9977e-06,-22.524,0.00017708
10592,0.088235,2,0,0.00054684,5464.6,0.00020268,-1404,3.36e-07,-2924.3,-0.00060436,-7467.8,6.8167e-05
10593,0.17647,1.7273,0,0.00070506,7045.8,0.00039803,994.69,1.156e-06,-1987.3,-0.00067288,-7051.7,0.00021223
10594,0.17647,1.8182,0.05,4.5818e-06,45.786,3.5182e-06,26.435,-2.3605e-12,3.2148e-05,-3.5182e-06,-26.435,0.00017563
10595,0.088235,1.8182,0,0.00054143,5410.6,0.00020048,-1393,4.5024e-07,-2895.9,-0.0005985,-7396.2,6.7628e-05
10596,0.17647,1.5455,0,0.00069306,6925.8,0.00039129,982.23,1.5644e-06,-1946,-0.00066132,-6926.7,0.00020924
10597,0.17647,1.6364,0.05,5.3366e-06,53.33,4.0979e-06,30.79,1.8103e-12,7.3744e-05,-4.0979e-06,-30.79,0.00017363
10598,0.088235,1.6364,0,0.0005342,5338.3,0.00019757,-1377.6,6.0332e-07,-2857.5,-0.00059063,-7299.8,6.6872e-05
10599,0.17647,1.3636,0,0.00067746,6769.9,0.00038246,964.91,2.1578e-06,-1892.6,-0.00064636,-6765.3,0.00020521
10600,0.17647,1.4545,0.05,6.1641e-06,61.598,4.7332e-06,35.564,1.3026e-12,0.00010231,-4.7332e-06,-35.564,0.00017087
10601,0.088235,1.4545,0,0.00052462,5242.6,0.00019375,-1356.2,8.1563e-07,-2805.9,-0.00058016,-7171.1,6.5831e-05
10602,0.17647,1.1818,0,0.0006572,6567.5,0.00037087,941.03,3.0804e-06,-1822.4,-0.00062701,-6556.6,0.00019977
10603,0.17647,1.2727,0.05,7.0699e-06,70.65,5.4288e-06,40.79,5.5562e-12,0.00011135,-5.4288e-06,-40.79,0.00016713
10604,0.088235,1.2727,0,0.00051197,5116.1,0.00018875,-1327,1.1284e-06,-2736.7,-0.00056631,-7000.2,6.4408e-05
10605,0.17647,1,0,0.00063075,6303.1,0.00035548,907.92,4.6531e-06,-1728,-0.00060188,-6285.3,0.00019241
10606,0.17647,1.0909,0.05,8.0795e-06,80.739,6.2041e-06,46.615,1.3348e-11,0.00015281,-6.2041e-06,-46.615,0.00016204
10607,0.088235,1.0909,0,0.00049525,4949.1,0.00018217,-1287,1.6241e-06,-2643.5,-0.00054796,-6772.9,6.2468e-05
10608,0.17647,0.81818,0,0.00059585,5954.3,0.00033469,861.66,7.6021e-06,-1596,-0.00056897,-5928.1,0.00018229
10609,0.17647,0.90909,0.05,9.2619e-06,92.555,7.112e-06,53.437,1.5587e-11,0.00019482,-7.112e-06,-53.436,0.00015509
10610,0.088235,0.90909,0,0.00047297,4726.5,0.00017338,-1232,2.5016e-06,-2515.9,-0.00052346,-6467.8,5.9802e-05
10611,0.17647,0.63636,0,0.00054932,5489.4,0.00030554,792.53,1.4119e-05,-1397.1,-0.00052579,-5453.8,0.00016795
10612,0.17647,0.72727,0.05,1.0767e-05,107.6,8.2679e-06,62.122,1.6528e-11,0.00022664,-8.2679e-06,-62.122,0.00014533
10613,0.088235,0.72727,0,0.00044282,4425.2,0.00016143,-1153.9,4.1981e-06,-2335.3,-0.00049018,-6049.9,5.605e-05
10614,0.17647,0.45455,0,0.00048788,4875.4,0.00026315,685.67,2.9861e-05,-1067.2,-0.00047012,-4823.8,0.00014638
10615,0.17647,0.54545,0.05,1.3425e-05,134.16,1.0309e-05,77.455,2.5167e-11,0.00026606,-1.0309e-05,-77.455,0.00013102
10616,0.088235,0.54545,0,0.00040092,4006.4,0.00014435,-1038.4,8.2574e-06,-2061,-0.00044373,-5457.1,5.0495e-05
10617,0.17647,0.27273,0,0.00042217,4218.8,0.00019757,461.57,7.6674e-05,-446.81,-0.00041451,-4137.4,0.00011087
10618,0.17647,0.36364,0.05,1.866e-05,186.47,1.4328e-05,107.66,2.5787e-11,0.00042922,-1.4328e-05,-107.66,0.00010797
10619,0.088235,0.36364,0,0.00034228,3420.4,0.00011943,-843.49,1.9367e-05,-1595.3,-0.00037751,-4577.3,4.1667e-05
10620,0.17647,0.18182,0.05,2.9128e-05,291.08,2.2367e-05,168.06,1.6651e-11,0.00019628,-2.2367e-05,-168.06,6.503e-05
10621,0.17647,0.090909,0,0.00037724,3769.8,0.00013705,207.17,0.00012213,95.098,-0.00037197,-3617.4,5.0562e-05
10622,0.088235,0.18182,0,0.00027,2698.2,8.4303e-05,-421.22,5.8216e-05,-617.22,-0.00028714,-3212.1,2.5618e-05
10623,3.351,0.27273,0,0.00012603,1259.5,6.1712e-05,236.48,2.7509e-05,-20.51,-0.00012038,-1131.7,0.058404
10624,3.4432,0.18182,0,0.00012659,1265,5.2851e-05,122.71,3.3765e-05,-20.699,-0.00012424,-1207.9,0.064361
10625,3.351,0.18182,0.05,1.359e-05,135.81,1.0436e-05,78.411,-1.4849e-12,-1.2187e-05,-1.0436e-05,-78.411,0.057382
10626,3.351,0.090909,0,8.0804e-05,807.48,3.247e-05,59.984,2.2107e-05,-17.882,-7.9805e-05,-783.61,0.056606
10627,3.2588,0.18182,0,7.1738e-05,716.89,2.9573e-05,71.976,2.0065e-05,0.53914,-7.0237e-05,-677.95,0.050662
10628,3.351,0.45455,0,0.00018047,1803.4,9.7012e-05,459.66,3.4228e-05,-12.073,-0.00016816,-1532.7,0.06021
10629,3.4432,0.36364,0,0.00016099,1608.8,7.2533e-05,230.91,4.0279e-05,-11.437,-0.00015588,-1485.3,0.066134
10630,3.351,0.36364,0.05,1.2299e-05,122.9,9.4438e-06,70.957,-2.5058e-12,-5.7924e-06,-9.4437e-06,-70.957,0.059186
10631,3.2588,0.36364,0,0.00011804,1179.6,5.787e-05,235.6,2.7059e-05,4.0945,-0.00011225,-1042.6,0.052488
10632,3.351,0.63636,0,0.00024468,2445.2,0.00014129,754.62,3.9494e-05,-10.204,-0.00022287,-1981.5,0.062031
10633,3.4432,0.54545,0,0.00021205,2119,0.0001065,447.21,4.5962e-05,-7.6814,-0.00020087,-1862.3,0.067906
10634,3.351,0.54545,0.05,1.3127e-05,131.18,1.008e-05,75.735,-2.3259e-12,-1.6065e-14,-1.008e-05,-75.735,0.061004
10635,3.2588,0.54545,0,0.00016903,1689.1,9.2317e-05,457.2,3.1811e-05,2.5831,-0.00015655,-1412.7,0.054341
10636,3.351,0.81818,0,0.00031767,3174.5,0.00019237,1100.9,4.4561e-05,-9.706,-0.00028417,-2479.7,0.063874
10637,3.4432,0.72727,0,0.000273,2728.1,0.00014805,719.02,5.1548e-05,-6.0631,-0.00025354,-2298.4,0.069683
10638,3.351,0.72727,0.05,1.4768e-05,147.58,1.134e-05,85.206,1.5124e-13,-1.8073e-14,-1.134e-05,-85.206,0.06284
10639,3.2588,0.72727,0,0.0002247,2245.5,0.00013103,716.52,3.6004e-05,2.5238,-0.00020378,-1799.1,0.056228
10640,3.351,1,0,0.00040265,4023.7,0.00025194,1505.5,5.0102e-05,-11.031,-0.00035517,-3056.1,0.06574
10641,3.4432,0.90909,0,0.00034392,3436.9,0.00019627,1034.8,5.7794e-05,-5.6654,-0.00031439,-2802.1,0.071465
10642,3.351,0.90909,0.05,1.7225e-05,172.13,1.3227e-05,99.38,1.1526e-12,4.391e-05,-1.3227e-05,-99.38,0.0647
10643,3.2588,0.90909,0,0.00028762,2874.2,0.00017537,1019.2,4.0119e-05,2.9637,-0.00025642,-2225.1,0.058157
10644,3.351,1.1818,0,0.00050562,5052.7,0.00032351,1989.2,5.7259e-05,-11.304,-0.00044132,-3757.4,0.067629
10645,3.4432,1.0909,0,0.00042752,4272.3,0.00025225,1396.2,6.5541e-05,-6.6689,-0.00038623,-3401.1,0.07325
10646,3.351,1.0909,0.05,2.0706e-05,206.91,1.5899e-05,119.46,1.6067e-12,1.8762e-05,-1.5899e-05,-119.46,0.066583
10647,3.2588,1.0909,0,0.00036173,3614.8,0.00022794,1380.2,4.4378e-05,0.92471,-0.00031792,-2721.2,0.060129
10648,3.351,1.3636,0,0.00063693,6364.9,0.00041305,2577.4,6.7096e-05,-21.965,-0.00055229,-4675.8,0.069535
10649,3.4432,1.2727,0,0.00052908,5287.1,0.00031839,1812.2,7.6423e-05,-5.7766,-0.00047434,-4144,0.075034
10650,3.351,1.2727,0.05,2.6062e-05,260.44,2.0013e-05,150.37,1.446e-11,4.8051e-05,-2.0013e-05,-150.37,0.068488
10651,3.2588,1.2727,0,0.00045356,4532.5,0.0002925,1825.7,5.0611e-05,8.1921,-0.00039413,-3333.5,0.062148
10652,3.351,1.5455,0,0.00081899,8184.2,0.00053354,3358,8.5494e-05,-8.4433,-0.00070828,-5972.5,0.071446
10653,3.4432,1.4545,0,0.00065629,6558.3,0.00039713,2271.4,9.241e-05,-18.15,-0.00058724,-5124.8,0.076802
10654,3.351,1.4545,0.05,3.2888e-05,328.65,2.5254e-05,189.75,1.9158e-11,0.00025659,-2.5254e-05,-189.75,0.070404
10655,3.2588,1.4545,0,0.00057614,5757.4,0.00037994,2417.1,5.5272e-05,-22.281,-0.00049521,-4158.4,0.06421
10656,3.351,1.7273,0,0.0010807,10799,0.0006774,4023.7,0.00012965,-91.867,-0.00095323,-8228.2,0.073334
10657,3.4432,1.6364,0,0.00082417,8236,0.00049271,2789.8,0.00012275,10.044,-0.00074055,-6476.5,0.078529
10658,3.351,1.6364,0.05,5.0195e-05,501.61,3.8544e-05,289.6,3.7525e-11,0.00043966,-3.8544e-05,-289.6,0.072315
10659,3.2588,1.6364,0,0.00074191,7414,0.00048424,3107.4,8.2885e-05,91.815,-0.00063993,-5339.2,0.06631
10660,3.351,1.9091,0,0.0013558,13548,0.00074514,3444.8,0.00022143,-490.13,-0.0012619,-11635,0.07514
10661,3.4432,1.8182,0,0.0010572,10565,0.00059029,2967.1,0.00018291,-93.761,-0.00097452,-8790.3,0.080172
10662,3.351,1.8182,0.05,9.1751e-05,916.87,7.0453e-05,529.36,1.2353e-10,0.0012168,-7.0453e-05,-529.36,0.074174
10663,3.2588,1.8182,0,0.0010732,10725,0.00074589,4844.4,4.6218e-05,-412.62,-0.00089631,-7494.4,0.068428
10664,3.351,2.0909,0,0.001461,14600,0.00064119,1751.2,0.00036398,-331.68,-0.0014257,-13778,0.07674
10665,3.4432,2,0,0.0012442,12434,0.00057787,1858.5,0.00028531,-339.7,-0.0012037,-11528,0.08167
10666,3.351,2,0.05,0.00016763,1675.2,0.00012872,967.17,6.7123e-11,0.00098693,-0.00012872,-967.17,0.075899
10667,3.2588,2,0,0.0021912,21896,0.00099507,2997.7,0.00051875,-581.12,-0.002128,-20468,0.07045
10668,3.351,2.2727,0,0.001418,14170,0.0005421,890.95,0.0004224,-8.4201,-0.0014009,-13708,0.078088
10669,3.4432,2.1818,0,0.0012754,12745,0.00048002,731.91,0.00038675,31.076,-0.001261,-12349,0.082972
10670,3.351,2.1818,0.05,8.5889e-05,858.3,6.5952e-05,495.54,-4.367e-11,0.00020634,-6.5952e-05,-495.54,0.077387
10671,3.351,2.4545,0,0.0013303,13294,0.0004982,708.74,0.00040262,-9.4211,-0.0013169,-12929,0.079129
10672,3.4432,2.3636,0,0.0012487,12479,0.00045776,539.65,0.00038352,-18.174,-0.0012389,-12208,0.084046
10673,3.351,2.3636,0.05,3.7942e-05,379.15,2.9135e-05,218.91,-1.9221e-11,0.00030547,-2.9134e-05,-218.9,0.078584
10674,3.351,2.6364,0,0.0012516,12508,0.00046099,578.4,0.00038412,0.77627,-0.0012408,-12208,0.079861
10675,3.4432,2.5455,0,0.0011971,11963,0.00043144,439.3,0.00037331,2.5268,-0.001189,-11736,0.084858
10676,3.351,2.5455,0.05,2.1782e-05,217.67,1.6726e-05,125.67,-1.9286e-11,0.00016591,-1.6726e-05,-125.67,0.079472
10677,3.351,2.8182,0,0.0012082,12073,0.00044159,515.28,0.00037271,-2.3276,-0.0011986,-11809,0.080295
10678,3.4432,2.7273,0,0.0011604,11596,0.00041547,389.8,0.00036327,-2.4305,-0.0011534,-11398,0.0854
10679,3.351,2.7273,0.05,1.4025e-05,140.16,1.077e-05,80.919,-5.8595e-12,8.5856e-05,-1.077e-05,-80.919,0.080056
10680,3.351,3,0,0.0011941,11933,0.00043507,493.54,0.00036933,-0.42206,-0.001185,-11679,0.080438
10681,3.4432,2.9091,0,0.0011417,11409,0.00040716,365.27,0.00035851,-0.28426,-0.0011351,-11222,0.085669
10682,3.351,2.9091,0.05,1.1324e-05,113.16,8.6953e-06,65.333,-3.5226e-12,-4.4772e-06,-8.6953e-06,-65.333,0.080344
10683,3.351,3.1818,0,0.0012082,12073,0.00044159,515.28,0.00037271,-2.3276,-0.0011986,-11809,0.080295
10684,3.4432,3.0909,0,0.0011417,11409,0.00040716,365.27,0.00035851,-0.28426,-0.0011351,-11222,0.085669
10685,3.351,3.0909,0.05,1.1324e-05,113.16,8.6953e-06,65.333,3.5226e-12,-4.4964e-05,-8.6953e-06,-65.333,0.080344
10686,3.351,3.3636,0,0.0012516,12508,0.00046099,578.39,0.00038412,0.77626,-0.0012408,-12208,0.079861
10687,3.4432,3.2727,0,0.0011604,11596,0.00041547,389.8,0.00036327,-2.4305,-0.0011534,-11398,0.0854
10688,3.351,3.2727,0.05,1.4025e-05,140.16,1.077e-05,80.919,3.0646e-12,-0.00012691,-1.077e-05,-80.919,0.080056
10689,3.351,3.5455,0,0.0013303,13294,0.0004982,708.73,0.00040262,-9.4211,-0.0013169,-12929,0.079129
10690,3.4432,3.4545,0,0.0011971,11963,0.00043144,439.3,0.00037331,2.5268,-0.001189,-11736,0.084858
10691,3.351,3.4545,0.05,2.1782e-05,217.67,1.6726e-05,125.67,1.6012e-11,-0.00020825,-1.6726e-05,-125.67,0.079472
10692,3.351,3.7273,0,0.001418,14170,0.0005421,890.95,0.0004224,-8.4201,-0.0014009,-13708,0.078088
10693,3.4432,3.6364,0,0.0012487,12479,0.00045776,539.64,0.00038352,-18.174,-0.0012389,-12208,0.084046
10694,3.351,3.6364,0.05,3.7942e-05,379.15,2.9134e-05,218.9,2.0785e-11,-0.00033772,-2.9135e-05,-218.91,0.078584
10695,3.351,3.9091,0,0.001461,14600,0.00064119,1751.2,0.00036398,-331.68,-0.0014257,-13778,0.07674
10696,3.4432,3.8182,0,0.0012754,12745,0.00048002,731.91,0.00038675,31.076,-0.001261,-12349,0.082972
10697,3.351,3.8182,0.05,8.5889e-05,858.3,6.5952e-05,495.54,4.6798e-11,-0.00024494,-6.5952e-05,-495.54,0.077387
10698,3.351,4.0909,0,0.0013558,13548,0.00074514,3444.8,0.00022143,-490.13,-0.0012619,-11635,0.07514
10699,3.4432,4,0,0.0012442,12434,0.00057787,1858.5,0.00028531,-339.7,-0.0012037,-11528,0.08167
10700,3.351,4,0.05,0.00016763,1675.2,0.00012872,967.17,-6.0182e-11,-0.000989,-0.00012872,-967.17,0.075899
10701,3.2588,4,0,0.0021912,21896,0.00099507,2997.7,0.00051875,-581.12,-0.002128,-20468,0.07045
10702,3.351,4.2727,0,0.0010807,10799,0.0006774,4023.7,0.00012965,-91.867,-0.00095323,-8228.2,0.073334
10703,3.4432,4.1818,0,0.0010572,10565,0.00059029,2967.1,0.00018291,-93.761,-0.00097452,-8790.3,0.080172
10704,3.351,4.1818,0.05,9.1751e-05,916.87,7.0453e-05,529.36,-1.3296e-10,-0.0012657,-7.0453e-05,-529.36,0.074174
10705,3.2588,4.1818,0,0.0010732,10725,0.00074589,4844.4,4.6218e-05,-412.62,-0.00089631,-7494.4,0.068428
10706,3.351,4.4545,0,0.00081899,8184.2,0.00053354,3358,8.5494e-05,-8.4433,-0.00070828,-5972.5,0.071446
10707,3.4432,4.3636,0,0.00082417,8236.1,0.00049271,2789.8,0.00012275,10.044,-0.00074055,-6476.5,0.078529
10708,3.351,4.3636,0.05,5.0195e-05,501.61,3.8544e-05,289.6,-3.8594e-11,-0.00046668,-3.8544e-05,-289.6,0.072315
10709,3.2588,4.3636,0,0.00074191,7414,0.00048424,3107.4,8.2885e-05,91.815,-0.00063993,-5339.2,0.06631
10710,3.351,4.6364,0,0.00063693,6364.9,0.00041305,2577.4,6.7096e-05,-21.965,-0.00055229,-4675.8,0.069535
10711,3.4432,4.5455,0,0.00065629,6558.3,0.00039713,2271.4,9.241e-05,-18.15,-0.00058724,-5124.8,0.076802
10712,3.351,4.5455,0.05,3.2888e-05,328.65,2.5254e-05,189.75,-1.8997e-11,-0.00026627,-2.5254e-05,-189.75,0.070404
10713,3.2588,4.5455,0,0.00057614,5757.4,0.00037994,2417.1,5.5272e-05,-22.281,-0.00049521,-4158.4,0.06421
10714,3.351,4.8182,0,0.00050562,5052.7,0.00032351,1989.2,5.7259e-05,-11.304,-0.00044132,-3757.4,0.067629
10715,3.4432,4.7273,0,0.00052908,5287.1,0.00031839,1812.2,7.6423e-05,-5.7766,-0.00047434,-4144,0.075034
10716,3.351,4.7273,0.05,2.6062e-05,260.44,2.0013e-05,150.37,-1.446e-11,-6.2105e-05,-2.0013e-05,-150.37,0.068488
10717,3.2588,4.7273,0,0.00045356,4532.5,0.0002925,1825.7,5.0611e-05,8.1921,-0.00039413,-3333.5,0.062148
10718,3.351,5,0,0.00040265,4023.7,0.00025194,1505.5,5.0102e-05,-11.031,-0.00035517,-3056.1,0.06574
10719,3.4432,4.9091,0,0.00042752,4272.3,0.00025225,1396.2,6.5541e-05,-6.6689,-0.00038623,-3401.1,0.07325
10720,3.351,4.9091,0.05,2.0706e-05,206.91,1.5899e-05,119.46,-2.2366e-12,-2.3453e-05,-1.5899e-05,-119.46,0.066583
10721,3.2588,4.9091,0,0.00036173,3614.8,0.00022794,1380.2,4.4378e-05,0.92471,-0.00031792,-2721.2,0.060129
10722,3.351,5.1818,0,0.00031767,3174.5,0.00019237,1100.9,4.4561e-05,-9.706,-0.00028417,-2479.7,0.063874
10723,3.4432,5.0909,0,0.00034392,3436.9,0.00019627,1034.8,5.7794e-05,-5.6654,-0.00031439,-2802.1,0.071465
10724,3.351,5.0909,0.05,1.7225e-05,172.13,1.3227e-05,99.38,-2.8816e-13,-6.8483e-05,-1.3227e-05,-99.38,0.0647
10725,3.2588,5.0909,0,0.00028762,2874.2,0.00017537,1019.2,4.0119e-05,2.9637,-0.00025642,-2225.1,0.058157
10726,3.351,5.3636,0,0.00024468,2445.2,0.00014129,754.62,3.9494e-05,-10.204,-0.00022287,-1981.5,0.062031
10727,3.4432,5.2727,0,0.000273,2728.1,0.00014805,719.02,5.1548e-05,-6.0631,-0.00025354,-2298.4,0.069683
10728,3.351,5.2727,0.05,1.4768e-05,147.58,1.134e-05,85.206,1.4115e-12,-1.8073e-14,-1.134e-05,-85.206,0.06284
10729,3.2588,5.2727,0,0.0002247,2245.5,0.00013103,716.52,3.6004e-05,2.5238,-0.00020378,-1799.1,0.056228
10730,3.351,5.5455,0,0.00018047,1803.4,9.7012e-05,459.66,3.4228e-05,-12.073,-0.00016816,-1532.7,0.06021
10731,3.4432,5.4545,0,0.00021205,2119,0.0001065,447.21,4.5962e-05,-7.6814,-0.00020087,-1862.3,0.067906
10732,3.351,5.4545,0.05,1.3127e-05,131.18,1.008e-05,75.735,2.1641e-12,8.1432e-06,-1.008e-05,-75.735,0.061004
10733,3.2588,5.4545,0,0.00016903,1689.1,9.2317e-05,457.2,3.1811e-05,2.5831,-0.00015655,-1412.7,0.054341
10734,3.351,5.7273,0,0.00012603,1259.5,6.1712e-05,236.48,2.7509e-05,-20.51,-0.00012038,-1131.7,0.058404
10735,3.4432,5.6364,0,0.00016099,1608.8,7.2533e-05,230.91,4.0279e-05,-11.437,-0.00015588,-1485.3,0.066134
10736,3.351,5.6364,0.05,1.2299e-05,122.9,9.4438e-06,70.957,2.851e-12,5.7924e-06,-9.4438e-06,-70.957,0.059186
10737,3.2588,5.6364,0,0.00011804,1179.6,5.787e-05,235.6,2.7059e-05,4.0945,-0.00011225,-1042.6,0.052488
10738,3.4432,5.8182,0,0.00012659,1265,5.2851e-05,122.71,3.3765e-05,-20.699,-0.00012424,-1207.9,0.064361
10739,3.351,5.8182,0.05,1.359e-05,135.81,1.0436e-05,78.411,1.5143e-12,1.2187e-05,-1.0436e-05,-78.411,0.057382
10740,3.351,5.9091,0,8.0804e-05,807.48,3.247e-05,59.984,2.2107e-05,-17.882,-7.9805e-05,-783.61,0.056606
10741,3.2588,5.8182,0,7.1738e-05,716.89,2.9573e-05,71.976,2.0065e-05,0.53914,-7.0237e-05,-677.95,0.050662
10742,3.5354,0.27273,0,0.00016686,1667.4,6.7369e-05,144.92,4.7088e-05,-7.4647,-0.000164,-1593.5,0.072109
10743,3.6276,0.18182,0,0.00018196,1818.3,6.9582e-05,111.65,5.3915e-05,-6.0623,-0.00017988,-1762.7,0.078131
10744,3.5354,0.18182,0.05,1.2087e-05,120.78,9.2811e-06,69.735,-4.0845e-13,-2.0039e-06,-9.2811e-06,-69.735,0.071133
10745,3.5354,0.090909,0,0.00014155,1414.6,5.0853e-05,49.191,4.4167e-05,-1.0386,-0.00014067,-1389.8,0.070354
10746,3.5354,0.45455,0,0.00020059,2004.6,8.789e-05,262.52,5.2416e-05,-4.0209,-0.00019486,-1862,0.073848
10747,3.6276,0.36364,0,0.00020204,2019.1,8.0219e-05,161.13,5.8102e-05,-5.041,-0.00019888,-1935.9,0.079849
10748,3.5354,0.36364,0.05,1.0461e-05,104.54,8.0326e-06,60.354,6.4728e-13,7.2397e-06,-8.0326e-06,-60.354,0.072882
10749,3.5354,0.63636,0,0.00024902,2488.5,0.00011956,458.91,5.8199e-05,-2.1684,-0.00023802,-2227.9,0.075574
10750,3.6276,0.54545,0,0.00023822,2380.6,0.00010279,292.79,6.3361e-05,-3.4892,-0.00023191,-2222.1,0.081541
10751,3.5354,0.54545,0.05,1.0583e-05,105.76,8.1267e-06,61.061,1.4052e-12,2.1858e-05,-8.1267e-06,-61.061,0.074617
10752,3.5354,0.81818,0,0.00030842,3082,0.0001585,702.13,6.489e-05,-1.2017,-0.00029041,-2670.8,0.077291
10753,3.6276,0.72727,0,0.0002862,2860,0.00013335,476.11,6.9659e-05,-2.4624,-0.00027512,-2593,0.083211
10754,3.5354,0.72727,0.05,1.1205e-05,111.98,8.6044e-06,64.65,4.1444e-12,4.2034e-05,-8.6044e-06,-64.65,0.076343
10755,3.5354,1,0,0.000379,3787.4,0.00020376,979.46,7.3311e-05,-0.71529,-0.00035271,-3201.6,0.078997
10756,3.6276,0.90909,0,0.00034467,3444.3,0.00016996,692.47,7.7515e-05,-2.1309,-0.00032763,-3046.2,0.084855
10757,3.5354,0.90909,0.05,1.2294e-05,122.86,9.4403e-06,70.93,6.893e-12,8.0726e-05,-9.4403e-06,-70.93,0.078058
10758,3.5354,1.1818,0,0.00046323,4629.1,0.00025565,1283.3,8.4762e-05,-0.71765,-0.00042784,-3852.2,0.080685
10759,3.6276,1.0909,0,0.00041408,4138,0.00021169,928.11,8.7879e-05,-2.159,-0.00039041,-3595.8,0.086471
10760,3.5354,1.0909,0.05,1.3924e-05,139.15,1.0692e-05,80.337,1.444e-11,0.00010219,-1.0692e-05,-80.337,0.079759
10761,3.5354,1.3636,0,0.00056413,5637.4,0.00031322,1587.1,0.00010179,-1.5707,-0.0005201,-4674.2,0.082343
10762,3.6276,1.2727,0,0.00049613,4957.9,0.00025785,1166.2,0.00010229,-2.6552,-0.00046589,-4271.7,0.088046
10763,3.5354,1.2727,0.05,1.5979e-05,159.68,1.227e-05,92.194,1.9333e-11,0.00018444,-1.227e-05,-92.194,0.081438
10764,3.5354,1.5455,0,0.00068476,6842.9,0.00037208,1821.7,0.0001297,0.57054,-0.00063532,-5747.5,0.083952
10765,3.6276,1.4545,0,0.00059207,5916.6,0.00030553,1363.4,0.0001236,-3.5334,-0.00055696,-5117,0.089564
10766,3.5354,1.4545,0.05,1.9899e-05,198.85,1.528e-05,114.81,2.8211e-11,0.00032614,-1.528e-05,-114.81,0.083079
10767,3.5354,1.7273,0,0.0008214,8208.3,0.00041849,1830,0.00017609,8.7162,-0.00077481,-7136,0.085479
10768,3.6276,1.6364,0,0.00070204,7015.6,0.00034845,1438.5,0.00015621,-5.948,-0.00066642,-6186.9,0.091004
10769,3.5354,1.6364,0.05,1.9916e-05,199.02,1.5293e-05,114.9,6.006e-11,0.00059349,-1.5293e-05,-114.9,0.084655
10770,3.5354,1.9091,0,0.00094266,9420.1,0.00041884,1349.4,0.00024672,56.066,-0.00091207,-8650.6,0.086882
10771,3.6276,1.8182,0,0.00081614,8155.7,0.00037042,1238.2,0.00020572,0.70764,-0.00078798,-7465.6,0.092333
10772,3.5354,1.8182,0.05,3.0912e-05,308.9,2.3736e-05,178.35,9.128e-11,0.00083269,-2.3736e-05,-178.35,0.08613
10773,3.5354,2.0909,0,0.0010401,10394,0.00039664,688.49,0.0003149,74.364,-0.0010258,-9999.1,0.088128
10774,3.6276,2,0,0.00090877,9081.4,0.00035327,667.71,0.00026945,37.936,-0.00089513,-8712.2,0.093525
10775,3.5354,2,0.05,2.8966e-05,289.46,2.2242e-05,167.12,-9.8828e-13,0.0003089,-2.2242e-05,-167.12,0.087461
10776,3.5354,2.2727,0,0.0010985,10977,0.0003891,331.16,0.00034763,19.559,-0.0010922,-10799,0.08919
10777,3.6276,2.1818,0,0.00098466,9839.8,0.00034417,241.66,0.00031441,18.013,-0.00098005,-9708,0.094561
10778,3.5354,2.1818,0.05,4.0553e-05,405.25,3.114e-05,233.97,-3.1695e-11,8.9143e-05,-3.114e-05,-233.97,0.088619
10779,3.5354,2.4545,0,0.0011129,11121,0.0003885,251.39,0.00035417,-6.4932,-0.0011085,-10996,0.090043
10780,3.6276,2.3636,0,0.0010245,10238,0.00034719,107.22,0.00033247,-3.3797,-0.0010227,-10185,0.095425
10781,3.5354,2.3636,0.05,2.9662e-05,296.41,2.2777e-05,171.14,-3.2571e-11,5.3495e-05,-2.2777e-05,-171.13,0.089583
10782,3.5354,2.6364,0,0.0011047,11039,0.00038465,241.19,0.00035249,-0.50086,-0.0011004,-10917,0.090662
10783,3.6276,2.5455,0,0.0010357,10350,0.00035002,97.419,0.00033677,-2.1726,-0.0010341,-10302,0.096092
10784,3.5354,2.5455,0.05,2.2778e-05,227.62,1.7491e-05,131.42,-2.4101e-11,2.6681e-05,-1.7491e-05,-131.42,0.090323
10785,3.5354,2.8182,0,0.001093,10922,0.00038005,232.38,0.00034909,-0.26685,-0.0010888,-10804,0.091036
10786,3.6276,2.7273,0,0.0010336,10329,0.00034902,94.635,0.00033633,-0.75081,-0.001032,-10282,0.096545
10787,3.5354,2.7273,0.05,1.7038e-05,170.26,1.3083e-05,98.299,-1.7106e-11,-1.4744e-05,-1.3083e-05,-98.299,0.090821
10788,3.5354,3,0,0.0010883,10876,0.00037829,229.78,0.00034771,0.057018,-0.0010842,-10759,0.091161
10789,3.6276,2.9091,0,0.0010304,10297,0.00034793,95.006,0.00033535,0.46247,-0.0010287,-10249,0.096773
10790,3.5354,2.9091,0.05,1.4587e-05,145.77,1.1201e-05,84.16,-8.7366e-12,-2.124e-05,-1.1201e-05,-84.16,0.091071
10791,3.5354,3.1818,0,0.001093,10922,0.00038005,232.38,0.00034909,-0.26685,-0.0010888,-10804,0.091036
10792,3.6276,3.0909,0,0.0010304,10297,0.00034793,95.006,0.00033535,0.46247,-0.0010287,-10249,0.096773
10793,3.5354,3.0909,0.05,1.4587e-05,145.77,1.1201e-05,84.16,5.0733e-12,-1.4936e-05,-1.1201e-05,-84.16,0.091071
10794,3.5354,3.3636,0,0.0011047,11039,0.00038465,241.19,0.00035249,-0.50086,-0.0011004,-10917,0.090662
10795,3.6276,3.2727,0,0.0010336,10329,0.00034902,94.635,0.00033633,-0.75081,-0.001032,-10282,0.096545
10796,3.5354,3.2727,0.05,1.7038e-05,170.26,1.3083e-05,98.299,1.3143e-11,-2.5076e-05,-1.3083e-05,-98.299,0.090821
10797,3.5354,3.5455,0,0.0011129,11121,0.0003885,251.39,0.00035417,-6.4932,-0.0011085,-10996,0.090043
10798,3.6276,3.4545,0,0.0010357,10350,0.00035002,97.419,0.00033677,-2.1726,-0.0010341,-10302,0.096092
10799,3.5354,3.4545,0.05,2.2778e-05,227.62,1.7491e-05,131.42,2.3271e-11,-6.2779e-05,-1.7491e-05,-131.42,0.090323
10800,3.5354,3.7273,0,0.0010985,10978,0.0003891,331.16,0.00034763,19.559,-0.0010922,-10799,0.08919
10801,3.6276,3.6364,0,0.0010245,10238,0.00034719,107.22,0.00033247,-3.3797,-0.0010227,-10185,0.095425
10802,3.5354,3.6364,0.05,2.9662e-05,296.41,2.2777e-05,171.13,3.2549e-11,-8.2254e-05,-2.2777e-05,-171.14,0.089583
10803,3.5354,3.9091,0,0.0010401,10394,0.00039664,688.49,0.0003149,74.364,-0.0010258,-9999.1,0.088128
10804,3.6276,3.8182,0,0.00098466,9839.8,0.00034417,241.66,0.00031441,18.013,-0.00098005,-9708,0.094561
10805,3.5354,3.8182,0.05,4.0553e-05,405.25,3.114e-05,233.97,3.1441e-11,-0.00012494,-3.114e-05,-233.97,0.088619
10806,3.5354,4.0909,0,0.00094266,9420.1,0.00041884,1349.4,0.00024672,56.066,-0.00091207,-8650.6,0.086882
10807,3.6276,4,0,0.00090877,9081.4,0.00035327,667.71,0.00026945,37.936,-0.00089513,-8712.2,0.093525
10808,3.5354,4,0.05,2.8966e-05,289.46,2.2242e-05,167.12,4.919e-12,-0.00028763,-2.2242e-05,-167.12,0.087461
10809,3.5354,4.2727,0,0.0008214,8208.3,0.00041849,1830,0.00017609,8.7162,-0.00077481,-7136,0.085479
10810,3.6276,4.1818,0,0.00081614,8155.7,0.00037042,1238.2,0.00020572,0.70763,-0.00078798,-7465.6,0.092333
10811,3.5354,4.1818,0.05,3.0912e-05,308.9,2.3736e-05,178.35,-9.392e-11,-0.00091456,-2.3736e-05,-178.35,0.08613
10812,3.5354,4.4545,0,0.00068476,6842.9,0.00037208,1821.7,0.0001297,0.57055,-0.00063532,-5747.5,0.083952
10813,3.6276,4.3636,0,0.00070204,7015.6,0.00034845,1438.5,0.00015621,-5.948,-0.00066642,-6186.9,0.091004
10814,3.5354,4.3636,0.05,1.9916e-05,199.02,1.5293e-05,114.9,-6.1778e-11,-0.00060611,-1.5293e-05,-114.9,0.084655
10815,3.5354,4.6364,0,0.00056413,5637.4,0.00031322,1587.1,0.00010179,-1.5707,-0.0005201,-4674.2,0.082343
10816,3.6276,4.5455,0,0.00059207,5916.6,0.00030553,1363.4,0.0001236,-3.5334,-0.00055696,-5117,0.089564
10817,3.5354,4.5455,0.05,1.9899e-05,198.85,1.528e-05,114.81,-3.2966e-11,-0.00034286,-1.528e-05,-114.81,0.083079
10818,3.5354,4.8182,0,0.00046323,4629.1,0.00025565,1283.3,8.4762e-05,-0.71766,-0.00042784,-3852.2,0.080685
10819,3.6276,4.7273,0,0.00049613,4957.9,0.00025785,1166.2,0.00010229,-2.6552,-0.00046589,-4271.7,0.088046
10820,3.5354,4.7273,0.05,1.5979e-05,159.68,1.227e-05,92.194,-1.9333e-11,-0.00020374,-1.227e-05,-92.194,0.081438
10821,3.5354,5,0,0.000379,3787.4,0.00020376,979.46,7.3311e-05,-0.71529,-0.00035271,-3201.6,0.078997
10822,3.6276,4.9091,0,0.00041408,4138,0.00021169,928.11,8.7879e-05,-2.159,-0.00039041,-3595.8,0.086471
10823,3.5354,4.9091,0.05,1.3924e-05,139.15,1.0692e-05,80.337,-1.444e-11,-0.00010392,-1.0692e-05,-80.337,0.079759
10824,3.5354,5.1818,0,0.00030842,3082,0.0001585,702.13,6.489e-05,-1.2017,-0.00029041,-2670.8,0.077291
10825,3.6276,5.0909,0,0.00034467,3444.3,0.00016996,692.47,7.7515e-05,-2.1309,-0.00032763,-3046.2,0.084855
10826,3.5354,5.0909,0.05,1.2294e-05,122.86,9.4403e-06,70.93,-7.5419e-12,-8.4355e-05,-9.4403e-06,-70.93,0.078058
10827,3.5354,5.3636,0,0.00024902,2488.5,0.00011956,458.91,5.8199e-05,-2.1684,-0.00023802,-2227.9,0.075574
10828,3.6276,5.2727,0,0.0002862,2860,0.00013335,476.11,6.9659e-05,-2.4624,-0.00027512,-2593,0.083211
10829,3.5354,5.2727,0.05,1.1205e-05,111.98,8.6044e-06,64.65,-4.5554e-12,-3.9188e-05,-8.6044e-06,-64.65,0.076343
10830,3.5354,5.5455,0,0.00020059,2004.6,8.789e-05,262.52,5.2416e-05,-4.0209,-0.00019486,-1862,0.073848
10831,3.6276,5.4545,0,0.00023822,2380.6,0.00010279,292.79,6.3361e-05,-3.4892,-0.00023191,-2222.1,0.081541
10832,3.5354,5.4545,0.05,1.0583e-05,105.76,8.1267e-06,61.061,-5.1041e-13,-1.8886e-05,-8.1267e-06,-61.061,0.074617
10833,3.5354,5.7273,0,0.00016686,1667.4,6.7369e-05,144.92,4.7088e-05,-7.4647,-0.000164,-1593.5,0.072109
10834,3.6276,5.6364,0,0.00020204,2019.1,8.0219e-05,161.13,5.8102e-05,-5.041,-0.00019888,-1935.9,0.079849
10835,3.5354,5.6364,0.05,1.0461e-05,104.54,8.0326e-06,60.354,-4.6256e-13,-3.6198e-06,-8.0326e-06,-60.354,0.072882
10836,3.6276,5.8182,0,0.00018196,1818.3,6.9582e-05,111.65,5.3915e-05,-6.0623,-0.00017988,-1762.7,0.078131
10837,3.5354,5.8182,0.05,1.2087e-05,120.78,9.2811e-06,69.735,-5.9046e-13,6.2581e-07,-9.2811e-06,-69.735,0.071133
10838,3.5354,5.9091,0,0.00014155,1414.6,5.0853e-05,49.191,4.4167e-05,-1.0386,-0.00014067,-1389.8,0.070354
10839,3.7198,0.27273,0,0.00021834,2181.9,8.3509e-05,135.96,6.4855e-05,-4.1979,-0.00021576,-2112.6,0.085905
10840,3.8119,0.18182,0,0.00023415,2339.9,8.6845e-05,114.1,7.1353e-05,-2.3052,-0.00023203,-2281.8,0.092013
10841,3.7198,0.18182,0.05,1.1156e-05,111.49,8.5667e-06,64.367,4.4919e-13,3.6503e-06,-8.5667e-06,-64.367,0.084969
10842,3.7198,0.090909,0,0.00019868,1985.4,7.03e-05,56.537,6.2685e-05,-0.68262,-0.00019766,-1956.8,0.084197
10843,3.7198,0.45455,0,0.00024278,2426.1,9.7657e-05,210.45,6.9138e-05,-3.8274,-0.00023855,-2315.7,0.087577
10844,3.8119,0.36364,0,0.00024978,2496,9.5307e-05,153.91,7.4439e-05,-2.8912,-0.00024684,-2416.8,0.093675
10845,3.7198,0.36364,0.05,9.516e-06,95.094,7.3071e-06,54.903,1.3255e-12,1.3406e-05,-7.3071e-06,-54.903,0.086661
10846,3.7198,0.63636,0,0.00028016,2799.6,0.0001204,338.66,7.4875e-05,-3.3817,-0.00027288,-2616.3,0.089213
10847,3.8119,0.54545,0,0.00027752,2773.2,0.00011151,239.94,7.9192e-05,-2.8598,-0.00027268,-2646.7,0.095292
10848,3.7198,0.54545,0.05,9.5527e-06,95.461,7.3353e-06,55.114,2.5014e-12,3.7266e-05,-7.3353e-06,-55.114,0.088317
10849,3.7198,0.81818,0,0.00032836,3281.3,0.00014942,501.03,8.2309e-05,-3.2049,-0.00031697,-3003.2,0.090815
10850,3.8119,0.72727,0,0.00031561,3153.9,0.00013374,358.61,8.5642e-05,-2.7575,-0.00030799,-2960.4,0.096864
10851,3.7198,0.72727,0.05,9.8875e-06,98.806,7.5923e-06,57.046,5.7203e-12,5.8995e-05,-7.5924e-06,-57.046,0.089939
10852,3.7198,1,0,0.00038665,3863.8,0.00018311,680.34,9.2094e-05,-3.4906,-0.00037056,-3479.7,0.092376
10853,3.8119,0.90909,0,0.00036317,3629.2,0.00016061,496.4,9.4167e-05,-2.8306,-0.00035219,-3356.5,0.098388
10854,3.7198,0.90909,0.05,1.042e-05,104.13,8.0016e-06,60.121,8.6194e-12,9.7551e-05,-8.0016e-06,-60.121,0.091524
10855,3.7198,1.1818,0,0.00045488,4545.7,0.00021971,854.73,0.00010541,-4.0706,-0.00043428,-4059.1,0.093889
10856,3.8119,1.0909,0,0.00041965,4193.6,0.00019058,636.06,0.00010549,-3.248,-0.00040521,-3840.5,0.099856
10857,3.7198,1.0909,0.05,1.1098e-05,110.91,8.5221e-06,64.032,1.6127e-11,0.00014899,-8.5221e-06,-64.032,0.093065
10858,3.7198,1.3636,0,0.00053282,5324.5,0.00025645,989.79,0.0001241,-4.6214,-0.00050904,-4761.8,0.095341
10859,3.8119,1.2727,0,0.00048446,4841.3,0.00022147,752.51,0.0001208,-3.8694,-0.00046727,-4422.4,0.10126
10860,3.7198,1.2727,0.05,1.1771e-05,117.63,9.0386e-06,67.913,2.3998e-11,0.00030733,-9.0386e-06,-67.913,0.094552
10861,3.7198,1.5455,0,0.00061725,6168.2,0.00028738,1021.3,0.00015011,-10.066,-0.00059354,-5597.5,0.096713
10862,3.8119,1.4545,0,0.00055643,5560.5,0.00024996,808.88,0.00014169,-4.6034,-0.00053826,-5113.5,0.10258
10863,3.7198,1.4545,0.05,1.1911e-05,119.02,9.1459e-06,68.719,3.9629e-11,0.00038954,-9.1459e-06,-68.719,0.095969
10864,3.7198,1.7273,0,0.00070207,7015.8,0.00030387,872.92,0.00018597,-12.92,-0.00068323,-6543.8,0.097984
10865,3.8119,1.6364,0,0.00063108,6306.4,0.00026988,745.44,0.00016943,-9.3154,-0.00061515,-5904.4,0.10381
10866,3.7198,1.6364,0.05,1.2417e-05,124.09,9.5348e-06,71.641,5.7734e-11,0.00059307,-9.5348e-06,-71.641,0.097296
10867,3.7198,1.9091,0,0.00078184,7813,0.00030485,556.66,0.00022847,-17.251,-0.00077108,-7527.5,0.099132
10868,3.8119,1.8182,0,0.00070316,7026.7,0.00027569,523.18,0.0002049,-8.7582,-0.0006929,-6754.4,0.10492
10869,3.7198,1.8182,0.05,1.4282e-05,142.72,1.0966e-05,82.398,4.7723e-11,0.00054635,-1.0966e-05,-82.398,0.098509
10870,3.7198,2.0909,0,0.00085159,8510,0.00029978,213.23,0.00026866,-20.639,-0.00084807,-8411.3,0.10014
10871,3.8119,2,0,0.00076885,7683.2,0.00027248,215.6,0.00024155,-16.746,-0.0007652,-7581.1,0.10591
10872,3.7198,2,0.05,1.8745e-05,187.32,1.4394e-05,108.15,2.9307e-12,0.00031133,-1.4394e-05,-108.15,0.099591
10873,3.7198,2.2727,0,0.00090776,9071.4,0.00030105,8.6156,0.00029783,-15.609,-0.00090788,-9074.9,0.101
10874,3.8119,2.1818,0,0.00082571,8251.4,0.00027636,10.665,0.0002669,-60.457,-0.00082654,-8276.1,0.10676
10875,3.7198,2.1818,0.05,2.08e-05,207.85,1.5972e-05,120.01,-8.8355e-12,0.00018222,-1.5972e-05,-120,0.10053
10876,3.7198,2.4545,0,0.00094476,9441.1,0.00031576,6.1543,0.00030558,-70.355,-0.00094583,-9473,0.10169
10877,3.8119,2.3636,0,0.0008706,8699.9,0.00029552,5.3509,0.00027382,-157.67,-0.00087307,-8775,0.10747
10878,3.7198,2.3636,0.05,2.1453e-05,214.39,1.6474e-05,123.78,-2.399e-11,1.4486e-05,-1.6474e-05,-123.78,0.10131
10879,3.7198,2.6364,0,0.00096276,9621,0.00032135,3.17,0.00031184,-68.281,-0.00096385,-9653.4,0.1022
10880,3.8119,2.5455,0,0.00089818,8975.6,0.00030523,2.0794,0.00028158,-175.62,-0.000901,-9061,0.10801
10881,3.7198,2.5455,0.05,1.8752e-05,187.39,1.44e-05,108.19,-2.7645e-11,-2.1956e-05,-1.4399e-05,-108.19,0.10191
10882,3.7198,2.8182,0,0.00096953,9688.6,0.00032287,2.1416,0.00031519,-55.563,-0.00097043,-9715.2,0.10251
10883,3.8119,2.7273,0,0.00091216,9115.3,0.00030941,1.9431,0.00028692,-167.06,-0.00091485,-9196.7,0.10839
10884,3.7198,2.7273,0.05,1.6488e-05,164.77,1.2661e-05,95.128,-1.7771e-11,-3.1639e-05,-1.2661e-05,-95.128,0.10233
10885,3.7198,3,0,0.00097107,9704,0.00032303,1.2632,0.00031622,-49.928,-0.00097189,-9728.3,0.10262
10886,3.8119,2.9091,0,0.00091761,9169.8,0.00031075,1.4297,0.00028945,-158.62,-0.00092018,-9247.3,0.10858
10887,3.7198,2.9091,0.05,1.5143e-05,151.32,1.1628e-05,87.368,-9.2512e-12,-2.3446e-05,-1.1628e-05,-87.367,0.10253
10888,3.7198,3.1818,0,0.00096953,9688.6,0.00032287,2.1416,0.00031519,-55.563,-0.00097043,-9715.2,0.10251
10889,3.8119,3.0909,0,0.00091761,9169.8,0.00031075,1.4297,0.00028945,-158.62,-0.00092018,-9247.3,0.10858
10890,3.7198,3.0909,0.05,1.5143e-05,151.32,1.1628e-05,87.367,9.2548e-12,-1.4038e-06,-1.1628e-05,-87.368,0.10253
10891,3.7198,3.3636,0,0.00096276,9621,0.00032135,3.17,0.00031184,-68.281,-0.00096385,-9653.4,0.1022
10892,3.8119,3.2727,0,0.00091216,9115.3,0.00030941,1.9431,0.00028692,-167.06,-0.00091485,-9196.7,0.10839
10893,3.7198,3.2727,0.05,1.6488e-05,164.77,1.2661e-05,95.128,1.7716e-11,6.5441e-06,-1.2661e-05,-95.128,0.10233
10894,3.7198,3.5455,0,0.00094476,9441.1,0.00031576,6.1543,0.00030558,-70.355,-0.00094583,-9473,0.10169
10895,3.8119,3.4545,0,0.00089818,8975.6,0.00030523,2.0794,0.00028158,-175.62,-0.000901,-9061,0.10801
10896,3.7198,3.4545,0.05,1.8752e-05,187.39,1.4399e-05,108.19,2.7597e-11,2.886e-06,-1.4399e-05,-108.19,0.10191
10897,3.7198,3.7273,0,0.00090776,9071.4,0.00030105,8.6156,0.00029783,-15.609,-0.00090788,-9074.9,0.101
10898,3.8119,3.6364,0,0.0008706,8699.9,0.00029552,5.3509,0.00027382,-157.67,-0.00087307,-8775,0.10747
10899,3.7198,3.6364,0.05,2.1453e-05,214.39,1.6474e-05,123.78,2.3859e-11,-2.7284e-05,-1.6474e-05,-123.78,0.10131
10900,3.7198,3.9091,0,0.00085159,8510,0.00029978,213.23,0.00026866,-20.639,-0.00084807,-8411.3,0.10014
10901,3.8119,3.8182,0,0.00082571,8251.4,0.00027636,10.665,0.0002669,-60.457,-0.00082654,-8276.1,0.10676
10902,3.7198,3.8182,0.05,2.08e-05,207.85,1.5972e-05,120,1.0298e-11,-0.00017005,-1.5972e-05,-120.01,0.10053
10903,3.7198,4.0909,0,0.00078184,7813,0.00030485,556.66,0.00022847,-17.251,-0.00077108,-7527.5,0.099132
10904,3.8119,4,0,0.00076885,7683.2,0.00027248,215.6,0.00024155,-16.746,-0.0007652,-7581.1,0.10591
10905,3.7198,4,0.05,1.8745e-05,187.32,1.4394e-05,108.15,-3.2577e-12,-0.00028616,-1.4394e-05,-108.15,0.099591
10906,3.7198,4.2727,0,0.00070207,7015.8,0.00030387,872.92,0.00018597,-12.92,-0.00068323,-6543.8,0.097984
10907,3.8119,4.1818,0,0.00070316,7026.7,0.00027569,523.18,0.0002049,-8.7582,-0.0006929,-6754.4,0.10492
10908,3.7198,4.1818,0.05,1.4282e-05,142.72,1.0966e-05,82.398,-4.6516e-11,-0.00058486,-1.0966e-05,-82.398,0.098509
10909,3.7198,4.4545,0,0.00061725,6168.2,0.00028738,1021.3,0.00015011,-10.066,-0.00059354,-5597.5,0.096713
10910,3.8119,4.3636,0,0.00063108,6306.4,0.00026988,745.44,0.00016943,-9.3154,-0.00061515,-5904.4,0.10381
10911,3.7198,4.3636,0.05,1.2417e-05,124.09,9.5348e-06,71.641,-6.1757e-11,-0.00072632,-9.5348e-06,-71.641,0.097296
10912,3.7198,4.6364,0,0.00053282,5324.5,0.00025645,989.79,0.0001241,-4.6214,-0.00050904,-4761.8,0.095341
10913,3.8119,4.5455,0,0.00055643,5560.5,0.00024996,808.88,0.00014169,-4.6034,-0.00053826,-5113.5,0.10258
10914,3.7198,4.5455,0.05,1.1911e-05,119.02,9.1459e-06,68.719,-5.0138e-11,-0.00043,-9.1459e-06,-68.719,0.095969
10915,3.7198,4.8182,0,0.00045488,4545.7,0.00021971,854.73,0.00010541,-4.0706,-0.00043428,-4059.1,0.093889
10916,3.8119,4.7273,0,0.00048446,4841.3,0.00022147,752.51,0.0001208,-3.8694,-0.00046727,-4422.4,0.10126
10917,3.7198,4.7273,0.05,1.1771e-05,117.63,9.0386e-06,67.913,-2.6097e-11,-0.00032621,-9.0386e-06,-67.913,0.094552
10918,3.7198,5,0,0.00038665,3863.8,0.00018311,680.34,9.2094e-05,-3.4906,-0.00037056,-3479.7,0.092376
10919,3.8119,4.9091,0,0.00041965,4193.6,0.00019058,636.06,0.00010549,-3.248,-0.00040521,-3840.5,0.099856
10920,3.7198,4.9091,0.05,1.1098e-05,110.91,8.5221e-06,64.032,-1.6961e-11,-0.00015948,-8.5221e-06,-64.032,0.093065
10921,3.7198,5.1818,0,0.00032836,3281.3,0.00014942,501.03,8.2309e-05,-3.2049,-0.00031697,-3003.2,0.090815
10922,3.8119,5.0909,0,0.00036317,3629.2,0.00016061,496.4,9.4167e-05,-2.8306,-0.00035219,-3356.5,0.098388
10923,3.7198,5.0909,0.05,1.042e-05,104.13,8.0016e-06,60.121,-8.6311e-12,-0.00011094,-8.0016e-06,-60.121,0.091524
10924,3.7198,5.3636,0,0.00028016,2799.6,0.0001204,338.66,7.4875e-05,-3.3817,-0.00027288,-2616.3,0.089213
10925,3.8119,5.2727,0,0.00031561,3153.9,0.00013374,358.61,8.5642e-05,-2.7575,-0.00030799,-2960.4,0.096864
10926,3.7198,5.2727,0.05,9.8875e-06,98.806,7.5924e-06,57.046,-5.7203e-12,-6.3553e-05,-7.5923e-06,-57.046,0.089939
10927,3.7198,5.5455,0,0.00024278,2426.1,9.7657e-05,210.45,6.9138e-05,-3.8274,-0.00023855,-2315.7,0.087577
10928,3.8119,5.4545,0,0.00027752,2773.2,0.00011151,239.94,7.9192e-05,-2.8599,-0.00027268,-2646.7,0.095292
10929,3.7198,5.4545,0.05,9.5527e-06,95.461,7.3353e-06,55.114,-3.3777e-12,-3.3575e-05,-7.3353e-06,-55.114,0.088317
10930,3.7198,5.7273,0,0.00021834,2181.9,8.3509e-05,135.96,6.4855e-05,-4.1979,-0.00021576,-2112.6,0.085905
10931,3.8119,5.6364,0,0.00024978,2496,9.5307e-05,153.91,7.4439e-05,-2.8912,-0.00024684,-2416.8,0.093675
10932,3.7198,5.6364,0.05,9.516e-06,95.094,7.3071e-06,54.903,-8.837e-13,-1.6865e-05,-7.3071e-06,-54.903,0.086661
10933,3.8119,5.8182,0,0.00023415,2339.9,8.6845e-05,114.1,7.1353e-05,-2.3052,-0.00023203,-2281.8,0.092013
10934,3.7198,5.8182,0.05,1.1156e-05,111.49,8.5667e-06,64.367,-4.4919e-13,-2.3551e-06,-8.5667e-06,-64.367,0.084969
10935,3.7198,5.9091,0,0.00019868,1985.4,7.03e-05,56.537,6.2685e-05,-0.68262,-0.00019766,-1956.8,0.084197
10936,3.9041,0.27273,0,0.00026613,2659.4,9.9166e-05,135.96,8.0878e-05,-1.4418,-0.00026357,-2589.5,0.099831
10937,3.9963,0.18182,0,0.00027977,2795.8,0.00010167,112.3,8.6668e-05,-0.44736,-0.0002777,-2738.2,0.10604
10938,3.9041,0.18182,0.05,1.0017e-05,100.1,7.692e-06,57.794,1.0115e-12,4.0051e-06,-7.692e-06,-57.794,0.098931
10939,3.9041,0.090909,0,0.00024926,2490.9,8.7286e-05,60.483,7.925e-05,0.10354,-0.00024817,-2460,0.09817
10940,3.9041,0.45455,0,0.00028588,2856.8,0.00011034,192.27,8.4489e-05,-1.952,-0.00028215,-2756.7,0.10144
10941,3.9963,0.36364,0,0.00029347,2932.6,0.0001096,153.11,8.9043e-05,-1.3783,-0.00029058,-2853.7,0.10765
10942,3.9041,0.36364,0.05,8.3327e-06,83.27,6.3985e-06,48.076,2.5319e-12,1.6298e-05,-6.3985e-06,-48.076,0.10057
10943,3.9041,0.63636,0,0.00031549,3152.7,0.00012695,275.7,8.9972e-05,-2.1448,-0.00030991,-3006.7,0.103
10944,3.9963,0.54545,0,0.0003159,3156.9,0.000122,213.6,9.3341e-05,-1.7297,-0.00031175,-3045.4,0.1092
10945,3.9041,0.54545,0.05,8.2767e-06,82.71,6.3555e-06,47.753,1.7176e-12,4.1068e-05,-6.3555e-06,-47.753,0.10215
10946,3.9041,0.81818,0,0.00035396,3537.2,0.0001478,375.56,9.7509e-05,-2.3152,-0.00034609,-3335.4,0.10449
10947,3.9963,0.72727,0,0.00034632,3460.8,0.00013809,287.27,9.9585e-05,-2.0269,-0.00034056,-3309.1,0.11069
10948,3.9041,0.72727,0.05,8.3728e-06,83.67,6.4293e-06,48.307,7.0781e-12,7.4064e-05,-6.4293e-06,-48.307,0.10368
10949,3.9041,1,0,0.00040051,4002.3,0.0001715,477.78,0.00010757,-2.5636,-0.00039025,-3743,0.10593
10950,3.9963,0.90909,0,0.00038423,3839.6,0.00015704,365.86,0.00010804,-2.312,-0.00037671,-3644.6,0.11211
10951,3.9041,0.90909,0.05,8.494e-06,84.881,6.5223e-06,49.006,1.0861e-11,0.00011223,-6.5223e-06,-49.006,0.10515
10952,3.9041,1.1818,0,0.00045406,4537.4,0.00019605,561.68,0.00012089,-3.063,-0.00044191,-4231.7,0.1073
10953,3.9963,1.0909,0,0.0004288,4285,0.00017742,434.93,0.00011918,-2.6781,-0.00041977,-4052.1,0.11346
10954,3.9041,1.0909,0.05,8.5642e-06,85.583,6.5762e-06,49.411,1.6523e-11,0.00017952,-6.5762e-06,-49.411,0.10656
10955,3.9041,1.3636,0,0.00051289,5125.3,0.0002186,598.76,0.00013839,-3.9091,-0.0005001,-4801.3,0.10859
10956,3.9963,1.2727,0,0.00047874,4784.1,0.00019717,474.03,0.00013364,-3.307,-0.00046894,-4530.9,0.11472
10957,3.9041,1.2727,0.05,8.4858e-06,84.8,6.5161e-06,48.959,2.8361e-11,0.00025221,-6.5161e-06,-48.959,0.10789
10958,3.9041,1.5455,0,0.00057427,5738.7,0.00023543,555.3,0.000161,-3.9392,-0.00056284,-5442.6,0.10978
10959,3.9963,1.4545,0,0.00053202,5316.5,0.00021351,457.49,0.00015204,-4.3334,-0.0005228,-5074.9,0.1159
10960,3.9041,1.4545,0.05,8.4074e-06,84.016,6.4558e-06,48.506,4.347e-11,0.00042642,-6.4558e-06,-48.506,0.10914
10961,3.9041,1.7273,0,0.00063451,6340.7,0.0002435,409.22,0.00018835,-5.1712,-0.00062662,-6128.5,0.11087
10962,3.9963,1.6364,0,0.00058582,5854.2,0.0002235,361.57,0.0001747,-5.1401,-0.0005789,-5667.3,0.11697
10963,3.9041,1.6364,0.05,8.8721e-06,88.66,6.8126e-06,51.188,4.7413e-11,0.00056631,-6.8127e-06,-51.188,0.11028
10964,3.9041,1.9091,0,0.00069115,6906.8,0.00024422,188.91,0.00021793,-8.623,-0.00068787,-6814.5,0.11184
10965,3.9963,1.8182,0,0.0006371,6366.6,0.0002263,186.99,0.00020005,-10.297,-0.00063387,-6276,0.11793
10966,3.9041,1.8182,0.05,1.0325e-05,103.18,7.9283e-06,59.57,4.2266e-11,0.00047875,-7.9283e-06,-59.57,0.11131
10967,3.9041,2.0909,0,0.00074306,7425.5,0.00025023,21.812,0.00023871,-64.735,-0.00074375,-7446.5,0.11269
10968,3.9963,2,0,0.00068491,6844.4,0.00023113,25.674,0.00021971,-60.15,-0.00068546,-6861.2,0.11877
10969,3.9041,2,0.05,1.2515e-05,125.07,9.6103e-06,72.208,2.1243e-11,0.00025898,-9.6103e-06,-72.208,0.11222
10970,3.9041,2.2727,0,0.0007879,7873.6,0.00027056,5.4171,0.00024251,-205.34,-0.00079109,-7971.4,0.1134
10971,3.9963,2.1818,0,0.00072828,7277.8,0.00025146,6.0065,0.00022188,-216.31,-0.0007316,-7380.4,0.11949
10972,3.9041,2.1818,0.05,1.4259e-05,142.5,1.0949e-05,82.27,-3.118e-12,9.4473e-05,-1.0949e-05,-82.27,0.113
10973,3.9041,2.4545,0,0.00082283,8222.6,0.00028508,1.9803,0.00024857,-272.32,-0.00082709,-8354.4,0.11397
10974,3.9963,2.3636,0,0.00076495,7644.3,0.00026801,2.0078,0.00022591,-314.33,-0.00076978,-7795.5,0.12008
10975,3.9041,2.3636,0.05,1.5114e-05,151.04,1.1606e-05,87.203,-1.6554e-11,3.473e-05,-1.1606e-05,-87.202,0.11365
10976,3.9041,2.6364,0,0.00084628,8456.9,0.00029343,1.9435,0.00025524,-285.03,-0.00085073,-8594.8,0.11439
10977,3.9963,2.5455,0,0.00079249,7919.4,0.00027878,1.8613,0.00023205,-349.23,-0.00079781,-8087.2,0.12053
10978,3.9041,2.5455,0.05,1.5006e-05,149.95,1.1522e-05,86.575,-1.4941e-11,-1.5267e-05,-1.1522e-05,-86.575,0.11415
10979,3.9041,2.8182,0,0.00085899,8584,0.00029735,1.6664,0.0002599,-279.72,-0.00086338,-8719.6,0.11465
10980,3.9963,2.7273,0,0.00080984,8092.8,0.00028468,1.6152,0.00023746,-353.19,-0.00081524,-8262.8,0.12084
10981,3.9041,2.7273,0.05,1.4411e-05,144.01,1.1066e-05,83.146,-1.3453e-11,-2.152e-05,-1.1066e-05,-83.145,0.11449
10982,3.9041,3,0,0.00086294,8623.4,0.00029847,1.5385,0.00026151,-276.19,-0.00086728,-8757.4,0.11474
10983,3.9963,2.9091,0,0.000818,8174.4,0.00028722,1.4932,0.00024042,-350.15,-0.00082337,-8343.1,0.121
10984,3.9041,2.9091,0.05,1.3958e-05,139.48,1.0718e-05,80.531,-6.2329e-12,-1.8902e-05,-1.0718e-05,-80.531,0.11466
10985,3.9041,3.1818,0,0.00085899,8584,0.00029735,1.6664,0.0002599,-279.72,-0.00086338,-8719.6,0.11465
10986,3.9963,3.0909,0,0.000818,8174.4,0.00028722,1.4932,0.00024042,-350.15,-0.00082337,-8343.1,0.121
10987,3.9041,3.0909,0.05,1.3958e-05,139.48,1.0718e-05,80.531,6.2365e-12,-3.9697e-06,-1.0718e-05,-80.531,0.11466
10988,3.9041,3.3636,0,0.00084628,8456.9,0.00029343,1.9435,0.00025524,-285.03,-0.00085073,-8594.8,0.11439
10989,3.9963,3.2727,0,0.00080984,8092.8,0.00028468,1.6152,0.00023746,-353.19,-0.00081524,-8262.8,0.12084
10990,3.9041,3.2727,0.05,1.4411e-05,144.01,1.1066e-05,83.145,1.3581e-11,1.2579e-05,-1.1066e-05,-83.146,0.11449
10991,3.9041,3.5455,0,0.00082283,8222.6,0.00028508,1.9803,0.00024857,-272.32,-0.00082709,-8354.4,0.11397
10992,3.9963,3.4545,0,0.00079249,7919.4,0.00027878,1.8613,0.00023205,-349.23,-0.00079781,-8087.2,0.12053
10993,3.9041,3.4545,0.05,1.5006e-05,149.95,1.1522e-05,86.575,1.8846e-11,-1.4924e-06,-1.1522e-05,-86.575,0.11415
10994,3.9041,3.7273,0,0.0007879,7873.6,0.00027056,5.4171,0.00024251,-205.34,-0.00079109,-7971.4,0.1134
10995,3.9963,3.6364,0,0.00076495,7644.3,0.00026801,2.0078,0.00022591,-314.33,-0.00076978,-7795.5,0.12008
10996,3.9041,3.6364,0.05,1.5114e-05,151.04,1.1606e-05,87.202,1.7395e-11,-5.3739e-05,-1.1606e-05,-87.203,0.11365
10997,3.9041,3.9091,0,0.00074306,7425.5,0.00025023,21.812,0.00023871,-64.735,-0.00074375,-7446.5,0.11269
10998,3.9963,3.8182,0,0.00072828,7277.8,0.00025146,6.0065,0.00022188,-216.31,-0.0007316,-7380.4,0.11949
10999,3.9041,3.8182,0.05,1.4259e-05,142.5,1.0949e-05,82.27,5.9162e-12,-0.00012524,-1.0949e-05,-82.27,0.113
11000,3.9041,4.0909,0,0.00069115,6906.8,0.00024422,188.91,0.00021793,-8.623,-0.00068787,-6814.5,0.11184
11001,3.9963,4,0,0.00068491,6844.4,0.00023113,25.674,0.00021971,-60.15,-0.00068546,-6861.2,0.11877
11002,3.9041,4,0.05,1.2515e-05,125.07,9.6103e-06,72.208,-1.2462e-11,-0.00028346,-9.6103e-06,-72.208,0.11222
11003,3.9041,4.2727,0,0.00063451,6340.7,0.0002435,409.22,0.00018835,-5.1712,-0.00062662,-6128.5,0.11087
11004,3.9963,4.1818,0,0.0006371,6366.6,0.0002263,186.99,0.00020005,-10.297,-0.00063387,-6276,0.11793
11005,3.9041,4.1818,0.05,1.0325e-05,103.18,7.9283e-06,59.57,-4.5639e-11,-0.00047977,-7.9283e-06,-59.57,0.11131
11006,3.9041,4.4545,0,0.00057427,5738.7,0.00023543,555.3,0.000161,-3.9392,-0.00056284,-5442.6,0.10978
11007,3.9963,4.3636,0,0.00058582,5854.2,0.0002235,361.57,0.0001747,-5.1401,-0.0005789,-5667.3,0.11697
11008,3.9041,4.3636,0.05,8.8721e-06,88.66,6.8127e-06,51.188,-4.8842e-11,-0.00058484,-6.8126e-06,-51.188,0.11028
11009,3.9041,4.6364,0,0.00051289,5125.3,0.0002186,598.76,0.00013839,-3.9091,-0.0005001,-4801.3,0.10859
11010,3.9963,4.5455,0,0.00053202,5316.5,0.00021351,457.49,0.00015204,-4.3334,-0.0005228,-5074.9,0.1159
11011,3.9041,4.5455,0.05,8.4074e-06,84.016,6.4558e-06,48.506,-4.9544e-11,-0.00046204,-6.4558e-06,-48.506,0.10914
11012,3.9041,4.8182,0,0.00045406,4537.4,0.00019605,561.68,0.00012089,-3.063,-0.00044191,-4231.7,0.1073
11013,3.9963,4.7273,0,0.00047874,4784.1,0.00019717,474.03,0.00013364,-3.307,-0.00046894,-4530.9,0.11472
11014,3.9041,4.7273,0.05,8.4858e-06,84.8,6.5161e-06,48.959,-3.5068e-11,-0.00028869,-6.5161e-06,-48.959,0.10789
11015,3.9041,5,0,0.00040051,4002.3,0.0001715,477.78,0.00010757,-2.5636,-0.00039025,-3743,0.10593
11016,3.9963,4.9091,0,0.0004288,4285,0.00017742,434.93,0.00011918,-2.6781,-0.00041977,-4052.1,0.11346
11017,3.9041,4.9091,0.05,8.5642e-06,85.583,6.5763e-06,49.411,-1.9215e-11,-0.0001878,-6.5762e-06,-49.411,0.10656
11018,3.9041,5.1818,0,0.00035396,3537.2,0.0001478,375.56,9.7509e-05,-2.3152,-0.00034609,-3335.4,0.10449
11019,3.9963,5.0909,0,0.00038423,3839.6,0.00015704,365.86,0.00010804,-2.312,-0.00037671,-3644.6,0.11211
11020,3.9041,5.0909,0.05,8.494e-06,84.881,6.5223e-06,49.006,-1.1928e-11,-0.00012787,-6.5223e-06,-49.006,0.10515
11021,3.9041,5.3636,0,0.00031549,3152.7,0.00012695,275.7,8.9972e-05,-2.1448,-0.00030991,-3006.7,0.103
11022,3.9963,5.2727,0,0.00034632,3460.8,0.00013809,287.27,9.9585e-05,-2.0269,-0.00034056,-3309.1,0.11069
11023,3.9041,5.2727,0.05,8.3728e-06,83.67,6.4293e-06,48.307,-6.2227e-12,-8.0007e-05,-6.4293e-06,-48.307,0.10368
11024,3.9041,5.5455,0,0.00028588,2856.8,0.00011034,192.27,8.4489e-05,-1.952,-0.00028215,-2756.7,0.10144
11025,3.9963,5.4545,0,0.0003159,3156.9,0.000122,213.6,9.3341e-05,-1.7297,-0.00031175,-3045.4,0.1092
11026,3.9041,5.4545,0.05,8.2767e-06,82.71,6.3555e-06,47.753,-3.1257e-12,-4.411e-05,-6.3555e-06,-47.753,0.10215
11027,3.9041,5.7273,0,0.00026613,2659.4,9.9166e-05,135.96,8.0878e-05,-1.4418,-0.00026357,-2589.5,0.099831
11028,3.9963,5.6364,0,0.00029347,2932.6,0.0001096,153.11,8.9043e-05,-1.3783,-0.00029058,-2853.7,0.10765
11029,3.9041,5.6364,0.05,8.3327e-06,83.27,6.3985e-06,48.076,-2.2827e-12,-1.9265e-05,-6.3985e-06,-48.076,0.10057
11030,3.9963,5.8182,0,0.00027977,2795.8,0.00010167,112.3,8.6668e-05,-0.44737,-0.0002777,-2738.2,0.10604
11031,3.9041,5.8182,0.05,1.0017e-05,100.1,7.692e-06,57.794,-9.0645e-13,-4.0051e-06,-7.692e-06,-57.794,0.098931
11032,3.9041,5.9091,0,0.00024926,2490.9,8.7286e-05,60.483,7.925e-05,0.10354,-0.00024817,-2460,0.09817
11033,4.0885,0.27273,0,0.00030746,3072.5,0.00011244,131.93,9.4806e-05,-0.59073,-0.00030501,-3004.6,0.11393
11034,4.1807,0.18182,0,0.00031838,3181.6,0.00011382,105.4,9.9811e-05,0.1179,-0.00031645,-3127.5,0.12026
11035,4.0885,0.18182,0.05,8.7483e-06,87.423,6.7176e-06,50.474,9.2421e-14,3.6154e-06,-6.7176e-06,-50.474,0.11306
11036,4.0885,0.090909,0,0.00029269,2924.9,0.00010154,59.501,9.363e-05,0.045779,-0.00029164,-2894.7,0.11231
11037,4.0885,0.45455,0,0.00032422,3239.9,0.00012191,179.26,9.7884e-05,-1.2416,-0.00032081,-3147.1,0.11548
11038,4.1807,0.36364,0,0.00033072,3304.9,0.00012145,147.91,0.00010166,-0.83615,-0.00032797,-3228.9,0.12182
11039,4.0885,0.36364,0.05,7.0831e-06,70.782,5.4389e-06,40.866,8.5092e-13,2.0681e-05,-5.4389e-06,-40.866,0.11464
11040,4.0885,0.63636,0,0.00034812,3478.8,0.00013432,234.04,0.00010295,-1.623,-0.00034357,-3356.6,0.11696
11041,4.1807,0.54545,0,0.0003493,3490.6,0.0001313,192.74,0.00010549,-1.1638,-0.00034563,-3390.7,0.12331
11042,4.0885,0.54545,0.05,6.9393e-06,69.345,5.3285e-06,40.037,3.3173e-12,4.9546e-05,-5.3285e-06,-40.037,0.11616
11043,4.0885,0.81818,0,0.00037863,3783.7,0.00014903,290.33,0.00011012,-2.0115,-0.00037288,-3631.1,0.11837
11044,4.1807,0.72727,0,0.00037367,3734.1,0.00014296,236.49,0.00011127,-1.6123,-0.00036911,-3611,0.12472
11045,4.0885,0.72727,0.05,6.8726e-06,68.678,5.2773e-06,39.651,7.1438e-12,7.8954e-05,-5.2773e-06,-39.651,0.11761
11046,4.0885,1,0,0.00041508,4147.9,0.00016504,338.61,0.00011965,-2.4259,-0.0004083,-3969.3,0.11971
11047,4.1807,0.90909,0,0.00040353,4032.5,0.00015596,274.42,0.00011917,-2.0289,-0.00039818,-3889.2,0.12605
11048,4.0885,0.90909,0.05,6.7625e-06,67.578,5.1927e-06,39.016,1.0962e-11,0.00013417,-5.1927e-06,-39.016,0.11899
11049,4.0885,1.1818,0,0.00045629,4559.7,0.00018078,364.08,0.00013193,-2.9521,-0.00044903,-4368.1,0.12096
11050,4.1807,1.0909,0,0.00043806,4377.6,0.00016922,296.67,0.0001294,-2.5414,-0.00043229,-4222.9,0.1273
11051,4.0885,1.0909,0.05,6.5773e-06,65.727,5.0505e-06,37.948,1.6912e-11,0.00018844,-5.0505e-06,-37.948,0.12028
11052,4.0885,1.3636,0,0.00050056,5002.1,0.0001942,348.71,0.00014729,-3.795,-0.00049376,-4820.3,0.12213
11053,4.1807,1.2727,0,0.00047601,4756.8,0.00018124,289.83,0.00014223,-3.2774,-0.00047046,-4606.8,0.12846
11054,4.0885,1.2727,0.05,6.3629e-06,63.585,4.8859e-06,36.711,2.8113e-11,0.0002978,-4.8859e-06,-36.711,0.1215
11055,4.0885,1.5455,0,0.00054574,5453.6,0.00020331,276.75,0.00016574,-5.591,-0.00054058,-5312.5,0.12319
11056,4.1807,1.4545,0,0.00051566,5153,0.00019031,240.04,0.00015774,-4.7025,-0.00051122,-5031,0.12953
11057,4.0885,1.4545,0.05,6.3225e-06,63.182,4.8549e-06,36.478,4.5117e-11,0.00044525,-4.8549e-06,-36.478,0.12261
11058,4.0885,1.7273,0,0.00058986,5894.5,0.00020751,148.43,0.00018639,-10.316,-0.00058735,-5823.9,0.12414
11059,4.1807,1.6364,0,0.00055509,5547.1,0.00019535,141.02,0.00017541,-8.8561,-0.00055269,-5479.5,0.13048
11060,4.0885,1.6364,0.05,6.8498e-06,68.451,5.2598e-06,39.52,4.4843e-11,0.00037418,-5.2598e-06,-39.52,0.12362
11061,4.0885,1.9091,0,0.00063167,6312.4,0.00021313,23.113,0.00020264,-55.653,-0.00063219,-6328.3,0.12499
11062,4.1807,1.8182,0,0.00059294,5925.3,0.00020012,28.4,0.00019073,-42.153,-0.00059314,-5931.8,0.13133
11063,4.0885,1.8182,0.05,8.0468e-06,80.413,6.179e-06,46.426,3.2203e-11,0.00031064,-6.179e-06,-46.426,0.12452
11064,4.0885,2.0909,0,0.00067049,6700.3,0.0002316,4.0767,0.00020398,-203.43,-0.00067364,-6797.6,0.12572
11065,4.1807,2,0,0.00062845,6280.2,0.00021667,5.3877,0.00019204,-179.71,-0.00063121,-6365.3,0.13207
11066,4.0885,2,0.05,9.415e-06,94.085,7.2296e-06,54.32,2.1763e-11,0.00026399,-7.2296e-06,-54.32,0.12531
11067,4.0885,2.2727,0,0.0007053,7048.1,0.00024882,1.9214,0.0002053,-325.11,-0.00071022,-7204,0.12632
11068,4.1807,2.1818,0,0.00066118,6607.2,0.00023373,2.2107,0.00019166,-313.9,-0.00066591,-6757.4,0.13269
11069,4.0885,2.1818,0.05,1.0603e-05,105.95,8.1415e-06,61.172,1.2563e-12,0.00016825,-8.1415e-06,-61.172,0.12598
11070,4.0885,2.4545,0,0.00073418,7336.7,0.0002617,1.7563,0.00020896,-394.48,-0.00074005,-7525,0.12681
11071,4.1807,2.3636,0,0.00068987,6894,0.00024754,1.6838,0.00019349,-404.42,-0.00069583,-7086.4,0.1332
11072,4.0885,2.3636,0.05,1.1479e-05,114.72,8.8148e-06,66.231,-5.1018e-12,5.3655e-05,-8.8148e-06,-66.231,0.12652
11073,4.0885,2.6364,0,0.00075534,7548.2,0.00027004,1.5471,0.00021357,-422.72,-0.00076161,-7749.9,0.12716
11074,4.1807,2.5455,0,0.0007127,7122.1,0.0002573,1.4145,0.00019707,-451.17,-0.00071927,-7336.2,0.13359
11075,4.0885,2.5455,0.05,1.1961e-05,119.52,9.1843e-06,69.007,-9.3408e-12,1.2349e-05,-9.1842e-06,-69.007,0.12694
11076,4.0885,2.8182,0,0.00076803,7675,0.00027456,1.4555,0.00021716,-429.82,-0.0007744,-7880,0.12737
11077,4.1807,2.7273,0,0.00072829,7277.9,0.00026331,1.3174,0.00020069,-469.22,-0.00073511,-7500.5,0.13385
11078,4.0885,2.7273,0.05,1.2086e-05,120.78,9.2809e-06,69.733,-6.775e-12,-7.215e-06,-9.2809e-06,-69.733,0.12723
11079,4.0885,3,0,0.00077222,7716.8,0.00027598,1.4483,0.00021849,-430.53,-0.00077861,-7922.3,0.12745
11080,4.1807,2.9091,0,0.00073611,7356.1,0.00026613,1.3081,0.00020286,-474.06,-0.000743,-7580.9,0.13399
11081,4.0885,2.9091,0.05,1.2075e-05,120.67,9.2725e-06,69.67,-2.5112e-12,-8.537e-06,-9.2725e-06,-69.67,0.12737
11082,4.0885,3.1818,0,0.00076803,7675,0.00027456,1.4555,0.00021716,-429.82,-0.0007744,-7880,0.12737
11083,4.1807,3.0909,0,0.00073611,7356.1,0.00026613,1.3081,0.00020286,-474.06,-0.000743,-7580.9,0.13399
11084,4.0885,3.0909,0.05,1.2075e-05,120.67,9.2725e-06,69.67,4.3291e-12,8.594e-06,-9.2725e-06,-69.67,0.12737
11085,4.0885,3.3636,0,0.00075534,7548.2,0.00027004,1.5471,0.00021357,-422.72,-0.00076161,-7749.9,0.12716
11086,4.1807,3.2727,0,0.00072829,7277.9,0.00026331,1.3174,0.00020069,-469.22,-0.00073511,-7500.5,0.13385
11087,4.0885,3.2727,0.05,1.2086e-05,120.78,9.2809e-06,69.733,1.0464e-11,-3.0866e-06,-9.2809e-06,-69.733,0.12723
11088,4.0885,3.5455,0,0.00073418,7336.7,0.0002617,1.7563,0.00020896,-394.48,-0.00074005,-7525,0.12681
11089,4.1807,3.4545,0,0.0007127,7122.1,0.0002573,1.4145,0.00019707,-451.17,-0.00071927,-7336.2,0.13359
11090,4.0885,3.4545,0.05,1.1961e-05,119.52,9.1842e-06,69.007,1.0619e-11,-1.0926e-05,-9.1843e-06,-69.007,0.12694
11091,4.0885,3.7273,0,0.0007053,7048.1,0.00024882,1.9214,0.0002053,-325.11,-0.00071022,-7204,0.12632
11092,4.1807,3.6364,0,0.00068987,6894,0.00024754,1.6838,0.00019349,-404.42,-0.00069583,-7086.4,0.1332
11093,4.0885,3.6364,0.05,1.1479e-05,114.72,8.8148e-06,66.231,7.0887e-12,-4.9441e-05,-8.8148e-06,-66.231,0.12652
11094,4.0885,3.9091,0,0.00067049,6700.3,0.0002316,4.0767,0.00020398,-203.43,-0.00067364,-6797.6,0.12572
11095,4.1807,3.8182,0,0.00066118,6607.2,0.00023373,2.2107,0.00019166,-313.9,-0.00066591,-6757.4,0.13269
11096,4.0885,3.8182,0.05,1.0603e-05,105.95,8.1415e-06,61.172,-2.4144e-12,-0.00014354,-8.1415e-06,-61.172,0.12598
11097,4.0885,4.0909,0,0.00063167,6312.4,0.00021313,23.113,0.00020264,-55.653,-0.00063219,-6328.3,0.12499
11098,4.1807,4,0,0.00062845,6280.2,0.00021667,5.3877,0.00019204,-179.71,-0.00063121,-6365.3,0.13207
11099,4.0885,4,0.05,9.415e-06,94.085,7.2296e-06,54.32,-2.0953e-11,-0.00025222,-7.2296e-06,-54.32,0.12531
11100,4.0885,4.2727,0,0.00058986,5894.5,0.00020751,148.43,0.00018639,-10.315,-0.00058735,-5823.9,0.12414
11101,4.1807,4.1818,0,0.00059294,5925.3,0.00020012,28.4,0.00019073,-42.153,-0.00059314,-5931.8,0.13133
11102,4.0885,4.1818,0.05,8.0468e-06,80.413,6.179e-06,46.426,-3.6641e-11,-0.00041577,-6.179e-06,-46.426,0.12452
11103,4.0885,4.4545,0,0.00054574,5453.6,0.00020331,276.75,0.00016574,-5.591,-0.00054058,-5312.5,0.12319
11104,4.1807,4.3636,0,0.00055509,5547.1,0.00019535,141.02,0.00017541,-8.8561,-0.00055269,-5479.5,0.13048
11105,4.0885,4.3636,0.05,6.8498e-06,68.451,5.2598e-06,39.52,-5.2196e-11,-0.00043723,-5.2598e-06,-39.52,0.12362
11106,4.0885,4.6364,0,0.00050056,5002.1,0.0001942,348.71,0.00014729,-3.795,-0.00049376,-4820.3,0.12213
11107,4.1807,4.5455,0,0.00051566,5153,0.00019031,240.04,0.00015774,-4.7025,-0.00051122,-5031,0.12953
11108,4.0885,4.5455,0.05,6.3225e-06,63.182,4.8549e-06,36.478,-5.2453e-11,-0.00047101,-4.8549e-06,-36.478,0.12261
11109,4.0885,4.8182,0,0.00045629,4559.7,0.00018078,364.08,0.00013193,-2.9521,-0.00044903,-4368.1,0.12096
11110,4.1807,4.7273,0,0.00047601,4756.8,0.00018124,289.83,0.00014223,-3.2774,-0.00047046,-4606.8,0.12846
11111,4.0885,4.7273,0.05,6.3629e-06,63.585,4.8859e-06,36.711,-3.357e-11,-0.00031816,-4.8859e-06,-36.711,0.1215
11112,4.0885,5,0,0.00041508,4147.9,0.00016504,338.61,0.00011965,-2.4259,-0.0004083,-3969.3,0.11971
11113,4.1807,4.9091,0,0.00043806,4377.6,0.00016922,296.67,0.0001294,-2.5414,-0.00043229,-4222.9,0.1273
11114,4.0885,4.9091,0.05,6.5773e-06,65.727,5.0505e-06,37.948,-1.6912e-11,-0.00020879,-5.0505e-06,-37.948,0.12028
11115,4.0885,5.1818,0,0.00037863,3783.7,0.00014903,290.33,0.00011012,-2.0115,-0.00037288,-3631.1,0.11837
11116,4.1807,5.0909,0,0.00040353,4032.5,0.00015596,274.42,0.00011917,-2.0289,-0.00039818,-3889.2,0.12605
11117,4.0885,5.0909,0.05,6.7625e-06,67.578,5.1927e-06,39.016,-1.2777e-11,-0.0001399,-5.1927e-06,-39.016,0.11899
11118,4.0885,5.3636,0,0.00034812,3478.8,0.00013432,234.04,0.00010295,-1.623,-0.00034357,-3356.6,0.11696
11119,4.1807,5.2727,0,0.00037367,3734.1,0.00014296,236.49,0.00011127,-1.6123,-0.00036911,-3611,0.12472
11120,4.0885,5.2727,0.05,6.8726e-06,68.678,5.2773e-06,39.651,-6.647e-12,-8.7229e-05,-5.2773e-06,-39.651,0.11761
11121,4.0885,5.5455,0,0.00032422,3239.9,0.00012191,179.26,9.7884e-05,-1.2416,-0.00032081,-3147.1,0.11548
11122,4.1807,5.4545,0,0.0003493,3490.6,0.0001313,192.74,0.00010549,-1.1638,-0.00034563,-3390.7,0.12331
11123,4.0885,5.4545,0.05,6.9393e-06,69.345,5.3285e-06,40.037,-2.4446e-12,-5.1719e-05,-5.3285e-06,-40.037,0.11616
11124,4.0885,5.7273,0,0.00030746,3072.5,0.00011244,131.93,9.4806e-05,-0.59073,-0.00030501,-3004.6,0.11393
11125,4.1807,5.6364,0,0.00033072,3304.9,0.00012145,147.91,0.00010166,-0.83615,-0.00032797,-3228.9,0.12182
11126,4.0885,5.6364,0.05,7.0831e-06,70.782,5.4389e-06,40.866,-1.2764e-12,-2.1151e-05,-5.4389e-06,-40.866,0.11464
11127,4.1807,5.8182,0,0.00031838,3181.6,0.00011382,105.4,9.9811e-05,0.1179,-0.00031645,-3127.5,0.12026
11128,4.0885,5.8182,0.05,8.7483e-06,87.423,6.7176e-06,50.474,-6.1614e-14,-3.0493e-06,-6.7176e-06,-50.474,0.11306
11129,4.0885,5.9091,0,0.00029269,2924.9,0.00010154,59.501,9.363e-05,0.045777,-0.00029164,-2894.7,0.11231
11130,4.2729,0.27273,0,0.00034188,3416.5,0.00012306,123.1,0.00010665,-0.21747,-0.00033963,-3353.4,0.12822
11131,4.365,0.18182,0,0.0003502,3499.6,0.00012348,95.224,0.00011084,0.28229,-0.00034848,-3450.9,0.13468
11132,4.2729,0.18182,0.05,7.4504e-06,74.453,5.721e-06,42.985,-9.5153e-13,2.2832e-06,-5.721e-06,-42.985,0.12738
11133,4.2729,0.090909,0,0.00032906,3288.3,0.0001132,55.411,0.00010584,0.043422,-0.00032808,-3260.2,0.12664
11134,4.2729,0.45455,0,0.00035624,3559.9,0.00013123,164.3,0.00010926,-0.80017,-0.00035317,-3475.3,0.12972
11135,4.365,0.36364,0,0.00036122,3609.7,0.00013064,137.38,0.00011228,-0.57099,-0.00035869,-3539.3,0.1362
11136,4.2729,0.36364,0.05,5.8619e-06,58.578,4.5012e-06,33.82,1.0154e-12,1.4637e-05,-4.5012e-06,-33.82,0.12892
11137,4.2729,0.63636,0,0.00037565,3753.9,0.00014063,200.35,0.00011381,-1.1699,-0.00037186,-3650.3,0.13114
11138,4.365,0.54545,0,0.00037665,3763.9,0.00013856,171.45,0.00011564,-0.79435,-0.00037345,-3675.6,0.13764
11139,4.2729,0.54545,0.05,5.6613e-06,56.574,4.3472e-06,32.663,3.1239e-12,4.4901e-05,-4.3472e-06,-32.663,0.13038
11140,4.2729,0.81818,0,0.00039975,3994.7,0.00015088,228,0.00012032,-1.6292,-0.0003954,-3876.6,0.13248
11141,4.365,0.72727,0,0.00039615,3958.8,0.00014701,195.55,0.00012082,-1.2593,-0.00039248,-3857.9,0.13899
11142,4.2729,0.72727,0.05,5.5112e-06,55.074,4.232e-06,31.797,7.8359e-12,6.9919e-05,-4.232e-06,-31.797,0.13176
11143,4.2729,1,0,0.00042798,4276.9,0.00016135,241.6,0.00012892,-2.1426,-0.00042339,-4151.9,0.13374
11144,4.365,0.90909,0,0.00041947,4191.8,0.0001557,207.28,0.00012788,-1.743,-0.00041558,-4085.1,0.14025
11145,4.2729,0.90909,0.05,5.3148e-06,53.111,4.0811e-06,30.664,9.36e-12,0.00012935,-4.0811e-06,-30.664,0.13306
11146,4.2729,1.1818,0,0.00045938,4590.6,0.00017099,232.22,0.0001397,-2.8782,-0.00045502,-4471.4,0.1349
11147,4.365,1.0909,0,0.00044596,4456.5,0.00016395,200.87,0.0001369,-2.4115,-0.00044223,-4353.8,0.14143
11148,4.2729,1.0909,0.05,5.0897e-06,50.862,3.9083e-06,29.365,1.928e-11,0.0002303,-3.9083e-06,-29.365,0.13427
11149,4.2729,1.3636,0,0.00049261,4922.7,0.00017859,190.47,0.00015268,-4.2229,-0.00048915,-4826.7,0.13597
11150,4.365,1.2727,0,0.00047459,4742.6,0.00017084,169.02,0.00014787,-3.5862,-0.00047154,-4657.6,0.1425
11151,4.2729,1.2727,0.05,4.9347e-06,49.313,3.7892e-06,28.471,2.9906e-11,0.00030267,-3.7892e-06,-28.471,0.13539
11152,4.2729,1.5455,0,0.00052624,5258.8,0.00018339,112.14,0.0001674,-8.0463,-0.00052437,-5205.7,0.13693
11153,4.365,1.4545,0,0.00050414,5038,0.00017558,106.67,0.00016049,-6.6793,-0.00050235,-4987,0.14348
11154,4.2729,1.4545,0.05,5.0482e-06,50.448,3.8764e-06,29.126,4.413e-11,0.00029913,-3.8764e-06,-29.126,0.13641
11155,4.2729,1.7273,0,0.00055905,5586.7,0.00018843,24.542,0.00018005,-38.398,-0.00055926,-5593.3,0.13779
11156,4.365,1.6364,0,0.00053343,5330.6,0.00017977,28.606,0.00017232,-27.406,-0.00053339,-5329.8,0.14436
11157,4.2729,1.6364,0.05,5.5826e-06,55.787,4.2867e-06,32.209,2.4412e-11,0.00039173,-4.2867e-06,-32.209,0.13732
11158,4.2729,1.9091,0,0.00059029,5898.9,0.00020301,5.7324,0.00018132,-157.21,-0.0005927,-5972.9,0.13854
11159,4.365,1.8182,0,0.00056159,5612,0.00019216,6.1587,0.00017425,-128.4,-0.00056355,-5671.9,0.14512
11160,4.2729,1.8182,0.05,6.4532e-06,64.487,4.9553e-06,37.232,3.393e-11,0.0003029,-4.9553e-06,-37.232,0.13813
11161,4.2729,2.0909,0,0.00061948,6190.5,0.00021872,2.8369,0.00018013,-287.09,-0.0006238,-6327.5,0.13919
11162,4.365,2,0,0.00058816,5877.6,0.0002068,2.893,0.00017254,-254.51,-0.00059202,-5999.2,0.14579
11163,4.2729,2,0.05,7.4198e-06,74.147,5.6975e-06,42.809,1.3533e-11,0.00019136,-5.6975e-06,-42.809,0.13882
11164,4.2729,2.2727,0,0.00064586,6454.2,0.00023241,1.7393,0.00017997,-392.31,-0.0006516,-6640.4,0.13972
11165,4.365,2.1818,0,0.00061272,6123,0.00022027,1.7559,0.00017113,-367.46,-0.00061811,-6297.5,0.14634
11166,4.2729,2.1818,0.05,8.319e-06,83.132,6.388e-06,47.997,5.7102e-12,0.00012062,-6.3879e-06,-47.996,0.13941
11167,4.2729,2.4545,0,0.00066826,6678,0.00024313,1.2612,0.00018145,-462.18,-0.00067489,-6896.4,0.14014
11168,4.365,2.3636,0,0.00063445,6340.1,0.00023143,1.208,0.00017118,-451.47,-0.00064089,-6553.1,0.14679
11169,4.2729,2.3636,0.05,9.0765e-06,90.702,6.9696e-06,52.367,-2.1788e-13,5.1919e-05,-6.9696e-06,-52.367,0.13989
11170,4.2729,2.6364,0,0.0006853,6848.3,0.00025058,1.1648,0.00018383,-500.34,-0.00069241,-7084.1,0.14044
11171,4.365,2.5455,0,0.00065215,6517,0.00023977,1.0422,0.00017257,-503.92,-0.00065923,-6753.7,0.14713
11172,4.2729,2.5455,0.05,9.6371e-06,96.305,7.4001e-06,55.602,-4.843e-12,3.5121e-05,-7.4001e-06,-55.601,0.14025
11173,4.2729,2.8182,0,0.0006959,6954.2,0.00025488,1.1665,0.0001859,-517.13,-0.00070322,-7197.7,0.14062
11174,4.365,2.7273,0,0.00066461,6641.6,0.0002452,1.0256,0.00017434,-531.35,-0.00067203,-6890.7,0.14736
11175,4.2729,2.7273,0.05,9.974e-06,99.671,7.6588e-06,57.545,-2.9076e-12,1.2514e-05,-7.6588e-06,-57.545,0.14049
11176,4.2729,3,0,0.00069948,6990,0.00025628,1.1662,0.0001867,-521.58,-0.00070687,-7235.5,0.14069
11177,4.365,2.9091,0,0.00067103,6705.7,0.00024785,1.0269,0.00017553,-542.37,-0.00067859,-6959.8,0.14748
11178,4.2729,2.9091,0.05,1.0121e-05,101.14,7.7713e-06,58.391,2.0057e-12,-1.6969e-06,-7.7713e-06,-58.391,0.14062
11179,4.2729,3.1818,0,0.0006959,6954.2,0.00025488,1.1665,0.0001859,-517.13,-0.00070322,-7197.7,0.14062
11180,4.365,3.0909,0,0.00067103,6705.7,0.00024785,1.0269,0.00017553,-542.37,-0.00067859,-6959.8,0.14748
11181,4.2729,3.0909,0.05,1.0121e-05,101.14,7.7713e-06,58.39,3.4591e-12,1.6719e-06,-7.7713e-06,-58.391,0.14062
11182,4.2729,3.3636,0,0.0006853,6848.3,0.00025058,1.1648,0.00018383,-500.34,-0.00069241,-7084.1,0.14044
11183,4.365,3.2727,0,0.00066461,6641.6,0.0002452,1.0256,0.00017434,-531.35,-0.00067203,-6890.7,0.14736
11184,4.2729,3.2727,0.05,9.974e-06,99.671,7.6587e-06,57.545,6.0776e-12,-3.2749e-07,-7.6588e-06,-57.545,0.14049
11185,4.2729,3.5455,0,0.00066826,6678,0.00024313,1.2612,0.00018145,-462.18,-0.00067489,-6896.4,0.14014
11186,4.365,3.4545,0,0.00065215,6517,0.00023977,1.0422,0.00017257,-503.92,-0.00065923,-6753.7,0.14713
11187,4.2729,3.4545,0.05,9.6371e-06,96.305,7.4001e-06,55.601,6.2122e-12,-3.1728e-05,-7.4001e-06,-55.602,0.14025
11188,4.2729,3.7273,0,0.00064586,6454.2,0.00023241,1.7393,0.00017997,-392.31,-0.0006516,-6640.4,0.13972
11189,4.365,3.6364,0,0.00063445,6340.1,0.00023143,1.208,0.00017118,-451.47,-0.00064089,-6553.1,0.14679
11190,4.2729,3.6364,0.05,9.0765e-06,90.702,6.9696e-06,52.367,2.4133e-12,-7.4116e-05,-6.9696e-06,-52.367,0.13989
11191,4.2729,3.9091,0,0.00061948,6190.5,0.00021872,2.8369,0.00018013,-287.09,-0.0006238,-6327.5,0.13919
11192,4.365,3.8182,0,0.00061272,6123,0.00022027,1.7559,0.00017113,-367.46,-0.00061811,-6297.5,0.14634
11193,4.2729,3.8182,0.05,8.319e-06,83.132,6.3879e-06,47.996,-3.7098e-12,-0.00010829,-6.388e-06,-47.997,0.13941
11194,4.2729,4.0909,0,0.00059029,5898.9,0.00020301,5.7324,0.00018132,-157.21,-0.0005927,-5972.9,0.13854
11195,4.365,4,0,0.00058816,5877.6,0.0002068,2.893,0.00017254,-254.51,-0.00059202,-5999.2,0.14579
11196,4.2729,4,0.05,7.4198e-06,74.147,5.6975e-06,42.809,-1.6981e-11,-0.00017204,-5.6975e-06,-42.809,0.13882
11197,4.2729,4.2727,0,0.00055905,5586.7,0.00018843,24.542,0.00018005,-38.398,-0.00055926,-5593.3,0.13779
11198,4.365,4.1818,0,0.00056159,5612,0.00019216,6.1587,0.00017425,-128.4,-0.00056355,-5671.9,0.14512
11199,4.2729,4.1818,0.05,6.4532e-06,64.487,4.9553e-06,37.232,-3.0351e-11,-0.00029763,-4.9553e-06,-37.232,0.13813
11200,4.2729,4.4545,0,0.00052624,5258.8,0.00018339,112.14,0.0001674,-8.0463,-0.00052437,-5205.7,0.13693
11201,4.365,4.3636,0,0.00053343,5330.6,0.00017977,28.607,0.00017232,-27.406,-0.00053339,-5329.8,0.14436
11202,4.2729,4.3636,0.05,5.5826e-06,55.787,4.2867e-06,32.209,-3.1184e-11,-0.00038662,-4.2867e-06,-32.209,0.13732
11203,4.2729,4.6364,0,0.00049261,4922.7,0.00017859,190.47,0.00015268,-4.2229,-0.00048915,-4826.7,0.13597
11204,4.365,4.5455,0,0.00050414,5038,0.00017558,106.67,0.00016049,-6.6793,-0.00050235,-4987,0.14348
11205,4.2729,4.5455,0.05,5.0482e-06,50.448,3.8764e-06,29.126,-4.7402e-11,-0.00042491,-3.8764e-06,-29.126,0.13641
11206,4.2729,4.8182,0,0.00045938,4590.6,0.00017099,232.22,0.0001397,-2.8782,-0.00045502,-4471.4,0.1349
11207,4.365,4.7273,0,0.00047459,4742.6,0.00017084,169.02,0.00014787,-3.5862,-0.00047154,-4657.6,0.1425
11208,4.2729,4.7273,0.05,4.9347e-06,49.313,3.7892e-06,28.471,-3.2728e-11,-0.00031234,-3.7892e-06,-28.471,0.13539
11209,4.2729,5,0,0.00042798,4276.9,0.00016135,241.6,0.00012892,-2.1426,-0.00042339,-4151.9,0.13374
11210,4.365,4.9091,0,0.00044596,4456.5,0.00016395,200.87,0.0001369,-2.4115,-0.00044223,-4353.8,0.14143
11211,4.2729,4.9091,0.05,5.0897e-06,50.862,3.9083e-06,29.365,-2.2841e-11,-0.00024179,-3.9083e-06,-29.365,0.13427
11212,4.2729,5.1818,0,0.00039975,3994.7,0.00015088,228,0.00012032,-1.6292,-0.0003954,-3876.6,0.13248
11213,4.365,5.0909,0,0.00041947,4191.8,0.0001557,207.28,0.00012788,-1.743,-0.00041558,-4085.1,0.14025
11214,4.2729,5.0909,0.05,5.3148e-06,53.111,4.0811e-06,30.664,-1.0858e-11,-0.00014597,-4.0811e-06,-30.664,0.13306
11215,4.2729,5.3636,0,0.00037565,3753.9,0.00014063,200.35,0.00011381,-1.1699,-0.00037186,-3650.3,0.13114
11216,4.365,5.2727,0,0.00039615,3958.8,0.00014701,195.55,0.00012082,-1.2593,-0.00039248,-3857.9,0.13899
11217,4.2729,5.2727,0.05,5.5112e-06,55.074,4.232e-06,31.797,-6.7835e-12,-8.1416e-05,-4.232e-06,-31.797,0.13176
11218,4.2729,5.5455,0,0.00035624,3559.9,0.00013123,164.3,0.00010926,-0.80017,-0.00035317,-3475.3,0.12972
11219,4.365,5.4545,0,0.00037665,3763.9,0.00013856,171.45,0.00011564,-0.79435,-0.00037345,-3675.6,0.13764
11220,4.2729,5.4545,0.05,5.6613e-06,56.574,4.3472e-06,32.663,-2.3593e-12,-4.9043e-05,-4.3472e-06,-32.663,0.13038
11221,4.2729,5.7273,0,0.00034188,3416.5,0.00012306,123.1,0.00010665,-0.21748,-0.00033963,-3353.4,0.12822
11222,4.365,5.6364,0,0.00036122,3609.7,0.00013064,137.38,0.00011228,-0.57099,-0.00035869,-3539.3,0.1362
11223,4.2729,5.6364,0.05,5.8619e-06,58.578,4.5012e-06,33.82,-1.3904e-12,-1.6052e-05,-4.5012e-06,-33.82,0.12892
11224,4.365,5.8182,0,0.0003502,3499.6,0.00012348,95.224,0.00011084,0.28229,-0.00034848,-3450.9,0.13468
11225,4.2729,5.8182,0.05,7.4504e-06,74.453,5.721e-06,42.985,9.9378e-13,-1.2127e-06,-5.721e-06,-42.985,0.12738
11226,4.2729,5.9091,0,0.00032906,3288.3,0.0001132,55.411,0.00010584,0.043421,-0.00032808,-3260.2,0.12664
11227,4.4572,0.27273,0,0.00036971,3694.6,0.00013122,110.7,0.00011647,-0.10252,-0.0003677,-3638,0.14274
11228,4.5494,0.18182,0,0.00037578,3755.2,0.00013094,83.359,0.00011988,0.26965,-0.00037429,-3712.7,0.14934
11229,4.4572,0.18182,0.05,6.2036e-06,61.993,4.7636e-06,35.792,-2.0795e-13,5.8283e-07,-4.7636e-06,-35.792,0.14192
11230,4.4572,0.090909,0,0.00035874,3584.9,0.00012251,49.538,0.00011592,0.0095581,-0.00035787,-3559.9,0.1412
11231,4.4572,0.45455,0,0.00038191,3816.5,0.00013822,146.37,0.00011866,-0.57316,-0.00037922,-3741.4,0.14419
11232,4.5494,0.36364,0,0.00038541,3851.5,0.00013743,122.91,0.00012101,-0.4405,-0.00038318,-3788.7,0.15082
11233,4.4572,0.36364,0.05,4.7333e-06,47.3,3.6346e-06,27.309,-6.2101e-13,1.2972e-05,-3.6346e-06,-27.309,0.14342
11234,4.4572,0.63636,0,0.00039762,3973.5,0.00014535,169.72,0.00012264,-0.88389,-0.00039448,-3886.3,0.14557
11235,4.5494,0.54545,0,0.00039813,3978.5,0.00014378,148.8,0.00012389,-0.57279,-0.0003954,-3902.3,0.15221
11236,4.4572,0.54545,0.05,4.5118e-06,45.087,3.4645e-06,26.031,5.1609e-12,4.1746e-05,-3.4645e-06,-26.031,0.14483
11237,4.4572,0.81818,0,0.00041655,4162.7,0.0001524,179.14,0.00012838,-1.3605,-0.00041324,-4070.8,0.14685
11238,4.5494,0.72727,0,0.00041364,4133.5,0.00014984,159.99,0.00012841,-1.0098,-0.0004107,-4051.7,0.15351
11239,4.4572,0.72727,0.05,4.3399e-06,43.369,3.3325e-06,25.039,6.1569e-12,7.9575e-05,-3.3325e-06,-25.039,0.14616
11240,4.4572,1,0,0.00043828,4379.7,0.000159,171.78,0.00013587,-1.9834,-0.00043513,-4292.3,0.14804
11241,4.5494,0.90909,0,0.00043173,4314.3,0.00015548,155.63,0.00013456,-1.5408,-0.0004289,-4235.1,0.15472
11242,4.4572,0.90909,0.05,4.1473e-06,41.444,3.1846e-06,23.928,1.4668e-11,0.00015658,-3.1846e-06,-23.928,0.1474
11243,4.4572,1.1818,0,0.00046206,4617.4,0.00016454,143.24,0.00014507,-3.062,-0.0004595,-4545.6,0.14913
11244,4.5494,1.0909,0,0.0004519,4515.9,0.00016031,132.97,0.00014229,-2.4291,-0.00044953,-4449.1,0.15584
11245,4.4572,1.0909,0.05,3.9781e-06,39.754,3.0547e-06,22.952,2.0596e-11,0.00021789,-3.0547e-06,-22.952,0.14854
11246,4.4572,1.3636,0,0.00048696,4866.2,0.00016852,90.411,0.00015571,-5.8553,-0.00048545,-4823.3,0.15013
11247,4.5494,1.2727,0,0.00047341,4730.9,0.0001639,89.373,0.0001514,-4.5286,-0.0004719,-4687.7,0.15685
11248,4.4572,1.2727,0.05,3.9353e-06,39.325,3.0218e-06,22.705,2.8404e-11,0.00028958,-3.0218e-06,-22.705,0.14959
11249,4.4572,1.5455,0,0.00051203,5116.8,0.00017225,25.366,0.00016573,-23.637,-0.00051198,-5115.7,0.15102
11250,4.5494,1.4545,0,0.00049543,4950.9,0.00016682,30.576,0.00016067,-15.622,-0.00049516,-4943.3,0.15777
11251,4.4572,1.4545,0.05,4.1406e-06,41.378,3.1795e-06,23.889,3.5678e-11,0.00038888,-3.1795e-06,-23.89,0.15053
11252,4.4572,1.7273,0,0.00053649,5361.2,0.0001829,5.7559,0.0001676,-109.27,-0.00053816,-5412,0.15181
11253,4.5494,1.6364,0,0.0005172,5168.4,0.00017532,6.3102,0.00016336,-83.528,-0.00051845,-5206.4,0.15858
11254,4.4572,1.6364,0.05,4.632e-06,46.288,3.5568e-06,26.724,4.2642e-11,0.00019102,-3.5568e-06,-26.724,0.15137
11255,4.4572,1.9091,0,0.00055983,5594.4,0.00019587,2.7076,0.00016592,-222.37,-0.00056323,-5700.9,0.15249
11256,4.5494,1.8182,0,0.00053816,5377.8,0.00018701,2.8716,0.00016174,-187,-0.00054104,-5467.4,0.15929
11257,4.4572,1.8182,0.05,5.3107e-06,53.07,4.0779e-06,30.64,1.1172e-11,0.00017407,-4.078e-06,-30.64,0.15211
11258,4.4572,2.0909,0,0.00058165,5812.5,0.00020833,1.5994,0.00016381,-332.89,-0.00058656,-5970.9,0.15307
11259,4.5494,2,0,0.00055795,5575.7,0.00019869,1.6964,0.00015918,-295.15,-0.00056235,-5716.5,0.1599
11260,4.4572,2,0.05,6.0395e-06,60.353,4.6376e-06,34.845,2.0372e-11,0.00018196,-4.6376e-06,-34.845,0.15274
11261,4.4572,2.2727,0,0.00060142,6010,0.00021927,1.1221,0.00016246,-425.74,-0.0006075,-6210.9,0.15355
11262,4.5494,2.1818,0,0.00057623,5758.3,0.00020938,1.1377,0.00015694,-392.88,-0.00058188,-5944.1,0.16041
11263,4.4572,2.1818,0.05,6.733e-06,67.283,5.1701e-06,38.846,8.5658e-12,0.00011881,-5.1701e-06,-38.846,0.15327
11264,4.4572,2.4545,0,0.0006183,6178.7,0.00022807,0.94022,0.00016227,-493.47,-0.00062519,-6410.1,0.15392
11265,4.5494,2.3636,0,0.0005924,5920,0.0002184,0.88673,0.00015569,-470.25,-0.00059898,-6140.6,0.16081
11266,4.4572,2.3636,0.05,7.3499e-06,73.448,5.6438e-06,42.406,2.7625e-12,7.375e-05,-5.6438e-06,-42.405,0.1537
11267,4.4572,2.6364,0,0.00063129,6308.5,0.00023439,0.88217,0.00016291,-536.22,-0.00063868,-6559,0.15419
11268,4.5494,2.5455,0,0.00060565,6052.3,0.00022532,0.78716,0.00015548,-523.93,-0.00061284,-6296.8,0.16112
11269,4.4572,2.5455,0.05,7.8495e-06,78.441,6.0274e-06,45.288,-1.4212e-12,3.5794e-05,-6.0274e-06,-45.288,0.15402
11270,4.4572,2.8182,0,0.00063948,6390.4,0.00023816,0.87714,0.0001637,-558.59,-0.00064713,-6650.9,0.15435
11271,4.5494,2.7273,0,0.00061508,6146.6,0.00022996,0.76313,0.00015586,-555.99,-0.00062263,-6405.2,0.16132
11272,4.4572,2.7273,0.05,8.1947e-06,81.891,6.2925e-06,47.28,1.4946e-12,2.9213e-05,-6.2925e-06,-47.28,0.15423
11273,4.4572,3,0,0.00064228,6418.4,0.00023941,0.88165,0.00016405,-565.4,-0.00065001,-6681.9,0.15441
11274,4.5494,2.9091,0,0.00061998,6195.6,0.00023227,0.76612,0.00015623,-570.56,-0.0006277,-6460.7,0.16142
11275,4.4572,2.9091,0.05,8.3677e-06,83.619,6.4253e-06,48.277,-1.372e-12,7.4667e-06,-6.4253e-06,-48.277,0.15434
11276,4.4572,3.1818,0,0.00063948,6390.4,0.00023816,0.87714,0.0001637,-558.59,-0.00064713,-6650.9,0.15435
11277,4.5494,3.0909,0,0.00061998,6195.6,0.00023227,0.76612,0.00015623,-570.56,-0.0006277,-6460.7,0.16142
11278,4.4572,3.0909,0.05,8.3677e-06,83.619,6.4253e-06,48.277,3.2237e-12,1.9465e-07,-6.4253e-06,-48.277,0.15434
11279,4.4572,3.3636,0,0.00063129,6308.5,0.00023439,0.88217,0.00016291,-536.22,-0.00063868,-6559,0.15419
11280,4.5494,3.2727,0,0.00061508,6146.6,0.00022996,0.76313,0.00015586,-555.99,-0.00062263,-6405.2,0.16132
11281,4.4572,3.2727,0.05,8.1947e-06,81.891,6.2925e-06,47.28,5.8902e-12,-3.2386e-05,-6.2925e-06,-47.28,0.15423
11282,4.4572,3.5455,0,0.0006183,6178.7,0.00022807,0.94022,0.00016227,-493.47,-0.00062519,-6410.1,0.15392
11283,4.5494,3.4545,0,0.00060565,6052.3,0.00022532,0.78716,0.00015548,-523.93,-0.00061284,-6296.8,0.16112
11284,4.4572,3.4545,0.05,7.8495e-06,78.441,6.0274e-06,45.288,2.8296e-12,-3.6318e-05,-6.0274e-06,-45.288,0.15402
11285,4.4572,3.7273,0,0.00060142,6010,0.00021927,1.1221,0.00016246,-425.74,-0.0006075,-6210.9,0.15355
11286,4.5494,3.6364,0,0.0005924,5920,0.0002184,0.88673,0.00015569,-470.25,-0.00059898,-6140.6,0.16081
11287,4.4572,3.6364,0.05,7.3499e-06,73.448,5.6438e-06,42.405,1.2949e-12,-7.1942e-05,-5.6438e-06,-42.406,0.1537
11288,4.4572,3.9091,0,0.00058165,5812.5,0.00020833,1.5994,0.00016381,-332.89,-0.00058656,-5970.9,0.15307
11289,4.5494,3.8182,0,0.00057623,5758.3,0.00020938,1.1377,0.00015694,-392.88,-0.00058188,-5944.1,0.16041
11290,4.4572,3.8182,0.05,6.733e-06,67.283,5.1701e-06,38.846,-3.5355e-12,-0.00015173,-5.1701e-06,-38.846,0.15327
11291,4.4572,4.0909,0,0.00055983,5594.4,0.00019587,2.7076,0.00016592,-222.37,-0.00056323,-5700.9,0.15249
11292,4.5494,4,0,0.00055795,5575.7,0.00019869,1.6964,0.00015918,-295.15,-0.00056235,-5716.5,0.1599
11293,4.4572,4,0.05,6.0395e-06,60.353,4.6376e-06,34.845,-1.4922e-11,-0.00018353,-4.6376e-06,-34.845,0.15274
11294,4.4572,4.2727,0,0.00053649,5361.2,0.0001829,5.7559,0.0001676,-109.27,-0.00053816,-5412,0.15181
11295,4.5494,4.1818,0,0.00053816,5377.8,0.00018701,2.8716,0.00016174,-187,-0.00054104,-5467.4,0.15929
11296,4.4572,4.1818,0.05,5.3107e-06,53.07,4.078e-06,30.64,-8.0773e-12,-0.00024077,-4.0779e-06,-30.64,0.15211
11297,4.4572,4.4545,0,0.00051203,5116.8,0.00017225,25.366,0.00016573,-23.637,-0.00051198,-5115.7,0.15102
11298,4.5494,4.3636,0,0.0005172,5168.4,0.00017532,6.3102,0.00016336,-83.528,-0.00051845,-5206.4,0.15858
11299,4.4572,4.3636,0.05,4.632e-06,46.288,3.5568e-06,26.724,-4.1583e-11,-0.00023976,-3.5568e-06,-26.724,0.15137
11300,4.4572,4.6364,0,0.00048696,4866.2,0.00016852,90.411,0.00015571,-5.8552,-0.00048545,-4823.3,0.15013
11301,4.5494,4.5455,0,0.00049543,4950.9,0.00016682,30.576,0.00016067,-15.622,-0.00049516,-4943.3,0.15777
11302,4.4572,4.5455,0.05,4.1406e-06,41.378,3.1795e-06,23.89,-3.9873e-11,-0.00039247,-3.1795e-06,-23.889,0.15053
11303,4.4572,4.8182,0,0.00046206,4617.4,0.00016454,143.24,0.00014507,-3.062,-0.0004595,-4545.6,0.14913
11304,4.5494,4.7273,0,0.00047341,4730.9,0.0001639,89.374,0.0001514,-4.5286,-0.0004719,-4687.7,0.15685
11305,4.4572,4.7273,0.05,3.9353e-06,39.325,3.0218e-06,22.705,-3.7144e-11,-0.00030851,-3.0218e-06,-22.705,0.14959
11306,4.4572,5,0,0.00043828,4379.7,0.000159,171.78,0.00013587,-1.9834,-0.00043513,-4292.3,0.14804
11307,4.5494,4.9091,0,0.0004519,4515.9,0.00016031,132.97,0.00014229,-2.4291,-0.00044953,-4449.1,0.15584
11308,4.4572,4.9091,0.05,3.9781e-06,39.754,3.0547e-06,22.952,-2.5346e-11,-0.00025192,-3.0547e-06,-22.952,0.14854
11309,4.4572,5.1818,0,0.00041655,4162.7,0.0001524,179.14,0.00012838,-1.3605,-0.00041324,-4070.8,0.14685
11310,4.5494,5.0909,0,0.00043173,4314.3,0.00015548,155.63,0.00013456,-1.5408,-0.0004289,-4235.1,0.15472
11311,4.4572,5.0909,0.05,4.1473e-06,41.444,3.1846e-06,23.928,-1.7161e-11,-0.00016623,-3.1846e-06,-23.928,0.1474
11312,4.4572,5.3636,0,0.00039762,3973.5,0.00014535,169.72,0.00012264,-0.88389,-0.00039448,-3886.3,0.14557
11313,4.5494,5.2727,0,0.00041364,4133.5,0.00014984,159.99,0.00012841,-1.0098,-0.0004107,-4051.7,0.15351
11314,4.4572,5.2727,0.05,4.3399e-06,43.369,3.3325e-06,25.039,-9.6335e-12,-9.6375e-05,-3.3325e-06,-25.039,0.14616
11315,4.4572,5.5455,0,0.00038191,3816.5,0.00013822,146.37,0.00011866,-0.57316,-0.00037922,-3741.4,0.14419
11316,4.5494,5.4545,0,0.00039813,3978.5,0.00014378,148.81,0.00012389,-0.57279,-0.0003954,-3902.3,0.15221
11317,4.4572,5.4545,0.05,4.5118e-06,45.087,3.4645e-06,26.031,-5.1609e-12,-4.883e-05,-3.4645e-06,-26.031,0.14483
11318,4.4572,5.7273,0,0.00036971,3694.6,0.00013122,110.7,0.00011647,-0.10253,-0.0003677,-3638,0.14274
11319,4.5494,5.6364,0,0.00038541,3851.5,0.00013743,122.91,0.00012101,-0.4405,-0.00038318,-3788.7,0.15082
11320,4.4572,5.6364,0.05,4.7333e-06,47.3,3.6346e-06,27.309,5.3515e-13,-1.511e-05,-3.6346e-06,-27.309,0.14342
11321,4.5494,5.8182,0,0.00037578,3755.2,0.00013094,83.359,0.00011988,0.26965,-0.00037429,-3712.7,0.14934
11322,4.4572,5.8182,0.05,6.2036e-06,61.993,4.7636e-06,35.792,2.8356e-13,-2.7671e-08,-4.7636e-06,-35.792,0.14192
11323,4.4572,5.9091,0,0.00035874,3584.9,0.00012251,49.538,0.00011592,0.0095564,-0.00035787,-3559.9,0.1412
11324,4.6416,0.27273,0,0.0003916,3913.3,0.00013725,96.38,0.00012442,-0.065882,-0.00038987,-3864.2,0.1575
11325,4.7338,0.18182,0,0.00039582,3955.4,0.00013653,71.061,0.0001271,0.21024,-0.00039456,-3919.3,0.16424
11326,4.6416,0.18182,0.05,5.0615e-06,50.58,3.8866e-06,29.202,-2.2374e-12,-8.3474e-07,-3.8866e-06,-29.202,0.1567
11327,4.6416,0.090909,0,0.00038238,3821.2,0.00012977,42.913,0.00012405,-0.00473,-0.00038163,-3799.5,0.15599
11328,4.6416,0.45455,0,0.00040181,4015.3,0.00014314,126.52,0.00012625,-0.42933,-0.00039952,-3950.8,0.15892
11329,4.7338,0.36364,0,0.00040404,4037.6,0.0001422,106.31,0.000128,-0.35634,-0.00040213,-3983.5,0.16569
11330,4.6416,0.36364,0.05,3.7311e-06,37.285,2.865e-06,21.526,1.1669e-12,1.0295e-05,-2.865e-06,-21.526,0.15817
11331,4.6416,0.63636,0,0.00041443,4141.5,0.00014851,140.92,0.00012967,-0.68292,-0.00041187,-4069.5,0.16025
11332,4.7338,0.54545,0,0.0004144,4141.1,0.00014722,125.56,0.00013045,-0.42801,-0.00041212,-4077.1,0.16705
11333,4.6416,0.54545,0.05,3.5167e-06,35.143,2.7004e-06,20.29,2.9087e-12,4.2619e-05,-2.7004e-06,-20.29,0.15954
11334,4.6416,0.81818,0,0.00042921,4289.1,0.00015325,138.97,0.0001346,-1.1562,-0.00042669,-4218.5,0.16148
11335,4.7338,0.72727,0,0.00042663,4263.4,0.0001515,128.22,0.00013432,-0.83005,-0.00042432,-4198.2,0.16831
11336,4.6416,0.72727,0.05,3.3627e-06,33.604,2.5821e-06,19.401,6.9386e-12,8.548e-05,-2.5821e-06,-19.401,0.16083
11337,4.6416,1,0,0.00044582,4455.1,0.00015718,119.74,0.00014099,-1.9027,-0.00044369,-4395,0.16262
11338,4.7338,0.90909,0,0.00044057,4402.6,0.00015498,114.42,0.00013956,-1.4066,-0.00043853,-4345,0.16948
11339,4.6416,0.90909,0.05,3.2196e-06,32.174,2.4723e-06,18.576,1.531e-11,0.00015616,-2.4723e-06,-18.576,0.16201
11340,4.6416,1.1818,0,0.00046375,4634.3,0.00016005,82.02,0.00014865,-3.6113,-0.00046235,-4594.5,0.16366
11341,4.7338,1.0909,0,0.00045583,4555.1,0.00015751,83.535,0.00014605,-2.6306,-0.00045439,-4514.1,0.17055
11342,4.6416,1.0909,0.05,3.1384e-06,31.363,2.4099e-06,18.107,2.808e-11,0.00024038,-2.4099e-06,-18.107,0.1631
11343,4.6416,1.3636,0,0.00048235,4820.1,0.00016229,30.231,0.00015668,-11.905,-0.00048202,-4810.8,0.1646
11344,4.7338,1.2727,0,0.00047191,4715.8,0.00015922,37.479,0.00015325,-7.4099,-0.00047138,-4700.7,0.17152
11345,4.6416,1.2727,0.05,3.1983e-06,31.961,2.4559e-06,18.453,2.9301e-11,0.00027554,-2.4559e-06,-18.453,0.16409
11346,4.6416,1.5455,0,0.00050099,5006.4,0.00016916,6.092,0.00015938,-67.365,-0.00050199,-5036.7,0.16544
11347,4.7338,1.4545,0,0.00048826,4879.2,0.000164,7.1096,0.0001569,-46.298,-0.0004889,-4898.6,0.17238
11348,4.6416,1.4545,0.05,3.457e-06,34.546,2.6545e-06,19.945,3.26e-11,0.00030399,-2.6545e-06,-19.945,0.16498
11349,4.6416,1.7273,0,0.00051917,5188.1,0.00017934,2.7553,0.00015789,-158.36,-0.00052163,-5264,0.16618
11350,4.7338,1.6364,0,0.00050437,5040.2,0.00017292,2.8773,0.00015566,-126.81,-0.00050636,-5101,0.17315
11351,4.6416,1.6364,0.05,3.8978e-06,38.951,2.993e-06,22.488,3.3726e-11,0.00023373,-2.993e-06,-22.488,0.16577
11352,4.6416,1.9091,0,0.0005365,5361.3,0.0001898,1.6744,0.00015526,-257.88,-0.00054039,-5484.7,0.16682
11353,4.7338,1.8182,0,0.00051988,5195.2,0.00018247,1.7103,0.000153,-219.7,-0.00052324,-5300.7,0.17382
11354,4.6416,1.8182,0.05,4.4429e-06,44.398,3.4116e-06,25.633,2.1859e-11,0.00016076,-3.4116e-06,-25.633,0.16646
11355,4.6416,2.0909,0,0.00055268,5523,0.00019973,1.1424,0.00015248,-353.87,-0.00055783,-5690.8,0.16735
11356,4.7338,2,0,0.00053451,5341.4,0.0001918,1.1538,0.00014988,-313.84,-0.00053913,-5490.7,0.17439
11357,4.6416,2,0.05,5.0121e-06,50.087,3.8487e-06,28.918,8.3593e-12,0.00015239,-3.8487e-06,-28.918,0.16705
11358,4.6416,2.2727,0,0.00056729,5669,0.00020849,0.84896,0.00015025,-436.74,-0.00057344,-5874.3,0.16779
11359,4.7338,2.1818,0,0.00054795,5475.8,0.00020034,0.83802,0.00014701,-399.8,-0.00055364,-5664.2,0.17486
11360,4.6416,2.1818,0.05,5.5558e-06,55.52,4.2662e-06,32.054,1.1918e-11,0.00011574,-4.2662e-06,-32.054,0.16753
11361,4.6416,2.4545,0,0.00057975,5793.5,0.00021564,0.70294,0.00014891,-500.7,-0.00058663,-6027.2,0.16813
11362,4.7338,2.3636,0,0.00055981,5594.2,0.00020761,0.66216,0.00014489,-470.54,-0.00056631,-5814.2,0.17524
11363,4.6416,2.3636,0.05,6.0453e-06,60.412,4.6421e-06,34.879,1.7213e-12,6.2984e-05,-4.6421e-06,-34.879,0.16792
11364,4.6416,2.6364,0,0.00058936,5889.5,0.00022088,0.65116,0.00014835,-544.3,-0.00059671,-6142.4,0.16838
11365,4.7338,2.5455,0,0.0005695,5691,0.00021327,0.58314,0.00014364,-522.62,-0.00057657,-5934,0.17552
11366,4.6416,2.5455,0.05,6.4523e-06,64.478,4.9545e-06,37.226,2.7911e-12,4.6865e-05,-4.9545e-06,-37.226,0.16822
11367,4.6416,2.8182,0,0.00059544,5950.3,0.00022406,0.64224,0.00014824,-568.99,-0.00060306,-6214,0.16852
11368,4.7338,2.7273,0,0.0005764,5760,0.00021713,0.55882,0.00014307,-555.92,-0.00058383,-6017.5,0.17571
11369,4.6416,2.7273,0.05,6.7443e-06,67.397,5.1788e-06,38.912,-1.1242e-12,1.9812e-05,-5.1788e-06,-38.912,0.16841
11370,4.6416,3,0,0.00059752,5971.1,0.00022512,0.64282,0.00014825,-576.9,-0.00060522,-6238.2,0.16857
11371,4.7338,2.9091,0,0.00058,5796,0.00021907,0.55537,0.00014288,-571.91,-0.00058759,-6060.4,0.1758
11372,4.6416,2.9091,0.05,6.8966e-06,68.918,5.2957e-06,39.79,2.34e-13,6.139e-06,-5.2957e-06,-39.79,0.16851
11373,4.6416,3.1818,0,0.00059544,5950.3,0.00022406,0.64224,0.00014824,-568.99,-0.00060306,-6214,0.16852
11374,4.7338,3.0909,0,0.00058,5796,0.00021907,0.55537,0.00014288,-571.91,-0.00058759,-6060.4,0.1758
11375,4.6416,3.0909,0.05,6.8966e-06,68.918,5.2957e-06,39.79,-2.4845e-13,1.3011e-06,-5.2957e-06,-39.79,0.16851
11376,4.6416,3.3636,0,0.00058936,5889.5,0.00022088,0.65116,0.00014835,-544.3,-0.00059671,-6142.4,0.16838
11377,4.7338,3.2727,0,0.0005764,5760,0.00021713,0.55882,0.00014307,-555.92,-0.00058383,-6017.5,0.17571
11378,4.6416,3.2727,0.05,6.7443e-06,67.397,5.1788e-06,38.912,2.7509e-12,-1.8036e-05,-5.1788e-06,-38.912,0.16841
11379,4.6416,3.5455,0,0.00057975,5793.5,0.00021564,0.70294,0.00014891,-500.7,-0.00058663,-6027.2,0.16813
11380,4.7338,3.4545,0,0.0005695,5691,0.00021327,0.58314,0.00014364,-522.62,-0.00057657,-5934,0.17552
11381,4.6416,3.4545,0.05,6.4523e-06,64.478,4.9545e-06,37.226,2.4188e-12,-5.2127e-05,-4.9545e-06,-37.226,0.16822
11382,4.6416,3.7273,0,0.00056729,5669,0.00020849,0.84896,0.00015025,-436.74,-0.00057344,-5874.3,0.16779
11383,4.7338,3.6364,0,0.00055981,5594.2,0.00020761,0.66216,0.00014489,-470.54,-0.00056631,-5814.2,0.17524
11384,4.6416,3.6364,0.05,6.0453e-06,60.412,4.6421e-06,34.879,1.433e-12,-7.9377e-05,-4.6421e-06,-34.879,0.16792
11385,4.6416,3.9091,0,0.00055268,5523,0.00019973,1.1424,0.00015248,-353.87,-0.00055783,-5690.8,0.16735
11386,4.7338,3.8182,0,0.00054795,5475.8,0.00020034,0.83802,0.00014701,-399.8,-0.00055364,-5664.2,0.17486
11387,4.6416,3.8182,0.05,5.5558e-06,55.52,4.2662e-06,32.054,-9.5864e-12,-0.00010159,-4.2662e-06,-32.054,0.16753
11388,4.6416,4.0909,0,0.0005365,5361.3,0.0001898,1.6744,0.00015526,-257.88,-0.00054039,-5484.7,0.16682
11389,4.7338,4,0,0.00053451,5341.4,0.0001918,1.1538,0.00014988,-313.84,-0.00053913,-5490.7,0.17439
11390,4.6416,4,0.05,5.0121e-06,50.087,3.8487e-06,28.918,-3.8243e-12,-0.00016593,-3.8487e-06,-28.918,0.16705
11391,4.6416,4.2727,0,0.00051917,5188.1,0.00017934,2.7553,0.00015789,-158.36,-0.00052163,-5264,0.16618
11392,4.7338,4.1818,0,0.00051988,5195.2,0.00018247,1.7103,0.000153,-219.7,-0.00052324,-5300.7,0.17382
11393,4.6416,4.1818,0.05,4.4429e-06,44.398,3.4116e-06,25.633,-1.8791e-11,-0.0001909,-3.4116e-06,-25.634,0.16646
11394,4.6416,4.4545,0,0.00050099,5006.4,0.00016916,6.092,0.00015938,-67.365,-0.00050199,-5036.7,0.16544
11395,4.7338,4.3636,0,0.00050437,5040.2,0.00017292,2.8773,0.00015566,-126.81,-0.00050636,-5101,0.17315
11396,4.6416,4.3636,0.05,3.8978e-06,38.951,2.993e-06,22.488,-3.1143e-11,-0.00027835,-2.993e-06,-22.488,0.16577
11397,4.6416,4.6364,0,0.00048235,4820.1,0.00016229,30.231,0.00015668,-11.905,-0.00048202,-4810.8,0.1646
11398,4.7338,4.5455,0,0.00048826,4879.2,0.00016401,7.1096,0.0001569,-46.298,-0.0004889,-4898.6,0.17238
11399,4.6416,4.5455,0.05,3.457e-06,34.546,2.6545e-06,19.945,-3.6191e-11,-0.00042586,-2.6545e-06,-19.945,0.16498
11400,4.6416,4.8182,0,0.00046375,4634.3,0.00016005,82.02,0.00014865,-3.6113,-0.00046235,-4594.5,0.16366
11401,4.7338,4.7273,0,0.00047191,4715.8,0.00015922,37.479,0.00015325,-7.4099,-0.00047138,-4700.7,0.17152
11402,4.6416,4.7273,0.05,3.1983e-06,31.961,2.4559e-06,18.453,-3.3487e-11,-0.00033542,-2.4559e-06,-18.453,0.16409
11403,4.6416,5,0,0.00044582,4455.1,0.00015718,119.74,0.00014099,-1.9027,-0.00044369,-4395,0.16262
11404,4.7338,4.9091,0,0.00045583,4555.1,0.00015751,83.535,0.00014605,-2.6306,-0.00045439,-4514.1,0.17055
11405,4.6416,4.9091,0.05,3.1384e-06,31.363,2.4099e-06,18.107,-3.0432e-11,-0.00025553,-2.4099e-06,-18.107,0.1631
11406,4.6416,5.1818,0,0.00042921,4289.1,0.00015325,138.97,0.0001346,-1.1562,-0.00042669,-4218.5,0.16148
11407,4.7338,5.0909,0,0.00044057,4402.6,0.00015498,114.42,0.00013956,-1.4066,-0.00043853,-4345,0.16948
11408,4.6416,5.0909,0.05,3.2196e-06,32.174,2.4723e-06,18.576,-1.8284e-11,-0.00019574,-2.4723e-06,-18.576,0.16201
11409,4.6416,5.3636,0,0.00041443,4141.5,0.00014851,140.92,0.00012967,-0.68292,-0.00041187,-4069.5,0.16025
11410,4.7338,5.2727,0,0.00042663,4263.4,0.0001515,128.22,0.00013432,-0.83005,-0.00042432,-4198.2,0.16831
11411,4.6416,5.2727,0.05,3.3627e-06,33.604,2.5821e-06,19.401,-5.4667e-12,-8.925e-05,-2.5821e-06,-19.401,0.16083
11412,4.6416,5.5455,0,0.00040181,4015.3,0.00014314,126.52,0.00012625,-0.42933,-0.00039952,-3950.8,0.15892
11413,4.7338,5.4545,0,0.0004144,4141.1,0.00014722,125.56,0.00013045,-0.42801,-0.00041212,-4077.1,0.16705
11414,4.6416,5.4545,0.05,3.5167e-06,35.143,2.7004e-06,20.29,-1.6698e-12,-4.4674e-05,-2.7004e-06,-20.29,0.15954
11415,4.6416,5.7273,0,0.0003916,3913.3,0.00013725,96.38,0.00012442,-0.065884,-0.00038987,-3864.2,0.1575
11416,4.7338,5.6364,0,0.00040404,4037.6,0.0001422,106.31,0.000128,-0.35634,-0.00040213,-3983.5,0.16569
11417,4.6416,5.6364,0.05,3.7311e-06,37.285,2.865e-06,21.526,-1.3324e-12,-1.2408e-05,-2.865e-06,-21.526,0.15817
11418,4.7338,5.8182,0,0.00039582,3955.4,0.00013653,71.061,0.0001271,0.21024,-0.00039456,-3919.3,0.16424
11419,4.6416,5.8182,0.05,5.0615e-06,50.58,3.8866e-06,29.202,2.2516e-12,3.4501e-06,-3.8866e-06,-29.202,0.1567
11420,4.6416,5.9091,0,0.00038238,3821.2,0.00012977,42.913,0.00012405,-0.0047315,-0.00038163,-3799.5,0.15599
11421,4.826,0.27273,0,0.00040833,4080.5,0.00014154,81.521,0.00013069,-0.057675,-0.00040689,-4039.2,0.17253
11422,4.9181,0.18182,0,0.00041107,4107.9,0.00014058,59.177,0.00013272,0.14795,-0.00041003,-4077.9,0.17942
11423,4.826,0.18182,0.05,4.052e-06,40.492,3.1115e-06,23.378,-5.9006e-12,-3.4375e-06,-3.1115e-06,-23.378,0.17174
11424,4.826,0.090909,0,0.00040073,4004.5,0.00013526,36.223,0.00013044,-0.0091385,-0.0004001,-3986.3,0.17105
11425,4.826,0.45455,0,0.00041674,4164.5,0.00014637,106.1,0.00013221,-0.33462,-0.00041484,-4110.6,0.17392
11426,4.9181,0.36364,0,0.00041792,4176.4,0.00014535,89.134,0.00013345,-0.29361,-0.00041634,-4131.2,0.18084
11427,4.826,0.36364,0.05,2.8665e-06,28.646,2.2011e-06,16.539,-4.0869e-12,7.0248e-06,-2.2011e-06,-16.538,0.17318
11428,4.826,0.63636,0,0.00042677,4264.8,0.00015035,113.96,0.00013511,-0.54776,-0.00042472,-4206.9,0.17521
11429,4.9181,0.54545,0,0.00042624,4259.5,0.00014923,102.78,0.00013551,-0.33368,-0.00042441,-4207.3,0.18217
11430,4.826,0.54545,0.05,2.6776e-06,26.757,2.056e-06,15.448,8.9931e-13,4.6864e-05,-2.056e-06,-15.448,0.17452
11431,4.826,0.81818,0,0.00043822,4379.1,0.00015341,105.08,0.00013929,-1.0211,-0.00043635,-4326.1,0.17641
11432,4.9181,0.72727,0,0.0004358,4355,0.00015216,99.762,0.00013878,-0.70884,-0.00043403,-4304.6,0.1834
11433,4.826,0.72727,0.05,2.5637e-06,25.619,1.9686e-06,14.791,6.1341e-12,8.8532e-05,-1.9686e-06,-14.791,0.17577
11434,4.826,1,0,0.00045083,4505.2,0.00015552,79.735,0.00014464,-1.9447,-0.00044946,-4465.8,0.17751
11435,4.9181,0.90909,0,0.00044644,4461.3,0.00015412,80.776,0.00014319,-1.355,-0.00044503,-4421.1,0.18453
11436,4.826,0.90909,0.05,2.4891e-06,24.874,1.9113e-06,14.361,1.9583e-11,0.00016993,-1.9113e-06,-14.361,0.17692
11437,4.826,1.1818,0,0.00046426,4639.4,0.00015676,39.538,0.00015081,-5.1647,-0.00046366,-4622.1,0.17851
11438,4.9181,1.0909,0,0.00045791,4575.9,0.00015518,46.83,0.00014851,-3.2428,-0.00045714,-4553.9,0.18556
11439,4.826,1.0909,0.05,2.498e-06,24.963,1.9182e-06,14.412,2.0811e-11,0.00025922,-1.9182e-06,-14.412,0.17797
11440,4.826,1.3636,0,0.00047807,4777.4,0.00016003,7.5232,0.00015461,-33.22,-0.0004785,-4790.2,0.1794
11441,4.9181,1.2727,0,0.00046985,4695.2,0.00015684,10.46,0.00015298,-18.517,-0.00046998,-4699.2,0.1865
11442,4.826,1.2727,0.05,2.6378e-06,26.36,2.0255e-06,15.219,2.8077e-11,0.00026294,-2.0256e-06,-15.219,0.17892
11443,4.826,1.5455,0,0.00049185,4915.1,0.00016762,2.7739,0.00015354,-103.05,-0.00049347,-4964.4,0.1802
11444,4.9181,1.4545,0,0.0004819,4815.6,0.00016308,2.9887,0.00015242,-77.064,-0.00048311,-4852.2,0.18733
11445,4.826,1.4545,0.05,2.9217e-06,29.197,2.2435e-06,16.857,2.6481e-11,0.00022467,-2.2435e-06,-16.857,0.17977
11446,4.826,1.7273,0,0.00050526,5049.1,0.00017603,1.6341,0.00015097,-186.64,-0.00050814,-5138.9,0.1809
11447,4.9181,1.6364,0,0.00049373,4933.9,0.00017059,1.6705,0.00015001,-152.98,-0.00049612,-5007.7,0.18806
11448,4.826,1.6364,0.05,3.3159e-06,33.136,2.5462e-06,19.131,1.8819e-11,0.00017496,-2.5462e-06,-19.131,0.18052
11449,4.826,1.9091,0,0.00051801,5176.5,0.00018445,1.107,0.00014777,-274.55,-0.00052211,-5307.7,0.18151
11450,4.9181,1.8182,0,0.00050509,5047.4,0.00017832,1.1212,0.00014678,-235.83,-0.00050866,-5160.6,0.1887
11451,4.826,1.8182,0.05,3.7643e-06,37.617,2.8905e-06,21.718,1.1811e-11,0.00020902,-2.8905e-06,-21.718,0.18117
11452,4.826,2.0909,0,0.00052986,5295,0.0001924,0.80137,0.00014452,-359,-0.00053504,-5464.9,0.18201
11453,4.9181,2,0,0.00051576,5154,0.00018581,0.80644,0.00014329,-318.66,-0.00052042,-5305.5,0.18924
11454,4.826,2,0.05,4.2181e-06,42.151,3.2389e-06,24.336,1.1477e-11,0.00012048,-3.2389e-06,-24.336,0.18172
11455,4.826,2.2727,0,0.00054051,5401.4,0.00019945,0.62019,0.00014171,-433.17,-0.00054656,-5604.6,0.18242
11456,4.9181,2.1818,0,0.00052552,5251.6,0.00019266,0.60979,0.00014003,-394.81,-0.00053111,-5437.5,0.18969
11457,4.826,2.1818,0.05,4.6468e-06,46.436,3.5681e-06,26.81,5.5279e-12,8.6964e-05,-3.5681e-06,-26.81,0.18218
11458,4.826,2.4545,0,0.00054955,5491.7,0.00020524,0.52218,0.00013964,-492.38,-0.00055626,-5721.1,0.18274
11459,4.9181,2.3636,0,0.00053407,5337,0.00019853,0.4926,0.00013738,-458.94,-0.00054038,-5551.4,0.19005
11460,4.826,2.3636,0.05,5.0306e-06,50.271,3.8629e-06,29.024,3.4668e-12,6.1958e-05,-3.8629e-06,-29.024,0.18255
11461,4.826,2.6364,0,0.0005565,5561.2,0.00020952,0.47774,0.00013832,-534.5,-0.00056365,-5808.8,0.18297
11462,4.9181,2.5455,0,0.00054102,5406.5,0.00020314,0.4309,0.00013549,-507.82,-0.00054786,-5642.2,0.19031
11463,4.826,2.5455,0.05,5.3492e-06,53.455,4.1075e-06,30.863,1.7836e-12,5.5478e-05,-4.1076e-06,-30.862,0.18282
11464,4.826,2.8182,0,0.00056089,5605,0.00021215,0.46292,0.00013764,-559.35,-0.0005683,-5863.5,0.18311
11465,4.9181,2.7273,0,0.00054596,5455.9,0.0002063,0.40463,0.00013434,-540.24,-0.00055313,-5705.6,0.19049
11466,4.826,2.7273,0.05,5.5795e-06,55.756,4.2843e-06,32.191,3.1462e-12,3.5421e-05,-4.2843e-06,-32.191,0.183
11467,4.826,3,0,0.00056239,5620.1,0.00021303,0.46019,0.00013743,-567.52,-0.00056988,-5882,0.18315
11468,4.9181,2.9091,0,0.00054853,5481.5,0.0002079,0.39664,0.00013381,-556.27,-0.00055586,-5738.2,0.19058
11469,4.826,2.9091,0.05,5.7005e-06,56.966,4.3773e-06,32.889,-1.2357e-13,3.4195e-06,-4.3773e-06,-32.889,0.18309
11470,4.826,3.1818,0,0.00056089,5605,0.00021215,0.46292,0.00013764,-559.35,-0.0005683,-5863.5,0.18311
11471,4.9181,3.0909,0,0.00054853,5481.5,0.0002079,0.39664,0.00013381,-556.27,-0.00055586,-5738.2,0.19058
11472,4.826,3.0909,0.05,5.7005e-06,56.966,4.3773e-06,32.889,3.7265e-12,4.0595e-06,-4.3773e-06,-32.889,0.18309
11473,4.826,3.3636,0,0.0005565,5561.2,0.00020952,0.47774,0.00013832,-534.5,-0.00056365,-5808.8,0.18297
11474,4.9181,3.2727,0,0.00054596,5455.9,0.0002063,0.40463,0.00013434,-540.24,-0.00055313,-5705.6,0.19049
11475,4.826,3.2727,0.05,5.5795e-06,55.756,4.2843e-06,32.191,2.0576e-12,-1.0666e-05,-4.2844e-06,-32.191,0.183
11476,4.826,3.5455,0,0.00054955,5491.7,0.00020524,0.52218,0.00013964,-492.38,-0.00055626,-5721.1,0.18274
11477,4.9181,3.4545,0,0.00054102,5406.5,0.00020314,0.4309,0.00013549,-507.82,-0.00054786,-5642.2,0.19031
11478,4.826,3.4545,0.05,5.3492e-06,53.455,4.1075e-06,30.862,-8.0474e-13,-3.7286e-05,-4.1076e-06,-30.863,0.18282
11479,4.826,3.7273,0,0.00054051,5401.4,0.00019945,0.62019,0.00014171,-433.17,-0.00054656,-5604.6,0.18242
11480,4.9181,3.6364,0,0.00053407,5337,0.00019853,0.4926,0.00013738,-458.94,-0.00054038,-5551.4,0.19005
11481,4.826,3.6364,0.05,5.0306e-06,50.271,3.8629e-06,29.024,-1.8462e-12,-6.3867e-05,-3.8629e-06,-29.024,0.18255
11482,4.826,3.9091,0,0.00052986,5295,0.0001924,0.80137,0.00014452,-359,-0.00053504,-5464.9,0.18201
11483,4.9181,3.8182,0,0.00052552,5251.6,0.00019266,0.60979,0.00014003,-394.81,-0.00053111,-5437.5,0.18969
11484,4.826,3.8182,0.05,4.6468e-06,46.436,3.5681e-06,26.81,-3.4312e-12,-0.00011845,-3.5681e-06,-26.81,0.18218
11485,4.826,4.0909,0,0.00051801,5176.5,0.00018445,1.107,0.00014777,-274.55,-0.00052211,-5307.7,0.18151
11486,4.9181,4,0,0.00051576,5154,0.00018581,0.80644,0.00014329,-318.66,-0.00052042,-5305.5,0.18924
11487,4.826,4,0.05,4.2181e-06,42.151,3.2389e-06,24.336,-7.7621e-12,-0.00010524,-3.2389e-06,-24.336,0.18172
11488,4.826,4.2727,0,0.00050526,5049.1,0.00017603,1.6341,0.00015097,-186.64,-0.00050814,-5138.9,0.1809
11489,4.9181,4.1818,0,0.00050509,5047.4,0.00017832,1.1212,0.00014678,-235.83,-0.00050866,-5160.6,0.1887
11490,4.826,4.1818,0.05,3.7643e-06,37.617,2.8905e-06,21.718,-7.9004e-12,-0.0001857,-2.8905e-06,-21.718,0.18117
11491,4.826,4.4545,0,0.00049185,4915.1,0.00016762,2.7739,0.00015354,-103.05,-0.00049347,-4964.4,0.1802
11492,4.9181,4.3636,0,0.00049373,4933.9,0.00017059,1.6705,0.00015001,-152.98,-0.00049612,-5007.7,0.18806
11493,4.826,4.3636,0.05,3.3159e-06,33.136,2.5462e-06,19.131,-1.6436e-11,-0.0002118,-2.5462e-06,-19.131,0.18052
11494,4.826,4.6364,0,0.00047807,4777.4,0.00016003,7.5232,0.00015461,-33.219,-0.0004785,-4790.2,0.1794
11495,4.9181,4.5455,0,0.0004819,4815.6,0.00016308,2.9887,0.00015242,-77.064,-0.00048311,-4852.2,0.18733
11496,4.826,4.5455,0.05,2.9217e-06,29.197,2.2435e-06,16.857,-2.5899e-11,-0.0002211,-2.2435e-06,-16.857,0.17977
11497,4.826,4.8182,0,0.00046426,4639.4,0.00015676,39.538,0.00015081,-5.1647,-0.00046366,-4622.1,0.17851
11498,4.9181,4.7273,0,0.00046985,4695.2,0.00015684,10.46,0.00015298,-18.517,-0.00046998,-4699.2,0.1865
11499,4.826,4.7273,0.05,2.6378e-06,26.36,2.0256e-06,15.219,-3.2237e-11,-0.00026827,-2.0255e-06,-15.219,0.17892
11500,4.826,5,0,0.00045083,4505.2,0.00015552,79.735,0.00014464,-1.9447,-0.00044946,-4465.8,0.17751
11501,4.9181,4.9091,0,0.00045791,4575.9,0.00015518,46.83,0.00014851,-3.2428,-0.00045714,-4553.9,0.18556
11502,4.826,4.9091,0.05,2.498e-06,24.963,1.9182e-06,14.412,-2.2296e-11,-0.00026872,-1.9182e-06,-14.412,0.17797
11503,4.826,5.1818,0,0.00043822,4379.1,0.00015341,105.08,0.00013929,-1.0211,-0.00043635,-4326.1,0.17641
11504,4.9181,5.0909,0,0.00044644,4461.3,0.00015412,80.776,0.00014319,-1.355,-0.00044503,-4421.1,0.18453
11505,4.826,5.0909,0.05,2.4891e-06,24.874,1.9113e-06,14.361,-2.0041e-11,-0.00018233,-1.9113e-06,-14.361,0.17692
11506,4.826,5.3636,0,0.00042677,4264.8,0.00015035,113.96,0.00013511,-0.54776,-0.00042472,-4206.9,0.17521
11507,4.9181,5.2727,0,0.0004358,4355,0.00015216,99.762,0.00013878,-0.70884,-0.00043403,-4304.6,0.1834
11508,4.826,5.2727,0.05,2.5637e-06,25.619,1.9686e-06,14.791,-7.7143e-12,-0.0001153,-1.9686e-06,-14.791,0.17577
11509,4.826,5.5455,0,0.00041674,4164.5,0.00014637,106.1,0.00013221,-0.33462,-0.00041484,-4110.6,0.17392
11510,4.9181,5.4545,0,0.00042624,4259.5,0.00014923,102.78,0.00013551,-0.33368,-0.00042441,-4207.3,0.18217
11511,4.826,5.4545,0.05,2.6776e-06,26.757,2.056e-06,15.448,2.4861e-13,-4.7274e-05,-2.056e-06,-15.448,0.17452
11512,4.826,5.7273,0,0.00040833,4080.5,0.00014154,81.521,0.00013069,-0.057677,-0.00040689,-4039.2,0.17253
11513,4.9181,5.6364,0,0.00041792,4176.4,0.00014535,89.134,0.00013345,-0.29361,-0.00041634,-4131.2,0.18084
11514,4.826,5.6364,0.05,2.8665e-06,28.646,2.2011e-06,16.538,4.0017e-12,-8.252e-06,-2.2011e-06,-16.539,0.17318
11515,4.9181,5.8182,0,0.00041107,4107.9,0.00014058,59.177,0.00013272,0.14795,-0.00041003,-4077.9,0.17942
11516,4.826,5.8182,0.05,4.052e-06,40.492,3.1115e-06,23.378,5.9495e-12,4.2738e-06,-3.1115e-06,-23.378,0.17174
11517,4.826,5.9091,0,0.00040073,4004.5,0.00013526,36.223,0.00013044,-0.0091399,-0.0004001,-3986.3,0.17105
11518,5.0103,0.27273,0,0.00042071,4204.2,0.00014443,67.119,0.00013549,-0.054613,-0.00041953,-4170.3,0.18783
11519,5.1025,0.18182,0,0.00042229,4220,0.00014337,48.224,0.00013697,0.098953,-0.00042145,-4195.6,0.19487
11520,5.0103,0.18182,0.05,3.184e-06,31.818,2.4449e-06,18.37,-2.3191e-12,-3.2584e-06,-2.4449e-06,-18.37,0.18706
11521,5.0103,0.090909,0,0.00041454,4142.6,0.0001393,29.897,0.00013532,-0.004753,-0.00041403,-4127.6,0.18637
11522,5.0103,0.45455,0,0.0004275,4272.1,0.00014828,86.275,0.00013676,-0.26768,-0.00042597,-4228.4,0.18919
11523,5.1025,0.36364,0,0.00042787,4275.7,0.00014725,72.505,0.00013757,-0.242,-0.00042659,-4239.1,0.19627
11524,5.0103,0.36364,0.05,2.1368e-06,21.353,1.6408e-06,12.328,-5.7968e-12,5.3596e-06,-1.6408e-06,-12.328,0.18847
11525,5.0103,0.63636,0,0.00043538,4350.8,0.00015113,89.217,0.00013919,-0.45856,-0.0004338,-4305.7,0.19045
11526,5.1025,0.54545,0,0.00043444,4341.4,0.00015016,81.349,0.0001393,-0.27294,-0.00043301,-4300.3,0.19757
11527,5.0103,0.54545,0.05,1.9839e-06,19.825,1.5234e-06,11.446,3.5179e-12,5.1148e-05,-1.5234e-06,-11.446,0.18978
11528,5.0103,0.81818,0,0.00044416,4438.5,0.00015297,76.215,0.0001427,-0.95062,-0.00044283,-4400.4,0.19162
11529,5.1025,0.72727,0,0.00044182,4415.1,0.00015204,74.52,0.00014204,-0.63692,-0.00044051,-4377.7,0.19878
11530,5.0103,0.72727,0.05,1.9215e-06,19.202,1.4755e-06,11.086,9.5494e-12,8.9151e-05,-1.4755e-06,-11.086,0.191
11531,5.0103,1,0,0.00045366,4533.5,0.00015385,48.394,0.00014712,-2.2095,-0.00045285,-4510.2,0.19269
11532,5.1025,0.90909,0,0.00044986,4495.5,0.00015295,53.04,0.0001457,-1.4202,-0.00044896,-4469.5,0.19988
11533,5.0103,0.90909,0.05,1.9206e-06,19.193,1.4748e-06,11.081,1.7342e-11,0.00016901,-1.4748e-06,-11.081,0.19212
11534,5.0103,1.1818,0,0.00046364,4633.2,0.00015463,13.075,0.00015144,-10.908,-0.0004636,-4632,0.19366
11535,5.1025,1.0909,0,0.00045839,4580.8,0.00015321,20.18,0.00014983,-5.2606,-0.00045813,-4573.2,0.20089
11536,5.0103,1.0909,0.05,2.01e-06,20.086,1.5434e-06,11.597,1.7516e-11,0.0002582,-1.5435e-06,-11.597,0.19314
11537,5.0103,1.3636,0,0.0004738,4734.8,0.00015949,3.0049,0.00015131,-58.464,-0.00047472,-4762.2,0.19453
11538,5.1025,1.2727,0,0.00046717,4668.5,0.00015637,3.5308,0.00015076,-38.661,-0.00046775,-4685.9,0.20179
11539,5.0103,1.2727,0.05,2.2063e-06,22.048,1.6941e-06,12.729,2.2436e-11,0.00024887,-1.6942e-06,-12.729,0.19406
11540,5.0103,1.5455,0,0.00048389,4835.5,0.00016601,1.6017,0.00014905,-125.83,-0.00048587,-4896.4,0.1953
11541,5.1025,1.4545,0,0.00047595,4756.3,0.00016205,1.6555,0.00014874,-98.288,-0.00047752,-4803.8,0.2026
11542,5.0103,1.4545,0.05,2.4972e-06,24.955,1.9175e-06,14.408,2.3697e-11,0.0002088,-1.9176e-06,-14.408,0.19488
11543,5.0103,1.7273,0,0.00049365,4933.1,0.00017286,1.0722,0.00014593,-201.34,-0.00049675,-5030.1,0.19597
11544,5.1025,1.6364,0,0.00048453,4842,0.00016822,1.0781,0.00014576,-167.63,-0.00048715,-4923.1,0.20331
11545,5.0103,1.6364,0.05,2.8487e-06,28.468,2.1875e-06,16.436,1.8143e-11,0.00015947,-2.1875e-06,-16.436,0.1956
11546,5.0103,1.9091,0,0.00050291,5025.6,0.00017966,0.77705,0.00014239,-279.3,-0.00050706,-5159,0.19655
11547,5.1025,1.8182,0,0.00049273,4923.9,0.00017448,0.77688,0.00014224,-241.47,-0.00049638,-5039.8,0.20393
11548,5.0103,1.8182,0.05,3.2226e-06,32.204,2.4745e-06,18.593,1.2354e-11,0.00012497,-2.4746e-06,-18.593,0.19622
11549,5.0103,2.0909,0,0.00051146,5111.1,0.00018606,0.58699,0.00013887,-354.01,-0.00051655,-5278.6,0.19703
11550,5.1025,2,0,0.00050039,5000.5,0.00018052,0.58375,0.00013856,-314.7,-0.00050499,-5150.1,0.20445
11551,5.0103,2,0.05,3.589e-06,35.865,2.7559e-06,20.707,6.9907e-12,9.888e-05,-2.7559e-06,-20.707,0.19675
11552,5.0103,2.2727,0,0.0005191,5187.4,0.00019174,0.46286,0.00013574,-420.32,-0.00052496,-5384.5,0.19743
11553,5.1025,2.1818,0,0.00050736,5070.1,0.00018604,0.45271,0.0001351,-382.28,-0.00051277,-5250.1,0.20488
11554,5.0103,2.1818,0.05,3.9288e-06,39.26,3.0168e-06,22.667,3.1229e-12,8.565e-05,-3.0168e-06,-22.667,0.19719
11555,5.0103,2.4545,0,0.00052554,5251.8,0.00019642,0.3876,0.00013325,-474.3,-0.00053199,-5472.6,0.19773
11556,5.1025,2.3636,0,0.00051341,5130.6,0.00019078,0.36706,0.00013218,-439.97,-0.00051947,-5336.2,0.20522
11557,5.0103,2.3636,0.05,4.2283e-06,42.254,3.2468e-06,24.396,6.3301e-12,5.4935e-05,-3.2468e-06,-24.395,0.19754
11558,5.0103,2.6364,0,0.00053047,5301,0.00019991,0.34792,0.0001315,-513.66,-0.00053733,-5538.9,0.19795
11559,5.1025,2.5455,0,0.0005183,5179.5,0.00019452,0.31656,0.00012995,-484.82,-0.00052484,-5404.6,0.20548
11560,5.0103,2.5455,0.05,4.474e-06,44.71,3.4355e-06,25.813,1.8383e-12,2.9845e-05,-3.4355e-06,-25.813,0.1978
11561,5.0103,2.8182,0,0.00053357,5332,0.00020205,0.33074,0.00013049,-537.39,-0.00054067,-5580.2,0.19807
11562,5.1025,2.7273,0,0.00052176,5214,0.00019709,0.29094,0.00012849,-515.19,-0.00052861,-5452.3,0.20564
11563,5.0103,2.7273,0.05,4.6503e-06,46.471,3.5708e-06,26.83,1.5558e-12,2.0508e-05,-3.5708e-06,-26.83,0.19797
11564,5.0103,3,0,0.00053463,5342.6,0.00020278,0.32623,0.00013016,-545.3,-0.00054181,-5594.2,0.19812
11565,5.1025,2.9091,0,0.00052356,5232,0.00019841,0.28091,0.00012777,-530.45,-0.00053055,-5476.8,0.20573
11566,5.0103,2.9091,0.05,4.7427e-06,47.394,3.6418e-06,27.363,1.2556e-12,2.3046e-05,-3.6418e-06,-27.363,0.19806
11567,5.0103,3.1818,0,0.00053357,5332,0.00020205,0.33074,0.00013049,-537.39,-0.00054067,-5580.2,0.19807
11568,5.1025,3.0909,0,0.00052356,5232,0.00019841,0.28091,0.00012777,-530.45,-0.00053055,-5476.8,0.20573
11569,5.0103,3.0909,0.05,4.7427e-06,47.394,3.6418e-06,27.363,-1.253e-12,-2.8859e-07,-3.6418e-06,-27.363,0.19806
11570,5.0103,3.3636,0,0.00053047,5301,0.00019991,0.34792,0.0001315,-513.66,-0.00053733,-5538.9,0.19795
11571,5.1025,3.2727,0,0.00052176,5214,0.00019709,0.29094,0.00012849,-515.19,-0.00052861,-5452.3,0.20564
11572,5.0103,3.2727,0.05,4.6503e-06,46.471,3.5708e-06,26.83,1.9947e-12,-1.2628e-05,-3.5708e-06,-26.83,0.19797
11573,5.0103,3.5455,0,0.00052554,5251.8,0.00019642,0.3876,0.00013325,-474.3,-0.00053199,-5472.6,0.19773
11574,5.1025,3.4545,0,0.0005183,5179.5,0.00019452,0.31656,0.00012995,-484.82,-0.00052484,-5404.6,0.20548
11575,5.0103,3.4545,0.05,4.474e-06,44.71,3.4355e-06,25.813,-2.1444e-13,-3.5318e-05,-3.4355e-06,-25.813,0.1978
11576,5.0103,3.7273,0,0.0005191,5187.4,0.00019174,0.46286,0.00013574,-420.32,-0.00052496,-5384.5,0.19743
11577,5.1025,3.6364,0,0.00051341,5130.6,0.00019078,0.36706,0.00013218,-439.97,-0.00051947,-5336.2,0.20522
11578,5.0103,3.6364,0.05,4.2283e-06,42.254,3.2468e-06,24.395,-3.4513e-12,-5.7799e-05,-3.2468e-06,-24.396,0.19754
11579,5.0103,3.9091,0,0.00051146,5111.1,0.00018606,0.58699,0.00013887,-354.01,-0.00051655,-5278.6,0.19703
11580,5.1025,3.8182,0,0.00050736,5070.1,0.00018604,0.45271,0.0001351,-382.28,-0.00051277,-5250.1,0.20488
11581,5.0103,3.8182,0.05,3.9288e-06,39.26,3.0168e-06,22.667,-4.4759e-12,-6.0976e-05,-3.0168e-06,-22.667,0.19719
11582,5.0103,4.0909,0,0.00050291,5025.6,0.00017967,0.77705,0.00014239,-279.3,-0.00050706,-5159,0.19655
11583,5.1025,4,0,0.00050039,5000.5,0.00018052,0.58375,0.00013856,-314.7,-0.00050499,-5150.1,0.20445
11584,5.0103,4,0.05,3.589e-06,35.865,2.7559e-06,20.707,-4.9544e-12,-0.00011098,-2.7559e-06,-20.707,0.19675
11585,5.0103,4.2727,0,0.00049365,4933.1,0.00017286,1.0722,0.00014593,-201.34,-0.00049675,-5030.1,0.19597
11586,5.1025,4.1818,0,0.00049273,4923.9,0.00017448,0.77688,0.00014224,-241.47,-0.00049638,-5039.8,0.20393
11587,5.0103,4.1818,0.05,3.2226e-06,32.204,2.4746e-06,18.593,-9.2392e-12,-0.00014565,-2.4745e-06,-18.593,0.19622
11588,5.0103,4.4545,0,0.00048389,4835.5,0.00016601,1.6017,0.00014905,-125.83,-0.00048587,-4896.4,0.1953
11589,5.1025,4.3636,0,0.00048453,4842,0.00016822,1.0781,0.00014576,-167.63,-0.00048715,-4923.1,0.20331
11590,5.0103,4.3636,0.05,2.8487e-06,28.468,2.1875e-06,16.436,-1.5627e-11,-0.00014329,-2.1875e-06,-16.436,0.1956
11591,5.0103,4.6364,0,0.0004738,4734.8,0.00015949,3.0049,0.00015131,-58.464,-0.00047472,-4762.2,0.19453
11592,5.1025,4.5455,0,0.00047595,4756.3,0.00016205,1.6555,0.00014874,-98.288,-0.00047752,-4803.8,0.2026
11593,5.0103,4.5455,0.05,2.4972e-06,24.955,1.9176e-06,14.408,-2.2907e-11,-0.00020204,-1.9175e-06,-14.408,0.19488
11594,5.0103,4.8182,0,0.00046364,4633.2,0.00015463,13.075,0.00015144,-10.908,-0.0004636,-4632,0.19366
11595,5.1025,4.7273,0,0.00046717,4668.5,0.00015637,3.5308,0.00015076,-38.661,-0.00046775,-4685.9,0.20179
11596,5.0103,4.7273,0.05,2.2063e-06,22.048,1.6942e-06,12.729,-2.6261e-11,-0.00025019,-1.6941e-06,-12.729,0.19406
11597,5.0103,5,0,0.00045366,4533.5,0.00015385,48.394,0.00014712,-2.2095,-0.00045285,-4510.2,0.19269
11598,5.1025,4.9091,0,0.00045839,4580.8,0.00015321,20.18,0.00014983,-5.2606,-0.00045813,-4573.2,0.20089
11599,5.0103,4.9091,0.05,2.01e-06,20.086,1.5435e-06,11.597,-2.1895e-11,-0.00026772,-1.5434e-06,-11.597,0.19314
11600,5.0103,5.1818,0,0.00044416,4438.5,0.00015297,76.215,0.0001427,-0.95062,-0.00044283,-4400.4,0.19162
11601,5.1025,5.0909,0,0.00044986,4495.5,0.00015295,53.04,0.0001457,-1.4202,-0.00044896,-4469.5,0.19988
11602,5.0103,5.0909,0.05,1.9206e-06,19.193,1.4748e-06,11.081,-1.9613e-11,-0.00018338,-1.4748e-06,-11.081,0.19212
11603,5.0103,5.3636,0,0.00043538,4350.8,0.00015113,89.218,0.00013919,-0.45856,-0.0004338,-4305.7,0.19045
11604,5.1025,5.2727,0,0.00044182,4415.1,0.00015204,74.52,0.00014204,-0.63692,-0.00044051,-4377.7,0.19878
11605,5.0103,5.2727,0.05,1.9215e-06,19.202,1.4755e-06,11.086,-1.1272e-11,-0.00012369,-1.4755e-06,-11.086,0.191
11606,5.0103,5.5455,0,0.0004275,4272.1,0.00014828,86.275,0.00013676,-0.26769,-0.00042597,-4228.4,0.18919
11607,5.1025,5.4545,0,0.00043444,4341.4,0.00015016,81.349,0.0001393,-0.27294,-0.00043301,-4300.3,0.19757
11608,5.0103,5.4545,0.05,1.9839e-06,19.825,1.5234e-06,11.446,-4.106e-12,-5.4456e-05,-1.5234e-06,-11.446,0.18978
11609,5.0103,5.7273,0,0.00042071,4204.2,0.00014443,67.119,0.00013549,-0.054615,-0.00041953,-4170.3,0.18783
11610,5.1025,5.6364,0,0.00042787,4275.7,0.00014725,72.505,0.00013757,-0.242,-0.00042659,-4239.1,0.19627
11611,5.0103,5.6364,0.05,2.1368e-06,21.353,1.6408e-06,12.328,5.7968e-12,-4.3316e-06,-1.6408e-06,-12.328,0.18847
11612,5.1025,5.8182,0,0.00042229,4220,0.00014337,48.224,0.00013697,0.098951,-0.00042145,-4195.6,0.19487
11613,5.0103,5.8182,0.05,3.184e-06,31.818,2.4449e-06,18.37,2.4012e-12,6.163e-06,-2.4449e-06,-18.37,0.18706
11614,5.0103,5.9091,0,0.00041454,4142.6,0.0001393,29.897,0.00013532,-0.0047545,-0.00041403,-4127.6,0.18637
11615,5.1947,0.27273,0,0.00042948,4291.8,0.00014622,53.8,0.00013905,-0.050865,-0.00042854,-4264.7,0.20341
11616,5.2869,0.18182,0,0.00043016,4298.6,0.00014516,38.467,0.00014005,0.065103,-0.00042949,-4279.2,0.21061
11617,5.1947,0.18182,0.05,2.4536e-06,24.519,1.8841e-06,14.156,-2.2823e-12,-3.526e-06,-1.8841e-06,-14.156,0.20266
11618,5.1947,0.090909,0,0.00042456,4242.7,0.00014212,24.167,0.00013891,0.0045045,-0.00042415,-4230.5,0.20198
11619,5.1947,0.45455,0,0.00043486,4345.6,0.00014917,67.854,0.00014011,-0.22016,-0.00043367,-4311.3,0.20475
11620,5.2869,0.36364,0,0.00043458,4342.8,0.00014819,57.138,0.00014056,-0.19891,-0.00043359,-4314.1,0.21199
11621,5.1947,0.36364,0.05,1.5313e-06,15.302,1.1759e-06,8.8349,-2.1657e-12,7.1508e-06,-1.1758e-06,-8.8348,0.20404
11622,5.1947,0.63636,0,0.00044095,4406.4,0.00015112,67.006,0.00014215,-0.40656,-0.00043978,-4372.7,0.20599
11623,5.2869,0.54545,0,0.00043969,4393.9,0.00015027,61.872,0.000142,-0.23749,-0.00043861,-4362.7,0.21327
11624,5.1947,0.54545,0.05,1.4209e-06,14.199,1.0911e-06,8.1981,3.2124e-12,6.869e-05,-1.0911e-06,-8.198,0.20534
11625,5.1947,0.81818,0,0.0004476,4472.9,0.00015207,51.68,0.00014506,-0.95932,-0.00044671,-4447.3,0.20714
11626,5.2869,0.72727,0,0.0004453,4449.9,0.00015136,52.475,0.00014429,-0.61564,-0.00044439,-4423.7,0.21445
11627,5.1947,0.72727,0.05,1.4169e-06,14.16,1.088e-06,8.1751,1.0186e-11,0.0001026,-1.088e-06,-8.1751,0.20653
11628,5.1947,1,0,0.00045467,4543.6,0.0001522,24,0.00014859,-3.1086,-0.00045431,-4533.1,0.20818
11629,5.2869,0.90909,0,0.0004513,4509.9,0.00015154,30.29,0.00014728,-1.7332,-0.0004508,-4495.5,0.21554
11630,5.1947,0.90909,0.05,1.4886e-06,14.876,1.1431e-06,8.5885,2.1014e-11,0.00013466,-1.1431e-06,-8.5885,0.20762
11631,5.1947,1.1818,0,0.000462,4616.8,0.00015406,3.9089,0.00015011,-25.734,-0.00046236,-4627.6,0.20913
11632,5.2869,1.0909,0,0.00045756,4572.4,0.00015212,5.7204,0.00014961,-13.1,-0.00045768,-4576.1,0.21652
11633,5.1947,1.0909,0.05,1.6436e-06,16.425,1.2621e-06,9.483,2.7103e-11,0.00019477,-1.2621e-06,-9.4831,0.20862
11634,5.1947,1.3636,0,0.00046939,4690.6,0.00015885,1.6087,0.00014834,-77.38,-0.00047063,-4728,0.20997
11635,5.2869,1.2727,0,0.00046392,4636,0.00015602,1.7216,0.00014829,-56.301,-0.00046482,-4663,0.21741
11636,5.1947,1.2727,0.05,1.8746e-06,18.734,1.4395e-06,10.816,1.6715e-11,0.00011117,-1.4395e-06,-10.816,0.20952
11637,5.1947,1.5455,0,0.00047666,4763.3,0.00016424,1.0249,0.00014554,-139.5,-0.00047886,-4831,0.21072
11638,5.2869,1.4545,0,0.00047022,4699,0.00016078,1.0321,0.00014572,-112.07,-0.00047201,-4753.5,0.2182
11639,5.1947,1.4545,0.05,2.1597e-06,21.582,1.6584e-06,12.46,1.882e-11,0.00013581,-1.6584e-06,-12.46,0.21031
11640,5.1947,1.7273,0,0.00048366,4833.2,0.00016983,0.73937,0.00014214,-207.31,-0.00048684,-4933.2,0.21138
11641,5.2869,1.6364,0,0.00047633,4760.1,0.00016583,0.73487,0.00014247,-174.72,-0.00047905,-4844.6,0.21889
11642,5.1947,1.6364,0.05,2.4715e-06,24.698,1.8978e-06,14.26,1.3555e-11,0.00015038,-1.8978e-06,-14.26,0.21101
11643,5.1947,1.9091,0,0.00049025,4899.1,0.00017533,0.55843,0.00013846,-276.52,-0.00049436,-5031.2,0.21194
11644,5.2869,1.8182,0,0.00048213,4818,0.00017091,0.55441,0.00013884,-240.46,-0.00048576,-4933.5,0.21949
11645,5.1947,1.8182,0.05,2.7857e-06,27.838,2.1391e-06,16.072,1.2145e-11,0.00011906,-2.1391e-06,-16.072,0.21162
11646,5.1947,2.0909,0,0.00049631,4959.7,0.0001805,0.43224,0.00013483,-342.71,-0.00050124,-5121.9,0.2124
11647,5.2869,2,0,0.00048752,4871.8,0.0001758,0.42804,0.00013512,-305.26,-0.00049198,-5017,0.22
11648,5.1947,2,0.05,3.084e-06,30.819,2.3682e-06,17.793,8.9579e-12,7.4636e-05,-2.3682e-06,-17.793,0.21214
11649,5.1947,2.2727,0,0.00050168,5013.3,0.00018508,0.34425,0.00013157,-401.78,-0.0005073,-5201.9,0.21278
11650,5.2869,2.1818,0,0.00049237,4920.3,0.00018026,0.3366,0.00013162,-365.17,-0.00049756,-5092.6,0.22042
11651,5.1947,2.1818,0.05,3.3547e-06,33.523,2.576e-06,19.355,5.6078e-12,7.4959e-05,-2.576e-06,-19.355,0.21256
11652,5.1947,2.4545,0,0.00050617,5058.2,0.00018887,0.28645,0.00012889,-450.43,-0.00051232,-5268.2,0.21308
11653,5.2869,2.3636,0,0.00049656,4962.2,0.0001841,0.27275,0.0001286,-416.7,-0.00050233,-5157.3,0.22075
11654,5.1947,2.3636,0.05,3.5887e-06,35.863,2.7557e-06,20.705,5.6544e-12,5.3491e-05,-2.7557e-06,-20.705,0.2129
11655,5.1947,2.6364,0,0.00050959,5092.4,0.0001917,0.25215,0.00012693,-486.39,-0.00051611,-5318,0.21329
11656,5.2869,2.5455,0,0.00049993,4995.8,0.00018712,0.23156,0.00012624,-457.21,-0.00050613,-5208.6,0.221
11657,5.1947,2.5455,0.05,3.7775e-06,37.749,2.9007e-06,21.794,2.341e-12,3.2571e-05,-2.9006e-06,-21.794,0.21315
11658,5.1947,2.8182,0,0.00051173,5113.8,0.00019345,0.23496,0.00012576,-508.35,-0.00051848,-5348.9,0.21341
11659,5.2869,2.7273,0,0.00050229,5019.4,0.00018921,0.2081,0.00012464,-484.97,-0.00050877,-5244.2,0.22116
11660,5.1947,2.7273,0.05,3.9112e-06,39.085,3.0033e-06,22.566,5.0712e-13,1.8126e-05,-3.0033e-06,-22.565,0.21331
11661,5.1947,3,0,0.00051247,5121.1,0.00019403,0.22986,0.00012536,-515.73,-0.00051928,-5359.3,0.21345
11662,5.2869,2.9091,0,0.00050351,5031.7,0.00019028,0.1978,0.00012384,-499.05,-0.00051014,-5262.5,0.22124
11663,5.1947,2.9091,0.05,3.9807e-06,39.78,3.0567e-06,22.967,8.1559e-13,1.597e-05,-3.0567e-06,-22.967,0.2134
11664,5.1947,3.1818,0,0.00051173,5113.8,0.00019345,0.23496,0.00012576,-508.35,-0.00051848,-5348.9,0.21341
11665,5.2869,3.0909,0,0.00050351,5031.7,0.00019028,0.1978,0.00012384,-499.05,-0.00051014,-5262.5,0.22124
11666,5.1947,3.0909,0.05,3.9807e-06,39.78,3.0567e-06,22.967,4.5996e-12,-4.583e-06,-3.0567e-06,-22.967,0.2134
11667,5.1947,3.3636,0,0.00050959,5092.4,0.0001917,0.25215,0.00012693,-486.39,-0.00051611,-5318,0.21329
11668,5.2869,3.2727,0,0.00050229,5019.4,0.00018921,0.2081,0.00012464,-484.97,-0.00050877,-5244.2,0.22116
11669,5.1947,3.2727,0.05,3.9112e-06,39.085,3.0033e-06,22.565,-5.4757e-13,-1.122e-05,-3.0033e-06,-22.566,0.21331
11670,5.1947,3.5455,0,0.00050617,5058.2,0.00018887,0.28645,0.00012889,-450.43,-0.00051232,-5268.2,0.21308
11671,5.2869,3.4545,0,0.00049993,4995.8,0.00018712,0.23156,0.00012624,-457.21,-0.00050613,-5208.6,0.221
11672,5.1947,3.4545,0.05,3.7775e-06,37.749,2.9006e-06,21.794,-1.7113e-13,-2.6431e-05,-2.9007e-06,-21.794,0.21315
11673,5.1947,3.7273,0,0.00050168,5013.3,0.00018508,0.34425,0.00013157,-401.78,-0.0005073,-5201.9,0.21278
11674,5.2869,3.6364,0,0.00049656,4962.2,0.0001841,0.27275,0.0001286,-416.7,-0.00050233,-5157.3,0.22075
11675,5.1947,3.6364,0.05,3.5887e-06,35.863,2.7557e-06,20.705,-1.6901e-12,-4.5578e-05,-2.7557e-06,-20.705,0.2129
11676,5.1947,3.9091,0,0.00049631,4959.7,0.0001805,0.43224,0.00013483,-342.71,-0.00050124,-5121.9,0.2124
11677,5.2869,3.8182,0,0.00049237,4920.3,0.00018026,0.3366,0.00013162,-365.16,-0.00049756,-5092.6,0.22042
11678,5.1947,3.8182,0.05,3.3547e-06,33.523,2.576e-06,19.355,-9.6849e-13,-6.3652e-05,-2.576e-06,-19.355,0.21256
11679,5.1947,4.0909,0,0.00049025,4899.1,0.00017533,0.55843,0.00013846,-276.52,-0.00049436,-5031.2,0.21194
11680,5.2869,4,0,0.00048752,4871.8,0.0001758,0.42804,0.00013512,-305.26,-0.00049198,-5017,0.22
11681,5.1947,4,0.05,3.084e-06,30.819,2.3682e-06,17.793,-7.163e-12,-0.00013406,-2.3682e-06,-17.793,0.21214
11682,5.1947,4.2727,0,0.00048366,4833.2,0.00016983,0.73937,0.00014214,-207.31,-0.00048684,-4933.2,0.21138
11683,5.2869,4.1818,0,0.00048214,4818,0.00017091,0.55441,0.00013884,-240.46,-0.00048576,-4933.5,0.21949
11684,5.1947,4.1818,0.05,2.7857e-06,27.838,2.1391e-06,16.072,-9.1309e-12,-0.00010237,-2.1391e-06,-16.072,0.21162
11685,5.1947,4.4545,0,0.00047666,4763.3,0.00016424,1.0249,0.00014554,-139.5,-0.00047886,-4831,0.21072
11686,5.2869,4.3636,0,0.00047633,4760.1,0.00016583,0.73487,0.00014247,-174.72,-0.00047905,-4844.6,0.21889
11687,5.1947,4.3636,0.05,2.4715e-06,24.698,1.8978e-06,14.26,-1.6981e-11,-0.00018216,-1.8978e-06,-14.26,0.21101
11688,5.1947,4.6364,0,0.00046939,4690.6,0.00015885,1.6087,0.00014834,-77.38,-0.00047063,-4728,0.20997
11689,5.2869,4.5455,0,0.00047022,4699,0.00016078,1.0321,0.00014572,-112.07,-0.00047201,-4753.5,0.2182
11690,5.1947,4.5455,0.05,2.1597e-06,21.582,1.6584e-06,12.46,-1.9922e-11,-0.00023555,-1.6584e-06,-12.46,0.21031
11691,5.1947,4.8182,0,0.000462,4616.8,0.00015406,3.909,0.00015011,-25.734,-0.00046236,-4627.6,0.20913
11692,5.2869,4.7273,0,0.00046392,4636,0.00015602,1.7216,0.00014829,-56.301,-0.00046482,-4663,0.21741
11693,5.1947,4.7273,0.05,1.8746e-06,18.734,1.4395e-06,10.816,-2.713e-11,-0.00022997,-1.4395e-06,-10.816,0.20952
11694,5.1947,5,0,0.00045467,4543.6,0.0001522,24.001,0.00014859,-3.1086,-0.00045431,-4533.1,0.20818
11695,5.2869,4.9091,0,0.00045756,4572.4,0.00015212,5.7204,0.00014961,-13.1,-0.00045768,-4576.1,0.21652
11696,5.1947,4.9091,0.05,1.6436e-06,16.425,1.2621e-06,9.4831,-2.7686e-11,-0.00025982,-1.2621e-06,-9.483,0.20862
11697,5.1947,5.1818,0,0.0004476,4472.9,0.00015207,51.68,0.00014506,-0.95932,-0.00044671,-4447.3,0.20714
11698,5.2869,5.0909,0,0.0004513,4509.9,0.00015154,30.29,0.00014728,-1.7332,-0.0004508,-4495.5,0.21554
11699,5.1947,5.0909,0.05,1.4886e-06,14.876,1.1431e-06,8.5885,-2.4953e-11,-0.00019283,-1.1431e-06,-8.5885,0.20762
11700,5.1947,5.3636,0,0.00044095,4406.4,0.00015112,67.006,0.00014215,-0.40656,-0.00043978,-4372.7,0.20599
11701,5.2869,5.2727,0,0.0004453,4449.9,0.00015136,52.475,0.00014429,-0.61564,-0.00044439,-4423.7,0.21445
11702,5.1947,5.2727,0.05,1.4169e-06,14.16,1.088e-06,8.1751,-1.1032e-11,-0.00014152,-1.088e-06,-8.1751,0.20653
11703,5.1947,5.5455,0,0.00043486,4345.6,0.00014917,67.854,0.00014011,-0.22016,-0.00043367,-4311.3,0.20475
11704,5.2869,5.4545,0,0.00043969,4393.9,0.00015027,61.872,0.000142,-0.23749,-0.00043861,-4362.7,0.21327
11705,5.1947,5.4545,0.05,1.4209e-06,14.199,1.0911e-06,8.198,-4.248e-12,-7.8038e-05,-1.0911e-06,-8.1981,0.20534
11706,5.1947,5.7273,0,0.00042948,4291.8,0.00014622,53.8,0.00013905,-0.050867,-0.00042854,-4264.7,0.20341
11707,5.2869,5.6364,0,0.00043458,4342.8,0.00014819,57.138,0.00014056,-0.19891,-0.00043359,-4314.1,0.21199
11708,5.1947,5.6364,0.05,1.5313e-06,15.302,1.1758e-06,8.8348,3.543e-12,-9.1947e-06,-1.1759e-06,-8.835,0.20404
11709,5.2869,5.8182,0,0.00043016,4298.6,0.00014516,38.467,0.00014005,0.065102,-0.00042949,-4279.2,0.21061
11710,5.1947,5.8182,0.05,2.4536e-06,24.519,1.8841e-06,14.156,2.238e-12,5.1789e-06,-1.8841e-06,-14.156,0.20266
11711,5.1947,5.9091,0,0.00042456,4242.7,0.00014212,24.167,0.00013891,0.004503,-0.00042415,-4230.5,0.20198
11712,5.3791,0.27273,0,0.00043528,4349.8,0.00014714,41.902,0.00014156,-0.045634,-0.00043456,-4328.7,0.21929
11713,5.4712,0.18182,0,0.00043527,4349.7,0.00014614,30,0.00014215,0.043585,-0.00043475,-4334.6,0.22664
11714,5.3791,0.18182,0.05,1.8498e-06,18.485,1.4204e-06,10.672,-5.7543e-12,-4.122e-06,-1.4204e-06,-10.672,0.21854
11715,5.3791,0.090909,0,0.00043144,4311.4,0.00014397,19.139,0.00014143,0.016238,-0.00043111,-4301.8,0.21787
11716,5.3791,0.45455,0,0.00043945,4391.5,0.00014931,51.309,0.00014245,-0.18788,-0.00043856,-4365.7,0.22061
11717,5.4712,0.36364,0,0.00043869,4383.9,0.0001484,43.427,0.0001426,-0.16392,-0.00043794,-4362.1,0.228
11718,5.3791,0.36364,0.05,1.0364e-06,10.357,7.9583e-07,5.9796,-1.6382e-12,1.2654e-05,-7.9581e-07,-5.9794,0.21991
11719,5.3791,0.63636,0,0.00044408,4437.7,0.00015053,47.513,0.00014415,-0.38982,-0.00044326,-4414,0.22183
11720,5.4712,0.54545,0,0.00044258,4422.7,0.00014979,44.673,0.00014381,-0.22422,-0.0004418,-4400.3,0.22927
11721,5.3791,0.54545,0.05,9.755e-07,9.7483,7.4906e-07,5.6282,4.8579e-12,7.8061e-05,-7.4906e-07,-5.6281,0.22118
11722,5.3791,0.81818,0,0.00044904,4487.3,0.00015083,31.07,0.00014655,-1.1084,-0.00044852,-4472.2,0.22295
11723,5.4712,0.72727,0,0.00044676,4464.5,0.00015027,33.584,0.00014571,-0.66637,-0.00044619,-4448,0.23043
11724,5.3791,0.72727,0.05,1.0363e-06,10.356,7.9573e-07,5.9788,1.5408e-11,0.00016011,-7.9574e-07,-5.9788,0.22236
11725,5.3791,1,0,0.00045422,4539.1,0.00015087,7.5483,0.00014894,-6.975,-0.00045421,-4538.8,0.22398
11726,5.4712,0.90909,0,0.00045115,4508.4,0.00015007,12.492,0.00014801,-2.9675,-0.00045099,-4503.6,0.2315
11727,5.3791,0.90909,0.05,1.1751e-06,11.743,9.023e-07,6.7796,1.9453e-11,0.00024805,-9.0232e-07,-6.7796,0.22343
11728,5.3791,1.1818,0,0.00045951,4591.9,0.00015384,1.7209,0.00014808,-41.564,-0.00046017,-4611.7,0.22491
11729,5.4712,1.0909,0,0.00045566,4553.5,0.00015186,1.9945,0.00014803,-26.763,-0.00045607,-4565.8,0.23247
11730,5.3791,1.0909,0.05,1.3772e-06,13.762,1.0575e-06,7.9457,1.4565e-11,0.00024424,-1.0575e-06,-7.9457,0.22441
11731,5.3791,1.3636,0,0.00046478,4644.6,0.00015792,0.98004,0.00014574,-90.552,-0.00046624,-4688.7,0.22574
11732,5.4712,1.2727,0,0.00046018,4598.6,0.00015537,0.99617,0.00014598,-69.537,-0.0004613,-4632.4,0.23334
11733,5.3791,1.2727,0.05,1.6231e-06,16.22,1.2463e-06,9.3644,1.7858e-11,0.00015558,-1.2463e-06,-9.3644,0.22529
11734,5.3791,1.5455,0,0.00046992,4696,0.00016236,0.69332,0.0001427,-146.99,-0.00047224,-4767.4,0.22647
11735,5.4712,1.4545,0,0.0004646,4642.8,0.00015931,0.6854,0.00014317,-120.55,-0.00046652,-4701.5,0.23411
11736,5.3791,1.4545,0.05,1.8924e-06,18.911,1.4532e-06,10.918,1.642e-11,0.00012207,-1.4532e-06,-10.918,0.22607
11737,5.3791,1.7273,0,0.00047483,4745,0.00016691,0.52585,0.00013921,-207.63,-0.00047801,-4845.1,0.22711
11738,5.4712,1.6364,0,0.00046884,4685.2,0.00016344,0.51782,0.00013984,-176.79,-0.00047159,-4770.8,0.23479
11739,5.3791,1.6364,0.05,2.1669e-06,21.654,1.6639e-06,12.502,1.4485e-11,0.00013887,-1.6639e-06,-12.502,0.22676
11740,5.3791,1.9091,0,0.00047941,4790.8,0.00017138,0.40868,0.00013552,-269.01,-0.00048341,-4919.4,0.22766
11741,5.4712,1.8182,0,0.00047284,4725.1,0.00016757,0.40337,0.00013622,-235.18,-0.00047639,-4838.1,0.23538
11742,5.3791,1.8182,0.05,2.4317e-06,24.3,1.8672e-06,14.03,1.1204e-11,8.0835e-05,-1.8672e-06,-14.03,0.22735
11743,5.3791,2.0909,0,0.00048359,4832.6,0.00017556,0.32129,0.00013192,-327.58,-0.00048832,-4987.8,0.22812
11744,5.4712,2,0,0.00047651,4761.8,0.00017154,0.31715,0.00013257,-292.48,-0.0004808,-4901.1,0.23588
11745,5.3791,2,0.05,2.6761e-06,26.742,2.0549e-06,15.44,4.2195e-12,8.8492e-05,-2.0549e-06,-15.44,0.22785
11746,5.3791,2.2727,0,0.00048726,4869.3,0.00017927,0.25654,0.00012866,-379.99,-0.00049261,-5048,0.22849
11747,5.4712,2.1818,0,0.00047979,4794.6,0.00017516,0.25111,0.00012914,-345.45,-0.00048473,-4957.9,0.23629
11748,5.3791,2.1818,0.05,2.8928e-06,28.908,2.2213e-06,16.69,3.2326e-12,2.6314e-05,-2.2213e-06,-16.69,0.22827
11749,5.3791,2.4545,0,0.00049032,4899.8,0.00018234,0.21105,0.00012596,-423.44,-0.00049614,-5097.6,0.22878
11750,5.4712,2.3636,0,0.0004826,4822.7,0.00017826,0.20226,0.00012617,-391.2,-0.00048806,-5006.3,0.23662
11751,5.3791,2.3636,0.05,3.0766e-06,30.745,2.3624e-06,17.751,3.0289e-12,5.2047e-05,-2.3624e-06,-17.75,0.2286
11752,5.3791,2.6364,0,0.00049262,4922.8,0.00018463,0.18192,0.00012395,-455.8,-0.00049878,-5134.8,0.22898
11753,5.4712,2.5455,0,0.00048484,4845,0.00018071,0.16865,0.00012381,-427.39,-0.00049069,-5044.5,0.23686
11754,5.3791,2.5455,0.05,3.2221e-06,32.199,2.4742e-06,18.59,3.4664e-12,2.5355e-05,-2.4742e-06,-18.59,0.22884
11755,5.3791,2.8182,0,0.00049406,4937.2,0.00018605,0.16608,0.00012271,-475.71,-0.00050043,-5157.7,0.2291
11756,5.4712,2.7273,0,0.0004864,4860.7,0.00018241,0.14811,0.00012219,-452.35,-0.00049251,-5071,0.23702
11757,5.3791,2.7273,0.05,3.3236e-06,33.213,2.5521e-06,19.176,2.6945e-12,2.0609e-05,-2.5521e-06,-19.176,0.229
11758,5.3791,3,0,0.00049455,4942.1,0.00018653,0.16112,0.0001223,-482.42,-0.00050098,-5165.5,0.22914
11759,5.4712,2.9091,0,0.00048721,4868.7,0.00018328,0.13852,0.00012136,-465.08,-0.00049345,-5084.5,0.2371
11760,5.3791,2.9091,0.05,3.376e-06,33.736,2.5923e-06,19.478,2.216e-12,9.0182e-06,-2.5923e-06,-19.478,0.22909
11761,5.3791,3.1818,0,0.00049406,4937.2,0.00018605,0.16608,0.00012271,-475.71,-0.00050043,-5157.7,0.2291
11762,5.4712,3.0909,0,0.00048721,4868.7,0.00018328,0.13852,0.00012136,-465.08,-0.00049345,-5084.5,0.2371
11763,5.3791,3.0909,0.05,3.376e-06,33.736,2.5923e-06,19.478,1.4312e-12,2.3442e-06,-2.5923e-06,-19.478,0.22909
11764,5.3791,3.3636,0,0.00049262,4922.8,0.00018463,0.18192,0.00012395,-455.8,-0.00049878,-5134.8,0.22898
11765,5.4712,3.2727,0,0.0004864,4860.7,0.00018241,0.14811,0.00012219,-452.35,-0.00049251,-5071,0.23702
11766,5.3791,3.2727,0.05,3.3236e-06,33.213,2.5521e-06,19.176,2.5694e-12,-1.3589e-05,-2.5521e-06,-19.176,0.229
11767,5.3791,3.5455,0,0.00049032,4899.8,0.00018234,0.21105,0.00012596,-423.44,-0.00049614,-5097.6,0.22878
11768,5.4712,3.4545,0,0.00048484,4845,0.00018071,0.16865,0.00012381,-427.39,-0.00049069,-5044.5,0.23686
11769,5.3791,3.4545,0.05,3.2221e-06,32.199,2.4742e-06,18.59,-2.4617e-12,-1.257e-05,-2.4742e-06,-18.59,0.22884
11770,5.3791,3.7273,0,0.00048726,4869.3,0.00017927,0.25654,0.00012866,-379.99,-0.00049261,-5048,0.22849
11771,5.4712,3.6364,0,0.0004826,4822.7,0.00017826,0.20226,0.00012617,-391.2,-0.00048806,-5006.3,0.23662
11772,5.3791,3.6364,0.05,3.0766e-06,30.745,2.3624e-06,17.75,-1.9764e-13,-4.8277e-05,-2.3624e-06,-17.751,0.2286
11773,5.3791,3.9091,0,0.00048359,4832.6,0.00017556,0.32129,0.00013192,-327.58,-0.00048832,-4987.8,0.22812
11774,5.4712,3.8182,0,0.00047979,4794.6,0.00017516,0.25111,0.00012914,-345.45,-0.00048473,-4957.9,0.23629
11775,5.3791,3.8182,0.05,2.8928e-06,28.908,2.2213e-06,16.69,-5.8999e-13,-2.6491e-05,-2.2213e-06,-16.69,0.22827
11776,5.3791,4.0909,0,0.00047941,4790.8,0.00017138,0.40868,0.00013552,-269.01,-0.00048341,-4919.4,0.22766
11777,5.4712,4,0,0.00047651,4761.8,0.00017154,0.31715,0.00013257,-292.48,-0.0004808,-4901.1,0.23588
11778,5.3791,4,0.05,2.6761e-06,26.742,2.0549e-06,15.44,-3.1153e-12,-7.736e-05,-2.0549e-06,-15.44,0.22785
11779,5.3791,4.2727,0,0.00047483,4745,0.00016691,0.52585,0.00013921,-207.62,-0.00047801,-4845.1,0.22711
11780,5.4712,4.1818,0,0.00047284,4725.1,0.00016757,0.40337,0.00013622,-235.18,-0.00047639,-4838.1,0.23538
11781,5.3791,4.1818,0.05,2.4317e-06,24.3,1.8672e-06,14.03,-6.9087e-12,-0.00012796,-1.8672e-06,-14.03,0.22735
11782,5.3791,4.4545,0,0.00046992,4696,0.00016236,0.69332,0.0001427,-146.99,-0.00047224,-4767.4,0.22647
11783,5.4712,4.3636,0,0.00046884,4685.2,0.00016344,0.51782,0.00013984,-176.79,-0.00047159,-4770.8,0.23479
11784,5.3791,4.3636,0.05,2.1669e-06,21.654,1.6639e-06,12.502,-1.1598e-11,-0.00012388,-1.6639e-06,-12.502,0.22676
11785,5.3791,4.6364,0,0.00046478,4644.6,0.00015792,0.98005,0.00014574,-90.552,-0.00046624,-4688.7,0.22574
11786,5.4712,4.5455,0,0.0004646,4642.8,0.00015931,0.6854,0.00014317,-120.55,-0.00046652,-4701.5,0.23411
11787,5.3791,4.5455,0.05,1.8924e-06,18.911,1.4532e-06,10.918,-1.7201e-11,-0.00015975,-1.4532e-06,-10.919,0.22607
11788,5.3791,4.8182,0,0.00045951,4591.9,0.00015384,1.7209,0.00014808,-41.564,-0.00046017,-4611.7,0.22491
11789,5.4712,4.7273,0,0.00046018,4598.6,0.00015537,0.99617,0.00014598,-69.537,-0.0004613,-4632.4,0.23334
11790,5.3791,4.7273,0.05,1.6231e-06,16.22,1.2463e-06,9.3644,-1.7029e-11,-0.00020611,-1.2463e-06,-9.3644,0.22529
11791,5.3791,5,0,0.00045422,4539.1,0.00015087,7.5483,0.00014894,-6.9749,-0.00045421,-4538.8,0.22398
11792,5.4712,4.9091,0,0.00045566,4553.5,0.00015186,1.9945,0.00014803,-26.762,-0.00045607,-4565.8,0.23247
11793,5.3791,4.9091,0.05,1.3772e-06,13.762,1.0575e-06,7.9457,-1.8207e-11,-0.00024427,-1.0575e-06,-7.9457,0.22441
11794,5.3791,5.1818,0,0.00044904,4487.3,0.00015083,31.07,0.00014655,-1.1084,-0.00044852,-4472.2,0.22295
11795,5.4712,5.0909,0,0.00045115,4508.4,0.00015007,12.492,0.00014801,-2.9674,-0.00045099,-4503.6,0.2315
11796,5.3791,5.0909,0.05,1.1751e-06,11.743,9.0231e-07,6.7796,-2.3665e-11,-0.0002541,-9.023e-07,-6.7796,0.22343
11797,5.3791,5.3636,0,0.00044408,4437.7,0.00015053,47.513,0.00014415,-0.38982,-0.00044326,-4414,0.22183
11798,5.4712,5.2727,0,0.00044676,4464.5,0.00015027,33.584,0.00014571,-0.66637,-0.00044619,-4448,0.23043
11799,5.3791,5.2727,0.05,1.0363e-06,10.356,7.9574e-07,5.9788,-1.5444e-11,-0.0001649,-7.9572e-07,-5.9788,0.22236
11800,5.3791,5.5455,0,0.00043945,4391.5,0.00014931,51.309,0.00014245,-0.18788,-0.00043856,-4365.7,0.22061
11801,5.4712,5.4545,0,0.00044258,4422.7,0.00014979,44.673,0.00014381,-0.22422,-0.0004418,-4400.3,0.22927
11802,5.3791,5.4545,0.05,9.755e-07,9.7483,7.4906e-07,5.6281,-5.8825e-12,-0.00010671,-7.4906e-07,-5.6282,0.22118
11803,5.3791,5.7273,0,0.00043528,4349.8,0.00014714,41.902,0.00014156,-0.045636,-0.00043456,-4328.7,0.21929
11804,5.4712,5.6364,0,0.00043869,4383.9,0.0001484,43.427,0.0001426,-0.16392,-0.00043794,-4362.1,0.228
11805,5.3791,5.6364,0.05,1.0364e-06,10.357,7.9581e-07,5.9794,3.0826e-12,-1.26e-05,-7.9583e-07,-5.9796,0.21991
11806,5.4712,5.8182,0,0.00043527,4349.7,0.00014614,30,0.00014215,0.043583,-0.00043475,-4334.6,0.22664
11807,5.3791,5.8182,0.05,1.8498e-06,18.485,1.4204e-06,10.672,5.7994e-12,5.4446e-06,-1.4204e-06,-10.672,0.21854
11808,5.3791,5.9091,0,0.00043144,4311.4,0.00014397,19.139,0.00014143,0.016237,-0.00043111,-4301.8,0.21787
11809,5.5634,0.27273,0,0.00043869,4383.9,0.0001474,31.561,0.0001432,-0.040243,-0.00043815,-4368,0.23545
11810,5.6556,0.18182,0,0.00043815,4378.5,0.00014649,22.81,0.00014346,0.030274,-0.00043776,-4367,0.24296
11811,5.5634,0.18182,0.05,1.358e-06,13.57,1.0428e-06,7.8349,-3.8605e-12,-2.0169e-06,-1.0427e-06,-7.8348,0.23472
11812,5.5634,0.090909,0,0.00043575,4354.5,0.00014503,14.833,0.00014306,0.028681,-0.0004355,-4347,0.23405
11813,5.5634,0.45455,0,0.00044184,4415.3,0.00014889,36.863,0.00014396,-0.17006,-0.0004412,-4396.9,0.23676
11814,5.6556,0.36364,0,0.00044071,4404.1,0.00014807,31.53,0.00014386,-0.13783,-0.00044017,-4388.3,0.24431
11815,5.5634,0.36364,0.05,6.3933e-07,6.3889,4.9093e-07,3.6887,-3.6716e-12,2.746e-05,-4.9092e-07,-3.6885,0.23607
11816,5.5634,0.63636,0,0.00044528,4449.7,0.00014953,30.787,0.00014538,-0.41971,-0.00044475,-4434.4,0.23797
11817,5.6556,0.54545,0,0.00044359,4432.8,0.00014889,29.869,0.00014488,-0.23703,-0.00044308,-4417.9,0.24556
11818,5.5634,0.54545,0.05,6.4198e-07,6.4154,4.9296e-07,3.704,1.0235e-11,0.00015299,-4.9297e-07,-3.7039,0.23733
11819,5.5634,0.81818,0,0.00044889,4485.8,0.00014942,14.319,0.00014728,-1.6991,-0.00044868,-4479.5,0.23908
11820,5.6556,0.72727,0,0.00044663,4463.2,0.00014892,17.813,0.00014643,-0.88874,-0.00044634,-4454.7,0.24671
11821,5.5634,0.72727,0.05,7.739e-07,7.7336,5.9425e-07,4.465,1.8484e-11,0.00018328,-5.9426e-07,-4.465,0.23849
11822,5.5634,1,0,0.00045261,4523,0.00015042,2.1131,0.00014777,-17.783,-0.00045287,-4530.8,0.24009
11823,5.6556,0.90909,0,0.00044977,4494.6,0.00014911,2.9613,0.00014753,-8.9633,-0.00044987,-4497.5,0.24777
11824,5.5634,0.90909,0.05,9.6639e-07,9.6573,7.4206e-07,5.5756,1.4991e-11,0.00012536,-7.4208e-07,-5.5756,0.23955
11825,5.5634,1.1818,0,0.00045634,4560.2,0.00015335,0.94441,0.000146,-54.265,-0.00045722,-4586.6,0.241
11826,5.6556,1.0909,0,0.00045292,4526.1,0.00015148,0.97868,0.00014614,-39.201,-0.00045356,-4545.1,0.24872
11827,5.5634,1.0909,0.05,1.193e-06,11.922,9.1608e-07,6.8832,1.5471e-11,0.00022144,-9.161e-07,-6.8832,0.24051
11828,5.5634,1.3636,0,0.00046,4596.9,0.00015675,0.64017,0.00014344,-99.341,-0.0004616,-4645.4,0.24182
11829,5.6556,1.2727,0,0.00045604,4557.2,0.00015444,0.63024,0.00014384,-79.017,-0.00045732,-4595.9,0.24958
11830,5.5634,1.2727,0.05,1.4362e-06,14.352,1.1028e-06,8.2863,1.457e-11,0.00018641,-1.1028e-06,-8.2863,0.24138
11831,5.5634,1.5455,0,0.00046353,4632.1,0.00016038,0.48527,0.00014033,-150.2,-0.00046589,-4705.1,0.24254
11832,5.6556,1.4545,0,0.00045904,4587.2,0.00015768,0.47332,0.00014096,-125.2,-0.00046103,-4648.3,0.25035
11833,5.5634,1.4545,0.05,1.6827e-06,16.816,1.2921e-06,9.7085,1.1259e-11,0.00015354,-1.2921e-06,-9.7084,0.24215
11834,5.5634,1.7273,0,0.00046686,4665.4,0.0001641,0.38127,0.00013687,-204.23,-0.00046999,-4763.9,0.24317
11835,5.6556,1.6364,0,0.00046188,4615.6,0.00016106,0.37289,0.00013766,-175.45,-0.00046461,-4700.6,0.25102
11836,5.5634,1.6364,0.05,1.9217e-06,19.204,1.4757e-06,11.088,7.7484e-12,0.0001279,-1.4757e-06,-11.087,0.24282
11837,5.5634,1.9091,0,0.00046994,4696.1,0.00016773,0.30214,0.00013328,-258.57,-0.00047379,-4819.9,0.24371
11838,5.6556,1.8182,0,0.00046452,4642,0.00016443,0.29715,0.00013415,-227.21,-0.00046796,-4751.3,0.2516
11839,5.5634,1.8182,0.05,2.1448e-06,21.433,1.6469e-06,12.374,5.7037e-12,7.5349e-05,-1.6469e-06,-12.374,0.24341
11840,5.5634,2.0909,0,0.00047271,4723.9,0.00017113,0.23959,0.0001298,-310.29,-0.00047722,-4871.2,0.24416
11841,5.6556,2,0,0.00046692,4666,0.00016766,0.23633,0.00013066,-277.78,-0.00047102,-4798.5,0.25209
11842,5.5634,2,0.05,2.3457e-06,23.441,1.8012e-06,13.534,6.2093e-12,4.1951e-05,-1.8012e-06,-13.534,0.2439
11843,5.5634,2.2727,0,0.00047513,4748,0.00017414,0.1909,0.00012665,-356.61,-0.00048019,-4916.2,0.24453
11844,5.6556,2.1818,0,0.00046904,4687.1,0.00017059,0.18743,0.00012738,-324.48,-0.00047371,-4840.9,0.2525
11845,5.5634,2.1818,0.05,2.5204e-06,25.186,1.9353e-06,14.541,2.4445e-12,6.6936e-05,-1.9353e-06,-14.541,0.24431
11846,5.5634,2.4545,0,0.00047712,4767.9,0.00017663,0.15493,0.00012402,-395.12,-0.00048261,-4953.1,0.24481
11847,5.6556,2.3636,0,0.00047083,4705.1,0.00017311,0.14958,0.00012453,-364.88,-0.00047598,-4876.8,0.25282
11848,5.5634,2.3636,0.05,2.6656e-06,26.638,2.0469e-06,15.379,1.2584e-12,3.5744e-05,-2.0469e-06,-15.379,0.24464
11849,5.5634,2.6364,0,0.00047862,4782.9,0.00017849,0.13062,0.00012205,-423.94,-0.00048442,-4980.7,0.24501
11850,5.6556,2.5455,0,0.00047225,4719.3,0.0001751,0.12227,0.00012226,-396.94,-0.00047775,-4905.1,0.25306
11851,5.5634,2.5455,0.05,2.7786e-06,27.767,2.1336e-06,16.031,3.3245e-12,2.1564e-05,-2.1336e-06,-16.031,0.24488
11852,5.5634,2.8182,0,0.00047955,4792.2,0.00017964,0.11674,0.00012083,-441.74,-0.00048553,-4997.7,0.24513
11853,5.6556,2.7273,0,0.00047324,4729.1,0.00017648,0.1048,0.00012068,-419.14,-0.00047897,-4924.7,0.25322
11854,5.5634,2.7273,0.05,2.8563e-06,28.543,2.1933e-06,16.48,2.5452e-12,2.0538e-05,-2.1933e-06,-16.48,0.24504
11855,5.5634,3,0,0.00047987,4795.3,0.00018003,0.11225,0.00012042,-447.75,-0.00048591,-5003.5,0.24517
11856,5.6556,2.9091,0,0.00047375,4734.2,0.00017718,0.096344,0.00011988,-430.48,-0.0004796,-4934.7,0.2533
11857,5.5634,2.9091,0.05,2.896e-06,28.94,2.2238e-06,16.709,1.8408e-12,1.3836e-05,-2.2238e-06,-16.709,0.24512
11858,5.5634,3.1818,0,0.00047955,4792.2,0.00017964,0.11674,0.00012083,-441.74,-0.00048553,-4997.7,0.24513
11859,5.6556,3.0909,0,0.00047375,4734.2,0.00017718,0.096344,0.00011988,-430.48,-0.0004796,-4934.7,0.2533
11860,5.5634,3.0909,0.05,2.896e-06,28.94,2.2238e-06,16.709,1.7807e-12,1.3234e-06,-2.2238e-06,-16.709,0.24512
11861,5.5634,3.3636,0,0.00047862,4782.9,0.00017849,0.13062,0.00012205,-423.94,-0.00048442,-4980.7,0.24501
11862,5.6556,3.2727,0,0.00047324,4729.1,0.00017648,0.1048,0.00012068,-419.14,-0.00047897,-4924.7,0.25322
11863,5.5634,3.2727,0.05,2.8563e-06,28.543,2.1933e-06,16.48,1.8485e-12,1.3571e-06,-2.1933e-06,-16.48,0.24504
11864,5.5634,3.5455,0,0.00047712,4767.9,0.00017663,0.15493,0.00012402,-395.12,-0.00048261,-4953.1,0.24481
11865,5.6556,3.4545,0,0.00047225,4719.3,0.0001751,0.12227,0.00012226,-396.94,-0.00047775,-4905.1,0.25306
11866,5.5634,3.4545,0.05,2.7786e-06,27.767,2.1336e-06,16.031,1.8755e-13,-8.8806e-06,-2.1336e-06,-16.031,0.24488
11867,5.5634,3.7273,0,0.00047513,4748,0.00017414,0.1909,0.00012665,-356.61,-0.00048019,-4916.2,0.24453
11868,5.6556,3.6364,0,0.00047083,4705.1,0.00017311,0.14958,0.00012453,-364.88,-0.00047598,-4876.8,0.25282
11869,5.5634,3.6364,0.05,2.6656e-06,26.638,2.0469e-06,15.379,-1.0264e-12,-2.3507e-05,-2.0469e-06,-15.379,0.24464
11870,5.5634,3.9091,0,0.00047271,4723.9,0.00017113,0.23959,0.0001298,-310.29,-0.00047722,-4871.2,0.24416
11871,5.6556,3.8182,0,0.00046904,4687.1,0.00017059,0.18743,0.00012738,-324.48,-0.00047371,-4840.9,0.2525
11872,5.5634,3.8182,0.05,2.5204e-06,25.186,1.9353e-06,14.541,-2.4873e-12,-5.2597e-05,-1.9353e-06,-14.541,0.24431
11873,5.5634,4.0909,0,0.00046994,4696.1,0.00016773,0.30214,0.00013328,-258.57,-0.00047379,-4819.9,0.24371
11874,5.6556,4,0,0.00046692,4666,0.00016766,0.23633,0.00013066,-277.78,-0.00047102,-4798.5,0.25209
11875,5.5634,4,0.05,2.3457e-06,23.441,1.8012e-06,13.534,-2.4991e-12,-6.84e-05,-1.8012e-06,-13.534,0.2439
11876,5.5634,4.2727,0,0.00046686,4665.4,0.0001641,0.38127,0.00013687,-204.23,-0.00046999,-4763.9,0.24317
11877,5.6556,4.1818,0,0.00046452,4642,0.00016443,0.29715,0.00013415,-227.21,-0.00046796,-4751.3,0.2516
11878,5.5634,4.1818,0.05,2.1448e-06,21.433,1.6469e-06,12.374,-4.342e-12,-8.7579e-05,-1.6469e-06,-12.374,0.24341
11879,5.5634,4.4545,0,0.00046353,4632.1,0.00016038,0.48527,0.00014033,-150.2,-0.00046589,-4705.1,0.24254
11880,5.6556,4.3636,0,0.00046188,4615.6,0.00016106,0.37289,0.00013766,-175.45,-0.00046461,-4700.6,0.25102
11881,5.5634,4.3636,0.05,1.9217e-06,19.204,1.4757e-06,11.087,-1.0449e-11,-0.00011084,-1.4757e-06,-11.088,0.24282
11882,5.5634,4.6364,0,0.00046,4596.9,0.00015675,0.64017,0.00014344,-99.341,-0.0004616,-4645.4,0.24182
11883,5.6556,4.5455,0,0.00045904,4587.2,0.00015768,0.47332,0.00014096,-125.2,-0.00046103,-4648.3,0.25035
11884,5.5634,4.5455,0.05,1.6827e-06,16.816,1.2921e-06,9.7084,-1.1844e-11,-0.00014074,-1.2921e-06,-9.7085,0.24215
11885,5.5634,4.8182,0,0.00045634,4560.2,0.00015335,0.94441,0.000146,-54.265,-0.00045722,-4586.6,0.241
11886,5.6556,4.7273,0,0.00045604,4557.2,0.00015444,0.63024,0.00014384,-79.016,-0.00045732,-4595.9,0.24958
11887,5.5634,4.7273,0.05,1.4362e-06,14.352,1.1028e-06,8.2863,-1.363e-11,-0.00017708,-1.1028e-06,-8.2863,0.24138
11888,5.5634,5,0,0.00045261,4523,0.00015042,2.1131,0.00014777,-17.783,-0.00045287,-4530.8,0.24009
11889,5.6556,4.9091,0,0.00045293,4526.1,0.00015148,0.97868,0.00014614,-39.201,-0.00045356,-4545.1,0.24872
11890,5.5634,4.9091,0.05,1.193e-06,11.922,9.161e-07,6.8832,-2.5343e-11,-0.00021636,-9.1608e-07,-6.8832,0.24051
11891,5.5634,5.1818,0,0.00044889,4485.8,0.00014942,14.32,0.00014728,-1.6991,-0.00044868,-4479.5,0.23908
11892,5.6556,5.0909,0,0.00044977,4494.6,0.00014911,2.9613,0.00014753,-8.9632,-0.00044987,-4497.5,0.24777
11893,5.5634,5.0909,0.05,9.6639e-07,9.6573,7.4208e-07,5.5756,-2.5988e-11,-0.00024823,-7.4206e-07,-5.5756,0.23955
11894,5.5634,5.3636,0,0.00044528,4449.7,0.00014953,30.787,0.00014538,-0.41971,-0.00044475,-4434.4,0.23797
11895,5.6556,5.2727,0,0.00044663,4463.2,0.00014892,17.813,0.00014643,-0.88874,-0.00044634,-4454.7,0.24671
11896,5.5634,5.2727,0.05,7.739e-07,7.7336,5.9427e-07,4.465,-1.9008e-11,-0.00019175,-5.9425e-07,-4.465,0.23849
11897,5.5634,5.5455,0,0.00044184,4415.3,0.00014889,36.863,0.00014396,-0.17006,-0.0004412,-4396.9,0.23676
11898,5.6556,5.4545,0,0.00044359,4432.8,0.00014889,29.869,0.00014488,-0.23703,-0.00044308,-4417.9,0.24556
11899,5.5634,5.4545,0.05,6.4198e-07,6.4154,4.9297e-07,3.7039,-1.2996e-11,-0.00015968,-4.9296e-07,-3.704,0.23733
11900,5.5634,5.7273,0,0.00043869,4383.9,0.0001474,31.561,0.0001432,-0.040245,-0.00043815,-4368,0.23545
11901,5.6556,5.6364,0,0.00044071,4404.1,0.00014807,31.53,0.00014386,-0.13783,-0.00044017,-4388.3,0.24431
11902,5.5634,5.6364,0.05,6.3933e-07,6.3889,4.9092e-07,3.6885,3.0306e-12,-3.1783e-05,-4.9094e-07,-3.6887,0.23607
11903,5.6556,5.8182,0,0.00043815,4378.5,0.00014649,22.81,0.00014346,0.030273,-0.00043776,-4367,0.24296
11904,5.5634,5.8182,0.05,1.358e-06,13.57,1.0427e-06,7.8348,5.7164e-12,4.3841e-06,-1.0428e-06,-7.8349,0.23472
11905,5.5634,5.9091,0,0.00043575,4354.5,0.00014503,14.833,0.00014306,0.02868,-0.0004355,-4347,0.23405
11906,5.7478,0.27273,0,0.00044017,4398.7,0.00014716,22.778,0.00014412,-0.036671,-0.00043978,-4387.3,0.25192
11907,5.84,0.18182,0,0.00043923,4389.3,0.00014635,16.82,0.00014411,0.021143,-0.00043894,-4380.8,0.25959
11908,5.7478,0.18182,0.05,9.6293e-07,9.6226,7.3941e-07,5.5557,-5.5828e-12,-1.1352e-06,-7.3941e-07,-5.5555,0.25119
11909,5.7478,0.090909,0,0.00043799,4376.8,0.00014547,11.22,0.00014398,0.040737,-0.00043779,-4371.2,0.25053
11910,5.7478,0.45455,0,0.00044247,4421.7,0.00014807,24.554,0.00014478,-0.17003,-0.00044205,-4409.4,0.25321
11911,5.84,0.36364,0,0.00044107,4407.7,0.00014735,21.455,0.00014448,-0.12296,-0.0004407,-4396.9,0.26092
11912,5.7478,0.36364,0.05,3.3581e-07,3.3558,2.5786e-07,1.9375,2.5594e-12,6.4839e-05,-2.5786e-07,-1.9374,0.25253
11913,5.7478,0.63636,0,0.00044495,4446.4,0.00014826,16.802,0.00014595,-0.5524,-0.00044467,-4438.3,0.25441
11914,5.84,0.54545,0,0.00044312,4428.2,0.0001477,17.443,0.00014534,-0.29842,-0.00044283,-4419.6,0.26216
11915,5.7478,0.54545,0.05,4.3356e-07,4.3326,3.3292e-07,2.5015,1.7565e-11,0.00023172,-3.3293e-07,-2.5014,0.25378
11916,5.7478,0.81818,0,0.00044751,4472,0.00014822,3.4464,0.00014708,-5.079,-0.00044754,-4472.8,0.2555
11917,5.84,0.72727,0,0.00044526,4449.5,0.00014751,5.6956,0.00014649,-2.0122,-0.0004452,-4447.7,0.2633
11918,5.7478,0.72727,0.05,6.2882e-07,6.2839,4.8285e-07,3.628,1.8217e-11,0.00024435,-4.8287e-07,-3.628,0.25492
11919,5.7478,1,0,0.00045009,4497.8,0.00015006,0.92255,0.00014602,-29.41,-0.00045057,-4511.9,0.2565
11920,5.84,0.90909,0,0.00044742,4471.1,0.00014869,0.99127,0.00014597,-19.449,-0.00044773,-4480.3,0.26434
11921,5.7478,0.90909,0.05,8.4767e-07,8.4708,6.5089e-07,4.8906,1.5234e-11,0.00016116,-6.5091e-07,-4.8906,0.25597
11922,5.7478,1.1818,0,0.00045263,4523.1,0.00015256,0.5798,0.000144,-63.803,-0.00045367,-4554.4,0.2574
11923,5.84,1.0909,0,0.00044954,4492.3,0.00015082,0.56776,0.00014422,-49.008,-0.00045034,-4516.3,0.26529
11924,5.7478,1.0909,0.05,1.0746e-06,10.738,8.2513e-07,6.1998,1.2036e-11,8.2637e-05,-8.2514e-07,-6.1998,0.25692
11925,5.7478,1.3636,0,0.00045507,4547.6,0.00015537,0.437,0.00014137,-104.79,-0.00045676,-4598.9,0.25821
11926,5.84,1.2727,0,0.00045159,4512.8,0.00015327,0.42135,0.00014184,-85.463,-0.00045297,-4554.7,0.26614
11927,5.7478,1.2727,0.05,1.3009e-06,13.001,9.9896e-07,7.5059,6.7229e-12,0.00011163,-9.9897e-07,-7.5058,0.25778
11928,5.7478,1.5455,0,0.00045739,4570.7,0.00015836,0.34768,0.00013829,-150.38,-0.00045976,-4643.9,0.25893
11929,5.84,1.4545,0,0.00045352,4532.1,0.00015594,0.33586,0.00013899,-127.03,-0.00045554,-4594.1,0.26689
11930,5.7478,1.4545,0.05,1.5199e-06,15.189,1.1671e-06,8.7692,8.5464e-12,9.3106e-05,-1.1671e-06,-8.7692,0.25854
11931,5.7478,1.7273,0,0.00045954,4592.2,0.00016139,0.28024,0.00013495,-198.38,-0.00046259,-4688,0.25955
11932,5.84,1.6364,0,0.00045532,4550,0.00015871,0.27276,0.00013581,-171.77,-0.00045799,-4633.3,0.26756
11933,5.7478,1.6364,0.05,1.7255e-06,17.243,1.325e-06,9.9553,3.6657e-12,7.9926e-05,-1.325e-06,-9.9553,0.25921
11934,5.7478,1.9091,0,0.0004615,4611.8,0.00016435,0.22504,0.00013153,-246.38,-0.00046519,-4729.9,0.26008
11935,5.84,1.8182,0,0.00045695,4566.4,0.00016146,0.22089,0.00013248,-217.54,-0.00046026,-4671.1,0.26814
11936,5.7478,1.8182,0.05,1.9128e-06,19.115,1.4688e-06,11.036,2.941e-12,4.2504e-05,-1.4688e-06,-11.036,0.25979
11937,5.7478,2.0909,0,0.00046324,4629.2,0.00016712,0.17915,0.00012824,-291.94,-0.00046751,-4768.2,0.26053
11938,5.84,2,0,0.00045841,4580.9,0.00016409,0.17685,0.00012918,-262.08,-0.0004623,-4706.3,0.26862
11939,5.7478,2,0.05,2.0784e-06,20.77,1.596e-06,11.991,1.1102e-12,5.7142e-05,-1.596e-06,-11.991,0.26028
11940,5.7478,2.2727,0,0.00046474,4644.2,0.00016956,0.14191,0.00012526,-332.73,-0.0004695,-4801.5,0.26089
11941,5.84,2.1818,0,0.00045968,4593.6,0.00016647,0.13993,0.00012611,-303.15,-0.00046408,-4737.6,0.26903
11942,5.7478,2.1818,0.05,2.2198e-06,22.183,1.7046e-06,12.807,4.1599e-12,1.8866e-05,-1.7046e-06,-12.807,0.26068
11943,5.7478,2.4545,0,0.00046596,4656.4,0.00017158,0.11332,0.00012277,-366.68,-0.00047111,-4828.9,0.26117
11944,5.84,2.3636,0,0.00046074,4604.3,0.00016852,0.1103,0.00012343,-338.67,-0.00046557,-4764.2,0.26935
11945,5.7478,2.3636,0.05,2.3355e-06,23.339,1.7934e-06,13.475,1.8202e-12,2.5531e-05,-1.7934e-06,-13.475,0.261
11946,5.7478,2.6364,0,0.00046688,4665.5,0.00017309,0.093261,0.00012089,-392.14,-0.00047231,-4849.2,0.26137
11947,5.84,2.5455,0,0.00046157,4612.6,0.00017014,0.088188,0.0001213,-366.9,-0.00046672,-4785,0.26958
11948,5.7478,2.5455,0.05,2.4241e-06,24.224,1.8614e-06,13.986,1.6903e-12,1.9479e-05,-1.8614e-06,-13.986,0.26124
11949,5.7478,2.8182,0,0.00046744,4671.2,0.00017402,0.081455,0.00011973,-407.89,-0.00047304,-4861.7,0.26149
11950,5.84,2.7273,0,0.00046215,4618.3,0.00017126,0.0736,0.00011981,-386.49,-0.00046751,-4799.3,0.26974
11951,5.7478,2.7273,0.05,2.4843e-06,24.825,1.9076e-06,14.333,9.3193e-13,1.1466e-05,-1.9076e-06,-14.333,0.2614
11952,5.7478,3,0,0.00046763,4673.1,0.00017434,0.077567,0.00011933,-413.22,-0.00047328,-4865.9,0.26153
11953,5.84,2.9091,0,0.00046244,4621.2,0.00017183,0.06638,0.00011905,-396.51,-0.00046791,-4806.7,0.26982
11954,5.7478,2.9091,0.05,2.5147e-06,25.13,1.931e-06,14.509,1.5055e-12,1.1386e-05,-1.931e-06,-14.509,0.26148
11955,5.7478,3.1818,0,0.00046744,4671.2,0.00017402,0.081455,0.00011973,-407.89,-0.00047304,-4861.7,0.26149
11956,5.84,3.0909,0,0.00046244,4621.2,0.00017183,0.06638,0.00011905,-396.51,-0.00046791,-4806.7,0.26982
11957,5.7478,3.0909,0.05,2.5147e-06,25.13,1.931e-06,14.509,2.1073e-12,3.7768e-06,-1.931e-06,-14.509,0.26148
11958,5.7478,3.3636,0,0.00046688,4665.5,0.00017309,0.093261,0.00012089,-392.14,-0.00047231,-4849.2,0.26137
11959,5.84,3.2727,0,0.00046215,4618.3,0.00017126,0.0736,0.00011981,-386.49,-0.00046751,-4799.3,0.26974
11960,5.7478,3.2727,0.05,2.4843e-06,24.825,1.9076e-06,14.333,8.9283e-13,-6.7053e-06,-1.9076e-06,-14.333,0.2614
11961,5.7478,3.5455,0,0.00046596,4656.4,0.00017158,0.11332,0.00012277,-366.68,-0.00047111,-4828.9,0.26117
11962,5.84,3.4545,0,0.00046157,4612.6,0.00017014,0.088188,0.0001213,-366.9,-0.00046672,-4785,0.26958
11963,5.7478,3.4545,0.05,2.4241e-06,24.224,1.8614e-06,13.986,6.831e-13,-1.035e-05,-1.8614e-06,-13.986,0.26124
11964,5.7478,3.7273,0,0.00046474,4644.2,0.00016956,0.14191,0.00012526,-332.73,-0.0004695,-4801.5,0.26089
11965,5.84,3.6364,0,0.00046074,4604.3,0.00016852,0.1103,0.00012343,-338.67,-0.00046557,-4764.2,0.26935
11966,5.7478,3.6364,0.05,2.3355e-06,23.339,1.7934e-06,13.475,9.0886e-14,-1.5337e-05,-1.7934e-06,-13.475,0.261
11967,5.7478,3.9091,0,0.00046324,4629.2,0.00016712,0.17915,0.00012824,-291.94,-0.00046751,-4768.2,0.26053
11968,5.84,3.8182,0,0.00045968,4593.6,0.00016647,0.13993,0.00012611,-303.15,-0.00046408,-4737.6,0.26903
11969,5.7478,3.8182,0.05,2.2198e-06,22.183,1.7045e-06,12.807,-2.687e-12,-1.9014e-05,-1.7046e-06,-12.807,0.26068
11970,5.7478,4.0909,0,0.0004615,4611.8,0.00016435,0.22504,0.00013153,-246.38,-0.00046519,-4729.9,0.26008
11971,5.84,4,0,0.00045841,4580.9,0.00016409,0.17685,0.00012918,-262.08,-0.0004623,-4706.3,0.26862
11972,5.7478,4,0.05,2.0784e-06,20.77,1.596e-06,11.991,-1.983e-12,-4.2176e-05,-1.596e-06,-11.991,0.26028
11973,5.7478,4.2727,0,0.00045954,4592.2,0.00016139,0.28024,0.00013495,-198.38,-0.00046259,-4688,0.25955
11974,5.84,4.1818,0,0.00045695,4566.4,0.00016146,0.22089,0.00013248,-217.54,-0.00046026,-4671.1,0.26814
11975,5.7478,4.1818,0.05,1.9128e-06,19.115,1.4688e-06,11.036,-2.4588e-12,-7.7072e-05,-1.4688e-06,-11.036,0.25979
11976,5.7478,4.4545,0,0.00045739,4570.7,0.00015836,0.34768,0.00013829,-150.38,-0.00045976,-4643.9,0.25893
11977,5.84,4.3636,0,0.00045532,4550,0.00015871,0.27276,0.00013581,-171.77,-0.00045799,-4633.3,0.26756
11978,5.7478,4.3636,0.05,1.7255e-06,17.243,1.325e-06,9.9553,-6.0553e-12,-6.2953e-05,-1.325e-06,-9.9553,0.25921
11979,5.7478,4.6364,0,0.00045507,4547.6,0.00015537,0.437,0.00014137,-104.79,-0.00045676,-4598.9,0.25821
11980,5.84,4.5455,0,0.00045352,4532.1,0.00015594,0.33586,0.00013899,-127.03,-0.00045554,-4594.1,0.26689
11981,5.7478,4.5455,0.05,1.5199e-06,15.189,1.1671e-06,8.7691,-1.0999e-11,-0.00011896,-1.1671e-06,-8.7692,0.25854
11982,5.7478,4.8182,0,0.00045263,4523.1,0.00015256,0.5798,0.000144,-63.803,-0.00045367,-4554.4,0.2574
11983,5.84,4.7273,0,0.00045159,4512.8,0.00015327,0.42135,0.00014184,-85.463,-0.00045297,-4554.7,0.26614
11984,5.7478,4.7273,0.05,1.3009e-06,13.001,9.9897e-07,7.5058,-7.4363e-12,-0.00014646,-9.9896e-07,-7.5059,0.25778
11985,5.7478,5,0,0.00045009,4497.8,0.00015006,0.92255,0.00014602,-29.41,-0.00045057,-4511.9,0.2565
11986,5.84,4.9091,0,0.00044954,4492.3,0.00015082,0.56777,0.00014422,-49.008,-0.00045034,-4516.3,0.26529
11987,5.7478,4.9091,0.05,1.0746e-06,10.738,8.2514e-07,6.1997,-1.3814e-11,-0.00017922,-8.2513e-07,-6.1998,0.25692
11988,5.7478,5.1818,0,0.00044751,4472,0.00014822,3.4465,0.00014708,-5.0789,-0.00044754,-4472.8,0.2555
11989,5.84,5.0909,0,0.00044742,4471.1,0.00014869,0.99127,0.00014597,-19.449,-0.00044773,-4480.3,0.26434
11990,5.7478,5.0909,0.05,8.4767e-07,8.4708,6.5091e-07,4.8906,-2.1426e-11,-0.00015701,-6.5089e-07,-4.8906,0.25597
11991,5.7478,5.3636,0,0.00044495,4446.4,0.00014826,16.802,0.00014595,-0.5524,-0.00044467,-4438.3,0.25441
11992,5.84,5.2727,0,0.00044526,4449.5,0.00014751,5.6956,0.00014649,-2.0122,-0.0004452,-4447.7,0.2633
11993,5.7478,5.2727,0.05,6.2882e-07,6.2839,4.8287e-07,3.628,-1.8227e-11,-0.00024441,-4.8285e-07,-3.628,0.25492
11994,5.7478,5.5455,0,0.00044247,4421.7,0.00014807,24.555,0.00014478,-0.17004,-0.00044205,-4409.4,0.25321
11995,5.84,5.4545,0,0.00044312,4428.2,0.0001477,17.443,0.00014534,-0.29842,-0.00044283,-4419.6,0.26216
11996,5.7478,5.4545,0.05,4.3356e-07,4.3326,3.3293e-07,2.5015,-2.1363e-11,-0.00023511,-3.3292e-07,-2.5015,0.25378
11997,5.7478,5.7273,0,0.00044017,4398.7,0.00014716,22.778,0.00014412,-0.036673,-0.00043978,-4387.3,0.25192
11998,5.84,5.6364,0,0.00044107,4407.7,0.00014735,21.455,0.00014448,-0.12296,-0.0004407,-4396.9,0.26092
11999,5.7478,5.6364,0.05,3.3581e-07,3.3558,2.5786e-07,1.9374,-1.8361e-12,-6.9868e-05,-2.5786e-07,-1.9375,0.25253
12000,5.84,5.8182,0,0.00043923,4389.3,0.00014635,16.82,0.00014411,0.021141,-0.00043894,-4380.8,0.25959
12001,5.7478,5.8182,0.05,9.6293e-07,9.6226,7.394e-07,5.5555,5.6316e-12,3.8666e-06,-7.3942e-07,-5.5557,0.25119
12002,5.7478,5.9091,0,0.00043799,4376.8,0.00014547,11.22,0.00014398,0.040736,-0.00043779,-4371.2,0.25053
12003,5.9322,0.27273,0,0.00044013,4398.2,0.00014654,15.473,0.00014447,-0.037753,-0.00043986,-4390.5,0.26868
12004,6.0243,0.18182,0,0.00043888,4385.7,0.00014582,11.924,0.00014424,0.012356,-0.00043867,-4379.8,0.27651
12005,5.9322,0.18182,0.05,6.4999e-07,6.4955,4.9912e-07,3.7502,-5.5113e-12,-1.3658e-07,-4.9911e-07,-3.7501,0.26797
12006,5.9322,0.090909,0,0.00043855,4382.5,0.00014541,8.245,0.00014432,0.051697,-0.00043841,-4378.4,0.26731
12007,5.9322,0.45455,0,0.00044173,4414.2,0.00014698,14.317,0.00014504,-0.2031,-0.00044148,-4407.1,0.26996
12008,6.0243,0.36364,0,0.00044012,4398.1,0.00014634,13.116,0.00014458,-0.12631,-0.00043989,-4391.6,0.27783
12009,5.9322,0.36364,0.05,1.7568e-07,1.7556,1.349e-07,1.0136,1.8321e-11,0.00012384,-1.3491e-07,-1.0136,0.26929
12010,5.9322,0.63636,0,0.00044344,4431.3,0.00014688,5.7889,0.00014595,-1.187,-0.00044336,-4429,0.27115
12011,6.0243,0.54545,0,0.00044151,4412,0.00014634,7.3873,0.00014529,-0.53828,-0.00044139,-4408.6,0.27905
12012,5.9322,0.54545,0.05,3.777e-07,3.7744,2.9002e-07,2.1791,1.5309e-11,0.00016164,-2.9003e-07,-2.1791,0.27053
12013,5.9322,0.81818,0,0.00044517,4448.6,0.00014768,0.91438,0.00014569,-14.032,-0.00044539,-4455.1,0.27223
12014,6.0243,0.72727,0,0.00044293,4426.2,0.00014665,1.0497,0.00014544,-8.0944,-0.00044305,-4429.7,0.28018
12015,5.9322,0.72727,0.05,5.8769e-07,5.8728,4.5127e-07,3.3907,9.7177e-12,8.8744e-05,-4.5128e-07,-3.3907,0.27166
12016,5.9322,1,0,0.00044687,4465.6,0.00014943,0.50949,0.00014419,-38.897,-0.00044751,-4484.7,0.27322
12017,6.0243,0.90909,0,0.00044432,4440.2,0.00014809,0.49455,0.0001442,-28.72,-0.0004448,-4454.2,0.28122
12018,5.9322,0.90909,0.05,7.9796e-07,7.9741,6.1273e-07,4.6039,1.349e-11,0.00017188,-6.1273e-07,-4.6038,0.2727
12019,5.9322,1.1818,0,0.0004485,4481.9,0.00015152,0.38091,0.00014207,-70.618,-0.00044965,-4516.6,0.27412
12020,6.0243,1.0909,0,0.00044566,4453.5,0.00014988,0.36157,0.00014234,-56.32,-0.00044659,-4481.2,0.28215
12021,5.9322,1.0909,0.05,1.0053e-06,10.046,7.7193e-07,5.8001,8.76e-12,0.00015146,-7.7194e-07,-5.8,0.27364
12022,5.9322,1.3636,0,0.00045003,4497.2,0.00015384,0.30773,0.00013947,-107.66,-0.00045176,-4549.9,0.27492
12023,6.0243,1.2727,0,0.00044691,4466,0.00015191,0.29276,0.00013997,-89.459,-0.00044836,-4509.9,0.283
12024,5.9322,1.2727,0.05,1.2057e-06,12.048,9.258e-07,6.9561,9.0039e-12,9.0788e-05,-9.258e-07,-6.9561,0.27449
12025,5.9322,1.5455,0,0.00045145,4511.3,0.00015629,0.25346,0.00013651,-148.38,-0.00045378,-4583.6,0.27563
12026,6.0243,1.4545,0,0.00044805,4477.4,0.00015411,0.24326,0.00013721,-126.72,-0.00045006,-4539.3,0.28375
12027,5.9322,1.4545,0.05,1.395e-06,13.94,1.0712e-06,8.0484,4.739e-12,7.7729e-05,-1.0712e-06,-8.0483,0.27524
12028,5.9322,1.7273,0,0.00045272,4524.1,0.00015877,0.20808,0.00013334,-190.91,-0.00045567,-4616.4,0.27624
12029,6.0243,1.6364,0,0.00044907,4487.6,0.00015638,0.20194,0.0001342,-166.46,-0.00045166,-4568.4,0.28441
12030,5.9322,1.6364,0.05,1.5695e-06,15.684,1.2051e-06,9.0551,2.0269e-12,9.586e-05,-1.2052e-06,-9.055,0.2759
12031,5.9322,1.9091,0,0.00045386,4535.5,0.00016119,0.16851,0.00013013,-233.23,-0.00045737,-4647.5,0.27677
12032,6.0243,1.8182,0,0.00044996,4496.5,0.00015863,0.16533,0.00013108,-206.87,-0.00045312,-4596.3,0.28498
12033,5.9322,1.8182,0.05,1.726e-06,17.248,1.3254e-06,9.9583,3.775e-13,3.6885e-05,-1.3254e-06,-9.9583,0.27648
12034,5.9322,2.0909,0,0.00045485,4545.3,0.00016344,0.13415,0.00012706,-273.27,-0.00045888,-4675.7,0.27722
12035,6.0243,2,0,0.00045074,4504.3,0.00016078,0.13272,0.00012801,-246.02,-0.00045442,-4622.2,0.28547
12036,5.9322,2,0.05,1.8625e-06,18.612,1.4301e-06,10.746,8.0034e-13,1.9501e-05,-1.4301e-06,-10.746,0.27697
12037,5.9322,2.2727,0,0.00045568,4553.7,0.00016543,0.10532,0.00012428,-309.08,-0.00046015,-4700.3,0.27758
12038,6.0243,2.1818,0,0.0004514,4510.9,0.00016272,0.10443,0.00012517,-282.04,-0.00045553,-4645.2,0.28587
12039,5.9322,2.1818,0.05,1.9775e-06,19.761,1.5185e-06,11.409,1.314e-12,2.4802e-05,-1.5185e-06,-11.409,0.27737
12040,5.9322,2.4545,0,0.00045635,4560.4,0.00016708,0.082511,0.00012196,-338.89,-0.00046117,-4720.3,0.27786
12041,6.0243,2.3636,0,0.00045193,4516.2,0.00016439,0.081064,0.0001227,-313.18,-0.00045644,-4664.6,0.28619
12042,5.9322,2.3636,0.05,2.0703e-06,20.689,1.5897e-06,11.945,4.5407e-13,2.2102e-05,-1.5897e-06,-11.945,0.27769
12043,5.9322,2.6364,0,0.00045685,4565.3,0.0001683,0.0661,0.00012022,-361.25,-0.00046192,-4735.2,0.27805
12044,6.0243,2.5455,0,0.00045235,4520.3,0.00016571,0.063189,0.00012072,-337.93,-0.00045714,-4679.8,0.28643
12045,5.9322,2.5455,0.05,2.1405e-06,21.39,1.6436e-06,12.349,1.3806e-12,1.4019e-05,-1.6436e-06,-12.35,0.27792
12046,5.9322,2.8182,0,0.00045715,4568.4,0.00016906,0.056241,0.00011913,-375.1,-0.00046237,-4744.3,0.27817
12047,6.0243,2.7273,0,0.00045263,4523.1,0.00016662,0.05115,0.00011935,-355.1,-0.00045762,-4690.2,0.28658
12048,5.9322,2.7273,0.05,2.1876e-06,21.861,1.6798e-06,12.621,2.7102e-12,1.1506e-05,-1.6798e-06,-12.621,0.27808
12049,5.9322,3,0,0.00045725,4569.4,0.00016932,0.052957,0.00011877,-379.79,-0.00046253,-4747.4,0.27821
12050,6.0243,2.9091,0,0.00045277,4524.6,0.00016708,0.045107,0.00011864,-363.89,-0.00045786,-4695.5,0.28666
12051,5.9322,2.9091,0.05,2.2113e-06,22.097,1.698e-06,12.758,2.135e-12,9.2923e-06,-1.698e-06,-12.758,0.27816
12052,5.9322,3.1818,0,0.00045715,4568.4,0.00016906,0.056241,0.00011913,-375.1,-0.00046237,-4744.3,0.27817
12053,6.0243,3.0909,0,0.00045277,4524.6,0.00016708,0.045107,0.00011864,-363.89,-0.00045786,-4695.5,0.28666
12054,5.9322,3.0909,0.05,2.2113e-06,22.097,1.698e-06,12.758,1.4794e-12,6.0266e-06,-1.698e-06,-12.758,0.27816
12055,5.9322,3.3636,0,0.00045685,4565.3,0.0001683,0.0661,0.00012022,-361.25,-0.00046192,-4735.2,0.27805
12056,6.0243,3.2727,0,0.00045263,4523.1,0.00016662,0.05115,0.00011935,-355.1,-0.00045762,-4690.2,0.28658
12057,5.9322,3.2727,0.05,2.1876e-06,21.861,1.6798e-06,12.621,2.7402e-12,5.6342e-07,-1.6798e-06,-12.621,0.27808
12058,5.9322,3.5455,0,0.00045635,4560.4,0.00016708,0.082511,0.00012196,-338.89,-0.00046117,-4720.3,0.27786
12059,6.0243,3.4545,0,0.00045235,4520.3,0.00016571,0.063189,0.00012072,-337.93,-0.00045714,-4679.8,0.28643
12060,5.9322,3.4545,0.05,2.1405e-06,21.39,1.6436e-06,12.349,1.8892e-12,-8.2483e-06,-1.6436e-06,-12.35,0.27792
12061,5.9322,3.7273,0,0.00045568,4553.7,0.00016543,0.10532,0.00012428,-309.08,-0.00046015,-4700.3,0.27758
12062,6.0243,3.6364,0,0.00045193,4516.2,0.00016439,0.081063,0.0001227,-313.18,-0.00045644,-4664.6,0.28619
12063,5.9322,3.6364,0.05,2.0703e-06,20.689,1.5897e-06,11.945,8.6755e-13,-1.8614e-05,-1.5897e-06,-11.945,0.27769
12064,5.9322,3.9091,0,0.00045485,4545.3,0.00016344,0.13415,0.00012706,-273.27,-0.00045888,-4675.7,0.27722
12065,6.0243,3.8182,0,0.0004514,4510.9,0.00016272,0.10443,0.00012517,-282.04,-0.00045553,-4645.2,0.28587
12066,5.9322,3.8182,0.05,1.9775e-06,19.761,1.5185e-06,11.409,-9.1204e-13,-2.0394e-05,-1.5185e-06,-11.409,0.27737
12067,5.9322,4.0909,0,0.00045386,4535.5,0.00016119,0.16851,0.00013013,-233.23,-0.00045737,-4647.5,0.27677
12068,6.0243,4,0,0.00045074,4504.3,0.00016078,0.13272,0.00012801,-246.02,-0.00045442,-4622.2,0.28547
12069,5.9322,4,0.05,1.8625e-06,18.612,1.4301e-06,10.746,6.9178e-13,-2.2211e-05,-1.4301e-06,-10.746,0.27697
12070,5.9322,4.2727,0,0.00045272,4524.1,0.00015877,0.20808,0.00013334,-190.91,-0.00045567,-4616.4,0.27624
12071,6.0243,4.1818,0,0.00044996,4496.5,0.00015863,0.16533,0.00013108,-206.86,-0.00045312,-4596.3,0.28498
12072,5.9322,4.1818,0.05,1.726e-06,17.248,1.3254e-06,9.9583,-3.0869e-13,-2.3155e-05,-1.3254e-06,-9.9583,0.27648
12073,5.9322,4.4545,0,0.00045145,4511.3,0.00015629,0.25346,0.00013651,-148.38,-0.00045378,-4583.6,0.27563
12074,6.0243,4.3636,0,0.00044907,4487.6,0.00015638,0.20194,0.0001342,-166.46,-0.00045166,-4568.4,0.28441
12075,5.9322,4.3636,0.05,1.5695e-06,15.684,1.2052e-06,9.055,4.5006e-13,-8.0731e-05,-1.2051e-06,-9.0551,0.2759
12076,5.9322,4.6364,0,0.00045003,4497.2,0.00015384,0.30773,0.00013947,-107.66,-0.00045176,-4549.9,0.27492
12077,6.0243,4.5455,0,0.00044805,4477.4,0.00015411,0.24326,0.00013721,-126.72,-0.00045006,-4539.3,0.28375
12078,5.9322,4.5455,0.05,1.395e-06,13.94,1.0712e-06,8.0483,-5.2219e-12,-9.8298e-05,-1.0712e-06,-8.0484,0.27524
12079,5.9322,4.8182,0,0.0004485,4481.9,0.00015152,0.38091,0.00014207,-70.618,-0.00044965,-4516.6,0.27412
12080,6.0243,4.7273,0,0.00044691,4466,0.00015191,0.29276,0.00013997,-89.459,-0.00044836,-4509.9,0.283
12081,5.9322,4.7273,0.05,1.2057e-06,12.048,9.258e-07,6.9561,-5.5448e-12,-7.8517e-05,-9.258e-07,-6.9561,0.27449
12082,5.9322,5,0,0.00044687,4465.6,0.00014943,0.50949,0.00014419,-38.897,-0.00044751,-4484.7,0.27322
12083,6.0243,4.9091,0,0.00044566,4453.5,0.00014988,0.36157,0.00014234,-56.32,-0.00044659,-4481.2,0.28215
12084,5.9322,4.9091,0.05,1.0053e-06,10.046,7.7194e-07,5.8,-1.4702e-11,-0.0001379,-7.7194e-07,-5.8001,0.27364
12085,5.9322,5.1818,0,0.00044517,4448.6,0.00014768,0.91439,0.00014569,-14.032,-0.00044539,-4455.1,0.27223
12086,6.0243,5.0909,0,0.00044432,4440.2,0.00014809,0.49455,0.0001442,-28.72,-0.0004448,-4454.2,0.28122
12087,5.9322,5.0909,0.05,7.9796e-07,7.9741,6.1274e-07,4.6038,-1.2109e-11,-0.00016278,-6.1273e-07,-4.6039,0.2727
12088,5.9322,5.3636,0,0.00044344,4431.3,0.00014688,5.7889,0.00014595,-1.187,-0.00044336,-4429,0.27115
12089,6.0243,5.2727,0,0.00044293,4426.2,0.00014665,1.0497,0.00014544,-8.0944,-0.00044305,-4429.7,0.28018
12090,5.9322,5.2727,0.05,5.8769e-07,5.8728,4.5128e-07,3.3907,-1.8368e-11,-0.00013437,-4.5127e-07,-3.3907,0.27166
12091,5.9322,5.5455,0,0.00044173,4414.2,0.00014698,14.317,0.00014504,-0.2031,-0.00044148,-4407.1,0.26996
12092,6.0243,5.4545,0,0.00044151,4412,0.00014634,7.3873,0.00014529,-0.53828,-0.00044139,-4408.6,0.27905
12093,5.9322,5.4545,0.05,3.777e-07,3.7744,2.9003e-07,2.1791,-1.8173e-11,-0.00015689,-2.9002e-07,-2.1791,0.27053
12094,5.9322,5.7273,0,0.00044013,4398.2,0.00014654,15.473,0.00014447,-0.037754,-0.00043986,-4390.5,0.26868
12095,6.0243,5.6364,0,0.00044012,4398.1,0.00014634,13.116,0.00014458,-0.12631,-0.00043989,-4391.6,0.27783
12096,5.9322,5.6364,0.05,1.7568e-07,1.7556,1.3491e-07,1.0136,-1.851e-11,-0.00018574,-1.3489e-07,-1.0136,0.26929
12097,6.0243,5.8182,0,0.00043888,4385.7,0.00014582,11.924,0.00014424,0.012354,-0.00043867,-4379.8,0.27651
12098,5.9322,5.8182,0.05,6.4999e-07,6.4955,4.9911e-07,3.75,7.3602e-12,3.0198e-06,-4.9912e-07,-3.7503,0.26797
12099,5.9322,5.9091,0,0.00043855,4382.5,0.00014541,8.245,0.00014432,0.051695,-0.00043841,-4378.4,0.26731
12100,6.1165,0.27273,0,0.00043887,4385.6,0.00014562,9.5245,0.00014435,-0.049234,-0.0004387,-4380.9,0.28575
12101,6.2087,0.18182,0,0.00043738,4370.8,0.00014501,8.0003,0.00014394,-0.00054835,-0.00043725,-4366.8,0.29372
12102,6.1165,0.18182,0.05,4.063e-07,4.0602,3.12e-07,2.3443,-7.2086e-12,1.2873e-07,-3.1198e-07,-2.344,0.28504
12103,6.1165,0.090909,0,0.00043779,4374.9,0.00014496,5.8425,0.00014419,0.061083,-0.00043769,-4371.9,0.28438
12104,6.1165,0.45455,0,0.0004399,4396,0.00014569,6.0823,0.00014484,-0.35471,-0.0004398,-4393.1,0.28702
12105,6.2087,0.36364,0,0.00043813,4378.3,0.00014513,6.3954,0.00014425,-0.17836,-0.00043803,-4375.2,0.29504
12106,6.1165,0.36364,0.05,2.5373e-07,2.5355,1.9483e-07,1.4639,4.0983e-12,0.00010088,-1.9483e-07,-1.4638,0.28635
12107,6.1165,0.63636,0,0.000441,4406.9,0.00014589,0.91656,0.00014501,-5.7116,-0.00044108,-4409.3,0.28819
12108,6.2087,0.54545,0,0.000439,4386.9,0.0001451,1.1902,0.00014459,-2.6383,-0.00043902,-4387.6,0.29625
12109,6.1165,0.54545,0.05,4.3729e-07,4.3699,3.3579e-07,2.523,7.4852e-12,0.0001215,-3.3579e-07,-2.5229,0.28757
12110,6.1165,0.81818,0,0.00044208,4417.8,0.00014704,0.42425,0.00014398,-22.576,-0.00044246,-4428.8,0.28927
12111,6.2087,0.72727,0,0.00043985,4395.5,0.00014597,0.40459,0.0001438,-15.929,-0.00044012,-4403.2,0.29737
12112,6.1165,0.72727,0.05,6.1331e-07,6.1289,4.7095e-07,3.5385,6.1068e-12,5.287e-05,-4.7095e-07,-3.5385,0.2887
12113,6.1165,1,0,0.00044311,4428.1,0.00014853,0.31744,0.00014235,-46.114,-0.00044388,-4450.8,0.29025
12114,6.2087,0.90909,0,0.00044067,4403.6,0.00014722,0.29502,0.0001424,-35.952,-0.00044126,-4421.4,0.2984
12115,6.1165,0.90909,0.05,7.9256e-07,7.9201,6.0858e-07,4.5727,5.3662e-12,5.0578e-05,-6.0859e-07,-4.5726,0.28973
12116,6.1165,1.1818,0,0.00044406,4437.6,0.00015027,0.26218,0.00014023,-75.15,-0.00044529,-4474.5,0.29113
12117,6.2087,1.0909,0,0.00044141,4411,0.00014872,0.24465,0.00014051,-61.457,-0.00044242,-4441.3,0.29933
12118,6.1165,1.0909,0.05,9.6971e-07,9.6904,7.4462e-07,5.5948,7.5562e-12,0.00011446,-7.4462e-07,-5.5947,0.29066
12119,6.1165,1.3636,0,0.00044492,4446.1,0.00015218,0.22193,0.00013771,-108.51,-0.00044666,-4499.2,0.29193
12120,6.2087,1.2727,0,0.00044206,4417.5,0.0001504,0.20945,0.0001382,-91.469,-0.00044354,-4462.4,0.30016
12121,6.1165,1.2727,0.05,1.1402e-06,11.394,8.7549e-07,6.5782,2.2902e-12,4.1371e-05,-8.755e-07,-6.5781,0.2915
12122,6.1165,1.5455,0,0.00044566,4453.5,0.0001542,0.18735,0.0001349,-144.79,-0.00044794,-4524.1,0.29263
12123,6.2087,1.4545,0,0.00044261,4423,0.00015221,0.17915,0.00013558,-124.79,-0.0004446,-4484,0.30091
12124,6.1165,1.4545,0.05,1.3e-06,12.991,9.9825e-07,7.5005,2.925e-12,9.1862e-05,-9.9825e-07,-7.5004,0.29225
12125,6.1165,1.7273,0,0.0004463,4459.9,0.00015624,0.15578,0.00013194,-182.41,-0.00044912,-4548.2,0.29325
12126,6.2087,1.6364,0,0.00044306,4427.6,0.00015408,0.15102,0.00013276,-160.03,-0.00044557,-4505.3,0.30157
12127,6.1165,1.6364,0.05,1.4461e-06,14.451,1.1105e-06,8.3436,1.6179e-12,5.8383e-05,-1.1105e-06,-8.3435,0.29291
12128,6.1165,1.9091,0,0.00044684,4465.3,0.00015821,0.12672,0.00012896,-219.65,-0.00045017,-4571,0.29378
12129,6.2087,1.8182,0,0.00044343,4431.2,0.00015593,0.12446,0.00012987,-195.64,-0.00044643,-4525.7,0.30214
12130,6.1165,1.8182,0.05,1.5762e-06,15.751,1.2103e-06,9.0937,-5.9582e-14,3.4292e-05,-1.2103e-06,-9.0936,0.29348
12131,6.1165,2.0909,0,0.00044728,4469.8,0.00016005,0.10055,0.00012613,-254.78,-0.00045107,-4591.6,0.29422
12132,6.2087,2,0,0.00044371,4434.1,0.00015768,0.099851,0.00012705,-230.01,-0.00044718,-4544.5,0.30262
12133,6.1165,2,0.05,1.6885e-06,16.873,1.2965e-06,9.7417,2.0883e-12,4.5102e-05,-1.2965e-06,-9.7416,0.29397
12134,6.1165,2.2727,0,0.00044765,4473.4,0.00016168,0.077998,0.00012358,-286.14,-0.00045182,-4609.5,0.29458
12135,6.2087,2.1818,0,0.00044393,4436.3,0.00015927,0.077887,0.00012445,-261.55,-0.0004478,-4561.2,0.30302
12136,6.1165,2.1818,0.05,1.7822e-06,17.81,1.3685e-06,10.283,7.4651e-14,5.6433e-06,-1.3685e-06,-10.283,0.29437
12137,6.1165,2.4545,0,0.00044793,4476.2,0.00016302,0.059759,0.00012145,-312.21,-0.00045242,-4624.1,0.29485
12138,6.2087,2.3636,0,0.0004441,4437.9,0.00016063,0.05935,0.00012219,-288.77,-0.00044831,-4575.2,0.30334
12139,6.1165,2.3636,0.05,1.8572e-06,18.559,1.4261e-06,10.715,1.2191e-12,1.6415e-05,-1.4261e-06,-10.715,0.29468
12140,6.1165,2.6364,0,0.00044813,4478.2,0.00016401,0.046392,0.00011985,-331.78,-0.00045285,-4634.8,0.29505
12141,6.2087,2.5455,0,0.00044422,4439.1,0.0001617,0.044908,0.00012039,-310.39,-0.00044868,-4586.2,0.30358
12142,6.1165,2.5455,0.05,1.9133e-06,19.12,1.4692e-06,11.039,8.2409e-13,1.728e-05,-1.4692e-06,-11.039,0.29492
12143,6.1165,2.8182,0,0.00044825,4479.4,0.00016463,0.038251,0.00011886,-343.89,-0.00045311,-4641.4,0.29517
12144,6.2087,2.7273,0,0.0004443,4439.9,0.00016244,0.035042,0.00011913,-325.4,-0.00044894,-4593.7,0.30373
12145,6.1165,2.7273,0.05,1.9506e-06,19.493,1.4978e-06,11.254,1.8647e-13,6.5376e-06,-1.4979e-06,-11.254,0.29508
12146,6.1165,3,0,0.00044829,4479.8,0.00016484,0.035519,0.00011852,-348,-0.00045319,-4643.6,0.29521
12147,6.2087,2.9091,0,0.00044434,4440.3,0.00016282,0.030042,0.00011849,-333.08,-0.00044906,-4597.5,0.30381
12148,6.1165,2.9091,0.05,1.9693e-06,19.68,1.5122e-06,11.362,9.9417e-13,7.529e-06,-1.5122e-06,-11.362,0.29516
12149,6.1165,3.1818,0,0.00044825,4479.4,0.00016463,0.038251,0.00011886,-343.89,-0.00045311,-4641.4,0.29517
12150,6.2087,3.0909,0,0.00044434,4440.3,0.00016282,0.030042,0.00011849,-333.08,-0.00044906,-4597.5,0.30381
12151,6.1165,3.0909,0.05,1.9693e-06,19.68,1.5122e-06,11.362,7.998e-13,3.9737e-06,-1.5122e-06,-11.362,0.29516
12152,6.1165,3.3636,0,0.00044813,4478.2,0.00016401,0.046392,0.00011985,-331.78,-0.00045285,-4634.8,0.29505
12153,6.2087,3.2727,0,0.0004443,4439.9,0.00016244,0.035042,0.00011913,-325.4,-0.00044894,-4593.7,0.30373
12154,6.1165,3.2727,0.05,1.9506e-06,19.493,1.4979e-06,11.254,7.3132e-13,-3.2647e-06,-1.4979e-06,-11.254,0.29508
12155,6.1165,3.5455,0,0.00044793,4476.2,0.00016302,0.059759,0.00012145,-312.21,-0.00045242,-4624.1,0.29485
12156,6.2087,3.4545,0,0.00044422,4439.1,0.0001617,0.044908,0.00012039,-310.39,-0.00044868,-4586.2,0.30358
12157,6.1165,3.4545,0.05,1.9133e-06,19.12,1.4692e-06,11.039,2.297e-12,-7.7376e-06,-1.4692e-06,-11.039,0.29492
12158,6.1165,3.7273,0,0.00044765,4473.4,0.00016168,0.077998,0.00012358,-286.13,-0.00045182,-4609.5,0.29458
12159,6.2087,3.6364,0,0.0004441,4437.9,0.00016063,0.05935,0.00012219,-288.77,-0.00044831,-4575.2,0.30334
12160,6.1165,3.6364,0.05,1.8572e-06,18.559,1.4261e-06,10.715,5.2691e-13,-2.5686e-06,-1.4261e-06,-10.715,0.29468
12161,6.1165,3.9091,0,0.00044728,4469.8,0.00016005,0.10055,0.00012613,-254.78,-0.00045107,-4591.7,0.29422
12162,6.2087,3.8182,0,0.00044393,4436.3,0.00015927,0.077886,0.00012445,-261.55,-0.0004478,-4561.2,0.30302
12163,6.1165,3.8182,0.05,1.7822e-06,17.81,1.3685e-06,10.283,-5.5538e-13,-1.3699e-05,-1.3685e-06,-10.283,0.29437
12164,6.1165,4.0909,0,0.00044684,4465.3,0.00015821,0.12672,0.00012896,-219.65,-0.00045017,-4571,0.29378
12165,6.2087,4,0,0.00044371,4434.1,0.00015768,0.099851,0.00012705,-230.01,-0.00044718,-4544.6,0.30262
12166,6.1165,4,0.05,1.6885e-06,16.873,1.2965e-06,9.7416,-5.5946e-13,-2.9265e-05,-1.2965e-06,-9.7417,0.29397
12167,6.1165,4.2727,0,0.0004463,4459.9,0.00015624,0.15578,0.00013194,-182.41,-0.00044912,-4548.2,0.29325
12168,6.2087,4.1818,0,0.00044343,4431.2,0.00015593,0.12446,0.00012987,-195.64,-0.00044643,-4525.7,0.30214
12169,6.1165,4.1818,0.05,1.5762e-06,15.751,1.2103e-06,9.0936,1.364e-12,-3.4481e-05,-1.2103e-06,-9.0937,0.29348
12170,6.1165,4.4545,0,0.00044566,4453.5,0.0001542,0.18735,0.0001349,-144.79,-0.00044794,-4524.1,0.29263
12171,6.2087,4.3636,0,0.00044306,4427.6,0.00015408,0.15102,0.00013276,-160.03,-0.00044557,-4505.3,0.30157
12172,6.1165,4.3636,0.05,1.4461e-06,14.451,1.1105e-06,8.3435,-3.5422e-13,-6.6599e-05,-1.1105e-06,-8.3436,0.29291
12173,6.1165,4.6364,0,0.00044492,4446.1,0.00015218,0.22193,0.00013771,-108.51,-0.00044666,-4499.2,0.29193
12174,6.2087,4.5455,0,0.00044261,4423,0.00015221,0.17915,0.00013558,-124.79,-0.0004446,-4484,0.30091
12175,6.1165,4.5455,0.05,1.3e-06,12.991,9.9825e-07,7.5004,-3.7098e-12,-7.9195e-05,-9.9825e-07,-7.5005,0.29225
12176,6.1165,4.8182,0,0.00044406,4437.6,0.00015027,0.26218,0.00014023,-75.15,-0.00044529,-4474.5,0.29113
12177,6.2087,4.7273,0,0.00044206,4417.5,0.0001504,0.20945,0.0001382,-91.469,-0.00044354,-4462.4,0.30016
12178,6.1165,4.7273,0.05,1.1402e-06,11.394,8.755e-07,6.5781,-6.6547e-14,-2.8057e-05,-8.7549e-07,-6.5782,0.2915
12179,6.1165,5,0,0.00044311,4428.1,0.00014853,0.31744,0.00014235,-46.114,-0.00044388,-4450.8,0.29025
12180,6.2087,4.9091,0,0.00044141,4411,0.00014872,0.24465,0.00014051,-61.457,-0.00044242,-4441.3,0.29933
12181,6.1165,4.9091,0.05,9.6971e-07,9.6904,7.4462e-07,5.5947,-5.4015e-12,-0.00010363,-7.4462e-07,-5.5948,0.29066
12182,6.1165,5.1818,0,0.00044208,4417.8,0.00014704,0.42425,0.00014398,-22.576,-0.00044246,-4428.8,0.28927
12183,6.2087,5.0909,0,0.00044067,4403.6,0.00014722,0.29502,0.0001424,-35.952,-0.00044126,-4421.4,0.2984
12184,6.1165,5.0909,0.05,7.9256e-07,7.9201,6.0858e-07,4.5726,-6.3213e-12,-0.00011362,-6.0858e-07,-4.5727,0.28973
12185,6.1165,5.3636,0,0.000441,4406.9,0.00014589,0.91656,0.00014501,-5.7116,-0.00044108,-4409.3,0.28819
12186,6.2087,5.2727,0,0.00043985,4395.5,0.00014597,0.40459,0.0001438,-15.929,-0.00044012,-4403.2,0.29737
12187,6.1165,5.2727,0.05,6.1331e-07,6.1289,4.7095e-07,3.5385,-6.7441e-12,-0.00011896,-4.7095e-07,-3.5386,0.2887
12188,6.1165,5.5455,0,0.0004399,4396,0.00014569,6.0823,0.00014484,-0.35471,-0.0004398,-4393.1,0.28702
12189,6.2087,5.4545,0,0.000439,4386.9,0.0001451,1.1902,0.00014459,-2.6383,-0.00043902,-4387.7,0.29625
12190,6.1165,5.4545,0.05,4.3729e-07,4.3699,3.3579e-07,2.5229,-7.8927e-12,-0.00011462,-3.3579e-07,-2.523,0.28757
12191,6.1165,5.7273,0,0.00043887,4385.6,0.00014562,9.5245,0.00014435,-0.049236,-0.0004387,-4380.9,0.28575
12192,6.2087,5.6364,0,0.00043813,4378.3,0.00014513,6.3954,0.00014425,-0.17836,-0.00043803,-4375.2,0.29504
12193,6.1165,5.6364,0.05,2.5373e-07,2.5355,1.9483e-07,1.4638,-4.9229e-12,-9.4101e-05,-1.9483e-07,-1.464,0.28635
12194,6.2087,5.8182,0,0.00043738,4370.8,0.00014501,8.0003,0.00014394,-0.00054998,-0.00043725,-4366.8,0.29372
12195,6.1165,5.8182,0.05,4.063e-07,4.0602,3.1198e-07,2.344,7.1831e-12,7.3844e-07,-3.12e-07,-2.3443,0.28504
12196,6.1165,5.9091,0,0.00043779,4374.9,0.00014496,5.8425,0.00014419,0.061082,-0.00043769,-4371.9,0.28438
12197,6.3009,0.27273,0,0.00043665,4363.5,0.0001445,4.8062,0.00014385,-0.091398,-0.00043657,-4361.1,0.30311
12198,6.3931,0.18182,0,0.00043499,4346.9,0.00014396,4.9325,0.0001433,-0.025518,-0.00043491,-4344.5,0.31124
12199,6.3009,0.18182,0.05,2.2244e-07,2.2229,1.7081e-07,1.2835,-5.9314e-12,8.1995e-06,-1.708e-07,-1.2833,0.3024
12200,6.3009,0.090909,0,0.00043597,4356.7,0.0001442,3.9425,0.00014368,0.068404,-0.0004359,-4354.7,0.30176
12201,6.3009,0.45455,0,0.00043723,4369.3,0.00014446,0.9138,0.00014408,-1.8801,-0.00043725,-4369.8,0.30437
12202,6.3931,0.36364,0,0.00043535,4350.5,0.00014382,1.4609,0.00014354,-0.61763,-0.00043533,-4350.1,0.31254
12203,6.3009,0.36364,0.05,3.9097e-07,3.907,3.0022e-07,2.2558,-3.0426e-12,3.9329e-05,-3.0021e-07,-2.2556,0.30371
12204,6.3009,0.63636,0,0.00043785,4375.5,0.00014514,0.32678,0.00014343,-12.514,-0.00043806,-4381.6,0.30553
12205,6.3931,0.54545,0,0.00043579,4354.9,0.00014425,0.30746,0.0001431,-8.276,-0.00043593,-4358.9,0.31375
12206,6.3009,0.54545,0.05,5.3151e-07,5.3115,4.0814e-07,3.0666,-1.5303e-12,4.3629e-05,-4.0813e-07,-3.0665,0.30492
12207,6.3009,0.81818,0,0.00043844,4381.3,0.00014615,0.24823,0.00014222,-29.289,-0.00043892,-4395.8,0.3066
12208,6.3931,0.72727,0,0.00043622,4359.1,0.00014507,0.2242,0.00014208,-22.255,-0.00043659,-4370.1,0.31486
12209,6.3009,0.72727,0.05,6.6652e-07,6.6606,5.1181e-07,3.8455,1.2866e-12,5.4589e-05,-5.118e-07,-3.8454,0.30604
12210,6.3009,1,0,0.00043896,4386.5,0.00014741,0.21305,0.00014055,-51.297,-0.0004398,-4411.9,0.30757
12211,6.3931,0.90909,0,0.00043658,4362.8,0.00014613,0.19432,0.00014061,-41.271,-0.00043727,-4383.2,0.31588
12212,6.3009,0.90909,0.05,8.1007e-07,8.0951,6.2204e-07,4.6738,2.3162e-12,3.3222e-05,-6.2203e-07,-4.6737,0.30706
12213,6.3009,1.1818,0,0.0004394,4390.9,0.00014885,0.18687,0.00013848,-77.781,-0.00044066,-4429.2,0.30846
12214,6.3931,1.0909,0,0.00043688,4365.8,0.00014738,0.17293,0.00013874,-64.743,-0.00043794,-4397.7,0.3168
12215,6.3009,1.0909,0.05,9.5509e-07,9.5443,7.3339e-07,5.5105,1.5615e-12,5.8971e-05,-7.3339e-07,-5.5104,0.30799
12216,6.3009,1.3636,0,0.00043974,4394.4,0.00015043,0.16321,0.00013607,-107.76,-0.00044148,-4447.2,0.30925
12217,6.3931,1.2727,0,0.00043709,4367.8,0.00014878,0.15343,0.00013653,-91.869,-0.00043857,-4413,0.31763
12218,6.3009,1.2727,0.05,1.0959e-06,10.951,8.4151e-07,6.3228,-4.9413e-13,5.587e-05,-8.4151e-07,-6.3227,0.30882
12219,6.3009,1.5455,0,0.00044,4397,0.00015209,0.14014,0.00013344,-140.04,-0.00044222,-4465.3,0.30995
12220,6.3931,1.4545,0,0.00043721,4369.1,0.00015027,0.13383,0.00013407,-121.63,-0.00043915,-4428.6,0.31838
12221,6.3009,1.4545,0.05,1.2283e-06,12.274,9.4317e-07,7.0866,-9.1796e-13,-1.1182e-05,-9.4317e-07,-7.0866,0.30957
12222,6.3009,1.7273,0,0.00044018,4398.8,0.00015377,0.11747,0.00013069,-173.27,-0.00044287,-4482.8,0.31056
12223,6.3931,1.6364,0,0.00043726,4369.5,0.00015181,0.11395,0.00013145,-152.85,-0.00043965,-4443.9,0.31903
12224,6.3009,1.6364,0.05,1.3492e-06,13.482,1.036e-06,7.7841,6.6804e-14,4.8323e-05,-1.036e-06,-7.784,0.31022
12225,6.3009,1.9091,0,0.0004403,4399.9,0.00015539,0.095657,0.00012796,-206.01,-0.00044344,-4499.3,0.31108
12226,6.3931,1.8182,0,0.00043724,4369.4,0.00015333,0.094201,0.0001288,-184.21,-0.00044008,-4458.5,0.3196
12227,6.3009,1.8182,0.05,1.4564e-06,14.554,1.1183e-06,8.4026,1.1755e-12,2.7065e-05,-1.1183e-06,-8.4025,0.31079
12228,6.3009,2.0909,0,0.00044036,4400.6,0.0001569,0.075443,0.00012537,-236.78,-0.00044391,-4514.1,0.31152
12229,6.3931,2,0,0.00043718,4368.8,0.00015476,0.075304,0.00012623,-214.34,-0.00044043,-4472,0.32008
12230,6.3009,2,0.05,1.5486e-06,15.475,1.1891e-06,8.9345,8.1116e-13,2.7419e-05,-1.1891e-06,-8.9345,0.31127
12231,6.3009,2.2727,0,0.00044039,4400.8,0.00015822,0.057644,0.00012305,-264.19,-0.00044429,-4526.9,0.31188
12232,6.3931,2.1818,0,0.0004371,4368,0.00015607,0.058066,0.00012386,-241.92,-0.00044071,-4483.9,0.32048
12233,6.3009,2.1818,0.05,1.6251e-06,16.24,1.2479e-06,9.3762,2.5927e-12,1.3815e-05,-1.2479e-06,-9.3762,0.31167
12234,6.3009,2.4545,0,0.0004404,4400.9,0.00015932,0.043012,0.00012112,-286.95,-0.00044457,-4537.3,0.31216
12235,6.3931,2.3636,0,0.00043701,4367.1,0.00015718,0.043274,0.00012181,-265.67,-0.00044092,-4493.9,0.3208
12236,6.3009,2.3636,0.05,1.6859e-06,16.848,1.2946e-06,9.727,-1.0359e-12,2.26e-05,-1.2946e-06,-9.7269,0.31199
12237,6.3009,2.6364,0,0.00044039,4400.9,0.00016013,0.032148,0.00011967,-304.01,-0.00044478,-4545,0.31236
12238,6.3931,2.5455,0,0.00043693,4366.3,0.00015805,0.031599,0.00012018,-284.52,-0.00044108,-4501.6,0.32103
12239,6.3009,2.5455,0.05,1.7311e-06,17.299,1.3293e-06,9.9878,5.1236e-13,1.4427e-05,-1.3293e-06,-9.9877,0.31223
12240,6.3009,2.8182,0,0.00044039,4400.9,0.00016063,0.025469,0.00011876,-314.58,-0.0004449,-4549.7,0.31247
12241,6.3931,2.7273,0,0.00043687,4365.7,0.00015866,0.023542,0.00011905,-297.59,-0.00044117,-4506.9,0.32119
12242,6.3009,2.7273,0.05,1.761e-06,17.598,1.3523e-06,10.16,1.4231e-12,6.16e-06,-1.3523e-06,-10.16,0.31238
12243,6.3009,3,0,0.00044039,4400.9,0.00016081,0.023216,0.00011846,-318.16,-0.00044494,-4551.3,0.31251
12244,6.3931,2.9091,0,0.00043684,4365.4,0.00015897,0.019434,0.00011847,-304.28,-0.00044122,-4509.6,0.32127
12245,6.3009,2.9091,0.05,1.7759e-06,17.747,1.3637e-06,10.246,1.716e-12,6.0725e-06,-1.3637e-06,-10.246,0.31246
12246,6.3009,3.1818,0,0.00044039,4400.9,0.00016063,0.025469,0.00011876,-314.58,-0.0004449,-4549.7,0.31247
12247,6.3931,3.0909,0,0.00043684,4365.4,0.00015897,0.019433,0.00011847,-304.28,-0.00044122,-4509.6,0.32127
12248,6.3009,3.0909,0.05,1.7759e-06,17.747,1.3637e-06,10.246,2.8252e-12,-6.0032e-06,-1.3637e-06,-10.246,0.31246
12249,6.3009,3.3636,0,0.00044039,4400.9,0.00016013,0.032147,0.00011967,-304.01,-0.00044478,-4545,0.31236
12250,6.3931,3.2727,0,0.00043687,4365.7,0.00015866,0.023542,0.00011905,-297.59,-0.00044117,-4506.9,0.32119
12251,6.3009,3.2727,0.05,1.761e-06,17.598,1.3523e-06,10.16,2.1122e-12,-1.1325e-06,-1.3523e-06,-10.16,0.31238
12252,6.3009,3.5455,0,0.0004404,4400.9,0.00015932,0.043012,0.00012112,-286.95,-0.00044457,-4537.3,0.31216
12253,6.3931,3.4545,0,0.00043693,4366.3,0.00015805,0.031598,0.00012018,-284.52,-0.00044108,-4501.6,0.32103
12254,6.3009,3.4545,0.05,1.7311e-06,17.299,1.3293e-06,9.9877,2.3066e-12,1.7583e-06,-1.3293e-06,-9.9878,0.31223
12255,6.3009,3.7273,0,0.00044039,4400.8,0.00015822,0.057644,0.00012305,-264.19,-0.00044429,-4526.9,0.31188
12256,6.3931,3.6364,0,0.00043701,4367.1,0.00015718,0.043274,0.00012181,-265.67,-0.00044092,-4493.9,0.3208
12257,6.3009,3.6364,0.05,1.6859e-06,16.848,1.2946e-06,9.7268,1.6389e-12,-1.6104e-05,-1.2946e-06,-9.727,0.31199
12258,6.3009,3.9091,0,0.00044036,4400.6,0.0001569,0.075443,0.00012537,-236.78,-0.00044391,-4514.1,0.31152
12259,6.3931,3.8182,0,0.0004371,4368,0.00015607,0.058065,0.00012386,-241.92,-0.00044071,-4483.9,0.32048
12260,6.3009,3.8182,0.05,1.6251e-06,16.24,1.2479e-06,9.3762,2.2294e-12,-1.1632e-06,-1.2479e-06,-9.3762,0.31167
12261,6.3009,4.0909,0,0.0004403,4399.9,0.00015539,0.095657,0.00012796,-206.01,-0.00044344,-4499.3,0.31108
12262,6.3931,4,0,0.00043718,4368.8,0.00015476,0.075304,0.00012623,-214.34,-0.00044043,-4472,0.32008
12263,6.3009,4,0.05,1.5486e-06,15.475,1.1891e-06,8.9344,1.6238e-12,-2.5343e-05,-1.1891e-06,-8.9346,0.31127
12264,6.3009,4.2727,0,0.00044018,4398.8,0.00015377,0.11747,0.00013069,-173.27,-0.00044287,-4482.8,0.31056
12265,6.3931,4.1818,0,0.00043724,4369.4,0.00015333,0.094201,0.0001288,-184.21,-0.00044008,-4458.5,0.3196
12266,6.3009,4.1818,0.05,1.4564e-06,14.554,1.1183e-06,8.4025,2.4937e-12,-4.6008e-05,-1.1183e-06,-8.4026,0.31079
12267,6.3009,4.4545,0,0.00044,4397,0.00015209,0.14014,0.00013344,-140.04,-0.00044222,-4465.3,0.30995
12268,6.3931,4.3636,0,0.00043726,4369.5,0.00015181,0.11395,0.00013145,-152.85,-0.00043965,-4443.9,0.31903
12269,6.3009,4.3636,0.05,1.3492e-06,13.482,1.036e-06,7.784,2.2456e-12,-3.6007e-05,-1.036e-06,-7.7841,0.31022
12270,6.3009,4.6364,0,0.00043974,4394.4,0.00015043,0.16321,0.00013607,-107.76,-0.00044148,-4447.2,0.30925
12271,6.3931,4.5455,0,0.00043721,4369.1,0.00015027,0.13383,0.00013407,-121.63,-0.00043915,-4428.6,0.31838
12272,6.3009,4.5455,0.05,1.2283e-06,12.274,9.4316e-07,7.0866,7.126e-13,3.6195e-06,-9.4317e-07,-7.0866,0.30957
12273,6.3009,4.8182,0,0.0004394,4390.9,0.00014885,0.18687,0.00013848,-77.781,-0.00044066,-4429.2,0.30846
12274,6.3931,4.7273,0,0.00043709,4367.8,0.00014878,0.15343,0.00013653,-91.869,-0.00043857,-4413,0.31763
12275,6.3009,4.7273,0.05,1.0959e-06,10.951,8.4151e-07,6.3227,-1.1625e-12,-6.8751e-05,-8.4151e-07,-6.3229,0.30882
12276,6.3009,5,0,0.00043896,4386.5,0.00014741,0.21305,0.00014055,-51.297,-0.0004398,-4411.9,0.30757
12277,6.3931,4.9091,0,0.00043688,4365.8,0.00014738,0.17293,0.00013874,-64.743,-0.00043794,-4397.7,0.3168
12278,6.3009,4.9091,0.05,9.5509e-07,9.5443,7.3339e-07,5.5104,-2.6955e-12,-7.4413e-05,-7.334e-07,-5.5105,0.30799
12279,6.3009,5.1818,0,0.00043844,4381.3,0.00014615,0.24823,0.00014222,-29.289,-0.00043892,-4395.8,0.3066
12280,6.3931,5.0909,0,0.00043658,4362.8,0.00014613,0.19432,0.00014061,-41.271,-0.00043727,-4383.2,0.31588
12281,6.3009,5.0909,0.05,8.1007e-07,8.0951,6.2203e-07,4.6737,-1.4157e-12,-4.932e-05,-6.2204e-07,-4.6738,0.30706
12282,6.3009,5.3636,0,0.00043785,4375.5,0.00014514,0.32678,0.00014343,-12.514,-0.00043806,-4381.6,0.30553
12283,6.3931,5.2727,0,0.00043622,4359.1,0.00014507,0.2242,0.00014208,-22.255,-0.00043659,-4370.1,0.31486
12284,6.3009,5.2727,0.05,6.6652e-07,6.6606,5.118e-07,3.8454,-8.8048e-13,-7.1797e-05,-5.1181e-07,-3.8456,0.30604
12285,6.3009,5.5455,0,0.00043723,4369.3,0.00014446,0.91381,0.00014408,-1.8801,-0.00043725,-4369.8,0.30437
12286,6.3931,5.4545,0,0.00043579,4354.9,0.00014425,0.30747,0.0001431,-8.2759,-0.00043593,-4358.9,0.31375
12287,6.3009,5.4545,0.05,5.3151e-07,5.3115,4.0813e-07,3.0665,2.38e-12,-5.6255e-05,-4.0814e-07,-3.0667,0.30492
12288,6.3009,5.7273,0,0.00043665,4363.5,0.0001445,4.8062,0.00014385,-0.0914,-0.00043657,-4361.1,0.30311
12289,6.3931,5.6364,0,0.00043535,4350.5,0.00014382,1.4609,0.00014354,-0.61763,-0.00043533,-4350.1,0.31254
12290,6.3009,5.6364,0.05,3.9097e-07,3.907,3.0021e-07,2.2556,2.8651e-12,-3.4508e-05,-3.0022e-07,-2.2558,0.30371
12291,6.3931,5.8182,0,0.00043499,4346.9,0.00014396,4.9325,0.0001433,-0.025519,-0.00043491,-4344.5,0.31124
12292,6.3009,5.8182,0.05,2.2244e-07,2.2229,1.708e-07,1.2833,7.5102e-12,-8.046e-06,-1.7081e-07,-1.2835,0.3024
12293,6.3009,5.9091,0,0.00043597,4356.7,0.0001442,3.9425,0.00014368,0.068403,-0.0004359,-4354.7,0.30176
12294,6.4853,0.27273,0,0.00043369,4333.9,0.00014325,1.3401,0.00014302,-0.33853,-0.00043367,-4333.4,0.32077
12295,6.5774,0.18182,0,0.0004319,4316,0.00014275,2.6246,0.00014239,-0.085577,-0.00043185,-4314.7,0.32905
12296,6.4853,0.18182,0.05,1.0197e-07,1.019,7.8298e-08,0.58836,6.2541e-12,0.00011551,-7.8297e-08,-0.58823,0.32007
12297,6.4853,0.090909,0,0.00043332,4330.2,0.0001432,2.4782,0.00014288,0.072572,-0.00043328,-4329,0.31942
12298,6.4853,0.45455,0,0.00043391,4336.1,0.00014353,0.22759,0.00014264,-6.4002,-0.00043401,-4339.2,0.32202
12299,6.5774,0.36364,0,0.00043194,4316.4,0.00014273,0.22996,0.00014223,-3.5407,-0.000432,-4318.1,0.33034
12300,6.4853,0.36364,0.05,5.1069e-07,5.1033,3.9215e-07,2.9465,-4.711e-12,1.6017e-05,-3.9214e-07,-2.9463,0.32136
12301,6.4853,0.63636,0,0.00043415,4338.5,0.00014418,0.18099,0.00014176,-18.008,-0.00043445,-4347.4,0.32317
12302,6.5774,0.54545,0,0.00043206,4317.6,0.00014324,0.16024,0.00014148,-13.101,-0.00043227,-4324,0.33154
12303,6.4853,0.54545,0.05,6.2205e-07,6.2162,4.7766e-07,3.589,-2.2411e-12,3.8351e-05,-4.7765e-07,-3.5888,0.32256
12304,6.4853,0.81818,0,0.00043436,4340.6,0.00014505,0.16354,0.00014047,-34.246,-0.00043493,-4357.5,0.32423
12305,6.5774,0.72727,0,0.00043215,4318.5,0.00014395,0.14568,0.00014034,-26.976,-0.0004326,-4331.8,0.33264
12306,6.4853,0.72727,0.05,7.2428e-07,7.2378,5.5616e-07,4.1788,-1.194e-12,3.656e-05,-5.5615e-07,-4.1787,0.32367
12307,6.4853,1,0,0.0004345,4342,0.0001461,0.15056,0.0001388,-54.73,-0.0004354,-4369,0.3252
12308,6.5774,0.90909,0,0.00043218,4318.8,0.00014485,0.13649,0.00013885,-44.922,-0.00043292,-4341,0.33365
12309,6.4853,0.90909,0.05,8.3635e-07,8.3577,6.4221e-07,4.8254,-1.3644e-12,4.2603e-05,-6.4221e-07,-4.8253,0.32469
12310,6.4853,1.1818,0,0.00043456,4342.6,0.0001473,0.13696,0.00013679,-78.844,-0.00043585,-4381.4,0.32608
12311,6.5774,1.0909,0,0.00043214,4318.4,0.0001459,0.12642,0.00013703,-66.48,-0.00043323,-4351.2,0.33457
12312,6.4853,1.0909,0.05,9.5218e-07,9.5153,7.3116e-07,5.4937,5.2553e-13,4.3539e-05,-7.3116e-07,-5.4936,0.32561
12313,6.4853,1.3636,0,0.00043454,4342.4,0.00014862,0.12205,0.00013452,-105.76,-0.00043624,-4394.3,0.32686
12314,6.5774,1.2727,0,0.00043203,4317.3,0.00014706,0.11466,0.00013494,-90.975,-0.0004335,-4362,0.3354
12315,6.4853,1.2727,0.05,1.0662e-06,10.654,8.1869e-07,6.1514,-1.6577e-13,2.4714e-05,-8.1869e-07,-6.1513,0.32644
12316,6.4853,1.5455,0,0.00043446,4341.6,0.00014999,0.10595,0.00013208,-134.45,-0.00043658,-4407.2,0.32756
12317,6.5774,1.4545,0,0.00043185,4315.5,0.0001483,0.10125,0.00013264,-117.55,-0.00043373,-4373,0.33614
12318,6.4853,1.4545,0.05,1.1741e-06,11.733,9.016e-07,6.7743,-1.6801e-14,4.2325e-05,-9.016e-07,-6.7742,0.32718
12319,6.4853,1.7273,0,0.00043431,4340.1,0.00015137,0.089185,0.00012956,-163.79,-0.00043686,-4419.6,0.32817
12320,6.5774,1.6364,0,0.00043161,4313.1,0.00014957,0.086693,0.00013023,-145.18,-0.00043389,-4383.8,0.33679
12321,6.4853,1.6364,0.05,1.2731e-06,12.722,9.7755e-07,7.3449,5.873e-14,9.7823e-06,-9.7755e-07,-7.3449,0.32783
12322,6.4853,1.9091,0,0.00043413,4338.3,0.0001527,0.072492,0.00012706,-192.55,-0.00043708,-4431.3,0.32869
12323,6.5774,1.8182,0,0.00043133,4310.3,0.00015082,0.071668,0.00012781,-172.78,-0.00043401,-4394.1,0.33736
12324,6.4853,1.8182,0.05,1.3609e-06,13.599,1.045e-06,7.8515,-1.4567e-13,1.0377e-05,-1.045e-06,-7.8514,0.3284
12325,6.4853,2.0909,0,0.00043392,4336.2,0.00015393,0.056671,0.00012471,-219.48,-0.00043724,-4441.8,0.32913
12326,6.5774,2,0,0.00043104,4307.4,0.000152,0.056937,0.00012548,-199.19,-0.00043408,-4403.5,0.33784
12327,6.4853,2,0.05,1.4363e-06,14.353,1.1029e-06,8.2867,-1.177e-13,2.1623e-05,-1.1029e-06,-8.2866,0.32888
12328,6.4853,2.2727,0,0.00043372,4334.2,0.00015502,0.042517,0.00012262,-243.4,-0.00043735,-4450.8,0.32949
12329,6.5774,2.1818,0,0.00043075,4304.5,0.00015307,0.043277,0.00012334,-223.28,-0.00043411,-4411.8,0.33824
12330,6.4853,2.1818,0.05,1.4988e-06,14.977,1.1509e-06,8.6471,1.1757e-12,1.3512e-05,-1.1509e-06,-8.6471,0.32928
12331,6.4853,2.4545,0,0.00043355,4332.5,0.00015591,0.030739,0.00012088,-263.24,-0.00043743,-4458.1,0.32977
12332,6.5774,2.3636,0,0.00043049,4301.9,0.00015398,0.03141,0.0001215,-243.99,-0.00043412,-4418.7,0.33855
12333,6.4853,2.3636,0.05,1.5482e-06,15.471,1.1888e-06,8.9324,3.134e-13,1.2434e-05,-1.1888e-06,-8.9324,0.3296
12334,6.4853,2.6364,0,0.00043341,4331.1,0.00015658,0.021912,0.00011957,-278.1,-0.00043747,-4463.5,0.32996
12335,6.5774,2.5455,0,0.00043028,4299.8,0.0001547,0.021956,0.00012004,-260.4,-0.00043411,-4424.1,0.33879
12336,6.4853,2.5455,0.05,1.5849e-06,15.838,1.217e-06,9.1438,-3.825e-13,1.0323e-05,-1.217e-06,-9.1438,0.32984
12337,6.4853,2.8182,0,0.00043332,4330.3,0.00015699,0.016451,0.00011875,-287.29,-0.0004375,-4466.7,0.33008
12338,6.5774,2.7273,0,0.00043013,4298.3,0.00015519,0.015386,0.00011902,-271.77,-0.0004341,-4427.7,0.33895
12339,6.4853,2.7273,0.05,1.609e-06,16.079,1.2355e-06,9.2832,1.2935e-13,6.5379e-06,-1.2355e-06,-9.2832,0.32999
12340,6.4853,3,0,0.00043329,4330,0.00015713,0.014603,0.00011848,-290.41,-0.0004375,-4467.8,0.33012
12341,6.5774,2.9091,0,0.00043005,4297.5,0.00015544,0.012021,0.0001185,-277.58,-0.0004341,-4429.6,0.33903
12342,6.4853,2.9091,0.05,1.621e-06,16.199,1.2447e-06,9.3524,1.5582e-12,8.596e-06,-1.2447e-06,-9.3525,0.33007
12343,6.4853,3.1818,0,0.00043332,4330.3,0.00015699,0.016451,0.00011875,-287.29,-0.0004375,-4466.7,0.33008
12344,6.5774,3.0909,0,0.00043005,4297.5,0.00015544,0.012021,0.0001185,-277.58,-0.0004341,-4429.6,0.33903
12345,6.4853,3.0909,0.05,1.621e-06,16.199,1.2447e-06,9.3524,1.1677e-12,6.5002e-06,-1.2447e-06,-9.3525,0.33007
12346,6.4853,3.3636,0,0.00043341,4331.1,0.00015658,0.021912,0.00011957,-278.1,-0.00043747,-4463.5,0.32996
12347,6.5774,3.2727,0,0.00043013,4298.3,0.00015519,0.015386,0.00011902,-271.77,-0.0004341,-4427.7,0.33895
12348,6.4853,3.2727,0.05,1.609e-06,16.079,1.2355e-06,9.2832,2.5241e-12,6.1978e-07,-1.2355e-06,-9.2833,0.32999
12349,6.4853,3.5455,0,0.00043355,4332.5,0.00015591,0.030739,0.00012088,-263.24,-0.00043743,-4458.1,0.32977
12350,6.5774,3.4545,0,0.00043028,4299.8,0.0001547,0.021956,0.00012004,-260.4,-0.00043411,-4424.1,0.33879
12351,6.4853,3.4545,0.05,1.5849e-06,15.838,1.217e-06,9.1438,1.2944e-12,2.0071e-06,-1.217e-06,-9.1438,0.32984
12352,6.4853,3.7273,0,0.00043372,4334.3,0.00015502,0.042516,0.00012262,-243.4,-0.00043735,-4450.8,0.32949
12353,6.5774,3.6364,0,0.00043049,4301.9,0.00015398,0.03141,0.0001215,-243.99,-0.00043412,-4418.7,0.33855
12354,6.4853,3.6364,0.05,1.5482e-06,15.471,1.1888e-06,8.9324,2.281e-12,-3.7608e-06,-1.1888e-06,-8.9325,0.3296
12355,6.4853,3.9091,0,0.00043392,4336.2,0.00015393,0.056671,0.00012471,-219.48,-0.00043724,-4441.8,0.32913
12356,6.5774,3.8182,0,0.00043075,4304.5,0.00015307,0.043277,0.00012334,-223.28,-0.00043411,-4411.8,0.33824
12357,6.4853,3.8182,0.05,1.4988e-06,14.977,1.1509e-06,8.647,1.7217e-12,-1.506e-05,-1.1509e-06,-8.6472,0.32928
12358,6.4853,4.0909,0,0.00043413,4338.3,0.0001527,0.072491,0.00012706,-192.55,-0.00043708,-4431.3,0.32869
12359,6.5774,4,0,0.00043104,4307.4,0.000152,0.056937,0.00012548,-199.19,-0.00043408,-4403.5,0.33784
12360,6.4853,4,0.05,1.4363e-06,14.353,1.1029e-06,8.2866,5.9414e-13,-1.989e-05,-1.1029e-06,-8.2867,0.32888
12361,6.4853,4.2727,0,0.00043431,4340.1,0.00015137,0.089184,0.00012956,-163.79,-0.00043686,-4419.6,0.32817
12362,6.5774,4.1818,0,0.00043133,4310.3,0.00015082,0.071668,0.00012781,-172.78,-0.00043401,-4394.1,0.33736
12363,6.4853,4.1818,0.05,1.3609e-06,13.599,1.045e-06,7.8514,2.3506e-12,-1.3076e-06,-1.045e-06,-7.8515,0.3284
12364,6.4853,4.4545,0,0.00043446,4341.6,0.00014999,0.10595,0.00013208,-134.45,-0.00043658,-4407.2,0.32756
12365,6.5774,4.3636,0,0.00043161,4313.1,0.00014957,0.086693,0.00013023,-145.18,-0.00043389,-4383.8,0.33679
12366,6.4853,4.3636,0.05,1.2731e-06,12.722,9.7754e-07,7.3449,-9.2644e-13,-2.8603e-05,-9.7756e-07,-7.345,0.32783
12367,6.4853,4.6364,0,0.00043454,4342.4,0.00014862,0.12205,0.00013452,-105.76,-0.00043624,-4394.3,0.32686
12368,6.5774,4.5455,0,0.00043185,4315.5,0.0001483,0.10125,0.00013264,-117.55,-0.00043373,-4373,0.33614
12369,6.4853,4.5455,0.05,1.1741e-06,11.733,9.016e-07,6.7742,2.2972e-12,-3.0761e-05,-9.016e-07,-6.7743,0.32718
12370,6.4853,4.8182,0,0.00043456,4342.6,0.0001473,0.13695,0.00013679,-78.844,-0.00043585,-4381.4,0.32608
12371,6.5774,4.7273,0,0.00043203,4317.3,0.00014706,0.11465,0.00013494,-90.975,-0.0004335,-4362,0.3354
12372,6.4853,4.7273,0.05,1.0662e-06,10.654,8.1869e-07,6.1513,-1.0013e-12,-1.4601e-05,-8.187e-07,-6.1514,0.32644
12373,6.4853,5,0,0.0004345,4342,0.0001461,0.15056,0.0001388,-54.73,-0.0004354,-4369,0.3252
12374,6.5774,4.9091,0,0.00043214,4318.4,0.0001459,0.12642,0.00013703,-66.48,-0.00043323,-4351.2,0.33457
12375,6.4853,4.9091,0.05,9.5218e-07,9.5153,7.3115e-07,5.4935,-1.7626e-12,-5.337e-05,-7.3116e-07,-5.4937,0.32561
12376,6.4853,5.1818,0,0.00043436,4340.6,0.00014505,0.16355,0.00014047,-34.246,-0.00043493,-4357.5,0.32423
12377,6.5774,5.0909,0,0.00043218,4318.8,0.00014485,0.13648,0.00013885,-44.922,-0.00043292,-4341,0.33365
12378,6.4853,5.0909,0.05,8.3635e-07,8.3577,6.4221e-07,4.8252,3.3621e-12,-3.2382e-05,-6.4221e-07,-4.8254,0.32469
12379,6.4853,5.3636,0,0.00043415,4338.5,0.00014418,0.18099,0.00014176,-18.008,-0.00043445,-4347.4,0.32317
12380,6.5774,5.2727,0,0.00043215,4318.5,0.00014395,0.14568,0.00014034,-26.976,-0.0004326,-4331.8,0.33264
12381,6.4853,5.2727,0.05,7.2428e-07,7.2378,5.5615e-07,4.1786,2.3631e-12,-4.4154e-05,-5.5616e-07,-4.1788,0.32367
12382,6.4853,5.5455,0,0.00043391,4336.1,0.00014353,0.22759,0.00014264,-6.4002,-0.00043401,-4339.2,0.32202
12383,6.5774,5.4545,0,0.00043206,4317.6,0.00014324,0.16024,0.00014148,-13.101,-0.00043227,-4324,0.33154
12384,6.4853,5.4545,0.05,6.2205e-07,6.2162,4.7765e-07,3.5888,4.3349e-12,-3.1694e-05,-4.7766e-07,-3.589,0.32256
12385,6.4853,5.7273,0,0.00043369,4333.9,0.00014325,1.3401,0.00014302,-0.33853,-0.00043367,-4333.4,0.32077
12386,6.5774,5.6364,0,0.00043194,4316.4,0.00014273,0.22996,0.00014223,-3.5407,-0.000432,-4318.1,0.33034
12387,6.4853,5.6364,0.05,5.1069e-07,5.1033,3.9214e-07,2.9463,5.2187e-12,-1.101e-05,-3.9215e-07,-2.9465,0.32136
12388,6.5774,5.8182,0,0.0004319,4316,0.00014275,2.6246,0.00014239,-0.085578,-0.00043185,-4314.7,0.32905
12389,6.4853,5.8182,0.05,1.0197e-07,1.019,7.8295e-08,0.58823,-1.0033e-11,-0.00011445,-7.83e-08,-0.58836,0.32007
12390,6.4853,5.9091,0,0.00043332,4330.2,0.0001432,2.4782,0.00014288,0.072571,-0.00043328,-4329,0.31942
12391,6.6696,0.27273,0,0.00043014,4298.5,0.00014207,0.23576,0.00014176,-2.0476,-0.00043017,-4299.4,0.33872
12392,6.7618,0.18182,0,0.00042825,4279.5,0.00014143,1.0686,0.00014125,-0.28233,-0.00042823,-4279.1,0.34715
12393,6.6696,0.18182,0.05,9.443e-08,0.94365,7.2505e-08,0.54482,1.5126e-11,0.00016156,-7.2516e-08,-0.5448,0.33803
12394,6.6696,0.090909,0,0.00043002,4297.2,0.00014202,1.3896,0.00014184,0.069887,-0.00043,-4296.5,0.33739
12395,6.6696,0.45455,0,0.00043008,4297.9,0.00014244,0.12627,0.00014107,-10.222,-0.00043026,-4302.9,0.33996
12396,6.7618,0.36364,0,0.00042805,4277.5,0.00014159,0.12159,0.0001407,-6.5407,-0.00042816,-4280.7,0.34843
12397,6.6696,0.36364,0.05,6.0706e-07,6.0664,4.6615e-07,3.5026,-5.4985e-12,1.6479e-05,-4.6614e-07,-3.5023,0.33931
12398,6.6696,0.63636,0,0.00043004,4297.5,0.00014302,0.11941,0.00014006,-22.081,-0.00043041,-4308.4,0.3411
12399,6.7618,0.54545,0,0.00042791,4276.2,0.00014205,0.10491,0.00013981,-16.692,-0.00042819,-4284.5,0.34962
12400,6.6696,0.54545,0.05,6.9891e-07,6.9842,5.3668e-07,4.0324,-3.7463e-12,1.8146e-05,-5.3667e-07,-4.0323,0.3405
12401,6.6696,0.81818,0,0.00042996,4296.7,0.00014376,0.11602,0.00013873,-37.667,-0.00043059,-4315.3,0.34216
12402,6.7618,0.72727,0,0.00042775,4274.6,0.00014266,0.1036,0.00013862,-30.282,-0.00042826,-4289.6,0.35072
12403,6.6696,0.72727,0.05,7.7683e-07,7.763,5.9651e-07,4.4821,-3.5428e-12,3.6454e-05,-5.9651e-07,-4.4819,0.3416
12404,6.6696,1,0,0.00042982,4295.2,0.00014465,0.11058,0.00013709,-56.688,-0.00043075,-4323.2,0.34312
12405,6.7618,0.90909,0,0.00042754,4272.4,0.00014343,0.10033,0.00013714,-47.158,-0.00042832,-4295.8,0.35172
12406,6.6696,0.90909,0.05,8.6361e-07,8.6301,6.6315e-07,4.9827,-3.1651e-13,4.4116e-05,-6.6314e-07,-4.9825,0.34261
12407,6.6696,1.1818,0,0.00042961,4293.1,0.00014566,0.1027,0.00013518,-78.626,-0.00043089,-4331.8,0.34399
12408,6.7618,1.0909,0,0.00042726,4269.7,0.00014431,0.094943,0.00013538,-66.938,-0.00042836,-4302.7,0.35264
12409,6.6696,1.0909,0.05,9.5494e-07,9.5428,7.3328e-07,5.5096,8.3472e-13,4.7809e-05,-7.3328e-07,-5.5095,0.34353
12410,6.6696,1.3636,0,0.00042933,4290.3,0.00014675,0.092626,0.00013306,-102.78,-0.00043098,-4340.7,0.34477
12411,6.7618,1.2727,0,0.00042692,4266.2,0.00014528,0.087165,0.00013341,-89.053,-0.00042836,-4310,0.35346
12412,6.6696,1.2727,0.05,1.046e-06,10.453,8.0323e-07,6.0352,-1.4597e-12,2.027e-05,-8.0323e-07,-6.0351,0.34436
12413,6.6696,1.5455,0,0.000429,4287,0.00014788,0.080888,0.0001308,-128.29,-0.00043103,-4349.7,0.34547
12414,6.7618,1.4545,0,0.00042652,4262.3,0.00014631,0.077489,0.00013129,-112.77,-0.00042833,-4317.5,0.3542
12415,6.6696,1.4545,0.05,1.1331e-06,11.323,8.7007e-07,6.5374,-1.188e-12,3.381e-05,-8.7007e-07,-6.5373,0.34509
12416,6.6696,1.7273,0,0.00042863,4283.3,0.00014902,0.068152,0.00012849,-154.18,-0.00043104,-4358.3,0.34608
12417,6.7618,1.6364,0,0.00042609,4257.9,0.00014736,0.06648,0.00012908,-137.25,-0.00042826,-4324.9,0.35485
12418,6.6696,1.6364,0.05,1.2133e-06,12.125,9.3166e-07,7.0001,-1.11e-12,9.4361e-06,-9.3166e-07,-7.0001,0.34574
12419,6.6696,1.9091,0,0.00042824,4279.4,0.00015012,0.055151,0.00012623,-179.43,-0.00043101,-4366.3,0.3466
12420,6.7618,1.8182,0,0.00042563,4253.4,0.00014839,0.054809,0.00012688,-161.54,-0.00042815,-4331.8,0.35541
12421,6.6696,1.8182,0.05,1.2847e-06,12.838,9.865e-07,7.4122,-1.2529e-12,1.2672e-05,-9.865e-07,-7.4122,0.34631
12422,6.6696,2.0909,0,0.00042786,4275.7,0.00015113,0.042626,0.00012411,-203,-0.00043095,-4373.5,0.34704
12423,6.7618,2,0,0.00042518,4248.9,0.00014936,0.04317,0.00012478,-184.68,-0.00042802,-4338.2,0.35589
12424,6.6696,2,0.05,1.3462e-06,13.452,1.0337e-06,7.7669,-5.1592e-13,3.7421e-05,-1.0337e-06,-7.7667,0.34679
12425,6.6696,2.2727,0,0.00042751,4272.2,0.00015203,0.031291,0.00012223,-223.87,-0.00043088,-4379.7,0.34739
12426,6.7618,2.1818,0,0.00042476,4244.7,0.00015024,0.03225,0.00012286,-205.72,-0.00042789,-4343.8,0.35629
12427,6.6696,2.1818,0.05,1.3971e-06,13.961,1.0728e-06,8.0607,-9.5741e-13,1.9842e-05,-1.0728e-06,-8.0606,0.34719
12428,6.6696,2.4545,0,0.00042722,4269.2,0.00015276,0.021776,0.00012066,-241.15,-0.00043081,-4384.7,0.34767
12429,6.7618,2.3636,0,0.00042439,4241,0.00015099,0.022682,0.00012121,-223.76,-0.00042776,-4348.4,0.35661
12430,6.6696,2.3636,0.05,1.4374e-06,14.364,1.1037e-06,8.293,3.891e-14,8.6307e-06,-1.1037e-06,-8.293,0.3475
12431,6.6696,2.6364,0,0.00042699,4267,0.00015331,0.014599,0.00011949,-254.07,-0.00043075,-4388.3,0.34787
12432,6.7618,2.5455,0,0.0004241,4238,0.00015158,0.015008,0.0001199,-238.04,-0.00042764,-4352,0.35684
12433,6.6696,2.5455,0.05,1.4672e-06,14.662,1.1266e-06,8.4649,5.4526e-13,9.944e-06,-1.1266e-06,-8.465,0.34774
12434,6.6696,2.8182,0,0.00042685,4265.6,0.00015364,0.010139,0.00011876,-262.06,-0.0004307,-4390.5,0.34798
12435,6.7618,2.7273,0,0.00042389,4236,0.00015198,0.0096503,0.00011899,-247.92,-0.00042756,-4354.5,0.357
12436,6.6696,2.7273,0.05,1.4868e-06,14.858,1.1417e-06,8.5782,6.099e-13,9.4517e-06,-1.1417e-06,-8.5782,0.3479
12437,6.6696,3,0,0.0004268,4265.1,0.00015376,0.0086261,0.00011852,-264.76,-0.00043069,-4391.3,0.34802
12438,6.7618,2.9091,0,0.00042378,4234.9,0.00015219,0.0068983,0.00011852,-252.97,-0.00042752,-4355.7,0.35708
12439,6.6696,2.9091,0.05,1.4965e-06,14.955,1.1492e-06,8.6343,5.2226e-13,7.7337e-06,-1.1492e-06,-8.6343,0.34798
12440,6.6696,3.1818,0,0.00042685,4265.6,0.00015364,0.010139,0.00011876,-262.06,-0.0004307,-4390.5,0.34798
12441,6.7618,3.0909,0,0.00042378,4234.9,0.00015219,0.0068983,0.00011852,-252.97,-0.00042752,-4355.7,0.35708
12442,6.6696,3.0909,0.05,1.4965e-06,14.955,1.1492e-06,8.6343,2.2088e-12,7.5516e-06,-1.1492e-06,-8.6343,0.34798
12443,6.6696,3.3636,0,0.00042699,4267,0.00015331,0.014599,0.00011949,-254.07,-0.00043075,-4388.3,0.34787
12444,6.7618,3.2727,0,0.00042389,4236,0.00015198,0.0096503,0.00011899,-247.92,-0.00042756,-4354.5,0.357
12445,6.6696,3.2727,0.05,1.4868e-06,14.858,1.1417e-06,8.5781,1.1566e-12,3.4349e-06,-1.1417e-06,-8.5782,0.3479
12446,6.6696,3.5455,0,0.00042722,4269.2,0.00015276,0.021776,0.00012066,-241.15,-0.00043081,-4384.7,0.34767
12447,6.7618,3.4545,0,0.0004241,4238,0.00015158,0.015008,0.0001199,-238.04,-0.00042764,-4352,0.35684
12448,6.6696,3.4545,0.05,1.4672e-06,14.662,1.1266e-06,8.465,2.8922e-12,-1.4904e-06,-1.1266e-06,-8.4649,0.34774
12449,6.6696,3.7273,0,0.00042751,4272.2,0.00015203,0.031291,0.00012223,-223.87,-0.00043088,-4379.7,0.34739
12450,6.7618,3.6364,0,0.00042439,4241,0.00015099,0.022682,0.00012121,-223.76,-0.00042776,-4348.4,0.35661
12451,6.6696,3.6364,0.05,1.4374e-06,14.364,1.1037e-06,8.293,1.7203e-12,-1.2821e-06,-1.1037e-06,-8.293,0.3475
12452,6.6696,3.9091,0,0.00042786,4275.7,0.00015113,0.042626,0.00012411,-203,-0.00043095,-4373.5,0.34704
12453,6.7618,3.8182,0,0.00042476,4244.7,0.00015024,0.03225,0.00012286,-205.72,-0.00042789,-4343.8,0.35629
12454,6.6696,3.8182,0.05,1.3971e-06,13.961,1.0728e-06,8.0605,2.9951e-12,-1.5564e-05,-1.0728e-06,-8.0607,0.34719
12455,6.6696,4.0909,0,0.00042824,4279.4,0.00015012,0.05515,0.00012623,-179.43,-0.00043101,-4366.3,0.3466
12456,6.7618,4,0,0.00042518,4248.9,0.00014936,0.04317,0.00012478,-184.68,-0.00042802,-4338.2,0.35589
12457,6.6696,4,0.05,1.3462e-06,13.452,1.0337e-06,7.7667,2.1551e-12,-2.1954e-05,-1.0337e-06,-7.7669,0.34679
12458,6.6696,4.2727,0,0.00042863,4283.3,0.00014902,0.068152,0.00012849,-154.18,-0.00043104,-4358.3,0.34608
12459,6.7618,4.1818,0,0.00042563,4253.4,0.00014839,0.054809,0.00012688,-161.54,-0.00042815,-4331.8,0.35541
12460,6.6696,4.1818,0.05,1.2847e-06,12.838,9.865e-07,7.4122,1.9215e-12,1.4934e-07,-9.865e-07,-7.4122,0.34631
12461,6.6696,4.4545,0,0.000429,4287,0.00014788,0.080887,0.0001308,-128.29,-0.00043103,-4349.7,0.34547
12462,6.7618,4.3636,0,0.00042609,4257.9,0.00014736,0.06648,0.00012908,-137.25,-0.00042826,-4324.9,0.35485
12463,6.6696,4.3636,0.05,1.2133e-06,12.125,9.3165e-07,7,2.6418e-12,-3.1473e-05,-9.3166e-07,-7.0002,0.34574
12464,6.6696,4.6364,0,0.00042933,4290.3,0.00014675,0.092626,0.00013306,-102.78,-0.00043098,-4340.7,0.34477
12465,6.7618,4.5455,0,0.00042652,4262.3,0.00014631,0.077489,0.00013129,-112.77,-0.00042833,-4317.5,0.3542
12466,6.6696,4.5455,0.05,1.1331e-06,11.323,8.7007e-07,6.5373,1.9842e-12,-2.308e-05,-8.7007e-07,-6.5374,0.34509
12467,6.6696,4.8182,0,0.00042961,4293.1,0.00014566,0.1027,0.00013518,-78.626,-0.00043089,-4331.8,0.34399
12468,6.7618,4.7273,0,0.00042692,4266.2,0.00014528,0.087164,0.00013342,-89.052,-0.00042836,-4310,0.35346
12469,6.6696,4.7273,0.05,1.046e-06,10.453,8.0322e-07,6.0351,6.3957e-13,-9.8392e-06,-8.0323e-07,-6.0352,0.34436
12470,6.6696,5,0,0.00042982,4295.2,0.00014465,0.11058,0.00013709,-56.688,-0.00043075,-4323.2,0.34312
12471,6.7618,4.9091,0,0.00042726,4269.7,0.00014431,0.094942,0.00013538,-66.938,-0.00042836,-4302.7,0.35264
12472,6.6696,4.9091,0.05,9.5494e-07,9.5428,7.3328e-07,5.5095,2.7734e-12,-3.7777e-05,-7.3328e-07,-5.5097,0.34353
12473,6.6696,5.1818,0,0.00042996,4296.7,0.00014376,0.11602,0.00013873,-37.667,-0.00043059,-4315.3,0.34216
12474,6.7618,5.0909,0,0.00042754,4272.4,0.00014343,0.10033,0.00013714,-47.158,-0.00042832,-4295.8,0.35172
12475,6.6696,5.0909,0.05,8.6361e-07,8.6301,6.6314e-07,4.9825,1.8871e-12,-3.5583e-05,-6.6315e-07,-4.9827,0.34261
12476,6.6696,5.3636,0,0.00043004,4297.5,0.00014302,0.11941,0.00014006,-22.081,-0.00043041,-4308.4,0.3411
12477,6.7618,5.2727,0,0.00042775,4274.6,0.00014266,0.1036,0.00013862,-30.282,-0.00042826,-4289.6,0.35072
12478,6.6696,5.2727,0.05,7.7683e-07,7.763,5.9651e-07,4.4819,2.914e-12,-2.9845e-05,-5.9652e-07,-4.4821,0.3416
12479,6.6696,5.5455,0,0.00043008,4297.9,0.00014244,0.12627,0.00014107,-10.222,-0.00043026,-4302.9,0.33996
12480,6.7618,5.4545,0,0.00042791,4276.2,0.00014205,0.10491,0.00013981,-16.692,-0.00042819,-4284.5,0.34962
12481,6.6696,5.4545,0.05,6.9891e-07,6.9842,5.3667e-07,4.0323,5.3842e-12,-1.3081e-05,-5.3668e-07,-4.0324,0.3405
12482,6.6696,5.7273,0,0.00043014,4298.5,0.00014207,0.23576,0.00014176,-2.0476,-0.00043017,-4299.4,0.33872
12483,6.7618,5.6364,0,0.00042805,4277.5,0.00014159,0.12159,0.0001407,-6.5407,-0.00042816,-4280.7,0.34843
12484,6.6696,5.6364,0.05,6.0706e-07,6.0664,4.6614e-07,3.5023,5.1664e-12,-1.154e-05,-4.6616e-07,-3.5026,0.33931
12485,6.7618,5.8182,0,0.00042825,4279.5,0.00014143,1.0686,0.00014125,-0.28233,-0.00042823,-4279.1,0.34715
12486,6.6696,5.8182,0.05,9.443e-08,0.94365,7.2516e-08,0.5448,-1.7985e-11,-0.00021171,-7.2505e-08,-0.54483,0.33803
12487,6.6696,5.9091,0,0.00043002,4297.2,0.00014202,1.3896,0.00014184,0.069886,-0.00043,-4296.5,0.33739
12488,6.854,0.27273,0,0.00042615,4258.5,0.00014084,0.12739,0.00014029,-3.9901,-0.00042621,-4260.5,0.35696
12489,6.9462,0.18182,0,0.00042418,4238.8,0.00014006,0.41383,0.00013989,-0.86365,-0.00042418,-4239.1,0.36555
12490,6.854,0.18182,0.05,1.5125e-07,1.5114,1.1614e-07,0.87267,7.6987e-12,8.606e-05,-1.1614e-07,-0.87257,0.35628
12491,6.854,0.090909,0,0.00042621,4259.2,0.0001407,0.63738,0.00014062,0.042208,-0.0004262,-4258.8,0.35564
12492,6.854,0.45455,0,0.00042588,4255.8,0.00014119,0.089981,0.00013945,-13.018,-0.00042609,-4262.3,0.35819
12493,6.9462,0.36364,0,0.00042379,4235,0.00014029,0.091293,0.00013912,-8.7355,-0.00042393,-4239.3,0.36682
12494,6.854,0.36364,0.05,6.827e-07,6.8223,5.2423e-07,3.939,-4.0805e-12,1.2455e-05,-5.2422e-07,-3.9387,0.35755
12495,6.854,0.63636,0,0.00042562,4253.3,0.00014169,0.0865,0.00013837,-24.909,-0.00042604,-4265.6,0.35933
12496,6.9462,0.54545,0,0.00042346,4231.7,0.0001407,0.076524,0.00013813,-19.191,-0.00042379,-4241.2,0.368
12497,6.854,0.54545,0.05,7.6105e-07,7.6052,5.844e-07,4.391,-2.9428e-12,1.4297e-05,-5.8438e-07,-4.3908,0.35874
12498,6.854,0.81818,0,0.00042532,4250.3,0.00014233,0.086539,0.00013702,-39.79,-0.00042599,-4270,0.36038
12499,6.9462,0.72727,0,0.00042312,4228.2,0.00014124,0.078111,0.00013691,-32.389,-0.00042366,-4244.3,0.36909
12500,6.854,0.72727,0.05,8.2106e-07,8.205,6.3048e-07,4.7372,-2.7641e-12,2.7384e-05,-6.3047e-07,-4.737,0.35983
12501,6.854,1,0,0.00042498,4246.8,0.00014308,0.08368,0.00013543,-57.425,-0.00042592,-4275.2,0.36133
12502,6.9462,0.90909,0,0.00042272,4224.3,0.00014189,0.076327,0.00013546,-48.218,-0.00042352,-4248.2,0.37008
12503,6.854,0.90909,0.05,8.8818e-07,8.8757,6.8202e-07,5.1244,-3.7473e-12,1.2629e-05,-6.8201e-07,-5.1243,0.36083
12504,6.854,1.1818,0,0.00042457,4242.8,0.00014393,0.078531,0.00013362,-77.379,-0.00042583,-4280.9,0.3622
12505,6.9462,1.0909,0,0.00042227,4219.8,0.00014263,0.072912,0.00013379,-66.358,-0.00042336,-4252.6,0.37099
12506,6.854,1.0909,0.05,9.5976e-07,9.5909,7.3698e-07,5.5374,-2.3633e-12,1.5574e-05,-7.3697e-07,-5.5373,0.36174
12507,6.854,1.3636,0,0.00042411,4238.2,0.00014484,0.071231,0.00013165,-99.059,-0.00042571,-4286.8,0.36298
12508,6.9462,1.2727,0,0.00042177,4214.8,0.00014345,0.067283,0.00013195,-86.328,-0.00042317,-4257.3,0.37181
12509,6.854,1.2727,0.05,1.032e-06,10.312,7.9242e-07,5.954,4.5589e-13,1.5685e-05,-7.9242e-07,-5.9539,0.36256
12510,6.854,1.5455,0,0.00042361,4233.2,0.00014578,0.062328,0.00012957,-121.74,-0.00042555,-4292.7,0.36367
12511,6.9462,1.4545,0,0.00042123,4209.4,0.0001443,0.059953,0.00012999,-107.51,-0.00042296,-4262.1,0.37255
12512,6.854,1.4545,0.05,1.1016e-06,11.008,8.4588e-07,6.3556,-2.8829e-12,2.7373e-05,-8.4587e-07,-6.3555,0.3633
12513,6.854,1.7273,0,0.00042309,4228,0.00014673,0.052418,0.00012747,-144.61,-0.00042537,-4298.4,0.36428
12514,6.9462,1.6364,0,0.00042067,4203.8,0.00014518,0.051383,0.00012797,-129.2,-0.00042272,-4266.9,0.37319
12515,6.854,1.6364,0.05,1.1661e-06,11.653,8.9546e-07,6.7281,-6.0562e-13,1.9664e-05,-8.9545e-07,-6.728,0.36395
12516,6.854,1.9091,0,0.00042258,4222.8,0.00014763,0.042133,0.00012543,-166.79,-0.00042517,-4303.7,0.3648
12517,6.9462,1.8182,0,0.0004201,4198.1,0.00014603,0.042151,0.00012598,-150.59,-0.00042246,-4271.4,0.37376
12518,6.854,1.8182,0.05,1.2239e-06,12.231,9.3981e-07,7.0615,3.8359e-15,1.873e-05,-9.3982e-07,-7.0614,0.36451
12519,6.854,2.0909,0,0.00042208,4217.9,0.00014847,0.032117,0.00012352,-187.4,-0.00042496,-4308.5,0.36524
12520,6.9462,2,0,0.00041956,4192.7,0.00014683,0.032846,0.00012409,-170.88,-0.0004222,-4275.5,0.37423
12521,6.854,2,0.05,1.2738e-06,12.729,9.7812e-07,7.3492,-7.628e-14,1.1074e-05,-9.7812e-07,-7.3492,0.36499
12522,6.854,2.2727,0,0.00042164,4213.5,0.0001492,0.022979,0.00012184,-205.61,-0.00042476,-4312.5,0.36559
12523,6.9462,2.1818,0,0.00041905,4187.6,0.00014756,0.024047,0.00012237,-189.25,-0.00042195,-4279,0.37463
12524,6.854,2.1818,0.05,1.3152e-06,13.143,1.0099e-06,7.5882,1.6332e-12,8.3935e-06,-1.0099e-06,-7.5882,0.36539
12525,6.854,2.4545,0,0.00042127,4209.8,0.00014981,0.015264,0.00012044,-220.65,-0.00042459,-4315.8,0.36587
12526,6.9462,2.3636,0,0.00041862,4183.3,0.00014817,0.016294,0.00012089,-204.98,-0.00042173,-4282,0.37495
12527,6.854,2.3636,0.05,1.348e-06,13.471,1.0351e-06,7.7775,-9.6448e-13,7.6828e-06,-1.0351e-06,-7.7774,0.3657
12528,6.854,2.6364,0,0.00042099,4207,0.00015026,0.0094188,0.00011939,-231.88,-0.00042446,-4318.2,0.36606
12529,6.9462,2.5455,0,0.00041827,4179.8,0.00014866,0.010048,0.00011972,-217.39,-0.00042155,-4284.3,0.37518
12530,6.854,2.5455,0.05,1.3723e-06,13.714,1.0538e-06,7.9176,-7.7713e-13,8.2462e-06,-1.0538e-06,-7.9175,0.36594
12531,6.854,2.8182,0,0.00042082,4205.3,0.00015053,0.0057749,0.00011875,-238.82,-0.00042437,-4319.6,0.36618
12532,6.9462,2.7273,0,0.00041803,4177.4,0.00014899,0.0056739,0.00011892,-225.98,-0.00042142,-4285.8,0.37534
12533,6.854,2.7273,0.05,1.3883e-06,13.873,1.066e-06,8.0098,3.2048e-13,9.1756e-06,-1.066e-06,-8.0098,0.3661
12534,6.854,3,0,0.00042076,4204.7,0.00015063,0.0045374,0.00011853,-241.17,-0.00042435,-4320.1,0.36622
12535,6.9462,2.9091,0,0.00041791,4176.2,0.00014916,0.0034226,0.0001185,-230.36,-0.00042135,-4286.6,0.37542
12536,6.854,2.9091,0.05,1.3962e-06,13.953,1.0721e-06,8.0556,1.3259e-12,6.9757e-06,-1.0721e-06,-8.0556,0.36617
12537,6.854,3.1818,0,0.00042082,4205.3,0.00015053,0.0057749,0.00011875,-238.82,-0.00042437,-4319.6,0.36618
12538,6.9462,3.0909,0,0.00041791,4176.2,0.00014916,0.0034225,0.0001185,-230.36,-0.00042135,-4286.6,0.37542
12539,6.854,3.0909,0.05,1.3962e-06,13.953,1.0721e-06,8.0555,1.3968e-12,4.4274e-06,-1.0721e-06,-8.0556,0.36617
12540,6.854,3.3636,0,0.00042099,4207,0.00015026,0.0094187,0.00011939,-231.88,-0.00042446,-4318.2,0.36606
12541,6.9462,3.2727,0,0.00041803,4177.4,0.00014899,0.0056741,0.00011892,-225.98,-0.00042142,-4285.8,0.37534
12542,6.854,3.2727,0.05,1.3883e-06,13.873,1.066e-06,8.0098,1.5237e-12,1.2255e-08,-1.066e-06,-8.0098,0.3661
12543,6.854,3.5455,0,0.00042127,4209.8,0.00014981,0.015264,0.00012044,-220.65,-0.00042459,-4315.8,0.36587
12544,6.9462,3.4545,0,0.00041827,4179.8,0.00014866,0.010048,0.00011972,-217.39,-0.00042155,-4284.3,0.37518
12545,6.854,3.4545,0.05,1.3723e-06,13.714,1.0538e-06,7.9175,1.5915e-12,3.4594e-07,-1.0538e-06,-7.9176,0.36594
12546,6.854,3.7273,0,0.00042164,4213.5,0.0001492,0.022979,0.00012184,-205.61,-0.00042476,-4312.5,0.36559
12547,6.9462,3.6364,0,0.00041862,4183.3,0.00014817,0.016293,0.00012089,-204.98,-0.00042173,-4282,0.37495
12548,6.854,3.6364,0.05,1.348e-06,13.471,1.0351e-06,7.7774,1.8686e-12,-2.7855e-06,-1.0351e-06,-7.7775,0.3657
12549,6.854,3.9091,0,0.00042208,4217.9,0.00014847,0.032117,0.00012352,-187.4,-0.00042496,-4308.5,0.36524
12550,6.9462,3.8182,0,0.00041905,4187.6,0.00014756,0.024047,0.00012237,-189.25,-0.00042195,-4279,0.37463
12551,6.854,3.8182,0.05,1.3152e-06,13.143,1.0099e-06,7.5882,-1.5922e-12,-4.3605e-06,-1.0099e-06,-7.5883,0.36539
12552,6.854,4.0909,0,0.00042258,4222.8,0.00014763,0.042133,0.00012543,-166.79,-0.00042517,-4303.7,0.3648
12553,6.9462,4,0,0.00041956,4192.7,0.00014683,0.032845,0.00012409,-170.88,-0.0004222,-4275.5,0.37423
12554,6.854,4,0.05,1.2738e-06,12.729,9.7812e-07,7.3492,1.3901e-12,6.591e-07,-9.7813e-07,-7.3492,0.36499
12555,6.854,4.2727,0,0.00042309,4228,0.00014673,0.052417,0.00012747,-144.61,-0.00042537,-4298.4,0.36428
12556,6.9462,4.1818,0,0.0004201,4198.1,0.00014603,0.042151,0.00012598,-150.59,-0.00042246,-4271.4,0.37376
12557,6.854,4.1818,0.05,1.2239e-06,12.231,9.3981e-07,7.0613,2.3515e-12,-2.2118e-05,-9.3982e-07,-7.0615,0.36451
12558,6.854,4.4545,0,0.00042361,4233.2,0.00014578,0.062328,0.00012957,-121.74,-0.00042555,-4292.7,0.36367
12559,6.9462,4.3636,0,0.00042067,4203.8,0.00014518,0.051382,0.00012797,-129.2,-0.00042272,-4266.9,0.37319
12560,6.854,4.3636,0.05,1.1661e-06,11.653,8.9545e-07,6.728,2.7404e-12,-8.2404e-06,-8.9546e-07,-6.7281,0.36395
12561,6.854,4.6364,0,0.00042411,4238.2,0.00014484,0.07123,0.00013165,-99.059,-0.00042571,-4286.8,0.36298
12562,6.9462,4.5455,0,0.00042123,4209.4,0.0001443,0.059952,0.00012999,-107.51,-0.00042296,-4262.1,0.37255
12563,6.854,4.5455,0.05,1.1016e-06,11.008,8.4586e-07,6.3555,1.6546e-12,-2.8171e-05,-8.4588e-07,-6.3557,0.3633
12564,6.854,4.8182,0,0.00042457,4242.8,0.00014393,0.078531,0.00013362,-77.379,-0.00042583,-4280.9,0.3622
12565,6.9462,4.7273,0,0.00042177,4214.8,0.00014345,0.067282,0.00013195,-86.328,-0.00042317,-4257.3,0.37181
12566,6.854,4.7273,0.05,1.032e-06,10.312,7.9241e-07,5.9538,3.4188e-12,-1.8155e-05,-7.9242e-07,-5.954,0.36256
12567,6.854,5,0,0.00042498,4246.8,0.00014308,0.083679,0.00013543,-57.425,-0.00042592,-4275.2,0.36133
12568,6.9462,4.9091,0,0.00042227,4219.8,0.00014263,0.072912,0.00013379,-66.358,-0.00042336,-4252.6,0.37099
12569,6.854,4.9091,0.05,9.5976e-07,9.5909,7.3697e-07,5.5373,5.9747e-12,-1.7876e-05,-7.3698e-07,-5.5374,0.36174
12570,6.854,5.1818,0,0.00042532,4250.3,0.00014233,0.086537,0.00013702,-39.79,-0.00042599,-4270,0.36038
12571,6.9462,5.0909,0,0.00042272,4224.3,0.00014189,0.076326,0.00013546,-48.218,-0.00042352,-4248.2,0.37008
12572,6.854,5.0909,0.05,8.8818e-07,8.8757,6.8201e-07,5.1243,5.1194e-12,-1.5682e-05,-6.8202e-07,-5.1245,0.36083
12573,6.854,5.3636,0,0.00042562,4253.3,0.00014169,0.086499,0.00013837,-24.909,-0.00042604,-4265.6,0.35933
12574,6.9462,5.2727,0,0.00042312,4228.2,0.00014124,0.07811,0.00013691,-32.389,-0.00042366,-4244.3,0.36909
12575,6.854,5.2727,0.05,8.2106e-07,8.205,6.3047e-07,4.737,6.064e-12,-2.0417e-05,-6.3048e-07,-4.7372,0.35983
12576,6.854,5.5455,0,0.00042588,4255.8,0.00014119,0.08998,0.00013945,-13.018,-0.00042609,-4262.3,0.35819
12577,6.9462,5.4545,0,0.00042346,4231.7,0.0001407,0.076523,0.00013813,-19.191,-0.00042379,-4241.2,0.368
12578,6.854,5.4545,0.05,7.6105e-07,7.6052,5.8438e-07,4.3908,4.5117e-12,-9.6898e-06,-5.844e-07,-4.391,0.35874
12579,6.854,5.7273,0,0.00042615,4258.5,0.00014084,0.12739,0.00014029,-3.9901,-0.00042621,-4260.5,0.35696
12580,6.9462,5.6364,0,0.00042379,4235,0.00014029,0.091292,0.00013912,-8.7355,-0.00042393,-4239.3,0.36682
12581,6.854,5.6364,0.05,6.827e-07,6.8223,5.2422e-07,3.9387,7.4409e-12,-9.424e-06,-5.2423e-07,-3.939,0.35755
12582,6.9462,5.8182,0,0.00042418,4238.8,0.00014006,0.41383,0.00013989,-0.86365,-0.00042418,-4239.1,0.36555
12583,6.854,5.8182,0.05,1.5125e-07,1.5114,1.1614e-07,0.87255,-8.5456e-12,-0.00011149,-1.1614e-07,-0.87268,0.35628
12584,6.854,5.9091,0,0.00042621,4259.2,0.0001407,0.63738,0.00014062,0.042207,-0.0004262,-4258.8,0.35564
12585,7.0383,0.27273,0,0.00042181,4215.2,0.00013947,0.097019,0.00013874,-5.3724,-0.0004219,-4217.8,0.3755
12586,7.1305,0.18182,0,0.00041977,4194.9,0.00013862,0.25922,0.00013839,-1.5159,-0.0004198,-4195.5,0.38423
12587,7.0383,0.18182,0.05,2.0105e-07,2.0091,1.5439e-07,1.1601,3.2576e-12,7.9262e-05,-1.5438e-07,-1.1599,0.37482
12588,7.0383,0.090909,0,0.000422,4217.1,0.00013929,0.26691,0.00013924,-0.10732,-0.000422,-4217.1,0.37419
12589,7.0383,0.45455,0,0.00042137,4210.8,0.0001398,0.071835,0.0001378,-14.921,-0.00042162,-4218.2,0.37672
12590,7.1305,0.36364,0,0.00041925,4189.6,0.00013886,0.077909,0.00013749,-10.211,-0.00041942,-4194.6,0.38549
12591,7.0383,0.36364,0.05,7.4113e-07,7.4062,5.691e-07,4.2761,-6.0346e-12,8.3584e-06,-5.6909e-07,-4.2759,0.37608
12592,7.0383,0.63636,0,0.00042096,4206.7,0.00014024,0.066384,0.00013668,-26.688,-0.0004214,-4219.9,0.37785
12593,7.1305,0.54545,0,0.00041878,4184.9,0.00013923,0.059385,0.00013646,-20.772,-0.00041913,-4195.3,0.38666
12594,7.0383,0.54545,0.05,8.0995e-07,8.0939,6.2195e-07,4.6731,-5.6607e-12,1.5737e-05,-6.2194e-07,-4.6729,0.37726
12595,7.0383,0.81818,0,0.00042051,4202.2,0.00014079,0.066967,0.00013535,-40.834,-0.00042119,-4222.4,0.37889
12596,7.1305,0.72727,0,0.0004183,4180.1,0.0001397,0.061333,0.00013523,-33.502,-0.00041886,-4196.7,0.38774
12597,7.0383,0.72727,0.05,8.5665e-07,8.5606,6.5781e-07,4.9425,-2.6875e-12,8.8238e-06,-6.578e-07,-4.9424,0.37834
12598,7.0383,1,0,0.00042001,4197.2,0.00014143,0.064878,0.00013382,-57.167,-0.00042096,-4225.5,0.37984
12599,7.1305,0.90909,0,0.00041778,4174.9,0.00014026,0.059638,0.00013382,-48.317,-0.00041858,-4198.8,0.38873
12600,7.0383,0.90909,0.05,9.0867e-07,9.0804,6.9775e-07,5.2427,-2.7544e-12,1.7524e-05,-6.9774e-07,-5.2425,0.37934
12601,7.0383,1.1818,0,0.00041947,4191.8,0.00014215,0.061077,0.00013211,-75.32,-0.0004207,-4229,0.3807
12602,7.1305,1.0909,0,0.00041721,4169.2,0.00014089,0.057069,0.00013224,-64.95,-0.00041828,-4201.3,0.38964
12603,7.0383,1.0909,0.05,9.6462e-07,9.6396,7.4072e-07,5.5655,-6.0289e-13,1.3405e-05,-7.4071e-07,-5.5654,0.38024
12604,7.0383,1.3636,0,0.00041889,4186.1,0.00014291,0.055458,0.00013029,-94.794,-0.00042043,-4232.6,0.38147
12605,7.1305,1.2727,0,0.00041661,4163.2,0.00014158,0.052695,0.00013052,-82.995,-0.00041796,-4204.1,0.39045
12606,7.0383,1.2727,0.05,1.0216e-06,10.209,7.8445e-07,5.8941,-3.4539e-12,2.149e-05,-7.8445e-07,-5.894,0.38106
12607,7.0383,1.5455,0,0.00041829,4180,0.0001437,0.048477,0.00012839,-114.98,-0.00042013,-4236.3,0.38216
12608,7.1305,1.4545,0,0.00041598,4156.9,0.00014229,0.04688,0.00012872,-101.93,-0.00041762,-4206.9,0.39118
12609,7.0383,1.4545,0.05,1.077e-06,10.762,8.2697e-07,6.2135,1.6061e-12,7.1984e-06,-8.2696e-07,-6.2135,0.38179
12610,7.0383,1.7273,0,0.00041768,4173.9,0.00014448,0.040599,0.00012648,-135.18,-0.00041981,-4239.8,0.38277
12611,7.1305,1.6364,0,0.00041533,4150.5,0.00014302,0.040044,0.00012689,-121.16,-0.00041726,-4209.7,0.39183
12612,7.0383,1.6364,0.05,1.1286e-06,11.279,8.6666e-07,6.5118,1.5523e-13,2.3039e-05,-8.6665e-07,-6.5117,0.38244
12613,7.0383,1.9091,0,0.00041708,4167.9,0.00014523,0.032353,0.00012464,-154.68,-0.0004195,-4243.1,0.38329
12614,7.1305,1.8182,0,0.0004147,4144.1,0.00014373,0.032627,0.00012509,-140.02,-0.0004169,-4212.4,0.39239
12615,7.0383,1.8182,0.05,1.1752e-06,11.743,9.0237e-07,6.7801,-1.8729e-12,8.7425e-06,-9.0237e-07,-6.7801,0.383
12616,7.0383,2.0909,0,0.00041652,4162.4,0.00014592,0.02427,0.00012293,-172.73,-0.00041919,-4246,0.38372
12617,7.1305,2,0,0.0004141,4138.1,0.0001444,0.02511,0.00012339,-157.82,-0.00041656,-4214.8,0.39287
12618,7.0383,2,0.05,1.2155e-06,12.147,9.3335e-07,7.0128,-1.7368e-12,1.3721e-05,-9.3334e-07,-7.0128,0.38348
12619,7.0383,2.2727,0,0.00041603,4157.4,0.00014653,0.01686,0.00012142,-188.62,-0.00041892,-4248.5,0.38408
12620,7.1305,2.1818,0,0.00041355,4132.7,0.000145,0.017972,0.00012185,-173.88,-0.00041624,-4216.9,0.39326
12621,7.0383,2.1818,0.05,1.2491e-06,12.482,9.5916e-07,7.2067,1.6758e-12,6.8288e-06,-9.5915e-07,-7.2067,0.38387
12622,7.0383,2.4545,0,0.00041562,4153.3,0.00014703,0.01058,0.00012018,-201.72,-0.00041868,-4250.5,0.38435
12623,7.1305,2.3636,0,0.00041308,4128,0.00014551,0.011659,0.00012054,-187.59,-0.00041595,-4218.6,0.39358
12624,7.0383,2.3636,0.05,1.2758e-06,12.749,9.7964e-07,7.3607,1.1822e-12,1.1678e-05,-9.7964e-07,-7.3606,0.38419
12625,7.0383,2.6364,0,0.00041531,4150.2,0.0001474,0.005808,0.00011925,-211.48,-0.0004185,-4251.9,0.38455
12626,7.1305,2.5455,0,0.00041271,4124.3,0.00014591,0.0065616,0.0001195,-198.4,-0.00041573,-4219.9,0.39381
12627,7.0383,2.5455,0.05,1.2956e-06,12.947,9.9484e-07,7.4748,-2.4763e-13,5.9344e-06,-9.9484e-07,-7.4748,0.38443
12628,7.0383,2.8182,0,0.00041512,4148.3,0.00014762,0.0028278,0.00011867,-217.51,-0.00041839,-4252.8,0.38467
12629,7.1305,2.7273,0,0.00041246,4121.7,0.00014618,0.0029836,0.00011878,-205.85,-0.00041557,-4220.8,0.39397
12630,7.0383,2.7273,0.05,1.3086e-06,13.077,1.0049e-06,7.5501,9.8918e-13,7.4276e-06,-1.0049e-06,-7.5501,0.38458
12631,7.0383,3,0,0.00041506,4147.7,0.0001477,0.0018145,0.00011848,-219.55,-0.00041836,-4253.1,0.38471
12632,7.1305,2.9091,0,0.00041233,4120.4,0.00014632,0.0011398,0.00011842,-209.66,-0.00041549,-4221.2,0.39405
12633,7.0383,2.9091,0.05,1.3151e-06,13.142,1.0098e-06,7.5874,1.2457e-12,6.2629e-06,-1.0098e-06,-7.5875,0.38466
12634,7.0383,3.1818,0,0.00041512,4148.3,0.00014762,0.0028278,0.00011867,-217.51,-0.00041839,-4252.8,0.38467
12635,7.1305,3.0909,0,0.00041233,4120.4,0.00014632,0.0011398,0.00011842,-209.66,-0.00041549,-4221.2,0.39405
12636,7.0383,3.0909,0.05,1.3151e-06,13.142,1.0098e-06,7.5874,1.4748e-12,4.9915e-06,-1.0098e-06,-7.5875,0.38466
12637,7.0383,3.3636,0,0.00041531,4150.2,0.0001474,0.0058081,0.00011925,-211.48,-0.0004185,-4251.9,0.38455
12638,7.1305,3.2727,0,0.00041246,4121.7,0.00014618,0.0029837,0.00011878,-205.85,-0.00041557,-4220.8,0.39397
12639,7.0383,3.2727,0.05,1.3086e-06,13.077,1.0049e-06,7.5501,1.6966e-12,-6.9984e-08,-1.0049e-06,-7.5501,0.38458
12640,7.0383,3.5455,0,0.00041562,4153.3,0.00014703,0.010579,0.00012018,-201.72,-0.00041868,-4250.5,0.38435
12641,7.1305,3.4545,0,0.00041271,4124.3,0.00014591,0.0065615,0.0001195,-198.4,-0.00041573,-4219.9,0.39381
12642,7.0383,3.4545,0.05,1.2956e-06,12.947,9.9484e-07,7.4748,2.0444e-12,2.2199e-06,-9.9484e-07,-7.4748,0.38443
12643,7.0383,3.7273,0,0.00041603,4157.4,0.00014653,0.016859,0.00012142,-188.62,-0.00041892,-4248.5,0.38408
12644,7.1305,3.6364,0,0.00041308,4128,0.00014551,0.011659,0.00012054,-187.59,-0.00041595,-4218.6,0.39358
12645,7.0383,3.6364,0.05,1.2758e-06,12.749,9.7964e-07,7.3606,3.2227e-12,5.8262e-07,-9.7965e-07,-7.3607,0.38419
12646,7.0383,3.9091,0,0.00041652,4162.4,0.00014592,0.024269,0.00012293,-172.73,-0.00041919,-4246,0.38372
12647,7.1305,3.8182,0,0.00041355,4132.7,0.000145,0.017971,0.00012185,-173.88,-0.00041624,-4216.9,0.39326
12648,7.0383,3.8182,0.05,1.2491e-06,12.482,9.5915e-07,7.2066,1.5691e-12,-4.9321e-06,-9.5915e-07,-7.2067,0.38387
12649,7.0383,4.0909,0,0.00041708,4167.9,0.00014523,0.032352,0.00012464,-154.68,-0.0004195,-4243.1,0.38329
12650,7.1305,4,0,0.0004141,4138.1,0.0001444,0.02511,0.00012339,-157.82,-0.00041656,-4214.8,0.39287
12651,7.0383,4,0.05,1.2155e-06,12.147,9.3334e-07,7.0127,3.7571e-12,-2.1255e-06,-9.3335e-07,-7.0128,0.38348
12652,7.0383,4.2727,0,0.00041768,4173.9,0.00014448,0.040598,0.00012648,-135.18,-0.00041981,-4239.8,0.38277
12653,7.1305,4.1818,0,0.0004147,4144.1,0.00014373,0.032627,0.00012509,-140.02,-0.0004169,-4212.4,0.39239
12654,7.0383,4.1818,0.05,1.1752e-06,11.743,9.0237e-07,6.78,1.9024e-12,-3.2267e-06,-9.0238e-07,-6.7801,0.383
12655,7.0383,4.4545,0,0.00041829,4180,0.0001437,0.048477,0.00012839,-114.98,-0.00042013,-4236.3,0.38216
12656,7.1305,4.3636,0,0.00041533,4150.5,0.00014302,0.040043,0.00012689,-121.16,-0.00041726,-4209.7,0.39183
12657,7.0383,4.3636,0.05,1.1286e-06,11.279,8.6665e-07,6.5117,3.4969e-12,-1.1095e-05,-8.6666e-07,-6.5118,0.38244
12658,7.0383,4.6364,0,0.00041889,4186.1,0.00014291,0.055457,0.00013029,-94.794,-0.00042043,-4232.6,0.38147
12659,7.1305,4.5455,0,0.00041598,4156.9,0.00014229,0.04688,0.00012872,-101.93,-0.00041762,-4206.9,0.39118
12660,7.0383,4.5455,0.05,1.077e-06,10.762,8.2696e-07,6.2134,3.1425e-12,-1.4012e-05,-8.2697e-07,-6.2136,0.38179
12661,7.0383,4.8182,0,0.00041947,4191.8,0.00014215,0.061077,0.00013211,-75.32,-0.0004207,-4229,0.3807
12662,7.1305,4.7273,0,0.00041661,4163.2,0.00014158,0.052695,0.00013052,-82.995,-0.00041796,-4204.1,0.39045
12663,7.0383,4.7273,0.05,1.0216e-06,10.209,7.8445e-07,5.894,3.3568e-12,-1.3291e-05,-7.8446e-07,-5.8941,0.38106
12664,7.0383,5,0,0.00042001,4197.2,0.00014143,0.064877,0.00013382,-57.167,-0.00042096,-4225.5,0.37984
12665,7.1305,4.9091,0,0.00041721,4169.2,0.00014089,0.057069,0.00013224,-64.95,-0.00041828,-4201.3,0.38964
12666,7.0383,4.9091,0.05,9.6462e-07,9.6396,7.407e-07,5.5654,3.3653e-12,-4.9995e-06,-7.4072e-07,-5.5655,0.38024
12667,7.0383,5.1818,0,0.00042051,4202.2,0.00014079,0.066965,0.00013535,-40.834,-0.00042119,-4222.4,0.37889
12668,7.1305,5.0909,0,0.00041778,4174.9,0.00014026,0.059636,0.00013382,-48.317,-0.00041858,-4198.8,0.38873
12669,7.0383,5.0909,0.05,9.0867e-07,9.0804,6.9774e-07,5.2425,4.3011e-12,-1.1513e-05,-6.9775e-07,-5.2427,0.37934
12670,7.0383,5.3636,0,0.00042096,4206.7,0.00014024,0.066383,0.00013668,-26.688,-0.0004214,-4219.9,0.37785
12671,7.1305,5.2727,0,0.0004183,4180.1,0.0001397,0.061332,0.00013523,-33.502,-0.00041886,-4196.7,0.38774
12672,7.0383,5.2727,0.05,8.5665e-07,8.5606,6.578e-07,4.9424,4.5995e-12,-3.5547e-06,-6.5781e-07,-4.9425,0.37834
12673,7.0383,5.5455,0,0.00042137,4210.8,0.0001398,0.071834,0.0001378,-14.921,-0.00042162,-4218.2,0.37672
12674,7.1305,5.4545,0,0.00041878,4184.9,0.00013923,0.059385,0.00013646,-20.772,-0.00041913,-4195.3,0.38666
12675,7.0383,5.4545,0.05,8.0995e-07,8.0939,6.2194e-07,4.6729,5.6938e-12,-1.0625e-05,-6.2195e-07,-4.6731,0.37726
12676,7.0383,5.7273,0,0.00042181,4215.2,0.00013947,0.097018,0.00013874,-5.3724,-0.0004219,-4217.8,0.3755
12677,7.1305,5.6364,0,0.00041925,4189.6,0.00013886,0.077908,0.00013749,-10.211,-0.00041942,-4194.6,0.38549
12678,7.0383,5.6364,0.05,7.4113e-07,7.4062,5.6909e-07,4.2759,5.8268e-12,-5.3396e-06,-5.6911e-07,-4.2761,0.37608
12679,7.1305,5.8182,0,0.00041977,4194.9,0.00013862,0.25922,0.00013839,-1.5159,-0.0004198,-4195.5,0.38423
12680,7.0383,5.8182,0.05,2.0105e-07,2.0091,1.5438e-07,1.1599,-4.0984e-12,-7.5687e-05,-1.5439e-07,-1.1601,0.37482
12681,7.0383,5.9091,0,0.000422,4217.1,0.00013929,0.26691,0.00013924,-0.10732,-0.000422,-4217.1,0.37419
12682,7.2227,0.27273,0,0.00041721,4169.2,0.00013799,0.083049,0.00013715,-6.2435,-0.00041731,-4172.2,0.39432
12683,7.3149,0.18182,0,0.00041512,4148.4,0.0001371,0.21348,0.00013682,-1.9241,-0.00041515,-4149.2,0.4032
12684,7.2227,0.18182,0.05,2.363e-07,2.3614,1.8145e-07,1.3634,1.0033e-12,4.9191e-05,-1.8145e-07,-1.3633,0.39364
12685,7.2227,0.090909,0,0.0004175,4172.1,0.00013781,0.20083,0.00013773,-0.3464,-0.0004175,-4172.1,0.39302
12686,7.2227,0.45455,0,0.00041665,4163.6,0.0001383,0.060872,0.00013615,-16.076,-0.00041692,-4171.6,0.39553
12687,7.3149,0.36364,0,0.00041449,4142.1,0.00013734,0.070203,0.00013585,-11.087,-0.00041468,-4147.5,0.40445
12688,7.2227,0.36364,0.05,7.8565e-07,7.8511,6.0329e-07,4.5329,-6.0486e-12,7.735e-06,-6.0328e-07,-4.5327,0.3949
12689,7.2227,0.63636,0,0.00041612,4158.3,0.00013869,0.052951,0.00013501,-27.602,-0.00041658,-4172,0.39665
12690,7.3149,0.54545,0,0.00041393,4136.4,0.00013767,0.047917,0.00013479,-21.597,-0.00041429,-4147.2,0.40561
12691,7.2227,0.54545,0.05,8.4768e-07,8.4709,6.5091e-07,4.8908,-4.1853e-12,9.5048e-06,-6.5091e-07,-4.8906,0.39606
12692,7.2227,0.81818,0,0.00041556,4152.8,0.00013917,0.053284,0.0001337,-41.001,-0.00041625,-4173.1,0.39768
12693,7.3149,0.72727,0,0.00041335,4130.7,0.00013808,0.049597,0.00013358,-33.804,-0.00041391,-4147.4,0.40668
12694,7.2227,0.72727,0.05,8.8439e-07,8.8378,6.791e-07,5.1026,-3.2143e-13,1.7251e-05,-6.791e-07,-5.1024,0.39714
12695,7.2227,1,0,0.00041497,4146.8,0.00013971,0.051326,0.00013224,-56.115,-0.0004159,-4174.6,0.39863
12696,7.3149,0.90909,0,0.00041274,4124.6,0.00013856,0.047609,0.00013221,-47.646,-0.00041353,-4148.2,0.40767
12697,7.2227,0.90909,0.05,9.2483e-07,9.2419,7.1016e-07,5.3358,-3.2442e-12,5.2438e-06,-7.1015e-07,-5.3358,0.39813
12698,7.2227,1.1818,0,0.00041434,4140.6,0.00014032,0.048233,0.00013065,-72.637,-0.00041553,-4176.4,0.39948
12699,7.3149,1.0909,0,0.0004121,4118.2,0.0001391,0.045412,0.00013072,-62.897,-0.00041313,-4149.2,0.40857
12700,7.2227,1.0909,0.05,9.6856e-07,9.6789,7.4374e-07,5.5882,-4.4388e-12,2.3444e-05,-7.4373e-07,-5.588,0.39903
12701,7.2227,1.3636,0,0.00041369,4134,0.00014096,0.043693,0.00012896,-90.145,-0.00041515,-4178.3,0.40025
12702,7.3149,1.2727,0,0.00041143,4111.5,0.00013968,0.04176,0.00012913,-79.216,-0.00041272,-4150.5,0.40938
12703,7.2227,1.2727,0.05,1.0134e-06,10.127,7.7816e-07,5.8469,8.5916e-13,1.8791e-05,-7.7815e-07,-5.8467,0.39984
12704,7.2227,1.5455,0,0.00041302,4127.3,0.00014162,0.038064,0.00012722,-108.13,-0.00041475,-4180.3,0.40094
12705,7.3149,1.4545,0,0.00041075,4104.6,0.00014029,0.037046,0.00012748,-96.166,-0.0004123,-4151.9,0.4101
12706,7.2227,1.4545,0.05,1.0573e-06,10.565,8.1185e-07,6.1,-2.6351e-12,2.0134e-05,-8.1185e-07,-6.0998,0.40057
12707,7.2227,1.7273,0,0.00041235,4120.7,0.00014227,0.031693,0.0001255,-126,-0.00041435,-4182.2,0.40154
12708,7.3149,1.6364,0,0.00041006,4097.8,0.00014089,0.031484,0.00012582,-113.24,-0.00041187,-4153.2,0.41074
12709,7.2227,1.6364,0.05,1.0985e-06,10.977,8.4351e-07,6.3378,-2.4279e-12,1.386e-05,-8.435e-07,-6.3377,0.40121
12710,7.2227,1.9091,0,0.00041172,4114.3,0.0001429,0.025004,0.00012384,-143.16,-0.00041396,-4184,0.40206
12711,7.3149,1.8182,0,0.0004094,4091.1,0.00014149,0.025448,0.0001242,-129.88,-0.00041145,-4154.5,0.4113
12712,7.2227,1.8182,0.05,1.1358e-06,11.35,8.7214e-07,6.553,-8.0026e-13,1.9821e-05,-8.7214e-07,-6.5529,0.40177
12713,7.2227,2.0909,0,0.00041113,4108.4,0.00014347,0.01843,0.00012231,-158.97,-0.0004136,-4185.6,0.40249
12714,7.3149,2,0,0.00040877,4084.9,0.00014204,0.019322,0.00012267,-145.51,-0.00041105,-4155.7,0.41178
12715,7.2227,2,0.05,1.1683e-06,11.675,8.971e-07,6.7405,-1.3532e-12,1.0286e-05,-8.971e-07,-6.7405,0.40225
12716,7.2227,2.2727,0,0.00041061,4103.2,0.00014397,0.012388,0.00012097,-172.85,-0.00041327,-4186.9,0.40285
12717,7.3149,2.1818,0,0.00040821,4079.3,0.00014254,0.013494,0.0001213,-159.57,-0.00041069,-4156.7,0.41217
12718,7.2227,2.1818,0.05,1.1955e-06,11.947,9.1799e-07,6.8975,-1.3679e-12,1.4327e-05,-9.1799e-07,-6.8973,0.40265
12719,7.2227,2.4545,0,0.00041018,4099,0.00014438,0.0072572,0.00011986,-184.27,-0.000413,-4188,0.40313
12720,7.3149,2.3636,0,0.00040773,4074.5,0.00014296,0.0083322,0.00012013,-171.54,-0.00041037,-4157.5,0.41249
12721,7.2227,2.3636,0.05,1.2172e-06,12.163,9.3463e-07,7.0224,3.6948e-14,8.1932e-06,-9.3462e-07,-7.0224,0.40296
12722,7.2227,2.6364,0,0.00040986,4095.8,0.00014469,0.0033524,0.00011903,-192.77,-0.0004128,-4188.7,0.40332
12723,7.3149,2.5455,0,0.00040735,4070.7,0.00014329,0.0041584,0.00011921,-180.95,-0.00041013,-4158.1,0.41272
12724,7.2227,2.5455,0.05,1.2333e-06,12.324,9.47e-07,7.1155,1.3162e-12,9.5161e-06,-9.47e-07,-7.1153,0.4032
12725,7.2227,2.8182,0,0.00040966,4093.8,0.00014488,0.00091055,0.00011853,-198,-0.00041267,-4189.2,0.40344
12726,7.3149,2.7273,0,0.00040709,4068.1,0.00014352,0.0012256,0.00011857,-187.44,-0.00040995,-4158.6,0.41288
12727,7.2227,2.7273,0.05,1.2439e-06,12.431,9.5518e-07,7.1768,8.0585e-13,6.0528e-06,-9.5518e-07,-7.1768,0.40335
12728,7.2227,3,0,0.0004096,4093.1,0.00014494,7.9996e-05,0.00011835,-199.78,-0.00041263,-4189.4,0.40348
12729,7.3149,2.9091,0,0.00040696,4066.7,0.00014363,-0.00028666,0.00011825,-190.75,-0.00040986,-4158.8,0.41296
12730,7.2227,2.9091,0.05,1.2492e-06,12.483,9.5924e-07,7.2073,2.7368e-13,3.9811e-06,-9.5924e-07,-7.2073,0.40343
12731,7.2227,3.1818,0,0.00040966,4093.8,0.00014488,0.00091058,0.00011853,-198,-0.00041267,-4189.2,0.40344
12732,7.3149,3.0909,0,0.00040696,4066.7,0.00014363,-0.00028669,0.00011825,-190.75,-0.00040986,-4158.8,0.41296
12733,7.2227,3.0909,0.05,1.2492e-06,12.483,9.5923e-07,7.2073,-2.7805e-13,1.7189e-06,-9.5924e-07,-7.2074,0.40343
12734,7.2227,3.3636,0,0.00040986,4095.8,0.00014469,0.0033523,0.00011903,-192.77,-0.0004128,-4188.7,0.40332
12735,7.3149,3.2727,0,0.00040709,4068.1,0.00014352,0.0012257,0.00011857,-187.44,-0.00040995,-4158.6,0.41288
12736,7.2227,3.2727,0.05,1.2439e-06,12.431,9.5518e-07,7.1768,1.9116e-12,3.2598e-06,-9.5518e-07,-7.1769,0.40335
12737,7.2227,3.5455,0,0.00041018,4099,0.00014438,0.0072572,0.00011986,-184.27,-0.000413,-4188,0.40313
12738,7.3149,3.4545,0,0.00040735,4070.7,0.00014329,0.0041583,0.00011921,-180.95,-0.00041013,-4158.1,0.41272
12739,7.2227,3.4545,0.05,1.2333e-06,12.324,9.47e-07,7.1153,2.2772e-12,3.2749e-07,-9.47e-07,-7.1155,0.4032
12740,7.2227,3.7273,0,0.00041061,4103.2,0.00014397,0.012388,0.00012097,-172.85,-0.00041327,-4186.9,0.40285
12741,7.3149,3.6364,0,0.00040773,4074.5,0.00014296,0.0083322,0.00012013,-171.54,-0.00041037,-4157.5,0.41249
12742,7.2227,3.6364,0.05,1.2172e-06,12.163,9.3462e-07,7.0224,2.6311e-12,-1.6222e-06,-9.3463e-07,-7.0225,0.40296
12743,7.2227,3.9091,0,0.00041113,4108.4,0.00014347,0.01843,0.00012231,-158.97,-0.0004136,-4185.6,0.40249
12744,7.3149,3.8182,0,0.00040821,4079.3,0.00014254,0.013493,0.0001213,-159.57,-0.00041069,-4156.7,0.41217
12745,7.2227,3.8182,0.05,1.1955e-06,11.947,9.1798e-07,6.8973,2.4254e-12,-5.7035e-06,-9.1799e-07,-6.8975,0.40265
12746,7.2227,4.0909,0,0.00041172,4114.3,0.0001429,0.025004,0.00012384,-143.16,-0.00041396,-4184,0.40206
12747,7.3149,4,0,0.00040877,4084.9,0.00014204,0.019321,0.00012267,-145.51,-0.00041105,-4155.7,0.41178
12748,7.2227,4,0.05,1.1683e-06,11.675,8.971e-07,6.7404,2.6585e-12,-1.0712e-05,-8.9711e-07,-6.7406,0.40225
12749,7.2227,4.2727,0,0.00041235,4120.7,0.00014227,0.031692,0.0001255,-126,-0.00041435,-4182.2,0.40154
12750,7.3149,4.1818,0,0.0004094,4091.1,0.00014149,0.025448,0.0001242,-129.88,-0.00041145,-4154.5,0.4113
12751,7.2227,4.1818,0.05,1.1358e-06,11.35,8.7214e-07,6.5529,2.5166e-12,-8.9843e-06,-8.7215e-07,-6.553,0.40177
12752,7.2227,4.4545,0,0.00041302,4127.3,0.00014162,0.038064,0.00012722,-108.13,-0.00041475,-4180.3,0.40094
12753,7.3149,4.3636,0,0.00041006,4097.8,0.00014089,0.031484,0.00012582,-113.24,-0.00041187,-4153.2,0.41074
12754,7.2227,4.3636,0.05,1.0985e-06,10.977,8.435e-07,6.3377,4.1471e-12,-4.0532e-06,-8.4351e-07,-6.3378,0.40121
12755,7.2227,4.6364,0,0.00041369,4134,0.00014096,0.043693,0.00012896,-90.145,-0.00041515,-4178.3,0.40025
12756,7.3149,4.5455,0,0.00041075,4104.6,0.00014029,0.037045,0.00012748,-96.166,-0.0004123,-4151.9,0.4101
12757,7.2227,4.5455,0.05,1.0573e-06,10.565,8.1184e-07,6.0998,3.8668e-12,-1.6693e-05,-8.1185e-07,-6.1,0.40057
12758,7.2227,4.8182,0,0.00041434,4140.6,0.00014032,0.048232,0.00013065,-72.637,-0.00041553,-4176.4,0.39948
12759,7.3149,4.7273,0,0.00041143,4111.5,0.00013968,0.041759,0.00012913,-79.216,-0.00041272,-4150.5,0.40938
12760,7.2227,4.7273,0.05,1.0134e-06,10.127,7.7815e-07,5.8467,4.0914e-12,-1.7213e-05,-7.7817e-07,-5.8469,0.39984
12761,7.2227,5,0,0.00041497,4146.8,0.00013971,0.051324,0.00013224,-56.115,-0.0004159,-4174.6,0.39863
12762,7.3149,4.9091,0,0.0004121,4118.2,0.0001391,0.045411,0.00013072,-62.897,-0.00041313,-4149.2,0.40857
12763,7.2227,4.9091,0.05,9.6856e-07,9.6789,7.4372e-07,5.588,4.4888e-12,-1.5746e-05,-7.4374e-07,-5.5882,0.39903
12764,7.2227,5.1818,0,0.00041556,4152.8,0.00013917,0.053284,0.0001337,-41.001,-0.00041625,-4173.1,0.39768
12765,7.3149,5.0909,0,0.00041274,4124.6,0.00013856,0.047607,0.00013221,-47.646,-0.00041353,-4148.2,0.40767
12766,7.2227,5.0909,0.05,9.2483e-07,9.2419,7.1014e-07,5.3357,4.776e-12,-8.8355e-06,-7.1016e-07,-5.3359,0.39813
12767,7.2227,5.3636,0,0.00041612,4158.3,0.00013869,0.05295,0.00013501,-27.602,-0.00041658,-4172,0.39665
12768,7.3149,5.2727,0,0.00041335,4130.7,0.00013808,0.049596,0.00013358,-33.804,-0.00041391,-4147.4,0.40668
12769,7.2227,5.2727,0.05,8.8439e-07,8.8378,6.791e-07,5.1024,5.5559e-12,-1.1506e-05,-6.791e-07,-5.1026,0.39714
12770,7.2227,5.5455,0,0.00041665,4163.6,0.0001383,0.060871,0.00013615,-16.076,-0.00041692,-4171.6,0.39553
12771,7.3149,5.4545,0,0.00041393,4136.4,0.00013767,0.047916,0.00013479,-21.597,-0.00041429,-4147.2,0.40561
12772,7.2227,5.4545,0.05,8.4768e-07,8.4709,6.5091e-07,4.8906,5.8566e-12,-9.1049e-06,-6.5091e-07,-4.8908,0.39606
12773,7.2227,5.7273,0,0.00041721,4169.2,0.00013799,0.083048,0.00013715,-6.2435,-0.00041731,-4172.2,0.39432
12774,7.3149,5.6364,0,0.00041449,4142.1,0.00013734,0.070202,0.00013585,-11.087,-0.00041468,-4147.6,0.40445
12775,7.2227,5.6364,0.05,7.8565e-07,7.8511,6.0327e-07,4.5327,5.9906e-12,-6.9457e-06,-6.0329e-07,-4.5329,0.3949
12776,7.3149,5.8182,0,0.00041512,4148.4,0.0001371,0.21348,0.00013682,-1.9241,-0.00041515,-4149.2,0.4032
12777,7.2227,5.8182,0.05,2.363e-07,2.3614,1.8145e-07,1.3633,6.3062e-13,-6.1424e-05,-1.8146e-07,-1.3635,0.39364
12778,7.2227,5.9091,0,0.0004175,4172.1,0.00013781,0.20083,0.00013773,-0.3464,-0.0004175,-4172.1,0.39302
12779,7.4071,0.27273,0,0.0004124,4121.2,0.00013643,0.074873,0.00013553,-6.6897,-0.00041251,-4124.5,0.41342
12780,7.4993,0.18182,0,0.00041028,4100,0.00013551,0.19927,0.00013521,-2.0769,-0.00041032,-4100.9,0.42245
12781,7.4071,0.18182,0.05,2.5864e-07,2.5846,1.986e-07,1.4923,-3.4613e-13,2.8189e-05,-1.986e-07,-1.4922,0.41275
12782,7.4071,0.090909,0,0.00041276,4124.7,0.00013625,0.20321,0.00013616,-0.47837,-0.00041276,-4124.8,0.41213
12783,7.4071,0.45455,0,0.00041177,4114.8,0.00013671,0.053311,0.00013449,-16.622,-0.00041204,-4123.1,0.41462
12784,7.4993,0.36364,0,0.00040958,4093,0.00013573,0.064771,0.0001342,-11.474,-0.00040977,-4098.6,0.42369
12785,7.4071,0.36364,0.05,8.1904e-07,8.1847,6.2892e-07,4.7255,-6.3553e-12,7.0294e-06,-6.2891e-07,-4.7254,0.414
12786,7.4071,0.63636,0,0.00041116,4108.7,0.00013706,0.043387,0.00013335,-27.814,-0.00041162,-4122.5,0.41574
12787,7.4993,0.54545,0,0.00040895,4086.7,0.00013603,0.039671,0.00013313,-21.81,-0.00040931,-4097.5,0.42484
12788,7.4071,0.54545,0.05,8.7623e-07,8.7563,6.7284e-07,5.0555,-4.3748e-12,5.8932e-06,-6.7283e-07,-5.0554,0.41516
12789,7.4071,0.81818,0,0.00041053,4102.4,0.00013748,0.043328,0.00013209,-40.464,-0.0004112,-4122.5,0.41676
12790,7.4993,0.72727,0,0.00040831,4080.3,0.0001364,0.040987,0.00013194,-33.457,-0.00040887,-4096.9,0.42591
12791,7.4071,0.72727,0.05,9.0539e-07,9.0476,6.9523e-07,5.2238,-5.6097e-12,1.4557e-05,-6.9522e-07,-5.2235,0.41622
12792,7.4071,1,0,0.00040987,4095.9,0.00013795,0.041298,0.0001307,-54.442,-0.00041077,-4122.8,0.4177
12793,7.4993,0.90909,0,0.00040764,4073.6,0.00013682,0.038672,0.00013064,-46.37,-0.00040841,-4096.6,0.42688
12794,7.4071,0.90909,0.05,9.3694e-07,9.3629,7.1945e-07,5.4058,-5.1757e-12,1.3071e-05,-7.1945e-07,-5.4056,0.41721
12795,7.4071,1.1818,0,0.00040919,4089.1,0.00013846,0.038616,0.00012921,-69.488,-0.00041033,-4123.3,0.41855
12796,7.4993,1.0909,0,0.00040696,4066.8,0.00013728,0.036659,0.00012924,-60.357,-0.00040795,-4096.6,0.42778
12797,7.4071,1.0909,0.05,9.7115e-07,9.7048,7.4573e-07,5.6031,1.1577e-13,5.8279e-06,-7.4572e-07,-5.6031,0.4181
12798,7.4071,1.3636,0,0.00040849,4082.1,0.00013901,0.034818,0.00012766,-85.247,-0.00040987,-4124,0.41932
12799,7.4993,1.2727,0,0.00040625,4059.7,0.00013777,0.033512,0.00012777,-75.129,-0.00040748,-4096.8,0.42858
12800,7.4071,1.2727,0.05,1.0064e-06,10.057,7.728e-07,5.8066,-4.6238e-12,1.1129e-05,-7.7279e-07,-5.8064,0.41891
12801,7.4071,1.5455,0,0.00040779,4075.1,0.00013956,0.03018,0.00012607,-101.29,-0.00040942,-4124.8,0.42
12802,7.4993,1.4545,0,0.00040554,4052.6,0.00013828,0.02958,0.00012626,-90.321,-0.000407,-4097,0.4293
12803,7.4071,1.4545,0.05,1.0411e-06,10.404,7.9944e-07,6.0067,-1.3755e-12,6.5818e-06,-7.9944e-07,-6.0067,0.41963
12804,7.4071,1.7273,0,0.0004071,4068.2,0.00014011,0.024955,0.00012451,-117.12,-0.00040897,-4125.5,0.4206
12805,7.4993,1.6364,0,0.00040484,4045.6,0.00013879,0.024984,0.00012475,-105.5,-0.00040653,-4097.3,0.42994
12806,7.4071,1.6364,0.05,1.0739e-06,10.732,8.2462e-07,6.1959,-1.2487e-12,3.2975e-06,-8.2462e-07,-6.1959,0.42027
12807,7.4071,1.9091,0,0.00040645,4061.7,0.00014063,0.019478,0.00012302,-132.24,-0.00040854,-4126.2,0.42111
12808,7.4993,1.8182,0,0.00040417,4038.9,0.00013929,0.02002,0.00012329,-120.21,-0.00040608,-4097.6,0.4305
12809,7.4071,1.8182,0.05,1.1037e-06,11.03,8.4752e-07,6.368,-1.6959e-12,1.5045e-05,-8.4752e-07,-6.3679,0.42083
12810,7.4071,2.0909,0,0.00040585,4055.7,0.0001411,0.014094,0.00012166,-146.12,-0.00040814,-4126.8,0.42155
12811,7.4993,2,0,0.00040354,4032.6,0.00013975,0.014989,0.00012192,-133.96,-0.00040565,-4097.9,0.43097
12812,7.4071,2,0.05,1.1298e-06,11.291,8.6758e-07,6.5186,-1.2104e-12,6.2714e-06,-8.6757e-07,-6.5187,0.42131
12813,7.4071,2.2727,0,0.00040533,4050.5,0.00014152,0.0091426,0.00012046,-158.26,-0.00040779,-4127.3,0.4219
12814,7.4993,2.1818,0,0.00040298,4027,0.00014016,0.010205,0.00012069,-146.29,-0.00040527,-4098.1,0.43137
12815,7.4071,2.1818,0.05,1.1518e-06,11.51,8.8444e-07,6.6454,-1.3677e-13,1.0097e-05,-8.8444e-07,-6.6453,0.4217
12816,7.4071,2.4545,0,0.0004049,4046.2,0.00014186,0.0049356,0.00011947,-168.22,-0.0004075,-4127.7,0.42218
12817,7.4993,2.3636,0,0.0004025,4022.2,0.00014051,0.005968,0.00011965,-156.75,-0.00040494,-4098.3,0.43168
12818,7.4071,2.3636,0.05,1.1694e-06,11.686,8.9792e-07,6.7466,-4.518e-13,6.2111e-06,-8.9792e-07,-6.7466,0.42201
12819,7.4071,2.6364,0,0.00040458,4043,0.00014212,0.0017318,0.00011874,-175.62,-0.00040728,-4127.9,0.42237
12820,7.4993,2.5455,0,0.00040213,4018.5,0.00014079,0.0025403,0.00011883,-164.95,-0.00040468,-4098.4,0.43191
12821,7.4071,2.5455,0.05,1.1825e-06,11.816,9.0799e-07,6.8222,1.8531e-13,7.7998e-06,-9.0798e-07,-6.8222,0.42225
12822,7.4071,2.8182,0,0.00040438,4041,0.00014227,-0.00027273,0.00011829,-180.18,-0.00040714,-4128.1,0.42249
12823,7.4993,2.7273,0,0.00040187,4015.9,0.00014098,0.00013123,0.00011827,-170.6,-0.0004045,-4098.5,0.43207
12824,7.4071,2.7273,0.05,1.1911e-06,11.903,9.1465e-07,6.8723,6.6026e-13,4.9556e-06,-9.1465e-07,-6.8723,0.42241
12825,7.4071,3,0,0.00040431,4040.4,0.00014232,-0.00095486,0.00011814,-181.72,-0.0004071,-4128.2,0.42253
12826,7.4993,2.9091,0,0.00040174,4014.6,0.00014107,-0.0011118,0.00011798,-173.48,-0.00040441,-4098.5,0.43215
12827,7.4071,2.9091,0.05,1.1955e-06,11.946,9.1796e-07,6.8972,1.1349e-12,3.6028e-06,-9.1796e-07,-6.8972,0.42248
12828,7.4071,3.1818,0,0.00040438,4041,0.00014227,-0.00027267,0.00011829,-180.18,-0.00040714,-4128.1,0.42249
12829,7.4993,3.0909,0,0.00040174,4014.6,0.00014107,-0.001112,0.00011798,-173.48,-0.00040441,-4098.5,0.43215
12830,7.4071,3.0909,0.05,1.1955e-06,11.946,9.1796e-07,6.8972,1.5926e-12,5.9456e-06,-9.1796e-07,-6.8972,0.42248
12831,7.4071,3.3636,0,0.00040458,4043,0.00014212,0.0017318,0.00011874,-175.62,-0.00040728,-4127.9,0.42237
12832,7.4993,3.2727,0,0.00040187,4015.9,0.00014098,0.00013111,0.00011827,-170.6,-0.0004045,-4098.5,0.43207
12833,7.4071,3.2727,0.05,1.1911e-06,11.903,9.1465e-07,6.8723,2.0758e-12,2.7841e-06,-9.1465e-07,-6.8723,0.42241
12834,7.4071,3.5455,0,0.0004049,4046.2,0.00014186,0.0049356,0.00011947,-168.22,-0.0004075,-4127.7,0.42218
12835,7.4993,3.4545,0,0.00040213,4018.5,0.00014079,0.0025401,0.00011883,-164.95,-0.00040468,-4098.4,0.43191
12836,7.4071,3.4545,0.05,1.1825e-06,11.816,9.0798e-07,6.8222,2.4756e-12,3.9114e-06,-9.0799e-07,-6.8222,0.42225
12837,7.4071,3.7273,0,0.00040533,4050.5,0.00014152,0.0091426,0.00012046,-158.26,-0.00040779,-4127.3,0.4219
12838,7.4993,3.6364,0,0.0004025,4022.2,0.00014051,0.0059676,0.00011965,-156.75,-0.00040494,-4098.3,0.43168
12839,7.4071,3.6364,0.05,1.1694e-06,11.686,8.9792e-07,6.7466,2.2475e-12,6.247e-07,-8.9792e-07,-6.7467,0.42201
12840,7.4071,3.9091,0,0.00040585,4055.7,0.0001411,0.014093,0.00012166,-146.12,-0.00040814,-4126.8,0.42155
12841,7.4993,3.8182,0,0.00040298,4027,0.00014016,0.010205,0.00012069,-146.29,-0.00040527,-4098.1,0.43137
12842,7.4071,3.8182,0.05,1.1518e-06,11.51,8.8443e-07,6.6453,2.5253e-12,2.4725e-07,-8.8444e-07,-6.6454,0.4217
12843,7.4071,4.0909,0,0.00040645,4061.7,0.00014063,0.019477,0.00012302,-132.24,-0.00040854,-4126.2,0.42111
12844,7.4993,4,0,0.00040354,4032.6,0.00013975,0.014989,0.00012192,-133.96,-0.00040565,-4097.9,0.43097
12845,7.4071,4,0.05,1.1298e-06,11.291,8.6757e-07,6.5186,3.1487e-12,1.5103e-06,-8.6758e-07,-6.5187,0.42131
12846,7.4071,4.2727,0,0.0004071,4068.2,0.00014011,0.024954,0.00012451,-117.12,-0.00040897,-4125.5,0.4206
12847,7.4993,4.1818,0,0.00040417,4038.9,0.00013929,0.020019,0.00012329,-120.21,-0.00040608,-4097.6,0.4305
12848,7.4071,4.1818,0.05,1.1037e-06,11.03,8.4752e-07,6.3679,3.4317e-12,-5.9506e-06,-8.4752e-07,-6.368,0.42083
12849,7.4071,4.4545,0,0.00040779,4075.1,0.00013956,0.03018,0.00012607,-101.29,-0.00040942,-4124.8,0.42
12850,7.4993,4.3636,0,0.00040484,4045.6,0.00013879,0.024984,0.00012475,-105.5,-0.00040653,-4097.3,0.42994
12851,7.4071,4.3636,0.05,1.0739e-06,10.732,8.2462e-07,6.1959,4.6723e-12,5.2146e-06,-8.2462e-07,-6.1959,0.42027
12852,7.4071,4.6364,0,0.00040849,4082.1,0.00013901,0.034817,0.00012766,-85.247,-0.00040987,-4124,0.41932
12853,7.4993,4.5455,0,0.00040554,4052.6,0.00013828,0.029579,0.00012626,-90.321,-0.000407,-4097,0.4293
12854,7.4071,4.5455,0.05,1.0411e-06,10.404,7.9944e-07,6.0066,4.7364e-12,-5.3778e-06,-7.9944e-07,-6.0067,0.41963
12855,7.4071,4.8182,0,0.00040919,4089.1,0.00013846,0.038615,0.00012921,-69.488,-0.00041033,-4123.3,0.41855
12856,7.4993,4.7273,0,0.00040625,4059.7,0.00013777,0.033512,0.00012777,-75.129,-0.00040748,-4096.8,0.42858
12857,7.4071,4.7273,0.05,1.0064e-06,10.057,7.7279e-07,5.8064,4.6164e-12,-3.9303e-06,-7.728e-07,-5.8066,0.41891
12858,7.4071,5,0,0.00040987,4095.9,0.00013795,0.041297,0.0001307,-54.442,-0.00041077,-4122.8,0.4177
12859,7.4993,4.9091,0,0.00040696,4066.8,0.00013728,0.036658,0.00012924,-60.357,-0.00040795,-4096.6,0.42778
12860,7.4071,4.9091,0.05,9.7115e-07,9.7048,7.4572e-07,5.603,4.9029e-12,-7.4246e-06,-7.4573e-07,-5.6032,0.4181
12861,7.4071,5.1818,0,0.00041053,4102.4,0.00013748,0.043327,0.00013209,-40.464,-0.0004112,-4122.5,0.41676
12862,7.4993,5.0909,0,0.00040764,4073.6,0.00013682,0.038671,0.00013064,-46.37,-0.00040841,-4096.6,0.42688
12863,7.4071,5.0909,0.05,9.3694e-07,9.3629,7.1945e-07,5.4056,5.0839e-12,-7.1549e-06,-7.1946e-07,-5.4058,0.41721
12864,7.4071,5.3636,0,0.00041116,4108.7,0.00013706,0.043386,0.00013335,-27.814,-0.00041162,-4122.5,0.41574
12865,7.4993,5.2727,0,0.00040831,4080.3,0.0001364,0.040986,0.00013194,-33.457,-0.00040887,-4096.9,0.42591
12866,7.4071,5.2727,0.05,9.0539e-07,9.0476,6.9521e-07,5.2235,7.1738e-12,-1.0293e-05,-6.9523e-07,-5.2238,0.41622
12867,7.4071,5.5455,0,0.00041177,4114.8,0.00013671,0.05331,0.00013449,-16.622,-0.00041204,-4123.1,0.41462
12868,7.4993,5.4545,0,0.00040895,4086.7,0.00013604,0.039671,0.00013313,-21.81,-0.00040931,-4097.5,0.42484
12869,7.4071,5.4545,0.05,8.7623e-07,8.7563,6.7283e-07,5.0554,7.8286e-12,-1.9777e-06,-6.7284e-07,-5.0555,0.41516
12870,7.4071,5.7273,0,0.0004124,4121.2,0.00013643,0.074871,0.00013553,-6.6897,-0.00041251,-4124.5,0.41342
12871,7.4993,5.6364,0,0.00040958,4093,0.00013573,0.06477,0.0001342,-11.474,-0.00040977,-4098.6,0.42369
12872,7.4071,5.6364,0.05,8.1904e-07,8.1847,6.2891e-07,4.7253,6.2699e-12,-5.6802e-06,-6.2892e-07,-4.7256,0.414
12873,7.4993,5.8182,0,0.00041028,4100,0.00013551,0.19927,0.00013521,-2.0769,-0.00041032,-4100.9,0.42245
12874,7.4071,5.8182,0.05,2.5864e-07,2.5846,1.986e-07,1.4921,-2.827e-13,-5.3768e-05,-1.986e-07,-1.4923,0.41275
12875,7.4071,5.9091,0,0.00041276,4124.7,0.00013625,0.20321,0.00013616,-0.47837,-0.00041276,-4124.8,0.41213
12876,7.5914,0.27273,0,0.00040745,4071.7,0.0001348,0.069336,0.00013389,-6.7913,-0.00040757,-4075.1,0.43281
12877,7.6836,0.18182,0,0.0004053,4050.2,0.00013387,0.20123,0.00013357,-2.0157,-0.00040533,-4051.1,0.44198
12878,7.5914,0.18182,0.05,2.7057e-07,2.7038,2.0777e-07,1.5611,-8.7343e-13,4.4785e-05,-2.0775e-07,-1.561,0.43214
12879,7.5914,0.090909,0,0.00040784,4075.6,0.00013463,0.23024,0.00013453,-0.49322,-0.00040785,-4075.7,0.43153
12880,7.5914,0.45455,0,0.00040676,4064.8,0.00013506,0.047552,0.00013283,-16.677,-0.00040704,-4073.1,0.434
12881,7.6836,0.36364,0,0.00040455,4042.7,0.00013407,0.060335,0.00013254,-11.47,-0.00040474,-4048.4,0.44321
12882,7.5914,0.36364,0.05,8.4359e-07,8.4301,6.4778e-07,4.8672,-6.3633e-12,9.1426e-06,-6.4777e-07,-4.867,0.43338
12883,7.5914,0.63636,0,0.0004061,4058.2,0.00013537,0.036233,0.00013171,-27.468,-0.00040656,-4071.8,0.4351
12884,7.6836,0.54545,0,0.00040387,4036,0.00013435,0.033426,0.00013148,-21.537,-0.00040424,-4046.7,0.44435
12885,7.5914,0.54545,0.05,8.9739e-07,8.9677,6.8909e-07,5.1776,-4.2954e-12,7.6137e-06,-6.8908e-07,-5.1774,0.43453
12886,7.5914,0.81818,0,0.00040542,4051.4,0.00013574,0.035826,0.00013049,-39.378,-0.00040608,-4071,0.43612
12887,7.6836,0.72727,0,0.0004032,4029.2,0.00013467,0.034428,0.00013033,-32.602,-0.00040374,-4045.4,0.44541
12888,7.5914,0.72727,0.05,9.2079e-07,9.2016,7.0706e-07,5.3126,-2.3928e-12,8.6835e-06,-7.0705e-07,-5.3125,0.43559
12889,7.5914,1,0,0.00040473,4044.5,0.00013615,0.033706,0.00012918,-52.298,-0.00040559,-4070.4,0.43705
12890,7.6836,0.90909,0,0.0004025,4022.3,0.00013503,0.031866,0.00012909,-44.632,-0.00040324,-4044.4,0.44638
12891,7.5914,0.90909,0.05,9.4551e-07,9.4486,7.2604e-07,5.4552,-3.5161e-13,9.2761e-06,-7.2603e-07,-5.4551,0.43656
12892,7.5914,1.1818,0,0.00040402,4037.4,0.00013659,0.031299,0.0001278,-66.009,-0.0004051,-4070,0.4379
12893,7.6836,1.0909,0,0.00040179,4015.2,0.00013543,0.029971,0.00012778,-57.462,-0.00040274,-4043.6,0.44726
12894,7.5914,1.0909,0.05,9.7233e-07,9.7166,7.4663e-07,5.6099,-2.0623e-12,1.3581e-05,-7.4663e-07,-5.6098,0.43745
12895,7.5914,1.3636,0,0.00040331,4030.3,0.00013705,0.028046,0.00012637,-80.212,-0.00040461,-4069.8,0.43866
12896,7.6836,1.2727,0,0.00040108,4008,0.00013585,0.0272,0.00012642,-70.849,-0.00040224,-4043,0.44806
12897,7.5914,1.2727,0.05,1.0001e-06,9.9937,7.6793e-07,5.7699,-3.7633e-12,9.7248e-06,-7.6792e-07,-5.7698,0.43825
12898,7.5914,1.5455,0,0.0004026,4023.2,0.00013751,0.024164,0.00012493,-94.544,-0.00040412,-4069.6,0.43934
12899,7.6836,1.4545,0,0.00040036,4000.9,0.00013628,0.023865,0.00012504,-84.485,-0.00040173,-4042.4,0.44878
12900,7.5914,1.4545,0.05,1.0275e-06,10.268,7.8898e-07,5.9281,-1.4731e-12,9.8931e-06,-7.8898e-07,-5.928,0.43897
12901,7.5914,1.7273,0,0.00040191,4016.3,0.00013797,0.019831,0.00012352,-108.6,-0.00040364,-4069.5,0.43993
12902,7.6836,1.6364,0,0.00039966,3993.9,0.00013672,0.020024,0.00012367,-98.01,-0.00040124,-4042,0.44942
12903,7.5914,1.6364,0.05,1.0535e-06,10.528,8.0898e-07,6.0783,-3.3363e-12,9.7702e-06,-8.0897e-07,-6.0783,0.43961
12904,7.5914,1.9091,0,0.00040126,4009.8,0.00013841,0.015311,0.00012218,-121.94,-0.00040319,-4069.4,0.44045
12905,7.6836,1.8182,0,0.000399,3987.2,0.00013713,0.015907,0.00012235,-111.03,-0.00040077,-4041.6,0.44997
12906,7.5914,1.8182,0.05,1.0773e-06,10.766,8.2725e-07,6.2157,-1.6464e-12,1.0049e-05,-8.2724e-07,-6.2156,0.44016
12907,7.5914,2.0909,0,0.00040066,4003.9,0.00013881,0.010876,0.00012095,-134.14,-0.00040278,-4069.3,0.44088
12908,7.6836,2,0,0.00039838,3981,0.00013752,0.01175,0.00012113,-123.15,-0.00040033,-4041.2,0.45044
12909,7.5914,2,0.05,1.0983e-06,10.975,8.4333e-07,6.3365,-2.1715e-12,7.9734e-06,-8.4333e-07,-6.3364,0.44064
12910,7.5914,2.2727,0,0.00040015,3998.7,0.00013916,0.006802,0.00011989,-144.78,-0.00040242,-4069.2,0.44123
12911,7.6836,2.1818,0,0.00039783,3975.6,0.00013787,0.0078045,0.00012003,-133.98,-0.00039994,-4040.8,0.45083
12912,7.5914,2.1818,0.05,1.1159e-06,11.152,8.5691e-07,6.4385,-5.0902e-13,5.5855e-06,-8.5691e-07,-6.4385,0.44103
12913,7.5914,2.4545,0,0.00039973,3994.5,0.00013944,0.0033408,0.00011901,-153.48,-0.00040212,-4069.1,0.44151
12914,7.6836,2.3636,0,0.00039737,3970.9,0.00013816,0.0043138,0.00011911,-143.13,-0.00039961,-4040.6,0.45115
12915,7.5914,2.3636,0.05,1.1301e-06,11.294,8.6781e-07,6.5204,-2.4672e-12,5.0646e-06,-8.6782e-07,-6.5204,0.44134
12916,7.5914,2.6364,0,0.00039942,3991.4,0.00013965,0.00070525,0.00011836,-159.94,-0.0004019,-4069,0.4417
12917,7.6836,2.5455,0,0.00039701,3967.3,0.00013839,0.001491,0.00011838,-150.3,-0.00039935,-4040.3,0.45138
12918,7.5914,2.5455,0.05,1.1408e-06,11.4,8.7598e-07,6.5818,8.5894e-13,6.437e-06,-8.7598e-07,-6.5818,0.44158
12919,7.5914,2.8182,0,0.00039923,3989.5,0.00013978,-0.00094389,0.00011797,-163.91,-0.00040176,-4068.9,0.44182
12920,7.6836,2.7273,0,0.00039676,3964.8,0.00013854,-0.00049269,0.00011788,-155.23,-0.00039917,-4040.2,0.45154
12921,7.5914,2.7273,0.05,1.1478e-06,11.471,8.814e-07,6.6225,5.4457e-13,5.9904e-06,-8.814e-07,-6.6225,0.44173
12922,7.5914,3,0,0.00039916,3988.9,0.00013982,-0.0015055,0.00011783,-165.25,-0.00040172,-4068.9,0.44186
12923,7.6836,2.9091,0,0.00039663,3963.6,0.00013862,-0.0015162,0.00011763,-157.74,-0.00039908,-4040.1,0.45161
12924,7.5914,2.9091,0.05,1.1514e-06,11.506,8.841e-07,6.6428,1.0948e-12,3.3011e-06,-8.8411e-07,-6.6428,0.44181
12925,7.5914,3.1818,0,0.00039923,3989.5,0.00013978,-0.00094424,0.00011797,-163.91,-0.00040176,-4068.9,0.44182
12926,7.6836,3.0909,0,0.00039663,3963.6,0.00013862,-0.0015163,0.00011763,-157.74,-0.00039908,-4040.1,0.45161
12927,7.5914,3.0909,0.05,1.1514e-06,11.506,8.8411e-07,6.6428,7.2518e-13,2.4306e-06,-8.841e-07,-6.6428,0.44181
12928,7.5914,3.3636,0,0.00039942,3991.4,0.00013965,0.00070493,0.00011836,-159.94,-0.0004019,-4069,0.4417
12929,7.6836,3.2727,0,0.00039676,3964.8,0.00013854,-0.00049287,0.00011788,-155.23,-0.00039917,-4040.2,0.45154
12930,7.5914,3.2727,0.05,1.1478e-06,11.471,8.814e-07,6.6225,1.2701e-12,1.5061e-06,-8.814e-07,-6.6225,0.44173
12931,7.5914,3.5455,0,0.00039973,3994.5,0.00013944,0.0033403,0.00011901,-153.48,-0.00040212,-4069.1,0.44151
12932,7.6836,3.4545,0,0.00039701,3967.3,0.00013839,0.0014908,0.00011838,-150.3,-0.00039935,-4040.3,0.45138
12933,7.5914,3.4545,0.05,1.1408e-06,11.4,8.7598e-07,6.5818,2.7843e-12,3.0167e-06,-8.7598e-07,-6.5818,0.44158
12934,7.5914,3.7273,0,0.00040015,3998.7,0.00013916,0.0068012,0.00011989,-144.78,-0.00040242,-4069.2,0.44123
12935,7.6836,3.6364,0,0.00039737,3970.9,0.00013816,0.0043132,0.00011911,-143.13,-0.00039961,-4040.6,0.45115
12936,7.5914,3.6364,0.05,1.1301e-06,11.294,8.6781e-07,6.5204,2.4776e-12,2.4525e-06,-8.6782e-07,-6.5204,0.44134
12937,7.5914,3.9091,0,0.00040066,4003.9,0.00013881,0.010876,0.00012095,-134.14,-0.00040278,-4069.3,0.44088
12938,7.6836,3.8182,0,0.00039783,3975.6,0.00013787,0.0078042,0.00012003,-133.98,-0.00039994,-4040.8,0.45083
12939,7.5914,3.8182,0.05,1.1159e-06,11.152,8.569e-07,6.4384,2.976e-12,-9.1011e-07,-8.5691e-07,-6.4385,0.44103
12940,7.5914,4.0909,0,0.00040126,4009.8,0.00013841,0.01531,0.00012218,-121.94,-0.00040319,-4069.4,0.44045
12941,7.6836,4,0,0.00039838,3981,0.00013752,0.01175,0.00012113,-123.15,-0.00040033,-4041.2,0.45044
12942,7.5914,4,0.05,1.0983e-06,10.975,8.4333e-07,6.3364,2.0521e-12,-1.4152e-06,-8.4333e-07,-6.3365,0.44064
12943,7.5914,4.2727,0,0.00040191,4016.3,0.00013797,0.019831,0.00012352,-108.6,-0.00040364,-4069.5,0.43993
12944,7.6836,4.1818,0,0.000399,3987.2,0.00013713,0.015906,0.00012235,-111.03,-0.00040077,-4041.6,0.44997
12945,7.5914,4.1818,0.05,1.0773e-06,10.766,8.2724e-07,6.2156,3.393e-12,-2.1815e-06,-8.2725e-07,-6.2157,0.44016
12946,7.5914,4.4545,0,0.0004026,4023.2,0.00013751,0.024164,0.00012493,-94.544,-0.00040412,-4069.6,0.43934
12947,7.6836,4.3636,0,0.00039966,3993.9,0.00013672,0.020023,0.00012367,-98.01,-0.00040124,-4042,0.44942
12948,7.5914,4.3636,0.05,1.0535e-06,10.528,8.0896e-07,6.0782,5.0947e-12,-3.8665e-06,-8.0898e-07,-6.0784,0.43961
12949,7.5914,4.6364,0,0.00040331,4030.3,0.00013705,0.028045,0.00012637,-80.212,-0.00040461,-4069.8,0.43866
12950,7.6836,4.5455,0,0.00040036,4000.9,0.00013628,0.023864,0.00012504,-84.485,-0.00040173,-4042.4,0.44878
12951,7.5914,4.5455,0.05,1.0275e-06,10.268,7.8898e-07,5.928,3.4523e-12,-6.0251e-06,-7.8898e-07,-5.9282,0.43897
12952,7.5914,4.8182,0,0.00040402,4037.4,0.00013659,0.031298,0.0001278,-66.009,-0.0004051,-4070,0.4379
12953,7.6836,4.7273,0,0.00040108,4008,0.00013585,0.027199,0.00012642,-70.849,-0.00040224,-4043,0.44806
12954,7.5914,4.7273,0.05,1.0001e-06,9.9937,7.6791e-07,5.7698,3.1428e-12,-6.8149e-06,-7.6793e-07,-5.77,0.43825
12955,7.5914,5,0,0.00040473,4044.5,0.00013615,0.033705,0.00012918,-52.298,-0.00040559,-4070.4,0.43705
12956,7.6836,4.9091,0,0.00040179,4015.2,0.00013543,0.02997,0.00012778,-57.462,-0.00040274,-4043.6,0.44726
12957,7.5914,4.9091,0.05,9.7233e-07,9.7166,7.4662e-07,5.6098,3.6236e-12,-7.9428e-06,-7.4663e-07,-5.61,0.43745
12958,7.5914,5.1818,0,0.00040542,4051.4,0.00013574,0.035825,0.00013049,-39.378,-0.00040608,-4071,0.43612
12959,7.6836,5.0909,0,0.0004025,4022.3,0.00013503,0.031864,0.00012909,-44.632,-0.00040324,-4044.4,0.44638
12960,7.5914,5.0909,0.05,9.4551e-07,9.4486,7.2603e-07,5.455,4.0015e-12,-8.3124e-06,-7.2604e-07,-5.4552,0.43656
12961,7.5914,5.3636,0,0.0004061,4058.2,0.00013537,0.036232,0.00013171,-27.468,-0.00040656,-4071.8,0.4351
12962,7.6836,5.2727,0,0.0004032,4029.2,0.00013467,0.034427,0.00013033,-32.602,-0.00040374,-4045.4,0.44541
12963,7.5914,5.2727,0.05,9.2079e-07,9.2016,7.0705e-07,5.3124,5.516e-12,-4.6064e-06,-7.0706e-07,-5.3126,0.43559
12964,7.5914,5.5455,0,0.00040676,4064.8,0.00013506,0.047551,0.00013283,-16.677,-0.00040704,-4073.1,0.434
12965,7.6836,5.4545,0,0.00040387,4036,0.00013435,0.033426,0.00013148,-21.537,-0.00040424,-4046.7,0.44435
12966,7.5914,5.4545,0.05,8.9739e-07,8.9677,6.8908e-07,5.1774,6.1759e-12,-7.1256e-06,-6.8909e-07,-5.1776,0.43453
12967,7.5914,5.7273,0,0.00040745,4071.7,0.0001348,0.069334,0.00013389,-6.7913,-0.00040757,-4075.1,0.43281
12968,7.6836,5.6364,0,0.00040455,4042.7,0.00013407,0.060334,0.00013254,-11.47,-0.00040474,-4048.4,0.44321
12969,7.5914,5.6364,0.05,8.4359e-07,8.4301,6.4776e-07,4.867,6.1853e-12,-5.58e-06,-6.4778e-07,-4.8672,0.43338
12970,7.6836,5.8182,0,0.0004053,4050.2,0.00013387,0.20123,0.00013357,-2.0157,-0.00040533,-4051.1,0.44198
12971,7.5914,5.8182,0.05,2.7057e-07,2.7038,2.0776e-07,1.5609,3.0356e-13,-4.9198e-05,-2.0776e-07,-1.5611,0.43214
12972,7.5914,5.9091,0,0.00040784,4075.6,0.00013463,0.23024,0.00013453,-0.49322,-0.00040785,-4075.7,0.43153
12973,7.7758,0.27273,0,0.00040239,4021.1,0.00013312,0.065269,0.00013223,-6.6186,-0.0004025,-4024.4,0.45247
12974,7.868,0.18182,0,0.00040022,3999.4,0.00013218,0.21781,0.00013191,-1.7868,-0.00040024,-4000.2,0.46178
12975,7.7758,0.18182,0.05,2.7441e-07,2.7422,2.1072e-07,1.5833,-1.9071e-12,3.8454e-05,-2.1071e-07,-1.5831,0.45181
12976,7.7758,0.090909,0,0.0004028,4025.2,0.00013297,0.28545,0.00013287,-0.42327,-0.0004028,-4025.3,0.4512
12977,7.7758,0.45455,0,0.00040166,4013.8,0.00013336,0.04285,0.00013118,-16.345,-0.00040194,-4022,0.45365
12978,7.868,0.36364,0,0.00039943,3991.6,0.00013237,0.056374,0.00013088,-11.157,-0.00039962,-3997.1,0.463
12979,7.7758,0.36364,0.05,8.6118e-07,8.6059,6.6129e-07,4.9687,-6.3664e-12,5.8445e-06,-6.6127e-07,-4.9685,0.45303
12980,7.7758,0.63636,0,0.00040097,4006.9,0.00013364,0.030685,0.00013009,-26.686,-0.00040142,-4020.2,0.45474
12981,7.868,0.54545,0,0.00039874,3984.6,0.00013262,0.028521,0.00012983,-20.885,-0.00039909,-3995,0.46413
12982,7.7758,0.54545,0.05,9.1264e-07,9.1201,7.0079e-07,5.2655,-4.5415e-12,7.1234e-06,-7.0079e-07,-5.2654,0.45417
12983,7.7758,0.81818,0,0.00040027,4000,0.00013396,0.030027,0.00012892,-37.87,-0.0004009,-4018.8,0.45575
12984,7.868,0.72727,0,0.00039804,3977.6,0.00013291,0.02929,0.00012873,-31.357,-0.00039856,-3993.2,0.46518
12985,7.7758,0.72727,0.05,9.3165e-07,9.31,7.1539e-07,5.3752,-6.0613e-12,8.3722e-06,-7.1539e-07,-5.3751,0.45523
12986,7.7758,1,0,0.00039957,3992.9,0.00013432,0.027855,0.00012769,-49.808,-0.00040039,-4017.6,0.45668
12987,7.868,0.90909,0,0.00039733,3970.6,0.00013322,0.026585,0.00012756,-42.55,-0.00039804,-3991.7,0.46614
12988,7.7758,0.90909,0.05,9.5109e-07,9.5044,7.3032e-07,5.4874,-4.0421e-12,8.7279e-06,-7.3032e-07,-5.4873,0.45619
12989,7.7758,1.1818,0,0.00039885,3985.7,0.0001347,0.025662,0.0001264,-62.312,-0.00039987,-4016.5,0.45752
12990,7.868,1.0909,0,0.00039662,3963.5,0.00013357,0.024794,0.00012634,-54.322,-0.00039752,-3990.3,0.46702
12991,7.7758,1.0909,0.05,9.7217e-07,9.715,7.4651e-07,5.609,-5.5957e-12,1.006e-05,-7.465e-07,-5.6089,0.45707
12992,7.7758,1.3636,0,0.00039813,3978.6,0.00013509,0.022837,0.00012509,-75.131,-0.00039936,-4015.6,0.45828
12993,7.868,1.2727,0,0.00039591,3956.3,0.00013393,0.022328,0.00012508,-66.468,-0.00039699,-3989.1,0.46782
12994,7.7758,1.2727,0.05,9.9401e-07,9.9332,7.6328e-07,5.735,-3.6835e-12,9.2501e-06,-7.6327e-07,-5.7349,0.45787
12995,7.7758,1.5455,0,0.00039743,3971.5,0.00013549,0.019553,0.00012378,-87.958,-0.00039885,-4014.8,0.45895
12996,7.868,1.4545,0,0.0003952,3949.3,0.0001343,0.01947,0.00012382,-78.728,-0.00039648,-3988,0.46853
12997,7.7758,1.4545,0.05,1.0157e-06,10.15,7.7992e-07,5.86,-3.7416e-12,9.4744e-06,-7.7991e-07,-5.8599,0.45859
12998,7.7758,1.7273,0,0.00039675,3964.8,0.00013587,0.01593,0.0001225,-100.45,-0.00039836,-4014,0.45954
12999,7.868,1.6364,0,0.00039452,3942.4,0.00013466,0.016233,0.00012258,-90.799,-0.00039598,-3987,0.46916
13000,7.7758,1.6364,0.05,1.0363e-06,10.356,7.9578e-07,5.9792,-3.414e-13,5.7249e-06,-7.9578e-07,-5.9792,0.45922
13001,7.7758,1.9091,0,0.00039612,3958.4,0.00013624,0.012175,0.0001213,-112.25,-0.00039791,-4013.4,0.46005
13002,7.868,1.8182,0,0.00039387,3936,0.00013501,0.012796,0.00012139,-102.36,-0.00039551,-3986.1,0.46971
13003,7.7758,1.8182,0.05,1.0553e-06,10.546,8.1035e-07,6.0886,-1.0009e-12,6.0474e-06,-8.1034e-07,-6.0886,0.45977
13004,7.7758,2.0909,0,0.00039554,3952.7,0.00013658,0.0085039,0.0001202,-122.99,-0.00039749,-4012.8,0.46048
13005,7.868,2,0,0.00039327,3930,0.00013534,0.0093442,0.00012029,-113.06,-0.00039507,-3985.3,0.47018
13006,7.7758,2,0.05,1.0721e-06,10.713,8.2322e-07,6.1854,-1.4097e-12,6.5423e-06,-8.2322e-07,-6.1853,0.46024
13007,7.7758,2.2727,0,0.00039505,3947.7,0.00013687,0.0051381,0.00011925,-132.33,-0.00039713,-4012.2,0.46084
13008,7.868,2.1818,0,0.00039274,3924.7,0.00013563,0.0060779,0.00011932,-122.58,-0.00039469,-3984.6,0.47057
13009,7.7758,2.1818,0.05,1.0863e-06,10.855,8.3414e-07,6.2674,2.6438e-13,7.7937e-06,-8.3414e-07,-6.2674,0.46064
13010,7.7758,2.4545,0,0.00039464,3943.7,0.0001371,0.0022825,0.00011848,-139.95,-0.00039684,-4011.8,0.46111
13011,7.868,2.3636,0,0.0003923,3920.3,0.00013588,0.0031926,0.00011849,-130.61,-0.00039436,-3984,0.47088
13012,7.7758,2.3636,0.05,1.0978e-06,10.97,8.4294e-07,6.3335,3.0394e-14,5.0647e-06,-8.4294e-07,-6.3335,0.46095
13013,7.7758,2.6364,0,0.00039434,3940.7,0.00013728,0.00010904,0.0001179,-145.6,-0.00039662,-4011.5,0.4613
13014,7.868,2.5455,0,0.00039196,3916.9,0.00013607,0.00086245,0.00011785,-136.89,-0.00039411,-3983.5,0.47112
13015,7.7758,2.5455,0.05,1.1064e-06,11.056,8.4956e-07,6.3832,-1.6269e-13,5.346e-06,-8.4956e-07,-6.3832,0.46118
13016,7.7758,2.8182,0,0.00039416,3938.9,0.00013739,-0.0012506,0.00011755,-149.06,-0.00039649,-4011.3,0.46142
13017,7.868,2.7273,0,0.00039172,3914.5,0.0001362,-0.00077474,0.00011741,-141.2,-0.00039393,-3983.2,0.47127
13018,7.7758,2.7273,0.05,1.1121e-06,11.113,8.5396e-07,6.4163,4.5117e-13,5.2913e-06,-8.5396e-07,-6.4163,0.46134
13019,7.7758,3,0,0.0003941,3938.3,0.00013742,-0.0017131,0.00011743,-150.23,-0.00039644,-4011.2,0.46146
13020,7.868,2.9091,0,0.0003916,3913.3,0.00013627,-0.0016188,0.00011718,-143.39,-0.00039384,-3983,0.47135
13021,7.7758,2.9091,0.05,1.115e-06,11.142,8.5616e-07,6.4328,1.0618e-12,3.0613e-06,-8.5616e-07,-6.4328,0.46141
13022,7.7758,3.1818,0,0.00039416,3938.9,0.00013739,-0.0012505,0.00011755,-149.06,-0.00039649,-4011.3,0.46142
13023,7.868,3.0909,0,0.0003916,3913.3,0.00013627,-0.0016188,0.00011718,-143.39,-0.00039384,-3983,0.47135
13024,7.7758,3.0909,0.05,1.115e-06,11.142,8.5616e-07,6.4328,2.5741e-12,4.5758e-06,-8.5616e-07,-6.4328,0.46141
13025,7.7758,3.3636,0,0.00039434,3940.7,0.00013728,0.00010901,0.0001179,-145.6,-0.00039662,-4011.5,0.4613
13026,7.868,3.2727,0,0.00039172,3914.5,0.0001362,-0.00077486,0.00011741,-141.2,-0.00039393,-3983.2,0.47127
13027,7.7758,3.2727,0.05,1.1121e-06,11.113,8.5396e-07,6.4163,3.1786e-12,4.2282e-06,-8.5396e-07,-6.4163,0.46134
13028,7.7758,3.5455,0,0.00039464,3943.7,0.0001371,0.0022823,0.00011848,-139.95,-0.00039684,-4011.8,0.46111
13029,7.868,3.4545,0,0.00039196,3916.9,0.00013607,0.00086231,0.00011785,-136.89,-0.00039411,-3983.5,0.47112
13030,7.7758,3.4545,0.05,1.1064e-06,11.056,8.4956e-07,6.3832,1.9999e-12,2.225e-06,-8.4956e-07,-6.3833,0.46118
13031,7.7758,3.7273,0,0.00039505,3947.8,0.00013687,0.005138,0.00011925,-132.33,-0.00039713,-4012.2,0.46084
13032,7.868,3.6364,0,0.0003923,3920.3,0.00013588,0.0031924,0.00011849,-130.61,-0.00039436,-3984,0.47088
13033,7.7758,3.6364,0.05,1.0978e-06,10.97,8.4294e-07,6.3335,2.5699e-12,1.2233e-06,-8.4295e-07,-6.3336,0.46095
13034,7.7758,3.9091,0,0.00039554,3952.7,0.00013658,0.0085037,0.0001202,-122.99,-0.00039749,-4012.8,0.46048
13035,7.868,3.8182,0,0.00039274,3924.7,0.00013563,0.0060775,0.00011932,-122.58,-0.00039469,-3984.6,0.47057
13036,7.7758,3.8182,0.05,1.0863e-06,10.855,8.3414e-07,6.2673,2.3512e-12,-1.5705e-06,-8.3414e-07,-6.2674,0.46064
13037,7.7758,4.0909,0,0.00039612,3958.4,0.00013624,0.012175,0.0001213,-112.25,-0.00039791,-4013.4,0.46005
13038,7.868,4,0,0.00039327,3930,0.00013534,0.0093439,0.00012029,-113.06,-0.00039507,-3985.3,0.47018
13039,7.7758,4,0.05,1.0721e-06,10.713,8.2322e-07,6.1853,2.0948e-12,-2.7016e-06,-8.2322e-07,-6.1854,0.46024
13040,7.7758,4.2727,0,0.00039675,3964.8,0.00013587,0.015929,0.0001225,-100.45,-0.00039836,-4014,0.45954
13041,7.868,4.1818,0,0.00039387,3936,0.00013501,0.012796,0.00012139,-102.36,-0.00039551,-3986.1,0.46971
13042,7.7758,4.1818,0.05,1.0553e-06,10.546,8.1034e-07,6.0886,4.636e-12,-2.6296e-06,-8.1035e-07,-6.0887,0.45977
13043,7.7758,4.4545,0,0.00039743,3971.5,0.00013549,0.019552,0.00012378,-87.958,-0.00039885,-4014.8,0.45895
13044,7.868,4.3636,0,0.00039452,3942.4,0.00013466,0.016232,0.00012258,-90.799,-0.00039598,-3987,0.46916
13045,7.7758,4.3636,0.05,1.0363e-06,10.356,7.9578e-07,5.9791,3.7122e-12,-2.6677e-06,-7.9578e-07,-5.9792,0.45922
13046,7.7758,4.6364,0,0.00039813,3978.6,0.00013509,0.022837,0.00012509,-75.131,-0.00039936,-4015.6,0.45828
13047,7.868,4.5455,0,0.0003952,3949.3,0.0001343,0.019469,0.00012382,-78.728,-0.00039648,-3988,0.46853
13048,7.7758,4.5455,0.05,1.0157e-06,10.15,7.7991e-07,5.8599,3.7905e-12,-3.8615e-06,-7.7992e-07,-5.86,0.45859
13049,7.7758,4.8182,0,0.00039885,3985.7,0.0001347,0.025662,0.0001264,-62.312,-0.00039987,-4016.5,0.45752
13050,7.868,4.7273,0,0.00039591,3956.3,0.00013393,0.022327,0.00012508,-66.468,-0.00039699,-3989.1,0.46782
13051,7.7758,4.7273,0.05,9.9401e-07,9.9332,7.6327e-07,5.7349,5.6093e-12,-4.7033e-06,-7.6328e-07,-5.735,0.45787
13052,7.7758,5,0,0.00039957,3992.9,0.00013432,0.027853,0.00012769,-49.808,-0.00040039,-4017.6,0.45668
13053,7.868,4.9091,0,0.00039662,3963.5,0.00013357,0.024794,0.00012634,-54.322,-0.00039752,-3990.3,0.46702
13054,7.7758,4.9091,0.05,9.7217e-07,9.715,7.465e-07,5.6088,3.9989e-12,-7.1113e-06,-7.4651e-07,-5.609,0.45707
13055,7.7758,5.1818,0,0.00040027,4000,0.00013396,0.030025,0.00012892,-37.87,-0.0004009,-4018.8,0.45575
13056,7.868,5.0909,0,0.00039733,3970.6,0.00013322,0.026583,0.00012756,-42.55,-0.00039804,-3991.7,0.46614
13057,7.7758,5.0909,0.05,9.5109e-07,9.5044,7.3032e-07,5.4873,5.9217e-12,-5.1152e-06,-7.3032e-07,-5.4874,0.45619
13058,7.7758,5.3636,0,0.00040097,4006.9,0.00013364,0.030684,0.00013009,-26.686,-0.00040142,-4020.2,0.45474
13059,7.868,5.2727,0,0.00039804,3977.6,0.00013291,0.029289,0.00012873,-31.357,-0.00039856,-3993.2,0.46518
13060,7.7758,5.2727,0.05,9.3165e-07,9.31,7.1539e-07,5.375,6.2312e-12,-5.3994e-06,-7.1539e-07,-5.3753,0.45523
13061,7.7758,5.5455,0,0.00040166,4013.8,0.00013336,0.042849,0.00013118,-16.345,-0.00040194,-4022,0.45365
13062,7.868,5.4545,0,0.00039874,3984.6,0.00013262,0.02852,0.00012983,-20.885,-0.00039909,-3995,0.46413
13063,7.7758,5.4545,0.05,9.1264e-07,9.1201,7.0078e-07,5.2654,6.2415e-12,-4.5189e-06,-7.008e-07,-5.2656,0.45417
13064,7.7758,5.7273,0,0.00040239,4021.1,0.00013312,0.065268,0.00013223,-6.6186,-0.0004025,-4024.4,0.45247
13065,7.868,5.6364,0,0.00039943,3991.6,0.00013237,0.056372,0.00013088,-11.157,-0.00039962,-3997.1,0.463
13066,7.7758,5.6364,0.05,8.6118e-07,8.6059,6.6127e-07,4.9685,6.1929e-12,-2.9619e-06,-6.6129e-07,-4.9687,0.45303
13067,7.868,5.8182,0,0.00040022,3999.4,0.00013218,0.2178,0.00013191,-1.7868,-0.00040024,-4000.2,0.46178
13068,7.7758,5.8182,0.05,2.7441e-07,2.7422,2.1071e-07,1.5831,2.1185e-12,-4.7446e-05,-2.1072e-07,-1.5833,0.45181
13069,7.7758,5.9091,0,0.0004028,4025.2,0.00013297,0.28545,0.00013287,-0.42327,-0.0004028,-4025.3,0.4512
13070,7.9602,0.27273,0,0.00039725,3969.8,0.00013141,0.062221,0.00013057,-6.2315,-0.00039736,-3972.8,0.4724
13071,8.0524,0.18182,0,0.00039506,3947.9,0.00013046,0.25552,0.00013024,-1.4374,-0.00039508,-3948.5,0.48186
13072,7.9602,0.18182,0.05,2.7211e-07,2.7193,2.0896e-07,1.57,-8.7691e-13,3.1646e-05,-2.0894e-07,-1.5699,0.47175
13073,7.9602,0.090909,0,0.00039766,3973.8,0.00013127,0.38812,0.00013118,-0.31216,-0.00039766,-3973.8,0.47114
13074,7.9602,0.45455,0,0.0003965,3962.3,0.00013163,0.038832,0.00012953,-15.712,-0.00039677,-3970.1,0.47357
13075,8.0524,0.36364,0,0.00039426,3939.8,0.00013063,0.052663,0.00012922,-10.605,-0.00039443,-3945.1,0.48306
13076,7.9602,0.36364,0.05,8.7332e-07,8.7272,6.7061e-07,5.0387,-6.5024e-12,6.1187e-06,-6.7059e-07,-5.0386,0.47296
13077,7.9602,0.63636,0,0.0003958,3955.3,0.00013188,0.02627,0.00012847,-25.571,-0.00039623,-3968,0.47466
13078,8.0524,0.54545,0,0.00039355,3932.8,0.00013086,0.024558,0.0001282,-19.944,-0.00039389,-3942.7,0.48419
13079,7.9602,0.54545,0.05,9.2321e-07,9.2258,7.0892e-07,5.3266,-2.8028e-12,8.705e-06,-7.0891e-07,-5.3264,0.47409
13080,7.9602,0.81818,0,0.0003951,3948.2,0.00013217,0.025458,0.00012736,-36.051,-0.0003957,-3966.1,0.47566
13081,8.0524,0.72727,0,0.00039285,3925.8,0.00013112,0.025173,0.00012714,-29.822,-0.00039335,-3940.6,0.48523
13082,7.9602,0.72727,0.05,9.3885e-07,9.382,7.2093e-07,5.4168,-2.7586e-12,7.6082e-06,-7.2092e-07,-5.4167,0.47514
13083,7.9602,1,0,0.00039439,3941.1,0.00013247,0.023288,0.00012621,-47.076,-0.00039517,-3964.5,0.47658
13084,8.0524,0.90909,0,0.00039215,3918.8,0.0001314,0.022423,0.00012604,-40.225,-0.00039282,-3938.7,0.48618
13085,7.9602,0.90909,0.05,9.5422e-07,9.5357,7.3273e-07,5.5055,-7.9453e-13,9.0952e-06,-7.3272e-07,-5.5053,0.4761
13086,7.9602,1.1818,0,0.00039368,3934,0.0001328,0.021286,0.00012501,-58.489,-0.00039464,-3962.9,0.47741
13087,8.0524,1.0909,0,0.00039144,3911.7,0.0001317,0.020744,0.0001249,-51.03,-0.00039228,-3937,0.48705
13088,7.9602,1.0909,0.05,9.7084e-07,9.7017,7.4548e-07,5.6013,-5.7471e-13,1.0774e-05,-7.4548e-07,-5.6012,0.47697
13089,7.9602,1.3636,0,0.00039297,3927,0.00013314,0.018814,0.00012381,-70.075,-0.00039412,-3961.6,0.47816
13090,8.0524,1.2727,0,0.00039074,3904.7,0.00013201,0.01854,0.00012375,-62.063,-0.00039176,-3935.4,0.48784
13091,7.9602,1.2727,0.05,9.8807e-07,9.8739,7.5872e-07,5.7008,-2.3585e-12,7.6205e-06,-7.5871e-07,-5.7006,0.47776
13092,7.9602,1.5455,0,0.00039229,3920.2,0.00013348,0.016014,0.00012262,-81.576,-0.00039361,-3960.3,0.47883
13093,8.0524,1.4545,0,0.00039006,3897.9,0.00013232,0.016076,0.00012259,-73.104,-0.00039125,-3933.9,0.48855
13094,7.9602,1.4545,0.05,1.0052e-06,10.045,7.7188e-07,5.7996,-6.1148e-13,8.2528e-06,-7.7187e-07,-5.7995,0.47847
13095,7.9602,1.7273,0,0.00039163,3913.6,0.0001338,0.012966,0.00012146,-92.708,-0.00039313,-3959.1,0.47942
13096,8.0524,1.6364,0,0.00038939,3891.3,0.00013263,0.013333,0.00012147,-83.899,-0.00039075,-3932.5,0.48918
13097,7.9602,1.6364,0.05,1.0216e-06,10.209,7.8447e-07,5.8942,-2.2206e-12,5.426e-06,-7.8447e-07,-5.8942,0.4791
13098,7.9602,1.9091,0,0.00039102,3907.5,0.00013411,0.0098317,0.00012038,-103.17,-0.00039267,-3958.1,0.47993
13099,8.0524,1.8182,0,0.00038877,3885,0.00013293,0.01045,0.0001204,-94.174,-0.00039029,-3931.3,0.48973
13100,7.9602,1.8182,0.05,1.0367e-06,10.36,7.9607e-07,5.9814,-1.4341e-12,6.2675e-06,-7.9607e-07,-5.9813,0.47965
13101,7.9602,2.0909,0,0.00039047,3902,0.0001344,0.0067817,0.0001194,-112.65,-0.00039227,-3957.1,0.48036
13102,8.0524,2,0,0.0003882,3879.4,0.00013321,0.0075728,0.00011941,-103.65,-0.00038986,-3930.1,0.49019
13103,7.9602,2,0.05,1.0501e-06,10.494,8.0637e-07,6.0588,-1.6031e-12,8.838e-06,-8.0637e-07,-6.0587,0.48012
13104,7.9602,2.2727,0,0.00039,3897.3,0.00013464,0.0039927,0.00011855,-120.86,-0.00039191,-3956.3,0.48071
13105,8.0524,2.1818,0,0.0003877,3874.4,0.00013345,0.00486,0.00011854,-112.04,-0.00038949,-3929.2,0.49058
13106,7.9602,2.1818,0.05,1.0615e-06,10.608,8.1513e-07,6.1246,1.8144e-14,6.8673e-06,-8.1513e-07,-6.1246,0.48051
13107,7.9602,2.4545,0,0.00038961,3893.5,0.00013484,0.00163,0.00011786,-127.55,-0.00039163,-3955.7,0.48098
13108,8.0524,2.3636,0,0.00038728,3870.2,0.00013366,0.0024687,0.00011781,-119.1,-0.00038917,-3928.3,0.49089
13109,7.9602,2.3636,0.05,1.0708e-06,10.7,8.2223e-07,6.1779,-1.1938e-13,5.8874e-06,-8.2223e-07,-6.1779,0.48082
13110,7.9602,2.6364,0,0.00038933,3890.6,0.00013499,-0.00016615,0.00011735,-132.49,-0.00039142,-3955.2,0.48117
13111,8.0524,2.5455,0,0.00038696,3866.9,0.00013382,0.00054067,0.00011723,-124.61,-0.00038893,-3927.7,0.49112
13112,7.9602,2.5455,0.05,1.0777e-06,10.77,8.2758e-07,6.2181,-1.1849e-12,4.6917e-06,-8.2758e-07,-6.2181,0.48105
13113,7.9602,2.8182,0,0.00038916,3888.9,0.00013508,-0.0012892,0.00011704,-135.52,-0.00039129,-3954.9,0.48129
13114,8.0524,2.7273,0,0.00038673,3864.7,0.00013393,-0.00081254,0.00011684,-128.39,-0.00038876,-3927.3,0.49128
13115,7.9602,2.7273,0.05,1.0824e-06,10.817,8.3115e-07,6.2449,3.7775e-13,6.6447e-06,-8.3115e-07,-6.2449,0.48121
13116,7.9602,3,0,0.0003891,3888.3,0.00013511,-0.0016712,0.00011693,-136.55,-0.00039124,-3954.8,0.48133
13117,8.0524,2.9091,0,0.00038662,3863.5,0.00013398,-0.0015106,0.00011664,-130.31,-0.00038867,-3927,0.49135
13118,7.9602,2.9091,0.05,1.0847e-06,10.84,8.3293e-07,6.2583,1.2844e-13,2.8637e-06,-8.3293e-07,-6.2583,0.48128
13119,7.9602,3.1818,0,0.00038916,3888.9,0.00013508,-0.0012894,0.00011704,-135.52,-0.00039129,-3954.9,0.48129
13120,8.0524,3.0909,0,0.00038662,3863.5,0.00013398,-0.0015105,0.00011664,-130.31,-0.00038867,-3927,0.49135
13121,7.9602,3.0909,0.05,1.0847e-06,10.84,8.3293e-07,6.2583,2.6006e-12,2.851e-06,-8.3293e-07,-6.2583,0.48128
13122,7.9602,3.3636,0,0.00038933,3890.6,0.00013499,-0.00016638,0.00011735,-132.49,-0.00039142,-3955.2,0.48117
13123,8.0524,3.2727,0,0.00038673,3864.7,0.00013393,-0.00081299,0.00011684,-128.39,-0.00038876,-3927.3,0.49128
13124,7.9602,3.2727,0.05,1.0824e-06,10.817,8.3114e-07,6.2449,2.3314e-12,2.8779e-06,-8.3115e-07,-6.2449,0.48121
13125,7.9602,3.5455,0,0.00038961,3893.5,0.00013484,0.0016299,0.00011786,-127.55,-0.00039163,-3955.7,0.48098
13126,8.0524,3.4545,0,0.00038696,3866.9,0.00013382,0.00054094,0.00011723,-124.61,-0.00038893,-3927.7,0.49112
13127,7.9602,3.4545,0.05,1.0777e-06,10.77,8.2758e-07,6.2181,2.1149e-12,1.1775e-06,-8.2758e-07,-6.2181,0.48105
13128,7.9602,3.7273,0,0.00039,3897.3,0.00013464,0.0039923,0.00011855,-120.86,-0.00039191,-3956.3,0.48071
13129,8.0524,3.6364,0,0.00038728,3870.2,0.00013366,0.0024685,0.00011781,-119.1,-0.00038917,-3928.3,0.49089
13130,7.9602,3.6364,0.05,1.0708e-06,10.7,8.2223e-07,6.1779,2.7883e-12,1.3554e-06,-8.2223e-07,-6.1779,0.48082
13131,7.9602,3.9091,0,0.00039047,3902,0.0001344,0.0067812,0.0001194,-112.65,-0.00039227,-3957.1,0.48036
13132,8.0524,3.8182,0,0.0003877,3874.4,0.00013345,0.0048594,0.00011854,-112.04,-0.00038949,-3929.2,0.49058
13133,7.9602,3.8182,0.05,1.0615e-06,10.608,8.1513e-07,6.1246,2.6196e-12,5.0381e-07,-8.1514e-07,-6.1246,0.48051
13134,7.9602,4.0909,0,0.00039102,3907.5,0.00013411,0.0098311,0.00012038,-103.17,-0.00039267,-3958.1,0.47993
13135,8.0524,4,0,0.0003882,3879.4,0.00013321,0.0075725,0.00011941,-103.65,-0.00038986,-3930.1,0.49019
13136,7.9602,4,0.05,1.0501e-06,10.494,8.0637e-07,6.0587,2.424e-12,-1.0198e-06,-8.0637e-07,-6.0588,0.48012
13137,7.9602,4.2727,0,0.00039163,3913.6,0.0001338,0.012965,0.00012146,-92.708,-0.00039313,-3959.1,0.47942
13138,8.0524,4.1818,0,0.00038877,3885,0.00013293,0.010449,0.0001204,-94.174,-0.00039029,-3931.3,0.48973
13139,7.9602,4.1818,0.05,1.0367e-06,10.36,7.9607e-07,5.9813,3.2335e-12,-1.6872e-06,-7.9608e-07,-5.9814,0.47965
13140,7.9602,4.4545,0,0.00039229,3920.2,0.00013348,0.016013,0.00012262,-81.576,-0.00039361,-3960.3,0.47883
13141,8.0524,4.3636,0,0.00038939,3891.3,0.00013263,0.013332,0.00012147,-83.899,-0.00039075,-3932.5,0.48918
13142,7.9602,4.3636,0.05,1.0216e-06,10.209,7.8446e-07,5.8941,3.1054e-12,-2.9989e-06,-7.8447e-07,-5.8942,0.4791
13143,7.9602,4.6364,0,0.00039297,3927,0.00013314,0.018813,0.00012381,-70.075,-0.00039412,-3961.6,0.47816
13144,8.0524,4.5455,0,0.00039006,3897.9,0.00013232,0.016075,0.00012259,-73.104,-0.00039125,-3933.9,0.48855
13145,7.9602,4.5455,0.05,1.0052e-06,10.045,7.7187e-07,5.7995,4.0175e-12,-4.5796e-06,-7.7188e-07,-5.7997,0.47847
13146,7.9602,4.8182,0,0.00039368,3934,0.0001328,0.021285,0.00012501,-58.489,-0.00039464,-3963,0.47741
13147,8.0524,4.7273,0,0.00039074,3904.7,0.00013201,0.018539,0.00012375,-62.063,-0.00039176,-3935.4,0.48784
13148,7.9602,4.7273,0.05,9.8807e-07,9.8739,7.5871e-07,5.7006,5.8209e-12,-3.3398e-06,-7.5872e-07,-5.7008,0.47776
13149,7.9602,5,0,0.00039439,3941.1,0.00013247,0.023287,0.00012621,-47.076,-0.00039517,-3964.5,0.47658
13150,8.0524,4.9091,0,0.00039144,3911.7,0.0001317,0.020743,0.0001249,-51.03,-0.00039228,-3937,0.48705
13151,7.9602,4.9091,0.05,9.7084e-07,9.7017,7.4548e-07,5.6012,4.2105e-12,-4.9195e-06,-7.4548e-07,-5.6014,0.47697
13152,7.9602,5.1818,0,0.0003951,3948.2,0.00013217,0.025457,0.00012736,-36.051,-0.0003957,-3966.1,0.47566
13153,8.0524,5.0909,0,0.00039215,3918.8,0.0001314,0.022421,0.00012604,-40.225,-0.00039282,-3938.7,0.48618
13154,7.9602,5.0909,0.05,9.5422e-07,9.5357,7.3272e-07,5.5053,4.394e-12,-3.4634e-06,-7.3273e-07,-5.5055,0.4761
13155,7.9602,5.3636,0,0.0003958,3955.3,0.00013188,0.02627,0.00012847,-25.571,-0.00039623,-3968,0.47466
13156,8.0524,5.2727,0,0.00039285,3925.8,0.00013112,0.025172,0.00012714,-29.822,-0.00039335,-3940.6,0.48523
13157,7.9602,5.2727,0.05,9.3885e-07,9.382,7.2091e-07,5.4166,6.0078e-12,-4.8218e-06,-7.2093e-07,-5.4168,0.47514
13158,7.9602,5.5455,0,0.0003965,3962.3,0.00013163,0.038831,0.00012953,-15.712,-0.00039677,-3970.1,0.47357
13159,8.0524,5.4545,0,0.00039355,3932.8,0.00013086,0.024557,0.0001282,-19.944,-0.00039389,-3942.7,0.48419
13160,7.9602,5.4545,0.05,9.2321e-07,9.2258,7.0891e-07,5.3264,8.1018e-12,-4.6875e-06,-7.0892e-07,-5.3266,0.47409
13161,7.9602,5.7273,0,0.00039725,3969.8,0.00013141,0.06222,0.00013057,-6.2315,-0.00039736,-3972.8,0.4724
13162,8.0524,5.6364,0,0.00039426,3939.8,0.00013063,0.052662,0.00012922,-10.605,-0.00039443,-3945.1,0.48306
13163,7.9602,5.6364,0.05,8.7332e-07,8.7272,6.7059e-07,5.0385,6.5698e-12,-2.9612e-06,-6.7061e-07,-5.0387,0.47296
13164,8.0524,5.8182,0,0.00039506,3947.9,0.00013046,0.25552,0.00013024,-1.4374,-0.00039508,-3948.5,0.48186
13165,7.9602,5.8182,0.05,2.7211e-07,2.7193,2.0894e-07,1.5699,3.6414e-13,-4.7181e-05,-2.0896e-07,-1.5701,0.47175
13166,7.9602,5.9091,0,0.00039766,3973.8,0.00013127,0.38812,0.00013118,-0.31216,-0.00039766,-3973.8,0.47114
13167,8.1445,0.27273,0,0.00039206,3917.9,0.00012966,0.060038,0.0001289,-5.6804,-0.00039215,-3920.7,0.49261
13168,8.2367,0.18182,0,0.00038985,3895.8,0.00012873,0.33489,0.00012855,-1.0218,-0.00038986,-3896.1,0.5022
13169,8.1445,0.18182,0.05,2.6527e-07,2.6508,2.0369e-07,1.5305,-2.012e-12,4.2621e-05,-2.0369e-07,-1.5304,0.49196
13170,8.1445,0.090909,0,0.00039245,3921.8,0.00012957,0.56428,0.00012946,-0.20642,-0.00039244,-3921.6,0.49136
13171,8.1445,0.45455,0,0.0003913,3910.3,0.00012987,0.03528,0.00012789,-14.852,-0.00039155,-3917.7,0.49377
13172,8.2367,0.36364,0,0.00038904,3887.7,0.00012888,0.049102,0.00012756,-9.8741,-0.00038921,-3892.6,0.5034
13173,8.1445,0.36364,0.05,8.8121e-07,8.806,6.7666e-07,5.0843,-4.8776e-12,6.3948e-06,-6.7666e-07,-5.084,0.49316
13174,8.1445,0.63636,0,0.0003906,3903.3,0.0001301,0.022674,0.00012687,-24.21,-0.00039101,-3915.3,0.49484
13175,8.2367,0.54545,0,0.00038834,3880.7,0.00012908,0.021277,0.00012658,-18.789,-0.00038865,-3890.1,0.50451
13176,8.1445,0.54545,0.05,9.3013e-07,9.2948,7.1423e-07,5.3665,-2.8817e-12,6.8241e-06,-7.1422e-07,-5.3663,0.49428
13177,8.1445,0.81818,0,0.0003899,3896.3,0.00013035,0.021791,0.00012582,-34.01,-0.00039047,-3913.2,0.49584
13178,8.2367,0.72727,0,0.00038764,3873.8,0.00012931,0.021803,0.00012557,-28.08,-0.00038811,-3887.7,0.50554
13179,8.1445,0.72727,0.05,9.4317e-07,9.4252,7.2425e-07,5.4417,-4.3844e-12,6.0823e-06,-7.2423e-07,-5.4416,0.49532
13180,8.1445,1,0,0.0003892,3889.3,0.00013062,0.019674,0.00012474,-44.191,-0.00038993,-3911.2,0.49675
13181,8.2367,0.90909,0,0.00038695,3866.9,0.00012956,0.01909,0.00012454,-37.739,-0.00038758,-3885.6,0.50649
13182,8.1445,0.90909,0.05,9.5539e-07,9.5473,7.3362e-07,5.5122,-4.4558e-12,7.6908e-06,-7.3362e-07,-5.5121,0.49627
13183,8.1445,1.1818,0,0.00038851,3882.4,0.0001309,0.017852,0.00012363,-54.615,-0.00038941,-3909.4,0.49757
13184,8.2367,1.0909,0,0.00038626,3860,0.00012982,0.017533,0.00012348,-47.66,-0.00038705,-3883.6,0.50735
13185,8.1445,1.0909,0.05,9.6853e-07,9.6786,7.4372e-07,5.588,-2.4598e-12,8.6295e-06,-7.437e-07,-5.5879,0.49714
13186,8.1445,1.3636,0,0.00038782,3875.6,0.00013119,0.015682,0.00012253,-65.101,-0.00038889,-3907.7,0.49832
13187,8.2367,1.2727,0,0.00038559,3853.2,0.00013009,0.015565,0.00012241,-57.694,-0.00038653,-3881.7,0.50814
13188,8.1445,1.2727,0.05,9.8216e-07,9.8148,7.5418e-07,5.6667,-4.1835e-12,8.0013e-06,-7.5418e-07,-5.6665,0.49792
13189,8.1445,1.5455,0,0.00038716,3868.9,0.00013148,0.013285,0.00012144,-75.434,-0.00038839,-3906.1,0.49898
13190,8.2367,1.4545,0,0.00038492,3846.6,0.00013036,0.013435,0.00012136,-67.654,-0.00038603,-3880,0.50884
13191,8.1445,1.4545,0.05,9.9574e-07,9.9505,7.6461e-07,5.745,-2.4729e-12,7.4057e-06,-7.646e-07,-5.7449,0.49863
13192,8.1445,1.7273,0,0.00038653,3862.7,0.00013176,0.010711,0.0001204,-85.372,-0.00038792,-3904.7,0.49957
13193,8.2367,1.6364,0,0.00038429,3840.3,0.00013063,0.011103,0.00012034,-77.327,-0.00038555,-3878.3,0.50946
13194,8.1445,1.6364,0.05,1.0088e-06,10.081,7.7461e-07,5.8201,-2.5243e-12,7.8214e-06,-7.746e-07,-5.82,0.49925
13195,8.1445,1.9091,0,0.00038595,3856.9,0.00013203,0.0080854,0.00011943,-94.661,-0.00038748,-3903.3,0.50007
13196,8.2367,1.8182,0,0.0003837,3834.4,0.00013088,0.0086774,0.00011937,-86.484,-0.0003851,-3876.9,0.51
13197,8.1445,1.8182,0.05,1.0208e-06,10.201,7.8385e-07,5.8896,-6.652e-13,6.8141e-06,-7.8384e-07,-5.8895,0.4998
13198,8.1445,2.0909,0,0.00038543,3851.7,0.00013226,0.0055436,0.00011855,-103.05,-0.00038708,-3902.2,0.5005
13199,8.2367,2,0,0.00038316,3829,0.00013112,0.006272,0.00011849,-94.887,-0.00038469,-3875.5,0.51047
13200,8.1445,2,0.05,1.0315e-06,10.308,7.9208e-07,5.9514,8.2878e-14,8.4319e-06,-7.9208e-07,-5.9513,0.50026
13201,8.1445,2.2727,0,0.00038499,3847.2,0.00013247,0.003226,0.00011779,-110.29,-0.00038674,-3901.2,0.50085
13202,8.2367,2.1818,0,0.00038269,3824.3,0.00013132,0.0040132,0.00011771,-102.31,-0.00038433,-3874.4,0.51085
13203,8.1445,2.1818,0.05,1.0407e-06,10.4,7.9912e-07,6.0042,-2.9081e-14,5.3821e-06,-7.9911e-07,-6.0042,0.50065
13204,8.1445,2.4545,0,0.00038463,3843.6,0.00013264,0.001267,0.00011718,-116.17,-0.00038647,-3900.4,0.50112
13205,8.2367,2.3636,0,0.0003823,3820.3,0.0001315,0.0020275,0.00011705,-108.53,-0.00038403,-3873.4,0.51116
13206,8.1445,2.3636,0.05,1.0481e-06,10.474,8.0483e-07,6.0472,6.654e-13,5.2302e-06,-8.0483e-07,-6.0471,0.50096
13207,8.1445,2.6364,0,0.00038436,3840.9,0.00013276,-0.00022001,0.00011672,-120.51,-0.00038627,-3899.8,0.50131
13208,8.2367,2.5455,0,0.00038199,3817.3,0.00013163,0.00042911,0.00011654,-113.38,-0.00038379,-3872.7,0.51139
13209,8.1445,2.5455,0.05,1.0537e-06,10.53,8.0915e-07,6.0796,-3.8275e-13,4.9079e-06,-8.0914e-07,-6.0796,0.50119
13210,8.1445,2.8182,0,0.0003842,3839.3,0.00013284,-0.0011494,0.00011644,-123.17,-0.00038614,-3899.4,0.50143
13211,8.2367,2.7273,0,0.00038178,3815.2,0.00013172,-0.00069134,0.00011619,-116.69,-0.00038363,-3872.2,0.51155
13212,8.1445,2.7273,0.05,1.0575e-06,10.568,8.1203e-07,6.1013,3.1764e-13,4.2883e-06,-8.1203e-07,-6.1013,0.50134
13213,8.1445,3,0,0.00038414,3838.8,0.00013286,-0.0014659,0.00011635,-124.07,-0.0003861,-3899.3,0.50146
13214,8.2367,2.9091,0,0.00038168,3814.1,0.00013177,-0.0012695,0.00011602,-118.38,-0.00038355,-3871.9,0.51162
13215,8.1445,2.9091,0.05,1.0594e-06,10.587,8.1348e-07,6.1121,1.0714e-13,3.6583e-06,-8.1348e-07,-6.1122,0.50142
13216,8.1445,3.1818,0,0.0003842,3839.3,0.00013284,-0.0011496,0.00011644,-123.17,-0.00038614,-3899.4,0.50143
13217,8.2367,3.0909,0,0.00038168,3814.1,0.00013177,-0.0012696,0.00011602,-118.38,-0.00038355,-3871.9,0.51162
13218,8.1445,3.0909,0.05,1.0594e-06,10.587,8.1348e-07,6.1121,-1.0763e-13,2.9983e-06,-8.1348e-07,-6.1122,0.50142
13219,8.1445,3.3636,0,0.00038436,3840.9,0.00013276,-0.00021995,0.00011672,-120.51,-0.00038627,-3899.8,0.50131
13220,8.2367,3.2727,0,0.00038178,3815.2,0.00013172,-0.00069193,0.00011619,-116.69,-0.00038363,-3872.2,0.51155
13221,8.1445,3.2727,0.05,1.0575e-06,10.568,8.1203e-07,6.1013,1.4878e-12,2.2835e-06,-8.1204e-07,-6.1013,0.50134
13222,8.1445,3.5455,0,0.00038463,3843.6,0.00013264,0.0012672,0.00011718,-116.17,-0.00038647,-3900.4,0.50112
13223,8.2367,3.4545,0,0.00038199,3817.3,0.00013163,0.00042924,0.00011654,-113.38,-0.00038379,-3872.7,0.51139
13224,8.1445,3.4545,0.05,1.0537e-06,10.53,8.0914e-07,6.0796,2.1965e-12,1.7618e-06,-8.0915e-07,-6.0796,0.50119
13225,8.1445,3.7273,0,0.00038499,3847.2,0.00013247,0.0032256,0.00011779,-110.29,-0.00038674,-3901.2,0.50085
13226,8.2367,3.6364,0,0.0003823,3820.3,0.0001315,0.0020271,0.00011705,-108.53,-0.00038403,-3873.4,0.51116
13227,8.1445,3.6364,0.05,1.0481e-06,10.474,8.0482e-07,6.0471,2.8597e-12,2.3021e-06,-8.0483e-07,-6.0472,0.50096
13228,8.1445,3.9091,0,0.00038543,3851.7,0.00013226,0.0055432,0.00011855,-103.05,-0.00038708,-3902.2,0.5005
13229,8.2367,3.8182,0,0.00038269,3824.3,0.00013132,0.0040125,0.00011771,-102.31,-0.00038433,-3874.4,0.51085
13230,8.1445,3.8182,0.05,1.0407e-06,10.4,7.9911e-07,6.0042,2.6764e-12,1.3049e-06,-7.9912e-07,-6.0043,0.50065
13231,8.1445,4.0909,0,0.00038595,3856.9,0.00013203,0.0080852,0.00011943,-94.661,-0.00038748,-3903.3,0.50007
13232,8.2367,4,0,0.00038316,3829,0.00013112,0.0062719,0.00011849,-94.887,-0.00038469,-3875.5,0.51047
13233,8.1445,4,0.05,1.0315e-06,10.308,7.9208e-07,5.9513,4.4607e-12,-3.7727e-07,-7.9208e-07,-5.9514,0.50026
13234,8.1445,4.2727,0,0.00038653,3862.7,0.00013176,0.01071,0.0001204,-85.372,-0.00038792,-3904.7,0.49957
13235,8.2367,4.1818,0,0.0003837,3834.4,0.00013088,0.0086769,0.00011937,-86.484,-0.0003851,-3876.9,0.51
13236,8.1445,4.1818,0.05,1.0208e-06,10.201,7.8384e-07,5.8895,3.357e-12,-1.0236e-06,-7.8386e-07,-5.8896,0.4998
13237,8.1445,4.4545,0,0.00038716,3868.9,0.00013148,0.013284,0.00012144,-75.434,-0.00038839,-3906.1,0.49898
13238,8.2367,4.3636,0,0.00038429,3840.3,0.00013063,0.011102,0.00012034,-77.327,-0.00038555,-3878.3,0.50946
13239,8.1445,4.3636,0.05,1.0088e-06,10.081,7.746e-07,5.82,3.3029e-12,-1.1742e-06,-7.7461e-07,-5.8201,0.49925
13240,8.1445,4.6364,0,0.00038782,3875.6,0.00013119,0.015681,0.00012253,-65.101,-0.00038889,-3907.7,0.49832
13241,8.2367,4.5455,0,0.00038492,3846.6,0.00013036,0.013435,0.00012136,-67.654,-0.00038603,-3880,0.50884
13242,8.1445,4.5455,0.05,9.9574e-07,9.9505,7.646e-07,5.7449,4.2185e-12,-1.9364e-06,-7.6461e-07,-5.745,0.49863
13243,8.1445,4.8182,0,0.00038851,3882.4,0.0001309,0.017851,0.00012363,-54.615,-0.00038941,-3909.4,0.49757
13244,8.2367,4.7273,0,0.00038559,3853.2,0.00013009,0.015565,0.00012241,-57.693,-0.00038653,-3881.7,0.50814
13245,8.1445,4.7273,0.05,9.8216e-07,9.8148,7.5418e-07,5.6665,6.0265e-12,-2.8857e-06,-7.5418e-07,-5.6667,0.49792
13246,8.1445,5,0,0.0003892,3889.3,0.00013062,0.019673,0.00012474,-44.191,-0.00038993,-3911.2,0.49675
13247,8.2367,4.9091,0,0.00038626,3860,0.00012982,0.017532,0.00012348,-47.66,-0.00038705,-3883.6,0.50735
13248,8.1445,4.9091,0.05,9.6853e-07,9.6786,7.4371e-07,5.5878,6.1461e-12,-4.1356e-06,-7.4371e-07,-5.588,0.49714
13249,8.1445,5.1818,0,0.0003899,3896.3,0.00013035,0.02179,0.00012582,-34.01,-0.00039047,-3913.2,0.49584
13250,8.2367,5.0909,0,0.00038695,3866.9,0.00012956,0.019088,0.00012454,-37.739,-0.00038758,-3885.6,0.50649
13251,8.1445,5.0909,0.05,9.5539e-07,9.5473,7.3362e-07,5.5121,4.5286e-12,-4.1702e-06,-7.3362e-07,-5.5122,0.49627
13252,8.1445,5.3636,0,0.0003906,3903.3,0.0001301,0.022674,0.00012687,-24.21,-0.00039101,-3915.3,0.49484
13253,8.2367,5.2727,0,0.00038764,3873.8,0.00012931,0.021801,0.00012557,-28.08,-0.00038811,-3887.7,0.50554
13254,8.1445,5.2727,0.05,9.4317e-07,9.4252,7.2423e-07,5.4416,4.5236e-12,-2.5078e-06,-7.2425e-07,-5.4417,0.49532
13255,8.1445,5.5455,0,0.0003913,3910.3,0.00012987,0.035279,0.00012789,-14.852,-0.00039155,-3917.7,0.49377
13256,8.2367,5.4545,0,0.00038834,3880.7,0.00012908,0.021277,0.00012658,-18.789,-0.00038865,-3890.1,0.50451
13257,8.1445,5.4545,0.05,9.3013e-07,9.2948,7.1421e-07,5.3663,6.4197e-12,-3.3657e-06,-7.1423e-07,-5.3665,0.49428
13258,8.1445,5.7273,0,0.00039206,3917.9,0.00012966,0.060037,0.0001289,-5.6804,-0.00039215,-3920.7,0.49261
13259,8.2367,5.6364,0,0.00038904,3887.7,0.00012888,0.049101,0.00012756,-9.8741,-0.00038921,-3892.6,0.5034
13260,8.1445,5.6364,0.05,8.8121e-07,8.806,6.7666e-07,5.084,6.6611e-12,-3.1335e-06,-6.7666e-07,-5.0843,0.49316
13261,8.2367,5.8182,0,0.00038985,3895.8,0.00012873,0.33489,0.00012855,-1.0218,-0.00038986,-3896.1,0.5022
13262,8.1445,5.8182,0.05,2.6527e-07,2.6508,2.0369e-07,1.5304,1.8665e-12,-4.5284e-05,-2.0369e-07,-1.5306,0.49196
13263,8.1445,5.9091,0,0.00039245,3921.8,0.00012957,0.56428,0.00012946,-0.20642,-0.00039244,-3921.6,0.49136
13264,8.3289,0.27273,0,0.00038682,3865.6,0.0001279,0.058772,0.00012723,-5.0073,-0.00038691,-3868,0.51308
13265,8.4211,0.18182,0,0.0003846,3843.4,0.00012699,0.50854,0.00012684,-0.62063,-0.0003846,-3843.4,0.52281
13266,8.3289,0.18182,0.05,2.5513e-07,2.5495,1.9591e-07,1.4721,-1.0098e-13,4.7614e-05,-1.959e-07,-1.4719,0.51244
13267,8.3289,0.090909,0,0.0003872,3869.3,0.00012785,0.82262,0.00012772,-0.13182,-0.00038718,-3868.9,0.51184
13268,8.3289,0.45455,0,0.00038607,3858.1,0.00012809,0.032061,0.00012625,-13.826,-0.00038631,-3865,0.51423
13269,8.4211,0.36364,0,0.0003838,3835.3,0.0001271,0.045659,0.0001259,-9.0115,-0.00038395,-3839.8,0.52399
13270,8.3289,0.36364,0.05,8.8581e-07,8.852,6.802e-07,5.1108,-3.0916e-12,5.9895e-06,-6.8019e-07,-5.1106,0.51363
13271,8.3289,0.63636,0,0.00038538,3851.2,0.0001283,0.019682,0.00012528,-22.674,-0.00038576,-3862.4,0.51529
13272,8.4211,0.54545,0,0.00038311,3828.4,0.00012729,0.018509,0.00012496,-17.483,-0.0003834,-3837.1,0.5251
13273,8.3289,0.54545,0.05,9.3418e-07,9.3353,7.1734e-07,5.3898,-4.8598e-12,5.9085e-06,-7.1733e-07,-5.3897,0.51474
13274,8.3289,0.81818,0,0.00038469,3844.3,0.00012852,0.018793,0.00012429,-31.823,-0.00038523,-3860.1,0.51628
13275,8.4211,0.72727,0,0.00038243,3821.7,0.0001275,0.018996,0.00012401,-26.199,-0.00038287,-3834.7,0.52612
13276,8.3289,0.72727,0.05,9.4523e-07,9.4457,7.2582e-07,5.4536,-4.7139e-12,6.9386e-06,-7.2581e-07,-5.4534,0.51576
13277,8.3289,1,0,0.00038401,3837.5,0.00012876,0.016772,0.00012327,-41.221,-0.0003847,-3857.9,0.51718
13278,8.4211,0.90909,0,0.00038176,3814.9,0.00012772,0.016384,0.00012304,-35.16,-0.00038234,-3832.4,0.52705
13279,8.3289,0.90909,0.05,9.55e-07,9.5434,7.3332e-07,5.5099,-9.7781e-13,7.0218e-06,-7.3331e-07,-5.5098,0.5167
13280,8.3289,1.1818,0,0.00038334,3830.8,0.00012901,0.015123,0.00012225,-50.749,-0.00038418,-3855.9,0.518
13281,8.4211,1.0909,0,0.00038109,3808.3,0.00012795,0.01496,0.00012205,-44.271,-0.00038182,-3830.2,0.52791
13282,8.3289,1.0909,0.05,9.6543e-07,9.6476,7.4133e-07,5.5701,8.9108e-13,6.6329e-06,-7.4133e-07,-5.57,0.51757
13283,8.3289,1.3636,0,0.00038268,3824.2,0.00012926,0.01322,0.00012124,-60.255,-0.00038367,-3854,0.51874
13284,8.4211,1.2727,0,0.00038044,3801.7,0.00012818,0.013211,0.00012107,-53.406,-0.00038132,-3828.2,0.52869
13285,8.3289,1.2727,0.05,9.7625e-07,9.7557,7.4964e-07,5.6325,-2.8086e-12,8.0261e-06,-7.4964e-07,-5.6324,0.51835
13286,8.3289,1.5455,0,0.00038205,3817.9,0.00012951,0.011164,0.00012025,-69.555,-0.00038319,-3852.2,0.5194
13287,8.4211,1.4545,0,0.00037981,3795.4,0.00012842,0.01137,0.00012011,-62.407,-0.00038083,-3826.3,0.52939
13288,8.3289,1.4545,0.05,9.8703e-07,9.8635,7.5792e-07,5.6947,-2.6121e-12,8.0573e-06,-7.5791e-07,-5.6946,0.51905
13289,8.3289,1.7273,0,0.00038146,3811.9,0.00012975,0.0089847,0.00011931,-78.446,-0.00038273,-3850.6,0.51998
13290,8.4211,1.6364,0,0.00037921,3789.4,0.00012864,0.0093823,0.00011918,-71.093,-0.00038037,-3824.5,0.53
13291,8.3289,1.6364,0.05,9.9739e-07,9.967,7.6588e-07,5.7545,-1.6493e-12,6.6605e-06,-7.6586e-07,-5.7544,0.51967
13292,8.3289,1.9091,0,0.00038091,3806.5,0.00012997,0.0067801,0.00011843,-86.716,-0.00038231,-3849.1,0.52048
13293,8.4211,1.8182,0,0.00037865,3783.9,0.00012886,0.0073381,0.00011831,-79.272,-0.00037993,-3822.9,0.53054
13294,8.3289,1.8182,0.05,1.007e-06,10.063,7.7324e-07,5.8098,-1.8576e-12,5.142e-06,-7.7324e-07,-5.8098,0.52021
13295,8.3289,2.0909,0,0.00038042,3801.6,0.00013017,0.0046565,0.00011764,-94.153,-0.00038193,-3847.8,0.52091
13296,8.4211,2,0,0.00037814,3778.8,0.00012906,0.005323,0.00011751,-86.745,-0.00037954,-3821.4,0.531
13297,8.3289,2,0.05,1.0156e-06,10.149,7.7983e-07,5.8593,-2.7683e-12,6.7518e-06,-7.7982e-07,-5.8592,0.52067
13298,8.3289,2.2727,0,0.00038,3797.4,0.00013035,0.0027278,0.00011696,-100.56,-0.00038161,-3846.7,0.52125
13299,8.4211,2.1818,0,0.0003777,3774.4,0.00012924,0.003439,0.00011681,-93.321,-0.0003792,-3820.2,0.53139
13300,8.3289,2.1818,0.05,1.0229e-06,10.222,7.8547e-07,5.9017,-2.9053e-12,5.3372e-06,-7.8546e-07,-5.9017,0.52105
13301,8.3289,2.4545,0,0.00037966,3794,0.00013049,0.0011009,0.00011642,-105.74,-0.00038135,-3845.8,0.52152
13302,8.4211,2.3636,0,0.00037733,3770.7,0.00012938,0.0017875,0.00011623,-98.821,-0.00037892,-3819.2,0.53169
13303,8.3289,2.3636,0.05,1.0289e-06,10.282,7.9006e-07,5.9362,-3.324e-13,5.597e-06,-7.9006e-07,-5.9362,0.52136
13304,8.3289,2.6364,0,0.00037941,3791.5,0.00013059,-0.0001326,0.00011601,-109.56,-0.00038116,-3845.1,0.52171
13305,8.4211,2.5455,0,0.00037705,3767.9,0.0001295,0.00046064,0.00011578,-103.09,-0.00037869,-3818.4,0.53192
13306,8.3289,2.5455,0.05,1.0334e-06,10.327,7.9354e-07,5.9624,4.3005e-13,6.098e-06,-7.9354e-07,-5.9624,0.52159
13307,8.3289,2.8182,0,0.00037926,3790,0.00013066,-0.00090283,0.00011577,-111.9,-0.00038104,-3844.7,0.52183
13308,8.4211,2.7273,0,0.00037685,3765.9,0.00012958,-0.00046862,0.00011547,-106.01,-0.00037854,-3817.8,0.53207
13309,8.3289,2.7273,0.05,1.0365e-06,10.358,7.9588e-07,5.9799,2.6712e-13,4.8775e-06,-7.9588e-07,-5.9799,0.52174
13310,8.3289,3,0,0.00037921,3789.5,0.00013068,-0.0011651,0.00011568,-112.69,-0.000381,-3844.6,0.52186
13311,8.4211,2.9091,0,0.00037675,3764.9,0.00012962,-0.00094764,0.00011531,-107.49,-0.00037847,-3817.5,0.53215
13312,8.3289,2.9091,0.05,1.038e-06,10.373,7.9705e-07,5.9887,1.0001e-12,4.4976e-06,-7.9705e-07,-5.9887,0.52182
13313,8.3289,3.1818,0,0.00037926,3790,0.00013066,-0.00090334,0.00011577,-111.9,-0.00038104,-3844.7,0.52183
13314,8.4211,3.0909,0,0.00037675,3764.9,0.00012962,-0.00094791,0.00011531,-107.49,-0.00037847,-3817.5,0.53215
13315,8.3289,3.0909,0.05,1.038e-06,10.373,7.9705e-07,5.9887,8.1808e-13,3.124e-06,-7.9705e-07,-5.9887,0.52182
13316,8.3289,3.3636,0,0.00037941,3791.5,0.00013059,-0.00013313,0.00011601,-109.56,-0.00038116,-3845.1,0.52171
13317,8.4211,3.2727,0,0.00037685,3765.9,0.00012958,-0.00046907,0.00011547,-106.01,-0.00037854,-3817.8,0.53207
13318,8.3289,3.2727,0.05,1.0365e-06,10.358,7.9587e-07,5.9799,1.5444e-12,3.6167e-06,-7.9588e-07,-5.98,0.52174
13319,8.3289,3.5455,0,0.00037966,3794,0.00013049,0.0011004,0.00011642,-105.74,-0.00038135,-3845.8,0.52152
13320,8.4211,3.4545,0,0.00037705,3767.9,0.0001295,0.00046077,0.00011578,-103.09,-0.00037869,-3818.4,0.53192
13321,8.3289,3.4545,0.05,1.0334e-06,10.327,7.9354e-07,5.9623,2.2793e-12,1.3053e-06,-7.9355e-07,-5.9624,0.52159
13322,8.3289,3.7273,0,0.00038,3797.4,0.00013035,0.0027271,0.00011696,-100.56,-0.00038161,-3846.7,0.52125
13323,8.4211,3.6364,0,0.00037733,3770.7,0.00012938,0.0017872,0.00011623,-98.821,-0.00037892,-3819.2,0.53169
13324,8.3289,3.6364,0.05,1.0289e-06,10.282,7.9006e-07,5.9362,3.0019e-12,1.033e-06,-7.9006e-07,-5.9362,0.52136
13325,8.3289,3.9091,0,0.00038042,3801.6,0.00013017,0.0046562,0.00011764,-94.153,-0.00038193,-3847.8,0.52091
13326,8.4211,3.8182,0,0.0003777,3774.4,0.00012924,0.0034384,0.00011681,-93.321,-0.0003792,-3820.2,0.53139
13327,8.3289,3.8182,0.05,1.0229e-06,10.222,7.8546e-07,5.9017,2.8738e-12,2.5918e-06,-7.8547e-07,-5.9017,0.52105
13328,8.3289,4.0909,0,0.00038091,3806.5,0.00012997,0.0067797,0.00011843,-86.716,-0.00038231,-3849.1,0.52048
13329,8.4211,4,0,0.00037814,3778.8,0.00012906,0.0053231,0.00011751,-86.745,-0.00037954,-3821.4,0.531
13330,8.3289,4,0.05,1.0156e-06,10.149,7.7982e-07,5.8592,2.7243e-12,-2.3982e-07,-7.7983e-07,-5.8593,0.52067
13331,8.3289,4.2727,0,0.00038146,3811.9,0.00012975,0.0089841,0.00011931,-78.446,-0.00038273,-3850.6,0.51998
13332,8.4211,4.1818,0,0.00037865,3783.9,0.00012886,0.0073374,0.00011831,-79.272,-0.00037993,-3822.9,0.53054
13333,8.3289,4.1818,0.05,1.007e-06,10.063,7.7324e-07,5.8098,2.7502e-12,-1.5933e-06,-7.7324e-07,-5.8099,0.52021
13334,8.3289,4.4545,0,0.00038205,3817.9,0.00012951,0.011164,0.00012025,-69.555,-0.00038319,-3852.2,0.5194
13335,8.4211,4.3636,0,0.00037921,3789.4,0.00012864,0.0093818,0.00011918,-71.093,-0.00038037,-3824.5,0.53
13336,8.3289,4.3636,0.05,9.9739e-07,9.967,7.6586e-07,5.7544,3.5113e-12,-2.4101e-06,-7.6588e-07,-5.7545,0.51967
13337,8.3289,4.6364,0,0.00038268,3824.2,0.00012926,0.01322,0.00012124,-60.255,-0.00038367,-3854,0.51874
13338,8.4211,4.5455,0,0.00037981,3795.4,0.00012842,0.011369,0.00012011,-62.407,-0.00038083,-3826.3,0.52939
13339,8.3289,4.5455,0.05,9.8703e-07,9.8635,7.5791e-07,5.6946,5.3043e-12,-8.3721e-07,-7.5792e-07,-5.6947,0.51905
13340,8.3289,4.8182,0,0.00038334,3830.8,0.00012901,0.015123,0.00012225,-50.749,-0.00038418,-3855.9,0.518
13341,8.4211,4.7273,0,0.00038044,3801.7,0.00012818,0.01321,0.00012107,-53.406,-0.00038132,-3828.2,0.52869
13342,8.3289,4.7273,0.05,9.7625e-07,9.7557,7.4963e-07,5.6324,5.2888e-12,-1.3089e-06,-7.4964e-07,-5.6325,0.51835
13343,8.3289,5,0,0.00038401,3837.5,0.00012876,0.016771,0.00012327,-41.221,-0.0003847,-3857.9,0.51718
13344,8.4211,4.9091,0,0.00038109,3808.3,0.00012795,0.01496,0.00012205,-44.271,-0.00038182,-3830.2,0.52791
13345,8.3289,4.9091,0.05,9.6543e-07,9.6476,7.4133e-07,5.57,2.8002e-12,-5.1398e-06,-7.4133e-07,-5.5702,0.51757
13346,8.3289,5.1818,0,0.00038469,3844.3,0.00012852,0.018792,0.00012429,-31.823,-0.00038523,-3860.1,0.51628
13347,8.4211,5.0909,0,0.00038176,3814.9,0.00012772,0.016383,0.00012304,-35.16,-0.00038234,-3832.4,0.52705
13348,8.3289,5.0909,0.05,9.55e-07,9.5434,7.3331e-07,5.5098,6.3724e-12,-2.6456e-06,-7.3332e-07,-5.51,0.5167
13349,8.3289,5.3636,0,0.00038538,3851.2,0.0001283,0.019681,0.00012528,-22.674,-0.00038576,-3862.4,0.51529
13350,8.4211,5.2727,0,0.00038243,3821.7,0.0001275,0.018995,0.00012401,-26.199,-0.00038287,-3834.7,0.52612
13351,8.3289,5.2727,0.05,9.4523e-07,9.4457,7.2581e-07,5.4534,6.2815e-12,-2.2328e-06,-7.2582e-07,-5.4536,0.51576
13352,8.3289,5.5455,0,0.00038607,3858.1,0.00012809,0.032061,0.00012625,-13.826,-0.00038631,-3865,0.51423
13353,8.4211,5.4545,0,0.00038311,3828.4,0.00012729,0.018509,0.00012496,-17.483,-0.0003834,-3837.1,0.5251
13354,8.3289,5.4545,0.05,9.3418e-07,9.3353,7.1732e-07,5.3897,6.4519e-12,-1.9667e-06,-7.1735e-07,-5.3899,0.51474
13355,8.3289,5.7273,0,0.00038682,3865.6,0.0001279,0.058771,0.00012723,-5.0073,-0.00038691,-3868,0.51308
13356,8.4211,5.6364,0,0.0003838,3835.3,0.0001271,0.045657,0.0001259,-9.0115,-0.00038395,-3839.8,0.52399
13357,8.3289,5.6364,0.05,8.8581e-07,8.852,6.8019e-07,5.1106,6.7853e-12,-1.7588e-06,-6.802e-07,-5.1108,0.51363
13358,8.4211,5.8182,0,0.0003846,3843.4,0.00012699,0.50854,0.00012684,-0.62063,-0.0003846,-3843.4,0.52281
13359,8.3289,5.8182,0.05,2.5513e-07,2.5495,1.959e-07,1.4719,2.8958e-12,-4.6316e-05,-1.9591e-07,-1.4721,0.51244
13360,8.3289,5.9091,0,0.0003872,3869.3,0.00012785,0.82262,0.00012772,-0.13182,-0.00038718,-3868.9,0.51184
13361,8.5133,0.27273,0,0.00038157,3813.1,0.00012613,0.058713,0.00012556,-4.2471,-0.00038164,-3815.1,0.53381
13362,8.6055,0.18182,0,0.00037934,3790.7,0.00012527,0.85669,0.00012511,-0.33723,-0.00037933,-3790.5,0.54368
13363,8.5133,0.18182,0.05,2.4271e-07,2.4254,1.8637e-07,1.4004,-1.3797e-13,4.0298e-05,-1.8636e-07,-1.4002,0.53318
13364,8.5133,0.090909,0,0.00038191,3816.5,0.00012613,1.1465,0.00012597,-0.085803,-0.00038189,-3815.9,0.53259
13365,8.5133,0.45455,0,0.00038083,3805.7,0.0001263,0.029111,0.00012461,-12.683,-0.00038104,-3812,0.53495
13366,8.6055,0.36364,0,0.00037854,3782.8,0.00012532,0.042342,0.00012424,-8.0569,-0.00037868,-3786.8,0.54485
13367,8.5133,0.36364,0.05,8.8789e-07,8.8728,6.8179e-07,5.1228,-4.9453e-12,5.7338e-06,-6.8178e-07,-5.1226,0.53436
13368,8.5133,0.63636,0,0.00038015,3798.9,0.00012649,0.017159,0.00012369,-21.022,-0.00038051,-3809.4,0.536
13369,8.6055,0.54545,0,0.00037787,3776.1,0.00012549,0.016151,0.00012335,-16.074,-0.00037814,-3784.1,0.54594
13370,8.5133,0.54545,0.05,9.3601e-07,9.3537,7.1875e-07,5.4004,-4.7695e-12,5.7943e-06,-7.1873e-07,-5.4003,0.53545
13371,8.5133,0.81818,0,0.00037949,3792.3,0.00012669,0.016314,0.00012276,-29.55,-0.00037998,-3806.9,0.53698
13372,8.6055,0.72727,0,0.00037721,3769.5,0.00012568,0.016638,0.00012245,-24.234,-0.00037762,-3781.6,0.54695
13373,8.5133,0.72727,0.05,9.4552e-07,9.4487,7.2604e-07,5.4552,-2.9957e-12,6.5247e-06,-7.2604e-07,-5.4551,0.53647
13374,8.5133,1,0,0.00037883,3785.7,0.0001269,0.01442,0.00012181,-38.223,-0.00037946,-3804.6,0.53787
13375,8.6055,0.90909,0,0.00037656,3763,0.00012587,0.014174,0.00012154,-32.54,-0.0003771,-3779.2,0.54788
13376,8.5133,0.90909,0.05,9.5338e-07,9.5272,7.3208e-07,5.5006,-2.9119e-12,6.9705e-06,-7.3207e-07,-5.5005,0.5374
13377,8.5133,1.1818,0,0.00037818,3779.2,0.00012712,0.012944,0.00012087,-46.94,-0.00037896,-3802.5,0.53869
13378,8.6055,1.0909,0,0.00037592,3756.6,0.00012608,0.012891,0.00012063,-40.912,-0.0003766,-3776.9,0.54873
13379,8.5133,1.0909,0.05,9.6171e-07,9.6105,7.3848e-07,5.5487,-2.7447e-12,7.1326e-06,-7.3847e-07,-5.5485,0.53826
13380,8.5133,1.3636,0,0.00037756,3773,0.00012734,0.011279,0.00011994,-55.568,-0.00037847,-3800.4,0.53942
13381,8.6055,1.2727,0,0.0003753,3750.4,0.00012628,0.011344,0.00011973,-49.238,-0.00037611,-3774.8,0.5495
13382,8.5133,1.2727,0.05,9.7032e-07,9.6966,7.451e-07,5.5984,-2.7222e-12,7.5508e-06,-7.4508e-07,-5.5983,0.53903
13383,8.5133,1.5455,0,0.00037696,3767,0.00012755,0.0095161,0.00011904,-63.954,-0.00037801,-3798.5,0.54008
13384,8.6055,1.4545,0,0.0003747,3744.4,0.00012648,0.0097559,0.00011884,-57.384,-0.00037564,-3772.8,0.55019
13385,8.5133,1.4545,0.05,9.7891e-07,9.7824,7.5169e-07,5.6479,-1.8628e-12,7.3698e-06,-7.5168e-07,-5.6478,0.53972
13386,8.5133,1.7273,0,0.0003764,3761.4,0.00012776,0.0076682,0.00011818,-71.926,-0.00037757,-3796.8,0.54065
13387,8.6055,1.6364,0,0.00037413,3738.8,0.00012668,0.0080633,0.000118,-65.2,-0.0003752,-3770.9,0.55081
13388,8.5133,1.6364,0.05,9.8717e-07,9.8649,7.5803e-07,5.6955,-1.8064e-12,7.4101e-06,-7.5801e-07,-5.6954,0.54034
13389,8.5133,1.9091,0,0.00037588,3756.2,0.00012795,0.0058144,0.00011739,-79.307,-0.00037717,-3795.2,0.54115
13390,8.6055,1.8182,0,0.00037361,3733.5,0.00012687,0.0063387,0.00011721,-72.522,-0.00037479,-3769.2,0.55134
13391,8.5133,1.8182,0.05,9.9483e-07,9.9414,7.6391e-07,5.7397,-1.8672e-13,5.82e-06,-7.6391e-07,-5.7397,0.54088
13392,8.5133,2.0909,0,0.00037542,3751.6,0.00012812,0.0040381,0.00011669,-85.918,-0.00037681,-3793.8,0.54157
13393,8.6055,2,0,0.00037313,3728.8,0.00012704,0.0046494,0.0001165,-79.184,-0.00037442,-3767.7,0.5518
13394,8.5133,2,0.05,1.0017e-06,10.01,7.6918e-07,5.7793,-2.886e-12,6.9964e-06,-7.6917e-07,-5.7793,0.54134
13395,8.5133,2.2727,0,0.00037503,3747.7,0.00012827,0.0024299,0.00011608,-91.592,-0.0003765,-3792.7,0.54191
13396,8.6055,2.1818,0,0.00037272,3724.7,0.00012719,0.0030759,0.00011587,-85.026,-0.0003741,-3766.4,0.55218
13397,8.5133,2.1818,0.05,1.0076e-06,10.069,7.737e-07,5.8133,-1.1676e-12,5.7209e-06,-7.737e-07,-5.8133,0.54172
13398,8.5133,2.4545,0,0.00037472,3744.6,0.00012839,0.001077,0.00011559,-96.177,-0.00037626,-3791.7,0.54218
13399,8.6055,2.3636,0,0.00037238,3721.2,0.00012731,0.0017009,0.00011535,-89.9,-0.00037383,-3765.4,0.55248
13400,8.5133,2.3636,0.05,1.0124e-06,10.117,7.774e-07,5.8411,4.8672e-13,5.5494e-06,-7.774e-07,-5.8411,0.54202
13401,8.5133,2.6364,0,0.00037449,3742.3,0.00012848,5.3054e-05,0.00011523,-99.548,-0.00037608,-3791,0.54237
13402,8.6055,2.5455,0,0.00037212,3718.6,0.00012741,0.00059828,0.00011494,-93.677,-0.00037362,-3764.5,0.55271
13403,8.5133,2.5455,0.05,1.0161e-06,10.154,7.802e-07,5.8622,3.7206e-13,3.8231e-06,-7.8021e-07,-5.8621,0.54225
13404,8.5133,2.8182,0,0.00037434,3740.9,0.00012853,-0.00058583,0.00011501,-101.61,-0.00037597,-3790.6,0.54248
13405,8.6055,2.7273,0,0.00037194,3716.8,0.00012748,-0.00017314,0.00011467,-96.254,-0.00037348,-3764,0.55286
13406,8.5133,2.7273,0.05,1.0185e-06,10.178,7.8209e-07,5.8763,2.3011e-13,3.642e-06,-7.8209e-07,-5.8763,0.5424
13407,8.5133,3,0,0.0003743,3740.4,0.00012855,-0.0008032,0.00011494,-102.3,-0.00037593,-3790.5,0.54252
13408,8.6055,2.9091,0,0.00037184,3715.9,0.00012751,-0.00057042,0.00011452,-97.561,-0.00037341,-3763.7,0.55294
13409,8.5133,2.9091,0.05,1.0197e-06,10.19,7.8304e-07,5.8834,7.8396e-14,3.45e-06,-7.8304e-07,-5.8834,0.54248
13410,8.5133,3.1818,0,0.00037434,3740.9,0.00012853,-0.00058604,0.00011501,-101.61,-0.00037597,-3790.6,0.54248
13411,8.6055,3.0909,0,0.00037184,3715.9,0.00012751,-0.0005706,0.00011452,-97.561,-0.00037341,-3763.7,0.55294
13412,8.5133,3.0909,0.05,1.0197e-06,10.19,7.8304e-07,5.8834,2.6502e-12,3.2254e-06,-7.8304e-07,-5.8835,0.54248
13413,8.5133,3.3636,0,0.00037449,3742.3,0.00012848,5.3263e-05,0.00011523,-99.548,-0.00037608,-3791,0.54237
13414,8.6055,3.2727,0,0.00037194,3716.8,0.00012748,-0.00017329,0.00011467,-96.254,-0.00037348,-3764,0.55286
13415,8.5133,3.2727,0.05,1.0185e-06,10.178,7.8209e-07,5.8763,1.5826e-12,2.0744e-06,-7.8209e-07,-5.8763,0.5424
13416,8.5133,3.5455,0,0.00037472,3744.6,0.00012839,0.0010773,0.00011559,-96.177,-0.00037626,-3791.7,0.54218
13417,8.6055,3.4545,0,0.00037212,3718.6,0.00012741,0.00059846,0.00011494,-93.677,-0.00037362,-3764.5,0.55271
13418,8.5133,3.4545,0.05,1.0161e-06,10.154,7.8021e-07,5.8621,2.3609e-12,1.0059e-06,-7.802e-07,-5.8622,0.54225
13419,8.5133,3.7273,0,0.00037503,3747.7,0.00012827,0.0024297,0.00011608,-91.592,-0.0003765,-3792.7,0.54191
13420,8.6055,3.6364,0,0.00037238,3721.2,0.00012731,0.0017006,0.00011535,-89.9,-0.00037383,-3765.4,0.55248
13421,8.5133,3.6364,0.05,1.0124e-06,10.117,7.7739e-07,5.8411,3.0962e-12,1.1933e-06,-7.774e-07,-5.8411,0.54202
13422,8.5133,3.9091,0,0.00037542,3751.6,0.00012812,0.0040379,0.00011669,-85.918,-0.00037681,-3793.8,0.54157
13423,8.6055,3.8182,0,0.00037272,3724.7,0.00012719,0.0030756,0.00011587,-85.026,-0.0003741,-3766.4,0.55218
13424,8.5133,3.8182,0.05,1.0076e-06,10.069,7.737e-07,5.8132,2.0773e-12,1.7871e-06,-7.7371e-07,-5.8133,0.54172
13425,8.5133,4.0909,0,0.00037588,3756.2,0.00012795,0.0058141,0.00011739,-79.307,-0.00037717,-3795.2,0.54115
13426,8.6055,4,0,0.00037313,3728.8,0.00012704,0.0046493,0.0001165,-79.184,-0.00037442,-3767.7,0.5518
13427,8.5133,4,0.05,1.0017e-06,10.01,7.6917e-07,5.7792,2.8946e-12,7.5487e-07,-7.6918e-07,-5.7793,0.54134
13428,8.5133,4.2727,0,0.0003764,3761.4,0.00012776,0.0076676,0.00011818,-71.926,-0.00037757,-3796.8,0.54065
13429,8.6055,4.1818,0,0.00037361,3733.5,0.00012687,0.0063382,0.00011721,-72.522,-0.00037479,-3769.2,0.55134
13430,8.5133,4.1818,0.05,9.9483e-07,9.9415,7.639e-07,5.7396,4.6212e-12,4.178e-07,-7.6391e-07,-5.7398,0.54088
13431,8.5133,4.4545,0,0.00037696,3767,0.00012755,0.0095152,0.00011904,-63.954,-0.00037801,-3798.5,0.54008
13432,8.6055,4.3636,0,0.00037413,3738.8,0.00012668,0.0080628,0.000118,-65.2,-0.0003752,-3770.9,0.55081
13433,8.5133,4.3636,0.05,9.8717e-07,9.8649,7.5801e-07,5.6954,4.5493e-12,-7.1248e-07,-7.5803e-07,-5.6955,0.54034
13434,8.5133,4.6364,0,0.00037756,3773,0.00012734,0.011278,0.00011994,-55.568,-0.00037847,-3800.4,0.53942
13435,8.6055,4.5455,0,0.0003747,3744.4,0.00012648,0.0097552,0.00011884,-57.384,-0.00037564,-3772.8,0.55019
13436,8.5133,4.5455,0.05,9.7891e-07,9.7824,7.5168e-07,5.6478,4.5437e-12,-2.1932e-06,-7.5169e-07,-5.6479,0.53972
13437,8.5133,4.8182,0,0.00037818,3779.2,0.00012712,0.012943,0.00012087,-46.939,-0.00037896,-3802.5,0.53869
13438,8.6055,4.7273,0,0.0003753,3750.4,0.00012628,0.011344,0.00011973,-49.238,-0.00037611,-3774.8,0.5495
13439,8.5133,4.7273,0.05,9.7033e-07,9.6966,7.4508e-07,5.5982,3.7053e-12,-2.2138e-06,-7.451e-07,-5.5984,0.53903
13440,8.5133,5,0,0.00037883,3785.7,0.0001269,0.014419,0.00012181,-38.223,-0.00037946,-3804.6,0.53787
13441,8.6055,4.9091,0,0.00037592,3756.6,0.00012608,0.012891,0.00012063,-40.911,-0.0003766,-3776.9,0.54873
13442,8.5133,4.9091,0.05,9.6171e-07,9.6105,7.3847e-07,5.5485,6.4683e-12,-2.8499e-06,-7.3848e-07,-5.5487,0.53826
13443,8.5133,5.1818,0,0.00037949,3792.3,0.00012669,0.016313,0.00012276,-29.55,-0.00037998,-3806.9,0.53698
13444,8.6055,5.0909,0,0.00037656,3763,0.00012587,0.014173,0.00012154,-32.54,-0.0003771,-3779.2,0.54788
13445,8.5133,5.0909,0.05,9.5338e-07,9.5272,7.3207e-07,5.5005,6.3278e-12,-2.5639e-06,-7.3209e-07,-5.5006,0.5374
13446,8.5133,5.3636,0,0.00038015,3798.9,0.00012649,0.017158,0.00012369,-21.022,-0.00038051,-3809.4,0.536
13447,8.6055,5.2727,0,0.00037721,3769.5,0.00012568,0.016637,0.00012245,-24.234,-0.00037762,-3781.6,0.54695
13448,8.5133,5.2727,0.05,9.4552e-07,9.4487,7.2603e-07,5.4551,6.4845e-12,-1.8773e-06,-7.2605e-07,-5.4553,0.53647
13449,8.5133,5.5455,0,0.00038083,3805.7,0.0001263,0.02911,0.00012461,-12.683,-0.00038104,-3812,0.53495
13450,8.6055,5.4545,0,0.00037787,3776.1,0.00012549,0.01615,0.00012335,-16.074,-0.00037814,-3784.1,0.54594
13451,8.5133,5.4545,0.05,9.3601e-07,9.3537,7.1873e-07,5.4003,4.7708e-12,-1.0949e-06,-7.1875e-07,-5.4004,0.53545
13452,8.5133,5.7273,0,0.00038157,3813.1,0.00012613,0.058712,0.00012556,-4.2471,-0.00038164,-3815.1,0.53381
13453,8.6055,5.6364,0,0.00037854,3782.8,0.00012532,0.042341,0.00012424,-8.0569,-0.00037868,-3786.8,0.54485
13454,8.5133,5.6364,0.05,8.8789e-07,8.8728,6.8178e-07,5.1226,6.7923e-12,-1.2385e-06,-6.818e-07,-5.1228,0.53436
13455,8.6055,5.8182,0,0.00037934,3790.8,0.00012527,0.85669,0.00012511,-0.33723,-0.00037933,-3790.5,0.54368
13456,8.5133,5.8182,0.05,2.4271e-07,2.4254,1.8636e-07,1.4002,2.9381e-12,-4.4304e-05,-1.8637e-07,-1.4004,0.53318
13457,8.5133,5.9091,0,0.00038191,3816.5,0.00012613,1.1465,0.00012597,-0.085804,-0.00038189,-3815.9,0.53259
13458,8.6976,0.27273,0,0.0003763,3760.4,0.00012435,0.060541,0.00012389,-3.4284,-0.00037636,-3762.1,0.5548
13459,8.7898,0.18182,0,0.00037406,3738,0.00012356,1.3796,0.00012336,-0.19059,-0.00037404,-3737.4,0.5648
13460,8.6976,0.18182,0.05,2.2878e-07,2.2862,1.7568e-07,1.32,-1.6406e-12,3.9331e-05,-1.7567e-07,-1.3199,0.55417
13461,8.6976,0.090909,0,0.00037661,3763.5,0.00012441,1.5137,0.0001242,-0.057672,-0.00037659,-3762.8,0.55359
13462,8.6976,0.45455,0,0.00037558,3753.2,0.00012451,0.0264,0.00012298,-11.463,-0.00037577,-3758.9,0.55593
13463,8.7898,0.36364,0,0.00037328,3730.2,0.00012354,0.039171,0.00012259,-7.0426,-0.0003734,-3733.7,0.56596
13464,8.6976,0.36364,0.05,8.8804e-07,8.8743,6.8191e-07,5.1237,-6.8463e-12,5.6489e-06,-6.819e-07,-5.1235,0.55534
13465,8.6976,0.63636,0,0.00037492,3746.7,0.00012468,0.01502,0.00012211,-19.301,-0.00037525,-3756.3,0.55697
13466,8.7898,0.54545,0,0.00037263,3723.7,0.00012369,0.014123,0.00012175,-14.604,-0.00037288,-3731,0.56704
13467,8.6976,0.54545,0.05,9.3615e-07,9.355,7.1885e-07,5.4012,-3.102e-12,6.8324e-06,-7.1884e-07,-5.401,0.55643
13468,8.6976,0.81818,0,0.00037428,3740.2,0.00012486,0.014256,0.00012123,-27.238,-0.00037474,-3753.8,0.55794
13469,8.7898,0.72727,0,0.00037199,3717.4,0.00012386,0.01464,0.0001209,-22.229,-0.00037237,-3728.4,0.56804
13470,8.6976,0.72727,0.05,9.4446e-07,9.438,7.2523e-07,5.4491,-4.8193e-12,6.6426e-06,-7.2522e-07,-5.449,0.55743
13471,8.6976,1,0,0.00037365,3733.9,0.00012505,0.012514,0.00012036,-35.242,-0.00037424,-3751.4,0.55882
13472,8.7898,0.90909,0,0.00037137,3711.1,0.00012403,0.012358,0.00012005,-29.923,-0.00037187,-3726,0.56897
13473,8.6976,0.90909,0.05,9.5083e-07,9.5018,7.3013e-07,5.4859,-3.8758e-12,6.7514e-06,-7.3012e-07,-5.4858,0.55836
13474,8.6976,1.1818,0,0.00037303,3727.8,0.00012524,0.011205,0.00011948,-43.221,-0.00037375,-3749.2,0.55963
13475,8.7898,1.0909,0,0.00037076,3705,0.00012421,0.011221,0.0001192,-37.617,-0.00037139,-3723.7,0.56981
13476,8.6976,1.0909,0.05,9.5752e-07,9.5685,7.3526e-07,5.5245,-2.8923e-12,5.8361e-06,-7.3525e-07,-5.5243,0.55921
13477,8.6976,1.3636,0,0.00037244,3721.8,0.00012543,0.0097544,0.00011863,-51.064,-0.00037328,-3747.1,0.56036
13478,8.7898,1.2727,0,0.00037017,3699.1,0.00012439,0.0098638,0.00011837,-45.213,-0.00037092,-3721.5,0.57057
13479,8.6976,1.2727,0.05,9.6441e-07,9.6374,7.4055e-07,5.5642,-2.9009e-12,6.473e-06,-7.4054e-07,-5.5641,0.55997
13480,8.6976,1.5455,0,0.00037187,3716.2,0.00012561,0.0082452,0.00011781,-58.639,-0.00037284,-3745.1,0.56101
13481,8.7898,1.4545,0,0.0003696,3693.5,0.00012457,0.0084977,0.00011756,-52.599,-0.00037047,-3719.5,0.57126
13482,8.6976,1.4545,0.05,9.7127e-07,9.706,7.4582e-07,5.6038,-1.1304e-12,6.4839e-06,-7.4581e-07,-5.6037,0.56066
13483,8.6976,1.7273,0,0.00037135,3710.9,0.00012579,0.0066797,0.00011703,-65.803,-0.00037242,-3743.3,0.56158
13484,8.7898,1.6364,0,0.00036907,3688.2,0.00012474,0.0070582,0.0001168,-59.645,-0.00037005,-3717.6,0.57186
13485,8.6976,1.6364,0.05,9.7787e-07,9.7719,7.5088e-07,5.6419,-1.967e-12,7.3857e-06,-7.5088e-07,-5.6418,0.56127
13486,8.6976,1.9091,0,0.00037086,3706.1,0.00012595,0.0051206,0.00011632,-72.406,-0.00037204,-3741.7,0.56207
13487,8.7898,1.8182,0,0.00036858,3683.3,0.0001249,0.0056041,0.00011608,-66.215,-0.00036966,-3715.9,0.57239
13488,8.6976,1.8182,0.05,9.84e-07,9.8332,7.5559e-07,5.6772,-2.9656e-12,6.4156e-06,-7.5559e-07,-5.6772,0.5618
13489,8.6976,2.0909,0,0.00037043,3701.8,0.0001261,0.0036337,0.00011568,-78.298,-0.0003717,-3740.3,0.56249
13490,8.7898,2,0,0.00036814,3678.8,0.00012504,0.0041876,0.00011544,-72.169,-0.00036931,-3714.4,0.57285
13491,8.6976,2,0.05,9.895e-07,9.8882,7.5982e-07,5.709,-2.0933e-12,8.1314e-06,-7.5981e-07,-5.7089,0.56226
13492,8.6976,2.2727,0,0.00037007,3698.2,0.00012623,0.0022924,0.00011514,-83.34,-0.00037142,-3739.1,0.56283
13493,8.7898,2.1818,0,0.00036775,3675,0.00012517,0.0028735,0.00011487,-77.373,-0.00036901,-3713.1,0.57322
13494,8.6976,2.1818,0.05,9.9423e-07,9.9355,7.6345e-07,5.7362,-4.0287e-13,5.7029e-06,-7.6345e-07,-5.7362,0.56264
13495,8.6976,2.4545,0,0.00036978,3695.2,0.00012633,0.0011665,0.0001147,-87.405,-0.00037119,-3738.2,0.5631
13496,8.7898,2.3636,0,0.00036744,3671.8,0.00012528,0.0017279,0.0001144,-81.703,-0.00036876,-3712,0.57353
13497,8.6976,2.3636,0.05,9.9811e-07,9.9742,7.6642e-07,5.7586,-4.7075e-13,4.251e-06,-7.6642e-07,-5.7586,0.56294
13498,8.6976,2.6364,0,0.00036957,3693.1,0.00012641,0.0003154,0.00011438,-90.388,-0.00037102,-3737.5,0.56328
13499,8.7898,2.5455,0,0.00036719,3669.4,0.00012536,0.00081125,0.00011404,-85.052,-0.00036856,-3711.2,0.57375
13500,8.6976,2.5455,0.05,1.0011e-06,10.004,7.6869e-07,5.7756,3.1959e-13,5.3192e-06,-7.6869e-07,-5.7756,0.56317
13501,8.6976,2.8182,0,0.00036944,3691.8,0.00012645,-0.00021508,0.00011418,-92.211,-0.00037092,-3737,0.5634
13502,8.7898,2.7273,0,0.00036703,3667.7,0.00012542,0.00017063,0.0001138,-87.334,-0.00036843,-3710.6,0.5739
13503,8.6976,2.7273,0.05,1.003e-06,10.023,7.7021e-07,5.787,1.9914e-13,3.4061e-06,-7.7021e-07,-5.7871,0.56332
13504,8.6976,3,0,0.00036939,3691.4,0.00012647,-0.00039541,0.00011411,-92.824,-0.00037088,-3736.9,0.56344
13505,8.7898,2.9091,0,0.00036694,3666.9,0.00012545,-0.00015924,0.00011367,-88.49,-0.00036837,-3710.3,0.57398
13506,8.6976,2.9091,0.05,1.004e-06,10.033,7.7097e-07,5.7928,1.8859e-12,3.3665e-06,-7.7098e-07,-5.7928,0.56339
13507,8.6976,3.1818,0,0.00036944,3691.8,0.00012645,-0.0002152,0.00011418,-92.211,-0.00037092,-3737,0.5634
13508,8.7898,3.0909,0,0.00036694,3666.9,0.00012545,-0.00015927,0.00011367,-88.49,-0.00036837,-3710.3,0.57398
13509,8.6976,3.0909,0.05,1.004e-06,10.033,7.7098e-07,5.7928,1.7515e-12,1.4037e-06,-7.7097e-07,-5.7928,0.56339
13510,8.6976,3.3636,0,0.00036957,3693.1,0.00012641,0.00031523,0.00011438,-90.388,-0.00037102,-3737.5,0.56328
13511,8.7898,3.2727,0,0.00036703,3667.7,0.00012542,0.00017045,0.0001138,-87.334,-0.00036843,-3710.6,0.5739
13512,8.6976,3.2727,0.05,1.003e-06,10.023,7.7021e-07,5.787,7.1004e-13,2.2456e-06,-7.7021e-07,-5.7871,0.56332
13513,8.6976,3.5455,0,0.00036978,3695.2,0.00012633,0.0011661,0.0001147,-87.405,-0.00037119,-3738.2,0.5631
13514,8.7898,3.4545,0,0.00036719,3669.4,0.00012536,0.00081099,0.00011404,-85.052,-0.00036856,-3711.2,0.57375
13515,8.6976,3.4545,0.05,1.0011e-06,10.004,7.6869e-07,5.7756,2.4161e-12,2.3186e-06,-7.6869e-07,-5.7756,0.56317
13516,8.6976,3.7273,0,0.00037007,3698.2,0.00012623,0.0022921,0.00011514,-83.34,-0.00037142,-3739.1,0.56283
13517,8.7898,3.6364,0,0.00036744,3671.8,0.00012528,0.0017276,0.0001144,-81.703,-0.00036876,-3712,0.57353
13518,8.6976,3.6364,0.05,9.9811e-07,9.9742,7.6642e-07,5.7586,3.1857e-12,5.0117e-07,-7.6643e-07,-5.7586,0.56294
13519,8.6976,3.9091,0,0.00037043,3701.8,0.0001261,0.0036335,0.00011568,-78.298,-0.0003717,-3740.3,0.56249
13520,8.7898,3.8182,0,0.00036775,3675,0.00012517,0.0028729,0.00011487,-77.373,-0.00036901,-3713.1,0.57322
13521,8.6976,3.8182,0.05,9.9423e-07,9.9355,7.6344e-07,5.7362,3.0905e-12,1.6722e-06,-7.6345e-07,-5.7363,0.56264
13522,8.6976,4.0909,0,0.00037086,3706.1,0.00012595,0.0051201,0.00011632,-72.406,-0.00037204,-3741.7,0.56207
13523,8.7898,4,0,0.00036814,3678.8,0.00012504,0.0041871,0.00011544,-72.169,-0.00036931,-3714.4,0.57285
13524,8.6976,4,0.05,9.895e-07,9.8882,7.5981e-07,5.7089,2.9868e-12,-1.2546e-06,-7.5981e-07,-5.709,0.56226
13525,8.6976,4.2727,0,0.00037135,3710.9,0.00012579,0.0066792,0.00011703,-65.803,-0.00037242,-3743.3,0.56158
13526,8.7898,4.1818,0,0.00036858,3683.3,0.0001249,0.0056035,0.00011608,-66.215,-0.00036966,-3715.9,0.57239
13527,8.6976,4.1818,0.05,9.84e-07,9.8332,7.5558e-07,5.6771,3.8384e-12,-6.7648e-07,-7.5559e-07,-5.6773,0.5618
13528,8.6976,4.4545,0,0.00037187,3716.2,0.00012561,0.0082448,0.00011781,-58.639,-0.00037284,-3745.1,0.56101
13529,8.7898,4.3636,0,0.00036907,3688.2,0.00012474,0.0070577,0.0001168,-59.645,-0.00037005,-3717.6,0.57186
13530,8.6976,4.3636,0.05,9.7787e-07,9.7719,7.5088e-07,5.6418,3.8137e-12,5.7439e-07,-7.5088e-07,-5.6419,0.56127
13531,8.6976,4.6364,0,0.00037244,3721.8,0.00012543,0.0097539,0.00011863,-51.064,-0.00037328,-3747.1,0.56036
13532,8.7898,4.5455,0,0.0003696,3693.5,0.00012457,0.0084971,0.00011756,-52.599,-0.00037047,-3719.5,0.57126
13533,8.6976,4.5455,0.05,9.7127e-07,9.706,7.4581e-07,5.6037,2.8559e-12,-8.0335e-07,-7.4582e-07,-5.6038,0.56066
13534,8.6976,4.8182,0,0.00037303,3727.8,0.00012524,0.011204,0.00011948,-43.221,-0.00037375,-3749.2,0.55963
13535,8.7898,4.7273,0,0.00037017,3699.1,0.00012439,0.0098632,0.00011837,-45.213,-0.00037092,-3721.5,0.57057
13536,8.6976,4.7273,0.05,9.6441e-07,9.6374,7.4054e-07,5.5641,4.7504e-12,-1.0121e-06,-7.4055e-07,-5.5642,0.55997
13537,8.6976,5,0,0.00037365,3733.9,0.00012505,0.012513,0.00012036,-35.242,-0.00037424,-3751.4,0.55882
13538,8.7898,4.9091,0,0.00037076,3705,0.00012421,0.01122,0.0001192,-37.617,-0.00037139,-3723.7,0.56981
13539,8.6976,4.9091,0.05,9.5752e-07,9.5685,7.3525e-07,5.5243,3.8698e-12,-1.3455e-06,-7.3526e-07,-5.5245,0.55921
13540,8.6976,5.1818,0,0.00037428,3740.2,0.00012486,0.014255,0.00012123,-27.238,-0.00037474,-3753.8,0.55794
13541,8.7898,5.0909,0,0.00037137,3711.1,0.00012403,0.012357,0.00012005,-29.923,-0.00037187,-3726,0.56897
13542,8.6976,5.0909,0.05,9.5083e-07,9.5018,7.3012e-07,5.4858,4.6967e-12,-2.501e-06,-7.3013e-07,-5.4859,0.55836
13543,8.6976,5.3636,0,0.00037492,3746.7,0.00012468,0.015019,0.00012211,-19.301,-0.00037525,-3756.3,0.55697
13544,8.7898,5.2727,0,0.00037199,3717.4,0.00012386,0.014639,0.0001209,-22.229,-0.00037237,-3728.4,0.56804
13545,8.6976,5.2727,0.05,9.4446e-07,9.438,7.2522e-07,5.449,5.7232e-12,-1.2049e-06,-7.2523e-07,-5.4491,0.55743
13546,8.6976,5.5455,0,0.00037558,3753.2,0.00012451,0.026399,0.00012298,-11.463,-0.00037577,-3758.9,0.55593
13547,8.7898,5.4545,0,0.00037263,3723.7,0.00012369,0.014123,0.00012175,-14.604,-0.00037288,-3731,0.56704
13548,8.6976,5.4545,0.05,9.3615e-07,9.355,7.1884e-07,5.401,5.8053e-12,-2.001e-06,-7.1885e-07,-5.4012,0.55643
13549,8.6976,5.7273,0,0.0003763,3760.4,0.00012435,0.06054,0.00012389,-3.4284,-0.00037636,-3762.1,0.5548
13550,8.7898,5.6364,0,0.00037328,3730.2,0.00012354,0.03917,0.00012259,-7.0426,-0.0003734,-3733.7,0.56596
13551,8.6976,5.6364,0.05,8.8804e-07,8.8743,6.819e-07,5.1235,6.754e-12,-1.2447e-06,-6.8191e-07,-5.1237,0.55534
13552,8.7898,5.8182,0,0.00037406,3738,0.00012356,1.3796,0.00012336,-0.19059,-0.00037404,-3737.4,0.5648
13553,8.6976,5.8182,0.05,2.2878e-07,2.2862,1.7567e-07,1.3199,4.9473e-13,-4.158e-05,-1.7568e-07,-1.32,0.55417
13554,8.6976,5.9091,0,0.00037661,3763.5,0.00012441,1.5137,0.0001242,-0.057673,-0.00037659,-3762.8,0.55359
13555,8.882,0.27273,0,0.00037103,3707.8,0.00012257,0.065863,0.00012222,-2.5757,-0.00037107,-3709,0.57605
13556,8.9742,0.18182,0,0.00036878,3685.3,0.00012187,2.0005,0.00012159,-0.11912,-0.00036875,-3684.3,0.58618
13557,8.882,0.18182,0.05,2.1396e-07,2.1381,1.643e-07,1.2345,-1.554e-12,2.689e-05,-1.6429e-07,-1.2344,0.57543
13558,8.882,0.090909,0,0.0003713,3710.5,0.00012269,1.9074,0.00012243,-0.039847,-0.00037127,-3709.5,0.57485
13559,8.882,0.45455,0,0.00037033,3700.7,0.00012272,0.02389,0.00012135,-10.199,-0.0003705,-3705.8,0.57716
13560,8.9742,0.36364,0,0.00036802,3677.7,0.00012175,0.036159,0.00012094,-5.9942,-0.00036812,-3680.7,0.58733
13561,8.882,0.36364,0.05,8.8674e-07,8.8613,6.8091e-07,5.1162,-4.1502e-12,6.3487e-06,-6.809e-07,-5.116,0.57658
13562,8.882,0.63636,0,0.0003697,3694.4,0.00012287,0.013187,0.00012053,-17.547,-0.00036999,-3703.2,0.5782
13563,8.9742,0.54545,0,0.00036739,3671.4,0.00012189,0.012357,0.00012014,-13.106,-0.00036761,-3677.9,0.5884
13564,8.882,0.54545,0.05,9.3498e-07,9.3434,7.1796e-07,5.3945,-4.0628e-12,6.0304e-06,-7.1794e-07,-5.3943,0.57766
13565,8.882,0.81818,0,0.00036908,3688.3,0.00012303,0.012531,0.00011971,-24.928,-0.0003695,-3700.7,0.57915
13566,8.9742,0.72727,0,0.00036678,3665.3,0.00012204,0.012927,0.00011935,-20.218,-0.00036712,-3675.4,0.58939
13567,8.882,0.72727,0.05,9.4237e-07,9.4172,7.2363e-07,5.4371,-4.9458e-12,6.6157e-06,-7.2361e-07,-5.4369,0.57865
13568,8.882,1,0,0.00036848,3682.2,0.0001232,0.010954,0.00011889,-32.311,-0.00036902,-3698.3,0.58003
13569,8.9742,0.90909,0,0.00036619,3659.4,0.00012219,0.010851,0.00011855,-27.342,-0.00036665,-3672.9,0.5903
13570,8.882,0.90909,0.05,9.4758e-07,9.4693,7.2763e-07,5.4672,-3.0398e-12,6.6998e-06,-7.2762e-07,-5.467,0.57957
13571,8.882,1.1818,0,0.00036789,3676.4,0.00012336,0.0098075,0.00011809,-39.621,-0.00036855,-3696,0.58083
13572,8.9742,1.0909,0,0.00036561,3653.6,0.00012235,0.0098586,0.00011777,-34.414,-0.00036618,-3670.6,0.59114
13573,8.882,1.0909,0.05,9.5298e-07,9.5232,7.3177e-07,5.4983,-3.8655e-12,6.7584e-06,-7.3176e-07,-5.4982,0.58041
13574,8.882,1.3636,0,0.00036733,3670.8,0.00012353,0.0085522,0.0001173,-46.759,-0.0003681,-3693.9,0.58155
13575,8.9742,1.2727,0,0.00036505,3648,0.00012251,0.0086786,0.000117,-41.352,-0.00036574,-3668.5,0.59189
13576,8.882,1.2727,0.05,9.5852e-07,9.5786,7.3602e-07,5.5302,-2.9733e-12,5.8468e-06,-7.3602e-07,-5.5301,0.58117
13577,8.882,1.5455,0,0.0003668,3665.5,0.00012369,0.007264,0.00011655,-53.615,-0.00036768,-3692,0.58219
13578,8.9742,1.4545,0,0.00036452,3642.7,0.00012266,0.0075101,0.00011627,-48.058,-0.00036531,-3666.4,0.59257
13579,8.882,1.4545,0.05,9.6402e-07,9.6336,7.4026e-07,5.562,-1.1176e-12,6.0878e-06,-7.4024e-07,-5.5619,0.58185
13580,8.882,1.7273,0,0.0003663,3660.5,0.00012384,0.0059394,0.00011585,-60.066,-0.00036729,-3690.2,0.58276
13581,8.9742,1.6364,0,0.00036402,3637.7,0.00012281,0.006289,0.00011557,-54.423,-0.00036491,-3664.6,0.59317
13582,8.882,1.6364,0.05,9.6932e-07,9.6865,7.4432e-07,5.5925,-2.1123e-12,6.0076e-06,-7.4431e-07,-5.5925,0.58245
13583,8.882,1.9091,0,0.00036585,3656,0.00012399,0.004629,0.0001152,-65.986,-0.00036693,-3688.6,0.58325
13584,8.9742,1.8182,0,0.00036356,3633.1,0.00012295,0.0050649,0.00011492,-60.331,-0.00036455,-3662.9,0.5937
13585,8.882,1.8182,0.05,9.7424e-07,9.7356,7.4809e-07,5.6209,-2.1469e-12,6.6497e-06,-7.4809e-07,-5.6208,0.58298
13586,8.882,2.0909,0,0.00036546,3652,0.00012411,0.0033851,0.00011463,-71.251,-0.00036662,-3687.1,0.58366
13587,8.9742,2,0,0.00036315,3629,0.00012308,0.0038781,0.00011434,-65.665,-0.00036422,-3661.4,0.59415
13588,8.882,2,0.05,9.7865e-07,9.7798,7.5149e-07,5.6464,-3.8083e-13,3.9376e-06,-7.5148e-07,-5.6463,0.58343
13589,8.882,2.2727,0,0.00036512,3648.7,0.00012422,0.0022659,0.00011414,-75.743,-0.00036635,-3685.9,0.584
13590,8.9742,2.1818,0,0.00036279,3625.4,0.00012319,0.002781,0.00011383,-70.313,-0.00036394,-3660.1,0.59452
13591,8.882,2.1818,0.05,9.8246e-07,9.8178,7.544e-07,5.6683,-4.551e-13,3.5312e-06,-7.5441e-07,-5.6683,0.58381
13592,8.882,2.4545,0,0.00036485,3646,0.00012431,0.0013286,0.00011375,-79.356,-0.00036613,-3685,0.58426
13593,8.9742,2.3636,0,0.0003625,3622.5,0.00012328,0.0018266,0.00011341,-74.17,-0.0003637,-3659,0.59482
13594,8.882,2.3636,0.05,9.8558e-07,9.849,7.5681e-07,5.6863,-1.442e-12,5.6357e-06,-7.5681e-07,-5.6863,0.58411
13595,8.882,2.6364,0,0.00036465,3644,0.00012437,0.00062165,0.00011346,-82.004,-0.00036598,-3684.3,0.58445
13596,8.9742,2.5455,0,0.00036227,3620.2,0.00012335,0.0010652,0.00011308,-77.147,-0.00036352,-3658.2,0.59504
13597,8.882,2.5455,0.05,9.8796e-07,9.8728,7.5863e-07,5.7001,2.884e-13,4.0011e-06,-7.5863e-07,-5.7001,0.58434
13598,8.882,2.8182,0,0.00036453,3642.8,0.00012441,0.0001811,0.00011328,-83.619,-0.00036588,-3683.9,0.58456
13599,8.9742,2.7273,0,0.00036212,3618.7,0.0001234,0.00053286,0.00011286,-79.174,-0.0003634,-3657.6,0.59519
13600,8.882,2.7273,0.05,9.8957e-07,9.8888,7.5986e-07,5.7093,1.0815e-12,3.1977e-06,-7.5986e-07,-5.7093,0.58449
13601,8.882,3,0,0.00036449,3642.4,0.00012443,3.1331e-05,0.00011323,-84.163,-0.00036585,-3683.7,0.5846
13602,8.9742,2.9091,0,0.00036204,3617.9,0.00012342,0.00025897,0.00011275,-80.2,-0.00036334,-3657.3,0.59527
13603,8.882,2.9091,0.05,9.9037e-07,9.8969,7.6048e-07,5.714,9.6773e-13,4.2525e-06,-7.6048e-07,-5.714,0.58456
13604,8.882,3.1818,0,0.00036453,3642.8,0.00012441,0.00018101,0.00011328,-83.619,-0.00036588,-3683.9,0.58456
13605,8.9742,3.0909,0,0.00036204,3617.9,0.00012342,0.00025891,0.00011275,-80.2,-0.00036334,-3657.3,0.59527
13606,8.882,3.0909,0.05,9.9037e-07,9.8969,7.6048e-07,5.714,1.7608e-12,3.3788e-06,-7.6048e-07,-5.714,0.58456
13607,8.882,3.3636,0,0.00036465,3644,0.00012437,0.00062138,0.00011346,-82.004,-0.00036598,-3684.3,0.58445
13608,8.9742,3.2727,0,0.00036212,3618.7,0.0001234,0.00053284,0.00011286,-79.174,-0.0003634,-3657.6,0.59519
13609,8.882,3.2727,0.05,9.8957e-07,9.8888,7.5986e-07,5.7093,2.5494e-12,2.5147e-06,-7.5987e-07,-5.7093,0.58449
13610,8.882,3.5455,0,0.00036485,3646,0.00012431,0.0013285,0.00011375,-79.356,-0.00036613,-3685,0.58426
13611,8.9742,3.4545,0,0.00036227,3620.2,0.00012335,0.0010647,0.00011308,-77.147,-0.00036352,-3658.2,0.59504
13612,8.882,3.4545,0.05,9.8796e-07,9.8728,7.5863e-07,5.7,1.5322e-12,1.6727e-06,-7.5863e-07,-5.7001,0.58434
13613,8.882,3.7273,0,0.00036512,3648.7,0.00012422,0.0022654,0.00011414,-75.743,-0.00036635,-3685.9,0.584
13614,8.9742,3.6364,0,0.0003625,3622.5,0.00012328,0.0018267,0.00011341,-74.17,-0.0003637,-3659,0.59482
13615,8.882,3.6364,0.05,9.8558e-07,9.849,7.5681e-07,5.6863,3.2527e-12,1.985e-06,-7.5681e-07,-5.6864,0.58411
13616,8.882,3.9091,0,0.00036546,3652,0.00012411,0.0033842,0.00011463,-71.251,-0.00036662,-3687.1,0.58366
13617,8.9742,3.8182,0,0.00036279,3625.4,0.00012319,0.0027802,0.00011383,-70.313,-0.00036394,-3660.1,0.59452
13618,8.882,3.8182,0.05,9.8246e-07,9.8178,7.5441e-07,5.6683,3.1853e-12,2.4596e-07,-7.5441e-07,-5.6684,0.58381
13619,8.882,4.0909,0,0.00036585,3656,0.00012399,0.0046283,0.0001152,-65.986,-0.00036693,-3688.6,0.58325
13620,8.9742,4,0,0.00036315,3629,0.00012308,0.0038778,0.00011434,-65.665,-0.00036422,-3661.4,0.59415
13621,8.882,4,0.05,9.7865e-07,9.7798,7.5148e-07,5.6463,3.0918e-12,5.7166e-07,-7.5149e-07,-5.6464,0.58343
13622,8.882,4.2727,0,0.0003663,3660.5,0.00012384,0.0059387,0.00011585,-60.066,-0.00036729,-3690.2,0.58276
13623,8.9742,4.1818,0,0.00036356,3633.1,0.00012295,0.0050641,0.00011492,-60.331,-0.00036455,-3662.9,0.5937
13624,8.882,4.1818,0.05,9.7424e-07,9.7356,7.4809e-07,5.6208,3.0323e-12,-9.596e-07,-7.481e-07,-5.6209,0.58298
13625,8.882,4.4545,0,0.0003668,3665.5,0.00012369,0.0072632,0.00011655,-53.615,-0.00036768,-3692,0.58219
13626,8.9742,4.3636,0,0.00036402,3637.7,0.00012281,0.0062886,0.00011557,-54.423,-0.00036491,-3664.6,0.59317
13627,8.882,4.3636,0.05,9.6932e-07,9.6865,7.4431e-07,5.5924,3.9025e-12,-6.3085e-07,-7.4432e-07,-5.5925,0.58245
13628,8.882,4.6364,0,0.00036733,3670.8,0.00012353,0.0085516,0.0001173,-46.759,-0.0003681,-3693.9,0.58155
13629,8.9742,4.5455,0,0.00036452,3642.7,0.00012266,0.0075094,0.00011627,-48.058,-0.00036531,-3666.4,0.59257
13630,8.882,4.5455,0.05,9.6402e-07,9.6336,7.4025e-07,5.5619,3.8638e-12,-1.1755e-06,-7.4025e-07,-5.562,0.58185
13631,8.882,4.8182,0,0.00036789,3676.4,0.00012336,0.0098068,0.00011809,-39.621,-0.00036855,-3696,0.58083
13632,8.9742,4.7273,0,0.00036505,3648,0.00012251,0.008678,0.000117,-41.352,-0.00036574,-3668.5,0.59189
13633,8.882,4.7273,0.05,9.5852e-07,9.5786,7.3602e-07,5.5301,5.6785e-12,-1.6836e-06,-7.3603e-07,-5.5303,0.58117
13634,8.882,5,0,0.00036848,3682.2,0.0001232,0.010953,0.00011889,-32.311,-0.00036902,-3698.3,0.58003
13635,8.9742,4.9091,0,0.00036561,3653.6,0.00012235,0.0098579,0.00011777,-34.414,-0.00036618,-3670.6,0.59114
13636,8.882,4.9091,0.05,9.5298e-07,9.5232,7.3176e-07,5.4981,4.8373e-12,-1.1957e-06,-7.3177e-07,-5.4983,0.58041
13637,8.882,5.1818,0,0.00036908,3688.3,0.00012303,0.01253,0.00011971,-24.928,-0.0003695,-3700.7,0.57915
13638,8.9742,5.0909,0,0.00036619,3659.4,0.00012219,0.010849,0.00011855,-27.342,-0.00036665,-3672.9,0.5903
13639,8.882,5.0909,0.05,9.4758e-07,9.4693,7.2762e-07,5.467,6.6358e-12,-1.8469e-06,-7.2763e-07,-5.4672,0.57957
13640,8.882,5.3636,0,0.0003697,3694.4,0.00012287,0.013186,0.00012053,-17.547,-0.00036999,-3703.2,0.5782
13641,8.9742,5.2727,0,0.00036678,3665.3,0.00012204,0.012926,0.00011935,-20.218,-0.00036712,-3675.4,0.58939
13642,8.882,5.2727,0.05,9.4237e-07,9.4172,7.2362e-07,5.4369,6.7037e-12,-1.9007e-06,-7.2363e-07,-5.4371,0.57865
13643,8.882,5.5455,0,0.00037033,3700.7,0.00012272,0.023889,0.00012135,-10.199,-0.0003705,-3705.8,0.57716
13644,8.9742,5.4545,0,0.00036739,3671.4,0.00012189,0.012357,0.00012014,-13.106,-0.00036761,-3677.9,0.5884
13645,8.882,5.4545,0.05,9.3498e-07,9.3434,7.1795e-07,5.3943,4.9237e-12,-1.6236e-06,-7.1796e-07,-5.3945,0.57766
13646,8.882,5.7273,0,0.00037103,3707.8,0.00012257,0.065862,0.00012222,-2.5757,-0.00037107,-3709,0.57605
13647,8.9742,5.6364,0,0.00036802,3677.7,0.00012175,0.036158,0.00012094,-5.9942,-0.00036812,-3680.7,0.58733
13648,8.882,5.6364,0.05,8.8674e-07,8.8613,6.809e-07,5.116,6.8565e-12,-1.3757e-06,-6.8091e-07,-5.1162,0.57658
13649,8.9742,5.8182,0,0.00036878,3685.3,0.00012187,2.0005,0.00012159,-0.11912,-0.00036875,-3684.3,0.58618
13650,8.882,5.8182,0.05,2.1396e-07,2.1381,1.6429e-07,1.2344,1.8126e-12,-3.6255e-05,-1.643e-07,-1.2345,0.57543
13651,8.882,5.9091,0,0.0003713,3710.5,0.00012269,1.9074,0.00012243,-0.039849,-0.00037127,-3709.5,0.57485
13652,9.0664,0.27273,0,0.00036576,3655.1,0.00012079,0.079447,0.00012055,-1.7117,-0.00036579,-3655.9,0.59755
13653,9.1586,0.18182,0,0.00036351,3632.6,0.00012018,2.6653,0.00011982,-0.080806,-0.00036346,-3631.3,0.60781
13654,9.0664,0.18182,0.05,1.9872e-07,1.9858,1.526e-07,1.1466,5.3083e-13,4.3615e-05,-1.5258e-07,-1.1464,0.59693
13655,9.0664,0.090909,0,0.00036599,3657.4,0.00012097,2.3157,0.00012066,-0.028097,-0.00036596,-3656.3,0.59636
13656,9.0664,0.45455,0,0.00036508,3648.3,0.00012092,0.021549,0.00011973,-8.9165,-0.00036523,-3652.8,0.59865
13657,9.1586,0.36364,0,0.00036277,3625.2,0.00011996,0.033338,0.0001193,-4.932,-0.00036285,-3627.6,0.60895
13658,9.0664,0.36364,0.05,8.8436e-07,8.8375,6.7908e-07,5.1024,-5.1391e-12,5.2424e-06,-6.7907e-07,-5.1022,0.59808
13659,9.0664,0.63636,0,0.00036448,3642.3,0.00012106,0.011593,0.00011896,-15.792,-0.00036474,-3650.1,0.59967
13660,9.1586,0.54545,0,0.00036216,3619.2,0.00012009,0.010805,0.00011854,-11.604,-0.00036236,-3624.9,0.61001
13661,9.0664,0.54545,0.05,9.3284e-07,9.322,7.1631e-07,5.3821,-3.1843e-12,4.7258e-06,-7.163e-07,-5.382,0.59914
13662,9.0664,0.81818,0,0.00036389,3636.4,0.0001212,0.011064,0.00011819,-22.646,-0.00036427,-3647.6,0.60062
13663,9.1586,0.72727,0,0.00036158,3613.3,0.00012023,0.011446,0.0001178,-18.228,-0.00036189,-3622.4,0.61099
13664,9.0664,0.72727,0.05,9.3951e-07,9.3886,7.2143e-07,5.4206,-3.1856e-12,6.0746e-06,-7.2142e-07,-5.4204,0.60013
13665,9.0664,1,0,0.00036332,3630.7,0.00012135,0.0096616,0.00011743,-29.458,-0.00036381,-3645.3,0.60149
13666,9.1586,0.90909,0,0.00036102,3607.7,0.00012036,0.0095882,0.00011706,-24.82,-0.00036143,-3620,0.61189
13667,9.0664,0.90909,0.05,9.4381e-07,9.4316,7.2473e-07,5.4454,-4.0716e-12,5.2559e-06,-7.2473e-07,-5.4453,0.60103
13668,9.0664,1.1818,0,0.00036276,3625.1,0.0001215,0.0086704,0.00011669,-36.158,-0.00036336,-3643.1,0.60228
13669,9.1586,1.0909,0,0.00036047,3602.2,0.0001205,0.0087404,0.00011633,-31.324,-0.00036099,-3617.7,0.61271
13670,9.0664,1.0909,0.05,9.4819e-07,9.4754,7.281e-07,5.4707,-3.0861e-12,6.4407e-06,-7.2809e-07,-5.4706,0.60186
13671,9.0664,1.3636,0,0.00036223,3619.8,0.00012164,0.0075923,0.00011597,-42.663,-0.00036294,-3641,0.60299
13672,9.1586,1.2727,0,0.00035994,3596.9,0.00012064,0.0077248,0.00011563,-37.666,-0.00036057,-3615.6,0.61346
13673,9.0664,1.2727,0.05,9.5267e-07,9.5202,7.3154e-07,5.4965,-3.1113e-12,5.2023e-06,-7.3153e-07,-5.4964,0.60261
13674,9.0664,1.5455,0,0.00036173,3614.8,0.00012179,0.0064979,0.00011528,-48.877,-0.00036254,-3639,0.60363
13675,9.1586,1.4545,0,0.00035944,3591.9,0.00012078,0.006732,0.00011495,-43.764,-0.00036016,-3613.6,0.61413
13676,9.0664,1.4545,0.05,9.5711e-07,9.5645,7.3495e-07,5.5221,-2.1823e-12,6.3635e-06,-7.3494e-07,-5.522,0.60329
13677,9.0664,1.7273,0,0.00036127,3610.2,0.00012192,0.0053803,0.00011464,-54.698,-0.00036217,-3637.3,0.60419
13678,9.1586,1.6364,0,0.00035897,3587.2,0.00012091,0.0057007,0.00011431,-49.524,-0.00035979,-3611.8,0.61473
13679,9.0664,1.6364,0.05,9.6138e-07,9.6071,7.3822e-07,5.5467,-3.0919e-12,5.675e-06,-7.3822e-07,-5.5466,0.60389
13680,9.0664,1.9091,0,0.00036085,3606,0.00012204,0.0042808,0.00011405,-60.019,-0.00036183,-3635.7,0.60468
13681,9.1586,1.8182,0,0.00035854,3583,0.00012103,0.0046729,0.00011373,-54.849,-0.00035945,-3610.1,0.61525
13682,9.0664,1.8182,0.05,9.6534e-07,9.6467,7.4127e-07,5.5696,-3.7336e-13,5.9724e-06,-7.4126e-07,-5.5695,0.60441
13683,9.0664,2.0909,0,0.00036048,3602.3,0.00012215,0.0032408,0.00011354,-64.735,-0.00036154,-3634.3,0.60509
13684,9.1586,2,0,0.00035816,3579.1,0.00012114,0.0036801,0.0001132,-59.639,-0.00035914,-3608.6,0.61569
13685,9.0664,2,0.05,9.689e-07,9.6823,7.4399e-07,5.5901,-2.27e-12,5.234e-06,-7.4399e-07,-5.5901,0.60486
13686,9.0664,2.2727,0,0.00036017,3599.2,0.00012225,0.0023079,0.00011309,-68.748,-0.00036129,-3633.1,0.60542
13687,9.1586,2.1818,0,0.00035783,3575.9,0.00012123,0.0027653,0.00011274,-63.8,-0.00035887,-3607.3,0.61607
13688,9.0664,2.1818,0.05,9.7197e-07,9.713,7.4635e-07,5.6078,-2.3281e-12,2.9436e-06,-7.4635e-07,-5.6078,0.60523
13689,9.0664,2.4545,0,0.00035992,3596.7,0.00012232,0.0015285,0.00011274,-71.969,-0.00036109,-3632.2,0.60568
13690,9.1586,2.3636,0,0.00035756,3573.1,0.00012131,0.0019711,0.00011236,-67.245,-0.00035866,-3606.3,0.61636
13691,9.0664,2.3636,0.05,9.7449e-07,9.7382,7.4828e-07,5.6223,-5.8466e-13,4.3844e-06,-7.4829e-07,-5.6223,0.60553
13692,9.0664,2.6364,0,0.00035974,3594.9,0.00012238,0.00094106,0.00011248,-74.325,-0.00036094,-3631.5,0.60587
13693,9.1586,2.5455,0,0.00035735,3571,0.00012137,0.0013388,0.00011207,-69.9,-0.00035849,-3605.5,0.61658
13694,9.0664,2.5455,0.05,9.7641e-07,9.7574,7.4976e-07,5.6335,2.403e-13,2.8596e-06,-7.4976e-07,-5.6334,0.60575
13695,9.0664,2.8182,0,0.00035963,3593.8,0.00012241,0.00057495,0.00011233,-75.761,-0.00036085,-3631.1,0.60598
13696,9.1586,2.7273,0,0.00035721,3569.6,0.00012141,0.00089674,0.00011187,-71.704,-0.00035838,-3604.9,0.61673
13697,9.0664,2.7273,0.05,9.7771e-07,9.7703,7.5076e-07,5.6409,1.484e-13,3.9827e-06,-7.5076e-07,-5.6409,0.6059
13698,9.0664,3,0,0.00035959,3593.4,0.00012242,0.0004506,0.00011227,-76.244,-0.00036082,-3630.9,0.60602
13699,9.1586,2.9091,0,0.00035714,3568.9,0.00012143,0.00066957,0.00011177,-72.617,-0.00035832,-3604.7,0.61681
13700,9.0664,2.9091,0.05,9.7836e-07,9.7769,7.5126e-07,5.6447,1.8694e-12,3.2372e-06,-7.5126e-07,-5.6447,0.60597
13701,9.0664,3.1818,0,0.00035963,3593.8,0.00012241,0.00057495,0.00011233,-75.761,-0.00036085,-3631.1,0.60598
13702,9.1586,3.0909,0,0.00035714,3568.9,0.00012143,0.00066951,0.00011177,-72.617,-0.00035832,-3604.7,0.61681
13703,9.0664,3.0909,0.05,9.7836e-07,9.7769,7.5126e-07,5.6447,2.6782e-12,2.4819e-06,-7.5126e-07,-5.6447,0.60597
13704,9.0664,3.3636,0,0.00035974,3594.9,0.00012238,0.00094082,0.00011248,-74.325,-0.00036094,-3631.5,0.60587
13705,9.1586,3.2727,0,0.00035721,3569.6,0.00012141,0.0008968,0.00011187,-71.704,-0.00035838,-3604.9,0.61673
13706,9.0664,3.2727,0.05,9.7771e-07,9.7703,7.5075e-07,5.6409,2.5767e-12,2.6775e-06,-7.5076e-07,-5.6409,0.6059
13707,9.0664,3.5455,0,0.00035992,3596.7,0.00012232,0.0015283,0.00011274,-71.969,-0.00036109,-3632.2,0.60568
13708,9.1586,3.4545,0,0.00035735,3571,0.00012137,0.0013384,0.00011207,-69.9,-0.00035849,-3605.5,0.61658
13709,9.0664,3.4545,0.05,9.7641e-07,9.7574,7.4976e-07,5.6334,6.7602e-13,9.4243e-07,-7.4976e-07,-5.6335,0.60575
13710,9.0664,3.7273,0,0.00036017,3599.2,0.00012225,0.0023077,0.00011309,-68.748,-0.00036129,-3633.1,0.60542
13711,9.1586,3.6364,0,0.00035756,3573.1,0.00012131,0.001971,0.00011236,-67.245,-0.00035866,-3606.3,0.61636
13712,9.0664,3.6364,0.05,9.7449e-07,9.7382,7.4829e-07,5.6223,5.9822e-13,1.3232e-06,-7.4828e-07,-5.6224,0.60553
13713,9.0664,3.9091,0,0.00036048,3602.3,0.00012215,0.0032405,0.00011354,-64.735,-0.00036154,-3634.3,0.60509
13714,9.1586,3.8182,0,0.00035783,3575.9,0.00012123,0.0027646,0.00011274,-63.8,-0.00035887,-3607.3,0.61607
13715,9.0664,3.8182,0.05,9.7197e-07,9.713,7.4635e-07,5.6078,2.3091e-12,6.9843e-07,-7.4636e-07,-5.6078,0.60523
13716,9.0664,4.0909,0,0.00036085,3606,0.00012204,0.0042804,0.00011405,-60.019,-0.00036183,-3635.7,0.60468
13717,9.1586,4,0,0.00035816,3579.1,0.00012114,0.0036803,0.0001132,-59.639,-0.00035914,-3608.6,0.61569
13718,9.0664,4,0.05,9.689e-07,9.6823,7.4399e-07,5.59,3.1653e-12,8.5245e-07,-7.44e-07,-5.5901,0.60486
13719,9.0664,4.2727,0,0.00036127,3610.2,0.00012192,0.0053798,0.00011464,-54.698,-0.00036217,-3637.3,0.60419
13720,9.1586,4.1818,0,0.00035854,3583,0.00012103,0.0046721,0.00011373,-54.849,-0.00035945,-3610.1,0.61525
13721,9.0664,4.1818,0.05,9.6534e-07,9.6467,7.4126e-07,5.5695,3.9842e-12,-1.0093e-06,-7.4127e-07,-5.5696,0.60441
13722,9.0664,4.4545,0,0.00036173,3614.8,0.00012179,0.0064975,0.00011528,-48.877,-0.00036254,-3639,0.60363
13723,9.1586,4.3636,0,0.00035897,3587.2,0.00012091,0.0057002,0.00011431,-49.524,-0.00035979,-3611.8,0.61473
13724,9.0664,4.3636,0.05,9.6138e-07,9.6071,7.3821e-07,5.5466,3.0579e-12,-3.6671e-07,-7.3822e-07,-5.5467,0.60389
13725,9.0664,4.6364,0,0.00036223,3619.8,0.00012164,0.0075916,0.00011597,-42.663,-0.00036294,-3641,0.60299
13726,9.1586,4.5455,0,0.00035944,3591.9,0.00012078,0.0067313,0.00011495,-43.764,-0.00036016,-3613.6,0.61413
13727,9.0664,4.5455,0.05,9.5711e-07,9.5645,7.3494e-07,5.522,3.9767e-12,-3.4295e-07,-7.3495e-07,-5.5221,0.60329
13728,9.0664,4.8182,0,0.00036276,3625.1,0.0001215,0.0086697,0.00011669,-36.158,-0.00036336,-3643.1,0.60228
13729,9.1586,4.7273,0,0.00035994,3596.9,0.00012064,0.0077241,0.00011563,-37.666,-0.00036057,-3615.6,0.61346
13730,9.0664,4.7273,0.05,9.5267e-07,9.5202,7.3153e-07,5.4964,4.913e-12,-1.4109e-06,-7.3154e-07,-5.4965,0.60261
13731,9.0664,5,0,0.00036332,3630.7,0.00012135,0.0096605,0.00011743,-29.458,-0.00036381,-3645.3,0.60149
13732,9.1586,4.9091,0,0.00036047,3602.2,0.0001205,0.0087397,0.00011633,-31.324,-0.00036099,-3617.7,0.61271
13733,9.0664,4.9091,0.05,9.4819e-07,9.4754,7.2809e-07,5.4705,6.7217e-12,-6.3777e-07,-7.281e-07,-5.4707,0.60186
13734,9.0664,5.1818,0,0.00036389,3636.4,0.0001212,0.011063,0.00011819,-22.646,-0.00036427,-3647.6,0.60062
13735,9.1586,5.0909,0,0.00036102,3607.7,0.00012036,0.0095869,0.00011706,-24.82,-0.00036143,-3620,0.61189
13736,9.0664,5.0909,0.05,9.4381e-07,9.4316,7.2472e-07,5.4453,4.9258e-12,-1.5293e-06,-7.2473e-07,-5.4454,0.60103
13737,9.0664,5.3636,0,0.00036448,3642.3,0.00012106,0.011592,0.00011896,-15.792,-0.00036474,-3650.1,0.59967
13738,9.1586,5.2727,0,0.00036158,3613.3,0.00012023,0.011445,0.0001178,-18.228,-0.00036189,-3622.4,0.61099
13739,9.0664,5.2727,0.05,9.3951e-07,9.3886,7.2142e-07,5.4204,4.9637e-12,-1.4038e-06,-7.2143e-07,-5.4206,0.60013
13740,9.0664,5.5455,0,0.00036508,3648.3,0.00012092,0.021549,0.00011973,-8.9165,-0.00036523,-3652.8,0.59865
13741,9.1586,5.4545,0,0.00036216,3619.2,0.00012009,0.010805,0.00011854,-11.604,-0.00036236,-3624.9,0.61001
13742,9.0664,5.4545,0.05,9.3284e-07,9.322,7.163e-07,5.3819,5.9086e-12,-6.0515e-07,-7.1631e-07,-5.3821,0.59914
13743,9.0664,5.7273,0,0.00036576,3655.1,0.00012079,0.079447,0.00012055,-1.7117,-0.00036579,-3655.9,0.59755
13744,9.1586,5.6364,0,0.00036277,3625.2,0.00011996,0.033337,0.0001193,-4.932,-0.00036285,-3627.6,0.60895
13745,9.0664,5.6364,0.05,8.8436e-07,8.8375,6.7907e-07,5.1022,6.8393e-12,-1.0985e-06,-6.7909e-07,-5.1024,0.59808
13746,9.1586,5.8182,0,0.00036351,3632.6,0.00012018,2.6653,0.00011982,-0.080807,-0.00036346,-3631.3,0.60781
13747,9.0664,5.8182,0.05,1.9872e-07,1.9858,1.5259e-07,1.1464,1.7003e-12,-4.73e-05,-1.526e-07,-1.1466,0.59693
13748,9.0664,5.9091,0,0.00036599,3657.4,0.00012097,2.3157,0.00012066,-0.028098,-0.00036596,-3656.3,0.59636
13749,9.2507,0.27273,0,0.0003605,3602.5,0.00011902,0.12244,0.00011889,-0.87189,-0.00036051,-3602.9,0.61929
13750,9.3429,0.18182,0,0.00035824,3579.9,0.0001185,3.347,0.00011805,-0.058055,-0.00035819,-3578.3,0.62969
13751,9.2507,0.18182,0.05,1.834e-07,1.8327,1.4083e-07,1.0582,-5.9584e-13,4.3571e-05,-1.4083e-07,-1.058,0.61869
13752,9.2507,0.090909,0,0.00036069,3604.4,0.00011926,2.7304,0.00011889,-0.02009,-0.00036065,-3603.1,0.61813
13753,9.2507,0.45455,0,0.00035985,3596,0.00011913,0.01937,0.00011811,-7.6353,-0.00035997,-3599.8,0.62038
13754,9.3429,0.36364,0,0.00035752,3572.7,0.00011818,0.030777,0.00011766,-3.8719,-0.00035759,-3574.7,0.63081
13755,9.2507,0.36364,0.05,8.8118e-07,8.8057,6.7664e-07,5.084,-5.177e-12,3.5442e-06,-6.7663e-07,-5.0839,0.61982
13756,9.2507,0.63636,0,0.00035927,3590.2,0.00011925,0.010206,0.00011738,-14.056,-0.0003595,-3597.2,0.6214
13757,9.3429,0.54545,0,0.00035695,3567,0.00011829,0.0094431,0.00011695,-10.118,-0.00035712,-3572,0.63186
13758,9.2507,0.54545,0.05,9.2997e-07,9.2932,7.141e-07,5.3655,-4.2462e-12,4.581e-06,-7.1409e-07,-5.3654,0.62087
13759,9.2507,0.81818,0,0.00035871,3584.6,0.00011938,0.0098154,0.00011667,-20.417,-0.00035905,-3594.8,0.62233
13760,9.3429,0.72727,0,0.00035639,3561.5,0.00011842,0.01017,0.00011625,-16.281,-0.00035667,-3569.6,0.63283
13761,9.2507,0.72727,0.05,9.3607e-07,9.3543,7.1879e-07,5.4008,-4.2019e-12,5.774e-06,-7.1878e-07,-5.4006,0.62184
13762,9.2507,1,0,0.00035817,3579.2,0.00011952,0.0085903,0.00011596,-26.7,-0.00035861,-3592.5,0.62319
13763,9.3429,0.90909,0,0.00035586,3556.1,0.00011854,0.0085368,0.00011556,-22.378,-0.00035623,-3567.2,0.63372
13764,9.2507,0.90909,0.05,9.3966e-07,9.3901,7.2155e-07,5.4214,-4.1208e-12,6.1232e-06,-7.2154e-07,-5.4213,0.62274
13765,9.2507,1.1818,0,0.00035764,3574,0.00011965,0.0077473,0.00011527,-32.845,-0.00035819,-3590.3,0.62397
13766,9.3429,1.0909,0,0.00035534,3550.9,0.00011866,0.0078283,0.00011489,-28.36,-0.00035581,-3565,0.63453
13767,9.2507,1.0909,0.05,9.4325e-07,9.426,7.243e-07,5.4421,-3.1251e-12,6.4135e-06,-7.2429e-07,-5.442,0.62356
13768,9.2507,1.3636,0,0.00035714,3569,0.00011977,0.0068297,0.00011461,-38.78,-0.00035779,-3588.2,0.62468
13769,9.3429,1.2727,0,0.00035484,3546,0.00011879,0.0069653,0.00011424,-34.163,-0.00035541,-3562.9,0.63527
13770,9.2507,1.2727,0.05,9.4689e-07,9.4624,7.271e-07,5.4632,-2.2907e-12,6.9389e-06,-7.2709e-07,-5.4631,0.62431
13771,9.2507,1.5455,0,0.00035668,3564.3,0.0001199,0.0059057,0.00011398,-44.423,-0.00035741,-3586.3,0.62531
13772,9.3429,1.4545,0,0.00035437,3541.3,0.0001189,0.0061286,0.00011362,-39.716,-0.00035503,-3561,0.63594
13773,9.2507,1.4545,0.05,9.5049e-07,9.4984,7.2986e-07,5.4839,-2.2565e-12,5.5949e-06,-7.2986e-07,-5.4838,0.62497
13774,9.2507,1.7273,0,0.00035624,3560,0.00012001,0.0049666,0.0001134,-49.685,-0.00035706,-3584.6,0.62587
13775,9.3429,1.6364,0,0.00035393,3536.9,0.00011902,0.0052625,0.00011304,-44.937,-0.00035468,-3559.2,0.63653
13776,9.2507,1.6364,0.05,9.5394e-07,9.5329,7.3251e-07,5.5039,-4.4645e-13,5.7288e-06,-7.3251e-07,-5.5037,0.62557
13777,9.2507,1.9091,0,0.00035585,3556.1,0.00012012,0.0040463,0.00011287,-54.478,-0.00035675,-3583,0.62635
13778,9.3429,1.8182,0,0.00035354,3532.9,0.00011912,0.0044026,0.0001125,-49.746,-0.00035436,-3557.5,0.63705
13779,9.2507,1.8182,0.05,9.5715e-07,9.5649,7.3498e-07,5.5223,-4.2238e-13,5.6432e-06,-7.3496e-07,-5.5223,0.62609
13780,9.2507,2.0909,0,0.00035551,3552.7,0.00012022,0.0031786,0.0001124,-58.713,-0.00035647,-3581.6,0.62675
13781,9.3429,2,0,0.00035318,3529.4,0.00011922,0.0035747,0.00011202,-54.057,-0.00035407,-3556.1,0.63749
13782,9.2507,2,0.05,9.6003e-07,9.5936,7.3718e-07,5.5389,-2.3249e-12,5.7876e-06,-7.3718e-07,-5.5388,0.62653
13783,9.2507,2.2727,0,0.00035522,3549.8,0.0001203,0.0024021,0.000112,-62.306,-0.00035624,-3580.5,0.62709
13784,9.3429,2.1818,0,0.00035287,3526.3,0.0001193,0.0028131,0.00011161,-57.792,-0.00035382,-3554.9,0.63785
13785,9.2507,2.1818,0.05,9.6251e-07,9.6185,7.3909e-07,5.5532,-5.4624e-13,4.9682e-06,-7.3908e-07,-5.5532,0.6269
13786,9.2507,2.4545,0,0.00035499,3547.5,0.00012036,0.0017543,0.00011169,-65.185,-0.00035605,-3579.6,0.62734
13787,9.3429,2.3636,0,0.00035262,3523.8,0.00011937,0.0021533,0.00011127,-60.877,-0.00035362,-3553.8,0.63815
13788,9.2507,2.3636,0.05,9.6455e-07,9.6388,7.4065e-07,5.565,2.8297e-13,4.1451e-06,-7.4065e-07,-5.565,0.62719
13789,9.2507,2.6364,0,0.00035482,3545.8,0.00012041,0.0012668,0.00011145,-67.287,-0.00035592,-3578.9,0.62753
13790,9.3429,2.5455,0,0.00035243,3521.9,0.00011942,0.0016284,0.000111,-63.25,-0.00035346,-3553.1,0.63837
13791,9.2507,2.5455,0.05,9.6611e-07,9.6544,7.4185e-07,5.574,2.0873e-13,5.4002e-06,-7.4185e-07,-5.574,0.62741
13792,9.2507,2.8182,0,0.00035472,3544.8,0.00012044,0.00096327,0.00011131,-68.568,-0.00035584,-3578.5,0.62764
13793,9.3429,2.7273,0,0.0003523,3520.6,0.00011946,0.0012624,0.00011082,-64.861,-0.00035336,-3552.6,0.63851
13794,9.2507,2.7273,0.05,9.6716e-07,9.6649,7.4266e-07,5.58,1.0391e-12,3.8421e-06,-7.4266e-07,-5.58,0.62756
13795,9.2507,3,0,0.00035469,3544.4,0.00012045,0.00086025,0.00011126,-68.998,-0.00035581,-3578.4,0.62768
13796,9.3429,2.9091,0,0.00035223,3519.9,0.00011948,0.0010741,0.00011073,-65.676,-0.00035331,-3552.3,0.63859
13797,9.2507,2.9091,0.05,9.6769e-07,9.6702,7.4306e-07,5.5831,9.53e-13,4.1421e-06,-7.4307e-07,-5.5831,0.62764
13798,9.2507,3.1818,0,0.00035472,3544.8,0.00012044,0.00096328,0.00011131,-68.568,-0.00035584,-3578.5,0.62764
13799,9.3429,3.0909,0,0.00035223,3519.9,0.00011948,0.0010741,0.00011073,-65.676,-0.00035331,-3552.3,0.63859
13800,9.2507,3.0909,0.05,9.6769e-07,9.6702,7.4306e-07,5.583,8.6534e-13,1.5751e-06,-7.4307e-07,-5.5831,0.62764
13801,9.2507,3.3636,0,0.00035482,3545.8,0.00012041,0.0012667,0.00011145,-67.287,-0.00035592,-3578.9,0.62753
13802,9.3429,3.2727,0,0.0003523,3520.6,0.00011946,0.0012621,0.00011082,-64.861,-0.00035336,-3552.6,0.63851
13803,9.2507,3.2727,0.05,9.6716e-07,9.6649,7.4266e-07,5.58,1.6888e-12,2.8275e-06,-7.4266e-07,-5.5801,0.62756
13804,9.2507,3.5455,0,0.00035499,3547.5,0.00012036,0.001754,0.00011169,-65.185,-0.00035605,-3579.6,0.62734
13805,9.3429,3.4545,0,0.00035243,3521.9,0.00011942,0.0016286,0.000111,-63.25,-0.00035346,-3553.1,0.63837
13806,9.2507,3.4545,0.05,9.6611e-07,9.6544,7.4185e-07,5.5739,3.4275e-12,1.2261e-06,-7.4185e-07,-5.574,0.62741
13807,9.2507,3.7273,0,0.00035522,3549.8,0.0001203,0.0024014,0.000112,-62.306,-0.00035624,-3580.5,0.62709
13808,9.3429,3.6364,0,0.00035262,3523.8,0.00011937,0.0021532,0.00011127,-60.877,-0.00035362,-3553.8,0.63815
13809,9.2507,3.6364,0.05,9.6455e-07,9.6388,7.4065e-07,5.5649,1.5448e-12,1.6129e-06,-7.4065e-07,-5.565,0.62719
13810,9.2507,3.9091,0,0.00035551,3552.7,0.00012022,0.0031784,0.0001124,-58.713,-0.00035647,-3581.6,0.62675
13811,9.3429,3.8182,0,0.00035287,3526.3,0.0001193,0.0028125,0.00011161,-57.792,-0.00035382,-3554.9,0.63785
13812,9.2507,3.8182,0.05,9.6251e-07,9.6185,7.3908e-07,5.5532,3.269e-12,1.1447e-06,-7.3909e-07,-5.5533,0.6269
13813,9.2507,4.0909,0,0.00035585,3556.1,0.00012012,0.0040462,0.00011287,-54.478,-0.00035675,-3583,0.62635
13814,9.3429,4,0,0.00035318,3529.4,0.00011922,0.0035747,0.00011202,-54.057,-0.00035407,-3556.1,0.63749
13815,9.2507,4,0.05,9.6003e-07,9.5936,7.3718e-07,5.5388,3.2311e-12,1.4814e-07,-7.3718e-07,-5.5389,0.62653
13816,9.2507,4.2727,0,0.00035624,3560,0.00012001,0.0049659,0.0001134,-49.685,-0.00035706,-3584.6,0.62587
13817,9.3429,4.1818,0,0.00035354,3532.9,0.00011912,0.0044017,0.0001125,-49.746,-0.00035436,-3557.5,0.63705
13818,9.2507,4.1818,0.05,9.5715e-07,9.5649,7.3497e-07,5.5223,3.1613e-12,5.7596e-07,-7.3498e-07,-5.5223,0.62609
13819,9.2507,4.4545,0,0.00035668,3564.3,0.0001199,0.005905,0.00011398,-44.423,-0.00035741,-3586.3,0.62531
13820,9.3429,4.3636,0,0.00035393,3536.9,0.00011902,0.005262,0.00011304,-44.937,-0.00035468,-3559.2,0.63653
13821,9.2507,4.3636,0.05,9.5394e-07,9.5329,7.3251e-07,5.5037,3.1724e-12,2.5026e-07,-7.3251e-07,-5.5039,0.62557
13822,9.2507,4.6364,0,0.00035714,3569,0.00011977,0.0068291,0.00011461,-38.78,-0.00035779,-3588.2,0.62468
13823,9.3429,4.5455,0,0.00035437,3541.3,0.0001189,0.0061278,0.00011362,-39.716,-0.00035503,-3561,0.63594
13824,9.2507,4.5455,0.05,9.5049e-07,9.4984,7.2986e-07,5.4838,4.0394e-12,-7.5083e-07,-7.2986e-07,-5.484,0.62497
13825,9.2507,4.8182,0,0.00035764,3574,0.00011965,0.0077466,0.00011527,-32.845,-0.00035819,-3590.3,0.62397
13826,9.3429,4.7273,0,0.00035484,3546,0.00011879,0.0069646,0.00011424,-34.163,-0.00035541,-3562.9,0.63527
13827,9.2507,4.7273,0.05,9.4689e-07,9.4624,7.2709e-07,5.463,4.947e-12,-1.5372e-06,-7.271e-07,-5.4632,0.62431
13828,9.2507,5,0,0.00035817,3579.2,0.00011952,0.0085893,0.00011596,-26.7,-0.00035861,-3592.5,0.62319
13829,9.3429,4.9091,0,0.00035534,3550.9,0.00011866,0.0078277,0.00011489,-28.36,-0.00035581,-3565,0.63453
13830,9.2507,4.9091,0.05,9.4325e-07,9.426,7.2429e-07,5.442,4.0869e-12,3.0601e-07,-7.243e-07,-5.4421,0.62356
13831,9.2507,5.1818,0,0.00035871,3584.6,0.00011938,0.0098143,0.00011667,-20.417,-0.00035905,-3594.8,0.62233
13832,9.3429,5.0909,0,0.00035586,3556.1,0.00011854,0.0085354,0.00011556,-22.378,-0.00035623,-3567.2,0.63372
13833,9.2507,5.0909,0.05,9.3966e-07,9.3901,7.2153e-07,5.4213,5.8694e-12,-1.4599e-06,-7.2155e-07,-5.4215,0.62274
13834,9.2507,5.3636,0,0.00035927,3590.2,0.00011925,0.010205,0.00011738,-14.056,-0.0003595,-3597.2,0.6214
13835,9.3429,5.2727,0,0.00035639,3561.5,0.00011842,0.010168,0.00011625,-16.281,-0.00035667,-3569.6,0.63283
13836,9.2507,5.2727,0.05,9.3607e-07,9.3543,7.1878e-07,5.4006,5.0205e-12,-1.4151e-06,-7.188e-07,-5.4008,0.62184
13837,9.2507,5.5455,0,0.00035985,3596,0.00011913,0.019369,0.00011811,-7.6353,-0.00035997,-3599.8,0.62038
13838,9.3429,5.4545,0,0.00035695,3567,0.00011829,0.0094429,0.00011695,-10.118,-0.00035712,-3572,0.63186
13839,9.2507,5.4545,0.05,9.2997e-07,9.2932,7.1409e-07,5.3653,5.9847e-12,-5.6369e-07,-7.141e-07,-5.3656,0.62087
13840,9.2507,5.7273,0,0.0003605,3602.5,0.00011902,0.12244,0.00011889,-0.87189,-0.00036051,-3602.9,0.61929
13841,9.3429,5.6364,0,0.00035752,3572.7,0.00011818,0.030775,0.00011766,-3.8719,-0.00035759,-3574.7,0.63081
13842,9.2507,5.6364,0.05,8.8118e-07,8.8057,6.7663e-07,5.0839,6.9124e-12,1.6961e-07,-6.7664e-07,-5.0841,0.61982
13843,9.3429,5.8182,0,0.00035824,3579.9,0.0001185,3.347,0.00011805,-0.058056,-0.00035819,-3578.3,0.62969
13844,9.2507,5.8182,0.05,1.834e-07,1.8327,1.4082e-07,1.058,1.5908e-12,-4.0285e-05,-1.4083e-07,-1.0582,0.61869
13845,9.2507,5.9091,0,0.00036069,3604.4,0.00011926,2.7304,0.00011889,-0.020091,-0.00036065,-3603.1,0.61813
13846,9.4351,0.27273,0,0.00035525,3550.1,0.00011727,0.35697,0.0001172,-0.22931,-0.00035525,-3550,0.64129
13847,9.5273,0.18182,0,0.00035299,3527.4,0.00011683,4.0308,0.00011628,-0.043448,-0.00035292,-3525.5,0.65181
13848,9.4351,0.18182,0.05,1.6827e-07,1.6815,1.2921e-07,0.97094,-1.3055e-12,4.96e-05,-1.2921e-07,-0.97074,0.64069
13849,9.4351,0.090909,0,0.0003554,3551.6,0.00011755,3.1455,0.00011713,-0.014488,-0.00035535,-3550,0.64013
13850,9.4351,0.45455,0,0.00035462,3543.7,0.00011734,0.017352,0.00011649,-6.3708,-0.00035473,-3546.9,0.64236
13851,9.5273,0.36364,0,0.00035229,3520.5,0.0001164,0.028605,0.00011602,-2.826,-0.00035234,-3521.9,0.65292
13852,9.4351,0.36364,0.05,8.7742e-07,8.7682,6.7376e-07,5.0624,-6.9564e-12,4.7098e-06,-6.7375e-07,-5.0622,0.6418
13853,9.4351,0.63636,0,0.00035407,3538.3,0.00011746,0.0090065,0.00011581,-12.359,-0.00035428,-3544.4,0.64336
13854,9.5273,0.54545,0,0.00035174,3515,0.0001165,0.0082489,0.00011535,-8.6634,-0.00035189,-3519.3,0.65395
13855,9.4351,0.54545,0.05,9.2655e-07,9.2591,7.1148e-07,5.3458,-4.2833e-12,5.1205e-06,-7.1148e-07,-5.3457,0.64284
13856,9.4351,0.81818,0,0.00035354,3532.9,0.00011757,0.0087633,0.00011514,-18.257,-0.00035385,-3542,0.64429
13857,9.5273,0.72727,0,0.00035122,3509.7,0.00011661,0.0090737,0.0001147,-14.39,-0.00035146,-3516.9,0.65491
13858,9.4351,0.72727,0.05,9.3222e-07,9.3158,7.1584e-07,5.3785,-5.1128e-12,5.7513e-06,-7.1583e-07,-5.3784,0.64381
13859,9.4351,1,0,0.00035303,3527.8,0.00011769,0.007714,0.00011449,-24.052,-0.00035343,-3539.8,0.64514
13860,9.5273,0.90909,0,0.00035071,3504.7,0.00011672,0.0076666,0.00011406,-20.028,-0.00035104,-3514.6,0.65579
13861,9.4351,0.90909,0.05,9.3524e-07,9.346,7.1815e-07,5.396,-3.2751e-12,6.4025e-06,-7.1815e-07,-5.3958,0.64469
13862,9.4351,1.1818,0,0.00035253,3522.9,0.0001178,0.0070096,0.00011385,-29.691,-0.00035303,-3537.6,0.64591
13863,9.5273,1.0909,0,0.00035022,3499.8,0.00011683,0.0070906,0.00011344,-25.531,-0.00035065,-3512.5,0.6566
13864,9.4351,1.0909,0.05,9.382e-07,9.3756,7.2043e-07,5.413,-3.2235e-12,6.6549e-06,-7.2042e-07,-5.4129,0.64551
13865,9.4351,1.3636,0,0.00035207,3518.2,0.00011792,0.0062376,0.00011324,-35.112,-0.00035265,-3535.6,0.64661
13866,9.5273,1.2727,0,0.00034975,3495.1,0.00011694,0.0063679,0.00011284,-30.845,-0.00035027,-3510.4,0.65733
13867,9.4351,1.2727,0.05,9.4119e-07,9.4054,7.2272e-07,5.4303,-2.3035e-12,6.4927e-06,-7.2272e-07,-5.4302,0.64624
13868,9.4351,1.5455,0,0.00035163,3513.8,0.00011803,0.0054634,0.00011267,-40.242,-0.00035229,-3533.8,0.64724
13869,9.5273,1.4545,0,0.00034931,3490.7,0.00011705,0.00567,0.00011227,-35.908,-0.00034991,-3508.5,0.65799
13870,9.4351,1.4545,0.05,9.4413e-07,9.4348,7.2498e-07,5.4472,-3.1813e-12,6.1233e-06,-7.2497e-07,-5.4471,0.6469
13871,9.4351,1.7273,0,0.00035122,3509.8,0.00011813,0.0046783,0.00011214,-45.009,-0.00035197,-3532.1,0.64779
13872,9.5273,1.6364,0,0.0003489,3486.6,0.00011715,0.0049472,0.00011174,-40.649,-0.00034958,-3506.8,0.65857
13873,9.4351,1.6364,0.05,9.4694e-07,9.4629,7.2714e-07,5.4634,-4.9951e-13,6.6086e-06,-7.2713e-07,-5.4633,0.64749
13874,9.4351,1.9091,0,0.00035086,3506.2,0.00011822,0.0039113,0.00011165,-49.335,-0.00035167,-3530.6,0.64826
13875,9.5273,1.8182,0,0.00034853,3482.9,0.00011724,0.0042316,0.00011125,-45,-0.00034928,-3505.2,0.65908
13876,9.4351,1.8182,0.05,9.4954e-07,9.4889,7.2913e-07,5.4784,-2.3375e-12,5.33e-06,-7.2913e-07,-5.4784,0.648
13877,9.4351,2.0909,0,0.00035054,3503,0.0001183,0.0031894,0.00011123,-53.147,-0.00035142,-3529.3,0.64866
13878,9.5273,2,0,0.0003482,3479.6,0.00011732,0.0035435,0.00011081,-48.889,-0.00034901,-3503.8,0.65952
13879,9.4351,2,0.05,9.5188e-07,9.5122,7.3093e-07,5.4919,-2.3615e-12,6.023e-06,-7.3092e-07,-5.4919,0.64844
13880,9.4351,2.2727,0,0.00035028,3500.3,0.00011837,0.0025439,0.00011087,-56.373,-0.0003512,-3528.2,0.64899
13881,9.5273,2.1818,0,0.00034792,3476.8,0.00011739,0.0029114,0.00011044,-52.249,-0.00034878,-3502.6,0.65988
13882,9.4351,2.1818,0.05,9.539e-07,9.5324,7.3248e-07,5.5036,2.9135e-13,5.2094e-06,-7.3248e-07,-5.5035,0.64881
13883,9.4351,2.4545,0,0.00035006,3498.2,0.00011843,0.0020064,0.00011058,-58.952,-0.00035103,-3527.3,0.64925
13884,9.5273,2.3636,0,0.00034769,3474.5,0.00011745,0.0023645,0.00011013,-55.019,-0.00034859,-3501.7,0.66017
13885,9.4351,2.3636,0.05,9.5556e-07,9.549,7.3375e-07,5.5131,-6.5815e-13,4.2757e-06,-7.3375e-07,-5.5131,0.6491
13886,9.4351,2.6364,0,0.00034991,3496.7,0.00011847,0.0016025,0.00011037,-60.833,-0.0003509,-3526.7,0.64943
13887,9.5273,2.5455,0,0.00034751,3472.7,0.0001175,0.0019301,0.00010989,-57.146,-0.00034845,-3500.9,0.66039
13888,9.4351,2.5455,0.05,9.5682e-07,9.5616,7.3472e-07,5.5204,1.8421e-13,4.2383e-06,-7.3472e-07,-5.5204,0.64932
13889,9.4351,2.8182,0,0.00034981,3495.7,0.00011849,0.0013514,0.00011025,-61.978,-0.00035083,-3526.3,0.64954
13890,9.5273,2.7273,0,0.00034739,3471.5,0.00011753,0.0016272,0.00010973,-58.588,-0.00034835,-3500.4,0.66054
13891,9.4351,2.7273,0.05,9.5768e-07,9.5702,7.3538e-07,5.5253,1.0217e-12,4.6579e-06,-7.3538e-07,-5.5253,0.64946
13892,9.4351,3,0,0.00034978,3495.4,0.0001185,0.001266,0.0001102,-62.362,-0.0003508,-3526.2,0.64958
13893,9.5273,2.9091,0,0.00034733,3470.9,0.00011754,0.0014714,0.00010965,-59.317,-0.0003483,-3500.2,0.66061
13894,9.4351,2.9091,0.05,9.5811e-07,9.5745,7.3571e-07,5.5278,1.857e-12,3.624e-06,-7.3571e-07,-5.5278,0.64954
13895,9.4351,3.1818,0,0.00034981,3495.7,0.00011849,0.0013511,0.00011025,-61.978,-0.00035083,-3526.3,0.64954
13896,9.5273,3.0909,0,0.00034733,3470.9,0.00011754,0.0014713,0.00010965,-59.317,-0.0003483,-3500.2,0.66061
13897,9.4351,3.0909,0.05,9.5811e-07,9.5745,7.357e-07,5.5278,1.7807e-12,2.576e-06,-7.3571e-07,-5.5278,0.64954
13898,9.4351,3.3636,0,0.00034991,3496.7,0.00011847,0.0016025,0.00011037,-60.833,-0.0003509,-3526.7,0.64943
13899,9.5273,3.2727,0,0.00034739,3471.5,0.00011753,0.0016267,0.00010973,-58.588,-0.00034835,-3500.4,0.66054
13900,9.4351,3.2727,0.05,9.5768e-07,9.5702,7.3538e-07,5.5253,2.6152e-12,2.9689e-06,-7.3538e-07,-5.5253,0.64946
13901,9.4351,3.5455,0,0.00035006,3498.2,0.00011843,0.0020067,0.00011058,-58.952,-0.00035103,-3527.3,0.64925
13902,9.5273,3.4545,0,0.00034751,3472.7,0.0001175,0.0019301,0.00010989,-57.146,-0.00034845,-3500.9,0.66039
13903,9.4351,3.4545,0.05,9.5682e-07,9.5616,7.3472e-07,5.5204,7.2345e-13,1.4731e-06,-7.3472e-07,-5.5204,0.64932
13904,9.4351,3.7273,0,0.00035028,3500.3,0.00011837,0.0025439,0.00011087,-56.373,-0.0003512,-3528.2,0.64899
13905,9.5273,3.6364,0,0.00034769,3474.5,0.00011745,0.0023642,0.00011013,-55.019,-0.00034859,-3501.7,0.66017
13906,9.4351,3.6364,0.05,9.5556e-07,9.549,7.3375e-07,5.5131,1.5685e-12,1.9253e-06,-7.3375e-07,-5.5131,0.6491
13907,9.4351,3.9091,0,0.00035054,3503,0.0001183,0.0031889,0.00011123,-53.147,-0.00035142,-3529.3,0.64866
13908,9.5273,3.8182,0,0.00034792,3476.8,0.00011739,0.0029109,0.00011044,-52.249,-0.00034878,-3502.6,0.65988
13909,9.4351,3.8182,0.05,9.539e-07,9.5324,7.3248e-07,5.5035,1.5264e-12,1.4298e-06,-7.3248e-07,-5.5036,0.64881
13910,9.4351,4.0909,0,0.00035086,3506.2,0.00011822,0.0039105,0.00011165,-49.335,-0.00035167,-3530.6,0.64826
13911,9.5273,4,0,0.0003482,3479.6,0.00011732,0.0035431,0.00011081,-48.889,-0.00034901,-3503.8,0.65952
13912,9.4351,4,0.05,9.5188e-07,9.5122,7.3092e-07,5.4918,3.2823e-12,1.0284e-06,-7.3093e-07,-5.492,0.64844
13913,9.4351,4.2727,0,0.00035122,3509.8,0.00011813,0.0046776,0.00011214,-45.009,-0.00035197,-3532.1,0.64779
13914,9.5273,4.1818,0,0.00034853,3482.9,0.00011724,0.0042307,0.00011125,-45,-0.00034928,-3505.2,0.65908
13915,9.4351,4.1818,0.05,9.4954e-07,9.4889,7.2913e-07,5.4784,3.2646e-12,7.8689e-07,-7.2913e-07,-5.4785,0.648
13916,9.4351,4.4545,0,0.00035163,3513.8,0.00011803,0.0054628,0.00011267,-40.242,-0.00035229,-3533.8,0.64724
13917,9.5273,4.3636,0,0.0003489,3486.6,0.00011715,0.0049467,0.00011174,-40.649,-0.00034958,-3506.8,0.65857
13918,9.4351,4.3636,0.05,9.4694e-07,9.4629,7.2713e-07,5.4633,3.1985e-12,6.4039e-07,-7.2714e-07,-5.4634,0.64749
13919,9.4351,4.6364,0,0.00035207,3518.2,0.00011792,0.0062369,0.00011324,-35.111,-0.00035265,-3535.6,0.64661
13920,9.5273,4.5455,0,0.00034931,3490.7,0.00011705,0.0056692,0.00011227,-35.908,-0.00034991,-3508.5,0.65799
13921,9.4351,4.5455,0.05,9.4413e-07,9.4348,7.2497e-07,5.4471,3.195e-12,-7.6738e-07,-7.2498e-07,-5.4472,0.6469
13922,9.4351,4.8182,0,0.00035253,3522.9,0.0001178,0.0070091,0.00011385,-29.691,-0.00035303,-3537.6,0.64591
13923,9.5273,4.7273,0,0.00034975,3495.1,0.00011694,0.0063673,0.00011284,-30.845,-0.00035027,-3510.4,0.65733
13924,9.4351,4.7273,0.05,9.4119e-07,9.4054,7.2271e-07,5.4302,4.1081e-12,5.2622e-07,-7.2272e-07,-5.4303,0.64624
13925,9.4351,5,0,0.00035303,3527.8,0.00011769,0.007713,0.00011449,-24.052,-0.00035343,-3539.8,0.64514
13926,9.5273,4.9091,0,0.00035022,3499.8,0.00011683,0.0070905,0.00011344,-25.531,-0.00035065,-3512.5,0.6566
13927,9.4351,4.9091,0.05,9.382e-07,9.3756,7.2042e-07,5.4129,5.0669e-12,-4.8818e-08,-7.2043e-07,-5.4131,0.64551
13928,9.4351,5.1818,0,0.00035354,3532.9,0.00011757,0.0087616,0.00011514,-18.257,-0.00035385,-3542,0.64429
13929,9.5273,5.0909,0,0.00035071,3504.7,0.00011672,0.0076648,0.00011406,-20.028,-0.00035104,-3514.6,0.65579
13930,9.4351,5.0909,0.05,9.3524e-07,9.346,7.1814e-07,5.3958,6.862e-12,-2.8496e-07,-7.1816e-07,-5.396,0.64469
13931,9.4351,5.3636,0,0.00035407,3538.3,0.00011746,0.0090057,0.00011581,-12.359,-0.00035428,-3544.4,0.64336
13932,9.5273,5.2727,0,0.00035122,3509.7,0.00011661,0.009072,0.0001147,-14.39,-0.00035146,-3516.9,0.65491
13933,9.4351,5.2727,0.05,9.3222e-07,9.3158,7.1583e-07,5.3784,5.1851e-12,7.6677e-08,-7.1583e-07,-5.3786,0.64381
13934,9.4351,5.5455,0,0.00035462,3543.7,0.00011734,0.017351,0.00011649,-6.3708,-0.00035473,-3546.9,0.64236
13935,9.5273,5.4545,0,0.00035174,3515,0.0001165,0.008249,0.00011535,-8.6633,-0.00035189,-3519.3,0.65395
13936,9.4351,5.4545,0.05,9.2655e-07,9.2591,7.1147e-07,5.3457,6.0679e-12,5.5668e-07,-7.1148e-07,-5.3458,0.64284
13937,9.4351,5.7273,0,0.00035525,3550.1,0.00011727,0.35697,0.0001172,-0.22931,-0.00035525,-3550,0.64129
13938,9.5273,5.6364,0,0.00035229,3520.5,0.0001164,0.028604,0.00011602,-2.826,-0.00035234,-3521.9,0.65292
13939,9.4351,5.6364,0.05,8.7742e-07,8.7682,6.7375e-07,5.0622,6.9936e-12,5.9127e-07,-6.7376e-07,-5.0624,0.6418
13940,9.5273,5.8182,0,0.00035299,3527.4,0.00011683,4.0308,0.00011628,-0.043449,-0.00035292,-3525.5,0.65181
13941,9.4351,5.8182,0.05,1.6827e-07,1.6815,1.2921e-07,0.97074,8.8085e-13,-4.4596e-05,-1.2922e-07,-0.97094,0.64069
13942,9.4351,5.9091,0,0.0003554,3551.6,0.00011755,3.1455,0.00011713,-0.014489,-0.00035535,-3550,0.64013
13943,9.6195,0.27273,0,0.00035001,3497.7,0.0001156,1.0488,0.00011545,-0.058206,-0.00035,-3497.2,0.66352
13944,9.7117,0.18182,0,0.00034775,3475.1,0.00011515,4.7077,0.00011452,-0.033527,-0.00034767,-3472.8,0.67417
13945,9.6195,0.18182,0.05,1.5353e-07,1.5342,1.179e-07,0.88585,-7.6519e-13,3.6176e-05,-1.1788e-07,-0.8857,0.66293
13946,9.6195,0.090909,0,0.00035012,3498.8,0.00011584,3.5567,0.00011536,-0.010502,-0.00035006,-3497,0.66238
13947,9.6195,0.45455,0,0.00034941,3491.7,0.00011556,0.015478,0.00011487,-5.1344,-0.00034949,-3494.2,0.66458
13948,9.7117,0.36364,0,0.00034707,3468.3,0.00011463,0.0272,0.00011438,-1.8038,-0.0003471,-3469.2,0.67526
13949,9.6195,0.36364,0.05,8.7327e-07,8.7267,6.7057e-07,5.0384,-4.3035e-12,4.5686e-06,-6.7056e-07,-5.0383,0.66403
13950,9.6195,0.63636,0,0.00034888,3486.4,0.00011566,0.0079702,0.00011424,-10.711,-0.00034907,-3491.8,0.66557
13951,9.7117,0.54545,0,0.00034655,3463.1,0.00011472,0.0071933,0.00011376,-7.2503,-0.00034667,-3466.7,0.67628
13952,9.6195,0.54545,0.05,9.2276e-07,9.2212,7.0857e-07,5.3239,-6.0409e-12,5.2178e-06,-7.0856e-07,-5.3238,0.66506
13953,9.6195,0.81818,0,0.00034838,3481.4,0.00011577,0.007876,0.00011361,-16.177,-0.00034865,-3489.5,0.66649
13954,9.7117,0.72727,0,0.00034605,3458.1,0.00011482,0.0081263,0.00011315,-12.567,-0.00034626,-3464.4,0.67723
13955,9.6195,0.72727,0.05,9.2808e-07,9.2744,7.1266e-07,5.3546,-4.1845e-12,5.5945e-06,-7.1265e-07,-5.3545,0.66601
13956,9.6195,1,0,0.0003479,3476.6,0.00011587,0.0069976,0.00011301,-21.522,-0.00034826,-3487.3,0.66733
13957,9.7117,0.90909,0,0.00034557,3453.3,0.00011492,0.0069411,0.00011255,-17.778,-0.00034587,-3462.2,0.6781
13958,9.6195,0.90909,0.05,9.3065e-07,9.3001,7.1463e-07,5.3695,-4.2225e-12,6.582e-06,-7.1462e-07,-5.3694,0.66689
13959,9.6195,1.1818,0,0.00034743,3471.9,0.00011597,0.0064222,0.00011242,-26.7,-0.00034788,-3485.2,0.66809
13960,9.7117,1.0909,0,0.00034511,3448.7,0.00011502,0.006489,0.00011198,-22.843,-0.00034549,-3460.1,0.6789
13961,9.6195,1.0909,0.05,9.3312e-07,9.3248,7.1653e-07,5.3837,-3.2745e-12,6.4552e-06,-7.1651e-07,-5.3836,0.66769
13962,9.6195,1.3636,0,0.000347,3467.6,0.00011607,0.0057812,0.00011186,-31.655,-0.00034752,-3483.3,0.66878
13963,9.7117,1.2727,0,0.00034467,3444.3,0.00011511,0.0058932,0.00011142,-27.713,-0.00034514,-3458.1,0.67962
13964,9.6195,1.2727,0.05,9.3559e-07,9.3494,7.1842e-07,5.3979,-2.3526e-12,6.5698e-06,-7.1841e-07,-5.3978,0.66842
13965,9.6195,1.5455,0,0.00034659,3463.5,0.00011617,0.005138,0.00011133,-36.327,-0.00034719,-3481.5,0.6694
13966,9.7117,1.4545,0,0.00034426,3440.2,0.0001152,0.005318,0.0001109,-32.333,-0.0003448,-3456.3,0.68027
13967,9.6195,1.4545,0.05,9.38e-07,9.3736,7.2027e-07,5.4119,-5.644e-13,5.3715e-06,-7.2027e-07,-5.4118,0.66907
13968,9.6195,1.7273,0,0.00034621,3459.7,0.00011626,0.0044858,0.00011085,-40.652,-0.00034688,-3479.9,0.66995
13969,9.7117,1.6364,0,0.00034388,3436.4,0.00011529,0.00472,0.00011041,-36.646,-0.00034449,-3454.6,0.68085
13970,9.6195,1.6364,0.05,9.403e-07,9.3965,7.2204e-07,5.4251,-1.441e-12,6.0957e-06,-7.2203e-07,-5.4251,0.66965
13971,9.6195,1.9091,0,0.00034587,3456.3,0.00011634,0.0038492,0.00011041,-44.565,-0.00034661,-3478.4,0.67042
13972,9.7117,1.8182,0,0.00034353,3433,0.00011537,0.0041274,0.00010997,-40.59,-0.00034421,-3453.1,0.68136
13973,9.6195,1.8182,0.05,9.4243e-07,9.4178,7.2367e-07,5.4374,-5.7684e-13,5.4615e-06,-7.2367e-07,-5.4374,0.67016
13974,9.6195,2.0909,0,0.00034558,3453.4,0.00011641,0.0032507,0.00011002,-48.003,-0.00034637,-3477.1,0.67081
13975,9.7117,2,0,0.00034323,3429.9,0.00011544,0.0035583,0.00010957,-44.105,-0.00034396,-3451.8,0.68179
13976,9.6195,2,0.05,9.4434e-07,9.4369,7.2514e-07,5.4484,-1.4979e-12,4.637e-06,-7.2513e-07,-5.4484,0.67059
13977,9.6195,2.2727,0,0.00034533,3450.9,0.00011647,0.0027166,0.0001097,-50.906,-0.00034617,-3476.1,0.67114
13978,9.7117,2.1818,0,0.00034297,3427.3,0.00011551,0.0030357,0.00010923,-47.135,-0.00034374,-3450.6,0.68215
13979,9.6195,2.1818,0.05,9.4599e-07,9.4533,7.264e-07,5.4579,-6.4784e-13,5.7406e-06,-7.264e-07,-5.4579,0.67096
13980,9.6195,2.4545,0,0.00034513,3448.9,0.00011652,0.0022722,0.00010944,-53.223,-0.00034601,-3475.3,0.67139
13981,9.7117,2.3636,0,0.00034275,3425.1,0.00011556,0.0025841,0.00010895,-49.628,-0.00034357,-3449.7,0.68244
13982,9.6195,2.3636,0.05,9.4734e-07,9.4668,7.2744e-07,5.4657,-6.9022e-13,4.9777e-06,-7.2744e-07,-5.4657,0.67124
13983,9.6195,2.6364,0,0.00034499,3447.5,0.00011656,0.0019383,0.00010925,-54.911,-0.00034589,-3474.6,0.67157
13984,9.7117,2.5455,0,0.00034259,3423.5,0.0001156,0.0022257,0.00010874,-51.539,-0.00034343,-3449,0.68265
13985,9.6195,2.5455,0.05,9.4837e-07,9.4772,7.2823e-07,5.4716,1.5933e-13,4.5227e-06,-7.2823e-07,-5.4716,0.67146
13986,9.6195,2.8182,0,0.0003449,3446.7,0.00011658,0.0017303,0.00010913,-55.937,-0.00034582,-3474.3,0.67168
13987,9.7117,2.7273,0,0.00034248,3422.4,0.00011562,0.0019753,0.00010859,-52.834,-0.00034334,-3448.5,0.68279
13988,9.6195,2.7273,0.05,9.4907e-07,9.4841,7.2877e-07,5.4757,9.9084e-14,3.1272e-06,-7.2877e-07,-5.4757,0.67161
13989,9.6195,3,0,0.00034487,3446.4,0.00011658,0.0016597,0.00010909,-56.281,-0.0003458,-3474.2,0.67172
13990,9.7117,2.9091,0,0.00034242,3421.8,0.00011564,0.0018467,0.00010852,-53.487,-0.0003433,-3448.3,0.68287
13991,9.6195,2.9091,0.05,9.4942e-07,9.4876,7.2904e-07,5.4777,9.4281e-13,4.0648e-06,-7.2904e-07,-5.4777,0.67168
13992,9.6195,3.1818,0,0.0003449,3446.7,0.00011658,0.00173,0.00010913,-55.937,-0.00034582,-3474.3,0.67168
13993,9.7117,3.0909,0,0.00034242,3421.8,0.00011564,0.0018467,0.00010852,-53.487,-0.0003433,-3448.3,0.68287
13994,9.6195,3.0909,0.05,9.4942e-07,9.4876,7.2904e-07,5.4777,8.7634e-13,2.6112e-06,-7.2904e-07,-5.4777,0.67168
13995,9.6195,3.3636,0,0.00034499,3447.5,0.00011656,0.0019378,0.00010925,-54.911,-0.00034589,-3474.6,0.67157
13996,9.7117,3.2727,0,0.00034248,3422.4,0.00011562,0.0019749,0.00010859,-52.834,-0.00034334,-3448.5,0.68279
13997,9.6195,3.2727,0.05,9.4907e-07,9.4841,7.2877e-07,5.4757,2.6296e-12,3.0743e-06,-7.2876e-07,-5.4757,0.67161
13998,9.6195,3.5455,0,0.00034513,3448.9,0.00011652,0.0022716,0.00010944,-53.223,-0.00034601,-3475.3,0.67139
13999,9.7117,3.4545,0,0.00034259,3423.5,0.0001156,0.0022254,0.00010874,-51.539,-0.00034343,-3449,0.68265
14000,9.6195,3.4545,0.05,9.4837e-07,9.4772,7.2823e-07,5.4716,2.5674e-12,2.6194e-06,-7.2823e-07,-5.4717,0.67146
14001,9.6195,3.7273,0,0.00034533,3450.9,0.00011647,0.0027158,0.0001097,-50.906,-0.00034617,-3476.1,0.67114
14002,9.7117,3.6364,0,0.00034275,3425.1,0.00011556,0.0025836,0.00010895,-49.628,-0.00034357,-3449.7,0.68244
14003,9.6195,3.6364,0.05,9.4734e-07,9.4668,7.2744e-07,5.4657,2.5145e-12,2.1651e-06,-7.2744e-07,-5.4657,0.67124
14004,9.6195,3.9091,0,0.00034558,3453.4,0.00011641,0.0032503,0.00011002,-48.003,-0.00034637,-3477.1,0.67081
14005,9.7117,3.8182,0,0.00034297,3427.3,0.00011551,0.0030354,0.00010923,-47.135,-0.00034374,-3450.6,0.68215
14006,9.6195,3.8182,0.05,9.4599e-07,9.4533,7.264e-07,5.4579,3.3763e-12,2.3389e-06,-7.264e-07,-5.4579,0.67096
14007,9.6195,4.0909,0,0.00034587,3456.3,0.00011634,0.0038488,0.00011041,-44.565,-0.00034661,-3478.4,0.67042
14008,9.7117,4,0,0.00034323,3429.9,0.00011544,0.003558,0.00010957,-44.105,-0.00034396,-3451.8,0.68179
14009,9.6195,4,0.05,9.4434e-07,9.4369,7.2513e-07,5.4483,3.3206e-12,1.4684e-06,-7.2514e-07,-5.4485,0.67059
14010,9.6195,4.2727,0,0.00034621,3459.7,0.00011626,0.0044852,0.00011085,-40.652,-0.00034688,-3479.9,0.66995
14011,9.7117,4.1818,0,0.00034353,3433,0.00011537,0.0041269,0.00010997,-40.59,-0.00034421,-3453.1,0.68136
14012,9.6195,4.1818,0.05,9.4243e-07,9.4178,7.2367e-07,5.4374,3.2921e-12,1.4571e-06,-7.2367e-07,-5.4374,0.67016
14013,9.6195,4.4545,0,0.00034659,3463.5,0.00011617,0.0051373,0.00011133,-36.327,-0.00034719,-3481.5,0.6694
14014,9.7117,4.3636,0,0.00034388,3436.4,0.00011529,0.0047191,0.00011041,-36.646,-0.00034449,-3454.6,0.68085
14015,9.6195,4.3636,0.05,9.403e-07,9.3965,7.2203e-07,5.425,3.2947e-12,1.0365e-06,-7.2204e-07,-5.4252,0.66965
14016,9.6195,4.6364,0,0.000347,3467.6,0.00011607,0.0057806,0.00011186,-31.655,-0.00034752,-3483.3,0.66878
14017,9.7117,4.5455,0,0.00034426,3440.2,0.0001152,0.0053172,0.0001109,-32.333,-0.0003448,-3456.3,0.68027
14018,9.6195,4.5455,0.05,9.38e-07,9.3736,7.2027e-07,5.4118,3.2961e-12,9.2502e-07,-7.2027e-07,-5.4119,0.66907
14019,9.6195,4.8182,0,0.00034743,3471.9,0.00011597,0.0064221,0.00011242,-26.7,-0.00034788,-3485.2,0.66809
14020,9.7117,4.7273,0,0.00034467,3444.3,0.00011511,0.0058925,0.00011142,-27.713,-0.00034514,-3458.1,0.67962
14021,9.6195,4.7273,0.05,9.3559e-07,9.3494,7.1841e-07,5.3978,4.1475e-12,9.0405e-07,-7.1842e-07,-5.3979,0.66842
14022,9.6195,5,0,0.0003479,3476.6,0.00011587,0.0069968,0.00011301,-21.522,-0.00034826,-3487.3,0.66733
14023,9.7117,4.9091,0,0.00034511,3448.7,0.00011502,0.0064888,0.00011198,-22.843,-0.00034549,-3460.1,0.6789
14024,9.6195,4.9091,0.05,9.3312e-07,9.3248,7.1651e-07,5.3836,5.1004e-12,1.0651e-06,-7.1653e-07,-5.3837,0.66769
14025,9.6195,5.1818,0,0.00034838,3481.4,0.00011577,0.0078743,0.00011361,-16.177,-0.00034865,-3489.5,0.66649
14026,9.7117,5.0909,0,0.00034557,3453.3,0.00011492,0.006939,0.00011255,-17.778,-0.00034587,-3462.2,0.6781
14027,9.6195,5.0909,0.05,9.3065e-07,9.3001,7.1462e-07,5.3694,5.1222e-12,2.7511e-07,-7.1463e-07,-5.3695,0.66689
14028,9.6195,5.3636,0,0.00034888,3486.4,0.00011566,0.0079694,0.00011424,-10.711,-0.00034907,-3491.8,0.66557
14029,9.7117,5.2727,0,0.00034605,3458.1,0.00011482,0.008125,0.00011315,-12.567,-0.00034626,-3464.4,0.67723
14030,9.6195,5.2727,0.05,9.2808e-07,9.2744,7.1265e-07,5.3545,5.1878e-12,8.8616e-07,-7.1266e-07,-5.3547,0.66601
14031,9.6195,5.5455,0,0.00034941,3491.7,0.00011556,0.015478,0.00011487,-5.1344,-0.00034949,-3494.2,0.66458
14032,9.7117,5.4545,0,0.00034655,3463.1,0.00011472,0.0071931,0.00011376,-7.2502,-0.00034667,-3466.7,0.67628
14033,9.6195,5.4545,0.05,9.2276e-07,9.2212,7.0856e-07,5.3238,7.0113e-12,1.1827e-06,-7.0857e-07,-5.324,0.66506
14034,9.6195,5.7273,0,0.00035001,3497.7,0.0001156,1.0488,0.00011545,-0.058207,-0.00035,-3497.2,0.66352
14035,9.7117,5.6364,0,0.00034707,3468.3,0.00011463,0.027199,0.00011438,-1.8038,-0.0003471,-3469.2,0.67526
14036,9.6195,5.6364,0.05,8.7327e-07,8.7267,6.7055e-07,5.0382,7.0777e-12,1.0844e-06,-6.7057e-07,-5.0385,0.66403
14037,9.7117,5.8182,0,0.00034775,3475.1,0.00011515,4.7077,0.00011452,-0.033528,-0.00034767,-3472.8,0.67417
14038,9.6195,5.8182,0.05,1.5353e-07,1.5342,1.1788e-07,0.88568,1.3284e-12,-4.6315e-05,-1.179e-07,-0.88587,0.66293
14039,9.6195,5.9091,0,0.00035012,3498.8,0.00011584,3.5567,0.00011536,-0.010502,-0.00035006,-3497,0.66238
14040,9.8038,0.27273,0,0.00034479,3445.6,0.00011394,1.8569,0.00011369,-0.023716,-0.00034476,-3444.6,0.68599
14041,9.896,0.18182,0,0.00034253,3422.9,0.00011348,5.3718,0.00011277,-0.026499,-0.00034244,-3420.2,0.69676
14042,9.8038,0.18182,0.05,1.393e-07,1.3921,1.0697e-07,0.80377,-8.3524e-13,3.3371e-05,-1.0696e-07,-0.80365,0.6854
14043,9.8038,0.090909,0,0.00034486,3446.2,0.00011414,3.9609,0.00011361,-0.0076515,-0.00034479,-3444.3,0.68486
14044,9.8038,0.45455,0,0.00034421,3439.7,0.00011379,0.013724,0.00011326,-3.9347,-0.00034428,-3441.7,0.68704
14045,9.896,0.36364,0,0.00034187,3416.3,0.00011286,0.028702,0.00011275,-0.81398,-0.00034188,-3416.7,0.69784
14046,9.8038,0.36364,0.05,8.6884e-07,8.6824,6.6717e-07,5.0129,-5.2694e-12,4.9332e-06,-6.6716e-07,-5.0127,0.68649
14047,9.8038,0.63636,0,0.00034371,3434.8,0.00011388,0.0070629,0.00011266,-9.1232,-0.00034387,-3439.3,0.68802
14048,9.896,0.54545,0,0.00034137,3411.4,0.00011295,0.0062639,0.00011216,-5.8866,-0.00034147,-3414.3,0.69885
14049,9.8038,0.54545,0.05,9.187e-07,9.1806,7.0545e-07,5.3005,-4.3295e-12,4.8546e-06,-7.0544e-07,-5.3004,0.68751
14050,9.8038,0.81818,0,0.00034324,3430,0.00011397,0.0071176,0.00011208,-14.185,-0.00034348,-3437.1,0.68892
14051,9.896,0.72727,0,0.0003409,3406.7,0.00011303,0.0073142,0.00011159,-10.819,-0.00034109,-3412.1,0.69979
14052,9.8038,0.72727,0.05,9.2375e-07,9.2311,7.0933e-07,5.3296,-4.2567e-12,5.4675e-06,-7.0932e-07,-5.3295,0.68845
14053,9.8038,1,0,0.00034278,3425.5,0.00011406,0.0064015,0.00011152,-19.115,-0.0003431,-3435,0.68975
14054,9.896,0.90909,0,0.00034045,3402.1,0.00011312,0.006341,0.00011104,-15.634,-0.00034071,-3409.9,0.70065
14055,9.8038,0.90909,0.05,9.2596e-07,9.2532,7.1103e-07,5.3424,-3.3398e-12,6.2847e-06,-7.1102e-07,-5.3423,0.68932
14056,9.8038,1.1818,0,0.00034235,3421.1,0.00011416,0.0059426,0.00011098,-23.871,-0.00034275,-3433,0.69051
14057,9.896,1.0909,0,0.00034002,3397.8,0.00011321,0.006002,0.00011051,-20.297,-0.00034036,-3407.9,0.70144
14058,9.8038,1.0909,0.05,9.2803e-07,9.2739,7.1261e-07,5.3543,-3.3338e-12,5.7573e-06,-7.1261e-07,-5.3542,0.69011
14059,9.8038,1.3636,0,0.00034194,3417,0.00011424,0.0054178,0.00011046,-28.405,-0.00034241,-3431.1,0.69119
14060,9.896,1.2727,0,0.0003396,3393.7,0.00011329,0.005519,0.00011,-24.763,-0.00034002,-3406,0.70215
14061,9.8038,1.2727,0.05,9.3009e-07,9.2944,7.142e-07,5.3662,-3.2766e-12,5.5381e-06,-7.1418e-07,-5.3661,0.69083
14062,9.8038,1.5455,0,0.00034155,3413.2,0.00011433,0.0048896,0.00010998,-32.666,-0.0003421,-3429.4,0.6918
14063,9.896,1.4545,0,0.00033922,3389.9,0.00011338,0.0050513,0.00010952,-28.985,-0.0003397,-3404.2,0.70279
14064,9.8038,1.4545,0.05,9.3209e-07,9.3144,7.1573e-07,5.3777,-2.4042e-12,5.7698e-06,-7.1572e-07,-5.3777,0.69148
14065,9.8038,1.7273,0,0.0003412,3409.7,0.00011441,0.0043517,0.00010953,-36.596,-0.00034181,-3427.8,0.69234
14066,9.896,1.6364,0,0.00033886,3386.3,0.00011345,0.0045611,0.00010907,-32.913,-0.00033941,-3402.6,0.70337
14067,9.8038,1.6364,0.05,9.3398e-07,9.3334,7.1718e-07,5.3887,-6.0052e-13,6.1528e-06,-7.1718e-07,-5.3886,0.69205
14068,9.8038,1.9091,0,0.00034089,3406.5,0.00011448,0.0038264,0.00010913,-40.142,-0.00034155,-3426.4,0.69281
14069,9.896,1.8182,0,0.00033854,3383.1,0.00011352,0.0040738,0.00010866,-36.494,-0.00033915,-3401.2,0.70386
14070,9.8038,1.8182,0.05,9.3574e-07,9.3509,7.1853e-07,5.3988,2.9742e-13,5.1884e-06,-7.1853e-07,-5.3987,0.69255
14071,9.8038,2.0909,0,0.00034062,3403.8,0.00011454,0.0033326,0.00010878,-43.249,-0.00034133,-3425.2,0.6932
14072,9.896,2,0,0.00033826,3380.2,0.00011359,0.0036059,0.0001083,-39.678,-0.00033892,-3399.9,0.70429
14073,9.8038,2,0.05,9.373e-07,9.3666,7.1974e-07,5.4078,-6.2583e-13,5.3496e-06,-7.1973e-07,-5.4078,0.69298
14074,9.8038,2.2727,0,0.00034039,3401.5,0.00011459,0.0028918,0.00010849,-45.868,-0.00034114,-3424.2,0.69352
14075,9.896,2.1818,0,0.00033801,3377.8,0.00011364,0.0031755,0.00010799,-42.416,-0.00033872,-3398.8,0.70465
14076,9.8038,2.1818,0.05,9.3865e-07,9.3801,7.2077e-07,5.4156,-6.6952e-13,4.6909e-06,-7.2077e-07,-5.4155,0.69334
14077,9.8038,2.4545,0,0.0003402,3399.7,0.00011463,0.0025256,0.00010825,-47.955,-0.00034099,-3423.4,0.69377
14078,9.896,2.3636,0,0.00033782,3375.8,0.00011368,0.002804,0.00010774,-44.664,-0.00033855,-3397.9,0.70493
14079,9.8038,2.3636,0.05,9.3976e-07,9.3911,7.2162e-07,5.422,1.9009e-13,4.2851e-06,-7.2162e-07,-5.422,0.69362
14080,9.8038,2.6364,0,0.00034007,3398.4,0.00011467,0.0022503,0.00010808,-49.473,-0.00034089,-3422.8,0.69395
14081,9.896,2.5455,0,0.00033766,3374.3,0.00011372,0.0025089,0.00010755,-46.386,-0.00033843,-3397.3,0.70514
14082,9.8038,2.5455,0.05,9.4061e-07,9.3996,7.2227e-07,5.4269,-7.6909e-13,4.3881e-06,-7.2227e-07,-5.4269,0.69384
14083,9.8038,2.8182,0,0.00033999,3397.6,0.00011468,0.0020789,0.00010798,-50.394,-0.00034082,-3422.5,0.69406
14084,9.896,2.7273,0,0.00033756,3373.3,0.00011374,0.0023029,0.00010741,-47.55,-0.00033835,-3396.8,0.70529
14085,9.8038,2.7273,0.05,9.4118e-07,9.4053,7.2271e-07,5.4302,8.6277e-14,3.033e-06,-7.2271e-07,-5.4302,0.69398
14086,9.8038,3,0,0.00033996,3397.3,0.00011469,0.0020209,0.00010794,-50.704,-0.0003408,-3422.4,0.69409
14087,9.896,2.9091,0,0.00033751,3372.8,0.00011375,0.0021969,0.00010735,-48.138,-0.0003383,-3396.6,0.70536
14088,9.8038,2.9091,0.05,9.4147e-07,9.4082,7.2293e-07,5.4318,2.92e-14,3.0804e-06,-7.2293e-07,-5.4318,0.69405
14089,9.8038,3.1818,0,0.00033999,3397.6,0.00011468,0.0020789,0.00010798,-50.394,-0.00034082,-3422.5,0.69406
14090,9.896,3.0909,0,0.00033751,3372.8,0.00011375,0.0021971,0.00010735,-48.138,-0.0003383,-3396.6,0.70536
14091,9.8038,3.0909,0.05,9.4147e-07,9.4082,7.2293e-07,5.4318,-2.9216e-14,2.6409e-06,-7.2293e-07,-5.4318,0.69405
14092,9.8038,3.3636,0,0.00034007,3398.4,0.00011467,0.0022501,0.00010808,-49.473,-0.00034089,-3422.8,0.69395
14093,9.896,3.2727,0,0.00033756,3373.3,0.00011374,0.0023027,0.00010741,-47.55,-0.00033835,-3396.8,0.70529
14094,9.8038,3.2727,0.05,9.4118e-07,9.4053,7.227e-07,5.4301,1.7306e-12,3.1628e-06,-7.2271e-07,-5.4302,0.69398
14095,9.8038,3.5455,0,0.0003402,3399.7,0.00011463,0.0025255,0.00010825,-47.955,-0.00034099,-3423.4,0.69377
14096,9.896,3.4545,0,0.00033766,3374.3,0.00011372,0.0025086,0.00010755,-46.386,-0.00033843,-3397.3,0.70514
14097,9.8038,3.4545,0.05,9.4061e-07,9.3996,7.2227e-07,5.4269,1.6789e-12,2.7816e-06,-7.2227e-07,-5.4269,0.69384
14098,9.8038,3.7273,0,0.00034039,3401.5,0.00011459,0.0028919,0.00010849,-45.868,-0.00034114,-3424.2,0.69352
14099,9.896,3.6364,0,0.00033782,3375.8,0.00011368,0.0028037,0.00010774,-44.664,-0.00033855,-3397.9,0.70493
14100,9.8038,3.6364,0.05,9.3976e-07,9.3911,7.2162e-07,5.422,7.2196e-13,2.3988e-06,-7.2162e-07,-5.422,0.69362
14101,9.8038,3.9091,0,0.00034062,3403.8,0.00011454,0.0033325,0.00010878,-43.249,-0.00034133,-3425.2,0.6932
14102,9.896,3.8182,0,0.00033801,3377.8,0.00011364,0.0031751,0.00010799,-42.416,-0.00033872,-3398.8,0.70465
14103,9.8038,3.8182,0.05,9.3865e-07,9.3801,7.2077e-07,5.4155,2.4944e-12,2.0458e-06,-7.2077e-07,-5.4156,0.69334
14104,9.8038,4.0909,0,0.00034089,3406.5,0.00011448,0.003826,0.00010913,-40.142,-0.00034155,-3426.4,0.69281
14105,9.896,4,0,0.00033826,3380.2,0.00011359,0.0036055,0.0001083,-39.678,-0.00033892,-3399.9,0.70429
14106,9.8038,4,0.05,9.373e-07,9.3666,7.1973e-07,5.4077,3.359e-12,1.732e-06,-7.1974e-07,-5.4078,0.69298
14107,9.8038,4.2727,0,0.0003412,3409.7,0.00011441,0.0043509,0.00010953,-36.596,-0.00034181,-3427.8,0.69234
14108,9.896,4.1818,0,0.00033854,3383.1,0.00011352,0.0040735,0.00010866,-36.494,-0.00033915,-3401.2,0.70386
14109,9.8038,4.1818,0.05,9.3574e-07,9.3509,7.1853e-07,5.3987,3.3341e-12,1.4908e-06,-7.1853e-07,-5.3988,0.69255
14110,9.8038,4.4545,0,0.00034155,3413.2,0.00011433,0.0048887,0.00010998,-32.666,-0.0003421,-3429.4,0.6918
14111,9.896,4.3636,0,0.00033886,3386.3,0.00011345,0.0045602,0.00010907,-32.912,-0.00033941,-3402.6,0.70337
14112,9.8038,4.3636,0.05,9.3398e-07,9.3334,7.1718e-07,5.3886,3.3258e-12,9.0244e-07,-7.1719e-07,-5.3887,0.69205
14113,9.8038,4.6364,0,0.00034194,3417,0.00011424,0.0054171,0.00011046,-28.405,-0.00034241,-3431.1,0.69119
14114,9.896,4.5455,0,0.00033922,3389.9,0.00011338,0.005051,0.00010952,-28.985,-0.0003397,-3404.2,0.70279
14115,9.8038,4.5455,0.05,9.3209e-07,9.3144,7.1572e-07,5.3776,4.2302e-12,5.7206e-07,-7.1573e-07,-5.3778,0.69148
14116,9.8038,4.8182,0,0.00034235,3421.1,0.00011416,0.005942,0.00011098,-23.871,-0.00034275,-3433,0.69051
14117,9.896,4.7273,0,0.0003396,3393.7,0.00011329,0.0055186,0.00011,-24.763,-0.00034002,-3406,0.70215
14118,9.8038,4.7273,0.05,9.3009e-07,9.2944,7.1418e-07,5.3661,5.1305e-12,1.2366e-06,-7.142e-07,-5.3662,0.69083
14119,9.8038,5,0,0.00034278,3425.5,0.00011406,0.0064,0.00011152,-19.115,-0.0003431,-3435,0.68975
14120,9.896,4.9091,0,0.00034002,3397.8,0.00011321,0.0060014,0.00011051,-20.297,-0.00034036,-3407.9,0.70144
14121,9.8038,4.9091,0.05,9.2803e-07,9.2739,7.1261e-07,5.3542,3.3476e-12,8.9372e-07,-7.1262e-07,-5.3544,0.69011
14122,9.8038,5.1818,0,0.00034324,3430,0.00011397,0.0071158,0.00011208,-14.185,-0.00034348,-3437.1,0.68892
14123,9.896,5.0909,0,0.00034045,3402.1,0.00011312,0.0063389,0.00011104,-15.634,-0.00034071,-3409.9,0.70065
14124,9.8038,5.0909,0.05,9.2596e-07,9.2532,7.1102e-07,5.3423,6.0862e-12,2.4384e-07,-7.1103e-07,-5.3424,0.68932
14125,9.8038,5.3636,0,0.00034371,3434.8,0.00011388,0.0070621,0.00011266,-9.1231,-0.00034387,-3439.3,0.68802
14126,9.896,5.2727,0,0.0003409,3406.7,0.00011303,0.0073133,0.00011159,-10.819,-0.00034109,-3412.1,0.69979
14127,9.8038,5.2727,0.05,9.2375e-07,9.2311,7.0932e-07,5.3295,7.0032e-12,6.8563e-07,-7.0933e-07,-5.3297,0.68845
14128,9.8038,5.5455,0,0.00034421,3439.7,0.00011379,0.013723,0.00011326,-3.9347,-0.00034428,-3441.7,0.68704
14129,9.896,5.4545,0,0.00034137,3411.4,0.00011295,0.006263,0.00011216,-5.8866,-0.00034147,-3414.3,0.69885
14130,9.8038,5.4545,0.05,9.187e-07,9.1806,7.0544e-07,5.3004,7.0146e-12,1.3171e-06,-7.0545e-07,-5.3005,0.68751
14131,9.8038,5.7273,0,0.00034479,3445.6,0.00011394,1.8569,0.00011369,-0.023717,-0.00034476,-3444.6,0.68599
14132,9.896,5.6364,0,0.00034187,3416.3,0.00011286,0.028702,0.00011275,-0.81399,-0.00034188,-3416.7,0.69784
14133,9.8038,5.6364,0.05,8.6884e-07,8.6824,6.6716e-07,5.0127,7.0938e-12,1.3539e-06,-6.6717e-07,-5.0129,0.68649
14134,9.896,5.8182,0,0.00034253,3422.9,0.00011348,5.3718,0.00011277,-0.0265,-0.00034244,-3420.2,0.69676
14135,9.8038,5.8182,0.05,1.393e-07,1.3921,1.0696e-07,0.80364,1.2734e-12,-3.3973e-05,-1.0697e-07,-0.80378,0.6854
14136,9.8038,5.9091,0,0.00034486,3446.2,0.00011414,3.9609,0.00011361,-0.0076522,-0.00034479,-3444.3,0.68486
14137,9.9882,0.27273,0,0.00033959,3393.6,0.00011229,2.6624,0.00011193,-0.011442,-0.00033955,-3392.2,0.70869
14138,10.08,0.18182,0,0.00033732,3370.9,0.00011182,6.0191,0.00011102,-0.021341,-0.00033722,-3367.9,0.71959
14139,9.9882,0.18182,0.05,1.2569e-07,1.256,9.6515e-08,0.72521,1.2978e-13,3.2257e-05,-9.6509e-08,-0.72509,0.70811
14140,9.9882,0.090909,0,0.00033962,3393.8,0.00011244,4.3557,0.00011186,-0.0055961,-0.00033954,-3391.7,0.70758
14141,9.9882,0.45455,0,0.00033903,3388,0.00011202,0.012095,0.00011165,-2.7776,-0.00033908,-3389.3,0.70973
14142,10.08,0.36364,0,0.00033668,3364.5,0.00011112,0.18881,0.0001111,-0.016889,-0.00033668,-3364.4,0.72065
14143,9.9882,0.36364,0.05,8.6424e-07,8.6365,6.6364e-07,4.9864,-4.388e-12,4.5142e-06,-6.6363e-07,-4.9862,0.70919
14144,9.9882,0.63636,0,0.00033856,3383.3,0.0001121,0.0062957,0.00011109,-7.6002,-0.00033869,-3387.1,0.7107
14145,10.08,0.54545,0,0.00033621,3359.8,0.00011118,0.0054768,0.00011057,-4.5776,-0.00033629,-3362.1,0.72165
14146,9.9882,0.54545,0.05,9.1445e-07,9.1382,7.0218e-07,5.276,-3.4106e-12,5.2048e-06,-7.0218e-07,-5.2759,0.71019
14147,9.9882,0.81818,0,0.00033811,3378.8,0.00011219,0.0064912,0.00011055,-12.286,-0.00033832,-3384.9,0.71159
14148,10.08,0.72727,0,0.00033577,3355.4,0.00011126,0.006651,0.00011004,-9.1506,-0.00033592,-3359.9,0.72257
14149,9.9882,0.72727,0.05,9.1928e-07,9.1865,7.059e-07,5.3039,-4.3044e-12,5.2029e-06,-7.0589e-07,-5.3037,0.71112
14150,9.9882,1,0,0.00033768,3374.5,0.00011227,0.0059246,0.00011003,-16.833,-0.00033796,-3382.9,0.71241
14151,10.08,0.90909,0,0.00033534,3351.1,0.00011134,0.0058719,0.00010953,-13.599,-0.00033557,-3357.9,0.72342
14152,9.9882,0.90909,0.05,9.212e-07,9.2057,7.0738e-07,5.315,-3.3625e-12,4.9599e-06,-7.0737e-07,-5.3148,0.71198
14153,9.9882,1.1818,0,0.00033727,3370.4,0.00011235,0.0055699,0.00010953,-21.204,-0.00033763,-3380.9,0.71316
14154,10.08,1.0909,0,0.00033493,3347,0.00011141,0.0056327,0.00010903,-17.892,-0.00033523,-3355.9,0.7242
14155,9.9882,1.0909,0.05,9.2296e-07,9.2232,7.0872e-07,5.3251,-3.3564e-12,4.9954e-06,-7.0872e-07,-5.325,0.71276
14156,9.9882,1.3636,0,0.00033689,3366.5,0.00011243,0.0051466,0.00010905,-25.357,-0.00033731,-3379.1,0.71383
14157,10.08,1.2727,0,0.00033455,3343.2,0.00011149,0.0052486,0.00010856,-21.99,-0.00033492,-3354.1,0.72491
14158,9.9882,1.2727,0.05,9.2469e-07,9.2405,7.1005e-07,5.3351,-2.4259e-12,5.3213e-06,-7.1004e-07,-5.3349,0.71347
14159,9.9882,1.5455,0,0.00033653,3363,0.0001125,0.0047174,0.00010861,-29.246,-0.00033702,-3377.5,0.71443
14160,10.08,1.4545,0,0.00033419,3339.6,0.00011156,0.0048733,0.00010812,-25.852,-0.00033462,-3352.4,0.72555
14161,9.9882,1.4545,0.05,9.2636e-07,9.2572,7.1133e-07,5.3447,-2.4426e-12,5.1726e-06,-7.1132e-07,-5.3446,0.71411
14162,9.9882,1.7273,0,0.0003362,3359.7,0.00011257,0.0042775,0.0001082,-32.824,-0.00033675,-3376,0.71497
14163,10.08,1.6364,0,0.00033386,3336.2,0.00011163,0.0044746,0.00010771,-29.434,-0.00033435,-3350.9,0.72611
14164,9.9882,1.6364,0.05,9.2794e-07,9.2729,7.1254e-07,5.3538,-1.5727e-12,5.4824e-06,-7.1254e-07,-5.3537,0.71468
14165,9.9882,1.9091,0,0.00033591,3356.8,0.00011263,0.0038469,0.00010783,-36.042,-0.00033651,-3374.7,0.71543
14166,10.08,1.8182,0,0.00033356,3333.3,0.00011169,0.0040768,0.00010734,-32.691,-0.0003341,-3349.5,0.7266
14167,9.9882,1.8182,0.05,9.2939e-07,9.2875,7.1365e-07,5.3621,2.5636e-13,4.7798e-06,-7.1365e-07,-5.3621,0.71518
14168,9.9882,2.0909,0,0.00033566,3354.2,0.00011269,0.0034416,0.00010751,-38.857,-0.0003363,-3373.5,0.71582
14169,10.08,2,0,0.00033329,3330.6,0.00011174,0.0036939,0.00010701,-35.58,-0.00033388,-3348.3,0.72703
14170,9.9882,2,0.05,9.3068e-07,9.3004,7.1465e-07,5.3696,-1.5827e-12,4.1649e-06,-7.1465e-07,-5.3696,0.7156
14171,9.9882,2.2727,0,0.00033544,3352.1,0.00011273,0.0030797,0.00010725,-41.224,-0.00033613,-3372.5,0.71613
14172,10.08,2.1818,0,0.00033307,3328.4,0.00011179,0.0033416,0.00010673,-38.06,-0.0003337,-3347.2,0.72738
14173,9.9882,2.1818,0.05,9.318e-07,9.3115,7.155e-07,5.376,2.0776e-13,3.9378e-06,-7.1551e-07,-5.376,0.71595
14174,9.9882,2.4545,0,0.00033527,3350.4,0.00011277,0.0027787,0.00010703,-43.107,-0.00033599,-3371.8,0.71638
14175,10.08,2.3636,0,0.00033288,3326.5,0.00011183,0.003037,0.00010649,-40.092,-0.00033355,-3346.4,0.72766
14176,9.9882,2.3636,0.05,9.3271e-07,9.3207,7.1621e-07,5.3813,1.6888e-13,4.5783e-06,-7.1621e-07,-5.3813,0.71624
14177,9.9882,2.6364,0,0.00033515,3349.2,0.0001128,0.0025524,0.00010688,-44.475,-0.00033589,-3371.2,0.71656
14178,10.08,2.5455,0,0.00033274,3325.1,0.00011186,0.0027949,0.00010632,-41.646,-0.00033343,-3345.7,0.72787
14179,9.9882,2.5455,0.05,9.3341e-07,9.3277,7.1674e-07,5.3853,1.2306e-13,4.2603e-06,-7.1674e-07,-5.3853,0.71645
14180,9.9882,2.8182,0,0.00033508,3348.5,0.00011281,0.0024115,0.00010678,-45.305,-0.00033583,-3370.9,0.71666
14181,10.08,2.7273,0,0.00033265,3324.2,0.00011188,0.0026263,0.0001062,-42.696,-0.00033335,-3345.3,0.72801
14182,9.9882,2.7273,0.05,9.3388e-07,9.3324,7.171e-07,5.388,7.5478e-14,2.4797e-06,-7.171e-07,-5.388,0.71659
14183,9.9882,3,0,0.00033505,3348.2,0.00011282,0.0023637,0.00010675,-45.584,-0.00033581,-3370.8,0.7167
14184,10.08,2.9091,0,0.0003326,3323.7,0.00011189,0.0025392,0.00010614,-43.226,-0.00033331,-3345.1,0.72808
14185,9.9882,2.9091,0.05,9.3412e-07,9.3347,7.1729e-07,5.3894,2.5713e-14,3.0545e-06,-7.1729e-07,-5.3894,0.71666
14186,9.9882,3.1818,0,0.00033508,3348.5,0.00011281,0.0024115,0.00010678,-45.305,-0.00033583,-3370.9,0.71666
14187,10.08,3.0909,0,0.0003326,3323.7,0.00011189,0.0025391,0.00010614,-43.226,-0.00033331,-3345.1,0.72808
14188,9.9882,3.0909,0.05,9.3412e-07,9.3347,7.1729e-07,5.3894,8.8371e-13,2.6679e-06,-7.1729e-07,-5.3894,0.71666
14189,9.9882,3.3636,0,0.00033515,3349.2,0.0001128,0.0025521,0.00010688,-44.475,-0.00033589,-3371.2,0.71656
14190,10.08,3.2727,0,0.00033265,3324.2,0.00011188,0.0026263,0.0001062,-42.696,-0.00033335,-3345.3,0.72801
14191,9.9882,3.2727,0.05,9.3388e-07,9.3324,7.171e-07,5.388,1.7428e-12,2.2854e-06,-7.1711e-07,-5.3881,0.71659
14192,9.9882,3.5455,0,0.00033527,3350.4,0.00011277,0.0027783,0.00010703,-43.107,-0.00033599,-3371.8,0.71638
14193,10.08,3.4545,0,0.00033274,3325.1,0.00011186,0.002795,0.00010632,-41.646,-0.00033343,-3345.7,0.72787
14194,9.9882,3.4545,0.05,9.3341e-07,9.3277,7.1674e-07,5.3853,1.6937e-12,1.9144e-06,-7.1675e-07,-5.3854,0.71645
14195,9.9882,3.7273,0,0.00033544,3352.1,0.00011273,0.0030791,0.00010725,-41.224,-0.00033613,-3372.5,0.71613
14196,10.08,3.6364,0,0.00033288,3326.5,0.00011183,0.0030363,0.00010649,-40.092,-0.00033355,-3346.4,0.72766
14197,9.9882,3.6364,0.05,9.3271e-07,9.3207,7.1621e-07,5.3813,1.6523e-12,2.0845e-06,-7.1621e-07,-5.3813,0.71624
14198,9.9882,3.9091,0,0.00033566,3354.2,0.00011269,0.003441,0.00010751,-38.857,-0.0003363,-3373.5,0.71582
14199,10.08,3.8182,0,0.00033307,3328.4,0.00011179,0.0033409,0.00010673,-38.059,-0.0003337,-3347.2,0.72738
14200,9.9882,3.8182,0.05,9.318e-07,9.3115,7.1551e-07,5.376,2.5327e-12,1.2665e-06,-7.155e-07,-5.3761,0.71595
14201,9.9882,4.0909,0,0.00033591,3356.8,0.00011263,0.0038466,0.00010783,-36.042,-0.00033651,-3374.7,0.71543
14202,10.08,4,0,0.00033329,3330.6,0.00011174,0.0036935,0.00010701,-35.58,-0.00033388,-3348.3,0.72703
14203,9.9882,4,0.05,9.3068e-07,9.3004,7.1465e-07,5.3696,3.3979e-12,1.1093e-06,-7.1465e-07,-5.3696,0.7156
14204,9.9882,4.2727,0,0.0003362,3359.7,0.00011257,0.0042772,0.0001082,-32.824,-0.00033675,-3376,0.71497
14205,10.08,4.1818,0,0.00033356,3333.3,0.00011169,0.0040767,0.00010734,-32.691,-0.0003341,-3349.5,0.7266
14206,9.9882,4.1818,0.05,9.2939e-07,9.2875,7.1365e-07,5.3621,3.3776e-12,9.0501e-07,-7.1366e-07,-5.3622,0.71518
14207,9.9882,4.4545,0,0.00033653,3363,0.0001125,0.0047171,0.00010861,-29.246,-0.00033702,-3377.5,0.71443
14208,10.08,4.3636,0,0.00033386,3336.2,0.00011163,0.0044736,0.00010771,-29.434,-0.00033435,-3350.9,0.72611
14209,9.9882,4.3636,0.05,9.2794e-07,9.2729,7.1254e-07,5.3537,4.2582e-12,1.4155e-06,-7.1254e-07,-5.3538,0.71468
14210,9.9882,4.6364,0,0.00033689,3366.5,0.00011243,0.0051467,0.00010905,-25.357,-0.00033731,-3379.1,0.71383
14211,10.08,4.5455,0,0.00033419,3339.6,0.00011156,0.0048728,0.00010812,-25.852,-0.00033462,-3352.4,0.72555
14212,9.9882,4.5455,0.05,9.2636e-07,9.2572,7.1132e-07,5.3446,3.3516e-12,4.9483e-07,-7.1133e-07,-5.3447,0.71411
14213,9.9882,4.8182,0,0.00033727,3370.4,0.00011235,0.0055696,0.00010953,-21.204,-0.00033763,-3380.9,0.71316
14214,10.08,4.7273,0,0.00033455,3343.2,0.00011149,0.0052481,0.00010856,-21.99,-0.00033492,-3354.1,0.72491
14215,9.9882,4.7273,0.05,9.2469e-07,9.2405,7.1004e-07,5.3349,4.2393e-12,8.0304e-07,-7.1005e-07,-5.3351,0.71347
14216,9.9882,5,0,0.00033768,3374.5,0.00011227,0.0059235,0.00011003,-16.832,-0.00033796,-3382.9,0.71241
14217,10.08,4.9091,0,0.00033493,3347,0.00011141,0.0056322,0.00010903,-17.892,-0.00033523,-3355.9,0.7242
14218,9.9882,4.9091,0.05,9.2296e-07,9.2232,7.0871e-07,5.325,4.264e-12,7.1687e-07,-7.0872e-07,-5.3251,0.71276
14219,9.9882,5.1818,0,0.00033811,3378.8,0.00011219,0.00649,0.00011055,-12.286,-0.00033832,-3384.9,0.71159
14220,10.08,5.0909,0,0.00033534,3351.1,0.00011134,0.0058704,0.00010953,-13.599,-0.00033557,-3357.9,0.72342
14221,9.9882,5.0909,0.05,9.212e-07,9.2057,7.0737e-07,5.3148,4.2822e-12,2.9504e-07,-7.0737e-07,-5.315,0.71198
14222,9.9882,5.3636,0,0.00033856,3383.3,0.0001121,0.0062947,0.00011109,-7.6002,-0.00033869,-3387.1,0.7107
14223,10.08,5.2727,0,0.00033577,3355.4,0.00011126,0.0066498,0.00011004,-9.1506,-0.00033592,-3359.9,0.72257
14224,9.9882,5.2727,0.05,9.1928e-07,9.1865,7.0589e-07,5.3037,6.0516e-12,3.7994e-07,-7.059e-07,-5.3039,0.71112
14225,9.9882,5.5455,0,0.00033903,3388,0.00011202,0.012094,0.00011165,-2.7775,-0.00033908,-3389.3,0.70973
14226,10.08,5.4545,0,0.00033621,3359.8,0.00011118,0.005476,0.00011057,-4.5776,-0.00033629,-3362.1,0.72165
14227,9.9882,5.4545,0.05,9.1445e-07,9.1382,7.0218e-07,5.2758,6.1835e-12,9.3269e-07,-7.0219e-07,-5.276,0.71019
14228,9.9882,5.7273,0,0.00033959,3393.6,0.00011229,2.6624,0.00011193,-0.011443,-0.00033955,-3392.2,0.70869
14229,10.08,5.6364,0,0.00033668,3364.5,0.00011112,0.18881,0.0001111,-0.016891,-0.00033668,-3364.4,0.72065
14230,9.9882,5.6364,0.05,8.6424e-07,8.6365,6.6363e-07,4.9862,7.12e-12,1.5418e-06,-6.6364e-07,-4.9864,0.70919
14231,10.08,5.8182,0,0.00033732,3370.9,0.00011182,6.0191,0.00011102,-0.021341,-0.00033722,-3367.9,0.71959
14232,9.9882,5.8182,0.05,1.2569e-07,1.256,9.6506e-08,0.72507,6.9772e-13,-4.3304e-05,-9.6518e-08,-0.72524,0.70811
14233,9.9882,5.9091,0,0.00033962,3393.8,0.00011244,4.3557,0.00011186,-0.005597,-0.00033954,-3391.7,0.70758
14234,10.173,0.27273,0,0.0003344,3341.7,0.00011064,3.4467,0.00011018,-0.0057655,-0.00033435,-3340,0.73162
14235,10.265,0.18182,0,0.00033214,3319.1,0.00011016,6.6471,0.00010927,-0.017456,-0.00033202,-3315.8,0.74264
14236,10.173,0.18182,0.05,1.1274e-07,1.1267,8.6578e-08,0.65055,3.287e-13,4.1495e-05,-8.6569e-08,-0.65041,0.73106
14237,10.173,0.090909,0,0.0003344,3341.6,0.00011075,4.7398,0.00011012,-0.0040977,-0.00033431,-3339.3,0.73053
14238,10.173,0.45455,0,0.00033387,3336.4,0.00011026,0.010605,0.00011004,-1.6666,-0.00033389,-3337.2,0.73265
14239,10.265,0.36364,0,0.00033152,3312.9,0.00010949,1.0809,0.00010935,0.011179,-0.0003315,-3312.3,0.74369
14240,10.173,0.36364,0.05,8.5955e-07,8.5896,6.6003e-07,4.9592,-5.2902e-12,4.5202e-06,-6.6002e-07,-4.9591,0.73212
14241,10.173,0.63636,0,0.00033342,3331.9,0.00011033,0.0056927,0.00010952,-6.146,-0.00033353,-3335,0.7336
14242,10.265,0.54545,0,0.00033107,3308.4,0.00010942,0.0048465,0.00010898,-3.3263,-0.00033113,-3310.1,0.74468
14243,10.173,0.54545,0.05,9.1008e-07,9.0946,6.9884e-07,5.2508,-4.3449e-12,4.9809e-06,-6.9883e-07,-5.2507,0.73311
14244,10.173,0.81818,0,0.000333,3327.7,0.00011041,0.0060134,0.00010901,-10.482,-0.00033317,-3332.9,0.73448
14245,10.265,0.72727,0,0.00033065,3304.2,0.00010949,0.0061365,0.00010848,-7.5636,-0.00033078,-3308,0.74559
14246,10.173,0.72727,0.05,9.1474e-07,9.1411,7.0241e-07,5.2777,-4.3469e-12,4.4429e-06,-7.024e-07,-5.2776,0.73402
14247,10.173,1,0,0.00033259,3323.6,0.00011048,0.005577,0.00010853,-14.675,-0.00033284,-3330.9,0.73529
14248,10.265,0.90909,0,0.00033025,3300.2,0.00010956,0.0055242,0.00010801,-11.673,-0.00033044,-3306,0.74643
14249,10.173,0.90909,0.05,9.1644e-07,9.158,7.0371e-07,5.2875,-3.3957e-12,4.4809e-06,-7.037e-07,-5.2873,0.73487
14250,10.173,1.1818,0,0.00033221,3319.8,0.00011055,0.0053113,0.00010806,-18.694,-0.00033252,-3329.1,0.73603
14251,10.265,1.0909,0,0.00032986,3296.4,0.00010963,0.0053651,0.00010755,-15.626,-0.00033013,-3304.1,0.7472
14252,10.173,1.0909,0.05,9.1794e-07,9.173,7.0487e-07,5.2961,-3.4129e-12,4.7419e-06,-7.0486e-07,-5.296,0.73564
14253,10.173,1.3636,0,0.00033185,3316.2,0.00011062,0.0049752,0.00010763,-22.501,-0.00033222,-3327.4,0.7367
14254,10.265,1.2727,0,0.0003295,3292.7,0.00010969,0.0050637,0.00010711,-19.389,-0.00032983,-3302.4,0.7479
14255,10.173,1.2727,0.05,9.194e-07,9.1877,7.0599e-07,5.3045,-3.3807e-12,4.6951e-06,-7.0598e-07,-5.3045,0.73635
14256,10.173,1.5455,0,0.00033151,3312.8,0.00011069,0.0046295,0.00010722,-26.055,-0.00033195,-3325.8,0.7373
14257,10.265,1.4545,0,0.00032916,3289.4,0.00010976,0.0047653,0.00010671,-22.925,-0.00032955,-3300.8,0.74852
14258,10.173,1.4545,0.05,9.2081e-07,9.2017,7.0707e-07,5.3127,-2.4949e-12,4.8084e-06,-7.0706e-07,-5.3126,0.73698
14259,10.173,1.7273,0,0.00033121,3309.8,0.00011075,0.0042718,0.00010685,-29.316,-0.0003317,-3324.3,0.73782
14260,10.265,1.6364,0,0.00032885,3286.3,0.00010982,0.0044431,0.00010633,-26.196,-0.00032929,-3299.3,0.74908
14261,10.173,1.6364,0.05,9.2213e-07,9.2149,7.0808e-07,5.3203,-1.5732e-12,4.575e-06,-7.0808e-07,-5.3202,0.73754
14262,10.173,1.9091,0,0.00033094,3307.1,0.0001108,0.0039206,0.00010651,-32.243,-0.00033147,-3323.1,0.73828
14263,10.265,1.8182,0,0.00032857,3283.5,0.00010987,0.0041204,0.00010599,-29.163,-0.00032906,-3298,0.74957
14264,10.173,1.8182,0.05,9.2334e-07,9.2271,7.0901e-07,5.3273,-2.5022e-12,4.6273e-06,-7.0901e-07,-5.3272,0.73803
14265,10.173,2.0909,0,0.0003307,3304.7,0.00011085,0.0035898,0.00010622,-34.797,-0.00033128,-3322,0.73866
14266,10.265,2,0,0.00032833,3281,0.00010992,0.0038086,0.00010569,-31.788,-0.00032886,-3296.8,0.74999
14267,10.173,2,0.05,9.2442e-07,9.2378,7.0984e-07,5.3335,-7.0152e-13,4.9058e-06,-7.0984e-07,-5.3335,0.73845
14268,10.173,2.2727,0,0.0003305,3302.7,0.00011089,0.0032938,0.00010597,-36.941,-0.00033111,-3321.1,0.73898
14269,10.265,2.1818,0,0.00032812,3278.9,0.00010996,0.0035214,0.00010543,-34.037,-0.00032869,-3295.8,0.75033
14270,10.173,2.1818,0.05,9.2535e-07,9.2471,7.1056e-07,5.3388,1.8436e-13,4.2393e-06,-7.1055e-07,-5.3388,0.7388
14271,10.173,2.4545,0,0.00033035,3301.2,0.00011092,0.0030473,0.00010578,-38.644,-0.00033099,-3320.3,0.73922
14272,10.265,2.3636,0,0.00032795,3277.2,0.00011,0.0032721,0.00010522,-35.878,-0.00032854,-3295,0.75061
14273,10.173,2.3636,0.05,9.2611e-07,9.2547,7.1114e-07,5.3432,-7.5911e-13,4.395e-06,-7.1114e-07,-5.3432,0.73908
14274,10.173,2.6364,0,0.00033023,3300,0.00011095,0.0028624,0.00010564,-39.88,-0.00033089,-3319.8,0.73939
14275,10.265,2.5455,0,0.00032782,3275.9,0.00011002,0.003075,0.00010506,-37.284,-0.00032844,-3294.4,0.75082
14276,10.173,2.5455,0.05,9.2669e-07,9.2605,7.1159e-07,5.3466,1.1025e-13,3.22e-06,-7.1158e-07,-5.3465,0.73929
14277,10.173,2.8182,0,0.00033016,3299.4,0.00011096,0.0027473,0.00010555,-40.629,-0.00033084,-3319.5,0.7395
14278,10.265,2.7273,0,0.00032773,3275,0.00011004,0.0029375,0.00010495,-38.233,-0.00032836,-3294,0.75096
14279,10.173,2.7273,0.05,9.2708e-07,9.2644,7.1188e-07,5.3488,6.6909e-14,2.8866e-06,-7.1188e-07,-5.3488,0.73943
14280,10.173,3,0,0.00033014,3299.1,0.00011097,0.0027078,0.00010552,-40.88,-0.00033082,-3319.4,0.73953
14281,10.265,2.9091,0,0.00032769,3274.6,0.00011005,0.002866,0.0001049,-38.712,-0.00032833,-3293.8,0.75103
14282,10.173,2.9091,0.05,9.2728e-07,9.2664,7.1203e-07,5.3499,2.2739e-14,2.5545e-06,-7.1203e-07,-5.35,0.7395
14283,10.173,3.1818,0,0.00033016,3299.4,0.00011096,0.0027472,0.00010555,-40.629,-0.00033084,-3319.5,0.7395
14284,10.265,3.0909,0,0.00032769,3274.6,0.00011005,0.0028659,0.0001049,-38.712,-0.00032833,-3293.8,0.75103
14285,10.173,3.0909,0.05,9.2728e-07,9.2664,7.1203e-07,5.3499,8.8679e-13,3.1668e-06,-7.1203e-07,-5.35,0.7395
14286,10.173,3.3636,0,0.00033023,3300,0.00011095,0.0028628,0.00010564,-39.88,-0.00033089,-3319.8,0.73939
14287,10.265,3.2727,0,0.00032773,3275,0.00011004,0.0029369,0.00010495,-38.233,-0.00032836,-3294,0.75096
14288,10.173,3.2727,0.05,9.2708e-07,9.2644,7.1188e-07,5.3488,-6.7672e-14,2.8292e-06,-7.1189e-07,-5.3488,0.73943
14289,10.173,3.5455,0,0.00033035,3301.2,0.00011092,0.0030472,0.00010578,-38.644,-0.00033099,-3320.3,0.73922
14290,10.265,3.4545,0,0.00032782,3275.9,0.00011002,0.0030751,0.00010506,-37.284,-0.00032844,-3294.4,0.75082
14291,10.173,3.4545,0.05,9.2669e-07,9.2605,7.1158e-07,5.3465,7.9795e-13,2.4911e-06,-7.1159e-07,-5.3466,0.73929
14292,10.173,3.7273,0,0.0003305,3302.7,0.00011089,0.0032931,0.00010597,-36.941,-0.00033111,-3321.1,0.73898
14293,10.265,3.6364,0,0.00032795,3277.2,0.00011,0.0032719,0.00010522,-35.878,-0.00032854,-3295,0.75061
14294,10.173,3.6364,0.05,9.2611e-07,9.2547,7.1114e-07,5.3432,1.676e-12,1.7017e-06,-7.1114e-07,-5.3432,0.73908
14295,10.173,3.9091,0,0.0003307,3304.7,0.00011085,0.0035894,0.00010622,-34.797,-0.00033128,-3322,0.73866
14296,10.265,3.8182,0,0.00032812,3278.9,0.00010996,0.0035206,0.00010543,-34.037,-0.00032869,-3295.8,0.75033
14297,10.173,3.8182,0.05,9.2535e-07,9.2471,7.1055e-07,5.3388,2.5423e-12,2.4861e-06,-7.1056e-07,-5.3388,0.7388
14298,10.173,4.0909,0,0.00033094,3307.1,0.0001108,0.0039204,0.00010651,-32.243,-0.00033147,-3323.1,0.73828
14299,10.265,4,0,0.00032833,3281,0.00010992,0.0038084,0.00010569,-31.788,-0.00032886,-3296.8,0.74999
14300,10.173,4,0.05,9.2442e-07,9.2378,7.0984e-07,5.3334,3.4303e-12,1.4813e-06,-7.0984e-07,-5.3335,0.73845
14301,10.173,4.2727,0,0.00033121,3309.8,0.00011075,0.004271,0.00010685,-29.316,-0.0003317,-3324.3,0.73782
14302,10.265,4.1818,0,0.00032857,3283.5,0.00010987,0.0041199,0.00010599,-29.163,-0.00032906,-3298,0.74957
14303,10.173,4.1818,0.05,9.2334e-07,9.2271,7.0901e-07,5.3272,2.4966e-12,1.1139e-06,-7.0901e-07,-5.3273,0.73803
14304,10.173,4.4545,0,0.00033151,3312.8,0.00011069,0.0046283,0.00010722,-26.055,-0.00033195,-3325.8,0.7373
14305,10.265,4.3636,0,0.00032885,3286.3,0.00010982,0.0044421,0.00010633,-26.196,-0.00032929,-3299.3,0.74908
14306,10.173,4.3636,0.05,9.2213e-07,9.2149,7.0808e-07,5.3202,3.385e-12,1.2187e-06,-7.0809e-07,-5.3203,0.73754
14307,10.173,4.6364,0,0.00033185,3316.2,0.00011062,0.0049741,0.00010763,-22.501,-0.00033222,-3327.4,0.7367
14308,10.265,4.5455,0,0.00032916,3289.4,0.00010976,0.0047645,0.00010671,-22.925,-0.00032955,-3300.8,0.74852
14309,10.173,4.5455,0.05,9.2081e-07,9.2017,7.0706e-07,5.3126,3.3945e-12,2.7637e-07,-7.0707e-07,-5.3127,0.73698
14310,10.173,4.8182,0,0.00033221,3319.8,0.00011055,0.0053104,0.00010806,-18.694,-0.00033252,-3329.1,0.73603
14311,10.265,4.7273,0,0.0003295,3292.7,0.00010969,0.0050625,0.00010711,-19.389,-0.00032983,-3302.4,0.7479
14312,10.173,4.7273,0.05,9.194e-07,9.1877,7.0598e-07,5.3044,4.288e-12,1.1962e-06,-7.0599e-07,-5.3046,0.73635
14313,10.173,5,0,0.00033259,3323.6,0.00011048,0.005576,0.00010853,-14.675,-0.00033284,-3330.9,0.73529
14314,10.265,4.9091,0,0.00032986,3296.4,0.00010963,0.0053643,0.00010755,-15.626,-0.00033013,-3304.1,0.7472
14315,10.173,4.9091,0.05,9.1794e-07,9.173,7.0486e-07,5.296,5.2174e-12,1.0629e-06,-7.0487e-07,-5.2961,0.73564
14316,10.173,5.1818,0,0.000333,3327.7,0.00011041,0.006012,0.00010901,-10.482,-0.00033317,-3332.9,0.73448
14317,10.265,5.0909,0,0.00033025,3300.2,0.00010956,0.005523,0.00010801,-11.673,-0.00033044,-3306,0.74643
14318,10.173,5.0909,0.05,9.1644e-07,9.158,7.0371e-07,5.2873,6.1405e-12,2.5584e-07,-7.0371e-07,-5.2875,0.73487
14319,10.173,5.3636,0,0.00033342,3331.9,0.00011033,0.0056917,0.00010952,-6.146,-0.00033353,-3335,0.7336
14320,10.265,5.2727,0,0.00033065,3304.2,0.00010949,0.0061347,0.00010848,-7.5636,-0.00033078,-3308,0.74559
14321,10.173,5.2727,0.05,9.1474e-07,9.1411,7.024e-07,5.2776,5.2538e-12,8.0174e-07,-7.0241e-07,-5.2777,0.73402
14322,10.173,5.5455,0,0.00033387,3336.4,0.00011026,0.010605,0.00011004,-1.6666,-0.00033389,-3337.2,0.73265
14323,10.265,5.4545,0,0.00033107,3308.4,0.00010942,0.004846,0.00010898,-3.3263,-0.00033113,-3310.1,0.74468
14324,10.173,5.4545,0.05,9.1008e-07,9.0946,6.9883e-07,5.2507,5.2902e-12,1.0223e-06,-6.9884e-07,-5.2508,0.73311
14325,10.173,5.7273,0,0.0003344,3341.7,0.00011064,3.4466,0.00011018,-0.0057662,-0.00033435,-3340,0.73162
14326,10.265,5.6364,0,0.00033152,3312.9,0.00010949,1.0809,0.00010935,0.011178,-0.0003315,-3312.3,0.74369
14327,10.173,5.6364,0.05,8.5955e-07,8.5896,6.6002e-07,4.9591,7.1571e-12,2.4824e-06,-6.6003e-07,-4.9593,0.73212
14328,10.265,5.8182,0,0.00033214,3319.1,0.00011016,6.6471,0.00010927,-0.017457,-0.00033202,-3315.8,0.74264
14329,10.173,5.8182,0.05,1.1274e-07,1.1267,8.657e-08,0.65038,1.3197e-12,-4.6496e-05,-8.6578e-08,-0.65058,0.73106
14330,10.173,5.9091,0,0.0003344,3341.6,0.00011075,4.7398,0.00011012,-0.0040985,-0.00033431,-3339.3,0.73053
14331,10.357,0.27273,0,0.00032924,3290.1,0.000109,4.2039,0.00010844,-0.0028511,-0.00032917,-3288,0.75478
14332,10.449,0.18182,0,0.00032697,3267.5,0.00010851,7.2542,0.00010754,-0.014478,-0.00032685,-3263.8,0.76592
14333,10.357,0.18182,0.05,1.0051e-07,1.0044,7.7183e-08,0.57997,-1.5801e-12,4.2449e-05,-7.7177e-08,-0.57983,0.75422
14334,10.357,0.090909,0,0.00032919,3289.7,0.00010906,5.1119,0.00010838,-0.0030359,-0.00032911,-3287.1,0.7537
14335,10.357,0.45455,0,0.00032872,3284.9,0.00010851,0.0092347,0.00010843,-0.60436,-0.00032873,-3285.2,0.7558
14336,10.449,0.36364,0,0.00032637,3261.5,0.00010787,1.9616,0.00010761,0.011743,-0.00032634,-3260.5,0.76696
14337,10.357,0.36364,0.05,8.5482e-07,8.5423,6.564e-07,4.932,-7.1496e-12,3.9983e-06,-6.5639e-07,-4.9318,0.75527
14338,10.357,0.63636,0,0.0003283,3280.7,0.00010858,0.0052511,0.00010794,-4.7625,-0.00032838,-3283.1,0.75674
14339,10.449,0.54545,0,0.00032595,3257.2,0.00010767,0.0044587,0.00010738,-2.1344,-0.00032598,-3258.3,0.76793
14340,10.357,0.54545,0.05,9.0566e-07,9.0504,6.9544e-07,5.2253,-4.3921e-12,3.4785e-06,-6.9543e-07,-5.2252,0.75625
14341,10.357,0.81818,0,0.0003279,3276.7,0.00010864,0.0056575,0.00010747,-8.773,-0.00032805,-3281.1,0.75761
14342,10.449,0.72727,0,0.00032555,3253.3,0.00010773,0.0057849,0.00010692,-6.0589,-0.00032565,-3256.3,0.76883
14343,10.357,0.72727,0.05,9.1018e-07,9.0955,6.9891e-07,5.2514,-3.4866e-12,4.118e-06,-6.989e-07,-5.2512,0.75715
14344,10.357,1,0,0.00032752,3272.9,0.00010871,0.0053224,0.00010702,-12.641,-0.00032773,-3279.2,0.75841
14345,10.449,0.90909,0,0.00032517,3249.5,0.00010779,0.0052917,0.00010648,-9.8545,-0.00032534,-3254.4,0.76966
14346,10.357,0.90909,0.05,9.1168e-07,9.1105,7.0006e-07,5.26,-3.4333e-12,4.1531e-06,-7.0006e-07,-5.2599,0.75799
14347,10.357,1.1818,0,0.00032716,3269.3,0.00010877,0.0051251,0.00010659,-16.338,-0.00032743,-3277.4,0.75914
14348,10.449,1.0909,0,0.00032481,3245.8,0.00010785,0.0051851,0.00010606,-13.496,-0.00032504,-3252.6,0.77042
14349,10.357,1.0909,0.05,9.1298e-07,9.1235,7.0106e-07,5.2675,-3.4322e-12,4.5711e-06,-7.0105e-07,-5.2674,0.75875
14350,10.357,1.3636,0,0.00032682,3265.9,0.00010883,0.0048589,0.00010619,-19.83,-0.00032715,-3275.8,0.75979
14351,10.449,1.2727,0,0.00032447,3242.4,0.00010791,0.0049459,0.00010566,-16.953,-0.00032475,-3250.9,0.77111
14352,10.357,1.2727,0.05,9.1423e-07,9.136,7.0202e-07,5.2747,-3.4192e-12,4.691e-06,-7.0201e-07,-5.2746,0.75945
14353,10.357,1.5455,0,0.0003265,3262.8,0.00010889,0.0045819,0.00010582,-23.081,-0.00032689,-3274.3,0.76038
14354,10.449,1.4545,0,0.00032415,3239.3,0.00010797,0.0047078,0.00010528,-20.193,-0.00032449,-3249.3,0.77173
14355,10.357,1.4545,0.05,9.1543e-07,9.1479,7.0294e-07,5.2816,-6.9671e-13,4.6543e-06,-7.0293e-07,-5.2815,0.76007
14356,10.357,1.7273,0,0.00032622,3259.9,0.00010894,0.0042929,0.00010547,-26.057,-0.00032666,-3272.9,0.7609
14357,10.449,1.6364,0,0.00032386,3236.4,0.00010802,0.0044476,0.00010494,-23.183,-0.00032425,-3247.9,0.77228
14358,10.357,1.6364,0.05,9.1654e-07,9.1591,7.0379e-07,5.2881,-2.5124e-12,4.6077e-06,-7.0379e-07,-5.288,0.76062
14359,10.357,1.9091,0,0.00032597,3257.4,0.00010899,0.004008,0.00010517,-28.723,-0.00032645,-3271.7,0.76135
14360,10.449,1.8182,0,0.0003236,3233.8,0.00010807,0.0041864,0.00010462,-25.889,-0.00032403,-3246.6,0.77276
14361,10.357,1.8182,0.05,9.1756e-07,9.1693,7.0458e-07,5.2939,-7.0532e-13,4.3914e-06,-7.0457e-07,-5.2939,0.76111
14362,10.357,2.0909,0,0.00032575,3255.2,0.00010903,0.0037386,0.0001049,-31.043,-0.00032626,-3270.6,0.76173
14363,10.449,2,0,0.00032337,3231.5,0.00010811,0.0039331,0.00010435,-28.279,-0.00032384,-3245.5,0.77317
14364,10.357,2,0.05,9.1847e-07,9.1784,7.0527e-07,5.2992,-1.6334e-12,4.3121e-06,-7.0527e-07,-5.2991,0.76152
14365,10.357,2.2727,0,0.00032556,3253.4,0.00010907,0.0034971,0.00010468,-32.989,-0.00032611,-3269.8,0.76204
14366,10.449,2.1818,0,0.00032318,3229.5,0.00010815,0.0036994,0.00010411,-30.323,-0.00032368,-3244.6,0.77351
14367,10.357,2.1818,0.05,9.1925e-07,9.1861,7.0587e-07,5.3036,-7.4306e-13,4.7931e-06,-7.0587e-07,-5.3036,0.76187
14368,10.357,2.4545,0,0.00032542,3251.9,0.00010909,0.0032963,0.0001045,-34.532,-0.00032599,-3269.1,0.76228
14369,10.449,2.3636,0,0.00032302,3228,0.00010818,0.0034962,0.00010392,-31.993,-0.00032355,-3243.8,0.77379
14370,10.357,2.3636,0.05,9.1988e-07,9.1925,7.0636e-07,5.3073,-7.7457e-13,4.5926e-06,-7.0636e-07,-5.3073,0.76214
14371,10.357,2.6364,0,0.00032531,3250.9,0.00010912,0.003146,0.00010437,-35.651,-0.00032591,-3268.6,0.76246
14372,10.449,2.5455,0,0.0003229,3226.8,0.0001082,0.0033361,0.00010377,-33.267,-0.00032345,-3243.3,0.77399
14373,10.357,2.5455,0.05,9.2037e-07,9.1973,7.0673e-07,5.3101,9.7622e-14,4.0845e-06,-7.0673e-07,-5.3101,0.76235
14374,10.357,2.8182,0,0.00032525,3250.3,0.00010913,0.0030518,0.00010429,-36.329,-0.00032585,-3268.3,0.76256
14375,10.449,2.7273,0,0.00032282,3225.9,0.00010822,0.0032239,0.00010367,-34.127,-0.00032338,-3242.9,0.77413
14376,10.357,2.7273,0.05,9.2069e-07,9.2006,7.0698e-07,5.312,9.6923e-13,3.7896e-06,-7.0698e-07,-5.312,0.76249
14377,10.357,3,0,0.00032523,3250.1,0.00010913,0.0030195,0.00010427,-36.556,-0.00032584,-3268.2,0.76259
14378,10.449,2.9091,0,0.00032278,3225.5,0.00010822,0.0031657,0.00010362,-34.56,-0.00032335,-3242.7,0.7742
14379,10.357,2.9091,0.05,9.2086e-07,9.2022,7.071e-07,5.3129,9.2976e-13,3.0133e-06,-7.071e-07,-5.3129,0.76256
14380,10.357,3.1818,0,0.00032525,3250.3,0.00010913,0.0030511,0.00010429,-36.329,-0.00032585,-3268.3,0.76256
14381,10.449,3.0909,0,0.00032278,3225.5,0.00010822,0.0031658,0.00010362,-34.56,-0.00032335,-3242.7,0.7742
14382,10.357,3.0909,0.05,9.2086e-07,9.2022,7.0711e-07,5.3129,2.7082e-12,3.1852e-06,-7.071e-07,-5.3129,0.76256
14383,10.357,3.3636,0,0.00032531,3250.9,0.00010912,0.003145,0.00010437,-35.651,-0.00032591,-3268.6,0.76246
14384,10.449,3.2727,0,0.00032282,3225.9,0.00010822,0.0032232,0.00010367,-34.127,-0.00032338,-3242.9,0.77413
14385,10.357,3.2727,0.05,9.2069e-07,9.2006,7.0698e-07,5.3119,8.4926e-13,1.9338e-06,-7.0698e-07,-5.312,0.76249
14386,10.357,3.5455,0,0.00032542,3251.9,0.00010909,0.0032963,0.0001045,-34.532,-0.00032599,-3269.1,0.76228
14387,10.449,3.4545,0,0.0003229,3226.8,0.0001082,0.0033358,0.00010377,-33.267,-0.00032345,-3243.3,0.77399
14388,10.357,3.4545,0.05,9.2037e-07,9.1973,7.0673e-07,5.31,3.5404e-12,1.167e-06,-7.0673e-07,-5.3101,0.76235
14389,10.357,3.7273,0,0.00032556,3253.4,0.00010907,0.0034968,0.00010468,-32.989,-0.00032611,-3269.8,0.76204
14390,10.449,3.6364,0,0.00032302,3228,0.00010818,0.0034966,0.00010392,-31.993,-0.00032355,-3243.8,0.77379
14391,10.357,3.6364,0.05,9.1988e-07,9.1925,7.0636e-07,5.3073,7.8157e-13,1.9203e-06,-7.0636e-07,-5.3073,0.76214
14392,10.357,3.9091,0,0.00032575,3255.2,0.00010903,0.0037381,0.0001049,-31.043,-0.00032626,-3270.6,0.76173
14393,10.449,3.8182,0,0.00032318,3229.5,0.00010815,0.0036985,0.00010411,-30.323,-0.00032368,-3244.6,0.77351
14394,10.357,3.8182,0.05,9.1925e-07,9.1861,7.0586e-07,5.3036,2.5614e-12,2.6175e-06,-7.0587e-07,-5.3036,0.76187
14395,10.357,4.0909,0,0.00032597,3257.4,0.00010899,0.0040075,0.00010517,-28.723,-0.00032645,-3271.7,0.76135
14396,10.449,4,0,0.00032337,3231.5,0.00010811,0.003933,0.00010435,-28.279,-0.00032384,-3245.5,0.77317
14397,10.357,4,0.05,9.1847e-07,9.1784,7.0527e-07,5.2991,3.4507e-12,1.4344e-06,-7.0527e-07,-5.2992,0.76152
14398,10.357,4.2727,0,0.00032622,3259.9,0.00010894,0.0042921,0.00010547,-26.057,-0.00032666,-3272.9,0.7609
14399,10.449,4.1818,0,0.0003236,3233.8,0.00010807,0.0041857,0.00010462,-25.889,-0.00032403,-3246.6,0.77276
14400,10.357,4.1818,0.05,9.1756e-07,9.1693,7.0457e-07,5.2939,3.4261e-12,1.0818e-06,-7.0458e-07,-5.294,0.76111
14401,10.357,4.4545,0,0.0003265,3262.8,0.00010889,0.0045812,0.00010582,-23.081,-0.00032689,-3274.3,0.76038
14402,10.449,4.3636,0,0.00032386,3236.4,0.00010802,0.0044473,0.00010494,-23.183,-0.00032425,-3247.9,0.77228
14403,10.357,4.3636,0.05,9.1654e-07,9.1591,7.0379e-07,5.288,3.4326e-12,1.4908e-06,-7.038e-07,-5.2881,0.76062
14404,10.357,4.6364,0,0.00032682,3265.9,0.00010883,0.004858,0.00010619,-19.83,-0.00032715,-3275.8,0.75979
14405,10.449,4.5455,0,0.00032415,3239.3,0.00010797,0.0047072,0.00010528,-20.193,-0.00032449,-3249.3,0.77173
14406,10.357,4.5455,0.05,9.1543e-07,9.1479,7.0293e-07,5.2815,3.4236e-12,8.1985e-07,-7.0294e-07,-5.2816,0.76007
14407,10.357,4.8182,0,0.00032716,3269.3,0.00010877,0.005124,0.0001066,-16.338,-0.00032743,-3277.4,0.75914
14408,10.449,4.7273,0,0.00032447,3242.4,0.00010791,0.0049455,0.00010566,-16.953,-0.00032475,-3250.9,0.77111
14409,10.357,4.7273,0.05,9.1423e-07,9.136,7.0201e-07,5.2746,4.3098e-12,7.1219e-07,-7.0202e-07,-5.2747,0.75945
14410,10.357,5,0,0.00032752,3272.9,0.00010871,0.0053215,0.00010702,-12.641,-0.00032773,-3279.2,0.75841
14411,10.449,4.9091,0,0.00032481,3245.8,0.00010785,0.0051841,0.00010606,-13.496,-0.00032504,-3252.6,0.77042
14412,10.357,4.9091,0.05,9.1298e-07,9.1235,7.0105e-07,5.2674,4.3397e-12,1.0972e-06,-7.0106e-07,-5.2675,0.75875
14413,10.357,5.1818,0,0.0003279,3276.7,0.00010864,0.005656,0.00010747,-8.773,-0.00032805,-3281.1,0.75761
14414,10.449,5.0909,0,0.00032517,3249.5,0.00010779,0.0052903,0.00010648,-9.8545,-0.00032534,-3254.4,0.76966
14415,10.357,5.0909,0.05,9.1168e-07,9.1105,7.0005e-07,5.2599,7.0898e-12,3.2007e-07,-7.0006e-07,-5.2601,0.75799
14416,10.357,5.3636,0,0.0003283,3280.7,0.00010858,0.0052498,0.00010794,-4.7625,-0.00032838,-3283.1,0.75674
14417,10.449,5.2727,0,0.00032555,3253.3,0.00010773,0.0057831,0.00010692,-6.0588,-0.00032565,-3256.3,0.76883
14418,10.357,5.2727,0.05,9.1018e-07,9.0955,6.989e-07,5.2512,6.1432e-12,1.4174e-06,-6.9891e-07,-5.2514,0.75715
14419,10.357,5.5455,0,0.00032872,3284.9,0.00010851,0.0092341,0.00010843,-0.60435,-0.00032873,-3285.2,0.7558
14420,10.449,5.4545,0,0.00032595,3257.2,0.00010767,0.0044582,0.00010738,-2.1344,-0.00032598,-3258.3,0.76793
14421,10.357,5.4545,0.05,9.0566e-07,9.0504,6.9543e-07,5.2251,6.2289e-12,1.2478e-06,-6.9544e-07,-5.2254,0.75625
14422,10.357,5.7273,0,0.00032924,3290.1,0.000109,4.2039,0.00010844,-0.0028522,-0.00032917,-3288,0.75478
14423,10.449,5.6364,0,0.00032637,3261.5,0.00010787,1.9616,0.00010761,0.011742,-0.00032634,-3260.5,0.76696
14424,10.357,5.6364,0.05,8.5482e-07,8.5423,6.5639e-07,4.9318,7.1728e-12,2.4662e-06,-6.564e-07,-4.932,0.75527
14425,10.449,5.8182,0,0.00032697,3267.5,0.00010851,7.2542,0.00010754,-0.014478,-0.00032685,-3263.8,0.76592
14426,10.357,5.8182,0.05,1.0051e-07,1.0044,7.7175e-08,0.57981,5.1077e-13,-4.2916e-05,-7.7184e-08,-0.57998,0.75422
14427,10.357,5.9091,0,0.00032919,3289.7,0.00010906,5.1119,0.00010838,-0.0030372,-0.00032911,-3287.1,0.7537
14428,10.541,0.27273,0,0.00032409,3238.7,0.00010736,4.9317,0.00010671,-0.0013044,-0.00032401,-3236.2,0.77817
14429,10.633,0.18182,0,0.00032183,3216.1,0.00010686,7.8397,0.00010581,-0.012147,-0.00032169,-3212.1,0.78942
14430,10.541,0.18182,0.05,8.8993e-08,0.88932,6.8342e-08,0.51351,6.6387e-13,3.3613e-05,-6.833e-08,-0.51339,0.77761
14431,10.541,0.090909,0,0.00032401,3237.9,0.00010738,5.4717,0.00010665,-0.0022931,-0.00032392,-3235.1,0.7771
14432,10.541,0.45455,0,0.00032359,3233.7,0.00010682,0.40854,0.00010677,0.0077721,-0.00032359,-3233.5,0.77917
14433,10.633,0.36364,0,0.00032124,3210.2,0.00010624,2.8044,0.00010587,0.010786,-0.00032119,-3208.8,0.79045
14434,10.541,0.36364,0.05,8.5008e-07,8.495,6.5276e-07,4.9046,-4.4243e-12,2.6969e-06,-6.5276e-07,-4.9045,0.77865
14435,10.541,0.63636,0,0.0003232,3229.7,0.00010683,0.0050688,0.00010637,-3.4499,-0.00032325,-3231.4,0.78009
14436,10.633,0.54545,0,0.00032084,3206.2,0.00010593,0.0048782,0.00010579,-1.0027,-0.00032086,-3206.7,0.7914
14437,10.541,0.54545,0.05,9.0121e-07,9.0059,6.9202e-07,5.1996,-4.4322e-12,3.1424e-06,-6.9201e-07,-5.1995,0.77961
14438,10.541,0.81818,0,0.00032282,3225.9,0.00010688,0.005456,0.00010593,-7.1587,-0.00032294,-3229.5,0.78095
14439,10.633,0.72727,0,0.00032047,3202.4,0.00010598,0.0056764,0.00010537,-4.6356,-0.00032054,-3204.8,0.79229
14440,10.541,0.72727,0.05,9.0561e-07,9.0499,6.954e-07,5.225,-3.5131e-12,3.7245e-06,-6.9539e-07,-5.2249,0.7805
14441,10.541,1,0,0.00032246,3222.3,0.00010694,0.0051766,0.00010551,-10.727,-0.00032264,-3227.7,0.78174
14442,10.633,0.90909,0,0.00032011,3198.9,0.00010604,0.0052052,0.00010495,-8.141,-0.00032024,-3202.9,0.79311
14443,10.541,0.90909,0.05,9.0696e-07,9.0633,6.9644e-07,5.2328,-3.4515e-12,4.9949e-06,-6.9643e-07,-5.2327,0.78133
14444,10.541,1.1818,0,0.00032212,3219,0.000107,0.0050205,0.00010512,-14.128,-0.00032236,-3226,0.78246
14445,10.633,1.0909,0,0.00031977,3195.5,0.00010609,0.0051081,0.00010456,-11.496,-0.00031996,-3201.2,0.79386
14446,10.541,1.0909,0.05,9.0809e-07,9.0746,6.973e-07,5.2393,-2.5528e-12,5.1899e-06,-6.973e-07,-5.2392,0.78208
14447,10.541,1.3636,0,0.0003218,3215.8,0.00010705,0.0048046,0.00010474,-17.333,-0.00032209,-3224.4,0.78311
14448,10.633,1.2727,0,0.00031945,3192.3,0.00010614,0.0049059,0.00010419,-14.674,-0.00031969,-3199.6,0.79454
14449,10.541,1.2727,0.05,9.0917e-07,9.0854,6.9813e-07,5.2455,-3.4309e-12,4.9882e-06,-6.9812e-07,-5.2454,0.78277
14450,10.541,1.5455,0,0.00032151,3212.8,0.0001071,0.0045801,0.0001044,-20.311,-0.00032185,-3223,0.78369
14451,10.633,1.4545,0,0.00031915,3189.3,0.00010619,0.0047089,0.00010384,-17.645,-0.00031945,-3198.1,0.79515
14452,10.541,1.4545,0.05,9.1019e-07,9.0956,6.9892e-07,5.2514,-1.6211e-12,4.7316e-06,-6.9891e-07,-5.2513,0.78338
14453,10.541,1.7273,0,0.00032124,3210.2,0.00010715,0.0043452,0.00010408,-23.03,-0.00032163,-3221.6,0.7842
14454,10.633,1.6364,0,0.00031888,3186.6,0.00010624,0.0044955,0.00010353,-20.381,-0.00031922,-3196.7,0.79569
14455,10.541,1.6364,0.05,9.1115e-07,9.1052,6.9965e-07,5.2569,-1.6335e-12,5.2244e-06,-6.9965e-07,-5.2568,0.78393
14456,10.541,1.9091,0,0.000321,3207.8,0.00010719,0.0041136,0.0001038,-25.461,-0.00032143,-3220.5,0.78465
14457,10.633,1.8182,0,0.00031864,3184.2,0.00010628,0.0042815,0.00010324,-22.852,-0.00031902,-3195.5,0.79617
14458,10.541,1.8182,0.05,9.1201e-07,9.1138,7.0031e-07,5.2619,1.7223e-13,4.6907e-06,-7.0031e-07,-5.2618,0.78441
14459,10.541,2.0909,0,0.0003208,3205.8,0.00010723,0.0038944,0.00010356,-27.573,-0.00032126,-3219.5,0.78502
14460,10.633,2,0,0.00031842,3182,0.00010632,0.0040752,0.00010299,-25.03,-0.00031884,-3194.5,0.79657
14461,10.541,2,0.05,9.1278e-07,9.1215,7.009e-07,5.2664,1.6291e-13,4.8559e-06,-7.009e-07,-5.2663,0.78482
14462,10.541,2.2727,0,0.00032063,3204.1,0.00010726,0.0036978,0.00010335,-29.341,-0.00032112,-3218.7,0.78533
14463,10.633,2.1818,0,0.00031824,3180.2,0.00010635,0.0038843,0.00010277,-26.891,-0.00031869,-3193.6,0.79691
14464,10.541,2.1818,0.05,9.1344e-07,9.1281,7.0141e-07,5.2701,1.3504e-13,4.6301e-06,-7.0141e-07,-5.2701,0.78516
14465,10.541,2.4545,0,0.0003205,3202.7,0.00010728,0.0035345,0.00010319,-30.742,-0.00032101,-3218,0.78557
14466,10.633,2.3636,0,0.00031809,3178.7,0.00010637,0.0037189,0.00010259,-28.409,-0.00031857,-3192.8,0.79718
14467,10.541,2.3636,0.05,9.1397e-07,9.1334,7.0182e-07,5.2732,1.1617e-13,4.6983e-06,-7.0182e-07,-5.2732,0.78543
14468,10.541,2.6364,0,0.0003204,3201.8,0.0001073,0.0034118,0.00010307,-31.757,-0.00032093,-3217.5,0.78574
14469,10.633,2.5455,0,0.00031798,3177.6,0.00010639,0.0035885,0.00010246,-29.566,-0.00031847,-3192.3,0.79739
14470,10.541,2.5455,0.05,9.1438e-07,9.1375,7.0213e-07,5.2755,8.6371e-14,4.2128e-06,-7.0213e-07,-5.2755,0.78563
14471,10.541,2.8182,0,0.00032034,3201.2,0.00010731,0.0033351,0.000103,-32.372,-0.00032088,-3217.2,0.78584
14472,10.633,2.7273,0,0.0003179,3176.9,0.00010641,0.003497,0.00010237,-30.346,-0.00031841,-3191.9,0.79752
14473,10.541,2.7273,0.05,9.1466e-07,9.1402,7.0234e-07,5.2771,5.2971e-14,3.9706e-06,-7.0234e-07,-5.2771,0.78577
14474,10.541,3,0,0.00032032,3201,0.00010732,0.0033091,0.00010298,-32.578,-0.00032086,-3217.1,0.78588
14475,10.633,2.9091,0,0.00031787,3176.5,0.00010642,0.0034498,0.00010232,-30.738,-0.00031838,-3191.7,0.79759
14476,10.541,2.9091,0.05,9.1479e-07,9.1416,7.0245e-07,5.2779,9.2722e-13,3.4714e-06,-7.0245e-07,-5.2779,0.78584
14477,10.541,3.1818,0,0.00032034,3201.2,0.00010731,0.0033352,0.000103,-32.372,-0.00032088,-3217.2,0.78584
14478,10.633,3.0909,0,0.00031787,3176.5,0.00010642,0.0034493,0.00010232,-30.738,-0.00031838,-3191.7,0.79759
14479,10.541,3.0909,0.05,9.1479e-07,9.1416,7.0245e-07,5.2779,8.9174e-13,3.2049e-06,-7.0245e-07,-5.2779,0.78584
14480,10.541,3.3636,0,0.0003204,3201.8,0.0001073,0.0034117,0.00010307,-31.757,-0.00032093,-3217.5,0.78574
14481,10.633,3.2727,0,0.0003179,3176.9,0.00010641,0.003497,0.00010237,-30.346,-0.00031841,-3191.9,0.79752
14482,10.541,3.2727,0.05,9.1466e-07,9.1402,7.0234e-07,5.2771,1.7663e-12,2.9391e-06,-7.0235e-07,-5.2772,0.78577
14483,10.541,3.5455,0,0.0003205,3202.7,0.00010728,0.0035345,0.00010319,-30.742,-0.00032101,-3218,0.78557
14484,10.633,3.4545,0,0.00031798,3177.6,0.00010639,0.0035885,0.00010246,-29.566,-0.00031847,-3192.3,0.79739
14485,10.541,3.4545,0.05,9.1438e-07,9.1375,7.0213e-07,5.2755,1.7338e-12,2.4573e-06,-7.0213e-07,-5.2756,0.78563
14486,10.541,3.7273,0,0.00032063,3204.1,0.00010726,0.0036976,0.00010335,-29.341,-0.00032112,-3218.7,0.78533
14487,10.633,3.6364,0,0.00031809,3178.7,0.00010637,0.0037191,0.00010259,-28.409,-0.00031857,-3192.8,0.79718
14488,10.541,3.6364,0.05,9.1397e-07,9.1334,7.0181e-07,5.2732,2.6081e-12,2.9806e-06,-7.0182e-07,-5.2732,0.78543
14489,10.541,3.9091,0,0.0003208,3205.8,0.00010723,0.0038939,0.00010356,-27.573,-0.00032126,-3219.5,0.78502
14490,10.633,3.8182,0,0.00031824,3180.2,0.00010635,0.0038837,0.00010277,-26.891,-0.00031869,-3193.6,0.79691
14491,10.541,3.8182,0.05,9.1344e-07,9.1281,7.014e-07,5.27,3.4991e-12,2.465e-06,-7.0141e-07,-5.2702,0.78516
14492,10.541,4.0909,0,0.000321,3207.8,0.00010719,0.0041132,0.0001038,-25.461,-0.00032143,-3220.5,0.78465
14493,10.633,4,0,0.00031842,3182,0.00010632,0.0040747,0.00010299,-25.03,-0.00031884,-3194.5,0.79657
14494,10.541,4,0.05,9.1278e-07,9.1215,7.009e-07,5.2663,2.5697e-12,1.8666e-06,-7.009e-07,-5.2664,0.78482
14495,10.541,4.2727,0,0.00032124,3210.2,0.00010715,0.0043449,0.00010408,-23.03,-0.00032163,-3221.6,0.7842
14496,10.633,4.1818,0,0.00031864,3184.2,0.00010628,0.004281,0.00010324,-22.852,-0.00031902,-3195.5,0.79617
14497,10.541,4.1818,0.05,9.1201e-07,9.1138,7.0031e-07,5.2618,3.4623e-12,1.473e-06,-7.0031e-07,-5.2619,0.78441
14498,10.541,4.4545,0,0.00032151,3212.8,0.0001071,0.0045798,0.0001044,-20.311,-0.00032185,-3223,0.78369
14499,10.633,4.3636,0,0.00031888,3186.6,0.00010624,0.0044952,0.00010353,-20.381,-0.00031922,-3196.7,0.79569
14500,10.541,4.3636,0.05,9.1115e-07,9.1052,6.9964e-07,5.2568,3.4538e-12,2.2233e-06,-6.9965e-07,-5.2569,0.78393
14501,10.541,4.6364,0,0.0003218,3215.8,0.00010705,0.0048046,0.00010474,-17.333,-0.00032209,-3224.4,0.78311
14502,10.633,4.5455,0,0.00031915,3189.3,0.00010619,0.0047083,0.00010384,-17.645,-0.00031945,-3198.1,0.79515
14503,10.541,4.5455,0.05,9.1019e-07,9.0956,6.9891e-07,5.2513,3.4494e-12,1.0113e-06,-6.9892e-07,-5.2514,0.78338
14504,10.541,4.8182,0,0.00032212,3219,0.000107,0.0050202,0.00010512,-14.128,-0.00032236,-3226,0.78246
14505,10.633,4.7273,0,0.00031945,3192.3,0.00010614,0.0049058,0.00010419,-14.674,-0.00031969,-3199.6,0.79454
14506,10.541,4.7273,0.05,9.0917e-07,9.0854,6.9812e-07,5.2454,5.2471e-12,2.062e-06,-6.9813e-07,-5.2455,0.78277
14507,10.541,5,0,0.00032246,3222.3,0.00010694,0.0051752,0.00010551,-10.727,-0.00032264,-3227.7,0.78174
14508,10.633,4.9091,0,0.00031977,3195.5,0.00010609,0.0051076,0.00010456,-11.496,-0.00031996,-3201.2,0.79386
14509,10.541,4.9091,0.05,9.0809e-07,9.0746,6.9729e-07,5.2392,3.4578e-12,1.8316e-06,-6.973e-07,-5.2393,0.78208
14510,10.541,5.1818,0,0.00032282,3225.9,0.00010688,0.0054543,0.00010593,-7.1587,-0.00032294,-3229.5,0.78095
14511,10.633,5.0909,0,0.00032011,3198.9,0.00010604,0.0052032,0.00010495,-8.141,-0.00032024,-3202.9,0.79311
14512,10.541,5.0909,0.05,9.0696e-07,9.0633,6.9643e-07,5.2326,5.2864e-12,1.1382e-06,-6.9644e-07,-5.2328,0.78133
14513,10.541,5.3636,0,0.0003232,3229.7,0.00010683,0.0050678,0.00010637,-3.4499,-0.00032325,-3231.4,0.78009
14514,10.633,5.2727,0,0.00032047,3202.4,0.00010598,0.0056752,0.00010537,-4.6355,-0.00032054,-3204.8,0.79229
14515,10.541,5.2727,0.05,9.0561e-07,9.0499,6.9539e-07,5.2249,6.1839e-12,1.7038e-06,-6.954e-07,-5.225,0.7805
14516,10.541,5.5455,0,0.00032359,3233.7,0.00010682,0.40855,0.00010677,0.0077722,-0.00032359,-3233.5,0.77917
14517,10.633,5.4545,0,0.00032084,3206.2,0.00010593,0.0048776,0.00010579,-1.0026,-0.00032086,-3206.7,0.7914
14518,10.541,5.4545,0.05,9.0121e-07,9.0059,6.9201e-07,5.1994,4.4125e-12,2.1917e-06,-6.9202e-07,-5.1997,0.77961
14519,10.541,5.7273,0,0.00032409,3238.7,0.00010736,4.9317,0.00010671,-0.0013042,-0.00032401,-3236.2,0.77817
14520,10.633,5.6364,0,0.00032124,3210.2,0.00010624,2.8044,0.00010587,0.010786,-0.00032119,-3208.8,0.79045
14521,10.541,5.6364,0.05,8.5008e-07,8.495,6.5276e-07,4.9045,7.1887e-12,2.9793e-06,-6.5276e-07,-4.9046,0.77865
14522,10.633,5.8182,0,0.00032183,3216.1,0.00010686,7.8397,0.00010581,-0.012147,-0.00032169,-3212.1,0.78942
14523,10.541,5.8182,0.05,8.8993e-08,0.88932,6.8332e-08,0.51338,4.2805e-13,-3.5426e-05,-6.834e-08,-0.51352,0.77761
14524,10.541,5.9091,0,0.00032401,3237.9,0.00010738,5.4717,0.00010665,-0.002294,-0.00032392,-3235.1,0.7771
14525,10.726,0.27273,0,0.00031897,3187.5,0.00010573,5.6292,0.00010498,-0.00050137,-0.00031887,-3184.6,0.80177
14526,10.818,0.18182,0,0.0003167,3164.8,0.00010521,8.4032,0.00010409,-0.01029,-0.00031656,-3160.6,0.81314
14527,10.726,0.18182,0.05,7.8194e-08,0.7814,6.0047e-08,0.45119,-1.9806e-12,2.8996e-05,-6.004e-08,-0.4511,0.80122
14528,10.726,0.090909,0,0.00031885,3186.3,0.00010571,5.8189,0.00010493,-0.0017782,-0.00031875,-3183.4,0.80072
14529,10.726,0.45455,0,0.00031849,3182.7,0.00010521,1.3717,0.00010503,0.0066426,-0.00031846,-3182,0.80276
14530,10.818,0.36364,0,0.00031613,3159.2,0.00010463,3.6081,0.00010415,0.0094996,-0.00031607,-3157.3,0.81415
14531,10.726,0.36364,0.05,8.4538e-07,8.448,6.4915e-07,4.8775,-4.4416e-12,1.7109e-06,-6.4914e-07,-4.8774,0.80224
14532,10.726,0.63636,0,0.00031811,3178.9,0.00010509,0.005452,0.00010479,-2.2078,-0.00031815,-3180,0.80367
14533,10.818,0.54545,0,0.00031575,3155.4,0.00010421,0.095537,0.00010419,-0.019848,-0.00031575,-3155.3,0.81509
14534,10.726,0.54545,0.05,8.9676e-07,8.9614,6.8861e-07,5.174,-5.3388e-12,2.6061e-06,-6.886e-07,-5.1738,0.80319
14535,10.726,0.81818,0,0.00031775,3175.3,0.00010514,0.0054782,0.00010439,-5.6366,-0.00031785,-3178.1,0.80452
14536,10.818,0.72727,0,0.0003154,3151.8,0.00010424,0.0060026,0.00010381,-3.292,-0.00031545,-3153.4,0.81597
14537,10.726,0.72727,0.05,9.0106e-07,9.0044,6.9191e-07,5.1988,-5.2933e-12,3.8276e-06,-6.919e-07,-5.1986,0.80407
14538,10.726,1,0,0.00031741,3171.9,0.00010519,0.0051687,0.000104,-8.9284,-0.00031756,-3176.4,0.8053
14539,10.818,0.90909,0,0.00031506,3148.4,0.00010429,0.0053144,0.00010342,-6.5291,-0.00031517,-3151.7,0.81678
14540,10.726,0.90909,0.05,9.0228e-07,9.0166,6.9284e-07,5.2058,-3.4854e-12,5.18e-06,-6.9284e-07,-5.2057,0.80489
14541,10.726,1.1818,0,0.00031709,3168.7,0.00010524,0.0050144,0.00010363,-12.059,-0.0003173,-3174.7,0.80601
14542,10.818,1.0909,0,0.00031474,3145.2,0.00010434,0.0051553,0.00010306,-9.6209,-0.0003149,-3150,0.81751
14543,10.726,1.0909,0.05,9.0327e-07,9.0265,6.9361e-07,5.2115,-3.4723e-12,4.9784e-06,-6.936e-07,-5.2114,0.80563
14544,10.726,1.3636,0,0.00031679,3165.7,0.00010528,0.0048244,0.00010329,-15.003,-0.00031705,-3173.2,0.80665
14545,10.818,1.2727,0,0.00031444,3142.2,0.00010439,0.0049526,0.00010272,-12.543,-0.00031465,-3148.5,0.81819
14546,10.726,1.2727,0.05,9.0421e-07,9.0359,6.9433e-07,5.2169,-1.6443e-12,4.7811e-06,-6.9432e-07,-5.2169,0.80631
14547,10.726,1.5455,0,0.00031652,3163,0.00010533,0.004634,0.00010297,-17.732,-0.00031682,-3171.8,0.80722
14548,10.818,1.4545,0,0.00031416,3139.4,0.00010443,0.0047738,0.0001024,-15.27,-0.00031442,-3147,0.81879
14549,10.726,1.4545,0.05,9.051e-07,9.0448,6.9501e-07,5.222,-3.4764e-12,4.809e-06,-6.95e-07,-5.2219,0.80691
14550,10.726,1.7273,0,0.00031627,3160.5,0.00010537,0.0044383,0.00010268,-20.219,-0.00031661,-3170.6,0.80773
14551,10.818,1.6364,0,0.0003139,3136.9,0.00010447,0.0045889,0.0001021,-17.775,-0.0003142,-3145.7,0.81932
14552,10.726,1.6364,0.05,9.0592e-07,9.053,6.9563e-07,5.2268,-1.648e-12,4.7894e-06,-6.9563e-07,-5.2267,0.80745
14553,10.726,1.9091,0,0.00031605,3158.3,0.00010541,0.0042472,0.00010242,-22.438,-0.00031643,-3169.5,0.80816
14554,10.818,1.8182,0,0.00031368,3134.6,0.0001045,0.0044088,0.00010184,-20.035,-0.00031401,-3144.6,0.81979
14555,10.726,1.8182,0.05,9.0666e-07,9.0604,6.9621e-07,5.231,-1.6652e-12,4.5845e-06,-6.9621e-07,-5.231,0.80793
14556,10.726,2.0909,0,0.00031586,3156.4,0.00010544,0.0040674,0.0001022,-24.364,-0.00031627,-3168.5,0.80853
14557,10.818,2,0,0.00031348,3132.6,0.00010454,0.004237,0.00010161,-22.023,-0.00031385,-3143.6,0.82019
14558,10.726,2,0.05,9.0732e-07,9.0669,6.9671e-07,5.2348,-1.6814e-12,4.6809e-06,-6.9671e-07,-5.2347,0.80833
14559,10.726,2.2727,0,0.0003157,3154.8,0.00010547,0.0039063,0.00010201,-25.973,-0.00031613,-3167.7,0.80884
14560,10.818,2.1818,0,0.00031331,3130.9,0.00010456,0.0040794,0.00010141,-23.718,-0.00031371,-3142.7,0.82053
14561,10.726,2.1818,0.05,9.0788e-07,9.0725,6.9714e-07,5.238,-7.8953e-13,4.9832e-06,-6.9714e-07,-5.238,0.80867
14562,10.726,2.4545,0,0.00031558,3153.6,0.00010549,0.0037727,0.00010186,-27.247,-0.00031603,-3167.1,0.80907
14563,10.818,2.3636,0,0.00031317,3129.5,0.00010459,0.0039432,0.00010125,-25.1,-0.00031359,-3142,0.8208
14564,10.726,2.3636,0.05,9.0833e-07,9.0771,6.9749e-07,5.2406,-8.0852e-13,4.5662e-06,-6.9749e-07,-5.2406,0.80894
14565,10.726,2.6364,0,0.00031548,3152.7,0.0001055,0.0036728,0.00010175,-28.169,-0.00031595,-3166.7,0.80924
14566,10.818,2.5455,0,0.00031307,3128.5,0.00010461,0.0038365,0.00010112,-26.153,-0.0003135,-3141.5,0.821
14567,10.726,2.5455,0.05,9.0868e-07,9.0805,6.9775e-07,5.2426,7.4513e-14,4.3723e-06,-6.9776e-07,-5.2426,0.80914
14568,10.726,2.8182,0,0.00031543,3152.1,0.00010551,0.0036104,0.00010169,-28.727,-0.00031591,-3166.4,0.80934
14569,10.818,2.7273,0,0.000313,3127.8,0.00010462,0.0037614,0.00010104,-26.862,-0.00031344,-3141.1,0.82113
14570,10.726,2.7273,0.05,9.0891e-07,9.0829,6.9793e-07,5.244,4.6038e-14,3.2081e-06,-6.9793e-07,-5.244,0.80927
14571,10.726,3,0,0.00031541,3151.9,0.00010552,0.0035885,0.00010167,-28.914,-0.00031589,-3166.3,0.80938
14572,10.818,2.9091,0,0.00031296,3127.5,0.00010462,0.003723,0.000101,-27.218,-0.00031342,-3141,0.8212
14573,10.726,2.9091,0.05,9.0903e-07,9.084,6.9802e-07,5.2447,9.2506e-13,3.6931e-06,-6.9802e-07,-5.2447,0.80934
14574,10.726,3.1818,0,0.00031543,3152.1,0.00010551,0.0036098,0.00010169,-28.727,-0.00031591,-3166.4,0.80934
14575,10.818,3.0909,0,0.00031296,3127.5,0.00010462,0.0037223,0.000101,-27.218,-0.00031342,-3141,0.8212
14576,10.726,3.0909,0.05,9.0903e-07,9.084,6.9802e-07,5.2446,8.9386e-13,2.7434e-06,-6.9802e-07,-5.2447,0.80934
14577,10.726,3.3636,0,0.00031548,3152.7,0.0001055,0.0036728,0.00010175,-28.169,-0.00031595,-3166.7,0.80924
14578,10.818,3.2727,0,0.000313,3127.8,0.00010462,0.0037613,0.00010104,-26.862,-0.00031344,-3141.1,0.82113
14579,10.726,3.2727,0.05,9.0891e-07,9.0829,6.9793e-07,5.244,8.6381e-13,2.9906e-06,-6.9793e-07,-5.244,0.80927
14580,10.726,3.5455,0,0.00031558,3153.6,0.00010549,0.0037729,0.00010186,-27.247,-0.00031603,-3167.1,0.80907
14581,10.818,3.4545,0,0.00031307,3128.5,0.00010461,0.0038365,0.00010112,-26.153,-0.0003135,-3141.5,0.821
14582,10.726,3.4545,0.05,9.0868e-07,9.0805,6.9776e-07,5.2426,-7.4515e-14,3.0135e-06,-6.9775e-07,-5.2427,0.80914
14583,10.726,3.7273,0,0.0003157,3154.8,0.00010547,0.0039061,0.00010201,-25.973,-0.00031613,-3167.7,0.80884
14584,10.818,3.6364,0,0.00031317,3129.5,0.00010459,0.0039429,0.00010125,-25.1,-0.00031359,-3142,0.8208
14585,10.726,3.6364,0.05,9.0833e-07,9.0771,6.9749e-07,5.2406,3.5345e-12,3.0687e-06,-6.9749e-07,-5.2407,0.80894
14586,10.726,3.9091,0,0.00031586,3156.4,0.00010544,0.0040668,0.0001022,-24.364,-0.00031627,-3168.5,0.80853
14587,10.818,3.8182,0,0.00031331,3130.9,0.00010456,0.0040789,0.00010141,-23.718,-0.00031371,-3142.7,0.82053
14588,10.726,3.8182,0.05,9.0788e-07,9.0725,6.9714e-07,5.238,3.5154e-12,2.8814e-06,-6.9714e-07,-5.238,0.80867
14589,10.726,4.0909,0,0.00031605,3158.3,0.00010541,0.0042466,0.00010242,-22.438,-0.00031643,-3169.5,0.80816
14590,10.818,4,0,0.00031348,3132.6,0.00010454,0.0042365,0.00010161,-22.023,-0.00031385,-3143.6,0.82019
14591,10.726,4,0.05,9.0732e-07,9.0669,6.9671e-07,5.2347,2.5883e-12,2.4728e-06,-6.9671e-07,-5.2349,0.80833
14592,10.726,4.2727,0,0.00031627,3160.5,0.00010537,0.0044378,0.00010268,-20.219,-0.00031661,-3170.6,0.80773
14593,10.818,4.1818,0,0.00031368,3134.6,0.0001045,0.004408,0.00010184,-20.035,-0.00031401,-3144.6,0.81979
14594,10.726,4.1818,0.05,9.0666e-07,9.0604,6.962e-07,5.231,3.4828e-12,1.5867e-06,-6.9621e-07,-5.2311,0.80793
14595,10.726,4.4545,0,0.00031652,3163,0.00010533,0.0046334,0.00010297,-17.732,-0.00031682,-3171.8,0.80722
14596,10.818,4.3636,0,0.0003139,3136.9,0.00010447,0.0045886,0.0001021,-17.775,-0.0003142,-3145.7,0.81932
14597,10.726,4.3636,0.05,9.0592e-07,9.053,6.9563e-07,5.2267,3.4722e-12,2.3001e-06,-6.9564e-07,-5.2268,0.80745
14598,10.726,4.6364,0,0.00031679,3165.8,0.00010528,0.0048237,0.00010329,-15.003,-0.00031705,-3173.2,0.80665
14599,10.818,4.5455,0,0.00031416,3139.4,0.00010443,0.0047731,0.0001024,-15.27,-0.00031442,-3147,0.81879
14600,10.726,4.5455,0.05,9.051e-07,9.0448,6.95e-07,5.2219,3.4649e-12,1.4129e-06,-6.9501e-07,-5.2221,0.80691
14601,10.726,4.8182,0,0.00031709,3168.7,0.00010524,0.005014,0.00010363,-12.059,-0.0003173,-3174.7,0.80601
14602,10.818,4.7273,0,0.00031444,3142.2,0.00010439,0.0049524,0.00010272,-12.543,-0.00031465,-3148.5,0.81819
14603,10.726,4.7273,0.05,9.0421e-07,9.0359,6.9432e-07,5.2168,4.3809e-12,1.9974e-06,-6.9433e-07,-5.2169,0.80631
14604,10.726,5,0,0.00031741,3171.9,0.00010519,0.0051675,0.000104,-8.9283,-0.00031756,-3176.4,0.8053
14605,10.818,4.9091,0,0.00031474,3145.2,0.00010434,0.0051549,0.00010306,-9.6209,-0.0003149,-3150,0.81751
14606,10.726,4.9091,0.05,9.0328e-07,9.0265,6.936e-07,5.2114,6.2054e-12,1.6968e-06,-6.9361e-07,-5.2115,0.80563
14607,10.726,5.1818,0,0.00031775,3175.3,0.00010514,0.0054766,0.00010439,-5.6366,-0.00031785,-3178.1,0.80452
14608,10.818,5.0909,0,0.00031506,3148.4,0.00010429,0.0053121,0.00010342,-6.529,-0.00031517,-3151.7,0.81678
14609,10.726,5.0909,0.05,9.0228e-07,9.0166,6.9283e-07,5.2057,5.3205e-12,1.4204e-06,-6.9285e-07,-5.2058,0.80489
14610,10.726,5.3636,0,0.00031811,3178.9,0.00010509,0.0054511,0.00010479,-2.2078,-0.00031815,-3180,0.80367
14611,10.818,5.2727,0,0.0003154,3151.8,0.00010424,0.0060018,0.00010381,-3.292,-0.00031545,-3153.4,0.81597
14612,10.726,5.2727,0.05,9.0106e-07,9.0044,6.919e-07,5.1986,4.3745e-12,2.0791e-06,-6.9191e-07,-5.1988,0.80407
14613,10.726,5.5455,0,0.00031849,3182.7,0.00010521,1.3717,0.00010503,0.0066421,-0.00031846,-3182,0.80276
14614,10.818,5.4545,0,0.00031575,3155.4,0.00010421,0.095554,0.00010419,-0.019843,-0.00031575,-3155.3,0.81509
14615,10.726,5.4545,0.05,8.9676e-07,8.9614,6.8859e-07,5.1738,6.2536e-12,2.1092e-06,-6.8861e-07,-5.174,0.80319
14616,10.726,5.7273,0,0.00031897,3187.5,0.00010573,5.6292,0.00010498,-0.00050214,-0.00031887,-3184.6,0.80177
14617,10.818,5.6364,0,0.00031613,3159.2,0.00010463,3.6081,0.00010415,0.0094995,-0.00031607,-3157.3,0.81415
14618,10.726,5.6364,0.05,8.4538e-07,8.448,6.4914e-07,4.8774,6.2946e-12,3.1014e-06,-6.4915e-07,-4.8775,0.80224
14619,10.818,5.8182,0,0.0003167,3164.8,0.00010521,8.4032,0.00010409,-0.01029,-0.00031656,-3160.6,0.81314
14620,10.726,5.8182,0.05,7.8194e-08,0.7814,6.0041e-08,0.45108,1.6118e-12,-3.1327e-05,-6.0046e-08,-0.4512,0.80122
14621,10.726,5.9091,0,0.00031885,3186.3,0.00010571,5.8189,0.00010493,-0.0017787,-0.00031875,-3183.4,0.80072
14622,10.91,0.27273,0,0.00031386,3136.4,0.0001041,6.2965,0.00010326,-0.00013793,-0.00031375,-3133.3,0.82559
14623,11.002,0.18182,0,0.0003116,3113.9,0.00010358,8.945,0.00010238,-0.0087989,-0.00031145,-3109.4,0.83707
14624,10.91,0.18182,0.05,6.8102e-08,0.68055,5.2299e-08,0.39298,1.0239e-13,3.4302e-05,-5.2289e-08,-0.39286,0.82505
14625,10.91,0.090909,0,0.00031371,3134.9,0.00010404,6.1534,0.00010322,-0.0014372,-0.00031361,-3131.9,0.82455
14626,10.91,0.45455,0,0.0003134,3131.8,0.00010361,2.2862,0.00010331,0.0055329,-0.00031336,-3130.7,0.82656
14627,11.002,0.36364,0,0.00031105,3108.3,0.00010301,4.3731,0.00010243,0.0081347,-0.00031097,-3106.1,0.83807
14628,10.91,0.36364,0.05,8.4072e-07,8.4014,6.4558e-07,4.8507,-5.3817e-12,2.8701e-06,-6.4557e-07,-4.8505,0.82605
14629,10.91,0.63636,0,0.00031304,3128.2,0.00010335,0.007982,0.00010322,-1.0359,-0.00031306,-3128.7,0.82746
14630,11.002,0.54545,0,0.00031068,3104.7,0.00010262,1.0921,0.00010247,-0.00021862,-0.00031066,-3104.1,0.839
14631,10.91,0.54545,0.05,8.9233e-07,8.9171,6.852e-07,5.1484,-6.2794e-12,3.5848e-06,-6.8519e-07,-5.1483,0.82699
14632,10.91,0.81818,0,0.0003127,3124.9,0.0001034,0.0058562,0.00010284,-4.2037,-0.00031277,-3127,0.8283
14633,11.002,0.72727,0,0.00031035,3101.3,0.00010252,0.0073885,0.00010224,-2.0263,-0.00031038,-3102.3,0.83986
14634,10.91,0.72727,0.05,8.9655e-07,8.9593,6.8844e-07,5.1728,-4.4214e-12,3.4337e-06,-6.8844e-07,-5.1726,0.82786
14635,10.91,1,0,0.00031238,3121.7,0.00010344,0.005336,0.00010248,-7.2404,-0.0003125,-3125.3,0.82906
14636,11.002,0.90909,0,0.00031003,3098.1,0.00010256,0.0057132,0.00010189,-5.0147,-0.00031011,-3100.6,0.84066
14637,10.91,0.90909,0.05,8.9766e-07,8.9704,6.893e-07,5.1791,-3.5043e-12,4.2474e-06,-6.8929e-07,-5.179,0.82866
14638,10.91,1.1818,0,0.00031208,3118.6,0.00010349,0.0051188,0.00010214,-10.123,-0.00031225,-3123.7,0.82976
14639,11.002,1.0909,0,0.00030972,3095.1,0.0001026,0.0053511,0.00010155,-7.8644,-0.00030986,-3099,0.84139
14640,10.91,1.0909,0.05,8.9854e-07,8.9792,6.8997e-07,5.1842,-1.6765e-12,4.2707e-06,-6.8996e-07,-5.1841,0.8294
14641,10.91,1.3636,0,0.0003118,3115.8,0.00010353,0.0049198,0.00010182,-12.828,-0.00031202,-3122.2,0.8304
14642,11.002,1.2727,0,0.00030944,3092.3,0.00010264,0.0050901,0.00010123,-10.553,-0.00030962,-3097.5,0.84205
14643,10.91,1.2727,0.05,8.9937e-07,8.9875,6.906e-07,5.189,-3.4865e-12,4.2494e-06,-6.906e-07,-5.1889,0.83006
14644,10.91,1.5455,0,0.00031154,3113.3,0.00010357,0.0047411,0.00010153,-15.331,-0.0003118,-3120.9,0.83096
14645,11.002,1.4545,0,0.00030918,3089.7,0.00010268,0.0048975,0.00010094,-13.057,-0.0003094,-3096.2,0.84264
14646,10.91,1.4545,0.05,9.0014e-07,8.9952,6.912e-07,5.1934,-2.5807e-12,4.6262e-06,-6.9119e-07,-5.1933,0.83066
14647,10.91,1.7273,0,0.00031131,3110.9,0.0001036,0.004568,0.00010126,-17.608,-0.0003116,-3119.7,0.83146
14648,11.002,1.6364,0,0.00030894,3087.3,0.00010271,0.00472,0.00010067,-15.353,-0.0003092,-3094.9,0.84317
14649,10.91,1.6364,0.05,9.0085e-07,9.0023,6.9175e-07,5.1975,-2.584e-12,4.7192e-06,-6.9174e-07,-5.1975,0.83119
14650,10.91,1.9091,0,0.0003111,3108.9,0.00010364,0.0044044,0.00010102,-19.636,-0.00031143,-3118.6,0.83189
14651,11.002,1.8182,0,0.00030873,3085.1,0.00010274,0.0045578,0.00010042,-17.421,-0.00030902,-3093.8,0.84363
14652,10.91,1.8182,0.05,9.0149e-07,9.0087,6.9224e-07,5.2012,-7.668e-13,4.3254e-06,-6.9223e-07,-5.2012,0.83166
14653,10.91,2.0909,0,0.00031092,3107.1,0.00010366,0.0042527,0.00010082,-21.394,-0.00031128,-3117.7,0.83226
14654,11.002,2,0,0.00030854,3083.3,0.00010277,0.004408,0.00010021,-19.238,-0.00030886,-3092.9,0.84403
14655,10.91,2,0.05,9.0206e-07,9.0143,6.9267e-07,5.2044,-1.6951e-12,4.2677e-06,-6.9267e-07,-5.2044,0.83206
14656,10.91,2.2727,0,0.00031078,3105.6,0.00010369,0.0041185,0.00010064,-22.862,-0.00031116,-3117,0.83256
14657,11.002,2.1818,0,0.00030838,3081.7,0.00010279,0.0042735,0.00010003,-20.785,-0.00030873,-3092,0.84436
14658,10.91,2.1818,0.05,9.0254e-07,9.0191,6.9304e-07,5.2072,-8.0356e-13,4.1743e-06,-6.9304e-07,-5.2072,0.83239
14659,10.91,2.4545,0,0.00031066,3104.5,0.00010371,0.0040079,0.00010051,-24.022,-0.00031106,-3116.4,0.83279
14660,11.002,2.3636,0,0.00030826,3080.4,0.00010281,0.0041588,9.988e-05,-22.045,-0.00030862,-3091.4,0.84462
14661,10.91,2.3636,0.05,9.0293e-07,9.023,6.9334e-07,5.2095,-8.2217e-13,4.2326e-06,-6.9333e-07,-5.2094,0.83266
14662,10.91,2.6364,0,0.00031058,3103.6,0.00010372,0.0039253,0.00010041,-24.861,-0.00031099,-3116,0.83296
14663,11.002,2.5455,0,0.00030816,3079.5,0.00010283,0.0040698,9.9768e-05,-23.003,-0.00030854,-3090.9,0.84482
14664,10.91,2.5455,0.05,9.0322e-07,9.026,6.9356e-07,5.2112,6.5774e-14,4.0685e-06,-6.9357e-07,-5.2112,0.83285
14665,10.91,2.8182,0,0.00031052,3103.1,0.00010373,0.0038738,0.00010035,-25.368,-0.00031095,-3115.7,0.83306
14666,11.002,2.7273,0,0.00030809,3078.8,0.00010284,0.0040071,9.9692e-05,-23.649,-0.00030849,-3090.6,0.84495
14667,10.91,2.7273,0.05,9.0342e-07,9.028,6.9372e-07,5.2123,4.0273e-14,3.1659e-06,-6.9372e-07,-5.2123,0.83299
14668,10.91,3,0,0.00031051,3102.9,0.00010373,0.0038563,0.00010033,-25.538,-0.00031093,-3115.6,0.83309
14669,11.002,2.9091,0,0.00030806,3078.5,0.00010285,0.0039752,9.9654e-05,-23.973,-0.00030846,-3090.4,0.84502
14670,10.91,2.9091,0.05,9.0352e-07,9.029,6.9379e-07,5.2129,9.2317e-13,3.202e-06,-6.9379e-07,-5.2129,0.83305
14671,10.91,3.1818,0,0.00031052,3103.1,0.00010373,0.0038735,0.00010035,-25.368,-0.00031095,-3115.7,0.83306
14672,11.002,3.0909,0,0.00030806,3078.5,0.00010285,0.0039749,9.9654e-05,-23.973,-0.00030846,-3090.4,0.84502
14673,10.91,3.0909,0.05,9.0352e-07,9.029,6.9379e-07,5.2129,8.9576e-13,2.9961e-06,-6.938e-07,-5.2129,0.83305
14674,10.91,3.3636,0,0.00031058,3103.6,0.00010372,0.0039252,0.00010041,-24.861,-0.00031099,-3116,0.83296
14675,11.002,3.2727,0,0.00030809,3078.8,0.00010284,0.0040068,9.9692e-05,-23.649,-0.00030849,-3090.6,0.84495
14676,10.91,3.2727,0.05,9.0342e-07,9.028,6.9372e-07,5.2123,8.6919e-13,3.0292e-06,-6.9372e-07,-5.2124,0.83299
14677,10.91,3.5455,0,0.00031066,3104.5,0.00010371,0.0040075,0.00010051,-24.022,-0.00031106,-3116.4,0.83279
14678,11.002,3.4545,0,0.00030816,3079.5,0.00010283,0.0040695,9.9768e-05,-23.003,-0.00030854,-3090.9,0.84482
14679,10.91,3.4545,0.05,9.0322e-07,9.026,6.9357e-07,5.2112,8.4421e-13,2.5966e-06,-6.9356e-07,-5.2112,0.83285
14680,10.91,3.7273,0,0.00031078,3105.6,0.00010369,0.0041178,0.00010064,-22.862,-0.00031116,-3117,0.83256
14681,11.002,3.6364,0,0.00030826,3080.4,0.00010281,0.0041581,9.988e-05,-22.045,-0.00030862,-3091.4,0.84462
14682,10.91,3.6364,0.05,9.0293e-07,9.023,6.9333e-07,5.2094,2.6417e-12,2.9062e-06,-6.9334e-07,-5.2095,0.83266
14683,10.91,3.9091,0,0.00031092,3107.1,0.00010366,0.0042523,0.00010082,-21.394,-0.00031128,-3117.7,0.83226
14684,11.002,3.8182,0,0.00030838,3081.7,0.00010279,0.0042731,0.00010003,-20.785,-0.00030873,-3092,0.84436
14685,10.91,3.8182,0.05,9.0254e-07,9.0191,6.9303e-07,5.2072,1.7096e-12,2.779e-06,-6.9304e-07,-5.2073,0.83239
14686,10.91,4.0909,0,0.0003111,3108.9,0.00010364,0.0044038,0.00010102,-19.636,-0.00031143,-3118.6,0.83189
14687,11.002,4,0,0.00030854,3083.3,0.00010277,0.0044077,0.00010021,-19.238,-0.00030886,-3092.9,0.84403
14688,10.91,4,0.05,9.0206e-07,9.0143,6.9266e-07,5.2044,1.6877e-12,2.1934e-06,-6.9267e-07,-5.2044,0.83206
14689,10.91,4.2727,0,0.00031131,3110.9,0.0001036,0.0045675,0.00010126,-17.608,-0.0003116,-3119.7,0.83146
14690,11.002,4.1818,0,0.00030873,3085.1,0.00010274,0.0045569,0.00010042,-17.421,-0.00030902,-3093.8,0.84363
14691,10.91,4.1818,0.05,9.0149e-07,9.0087,6.9223e-07,5.2011,3.4971e-12,1.8519e-06,-6.9224e-07,-5.2012,0.83166
14692,10.91,4.4545,0,0.00031154,3113.3,0.00010357,0.0047408,0.00010153,-15.331,-0.0003118,-3120.9,0.83096
14693,11.002,4.3636,0,0.00030894,3087.3,0.00010271,0.0047194,0.00010067,-15.353,-0.0003092,-3094.9,0.84317
14694,10.91,4.3636,0.05,9.0085e-07,9.0023,6.9174e-07,5.1974,3.4867e-12,2.384e-06,-6.9174e-07,-5.1975,0.83119
14695,10.91,4.6364,0,0.0003118,3115.8,0.00010353,0.0049195,0.00010182,-12.828,-0.00031202,-3122.2,0.8304
14696,11.002,4.5455,0,0.00030918,3089.7,0.00010268,0.0048968,0.00010094,-13.056,-0.0003094,-3096.2,0.84264
14697,10.91,4.5455,0.05,9.0014e-07,8.9952,6.9119e-07,5.1933,3.4899e-12,1.5155e-06,-6.912e-07,-5.1934,0.83066
14698,10.91,4.8182,0,0.00031208,3118.6,0.00010349,0.0051186,0.00010214,-10.123,-0.00031225,-3123.7,0.82976
14699,11.002,4.7273,0,0.00030944,3092.3,0.00010264,0.0050898,0.00010123,-10.553,-0.00030962,-3097.5,0.84205
14700,10.91,4.7273,0.05,8.9937e-07,8.9875,6.906e-07,5.1888,4.3987e-12,2.123e-06,-6.9061e-07,-5.189,0.83006
14701,10.91,5,0,0.00031238,3121.7,0.00010344,0.0053344,0.00010248,-7.2404,-0.0003125,-3125.3,0.82906
14702,11.002,4.9091,0,0.00030972,3095.1,0.0001026,0.0053502,0.00010155,-7.8644,-0.00030986,-3099,0.84139
14703,10.91,4.9091,0.05,8.9854e-07,8.9792,6.8996e-07,5.1841,4.4095e-12,1.7384e-06,-6.8997e-07,-5.1842,0.8294
14704,10.91,5.1818,0,0.0003127,3124.9,0.0001034,0.0058547,0.00010284,-4.2037,-0.00031277,-3127,0.8283
14705,11.002,5.0909,0,0.00031003,3098.1,0.00010256,0.0057105,0.00010189,-5.0147,-0.00031011,-3100.6,0.84066
14706,10.91,5.0909,0.05,8.9766e-07,8.9704,6.8929e-07,5.179,5.3587e-12,1.149e-06,-6.893e-07,-5.1792,0.82866
14707,10.91,5.3636,0,0.00031304,3128.2,0.00010335,0.0079816,0.00010322,-1.0359,-0.00031306,-3128.7,0.82746
14708,11.002,5.2727,0,0.00031035,3101.3,0.00010252,0.0073877,0.00010224,-2.0263,-0.00031038,-3102.3,0.83986
14709,10.91,5.2727,0.05,8.9655e-07,8.9593,6.8844e-07,5.1726,3.5355e-12,1.8892e-06,-6.8845e-07,-5.1728,0.82786
14710,10.91,5.5455,0,0.0003134,3131.8,0.00010361,2.2862,0.00010331,0.0055329,-0.00031336,-3130.7,0.82656
14711,11.002,5.4545,0,0.00031068,3104.7,0.00010262,1.0921,0.00010247,-0.0002188,-0.00031066,-3104.1,0.839
14712,10.91,5.4545,0.05,8.9233e-07,8.9171,6.852e-07,5.1482,5.371e-12,1.9216e-06,-6.852e-07,-5.1484,0.82699
14713,10.91,5.7273,0,0.00031386,3136.4,0.0001041,6.2965,0.00010326,-0.00013818,-0.00031375,-3133.3,0.82559
14714,11.002,5.6364,0,0.00031105,3108.3,0.00010301,4.3731,0.00010243,0.0081344,-0.00031097,-3106.1,0.83807
14715,10.91,5.6364,0.05,8.4072e-07,8.4014,6.4556e-07,4.8505,6.3133e-12,2.9758e-06,-6.4558e-07,-4.8507,0.82605
14716,11.002,5.8182,0,0.0003116,3113.9,0.00010358,8.945,0.00010238,-0.0087995,-0.00031145,-3109.4,0.83707
14717,10.91,5.8182,0.05,6.8102e-08,0.68055,5.2289e-08,0.39284,-2.857e-13,-3.5394e-05,-5.2299e-08,-0.39299,0.82505
14718,10.91,5.9091,0,0.00031371,3134.9,0.00010404,6.1534,0.00010322,-0.0014387,-0.00031361,-3131.9,0.82455
14719,11.094,0.27273,0,0.00030877,3085.6,0.00010247,6.9339,0.00010155,-5.9041e-05,-0.00030865,-3082.1,0.84962
14720,11.187,0.18182,0,0.00030652,3063.1,0.00010194,9.4655,0.00010068,-0.0075869,-0.00030636,-3058.3,0.86121
14721,11.094,0.18182,0.05,5.8697e-08,0.58657,4.5076e-08,0.33871,-5.6559e-13,3.3905e-05,-4.5069e-08,-0.33859,0.84909
14722,11.094,0.090909,0,0.00030859,3083.8,0.00010238,6.4757,0.00010152,-0.0012439,-0.00030848,-3080.6,0.8486
14723,11.094,0.45455,0,0.00030833,3081.2,0.00010201,3.1533,0.00010159,0.0044844,-0.00030827,-3079.6,0.85058
14724,11.187,0.36364,0,0.00030598,3057.7,0.0001014,5.1004,0.00010072,0.006781,-0.00030589,-3055.1,0.8622
14725,11.094,0.36364,0.05,8.3613e-07,8.3556,6.4205e-07,4.8242,-5.3937e-12,3.6446e-06,-6.4204e-07,-4.824,0.85008
14726,11.094,0.63636,0,0.00030799,3077.8,0.00010165,0.12685,0.00010163,-0.046315,-0.00030799,-3077.7,0.85147
14727,11.187,0.54545,0,0.00030563,3054.2,0.00010103,2.0526,0.00010076,0.00015347,-0.0003056,-3053.2,0.86311
14728,11.094,0.54545,0.05,8.8793e-07,8.8732,6.8183e-07,5.123,-3.5665e-12,4.2318e-06,-6.8182e-07,-5.1229,0.851
14729,11.094,0.81818,0,0.00030767,3074.6,0.00010167,0.0069562,0.00010129,-2.8567,-0.00030772,-3076,0.85229
14730,11.187,0.72727,0,0.00030531,3051,0.0001008,0.013883,0.00010068,-0.83936,-0.00030533,-3051.4,0.86396
14731,11.094,0.72727,0.05,8.9209e-07,8.9147,6.8502e-07,5.147,-4.452e-12,4.0048e-06,-6.8501e-07,-5.1469,0.85186
14732,11.094,1,0,0.00030737,3071.5,0.00010171,0.0057473,0.00010096,-5.658,-0.00030746,-3074.4,0.85305
14733,11.187,0.90909,0,0.00030501,3048,0.00010083,0.0066677,0.00010035,-3.5936,-0.00030507,-3049.8,0.86475
14734,11.094,0.90909,0.05,8.9311e-07,8.9249,6.858e-07,5.1529,-3.5152e-12,3.5117e-06,-6.8579e-07,-5.1527,0.85265
14735,11.094,1.1818,0,0.00030708,3068.7,0.00010175,0.0053485,0.00010064,-8.3128,-0.00030722,-3072.8,0.85374
14736,11.187,1.0909,0,0.00030472,3045.1,0.00010087,0.005772,0.00010004,-6.2203,-0.00030483,-3048.2,0.86547
14737,11.094,1.0909,0.05,8.9389e-07,8.9327,6.864e-07,5.1574,-2.6099e-12,3.7754e-06,-6.8639e-07,-5.1573,0.85337
14738,11.094,1.3636,0,0.00030682,3066.1,0.00010178,0.0050881,0.00010035,-10.8,-0.000307,-3071.4,0.85436
14739,11.187,1.2727,0,0.00030446,3042.5,0.0001009,0.0053517,9.9744e-05,-8.6943,-0.00030461,-3046.8,0.86612
14740,11.094,1.2727,0.05,8.9462e-07,8.94,6.8696e-07,5.1616,-1.695e-12,3.8572e-06,-6.8695e-07,-5.1615,0.85403
14741,11.094,1.5455,0,0.00030658,3063.6,0.00010182,0.004891,0.00010007,-13.097,-0.0003068,-3070.2,0.85492
14742,11.187,1.4545,0,0.00030421,3040,0.00010093,0.0050971,9.9471e-05,-10.995,-0.0003044,-3045.5,0.86671
14743,11.094,1.4545,0.05,8.953e-07,8.9468,6.8748e-07,5.1655,-2.5957e-12,3.97e-06,-6.8748e-07,-5.1654,0.85462
14744,11.094,1.7273,0,0.00030636,3061.5,0.00010185,0.0047202,9.9828e-05,-15.184,-0.00030661,-3069,0.85541
14745,11.187,1.6364,0,0.00030399,3037.8,0.00010096,0.0048984,9.922e-05,-13.102,-0.00030421,-3044.3,0.86723
14746,11.094,1.6364,0.05,8.9592e-07,8.953,6.8796e-07,5.1691,-3.5058e-12,4.3939e-06,-6.8795e-07,-5.169,0.85515
14747,11.094,1.9091,0,0.00030616,3059.5,0.00010188,0.0045687,9.9609e-05,-17.04,-0.00030645,-3068,0.85584
14748,11.187,1.8182,0,0.00030379,3035.8,0.00010099,0.0047349,9.8996e-05,-14.995,-0.00030404,-3043.3,0.86768
14749,11.094,1.8182,0.05,8.9648e-07,8.9586,6.8839e-07,5.1723,-7.9081e-13,3.8766e-06,-6.8838e-07,-5.1722,0.8556
14750,11.094,2.0909,0,0.000306,3057.9,0.0001019,0.0044337,9.942e-05,-18.646,-0.00030631,-3067.1,0.8562
14751,11.187,2,0,0.00030361,3034,0.00010102,0.0045931,9.8799e-05,-16.658,-0.00030389,-3042.3,0.86807
14752,11.094,2,0.05,8.9697e-07,8.9635,6.8877e-07,5.1751,-1.7061e-12,4.1391e-06,-6.8876e-07,-5.1751,0.856
14753,11.094,2.2727,0,0.00030586,3056.5,0.00010192,0.0043169,9.9262e-05,-19.985,-0.00030619,-3066.4,0.85649
14754,11.187,2.1818,0,0.00030347,3032.6,0.00010104,0.0044711,9.8632e-05,-18.071,-0.00030377,-3041.6,0.8684
14755,11.094,2.1818,0.05,8.9739e-07,8.9677,6.8908e-07,5.1775,-8.1447e-13,3.8114e-06,-6.8908e-07,-5.1775,0.85633
14756,11.094,2.4545,0,0.00030575,3055.4,0.00010194,0.0042224,9.9137e-05,-21.043,-0.0003061,-3065.9,0.85672
14757,11.187,2.3636,0,0.00030335,3031.4,0.00010106,0.00437,9.8496e-05,-19.221,-0.00030367,-3040.9,0.86866
14758,11.094,2.3636,0.05,8.9772e-07,8.9711,6.8934e-07,5.1794,-8.3195e-13,3.6957e-06,-6.8934e-07,-5.1794,0.85659
14759,11.094,2.6364,0,0.00030567,3054.6,0.00010195,0.0041525,9.9047e-05,-21.808,-0.00030604,-3065.5,0.85688
14760,11.187,2.5455,0,0.00030325,3030.5,0.00010107,0.0042927,9.8393e-05,-20.095,-0.00030359,-3040.5,0.86885
14761,11.094,2.5455,0.05,8.9798e-07,8.9736,6.8954e-07,5.1809,5.8914e-14,3.5327e-06,-6.8954e-07,-5.1809,0.85678
14762,11.094,2.8182,0,0.00030562,3054.1,0.00010196,0.0041089,9.8993e-05,-22.27,-0.000306,-3065.2,0.85698
14763,11.187,2.7273,0,0.00030319,3029.8,0.00010108,0.0042393,9.8324e-05,-20.684,-0.00030354,-3040.1,0.86898
14764,11.094,2.7273,0.05,8.9815e-07,8.9753,6.8967e-07,5.1819,3.6061e-14,3.1292e-06,-6.8967e-07,-5.1819,0.85691
14765,11.094,3,0,0.00030561,3054,0.00010196,0.0040941,9.8975e-05,-22.425,-0.00030598,-3065.1,0.85702
14766,11.187,2.9091,0,0.00030316,3029.5,0.00010108,0.0042111,9.8289e-05,-20.979,-0.00030351,-3040,0.86905
14767,11.094,2.9091,0.05,8.9824e-07,8.9762,6.8973e-07,5.1824,9.2165e-13,3.1905e-06,-6.8974e-07,-5.1824,0.85698
14768,11.094,3.1818,0,0.00030562,3054.1,0.00010196,0.0041086,9.8993e-05,-22.27,-0.000306,-3065.2,0.85698
14769,11.187,3.0909,0,0.00030316,3029.5,0.00010108,0.0042112,9.8289e-05,-20.979,-0.00030351,-3040,0.86905
14770,11.094,3.0909,0.05,8.9824e-07,8.9762,6.8973e-07,5.1824,8.9734e-13,2.7692e-06,-6.8974e-07,-5.1825,0.85698
14771,11.094,3.3636,0,0.00030567,3054.6,0.00010195,0.004152,9.9047e-05,-21.808,-0.00030604,-3065.5,0.85688
14772,11.187,3.2727,0,0.00030319,3029.8,0.00010108,0.004239,9.8324e-05,-20.684,-0.00030354,-3040.1,0.86898
14773,11.094,3.2727,0.05,8.9815e-07,8.9753,6.8967e-07,5.1819,8.7329e-13,2.5913e-06,-6.8967e-07,-5.1819,0.85691
14774,11.094,3.5455,0,0.00030575,3055.4,0.00010194,0.0042219,9.9137e-05,-21.043,-0.0003061,-3065.9,0.85672
14775,11.187,3.4545,0,0.00030325,3030.5,0.00010107,0.0042923,9.8393e-05,-20.095,-0.00030359,-3040.5,0.86885
14776,11.094,3.4545,0.05,8.9798e-07,8.9736,6.8954e-07,5.1809,1.7593e-12,2.4197e-06,-6.8954e-07,-5.181,0.85678
14777,11.094,3.7273,0,0.00030586,3056.5,0.00010192,0.0043165,9.9262e-05,-19.985,-0.00030619,-3066.4,0.85649
14778,11.187,3.6364,0,0.00030335,3031.4,0.00010106,0.0043698,9.8496e-05,-19.221,-0.00030367,-3040.9,0.86866
14779,11.094,3.6364,0.05,8.9772e-07,8.9711,6.8934e-07,5.1794,1.7393e-12,2.7644e-06,-6.8934e-07,-5.1794,0.85659
14780,11.094,3.9091,0,0.000306,3057.9,0.0001019,0.0044334,9.942e-05,-18.646,-0.00030631,-3067.1,0.8562
14781,11.187,3.8182,0,0.00030347,3032.6,0.00010104,0.0044709,9.8632e-05,-18.071,-0.00030377,-3041.6,0.8684
14782,11.094,3.8182,0.05,8.9739e-07,8.9677,6.8908e-07,5.1775,2.6312e-12,2.8551e-06,-6.8908e-07,-5.1775,0.85633
14783,11.094,4.0909,0,0.00030616,3059.5,0.00010188,0.0045682,9.9609e-05,-17.04,-0.00030645,-3068,0.85584
14784,11.187,4,0,0.00030361,3034,0.00010102,0.0045931,9.8799e-05,-16.658,-0.00030389,-3042.3,0.86807
14785,11.094,4,0.05,8.9697e-07,8.9635,6.8876e-07,5.1751,3.5245e-12,2.0541e-06,-6.8877e-07,-5.1751,0.856
14786,11.094,4.2727,0,0.00030636,3061.5,0.00010185,0.0047194,9.9828e-05,-15.184,-0.00030661,-3069,0.85541
14787,11.187,4.1818,0,0.00030379,3035.8,0.00010099,0.004734,9.8996e-05,-14.995,-0.00030404,-3043.3,0.86768
14788,11.094,4.1818,0.05,8.9648e-07,8.9586,6.8838e-07,5.1722,3.5212e-12,1.4446e-06,-6.8839e-07,-5.1723,0.8556
14789,11.094,4.4545,0,0.00030658,3063.6,0.00010182,0.0048902,0.00010007,-13.097,-0.0003068,-3070.2,0.85492
14790,11.187,4.3636,0,0.00030399,3037.8,0.00010096,0.0048979,9.922e-05,-13.102,-0.00030421,-3044.3,0.86723
14791,11.094,4.3636,0.05,8.9592e-07,8.953,6.8795e-07,5.169,3.5145e-12,2.3629e-06,-6.8796e-07,-5.1691,0.85515
14792,11.094,4.6364,0,0.00030682,3066.1,0.00010178,0.0050873,0.00010035,-10.8,-0.000307,-3071.4,0.85436
14793,11.187,4.5455,0,0.00030421,3040,0.00010093,0.0050964,9.9471e-05,-10.995,-0.0003044,-3045.5,0.86671
14794,11.094,4.5455,0.05,8.953e-07,8.9468,6.8747e-07,5.1654,3.4974e-12,1.3707e-06,-6.8748e-07,-5.1655,0.85462
14795,11.094,4.8182,0,0.00030708,3068.7,0.00010175,0.0053476,0.00010064,-8.3128,-0.00030722,-3072.8,0.85374
14796,11.187,4.7273,0,0.00030446,3042.5,0.0001009,0.0053508,9.9744e-05,-8.6942,-0.00030461,-3046.8,0.86612
14797,11.094,4.7273,0.05,8.9462e-07,8.94,6.8695e-07,5.1615,4.4276e-12,1.882e-06,-6.8696e-07,-5.1616,0.85403
14798,11.094,5,0,0.00030737,3071.5,0.00010171,0.0057453,0.00010096,-5.658,-0.00030746,-3074.4,0.85305
14799,11.187,4.9091,0,0.00030472,3045.1,0.00010087,0.0057714,0.00010004,-6.2203,-0.00030483,-3048.2,0.86547
14800,11.094,4.9091,0.05,8.9389e-07,8.9327,6.8639e-07,5.1573,4.428e-12,1.5847e-06,-6.864e-07,-5.1574,0.85337
14801,11.094,5.1818,0,0.00030767,3074.6,0.00010167,0.0069542,0.00010129,-2.8567,-0.00030772,-3076,0.85229
14802,11.187,5.0909,0,0.00030501,3048,0.00010083,0.0066657,0.00010035,-3.5936,-0.00030507,-3049.8,0.86475
14803,11.094,5.0909,0.05,8.9311e-07,8.9249,6.8579e-07,5.1527,3.5286e-12,7.7595e-07,-6.858e-07,-5.1529,0.85265
14804,11.094,5.3636,0,0.00030799,3077.8,0.00010165,0.12687,0.00010163,-0.046308,-0.00030799,-3077.7,0.85147
14805,11.187,5.2727,0,0.00030531,3051,0.0001008,0.013883,0.00010068,-0.83933,-0.00030533,-3051.4,0.86396
14806,11.094,5.2727,0.05,8.9209e-07,8.9147,6.8501e-07,5.1469,5.371e-12,1.6972e-06,-6.8502e-07,-5.147,0.85186
14807,11.094,5.5455,0,0.00030833,3081.2,0.00010201,3.1533,0.00010159,0.0044839,-0.00030827,-3079.6,0.85058
14808,11.187,5.4545,0,0.00030563,3054.2,0.00010103,2.0526,0.00010076,0.00015333,-0.0003056,-3053.2,0.86311
14809,11.094,5.4545,0.05,8.8793e-07,8.8732,6.8182e-07,5.1228,5.3839e-12,1.6081e-06,-6.8183e-07,-5.1231,0.851
14810,11.094,5.7273,0,0.00030877,3085.6,0.00010247,6.9339,0.00010155,-5.9727e-05,-0.00030865,-3082.1,0.84962
14811,11.187,5.6364,0,0.00030598,3057.7,0.0001014,5.1004,0.00010072,0.0067806,-0.00030589,-3055.1,0.8622
14812,11.094,5.6364,0.05,8.3613e-07,8.3556,6.4204e-07,4.824,5.3793e-12,2.0302e-06,-6.4205e-07,-4.8242,0.85008
14813,11.187,5.8182,0,0.00030652,3063.1,0.00010194,9.4655,0.00010068,-0.0075875,-0.00030636,-3058.3,0.86121
14814,11.094,5.8182,0.05,5.8697e-08,0.58657,4.5069e-08,0.33856,2.7253e-12,-4.9094e-05,-4.5075e-08,-0.33875,0.84909
14815,11.094,5.9091,0,0.00030859,3083.8,0.00010238,6.4757,0.00010152,-0.0012445,-0.00030848,-3080.6,0.8486
14816,11.279,0.27273,0,0.00030371,3035,0.00010085,7.5423,9.985e-05,-0.00014082,-0.00030358,-3031.2,0.87386
14817,11.371,0.18182,0,0.00030146,3012.5,0.00010031,9.9655,9.8987e-05,-0.006568,-0.00030129,-3007.5,0.88557
14818,11.279,0.18182,0.05,4.9949e-08,0.49915,3.8357e-08,0.28824,2.3735e-13,3.5548e-05,-3.8353e-08,-0.28813,0.87334
14819,11.279,0.090909,0,0.0003035,3032.9,0.00010072,6.7859,9.9819e-05,-0.0011437,-0.00030338,-3029.5,0.87285
14820,11.279,0.45455,0,0.00030328,3030.7,0.00010041,3.9746,9.9885e-05,0.0035168,-0.00030321,-3028.7,0.8748
14821,11.371,0.36364,0,0.00030093,3007.2,9.979e-05,5.7915,9.902e-05,0.005497,-0.00030083,-3004.3,0.88653
14822,11.279,0.36364,0.05,8.3161e-07,8.3103,6.3858e-07,4.7981,-4.4955e-12,3.2404e-06,-6.3857e-07,-4.7979,0.87431
14823,11.279,0.63636,0,0.00030295,3027.5,0.00010007,1.13,9.9919e-05,-0.0040909,-0.00030294,-3026.9,0.87568
14824,11.371,0.54545,0,0.0003006,3003.9,9.9446e-05,2.9608,9.9051e-05,1.1372e-05,-0.00030055,-3002.4,0.88744
14825,11.279,0.54545,0.05,8.8358e-07,8.8297,6.7848e-07,5.0979,-5.3979e-12,5.0269e-06,-6.7847e-07,-5.0977,0.87522
14826,11.279,0.81818,0,0.00030265,3024.4,9.9955e-05,0.010326,9.9742e-05,-1.5931,-0.00030268,-3025.2,0.87649
14827,11.371,0.72727,0,0.0003003,3000.9,9.9127e-05,0.32708,9.908e-05,-0.029177,-0.00030029,-3000.8,0.88827
14828,11.279,0.72727,0.05,8.8767e-07,8.8706,6.8162e-07,5.1215,-3.5593e-12,4.0956e-06,-6.8162e-07,-5.1214,0.87607
14829,11.279,1,0,0.00030237,3021.6,9.9988e-05,0.0066316,9.9432e-05,-4.1756,-0.00030244,-3023.7,0.87724
14830,11.371,0.90909,0,0.00030001,2998,9.9116e-05,0.0090404,9.8814e-05,-2.2616,-0.00030005,-2999.2,0.88905
14831,11.279,0.90909,0.05,8.8861e-07,8.88,6.8235e-07,5.1269,-2.6376e-12,3.7257e-06,-6.8234e-07,-5.1268,0.87684
14832,11.279,1.1818,0,0.0003021,3018.9,0.00010002,0.0057936,9.9139e-05,-6.6211,-0.00030221,-3022.2,0.87792
14833,11.371,1.0909,0,0.00029974,2995.3,9.9147e-05,0.0066081,9.8523e-05,-4.6822,-0.00029982,-2997.7,0.88975
14834,11.279,1.0909,0.05,8.8931e-07,8.887,6.8289e-07,5.131,-7.9981e-13,4.0081e-06,-6.8288e-07,-5.1308,0.87756
14835,11.279,1.3636,0,0.00030185,3016.4,0.00010005,0.0053815,9.8865e-05,-8.9083,-0.000302,-3020.9,0.87853
14836,11.371,1.2727,0,0.00029949,2992.8,9.9176e-05,0.0058203,9.8249e-05,-6.9595,-0.00029961,-2996.3,0.8904
14837,11.279,1.2727,0.05,8.8996e-07,8.8935,6.8338e-07,5.1347,-2.6085e-12,3.9541e-06,-6.8338e-07,-5.1346,0.87821
14838,11.279,1.5455,0,0.00030162,3014.1,0.00010008,0.0051209,9.8614e-05,-11.018,-0.00030181,-3019.6,0.87908
14839,11.371,1.4545,0,0.00029926,2990.5,9.9205e-05,0.0054236,9.7996e-05,-9.0742,-0.00029941,-2995,0.89098
14840,11.279,1.4545,0.05,8.9056e-07,8.8995,6.8385e-07,5.1382,-2.614e-12,4.138e-06,-6.8384e-07,-5.1381,0.87879
14841,11.279,1.7273,0,0.00030142,3012.1,0.00010011,0.0049251,9.8386e-05,-12.932,-0.00030163,-3018.5,0.87957
14842,11.371,1.6364,0,0.00029905,2988.4,9.9231e-05,0.0051625,9.7765e-05,-11.008,-0.00029923,-2993.9,0.89149
14843,11.279,1.6364,0.05,8.9111e-07,8.905,6.8427e-07,5.1413,-2.6108e-12,4.4466e-06,-6.8426e-07,-5.1412,0.87931
14844,11.279,1.9091,0,0.00030124,3010.3,0.00010013,0.0047678,9.8184e-05,-14.631,-0.00030148,-3017.6,0.87999
14845,11.371,1.8182,0,0.00029886,2986.5,9.9254e-05,0.004972,9.7558e-05,-12.744,-0.00029907,-2992.9,0.89194
14846,11.279,1.8182,0.05,8.916e-07,8.9099,6.8464e-07,5.1441,-7.9717e-13,3.8009e-06,-6.8464e-07,-5.1441,0.87976
14847,11.279,2.0909,0,0.00030108,3008.7,0.00010015,0.0046363,9.8009e-05,-16.101,-0.00030135,-3016.7,0.88034
14848,11.371,2,0,0.00029869,2984.9,9.9276e-05,0.0048211,9.7376e-05,-14.266,-0.00029894,-2992,0.89232
14849,11.279,2,0.05,8.9203e-07,8.9142,6.8498e-07,5.1466,-8.0854e-13,3.9688e-06,-6.8497e-07,-5.1466,0.88015
14850,11.279,2.2727,0,0.00030095,3007.4,0.00010017,0.0045279,9.7864e-05,-17.325,-0.00030124,-3016,0.88063
14851,11.371,2.1818,0,0.00029856,2983.5,9.9294e-05,0.0046997,9.7222e-05,-15.559,-0.00029882,-2991.2,0.89264
14852,11.279,2.1818,0.05,8.924e-07,8.9178,6.8525e-07,5.1487,8.7613e-14,4.3508e-06,-6.8525e-07,-5.1487,0.88047
14853,11.279,2.4545,0,0.00030085,3006.4,0.00010018,0.0044426,9.775e-05,-18.291,-0.00030115,-3015.5,0.88086
14854,11.371,2.3636,0,0.00029844,2982.4,9.9309e-05,0.0046025,9.7097e-05,-16.61,-0.00029872,-2990.6,0.8929
14855,11.279,2.3636,0.05,8.9269e-07,8.9208,6.8548e-07,5.1504,6.9834e-14,4.113e-06,-6.8548e-07,-5.1504,0.88073
14856,11.279,2.6364,0,0.00030077,3005.7,0.00010019,0.0043808,9.7667e-05,-18.988,-0.00030109,-3015.1,0.88102
14857,11.371,2.5455,0,0.00029836,2981.5,9.932e-05,0.004531,9.7002e-05,-17.408,-0.00029865,-2990.2,0.89309
14858,11.279,2.5455,0.05,8.9292e-07,8.923,6.8565e-07,5.1517,5.2538e-14,3.9769e-06,-6.8565e-07,-5.1517,0.88092
14859,11.279,2.8182,0,0.00030073,3005.2,0.0001002,0.0043421,9.7617e-05,-19.41,-0.00030106,-3014.9,0.88112
14860,11.371,2.7273,0,0.0002983,2981,9.9328e-05,0.0044822,9.6939e-05,-17.945,-0.0002986,-2989.9,0.89322
14861,11.279,2.7273,0.05,8.9307e-07,8.9245,6.8576e-07,5.1526,3.1876e-14,3.1053e-06,-6.8576e-07,-5.1526,0.88105
14862,11.279,3,0,0.00030072,3005.1,0.0001002,0.0043288,9.7601e-05,-19.551,-0.00030104,-3014.8,0.88115
14863,11.371,2.9091,0,0.00029827,2980.7,9.9331e-05,0.0044568,9.6907e-05,-18.215,-0.00029858,-2989.7,0.89328
14864,11.279,2.9091,0.05,8.9314e-07,8.9252,6.8582e-07,5.153,9.2044e-13,3.1817e-06,-6.8582e-07,-5.153,0.88111
14865,11.279,3.1818,0,0.00030073,3005.2,0.0001002,0.0043424,9.7617e-05,-19.41,-0.00030106,-3014.9,0.88112
14866,11.371,3.0909,0,0.00029827,2980.7,9.9331e-05,0.0044565,9.6907e-05,-18.215,-0.00029858,-2989.7,0.89328
14867,11.279,3.0909,0.05,8.9314e-07,8.9252,6.8582e-07,5.153,8.985e-13,2.5402e-06,-6.8582e-07,-5.153,0.88111
14868,11.279,3.3636,0,0.00030077,3005.7,0.00010019,0.0043806,9.7667e-05,-18.988,-0.00030109,-3015.1,0.88102
14869,11.371,3.2727,0,0.0002983,2981,9.9328e-05,0.0044821,9.6939e-05,-17.945,-0.0002986,-2989.9,0.89322
14870,11.279,3.2727,0.05,8.9307e-07,8.9245,6.8576e-07,5.1526,8.765e-13,3.0946e-06,-6.8576e-07,-5.1526,0.88105
14871,11.279,3.5455,0,0.00030085,3006.4,0.00010018,0.0044425,9.775e-05,-18.291,-0.00030115,-3015.5,0.88086
14872,11.371,3.4545,0,0.00029836,2981.5,9.932e-05,0.004531,9.7002e-05,-17.408,-0.00029865,-2990.2,0.89309
14873,11.279,3.4545,0.05,8.9292e-07,8.923,6.8565e-07,5.1517,2.6755e-12,2.7002e-06,-6.8565e-07,-5.1517,0.88092
14874,11.279,3.7273,0,0.00030095,3007.4,0.00010017,0.0045279,9.7864e-05,-17.325,-0.00030124,-3016,0.88063
14875,11.371,3.6364,0,0.00029844,2982.4,9.9309e-05,0.0046028,9.7097e-05,-16.61,-0.00029872,-2990.6,0.8929
14876,11.279,3.6364,0.05,8.9269e-07,8.9208,6.8547e-07,5.1504,1.7464e-12,3.0313e-06,-6.8548e-07,-5.1505,0.88073
14877,11.279,3.9091,0,0.00030108,3008.7,0.00010015,0.0046363,9.8009e-05,-16.101,-0.00030135,-3016.7,0.88034
14878,11.371,3.8182,0,0.00029856,2983.5,9.9294e-05,0.0046995,9.7222e-05,-15.559,-0.00029882,-2991.3,0.89264
14879,11.279,3.8182,0.05,8.924e-07,8.9178,6.8525e-07,5.1487,1.7303e-12,2.6885e-06,-6.8525e-07,-5.1488,0.88047
14880,11.279,4.0909,0,0.00030124,3010.3,0.00010013,0.0047674,9.8184e-05,-14.631,-0.00030148,-3017.6,0.87999
14881,11.371,4,0,0.00029869,2984.9,9.9276e-05,0.0048214,9.7376e-05,-14.266,-0.00029894,-2992,0.89232
14882,11.279,4,0.05,8.9203e-07,8.9142,6.8497e-07,5.1466,3.5344e-12,2.1092e-06,-6.8497e-07,-5.1466,0.88015
14883,11.279,4.2727,0,0.00030142,3012.1,0.00010011,0.0049245,9.8386e-05,-12.932,-0.00030163,-3018.5,0.87957
14884,11.371,4.1818,0,0.00029886,2986.5,9.9254e-05,0.0049713,9.7558e-05,-12.744,-0.00029907,-2992.9,0.89194
14885,11.279,4.1818,0.05,8.916e-07,8.9099,6.8464e-07,5.1441,2.6185e-12,1.7058e-06,-6.8464e-07,-5.1441,0.87976
14886,11.279,4.4545,0,0.00030162,3014.1,0.00010008,0.0051204,9.8614e-05,-11.018,-0.00030181,-3019.6,0.87908
14887,11.371,4.3636,0,0.00029905,2988.4,9.9231e-05,0.005162,9.7765e-05,-11.008,-0.00029923,-2993.9,0.89149
14888,11.279,4.3636,0.05,8.9111e-07,8.905,6.8426e-07,5.1412,3.5246e-12,2.3718e-06,-6.8427e-07,-5.1414,0.87931
14889,11.279,4.6364,0,0.00030185,3016.4,0.00010005,0.0053806,9.8865e-05,-8.9083,-0.000302,-3020.9,0.87853
14890,11.371,4.5455,0,0.00029926,2990.5,9.9205e-05,0.0054234,9.7996e-05,-9.0741,-0.00029941,-2995,0.89098
14891,11.279,4.5455,0.05,8.9056e-07,8.8995,6.8384e-07,5.1381,4.4321e-12,1.5812e-06,-6.8385e-07,-5.1382,0.87879
14892,11.279,4.8182,0,0.0003021,3018.9,0.00010002,0.0057929,9.9139e-05,-6.621,-0.00030221,-3022.2,0.87792
14893,11.371,4.7273,0,0.00029949,2992.8,9.9176e-05,0.0058195,9.8249e-05,-6.9595,-0.00029961,-2996.3,0.8904
14894,11.279,4.7273,0.05,8.8996e-07,8.8935,6.8338e-07,5.1346,5.3367e-12,1.8489e-06,-6.8339e-07,-5.1347,0.87821
14895,11.279,5,0,0.00030237,3021.6,9.9988e-05,0.006631,9.9432e-05,-4.1756,-0.00030244,-3023.7,0.87724
14896,11.371,4.9091,0,0.00029974,2995.3,9.9147e-05,0.0066074,9.8523e-05,-4.6821,-0.00029982,-2997.7,0.88975
14897,11.279,4.9091,0.05,8.8931e-07,8.887,6.8288e-07,5.1308,3.53e-12,2.1155e-06,-6.8289e-07,-5.131,0.87756
14898,11.279,5.1818,0,0.00030265,3024.4,9.9955e-05,0.010325,9.9742e-05,-1.5931,-0.00030268,-3025.2,0.87649
14899,11.371,5.0909,0,0.00030001,2998,9.9116e-05,0.0090394,9.8814e-05,-2.2615,-0.00030005,-2999.2,0.88905
14900,11.279,5.0909,0.05,8.8861e-07,8.88,6.8234e-07,5.1268,4.4647e-12,1.1077e-06,-6.8235e-07,-5.1269,0.87684
14901,11.279,5.3636,0,0.00030295,3027.5,0.00010007,1.1301,9.9919e-05,-0.0040912,-0.00030294,-3026.9,0.87568
14902,11.371,5.2727,0,0.0003003,3000.9,9.9127e-05,0.32711,9.908e-05,-0.029174,-0.00030029,-3000.8,0.88827
14903,11.279,5.2727,0.05,8.8767e-07,8.8706,6.8161e-07,5.1213,3.5518e-12,1.9591e-06,-6.8163e-07,-5.1215,0.87607
14904,11.279,5.5455,0,0.00030328,3030.7,0.00010041,3.9746,9.9885e-05,0.0035167,-0.00030321,-3028.7,0.8748
14905,11.371,5.4545,0,0.0003006,3003.9,9.9446e-05,2.9608,9.9051e-05,1.134e-05,-0.00030055,-3002.4,0.88744
14906,11.279,5.4545,0.05,8.8358e-07,8.8297,6.7847e-07,5.0977,5.3809e-12,1.9297e-06,-6.7848e-07,-5.0979,0.87522
14907,11.279,5.7273,0,0.00030371,3035,0.00010085,7.5423,9.985e-05,-0.00014129,-0.00030358,-3031.2,0.87386
14908,11.371,5.6364,0,0.00030093,3007.2,9.979e-05,5.7915,9.902e-05,0.0054966,-0.00030083,-3004.3,0.88653
14909,11.279,5.6364,0.05,8.3161e-07,8.3103,6.3857e-07,4.7979,4.4955e-12,2.5213e-06,-6.3858e-07,-4.7981,0.87431
14910,11.371,5.8182,0,0.00030146,3012.5,0.00010031,9.9655,9.8987e-05,-0.0065692,-0.00030129,-3007.5,0.88557
14911,11.279,5.8182,0.05,4.995e-08,0.49915,3.8354e-08,0.28811,6.3555e-13,-3.7263e-05,-3.8356e-08,-0.28826,0.87334
14912,11.279,5.9091,0,0.0003035,3032.9,0.00010072,6.7859,9.9819e-05,-0.0011439,-0.00030338,-3029.5,0.87285
14913,11.463,0.27273,0,0.00029866,2984.6,9.9238e-05,8.1232,9.8156e-05,-0.00029541,-0.00029853,-2980.5,0.89831
14914,11.555,0.18182,0,0.00029642,2962.1,9.8691e-05,10.446,9.73e-05,-0.0057178,-0.00029624,-2956.9,0.91012
14915,11.463,0.18182,0.05,4.1842e-08,0.41813,3.2131e-08,0.24146,-1.908e-13,4.0595e-05,-3.2128e-08,-0.24135,0.89779
14916,11.463,0.090909,0,0.00029843,2982.2,9.9073e-05,7.0848,9.813e-05,-0.0010852,-0.00029831,-2978.7,0.89731
14917,11.463,0.45455,0,0.00029825,2980.4,9.8818e-05,4.7525,9.8186e-05,0.0026514,-0.00029817,-2978,0.89923
14918,11.555,0.36364,0,0.0002959,2957,9.8185e-05,6.4479,9.7328e-05,0.0042752,-0.00029579,-2953.7,0.91107
14919,11.463,0.36364,0.05,8.2717e-07,8.266,6.3517e-07,4.7724,-4.4939e-12,3.6959e-06,-6.3516e-07,-4.7723,0.89875
14920,11.463,0.63636,0,0.00029794,2977.3,9.8497e-05,2.1135,9.8215e-05,-0.0019972,-0.0002979,-2976.3,0.9001
14921,11.555,0.54545,0,0.00029559,2953.8,9.7863e-05,3.8187,9.7355e-05,-0.00024409,-0.00029552,-2951.9,0.91196
14922,11.463,0.54545,0.05,8.7927e-07,8.7867,6.7518e-07,5.0731,-3.5567e-12,5.636e-06,-6.7517e-07,-5.0729,0.89965
14923,11.463,0.81818,0,0.00029765,2974.5,9.8249e-05,0.033116,9.8188e-05,-0.42557,-0.00029766,-2974.7,0.9009
14924,11.555,0.72727,0,0.0002953,2951,9.7563e-05,1.361,9.7381e-05,-0.0061578,-0.00029528,-2950.3,0.91279
14925,11.463,0.72727,0.05,8.8331e-07,8.827,6.7828e-07,5.0963,-3.5569e-12,5.7283e-06,-6.7827e-07,-5.0962,0.90048
14926,11.463,1,0,0.00029738,2971.8,9.8275e-05,0.0085923,9.7903e-05,-2.7879,-0.00029743,-2973.2,0.90163
14927,11.555,0.90909,0,0.00029503,2948.2,9.7411e-05,0.017477,9.7273e-05,-1.0183,-0.00029504,-2948.7,0.91355
14928,11.463,0.90909,0.05,8.8419e-07,8.8358,6.7895e-07,5.1014,-1.7298e-12,4.7959e-06,-6.7894e-07,-5.1013,0.90125
14929,11.463,1.1818,0,0.00029713,2969.2,9.8303e-05,0.0066216,9.7631e-05,-5.0404,-0.00029721,-2971.8,0.9023
14930,11.555,1.0909,0,0.00029477,2945.7,9.7436e-05,0.0082685,9.7003e-05,-3.2439,-0.00029483,-2947.3,0.91425
14931,11.463,1.0909,0.05,8.8482e-07,8.8421,6.7943e-07,5.105,-3.5458e-12,5.0359e-06,-6.7943e-07,-5.1049,0.90195
14932,11.463,1.3636,0,0.00029689,2966.9,9.8329e-05,0.0058796,9.7378e-05,-7.1448,-0.00029702,-2970.5,0.90291
14933,11.555,1.2727,0,0.00029453,2943.3,9.7461e-05,0.006601,9.675e-05,-5.3404,-0.00029462,-2946,0.91488
14934,11.463,1.2727,0.05,8.854e-07,8.8479,6.7988e-07,5.1084,-1.7236e-12,4.7121e-06,-6.7988e-07,-5.1083,0.90259
14935,11.463,1.5455,0,0.00029668,2964.7,9.8354e-05,0.0054822,9.7145e-05,-9.0834,-0.00029683,-2969.3,0.90345
14936,11.555,1.4545,0,0.00029432,2941.1,9.7485e-05,0.005908,9.6515e-05,-7.2849,-0.00029444,-2944.8,0.91545
14937,11.463,1.4545,0.05,8.8594e-07,8.8533,6.8029e-07,5.1115,-2.6236e-12,4.9648e-06,-6.8029e-07,-5.1114,0.90316
14938,11.463,1.7273,0,0.00029649,2962.8,9.8377e-05,0.0052224,9.6934e-05,-10.839,-0.00029667,-2968.2,0.90393
14939,11.555,1.6364,0,0.00029412,2939.1,9.7508e-05,0.0055172,9.6301e-05,-9.0611,-0.00029427,-2943.7,0.91595
14940,11.463,1.6364,0.05,8.8643e-07,8.8582,6.8067e-07,5.1143,-1.712e-12,4.9255e-06,-6.8066e-07,-5.1142,0.90367
14941,11.463,1.9091,0,0.00029632,2961.1,9.8398e-05,0.0050347,9.6748e-05,-12.397,-0.00029652,-2967.3,0.90434
14942,11.555,1.8182,0,0.00029394,2937.4,9.7528e-05,0.0052621,9.6109e-05,-10.654,-0.00029412,-2942.7,0.9164
14943,11.463,1.8182,0.05,8.8686e-07,8.8625,6.81e-07,5.1168,-8.1652e-13,4.6485e-06,-6.81e-07,-5.1168,0.90412
14944,11.463,2.0909,0,0.00029617,2959.7,9.8416e-05,0.0048909,9.6587e-05,-13.743,-0.0002964,-2966.5,0.90469
14945,11.555,2,0,0.00029379,2935.8,9.7546e-05,0.0050799,9.5942e-05,-12.048,-0.00029399,-2941.8,0.91678
14946,11.463,2,0.05,8.8724e-07,8.8663,6.8129e-07,5.119,-8.1765e-13,4.7321e-06,-6.8129e-07,-5.1189,0.9045
14947,11.463,2.2727,0,0.00029605,2958.4,9.8432e-05,0.0047784,9.6453e-05,-14.862,-0.0002963,-2965.8,0.90498
14948,11.555,2.1818,0,0.00029366,2934.5,9.7562e-05,0.0049429,9.58e-05,-13.232,-0.00029388,-2941.1,0.91709
14949,11.463,2.1818,0.05,8.8756e-07,8.8695,6.8154e-07,5.1208,-1.7422e-12,4.6415e-06,-6.8154e-07,-5.1208,0.90482
14950,11.463,2.4545,0,0.00029595,2957.5,9.8444e-05,0.0046933,9.6347e-05,-15.745,-0.00029622,-2965.3,0.9052
14951,11.555,2.3636,0,0.00029355,2933.5,9.7574e-05,0.0048394,9.5685e-05,-14.193,-0.00029379,-2940.5,0.91735
14952,11.463,2.3636,0.05,8.8782e-07,8.8721,6.8174e-07,5.1223,-8.4746e-13,4.2849e-06,-6.8174e-07,-5.1223,0.90507
14953,11.463,2.6364,0,0.00029588,2956.8,9.8452e-05,0.0046336,9.6271e-05,-16.382,-0.00029616,-2965,0.90536
14954,11.555,2.5455,0,0.00029347,2932.7,9.7584e-05,0.0047656,9.5597e-05,-14.923,-0.00029372,-2940.1,0.91754
14955,11.463,2.5455,0.05,8.8802e-07,8.8741,6.8189e-07,5.1234,4.6586e-14,4.4073e-06,-6.8189e-07,-5.1234,0.90526
14956,11.463,2.8182,0,0.00029584,2956.4,9.8458e-05,0.0045975,9.6226e-05,-16.768,-0.00029612,-2964.7,0.90546
14957,11.555,2.7273,0,0.00029342,2932.1,9.7591e-05,0.0047171,9.5539e-05,-15.413,-0.00029368,-2939.8,0.91766
14958,11.463,2.7273,0.05,8.8815e-07,8.8754,6.8199e-07,5.1242,2.9225e-14,4.0327e-06,-6.8199e-07,-5.1242,0.90539
14959,11.463,3,0,0.00029583,2956.2,9.846e-05,0.004585,9.621e-05,-16.896,-0.00029611,-2964.7,0.90549
14960,11.555,2.9091,0,0.00029339,2931.9,9.7594e-05,0.0046922,9.5509e-05,-15.66,-0.00029365,-2939.7,0.91772
14961,11.463,2.9091,0.05,8.8822e-07,8.876,6.8204e-07,5.1246,9.8089e-15,4.0071e-06,-6.8204e-07,-5.1246,0.90545
14962,11.463,3.1818,0,0.00029584,2956.4,9.8458e-05,0.0045969,9.6226e-05,-16.768,-0.00029612,-2964.7,0.90546
14963,11.555,3.0909,0,0.00029339,2931.9,9.7594e-05,0.0046921,9.5509e-05,-15.66,-0.00029365,-2939.7,0.91772
14964,11.463,3.0909,0.05,8.8822e-07,8.876,6.8204e-07,5.1246,8.9969e-13,3.5025e-06,-6.8204e-07,-5.1246,0.90545
14965,11.463,3.3636,0,0.00029588,2956.8,9.8452e-05,0.0046338,9.6271e-05,-16.382,-0.00029616,-2965,0.90536
14966,11.555,3.2727,0,0.00029342,2932.1,9.7591e-05,0.0047167,9.5539e-05,-15.413,-0.00029368,-2939.8,0.91766
14967,11.463,3.2727,0.05,8.8815e-07,8.8754,6.8199e-07,5.1242,2.6994e-12,3.5956e-06,-6.8199e-07,-5.1242,0.90539
14968,11.463,3.5455,0,0.00029595,2957.5,9.8444e-05,0.0046937,9.6347e-05,-15.745,-0.00029622,-2965.3,0.9052
14969,11.555,3.4545,0,0.00029347,2932.7,9.7584e-05,0.0047659,9.5597e-05,-14.923,-0.00029372,-2940.1,0.91754
14970,11.463,3.4545,0.05,8.8802e-07,8.8741,6.8188e-07,5.1234,8.6133e-13,3.2173e-06,-6.8189e-07,-5.1235,0.90526
14971,11.463,3.7273,0,0.00029605,2958.4,9.8432e-05,0.0047785,9.6453e-05,-14.862,-0.0002963,-2965.8,0.90498
14972,11.555,3.6364,0,0.00029355,2933.5,9.7574e-05,0.0048393,9.5685e-05,-14.193,-0.00029379,-2940.5,0.91735
14973,11.463,3.6364,0.05,8.8782e-07,8.8721,6.8174e-07,5.1223,2.6652e-12,3.4419e-06,-6.8174e-07,-5.1224,0.90507
14974,11.463,3.9091,0,0.00029617,2959.7,9.8416e-05,0.0048909,9.6587e-05,-13.742,-0.0002964,-2966.5,0.90469
14975,11.555,3.8182,0,0.00029366,2934.5,9.7562e-05,0.0049426,9.58e-05,-13.232,-0.00029388,-2941.1,0.91709
14976,11.463,3.8182,0.05,8.8756e-07,8.8695,6.8154e-07,5.1208,3.5599e-12,3.8053e-06,-6.8154e-07,-5.1208,0.90482
14977,11.463,4.0909,0,0.00029632,2961.1,9.8398e-05,0.0050347,9.6748e-05,-12.397,-0.00029652,-2967.3,0.90434
14978,11.555,4,0,0.00029379,2935.8,9.7546e-05,0.0050795,9.5942e-05,-12.048,-0.00029399,-2941.8,0.91678
14979,11.463,4,0.05,8.8724e-07,8.8663,6.8129e-07,5.1189,3.5488e-12,3.3663e-06,-6.8129e-07,-5.119,0.9045
14980,11.463,4.2727,0,0.00029649,2962.8,9.8377e-05,0.0052219,9.6934e-05,-10.839,-0.00029667,-2968.2,0.90393
14981,11.555,4.1818,0,0.00029394,2937.4,9.7528e-05,0.0052622,9.6109e-05,-10.654,-0.00029412,-2942.7,0.9164
14982,11.463,4.1818,0.05,8.8686e-07,8.8625,6.81e-07,5.1167,3.546e-12,2.4777e-06,-6.81e-07,-5.1168,0.90412
14983,11.463,4.4545,0,0.00029668,2964.7,9.8354e-05,0.0054819,9.7145e-05,-9.0833,-0.00029683,-2969.3,0.90345
14984,11.555,4.3636,0,0.00029412,2939.1,9.7508e-05,0.0055165,9.6301e-05,-9.0611,-0.00029427,-2943.7,0.91595
14985,11.463,4.3636,0.05,8.8643e-07,8.8582,6.8066e-07,5.1142,3.5304e-12,3.3819e-06,-6.8067e-07,-5.1143,0.90367
14986,11.463,4.6364,0,0.00029689,2966.9,9.8329e-05,0.0058794,9.7378e-05,-7.1448,-0.00029702,-2970.5,0.90291
14987,11.555,4.5455,0,0.00029432,2941.1,9.7485e-05,0.0059081,9.6515e-05,-7.2849,-0.00029444,-2944.8,0.91545
14988,11.463,4.5455,0.05,8.8594e-07,8.8533,6.8029e-07,5.1114,3.5255e-12,2.3859e-06,-6.803e-07,-5.1115,0.90316
14989,11.463,4.8182,0,0.00029713,2969.2,9.8303e-05,0.0066208,9.7631e-05,-5.0404,-0.00029721,-2971.8,0.9023
14990,11.555,4.7273,0,0.00029453,2943.3,9.7461e-05,0.0066004,9.675e-05,-5.3403,-0.00029462,-2946,0.91488
14991,11.463,4.7273,0.05,8.854e-07,8.8479,6.7988e-07,5.1083,3.5387e-12,3.2052e-06,-6.7988e-07,-5.1084,0.90259
14992,11.463,5,0,0.00029738,2971.8,9.8275e-05,0.0085912,9.7903e-05,-2.7879,-0.00029743,-2973.2,0.90163
14993,11.555,4.9091,0,0.00029477,2945.7,9.7436e-05,0.0082679,9.7003e-05,-3.2438,-0.00029483,-2947.3,0.91425
14994,11.463,4.9091,0.05,8.8482e-07,8.8421,6.7943e-07,5.1049,7.182e-12,2.9148e-06,-6.7943e-07,-5.1051,0.90195
14995,11.463,5.1818,0,0.00029765,2974.5,9.8249e-05,0.033118,9.8188e-05,-0.42554,-0.00029766,-2974.7,0.9009
14996,11.555,5.0909,0,0.00029503,2948.2,9.7411e-05,0.017476,9.7273e-05,-1.0183,-0.00029504,-2948.7,0.91355
14997,11.463,5.0909,0.05,8.8419e-07,8.8358,6.7894e-07,5.1013,5.366e-12,2.251e-06,-6.7895e-07,-5.1014,0.90125
14998,11.463,5.3636,0,0.00029794,2977.3,9.8497e-05,2.1135,9.8215e-05,-0.0019974,-0.0002979,-2976.3,0.9001
14999,11.555,5.2727,0,0.0002953,2951,9.7563e-05,1.3611,9.7381e-05,-0.0061587,-0.00029528,-2950.3,0.91279
15000,11.463,5.2727,0.05,8.8331e-07,8.827,6.7827e-07,5.0962,3.5672e-12,2.8802e-06,-6.7828e-07,-5.0963,0.90048
15001,11.463,5.5455,0,0.00029825,2980.4,9.8819e-05,4.7525,9.8186e-05,0.002651,-0.00029817,-2978,0.89923
15002,11.555,5.4545,0,0.00029559,2953.8,9.7863e-05,3.8187,9.7355e-05,-0.00024462,-0.00029552,-2951.9,0.91196
15003,11.463,5.4545,0.05,8.7927e-07,8.7867,6.7517e-07,5.0729,7.2031e-12,3.0768e-06,-6.7518e-07,-5.0731,0.89965
15004,11.463,5.7273,0,0.00029866,2984.6,9.9238e-05,8.1232,9.8157e-05,-0.00029646,-0.00029853,-2980.5,0.89831
15005,11.555,5.6364,0,0.0002959,2957,9.8185e-05,6.4479,9.7328e-05,0.0042757,-0.00029579,-2953.7,0.91107
15006,11.463,5.6364,0.05,8.2717e-07,8.266,6.3516e-07,4.7723,4.5026e-12,3.4504e-06,-6.3517e-07,-4.7725,0.89875
15007,11.555,5.8182,0,0.00029642,2962.1,9.8691e-05,10.446,9.73e-05,-0.0057181,-0.00029624,-2956.9,0.91012
15008,11.463,5.8182,0.05,4.1842e-08,0.41813,3.2127e-08,0.24135,1.5298e-12,-3.2458e-05,-3.2132e-08,-0.24147,0.89779
15009,11.463,5.9091,0,0.00029843,2982.2,9.9073e-05,7.0848,9.813e-05,-0.001086,-0.00029831,-2978.7,0.89731
15010,11.647,0.27273,0,0.00029364,2934.4,9.7626e-05,8.6776,9.6471e-05,-0.00055021,-0.00029349,-2930,0.92295
15011,11.74,0.18182,0,0.0002914,2912,9.7073e-05,10.908,9.5621e-05,-0.0050198,-0.00029121,-2906.5,0.93488
15012,11.647,0.18182,0.05,3.4343e-08,0.3432,2.6375e-08,0.1982,4.4349e-13,4.2029e-05,-2.6368e-08,-0.19809,0.92245
15013,11.647,0.090909,0,0.00029338,2931.8,9.7431e-05,7.3727,9.6449e-05,-0.0011134,-0.00029325,-2928.1,0.92198
15014,11.647,0.45455,0,0.00029324,2930.3,9.7226e-05,5.4888,9.6496e-05,0.0018161,-0.00029314,-2927.6,0.92387
15015,11.74,0.36364,0,0.00029089,2906.9,9.6585e-05,7.0716,9.5644e-05,0.0031024,-0.00029077,-2903.4,0.93581
15016,11.647,0.36364,0.05,8.2281e-07,8.2224,6.3182e-07,4.7473,-3.5855e-12,3.6877e-06,-6.3181e-07,-4.7471,0.92339
15017,11.647,0.63636,0,0.00029294,2927.4,9.6926e-05,3.0417,9.6521e-05,-0.0015124,-0.00029289,-2925.9,0.92472
15018,11.74,0.54545,0,0.00029059,2903.9,9.6283e-05,4.629,9.5666e-05,-0.00054817,-0.00029051,-2901.6,0.93669
15019,11.647,0.54545,0.05,8.7503e-07,8.7443,6.7192e-07,5.0486,-3.5702e-12,4.1374e-06,-6.7191e-07,-5.0484,0.92427
15020,11.647,0.81818,0,0.00029267,2924.7,9.6644e-05,0.74235,9.6543e-05,-0.016896,-0.00029266,-2924.3,0.92551
15021,11.74,0.72727,0,0.00029032,2901.2,9.6002e-05,2.3527,9.5689e-05,-0.0034147,-0.00029028,-2900,0.9375
15022,11.647,0.72727,0.05,8.7902e-07,8.7841,6.7498e-07,5.0716,-2.6609e-12,4.5693e-06,-6.7497e-07,-5.0715,0.92509
15023,11.647,1,0,0.00029241,2922.1,9.6572e-05,0.014006,9.6371e-05,-1.4918,-0.00029244,-2922.9,0.92623
15024,11.74,0.90909,0,0.00029006,2898.6,9.5744e-05,0.23946,9.5703e-05,-0.066185,-0.00029006,-2898.5,0.93825
15025,11.647,0.90909,0.05,8.7984e-07,8.7923,6.7561e-07,5.0763,-2.6528e-12,4.4265e-06,-6.756e-07,-5.0762,0.92585
15026,11.647,1.1818,0,0.00029217,2919.7,9.6595e-05,0.0081227,9.6119e-05,-3.5641,-0.00029224,-2921.5,0.92689
15027,11.74,1.0909,0,0.00028982,2896.2,9.5736e-05,0.012287,9.5481e-05,-1.9006,-0.00028985,-2897.1,0.93894
15028,11.647,1.0909,0.05,8.8041e-07,8.7981,6.7605e-07,5.0796,-3.5593e-12,4.4239e-06,-6.7605e-07,-5.0795,0.92654
15029,11.647,1.3636,0,0.00029195,2917.5,9.6617e-05,0.006633,9.5884e-05,-5.5005,-0.00029205,-2920.3,0.92749
15030,11.74,1.2727,0,0.00028959,2893.9,9.5756e-05,0.0079761,9.5246e-05,-3.8292,-0.00028966,-2895.9,0.93956
15031,11.647,1.2727,0.05,8.8094e-07,8.8033,6.7645e-07,5.0826,-8.2436e-13,4.328e-06,-6.7645e-07,-5.0826,0.92717
15032,11.647,1.5455,0,0.00029175,2915.5,9.6639e-05,0.0059588,9.5669e-05,-7.2824,-0.00029187,-2919.1,0.92802
15033,11.74,1.4545,0,0.00028939,2891.9,9.5777e-05,0.0066382,9.5028e-05,-5.6177,-0.00028948,-2894.7,0.94012
15034,11.647,1.4545,0.05,8.8142e-07,8.8081,6.7683e-07,5.0854,-1.7309e-12,4.305e-06,-6.7682e-07,-5.0853,0.92773
15035,11.647,1.7273,0,0.00029157,2913.7,9.6658e-05,0.0055707,9.5474e-05,-8.8947,-0.00029172,-2918.1,0.92849
15036,11.74,1.6364,0,0.0002892,2890,9.5795e-05,0.0059894,9.483e-05,-7.2497,-0.00028932,-2893.6,0.94062
15037,11.647,1.6364,0.05,8.8186e-07,8.8125,6.7716e-07,5.0879,-2.6373e-12,4.5508e-06,-6.7715e-07,-5.0878,0.92824
15038,11.647,1.9091,0,0.00029141,2912.1,9.6676e-05,0.0053174,9.5301e-05,-10.324,-0.00029158,-2917.2,0.9289
15039,11.74,1.8182,0,0.00028903,2888.3,9.5813e-05,0.00561,9.4652e-05,-8.7113,-0.00028918,-2892.7,0.94106
15040,11.647,1.8182,0.05,8.8224e-07,8.8164,6.7745e-07,5.0901,-1.7346e-12,4.1938e-06,-6.7745e-07,-5.0901,0.92868
15041,11.647,2.0909,0,0.00029127,2910.7,9.6691e-05,0.0051386,9.5153e-05,-11.556,-0.00029146,-2916.4,0.92924
15042,11.74,2,0,0.00028889,2886.9,9.5828e-05,0.0053612,9.4498e-05,-9.9899,-0.00028906,-2891.9,0.94143
15043,11.647,2,0.05,8.8258e-07,8.8197,6.7772e-07,5.0921,-3.5577e-12,4.2647e-06,-6.7771e-07,-5.0921,0.92905
15044,11.647,2.2727,0,0.00029116,2909.5,9.6704e-05,0.0050081,9.5029e-05,-12.581,-0.00029137,-2915.8,0.92953
15045,11.74,2.1818,0,0.00028877,2885.7,9.5841e-05,0.0051877,9.4367e-05,-11.074,-0.00028895,-2891.2,0.94174
15046,11.647,2.1818,0.05,8.8287e-07,8.8226,6.7793e-07,5.0937,-1.7522e-12,4.4325e-06,-6.7793e-07,-5.0937,0.92937
15047,11.647,2.4545,0,0.00029107,2908.7,9.6715e-05,0.0049139,9.4932e-05,-13.389,-0.00029129,-2915.3,0.92975
15048,11.74,2.3636,0,0.00028867,2884.7,9.5852e-05,0.0050644,9.426e-05,-11.954,-0.00028887,-2890.6,0.94199
15049,11.647,2.3636,0.05,8.831e-07,8.8249,6.7811e-07,5.095,5.5743e-14,4.3439e-06,-6.7811e-07,-5.095,0.92962
15050,11.647,2.6364,0,0.000291,2908,9.6722e-05,0.0048499,9.4862e-05,-13.972,-0.00029124,-2915,0.9299
15051,11.74,2.5455,0,0.00028859,2883.9,9.586e-05,0.0049799,9.418e-05,-12.622,-0.0002888,-2890.2,0.94218
15052,11.647,2.5455,0.05,8.8327e-07,8.8266,6.7824e-07,5.096,4.1008e-14,4.3626e-06,-6.7824e-07,-5.096,0.9298
15053,11.647,2.8182,0,0.00029096,2907.6,9.6727e-05,0.004812,9.482e-05,-14.324,-0.0002912,-2914.8,0.93
15054,11.74,2.7273,0,0.00028854,2883.4,9.5866e-05,0.0049255,9.4126e-05,-13.07,-0.00028876,-2889.9,0.9423
15055,11.647,2.7273,0.05,8.8339e-07,8.8278,6.7833e-07,5.0967,9.3478e-13,3.6466e-06,-6.7833e-07,-5.0967,0.92993
15056,11.647,3,0,0.00029095,2907.5,9.6728e-05,0.0047992,9.4806e-05,-14.441,-0.00029119,-2914.7,0.93003
15057,11.74,2.9091,0,0.00028852,2883.2,9.5869e-05,0.0048985,9.4098e-05,-13.296,-0.00028874,-2889.8,0.94236
15058,11.647,2.9091,0.05,8.8344e-07,8.8283,6.7838e-07,5.097,1.8276e-12,3.879e-06,-6.7838e-07,-5.097,0.92999
15059,11.647,3.1818,0,0.00029096,2907.6,9.6727e-05,0.0048121,9.482e-05,-14.324,-0.0002912,-2914.8,0.93
15060,11.74,3.0909,0,0.00028852,2883.2,9.5869e-05,0.0048986,9.4098e-05,-13.296,-0.00028874,-2889.8,0.94236
15061,11.647,3.0909,0.05,8.8344e-07,8.8283,6.7838e-07,5.097,1.8104e-12,3.3925e-06,-6.7838e-07,-5.097,0.92999
15062,11.647,3.3636,0,0.000291,2908,9.6722e-05,0.0048498,9.4862e-05,-13.972,-0.00029124,-2915,0.9299
15063,11.74,3.2727,0,0.00028854,2883.4,9.5866e-05,0.0049259,9.4126e-05,-13.07,-0.00028876,-2889.9,0.9423
15064,11.647,3.2727,0.05,8.8339e-07,8.8278,6.7833e-07,5.0967,1.7934e-12,3.5033e-06,-6.7833e-07,-5.0967,0.92993
15065,11.647,3.5455,0,0.00029107,2908.7,9.6715e-05,0.0049137,9.4932e-05,-13.389,-0.00029129,-2915.3,0.92975
15066,11.74,3.4545,0,0.00028859,2883.9,9.586e-05,0.0049793,9.418e-05,-12.622,-0.0002888,-2890.2,0.94218
15067,11.647,3.4545,0.05,8.8327e-07,8.8266,6.7824e-07,5.096,2.6871e-12,3.6242e-06,-6.7825e-07,-5.096,0.9298
15068,11.647,3.7273,0,0.00029116,2909.5,9.6704e-05,0.0050075,9.5029e-05,-12.581,-0.00029137,-2915.8,0.92953
15069,11.74,3.6364,0,0.00028867,2884.7,9.5852e-05,0.0050646,9.426e-05,-11.954,-0.00028887,-2890.6,0.94199
15070,11.647,3.6364,0.05,8.831e-07,8.8249,6.7811e-07,5.095,1.7641e-12,3.8652e-06,-6.7811e-07,-5.095,0.92962
15071,11.647,3.9091,0,0.00029127,2910.7,9.6691e-05,0.0051379,9.5153e-05,-11.556,-0.00029146,-2916.4,0.92924
15072,11.74,3.8182,0,0.00028877,2885.7,9.5841e-05,0.0051873,9.4367e-05,-11.074,-0.00028895,-2891.2,0.94174
15073,11.647,3.8182,0.05,8.8287e-07,8.8226,6.7793e-07,5.0937,1.7495e-12,3.6696e-06,-6.7793e-07,-5.0937,0.92937
15074,11.647,4.0909,0,0.00029141,2912.1,9.6676e-05,0.0053171,9.5301e-05,-10.324,-0.00029158,-2917.2,0.9289
15075,11.74,4,0,0.00028889,2886.9,9.5828e-05,0.0053609,9.4498e-05,-9.9899,-0.00028906,-2891.9,0.94143
15076,11.647,4,0.05,8.8258e-07,8.8197,6.7771e-07,5.092,3.5577e-12,2.9777e-06,-6.7772e-07,-5.0921,0.92905
15077,11.647,4.2727,0,0.00029157,2913.7,9.6658e-05,0.0055706,9.5474e-05,-8.8947,-0.00029172,-2918.1,0.92849
15078,11.74,4.1818,0,0.00028903,2888.3,9.5813e-05,0.0056096,9.4652e-05,-8.7113,-0.00028918,-2892.7,0.94106
15079,11.647,4.1818,0.05,8.8224e-07,8.8164,6.7745e-07,5.0901,3.5532e-12,2.7068e-06,-6.7745e-07,-5.0902,0.92868
15080,11.647,4.4545,0,0.00029175,2915.5,9.6639e-05,0.0059586,9.5669e-05,-7.2824,-0.00029187,-2919.1,0.92802
15081,11.74,4.3636,0,0.0002892,2890,9.5795e-05,0.0059891,9.483e-05,-7.2496,-0.00028932,-2893.6,0.94062
15082,11.647,4.3636,0.05,8.8186e-07,8.8125,6.7715e-07,5.0878,3.5501e-12,3.4566e-06,-6.7716e-07,-5.0879,0.92824
15083,11.647,4.6364,0,0.00029195,2917.5,9.6617e-05,0.0066328,9.5884e-05,-5.5004,-0.00029205,-2920.3,0.92749
15084,11.74,4.5455,0,0.00028939,2891.9,9.5777e-05,0.0066378,9.5028e-05,-5.6177,-0.00028948,-2894.7,0.94012
15085,11.647,4.5455,0.05,8.8142e-07,8.8081,6.7682e-07,5.0853,4.4548e-12,2.4471e-06,-6.7682e-07,-5.0854,0.92773
15086,11.647,4.8182,0,0.00029217,2919.7,9.6595e-05,0.0081224,9.6119e-05,-3.564,-0.00029224,-2921.5,0.92689
15087,11.74,4.7273,0,0.00028959,2893.9,9.5756e-05,0.0079754,9.5246e-05,-3.8292,-0.00028966,-2895.9,0.93956
15088,11.647,4.7273,0.05,8.8094e-07,8.8033,6.7645e-07,5.0825,3.5467e-12,2.7599e-06,-6.7646e-07,-5.0826,0.92717
15089,11.647,5,0,0.00029241,2922.1,9.6572e-05,0.014006,9.6372e-05,-1.4918,-0.00029244,-2922.9,0.92623
15090,11.74,4.9091,0,0.00028982,2896.2,9.5736e-05,0.012286,9.5481e-05,-1.9006,-0.00028985,-2897.1,0.93894
15091,11.647,4.9091,0.05,8.8041e-07,8.7981,6.7605e-07,5.0795,5.3734e-12,3.1432e-06,-6.7605e-07,-5.0796,0.92654
15092,11.647,5.1818,0,0.00029267,2924.7,9.6644e-05,0.74239,9.6543e-05,-0.016896,-0.00029266,-2924.3,0.92551
15093,11.74,5.0909,0,0.00029006,2898.6,9.5744e-05,0.23949,9.5703e-05,-0.066175,-0.00029006,-2898.5,0.93825
15094,11.647,5.0909,0.05,8.7984e-07,8.7923,6.756e-07,5.0762,4.4712e-12,2.3185e-06,-6.7561e-07,-5.0763,0.92585
15095,11.647,5.3636,0,0.00029294,2927.4,9.6926e-05,3.0417,9.6521e-05,-0.0015139,-0.00029289,-2925.9,0.92472
15096,11.74,5.2727,0,0.00029032,2901.2,9.6002e-05,2.3528,9.5689e-05,-0.0034168,-0.00029028,-2900,0.9375
15097,11.647,5.2727,0.05,8.7902e-07,8.7841,6.7497e-07,5.0715,3.57e-12,3.0463e-06,-6.7498e-07,-5.0716,0.92509
15098,11.647,5.5455,0,0.00029324,2930.3,9.7226e-05,5.4888,9.6496e-05,0.0018164,-0.00029314,-2927.6,0.92387
15099,11.74,5.4545,0,0.00029059,2903.9,9.6283e-05,4.6291,9.5666e-05,-0.00054908,-0.00029051,-2901.6,0.93669
15100,11.647,5.4545,0.05,8.7503e-07,8.7443,6.7191e-07,5.0484,3.5789e-12,3.2259e-06,-6.7192e-07,-5.0486,0.92427
15101,11.647,5.7273,0,0.00029364,2934.4,9.7626e-05,8.6776,9.6471e-05,-0.00054904,-0.00029349,-2930,0.92295
15102,11.74,5.6364,0,0.00029089,2906.9,9.6585e-05,7.0716,9.5644e-05,0.0031028,-0.00029077,-2903.4,0.93581
15103,11.647,5.6364,0.05,8.2281e-07,8.2224,6.3181e-07,4.7471,7.2492e-12,4.01e-06,-6.3182e-07,-4.7474,0.92339
15104,11.74,5.8182,0,0.0002914,2912,9.7074e-05,10.908,9.5621e-05,-0.0050201,-0.00029121,-2906.5,0.93488
15105,11.647,5.8182,0.05,3.4343e-08,0.3432,2.6367e-08,0.19806,1.1829e-12,-4.6562e-05,-2.6376e-08,-0.19823,0.92245
15106,11.647,5.9091,0,0.00029338,2931.8,9.7431e-05,7.3727,9.6449e-05,-0.0011158,-0.00029325,-2928.1,0.92198
15107,11.832,0.27273,0,0.00028864,2884.4,9.602e-05,9.207,9.4794e-05,-0.00084817,-0.00028848,-2879.8,0.9478
15108,11.924,0.18182,0,0.0002864,2862.1,9.5462e-05,11.352,9.395e-05,-0.0044241,-0.00028621,-2856.4,0.95983
15109,11.832,0.18182,0.05,2.7412e-08,0.27393,2.1052e-08,0.15821,4.5719e-13,3.8035e-05,-2.1046e-08,-0.15809,0.9473
15110,11.832,0.090909,0,0.00028835,2881.5,9.5795e-05,7.6504,9.4776e-05,-0.0011947,-0.00028822,-2877.7,0.94684
15111,11.832,0.45455,0,0.00028825,2880.5,9.5638e-05,6.1862,9.4814e-05,0.0010334,-0.00028814,-2877.4,0.9487
15112,11.924,0.36364,0,0.0002859,2857.1,9.4988e-05,7.6644,9.3969e-05,0.0020039,-0.00028577,-2853.2,0.96075
15113,11.832,0.36364,0.05,8.1853e-07,8.1797,6.2854e-07,4.7226,-4.5124e-12,1.964e-06,-6.2853e-07,-4.7225,0.94823
15114,11.832,0.63636,0,0.00028797,2877.7,9.5356e-05,3.917,9.4835e-05,-0.0014327,-0.0002879,-2875.7,0.94954
15115,11.924,0.54545,0,0.00028562,2854.2,9.4705e-05,5.3947,9.3987e-05,-0.00084988,-0.00028553,-2851.5,0.96161
15116,11.832,0.54545,0.05,8.7083e-07,8.7023,6.687e-07,5.0244,-3.5979e-12,3.8106e-06,-6.6869e-07,-5.0242,0.9491
15117,11.832,0.81818,0,0.00028771,2875.1,9.5093e-05,1.7822,9.4854e-05,-0.0065663,-0.00028768,-2874.2,0.95031
15118,11.924,0.72727,0,0.00028536,2851.6,9.4443e-05,3.2877,9.4005e-05,-0.0025332,-0.0002853,-2850,0.96241
15119,11.832,0.72727,0.05,8.7478e-07,8.7418,6.7173e-07,5.0471,-3.5755e-12,3.6256e-06,-6.7172e-07,-5.047,0.94991
15120,11.832,1,0,0.00028746,2872.6,9.4883e-05,0.058385,9.4834e-05,-0.31678,-0.00028747,-2872.8,0.95102
15121,11.924,0.90909,0,0.00028511,2849.2,9.4195e-05,1.2862,9.4022e-05,-0.011276,-0.00028509,-2848.5,0.96315
15122,11.832,0.90909,0.05,8.7555e-07,8.7494,6.7232e-07,5.0515,-1.7426e-12,3.1361e-06,-6.7231e-07,-5.0514,0.95065
15123,11.832,1.1818,0,0.00028724,2870.4,9.4897e-05,0.011504,9.4605e-05,-2.186,-0.00028727,-2871.5,0.95167
15124,11.924,1.0909,0,0.00028488,2846.9,9.4046e-05,0.031132,9.3955e-05,-0.65834,-0.00028489,-2847.2,0.96383
15125,11.832,1.0909,0.05,8.7607e-07,8.7547,6.7272e-07,5.0546,-1.7522e-12,3.8113e-06,-6.7271e-07,-5.0545,0.95133
15126,11.832,1.3636,0,0.00028703,2868.3,9.4916e-05,0.0079429,9.4387e-05,-3.9669,-0.00028709,-2870.3,0.95226
15127,11.924,1.2727,0,0.00028467,2844.7,9.4061e-05,0.010915,9.3738e-05,-2.4193,-0.00028471,-2845.9,0.96444
15128,11.832,1.2727,0.05,8.7655e-07,8.7594,6.7308e-07,5.0573,-2.6571e-12,3.8485e-06,-6.7308e-07,-5.0572,0.95195
15129,11.832,1.5455,0,0.00028683,2866.4,9.4933e-05,0.0066801,9.4186e-05,-5.6052,-0.00028693,-2869.2,0.95279
15130,11.924,1.4545,0,0.00028447,2842.8,9.4078e-05,0.0078899,9.3536e-05,-4.0636,-0.00028454,-2844.8,0.96499
15131,11.832,1.4545,0.05,8.7698e-07,8.7638,6.7342e-07,5.0598,-8.3186e-13,3.7791e-06,-6.7341e-07,-5.0597,0.95251
15132,11.832,1.7273,0,0.00028666,2864.6,9.495e-05,0.006043,9.4006e-05,-7.0862,-0.00028678,-2868.2,0.95325
15133,11.924,1.6364,0,0.0002843,2841,9.4094e-05,0.0067043,9.3352e-05,-5.5634,-0.00028439,-2843.8,0.96548
15134,11.832,1.6364,0.05,8.7738e-07,8.7677,6.7372e-07,5.0621,-8.3166e-13,3.9434e-06,-6.7371e-07,-5.062,0.953
15135,11.832,1.9091,0,0.00028651,2863.1,9.4965e-05,0.0056646,9.3846e-05,-8.3974,-0.00028665,-2867.3,0.95365
15136,11.924,1.8182,0,0.00028414,2839.4,9.4108e-05,0.0060862,9.3188e-05,-6.9055,-0.00028426,-2842.9,0.96591
15137,11.832,1.8182,0.05,8.7772e-07,8.7712,6.7398e-07,5.0641,-8.3762e-13,3.6593e-06,-6.7398e-07,-5.064,0.95343
15138,11.832,2.0909,0,0.00028638,2861.8,9.4978e-05,0.0054173,9.3709e-05,-9.5275,-0.00028654,-2866.6,0.95399
15139,11.924,2,0,0.000284,2838.1,9.4121e-05,0.0057137,9.3045e-05,-8.0785,-0.00028414,-2842.1,0.96628
15140,11.832,2,0.05,8.7803e-07,8.7742,6.7422e-07,5.0658,6.4869e-14,3.441e-06,-6.7422e-07,-5.0658,0.9538
15141,11.832,2.2727,0,0.00028627,2860.8,9.4989e-05,0.005248,9.3595e-05,-10.467,-0.00028645,-2866,0.95427
15142,11.924,2.1818,0,0.00028389,2836.9,9.4132e-05,0.0054719,9.2924e-05,-9.0724,-0.00028404,-2841.4,0.96659
15143,11.832,2.1818,0.05,8.7828e-07,8.7768,6.7441e-07,5.0673,5.6989e-14,3.7817e-06,-6.7441e-07,-5.0672,0.95411
15144,11.832,2.4545,0,0.00028619,2859.9,9.4997e-05,0.0051321,9.3505e-05,-11.206,-0.00028638,-2865.5,0.95449
15145,11.924,2.3636,0,0.00028379,2836,9.4141e-05,0.0053082,9.2825e-05,-9.8786,-0.00028396,-2840.9,0.96683
15146,11.832,2.3636,0.05,8.7849e-07,8.7788,6.7457e-07,5.0684,4.6769e-14,3.9346e-06,-6.7457e-07,-5.0684,0.95436
15147,11.832,2.6364,0,0.00028613,2859.3,9.5004e-05,0.0050556,9.3441e-05,-11.74,-0.00028633,-2865.2,0.95464
15148,11.924,2.5455,0,0.00028372,2835.3,9.4148e-05,0.0052013,9.2751e-05,-10.49,-0.0002839,-2840.5,0.96702
15149,11.832,2.5455,0.05,8.7864e-07,8.7803,6.7469e-07,5.0693,9.4523e-13,3.725e-06,-6.7469e-07,-5.0693,0.95455
15150,11.832,2.8182,0,0.00028609,2858.9,9.5008e-05,0.0050112,9.3402e-05,-12.062,-0.0002863,-2865,0.95473
15151,11.924,2.7273,0,0.00028367,2834.8,9.4153e-05,0.0051335,9.2701e-05,-10.9,-0.00028386,-2840.2,0.96714
15152,11.832,2.7273,0.05,8.7874e-07,8.7814,6.7477e-07,5.0699,9.3137e-13,3.0252e-06,-6.7477e-07,-5.0699,0.95467
15153,11.832,3,0,0.00028608,2858.8,9.5009e-05,0.0049966,9.3389e-05,-12.169,-0.00028628,-2864.9,0.95477
15154,11.924,2.9091,0,0.00028365,2834.6,9.4155e-05,0.0051011,9.2676e-05,-11.107,-0.00028384,-2840.1,0.9672
15155,11.832,2.9091,0.05,8.788e-07,8.7819,6.748e-07,5.0702,9.1695e-13,3.036e-06,-6.7481e-07,-5.0702,0.95473
15156,11.832,3.1818,0,0.00028609,2858.9,9.5008e-05,0.0050115,9.3402e-05,-12.062,-0.0002863,-2865,0.95473
15157,11.924,3.0909,0,0.00028365,2834.6,9.4155e-05,0.005101,9.2676e-05,-11.107,-0.00028384,-2840.1,0.9672
15158,11.832,3.0909,0.05,8.788e-07,8.7819,6.748e-07,5.0702,9.0202e-13,2.805e-06,-6.7481e-07,-5.0702,0.95473
15159,11.832,3.3636,0,0.00028613,2859.3,9.5004e-05,0.0050555,9.3441e-05,-11.74,-0.00028633,-2865.2,0.95464
15160,11.924,3.2727,0,0.00028367,2834.8,9.4153e-05,0.0051342,9.2701e-05,-10.9,-0.00028386,-2840.2,0.96714
15161,11.832,3.2727,0.05,8.7874e-07,8.7814,6.7477e-07,5.0699,8.8742e-13,2.933e-06,-6.7476e-07,-5.0699,0.95467
15162,11.832,3.5455,0,0.00028619,2859.9,9.4997e-05,0.0051318,9.3505e-05,-11.206,-0.00028638,-2865.5,0.95449
15163,11.924,3.4545,0,0.00028372,2835.3,9.4148e-05,0.0052004,9.2751e-05,-10.49,-0.0002839,-2840.5,0.96702
15164,11.832,3.4545,0.05,8.7864e-07,8.7803,6.7469e-07,5.0693,3.6021e-12,2.7089e-06,-6.7469e-07,-5.0694,0.95455
15165,11.832,3.7273,0,0.00028627,2860.8,9.4989e-05,0.0052483,9.3595e-05,-10.467,-0.00028645,-2866,0.95427
15166,11.924,3.6364,0,0.00028379,2836,9.4141e-05,0.0053086,9.2825e-05,-9.8786,-0.00028396,-2840.9,0.96683
15167,11.832,3.6364,0.05,8.7849e-07,8.7788,6.7456e-07,5.0684,2.6796e-12,3.3233e-06,-6.7457e-07,-5.0684,0.95436
15168,11.832,3.9091,0,0.00028638,2861.8,9.4978e-05,0.0054173,9.3709e-05,-9.5275,-0.00028654,-2866.6,0.95399
15169,11.924,3.8182,0,0.00028389,2836.9,9.4132e-05,0.0054715,9.2924e-05,-9.0724,-0.00028404,-2841.4,0.96659
15170,11.832,3.8182,0.05,8.7828e-07,8.7768,6.7441e-07,5.0672,3.5777e-12,3.4677e-06,-6.7441e-07,-5.0673,0.95411
15171,11.832,4.0909,0,0.00028651,2863.1,9.4965e-05,0.0056642,9.3846e-05,-8.3974,-0.00028665,-2867.3,0.95365
15172,11.924,4,0,0.000284,2838.1,9.4121e-05,0.005714,9.3045e-05,-8.0785,-0.00028414,-2842.1,0.96628
15173,11.832,4,0.05,8.7803e-07,8.7742,6.7422e-07,5.0657,2.6585e-12,2.7537e-06,-6.7421e-07,-5.0658,0.9538
15174,11.832,4.2727,0,0.00028666,2864.6,9.495e-05,0.0060425,9.4006e-05,-7.0862,-0.00028678,-2868.2,0.95325
15175,11.924,4.1818,0,0.00028414,2839.4,9.4108e-05,0.0060855,9.3188e-05,-6.9054,-0.00028426,-2842.9,0.96591
15176,11.832,4.1818,0.05,8.7772e-07,8.7712,6.7398e-07,5.064,3.5619e-12,2.053e-06,-6.7399e-07,-5.0641,0.95343
15177,11.832,4.4545,0,0.00028683,2866.4,9.4933e-05,0.0066797,9.4186e-05,-5.6052,-0.00028693,-2869.2,0.95279
15178,11.924,4.3636,0,0.0002843,2841,9.4094e-05,0.0067039,9.3352e-05,-5.5634,-0.00028439,-2843.8,0.96548
15179,11.832,4.3636,0.05,8.7738e-07,8.7677,6.7371e-07,5.062,3.5627e-12,2.8161e-06,-6.7372e-07,-5.0621,0.953
15180,11.832,4.6364,0,0.00028703,2868.3,9.4916e-05,0.0079421,9.4387e-05,-3.9669,-0.00028709,-2870.3,0.95226
15181,11.924,4.5455,0,0.00028447,2842.8,9.4078e-05,0.0078896,9.3536e-05,-4.0636,-0.00028454,-2844.8,0.96499
15182,11.832,4.5455,0.05,8.7698e-07,8.7638,6.7341e-07,5.0597,3.5598e-12,2.1401e-06,-6.7342e-07,-5.0598,0.95251
15183,11.832,4.8182,0,0.00028724,2870.4,9.4897e-05,0.011502,9.4605e-05,-2.1859,-0.00028727,-2871.5,0.95167
15184,11.924,4.7273,0,0.00028467,2844.7,9.4061e-05,0.010914,9.3738e-05,-2.4193,-0.00028471,-2845.9,0.96444
15185,11.832,4.7273,0.05,8.7655e-07,8.7594,6.7308e-07,5.0572,5.3806e-12,2.697e-06,-6.7308e-07,-5.0573,0.95195
15186,11.832,5,0,0.00028746,2872.6,9.4883e-05,0.058389,9.4834e-05,-0.31674,-0.00028747,-2872.8,0.95102
15187,11.924,4.9091,0,0.00028488,2846.9,9.4046e-05,0.031132,9.3955e-05,-0.65829,-0.00028489,-2847.2,0.96383
15188,11.832,4.9091,0.05,8.7607e-07,8.7547,6.7271e-07,5.0545,4.4746e-12,2.4982e-06,-6.7272e-07,-5.0546,0.95133
15189,11.832,5.1818,0,0.00028771,2875.1,9.5093e-05,1.7822,9.4854e-05,-0.0065679,-0.00028768,-2874.2,0.95031
15190,11.924,5.0909,0,0.00028511,2849.2,9.4195e-05,1.2862,9.4022e-05,-0.011277,-0.00028509,-2848.5,0.96315
15191,11.832,5.0909,0.05,8.7555e-07,8.7494,6.7231e-07,5.0514,3.5748e-12,1.7266e-06,-6.7232e-07,-5.0516,0.95065
15192,11.832,5.3636,0,0.00028797,2877.7,9.5356e-05,3.917,9.4835e-05,-0.0014343,-0.0002879,-2875.7,0.94954
15193,11.924,5.2727,0,0.00028536,2851.6,9.4443e-05,3.2877,9.4005e-05,-0.0025351,-0.0002853,-2850,0.96241
15194,11.832,5.2727,0.05,8.7478e-07,8.7418,6.7172e-07,5.047,6.3097e-12,2.4119e-06,-6.7173e-07,-5.0472,0.94991
15195,11.832,5.5455,0,0.00028825,2880.5,9.5638e-05,6.1862,9.4814e-05,0.0010326,-0.00028814,-2877.4,0.9487
15196,11.924,5.4545,0,0.00028562,2854.2,9.4705e-05,5.3948,9.3987e-05,-0.00085036,-0.00028553,-2851.5,0.96161
15197,11.832,5.4545,0.05,8.7083e-07,8.7023,6.6869e-07,5.0242,5.4228e-12,2.9434e-06,-6.687e-07,-5.0244,0.9491
15198,11.832,5.7273,0,0.00028864,2884.4,9.602e-05,9.207,9.4794e-05,-0.00084918,-0.00028848,-2879.8,0.9478
15199,11.924,5.6364,0,0.0002859,2857.1,9.4989e-05,7.6644,9.3969e-05,0.0020032,-0.00028577,-2853.2,0.96075
15200,11.832,5.6364,0.05,8.1853e-07,8.1797,6.2852e-07,4.7225,6.3364e-12,3.9687e-06,-6.2854e-07,-4.7226,0.94823
15201,11.924,5.8182,0,0.0002864,2862.1,9.5462e-05,11.352,9.395e-05,-0.0044251,-0.00028621,-2856.4,0.95983
15202,11.832,5.8182,0.05,2.7412e-08,0.27393,2.1047e-08,0.15808,7.9487e-13,-3.8638e-05,-2.1051e-08,-0.15822,0.9473
15203,11.832,5.9091,0,0.00028835,2881.5,9.5795e-05,7.6504,9.4776e-05,-0.0011937,-0.00028822,-2877.7,0.94684
15204,12.016,0.27273,0,0.00028366,2834.6,9.4418e-05,9.7132,9.3125e-05,-0.0011536,-0.00028349,-2829.7,0.97284
15205,12.108,0.18182,0,0.00028143,2812.4,9.3856e-05,11.78,9.2287e-05,-0.0039098,-0.00028123,-2806.4,0.98497
15206,12.016,0.18182,0.05,2.1022e-08,0.21007,1.6145e-08,0.12134,-3.8006e-14,4.0584e-05,-1.6139e-08,-0.12123,0.97235
15207,12.016,0.090909,0,0.00028334,2831.5,9.4165e-05,7.9185,9.3111e-05,-0.0012879,-0.00028321,-2827.5,0.97189
15208,12.016,0.45455,0,0.00028327,2830.8,9.4052e-05,6.847,9.3141e-05,0.00031991,-0.00028316,-2827.4,0.97373
15209,12.108,0.36364,0,0.00028094,2807.4,9.3396e-05,8.2284,9.2301e-05,0.00097655,-0.0002808,-2803.3,0.98588
15210,12.016,0.36364,0.05,8.1433e-07,8.1377,6.2531e-07,4.6984,-4.5209e-12,1.9499e-06,-6.253e-07,-4.6982,0.97327
15211,12.016,0.63636,0,0.00028301,2828.1,9.3789e-05,4.7425,9.3157e-05,-0.0014843,-0.00028293,-2825.7,0.97455
15212,12.108,0.54545,0,0.00028066,2804.7,9.313e-05,6.1186,9.2315e-05,-0.0011371,-0.00028056,-2801.6,0.98673
15213,12.016,0.54545,0.05,8.6669e-07,8.661,6.6552e-07,5.0005,-3.6061e-12,2.9681e-06,-6.6551e-07,-5.0003,0.97412
15214,12.016,0.81818,0,0.00028276,2825.7,9.3542e-05,2.7666,9.3173e-05,-0.004119,-0.00028271,-2824.3,0.97531
15215,12.108,0.72727,0,0.00028041,2802.2,9.2885e-05,4.1685,9.233e-05,-0.0021877,-0.00028034,-2800.1,0.98752
15216,12.016,0.72727,0.05,8.706e-07,8.7,6.6852e-07,5.023,-3.5988e-12,3.7895e-06,-6.6851e-07,-5.0229,0.97491
15217,12.016,1,0,0.00028253,2823.3,9.3311e-05,0.90293,9.3188e-05,-0.018429,-0.00028251,-2822.9,0.97601
15218,12.108,0.90909,0,0.00028018,2799.9,9.2653e-05,2.315,9.2344e-05,-0.005887,-0.00028014,-2798.7,0.98824
15219,12.016,0.90909,0.05,8.7132e-07,8.7072,6.6907e-07,5.0272,-2.6784e-12,3.386e-06,-6.6907e-07,-5.0271,0.97565
15220,12.016,1.1818,0,0.00028231,2821.2,9.321e-05,0.024153,9.3086e-05,-0.90662,-0.00028233,-2821.6,0.97665
15221,12.108,1.0909,0,0.00027996,2797.7,9.2438e-05,0.58484,9.2356e-05,-0.030991,-0.00027995,-2797.4,0.98891
15222,12.016,1.0909,0.05,8.718e-07,8.712,6.6944e-07,5.0299,-1.7602e-12,3.8369e-06,-6.6943e-07,-5.0299,0.97632
15223,12.016,1.3636,0,0.00028211,2819.2,9.3224e-05,0.01067,9.2885e-05,-2.5369,-0.00028216,-2820.4,0.97723
15224,12.108,1.2727,0,0.00027976,2795.7,9.2377e-05,0.020512,9.2227e-05,-1.1084,-0.00027978,-2796.2,0.98951
15225,12.016,1.2727,0.05,8.7224e-07,8.7163,6.6977e-07,5.0324,-1.7598e-12,3.8964e-06,-6.6977e-07,-5.0324,0.97693
15226,12.016,1.5455,0,0.00028193,2817.4,9.3238e-05,0.007914,9.2699e-05,-4.0426,-0.000282,-2819.4,0.97775
15227,12.108,1.4545,0,0.00027957,2793.8,9.239e-05,0.010424,9.204e-05,-2.6149,-0.00027962,-2795.1,0.99005
15228,12.016,1.4545,0.05,8.7263e-07,8.7203,6.7007e-07,5.0347,-2.67e-12,3.7763e-06,-6.7007e-07,-5.0346,0.97747
15229,12.016,1.7273,0,0.00028177,2815.7,9.3252e-05,0.0067631,9.2532e-05,-5.4032,-0.00028186,-2818.4,0.97821
15230,12.108,1.6364,0,0.00027941,2792.1,9.2402e-05,0.0079012,9.187e-05,-3.9927,-0.00027947,-2794.1,0.99054
15231,12.016,1.6364,0.05,8.7299e-07,8.7238,6.7035e-07,5.0368,-8.4641e-13,4.0148e-06,-6.7034e-07,-5.0367,0.97796
15232,12.016,1.9091,0,0.00028163,2814.3,9.3264e-05,0.0061478,9.2384e-05,-6.6069,-0.00028174,-2817.6,0.9786
15233,12.108,1.8182,0,0.00027926,2790.6,9.2414e-05,0.0067917,9.1717e-05,-5.2252,-0.00027934,-2793.2,0.99096
15234,12.016,1.8182,0.05,8.733e-07,8.727,6.7059e-07,5.0386,-8.5092e-13,3.4349e-06,-6.7059e-07,-5.0385,0.97839
15235,12.016,2.0909,0,0.0002815,2813.1,9.3275e-05,0.0057759,9.2257e-05,-7.6436,-0.00028163,-2816.9,0.97894
15236,12.108,2,0,0.00027913,2789.3,9.2424e-05,0.0061874,9.1585e-05,-6.3017,-0.00027923,-2792.5,0.99132
15237,12.016,2,0.05,8.7357e-07,8.7297,6.708e-07,5.0401,-8.5637e-13,3.6379e-06,-6.7079e-07,-5.0401,0.97875
15238,12.016,2.2727,0,0.0002814,2812.1,9.3284e-05,0.0055356,9.2152e-05,-8.5044,-0.00028155,-2816.3,0.97921
15239,12.108,2.1818,0,0.00027902,2788.3,9.2433e-05,0.0058205,9.1473e-05,-7.2133,-0.00027914,-2791.8,0.99162
15240,12.016,2.1818,0.05,8.738e-07,8.732,6.7097e-07,5.0414,-8.6148e-13,3.9281e-06,-6.7097e-07,-5.0414,0.97906
15241,12.016,2.4545,0,0.00028132,2811.3,9.3291e-05,0.0053779,9.2069e-05,-9.182,-0.00028148,-2815.9,0.97942
15242,12.108,2.3636,0,0.00027893,2787.4,9.2441e-05,0.0055854,9.1382e-05,-7.9521,-0.00027906,-2791.3,0.99187
15243,12.016,2.3636,0.05,8.7399e-07,8.7338,6.7111e-07,5.0425,3.9607e-14,3.757e-06,-6.7112e-07,-5.0425,0.9793
15244,12.016,2.6364,0,0.00028127,2810.7,9.3297e-05,0.0052777,9.2009e-05,-9.6703,-0.00028143,-2815.5,0.97958
15245,12.108,2.5455,0,0.00027886,2786.7,9.2447e-05,0.0054364,9.1313e-05,-8.512,-0.00027901,-2791,0.99205
15246,12.016,2.5455,0.05,8.7413e-07,8.7352,6.7122e-07,5.0433,2.9384e-14,3.795e-06,-6.7122e-07,-5.0433,0.97948
15247,12.016,2.8182,0,0.00028123,2810.4,9.33e-05,0.0052208,9.1973e-05,-9.9651,-0.0002814,-2815.3,0.97967
15248,12.108,2.7273,0,0.00027882,2786.3,9.2451e-05,0.0053458,9.1267e-05,-8.888,-0.00027897,-2790.7,0.99217
15249,12.016,2.7273,0.05,8.7422e-07,8.7362,6.7129e-07,5.0438,1.8257e-14,2.9971e-06,-6.7129e-07,-5.0438,0.9796
15250,12.016,3,0,0.00028122,2810.3,9.3301e-05,0.0052024,9.1961e-05,-10.064,-0.00028139,-2815.3,0.9797
15251,12.108,2.9091,0,0.0002788,2786,9.2452e-05,0.0053028,9.1244e-05,-9.0768,-0.00027895,-2790.6,0.99223
15252,12.016,2.9091,0.05,8.7426e-07,8.7366,6.7133e-07,5.0441,1.8251e-12,3.3246e-06,-6.7133e-07,-5.0441,0.97966
15253,12.016,3.1818,0,0.00028123,2810.4,9.33e-05,0.005221,9.1973e-05,-9.9651,-0.0002814,-2815.3,0.97967
15254,12.108,3.0909,0,0.0002788,2786,9.2452e-05,0.0053026,9.1244e-05,-9.0768,-0.00027895,-2790.6,0.99223
15255,12.016,3.0909,0.05,8.7426e-07,8.7366,6.7133e-07,5.0441,1.8128e-12,2.9337e-06,-6.7133e-07,-5.0441,0.97966
15256,12.016,3.3636,0,0.00028127,2810.7,9.3297e-05,0.0052776,9.2009e-05,-9.6703,-0.00028143,-2815.5,0.97958
15257,12.108,3.2727,0,0.00027882,2786.3,9.2451e-05,0.0053462,9.1267e-05,-8.888,-0.00027897,-2790.7,0.99217
15258,12.016,3.2727,0.05,8.7422e-07,8.7362,6.7129e-07,5.0438,-1.8284e-14,3.1398e-06,-6.7129e-07,-5.0439,0.9796
15259,12.016,3.5455,0,0.00028132,2811.3,9.3291e-05,0.0053777,9.2069e-05,-9.182,-0.00028148,-2815.9,0.97942
15260,12.108,3.4545,0,0.00027886,2786.7,9.2447e-05,0.0054362,9.1313e-05,-8.512,-0.00027901,-2791,0.99205
15261,12.016,3.4545,0.05,8.7413e-07,8.7352,6.7122e-07,5.0433,8.7977e-13,2.8758e-06,-6.7122e-07,-5.0433,0.97948
15262,12.016,3.7273,0,0.0002814,2812.1,9.3284e-05,0.0055353,9.2152e-05,-8.5044,-0.00028155,-2816.3,0.97921
15263,12.108,3.6364,0,0.00027893,2787.4,9.2441e-05,0.0055854,9.1382e-05,-7.9521,-0.00027906,-2791.3,0.99187
15264,12.016,3.6364,0.05,8.7399e-07,8.7338,6.7111e-07,5.0424,1.7792e-12,3.3288e-06,-6.7111e-07,-5.0425,0.9793
15265,12.016,3.9091,0,0.0002815,2813.1,9.3275e-05,0.0057758,9.2257e-05,-7.6435,-0.00028163,-2816.9,0.97894
15266,12.108,3.8182,0,0.00027902,2788.3,9.2433e-05,0.0058198,9.1473e-05,-7.2132,-0.00027914,-2791.8,0.99162
15267,12.016,3.8182,0.05,8.738e-07,8.732,6.7097e-07,5.0414,1.7694e-12,3.571e-06,-6.7098e-07,-5.0415,0.97906
15268,12.016,4.0909,0,0.00028163,2814.3,9.3264e-05,0.0061478,9.2384e-05,-6.6069,-0.00028174,-2817.6,0.9786
15269,12.108,4,0,0.00027913,2789.3,9.2424e-05,0.006187,9.1585e-05,-6.3017,-0.00027923,-2792.5,0.99132
15270,12.016,4,0.05,8.7357e-07,8.7297,6.7079e-07,5.0401,2.6726e-12,2.9132e-06,-6.708e-07,-5.0401,0.97875
15271,12.016,4.2727,0,0.00028177,2815.7,9.3252e-05,0.0067625,9.2532e-05,-5.4032,-0.00028186,-2818.4,0.97821
15272,12.108,4.1818,0,0.00027926,2790.6,9.2414e-05,0.0067914,9.1718e-05,-5.2252,-0.00027934,-2793.2,0.99096
15273,12.016,4.1818,0.05,8.733e-07,8.727,6.7058e-07,5.0385,2.6713e-12,2.5024e-06,-6.7059e-07,-5.0386,0.97839
15274,12.016,4.4545,0,0.00028193,2817.4,9.3238e-05,0.0079138,9.2699e-05,-4.0426,-0.000282,-2819.4,0.97775
15275,12.108,4.3636,0,0.00027941,2792.1,9.2402e-05,0.0079001,9.187e-05,-3.9927,-0.00027947,-2794.1,0.99054
15276,12.016,4.3636,0.05,8.7299e-07,8.7238,6.7034e-07,5.0367,3.572e-12,3.3669e-06,-6.7035e-07,-5.0368,0.97796
15277,12.016,4.6364,0,0.00028211,2819.2,9.3224e-05,0.01067,9.2885e-05,-2.5368,-0.00028216,-2820.4,0.97723
15278,12.108,4.5455,0,0.00027957,2793.8,9.239e-05,0.010424,9.204e-05,-2.6149,-0.00027962,-2795.1,0.99005
15279,12.016,4.5455,0.05,8.7263e-07,8.7203,6.7007e-07,5.0346,3.5728e-12,2.383e-06,-6.7008e-07,-5.0347,0.97747
15280,12.016,4.8182,0,0.00028231,2821.2,9.321e-05,0.024153,9.3086e-05,-0.90658,-0.00028233,-2821.6,0.97665
15281,12.108,4.7273,0,0.00027976,2795.7,9.2377e-05,0.020511,9.2227e-05,-1.1083,-0.00027978,-2796.2,0.98951
15282,12.016,4.7273,0.05,8.7224e-07,8.7163,6.6976e-07,5.0323,4.4838e-12,2.9416e-06,-6.6977e-07,-5.0324,0.97693
15283,12.016,5,0,0.00028253,2823.3,9.3311e-05,0.90297,9.3188e-05,-0.018428,-0.00028251,-2822.9,0.97601
15284,12.108,4.9091,0,0.00027996,2797.7,9.2438e-05,0.58489,9.2356e-05,-0.030988,-0.00027995,-2797.4,0.98891
15285,12.016,4.9091,0.05,8.718e-07,8.712,6.6943e-07,5.0298,5.3969e-12,3.0704e-06,-6.6944e-07,-5.0299,0.97632
15286,12.016,5.1818,0,0.00028276,2825.7,9.3542e-05,2.7667,9.3173e-05,-0.0041205,-0.00028271,-2824.3,0.97531
15287,12.108,5.0909,0,0.00028018,2799.9,9.2653e-05,2.315,9.2344e-05,-0.0058886,-0.00028014,-2798.7,0.98824
15288,12.016,5.0909,0.05,8.7132e-07,8.7072,6.6906e-07,5.027,5.4058e-12,2.0764e-06,-6.6907e-07,-5.0272,0.97565
15289,12.016,5.3636,0,0.00028301,2828.1,9.3789e-05,4.7425,9.3157e-05,-0.001485,-0.00028293,-2825.7,0.97455
15290,12.108,5.2727,0,0.00028041,2802.2,9.2885e-05,4.1686,9.233e-05,-0.0021894,-0.00028034,-2800.1,0.98752
15291,12.016,5.2727,0.05,8.706e-07,8.7,6.6851e-07,5.0229,6.3268e-12,3.0192e-06,-6.6852e-07,-5.023,0.97491
15292,12.016,5.5455,0,0.00028327,2830.8,9.4052e-05,6.847,9.3141e-05,0.0003195,-0.00028316,-2827.4,0.97373
15293,12.108,5.4545,0,0.00028066,2804.7,9.313e-05,6.1187,9.2315e-05,-0.0011361,-0.00028056,-2801.6,0.98673
15294,12.016,5.4545,0.05,8.6669e-07,8.661,6.6551e-07,5.0003,5.4294e-12,3.0096e-06,-6.6552e-07,-5.0005,0.97412
15295,12.016,5.7273,0,0.00028366,2834.6,9.4418e-05,9.7132,9.3125e-05,-0.0011545,-0.00028349,-2829.7,0.97284
15296,12.108,5.6364,0,0.00028094,2807.4,9.3396e-05,8.2284,9.2301e-05,0.00097628,-0.0002808,-2803.3,0.98588
15297,12.016,5.6364,0.05,8.1433e-07,8.1377,6.253e-07,4.6982,6.3562e-12,3.9948e-06,-6.2531e-07,-4.6984,0.97327
15298,12.108,5.8182,0,0.00028143,2812.4,9.3856e-05,11.78,9.2287e-05,-0.0039105,-0.00028123,-2806.4,0.98497
15299,12.016,5.8182,0.05,2.1022e-08,0.21008,1.6137e-08,0.12121,2.436e-13,-4.9041e-05,-1.6148e-08,-0.12137,0.97235
15300,12.016,5.9091,0,0.00028334,2831.5,9.4165e-05,7.9185,9.3111e-05,-0.0012876,-0.00028321,-2827.5,0.97189
15301,12.201,0.27273,0,0.0002787,2785,9.2821e-05,10.198,9.1464e-05,-0.001474,-0.00027852,-2779.9,0.99807
15302,12.293,0.18182,0,0.00027648,2762.8,9.2255e-05,12.193,9.0632e-05,-0.0034655,-0.00027627,-2756.7,1.0103
15303,12.201,0.18182,0.05,1.5142e-08,0.15132,1.163e-08,0.087419,3.3291e-13,4.1896e-05,-1.1624e-08,-0.087308,0.99759
15304,12.201,0.090909,0,0.00027836,2781.7,9.2542e-05,8.1778,9.1454e-05,-0.0014063,-0.00027822,-2777.6,0.99714
15305,12.201,0.45455,0,0.00027832,2781.3,9.2471e-05,7.4737,9.1476e-05,-0.00034958,-0.00027819,-2777.6,0.99895
15306,12.293,0.36364,0,0.00027599,2758,9.1809e-05,8.7655,9.0642e-05,1.3918e-05,-0.00027584,-2753.6,1.0112
15307,12.201,0.36364,0.05,8.1021e-07,8.0965,6.2214e-07,4.6746,-3.627e-12,1.6091e-06,-6.2213e-07,-4.6744,0.99849
15308,12.201,0.63636,0,0.00027807,2778.8,9.2223e-05,5.5216,9.1488e-05,-0.0016046,-0.00027797,-2776,0.99976
15309,12.293,0.54545,0,0.00027573,2755.4,9.1558e-05,6.8036,9.0653e-05,-0.0014096,-0.00027561,-2752,1.012
15310,12.201,0.54545,0.05,8.6261e-07,8.6201,6.6238e-07,4.9769,-2.7087e-12,3.2914e-06,-6.6237e-07,-4.9768,0.99933
15311,12.201,0.81818,0,0.00027783,2776.4,9.1993e-05,3.6937,9.1501e-05,-0.0031257,-0.00027777,-2774.5,1.0005
15312,12.293,0.72727,0,0.00027549,2753,9.1329e-05,4.9988,9.0664e-05,-0.0020642,-0.0002754,-2750.5,1.0128
15313,12.201,0.72727,0.05,8.6648e-07,8.6588,6.6535e-07,4.9992,-3.6034e-12,3.8376e-06,-6.6535e-07,-4.9991,1.0001
15314,12.201,1,0,0.00027761,2774.2,9.1776e-05,1.9641,9.1514e-05,-0.0077466,-0.00027758,-2773.2,1.0012
15315,12.293,0.90909,0,0.00027527,2750.8,9.1112e-05,3.2847,9.0675e-05,-0.003999,-0.00027521,-2749.1,1.0135
15316,12.201,0.90909,0.05,8.6716e-07,8.6656,6.6587e-07,5.0031,-2.6934e-12,4.0383e-06,-6.6587e-07,-5.0031,1.0008
15317,12.201,1.1818,0,0.0002774,2772.1,9.1578e-05,0.37721,9.1521e-05,-0.050536,-0.0002774,-2772,1.0018
15318,12.293,1.0909,0,0.00027506,2748.7,9.0909e-05,1.6705,9.0685e-05,-0.009664,-0.00027503,-2747.8,1.0142
15319,12.201,1.0909,0.05,8.676e-07,8.67,6.6621e-07,5.0057,-3.5981e-12,3.8768e-06,-6.6621e-07,-5.0056,1.0015
15320,12.201,1.3636,0,0.00027722,2770.2,9.1543e-05,0.019059,9.1379e-05,-1.2067,-0.00027724,-2770.8,1.0024
15321,12.293,1.2727,0,0.00027486,2746.7,9.0729e-05,0.23139,9.0687e-05,-0.083961,-0.00027486,-2746.7,1.0148
15322,12.201,1.2727,0.05,8.68e-07,8.674,6.6651e-07,5.008,-8.6231e-13,3.5985e-06,-6.6652e-07,-5.0079,1.0021
15323,12.201,1.5455,0,0.00027704,2768.5,9.1553e-05,0.010385,9.1208e-05,-2.5863,-0.00027709,-2769.8,1.0029
15324,12.293,1.4545,0,0.00027469,2745,9.0711e-05,0.017985,9.054e-05,-1.2671,-0.00027471,-2745.6,1.0153
15325,12.201,1.4545,0.05,8.6836e-07,8.6776,6.6679e-07,5.01,-8.5921e-13,3.6643e-06,-6.6679e-07,-5.01,1.0026
15326,12.201,1.7273,0,0.00027689,2767,9.1564e-05,0.0079537,9.1052e-05,-3.8359,-0.00027695,-2768.9,1.0034
15327,12.293,1.6364,0,0.00027453,2743.4,9.0721e-05,0.01031,9.0383e-05,-2.5292,-0.00027457,-2744.7,1.0158
15328,12.201,1.6364,0.05,8.6868e-07,8.6808,6.6704e-07,5.0119,-1.7678e-12,3.7576e-06,-6.6703e-07,-5.0118,1.0031
15329,12.201,1.9091,0,0.00027675,2765.6,9.1574e-05,0.00685,9.0915e-05,-4.941,-0.00027684,-2768.1,1.0037
15330,12.293,1.8182,0,0.00027439,2742,9.073e-05,0.0079712,9.0242e-05,-3.6605,-0.00027445,-2743.8,1.0162
15331,12.201,1.8182,0.05,8.6897e-07,8.6837,6.6726e-07,5.0135,-8.5923e-13,3.1996e-06,-6.6726e-07,-5.0135,1.0035
15332,12.201,2.0909,0,0.00027664,2764.5,9.1583e-05,0.0062423,9.0798e-05,-5.8922,-0.00027674,-2767.4,1.0041
15333,12.293,2,0,0.00027426,2740.8,9.0738e-05,0.0068814,9.0119e-05,-4.6485,-0.00027434,-2743.1,1.0166
15334,12.201,2,0.05,8.6921e-07,8.6861,6.6745e-07,5.015,4.5669e-14,3.5013e-06,-6.6745e-07,-5.0149,1.0039
15335,12.201,2.2727,0,0.00027654,2763.5,9.159e-05,0.005874,9.07e-05,-6.6816,-0.00027666,-2766.8,1.0043
15336,12.293,2.1818,0,0.00027416,2739.7,9.0745e-05,0.0062777,9.0015e-05,-5.4846,-0.00027425,-2742.5,1.0169
15337,12.201,2.1818,0.05,8.6942e-07,8.6882,6.6761e-07,5.0161,-8.6942e-13,3.6305e-06,-6.6761e-07,-5.0161,1.0042
15338,12.201,2.4545,0,0.00027647,2762.8,9.1596e-05,0.005643,9.0623e-05,-7.3026,-0.00027659,-2766.4,1.0046
15339,12.293,2.3636,0,0.00027408,2738.9,9.0751e-05,0.0059136,8.993e-05,-6.162,-0.00027418,-2742,1.0171
15340,12.201,2.3636,0.05,8.6959e-07,8.6899,6.6773e-07,5.0171,3.3566e-14,3.5812e-06,-6.6773e-07,-5.0171,1.0044
15341,12.201,2.6364,0,0.00027641,2762.2,9.16e-05,0.0055007,9.0568e-05,-7.75,-0.00027654,-2766.1,1.0047
15342,12.293,2.5455,0,0.00027402,2738.3,9.0756e-05,0.0056915,8.9867e-05,-6.6751,-0.00027413,-2741.6,1.0173
15343,12.201,2.5455,0.05,8.6971e-07,8.6911,6.6783e-07,5.0178,2.4244e-14,3.5203e-06,-6.6783e-07,-5.0178,1.0046
15344,12.201,2.8182,0,0.00027638,2761.9,9.1603e-05,0.0054223,9.0535e-05,-8.02,-0.00027652,-2765.9,1.0048
15345,12.293,2.7273,0,0.00027397,2737.8,9.0759e-05,0.0055607,8.9824e-05,-7.0195,-0.00027409,-2741.3,1.0174
15346,12.201,2.7273,0.05,8.698e-07,8.692,6.6789e-07,5.0183,1.4988e-14,2.8538e-06,-6.6789e-07,-5.0183,1.0047
15347,12.201,3,0,0.00027637,2761.8,9.1604e-05,0.005397,9.0524e-05,-8.1103,-0.00027651,-2765.8,1.0048
15348,12.293,2.9091,0,0.00027395,2737.6,9.0761e-05,0.0054999,8.9803e-05,-7.1925,-0.00027407,-2741.2,1.0174
15349,12.201,2.9091,0.05,8.6984e-07,8.6924,6.6793e-07,5.0185,5.1424e-15,3.0784e-06,-6.6793e-07,-5.0185,1.0048
15350,12.201,3.1818,0,0.00027638,2761.9,9.1603e-05,0.0054225,9.0535e-05,-8.02,-0.00027652,-2765.9,1.0048
15351,12.293,3.0909,0,0.00027395,2737.6,9.0761e-05,0.0054995,8.9803e-05,-7.1925,-0.00027407,-2741.2,1.0174
15352,12.201,3.0909,0.05,8.6984e-07,8.6924,6.6793e-07,5.0185,-5.1578e-15,2.703e-06,-6.6793e-07,-5.0185,1.0048
15353,12.201,3.3636,0,0.00027641,2762.2,9.16e-05,0.0055011,9.0568e-05,-7.75,-0.00027654,-2766.1,1.0047
15354,12.293,3.2727,0,0.00027397,2737.8,9.0759e-05,0.0055611,8.9824e-05,-7.0195,-0.00027409,-2741.3,1.0174
15355,12.201,3.2727,0.05,8.698e-07,8.692,6.6789e-07,5.0183,8.9412e-13,2.9843e-06,-6.6789e-07,-5.0183,1.0047
15356,12.201,3.5455,0,0.00027647,2762.8,9.1596e-05,0.0056431,9.0623e-05,-7.3026,-0.00027659,-2766.4,1.0046
15357,12.293,3.4545,0,0.00027402,2738.3,9.0756e-05,0.0056912,8.9867e-05,-6.6751,-0.00027413,-2741.6,1.0173
15358,12.201,3.4545,0.05,8.6971e-07,8.6911,6.6783e-07,5.0178,8.8462e-13,2.8499e-06,-6.6783e-07,-5.0178,1.0046
15359,12.201,3.7273,0,0.00027654,2763.5,9.159e-05,0.0058736,9.07e-05,-6.6816,-0.00027666,-2766.8,1.0043
15360,12.293,3.6364,0,0.00027408,2738.9,9.0751e-05,0.0059141,8.9931e-05,-6.162,-0.00027418,-2742,1.0171
15361,12.201,3.6364,0.05,8.6959e-07,8.6899,6.6773e-07,5.0171,2.6941e-12,3.2081e-06,-6.6774e-07,-5.0171,1.0044
15362,12.201,3.9091,0,0.00027664,2764.5,9.1583e-05,0.0062413,9.0798e-05,-5.8921,-0.00027674,-2767.4,1.0041
15363,12.293,3.8182,0,0.00027416,2739.7,9.0745e-05,0.0062768,9.0015e-05,-5.4846,-0.00027425,-2742.5,1.0169
15364,12.201,3.8182,0.05,8.6942e-07,8.6882,6.676e-07,5.0161,2.6875e-12,3.269e-06,-6.6761e-07,-5.0162,1.0042
15365,12.201,4.0909,0,0.00027675,2765.6,9.1574e-05,0.0068493,9.0915e-05,-4.9409,-0.00027684,-2768.1,1.0037
15366,12.293,4,0,0.00027426,2740.8,9.0738e-05,0.0068814,9.0119e-05,-4.6485,-0.00027434,-2743.1,1.0166
15367,12.201,4,0.05,8.6921e-07,8.6861,6.6745e-07,5.0149,2.6843e-12,2.6869e-06,-6.6745e-07,-5.015,1.0039
15368,12.201,4.2727,0,0.00027689,2767,9.1564e-05,0.0079529,9.1053e-05,-3.8358,-0.00027695,-2768.9,1.0034
15369,12.293,4.1818,0,0.00027439,2742,9.073e-05,0.0079707,9.0242e-05,-3.6605,-0.00027445,-2743.8,1.0162
15370,12.201,4.1818,0.05,8.6897e-07,8.6837,6.6725e-07,5.0135,3.5873e-12,2.2771e-06,-6.6726e-07,-5.0136,1.0035
15371,12.201,4.4545,0,0.00027704,2768.5,9.1553e-05,0.010384,9.1208e-05,-2.5863,-0.00027709,-2769.8,1.0029
15372,12.293,4.3636,0,0.00027453,2743.4,9.0721e-05,0.01031,9.0383e-05,-2.5291,-0.00027457,-2744.7,1.0158
15373,12.201,4.3636,0.05,8.6868e-07,8.6808,6.6703e-07,5.0118,3.5842e-12,3.1007e-06,-6.6704e-07,-5.0119,1.0031
15374,12.201,4.6364,0,0.00027722,2770.2,9.1543e-05,0.019059,9.1379e-05,-1.2067,-0.00027724,-2770.8,1.0024
15375,12.293,4.5455,0,0.00027469,2745,9.0711e-05,0.017985,9.054e-05,-1.267,-0.00027471,-2745.6,1.0153
15376,12.201,4.5455,0.05,8.6836e-07,8.6776,6.6679e-07,5.0099,3.5848e-12,2.233e-06,-6.6679e-07,-5.0101,1.0026
15377,12.201,4.8182,0,0.0002774,2772.1,9.1578e-05,0.37724,9.1521e-05,-0.05053,-0.0002774,-2772,1.0018
15378,12.293,4.7273,0,0.00027486,2746.7,9.0729e-05,0.23142,9.0687e-05,-0.08395,-0.00027486,-2746.7,1.0148
15379,12.201,4.7273,0.05,8.68e-07,8.674,6.6651e-07,5.0079,3.5901e-12,2.8481e-06,-6.6651e-07,-5.008,1.0021
15380,12.201,5,0,0.00027761,2774.2,9.1776e-05,1.9642,9.1514e-05,-0.0077474,-0.00027758,-2773.2,1.0012
15381,12.293,4.9091,0,0.00027506,2748.7,9.0909e-05,1.6705,9.0685e-05,-0.0096639,-0.00027503,-2747.8,1.0142
15382,12.201,4.9091,0.05,8.676e-07,8.67,6.662e-07,5.0056,3.5877e-12,2.8773e-06,-6.6622e-07,-5.0057,1.0015
15383,12.201,5.1818,0,0.00027783,2776.4,9.1993e-05,3.6937,9.1501e-05,-0.0031276,-0.00027777,-2774.5,1.0005
15384,12.293,5.0909,0,0.00027527,2750.8,9.1112e-05,3.2847,9.0675e-05,-0.0040003,-0.00027521,-2749.1,1.0135
15385,12.201,5.0909,0.05,8.6716e-07,8.6656,6.6586e-07,5.003,5.4159e-12,1.8754e-06,-6.6588e-07,-5.0031,1.0008
15386,12.201,5.3636,0,0.00027807,2778.8,9.2223e-05,5.5216,9.1488e-05,-0.0016045,-0.00027797,-2776,0.99976
15387,12.293,5.2727,0,0.00027549,2753,9.1329e-05,4.9988,9.0664e-05,-0.0020659,-0.0002754,-2750.5,1.0128
15388,12.201,5.2727,0.05,8.6648e-07,8.6588,6.6534e-07,4.9991,6.3356e-12,2.748e-06,-6.6535e-07,-4.9992,1.0001
15389,12.201,5.5455,0,0.00027832,2781.3,9.2471e-05,7.4737,9.1476e-05,-0.00034841,-0.00027819,-2777.6,0.99895
15390,12.293,5.4545,0,0.00027573,2755.4,9.1558e-05,6.8037,9.0653e-05,-0.0014079,-0.00027561,-2752,1.012
15391,12.201,5.4545,0.05,8.6261e-07,8.6201,6.6237e-07,4.9767,3.6177e-12,2.7874e-06,-6.6238e-07,-4.9769,0.99933
15392,12.201,5.7273,0,0.0002787,2785,9.2821e-05,10.198,9.1464e-05,-0.0014742,-0.00027852,-2779.9,0.99807
15393,12.293,5.6364,0,0.00027599,2758,9.1809e-05,8.7655,9.0642e-05,1.3455e-05,-0.00027584,-2753.6,1.0112
15394,12.201,5.6364,0.05,8.1021e-07,8.0965,6.2213e-07,4.6744,5.4412e-12,3.0192e-06,-6.2214e-07,-4.6746,0.99849
15395,12.293,5.8182,0,0.00027648,2762.8,9.2255e-05,12.193,9.0632e-05,-0.0034663,-0.00027627,-2756.7,1.0103
15396,12.201,5.8182,0.05,1.5142e-08,0.15132,1.1625e-08,0.087309,-9.8152e-13,-4.1182e-05,-1.163e-08,-0.087419,0.99759
15397,12.201,5.9091,0,0.00027836,2781.7,9.2542e-05,8.1778,9.1454e-05,-0.0014066,-0.00027822,-2777.6,0.99714
15398,12.385,0.27273,0,0.00027375,2735.7,9.123e-05,10.662,8.981e-05,-0.0017901,-0.00027357,-2730.3,1.0235
15399,12.477,0.18182,0,0.00027154,2713.6,9.0661e-05,12.592,8.8984e-05,-0.0030849,-0.00027133,-2707.2,1.0358
15400,12.385,0.18182,0.05,9.7441e-09,0.097374,7.4837e-09,0.056272,8.3328e-13,4.8879e-05,-7.4809e-09,-0.056166,1.023
15401,12.385,0.090909,0,0.0002734,2732.1,9.0926e-05,8.4289,8.9804e-05,-0.0015362,-0.00027325,-2727.9,1.0226
15402,12.385,0.45455,0,0.00027339,2732,9.0893e-05,8.0687,8.9819e-05,-0.00096554,-0.00027325,-2728,1.0244
15403,12.477,0.36364,0,0.00027106,2708.8,9.0226e-05,9.2777,8.8991e-05,-0.00089283,-0.0002709,-2704.1,1.0367
15404,12.385,0.36364,0.05,8.0616e-07,8.056,6.1903e-07,4.6512,-3.6242e-12,2.7084e-06,-6.1902e-07,-4.6511,1.0239
15405,12.385,0.63636,0,0.00027315,2729.6,9.0661e-05,6.2575,8.9828e-05,-0.0017477,-0.00027304,-2726.4,1.0251
15406,12.477,0.54545,0,0.00027081,2706.2,8.999e-05,7.4526,8.8998e-05,-0.0016701,-0.00027068,-2702.5,1.0375
15407,12.385,0.54545,0.05,8.5857e-07,8.5798,6.5928e-07,4.9536,-3.6234e-12,4.9632e-06,-6.5927e-07,-4.9535,1.0247
15408,12.385,0.81818,0,0.00027292,2727.3,9.0445e-05,4.5667,8.9837e-05,-0.0026354,-0.00027284,-2725,1.0259
15409,12.477,0.72727,0,0.00027058,2704,8.9775e-05,5.7821,8.9005e-05,-0.0020521,-0.00027048,-2701.1,1.0383
15410,12.385,0.72727,0.05,8.6241e-07,8.6182,6.6223e-07,4.9758,-2.7022e-12,5.017e-06,-6.6222e-07,-4.9756,1.0255
15411,12.385,1,0,0.00027271,2725.2,9.0242e-05,2.9674,8.9847e-05,-0.0047614,-0.00027266,-2723.7,1.0266
15412,12.477,0.90909,0,0.00027037,2701.8,8.9573e-05,4.1975,8.9014e-05,-0.0030895,-0.0002703,-2699.7,1.039
15413,12.385,0.90909,0.05,8.6305e-07,8.6246,6.6272e-07,4.9795,-3.6077e-12,5.207e-06,-6.6272e-07,-4.9794,1.0262
15414,12.385,1.1818,0,0.00027251,2723.3,9.0053e-05,1.4706,8.9856e-05,-0.011266,-0.00027249,-2722.5,1.0272
15415,12.477,1.0909,0,0.00027017,2699.8,8.9382e-05,2.7047,8.9022e-05,-0.0053574,-0.00027012,-2698.5,1.0396
15416,12.385,1.0909,0.05,8.6346e-07,8.6287,6.6303e-07,4.9818,-1.7807e-12,4.4972e-06,-6.6303e-07,-4.9817,1.0269
15417,12.385,1.3636,0,0.00027233,2721.5,8.989e-05,0.17441,8.9852e-05,-0.1104,-0.00027233,-2721.4,1.0277
15418,12.477,1.2727,0,0.00026999,2698,8.9206e-05,1.3167,8.9029e-05,-0.012479,-0.00026996,-2697.3,1.0402
15419,12.385,1.2727,0.05,8.6382e-07,8.6323,6.6331e-07,4.9839,-2.689e-12,4.4507e-06,-6.6331e-07,-4.9838,1.0274
15420,12.385,1.5455,0,0.00027217,2719.8,8.9879e-05,0.017879,8.9712e-05,-1.2317,-0.00027219,-2720.4,1.0282
15421,12.477,1.4545,0,0.00026982,2696.3,8.9058e-05,0.14574,8.9022e-05,-0.12761,-0.00026982,-2696.3,1.0407
15422,12.385,1.4545,0.05,8.6415e-07,8.6356,6.6356e-07,4.9858,-2.6867e-12,4.4803e-06,-6.6356e-07,-4.9857,1.028
15423,12.385,1.7273,0,0.00027202,2718.4,8.9886e-05,0.010412,8.9569e-05,-2.3755,-0.00027206,-2719.5,1.0287
15424,12.477,1.6364,0,0.00026967,2694.8,8.9049e-05,0.017852,8.8891e-05,-1.1679,-0.00026969,-2695.4,1.0412
15425,12.385,1.6364,0.05,8.6445e-07,8.6385,6.6379e-07,4.9875,-1.7764e-12,4.5169e-06,-6.6379e-07,-4.9874,1.0285
15426,12.385,1.9091,0,0.0002719,2717.1,8.9894e-05,0.0080492,8.9442e-05,-3.3895,-0.00027195,-2718.8,1.0291
15427,12.477,1.8182,0,0.00026953,2693.5,8.9056e-05,0.010471,8.8761e-05,-2.2026,-0.00026957,-2694.6,1.0416
15428,12.385,1.8182,0.05,8.6471e-07,8.6411,6.6399e-07,4.989,-8.706e-13,4.1599e-06,-6.6399e-07,-4.9889,1.0289
15429,12.385,2.0909,0,0.00027179,2716,8.9901e-05,0.0069386,8.9333e-05,-4.2622,-0.00027186,-2718.1,1.0294
15430,12.477,2,0,0.00026942,2692.3,8.9062e-05,0.0080844,8.8647e-05,-3.1086,-0.00026947,-2693.8,1.042
15431,12.385,2,0.05,8.6494e-07,8.6434,6.6416e-07,4.9903,-8.7128e-13,4.1498e-06,-6.6416e-07,-4.9902,1.0292
15432,12.385,2.2727,0,0.00027169,2715.1,8.9907e-05,0.0063244,8.9242e-05,-4.9862,-0.00027178,-2717.6,1.0297
15433,12.477,2.1818,0,0.00026932,2691.3,8.9067e-05,0.00696,8.8551e-05,-3.8754,-0.00026938,-2693.3,1.0423
15434,12.385,2.1818,0.05,8.6512e-07,8.6453,6.6431e-07,4.9914,-8.7697e-13,4.5406e-06,-6.6431e-07,-4.9913,1.0295
15435,12.385,2.4545,0,0.00027162,2714.4,8.9911e-05,0.0059605,8.9171e-05,-5.5555,-0.00027172,-2717.1,1.0299
15436,12.477,2.3636,0,0.00026924,2690.5,8.9072e-05,0.0063415,8.8473e-05,-4.4964,-0.00026932,-2692.8,1.0425
15437,12.385,2.3636,0.05,8.6527e-07,8.6468,6.6442e-07,4.9922,2.6412e-14,4.285e-06,-6.6443e-07,-4.9922,1.0297
15438,12.385,2.6364,0,0.00027157,2713.9,8.9915e-05,0.0057446,8.912e-05,-5.9656,-0.00027167,-2716.8,1.03
15439,12.477,2.5455,0,0.00026918,2689.9,8.9076e-05,0.0059836,8.8414e-05,-4.9667,-0.00026926,-2692.4,1.0427
15440,12.385,2.5455,0.05,8.6539e-07,8.6479,6.6451e-07,4.9929,1.9951e-14,4.7115e-06,-6.6451e-07,-4.9929,1.0299
15441,12.385,2.8182,0,0.00027154,2713.5,8.9917e-05,0.0056285,8.9089e-05,-6.2129,-0.00027165,-2716.6,1.0301
15442,12.477,2.7273,0,0.00026914,2689.5,8.9078e-05,0.0057806,8.8374e-05,-5.2823,-0.00026923,-2692.2,1.0428
15443,12.385,2.7273,0.05,8.6546e-07,8.6487,6.6457e-07,4.9933,1.8315e-12,3.9684e-06,-6.6457e-07,-4.9933,1.03
15444,12.385,3,0,0.00027153,2713.4,8.9918e-05,0.0055918,8.9079e-05,-6.2956,-0.00027164,-2716.6,1.0301
15445,12.477,2.9091,0,0.00026912,2689.3,8.9079e-05,0.0056888,8.8355e-05,-5.4407,-0.00026921,-2692.1,1.0429
15446,12.385,2.9091,0.05,8.655e-07,8.6491,6.646e-07,4.9935,9.1376e-13,4.1746e-06,-6.646e-07,-4.9935,1.0301
15447,12.385,3.1818,0,0.00027154,2713.5,8.9917e-05,0.0056284,8.9089e-05,-6.2129,-0.00027165,-2716.6,1.0301
15448,12.477,3.0909,0,0.00026912,2689.3,8.9079e-05,0.0056884,8.8355e-05,-5.4407,-0.00026921,-2692.1,1.0429
15449,12.385,3.0909,0.05,8.655e-07,8.6491,6.646e-07,4.9935,9.0519e-13,3.6336e-06,-6.646e-07,-4.9935,1.0301
15450,12.385,3.3636,0,0.00027157,2713.9,8.9915e-05,0.0057442,8.912e-05,-5.9656,-0.00027167,-2716.8,1.03
15451,12.477,3.2727,0,0.00026914,2689.5,8.9078e-05,0.005781,8.8374e-05,-5.2823,-0.00026923,-2692.2,1.0428
15452,12.385,3.2727,0.05,8.6546e-07,8.6487,6.6457e-07,4.9933,2.7159e-12,3.8679e-06,-6.6457e-07,-4.9933,1.03
15453,12.385,3.5455,0,0.00027162,2714.4,8.9911e-05,0.0059604,8.9171e-05,-5.5555,-0.00027172,-2717.1,1.0299
15454,12.477,3.4545,0,0.00026918,2689.9,8.9076e-05,0.0059836,8.8414e-05,-4.9667,-0.00026926,-2692.4,1.0427
15455,12.385,3.4545,0.05,8.6539e-07,8.6479,6.6451e-07,4.9929,1.7985e-12,3.7194e-06,-6.6451e-07,-4.9929,1.0299
15456,12.385,3.7273,0,0.00027169,2715.1,8.9907e-05,0.0063243,8.9242e-05,-4.9862,-0.00027178,-2717.6,1.0297
15457,12.477,3.6364,0,0.00026924,2690.5,8.9072e-05,0.0063418,8.8473e-05,-4.4964,-0.00026932,-2692.8,1.0425
15458,12.385,3.6364,0.05,8.6527e-07,8.6468,6.6442e-07,4.9922,2.701e-12,4.2897e-06,-6.6442e-07,-4.9922,1.0297
15459,12.385,3.9091,0,0.00027179,2716,8.9901e-05,0.0069387,8.9333e-05,-4.2622,-0.00027186,-2718.1,1.0294
15460,12.477,3.8182,0,0.00026932,2691.3,8.9067e-05,0.0069595,8.8551e-05,-3.8754,-0.00026938,-2693.3,1.0423
15461,12.385,3.8182,0.05,8.6512e-07,8.6453,6.643e-07,4.9913,1.7851e-12,4.6729e-06,-6.6431e-07,-4.9914,1.0295
15462,12.385,4.0909,0,0.0002719,2717.1,8.9894e-05,0.0080495,8.9442e-05,-3.3895,-0.00027195,-2718.8,1.0291
15463,12.477,4,0,0.00026942,2692.3,8.9062e-05,0.0080848,8.8647e-05,-3.1086,-0.00026947,-2693.8,1.042
15464,12.385,4,0.05,8.6494e-07,8.6434,6.6416e-07,4.9902,3.5995e-12,3.9688e-06,-6.6416e-07,-4.9903,1.0292
15465,12.385,4.2727,0,0.00027202,2718.4,8.9886e-05,0.010412,8.9569e-05,-2.3755,-0.00027206,-2719.5,1.0287
15466,12.477,4.1818,0,0.00026953,2693.5,8.9056e-05,0.01047,8.8761e-05,-2.2026,-0.00026957,-2694.6,1.0416
15467,12.385,4.1818,0.05,8.6471e-07,8.6411,6.6399e-07,4.9889,2.688e-12,3.5597e-06,-6.6399e-07,-4.989,1.0289
15468,12.385,4.4545,0,0.00027217,2719.8,8.9879e-05,0.017879,8.9712e-05,-1.2317,-0.00027219,-2720.4,1.0282
15469,12.477,4.3636,0,0.00026967,2694.8,8.9049e-05,0.017852,8.8891e-05,-1.1679,-0.00026969,-2695.4,1.0412
15470,12.385,4.3636,0.05,8.6445e-07,8.6385,6.6379e-07,4.9874,3.5968e-12,4.376e-06,-6.6379e-07,-4.9875,1.0285
15471,12.385,4.6364,0,0.00027233,2721.5,8.989e-05,0.17443,8.9852e-05,-0.11038,-0.00027233,-2721.4,1.0277
15472,12.477,4.5455,0,0.00026982,2696.3,8.9058e-05,0.14576,8.9022e-05,-0.12759,-0.00026982,-2696.3,1.0407
15473,12.385,4.5455,0.05,8.6415e-07,8.6356,6.6356e-07,4.9857,3.5941e-12,3.4318e-06,-6.6357e-07,-4.9858,1.028
15474,12.385,4.8182,0,0.00027251,2723.3,9.0053e-05,1.4706,8.9856e-05,-0.011266,-0.00027249,-2722.5,1.0272
15475,12.477,4.7273,0,0.00026999,2698,8.9206e-05,1.3167,8.9029e-05,-0.012479,-0.00026996,-2697.3,1.0402
15476,12.385,4.7273,0.05,8.6382e-07,8.6323,6.633e-07,4.9838,3.5996e-12,3.974e-06,-6.6332e-07,-4.9839,1.0274
15477,12.385,5,0,0.00027271,2725.2,9.0242e-05,2.9674,8.9847e-05,-0.0047618,-0.00027266,-2723.7,1.0266
15478,12.477,4.9091,0,0.00027017,2699.8,8.9382e-05,2.7048,8.9022e-05,-0.0053575,-0.00027012,-2698.5,1.0396
15479,12.385,4.9091,0.05,8.6346e-07,8.6287,6.6303e-07,4.9817,3.6031e-12,3.7984e-06,-6.6304e-07,-4.9818,1.0269
15480,12.385,5.1818,0,0.00027292,2727.3,9.0445e-05,4.5667,8.9837e-05,-0.0026365,-0.00027284,-2725,1.0259
15481,12.477,5.0909,0,0.00027037,2701.8,8.9573e-05,4.1975,8.9014e-05,-0.0030912,-0.0002703,-2699.7,1.039
15482,12.385,5.0909,0.05,8.6305e-07,8.6246,6.6271e-07,4.9793,5.4258e-12,2.9132e-06,-6.6272e-07,-4.9795,1.0262
15483,12.385,5.3636,0,0.00027315,2729.6,9.0661e-05,6.2575,8.9828e-05,-0.0017477,-0.00027304,-2726.4,1.0251
15484,12.477,5.2727,0,0.00027058,2704,8.9775e-05,5.7821,8.9005e-05,-0.0020533,-0.00027048,-2701.1,1.0383
15485,12.385,5.2727,0.05,8.6241e-07,8.6182,6.6222e-07,4.9756,4.5247e-12,3.4389e-06,-6.6223e-07,-4.9758,1.0255
15486,12.385,5.5455,0,0.00027339,2732,9.0893e-05,8.0687,8.9819e-05,-0.00096542,-0.00027325,-2728,1.0244
15487,12.477,5.4545,0,0.00027081,2706.2,8.999e-05,7.4526,8.8998e-05,-0.00167,-0.00027068,-2702.5,1.0375
15488,12.385,5.4545,0.05,8.5857e-07,8.5798,6.5927e-07,4.9535,3.62e-12,3.7667e-06,-6.5928e-07,-4.9536,1.0247
15489,12.385,5.7273,0,0.00027375,2735.7,9.123e-05,10.662,8.981e-05,-0.001791,-0.00027357,-2730.3,1.0235
15490,12.477,5.6364,0,0.00027106,2708.8,9.0226e-05,9.2777,8.8991e-05,-0.00089283,-0.0002709,-2704.1,1.0367
15491,12.385,5.6364,0.05,8.0616e-07,8.056,6.1902e-07,4.6511,4.5367e-12,4.1558e-06,-6.1903e-07,-4.6512,1.0239
15492,12.477,5.8182,0,0.00027154,2713.6,9.0661e-05,12.592,8.8984e-05,-0.0030855,-0.00027133,-2707.2,1.0358
15493,12.385,5.8182,0.05,9.7441e-09,0.097373,7.4784e-09,0.056156,-1.3492e-12,-5.3615e-05,-7.4861e-09,-0.056281,1.023
15494,12.385,5.9091,0,0.0002734,2732.1,9.0926e-05,8.4289,8.9804e-05,-0.0015365,-0.00027325,-2727.9,1.0226
15495,12.569,0.27273,0,0.00026884,2686.5,8.9643e-05,11.107,8.8165e-05,-0.002119,-0.00026864,-2680.9,1.0491
15496,12.662,0.18182,0,0.00026663,2664.5,8.9072e-05,12.978,8.7344e-05,-0.0027553,-0.00026641,-2658,1.0615
15497,12.569,0.18182,0.05,4.8059e-09,0.048025,3.6906e-09,0.027767,2.9898e-12,4.5713e-05,-3.69e-09,-0.027688,1.0486
15498,12.569,0.090909,0,0.00026846,2682.7,8.9316e-05,8.6726,8.8161e-05,-0.0016892,-0.00026831,-2678.4,1.0482
15499,12.569,0.45455,0,0.00026848,2682.9,8.9319e-05,8.6345,8.817e-05,-0.0015548,-0.00026833,-2678.6,1.0499
15500,12.662,0.36364,0,0.00026616,2659.7,8.8647e-05,9.767,8.7347e-05,-0.0017463,-0.00026599,-2654.8,1.0624
15501,12.569,0.36364,0.05,8.0218e-07,8.0162,6.1598e-07,4.6282,-3.6296e-12,3.4038e-06,-6.1597e-07,-4.6281,1.0495
15502,12.569,0.63636,0,0.00026824,2680.6,8.9101e-05,6.9535,8.8175e-05,-0.0019157,-0.00026812,-2677.1,1.0507
15503,12.662,0.54545,0,0.00026591,2657.3,8.8425e-05,8.0683,8.7351e-05,-0.00192,-0.00026577,-2653.2,1.0632
15504,12.569,0.54545,0.05,8.5459e-07,8.54,6.5622e-07,4.9306,-2.7146e-12,3.9818e-06,-6.5621e-07,-4.9305,1.0503
15505,12.569,0.81818,0,0.00026803,2678.4,8.8899e-05,5.3896,8.8182e-05,-0.0023885,-0.00026794,-2675.7,1.0515
15506,12.662,0.72727,0,0.00026569,2655.1,8.8224e-05,6.522,8.7356e-05,-0.0020991,-0.00026558,-2651.8,1.064
15507,12.569,0.72727,0.05,8.5839e-07,8.578,6.5914e-07,4.9526,-3.62e-12,4.7165e-06,-6.5914e-07,-4.9525,1.0511
15508,12.569,1,0,0.00026783,2676.4,8.871e-05,3.9116,8.8188e-05,-0.0034177,-0.00026776,-2674.5,1.0521
15509,12.662,0.90909,0,0.00026549,2653.1,8.8034e-05,5.0574,8.7361e-05,-0.0025843,-0.0002654,-2650.5,1.0646
15510,12.569,0.90909,0.05,8.5901e-07,8.5841,6.5961e-07,4.9561,-8.8788e-13,4.5564e-06,-6.5961e-07,-4.956,1.0518
15511,12.569,1.1818,0,0.00026764,2674.5,8.8532e-05,2.5272,8.8195e-05,-0.0056921,-0.0002676,-2673.3,1.0527
15512,12.662,1.0909,0,0.0002653,2651.2,8.7856e-05,3.6785,8.7366e-05,-0.0035661,-0.00026524,-2649.3,1.0653
15513,12.569,1.0909,0.05,8.5938e-07,8.5879,6.599e-07,4.9583,-2.7058e-12,4.4152e-06,-6.599e-07,-4.9582,1.0524
15514,12.569,1.3636,0,0.00026747,2672.8,8.8369e-05,1.2485,8.8201e-05,-0.012647,-0.00026745,-2672.2,1.0533
15515,12.662,1.2727,0,0.00026512,2649.4,8.7691e-05,2.3945,8.7372e-05,-0.0057222,-0.00026508,-2648.2,1.0659
15516,12.569,1.2727,0.05,8.5972e-07,8.5912,6.6016e-07,4.9602,-2.6987e-12,4.3547e-06,-6.6015e-07,-4.9601,1.053
15517,12.569,1.5455,0,0.00026731,2671.3,8.8232e-05,0.16511,8.8196e-05,-0.10553,-0.00026731,-2671.2,1.0538
15518,12.662,1.4545,0,0.00026496,2647.8,8.754e-05,1.2165,8.7377e-05,-0.012051,-0.00026494,-2647.2,1.0664
15519,12.569,1.4545,0.05,8.6002e-07,8.5943,6.6039e-07,4.9619,-2.6966e-12,4.2355e-06,-6.6038e-07,-4.9619,1.0535
15520,12.569,1.7273,0,0.00026717,2669.9,8.8219e-05,0.018813,8.8081e-05,-1.018,-0.00026719,-2670.4,1.0542
15521,12.662,1.6364,0,0.00026482,2646.4,8.7411e-05,0.20646,8.7374e-05,-0.076762,-0.00026482,-2646.3,1.0668
15522,12.569,1.6364,0.05,8.6029e-07,8.597,6.606e-07,4.9635,-1.7864e-12,4.4422e-06,-6.606e-07,-4.9634,1.054
15523,12.569,1.9091,0,0.00026705,2668.7,8.8224e-05,0.010734,8.7963e-05,-1.9438,-0.00026708,-2669.6,1.0546
15524,12.662,1.8182,0,0.00026469,2645.1,8.7392e-05,0.020205,8.7276e-05,-0.84835,-0.00026471,-2645.5,1.0672
15525,12.569,1.8182,0.05,8.6053e-07,8.5994,6.6078e-07,4.9649,-8.7708e-13,4.0842e-06,-6.6078e-07,-4.9648,1.0544
15526,12.569,2.0909,0,0.00026695,2667.6,8.8229e-05,0.0081867,8.7862e-05,-2.7436,-0.00026699,-2669,1.0549
15527,12.662,2,0,0.00026458,2644,8.7395e-05,0.011015,8.7171e-05,-1.6735,-0.00026461,-2644.8,1.0676
15528,12.569,2,0.05,8.6074e-07,8.6014,6.6094e-07,4.966,-2.6997e-12,4.3025e-06,-6.6094e-07,-4.966,1.0547
15529,12.569,2.2727,0,0.00026686,2666.8,8.8233e-05,0.007004,8.7779e-05,-3.4074,-0.00026692,-2668.5,1.0552
15530,12.662,2.1818,0,0.00026449,2643.1,8.7399e-05,0.0082658,8.7082e-05,-2.3755,-0.00026453,-2644.2,1.0679
15531,12.569,2.1818,0.05,8.6091e-07,8.6031,6.6107e-07,4.967,2.5909e-14,4.4528e-06,-6.6107e-07,-4.967,1.055
15532,12.569,2.4545,0,0.00026679,2666.1,8.8237e-05,0.0063667,8.7713e-05,-3.9292,-0.00026686,-2668,1.0554
15533,12.662,2.3636,0,0.00026441,2642.3,8.7403e-05,0.0070233,8.701e-05,-2.9446,-0.00026446,-2643.8,1.0681
15534,12.569,2.3636,0.05,8.6105e-07,8.6045,6.6118e-07,4.9678,2.119e-14,4.3499e-06,-6.6118e-07,-4.9678,1.0552
15535,12.569,2.6364,0,0.00026674,2665.6,8.8239e-05,0.0060091,8.7665e-05,-4.3049,-0.00026682,-2667.7,1.0555
15536,12.662,2.5455,0,0.00026436,2641.7,8.7405e-05,0.0063721,8.6955e-05,-3.3754,-0.00026441,-2643.4,1.0683
15537,12.569,2.5455,0.05,8.6115e-07,8.6056,6.6126e-07,4.9684,1.6175e-14,4.4105e-06,-6.6126e-07,-4.9684,1.0554
15538,12.569,2.8182,0,0.00026671,2665.3,8.8241e-05,0.0058243,8.7637e-05,-4.5316,-0.00026679,-2667.6,1.0556
15539,12.662,2.7273,0,0.00026432,2641.4,8.7407e-05,0.0060258,8.6919e-05,-3.6645,-0.00026438,-2643.2,1.0684
15540,12.569,2.7273,0.05,8.6122e-07,8.6062,6.6131e-07,4.9688,9.1944e-13,3.5465e-06,-6.6131e-07,-4.9688,1.0555
15541,12.569,3,0,0.00026671,2665.2,8.8241e-05,0.005767,8.7627e-05,-4.6073,-0.00026678,-2667.5,1.0556
15542,12.662,2.9091,0,0.0002643,2641.2,8.7408e-05,0.0058733,8.69e-05,-3.8096,-0.00026436,-2643.1,1.0684
15543,12.569,2.9091,0.05,8.6125e-07,8.6066,6.6134e-07,4.969,3.3883e-15,4.1083e-06,-6.6134e-07,-4.969,1.0556
15544,12.569,3.1818,0,0.00026671,2665.3,8.8241e-05,0.0058244,8.7637e-05,-4.5316,-0.00026679,-2667.6,1.0556
15545,12.662,3.0909,0,0.0002643,2641.2,8.7408e-05,0.0058728,8.69e-05,-3.8096,-0.00026436,-2643.1,1.0684
15546,12.569,3.0909,0.05,8.6125e-07,8.6066,6.6134e-07,4.969,9.061e-13,3.6402e-06,-6.6134e-07,-4.969,1.0556
15547,12.569,3.3636,0,0.00026674,2665.6,8.8239e-05,0.0060098,8.7665e-05,-4.3049,-0.00026682,-2667.7,1.0555
15548,12.662,3.2727,0,0.00026432,2641.4,8.7407e-05,0.0060258,8.6919e-05,-3.6645,-0.00026438,-2643.2,1.0684
15549,12.569,3.2727,0.05,8.6122e-07,8.6062,6.6131e-07,4.9688,8.9931e-13,3.9473e-06,-6.6131e-07,-4.9688,1.0555
15550,12.569,3.5455,0,0.00026679,2666.1,8.8237e-05,0.006367,8.7713e-05,-3.9292,-0.00026686,-2668,1.0554
15551,12.662,3.4545,0,0.00026436,2641.7,8.7405e-05,0.0063721,8.6955e-05,-3.3754,-0.00026441,-2643.4,1.0683
15552,12.569,3.4545,0.05,8.6115e-07,8.6056,6.6126e-07,4.9684,1.8026e-12,3.8722e-06,-6.6126e-07,-4.9684,1.0554
15553,12.569,3.7273,0,0.00026686,2666.8,8.8233e-05,0.0070038,8.7779e-05,-3.4073,-0.00026692,-2668.5,1.0552
15554,12.662,3.6364,0,0.00026441,2642.3,8.7403e-05,0.0070222,8.701e-05,-2.9445,-0.00026446,-2643.8,1.0681
15555,12.569,3.6364,0.05,8.6105e-07,8.6045,6.6118e-07,4.9678,2.7058e-12,4.3665e-06,-6.6117e-07,-4.9679,1.0552
15556,12.569,3.9091,0,0.00026695,2667.6,8.8229e-05,0.0081865,8.7862e-05,-2.7436,-0.00026699,-2669,1.0549
15557,12.662,3.8182,0,0.00026449,2643.1,8.7399e-05,0.0082647,8.7082e-05,-2.3755,-0.00026453,-2644.2,1.0679
15558,12.569,3.8182,0.05,8.6091e-07,8.6031,6.6107e-07,4.967,2.7015e-12,4.7325e-06,-6.6107e-07,-4.9671,1.055
15559,12.569,4.0909,0,0.00026705,2668.7,8.8224e-05,0.010732,8.7964e-05,-1.9438,-0.00026708,-2669.6,1.0546
15560,12.662,4,0,0.00026458,2644,8.7395e-05,0.011015,8.7171e-05,-1.6734,-0.00026461,-2644.8,1.0676
15561,12.569,4,0.05,8.6074e-07,8.6014,6.6094e-07,4.966,3.6091e-12,4.3057e-06,-6.6094e-07,-4.966,1.0547
15562,12.569,4.2727,0,0.00026717,2669.9,8.8219e-05,0.018813,8.8081e-05,-1.018,-0.00026719,-2670.4,1.0542
15563,12.662,4.1818,0,0.00026469,2645.1,8.7392e-05,0.020204,8.7276e-05,-0.84832,-0.00026471,-2645.5,1.0672
15564,12.569,4.1818,0.05,8.6053e-07,8.5994,6.6078e-07,4.9648,3.6042e-12,3.4745e-06,-6.6078e-07,-4.9649,1.0544
15565,12.569,4.4545,0,0.00026731,2671.3,8.8232e-05,0.16513,8.8196e-05,-0.10551,-0.00026731,-2671.2,1.0538
15566,12.662,4.3636,0,0.00026482,2646.4,8.7411e-05,0.20649,8.7374e-05,-0.076751,-0.00026482,-2646.3,1.0668
15567,12.569,4.3636,0.05,8.6029e-07,8.597,6.6059e-07,4.9634,2.6958e-12,4.5558e-06,-6.606e-07,-4.9635,1.054
15568,12.569,4.6364,0,0.00026747,2672.8,8.8369e-05,1.2485,8.8201e-05,-0.012646,-0.00026745,-2672.2,1.0533
15569,12.662,4.5455,0,0.00026496,2647.8,8.754e-05,1.2165,8.7377e-05,-0.012051,-0.00026494,-2647.2,1.0664
15570,12.569,4.5455,0.05,8.6002e-07,8.5943,6.6038e-07,4.9619,3.6047e-12,3.3743e-06,-6.6039e-07,-4.9619,1.0535
15571,12.569,4.8182,0,0.00026764,2674.5,8.8532e-05,2.5273,8.8195e-05,-0.005692,-0.0002676,-2673.3,1.0527
15572,12.662,4.7273,0,0.00026512,2649.4,8.7691e-05,2.3946,8.7372e-05,-0.0057226,-0.00026508,-2648.2,1.0659
15573,12.569,4.7273,0.05,8.5972e-07,8.5912,6.6015e-07,4.9601,3.6095e-12,4.3157e-06,-6.6016e-07,-4.9602,1.053
15574,12.569,5,0,0.00026783,2676.4,8.871e-05,3.9117,8.8188e-05,-0.0034191,-0.00026776,-2674.5,1.0521
15575,12.662,4.9091,0,0.0002653,2651.2,8.7856e-05,3.6786,8.7366e-05,-0.0035662,-0.00026524,-2649.3,1.0653
15576,12.569,4.9091,0.05,8.5938e-07,8.5879,6.5989e-07,4.9582,3.6123e-12,4.1634e-06,-6.599e-07,-4.9583,1.0524
15577,12.569,5.1818,0,0.00026803,2678.4,8.8899e-05,5.3896,8.8182e-05,-0.0023904,-0.00026794,-2675.7,1.0515
15578,12.662,5.0909,0,0.00026549,2653.1,8.8034e-05,5.0574,8.7361e-05,-0.0025859,-0.0002654,-2650.5,1.0646
15579,12.569,5.0909,0.05,8.5901e-07,8.5841,6.5961e-07,4.956,4.5255e-12,2.9562e-06,-6.5961e-07,-4.9561,1.0518
15580,12.569,5.3636,0,0.00026824,2680.6,8.9101e-05,6.9535,8.8175e-05,-0.0019168,-0.00026812,-2677.1,1.0507
15581,12.662,5.2727,0,0.00026569,2655.1,8.8224e-05,6.5221,8.7356e-05,-0.0021007,-0.00026558,-2651.8,1.064
15582,12.569,5.2727,0.05,8.5839e-07,8.578,6.5914e-07,4.9525,6.3533e-12,3.8162e-06,-6.5915e-07,-4.9526,1.0511
15583,12.569,5.5455,0,0.00026848,2682.9,8.9319e-05,8.6345,8.817e-05,-0.0015547,-0.00026833,-2678.6,1.0499
15584,12.662,5.4545,0,0.00026591,2657.3,8.8425e-05,8.0683,8.7351e-05,-0.0019203,-0.00026577,-2653.2,1.0632
15585,12.569,5.4545,0.05,8.5459e-07,8.54,6.5621e-07,4.9305,4.5358e-12,3.7338e-06,-6.5622e-07,-4.9307,1.0503
15586,12.569,5.7273,0,0.00026884,2686.5,8.9643e-05,11.107,8.8165e-05,-0.0021187,-0.00026864,-2680.9,1.0491
15587,12.662,5.6364,0,0.00026616,2659.7,8.8647e-05,9.767,8.7347e-05,-0.0017466,-0.00026599,-2654.8,1.0624
15588,12.569,5.6364,0.05,8.0218e-07,8.0162,6.1597e-07,4.6281,6.358e-12,4.4159e-06,-6.1598e-07,-4.6283,1.0495
15589,12.662,5.8182,0,0.00026663,2664.5,8.9072e-05,12.978,8.7344e-05,-0.0027551,-0.00026641,-2658,1.0615
15590,12.569,5.8182,0.05,4.8058e-09,0.048025,3.6904e-09,0.027689,-1.1895e-12,-4.2875e-05,-3.6902e-09,-0.027765,1.0486
15591,12.569,5.9091,0,0.00026846,2682.7,8.9316e-05,8.6726,8.8161e-05,-0.0016895,-0.00026831,-2678.4,1.0482
15592,12.754,0.27273,0,0.00026394,2637.5,8.8062e-05,11.536,8.6527e-05,-0.0024311,-0.00026374,-2631.8,1.0749
15593,12.846,0.18182,0,0.00026174,2615.6,8.7489e-05,13.353,8.5712e-05,-0.0024473,-0.00026151,-2608.9,1.0874
15594,12.754,0.18182,0.05,6.1481e-10,0.0061441,4.6856e-10,0.0035505,1.0584e-11,0.00011844,-4.755e-10,-0.0035429,1.0744
15595,12.754,0.090909,0,0.00026354,2633.6,8.7712e-05,8.9095,8.6526e-05,-0.0018412,-0.00026339,-2629.1,1.074
15596,12.754,0.45455,0,0.00026359,2634,8.775e-05,9.1733,8.6529e-05,-0.0020981,-0.00026343,-2629.4,1.0757
15597,12.846,0.36364,0,0.00026127,2610.9,8.7074e-05,10.235,8.5711e-05,-0.0025285,-0.00026109,-2605.8,1.0883
15598,12.754,0.36364,0.05,7.9826e-07,7.9771,6.1297e-07,4.6056,-3.6346e-12,3.9853e-06,-6.1296e-07,-4.6055,1.0753
15599,12.754,0.63636,0,0.00026336,2631.8,8.7545e-05,7.6128,8.6531e-05,-0.0020813,-0.00026323,-2628,1.0765
15600,12.846,0.54545,0,0.00026103,2608.5,8.6864e-05,8.6535,8.5712e-05,-0.0021376,-0.00026089,-2604.2,1.0891
15601,12.754,0.54545,0.05,8.5065e-07,8.5006,6.532e-07,4.9079,-1.813e-12,2.1562e-06,-6.5319e-07,-4.9078,1.0761
15602,12.754,0.81818,0,0.00026315,2629.7,8.7356e-05,6.1662,8.6535e-05,-0.0022558,-0.00026305,-2626.6,1.0772
15603,12.846,0.72727,0,0.00026082,2606.4,8.6676e-05,7.2222,8.5714e-05,-0.0021585,-0.0002607,-2602.8,1.0898
15604,12.754,0.72727,0.05,8.5442e-07,8.5383,6.5609e-07,4.9297,-2.7195e-12,2.698e-06,-6.5609e-07,-4.9296,1.0768
15605,12.754,1,0,0.00026296,2627.8,8.7178e-05,4.8009,8.6539e-05,-0.0026717,-0.00026288,-2625.4,1.0779
15606,12.846,0.90909,0,0.00026063,2604.5,8.6498e-05,5.8686,8.5716e-05,-0.0022613,-0.00026053,-2601.6,1.0905
15607,12.754,0.90909,0.05,8.5501e-07,8.5442,6.5654e-07,4.933,-8.9571e-13,3.9529e-06,-6.5653e-07,-4.9329,1.0775
15608,12.754,1.1818,0,0.00026278,2626,8.7012e-05,3.5226,8.6543e-05,-0.0035289,-0.00026272,-2624.2,1.0785
15609,12.846,1.0909,0,0.00026045,2602.7,8.6331e-05,4.5955,8.5719e-05,-0.0025866,-0.00026037,-2600.4,1.0911
15610,12.754,1.0909,0.05,8.5536e-07,8.5477,6.5681e-07,4.935,-2.7136e-12,3.717e-06,-6.568e-07,-4.9349,1.0781
15611,12.754,1.3636,0,0.00026262,2624.4,8.6859e-05,2.3398,8.6547e-05,-0.0053656,-0.00026258,-2623.2,1.079
15612,12.846,1.2727,0,0.00026028,2601,8.6177e-05,3.4106,8.5723e-05,-0.0032645,-0.00026022,-2599.3,1.0917
15613,12.754,1.2727,0.05,8.5566e-07,8.5507,6.5705e-07,4.9368,-2.7081e-12,3.5818e-06,-6.5704e-07,-4.9367,1.0787
15614,12.754,1.5455,0,0.00026247,2622.9,8.672e-05,1.2621,8.6551e-05,-0.010341,-0.00026245,-2622.2,1.0795
15615,12.846,1.4545,0,0.00026013,2599.5,8.6035e-05,2.3215,8.5726e-05,-0.0046938,-0.00026009,-2598.3,1.0922
15616,12.754,1.4545,0.05,8.5594e-07,8.5535,6.5726e-07,4.9384,-8.8624e-13,3.337e-06,-6.5725e-07,-4.9383,1.0792
15617,12.754,1.7273,0,0.00026234,2621.5,8.66e-05,0.32107,8.6551e-05,-0.042932,-0.00026233,-2621.4,1.0799
15618,12.846,1.6364,0,0.00025999,2598.1,8.5908e-05,1.3365,8.5729e-05,-0.0082499,-0.00025996,-2597.4,1.0926
15619,12.754,1.6364,0.05,8.5619e-07,8.556,6.5745e-07,4.9398,-8.8696e-13,3.682e-06,-6.5745e-07,-4.9398,1.0797
15620,12.754,1.9091,0,0.00026222,2620.4,8.6564e-05,0.02423,8.6481e-05,-0.60419,-0.00026223,-2620.7,1.0803
15621,12.846,1.8182,0,0.00025987,2596.9,8.5796e-05,0.47204,8.573e-05,-0.024139,-0.00025986,-2596.6,1.093
15622,12.754,1.8182,0.05,8.5641e-07,8.5582,6.5762e-07,4.9411,-1.7971e-12,3.2013e-06,-6.5762e-07,-4.9411,1.0801
15623,12.754,2.0909,0,0.00026212,2619.4,8.6566e-05,0.011684,8.6388e-05,-1.3283,-0.00026214,-2620,1.0806
15624,12.846,2,0,0.00025976,2595.8,8.5741e-05,0.033804,8.569e-05,-0.35207,-0.00025977,-2596,1.0934
15625,12.754,2,0.05,8.566e-07,8.5601,6.5776e-07,4.9422,-8.8823e-13,3.3305e-06,-6.5776e-07,-4.9422,1.0804
15626,12.754,2.2727,0,0.00026204,2618.6,8.6569e-05,0.008447,8.631e-05,-1.9352,-0.00026207,-2619.5,1.0809
15627,12.846,2.1818,0,0.00025967,2594.9,8.5741e-05,0.012738,8.5609e-05,-0.97783,-0.00025969,-2595.4,1.0936
15628,12.754,2.1818,0.05,8.5676e-07,8.5617,6.5789e-07,4.9431,-8.9015e-13,3.6111e-06,-6.5788e-07,-4.9431,1.0807
15629,12.754,2.4545,0,0.00026197,2617.9,8.6572e-05,0.0070676,8.6249e-05,-2.413,-0.00026201,-2619.1,1.0811
15630,12.846,2.3636,0,0.0002596,2594.2,8.5743e-05,0.0086752,8.5543e-05,-1.4968,-0.00025963,-2595,1.0939
15631,12.754,2.3636,0.05,8.5689e-07,8.5629,6.5798e-07,4.9438,-8.9332e-13,3.7148e-06,-6.5798e-07,-4.9438,1.0809
15632,12.754,2.6364,0,0.00026193,2617.5,8.6573e-05,0.0063806,8.6206e-05,-2.7571,-0.00026197,-2618.8,1.0812
15633,12.846,2.5455,0,0.00025955,2593.7,8.5745e-05,0.007103,8.5492e-05,-1.8908,-0.00025958,-2594.6,1.094
15634,12.754,2.5455,0.05,8.5698e-07,8.5639,6.5805e-07,4.9444,1.2186e-14,3.5901e-06,-6.5805e-07,-4.9444,1.0811
15635,12.754,2.8182,0,0.0002619,2617.2,8.6574e-05,0.0060473,8.6179e-05,-2.9646,-0.00026195,-2618.7,1.0813
15636,12.846,2.7273,0,0.00025951,2593.3,8.5746e-05,0.0063796,8.5458e-05,-2.1554,-0.00025955,-2594.4,1.0941
15637,12.754,2.7273,0.05,8.5704e-07,8.5645,6.581e-07,4.9447,1.8266e-12,3.0104e-06,-6.5811e-07,-4.9447,1.0812
15638,12.754,3,0,0.00026189,2617.1,8.6575e-05,0.0059463,8.617e-05,-3.034,-0.00026194,-2618.6,1.0813
15639,12.846,2.9091,0,0.00025949,2593.1,8.5746e-05,0.006082,8.5441e-05,-2.2882,-0.00025953,-2594.3,1.0942
15640,12.754,2.9091,0.05,8.5708e-07,8.5649,6.5813e-07,4.9449,2.5628e-15,3.3684e-06,-6.5813e-07,-4.9449,1.0813
15641,12.754,3.1818,0,0.0002619,2617.2,8.6574e-05,0.0060467,8.6179e-05,-2.9646,-0.00026195,-2618.7,1.0813
15642,12.846,3.0909,0,0.00025949,2593.1,8.5746e-05,0.0060817,8.5441e-05,-2.2882,-0.00025953,-2594.3,1.0942
15643,12.754,3.0909,0.05,8.5708e-07,8.5649,6.5813e-07,4.9449,-2.5916e-15,2.7373e-06,-6.5813e-07,-4.9449,1.0813
15644,12.754,3.3636,0,0.00026193,2617.5,8.6573e-05,0.0063799,8.6206e-05,-2.7571,-0.00026197,-2618.8,1.0812
15645,12.846,3.2727,0,0.00025951,2593.3,8.5746e-05,0.0063795,8.5458e-05,-2.1553,-0.00025955,-2594.4,1.0941
15646,12.754,3.2727,0.05,8.5704e-07,8.5645,6.581e-07,4.9447,1.8113e-12,3.2023e-06,-6.5811e-07,-4.9447,1.0812
15647,12.754,3.5455,0,0.00026197,2617.9,8.6572e-05,0.0070663,8.6249e-05,-2.413,-0.00026201,-2619.1,1.0811
15648,12.846,3.4545,0,0.00025955,2593.7,8.5745e-05,0.0071025,8.5492e-05,-1.8908,-0.00025958,-2594.6,1.094
15649,12.754,3.4545,0.05,8.5698e-07,8.5639,6.5805e-07,4.9443,1.8067e-12,3.092e-06,-6.5805e-07,-4.9444,1.0811
15650,12.754,3.7273,0,0.00026204,2618.6,8.6569e-05,0.008445,8.631e-05,-1.9352,-0.00026207,-2619.5,1.0809
15651,12.846,3.6364,0,0.0002596,2594.2,8.5743e-05,0.0086737,8.5543e-05,-1.4968,-0.00025963,-2595,1.0939
15652,12.754,3.6364,0.05,8.5689e-07,8.5629,6.5798e-07,4.9438,1.8025e-12,3.4552e-06,-6.5798e-07,-4.9438,1.0809
15653,12.754,3.9091,0,0.00026212,2619.4,8.6566e-05,0.011683,8.6388e-05,-1.3283,-0.00026214,-2620,1.0806
15654,12.846,3.8182,0,0.00025967,2594.9,8.5741e-05,0.012737,8.5609e-05,-0.97781,-0.00025969,-2595.4,1.0936
15655,12.754,3.8182,0.05,8.5676e-07,8.5617,6.5788e-07,4.9431,2.708e-12,3.8538e-06,-6.5789e-07,-4.9431,1.0807
15656,12.754,4.0909,0,0.00026222,2620.4,8.6564e-05,0.02423,8.6481e-05,-0.60416,-0.00026223,-2620.7,1.0803
15657,12.846,4,0,0.00025976,2595.8,8.5741e-05,0.033805,8.569e-05,-0.35205,-0.00025977,-2596,1.0934
15658,12.754,4,0.05,8.566e-07,8.5601,6.5776e-07,4.9421,3.6159e-12,3.571e-06,-6.5776e-07,-4.9422,1.0804
15659,12.754,4.2727,0,0.00026234,2621.5,8.66e-05,0.3211,8.6551e-05,-0.042927,-0.00026233,-2621.4,1.0799
15660,12.846,4.1818,0,0.00025987,2596.9,8.5796e-05,0.47207,8.573e-05,-0.024138,-0.00025986,-2596.6,1.093
15661,12.754,4.1818,0.05,8.5641e-07,8.5582,6.5762e-07,4.941,2.7048e-12,3.0712e-06,-6.5762e-07,-4.9411,1.0801
15662,12.754,4.4545,0,0.00026247,2622.9,8.672e-05,1.2622,8.6551e-05,-0.01034,-0.00026245,-2622.2,1.0795
15663,12.846,4.3636,0,0.00025999,2598.1,8.5908e-05,1.3365,8.5729e-05,-0.0082495,-0.00025996,-2597.4,1.0926
15664,12.754,4.3636,0.05,8.5619e-07,8.556,6.5745e-07,4.9398,3.6144e-12,3.8346e-06,-6.5745e-07,-4.9399,1.0797
15665,12.754,4.6364,0,0.00026262,2624.4,8.6859e-05,2.3399,8.6547e-05,-0.0053659,-0.00026258,-2623.2,1.079
15666,12.846,4.5455,0,0.00026013,2599.5,8.6035e-05,2.3216,8.5726e-05,-0.0046938,-0.00026009,-2598.3,1.0922
15667,12.754,4.5455,0.05,8.5594e-07,8.5535,6.5725e-07,4.9383,3.6146e-12,3.0468e-06,-6.5726e-07,-4.9384,1.0792
15668,12.754,4.8182,0,0.00026278,2626,8.7012e-05,3.5227,8.6543e-05,-0.0035295,-0.00026272,-2624.2,1.0785
15669,12.846,4.7273,0,0.00026028,2601,8.6177e-05,3.4107,8.5723e-05,-0.0032653,-0.00026022,-2599.3,1.0917
15670,12.754,4.7273,0.05,8.5566e-07,8.5507,6.5704e-07,4.9367,3.6185e-12,3.519e-06,-6.5705e-07,-4.9368,1.0787
15671,12.754,5,0,0.00026296,2627.8,8.7178e-05,4.8009,8.6539e-05,-0.0026719,-0.00026288,-2625.4,1.0779
15672,12.846,4.9091,0,0.00026045,2602.7,8.6331e-05,4.5956,8.5719e-05,-0.0025868,-0.00026037,-2600.4,1.0911
15673,12.754,4.9091,0.05,8.5536e-07,8.5477,6.568e-07,4.9349,3.6211e-12,3.5172e-06,-6.5681e-07,-4.9351,1.0781
15674,12.754,5.1818,0,0.00026315,2629.7,8.7356e-05,6.1663,8.6535e-05,-0.0022571,-0.00026305,-2626.6,1.0772
15675,12.846,5.0909,0,0.00026063,2604.5,8.6498e-05,5.8686,8.5716e-05,-0.0022626,-0.00026053,-2601.6,1.0905
15676,12.754,5.0909,0.05,8.5501e-07,8.5442,6.5653e-07,4.9329,3.6242e-12,2.6482e-06,-6.5654e-07,-4.933,1.0775
15677,12.754,5.3636,0,0.00026336,2631.8,8.7545e-05,7.6128,8.6531e-05,-0.0020821,-0.00026323,-2628,1.0765
15678,12.846,5.2727,0,0.00026082,2606.4,8.6676e-05,7.2223,8.5714e-05,-0.0021603,-0.0002607,-2602.8,1.0898
15679,12.754,5.2727,0.05,8.5442e-07,8.5383,6.5609e-07,4.9295,5.4464e-12,3.1131e-06,-6.561e-07,-4.9297,1.0768
15680,12.754,5.5455,0,0.00026359,2634,8.775e-05,9.1734,8.6529e-05,-0.0020986,-0.00026343,-2629.4,1.0757
15681,12.846,5.4545,0,0.00026103,2608.5,8.6864e-05,8.6536,8.5712e-05,-0.0021382,-0.00026089,-2604.2,1.0891
15682,12.754,5.4545,0.05,8.5065e-07,8.5006,6.5319e-07,4.9077,4.5415e-12,3.2279e-06,-6.532e-07,-4.9079,1.0761
15683,12.754,5.7273,0,0.00026394,2637.5,8.8062e-05,11.536,8.6527e-05,-0.0024315,-0.00026374,-2631.8,1.0749
15684,12.846,5.6364,0,0.00026127,2610.9,8.7074e-05,10.235,8.5711e-05,-0.0025298,-0.00026109,-2605.8,1.0883
15685,12.754,5.6364,0.05,7.9826e-07,7.9771,6.1296e-07,4.6055,6.363e-12,3.5775e-06,-6.1297e-07,-4.6056,1.0753
15686,12.846,5.8182,0,0.00026174,2615.6,8.7489e-05,13.353,8.5712e-05,-0.0024464,-0.00026151,-2608.9,1.0874
15687,12.754,5.8182,0.05,6.1506e-10,0.0061455,4.7822e-10,0.0035474,-1.7724e-11,-0.00015026,-4.6596e-10,-0.0035466,1.0744
15688,12.754,5.9091,0,0.00026354,2633.6,8.7712e-05,8.9095,8.6526e-05,-0.0018405,-0.00026339,-2629.1,1.074
15689,12.938,0.27273,0,0.00025906,2588.8,8.6487e-05,11.949,8.4896e-05,-0.0027071,-0.00025885,-2582.8,1.1009
15690,13.03,0.18182,0,0.00025687,2566.9,8.5913e-05,13.718,8.4087e-05,-0.0021725,-0.00025663,-2560,1.1135
15691,12.938,0.18182,0.05,3.9484e-09,0.039457,3.0343e-09,0.022832,-1.2171e-12,2.1638e-05,-3.0295e-09,-0.022729,1.1004
15692,12.938,0.090909,0,0.00025864,2584.6,8.6115e-05,9.1405,8.4899e-05,-0.0019678,-0.00025849,-2580.1,1.1
15693,12.938,0.45455,0,0.00025871,2585.4,8.6185e-05,9.6877,8.4895e-05,-0.0025772,-0.00025855,-2580.5,1.1017
15694,13.03,0.36364,0,0.0002564,2562.3,8.5506e-05,10.685,8.4083e-05,-0.0032626,-0.00025622,-2556.9,1.1143
15695,12.938,0.36364,0.05,7.9441e-07,7.9387,6.1001e-07,4.5834,-3.6393e-12,2.4049e-06,-6.1001e-07,-4.5833,1.1012
15696,12.938,0.63636,0,0.0002585,2583.2,8.5992e-05,8.2386,8.4895e-05,-0.0022149,-0.00025835,-2579,1.1024
15697,13.03,0.54545,0,0.00025618,2560,8.5308e-05,9.2109,8.4081e-05,-0.0023413,-0.00025602,-2555.4,1.1151
15698,12.938,0.54545,0.05,8.4676e-07,8.4617,6.5021e-07,4.8854,-1.818e-12,2.6889e-06,-6.502e-07,-4.8853,1.102
15699,12.938,0.81818,0,0.0002583,2581.2,8.5814e-05,6.9006,8.4896e-05,-0.002162,-0.00025818,-2577.7,1.1031
15700,13.03,0.72727,0,0.00025597,2558,8.513e-05,7.886,8.408e-05,-0.0022345,-0.00025584,-2554,1.1158
15701,12.938,0.72727,0.05,8.5051e-07,8.4992,6.5308e-07,4.9071,-3.634e-12,3.3929e-06,-6.5308e-07,-4.9069,1.1028
15702,12.938,1,0,0.00025811,2579.3,8.5648e-05,5.6395,8.4897e-05,-0.0021809,-0.00025802,-2576.5,1.1038
15703,13.03,0.90909,0,0.00025579,2556.1,8.4964e-05,6.6351,8.408e-05,-0.0020505,-0.00025567,-2552.8,1.1165
15704,12.938,0.90909,0.05,8.5106e-07,8.5047,6.5351e-07,4.9103,-1.8113e-12,4.4924e-06,-6.5351e-07,-4.9102,1.1034
15705,12.938,1.1818,0,0.00025794,2577.6,8.5493e-05,4.46,8.4899e-05,-0.0023639,-0.00025786,-2575.4,1.1044
15706,13.03,1.0909,0,0.00025561,2554.3,8.4808e-05,5.4602,8.4081e-05,-0.0019787,-0.00025552,-2551.6,1.1171
15707,12.938,1.0909,0.05,8.5139e-07,8.508,6.5376e-07,4.9122,-1.8102e-12,4.1186e-06,-6.5375e-07,-4.912,1.104
15708,12.938,1.3636,0,0.00025778,2576.1,8.535e-05,3.3691,8.4901e-05,-0.0027951,-0.00025773,-2574.4,1.1049
15709,13.03,1.2727,0,0.00025545,2552.7,8.4663e-05,4.3677,8.4082e-05,-0.0019961,-0.00025537,-2550.5,1.1177
15710,12.938,1.2727,0.05,8.5167e-07,8.5108,6.5398e-07,4.9138,-8.9787e-13,3.8434e-06,-6.5398e-07,-4.9137,1.1046
15711,12.938,1.5455,0,0.00025764,2574.6,8.522e-05,2.3737,8.4904e-05,-0.0037061,-0.0002576,-2573.4,1.1054
15712,13.03,1.4545,0,0.0002553,2551.3,8.4531e-05,3.3639,8.4083e-05,-0.0021634,-0.00025525,-2549.6,1.1181
15713,12.938,1.4545,0.05,8.5193e-07,8.5134,6.5418e-07,4.9153,-8.9593e-13,3.9235e-06,-6.5417e-07,-4.9152,1.1051
15714,12.938,1.7273,0,0.00025751,2573.4,8.5104e-05,1.4806,8.4906e-05,-0.0057708,-0.00025749,-2572.6,1.1058
15715,13.03,1.6364,0,0.00025517,2550,8.4412e-05,2.4552,8.4085e-05,-0.0025811,-0.00025513,-2548.7,1.1186
15716,12.938,1.6364,0.05,8.5216e-07,8.5157,6.5436e-07,4.9166,-2.713e-12,3.9637e-06,-6.5435e-07,-4.9166,1.1056
15717,12.938,1.9091,0,0.0002574,2572.3,8.5002e-05,0.69884,8.4907e-05,-0.012233,-0.00025739,-2571.9,1.1062
15718,13.03,1.8182,0,0.00025505,2548.8,8.4306e-05,1.6474,8.4086e-05,-0.0035007,-0.00025503,-2548,1.119
15719,12.938,1.8182,0.05,8.5236e-07,8.5177,6.5451e-07,4.9178,-8.9458e-13,3.7763e-06,-6.5451e-07,-4.9177,1.106
15720,12.938,2.0909,0,0.00025731,2571.3,8.4924e-05,0.098695,8.49e-05,-0.08829,-0.00025731,-2571.3,1.1065
15721,13.03,2,0,0.00025495,2547.8,8.4214e-05,0.9463,8.4088e-05,-0.0057812,-0.00025494,-2547.3,1.1193
15722,12.938,2,0.05,8.5254e-07,8.5195,6.5464e-07,4.9187,1.4241e-14,3.7316e-06,-6.5464e-07,-4.9187,1.1063
15723,12.938,2.2727,0,0.00025723,2570.5,8.4915e-05,0.015849,8.4838e-05,-0.56511,-0.00025724,-2570.8,1.1067
15724,13.03,2.1818,0,0.00025487,2546.9,8.4138e-05,0.36195,8.4088e-05,-0.014802,-0.00025486,-2546.8,1.1196
15725,12.938,2.1818,0.05,8.5268e-07,8.5209,6.5476e-07,4.9196,1.3148e-14,3.9282e-06,-6.5475e-07,-4.9196,1.1066
15726,12.938,2.4545,0,0.00025717,2569.9,8.4916e-05,0.0092328,8.4782e-05,-0.99784,-0.00025719,-2570.4,1.1069
15727,13.03,2.3636,0,0.0002548,2546.3,8.4096e-05,0.032476,8.4069e-05,-0.16487,-0.0002548,-2546.3,1.1198
15728,12.938,2.3636,0.05,8.528e-07,8.5221,6.5485e-07,4.9203,1.114e-14,4.0775e-06,-6.5484e-07,-4.9202,1.1068
15729,12.938,2.6364,0,0.00025713,2569.5,8.4917e-05,0.0071894,8.4742e-05,-1.3118,-0.00025715,-2570.1,1.1071
15730,13.03,2.5455,0,0.00025475,2545.8,8.4094e-05,0.010685,8.4025e-05,-0.50558,-0.00025476,-2546,1.12
15731,12.938,2.5455,0.05,8.5289e-07,8.523,6.5491e-07,4.9207,8.4605e-15,4.1623e-06,-6.5491e-07,-4.9207,1.107
15732,12.938,2.8182,0,0.0002571,2569.2,8.4918e-05,0.0063776,8.4717e-05,-1.5015,-0.00025713,-2570,1.1071
15733,13.03,2.7273,0,0.00025472,2545.4,8.4094e-05,0.0073236,8.3994e-05,-0.74526,-0.00025473,-2545.8,1.1201
15734,12.938,2.7273,0.05,8.5295e-07,8.5236,6.5496e-07,4.9211,5.2856e-15,3.452e-06,-6.5496e-07,-4.9211,1.1071
15735,12.938,3,0,0.00025709,2569.1,8.4918e-05,0.0061514,8.4709e-05,-1.5649,-0.00025712,-2569.9,1.1072
15736,13.03,2.9091,0,0.0002547,2545.2,8.4094e-05,0.0063412,8.3978e-05,-0.86621,-0.00025471,-2545.7,1.1201
15737,12.938,2.9091,0.05,8.5298e-07,8.5239,6.5498e-07,4.9213,9.113e-13,3.8134e-06,-6.5498e-07,-4.9213,1.1071
15738,12.938,3.1818,0,0.0002571,2569.2,8.4918e-05,0.0063777,8.4717e-05,-1.5015,-0.00025713,-2570,1.1071
15739,13.03,3.0909,0,0.0002547,2545.2,8.4094e-05,0.0063412,8.3978e-05,-0.86621,-0.00025471,-2545.7,1.1201
15740,12.938,3.0909,0.05,8.5298e-07,8.5239,6.5498e-07,4.9213,-1.816e-15,3.4285e-06,-6.5498e-07,-4.9213,1.1071
15741,12.938,3.3636,0,0.00025713,2569.5,8.4917e-05,0.0071894,8.4742e-05,-1.3118,-0.00025715,-2570.1,1.1071
15742,13.03,3.2727,0,0.00025472,2545.4,8.4094e-05,0.0073236,8.3994e-05,-0.74525,-0.00025473,-2545.8,1.1201
15743,12.938,3.2727,0.05,8.5295e-07,8.5236,6.5495e-07,4.9211,1.8136e-12,3.9677e-06,-6.5496e-07,-4.9211,1.1071
15744,12.938,3.5455,0,0.00025717,2569.9,8.4916e-05,0.0092321,8.4782e-05,-0.99783,-0.00025719,-2570.4,1.1069
15745,13.03,3.4545,0,0.00025475,2545.8,8.4094e-05,0.010685,8.4025e-05,-0.50556,-0.00025476,-2546,1.12
15746,12.938,3.4545,0.05,8.5289e-07,8.523,6.5491e-07,4.9207,-8.5412e-15,3.7949e-06,-6.5492e-07,-4.9207,1.107
15747,12.938,3.7273,0,0.00025723,2570.5,8.4915e-05,0.015849,8.4838e-05,-0.5651,-0.00025724,-2570.8,1.1067
15748,13.03,3.6364,0,0.0002548,2546.3,8.4096e-05,0.032477,8.4069e-05,-0.16485,-0.0002548,-2546.3,1.1198
15749,12.938,3.6364,0.05,8.528e-07,8.5221,6.5484e-07,4.9202,1.8075e-12,4.2357e-06,-6.5485e-07,-4.9203,1.1068
15750,12.938,3.9091,0,0.00025731,2571.3,8.4924e-05,0.098705,8.49e-05,-0.088279,-0.00025731,-2571.3,1.1065
15751,13.03,3.8182,0,0.00025487,2546.9,8.4138e-05,0.36197,8.4088e-05,-0.014802,-0.00025486,-2546.8,1.1196
15752,12.938,3.8182,0.05,8.5268e-07,8.5209,6.5475e-07,4.9195,1.8056e-12,4.7251e-06,-6.5476e-07,-4.9196,1.1066
15753,12.938,4.0909,0,0.0002574,2572.3,8.5002e-05,0.69887,8.4907e-05,-0.012233,-0.00025739,-2571.9,1.1062
15754,13.03,4,0,0.00025495,2547.8,8.4214e-05,0.94633,8.4088e-05,-0.0057803,-0.00025494,-2547.3,1.1193
15755,12.938,4,0.05,8.5254e-07,8.5195,6.5464e-07,4.9187,2.7132e-12,4.3275e-06,-6.5464e-07,-4.9188,1.1063
15756,12.938,4.2727,0,0.00025751,2573.4,8.5104e-05,1.4807,8.4906e-05,-0.0057715,-0.00025749,-2572.6,1.1058
15757,13.03,4.1818,0,0.00025505,2548.8,8.4306e-05,1.6474,8.4086e-05,-0.003501,-0.00025503,-2548,1.119
15758,12.938,4.1818,0.05,8.5236e-07,8.5177,6.5451e-07,4.9177,3.6236e-12,3.58e-06,-6.5451e-07,-4.9178,1.106
15759,12.938,4.4545,0,0.00025764,2574.6,8.522e-05,2.3738,8.4904e-05,-0.003706,-0.0002576,-2573.4,1.1054
15760,13.03,4.3636,0,0.00025517,2550,8.4412e-05,2.4553,8.4085e-05,-0.0025811,-0.00025513,-2548.7,1.1186
15761,12.938,4.3636,0.05,8.5216e-07,8.5157,6.5435e-07,4.9165,2.7124e-12,4.7979e-06,-6.5436e-07,-4.9166,1.1056
15762,12.938,4.6364,0,0.00025778,2576.1,8.535e-05,3.3692,8.4901e-05,-0.0027956,-0.00025773,-2574.4,1.1049
15763,13.03,4.5455,0,0.0002553,2551.3,8.4531e-05,3.364,8.4083e-05,-0.0021633,-0.00025525,-2549.6,1.1181
15764,12.938,4.5455,0.05,8.5193e-07,8.5134,6.5417e-07,4.9152,3.6238e-12,3.7106e-06,-6.5418e-07,-4.9153,1.1051
15765,12.938,4.8182,0,0.00025794,2577.6,8.5493e-05,4.4601,8.4899e-05,-0.0023644,-0.00025786,-2575.4,1.1044
15766,13.03,4.7273,0,0.00025545,2552.7,8.4663e-05,4.3677,8.4082e-05,-0.0019964,-0.00025537,-2550.5,1.1177
15767,12.938,4.7273,0.05,8.5167e-07,8.5108,6.5398e-07,4.9137,4.5353e-12,4.3725e-06,-6.5398e-07,-4.9138,1.1046
15768,12.938,5,0,0.00025811,2579.3,8.5648e-05,5.6395,8.4897e-05,-0.002182,-0.00025802,-2576.5,1.1038
15769,13.03,4.9091,0,0.00025561,2554.3,8.4808e-05,5.4603,8.4081e-05,-0.0019786,-0.00025552,-2551.6,1.1171
15770,12.938,4.9091,0.05,8.5139e-07,8.508,6.5375e-07,4.912,3.6292e-12,4.3967e-06,-6.5376e-07,-4.9122,1.104
15771,12.938,5.1818,0,0.0002583,2581.2,8.5814e-05,6.9006,8.4896e-05,-0.0021636,-0.00025818,-2577.7,1.1031
15772,13.03,5.0909,0,0.00025579,2556.1,8.4964e-05,6.6352,8.408e-05,-0.0020526,-0.00025567,-2552.8,1.1165
15773,12.938,5.0909,0.05,8.5106e-07,8.5047,6.5351e-07,4.9102,3.6303e-12,3.3222e-06,-6.5351e-07,-4.9103,1.1034
15774,12.938,5.3636,0,0.0002585,2583.2,8.5992e-05,8.2386,8.4895e-05,-0.0022164,-0.00025835,-2579,1.1024
15775,13.03,5.2727,0,0.00025597,2558,8.513e-05,7.8861,8.408e-05,-0.0022364,-0.00025584,-2554,1.1158
15776,12.938,5.2727,0.05,8.5051e-07,8.4992,6.5308e-07,4.9069,4.544e-12,4.0534e-06,-6.5308e-07,-4.9071,1.1028
15777,12.938,5.5455,0,0.00025871,2585.4,8.6185e-05,9.6877,8.4895e-05,-0.0025786,-0.00025855,-2580.5,1.1017
15778,13.03,5.4545,0,0.00025618,2560,8.5308e-05,9.2109,8.4081e-05,-0.0023421,-0.00025602,-2555.4,1.1151
15779,12.938,5.4545,0.05,8.4676e-07,8.4617,6.502e-07,4.8853,5.456e-12,4.0166e-06,-6.5021e-07,-4.8854,1.102
15780,12.938,5.7273,0,0.00025906,2588.8,8.6487e-05,11.949,8.4896e-05,-0.0027072,-0.00025885,-2582.8,1.1009
15781,13.03,5.6364,0,0.0002564,2562.3,8.5506e-05,10.685,8.4083e-05,-0.0032627,-0.00025622,-2556.9,1.1143
15782,12.938,5.6364,0.05,7.9441e-07,7.9387,6.1e-07,4.5833,6.3675e-12,4.539e-06,-6.1002e-07,-4.5835,1.1012
15783,13.03,5.8182,0,0.00025687,2566.9,8.5913e-05,13.718,8.4087e-05,-0.0021723,-0.00025663,-2560,1.1135
15784,12.938,5.8182,0.05,3.9485e-09,0.039457,3.0284e-09,0.022716,1.657e-12,-1.9688e-05,-3.0355e-09,-0.022845,1.1004
15785,12.938,5.9091,0,0.00025864,2584.6,8.6115e-05,9.1405,8.4899e-05,-0.0019685,-0.00025849,-2580.1,1.1
15786,13.122,0.27273,0,0.0002542,2540.3,8.4917e-05,12.348,8.3273e-05,-0.0030002,-0.00025399,-2534.1,1.127
15787,13.215,0.18182,0,0.00025202,2518.5,8.4342e-05,14.073,8.2469e-05,-0.0019431,-0.00025178,-2511.4,1.1397
15788,13.122,0.18182,0.05,7.6957e-09,0.076904,5.9097e-09,0.044448,-8.1538e-13,3.0849e-05,-5.9089e-09,-0.044353,1.1266
15789,13.122,0.090909,0,0.00025377,2535.9,8.4525e-05,9.366,8.3278e-05,-0.0021231,-0.00025361,-2531.2,1.1261
15790,13.122,0.45455,0,0.00025386,2536.9,8.4625e-05,10.18,8.3269e-05,-0.0030539,-0.00025369,-2531.8,1.1278
15791,13.215,0.36364,0,0.00025156,2513.8,8.3943e-05,11.116,8.2463e-05,-0.0039689,-0.00025137,-2508.3,1.1405
15792,13.122,0.36364,0.05,7.9063e-07,7.9009,6.0711e-07,4.5616,-3.6445e-12,3.0782e-06,-6.071e-07,-4.5615,1.1274
15793,13.122,0.63636,0,0.00025365,2534.8,8.4443e-05,8.8336,8.3267e-05,-0.0023745,-0.0002535,-2530.3,1.1285
15794,13.215,0.54545,0,0.00025134,2511.6,8.3755e-05,9.7428,8.2458e-05,-0.0025504,-0.00025117,-2506.8,1.1413
15795,13.122,0.54545,0.05,8.4292e-07,8.4234,6.4726e-07,4.8633,-3.6444e-12,3.0296e-06,-6.4725e-07,-4.8632,1.1282
15796,13.122,0.81818,0,0.00025346,2532.8,8.4276e-05,7.5962,8.3265e-05,-0.0021391,-0.00025333,-2529,1.1292
15797,13.215,0.72727,0,0.00025114,2509.7,8.3588e-05,8.5166,8.2455e-05,-0.0023375,-0.000251,-2505.4,1.142
15798,13.122,0.72727,0.05,8.4664e-07,8.4605,6.5011e-07,4.8847,-2.7318e-12,2.4823e-06,-6.5011e-07,-4.8847,1.1289
15799,13.122,1,0,0.00025328,2531.1,8.412e-05,6.4317,8.3264e-05,-0.001876,-0.00025317,-2527.8,1.1299
15800,13.215,0.90909,0,0.00025096,2507.9,8.3432e-05,7.361,8.2452e-05,-0.0019256,-0.00025084,-2504.2,1.1427
15801,13.122,0.90909,0.05,8.4717e-07,8.4659,6.5053e-07,4.8878,-1.82e-12,2.675e-06,-6.5052e-07,-4.8877,1.1295
15802,13.122,1.1818,0,0.00025312,2529.4,8.3975e-05,5.3439,8.3263e-05,-0.0016692,-0.00025303,-2526.7,1.1304
15803,13.215,1.0909,0,0.00025079,2506.2,8.3286e-05,6.277,8.245e-05,-0.0015853,-0.00025069,-2503.1,1.1433
15804,13.122,1.0909,0.05,8.4747e-07,8.4689,6.5076e-07,4.8896,-1.8176e-12,3.0797e-06,-6.5075e-07,-4.8895,1.1301
15805,13.122,1.3636,0,0.00025297,2527.9,8.3841e-05,4.3387,8.3264e-05,-0.0015003,-0.00025289,-2525.7,1.131
15806,13.215,1.2727,0,0.00025064,2504.6,8.3151e-05,5.2702,8.2449e-05,-0.0012362,-0.00025055,-2502,1.1438
15807,13.122,1.2727,0.05,8.4774e-07,8.4715,6.5096e-07,4.8911,-2.7248e-12,3.0961e-06,-6.5096e-07,-4.891,1.1307
15808,13.122,1.5455,0,0.00025283,2526.6,8.372e-05,3.4221,8.3264e-05,-0.0013841,-0.00025277,-2524.8,1.1314
15809,13.215,1.4545,0,0.0002505,2503.2,8.3027e-05,4.3462,8.2449e-05,-0.00088694,-0.00025042,-2501.1,1.1443
15810,13.122,1.4545,0.05,8.4798e-07,8.4739,6.5114e-07,4.8925,-2.7231e-12,3.1722e-06,-6.5114e-07,-4.8924,1.1312
15811,13.122,1.7273,0,0.00025271,2525.3,8.3611e-05,2.5994,8.3265e-05,-0.0013332,-0.00025266,-2524,1.1318
15812,13.215,1.6364,0,0.00025037,2502,8.2916e-05,3.5103,8.2448e-05,-0.00051835,-0.00025031,-2500.2,1.1447
15813,13.122,1.6364,0.05,8.4819e-07,8.4761,6.5131e-07,4.8937,-9.0268e-13,3.5371e-06,-6.513e-07,-4.8936,1.1316
15814,13.122,1.9091,0,0.0002526,2524.3,8.3516e-05,1.8757,8.3266e-05,-0.0013767,-0.00025257,-2523.3,1.1322
15815,13.215,1.8182,0,0.00025026,2500.9,8.2817e-05,2.7672,8.2449e-05,-0.0001048,-0.00025021,-2499.5,1.1451
15816,13.122,1.8182,0.05,8.4838e-07,8.4779,6.5145e-07,4.8947,-1.8112e-12,2.944e-06,-6.5145e-07,-4.8947,1.132
15817,13.122,2.0909,0,0.00025251,2523.4,8.3434e-05,1.2555,8.3267e-05,-0.0015885,-0.00025249,-2522.8,1.1325
15818,13.215,2,0,0.00025016,2499.9,8.2731e-05,2.1214,8.2449e-05,0.00039353,-0.00025013,-2498.8,1.1454
15819,13.122,2,0.05,8.4854e-07,8.4795,6.5157e-07,4.8957,7.8978e-15,3.2183e-06,-6.5157e-07,-4.8956,1.1323
15820,13.122,2.2727,0,0.00025244,2522.6,8.3367e-05,0.74292,8.3267e-05,-0.0021853,-0.00025243,-2522.3,1.1328
15821,13.215,2.1818,0,0.00025008,2499.1,8.2659e-05,1.5768,8.2449e-05,0.0010393,-0.00025006,-2498.3,1.1457
15822,13.122,2.1818,0.05,8.4867e-07,8.4809,6.5168e-07,4.8964,-9.0202e-13,3.6909e-06,-6.5167e-07,-4.8964,1.1326
15823,13.122,2.4545,0,0.00025238,2522.1,8.3314e-05,0.34221,8.3268e-05,-0.0040988,-0.00025237,-2521.9,1.1329
15824,13.215,2.3636,0,0.00025002,2498.5,8.2601e-05,1.1365,8.245e-05,0.0019301,-0.00025,-2497.9,1.1459
15825,13.122,2.3636,0.05,8.4878e-07,8.482,6.5176e-07,4.8971,6.4078e-15,3.5351e-06,-6.5176e-07,-4.8971,1.1328
15826,13.122,2.6364,0,0.00025234,2521.6,8.3278e-05,0.067577,8.3267e-05,-0.018953,-0.00025234,-2521.6,1.1331
15827,13.215,2.5455,0,0.00024997,2498,8.2557e-05,0.80329,8.245e-05,0.0031885,-0.00024996,-2497.6,1.1461
15828,13.122,2.5455,0.05,8.4886e-07,8.4828,6.5182e-07,4.8975,5.0072e-15,3.7029e-06,-6.5182e-07,-4.8975,1.133
15829,13.122,2.8182,0,0.00025231,2521.4,8.3271e-05,0.0090597,8.3252e-05,-0.13489,-0.00025232,-2521.5,1.1332
15830,13.215,2.7273,0,0.00024994,2497.6,8.2527e-05,0.57917,8.2451e-05,0.0048021,-0.00024993,-2497.4,1.1462
15831,13.122,2.7273,0.05,8.4892e-07,8.4833,6.5186e-07,4.8978,3.1914e-15,2.9444e-06,-6.5186e-07,-4.8978,1.1331
15832,13.122,3,0,0.0002523,2521.3,8.327e-05,0.0063268,8.3244e-05,-0.19044,-0.00025231,-2521.4,1.1332
15833,13.215,2.9091,0,0.00024992,2497.5,8.2512e-05,0.46618,8.2451e-05,0.0061866,-0.00024991,-2497.2,1.1463
15834,13.122,2.9091,0.05,8.4894e-07,8.4836,6.5188e-07,4.898,1.0889e-15,3.4951e-06,-6.5188e-07,-4.898,1.1332
15835,13.122,3.1818,0,0.00025231,2521.4,8.3271e-05,0.0090595,8.3252e-05,-0.13489,-0.00025232,-2521.5,1.1332
15836,13.215,3.0909,0,0.00024992,2497.5,8.2512e-05,0.46618,8.2451e-05,0.0061868,-0.00024991,-2497.2,1.1463
15837,13.122,3.0909,0.05,8.4894e-07,8.4836,6.5188e-07,4.898,-1.0947e-15,3.0614e-06,-6.5188e-07,-4.898,1.1332
15838,13.122,3.3636,0,0.00025234,2521.6,8.3278e-05,0.067584,8.3267e-05,-0.01895,-0.00025234,-2521.6,1.1331
15839,13.215,3.2727,0,0.00024994,2497.6,8.2527e-05,0.57918,8.2451e-05,0.0048016,-0.00024993,-2497.4,1.1462
15840,13.122,3.2727,0.05,8.4892e-07,8.4833,6.5186e-07,4.8978,9.0628e-13,3.4028e-06,-6.5186e-07,-4.8978,1.1331
15841,13.122,3.5455,0,0.00025238,2522.1,8.3314e-05,0.34222,8.3268e-05,-0.0040983,-0.00025237,-2521.9,1.1329
15842,13.215,3.4545,0,0.00024997,2498,8.2557e-05,0.80331,8.245e-05,0.0031879,-0.00024996,-2497.6,1.1461
15843,13.122,3.4545,0.05,8.4886e-07,8.4828,6.5182e-07,4.8975,1.8139e-12,3.2698e-06,-6.5182e-07,-4.8975,1.133
15844,13.122,3.7273,0,0.00025244,2522.6,8.3367e-05,0.74294,8.3267e-05,-0.0021854,-0.00025243,-2522.3,1.1328
15845,13.215,3.6364,0,0.00025002,2498.5,8.2601e-05,1.1366,8.245e-05,0.00193,-0.00025,-2497.9,1.1459
15846,13.122,3.6364,0.05,8.4878e-07,8.482,6.5176e-07,4.897,9.0298e-13,4.0635e-06,-6.5176e-07,-4.8971,1.1328
15847,13.122,3.9091,0,0.00025251,2523.4,8.3434e-05,1.2555,8.3267e-05,-0.0015883,-0.00025249,-2522.8,1.1325
15848,13.215,3.8182,0,0.00025008,2499.1,8.2659e-05,1.5768,8.2449e-05,0.0010389,-0.00025006,-2498.3,1.1457
15849,13.122,3.8182,0.05,8.4867e-07,8.4809,6.5167e-07,4.8964,2.7208e-12,4.4428e-06,-6.5168e-07,-4.8965,1.1326
15850,13.122,4.0909,0,0.0002526,2524.3,8.3516e-05,1.8757,8.3266e-05,-0.0013754,-0.00025257,-2523.3,1.1322
15851,13.215,4,0,0.00025016,2499.9,8.2731e-05,2.1215,8.2449e-05,0.00039378,-0.00025013,-2498.8,1.1454
15852,13.122,4,0.05,8.4854e-07,8.4795,6.5157e-07,4.8956,2.7206e-12,4.0224e-06,-6.5157e-07,-4.8957,1.1323
15853,13.122,4.2727,0,0.00025271,2525.3,8.3611e-05,2.5994,8.3265e-05,-0.0013327,-0.00025266,-2524,1.1318
15854,13.215,4.1818,0,0.00025026,2500.9,8.2817e-05,2.7673,8.2449e-05,-0.00010446,-0.00025021,-2499.5,1.1451
15855,13.122,4.1818,0.05,8.4838e-07,8.4779,6.5145e-07,4.8947,1.8109e-12,3.5182e-06,-6.5145e-07,-4.8948,1.132
15856,13.122,4.4545,0,0.00025283,2526.6,8.372e-05,3.4221,8.3264e-05,-0.0013841,-0.00025277,-2524.8,1.1314
15857,13.215,4.3636,0,0.00025037,2502,8.2916e-05,3.5103,8.2448e-05,-0.00051834,-0.00025031,-2500.2,1.1447
15858,13.122,4.3636,0.05,8.4819e-07,8.4761,6.513e-07,4.8936,3.6309e-12,4.4727e-06,-6.5131e-07,-4.8937,1.1316
15859,13.122,4.6364,0,0.00025297,2527.9,8.3841e-05,4.3388,8.3264e-05,-0.0015,-0.00025289,-2525.7,1.131
15860,13.215,4.5455,0,0.0002505,2503.2,8.3027e-05,4.3463,8.2449e-05,-0.00088692,-0.00025042,-2501.1,1.1443
15861,13.122,4.5455,0.05,8.4798e-07,8.4739,6.5114e-07,4.8924,3.6324e-12,3.4737e-06,-6.5114e-07,-4.8925,1.1312
15862,13.122,4.8182,0,0.00025312,2529.4,8.3975e-05,5.3439,8.3263e-05,-0.0016689,-0.00025303,-2526.7,1.1304
15863,13.215,4.7273,0,0.00025064,2504.6,8.3151e-05,5.2703,8.2449e-05,-0.0012359,-0.00025055,-2502,1.1438
15864,13.122,4.7273,0.05,8.4774e-07,8.4715,6.5095e-07,4.891,3.6345e-12,4.3843e-06,-6.5096e-07,-4.8911,1.1307
15865,13.122,5,0,0.00025328,2531.1,8.412e-05,6.4317,8.3264e-05,-0.0018768,-0.00025317,-2527.8,1.1299
15866,13.215,4.9091,0,0.00025079,2506.2,8.3286e-05,6.2771,8.245e-05,-0.0015849,-0.00025069,-2503.1,1.1433
15867,13.122,4.9091,0.05,8.4747e-07,8.4689,6.5075e-07,4.8895,3.6366e-12,4.3106e-06,-6.5076e-07,-4.8896,1.1301
15868,13.122,5.1818,0,0.00025346,2532.8,8.4276e-05,7.5963,8.3265e-05,-0.0021414,-0.00025333,-2529,1.1292
15869,13.215,5.0909,0,0.00025096,2507.9,8.3432e-05,7.3611,8.2452e-05,-0.0019273,-0.00025084,-2504.2,1.1427
15870,13.122,5.0909,0.05,8.4717e-07,8.4659,6.5052e-07,4.8877,3.6388e-12,3.2263e-06,-6.5053e-07,-4.8878,1.1295
15871,13.122,5.3636,0,0.00025365,2534.8,8.4443e-05,8.8336,8.3267e-05,-0.0023756,-0.0002535,-2530.3,1.1285
15872,13.215,5.2727,0,0.00025114,2509.7,8.3588e-05,8.5167,8.2455e-05,-0.0023392,-0.000251,-2505.4,1.142
15873,13.122,5.2727,0.05,8.4664e-07,8.4605,6.5011e-07,4.8846,4.5508e-12,3.9252e-06,-6.5012e-07,-4.8848,1.1289
15874,13.122,5.5455,0,0.00025386,2536.9,8.4625e-05,10.18,8.3269e-05,-0.0030534,-0.00025369,-2531.8,1.1278
15875,13.215,5.4545,0,0.00025134,2511.6,8.3755e-05,9.7428,8.2458e-05,-0.0025503,-0.00025117,-2506.8,1.1413
15876,13.122,5.4545,0.05,8.4292e-07,8.4234,6.4725e-07,4.8632,5.4617e-12,4.0797e-06,-6.4726e-07,-4.8633,1.1282
15877,13.122,5.7273,0,0.0002542,2540.3,8.4917e-05,12.348,8.3273e-05,-0.0030001,-0.00025399,-2534.1,1.127
15878,13.215,5.6364,0,0.00025156,2513.8,8.3943e-05,11.116,8.2463e-05,-0.0039691,-0.00025137,-2508.3,1.1405
15879,13.122,5.6364,0.05,7.9063e-07,7.9009,6.071e-07,4.5615,6.3716e-12,4.6623e-06,-6.0711e-07,-4.5617,1.1274
15880,13.215,5.8182,0,0.00025202,2518.5,8.4342e-05,14.073,8.2469e-05,-0.0019432,-0.00025178,-2511.4,1.1397
15881,13.122,5.8182,0.05,7.6956e-09,0.076903,5.9063e-09,0.04434,1.4505e-12,-2.7858e-05,-5.9123e-09,-0.044461,1.1266
15882,13.122,5.9091,0,0.00025377,2535.9,8.4525e-05,9.366,8.3278e-05,-0.0021237,-0.00025361,-2531.2,1.1261
15883,13.307,0.27273,0,0.00024936,2491.9,8.3353e-05,12.735,8.1658e-05,-0.0032892,-0.00024914,-2485.5,1.1533
15884,13.399,0.18182,0,0.00024719,2470.2,8.2778e-05,14.42,8.0858e-05,-0.0017344,-0.00024695,-2463,1.1661
15885,13.307,0.18182,0.05,1.1117e-08,0.11109,8.5367e-09,0.064173,2.2299e-14,2.4408e-05,-8.5358e-09,-0.064103,1.1529
15886,13.307,0.090909,0,0.00024891,2487.4,8.2942e-05,9.5868,8.1665e-05,-0.0022851,-0.00024875,-2482.6,1.1525
15887,13.307,0.45455,0,0.00024903,2488.6,8.3069e-05,10.651,8.1651e-05,-0.0035069,-0.00024885,-2483.2,1.1541
15888,13.399,0.36364,0,0.00024673,2465.6,8.2385e-05,11.533,8.085e-05,-0.0046321,-0.00024653,-2459.8,1.1669
15889,13.307,0.36364,0.05,7.8691e-07,7.8636,6.0425e-07,4.5401,-3.6469e-12,2.6072e-06,-6.0424e-07,-4.54,1.1537
15890,13.307,0.63636,0,0.00024883,2486.5,8.2898e-05,9.4007,8.1646e-05,-0.0025352,-0.00024866,-2481.8,1.1548
15891,13.399,0.54545,0,0.00024652,2463.5,8.2207e-05,10.252,8.0843e-05,-0.0027441,-0.00024634,-2458.3,1.1677
15892,13.307,0.54545,0.05,8.3911e-07,8.3854,6.4434e-07,4.8413,-1.8291e-12,2.776e-06,-6.4433e-07,-4.8412,1.1544
15893,13.307,0.81818,0,0.00024864,2484.7,8.2741e-05,8.2567,8.1642e-05,-0.002149,-0.0002485,-2480.6,1.1555
15894,13.399,0.72727,0,0.00024633,2461.6,8.205e-05,9.1172,8.0837e-05,-0.0024412,-0.00024617,-2457,1.1684
15895,13.307,0.72727,0.05,8.4281e-07,8.4223,6.4717e-07,4.8626,-2.7387e-12,1.7129e-06,-6.4717e-07,-4.8626,1.1551
15896,13.307,1,0,0.00024847,2483,8.2595e-05,7.1818,8.1639e-05,-0.00167,-0.00024835,-2479.4,1.1561
15897,13.399,0.90909,0,0.00024615,2459.8,8.1903e-05,8.05,8.0832e-05,-0.0018403,-0.00024602,-2455.8,1.169
15898,13.307,0.90909,0.05,8.4332e-07,8.4274,6.4757e-07,4.8656,-2.7359e-12,1.5843e-06,-6.4756e-07,-4.8655,1.1558
15899,13.307,1.1818,0,0.00024831,2481.4,8.2459e-05,6.179,8.1636e-05,-0.001208,-0.0002482,-2478.3,1.1567
15900,13.399,1.0909,0,0.00024599,2458.2,8.1766e-05,7.0505,8.0828e-05,-0.0013033,-0.00024587,-2454.7,1.1696
15901,13.307,1.0909,0.05,8.436e-07,8.4302,6.4779e-07,4.8672,-9.146e-13,2.8628e-06,-6.4778e-07,-4.8672,1.1564
15902,13.307,1.3636,0,0.00024817,2479.9,8.2334e-05,5.2536,8.1634e-05,-0.00071781,-0.00024808,-2477.3,1.1572
15903,13.399,1.2727,0,0.00024584,2456.7,8.164e-05,6.1234,8.0825e-05,-0.00072092,-0.00024574,-2453.7,1.1701
15904,13.307,1.2727,0.05,8.4385e-07,8.4327,6.4797e-07,4.8686,-1.823e-12,2.7697e-06,-6.4797e-07,-4.8686,1.1569
15905,13.307,1.5455,0,0.00024804,2478.6,8.222e-05,4.4104,8.1633e-05,-0.00019001,-0.00024796,-2476.4,1.1577
15906,13.399,1.4545,0,0.00024571,2455.4,8.1524e-05,5.2736,8.0822e-05,-0.00010226,-0.00024562,-2452.7,1.1706
15907,13.307,1.4545,0.05,8.4407e-07,8.4349,6.4814e-07,4.8699,-3.6403e-12,2.7991e-06,-6.4814e-07,-4.8699,1.1574
15908,13.307,1.7273,0,0.00024792,2477.5,8.2118e-05,3.6544,8.1632e-05,0.00040156,-0.00024786,-2475.6,1.1581
15909,13.399,1.6364,0,0.00024559,2454.2,8.142e-05,4.5055,8.0821e-05,0.00057447,-0.00024551,-2451.9,1.1711
15910,13.307,1.6364,0.05,8.4427e-07,8.4369,6.4829e-07,4.871,-9.1022e-13,3.1385e-06,-6.4829e-07,-4.871,1.1579
15911,13.307,1.9091,0,0.00024782,2476.5,8.2029e-05,2.9896,8.1632e-05,0.0010872,-0.00024777,-2475,1.1584
15912,13.399,1.8182,0,0.00024548,2453.1,8.1328e-05,3.8234,8.0819e-05,0.0013293,-0.00024542,-2451.2,1.1714
15913,13.307,1.8182,0.05,8.4444e-07,8.4386,6.4843e-07,4.872,-1.8185e-12,2.6861e-06,-6.4843e-07,-4.872,1.1582
15914,13.307,2.0909,0,0.00024773,2475.6,8.1953e-05,2.42,8.1631e-05,0.0019013,-0.00024769,-2474.4,1.1587
15915,13.399,2,0,0.00024539,2452.2,8.1248e-05,3.2311,8.0818e-05,0.0021797,-0.00024533,-2450.6,1.1717
15916,13.307,2,0.05,8.4459e-07,8.4401,6.4854e-07,4.8729,-9.0815e-13,2.9761e-06,-6.4854e-07,-4.8729,1.1586
15917,13.307,2.2727,0,0.00024766,2474.9,8.189e-05,1.9489,8.1631e-05,0.0028724,-0.00024763,-2473.9,1.159
15918,13.399,2.1818,0,0.00024531,2451.4,8.1181e-05,2.7319,8.0818e-05,0.0031257,-0.00024526,-2450.1,1.172
15919,13.307,2.1818,0.05,8.4472e-07,8.4413,6.4864e-07,4.8736,1.8811e-15,3.2176e-06,-6.4864e-07,-4.8736,1.1588
15920,13.307,2.4545,0,0.0002476,2474.3,8.1841e-05,1.5791,8.1632e-05,0.003995,-0.00024758,-2473.5,1.1592
15921,13.399,2.3636,0,0.00024525,2450.8,8.1127e-05,2.3287,8.0817e-05,0.004146,-0.00024521,-2449.6,1.1722
15922,13.307,2.3636,0.05,8.4482e-07,8.4423,6.4871e-07,4.8742,1.9579e-15,3.2784e-06,-6.4871e-07,-4.8742,1.159
15923,13.307,2.6364,0,0.00024756,2473.9,8.1806e-05,1.313,8.1632e-05,0.005164,-0.00024754,-2473.3,1.1593
15924,13.399,2.5455,0,0.0002452,2450.3,8.1086e-05,2.0239,8.0817e-05,0.0051603,-0.00024517,-2449.3,1.1724
15925,13.307,2.5455,0.05,8.4489e-07,8.4431,6.4877e-07,4.8746,1.6793e-15,3.3655e-06,-6.4877e-07,-4.8746,1.1592
15926,13.307,2.8182,0,0.00024754,2473.7,8.1784e-05,1.1524,8.1632e-05,0.0061157,-0.00024752,-2473.1,1.1594
15927,13.399,2.7273,0,0.00024517,2450,8.1058e-05,1.8196,8.0817e-05,0.0060149,-0.00024514,-2449.1,1.1725
15928,13.307,2.7273,0.05,8.4494e-07,8.4436,6.4881e-07,4.8749,1.1417e-15,2.9142e-06,-6.4881e-07,-4.8749,1.1593
15929,13.307,3,0,0.00024753,2473.6,8.1777e-05,1.0987,8.1632e-05,0.0064936,-0.00024751,-2473.1,1.1594
15930,13.399,2.9091,0,0.00024516,2449.9,8.1045e-05,1.717,8.0817e-05,0.0065151,-0.00024513,-2449,1.1726
15931,13.307,2.9091,0.05,8.4497e-07,8.4438,6.4883e-07,4.8751,1.8194e-12,3.1024e-06,-6.4883e-07,-4.8751,1.1594
15932,13.307,3.1818,0,0.00024754,2473.7,8.1784e-05,1.1524,8.1632e-05,0.0061153,-0.00024752,-2473.1,1.1594
15933,13.399,3.0909,0,0.00024516,2449.9,8.1045e-05,1.717,8.0817e-05,0.0065153,-0.00024513,-2449,1.1726
15934,13.307,3.0909,0.05,8.4497e-07,8.4438,6.4883e-07,4.8751,1.8186e-12,2.7835e-06,-6.4883e-07,-4.8751,1.1594
15935,13.307,3.3636,0,0.00024756,2473.9,8.1806e-05,1.313,8.1632e-05,0.0051631,-0.00024754,-2473.3,1.1593
15936,13.399,3.2727,0,0.00024517,2450,8.1058e-05,1.8196,8.0817e-05,0.0060145,-0.00024514,-2449.1,1.1725
15937,13.307,3.2727,0.05,8.4494e-07,8.4436,6.4881e-07,4.8749,9.0834e-13,3.1207e-06,-6.4881e-07,-4.8749,1.1593
15938,13.307,3.5455,0,0.0002476,2474.3,8.1841e-05,1.5791,8.1632e-05,0.0039941,-0.00024758,-2473.5,1.1592
15939,13.399,3.4545,0,0.0002452,2450.3,8.1086e-05,2.0239,8.0817e-05,0.0051603,-0.00024517,-2449.3,1.1724
15940,13.307,3.4545,0.05,8.4489e-07,8.4431,6.4877e-07,4.8746,1.8173e-12,3.1909e-06,-6.4877e-07,-4.8747,1.1592
15941,13.307,3.7273,0,0.00024766,2474.9,8.189e-05,1.9489,8.1631e-05,0.0028721,-0.00024763,-2473.9,1.159
15942,13.399,3.6364,0,0.00024525,2450.8,8.1127e-05,2.3287,8.0817e-05,0.0041456,-0.00024521,-2449.6,1.1722
15943,13.307,3.6364,0.05,8.4482e-07,8.4423,6.4871e-07,4.8742,3.6359e-12,3.6655e-06,-6.4871e-07,-4.8742,1.159
15944,13.307,3.9091,0,0.00024773,2475.6,8.1953e-05,2.42,8.1631e-05,0.001901,-0.00024769,-2474.4,1.1587
15945,13.399,3.8182,0,0.00024531,2451.4,8.1181e-05,2.7319,8.0818e-05,0.0031255,-0.00024526,-2450.1,1.172
15946,13.307,3.8182,0.05,8.4472e-07,8.4413,6.4864e-07,4.8736,2.7266e-12,4.3367e-06,-6.4864e-07,-4.8736,1.1588
15947,13.307,4.0909,0,0.00024782,2476.5,8.2029e-05,2.9897,8.1632e-05,0.0010865,-0.00024777,-2475,1.1584
15948,13.399,4,0,0.00024539,2452.2,8.1248e-05,3.2311,8.0818e-05,0.0021789,-0.00024533,-2450.6,1.1717
15949,13.307,4,0.05,8.4459e-07,8.4401,6.4854e-07,4.8729,1.8175e-12,3.6844e-06,-6.4855e-07,-4.8729,1.1586
15950,13.307,4.2727,0,0.00024792,2477.5,8.2118e-05,3.6544,8.1632e-05,0.00040144,-0.00024786,-2475.6,1.1581
15951,13.399,4.1818,0,0.00024548,2453.1,8.1328e-05,3.8234,8.0819e-05,0.0013293,-0.00024542,-2451.2,1.1714
15952,13.307,4.1818,0.05,8.4444e-07,8.4386,6.4843e-07,4.872,1.8184e-12,3.304e-06,-6.4843e-07,-4.8721,1.1582
15953,13.307,4.4545,0,0.00024804,2478.6,8.222e-05,4.4105,8.1633e-05,-0.00019007,-0.00024796,-2476.4,1.1577
15954,13.399,4.3636,0,0.00024559,2454.2,8.142e-05,4.5055,8.0821e-05,0.00057506,-0.00024551,-2451.9,1.1711
15955,13.307,4.3636,0.05,8.4427e-07,8.4369,6.4829e-07,4.871,3.6388e-12,4.4315e-06,-6.483e-07,-4.8711,1.1579
15956,13.307,4.6364,0,0.00024817,2479.9,8.2334e-05,5.2536,8.1634e-05,-0.00071786,-0.00024808,-2477.3,1.1572
15957,13.399,4.5455,0,0.00024571,2455.4,8.1524e-05,5.2736,8.0822e-05,-0.00010205,-0.00024562,-2452.7,1.1706
15958,13.307,4.5455,0.05,8.4407e-07,8.4349,6.4814e-07,4.8698,3.6404e-12,3.5347e-06,-6.4814e-07,-4.8699,1.1574
15959,13.307,4.8182,0,0.00024831,2481.4,8.2459e-05,6.1791,8.1636e-05,-0.0012076,-0.0002482,-2478.3,1.1567
15960,13.399,4.7273,0,0.00024584,2456.7,8.164e-05,6.1235,8.0825e-05,-0.00072145,-0.00024574,-2453.7,1.1701
15961,13.307,4.7273,0.05,8.4385e-07,8.4327,6.4797e-07,4.8685,4.5516e-12,4.2668e-06,-6.4798e-07,-4.8687,1.1569
15962,13.307,5,0,0.00024847,2483,8.2595e-05,7.1818,8.1639e-05,-0.0016705,-0.00024835,-2479.4,1.1561
15963,13.399,4.9091,0,0.00024599,2458.2,8.1767e-05,7.0506,8.0828e-05,-0.0013036,-0.00024587,-2454.7,1.1696
15964,13.307,4.9091,0.05,8.436e-07,8.4302,6.4778e-07,4.8671,4.5538e-12,4.337e-06,-6.4779e-07,-4.8672,1.1564
15965,13.307,5.1818,0,0.00024864,2484.7,8.2741e-05,8.2567,8.1642e-05,-0.00215,-0.0002485,-2480.6,1.1555
15966,13.399,5.0909,0,0.00024615,2459.8,8.1904e-05,8.0501,8.0832e-05,-0.0018426,-0.00024602,-2455.8,1.169
15967,13.307,5.0909,0.05,8.4332e-07,8.4274,6.4756e-07,4.8655,3.6454e-12,3.2771e-06,-6.4757e-07,-4.8656,1.1558
15968,13.307,5.3636,0,0.00024883,2486.5,8.2898e-05,9.4008,8.1646e-05,-0.0025357,-0.00024866,-2481.8,1.1548
15969,13.399,5.2727,0,0.00024633,2461.6,8.205e-05,9.1172,8.0837e-05,-0.0024419,-0.00024617,-2457,1.1684
15970,13.307,5.2727,0.05,8.4281e-07,8.4223,6.4717e-07,4.8625,4.5564e-12,4.1321e-06,-6.4718e-07,-4.8627,1.1551
15971,13.307,5.5455,0,0.00024903,2488.6,8.3069e-05,10.651,8.1651e-05,-0.0035075,-0.00024885,-2483.2,1.1541
15972,13.399,5.4545,0,0.00024652,2463.5,8.2207e-05,10.252,8.0843e-05,-0.0027444,-0.00024634,-2458.3,1.1677
15973,13.307,5.4545,0.05,8.3911e-07,8.3854,6.4433e-07,4.8412,5.467e-12,4.0627e-06,-6.4434e-07,-4.8414,1.1544
15974,13.307,5.7273,0,0.00024936,2491.9,8.3353e-05,12.735,8.1658e-05,-0.0032896,-0.00024914,-2485.5,1.1533
15975,13.399,5.6364,0,0.00024673,2465.6,8.2385e-05,11.533,8.085e-05,-0.0046325,-0.00024653,-2459.8,1.1669
15976,13.307,5.6364,0.05,7.8691e-07,7.8636,6.0424e-07,4.54,5.4634e-12,4.764e-06,-6.0425e-07,-4.5401,1.1537
15977,13.399,5.8182,0,0.00024719,2470.2,8.2778e-05,14.42,8.0858e-05,-0.0017342,-0.00024695,-2463,1.1661
15978,13.307,5.8182,0.05,1.1117e-08,0.11109,8.5318e-09,0.064045,4.3451e-13,-5.5212e-05,-8.5405e-09,-0.06423,1.1529
15979,13.307,5.9091,0,0.00024891,2487.4,8.2942e-05,9.5868,8.1665e-05,-0.0022838,-0.00024875,-2482.6,1.1525
15980,13.491,0.27273,0,0.00024455,2443.8,8.1795e-05,13.11,8.005e-05,-0.0035551,-0.00024432,-2437.2,1.1798
15981,13.583,0.18182,0,0.00024239,2422.2,8.122e-05,14.76,7.9255e-05,-0.0015403,-0.00024213,-2414.8,1.1927
15982,13.491,0.18182,0.05,1.4219e-08,0.14209,1.092e-08,0.082068,8.8105e-13,2.9178e-05,-1.0916e-08,-0.082002,1.1794
15983,13.491,0.090909,0,0.00024408,2439.1,8.1365e-05,9.8035,8.006e-05,-0.0024301,-0.00024391,-2434.2,1.179
15984,13.491,0.45455,0,0.00024422,2440.5,8.1519e-05,11.104,8.0041e-05,-0.0039224,-0.00024403,-2434.9,1.1806
15985,13.583,0.36364,0,0.00024193,2417.6,8.0833e-05,11.935,7.9244e-05,-0.0052539,-0.00024172,-2411.6,1.1935
15986,13.491,0.36364,0.05,7.8323e-07,7.8269,6.0143e-07,4.5189,-3.647e-12,4.7579e-07,-6.0142e-07,-4.5188,1.1802
15987,13.491,0.63636,0,0.00024402,2438.5,8.1357e-05,9.9428,8.0033e-05,-0.0026767,-0.00024385,-2433.5,1.1813
15988,13.583,0.54545,0,0.00024172,2415.5,8.0664e-05,10.74,7.9235e-05,-0.0029216,-0.00024153,-2410.1,1.1942
15989,13.491,0.54545,0.05,8.3535e-07,8.3477,6.4145e-07,4.8196,-3.6531e-12,9.7366e-07,-6.4144e-07,-4.8196,1.1809
15990,13.491,0.81818,0,0.00024384,2436.7,8.121e-05,8.8854,8.0027e-05,-0.0021612,-0.00024369,-2432.3,1.1819
15991,13.583,0.72727,0,0.00024154,2413.7,8.0516e-05,9.6907,7.9226e-05,-0.0025402,-0.00024137,-2408.8,1.1949
15992,13.491,0.72727,0.05,8.3902e-07,8.3844,6.4426e-07,4.8408,-2.7389e-12,1.8501e-06,-6.4426e-07,-4.8407,1.1816
15993,13.491,1,0,0.00024367,2435.1,8.1072e-05,7.8938,8.0021e-05,-0.0015096,-0.00024354,-2431.1,1.1826
15994,13.583,0.90909,0,0.00024137,2412,8.0378e-05,8.7058,7.9219e-05,-0.0017792,-0.00024122,-2407.6,1.1955
15995,13.491,0.90909,0.05,8.3951e-07,8.3893,6.4464e-07,4.8436,-9.2319e-13,1.9569e-06,-6.4464e-07,-4.8435,1.1822
15996,13.491,1.1818,0,0.00024352,2433.5,8.0945e-05,6.9701,8.0017e-05,-0.00086494,-0.0002434,-2430,1.1831
15997,13.583,1.0909,0,0.00024121,2410.4,8.025e-05,7.7849,7.9213e-05,-0.0010879,-0.00024108,-2406.5,1.1961
15998,13.491,1.0909,0.05,8.3978e-07,8.392,6.4484e-07,4.8451,-2.7436e-12,2.6062e-06,-6.4484e-07,-4.8451,1.1828
15999,13.491,1.3636,0,0.00024338,2432.1,8.0827e-05,6.1187,8.0013e-05,-0.00017405,-0.00024328,-2429.1,1.1836
16000,13.583,1.2727,0,0.00024107,2409,8.0131e-05,6.9319,7.9209e-05,-0.00034168,-0.00024095,-2405.5,1.1966
16001,13.491,1.2727,0.05,8.4001e-07,8.3943,6.4502e-07,4.8465,-2.7399e-12,2.1517e-06,-6.4502e-07,-4.8464,1.1833
16002,13.491,1.5455,0,0.00024326,2430.9,8.0721e-05,5.3441,8.001e-05,0.00056409,-0.00024317,-2428.2,1.1841
16003,13.583,1.4545,0,0.00024094,2407.7,8.0023e-05,6.1511,7.9204e-05,0.0004417,-0.00024083,-2404.6,1.1971
16004,13.491,1.4545,0.05,8.4021e-07,8.3963,6.4518e-07,4.8476,-2.7381e-12,2.2543e-06,-6.4517e-07,-4.8476,1.1838
16005,13.491,1.7273,0,0.00024315,2429.8,8.0626e-05,4.6501,8.0008e-05,0.0013636,-0.00024307,-2427.4,1.1845
16006,13.583,1.6364,0,0.00024082,2406.5,7.9926e-05,5.4463,7.9201e-05,0.001273,-0.00024073,-2403.8,1.1975
16007,13.491,1.6364,0.05,8.404e-07,8.3982,6.4532e-07,4.8487,-7.5946e-15,2.7148e-06,-6.4532e-07,-4.8487,1.1842
16008,13.491,1.9091,0,0.00024305,2428.8,8.0543e-05,4.0406,8.0006e-05,0.0022332,-0.00024298,-2426.8,1.1848
16009,13.583,1.8182,0,0.00024072,2405.5,7.984e-05,4.8211,7.9198e-05,0.0021557,-0.00024064,-2403.1,1.1979
16010,13.491,1.8182,0.05,8.4056e-07,8.3998,6.4544e-07,4.8496,-5.8165e-15,2.3299e-06,-6.4544e-07,-4.8496,1.1846
16011,13.491,2.0909,0,0.00024297,2428,8.0472e-05,3.5188,8.0005e-05,0.0031653,-0.00024291,-2426.2,1.1851
16012,13.583,2,0,0.00024063,2404.6,7.9765e-05,4.2787,7.9196e-05,0.0030815,-0.00024056,-2402.5,1.1982
16013,13.491,2,0.05,8.407e-07,8.4012,6.4555e-07,4.8504,-9.1399e-13,2.6755e-06,-6.4555e-07,-4.8504,1.1849
16014,13.491,2.2727,0,0.0002429,2427.3,8.0414e-05,3.0876,8.0004e-05,0.0041332,-0.00024284,-2425.8,1.1853
16015,13.583,2.1818,0,0.00024056,2403.9,7.9703e-05,3.822,7.9194e-05,0.0040247,-0.00024049,-2402,1.1985
16016,13.491,2.1818,0.05,8.4081e-07,8.4023,6.4564e-07,4.8511,-9.1271e-13,2.7838e-06,-6.4564e-07,-4.8511,1.1852
16017,13.491,2.4545,0,0.00024284,2426.8,8.0368e-05,2.7495,8.0003e-05,0.0050785,-0.0002428,-2425.4,1.1855
16018,13.583,2.3636,0,0.0002405,2403.3,7.9652e-05,3.4535,7.9193e-05,0.0049409,-0.00024044,-2401.6,1.1987
16019,13.491,2.3636,0.05,8.4091e-07,8.4033,6.4571e-07,4.8516,-2.2043e-15,2.9041e-06,-6.4571e-07,-4.8516,1.1854
16020,13.491,2.6364,0,0.00024281,2426.4,8.0335e-05,2.5064,8.0002e-05,0.0058994,-0.00024276,-2425.1,1.1857
16021,13.583,2.5455,0,0.00024045,2402.9,7.9614e-05,3.1752,7.9192e-05,0.0057564,-0.0002404,-2401.3,1.1988
16022,13.491,2.5455,0.05,8.4098e-07,8.404,6.4577e-07,4.852,9.0808e-13,3.0983e-06,-6.4577e-07,-4.8521,1.1856
16023,13.491,2.8182,0,0.00024278,2426.2,8.0315e-05,2.36,8.0002e-05,0.0064684,-0.00024274,-2425,1.1857
16024,13.583,2.7273,0,0.00024042,2402.6,7.9589e-05,2.9887,7.9192e-05,0.0063784,-0.00024037,-2401.1,1.199
16025,13.491,2.7273,0.05,8.4102e-07,8.4044,6.458e-07,4.8523,9.0872e-13,2.4586e-06,-6.458e-07,-4.8523,1.1857
16026,13.491,3,0,0.00024278,2426.1,8.0309e-05,2.311,8.0002e-05,0.0066731,-0.00024274,-2424.9,1.1858
16027,13.583,2.9091,0,0.00024041,2402.4,7.9576e-05,2.8952,7.9191e-05,0.0067166,-0.00024036,-2401,1.199
16028,13.491,2.9091,0.05,8.4105e-07,8.4047,6.4582e-07,4.8524,-2.4448e-16,2.9244e-06,-6.4582e-07,-4.8525,1.1857
16029,13.491,3.1818,0,0.00024278,2426.2,8.0315e-05,2.36,8.0002e-05,0.0064685,-0.00024274,-2425,1.1857
16030,13.583,3.0909,0,0.00024041,2402.4,7.9576e-05,2.8952,7.9191e-05,0.0067174,-0.00024036,-2401,1.199
16031,13.491,3.0909,0.05,8.4105e-07,8.4047,6.4582e-07,4.8524,2.4443e-16,2.5648e-06,-6.4582e-07,-4.8525,1.1857
16032,13.491,3.3636,0,0.00024281,2426.4,8.0335e-05,2.5064,8.0002e-05,0.0059001,-0.00024276,-2425.1,1.1857
16033,13.583,3.2727,0,0.00024042,2402.6,7.9589e-05,2.9887,7.9192e-05,0.0063782,-0.00024037,-2401.1,1.199
16034,13.491,3.2727,0.05,8.4102e-07,8.4044,6.458e-07,4.8522,9.1028e-13,3.0494e-06,-6.458e-07,-4.8524,1.1857
16035,13.491,3.5455,0,0.00024284,2426.8,8.0368e-05,2.7495,8.0003e-05,0.0050792,-0.0002428,-2425.4,1.1855
16036,13.583,3.4545,0,0.00024045,2402.9,7.9614e-05,3.1752,7.9192e-05,0.005757,-0.0002404,-2401.3,1.1988
16037,13.491,3.4545,0.05,8.4098e-07,8.404,6.4577e-07,4.852,2.7299e-12,3.3039e-06,-6.4577e-07,-4.8521,1.1856
16038,13.491,3.7273,0,0.0002429,2427.3,8.0414e-05,3.0876,8.0004e-05,0.0041328,-0.00024284,-2425.8,1.1853
16039,13.583,3.6364,0,0.0002405,2403.3,7.9652e-05,3.4535,7.9193e-05,0.0049404,-0.00024044,-2401.6,1.1987
16040,13.491,3.6364,0.05,8.4091e-07,8.4033,6.4571e-07,4.8516,2.7308e-12,3.5525e-06,-6.4571e-07,-4.8517,1.1854
16041,13.491,3.9091,0,0.00024297,2428,8.0472e-05,3.5188,8.0005e-05,0.0031645,-0.00024291,-2426.2,1.1851
16042,13.583,3.8182,0,0.00024056,2403.9,7.9703e-05,3.822,7.9194e-05,0.0040248,-0.00024049,-2402,1.1985
16043,13.491,3.8182,0.05,8.4081e-07,8.4023,6.4564e-07,4.851,1.8223e-12,4.0749e-06,-6.4564e-07,-4.8512,1.1852
16044,13.491,4.0909,0,0.00024305,2428.8,8.0543e-05,4.0406,8.0006e-05,0.0022331,-0.00024298,-2426.8,1.1848
16045,13.583,4,0,0.00024063,2404.6,7.9765e-05,4.2787,7.9196e-05,0.0030811,-0.00024056,-2402.5,1.1982
16046,13.491,4,0.05,8.407e-07,8.4012,6.4555e-07,4.8504,1.8236e-12,3.7378e-06,-6.4556e-07,-4.8505,1.1849
16047,13.491,4.2727,0,0.00024315,2429.8,8.0626e-05,4.6502,8.0008e-05,0.0013643,-0.00024307,-2427.4,1.1845
16048,13.583,4.1818,0,0.00024072,2405.5,7.984e-05,4.8211,7.9198e-05,0.0021552,-0.00024064,-2403.1,1.1979
16049,13.491,4.1818,0.05,8.4056e-07,8.3998,6.4544e-07,4.8496,3.6443e-12,3.3548e-06,-6.4545e-07,-4.8497,1.1846
16050,13.491,4.4545,0,0.00024326,2430.9,8.0721e-05,5.3441,8.001e-05,0.00056496,-0.00024317,-2428.2,1.1841
16051,13.583,4.3636,0,0.00024082,2406.5,7.9926e-05,5.4464,7.9201e-05,0.0012731,-0.00024073,-2403.8,1.1975
16052,13.491,4.3636,0.05,8.404e-07,8.3982,6.4532e-07,4.8487,3.6459e-12,4.5872e-06,-6.4532e-07,-4.8487,1.1842
16053,13.491,4.6364,0,0.00024338,2432.1,8.0827e-05,6.1188,8.0013e-05,-0.00017432,-0.00024328,-2429.1,1.1836
16054,13.583,4.5455,0,0.00024094,2407.7,8.0023e-05,6.1512,7.9204e-05,0.00044147,-0.00024083,-2404.6,1.1971
16055,13.491,4.5455,0.05,8.4021e-07,8.3963,6.4518e-07,4.8476,3.648e-12,3.5939e-06,-6.4518e-07,-4.8477,1.1838
16056,13.491,4.8182,0,0.00024352,2433.5,8.0945e-05,6.9701,8.0017e-05,-0.00086618,-0.0002434,-2430,1.1831
16057,13.583,4.7273,0,0.00024107,2409,8.0131e-05,6.932,7.9209e-05,-0.00034258,-0.00024095,-2405.5,1.1966
16058,13.491,4.7273,0.05,8.4001e-07,8.3943,6.4502e-07,4.8464,5.4683e-12,4.1525e-06,-6.4502e-07,-4.8465,1.1833
16059,13.491,5,0,0.00024367,2435.1,8.1072e-05,7.8938,8.0021e-05,-0.0015118,-0.00024354,-2431.1,1.1826
16060,13.583,4.9091,0,0.00024121,2410.4,8.025e-05,7.7849,7.9213e-05,-0.0010885,-0.00024108,-2406.5,1.1961
16061,13.491,4.9091,0.05,8.3978e-07,8.392,6.4484e-07,4.845,3.6489e-12,4.1953e-06,-6.4484e-07,-4.8452,1.1828
16062,13.491,5.1818,0,0.00024384,2436.7,8.121e-05,8.8855,8.0027e-05,-0.0021632,-0.00024369,-2432.3,1.1819
16063,13.583,5.0909,0,0.00024137,2412,8.0378e-05,8.7059,7.9219e-05,-0.0017812,-0.00024122,-2407.6,1.1955
16064,13.491,5.0909,0.05,8.3951e-07,8.3893,6.4463e-07,4.8435,5.4705e-12,3.1692e-06,-6.4465e-07,-4.8436,1.1822
16065,13.491,5.3636,0,0.00024402,2438.5,8.1357e-05,9.9428,8.0033e-05,-0.0026773,-0.00024385,-2433.5,1.1813
16066,13.583,5.2727,0,0.00024154,2413.7,8.0516e-05,9.6908,7.9226e-05,-0.002541,-0.00024137,-2408.8,1.1949
16067,13.491,5.2727,0.05,8.3902e-07,8.3844,6.4426e-07,4.8407,4.5619e-12,4.2168e-06,-6.4427e-07,-4.8408,1.1816
16068,13.491,5.5455,0,0.00024422,2440.5,8.1519e-05,11.104,8.0041e-05,-0.0039226,-0.00024403,-2434.9,1.1806
16069,13.583,5.4545,0,0.00024172,2415.5,8.0664e-05,10.74,7.9235e-05,-0.0029226,-0.00024153,-2410.1,1.1942
16070,13.491,5.4545,0.05,8.3535e-07,8.3477,6.4144e-07,4.8195,6.3787e-12,4.1391e-06,-6.4145e-07,-4.8197,1.1809
16071,13.491,5.7273,0,0.00024455,2443.8,8.1795e-05,13.11,8.005e-05,-0.0035551,-0.00024432,-2437.2,1.1798
16072,13.583,5.6364,0,0.00024193,2417.6,8.0833e-05,11.935,7.9244e-05,-0.0052531,-0.00024172,-2411.6,1.1935
16073,13.491,5.6364,0.05,7.8323e-07,7.8269,6.0142e-07,4.5188,7.2814e-12,4.8263e-06,-6.0143e-07,-4.519,1.1802
16074,13.583,5.8182,0,0.00024239,2422.2,8.122e-05,14.76,7.9255e-05,-0.0015401,-0.00024213,-2414.8,1.1927
16075,13.491,5.8182,0.05,1.4219e-08,0.14209,1.0914e-08,0.081965,8.7265e-13,-4.0305e-05,-1.0922e-08,-0.082104,1.1794
16076,13.491,5.9091,0,0.00024408,2439.1,8.1365e-05,9.8035,8.006e-05,-0.0024312,-0.00024391,-2434.2,1.179
16077,13.676,0.27273,0,0.00023975,2395.9,8.0243e-05,13.476,7.8449e-05,-0.003813,-0.00023952,-2389.1,1.2064
16078,13.768,0.18182,0,0.0002376,2374.4,7.9668e-05,15.094,7.7659e-05,-0.0013657,-0.00023734,-2366.8,1.2194
16079,13.676,0.18182,0.05,1.7021e-08,0.17009,1.3071e-08,0.098245,1.5269e-13,3.5796e-05,-1.3069e-08,-0.098156,1.206
16080,13.676,0.090909,0,0.00023927,2391,7.9794e-05,10.017,7.8461e-05,-0.0025761,-0.00023909,-2386,1.2056
16081,13.676,0.45455,0,0.00023943,2392.6,7.9974e-05,11.541,7.8438e-05,-0.0043158,-0.00023923,-2386.8,1.2072
16082,13.768,0.36364,0,0.00023714,2369.8,7.9287e-05,12.325,7.7645e-05,-0.0058441,-0.00023693,-2363.6,1.2202
16083,13.676,0.36364,0.05,7.7961e-07,7.7907,5.9865e-07,4.498,-2.7359e-12,1.1023e-06,-5.9864e-07,-4.4979,1.2068
16084,13.676,0.63636,0,0.00023923,2390.7,7.9821e-05,10.462,7.8428e-05,-0.0028144,-0.00023905,-2385.4,1.2079
16085,13.768,0.54545,0,0.00023694,2367.8,7.9126e-05,11.21,7.7634e-05,-0.003092,-0.00023675,-2362.1,1.2209
16086,13.676,0.54545,0.05,8.3162e-07,8.3105,6.3859e-07,4.7981,-2.7449e-12,2.17e-06,-6.3858e-07,-4.798,1.2075
16087,13.676,0.81818,0,0.00023906,2388.9,7.9682e-05,9.4856,7.8419e-05,-0.0021879,-0.0002389,-2384.2,1.2085
16088,13.768,0.72727,0,0.00023676,2366,7.8987e-05,10.24,7.7624e-05,-0.0026409,-0.00023659,-2360.9,1.2216
16089,13.676,0.72727,0.05,8.3527e-07,8.3469,6.4138e-07,4.8192,-2.7514e-12,2.993e-06,-6.4138e-07,-4.819,1.2082
16090,13.676,1,0,0.0002389,2387.3,7.9553e-05,8.5715,7.8412e-05,-0.0013918,-0.00023875,-2383,1.2091
16091,13.768,0.90909,0,0.0002366,2364.4,7.8857e-05,9.3318,7.7615e-05,-0.0017389,-0.00023644,-2359.7,1.2222
16092,13.676,0.90909,0.05,8.3574e-07,8.3517,6.4175e-07,4.8219,-2.7479e-12,2.4097e-06,-6.4174e-07,-4.8218,1.2088
16093,13.676,1.1818,0,0.00023875,2385.9,7.9433e-05,7.7215,7.8405e-05,-0.00060585,-0.00023862,-2382,1.2097
16094,13.768,1.0909,0,0.00023645,2362.8,7.8736e-05,8.4842,7.7607e-05,-0.00092272,-0.0002363,-2358.6,1.2228
16095,13.676,1.0909,0.05,8.3599e-07,8.3541,6.4194e-07,4.8233,-2.7471e-12,2.3491e-06,-6.4194e-07,-4.8232,1.2094
16096,13.676,1.3636,0,0.00023862,2384.5,7.9323e-05,6.9392,7.84e-05,0.00022352,-0.0002385,-2381.1,1.2102
16097,13.768,1.2727,0,0.00023631,2361.5,7.8625e-05,7.7004,7.76e-05,-5.1852e-05,-0.00023618,-2357.6,1.2233
16098,13.676,1.2727,0.05,8.3621e-07,8.3563,6.421e-07,4.8245,-2.7458e-12,2.8793e-06,-6.421e-07,-4.8245,1.2099
16099,13.676,1.5455,0,0.0002385,2383.3,7.9224e-05,6.2283,7.8395e-05,0.0010889,-0.00023839,-2380.2,1.2106
16100,13.768,1.4545,0,0.00023618,2360.2,7.8524e-05,6.984,7.7594e-05,0.00084345,-0.00023606,-2356.7,1.2238
16101,13.676,1.4545,0.05,8.364e-07,8.3582,6.4225e-07,4.8256,-1.8334e-12,3.0458e-06,-6.4225e-07,-4.8256,1.2104
16102,13.676,1.7273,0,0.00023839,2382.2,7.9136e-05,5.5924,7.8391e-05,0.0019924,-0.00023829,-2379.4,1.211
16103,13.768,1.6364,0,0.00023607,2359.1,7.8433e-05,6.3383,7.7589e-05,0.0017679,-0.00023596,-2355.9,1.2242
16104,13.676,1.6364,0.05,8.3657e-07,8.3599,6.4239e-07,4.8266,-1.4101e-14,3.5512e-06,-6.4238e-07,-4.8266,1.2108
16105,13.676,1.9091,0,0.0002383,2381.3,7.9058e-05,5.0344,7.8388e-05,0.0029237,-0.00023821,-2378.8,1.2114
16106,13.768,1.8182,0,0.00023597,2358.1,7.8352e-05,5.7662,7.7585e-05,0.0027114,-0.00023587,-2355.2,1.2245
16107,13.676,1.8182,0.05,8.3672e-07,8.3615,6.425e-07,4.8275,-9.213e-13,3.1611e-06,-6.425e-07,-4.8275,1.2112
16108,13.676,2.0909,0,0.00023822,2380.5,7.8992e-05,4.5571,7.8386e-05,0.0038624,-0.00023814,-2378.2,1.2116
16109,13.768,2,0,0.00023589,2357.2,7.8283e-05,5.2704,7.7582e-05,0.0036555,-0.0002358,-2354.6,1.2248
16110,13.676,2,0.05,8.3685e-07,8.3628,6.426e-07,4.8283,-9.1844e-13,3.3e-06,-6.426e-07,-4.8282,1.2115
16111,13.676,2.2727,0,0.00023815,2379.9,7.8937e-05,4.1631,7.8384e-05,0.0047716,-0.00023808,-2377.8,1.2119
16112,13.768,2.1818,0,0.00023582,2356.5,7.8225e-05,4.8534,7.7579e-05,0.0045685,-0.00023573,-2354.1,1.2251
16113,13.676,2.1818,0.05,8.3696e-07,8.3638,6.4268e-07,4.8289,-1.8266e-12,3.5845e-06,-6.4268e-07,-4.8289,1.2117
16114,13.676,2.4545,0,0.0002381,2379.4,7.8895e-05,3.8544,7.8383e-05,0.0055947,-0.00023803,-2377.4,1.2121
16115,13.768,2.3636,0,0.00023576,2356,7.8178e-05,4.5171,7.7577e-05,0.0054071,-0.00023568,-2353.7,1.2253
16116,13.676,2.3636,0.05,8.3705e-07,8.3647,6.4275e-07,4.8294,-6.0143e-15,3.7016e-06,-6.4275e-07,-4.8294,1.212
16117,13.676,2.6364,0,0.00023806,2379,7.8864e-05,3.6327,7.8382e-05,0.0062615,-0.000238,-2377.2,1.2122
16118,13.768,2.5455,0,0.00023572,2355.5,7.8142e-05,4.2634,7.7576e-05,0.0061146,-0.00023564,-2353.4,1.2255
16119,13.676,2.5455,0.05,8.3711e-07,8.3654,6.428e-07,4.8297,-4.2222e-15,3.8354e-06,-6.428e-07,-4.8297,1.2121
16120,13.676,2.8182,0,0.00023804,2378.8,7.8846e-05,3.4992,7.8381e-05,0.0066984,-0.00023798,-2377,1.2123
16121,13.768,2.7273,0,0.00023569,2355.3,7.8119e-05,4.0935,7.7575e-05,0.0066306,-0.00023562,-2353.2,1.2256
16122,13.676,2.7273,0.05,8.3716e-07,8.3658,6.4283e-07,4.83,1.8165e-12,3.349e-06,-6.4283e-07,-4.83,1.2122
16123,13.676,3,0,0.00023803,2378.7,7.884e-05,3.4546,7.8381e-05,0.0068513,-0.00023798,-2377,1.2123
16124,13.768,2.9091,0,0.00023567,2355.1,7.8107e-05,4.0083,7.7574e-05,0.006903,-0.00023561,-2353.1,1.2256
16125,13.676,2.9091,0.05,8.3718e-07,8.366,6.4285e-07,4.8301,1.8182e-12,3.5998e-06,-6.4285e-07,-4.8301,1.2123
16126,13.676,3.1818,0,0.00023804,2378.8,7.8846e-05,3.4992,7.8381e-05,0.0066988,-0.00023798,-2377,1.2123
16127,13.768,3.0909,0,0.00023567,2355.1,7.8107e-05,4.0083,7.7574e-05,0.0069035,-0.00023561,-2353.1,1.2256
16128,13.676,3.0909,0.05,8.3718e-07,8.366,6.4285e-07,4.8301,9.1033e-13,3.5676e-06,-6.4285e-07,-4.8301,1.2123
16129,13.676,3.3636,0,0.00023806,2379,7.8864e-05,3.6327,7.8382e-05,0.0062612,-0.000238,-2377.2,1.2122
16130,13.768,3.2727,0,0.00023569,2355.3,7.8119e-05,4.0935,7.7575e-05,0.0066303,-0.00023562,-2353.2,1.2256
16131,13.676,3.2727,0.05,8.3716e-07,8.3658,6.4283e-07,4.83,1.8215e-12,3.8708e-06,-6.4284e-07,-4.83,1.2122
16132,13.676,3.5455,0,0.0002381,2379.4,7.8895e-05,3.8545,7.8383e-05,0.0055942,-0.00023803,-2377.4,1.2121
16133,13.768,3.4545,0,0.00023572,2355.5,7.8142e-05,4.2634,7.7576e-05,0.0061143,-0.00023564,-2353.4,1.2255
16134,13.676,3.4545,0.05,8.3711e-07,8.3654,6.428e-07,4.8297,1.8234e-12,3.7654e-06,-6.428e-07,-4.8297,1.2121
16135,13.676,3.7273,0,0.00023815,2379.9,7.8937e-05,4.1632,7.8384e-05,0.0047715,-0.00023808,-2377.8,1.2119
16136,13.768,3.6364,0,0.00023576,2356,7.8178e-05,4.5171,7.7577e-05,0.0054059,-0.00023568,-2353.7,1.2253
16137,13.676,3.6364,0.05,8.3705e-07,8.3647,6.4275e-07,4.8294,9.155e-13,4.5098e-06,-6.4275e-07,-4.8294,1.212
16138,13.676,3.9091,0,0.00023822,2380.5,7.8992e-05,4.5572,7.8386e-05,0.003863,-0.00023814,-2378.2,1.2116
16139,13.768,3.8182,0,0.00023582,2356.5,7.8225e-05,4.8534,7.7579e-05,0.0045694,-0.00023573,-2354.1,1.2251
16140,13.676,3.8182,0.05,8.3696e-07,8.3638,6.4268e-07,4.8288,2.7368e-12,5.2033e-06,-6.4268e-07,-4.8289,1.2117
16141,13.676,4.0909,0,0.0002383,2381.3,7.9058e-05,5.0344,7.8388e-05,0.0029229,-0.00023821,-2378.8,1.2114
16142,13.768,4,0,0.00023589,2357.2,7.8283e-05,5.2704,7.7582e-05,0.003655,-0.0002358,-2354.6,1.2248
16143,13.676,4,0.05,8.3685e-07,8.3628,6.426e-07,4.8282,3.6484e-12,4.4888e-06,-6.426e-07,-4.8283,1.2115
16144,13.676,4.2727,0,0.00023839,2382.2,7.9136e-05,5.5924,7.8391e-05,0.0019912,-0.00023829,-2379.4,1.211
16145,13.768,4.1818,0,0.00023597,2358.1,7.8352e-05,5.7662,7.7585e-05,0.0027109,-0.00023587,-2355.2,1.2245
16146,13.676,4.1818,0.05,8.3672e-07,8.3615,6.425e-07,4.8275,3.6507e-12,4.1666e-06,-6.425e-07,-4.8275,1.2112
16147,13.676,4.4545,0,0.0002385,2383.3,7.9224e-05,6.2284,7.8395e-05,0.0010879,-0.00023839,-2380.2,1.2106
16148,13.768,4.3636,0,0.00023607,2359.1,7.8433e-05,6.3383,7.7589e-05,0.0017672,-0.00023596,-2355.9,1.2242
16149,13.676,4.3636,0.05,8.3657e-07,8.3599,6.4238e-07,4.8266,3.652e-12,5.3952e-06,-6.4239e-07,-4.8267,1.2108
16150,13.676,4.6364,0,0.00023862,2384.5,7.9323e-05,6.9392,7.84e-05,0.00022266,-0.0002385,-2381.1,1.2102
16151,13.768,4.5455,0,0.00023618,2360.2,7.8524e-05,6.9841,7.7594e-05,0.00084291,-0.00023606,-2356.7,1.2238
16152,13.676,4.5455,0.05,8.364e-07,8.3582,6.4225e-07,4.8256,3.653e-12,4.3746e-06,-6.4225e-07,-4.8257,1.2104
16153,13.676,4.8182,0,0.00023875,2385.9,7.9433e-05,7.7215,7.8405e-05,-0.00060609,-0.00023862,-2382,1.2097
16154,13.768,4.7273,0,0.00023631,2361.5,7.8625e-05,7.7005,7.76e-05,-5.2517e-05,-0.00023618,-2357.6,1.2233
16155,13.676,4.7273,0.05,8.3621e-07,8.3563,6.421e-07,4.8244,3.6561e-12,5.0881e-06,-6.4211e-07,-4.8246,1.2099
16156,13.676,5,0,0.0002389,2387.3,7.9553e-05,8.5716,7.8412e-05,-0.0013921,-0.00023875,-2383,1.2091
16157,13.768,4.9091,0,0.00023645,2362.8,7.8736e-05,8.4842,7.7607e-05,-0.00092295,-0.0002363,-2358.6,1.2228
16158,13.676,4.9091,0.05,8.3599e-07,8.3541,6.4193e-07,4.8232,4.568e-12,5.5013e-06,-6.4194e-07,-4.8233,1.2094
16159,13.676,5.1818,0,0.00023906,2388.9,7.9682e-05,9.4856,7.8419e-05,-0.0021887,-0.0002389,-2384.2,1.2085
16160,13.768,5.0909,0,0.0002366,2364.4,7.8857e-05,9.3319,7.7615e-05,-0.0017411,-0.00023644,-2359.7,1.2222
16161,13.676,5.0909,0.05,8.3574e-07,8.3517,6.4174e-07,4.8218,3.6573e-12,4.326e-06,-6.4175e-07,-4.8219,1.2088
16162,13.676,5.3636,0,0.00023923,2390.7,7.9821e-05,10.462,7.8428e-05,-0.0028155,-0.00023905,-2385.4,1.2079
16163,13.768,5.2727,0,0.00023676,2366,7.8987e-05,10.24,7.7624e-05,-0.0026422,-0.00023659,-2360.9,1.2216
16164,13.676,5.2727,0.05,8.3527e-07,8.3469,6.4138e-07,4.819,3.6548e-12,5.2748e-06,-6.4139e-07,-4.8192,1.2082
16165,13.676,5.5455,0,0.00023943,2392.6,7.9974e-05,11.541,7.8438e-05,-0.0043157,-0.00023923,-2386.8,1.2072
16166,13.768,5.4545,0,0.00023694,2367.8,7.9126e-05,11.21,7.7634e-05,-0.0030924,-0.00023675,-2362.1,1.2209
16167,13.676,5.4545,0.05,8.3162e-07,8.3105,6.3858e-07,4.798,4.5635e-12,5.2613e-06,-6.3859e-07,-4.7981,1.2075
16168,13.676,5.7273,0,0.00023975,2395.9,8.0243e-05,13.476,7.8449e-05,-0.003812,-0.00023952,-2389.1,1.2064
16169,13.768,5.6364,0,0.00023714,2369.8,7.9287e-05,12.325,7.7645e-05,-0.0058434,-0.00023693,-2363.6,1.2202
16170,13.676,5.6364,0.05,7.7961e-07,7.7907,5.9864e-07,4.4979,4.5584e-12,5.9561e-06,-5.9865e-07,-4.498,1.2068
16171,13.768,5.8182,0,0.0002376,2374.4,7.9668e-05,15.094,7.7659e-05,-0.0013653,-0.00023734,-2366.8,1.2194
16172,13.676,5.8182,0.05,1.7021e-08,0.17009,1.3068e-08,0.098156,-8.1633e-13,-2.88e-05,-1.3071e-08,-0.098245,1.206
16173,13.676,5.9091,0,0.00023927,2391,7.9794e-05,10.017,7.8461e-05,-0.0025767,-0.00023909,-2386,1.2056
16174,13.86,0.27273,0,0.00023498,2348.1,7.8697e-05,13.832,7.6855e-05,-0.0040622,-0.00023474,-2341.2,1.2332
16175,13.952,0.18182,0,0.00023284,2326.7,7.8123e-05,15.423,7.607e-05,-0.0012013,-0.00023257,-2319,1.2463
16176,13.86,0.18182,0.05,1.9542e-08,0.19528,1.5006e-08,0.11278,3.4421e-13,2.975e-05,-1.5005e-08,-0.11271,1.2328
16177,13.86,0.090909,0,0.00023447,2343.1,7.8231e-05,10.227,7.6869e-05,-0.0027208,-0.0002343,-2338,1.2325
16178,13.86,0.45455,0,0.00023465,2344.9,7.8435e-05,11.964,7.6842e-05,-0.0046908,-0.00023445,-2338.9,1.234
16179,13.952,0.36364,0,0.00023238,2322.2,7.7746e-05,12.704,7.6054e-05,-0.0063998,-0.00023216,-2315.8,1.2471
16180,13.86,0.36364,0.05,7.7604e-07,7.7551,5.9591e-07,4.4774,-3.6566e-12,2.4206e-06,-5.959e-07,-4.4773,1.2336
16181,13.86,0.63636,0,0.00023447,2343,7.8289e-05,10.962,7.683e-05,-0.0029489,-0.00023428,-2337.5,1.2347
16182,13.952,0.54545,0,0.00023218,2320.2,7.7593e-05,11.664,7.6041e-05,-0.0032498,-0.00023198,-2314.3,1.2478
16183,13.86,0.54545,0.05,8.2793e-07,8.2736,6.3575e-07,4.7768,-2.7486e-12,2.0219e-06,-6.3575e-07,-4.7767,1.2343
16184,13.86,0.81818,0,0.0002343,2341.4,7.8158e-05,10.06,7.6819e-05,-0.0022209,-0.00023412,-2336.3,1.2353
16185,13.952,0.72727,0,0.00023201,2318.5,7.7462e-05,10.768,7.6028e-05,-0.0027347,-0.00023182,-2313.1,1.2484
16186,13.86,0.72727,0.05,8.3156e-07,8.3098,6.3853e-07,4.7977,-3.6629e-12,1.7304e-06,-6.3853e-07,-4.7976,1.235
16187,13.86,1,0,0.00023414,2339.8,7.8037e-05,9.2187,7.681e-05,-0.001301,-0.00023398,-2335.2,1.2359
16188,13.952,0.90909,0,0.00023185,2316.9,7.7339e-05,9.9314,7.6017e-05,-0.0017069,-0.00023168,-2311.9,1.2491
16189,13.86,0.90909,0.05,8.3201e-07,8.3144,6.3888e-07,4.8004,-3.6566e-12,1.4349e-06,-6.3888e-07,-4.8003,1.2356
16190,13.86,1.1818,0,0.000234,2338.4,7.7925e-05,8.4374,7.6802e-05,-0.00040282,-0.00023386,-2334.2,1.2364
16191,13.952,1.0909,0,0.0002317,2315.4,7.7226e-05,9.1523,7.6008e-05,-0.00078622,-0.00023154,-2310.8,1.2496
16192,13.86,1.0909,0.05,8.3225e-07,8.3167,6.3907e-07,4.8017,-1.8463e-12,2.1219e-06,-6.3906e-07,-4.8016,1.2362
16193,13.86,1.3636,0,0.00023387,2337.1,7.7822e-05,7.7197,7.6794e-05,0.00053074,-0.00023374,-2333.2,1.2369
16194,13.952,1.2727,0,0.00023157,2314.1,7.7122e-05,8.4333,7.5999e-05,0.0001854,-0.00023142,-2309.9,1.2501
16195,13.86,1.2727,0.05,8.3245e-07,8.3187,6.3922e-07,4.8028,-9.33e-13,2.1909e-06,-6.3922e-07,-4.8028,1.2367
16196,13.86,1.5455,0,0.00023375,2335.9,7.7729e-05,7.0685,7.6788e-05,0.0014826,-0.00023363,-2332.4,1.2374
16197,13.952,1.4545,0,0.00023145,2312.9,7.7027e-05,7.7772,7.5992e-05,0.0011644,-0.00023131,-2309,1.2506
16198,13.86,1.4545,0.05,8.3263e-07,8.3206,6.3936e-07,4.8039,-1.84e-12,2.2602e-06,-6.3935e-07,-4.8039,1.2371
16199,13.86,1.7273,0,0.00023365,2334.9,7.7646e-05,6.4867,7.6783e-05,0.0024468,-0.00023354,-2331.6,1.2377
16200,13.952,1.6364,0,0.00023134,2311.8,7.6942e-05,7.1868,7.5986e-05,0.0021523,-0.00023122,-2308.2,1.251
16201,13.86,1.6364,0.05,8.3279e-07,8.3222,6.3948e-07,4.8048,-2.7487e-12,2.8312e-06,-6.3948e-07,-4.8048,1.2375
16202,13.86,1.9091,0,0.00023356,2334,7.7574e-05,5.9769,7.6779e-05,0.0034071,-0.00023346,-2331,1.2381
16203,13.952,1.8182,0,0.00023124,2310.8,7.6867e-05,6.6644,7.598e-05,0.0031309,-0.00023113,-2307.5,1.2513
16204,13.86,1.8182,0.05,8.3293e-07,8.3236,6.3959e-07,4.8056,-1.6838e-14,2.353e-06,-6.3959e-07,-4.8056,1.2379
16205,13.86,2.0909,0,0.00023348,2333.2,7.7512e-05,5.5413,7.6775e-05,0.0043361,-0.00023339,-2330.4,1.2384
16206,13.952,2,0,0.00023116,2310,7.6802e-05,6.2123,7.5976e-05,0.0040806,-0.00023106,-2306.9,1.2516
16207,13.86,2,0.05,8.3305e-07,8.3248,6.3968e-07,4.8063,-9.2429e-13,2.7015e-06,-6.3968e-07,-4.8063,1.2382
16208,13.86,2.2727,0,0.00023342,2332.6,7.7462e-05,5.1821,7.6773e-05,0.0051967,-0.00023333,-2330,1.2386
16209,13.952,2.1818,0,0.00023109,2309.3,7.6748e-05,5.8323,7.5972e-05,0.0049663,-0.00023099,-2306.4,1.2519
16210,13.86,2.1818,0.05,8.3316e-07,8.3258,6.3976e-07,4.8069,-9.2186e-13,2.9791e-06,-6.3976e-07,-4.8069,1.2385
16211,13.86,2.4545,0,0.00023337,2332.1,7.7422e-05,4.9008,7.677e-05,0.0059442,-0.00023329,-2329.7,1.2388
16212,13.952,2.3636,0,0.00023104,2308.8,7.6704e-05,5.5263,7.5969e-05,0.0057529,-0.00023094,-2306,1.2521
16213,13.86,2.3636,0.05,8.3324e-07,8.3266,6.3982e-07,4.8074,-9.3349e-15,3.1623e-06,-6.3982e-07,-4.8074,1.2387
16214,13.86,2.6364,0,0.00023334,2331.8,7.7394e-05,4.6989,7.6769e-05,0.0065273,-0.00023326,-2329.4,1.2389
16215,13.952,2.5455,0,0.000231,2308.4,7.6671e-05,5.2956,7.5967e-05,0.0063954,-0.00023091,-2305.7,1.2522
16216,13.86,2.5455,0.05,8.333e-07,8.3272,6.3987e-07,4.8077,-6.9303e-15,3.2415e-06,-6.3987e-07,-4.8077,1.2388
16217,13.86,2.8182,0,0.00023332,2331.6,7.7376e-05,4.5774,7.6768e-05,0.0068996,-0.00023324,-2329.3,1.239
16218,13.952,2.7273,0,0.00023097,2308.1,7.6649e-05,5.1411,7.5966e-05,0.0068531,-0.00023088,-2305.5,1.2523
16219,13.86,2.7273,0.05,8.3334e-07,8.3276,6.399e-07,4.808,-4.1979e-15,2.6812e-06,-6.399e-07,-4.808,1.2389
16220,13.86,3,0,0.00023331,2331.5,7.7371e-05,4.5368,7.6768e-05,0.0070275,-0.00023323,-2329.2,1.239
16221,13.952,2.9091,0,0.00023096,2308,7.6638e-05,5.0637,7.5965e-05,0.0070912,-0.00023087,-2305.4,1.2524
16222,13.86,2.9091,0.05,8.3336e-07,8.3279,6.3992e-07,4.8081,9.081e-13,3.1486e-06,-6.3992e-07,-4.8081,1.239
16223,13.86,3.1818,0,0.00023332,2331.6,7.7376e-05,4.5774,7.6768e-05,0.0068994,-0.00023324,-2329.3,1.239
16224,13.952,3.0909,0,0.00023096,2308,7.6638e-05,5.0637,7.5965e-05,0.0070905,-0.00023087,-2305.4,1.2524
16225,13.86,3.0909,0.05,8.3336e-07,8.3279,6.3992e-07,4.8081,9.109e-13,2.6779e-06,-6.3992e-07,-4.8081,1.239
16226,13.86,3.3636,0,0.00023334,2331.8,7.7394e-05,4.699,7.6769e-05,0.0065271,-0.00023326,-2329.4,1.2389
16227,13.952,3.2727,0,0.00023097,2308.1,7.6649e-05,5.1411,7.5966e-05,0.0068532,-0.00023088,-2305.5,1.2523
16228,13.86,3.2727,0.05,8.3334e-07,8.3276,6.399e-07,4.808,1.8232e-12,3.3102e-06,-6.399e-07,-4.808,1.2389
16229,13.86,3.5455,0,0.00023337,2332.1,7.7422e-05,4.9008,7.677e-05,0.0059434,-0.00023329,-2329.7,1.2388
16230,13.952,3.4545,0,0.000231,2308.4,7.6671e-05,5.2956,7.5967e-05,0.0063955,-0.00023091,-2305.7,1.2522
16231,13.86,3.4545,0.05,8.333e-07,8.3272,6.3987e-07,4.8077,7.0452e-15,3.3761e-06,-6.3987e-07,-4.8077,1.2388
16232,13.86,3.7273,0,0.00023342,2332.6,7.7462e-05,5.1821,7.6773e-05,0.0051965,-0.00023333,-2330,1.2386
16233,13.952,3.6364,0,0.00023104,2308.8,7.6704e-05,5.5263,7.5969e-05,0.0057521,-0.00023094,-2306,1.2521
16234,13.86,3.6364,0.05,8.3324e-07,8.3266,6.3982e-07,4.8073,1.8286e-12,3.9035e-06,-6.3983e-07,-4.8074,1.2387
16235,13.86,3.9091,0,0.00023348,2333.2,7.7512e-05,5.5414,7.6775e-05,0.0043359,-0.00023339,-2330.4,1.2384
16236,13.952,3.8182,0,0.00023109,2309.3,7.6748e-05,5.8324,7.5972e-05,0.0049668,-0.00023099,-2306.4,1.2519
16237,13.86,3.8182,0.05,8.3316e-07,8.3258,6.3976e-07,4.8069,3.651e-12,4.8811e-06,-6.3976e-07,-4.807,1.2385
16238,13.86,4.0909,0,0.00023356,2334,7.7574e-05,5.9769,7.6779e-05,0.0034069,-0.00023346,-2331,1.2381
16239,13.952,4,0,0.00023116,2310,7.6802e-05,6.2123,7.5976e-05,0.0040803,-0.00023106,-2306.9,1.2516
16240,13.86,4,0.05,8.3305e-07,8.3248,6.3968e-07,4.8063,3.6539e-12,4.2766e-06,-6.3968e-07,-4.8064,1.2382
16241,13.86,4.2727,0,0.00023365,2334.9,7.7646e-05,6.4867,7.6783e-05,0.0024468,-0.00023354,-2331.6,1.2377
16242,13.952,4.1818,0,0.00023124,2310.8,7.6867e-05,6.6644,7.598e-05,0.0031315,-0.00023113,-2307.5,1.2513
16243,13.86,4.1818,0.05,8.3293e-07,8.3236,6.3959e-07,4.8056,3.6561e-12,3.6928e-06,-6.3959e-07,-4.8057,1.2379
16244,13.86,4.4545,0,0.00023375,2335.9,7.7729e-05,7.0685,7.6788e-05,0.0014823,-0.00023363,-2332.4,1.2374
16245,13.952,4.3636,0,0.00023134,2311.8,7.6942e-05,7.1868,7.5986e-05,0.002152,-0.00023122,-2308.2,1.251
16246,13.86,4.3636,0.05,8.3279e-07,8.3222,6.3948e-07,4.8047,2.7495e-12,4.9898e-06,-6.3948e-07,-4.8049,1.2375
16247,13.86,4.6364,0,0.00023387,2337.1,7.7822e-05,7.7197,7.6794e-05,0.0005304,-0.00023374,-2333.2,1.2369
16248,13.952,4.5455,0,0.00023145,2312.9,7.7027e-05,7.7773,7.5992e-05,0.0011644,-0.00023131,-2309,1.2506
16249,13.86,4.5455,0.05,8.3263e-07,8.3206,6.3935e-07,4.8038,3.6599e-12,4.0805e-06,-6.3936e-07,-4.8039,1.2371
16250,13.86,4.8182,0,0.000234,2338.4,7.7925e-05,8.4375,7.6802e-05,-0.00040349,-0.00023386,-2334.2,1.2364
16251,13.952,4.7273,0,0.00023157,2314.1,7.7122e-05,8.4333,7.5999e-05,0.00018474,-0.00023142,-2309.9,1.2501
16252,13.86,4.7273,0.05,8.3245e-07,8.3187,6.3921e-07,4.8028,3.6637e-12,4.8571e-06,-6.3922e-07,-4.8029,1.2367
16253,13.86,5,0,0.00023414,2339.8,7.8037e-05,9.2187,7.681e-05,-0.0013031,-0.00023398,-2335.2,1.2359
16254,13.952,4.9091,0,0.0002317,2315.4,7.7226e-05,9.1523,7.6008e-05,-0.00078623,-0.00023154,-2310.8,1.2496
16255,13.86,4.9091,0.05,8.3225e-07,8.3167,6.3906e-07,4.8016,3.6622e-12,4.998e-06,-6.3907e-07,-4.8017,1.2362
16256,13.86,5.1818,0,0.0002343,2341.4,7.8158e-05,10.06,7.6819e-05,-0.0022237,-0.00023412,-2336.3,1.2353
16257,13.952,5.0909,0,0.00023185,2316.9,7.7339e-05,9.9314,7.6017e-05,-0.00171,-0.00023168,-2311.9,1.2491
16258,13.86,5.0909,0.05,8.3201e-07,8.3144,6.3888e-07,4.8003,3.6628e-12,3.7921e-06,-6.3889e-07,-4.8004,1.2356
16259,13.86,5.3636,0,0.00023447,2343,7.8289e-05,10.962,7.683e-05,-0.0029494,-0.00023428,-2337.5,1.2347
16260,13.952,5.2727,0,0.00023201,2318.5,7.7462e-05,10.768,7.6028e-05,-0.0027366,-0.00023182,-2313.1,1.2484
16261,13.86,5.2727,0.05,8.3156e-07,8.3098,6.3853e-07,4.7976,5.4777e-12,4.8618e-06,-6.3854e-07,-4.7977,1.235
16262,13.86,5.5455,0,0.00023465,2344.9,7.8435e-05,11.964,7.6842e-05,-0.0046906,-0.00023445,-2338.9,1.234
16263,13.952,5.4545,0,0.00023218,2320.2,7.7593e-05,11.664,7.6041e-05,-0.0032494,-0.00023198,-2314.3,1.2478
16264,13.86,5.4545,0.05,8.2793e-07,8.2736,6.3575e-07,4.7767,5.4806e-12,4.9982e-06,-6.3575e-07,-4.7769,1.2343
16265,13.86,5.7273,0,0.00023498,2348.1,7.8697e-05,13.832,7.6855e-05,-0.0040622,-0.00023474,-2341.2,1.2332
16266,13.952,5.6364,0,0.00023238,2322.2,7.7746e-05,12.704,7.6054e-05,-0.0064003,-0.00023216,-2315.8,1.2471
16267,13.86,5.6364,0.05,7.7604e-07,7.7551,5.959e-07,4.4773,5.4646e-12,5.5356e-06,-5.9591e-07,-4.4774,1.2336
16268,13.952,5.8182,0,0.00023284,2326.7,7.8123e-05,15.423,7.607e-05,-0.0012015,-0.00023257,-2319,1.2463
16269,13.86,5.8182,0.05,1.9542e-08,0.19528,1.5002e-08,0.11267,-1.2059e-12,-5.3639e-05,-1.5009e-08,-0.11282,1.2328
16270,13.86,5.9091,0,0.00023447,2343.1,7.8231e-05,10.227,7.6869e-05,-0.002721,-0.0002343,-2338,1.2325
16271,14.044,0.27273,0,0.00023022,2300.6,7.7157e-05,14.182,7.5269e-05,-0.004292,-0.00022998,-2293.5,1.2602
16272,14.136,0.18182,0,0.00022809,2279.3,7.6584e-05,15.748,7.4488e-05,-0.0010465,-0.00022782,-2271.4,1.2734
16273,14.044,0.18182,0.05,2.18e-08,0.21784,1.674e-08,0.1258,3.3206e-13,3.2625e-05,-1.6739e-08,-0.12574,1.2598
16274,14.044,0.090909,0,0.0002297,2295.5,7.6674e-05,10.435,7.5285e-05,-0.0028532,-0.00022953,-2290.2,1.2594
16275,14.044,0.45455,0,0.0002299,2297.4,7.6901e-05,12.374,7.5253e-05,-0.0050359,-0.00022969,-2291.2,1.2609
16276,14.136,0.36364,0,0.00022763,2274.8,7.6211e-05,13.075,7.447e-05,-0.0069284,-0.00022741,-2268.2,1.2741
16277,14.044,0.36364,0.05,7.7252e-07,7.7198,5.932e-07,4.4571,-2.7501e-12,3.3347e-07,-5.9319e-07,-4.457,1.2606
16278,14.044,0.63636,0,0.00022972,2295.6,7.6763e-05,11.444,7.5239e-05,-0.0030661,-0.00022952,-2289.9,1.2616
16279,14.136,0.54545,0,0.00022744,2272.8,7.6066e-05,12.104,7.4454e-05,-0.003396,-0.00022723,-2266.8,1.2748
16280,14.044,0.54545,0.05,8.2428e-07,8.2371,6.3295e-07,4.7557,-3.6714e-12,1.1184e-06,-6.3294e-07,-4.7557,1.2613
16281,14.044,0.81818,0,0.00022955,2294,7.6639e-05,10.613,7.5227e-05,-0.0022482,-0.00022937,-2288.6,1.2622
16282,14.136,0.72727,0,0.00022727,2271.2,7.5942e-05,11.277,7.444e-05,-0.0028241,-0.00022708,-2265.5,1.2755
16283,14.044,0.72727,0.05,8.2788e-07,8.2731,6.3571e-07,4.7765,-1.8445e-12,3.5509e-07,-6.357e-07,-4.7764,1.2619
16284,14.044,1,0,0.0002294,2292.5,7.6525e-05,9.8387,7.5215e-05,-0.0012197,-0.00022924,-2287.5,1.2628
16285,14.136,0.90909,0,0.00022712,2269.6,7.5826e-05,10.508,7.4428e-05,-0.0016823,-0.00022694,-2264.3,1.2761
16286,14.044,0.90909,0.05,8.2832e-07,8.2775,6.3605e-07,4.779,-9.401e-13,1.0341e-06,-6.3605e-07,-4.779,1.2625
16287,14.044,1.1818,0,0.00022927,2291.1,7.642e-05,9.122,7.5205e-05,-0.0002257,-0.00022911,-2286.5,1.2633
16288,14.136,1.0909,0,0.00022698,2268.2,7.572e-05,9.7929,7.4416e-05,-0.00066943,-0.00022681,-2263.3,1.2766
16289,14.044,1.0909,0.05,8.2854e-07,8.2797,6.3622e-07,4.7803,-2.7587e-12,1.8158e-06,-6.3622e-07,-4.7802,1.2631
16290,14.044,1.3636,0,0.00022914,2289.8,7.6323e-05,8.4647,7.5197e-05,0.00079178,-0.000229,-2285.6,1.2638
16291,14.136,1.2727,0,0.00022685,2266.9,7.5622e-05,9.1347,7.4406e-05,0.00038691,-0.00022669,-2262.3,1.2771
16292,14.044,1.2727,0.05,8.2873e-07,8.2816,6.3637e-07,4.7814,-1.8498e-12,1.6084e-06,-6.3636e-07,-4.7813,1.2636
16293,14.044,1.5455,0,0.00022903,2288.7,7.6236e-05,7.8695,7.5189e-05,0.0018087,-0.00022889,-2284.8,1.2642
16294,14.136,1.4545,0,0.00022673,2265.7,7.5533e-05,8.5353,7.4397e-05,0.0014336,-0.00022658,-2261.4,1.2775
16295,14.044,1.4545,0.05,8.289e-07,8.2833,6.3649e-07,4.7824,-9.3632e-13,1.7939e-06,-6.3649e-07,-4.7823,1.264
16296,14.044,1.7273,0,0.00022893,2287.7,7.6159e-05,7.3386,7.5183e-05,0.0028152,-0.0002288,-2284,1.2646
16297,14.136,1.6364,0,0.00022662,2264.7,7.5454e-05,7.9969,7.439e-05,0.002469,-0.00022649,-2260.7,1.2779
16298,14.044,1.6364,0.05,8.2905e-07,8.2848,6.3661e-07,4.7832,-9.357e-13,2.4301e-06,-6.3661e-07,-4.7832,1.2644
16299,14.044,1.9091,0,0.00022884,2286.8,7.6092e-05,6.874,7.5177e-05,0.0037908,-0.00022872,-2283.4,1.265
16300,14.136,1.8182,0,0.00022653,2263.8,7.5384e-05,7.5212,7.4383e-05,0.0034733,-0.0002264,-2260,1.2783
16301,14.044,1.8182,0.05,8.2919e-07,8.2861,6.3671e-07,4.784,-2.2922e-14,1.7968e-06,-6.3671e-07,-4.784,1.2648
16302,14.044,2.0909,0,0.00022877,2286.1,7.6034e-05,6.4775,7.5173e-05,0.0047088,-0.00022866,-2282.9,1.2652
16303,14.136,2,0,0.00022645,2263,7.5323e-05,7.1102,7.4378e-05,0.0044237,-0.00022633,-2259.4,1.2786
16304,14.044,2,0.05,8.293e-07,8.2873,6.368e-07,4.7847,-1.9692e-14,2.0234e-06,-6.368e-07,-4.7846,1.2651
16305,14.044,2.2727,0,0.00022871,2285.5,7.5987e-05,6.1509,7.5169e-05,0.0055355,-0.0002286,-2282.4,1.2655
16306,14.136,2.1818,0,0.00022639,2262.3,7.5273e-05,6.7652,7.4373e-05,0.00529,-0.00022627,-2258.9,1.2788
16307,14.044,2.1818,0.05,8.294e-07,8.2882,6.3687e-07,4.7852,-1.6678e-14,2.4979e-06,-6.3687e-07,-4.7852,1.2653
16308,14.044,2.4545,0,0.00022866,2285,7.595e-05,5.8953,7.5166e-05,0.0062343,-0.00022856,-2282.1,1.2656
16309,14.136,2.3636,0,0.00022634,2261.8,7.5232e-05,6.4875,7.437e-05,0.0060414,-0.00022622,-2258.5,1.279
16310,14.044,2.3636,0.05,8.2947e-07,8.289,6.3693e-07,4.7857,-1.2721e-14,2.5256e-06,-6.3693e-07,-4.7857,1.2655
16311,14.044,2.6364,0,0.00022863,2284.7,7.5924e-05,5.712,7.5165e-05,0.0067678,-0.00022853,-2281.8,1.2658
16312,14.136,2.5455,0,0.0002263,2261.4,7.5202e-05,6.2784,7.4367e-05,0.0066432,-0.00022619,-2258.3,1.2792
16313,14.044,2.5455,0.05,8.2953e-07,8.2896,6.3698e-07,4.786,9.0013e-13,2.5814e-06,-6.3698e-07,-4.786,1.2657
16314,14.044,2.8182,0,0.00022861,2284.5,7.5908e-05,5.6018,7.5163e-05,0.0071032,-0.00022851,-2281.7,1.2658
16315,14.136,2.7273,0,0.00022627,2261.1,7.5181e-05,6.1384,7.4365e-05,0.0070651,-0.00022616,-2258.1,1.2793
16316,14.044,2.7273,0.05,8.2957e-07,8.29,6.3701e-07,4.7862,1.8132e-12,1.9835e-06,-6.37e-07,-4.7862,1.2658
16317,14.044,3,0,0.0002286,2284.4,7.5903e-05,5.5649,7.5163e-05,0.0072171,-0.00022851,-2281.6,1.2659
16318,14.136,2.9091,0,0.00022626,2261,7.5171e-05,6.0683,7.4364e-05,0.0072817,-0.00022615,-2258,1.2793
16319,14.044,2.9091,0.05,8.2959e-07,8.2901,6.3702e-07,4.7863,-1.9325e-15,2.4889e-06,-6.3702e-07,-4.7863,1.2658
16320,14.044,3.1818,0,0.00022861,2284.5,7.5908e-05,5.6018,7.5163e-05,0.0071027,-0.00022851,-2281.7,1.2658
16321,14.136,3.0909,0,0.00022626,2261,7.5171e-05,6.0684,7.4364e-05,0.0072812,-0.00022615,-2258,1.2793
16322,14.044,3.0909,0.05,8.2959e-07,8.2901,6.3702e-07,4.7863,1.9423e-15,2.2497e-06,-6.3702e-07,-4.7863,1.2658
16323,14.044,3.3636,0,0.00022863,2284.7,7.5924e-05,5.7121,7.5165e-05,0.0067683,-0.00022853,-2281.8,1.2658
16324,14.136,3.2727,0,0.00022627,2261.1,7.5181e-05,6.1385,7.4365e-05,0.0070651,-0.00022616,-2258.1,1.2793
16325,14.044,3.2727,0.05,8.2957e-07,8.29,6.3701e-07,4.7862,1.8248e-12,2.9052e-06,-6.3701e-07,-4.7862,1.2658
16326,14.044,3.5455,0,0.00022866,2285,7.595e-05,5.8954,7.5166e-05,0.0062345,-0.00022856,-2282.1,1.2656
16327,14.136,3.4545,0,0.0002263,2261.4,7.5202e-05,6.2784,7.4367e-05,0.0066428,-0.00022619,-2258.3,1.2792
16328,14.044,3.4545,0.05,8.2953e-07,8.2896,6.3697e-07,4.786,3.6476e-12,2.8736e-06,-6.3698e-07,-4.786,1.2657
16329,14.044,3.7273,0,0.00022871,2285.5,7.5987e-05,6.1509,7.5169e-05,0.0055354,-0.0002286,-2282.4,1.2655
16330,14.136,3.6364,0,0.00022634,2261.8,7.5232e-05,6.4876,7.437e-05,0.0060419,-0.00022622,-2258.5,1.279
16331,14.044,3.6364,0.05,8.2947e-07,8.289,6.3693e-07,4.7856,2.7419e-12,3.5e-06,-6.3693e-07,-4.7857,1.2655
16332,14.044,3.9091,0,0.00022877,2286.1,7.6034e-05,6.4775,7.5173e-05,0.0047091,-0.00022866,-2282.9,1.2652
16333,14.136,3.8182,0,0.00022639,2262.3,7.5273e-05,6.7652,7.4373e-05,0.0052902,-0.00022627,-2258.9,1.2788
16334,14.044,3.8182,0.05,8.294e-07,8.2882,6.3687e-07,4.7852,3.6552e-12,4.0338e-06,-6.3687e-07,-4.7852,1.2653
16335,14.044,4.0909,0,0.00022884,2286.8,7.6092e-05,6.874,7.5177e-05,0.0037912,-0.00022872,-2283.4,1.265
16336,14.136,4,0,0.00022645,2263,7.5323e-05,7.1102,7.4378e-05,0.0044235,-0.00022633,-2259.4,1.2786
16337,14.044,4,0.05,8.293e-07,8.2873,6.368e-07,4.7846,2.7489e-12,3.7578e-06,-6.368e-07,-4.7847,1.2651
16338,14.044,4.2727,0,0.00022893,2287.7,7.6159e-05,7.3386,7.5183e-05,0.0028155,-0.0002288,-2284,1.2646
16339,14.136,4.1818,0,0.00022653,2263.8,7.5384e-05,7.5213,7.4383e-05,0.0034731,-0.0002264,-2260,1.2783
16340,14.044,4.1818,0.05,8.2919e-07,8.2861,6.3671e-07,4.784,3.6627e-12,3.3738e-06,-6.3671e-07,-4.784,1.2648
16341,14.044,4.4545,0,0.00022903,2288.7,7.6236e-05,7.8696,7.5189e-05,0.0018086,-0.00022889,-2284.8,1.2642
16342,14.136,4.3636,0,0.00022662,2264.7,7.5454e-05,7.9969,7.439e-05,0.0024689,-0.00022649,-2260.7,1.2779
16343,14.044,4.3636,0.05,8.2905e-07,8.2848,6.3661e-07,4.7832,3.6651e-12,4.7812e-06,-6.3661e-07,-4.7833,1.2644
16344,14.044,4.6364,0,0.00022914,2289.8,7.6323e-05,8.4648,7.5197e-05,0.0007915,-0.000229,-2285.6,1.2638
16345,14.136,4.5455,0,0.00022673,2265.7,7.5533e-05,8.5354,7.4397e-05,0.0014328,-0.00022658,-2261.4,1.2775
16346,14.044,4.5455,0.05,8.289e-07,8.2833,6.3649e-07,4.7823,3.6658e-12,3.427e-06,-6.365e-07,-4.7824,1.264
16347,14.044,4.8182,0,0.00022927,2291.1,7.642e-05,9.122,7.5205e-05,-0.0002257,-0.00022911,-2286.5,1.2633
16348,14.136,4.7273,0,0.00022685,2266.9,7.5622e-05,9.1347,7.4406e-05,0.00038656,-0.00022669,-2262.3,1.2771
16349,14.044,4.7273,0.05,8.2873e-07,8.2816,6.3636e-07,4.7813,3.6686e-12,4.4399e-06,-6.3637e-07,-4.7814,1.2636
16350,14.044,5,0,0.0002294,2292.5,7.6525e-05,9.8388,7.5215e-05,-0.0012207,-0.00022924,-2287.5,1.2628
16351,14.136,4.9091,0,0.00022698,2268.2,7.572e-05,9.7929,7.4416e-05,-0.00066948,-0.00022681,-2263.3,1.2766
16352,14.044,4.9091,0.05,8.2854e-07,8.2797,6.3621e-07,4.7802,4.5739e-12,4.5724e-06,-6.3622e-07,-4.7803,1.2631
16353,14.044,5.1818,0,0.00022955,2294,7.6639e-05,10.613,7.5227e-05,-0.0022504,-0.00022937,-2288.6,1.2622
16354,14.136,5.0909,0,0.00022712,2269.6,7.5826e-05,10.508,7.4428e-05,-0.0016843,-0.00022694,-2264.3,1.2761
16355,14.044,5.0909,0.05,8.2832e-07,8.2775,6.3604e-07,4.7789,4.5773e-12,3.5032e-06,-6.3605e-07,-4.7791,1.2625
16356,14.044,5.3636,0,0.00022972,2295.6,7.6763e-05,11.444,7.5239e-05,-0.003067,-0.00022952,-2289.9,1.2616
16357,14.136,5.2727,0,0.00022727,2271.2,7.5942e-05,11.277,7.444e-05,-0.0028254,-0.00022708,-2265.5,1.2755
16358,14.044,5.2727,0.05,8.2788e-07,8.2731,6.357e-07,4.7764,3.663e-12,4.5543e-06,-6.3571e-07,-4.7765,1.2619
16359,14.044,5.5455,0,0.0002299,2297.4,7.6901e-05,12.374,7.5253e-05,-0.0050362,-0.00022969,-2291.2,1.2609
16360,14.136,5.4545,0,0.00022744,2272.8,7.6066e-05,12.104,7.4454e-05,-0.0033965,-0.00022723,-2266.8,1.2748
16361,14.044,5.4545,0.05,8.2428e-07,8.2371,6.3294e-07,4.7556,7.2986e-12,4.6144e-06,-6.3295e-07,-4.7558,1.2613
16362,14.044,5.7273,0,0.00023022,2300.6,7.7157e-05,14.182,7.5269e-05,-0.0042927,-0.00022998,-2293.5,1.2602
16363,14.136,5.6364,0,0.00022763,2274.8,7.6211e-05,13.075,7.447e-05,-0.0069278,-0.00022741,-2268.2,1.2741
16364,14.044,5.6364,0.05,7.7252e-07,7.7198,5.9319e-07,4.457,6.3865e-12,5.3522e-06,-5.932e-07,-4.4571,1.2606
16365,14.136,5.8182,0,0.00022809,2279.3,7.6584e-05,15.748,7.4488e-05,-0.0010473,-0.00022782,-2271.4,1.2734
16366,14.044,5.8182,0.05,2.1799e-08,0.21784,1.6736e-08,0.12572,-1.5082e-12,-4.3081e-05,-1.6743e-08,-0.12582,1.2598
16367,14.044,5.9091,0,0.0002297,2295.5,7.6674e-05,10.435,7.5285e-05,-0.0028519,-0.00022953,-2290.2,1.2594
16368,14.229,0.27273,0,0.00022549,2253.3,7.5623e-05,14.526,7.3689e-05,-0.00452,-0.00022524,-2246,1.2873
16369,14.321,0.18182,0,0.00022337,2232.1,7.5052e-05,16.069,7.2913e-05,-0.00091747,-0.00022309,-2224,1.3006
16370,14.229,0.18182,0.05,2.3808e-08,0.23791,1.8282e-08,0.1374,1.6912e-12,4.4552e-05,-1.8281e-08,-0.13732,1.2869
16371,14.229,0.090909,0,0.00022496,2248,7.5124e-05,10.642,7.3707e-05,-0.0029833,-0.00022477,-2242.7,1.2866
16372,14.229,0.45455,0,0.00022517,2250.1,7.5372e-05,12.774,7.3672e-05,-0.0053713,-0.00022495,-2243.7,1.288
16373,14.321,0.36364,0,0.00022291,2227.6,7.4682e-05,13.437,7.2893e-05,-0.0074494,-0.00022268,-2220.8,1.3013
16374,14.229,0.36364,0.05,7.6904e-07,7.6851,5.9053e-07,4.4371,-9.4124e-13,8.9581e-07,-5.9053e-07,-4.4369,1.2877
16375,14.229,0.63636,0,0.00022499,2248.3,7.5241e-05,11.91,7.3656e-05,-0.0031839,-0.00022479,-2242.4,1.2887
16376,14.321,0.54545,0,0.00022272,2225.7,7.4544e-05,12.531,7.2876e-05,-0.0035518,-0.0002225,-2219.4,1.302
16377,14.229,0.54545,0.05,8.2066e-07,8.2009,6.3017e-07,4.7349,-9.4208e-13,-2.006e-06,-6.3016e-07,-4.7348,1.2884
16378,14.229,0.81818,0,0.00022483,2246.8,7.5125e-05,11.145,7.3641e-05,-0.0022836,-0.00022464,-2241.2,1.2893
16379,14.321,0.72727,0,0.00022256,2224,7.4426e-05,11.77,7.286e-05,-0.0029252,-0.00022235,-2218.1,1.3026
16380,14.229,0.72727,0.05,8.2424e-07,8.2367,6.3291e-07,4.7554,-2.7527e-12,-3.1036e-07,-6.3291e-07,-4.7554,1.289
16381,14.229,1,0,0.00022468,2245.3,7.5017e-05,10.435,7.3628e-05,-0.0011559,-0.00022451,-2240.1,1.2899
16382,14.321,0.90909,0,0.00022241,2222.5,7.4318e-05,11.064,7.2845e-05,-0.0016787,-0.00022222,-2217,1.3032
16383,14.229,0.90909,0.05,8.2467e-07,8.241,6.3324e-07,4.758,-9.4523e-13,1.6397e-06,-6.3324e-07,-4.7579,1.2896
16384,14.229,1.1818,0,0.00022455,2244,7.4918e-05,9.779,7.3617e-05,-7.8802e-05,-0.00022438,-2239.1,1.2904
16385,14.321,1.0909,0,0.00022227,2221.1,7.4218e-05,10.409,7.2832e-05,-0.00058292,-0.00022209,-2215.9,1.3037
16386,14.229,1.0909,0.05,8.2487e-07,8.2431,6.334e-07,4.7591,-9.4142e-13,1.909e-06,-6.334e-07,-4.7591,1.2901
16387,14.229,1.3636,0,0.00022443,2242.7,7.4828e-05,9.1788,7.3607e-05,0.0010095,-0.00022427,-2238.1,1.2909
16388,14.321,1.2727,0,0.00022214,2219.9,7.4126e-05,9.8087,7.2821e-05,0.00054657,-0.00022197,-2215,1.3042
16389,14.229,1.2727,0.05,8.2505e-07,8.2448,6.3354e-07,4.7602,-3.1646e-14,1.9519e-06,-6.3354e-07,-4.7602,1.2906
16390,14.229,1.5455,0,0.00022432,2241.7,7.4747e-05,8.6363,7.3598e-05,0.0020789,-0.00022417,-2237.3,1.2913
16391,14.321,1.4545,0,0.00022203,2218.8,7.4043e-05,9.2628,7.281e-05,0.0016507,-0.00022187,-2214.1,1.3047
16392,14.229,1.4545,0.05,8.2521e-07,8.2465,6.3366e-07,4.7611,-9.4321e-13,1.9793e-06,-6.3366e-07,-4.761,1.2911
16393,14.229,1.7273,0,0.00022422,2240.7,7.4675e-05,8.1532,7.359e-05,0.0031182,-0.00022408,-2236.6,1.2917
16394,14.321,1.6364,0,0.00022193,2217.7,7.3969e-05,8.7735,7.2801e-05,0.0027255,-0.00022178,-2213.3,1.3051
16395,14.229,1.6364,0.05,8.2536e-07,8.2479,6.3377e-07,4.7619,-9.3738e-13,2.2505e-06,-6.3377e-07,-4.7619,1.2915
16396,14.229,1.9091,0,0.00022414,2239.9,7.4612e-05,7.7312,7.3584e-05,0.0041057,-0.00022401,-2236,1.292
16397,14.321,1.8182,0,0.00022184,2216.9,7.3903e-05,8.342,7.2794e-05,0.0037501,-0.0002217,-2212.7,1.3054
16398,14.229,1.8182,0.05,8.2548e-07,8.2491,6.3387e-07,4.7626,-2.7137e-14,1.7769e-06,-6.3387e-07,-4.7626,1.2918
16399,14.229,2.0909,0,0.00022407,2239.2,7.4559e-05,7.3716,7.3578e-05,0.0050151,-0.00022394,-2235.5,1.2922
16400,14.321,2,0,0.00022176,2216.1,7.3847e-05,7.9697,7.2787e-05,0.0047021,-0.00022163,-2212.1,1.3057
16401,14.229,2,0.05,8.2559e-07,8.2502,6.3395e-07,4.7633,-2.5386e-14,1.9902e-06,-6.3395e-07,-4.7633,1.2921
16402,14.229,2.2727,0,0.00022401,2238.6,7.4515e-05,7.0757,7.3574e-05,0.0058184,-0.00022389,-2235,1.2925
16403,14.321,2.1818,0,0.0002217,2215.5,7.38e-05,7.6577,7.2782e-05,0.0055556,-0.00022157,-2211.6,1.3059
16404,14.229,2.1818,0.05,8.2568e-07,8.2511,6.3402e-07,4.7638,-1.9656e-14,2.5298e-06,-6.3402e-07,-4.7638,1.2923
16405,14.229,2.4545,0,0.00022397,2238.1,7.448e-05,6.8444,7.357e-05,0.0064856,-0.00022385,-2234.7,1.2926
16406,14.321,2.3636,0,0.00022165,2215,7.3763e-05,7.4069,7.2778e-05,0.0062827,-0.00022152,-2211.2,1.3061
16407,14.229,2.3636,0.05,8.2575e-07,8.2518,6.3408e-07,4.7642,-1.597e-14,2.2648e-06,-6.3408e-07,-4.7642,1.2925
16408,14.229,2.6364,0,0.00022393,2237.8,7.4456e-05,6.6786,7.3568e-05,0.0069872,-0.00022382,-2234.4,1.2928
16409,14.321,2.5455,0,0.00022161,2214.6,7.3734e-05,7.2181,7.2775e-05,0.0068579,-0.00022149,-2211,1.3063
16410,14.229,2.5455,0.05,8.2581e-07,8.2524,6.3412e-07,4.7645,8.98e-13,2.4461e-06,-6.3412e-07,-4.7645,1.2927
16411,14.229,2.8182,0,0.00022392,2237.6,7.4441e-05,6.5789,7.3566e-05,0.0072981,-0.0002238,-2234.3,1.2928
16412,14.321,2.7273,0,0.00022159,2214.3,7.3715e-05,7.0919,7.2772e-05,0.0072558,-0.00022146,-2210.8,1.3064
16413,14.229,2.7273,0.05,8.2584e-07,8.2527,6.3414e-07,4.7647,9.0246e-13,1.8843e-06,-6.3415e-07,-4.7647,1.2928
16414,14.229,3,0,0.00022391,2237.5,7.4436e-05,6.5456,7.3566e-05,0.0074031,-0.0002238,-2234.3,1.2929
16415,14.321,2.9091,0,0.00022157,2214.2,7.3706e-05,7.0287,7.2771e-05,0.0074588,-0.00022145,-2210.7,1.3064
16416,14.229,2.9091,0.05,8.2586e-07,8.2529,6.3416e-07,4.7648,1.8166e-12,2.3069e-06,-6.3416e-07,-4.7648,1.2928
16417,14.229,3.1818,0,0.00022392,2237.6,7.4441e-05,6.5789,7.3566e-05,0.007298,-0.0002238,-2234.3,1.2928
16418,14.321,3.0909,0,0.00022157,2214.2,7.3706e-05,7.0287,7.2771e-05,0.0074587,-0.00022145,-2210.7,1.3064
16419,14.229,3.0909,0.05,8.2586e-07,8.2529,6.3416e-07,4.7648,1.8214e-12,1.9252e-06,-6.3416e-07,-4.7648,1.2928
16420,14.229,3.3636,0,0.00022393,2237.8,7.4456e-05,6.6786,7.3568e-05,0.0069863,-0.00022382,-2234.4,1.2928
16421,14.321,3.2727,0,0.00022159,2214.3,7.3715e-05,7.0919,7.2772e-05,0.0072559,-0.00022146,-2210.8,1.3064
16422,14.229,3.2727,0.05,8.2584e-07,8.2527,6.3415e-07,4.7647,2.7356e-12,2.5572e-06,-6.3415e-07,-4.7647,1.2928
16423,14.229,3.5455,0,0.00022397,2238.1,7.448e-05,6.8444,7.357e-05,0.0064855,-0.00022385,-2234.7,1.2926
16424,14.321,3.4545,0,0.00022161,2214.6,7.3734e-05,7.2181,7.2775e-05,0.0068572,-0.00022149,-2211,1.3063
16425,14.229,3.4545,0.05,8.2581e-07,8.2524,6.3412e-07,4.7645,2.7403e-12,2.5042e-06,-6.3412e-07,-4.7645,1.2927
16426,14.229,3.7273,0,0.00022401,2238.6,7.4515e-05,7.0757,7.3574e-05,0.0058192,-0.00022389,-2235,1.2925
16427,14.321,3.6364,0,0.00022165,2215,7.3763e-05,7.4069,7.2778e-05,0.0062838,-0.00022152,-2211.2,1.3061
16428,14.229,3.6364,0.05,8.2575e-07,8.2518,6.3408e-07,4.7642,1.8355e-12,3.2208e-06,-6.3408e-07,-4.7642,1.2925
16429,14.229,3.9091,0,0.00022407,2239.2,7.4559e-05,7.3716,7.3578e-05,0.0050148,-0.00022394,-2235.5,1.2922
16430,14.321,3.8182,0,0.0002217,2215.5,7.38e-05,7.6577,7.2782e-05,0.0055551,-0.00022157,-2211.6,1.3059
16431,14.229,3.8182,0.05,8.2568e-07,8.2511,6.3402e-07,4.7637,2.7492e-12,4.0852e-06,-6.3402e-07,-4.7638,1.2923
16432,14.229,4.0909,0,0.00022414,2239.9,7.4612e-05,7.7312,7.3584e-05,0.0041049,-0.00022401,-2236,1.292
16433,14.321,4,0,0.00022176,2216.1,7.3847e-05,7.9698,7.2787e-05,0.0047023,-0.00022163,-2212.1,1.3057
16434,14.229,4,0.05,8.2559e-07,8.2502,6.3395e-07,4.7633,2.7518e-12,3.5012e-06,-6.3395e-07,-4.7633,1.2921
16435,14.229,4.2727,0,0.00022422,2240.7,7.4675e-05,8.1532,7.359e-05,0.0031176,-0.00022408,-2236.6,1.2917
16436,14.321,4.1818,0,0.00022184,2216.9,7.3903e-05,8.342,7.2794e-05,0.0037496,-0.0002217,-2212.7,1.3054
16437,14.229,4.1818,0.05,8.2548e-07,8.2491,6.3387e-07,4.7626,3.6672e-12,2.958e-06,-6.3387e-07,-4.7627,1.2918
16438,14.229,4.4545,0,0.00022432,2241.7,7.4747e-05,8.6363,7.3598e-05,0.0020781,-0.00022417,-2237.3,1.2913
16439,14.321,4.3636,0,0.00022193,2217.7,7.3969e-05,8.7735,7.2801e-05,0.0027247,-0.00022178,-2213.3,1.3051
16440,14.229,4.3636,0.05,8.2536e-07,8.2479,6.3377e-07,4.7619,3.6695e-12,4.5161e-06,-6.3378e-07,-4.762,1.2915
16441,14.229,4.6364,0,0.00022443,2242.7,7.4828e-05,9.1788,7.3607e-05,0.0010086,-0.00022427,-2238.1,1.2909
16442,14.321,4.5455,0,0.00022203,2218.8,7.4043e-05,9.2629,7.281e-05,0.0016498,-0.00022187,-2214.1,1.3047
16443,14.229,4.5455,0.05,8.2521e-07,8.2465,6.3366e-07,4.761,3.67e-12,3.1878e-06,-6.3366e-07,-4.7612,1.2911
16444,14.229,4.8182,0,0.00022455,2244,7.4918e-05,9.7791,7.3617e-05,-7.9208e-05,-0.00022438,-2239.1,1.2904
16445,14.321,4.7273,0,0.00022214,2219.9,7.4126e-05,9.8087,7.2821e-05,0.00054645,-0.00022197,-2215,1.3042
16446,14.229,4.7273,0.05,8.2505e-07,8.2448,6.3353e-07,4.7601,4.5822e-12,4.3155e-06,-6.3354e-07,-4.7602,1.2906
16447,14.229,5,0,0.00022468,2245.3,7.5017e-05,10.435,7.3628e-05,-0.0011569,-0.00022451,-2240.1,1.2899
16448,14.321,4.9091,0,0.00022227,2221.1,7.4218e-05,10.41,7.2832e-05,-0.00058338,-0.00022209,-2215.9,1.3037
16449,14.229,4.9091,0.05,8.2487e-07,8.2431,6.334e-07,4.7591,3.669e-12,4.4183e-06,-6.3341e-07,-4.7592,1.2901
16450,14.229,5.1818,0,0.00022483,2246.8,7.5125e-05,11.145,7.3641e-05,-0.0022847,-0.00022464,-2241.2,1.2893
16451,14.321,5.0909,0,0.00022241,2222.5,7.4318e-05,11.064,7.2845e-05,-0.0016798,-0.00022222,-2217,1.3032
16452,14.229,5.0909,0.05,8.2467e-07,8.241,6.3324e-07,4.7579,3.6725e-12,3.4689e-06,-6.3325e-07,-4.758,1.2896
16453,14.229,5.3636,0,0.00022499,2248.3,7.5241e-05,11.91,7.3656e-05,-0.0031848,-0.00022479,-2242.4,1.2887
16454,14.321,5.2727,0,0.00022256,2224,7.4426e-05,11.77,7.286e-05,-0.0029281,-0.00022235,-2218.1,1.3026
16455,14.229,5.2727,0.05,8.2424e-07,8.2367,6.3291e-07,4.7554,4.5807e-12,4.599e-06,-6.3292e-07,-4.7555,1.289
16456,14.229,5.5455,0,0.00022517,2250.1,7.5372e-05,12.774,7.3672e-05,-0.0053708,-0.00022495,-2243.7,1.288
16457,14.321,5.4545,0,0.00022272,2225.7,7.4544e-05,12.531,7.2876e-05,-0.003551,-0.0002225,-2219.4,1.302
16458,14.229,5.4545,0.05,8.2066e-07,8.2009,6.3016e-07,4.7347,4.5675e-12,4.4246e-06,-6.3017e-07,-4.7349,1.2884
16459,14.229,5.7273,0,0.00022549,2253.3,7.5623e-05,14.526,7.3689e-05,-0.0045197,-0.00022524,-2246,1.2873
16460,14.321,5.6364,0,0.00022291,2227.6,7.4682e-05,13.437,7.2893e-05,-0.0074484,-0.00022268,-2220.8,1.3013
16461,14.229,5.6364,0.05,7.6904e-07,7.6851,5.9052e-07,4.4369,4.5567e-12,5.143e-06,-5.9054e-07,-4.4371,1.2877
16462,14.321,5.8182,0,0.00022337,2232.1,7.5052e-05,16.069,7.2913e-05,-0.00091814,-0.00022309,-2224,1.3006
16463,14.229,5.8182,0.05,2.3808e-08,0.23791,1.8279e-08,0.13732,-8.5577e-13,-3.6445e-05,-1.8284e-08,-0.1374,1.2869
16464,14.229,5.9091,0,0.00022496,2248,7.5124e-05,10.642,7.3707e-05,-0.0029839,-0.00022477,-2242.7,1.2866
16465,14.413,0.27273,0,0.00022077,2206.2,7.4096e-05,14.864,7.2117e-05,-0.0047648,-0.00022052,-2198.7,1.3146
16466,14.505,0.18182,0,0.00021866,2185.1,7.3527e-05,16.388,7.1345e-05,-0.0007977,-0.00021838,-2176.9,1.3279
16467,14.413,0.18182,0.05,2.559e-08,0.25572,1.9652e-08,0.14768,2.7074e-12,4.3118e-05,-1.9648e-08,-0.1476,1.3142
16468,14.413,0.090909,0,0.00022023,2200.7,7.3581e-05,10.847,7.2137e-05,-0.0031355,-0.00022004,-2195.3,1.3139
16469,14.413,0.45455,0,0.00022046,2203,7.385e-05,13.164,7.2097e-05,-0.0057174,-0.00022023,-2196.4,1.3153
16470,14.505,0.36364,0,0.00021821,2180.6,7.316e-05,13.793,7.1323e-05,-0.0079497,-0.00021797,-2173.6,1.3287
16471,14.413,0.36364,0.05,7.6561e-07,7.6508,5.879e-07,4.4172,-3.6415e-12,2.2381e-06,-5.8789e-07,-4.4171,1.3149
16472,14.413,0.63636,0,0.00022028,2201.3,7.3725e-05,12.363,7.2079e-05,-0.0033218,-0.00022007,-2195.1,1.316
16473,14.505,0.54545,0,0.00021802,2178.7,7.3028e-05,12.949,7.1304e-05,-0.0037015,-0.0002178,-2172.2,1.3293
16474,14.413,0.54545,0.05,8.1707e-07,8.165,6.2741e-07,4.7141,-9.3988e-13,-1.6935e-06,-6.274e-07,-4.714,1.3156
16475,14.413,0.81818,0,0.00022013,2199.7,7.3616e-05,11.661,7.2063e-05,-0.0023432,-0.00021993,-2193.9,1.3166
16476,14.505,0.72727,0,0.00021786,2177.1,7.2916e-05,12.248,7.1286e-05,-0.003024,-0.00021765,-2170.9,1.3299
16477,14.413,0.72727,0.05,8.2062e-07,8.2006,6.3014e-07,4.7346,-2.7557e-12,-4.5923e-07,-6.3013e-07,-4.7346,1.3162
16478,14.413,1,0,0.00021998,2198.3,7.3514e-05,11.011,7.2049e-05,-0.0011258,-0.0002198,-2192.8,1.3171
16479,14.505,0.90909,0,0.00021771,2175.6,7.2814e-05,11.602,7.127e-05,-0.0016782,-0.00021751,-2169.8,1.3305
16480,14.413,0.90909,0.05,8.2104e-07,8.2047,6.3046e-07,4.737,-9.5018e-13,2.51e-06,-6.3045e-07,-4.737,1.3168
16481,14.413,1.1818,0,0.00021985,2197,7.3421e-05,10.412,7.2036e-05,2.5598e-05,-0.00021968,-2191.8,1.3176
16482,14.505,1.0909,0,0.00021758,2174.3,7.272e-05,11.006,7.1255e-05,-0.00050733,-0.00021739,-2168.8,1.331
16483,14.413,1.0909,0.05,8.2124e-07,8.2067,6.3061e-07,4.7382,-9.4613e-13,3.1013e-06,-6.3061e-07,-4.7381,1.3173
16484,14.413,1.3636,0,0.00021974,2195.9,7.3337e-05,9.8658,7.2024e-05,0.0011751,-0.00021957,-2190.9,1.3181
16485,14.505,1.2727,0,0.00021746,2173.1,7.2634e-05,10.459,7.1242e-05,0.00068753,-0.00021728,-2167.8,1.3315
16486,14.413,1.2727,0.05,8.2141e-07,8.2084,6.3074e-07,4.7392,-9.479e-13,2.6468e-06,-6.3074e-07,-4.7391,1.3178
16487,14.413,1.5455,0,0.00021963,2194.8,7.3261e-05,9.3732,7.2014e-05,0.0022901,-0.00021947,-2190.1,1.3185
16488,14.505,1.4545,0,0.00021735,2172,7.2556e-05,9.964,7.1231e-05,0.001841,-0.00021718,-2167,1.3319
16489,14.413,1.4545,0.05,8.2156e-07,8.2099,6.3086e-07,4.74,-3.7697e-14,2.4259e-06,-6.3086e-07,-4.74,1.3183
16490,14.413,1.7273,0,0.00021954,2193.9,7.3194e-05,8.9355,7.2005e-05,0.003357,-0.00021939,-2189.4,1.3188
16491,14.505,1.6364,0,0.00021725,2171,7.2487e-05,9.5213,7.122e-05,0.0029516,-0.00021709,-2166.2,1.3323
16492,14.413,1.6364,0.05,8.217e-07,8.2113,6.3096e-07,4.7408,-3.2892e-14,2.8809e-06,-6.3096e-07,-4.7408,1.3186
16493,14.413,1.9091,0,0.00021946,2193.1,7.3135e-05,8.5538,7.1997e-05,0.0043545,-0.00021931,-2188.8,1.3192
16494,14.505,1.8182,0,0.00021716,2170.1,7.2427e-05,9.1318,7.1212e-05,0.003994,-0.00021701,-2165.6,1.3327
16495,14.413,1.8182,0.05,8.2182e-07,8.2125,6.3105e-07,4.7415,-3.1948e-14,2.2679e-06,-6.3105e-07,-4.7415,1.319
16496,14.413,2.0909,0,0.00021939,2192.4,7.3086e-05,8.2291,7.1991e-05,0.0052602,-0.00021925,-2188.3,1.3194
16497,14.505,2,0,0.00021709,2169.4,7.2374e-05,8.7963,7.1204e-05,0.0049502,-0.00021694,-2165,1.3329
16498,14.413,2,0.05,8.2192e-07,8.2135,6.3113e-07,4.7421,-2.6769e-14,2.2928e-06,-6.3113e-07,-4.7421,1.3193
16499,14.413,2.2727,0,0.00021933,2191.8,7.3045e-05,7.9623,7.1986e-05,0.0060478,-0.0002192,-2187.8,1.3196
16500,14.505,2.1818,0,0.00021703,2168.8,7.2331e-05,8.5157,7.1198e-05,0.0057957,-0.00021688,-2164.5,1.3332
16501,14.413,2.1818,0.05,8.22e-07,8.2144,6.312e-07,4.7426,-2.345e-14,2.6274e-06,-6.312e-07,-4.7426,1.3195
16502,14.413,2.4545,0,0.00021929,2191.4,7.3013e-05,7.754,7.1982e-05,0.0066928,-0.00021916,-2187.5,1.3198
16503,14.505,2.3636,0,0.00021698,2168.3,7.2296e-05,8.2904,7.1193e-05,0.0065063,-0.00021684,-2164.2,1.3334
16504,14.413,2.3636,0.05,8.2207e-07,8.215,6.3125e-07,4.743,8.9073e-13,2.7211e-06,-6.3125e-07,-4.743,1.3197
16505,14.413,2.6364,0,0.00021926,2191.1,7.299e-05,7.6048,7.1979e-05,0.0071726,-0.00021913,-2187.3,1.3199
16506,14.505,2.5455,0,0.00021694,2167.9,7.2269e-05,8.121,7.119e-05,0.0070636,-0.0002168,-2163.9,1.3335
16507,14.413,2.5455,0.05,8.2212e-07,8.2156,6.3129e-07,4.7433,-1.3548e-14,2.8779e-06,-6.3129e-07,-4.7433,1.3199
16508,14.413,2.8182,0,0.00021924,2190.9,7.2977e-05,7.5152,7.1977e-05,0.0074682,-0.00021911,-2187.1,1.32
16509,14.505,2.7273,0,0.00021692,2167.7,7.2252e-05,8.0078,7.1187e-05,0.0074447,-0.00021678,-2163.7,1.3336
16510,14.413,2.7273,0.05,8.2216e-07,8.2159,6.3131e-07,4.7434,9.0126e-13,2.084e-06,-6.3131e-07,-4.7435,1.32
16511,14.413,3,0,0.00021923,2190.8,7.2972e-05,7.4852,7.1977e-05,0.007568,-0.00021911,-2187.1,1.32
16512,14.505,2.9091,0,0.00021691,2167.6,7.2243e-05,7.9512,7.1186e-05,0.0076393,-0.00021677,-2163.6,1.3337
16513,14.413,2.9091,0.05,8.2217e-07,8.2161,6.3132e-07,4.7435,9.0671e-13,2.7209e-06,-6.3133e-07,-4.7435,1.32
16514,14.413,3.1818,0,0.00021924,2190.9,7.2977e-05,7.5152,7.1977e-05,0.0074683,-0.00021911,-2187.1,1.32
16515,14.505,3.0909,0,0.00021691,2167.6,7.2243e-05,7.9512,7.1186e-05,0.0076392,-0.00021677,-2163.6,1.3337
16516,14.413,3.0909,0.05,8.2217e-07,8.2161,6.3132e-07,4.7435,9.1229e-13,2.4053e-06,-6.3133e-07,-4.7435,1.32
16517,14.413,3.3636,0,0.00021926,2191.1,7.299e-05,7.6048,7.1979e-05,0.007173,-0.00021913,-2187.3,1.3199
16518,14.505,3.2727,0,0.00021692,2167.7,7.2252e-05,8.0078,7.1187e-05,0.0074448,-0.00021678,-2163.7,1.3336
16519,14.413,3.2727,0.05,8.2216e-07,8.2159,6.3131e-07,4.7434,1.8274e-12,2.9835e-06,-6.3132e-07,-4.7435,1.32
16520,14.413,3.5455,0,0.00021929,2191.4,7.3013e-05,7.754,7.1982e-05,0.0066932,-0.00021916,-2187.5,1.3198
16521,14.505,3.4545,0,0.00021694,2167.9,7.2269e-05,8.121,7.119e-05,0.0070636,-0.0002168,-2163.9,1.3335
16522,14.413,3.4545,0.05,8.2212e-07,8.2156,6.3129e-07,4.7432,1.8326e-12,3.0236e-06,-6.3129e-07,-4.7433,1.3199
16523,14.413,3.7273,0,0.00021933,2191.8,7.3045e-05,7.9623,7.1986e-05,0.0060475,-0.0002192,-2187.8,1.3196
16524,14.505,3.6364,0,0.00021698,2168.3,7.2296e-05,8.2904,7.1193e-05,0.0065067,-0.00021684,-2164.2,1.3334
16525,14.413,3.6364,0.05,8.2207e-07,8.215,6.3125e-07,4.7429,2.7475e-12,3.6562e-06,-6.3125e-07,-4.743,1.3197
16526,14.413,3.9091,0,0.00021939,2192.4,7.3086e-05,8.2292,7.1991e-05,0.0052602,-0.00021925,-2188.3,1.3194
16527,14.505,3.8182,0,0.00021703,2168.8,7.2331e-05,8.5157,7.1198e-05,0.0057948,-0.00021688,-2164.5,1.3332
16528,14.413,3.8182,0.05,8.22e-07,8.2144,6.3119e-07,4.7425,2.7527e-12,4.3519e-06,-6.312e-07,-4.7426,1.3195
16529,14.413,4.0909,0,0.00021946,2193.1,7.3135e-05,8.5538,7.1997e-05,0.0043551,-0.00021931,-2188.8,1.3192
16530,14.505,4,0,0.00021709,2169.4,7.2374e-05,8.7964,7.1204e-05,0.0049508,-0.00021694,-2165,1.3329
16531,14.413,4,0.05,8.2192e-07,8.2135,6.3113e-07,4.7421,9.3941e-13,4.0887e-06,-6.3113e-07,-4.7421,1.3193
16532,14.413,4.2727,0,0.00021954,2193.9,7.3194e-05,8.9355,7.2005e-05,0.0033563,-0.00021939,-2189.4,1.3188
16533,14.505,4.1818,0,0.00021716,2170.1,7.2427e-05,9.1318,7.1212e-05,0.0039936,-0.00021701,-2165.6,1.3327
16534,14.413,4.1818,0.05,8.2182e-07,8.2125,6.3105e-07,4.7414,2.7615e-12,3.4694e-06,-6.3106e-07,-4.7415,1.319
16535,14.413,4.4545,0,0.00021963,2194.8,7.3261e-05,9.3732,7.2014e-05,0.0022892,-0.00021947,-2190.1,1.3185
16536,14.505,4.3636,0,0.00021725,2171,7.2487e-05,9.5213,7.122e-05,0.0029504,-0.00021709,-2166.2,1.3323
16537,14.413,4.3636,0.05,8.217e-07,8.2113,6.3096e-07,4.7408,2.7622e-12,4.8028e-06,-6.3097e-07,-4.7408,1.3186
16538,14.413,4.6364,0,0.00021974,2195.9,7.3337e-05,9.8659,7.2024e-05,0.001175,-0.00021957,-2190.9,1.3181
16539,14.505,4.5455,0,0.00021735,2172,7.2557e-05,9.9641,7.1231e-05,0.0018415,-0.00021718,-2167,1.3319
16540,14.413,4.5455,0.05,8.2156e-07,8.2099,6.3085e-07,4.74,3.6769e-12,3.9177e-06,-6.3086e-07,-4.7401,1.3183
16541,14.413,4.8182,0,0.00021985,2197,7.3421e-05,10.412,7.2036e-05,2.5421e-05,-0.00021968,-2191.8,1.3176
16542,14.505,4.7273,0,0.00021746,2173.1,7.2634e-05,10.459,7.1242e-05,0.00068761,-0.00021728,-2167.8,1.3315
16543,14.413,4.7273,0.05,8.2141e-07,8.2084,6.3074e-07,4.7391,3.6782e-12,4.8301e-06,-6.3074e-07,-4.7392,1.3178
16544,14.413,5,0,0.00021998,2198.3,7.3514e-05,11.011,7.2049e-05,-0.0011264,-0.0002198,-2192.8,1.3171
16545,14.505,4.9091,0,0.00021758,2174.3,7.272e-05,11.006,7.1255e-05,-0.00050816,-0.00021739,-2168.8,1.331
16546,14.413,4.9091,0.05,8.2124e-07,8.2067,6.3061e-07,4.7381,6.4018e-12,5.1066e-06,-6.3061e-07,-4.7382,1.3173
16547,14.413,5.1818,0,0.00022013,2199.8,7.3616e-05,11.661,7.2063e-05,-0.0023461,-0.00021993,-2193.9,1.3166
16548,14.505,5.0909,0,0.00021771,2175.6,7.2814e-05,11.602,7.127e-05,-0.00168,-0.00021751,-2169.8,1.3305
16549,14.413,5.0909,0.05,8.2104e-07,8.2047,6.3045e-07,4.7369,4.5867e-12,4.0881e-06,-6.3046e-07,-4.7371,1.3168
16550,14.413,5.3636,0,0.00022028,2201.3,7.3725e-05,12.363,7.2079e-05,-0.0033231,-0.00022007,-2195.1,1.316
16551,14.505,5.2727,0,0.00021786,2177.1,7.2917e-05,12.248,7.1286e-05,-0.0030276,-0.00021765,-2170.9,1.3299
16552,14.413,5.2727,0.05,8.2062e-07,8.2006,6.3013e-07,4.7345,4.5793e-12,4.6956e-06,-6.3014e-07,-4.7347,1.3162
16553,14.413,5.5455,0,0.00022046,2203,7.385e-05,13.164,7.2097e-05,-0.0057161,-0.00022023,-2196.4,1.3153
16554,14.505,5.4545,0,0.00021802,2178.7,7.3028e-05,12.949,7.1304e-05,-0.0036996,-0.0002178,-2172.2,1.3293
16555,14.413,5.4545,0.05,8.1707e-07,8.165,6.274e-07,4.714,3.66e-12,5.1724e-06,-6.2741e-07,-4.7141,1.3156
16556,14.413,5.7273,0,0.00022077,2206.2,7.4096e-05,14.864,7.2117e-05,-0.004765,-0.00022052,-2198.7,1.3146
16557,14.505,5.6364,0,0.00021821,2180.6,7.316e-05,13.793,7.1323e-05,-0.007949,-0.00021797,-2173.6,1.3287
16558,14.413,5.6364,0.05,7.6561e-07,7.6508,5.8789e-07,4.4171,3.6555e-12,5.7747e-06,-5.879e-07,-4.4173,1.3149
16559,14.505,5.8182,0,0.00021866,2185.1,7.3527e-05,16.388,7.1345e-05,-0.00079823,-0.00021838,-2176.9,1.3279
16560,14.413,5.8182,0.05,2.559e-08,0.25572,1.9648e-08,0.1476,-1.8087e-12,-3.6752e-05,-1.9652e-08,-0.14768,1.3142
16561,14.413,5.9091,0,0.00022023,2200.7,7.3581e-05,10.847,7.2137e-05,-0.0031365,-0.00022004,-2195.3,1.3139
16562,14.597,0.27273,0,0.00021608,2159.3,7.2575e-05,15.199,7.0551e-05,-0.0049788,-0.00021582,-2151.7,1.342
16563,14.69,0.18182,0,0.00021398,2138.3,7.2008e-05,16.706,6.9784e-05,-0.00067113,-0.00021369,-2129.9,1.3554
16564,14.597,0.18182,0.05,2.7161e-08,0.27143,2.0857e-08,0.15674,1.1789e-12,3.6135e-05,-2.0856e-08,-0.15668,1.3416
16565,14.597,0.090909,0,0.00021552,2153.7,7.2044e-05,11.052,7.0573e-05,-0.003261,-0.00021533,-2148.2,1.3413
16566,14.597,0.45455,0,0.00021576,2156.2,7.2333e-05,13.546,7.053e-05,-0.0060256,-0.00021553,-2149.4,1.3427
16567,14.69,0.36364,0,0.00021352,2133.8,7.1643e-05,14.143,6.976e-05,-0.0084195,-0.00021328,-2126.6,1.3561
16568,14.597,0.36364,0.05,7.6221e-07,7.6168,5.8529e-07,4.3976,-3.6662e-12,1.9714e-06,-5.8528e-07,-4.3975,1.3424
16569,14.597,0.63636,0,0.00021559,2154.4,7.2215e-05,12.806,7.051e-05,-0.0034311,-0.00021537,-2148,1.3433
16570,14.69,0.54545,0,0.00021334,2131.9,7.1517e-05,13.357,6.9739e-05,-0.0038292,-0.00021311,-2125.2,1.3568
16571,14.597,0.54545,0.05,8.135e-07,8.1294,6.2467e-07,4.6935,-1.8451e-12,5.8868e-07,-6.2467e-07,-4.6935,1.343
16572,14.597,0.81818,0,0.00021544,2152.9,7.2111e-05,12.162,7.0492e-05,-0.0023793,-0.00021523,-2146.8,1.3439
16573,14.69,0.72727,0,0.00021318,2130.4,7.1412e-05,12.716,6.9719e-05,-0.0031058,-0.00021296,-2124,1.3574
16574,14.597,0.72727,0.05,8.1704e-07,8.1647,6.2738e-07,4.7139,-1.8432e-12,1.3368e-06,-6.2738e-07,-4.7139,1.3436
16575,14.597,1,0,0.0002153,2151.6,7.2016e-05,11.569,7.0476e-05,-0.0010762,-0.0002151,-2145.7,1.3445
16576,14.69,0.90909,0,0.00021304,2128.9,7.1316e-05,12.126,6.9702e-05,-0.0016662,-0.00021283,-2122.8,1.358
16577,14.597,0.90909,0.05,8.1744e-07,8.1688,6.277e-07,4.7163,-1.8585e-12,2.9206e-06,-6.2769e-07,-4.7162,1.3442
16578,14.597,1.1818,0,0.00021518,2150.3,7.1929e-05,11.025,7.0462e-05,0.00014237,-0.00021499,-2144.8,1.345
16579,14.69,1.0909,0,0.00021291,2127.6,7.1227e-05,11.584,6.9686e-05,-0.00042566,-0.00021271,-2121.8,1.3585
16580,14.597,1.0909,0.05,8.1763e-07,8.1707,6.2784e-07,4.7174,-1.8551e-12,3.9069e-06,-6.2784e-07,-4.7173,1.3447
16581,14.597,1.3636,0,0.00021506,2149.1,7.185e-05,10.53,7.0449e-05,0.0013462,-0.00021488,-2143.9,1.3454
16582,14.69,1.2727,0,0.00021279,2126.4,7.1147e-05,11.09,6.9671e-05,0.00083069,-0.0002126,-2120.9,1.3589
16583,14.597,1.2727,0.05,8.178e-07,8.1723,6.2797e-07,4.7183,-9.5094e-13,3.3992e-06,-6.2796e-07,-4.7183,1.3452
16584,14.597,1.5455,0,0.00021496,2148.1,7.1779e-05,10.085,7.0437e-05,0.0025013,-0.00021479,-2143.1,1.3458
16585,14.69,1.4545,0,0.00021268,2125.4,7.1074e-05,10.643,6.9658e-05,0.0020299,-0.0002125,-2120,1.3594
16586,14.597,1.4545,0.05,8.1794e-07,8.1738,6.2808e-07,4.7191,-2.7689e-12,2.7591e-06,-6.2808e-07,-4.7191,1.3456
16587,14.597,1.7273,0,0.00021487,2147.2,7.1716e-05,9.6903,7.0427e-05,0.0035946,-0.0002147,-2142.4,1.3462
16588,14.69,1.6364,0,0.00021259,2124.4,7.101e-05,10.245,6.9647e-05,0.0031717,-0.00021241,-2119.3,1.3597
16589,14.597,1.6364,0.05,8.1807e-07,8.175,6.2818e-07,4.7199,-3.9283e-14,3.3371e-06,-6.2817e-07,-4.7198,1.346
16590,14.597,1.9091,0,0.00021479,2146.4,7.1662e-05,9.3471,7.0419e-05,0.0046037,-0.00021463,-2141.8,1.3465
16591,14.69,1.8182,0,0.00021251,2123.6,7.0953e-05,9.8954,6.9637e-05,0.0042322,-0.00021234,-2118.6,1.3601
16592,14.597,1.8182,0.05,8.1818e-07,8.1762,6.2826e-07,4.7205,-3.6826e-14,2.6631e-06,-6.2826e-07,-4.7205,1.3463
16593,14.597,2.0909,0,0.00021473,2145.8,7.1616e-05,9.0557,7.0411e-05,0.0055082,-0.00021457,-2141.2,1.3467
16594,14.69,2,0,0.00021244,2122.9,7.0905e-05,9.5952,6.9629e-05,0.0051942,-0.00021227,-2118.1,1.3603
16595,14.597,2,0.05,8.1828e-07,8.1771,6.2834e-07,4.7211,-9.4032e-13,2.8098e-06,-6.2834e-07,-4.721,1.3466
16596,14.597,2.2727,0,0.00021467,2145.2,7.1578e-05,8.8166,7.0405e-05,0.0062853,-0.00021452,-2140.8,1.347
16597,14.69,2.1818,0,0.00021238,2122.3,7.0865e-05,9.3445,6.9622e-05,0.0060349,-0.00021222,-2117.6,1.3606
16598,14.597,2.1818,0.05,8.1836e-07,8.1779,6.284e-07,4.7215,-2.6593e-14,3.3154e-06,-6.284e-07,-4.7215,1.3468
16599,14.597,2.4545,0,0.00021463,2144.8,7.1549e-05,8.6302,7.0401e-05,0.0069161,-0.00021448,-2140.5,1.3471
16600,14.69,2.3636,0,0.00021233,2121.8,7.0832e-05,9.1436,6.9616e-05,0.0067347,-0.00021217,-2117.3,1.3608
16601,14.597,2.3636,0.05,8.1842e-07,8.1786,6.2845e-07,4.7219,-2.0943e-14,3.1824e-06,-6.2845e-07,-4.7219,1.347
16602,14.597,2.6364,0,0.0002146,2144.5,7.1528e-05,8.4969,7.0398e-05,0.0073811,-0.00021446,-2140.3,1.3472
16603,14.69,2.5455,0,0.0002123,2121.5,7.0808e-05,8.9927,6.9612e-05,0.0072801,-0.00021214,-2117,1.3609
16604,14.597,2.5455,0.05,8.1847e-07,8.1791,6.2849e-07,4.7222,8.9418e-13,3.399e-06,-6.2849e-07,-4.7222,1.3472
16605,14.597,2.8182,0,0.00021458,2144.4,7.1515e-05,8.4168,7.0396e-05,0.0076656,-0.00021444,-2140.1,1.3473
16606,14.69,2.7273,0,0.00021227,2121.3,7.0792e-05,8.892,6.9609e-05,0.0076498,-0.00021212,-2116.8,1.361
16607,14.597,2.7273,0.05,8.185e-07,8.1794,6.2851e-07,4.7224,9.0008e-13,2.8496e-06,-6.2851e-07,-4.7224,1.3473
16608,14.597,3,0,0.00021458,2144.3,7.1511e-05,8.39,7.0395e-05,0.0077617,-0.00021443,-2140.1,1.3473
16609,14.69,2.9091,0,0.00021226,2121.1,7.0784e-05,8.8417,6.9608e-05,0.0078387,-0.00021211,-2116.7,1.361
16610,14.597,2.9091,0.05,8.1852e-07,8.1796,6.2852e-07,4.7225,-3.1834e-15,3.1352e-06,-6.2853e-07,-4.7225,1.3473
16611,14.597,3.1818,0,0.00021458,2144.4,7.1515e-05,8.4168,7.0396e-05,0.0076654,-0.00021444,-2140.1,1.3473
16612,14.69,3.0909,0,0.00021226,2121.1,7.0784e-05,8.8417,6.9608e-05,0.0078379,-0.00021211,-2116.7,1.361
16613,14.597,3.0909,0.05,8.1852e-07,8.1796,6.2852e-07,4.7225,3.2076e-15,2.5872e-06,-6.2853e-07,-4.7225,1.3473
16614,14.597,3.3636,0,0.0002146,2144.5,7.1528e-05,8.4969,7.0398e-05,0.0073809,-0.00021446,-2140.3,1.3472
16615,14.69,3.2727,0,0.00021227,2121.3,7.0792e-05,8.892,6.9609e-05,0.0076503,-0.00021212,-2116.8,1.361
16616,14.597,3.2727,0.05,8.185e-07,8.1794,6.2851e-07,4.7224,1.8285e-12,3.2903e-06,-6.2851e-07,-4.7224,1.3473
16617,14.597,3.5455,0,0.00021463,2144.8,7.1549e-05,8.6302,7.0401e-05,0.0069161,-0.00021448,-2140.5,1.3471
16618,14.69,3.4545,0,0.0002123,2121.5,7.0808e-05,8.9927,6.9612e-05,0.0072793,-0.00021214,-2117,1.3609
16619,14.597,3.4545,0.05,8.1847e-07,8.1791,6.2849e-07,4.7222,2.7442e-12,3.3359e-06,-6.2849e-07,-4.7222,1.3472
16620,14.597,3.7273,0,0.00021467,2145.2,7.1578e-05,8.8166,7.0405e-05,0.0062851,-0.00021452,-2140.8,1.347
16621,14.69,3.6364,0,0.00021233,2121.8,7.0832e-05,9.1436,6.9616e-05,0.0067352,-0.00021217,-2117.3,1.3608
16622,14.597,3.6364,0.05,8.1842e-07,8.1786,6.2845e-07,4.7219,2.7497e-12,4.334e-06,-6.2845e-07,-4.7219,1.347
16623,14.597,3.9091,0,0.00021473,2145.8,7.1616e-05,9.0557,7.0411e-05,0.0055079,-0.00021457,-2141.2,1.3467
16624,14.69,3.8182,0,0.00021238,2122.3,7.0865e-05,9.3445,6.9622e-05,0.0060339,-0.00021222,-2117.6,1.3606
16625,14.597,3.8182,0.05,8.1836e-07,8.1779,6.284e-07,4.7215,3.6659e-12,4.9719e-06,-6.284e-07,-4.7216,1.3468
16626,14.597,4.0909,0,0.00021479,2146.4,7.1662e-05,9.3471,7.0419e-05,0.0046033,-0.00021463,-2141.8,1.3465
16627,14.69,4,0,0.00021244,2122.9,7.0905e-05,9.5952,6.9629e-05,0.0051937,-0.00021227,-2118.1,1.3603
16628,14.597,4,0.05,8.1828e-07,8.1771,6.2833e-07,4.721,2.7603e-12,4.3577e-06,-6.2834e-07,-4.7211,1.3466
16629,14.597,4.2727,0,0.00021487,2147.2,7.1716e-05,9.6904,7.0427e-05,0.0035937,-0.0002147,-2142.4,1.3462
16630,14.69,4.1818,0,0.00021251,2123.6,7.0953e-05,9.8955,6.9637e-05,0.0042317,-0.00021234,-2118.6,1.3601
16631,14.597,4.1818,0.05,8.1818e-07,8.1762,6.2826e-07,4.7205,2.7649e-12,3.6791e-06,-6.2826e-07,-4.7205,1.3463
16632,14.597,4.4545,0,0.00021496,2148.1,7.1779e-05,10.085,7.0437e-05,0.0025017,-0.00021479,-2143.1,1.3458
16633,14.69,4.3636,0,0.00021259,2124.4,7.101e-05,10.245,6.9647e-05,0.0031714,-0.00021241,-2119.3,1.3597
16634,14.597,4.3636,0.05,8.1807e-07,8.175,6.2817e-07,4.7198,3.6802e-12,5.2862e-06,-6.2818e-07,-4.7199,1.346
16635,14.597,4.6364,0,0.00021506,2149.1,7.185e-05,10.53,7.0449e-05,0.001347,-0.00021488,-2143.9,1.3454
16636,14.69,4.5455,0,0.00021268,2125.4,7.1074e-05,10.643,6.9658e-05,0.0020298,-0.0002125,-2120,1.3594
16637,14.597,4.5455,0.05,8.1794e-07,8.1738,6.2807e-07,4.7191,3.678e-12,4.3879e-06,-6.2808e-07,-4.7192,1.3456
16638,14.597,4.8182,0,0.00021518,2150.3,7.1929e-05,11.025,7.0462e-05,0.00014181,-0.00021499,-2144.8,1.345
16639,14.69,4.7273,0,0.00021279,2126.4,7.1147e-05,11.09,6.9671e-05,0.0008303,-0.0002126,-2120.9,1.3589
16640,14.597,4.7273,0.05,8.178e-07,8.1723,6.2796e-07,4.7183,4.5903e-12,5.5108e-06,-6.2797e-07,-4.7183,1.3452
16641,14.597,5,0,0.0002153,2151.6,7.2016e-05,11.569,7.0476e-05,-0.0010782,-0.0002151,-2145.7,1.3445
16642,14.69,4.9091,0,0.00021291,2127.6,7.1227e-05,11.584,6.9686e-05,-0.00042586,-0.00021271,-2121.8,1.3585
16643,14.597,4.9091,0.05,8.1763e-07,8.1707,6.2784e-07,4.7173,4.5868e-12,5.4975e-06,-6.2785e-07,-4.7174,1.3447
16644,14.597,5.1818,0,0.00021544,2152.9,7.2111e-05,12.162,7.0492e-05,-0.0023818,-0.00021523,-2146.8,1.3439
16645,14.69,5.0909,0,0.00021304,2128.9,7.1316e-05,12.126,6.9702e-05,-0.0016683,-0.00021283,-2122.8,1.358
16646,14.597,5.0909,0.05,8.1744e-07,8.1688,6.2769e-07,4.7162,3.6757e-12,4.3495e-06,-6.277e-07,-4.7163,1.3442
16647,14.597,5.3636,0,0.00021559,2154.4,7.2215e-05,12.806,7.051e-05,-0.0034315,-0.00021537,-2148,1.3433
16648,14.69,5.2727,0,0.00021318,2130.4,7.1412e-05,12.716,6.9719e-05,-0.0031081,-0.00021296,-2124,1.3574
16649,14.597,5.2727,0.05,8.1704e-07,8.1647,6.2738e-07,4.7138,3.6733e-12,5.2509e-06,-6.2739e-07,-4.714,1.3436
16650,14.597,5.5455,0,0.00021576,2156.2,7.2333e-05,13.546,7.053e-05,-0.0060243,-0.00021553,-2149.4,1.3427
16651,14.69,5.4545,0,0.00021334,2131.9,7.1517e-05,13.357,6.9739e-05,-0.0038289,-0.00021311,-2125.2,1.3568
16652,14.597,5.4545,0.05,8.135e-07,8.1294,6.2466e-07,4.6934,3.6548e-12,5.4671e-06,-6.2467e-07,-4.6936,1.343
16653,14.597,5.7273,0,0.00021608,2159.3,7.2575e-05,15.199,7.0551e-05,-0.0049786,-0.00021582,-2151.7,1.342
16654,14.69,5.6364,0,0.00021352,2133.8,7.1643e-05,14.143,6.976e-05,-0.0084183,-0.00021328,-2126.6,1.3561
16655,14.597,5.6364,0.05,7.6221e-07,7.6168,5.8528e-07,4.3975,3.6485e-12,6.4101e-06,-5.8529e-07,-4.3977,1.3424
16656,14.69,5.8182,0,0.00021398,2138.3,7.2008e-05,16.706,6.9784e-05,-0.00067172,-0.00021369,-2129.9,1.3554
16657,14.597,5.8182,0.05,2.7161e-08,0.27143,2.0854e-08,0.15666,-2.5275e-12,-4.8487e-05,-2.0859e-08,-0.15676,1.3416
16658,14.597,5.9091,0,0.00021552,2153.7,7.2044e-05,11.052,7.0573e-05,-0.0032613,-0.00021533,-2148.2,1.3413
16659,14.782,0.27273,0,0.00021141,2112.6,7.106e-05,15.531,6.8993e-05,-0.005184,-0.00021114,-2104.8,1.3696
16660,14.874,0.18182,0,0.00020932,2091.7,7.0496e-05,17.023,6.823e-05,-0.00055541,-0.00020902,-2083.2,1.3831
16661,14.782,0.18182,0.05,2.8529e-08,0.2851,2.1908e-08,0.16464,1.931e-12,4.7777e-05,-2.1907e-08,-0.16456,1.3692
16662,14.782,0.090909,0,0.00021083,2106.9,7.0514e-05,11.256,6.9016e-05,-0.0033793,-0.00021064,-2101.2,1.3689
16663,14.782,0.45455,0,0.00021109,2109.5,7.0823e-05,13.923,6.8969e-05,-0.0063186,-0.00021085,-2102.5,1.3703
16664,14.874,0.36364,0,0.00020886,2087.2,7.0133e-05,14.49,6.8204e-05,-0.0088787,-0.00020861,-2079.9,1.3838
16665,14.782,0.36364,0.05,7.5886e-07,7.5833,5.8271e-07,4.3783,-3.6337e-12,3.7216e-06,-5.827e-07,-4.3782,1.3699
16666,14.782,0.63636,0,0.00021092,2107.8,7.0711e-05,13.239,6.8948e-05,-0.0035297,-0.0002107,-2101.1,1.3709
16667,14.874,0.54545,0,0.00020868,2085.3,7.0013e-05,13.759,6.8181e-05,-0.003956,-0.00020844,-2078.4,1.3844
16668,14.782,0.54545,0.05,8.0997e-07,8.0941,6.2196e-07,4.6732,-2.7416e-12,2.0043e-06,-6.2195e-07,-4.6731,1.3706
16669,14.782,0.81818,0,0.00021078,2106.3,7.0613e-05,12.652,6.8929e-05,-0.0024103,-0.00021056,-2100,1.3715
16670,14.874,0.72727,0,0.00020853,2083.8,6.9914e-05,13.174,6.816e-05,-0.0031874,-0.0002083,-2077.2,1.385
16671,14.782,0.72727,0.05,8.1348e-07,8.1292,6.2466e-07,4.6935,-1.8521e-12,3.0177e-06,-6.2465e-07,-4.6934,1.3712
16672,14.782,1,0,0.00021064,2105,7.0523e-05,12.113,6.8911e-05,-0.0010286,-0.00021043,-2098.9,1.372
16673,14.874,0.90909,0,0.00020839,2082.4,6.9823e-05,12.639,6.814e-05,-0.0016594,-0.00020817,-2076.1,1.3856
16674,14.782,0.90909,0.05,8.1388e-07,8.1332,6.2496e-07,4.6957,-9.464e-13,3.1126e-06,-6.2496e-07,-4.6957,1.3717
16675,14.782,1.1818,0,0.00021052,2103.7,7.0442e-05,11.621,6.8895e-05,0.00025465,-0.00021032,-2097.9,1.3725
16676,14.874,1.0909,0,0.00020826,2081.2,6.974e-05,12.149,6.8123e-05,-0.00035205,-0.00020805,-2075.1,1.3861
16677,14.782,1.0909,0.05,8.1406e-07,8.135,6.251e-07,4.6968,-2.768e-12,3.1453e-06,-6.251e-07,-4.6967,1.3722
16678,14.782,1.3636,0,0.00021041,2102.6,7.0368e-05,11.175,6.8881e-05,0.001512,-0.00021022,-2097,1.3729
16679,14.874,1.2727,0,0.00020814,2080,6.9665e-05,11.704,6.8107e-05,0.00096081,-0.00020794,-2074.1,1.3865
16680,14.782,1.2727,0.05,8.1422e-07,8.1366,6.2522e-07,4.6977,-4.3637e-14,2.6058e-06,-6.2522e-07,-4.6976,1.3727
16681,14.782,1.5455,0,0.00021031,2101.6,7.0302e-05,10.775,6.8868e-05,0.0027042,-0.00021012,-2096.2,1.3733
16682,14.874,1.4545,0,0.00020804,2079,6.9597e-05,11.304,6.8093e-05,0.0022048,-0.00020785,-2073.3,1.3869
16683,14.782,1.4545,0.05,8.1436e-07,8.138,6.2533e-07,4.6985,-9.5289e-13,2.605e-06,-6.2532e-07,-4.6984,1.3731
16684,14.782,1.7273,0,0.00021022,2100.8,7.0243e-05,10.422,6.8857e-05,0.0038203,-0.00021004,-2095.5,1.3737
16685,14.874,1.6364,0,0.00020795,2078.1,6.9537e-05,10.949,6.808e-05,0.0033748,-0.00020776,-2072.6,1.3873
16686,14.782,1.6364,0.05,8.1448e-07,8.1392,6.2542e-07,4.6992,-4.2207e-14,2.7216e-06,-6.2542e-07,-4.6991,1.3735
16687,14.782,1.9091,0,0.00021015,2100,7.0193e-05,10.116,6.8847e-05,0.0048411,-0.00020997,-2094.9,1.374
16688,14.874,1.8182,0,0.00020787,2077.3,6.9485e-05,10.638,6.807e-05,0.0044538,-0.00020769,-2071.9,1.3876
16689,14.782,1.8182,0.05,8.1459e-07,8.1403,6.255e-07,4.6998,-3.6177e-14,1.9009e-06,-6.255e-07,-4.6998,1.3738
16690,14.782,2.0909,0,0.00021008,2099.4,7.015e-05,9.8564,6.8839e-05,0.0057469,-0.00020991,-2094.4,1.3742
16691,14.874,2,0,0.0002078,2076.6,6.944e-05,10.371,6.806e-05,0.0054221,-0.00020762,-2071.4,1.3879
16692,14.782,2,0.05,8.1468e-07,8.1412,6.2557e-07,4.7003,-3.4762e-14,2.3011e-06,-6.2557e-07,-4.7003,1.3741
16693,14.782,2.2727,0,0.00021003,2098.9,7.0115e-05,9.6439,6.8832e-05,0.0065177,-0.00020987,-2094,1.3744
16694,14.874,2.1818,0,0.00020774,2076,6.9403e-05,10.149,6.8053e-05,0.0062617,-0.00020757,-2070.9,1.3881
16695,14.782,2.1818,0.05,8.1476e-07,8.1419,6.2563e-07,4.7008,-2.9511e-14,2.6431e-06,-6.2563e-07,-4.7008,1.3743
16696,14.782,2.4545,0,0.00020999,2098.5,7.0088e-05,9.4786,6.8827e-05,0.0071386,-0.00020983,-2093.7,1.3746
16697,14.874,2.3636,0,0.0002077,2075.6,6.9373e-05,9.972,6.8047e-05,0.0069555,-0.00020753,-2070.5,1.3883
16698,14.782,2.3636,0.05,8.1482e-07,8.1426,6.2568e-07,4.7011,-2.421e-14,2.3829e-06,-6.2568e-07,-4.7011,1.3745
16699,14.782,2.6364,0,0.00020996,2098.2,7.0069e-05,9.3604,6.8824e-05,0.0075939,-0.0002098,-2093.5,1.3747
16700,14.874,2.5455,0,0.00020766,2075.2,6.935e-05,9.839,6.8042e-05,0.0074918,-0.0002075,-2070.3,1.3884
16701,14.782,2.5455,0.05,8.1486e-07,8.143,6.2572e-07,4.7014,-1.7406e-14,2.6703e-06,-6.2571e-07,-4.7014,1.3746
16702,14.782,2.8182,0,0.00020994,2098,7.0057e-05,9.2895,6.8822e-05,0.0078713,-0.00020978,-2093.3,1.3748
16703,14.874,2.7273,0,0.00020764,2075,6.9336e-05,9.7503,6.8039e-05,0.0078551,-0.00020747,-2070.1,1.3885
16704,14.782,2.7273,0.05,8.149e-07,8.1433,6.2574e-07,4.7015,1.8085e-12,2.0068e-06,-6.2574e-07,-4.7016,1.3747
16705,14.782,3,0,0.00020994,2097.9,7.0053e-05,9.2658,6.8821e-05,0.0079645,-0.00020978,-2093.3,1.3748
16706,14.874,2.9091,0,0.00020763,2074.9,6.9328e-05,9.706,6.8037e-05,0.0080393,-0.00020746,-2070,1.3886
16707,14.782,2.9091,0.05,8.1491e-07,8.1435,6.2575e-07,4.7016,1.8154e-12,2.715e-06,-6.2575e-07,-4.7017,1.3748
16708,14.782,3.1818,0,0.00020994,2098,7.0057e-05,9.2895,6.8822e-05,0.0078712,-0.00020978,-2093.3,1.3748
16709,14.874,3.0909,0,0.00020763,2074.9,6.9328e-05,9.706,6.8037e-05,0.0080384,-0.00020746,-2070,1.3886
16710,14.782,3.0909,0.05,8.1491e-07,8.1435,6.2575e-07,4.7016,1.8226e-12,1.9344e-06,-6.2575e-07,-4.7017,1.3748
16711,14.782,3.3636,0,0.00020996,2098.2,7.0069e-05,9.3604,6.8824e-05,0.0075937,-0.0002098,-2093.5,1.3747
16712,14.874,3.2727,0,0.00020764,2075,6.9336e-05,9.7503,6.8039e-05,0.007856,-0.00020747,-2070.1,1.3885
16713,14.782,3.2727,0.05,8.149e-07,8.1433,6.2574e-07,4.7015,2.7392e-12,2.7626e-06,-6.2574e-07,-4.7016,1.3747
16714,14.782,3.5455,0,0.00020999,2098.5,7.0088e-05,9.4786,6.8827e-05,0.0071383,-0.00020983,-2093.7,1.3746
16715,14.874,3.4545,0,0.00020766,2075.2,6.935e-05,9.839,6.8042e-05,0.0074916,-0.0002075,-2070.3,1.3884
16716,14.782,3.4545,0.05,8.1486e-07,8.143,6.2571e-07,4.7013,9.2699e-13,2.7543e-06,-6.2572e-07,-4.7014,1.3746
16717,14.782,3.7273,0,0.00021003,2098.9,7.0115e-05,9.644,6.8832e-05,0.0065174,-0.00020987,-2094,1.3744
16718,14.874,3.6364,0,0.0002077,2075.6,6.9373e-05,9.9721,6.8047e-05,0.0069559,-0.00020753,-2070.5,1.3883
16719,14.782,3.6364,0.05,8.1482e-07,8.1426,6.2568e-07,4.701,3.6625e-12,3.5755e-06,-6.2568e-07,-4.7012,1.3745
16720,14.782,3.9091,0,0.00021008,2099.4,7.015e-05,9.8564,6.8839e-05,0.0057457,-0.00020991,-2094.4,1.3742
16721,14.874,3.8182,0,0.00020774,2076,6.9403e-05,10.149,6.8053e-05,0.006261,-0.00020757,-2070.9,1.3881
16722,14.782,3.8182,0.05,8.1476e-07,8.1419,6.2563e-07,4.7007,3.6684e-12,4.0349e-06,-6.2563e-07,-4.7008,1.3743
16723,14.782,4.0909,0,0.00021015,2100,7.0193e-05,10.116,6.8847e-05,0.0048405,-0.00020997,-2094.9,1.374
16724,14.874,4,0,0.0002078,2076.6,6.944e-05,10.371,6.806e-05,0.0054219,-0.00020762,-2071.4,1.3879
16725,14.782,4,0.05,8.1468e-07,8.1412,6.2557e-07,4.7002,3.6753e-12,3.8451e-06,-6.2558e-07,-4.7004,1.3741
16726,14.782,4.2727,0,0.00021022,2100.8,7.0243e-05,10.422,6.8857e-05,0.0038203,-0.00021004,-2095.5,1.3737
16727,14.874,4.1818,0,0.00020787,2077.3,6.9485e-05,10.638,6.807e-05,0.0044535,-0.00020769,-2071.9,1.3876
16728,14.782,4.1818,0.05,8.1459e-07,8.1403,6.255e-07,4.6997,3.677e-12,3.2068e-06,-6.255e-07,-4.6998,1.3738
16729,14.782,4.4545,0,0.00021031,2101.6,7.0302e-05,10.775,6.8868e-05,0.0027034,-0.00021012,-2096.2,1.3733
16730,14.874,4.3636,0,0.00020795,2078.1,6.9537e-05,10.949,6.808e-05,0.0033754,-0.00020776,-2072.6,1.3873
16731,14.782,4.3636,0.05,8.1448e-07,8.1392,6.2541e-07,4.6991,2.7718e-12,4.664e-06,-6.2542e-07,-4.6992,1.3735
16732,14.782,4.6364,0,0.00021041,2102.6,7.0368e-05,11.175,6.8881e-05,0.0015107,-0.00021022,-2097,1.3729
16733,14.874,4.5455,0,0.00020804,2079,6.9597e-05,11.304,6.8093e-05,0.0022034,-0.00020785,-2073.3,1.3869
16734,14.782,4.5455,0.05,8.1436e-07,8.1379,6.2532e-07,4.6984,3.6825e-12,3.453e-06,-6.2533e-07,-4.6985,1.3731
16735,14.782,4.8182,0,0.00021052,2103.7,7.0442e-05,11.621,6.8895e-05,0.00025462,-0.00021032,-2097.9,1.3725
16736,14.874,4.7273,0,0.00020814,2080,6.9665e-05,11.704,6.8107e-05,0.000961,-0.00020794,-2074.1,1.3865
16737,14.782,4.7273,0.05,8.1422e-07,8.1366,6.2522e-07,4.6976,3.6828e-12,4.7127e-06,-6.2522e-07,-4.6977,1.3727
16738,14.782,5,0,0.00021064,2105,7.0523e-05,12.114,6.8911e-05,-0.0010289,-0.00021043,-2098.9,1.372
16739,14.874,4.9091,0,0.00020826,2081.2,6.974e-05,12.149,6.8123e-05,-0.00035313,-0.00020805,-2075.1,1.3861
16740,14.782,4.9091,0.05,8.1406e-07,8.135,6.251e-07,4.6967,3.682e-12,4.6114e-06,-6.251e-07,-4.6968,1.3722
16741,14.782,5.1818,0,0.00021078,2106.3,7.0613e-05,12.652,6.8929e-05,-0.0024123,-0.00021056,-2100,1.3715
16742,14.874,5.0909,0,0.00020839,2082.4,6.9823e-05,12.639,6.814e-05,-0.0016603,-0.00020817,-2076.1,1.3856
16743,14.782,5.0909,0.05,8.1388e-07,8.1332,6.2496e-07,4.6956,4.5826e-12,3.5766e-06,-6.2497e-07,-4.6958,1.3717
16744,14.782,5.3636,0,0.00021092,2107.8,7.0711e-05,13.239,6.8948e-05,-0.0035312,-0.0002107,-2101.1,1.3709
16745,14.874,5.2727,0,0.00020853,2083.8,6.9914e-05,13.174,6.816e-05,-0.00319,-0.0002083,-2077.2,1.385
16746,14.782,5.2727,0.05,8.1348e-07,8.1292,6.2465e-07,4.6933,3.6698e-12,4.714e-06,-6.2466e-07,-4.6935,1.3712
16747,14.782,5.5455,0,0.00021109,2109.5,7.0823e-05,13.923,6.8969e-05,-0.0063184,-0.00021085,-2102.5,1.3703
16748,14.874,5.4545,0,0.00020868,2085.3,7.0013e-05,13.76,6.8181e-05,-0.0039566,-0.00020844,-2078.4,1.3844
16749,14.782,5.4545,0.05,8.0997e-07,8.0941,6.2195e-07,4.6731,7.2929e-12,4.8654e-06,-6.2196e-07,-4.6732,1.3706
16750,14.782,5.7273,0,0.00021141,2112.6,7.106e-05,15.531,6.8993e-05,-0.0051838,-0.00021114,-2104.8,1.3696
16751,14.874,5.6364,0,0.00020886,2087.2,7.0133e-05,14.49,6.8204e-05,-0.008878,-0.00020861,-2079.9,1.3838
16752,14.782,5.6364,0.05,7.5886e-07,7.5833,5.827e-07,4.3782,3.6578e-12,5.5466e-06,-5.8271e-07,-4.3783,1.3699
16753,14.874,5.8182,0,0.00020932,2091.7,7.0496e-05,17.023,6.823e-05,-0.00055566,-0.00020902,-2083.2,1.3831
16754,14.782,5.8182,0.05,2.853e-08,0.2851,2.1906e-08,0.16456,-1.7586e-12,-4.2987e-05,-2.1909e-08,-0.16464,1.3692
16755,14.782,5.9091,0,0.00021083,2106.9,7.0514e-05,11.256,6.9016e-05,-0.0033785,-0.00021064,-2101.2,1.3689
16756,14.966,0.27273,0,0.00020675,2066.1,6.9553e-05,15.861,6.7441e-05,-0.0053965,-0.00020648,-2058.1,1.3973
16757,15.058,0.18182,0,0.00020468,2045.4,6.899e-05,17.34,6.6682e-05,-0.00044899,-0.00020438,-2036.6,1.4109
16758,14.966,0.18182,0.05,2.9712e-08,0.29692,2.2817e-08,0.17144,2.5414e-12,1.9125e-05,-2.2814e-08,-0.17141,1.3969
16759,14.966,0.090909,0,0.00020616,2060.2,6.8991e-05,11.461,6.7466e-05,-0.0035045,-0.00020597,-2054.5,1.3966
16760,14.966,0.45455,0,0.00020644,2063,6.9319e-05,14.295,6.7416e-05,-0.0066149,-0.00020619,-2055.8,1.398
16761,15.058,0.36364,0,0.00020422,2040.8,6.863e-05,14.834,6.6654e-05,-0.009331,-0.00020396,-2033.3,1.4115
16762,14.966,0.36364,0.05,7.5554e-07,7.5502,5.8016e-07,4.3592,-2.7434e-12,5.7112e-06,-5.8016e-07,-4.3591,1.3976
16763,14.966,0.63636,0,0.00020628,2061.3,6.9212e-05,13.665,6.7393e-05,-0.0036377,-0.00020604,-2054.5,1.3986
16764,15.058,0.54545,0,0.00020404,2039,6.8515e-05,14.157,6.663e-05,-0.0040846,-0.00020379,-2031.9,1.4122
16765,14.966,0.54545,0.05,8.0647e-07,8.0591,6.1927e-07,4.653,-3.6686e-12,7.6516e-06,-6.1926e-07,-4.6529,1.3983
16766,14.966,0.81818,0,0.00020613,2059.9,6.912e-05,13.132,6.7372e-05,-0.0024514,-0.00020591,-2053.3,1.3991
16767,15.058,0.72727,0,0.00020389,2037.5,6.8421e-05,13.624,6.6607e-05,-0.003272,-0.00020365,-2030.6,1.4128
16768,14.966,0.72727,0.05,8.0996e-07,8.094,6.2195e-07,4.6731,-3.6419e-14,6.0853e-06,-6.2195e-07,-4.6731,1.3988
16769,14.966,1,0,0.000206,2058.6,6.9036e-05,12.646,6.7353e-05,-0.00099241,-0.00020578,-2052.2,1.3997
16770,15.058,0.90909,0,0.00020375,2036.1,6.8336e-05,13.142,6.6586e-05,-0.0016559,-0.00020353,-2029.5,1.4133
16771,14.966,0.90909,0.05,8.1035e-07,8.0979,6.2225e-07,4.6754,-1.8734e-12,4.5253e-06,-6.2225e-07,-4.6753,1.3994
16772,14.966,1.1818,0,0.00020588,2057.4,6.8959e-05,12.204,6.7335e-05,0.00035,-0.00020567,-2051.3,1.4001
16773,15.058,1.0909,0,0.00020363,2034.9,6.8258e-05,12.703,6.6567e-05,-0.00028495,-0.00020341,-2028.5,1.4138
16774,14.966,1.0909,0.05,8.1053e-07,8.0997,6.2239e-07,4.6764,-2.781e-12,3.4257e-06,-6.2238e-07,-4.6763,1.3999
16775,14.966,1.3636,0,0.00020577,2056.3,6.889e-05,11.805,6.7319e-05,0.0016555,-0.00020557,-2050.4,1.4006
16776,15.058,1.2727,0,0.00020352,2033.8,6.8188e-05,12.306,6.655e-05,0.0010812,-0.0002033,-2027.6,1.4142
16777,14.966,1.2727,0.05,8.1067e-07,8.1012,6.225e-07,4.6772,-1.8727e-12,3.0589e-06,-6.225e-07,-4.6772,1.4003
16778,14.966,1.5455,0,0.00020568,2055.3,6.8829e-05,11.449,6.7306e-05,0.0028837,-0.00020548,-2049.6,1.4009
16779,15.058,1.4545,0,0.00020342,2032.8,6.8125e-05,11.951,6.6535e-05,0.0023662,-0.00020321,-2026.8,1.4146
16780,14.966,1.4545,0.05,8.1081e-07,8.1025,6.226e-07,4.678,-5.284e-14,3.0389e-06,-6.226e-07,-4.678,1.4007
16781,14.966,1.7273,0,0.00020559,2054.5,6.8775e-05,11.136,6.7293e-05,0.0040233,-0.0002054,-2048.9,1.4013
16782,15.058,1.6364,0,0.00020333,2031.9,6.8069e-05,11.637,6.6521e-05,0.0035658,-0.00020313,-2026,1.415
16783,14.966,1.6364,0.05,8.1093e-07,8.1037,6.2269e-07,4.6787,-4.8952e-14,3.3262e-06,-6.2269e-07,-4.6786,1.4011
16784,14.966,1.9091,0,0.00020552,2053.8,6.8728e-05,10.865,6.7283e-05,0.0050567,-0.00020533,-2048.3,1.4016
16785,15.058,1.8182,0,0.00020325,2031.1,6.8021e-05,11.363,6.6509e-05,0.0046627,-0.00020305,-2025.4,1.4153
16786,14.966,1.8182,0.05,8.1103e-07,8.1047,6.2277e-07,4.6792,-4.7938e-14,2.7614e-06,-6.2277e-07,-4.6792,1.4014
16787,14.966,2.0909,0,0.00020546,2053.2,6.8689e-05,10.636,6.7274e-05,0.0059656,-0.00020527,-2047.8,1.4018
16788,15.058,2,0,0.00020318,2030.4,6.798e-05,11.13,6.6499e-05,0.0056391,-0.00020299,-2024.8,1.4156
16789,14.966,2,0.05,8.1112e-07,8.1056,6.2284e-07,4.6798,-4.0272e-14,2.7425e-06,-6.2284e-07,-4.6797,1.4017
16790,14.966,2.2727,0,0.00020541,2052.7,6.8657e-05,10.45,6.7267e-05,0.0067346,-0.00020523,-2047.4,1.402
16791,15.058,2.1818,0,0.00020313,2029.9,6.7945e-05,10.936,6.6491e-05,0.0064802,-0.00020294,-2024.4,1.4158
16792,14.966,2.1818,0.05,8.1119e-07,8.1063,6.2289e-07,4.6802,8.7526e-13,3.1921e-06,-6.2289e-07,-4.6802,1.4019
16793,14.966,2.4545,0,0.00020537,2052.3,6.8632e-05,10.305,6.7261e-05,0.0073492,-0.00020519,-2047.1,1.4022
16794,15.058,2.3636,0,0.00020309,2029.4,6.7918e-05,10.781,6.6484e-05,0.0071714,-0.0002029,-2024,1.416
16795,14.966,2.3636,0.05,8.1125e-07,8.1069,6.2294e-07,4.6805,8.8195e-13,3.0772e-06,-6.2294e-07,-4.6805,1.4021
16796,14.966,2.6364,0,0.00020534,2052,6.8614e-05,10.201,6.7257e-05,0.0077977,-0.00020516,-2046.9,1.4023
16797,15.058,2.5455,0,0.00020305,2029.1,6.7897e-05,10.665,6.6479e-05,0.0077018,-0.00020287,-2023.8,1.4161
16798,14.966,2.5455,0.05,8.1129e-07,8.1073,6.2297e-07,4.6808,-1.9997e-14,3.0676e-06,-6.2297e-07,-4.6808,1.4022
16799,14.966,2.8182,0,0.00020532,2051.8,6.8603e-05,10.139,6.7255e-05,0.0080705,-0.00020515,-2046.7,1.4024
16800,15.058,2.7273,0,0.00020303,2028.9,6.7884e-05,10.588,6.6476e-05,0.0080603,-0.00020285,-2023.6,1.4162
16801,14.966,2.7273,0.05,8.1132e-07,8.1076,6.23e-07,4.6809,-1.2185e-14,2.4708e-06,-6.2299e-07,-4.681,1.4023
16802,14.966,3,0,0.00020532,2051.8,6.8599e-05,10.118,6.7254e-05,0.0081615,-0.00020514,-2046.7,1.4024
16803,15.058,2.9091,0,0.00020302,2028.8,6.7877e-05,10.55,6.6474e-05,0.0082416,-0.00020284,-2023.5,1.4162
16804,14.966,2.9091,0.05,8.1134e-07,8.1078,6.23e-07,4.681,9.0536e-13,2.8894e-06,-6.2301e-07,-4.6811,1.4024
16805,14.966,3.1818,0,0.00020532,2051.8,6.8603e-05,10.139,6.7255e-05,0.0080706,-0.00020515,-2046.7,1.4024
16806,15.058,3.0909,0,0.00020302,2028.8,6.7877e-05,10.55,6.6474e-05,0.0082411,-0.00020284,-2023.5,1.4162
16807,14.966,3.0909,0.05,8.1134e-07,8.1078,6.23e-07,4.681,9.1365e-13,2.6539e-06,-6.2301e-07,-4.6811,1.4024
16808,14.966,3.3636,0,0.00020534,2052,6.8614e-05,10.201,6.7257e-05,0.0077986,-0.00020516,-2046.9,1.4023
16809,15.058,3.2727,0,0.00020303,2028.9,6.7884e-05,10.588,6.6476e-05,0.0080606,-0.00020285,-2023.6,1.4162
16810,14.966,3.2727,0.05,8.1132e-07,8.1076,6.23e-07,4.6809,1.2394e-14,3.3107e-06,-6.2299e-07,-4.681,1.4023
16811,14.966,3.5455,0,0.00020537,2052.3,6.8632e-05,10.305,6.7261e-05,0.0073497,-0.00020519,-2047.1,1.4022
16812,15.058,3.4545,0,0.00020305,2029.1,6.7897e-05,10.665,6.6479e-05,0.0077023,-0.00020287,-2023.8,1.4161
16813,14.966,3.4545,0.05,8.1129e-07,8.1073,6.2297e-07,4.6808,2.0102e-14,3.4304e-06,-6.2298e-07,-4.6808,1.4022
16814,14.966,3.7273,0,0.00020541,2052.7,6.8657e-05,10.45,6.7267e-05,0.0067345,-0.00020523,-2047.4,1.402
16815,15.058,3.6364,0,0.00020309,2029.4,6.7918e-05,10.781,6.6484e-05,0.0071712,-0.0002029,-2024,1.416
16816,14.966,3.6364,0.05,8.1125e-07,8.1069,6.2294e-07,4.6805,3.6649e-12,3.8405e-06,-6.2294e-07,-4.6805,1.4021
16817,14.966,3.9091,0,0.00020546,2053.2,6.8689e-05,10.636,6.7274e-05,0.0059658,-0.00020527,-2047.8,1.4018
16818,15.058,3.8182,0,0.00020313,2029.9,6.7945e-05,10.936,6.6491e-05,0.0064798,-0.00020294,-2024.4,1.4158
16819,14.966,3.8182,0.05,8.1119e-07,8.1063,6.2289e-07,4.6801,2.7644e-12,4.6724e-06,-6.2289e-07,-4.6802,1.4019
16820,14.966,4.0909,0,0.00020552,2053.8,6.8728e-05,10.865,6.7283e-05,0.0050569,-0.00020533,-2048.3,1.4016
16821,15.058,4,0,0.00020318,2030.4,6.798e-05,11.13,6.6499e-05,0.00564,-0.00020299,-2024.8,1.4156
16822,14.966,4,0.05,8.1112e-07,8.1056,6.2284e-07,4.6797,2.77e-12,4.0565e-06,-6.2284e-07,-4.6798,1.4017
16823,14.966,4.2727,0,0.00020559,2054.5,6.8775e-05,11.136,6.7293e-05,0.0040236,-0.0002054,-2048.9,1.4013
16824,15.058,4.1818,0,0.00020325,2031.1,6.8021e-05,11.363,6.6509e-05,0.0046625,-0.00020305,-2025.4,1.4153
16825,14.966,4.1818,0.05,8.1103e-07,8.1047,6.2277e-07,4.6792,2.7737e-12,3.8638e-06,-6.2277e-07,-4.6793,1.4014
16826,14.966,4.4545,0,0.00020568,2055.3,6.8829e-05,11.449,6.7306e-05,0.0028836,-0.00020548,-2049.6,1.4009
16827,15.058,4.3636,0,0.00020333,2031.9,6.8069e-05,11.637,6.6521e-05,0.0035658,-0.00020313,-2026,1.415
16828,14.966,4.3636,0.05,8.1093e-07,8.1037,6.2269e-07,4.6786,3.6881e-12,5.4491e-06,-6.2269e-07,-4.6787,1.4011
16829,14.966,4.6364,0,0.00020577,2056.3,6.889e-05,11.805,6.7319e-05,0.0016555,-0.00020557,-2050.4,1.4006
16830,15.058,4.5455,0,0.00020342,2032.8,6.8125e-05,11.951,6.6535e-05,0.0023661,-0.00020321,-2026.8,1.4146
16831,14.966,4.5455,0.05,8.1081e-07,8.1025,6.226e-07,4.6779,3.6897e-12,3.9651e-06,-6.226e-07,-4.678,1.4007
16832,14.966,4.8182,0,0.00020588,2057.4,6.8959e-05,12.204,6.7335e-05,0.00034913,-0.00020567,-2051.3,1.4001
16833,15.058,4.7273,0,0.00020352,2033.8,6.8188e-05,12.306,6.655e-05,0.0010815,-0.0002033,-2027.6,1.4142
16834,14.966,4.7273,0.05,8.1067e-07,8.1012,6.2249e-07,4.6772,3.6899e-12,5.5273e-06,-6.225e-07,-4.6773,1.4003
16835,14.966,5,0,0.000206,2058.6,6.9036e-05,12.646,6.7353e-05,-0.00099419,-0.00020578,-2052.2,1.3997
16836,15.058,4.9091,0,0.00020363,2034.9,6.8258e-05,12.703,6.6567e-05,-0.00028675,-0.00020341,-2028.5,1.4138
16837,14.966,4.9091,0.05,8.1053e-07,8.0997,6.2238e-07,4.6763,3.686e-12,5.0903e-06,-6.2239e-07,-4.6764,1.3999
16838,14.966,5.1818,0,0.00020613,2059.9,6.912e-05,13.132,6.7372e-05,-0.002453,-0.00020591,-2053.3,1.3991
16839,15.058,5.0909,0,0.00020375,2036.1,6.8336e-05,13.142,6.6586e-05,-0.001657,-0.00020353,-2029.5,1.4133
16840,14.966,5.0909,0.05,8.1035e-07,8.0979,6.2225e-07,4.6753,3.6837e-12,4.3762e-06,-6.2225e-07,-4.6754,1.3994
16841,14.966,5.3636,0,0.00020628,2061.3,6.9212e-05,13.665,6.7393e-05,-0.0036392,-0.00020604,-2054.5,1.3986
16842,15.058,5.2727,0,0.00020389,2037.5,6.8421e-05,13.624,6.6607e-05,-0.0032738,-0.00020365,-2030.6,1.4128
16843,14.966,5.2727,0.05,8.0996e-07,8.094,6.2195e-07,4.673,3.6795e-12,5.0103e-06,-6.2195e-07,-4.6731,1.3988
16844,14.966,5.5455,0,0.00020644,2063,6.9319e-05,14.295,6.7416e-05,-0.006615,-0.00020619,-2055.8,1.398
16845,15.058,5.4545,0,0.00020404,2039,6.8515e-05,14.157,6.663e-05,-0.0040846,-0.00020379,-2031.9,1.4122
16846,14.966,5.4545,0.05,8.0647e-07,8.0591,6.1926e-07,4.6529,5.4929e-12,5.4843e-06,-6.1927e-07,-4.653,1.3983
16847,14.966,5.7273,0,0.00020675,2066.1,6.9553e-05,15.861,6.7441e-05,-0.0053963,-0.00020648,-2058.1,1.3973
16848,15.058,5.6364,0,0.00020422,2040.8,6.863e-05,14.834,6.6654e-05,-0.0093306,-0.00020396,-2033.3,1.4115
16849,14.966,5.6364,0.05,7.5554e-07,7.5502,5.8016e-07,4.3591,6.3763e-12,6.0282e-06,-5.8017e-07,-4.3592,1.3976
16850,15.058,5.8182,0,0.00020468,2045.4,6.899e-05,17.34,6.6682e-05,-0.00044947,-0.00020438,-2036.6,1.4109
16851,14.966,5.8182,0.05,2.9712e-08,0.29692,2.2816e-08,0.17137,-1.4147e-12,-6.4323e-05,-2.2815e-08,-0.17148,1.3969
16852,14.966,5.9091,0,0.00020616,2060.2,6.8991e-05,11.461,6.7466e-05,-0.0035044,-0.00020597,-2054.5,1.3966
16853,15.15,0.27273,0,0.00020212,2019.8,6.8051e-05,16.191,6.5896e-05,-0.0056028,-0.00020184,-2011.7,1.4252
16854,15.243,0.18182,0,0.00020006,1999.2,6.7492e-05,17.658,6.5142e-05,-0.00034801,-0.00019975,-1990.3,1.4388
16855,15.15,0.18182,0.05,3.0723e-08,0.30702,2.3591e-08,0.1773,1.0759e-12,5.2088e-05,-2.3592e-08,-0.17722,1.4248
16856,15.15,0.090909,0,0.00020152,2013.8,6.7475e-05,11.666,6.5922e-05,-0.0036237,-0.00020132,-2007.9,1.4245
16857,15.15,0.45455,0,0.00020181,2016.7,6.7821e-05,14.663,6.5869e-05,-0.0069026,-0.00020156,-2009.3,1.4258
16858,15.243,0.36364,0,0.00019959,1994.6,6.7133e-05,15.177,6.5112e-05,-0.0097766,-0.00019933,-1986.9,1.4395
16859,15.15,0.36364,0.05,7.5227e-07,7.5175,5.7765e-07,4.3403,-2.7754e-12,6.3151e-06,-5.7765e-07,-4.3402,1.4255
16860,15.15,0.63636,0,0.00020165,2015.1,6.772e-05,14.086,6.5844e-05,-0.0037409,-0.0002014,-2008,1.4264
16861,15.243,0.54545,0,0.00019942,1992.8,6.7023e-05,14.55,6.5086e-05,-0.0042109,-0.00019917,-1985.5,1.4401
16862,15.15,0.54545,0.05,8.0299e-07,8.0244,6.166e-07,4.6329,-1.8517e-12,1.013e-05,-6.166e-07,-4.6328,1.4261
16863,15.15,0.81818,0,0.00020151,2013.7,6.7633e-05,13.605,6.5822e-05,-0.0024887,-0.00020127,-2006.8,1.4269
16864,15.243,0.72727,0,0.00019927,1991.3,6.6934e-05,14.07,6.5061e-05,-0.0033544,-0.00019903,-1984.3,1.4406
16865,15.15,0.72727,0.05,8.0647e-07,8.0591,6.1927e-07,4.653,-9.5732e-13,8.9069e-06,-6.1927e-07,-4.6529,1.4267
16866,15.15,1,0,0.00020138,2012.4,6.7554e-05,13.17,6.5801e-05,-0.00095482,-0.00020115,-2005.8,1.4275
16867,15.243,0.90909,0,0.00019914,1990,6.6854e-05,13.638,6.5039e-05,-0.001652,-0.0001989,-1983.2,1.4412
16868,15.15,0.90909,0.05,8.0685e-07,8.0629,6.1956e-07,4.6552,-1.8708e-12,5.5011e-06,-6.1956e-07,-4.6551,1.4272
16869,15.15,1.1818,0,0.00020126,2011.2,6.7483e-05,12.776,6.5782e-05,0.00044575,-0.00020104,-2004.8,1.4279
16870,15.243,1.0909,0,0.00019902,1988.8,6.6782e-05,13.248,6.5018e-05,-0.0002212,-0.00019879,-1982.1,1.4416
16871,15.15,1.0909,0.05,8.0702e-07,8.0646,6.1969e-07,4.6561,-1.8657e-12,4.3121e-06,-6.1969e-07,-4.6561,1.4277
16872,15.15,1.3636,0,0.00020116,2010.2,6.7418e-05,12.423,6.5765e-05,0.0017976,-0.00020094,-2003.9,1.4283
16873,15.243,1.2727,0,0.00019891,1987.7,6.6716e-05,12.898,6.5e-05,0.0011984,-0.00019869,-1981.2,1.4421
16874,15.15,1.2727,0.05,8.0716e-07,8.0661,6.198e-07,4.657,-9.6158e-13,4.0266e-06,-6.198e-07,-4.6569,1.4281
16875,15.15,1.5455,0,0.00020106,2009.2,6.7361e-05,12.11,6.575e-05,0.0030603,-0.00020085,-2003.2,1.4287
16876,15.243,1.4545,0,0.00019881,1986.7,6.6658e-05,12.587,6.4983e-05,0.0025224,-0.00019859,-1980.4,1.4425
16877,15.15,1.4545,0.05,8.0729e-07,8.0673,6.199e-07,4.6577,-5.1894e-14,4.0576e-06,-6.199e-07,-4.6577,1.4285
16878,15.15,1.7273,0,0.00020098,2008.4,6.7312e-05,11.835,6.5737e-05,0.0042237,-0.00020078,-2002.5,1.4291
16879,15.243,1.6364,0,0.00019872,1985.9,6.6607e-05,12.313,6.4969e-05,0.0037522,-0.00019851,-1979.7,1.4428
16880,15.15,1.6364,0.05,8.074e-07,8.0685,6.1999e-07,4.6584,-4.8546e-14,4.2467e-06,-6.1999e-07,-4.6583,1.4289
16881,15.15,1.9091,0,0.00020091,2007.7,6.7268e-05,11.599,6.5725e-05,0.00527,-0.00020071,-2001.9,1.4293
16882,15.243,1.8182,0,0.00019865,1985.1,6.6562e-05,12.076,6.4956e-05,0.0048667,-0.00019844,-1979.1,1.4431
16883,15.15,1.8182,0.05,8.075e-07,8.0695,6.2006e-07,4.6589,-4.6155e-14,3.3446e-06,-6.2006e-07,-4.6589,1.4292
16884,15.15,2.0909,0,0.00020085,2007.1,6.7232e-05,11.4,6.5716e-05,0.0061846,-0.00020065,-2001.4,1.4296
16885,15.243,2,0,0.00019859,1984.5,6.6524e-05,11.875,6.4945e-05,0.0058536,-0.00019838,-1978.5,1.4434
16886,15.15,2,0.05,8.0759e-07,8.0703,6.2013e-07,4.6594,-4.0727e-14,3.6144e-06,-6.2013e-07,-4.6594,1.4294
16887,15.15,2.2727,0,0.0002008,2006.6,6.7203e-05,11.239,6.5708e-05,0.0069534,-0.00020061,-2001,1.4298
16888,15.243,2.1818,0,0.00019853,1984,6.6493e-05,11.708,6.4936e-05,0.0066977,-0.00019833,-1978.1,1.4436
16889,15.15,2.1818,0.05,8.0766e-07,8.071,6.2018e-07,4.6598,-3.5497e-14,3.7266e-06,-6.2018e-07,-4.6598,1.4297
16890,15.15,2.4545,0,0.00020076,2006.3,6.718e-05,11.113,6.5702e-05,0.0075651,-0.00020057,-2000.7,1.4299
16891,15.243,2.3636,0,0.00019849,1983.5,6.6468e-05,11.576,6.4928e-05,0.0073876,-0.00019829,-1977.7,1.4438
16892,15.15,2.3636,0.05,8.0772e-07,8.0716,6.2023e-07,4.6601,-2.8672e-14,3.8314e-06,-6.2023e-07,-4.6601,1.4298
16893,15.15,2.6364,0,0.00020074,2006,6.7164e-05,11.024,6.5697e-05,0.008009,-0.00020055,-2000.5,1.43
16894,15.243,2.5455,0,0.00019846,1983.2,6.6449e-05,11.477,6.4923e-05,0.0079158,-0.00019826,-1977.5,1.4439
16895,15.15,2.5455,0.05,8.0776e-07,8.072,6.2026e-07,4.6604,-2.0893e-14,4.1351e-06,-6.2026e-07,-4.6604,1.43
16896,15.15,2.8182,0,0.00020072,2005.8,6.7154e-05,10.971,6.5695e-05,0.0082782,-0.00020053,-2000.3,1.4301
16897,15.243,2.7273,0,0.00019844,1983,6.6437e-05,11.411,6.4919e-05,0.0082703,-0.00019824,-1977.3,1.444
16898,15.15,2.7273,0.05,8.0779e-07,8.0723,6.2028e-07,4.6605,1.8064e-12,3.0026e-06,-6.2028e-07,-4.6605,1.4301
16899,15.15,3,0,0.00020072,2005.8,6.7151e-05,10.953,6.5694e-05,0.0083687,-0.00020053,-2000.3,1.4301
16900,15.243,2.9091,0,0.00019843,1982.9,6.6431e-05,11.379,6.4917e-05,0.00845,-0.00019823,-1977.2,1.4441
16901,15.15,2.9091,0.05,8.078e-07,8.0724,6.2029e-07,4.6606,3.6337e-12,3.9015e-06,-6.2029e-07,-4.6606,1.4301
16902,15.15,3.1818,0,0.00020072,2005.8,6.7154e-05,10.971,6.5695e-05,0.0082779,-0.00020053,-2000.3,1.4301
16903,15.243,3.0909,0,0.00019843,1982.9,6.6431e-05,11.379,6.4917e-05,0.0084497,-0.00019823,-1977.2,1.4441
16904,15.15,3.0909,0.05,8.078e-07,8.0724,6.2029e-07,4.6606,3.6423e-12,3.4895e-06,-6.2029e-07,-4.6606,1.4301
16905,15.15,3.3636,0,0.00020074,2006,6.7164e-05,11.024,6.5697e-05,0.0080089,-0.00020055,-2000.5,1.43
16906,15.243,3.2727,0,0.00019844,1983,6.6437e-05,11.411,6.4919e-05,0.0082713,-0.00019824,-1977.3,1.444
16907,15.15,3.2727,0.05,8.0779e-07,8.0723,6.2028e-07,4.6605,3.6509e-12,4.0304e-06,-6.2028e-07,-4.6606,1.4301
16908,15.15,3.5455,0,0.00020076,2006.3,6.718e-05,11.113,6.5702e-05,0.0075649,-0.00020057,-2000.7,1.4299
16909,15.243,3.4545,0,0.00019846,1983.2,6.6449e-05,11.477,6.4923e-05,0.0079156,-0.00019826,-1977.5,1.4439
16910,15.15,3.4545,0.05,8.0776e-07,8.072,6.2026e-07,4.6604,3.6591e-12,3.974e-06,-6.2026e-07,-4.6604,1.43
16911,15.15,3.7273,0,0.0002008,2006.6,6.7203e-05,11.239,6.5708e-05,0.0069529,-0.00020061,-2001,1.4298
16912,15.243,3.6364,0,0.00019849,1983.5,6.6468e-05,11.576,6.4928e-05,0.007388,-0.00019829,-1977.7,1.4438
16913,15.15,3.6364,0.05,8.0772e-07,8.0716,6.2022e-07,4.6601,1.8475e-12,4.681e-06,-6.2023e-07,-4.6602,1.4298
16914,15.15,3.9091,0,0.00020085,2007.1,6.7232e-05,11.4,6.5716e-05,0.0061848,-0.00020065,-2001.4,1.4296
16915,15.243,3.8182,0,0.00019853,1984,6.6493e-05,11.708,6.4936e-05,0.0066971,-0.00019833,-1978.1,1.4436
16916,15.15,3.8182,0.05,8.0766e-07,8.071,6.2018e-07,4.6598,2.7644e-12,5.4624e-06,-6.2018e-07,-4.6598,1.4297
16917,15.15,4.0909,0,0.00020091,2007.7,6.7269e-05,11.599,6.5725e-05,0.0052704,-0.00020071,-2001.9,1.4293
16918,15.243,4,0,0.00019859,1984.5,6.6524e-05,11.875,6.4945e-05,0.0058537,-0.00019838,-1978.5,1.4434
16919,15.15,4,0.05,8.0759e-07,8.0703,6.2013e-07,4.6594,1.861e-12,5.0771e-06,-6.2013e-07,-4.6594,1.4294
16920,15.15,4.2727,0,0.00020098,2008.4,6.7312e-05,11.835,6.5737e-05,0.0042231,-0.00020078,-2002.5,1.4291
16921,15.243,4.1818,0,0.00019865,1985.1,6.6562e-05,12.076,6.4956e-05,0.004866,-0.00019844,-1979.1,1.4431
16922,15.15,4.1818,0.05,8.075e-07,8.0695,6.2006e-07,4.6589,3.6834e-12,4.4184e-06,-6.2006e-07,-4.6589,1.4292
16923,15.15,4.4545,0,0.00020106,2009.2,6.7361e-05,12.11,6.575e-05,0.0030603,-0.00020085,-2003.2,1.4287
16924,15.243,4.3636,0,0.00019872,1985.9,6.6607e-05,12.313,6.4969e-05,0.0037518,-0.00019851,-1979.7,1.4428
16925,15.15,4.3636,0.05,8.074e-07,8.0685,6.1998e-07,4.6583,2.7761e-12,5.8441e-06,-6.1999e-07,-4.6584,1.4289
16926,15.15,4.6364,0,0.00020116,2010.2,6.7418e-05,12.423,6.5765e-05,0.0017977,-0.00020094,-2003.9,1.4283
16927,15.243,4.5455,0,0.00019881,1986.7,6.6658e-05,12.587,6.4983e-05,0.0025227,-0.00019859,-1980.4,1.4425
16928,15.15,4.5455,0.05,8.0729e-07,8.0673,6.199e-07,4.6576,3.6888e-12,4.7007e-06,-6.199e-07,-4.6577,1.4285
16929,15.15,4.8182,0,0.00020126,2011.2,6.7483e-05,12.776,6.5782e-05,0.0004451,-0.00020104,-2004.8,1.4279
16930,15.243,4.7273,0,0.00019891,1987.7,6.6716e-05,12.898,6.5e-05,0.001198,-0.00019869,-1981.2,1.4421
16931,15.15,4.7273,0.05,8.0716e-07,8.0661,6.198e-07,4.6569,3.6913e-12,5.821e-06,-6.198e-07,-4.657,1.4281
16932,15.15,5,0,0.00020138,2012.4,6.7554e-05,13.17,6.5801e-05,-0.00095587,-0.00020115,-2005.8,1.4275
16933,15.243,4.9091,0,0.00019902,1988.8,6.6782e-05,13.248,6.5018e-05,-0.00022112,-0.00019879,-1982.1,1.4416
16934,15.15,4.9091,0.05,8.0702e-07,8.0646,6.1969e-07,4.6561,4.5962e-12,5.8376e-06,-6.1969e-07,-4.6562,1.4277
16935,15.15,5.1818,0,0.00020151,2013.7,6.7633e-05,13.605,6.5822e-05,-0.0024899,-0.00020127,-2006.8,1.4269
16936,15.243,5.0909,0,0.00019914,1990,6.6854e-05,13.638,6.5039e-05,-0.0016549,-0.0001989,-1983.2,1.4412
16937,15.15,5.0909,0.05,8.0685e-07,8.0629,6.1956e-07,4.6551,3.6791e-12,4.7629e-06,-6.1957e-07,-4.6552,1.4272
16938,15.15,5.3636,0,0.00020165,2015.1,6.772e-05,14.086,6.5844e-05,-0.0037411,-0.0002014,-2008,1.4264
16939,15.243,5.2727,0,0.00019927,1991.3,6.6934e-05,14.07,6.5061e-05,-0.0033559,-0.00019903,-1984.3,1.4406
16940,15.15,5.2727,0.05,8.0647e-07,8.0591,6.1926e-07,4.6529,4.5756e-12,5.9144e-06,-6.1927e-07,-4.653,1.4267
16941,15.15,5.5455,0,0.00020181,2016.7,6.7821e-05,14.663,6.5869e-05,-0.006902,-0.00020156,-2009.3,1.4258
16942,15.243,5.4545,0,0.00019942,1992.8,6.7023e-05,14.55,6.5086e-05,-0.0042104,-0.00019917,-1985.5,1.4401
16943,15.15,5.4545,0.05,8.0299e-07,8.0244,6.1659e-07,4.6328,4.5762e-12,5.9759e-06,-6.166e-07,-4.6329,1.4261
16944,15.15,5.7273,0,0.00020212,2019.8,6.8051e-05,16.191,6.5896e-05,-0.0056029,-0.00020184,-2011.7,1.4252
16945,15.243,5.6364,0,0.00019959,1994.6,6.7133e-05,15.177,6.5112e-05,-0.0097755,-0.00019933,-1986.9,1.4395
16946,15.15,5.6364,0.05,7.5227e-07,7.5175,5.7764e-07,4.3401,4.5592e-12,6.9868e-06,-5.7765e-07,-4.3403,1.4255
16947,15.243,5.8182,0,0.00020006,1999.2,6.7492e-05,17.658,6.5142e-05,-0.00034819,-0.00019975,-1990.3,1.4388
16948,15.15,5.8182,0.05,3.0723e-08,0.30702,2.3592e-08,0.17723,-3.1471e-12,-4.8073e-05,-2.3592e-08,-0.17729,1.4248
16949,15.15,5.9091,0,0.00020152,2013.8,6.7475e-05,11.666,6.5922e-05,-0.003624,-0.00020132,-2007.9,1.4245
16950,15.335,0.27273,0,0.00019751,1973.7,6.6557e-05,16.521,6.4357e-05,-0.005813,-0.00019722,-1965.4,1.4531
16951,15.427,0.18182,0,0.00019545,1953.2,6.6e-05,17.978,6.3607e-05,-0.00024894,-0.00019514,-1944.1,1.4669
16952,15.335,0.18182,0.05,3.1577e-08,0.31556,2.4247e-08,0.18221,2.4227e-12,3.5086e-05,-2.4248e-08,-0.18216,1.4528
16953,15.335,0.090909,0,0.00019689,1967.6,6.5966e-05,11.873,6.4385e-05,-0.0037454,-0.00019669,-1961.6,1.4525
16954,15.335,0.45455,0,0.0001972,1970.6,6.633e-05,15.031,6.4329e-05,-0.0071895,-0.00019694,-1963.1,1.4538
16955,15.427,0.36364,0,0.00019499,1948.6,6.5643e-05,15.52,6.3576e-05,-0.010214,-0.00019472,-1940.8,1.4675
16956,15.335,0.36364,0.05,7.4903e-07,7.4851,5.7516e-07,4.3216,3.2922e-15,5.9517e-06,-5.7516e-07,-4.3215,1.4534
16957,15.335,0.63636,0,0.00019704,1969,6.6233e-05,14.504,6.4303e-05,-0.0038444,-0.00019679,-1961.7,1.4544
16958,15.427,0.54545,0,0.00019482,1946.8,6.5537e-05,14.943,6.3548e-05,-0.0043309,-0.00019456,-1939.3,1.4681
16959,15.335,0.54545,0.05,7.9954e-07,7.9899,6.1395e-07,4.613,-3.6457e-14,7.5128e-06,-6.1395e-07,-4.6129,1.454
16960,15.335,0.81818,0,0.0001969,1967.6,6.6152e-05,14.074,6.4278e-05,-0.0025271,-0.00019666,-1960.6,1.4549
16961,15.427,0.72727,0,0.00019467,1945.4,6.5454e-05,14.513,6.3522e-05,-0.0034312,-0.00019442,-1938.1,1.4687
16962,15.335,0.72727,0.05,8.03e-07,8.0245,6.1661e-07,4.633,-3.4384e-14,7.5131e-06,-6.166e-07,-4.6329,1.4546
16963,15.335,1,0,0.00019677,1966.4,6.6078e-05,13.688,6.4256e-05,-0.00092155,-0.00019654,-1959.5,1.4554
16964,15.427,0.90909,0,0.00019454,1944.1,6.5379e-05,14.131,6.3498e-05,-0.0016451,-0.0001943,-1937,1.4692
16965,15.335,0.90909,0.05,8.0338e-07,8.0282,6.169e-07,4.6351,-4.8051e-14,5.813e-06,-6.1689e-07,-4.6351,1.4551
16966,15.335,1.1818,0,0.00019666,1965.3,6.6012e-05,13.341,6.4236e-05,0.0005344,-0.00019643,-1958.5,1.4558
16967,15.427,1.0909,0,0.00019443,1942.9,6.5312e-05,13.789,6.3476e-05,-0.00015477,-0.00019419,-1936,1.4696
16968,15.335,1.0909,0.05,8.0354e-07,8.0299,6.1702e-07,4.6361,-2.7828e-12,4.4003e-06,-6.1702e-07,-4.636,1.4556
16969,15.335,1.3636,0,0.00019656,1964.2,6.5952e-05,13.033,6.4218e-05,0.0019323,-0.00019633,-1957.7,1.4563
16970,15.427,1.2727,0,0.00019432,1941.9,6.5251e-05,13.485,6.3457e-05,0.0013168,-0.00019409,-1935.1,1.4701
16971,15.335,1.2727,0.05,8.0368e-07,8.0313,6.1713e-07,4.6369,-9.7254e-13,3.729e-06,-6.1713e-07,-4.6368,1.456
16972,15.335,1.5455,0,0.00019647,1963.3,6.59e-05,12.761,6.4202e-05,0.0032296,-0.00019625,-1956.9,1.4566
16973,15.427,1.4545,0,0.00019423,1940.9,6.5197e-05,13.216,6.3439e-05,0.002681,-0.000194,-1934.3,1.4705
16974,15.335,1.4545,0.05,8.0381e-07,8.0325,6.1722e-07,4.6376,-5.4159e-14,3.5041e-06,-6.1722e-07,-4.6376,1.4564
16975,15.335,1.7273,0,0.00019639,1962.5,6.5854e-05,12.525,6.4187e-05,0.0044167,-0.00019617,-1956.2,1.457
16976,15.427,1.6364,0,0.00019414,1940.1,6.515e-05,12.982,6.3423e-05,0.0039384,-0.00019392,-1933.6,1.4708
16977,15.335,1.6364,0.05,8.0392e-07,8.0336,6.1731e-07,4.6382,-9.6211e-13,3.7142e-06,-6.1731e-07,-4.6382,1.4568
16978,15.335,1.9091,0,0.00019632,1961.9,6.5814e-05,12.323,6.4175e-05,0.0054776,-0.00019611,-1955.7,1.4572
16979,15.427,1.8182,0,0.00019407,1939.4,6.5109e-05,12.781,6.3409e-05,0.0050728,-0.00019385,-1932.9,1.4711
16980,15.335,1.8182,0.05,8.0401e-07,8.0346,6.1738e-07,4.6388,-4.8118e-14,2.8354e-06,-6.1738e-07,-4.6388,1.4571
16981,15.335,2.0909,0,0.00019626,1961.3,6.5781e-05,12.153,6.4165e-05,0.0063994,-0.00019605,-1955.2,1.4575
16982,15.427,2,0,0.00019401,1938.7,6.5075e-05,12.611,6.3397e-05,0.0060701,-0.00019379,-1932.4,1.4714
16983,15.335,2,0.05,8.0409e-07,8.0354,6.1744e-07,4.6392,8.6685e-13,3.0644e-06,-6.1744e-07,-4.6392,1.4573
16984,15.335,2.2727,0,0.00019622,1960.8,6.5754e-05,12.016,6.4156e-05,0.0071695,-0.00019601,-1954.8,1.4577
16985,15.427,2.1818,0,0.00019396,1938.2,6.5046e-05,12.472,6.3387e-05,0.0069195,-0.00019374,-1932,1.4716
16986,15.335,2.1818,0.05,8.0416e-07,8.0361,6.175e-07,4.6396,-3.7952e-14,3.1717e-06,-6.175e-07,-4.6396,1.4576
16987,15.335,2.4545,0,0.00019618,1960.5,6.5734e-05,11.91,6.4149e-05,0.0077799,-0.00019598,-1954.5,1.4578
16988,15.427,2.3636,0,0.00019392,1937.8,6.5024e-05,12.361,6.338e-05,0.0076114,-0.0001937,-1931.6,1.4717
16989,15.335,2.3636,0.05,8.0422e-07,8.0366,6.1754e-07,4.6399,1.7882e-12,3.3443e-06,-6.1754e-07,-4.6399,1.4577
16990,15.335,2.6364,0,0.00019615,1960.2,6.5719e-05,11.835,6.4145e-05,0.0082217,-0.00019595,-1954.2,1.4579
16991,15.427,2.5455,0,0.00019389,1937.5,6.5007e-05,12.279,6.3374e-05,0.008137,-0.00019367,-1931.3,1.4719
16992,15.335,2.5455,0.05,8.0426e-07,8.037,6.1757e-07,4.6402,-2.241e-14,3.53e-06,-6.1757e-07,-4.6402,1.4579
16993,15.335,2.8182,0,0.00019614,1960,6.571e-05,11.79,6.4142e-05,0.0084885,-0.00019594,-1954.1,1.458
16994,15.427,2.7273,0,0.00019387,1937.3,6.4996e-05,12.225,6.337e-05,0.0084906,-0.00019365,-1931.2,1.472
16995,15.335,2.7273,0.05,8.0429e-07,8.0373,6.1759e-07,4.6403,-1.3689e-14,2.6403e-06,-6.1759e-07,-4.6404,1.4579
16996,15.335,3,0,0.00019613,1960,6.5707e-05,11.775,6.4141e-05,0.0085781,-0.00019593,-1954.1,1.458
16997,15.427,2.9091,0,0.00019386,1937.2,6.499e-05,12.198,6.3368e-05,0.0086693,-0.00019364,-1931.1,1.472
16998,15.335,2.9091,0.05,8.043e-07,8.0374,6.176e-07,4.6404,1.8144e-12,3.4226e-06,-6.176e-07,-4.6404,1.458
16999,15.335,3.1818,0,0.00019614,1960,6.571e-05,11.79,6.4142e-05,0.0084896,-0.00019594,-1954.1,1.458
17000,15.427,3.0909,0,0.00019386,1937.2,6.499e-05,12.198,6.3368e-05,0.0086685,-0.00019364,-1931.1,1.472
17001,15.335,3.0909,0.05,8.043e-07,8.0374,6.176e-07,4.6404,1.8236e-12,2.7763e-06,-6.176e-07,-4.6405,1.458
17002,15.335,3.3636,0,0.00019615,1960.2,6.5719e-05,11.835,6.4145e-05,0.0082226,-0.00019595,-1954.2,1.4579
17003,15.427,3.2727,0,0.00019387,1937.3,6.4996e-05,12.225,6.337e-05,0.0084916,-0.00019365,-1931.2,1.472
17004,15.335,3.2727,0.05,8.0429e-07,8.0373,6.1759e-07,4.6403,1.363e-14,3.5593e-06,-6.176e-07,-4.6404,1.4579
17005,15.335,3.5455,0,0.00019618,1960.5,6.5734e-05,11.91,6.4149e-05,0.0077803,-0.00019598,-1954.5,1.4578
17006,15.427,3.4545,0,0.00019389,1937.5,6.5007e-05,12.279,6.3374e-05,0.0081372,-0.00019367,-1931.3,1.4719
17007,15.335,3.4545,0.05,8.0426e-07,8.037,6.1757e-07,4.6402,1.8412e-12,3.3868e-06,-6.1757e-07,-4.6402,1.4579
17008,15.335,3.7273,0,0.00019622,1960.8,6.5754e-05,12.016,6.4156e-05,0.0071697,-0.00019601,-1954.8,1.4577
17009,15.427,3.6364,0,0.00019392,1937.8,6.5024e-05,12.361,6.338e-05,0.0076112,-0.0001937,-1931.6,1.4717
17010,15.335,3.6364,0.05,8.0422e-07,8.0366,6.1754e-07,4.6399,9.3997e-13,4.4023e-06,-6.1754e-07,-4.64,1.4577
17011,15.335,3.9091,0,0.00019626,1961.3,6.5781e-05,12.153,6.4165e-05,0.0063987,-0.00019605,-1955.2,1.4575
17012,15.427,3.8182,0,0.00019396,1938.2,6.5046e-05,12.472,6.3387e-05,0.0069191,-0.00019374,-1932,1.4716
17013,15.335,3.8182,0.05,8.0416e-07,8.0361,6.1749e-07,4.6396,2.766e-12,4.812e-06,-6.175e-07,-4.6397,1.4576
17014,15.335,4.0909,0,0.00019632,1961.9,6.5814e-05,12.323,6.4175e-05,0.0054765,-0.00019611,-1955.7,1.4572
17015,15.427,4,0,0.00019401,1938.7,6.5075e-05,12.611,6.3397e-05,0.0060704,-0.00019379,-1932.4,1.4714
17016,15.335,4,0.05,8.0409e-07,8.0354,6.1744e-07,4.6392,1.859e-12,4.3871e-06,-6.1745e-07,-4.6393,1.4573
17017,15.335,4.2727,0,0.00019639,1962.5,6.5854e-05,12.525,6.4187e-05,0.0044161,-0.00019617,-1956.2,1.457
17018,15.427,4.1818,0,0.00019407,1939.4,6.5109e-05,12.781,6.3409e-05,0.0050719,-0.00019385,-1932.9,1.4711
17019,15.335,4.1818,0.05,8.0401e-07,8.0346,6.1738e-07,4.6387,2.7752e-12,3.5581e-06,-6.1739e-07,-4.6388,1.4571
17020,15.335,4.4545,0,0.00019647,1963.3,6.59e-05,12.761,6.4202e-05,0.0032295,-0.00019625,-1956.9,1.4566
17021,15.427,4.3636,0,0.00019414,1940.1,6.515e-05,12.982,6.3423e-05,0.0039381,-0.00019392,-1933.6,1.4708
17022,15.335,4.3636,0.05,8.0392e-07,8.0336,6.173e-07,4.6382,3.6919e-12,5.217e-06,-6.1731e-07,-4.6382,1.4568
17023,15.335,4.6364,0,0.00019656,1964.2,6.5952e-05,13.033,6.4218e-05,0.0019321,-0.00019633,-1957.7,1.4563
17024,15.427,4.5455,0,0.00019423,1940.9,6.5197e-05,13.216,6.3439e-05,0.0026794,-0.000194,-1934.3,1.4705
17025,15.335,4.5455,0.05,8.0381e-07,8.0325,6.1722e-07,4.6375,3.6893e-12,3.8668e-06,-6.1723e-07,-4.6376,1.4564
17026,15.335,4.8182,0,0.00019666,1965.3,6.6012e-05,13.341,6.4236e-05,0.00053475,-0.00019643,-1958.5,1.4558
17027,15.427,4.7273,0,0.00019432,1941.9,6.5251e-05,13.485,6.3457e-05,0.0013168,-0.00019409,-1935.1,1.4701
17028,15.335,4.7273,0.05,8.0368e-07,8.0313,6.1713e-07,4.6368,3.6891e-12,5.1084e-06,-6.1713e-07,-4.6369,1.456
17029,15.335,5,0,0.00019677,1966.4,6.6078e-05,13.688,6.4256e-05,-0.00092329,-0.00019654,-1959.5,1.4554
17030,15.427,4.9091,0,0.00019443,1942.9,6.5312e-05,13.789,6.3476e-05,-0.00015415,-0.00019419,-1936,1.4696
17031,15.335,4.9091,0.05,8.0354e-07,8.0299,6.1702e-07,4.636,3.6789e-12,5.2689e-06,-6.1703e-07,-4.6361,1.4556
17032,15.335,5.1818,0,0.0001969,1967.6,6.6152e-05,14.074,6.4278e-05,-0.0025302,-0.00019666,-1960.6,1.4549
17033,15.427,5.0909,0,0.00019454,1944.1,6.5379e-05,14.131,6.3498e-05,-0.0016485,-0.0001943,-1937,1.4692
17034,15.335,5.0909,0.05,8.0338e-07,8.0282,6.1689e-07,4.635,3.6813e-12,3.7902e-06,-6.169e-07,-4.6352,1.4551
17035,15.335,5.3636,0,0.00019704,1969,6.6233e-05,14.504,6.4303e-05,-0.0038451,-0.00019679,-1961.7,1.4544
17036,15.427,5.2727,0,0.00019467,1945.4,6.5454e-05,14.513,6.3522e-05,-0.003433,-0.00019442,-1938.1,1.4687
17037,15.335,5.2727,0.05,8.03e-07,8.0245,6.166e-07,4.6329,3.6757e-12,4.8705e-06,-6.1661e-07,-4.633,1.4546
17038,15.335,5.5455,0,0.0001972,1970.6,6.633e-05,15.031,6.4329e-05,-0.0071885,-0.00019694,-1963.1,1.4538
17039,15.427,5.4545,0,0.00019482,1946.8,6.5537e-05,14.943,6.3548e-05,-0.004331,-0.00019456,-1939.3,1.4681
17040,15.335,5.4545,0.05,7.9954e-07,7.9899,6.1395e-07,4.6129,3.6703e-12,5.0304e-06,-6.1395e-07,-4.613,1.454
17041,15.335,5.7273,0,0.00019751,1973.7,6.6557e-05,16.521,6.4357e-05,-0.005812,-0.00019722,-1965.4,1.4531
17042,15.427,5.6364,0,0.00019499,1948.6,6.5643e-05,15.52,6.3576e-05,-0.010214,-0.00019472,-1940.8,1.4675
17043,15.335,5.6364,0.05,7.4903e-07,7.4851,5.7516e-07,4.3215,5.4784e-12,5.9676e-06,-5.7517e-07,-4.3216,1.4534
17044,15.427,5.8182,0,0.00019545,1953.2,6.6e-05,17.978,6.3607e-05,-0.00024761,-0.00019514,-1944.1,1.4669
17045,15.335,5.8182,0.05,3.1578e-08,0.31556,2.4247e-08,0.18215,-1.8239e-12,-4.992e-05,-2.4248e-08,-0.18222,1.4528
17046,15.335,5.9091,0,0.00019689,1967.6,6.5966e-05,11.873,6.4385e-05,-0.0037461,-0.00019669,-1961.6,1.4525
17047,15.519,0.27273,0,0.00019292,1927.8,6.5069e-05,16.851,6.2826e-05,-0.0060128,-0.00019262,-1919.4,1.4813
17048,15.611,0.18182,0,0.00019087,1907.4,6.4515e-05,18.3,6.208e-05,-0.00014971,-0.00019056,-1898.2,1.495
17049,15.519,0.18182,0.05,3.2289e-08,0.32267,2.4794e-08,0.18631,1.7318e-12,3.0394e-05,-2.4794e-08,-0.18627,1.4809
17050,15.519,0.090909,0,0.00019229,1921.5,6.4464e-05,12.082,6.2855e-05,-0.0038571,-0.00019208,-1915.5,1.4806
17051,15.519,0.45455,0,0.00019261,1924.7,6.4845e-05,15.398,6.2795e-05,-0.0074626,-0.00019234,-1917,1.4819
17052,15.611,0.36364,0,0.00019041,1902.8,6.4159e-05,15.863,6.2046e-05,-0.010647,-0.00019013,-1894.8,1.4957
17053,15.519,0.36364,0.05,7.4583e-07,7.4532,5.7271e-07,4.3031,-9.3956e-13,7.1866e-06,-5.727e-07,-4.303,1.4815
17054,15.519,0.63636,0,0.00019245,1923.2,6.4754e-05,14.921,6.2768e-05,-0.0039354,-0.00019219,-1915.7,1.4824
17055,15.611,0.54545,0,0.00019024,1901.1,6.4059e-05,15.335,6.2017e-05,-0.0044487,-0.00018997,-1893.4,1.4963
17056,15.519,0.54545,0.05,7.9612e-07,7.9557,6.1133e-07,4.5933,-9.4679e-13,7.5915e-06,-6.1132e-07,-4.5932,1.4821
17057,15.519,0.81818,0,0.00019231,1921.8,6.4677e-05,14.54,6.2742e-05,-0.0025557,-0.00019206,-1914.5,1.483
17058,15.611,0.72727,0,0.0001901,1899.7,6.398e-05,14.954,6.199e-05,-0.0035043,-0.00018984,-1892.1,1.4968
17059,15.519,0.72727,0.05,7.9956e-07,7.9901,6.1397e-07,4.6131,-2.7735e-12,7.1532e-06,-6.1397e-07,-4.6131,1.4827
17060,15.519,1,0,0.00019219,1920.6,6.4609e-05,14.202,6.2718e-05,-0.00087839,-0.00019195,-1913.4,1.4835
17061,15.611,0.90909,0,0.00018997,1898.4,6.391e-05,14.622,6.1964e-05,-0.0016362,-0.00018972,-1891,1.4973
17062,15.519,0.90909,0.05,7.9994e-07,7.9938,6.1426e-07,4.6153,-9.5921e-13,6.3015e-06,-6.1425e-07,-4.6152,1.4832
17063,15.519,1.1818,0,0.00019208,1919.5,6.4547e-05,13.902,6.2697e-05,0.00063383,-0.00019184,-1912.5,1.4839
17064,15.611,1.0909,0,0.00018985,1897.2,6.3848e-05,14.327,6.1941e-05,-8.4454e-05,-0.00018961,-1890,1.4978
17065,15.519,1.0909,0.05,8.001e-07,7.9955,6.1438e-07,4.6162,-5.4472e-14,5.294e-06,-6.1437e-07,-4.6161,1.4837
17066,15.519,1.3636,0,0.00019198,1918.5,6.4492e-05,13.638,6.2677e-05,0.0020778,-0.00019175,-1911.6,1.4843
17067,15.611,1.2727,0,0.00018975,1896.2,6.3792e-05,14.068,6.192e-05,0.0014377,-0.00018951,-1889.1,1.4982
17068,15.519,1.2727,0.05,8.0023e-07,7.9968,6.1448e-07,4.617,-6.3907e-14,4.1727e-06,-6.1448e-07,-4.6169,1.4841
17069,15.519,1.5455,0,0.00019189,1917.6,6.4444e-05,13.408,6.266e-05,0.0034082,-0.00019166,-1910.9,1.4847
17070,15.611,1.4545,0,0.00018966,1895.3,6.3743e-05,13.842,6.1901e-05,0.0028407,-0.00018942,-1888.3,1.4986
17071,15.519,1.4545,0.05,8.0035e-07,7.998,6.1458e-07,4.6177,-1.882e-12,4.1919e-06,-6.1457e-07,-4.6176,1.4845
17072,15.519,1.7273,0,0.00019182,1916.8,6.4402e-05,13.209,6.2645e-05,0.0046187,-0.00019159,-1910.2,1.485
17073,15.611,1.6364,0,0.00018958,1894.5,6.37e-05,13.648,6.1884e-05,0.0041271,-0.00018934,-1887.6,1.4989
17074,15.519,1.6364,0.05,8.0046e-07,7.9991,6.1466e-07,4.6183,-9.6598e-13,4.2238e-06,-6.1465e-07,-4.6182,1.4848
17075,15.519,1.9091,0,0.00019175,1916.2,6.4366e-05,13.04,6.2631e-05,0.0056948,-0.00019153,-1909.6,1.4853
17076,15.611,1.8182,0,0.00018951,1893.8,6.3663e-05,13.482,6.1869e-05,0.0052819,-0.00018928,-1887,1.4992
17077,15.519,1.8182,0.05,8.0055e-07,8,6.1473e-07,4.6188,-5.4077e-14,3.3986e-06,-6.1472e-07,-4.6188,1.4851
17078,15.519,2.0909,0,0.0001917,1915.6,6.4336e-05,12.9,6.262e-05,0.0066245,-0.00019147,-1909.1,1.4855
17079,15.611,2,0,0.00018945,1893.2,6.3632e-05,13.344,6.1856e-05,0.0062912,-0.00018922,-1886.5,1.4994
17080,15.519,2,0.05,8.0063e-07,8.0008,6.1479e-07,4.6193,-4.6101e-14,3.2244e-06,-6.1479e-07,-4.6193,1.4854
17081,15.519,2.2727,0,0.00019165,1915.2,6.4312e-05,12.787,6.2611e-05,0.0074,-0.00019143,-1908.8,1.4857
17082,15.611,2.1818,0,0.0001894,1892.7,6.3606e-05,13.231,6.1846e-05,0.0071475,-0.00018917,-1886,1.4997
17083,15.519,2.1818,0.05,8.007e-07,8.0015,6.1484e-07,4.6197,8.7002e-13,3.9894e-06,-6.1484e-07,-4.6197,1.4856
17084,15.519,2.4545,0,0.00019162,1914.8,6.4293e-05,12.701,6.2604e-05,0.0080105,-0.0001914,-1908.5,1.4858
17085,15.611,2.3636,0,0.00018936,1892.3,6.3586e-05,13.142,6.1837e-05,0.0078419,-0.00018913,-1885.7,1.4998
17086,15.519,2.3636,0.05,8.0075e-07,8.002,6.1488e-07,4.62,8.7875e-13,4.0566e-06,-6.1488e-07,-4.62,1.4857
17087,15.519,2.6364,0,0.00019159,1914.6,6.428e-05,12.639,6.2599e-05,0.0084506,-0.00019137,-1908.2,1.4859
17088,15.611,2.5455,0,0.00018933,1892,6.357e-05,13.077,6.1831e-05,0.0083678,-0.00018911,-1885.4,1.4999
17089,15.519,2.5455,0.05,8.0079e-07,8.0024,6.1491e-07,4.6202,8.8569e-13,3.8749e-06,-6.1491e-07,-4.6202,1.4859
17090,15.519,2.8182,0,0.00019158,1914.4,6.4272e-05,12.603,6.2596e-05,0.0087176,-0.00019136,-1908.1,1.486
17091,15.611,2.7273,0,0.00018931,1891.8,6.356e-05,13.034,6.1827e-05,0.0087211,-0.00018909,-1885.3,1.5
17092,15.519,2.7273,0.05,8.0082e-07,8.0027,6.1493e-07,4.6203,8.9492e-13,3.1099e-06,-6.1493e-07,-4.6204,1.486
17093,15.519,3,0,0.00019157,1914.4,6.4269e-05,12.591,6.2595e-05,0.0088064,-0.00019135,-1908.1,1.486
17094,15.611,2.9091,0,0.0001893,1891.7,6.3555e-05,13.012,6.1825e-05,0.0088989,-0.00018908,-1885.2,1.5001
17095,15.519,2.9091,0.05,8.0083e-07,8.0028,6.1494e-07,4.6204,1.8141e-12,3.8974e-06,-6.1494e-07,-4.6204,1.486
17096,15.519,3.1818,0,0.00019158,1914.4,6.4272e-05,12.603,6.2596e-05,0.0087167,-0.00019136,-1908.1,1.486
17097,15.611,3.0909,0,0.0001893,1891.7,6.3555e-05,13.012,6.1825e-05,0.0088977,-0.00018908,-1885.2,1.5001
17098,15.519,3.0909,0.05,8.0083e-07,8.0028,6.1494e-07,4.6204,1.8239e-12,3.2552e-06,-6.1494e-07,-4.6204,1.486
17099,15.519,3.3636,0,0.00019159,1914.6,6.428e-05,12.639,6.2599e-05,0.0084508,-0.00019137,-1908.2,1.4859
17100,15.611,3.2727,0,0.00018931,1891.8,6.356e-05,13.034,6.1827e-05,0.0087212,-0.00018909,-1885.3,1.5
17101,15.519,3.2727,0.05,8.0082e-07,8.0027,6.1493e-07,4.6203,3.6525e-12,3.8046e-06,-6.1493e-07,-4.6204,1.486
17102,15.519,3.5455,0,0.00019162,1914.8,6.4293e-05,12.701,6.2604e-05,0.0080102,-0.0001914,-1908.5,1.4858
17103,15.611,3.4545,0,0.00018933,1892,6.357e-05,13.077,6.1831e-05,0.0083674,-0.00018911,-1885.4,1.4999
17104,15.519,3.4545,0.05,8.0079e-07,8.0024,6.1491e-07,4.6202,9.3324e-13,3.7547e-06,-6.1491e-07,-4.6202,1.4859
17105,15.519,3.7273,0,0.00019165,1915.2,6.4312e-05,12.787,6.2611e-05,0.0073992,-0.00019143,-1908.8,1.4857
17106,15.611,3.6364,0,0.00018936,1892.3,6.3586e-05,13.142,6.1837e-05,0.007841,-0.00018913,-1885.7,1.4998
17107,15.519,3.6364,0.05,8.0075e-07,8.002,6.1488e-07,4.6199,2.7601e-12,4.768e-06,-6.1488e-07,-4.62,1.4857
17108,15.519,3.9091,0,0.0001917,1915.6,6.4336e-05,12.9,6.262e-05,0.0066253,-0.00019147,-1909.1,1.4855
17109,15.611,3.8182,0,0.0001894,1892.7,6.3606e-05,13.231,6.1846e-05,0.0071471,-0.00018917,-1886,1.4997
17110,15.519,3.8182,0.05,8.007e-07,8.0015,6.1484e-07,4.6196,1.8587e-12,5.3049e-06,-6.1484e-07,-4.6197,1.4856
17111,15.519,4.0909,0,0.00019175,1916.2,6.4366e-05,13.04,6.2631e-05,0.0056954,-0.00019153,-1909.6,1.4853
17112,15.611,4,0,0.00018945,1893.2,6.3632e-05,13.344,6.1856e-05,0.0062909,-0.00018922,-1886.5,1.4994
17113,15.519,4,0.05,8.0063e-07,8.0008,6.1479e-07,4.6192,2.7716e-12,4.8672e-06,-6.1479e-07,-4.6193,1.4854
17114,15.519,4.2727,0,0.00019182,1916.8,6.4402e-05,13.209,6.2645e-05,0.0046181,-0.00019159,-1910.2,1.485
17115,15.611,4.1818,0,0.00018951,1893.8,6.3663e-05,13.482,6.1869e-05,0.0052815,-0.00018928,-1887,1.4992
17116,15.519,4.1818,0.05,8.0055e-07,8,6.1472e-07,4.6188,2.7791e-12,4.0619e-06,-6.1473e-07,-4.6188,1.4851
17117,15.519,4.4545,0,0.00019189,1917.6,6.4444e-05,13.408,6.266e-05,0.0034064,-0.00019166,-1910.9,1.4847
17118,15.611,4.3636,0,0.00018958,1894.5,6.37e-05,13.648,6.1884e-05,0.0041267,-0.00018934,-1887.6,1.4989
17119,15.519,4.3636,0.05,8.0046e-07,7.9991,6.1465e-07,4.6182,3.6906e-12,5.607e-06,-6.1466e-07,-4.6183,1.4848
17120,15.519,4.6364,0,0.00019198,1918.5,6.4492e-05,13.638,6.2677e-05,0.0020765,-0.00019175,-1911.6,1.4843
17121,15.611,4.5455,0,0.00018966,1895.3,6.3743e-05,13.843,6.1901e-05,0.0028403,-0.00018942,-1888.3,1.4986
17122,15.519,4.5455,0.05,8.0035e-07,7.998,6.1457e-07,4.6176,3.6974e-12,4.1114e-06,-6.1457e-07,-4.6177,1.4845
17123,15.519,4.8182,0,0.00019208,1919.5,6.4547e-05,13.903,6.2697e-05,0.00063412,-0.00019184,-1912.5,1.4839
17124,15.611,4.7273,0,0.00018975,1896.2,6.3792e-05,14.068,6.192e-05,0.0014378,-0.00018951,-1889.1,1.4982
17125,15.519,4.7273,0.05,8.0023e-07,7.9968,6.1448e-07,4.6169,3.6928e-12,5.2929e-06,-6.1448e-07,-4.617,1.4841
17126,15.519,5,0,0.00019219,1920.6,6.4609e-05,14.202,6.2718e-05,-0.00087937,-0.00019195,-1913.4,1.4835
17127,15.611,4.9091,0,0.00018985,1897.2,6.3848e-05,14.327,6.1941e-05,-8.508e-05,-0.00018961,-1890,1.4978
17128,15.519,4.9091,0.05,8.001e-07,7.9955,6.1437e-07,4.6161,3.6948e-12,5.419e-06,-6.1438e-07,-4.6162,1.4837
17129,15.519,5.1818,0,0.00019231,1921.8,6.4677e-05,14.54,6.2742e-05,-0.0025578,-0.00019206,-1914.5,1.483
17130,15.611,5.0909,0,0.00018997,1898.4,6.391e-05,14.622,6.1964e-05,-0.0016381,-0.00018972,-1891,1.4973
17131,15.519,5.0909,0.05,7.9994e-07,7.9938,6.1425e-07,4.6152,3.6684e-12,3.8315e-06,-6.1425e-07,-4.6153,1.4832
17132,15.519,5.3636,0,0.00019245,1923.2,6.4754e-05,14.921,6.2768e-05,-0.0039367,-0.00019219,-1915.7,1.4824
17133,15.611,5.2727,0,0.0001901,1899.7,6.398e-05,14.954,6.199e-05,-0.0035069,-0.00018984,-1892.1,1.4968
17134,15.519,5.2727,0.05,7.9956e-07,7.9901,6.1396e-07,4.613,4.5877e-12,4.8041e-06,-6.1397e-07,-4.6132,1.4827
17135,15.519,5.5455,0,0.00019261,1924.7,6.4845e-05,15.398,6.2795e-05,-0.0074631,-0.00019234,-1917,1.4819
17136,15.611,5.4545,0,0.00019024,1901.1,6.4059e-05,15.335,6.2017e-05,-0.0044483,-0.00018997,-1893.4,1.4963
17137,15.519,5.4545,0.05,7.9612e-07,7.9557,6.1132e-07,4.5932,5.4692e-12,4.936e-06,-6.1133e-07,-4.5933,1.4821
17138,15.519,5.7273,0,0.00019292,1927.8,6.5069e-05,16.851,6.2826e-05,-0.0060119,-0.00019262,-1919.4,1.4813
17139,15.611,5.6364,0,0.00019041,1902.8,6.4159e-05,15.863,6.2046e-05,-0.010647,-0.00019013,-1894.8,1.4957
17140,15.519,5.6364,0.05,7.4583e-07,7.4532,5.727e-07,4.303,3.6387e-12,5.7623e-06,-5.7271e-07,-4.3031,1.4815
17141,15.611,5.8182,0,0.00019087,1907.4,6.4515e-05,18.3,6.208e-05,-0.0001491,-0.00019056,-1898.2,1.495
17142,15.519,5.8182,0.05,3.2289e-08,0.32267,2.4793e-08,0.18626,-3.1567e-12,-5.1702e-05,-2.4795e-08,-0.18633,1.4809
17143,15.519,5.9091,0,0.00019229,1921.5,6.4464e-05,12.082,6.2855e-05,-0.0038559,-0.00019208,-1915.5,1.4806
17144,15.704,0.27273,0,0.00018835,1882.2,6.3588e-05,17.184,6.13e-05,-0.0062185,-0.00018805,-1873.5,1.5095
17145,15.796,0.18182,0,0.00018631,1861.9,6.3038e-05,18.625,6.0559e-05,-6.6417e-05,-0.00018599,-1852.5,1.5234
17146,15.704,0.18182,0.05,3.2871e-08,0.32849,2.5242e-08,0.18968,2.7545e-12,5.4887e-05,-2.524e-08,-0.18962,1.5092
17147,15.704,0.090909,0,0.0001877,1875.7,6.2968e-05,12.293,6.1331e-05,-0.0039708,-0.00018749,-1869.6,1.5089
17148,15.704,0.45455,0,0.00018803,1879.1,6.3368e-05,15.766,6.1268e-05,-0.0077427,-0.00018776,-1871.1,1.5101
17149,15.796,0.36364,0,0.00018585,1857.2,6.2682e-05,16.208,6.0524e-05,-0.011095,-0.00018557,-1849,1.524
17150,15.704,0.36364,0.05,7.4267e-07,7.4216,5.7028e-07,4.2849,-9.2981e-13,7.9785e-06,-5.7028e-07,-4.2848,1.5098
17151,15.704,0.63636,0,0.00018788,1877.5,6.3281e-05,15.338,6.1239e-05,-0.0040331,-0.00018762,-1869.8,1.5107
17152,15.796,0.54545,0,0.00018568,1855.5,6.2587e-05,15.728,6.0493e-05,-0.0045788,-0.00018541,-1847.6,1.5245
17153,15.704,0.54545,0.05,7.9273e-07,7.9219,6.0872e-07,4.5737,-2.9925e-14,1.0388e-05,-6.0872e-07,-4.5737,1.5104
17154,15.704,0.81818,0,0.00018775,1876.2,6.3209e-05,15.006,6.1212e-05,-0.0025886,-0.00018749,-1868.6,1.5112
17155,15.796,0.72727,0,0.00018554,1854.1,6.2513e-05,15.397,6.0464e-05,-0.0035901,-0.00018527,-1846.4,1.5251
17156,15.704,0.72727,0.05,7.9616e-07,7.9561,6.1135e-07,4.5935,-9.6655e-13,8.1261e-06,-6.1135e-07,-4.5934,1.5109
17157,15.704,1,0,0.00018763,1875,6.3146e-05,14.716,6.1187e-05,-0.00083926,-0.00018737,-1867.6,1.5117
17158,15.796,0.90909,0,0.00018542,1852.9,6.2448e-05,15.113,6.0437e-05,-0.0016382,-0.00018515,-1845.3,1.5256
17159,15.704,0.90909,0.05,7.9653e-07,7.9598,6.1164e-07,4.5956,-8.2947e-14,5.4135e-06,-6.1163e-07,-4.5955,1.5114
17160,15.704,1.1818,0,0.00018752,1873.9,6.3089e-05,14.463,6.1164e-05,0.00072875,-0.00018727,-1866.6,1.5121
17161,15.796,1.0909,0,0.0001853,1851.7,6.2391e-05,14.866,6.0412e-05,-2.6282e-05,-0.00018505,-1844.3,1.526
17162,15.704,1.0909,0.05,7.9669e-07,7.9614,6.1176e-07,4.5965,-9.8575e-13,4.411e-06,-6.1175e-07,-4.5965,1.5119
17163,15.704,1.3636,0,0.00018742,1872.9,6.3039e-05,14.242,6.1143e-05,0.002216,-0.00018718,-1865.8,1.5125
17164,15.796,1.2727,0,0.0001852,1850.7,6.234e-05,14.652,6.039e-05,0.0015472,-0.00018495,-1843.4,1.5264
17165,15.704,1.2727,0.05,7.9682e-07,7.9627,6.1186e-07,4.5973,-6.9412e-14,4.4376e-06,-6.1186e-07,-4.5972,1.5123
17166,15.704,1.5455,0,0.00018734,1872.1,6.2995e-05,14.053,6.1125e-05,0.0035808,-0.0001871,-1865,1.5128
17167,15.796,1.4545,0,0.00018511,1849.9,6.2295e-05,14.469,6.0369e-05,0.0029884,-0.00018486,-1842.6,1.5268
17168,15.704,1.4545,0.05,7.9694e-07,7.9639,6.1195e-07,4.5979,-6.6117e-14,3.9766e-06,-6.1195e-07,-4.5979,1.5126
17169,15.704,1.7273,0,0.00018726,1871.4,6.2957e-05,13.891,6.1108e-05,0.004817,-0.00018702,-1864.4,1.5131
17170,15.796,1.6364,0,0.00018503,1849.1,6.2256e-05,14.314,6.0351e-05,0.004306,-0.00018479,-1841.9,1.5271
17171,15.704,1.6364,0.05,7.9704e-07,7.9649,6.1203e-07,4.5985,-6.0794e-14,4.4903e-06,-6.1203e-07,-4.5985,1.513
17172,15.704,1.9091,0,0.0001872,1870.7,6.2924e-05,13.756,6.1094e-05,0.0059098,-0.00018696,-1863.8,1.5134
17173,15.796,1.8182,0,0.00018497,1848.4,6.2223e-05,14.184,6.0336e-05,0.0054798,-0.00018472,-1841.3,1.5274
17174,15.704,1.8182,0.05,7.9713e-07,7.9658,6.121e-07,4.5991,-6.1296e-14,4.0864e-06,-6.121e-07,-4.5991,1.5133
17175,15.704,2.0909,0,0.00018715,1870.2,6.2897e-05,13.645,6.1082e-05,0.0068501,-0.00018691,-1863.3,1.5136
17176,15.796,2,0,0.00018491,1847.8,6.2195e-05,14.077,6.0322e-05,0.0065042,-0.00018467,-1840.7,1.5277
17177,15.704,2,0.05,7.9721e-07,7.9666,6.1216e-07,4.5995,-5.1897e-14,4.0128e-06,-6.1216e-07,-4.5995,1.5135
17178,15.704,2.2727,0,0.0001871,1869.8,6.2876e-05,13.556,6.1072e-05,0.0076291,-0.00018687,-1862.9,1.5138
17179,15.796,2.1818,0,0.00018486,1847.4,6.2172e-05,13.991,6.0311e-05,0.0073675,-0.00018462,-1840.3,1.5279
17180,15.704,2.1818,0.05,7.9728e-07,7.9673,6.1221e-07,4.5999,-4.4329e-14,4.7848e-06,-6.1221e-07,-4.5999,1.5137
17181,15.704,2.4545,0,0.00018707,1869.4,6.2859e-05,13.489,6.1065e-05,0.0082418,-0.00018684,-1862.6,1.514
17182,15.796,2.3636,0,0.00018483,1847,6.2154e-05,13.924,6.0302e-05,0.0080649,-0.00018458,-1840,1.528
17183,15.704,2.3636,0.05,7.9733e-07,7.9678,6.1225e-07,4.6002,1.783e-12,4.3771e-06,-6.1225e-07,-4.6002,1.5139
17184,15.704,2.6364,0,0.00018705,1869.2,6.2847e-05,13.442,6.1059e-05,0.0086831,-0.00018681,-1862.4,1.5141
17185,15.796,2.5455,0,0.0001848,1846.7,6.2141e-05,13.876,6.0295e-05,0.0085937,-0.00018456,-1839.7,1.5282
17186,15.704,2.5455,0.05,7.9737e-07,7.9682,6.1228e-07,4.6004,-2.6185e-14,4.4466e-06,-6.1228e-07,-4.6004,1.514
17187,15.704,2.8182,0,0.00018703,1869,6.284e-05,13.414,6.1056e-05,0.0089486,-0.0001868,-1862.3,1.5141
17188,15.796,2.7273,0,0.00018478,1846.5,6.2132e-05,13.844,6.0291e-05,0.0089467,-0.00018454,-1839.5,1.5282
17189,15.704,2.7273,0.05,7.9739e-07,7.9684,6.123e-07,4.6006,-1.6204e-14,3.8123e-06,-6.123e-07,-4.6006,1.5141
17190,15.704,3,0,0.00018703,1869,6.2838e-05,13.404,6.1055e-05,0.0090368,-0.0001868,-1862.3,1.5142
17191,15.796,2.9091,0,0.00018477,1846.4,6.2128e-05,13.828,6.0288e-05,0.0091241,-0.00018453,-1839.5,1.5283
17192,15.704,2.9091,0.05,7.9741e-07,7.9686,6.1231e-07,4.6006,3.6325e-12,4.489e-06,-6.1231e-07,-4.6007,1.5141
17193,15.704,3.1818,0,0.00018703,1869,6.284e-05,13.414,6.1056e-05,0.0089484,-0.0001868,-1862.3,1.5141
17194,15.796,3.0909,0,0.00018477,1846.4,6.2128e-05,13.828,6.0288e-05,0.0091236,-0.00018453,-1839.5,1.5283
17195,15.704,3.0909,0.05,7.9741e-07,7.9686,6.1231e-07,4.6006,3.6434e-12,3.6172e-06,-6.1231e-07,-4.6007,1.5141
17196,15.704,3.3636,0,0.00018705,1869.2,6.2847e-05,13.442,6.1059e-05,0.0086826,-0.00018681,-1862.4,1.5141
17197,15.796,3.2727,0,0.00018478,1846.5,6.2132e-05,13.844,6.0291e-05,0.0089465,-0.00018454,-1839.5,1.5282
17198,15.704,3.2727,0.05,7.9739e-07,7.9684,6.123e-07,4.6005,9.2579e-13,4.6517e-06,-6.123e-07,-4.6006,1.5141
17199,15.704,3.5455,0,0.00018707,1869.4,6.2859e-05,13.489,6.1065e-05,0.0082408,-0.00018684,-1862.6,1.514
17200,15.796,3.4545,0,0.0001848,1846.7,6.2141e-05,13.876,6.0295e-05,0.0085927,-0.00018456,-1839.7,1.5282
17201,15.704,3.4545,0.05,7.9737e-07,7.9682,6.1228e-07,4.6004,1.8454e-12,4.3722e-06,-6.1228e-07,-4.6004,1.514
17202,15.704,3.7273,0,0.0001871,1869.8,6.2876e-05,13.556,6.1072e-05,0.0076285,-0.00018687,-1862.9,1.5138
17203,15.796,3.6364,0,0.00018483,1847,6.2154e-05,13.924,6.0302e-05,0.0080648,-0.00018458,-1840,1.528
17204,15.704,3.6364,0.05,7.9733e-07,7.9678,6.1225e-07,4.6002,1.8541e-12,5.1502e-06,-6.1225e-07,-4.6002,1.5139
17205,15.704,3.9091,0,0.00018715,1870.2,6.2897e-05,13.645,6.1082e-05,0.0068486,-0.00018691,-1863.3,1.5136
17206,15.796,3.8182,0,0.00018486,1847.4,6.2172e-05,13.991,6.0311e-05,0.0073676,-0.00018462,-1840.3,1.5279
17207,15.704,3.8182,0.05,7.9728e-07,7.9673,6.1221e-07,4.5999,2.7741e-12,6.1777e-06,-6.1221e-07,-4.5999,1.5137
17208,15.704,4.0909,0,0.0001872,1870.7,6.2924e-05,13.756,6.1094e-05,0.0059085,-0.00018696,-1863.8,1.5134
17209,15.796,4,0,0.00018491,1847.8,6.2195e-05,14.077,6.0322e-05,0.006503,-0.00018467,-1840.7,1.5277
17210,15.704,4,0.05,7.9721e-07,7.9666,6.1216e-07,4.5995,1.8702e-12,5.2691e-06,-6.1216e-07,-4.5996,1.5135
17211,15.704,4.2727,0,0.00018726,1871.4,6.2957e-05,13.891,6.1108e-05,0.0048167,-0.00018702,-1864.4,1.5131
17212,15.796,4.1818,0,0.00018497,1848.4,6.2223e-05,14.184,6.0336e-05,0.0054799,-0.00018472,-1841.3,1.5274
17213,15.704,4.1818,0.05,7.9713e-07,7.9658,6.121e-07,4.599,2.7857e-12,4.37e-06,-6.121e-07,-4.5991,1.5133
17214,15.704,4.4545,0,0.00018734,1872.1,6.2995e-05,14.053,6.1125e-05,0.0035817,-0.0001871,-1865,1.5128
17215,15.796,4.3636,0,0.00018503,1849.1,6.2256e-05,14.314,6.0351e-05,0.0043058,-0.00018479,-1841.9,1.5271
17216,15.704,4.3636,0.05,7.9704e-07,7.9649,6.1203e-07,4.5985,3.6974e-12,6.0519e-06,-6.1203e-07,-4.5986,1.513
17217,15.704,4.6364,0,0.00018742,1872.9,6.3039e-05,14.242,6.1143e-05,0.002217,-0.00018718,-1865.8,1.5125
17218,15.796,4.5455,0,0.00018511,1849.9,6.2295e-05,14.469,6.0369e-05,0.0029892,-0.00018486,-1842.6,1.5268
17219,15.704,4.5455,0.05,7.9694e-07,7.9639,6.1194e-07,4.5979,2.7918e-12,4.9405e-06,-6.1195e-07,-4.598,1.5126
17220,15.704,4.8182,0,0.00018752,1873.9,6.3089e-05,14.463,6.1164e-05,0.00072799,-0.00018727,-1866.6,1.5121
17221,15.796,4.7273,0,0.0001852,1850.7,6.234e-05,14.652,6.039e-05,0.0015468,-0.00018495,-1843.4,1.5264
17222,15.704,4.7273,0.05,7.9682e-07,7.9627,6.1185e-07,4.5972,3.7003e-12,5.8476e-06,-6.1186e-07,-4.5973,1.5123
17223,15.704,5,0,0.00018763,1875,6.3146e-05,14.716,6.1187e-05,-0.00084082,-0.00018737,-1867.6,1.5117
17224,15.796,4.9091,0,0.0001853,1851.7,6.2391e-05,14.866,6.0412e-05,-2.7647e-05,-0.00018505,-1844.3,1.526
17225,15.704,4.9091,0.05,7.9669e-07,7.9614,6.1175e-07,4.5964,3.6965e-12,5.7273e-06,-6.1176e-07,-4.5966,1.5119
17226,15.704,5.1818,0,0.00018775,1876.2,6.3209e-05,15.006,6.1212e-05,-0.002591,-0.00018749,-1868.6,1.5112
17227,15.796,5.0909,0,0.00018542,1852.9,6.2448e-05,15.113,6.0437e-05,-0.00164,-0.00018515,-1845.3,1.5256
17228,15.704,5.0909,0.05,7.9653e-07,7.9598,6.1163e-07,4.5955,3.6975e-12,4.1541e-06,-6.1164e-07,-4.5956,1.5114
17229,15.704,5.3636,0,0.00018788,1877.5,6.3281e-05,15.338,6.1239e-05,-0.004034,-0.00018762,-1869.8,1.5107
17230,15.796,5.2727,0,0.00018554,1854.1,6.2513e-05,15.397,6.0464e-05,-0.0035918,-0.00018527,-1846.4,1.5251
17231,15.704,5.2727,0.05,7.9616e-07,7.9561,6.1135e-07,4.5934,4.5814e-12,5.162e-06,-6.1135e-07,-4.5935,1.5109
17232,15.704,5.5455,0,0.00018803,1879.1,6.3368e-05,15.766,6.1268e-05,-0.0077417,-0.00018776,-1871.1,1.5101
17233,15.796,5.4545,0,0.00018568,1855.5,6.2587e-05,15.728,6.0493e-05,-0.004578,-0.00018541,-1847.6,1.5245
17234,15.704,5.4545,0.05,7.9273e-07,7.9219,6.0872e-07,4.5736,3.6725e-12,5.1089e-06,-6.0873e-07,-4.5738,1.5104
17235,15.704,5.7273,0,0.00018835,1882.2,6.3588e-05,17.184,6.13e-05,-0.0062187,-0.00018805,-1873.5,1.5095
17236,15.796,5.6364,0,0.00018585,1857.2,6.2682e-05,16.208,6.0524e-05,-0.011095,-0.00018557,-1849,1.524
17237,15.704,5.6364,0.05,7.4267e-07,7.4216,5.7028e-07,4.2848,5.4808e-12,6.1495e-06,-5.7028e-07,-4.2849,1.5098
17238,15.796,5.8182,0,0.00018631,1861.9,6.3038e-05,18.625,6.0559e-05,-6.7021e-05,-0.00018599,-1852.5,1.5234
17239,15.704,5.8182,0.05,3.2871e-08,0.32848,2.5241e-08,0.18962,-3.0686e-12,-5.5948e-05,-2.5241e-08,-0.18968,1.5092
17240,15.704,5.9091,0,0.0001877,1875.7,6.2968e-05,12.293,6.1331e-05,-0.0039715,-0.00018749,-1869.6,1.5089
17241,15.888,0.27273,0,0.00018379,1836.7,6.2114e-05,17.52,5.9782e-05,-0.0064501,-0.00018349,-1827.9,1.5379
17242,15.98,0.18182,0,0.00018177,1816.5,6.1567e-05,18.954,5.9044e-05,1.1939e-05,-0.00018144,-1806.9,1.5518
17243,15.888,0.18182,0.05,3.3346e-08,0.33323,2.5604e-08,0.19241,3.3109e-12,5.6051e-05,-2.5606e-08,-0.19237,1.5376
17244,15.888,0.090909,0,0.00018314,1830.1,6.1479e-05,12.506,5.9814e-05,-0.0041045,-0.00018292,-1823.8,1.5373
17245,15.888,0.45455,0,0.00018348,1833.6,6.1897e-05,16.136,5.9748e-05,-0.0080433,-0.0001832,-1825.5,1.5385
17246,15.98,0.36364,0,0.0001813,1811.8,6.1212e-05,16.557,5.9007e-05,-0.011549,-0.00018102,-1803.5,1.5524
17247,15.888,0.36364,0.05,7.3955e-07,7.3904,5.6788e-07,4.2669,-1.8928e-12,4.9364e-06,-5.6788e-07,-4.2668,1.5382
17248,15.888,0.63636,0,0.00018333,1832.1,6.1815e-05,15.757,5.9717e-05,-0.004149,-0.00018306,-1824.1,1.539
17249,15.98,0.54545,0,0.00018114,1810.1,6.1121e-05,16.124,5.8975e-05,-0.0047071,-0.00018086,-1802,1.553
17250,15.888,0.54545,0.05,7.8937e-07,7.8882,6.0614e-07,4.5543,-5.3282e-13,8.624e-06,-6.0614e-07,-4.5543,1.5387
17251,15.888,0.81818,0,0.0001832,1830.8,6.1748e-05,15.474,5.9688e-05,-0.0026406,-0.00018293,-1823,1.5395
17252,15.98,0.72727,0,0.000181,1808.8,6.1053e-05,15.843,5.8944e-05,-0.0036754,-0.00018073,-1800.8,1.5535
17253,15.888,0.72727,0.05,7.9278e-07,7.9223,6.0875e-07,4.574,-5.3802e-13,8.309e-06,-6.0875e-07,-4.5739,1.5392
17254,15.888,1,0,0.00018309,1829.6,6.1689e-05,15.232,5.9662e-05,-0.00081912,-0.00018282,-1821.9,1.54
17255,15.98,0.90909,0,0.00018088,1807.6,6.0993e-05,15.608,5.8916e-05,-0.0016387,-0.00018061,-1799.7,1.554
17256,15.888,0.90909,0.05,7.9314e-07,7.926,6.0904e-07,4.5761,-1.4309e-12,6.2933e-06,-6.0903e-07,-4.576,1.5397
17257,15.888,1.1818,0,0.00018298,1828.5,6.1637e-05,15.025,5.9638e-05,0.00080459,-0.00018272,-1821,1.5404
17258,15.98,1.0909,0,0.00018077,1806.5,6.094e-05,15.408,5.889e-05,3.3736e-05,-0.0001805,-1798.7,1.5544
17259,15.888,1.0909,0.05,7.933e-07,7.9275,6.0916e-07,4.577,-1.4385e-12,4.7842e-06,-6.0915e-07,-4.5769,1.5402
17260,15.888,1.3636,0,0.00018289,1827.6,6.1592e-05,14.849,5.9616e-05,0.002338,-0.00018263,-1820.1,1.5408
17261,15.98,1.2727,0,0.00018067,1805.5,6.0894e-05,15.24,5.8866e-05,0.0016588,-0.00018041,-1797.8,1.5548
17262,15.888,1.2727,0.05,7.9343e-07,7.9288,6.0926e-07,4.5777,-5.3339e-13,5.4665e-06,-6.0926e-07,-4.5777,1.5406
17263,15.888,1.5455,0,0.0001828,1826.8,6.1552e-05,14.7,5.9596e-05,0.0037375,-0.00018255,-1819.4,1.5411
17264,15.98,1.4545,0,0.00018059,1804.6,6.0854e-05,15.1,5.8845e-05,0.0031406,-0.00018033,-1797,1.5552
17265,15.888,1.4545,0.05,7.9355e-07,7.93,6.0935e-07,4.5784,-7.7124e-14,5.2633e-06,-6.0934e-07,-4.5784,1.5409
17266,15.888,1.7273,0,0.00018273,1826.1,6.1518e-05,14.576,5.9579e-05,0.0049978,-0.00018248,-1818.7,1.5414
17267,15.98,1.6364,0,0.00018051,1803.9,6.0819e-05,14.985,5.8825e-05,0.0044867,-0.00018025,-1796.3,1.5555
17268,15.888,1.6364,0.05,7.9365e-07,7.931,6.0943e-07,4.579,-6.7908e-14,5.7107e-06,-6.0942e-07,-4.579,1.5413
17269,15.888,1.9091,0,0.00018267,1825.5,6.1489e-05,14.475,5.9564e-05,0.0061076,-0.00018242,-1818.2,1.5417
17270,15.98,1.8182,0,0.00018045,1803.2,6.079e-05,14.891,5.8809e-05,0.005683,-0.00018019,-1795.7,1.5558
17271,15.888,1.8182,0.05,7.9374e-07,7.9319,6.095e-07,4.5795,-6.5372e-14,5.0062e-06,-6.0949e-07,-4.5795,1.5416
17272,15.888,2.0909,0,0.00018262,1824.9,6.1466e-05,14.393,5.9551e-05,0.007059,-0.00018237,-1817.7,1.5419
17273,15.98,2,0,0.00018039,1802.7,6.0765e-05,14.815,5.8794e-05,0.006722,-0.00018013,-1795.2,1.556
17274,15.888,2,0.05,7.9382e-07,7.9327,6.0955e-07,4.5799,-5.7856e-14,5.2952e-06,-6.0955e-07,-4.5799,1.5418
17275,15.888,2.2727,0,0.00018258,1824.5,6.1446e-05,14.329,5.954e-05,0.0078439,-0.00018233,-1817.3,1.5421
17276,15.98,2.1818,0,0.00018035,1802.2,6.0745e-05,14.757,5.8782e-05,0.0075932,-0.00018009,-1794.8,1.5562
17277,15.888,2.1818,0.05,7.9388e-07,7.9333,6.096e-07,4.5803,-4.8557e-14,5.7134e-06,-6.096e-07,-4.5803,1.542
17278,15.888,2.4545,0,0.00018255,1824.2,6.1432e-05,14.281,5.9532e-05,0.0084599,-0.0001823,-1817,1.5422
17279,15.98,2.3636,0,0.00018031,1801.9,6.073e-05,14.712,5.8773e-05,0.0082969,-0.00018006,-1794.5,1.5564
17280,15.888,2.3636,0.05,7.9393e-07,7.9339,6.0964e-07,4.5806,-3.9348e-14,5.5368e-06,-6.0964e-07,-4.5806,1.5422
17281,15.888,2.6364,0,0.00018252,1824,6.1421e-05,14.248,5.9526e-05,0.0089024,-0.00018228,-1816.8,1.5423
17282,15.98,2.5455,0,0.00018028,1801.6,6.0718e-05,14.68,5.8766e-05,0.008827,-0.00018003,-1794.2,1.5565
17283,15.888,2.5455,0.05,7.9397e-07,7.9342,6.0967e-07,4.5808,8.8039e-13,5.9806e-06,-6.0967e-07,-4.5808,1.5423
17284,15.888,2.8182,0,0.00018251,1823.8,6.1415e-05,14.228,5.9523e-05,0.0091685,-0.00018226,-1816.7,1.5424
17285,15.98,2.7273,0,0.00018027,1801.4,6.0711e-05,14.66,5.8761e-05,0.0091822,-0.00018001,-1794,1.5566
17286,15.888,2.7273,0.05,7.94e-07,7.9345,6.0969e-07,4.581,8.9194e-13,4.7553e-06,-6.0969e-07,-4.581,1.5424
17287,15.888,3,0,0.00018251,1823.8,6.1413e-05,14.222,5.9522e-05,0.0092575,-0.00018226,-1816.6,1.5424
17288,15.98,2.9091,0,0.00018026,1801.3,6.0707e-05,14.65,5.8758e-05,0.0093591,-0.00018,-1793.9,1.5566
17289,15.888,2.9091,0.05,7.9401e-07,7.9346,6.097e-07,4.581,3.632e-12,5.7967e-06,-6.097e-07,-4.5811,1.5424
17290,15.888,3.1818,0,0.00018251,1823.8,6.1415e-05,14.228,5.9523e-05,0.0091679,-0.00018226,-1816.7,1.5424
17291,15.98,3.0909,0,0.00018026,1801.3,6.0707e-05,14.65,5.8758e-05,0.0093593,-0.00018,-1793.9,1.5566
17292,15.888,3.0909,0.05,7.9401e-07,7.9346,6.097e-07,4.581,3.6439e-12,5.1707e-06,-6.097e-07,-4.5811,1.5424
17293,15.888,3.3636,0,0.00018252,1824,6.1422e-05,14.248,5.9526e-05,0.0089016,-0.00018228,-1816.8,1.5423
17294,15.98,3.2727,0,0.00018027,1801.4,6.0711e-05,14.66,5.8761e-05,0.0091816,-0.00018001,-1794,1.5566
17295,15.888,3.2727,0.05,7.94e-07,7.9345,6.0969e-07,4.581,1.8363e-12,5.6151e-06,-6.0969e-07,-4.581,1.5424
17296,15.888,3.5455,0,0.00018255,1824.2,6.1432e-05,14.281,5.9532e-05,0.0084599,-0.0001823,-1817,1.5422
17297,15.98,3.4545,0,0.00018028,1801.6,6.0718e-05,14.68,5.8766e-05,0.0088274,-0.00018003,-1794.2,1.5565
17298,15.888,3.4545,0.05,7.9397e-07,7.9342,6.0967e-07,4.5808,3.6664e-12,5.4615e-06,-6.0967e-07,-4.5809,1.5423
17299,15.888,3.7273,0,0.00018258,1824.5,6.1446e-05,14.329,5.954e-05,0.0078445,-0.00018233,-1817.3,1.5421
17300,15.98,3.6364,0,0.00018031,1801.9,6.073e-05,14.712,5.8773e-05,0.0082961,-0.00018006,-1794.5,1.5564
17301,15.888,3.6364,0.05,7.9393e-07,7.9339,6.0964e-07,4.5806,1.8596e-12,6.2486e-06,-6.0964e-07,-4.5806,1.5422
17302,15.888,3.9091,0,0.00018262,1824.9,6.1466e-05,14.393,5.9551e-05,0.0070593,-0.00018237,-1817.7,1.5419
17303,15.98,3.8182,0,0.00018035,1802.2,6.0745e-05,14.757,5.8782e-05,0.0075933,-0.00018009,-1794.8,1.5562
17304,15.888,3.8182,0.05,7.9388e-07,7.9333,6.096e-07,4.5803,3.687e-12,7.0446e-06,-6.096e-07,-4.5803,1.542
17305,15.888,4.0909,0,0.00018267,1825.5,6.1489e-05,14.475,5.9564e-05,0.0061078,-0.00018242,-1818.2,1.5417
17306,15.98,4,0,0.00018039,1802.7,6.0765e-05,14.816,5.8794e-05,0.006721,-0.00018013,-1795.2,1.556
17307,15.888,4,0.05,7.9382e-07,7.9327,6.0955e-07,4.5799,2.7854e-12,6.27e-06,-6.0956e-07,-4.58,1.5418
17308,15.888,4.2727,0,0.00018273,1826.1,6.1518e-05,14.576,5.9579e-05,0.004998,-0.00018248,-1818.7,1.5414
17309,15.98,4.1818,0,0.00018045,1803.2,6.079e-05,14.891,5.8809e-05,0.0056824,-0.00018019,-1795.7,1.5558
17310,15.888,4.1818,0.05,7.9374e-07,7.9319,6.0949e-07,4.5795,1.8804e-12,5.8089e-06,-6.095e-07,-4.5795,1.5416
17311,15.888,4.4545,0,0.0001828,1826.8,6.1552e-05,14.7,5.9596e-05,0.0037371,-0.00018255,-1819.4,1.5411
17312,15.98,4.3636,0,0.00018051,1803.9,6.0819e-05,14.985,5.8825e-05,0.0044875,-0.00018025,-1796.3,1.5555
17313,15.888,4.3636,0.05,7.9365e-07,7.931,6.0942e-07,4.579,2.7987e-12,7.1856e-06,-6.0943e-07,-4.579,1.5413
17314,15.888,4.6364,0,0.00018289,1827.6,6.1592e-05,14.849,5.9616e-05,0.0023373,-0.00018263,-1820.1,1.5408
17315,15.98,4.5455,0,0.00018059,1804.6,6.0854e-05,15.1,5.8845e-05,0.0031402,-0.00018033,-1797,1.5552
17316,15.888,4.5455,0.05,7.9355e-07,7.93,6.0934e-07,4.5784,2.7923e-12,5.6386e-06,-6.0935e-07,-4.5784,1.5409
17317,15.888,4.8182,0,0.00018298,1828.5,6.1637e-05,15.025,5.9638e-05,0.00080361,-0.00018272,-1821,1.5404
17318,15.98,4.7273,0,0.00018067,1805.5,6.0894e-05,15.24,5.8866e-05,0.0016583,-0.00018041,-1797.8,1.5548
17319,15.888,4.7273,0.05,7.9343e-07,7.9288,6.0925e-07,4.5777,3.7036e-12,6.4994e-06,-6.0926e-07,-4.5778,1.5406
17320,15.888,5,0,0.00018309,1829.6,6.1689e-05,15.232,5.9662e-05,-0.0008207,-0.00018282,-1821.9,1.54
17321,15.98,4.9091,0,0.00018077,1806.5,6.094e-05,15.408,5.889e-05,3.2782e-05,-0.0001805,-1798.7,1.5544
17322,15.888,4.9091,0.05,7.933e-07,7.9275,6.0915e-07,4.5769,4.1567e-12,6.3512e-06,-6.0916e-07,-4.577,1.5402
17323,15.888,5.1818,0,0.0001832,1830.8,6.1748e-05,15.474,5.9688e-05,-0.0026417,-0.00018293,-1823,1.5395
17324,15.98,5.0909,0,0.00018088,1807.6,6.0993e-05,15.608,5.8916e-05,-0.0016404,-0.00018061,-1799.7,1.554
17325,15.888,5.0909,0.05,7.9314e-07,7.926,6.0903e-07,4.576,3.6818e-12,5.0459e-06,-6.0904e-07,-4.5761,1.5397
17326,15.888,5.3636,0,0.00018333,1832.1,6.1815e-05,15.757,5.9717e-05,-0.004149,-0.00018306,-1824.1,1.539
17327,15.98,5.2727,0,0.000181,1808.8,6.1053e-05,15.843,5.8944e-05,-0.0036761,-0.00018073,-1800.8,1.5535
17328,15.888,5.2727,0.05,7.9278e-07,7.9223,6.0875e-07,4.5739,4.1482e-12,6.0389e-06,-6.0876e-07,-4.574,1.5392
17329,15.888,5.5455,0,0.00018348,1833.6,6.1897e-05,16.136,5.9748e-05,-0.0080431,-0.0001832,-1825.5,1.5385
17330,15.98,5.4545,0,0.00018114,1810.1,6.1121e-05,16.124,5.8975e-05,-0.0047079,-0.00018086,-1802,1.553
17331,15.888,5.4545,0.05,7.8937e-07,7.8883,6.0614e-07,4.5542,3.6881e-12,5.8813e-06,-6.0614e-07,-4.5543,1.5387
17332,15.888,5.7273,0,0.00018379,1836.7,6.2114e-05,17.52,5.9782e-05,-0.0064501,-0.00018349,-1827.9,1.5379
17333,15.98,5.6364,0,0.0001813,1811.8,6.1212e-05,16.557,5.9007e-05,-0.011548,-0.00018102,-1803.5,1.5524
17334,15.888,5.6364,0.05,7.3955e-07,7.3904,5.6788e-07,4.2668,4.5444e-12,6.206e-06,-5.6789e-07,-4.2669,1.5382
17335,15.98,5.8182,0,0.00018177,1816.5,6.1567e-05,18.954,5.9044e-05,1.2294e-05,-0.00018144,-1806.9,1.5518
17336,15.888,5.8182,0.05,3.3346e-08,0.33323,2.5606e-08,0.19236,-3.6177e-12,-6.2051e-05,-2.5605e-08,-0.19242,1.5376
17337,15.888,5.9091,0,0.00018314,1830.1,6.1479e-05,12.506,5.9814e-05,-0.0041044,-0.00018292,-1823.8,1.5373
17338,16.072,0.27273,0,0.00017926,1791.4,6.0647e-05,17.86,5.827e-05,-0.0066666,-0.00017895,-1782.4,1.5664
17339,16.164,0.18182,0,0.00017725,1771.3,6.0103e-05,19.287,5.7536e-05,9.9899e-05,-0.00017692,-1761.6,1.5804
17340,16.072,0.18182,0.05,3.3732e-08,0.33708,2.5902e-08,0.19463,3.6589e-12,4.1777e-05,-2.5902e-08,-0.1946,1.5661
17341,16.072,0.090909,0,0.00017859,1784.7,5.9998e-05,12.722,5.8304e-05,-0.0042198,-0.00017837,-1778.3,1.5658
17342,16.072,0.45455,0,0.00017895,1788.3,6.0433e-05,16.51,5.8234e-05,-0.0083262,-0.00017867,-1780,1.5669
17343,16.164,0.36364,0,0.00017678,1766.6,5.975e-05,16.91,5.7497e-05,-0.011996,-0.00017649,-1758.1,1.581
17344,16.072,0.36364,0.05,7.3646e-07,7.3595,5.6551e-07,4.2491,-1.8807e-12,3.6052e-06,-5.6551e-07,-4.249,1.5666
17345,16.072,0.63636,0,0.0001788,1786.8,6.0356e-05,16.18,5.8202e-05,-0.0042443,-0.00017852,-1778.7,1.5675
17346,16.164,0.54545,0,0.00017662,1765,5.9663e-05,16.525,5.7463e-05,-0.0048256,-0.00017633,-1756.6,1.5815
17347,16.072,0.54545,0.05,7.8603e-07,7.8549,6.0358e-07,4.535,-1.4322e-12,4.0674e-06,-6.0357e-07,-4.535,1.5672
17348,16.072,0.81818,0,0.00017868,1785.5,6.0294e-05,15.946,5.8171e-05,-0.0026715,-0.0001784,-1777.5,1.568
17349,16.164,0.72727,0,0.00017649,1763.6,5.96e-05,16.294,5.7431e-05,-0.003748,-0.0001762,-1755.4,1.582
17350,16.072,0.72727,0.05,7.8942e-07,7.8887,6.0618e-07,4.5546,-5.313e-13,4.5543e-06,-6.0617e-07,-4.5545,1.5677
17351,16.072,1,0,0.00017856,1784.4,6.024e-05,15.753,5.8143e-05,-0.0007766,-0.00017829,-1776.5,1.5684
17352,16.164,0.90909,0,0.00017637,1762.4,5.9545e-05,16.108,5.7401e-05,-0.0016244,-0.00017609,-1754.3,1.5825
17353,16.072,0.90909,0.05,7.8978e-07,7.8924,6.0646e-07,4.5567,-1.4347e-12,5.8128e-06,-6.0645e-07,-4.5567,1.5682
17354,16.072,1.1818,0,0.00017846,1783.4,6.0193e-05,15.592,5.8118e-05,0.00090344,-0.00017819,-1775.5,1.5688
17355,16.164,1.0909,0,0.00017626,1761.4,5.9497e-05,15.957,5.7374e-05,0.00010926,-0.00017598,-1753.4,1.5829
17356,16.072,1.0909,0.05,7.8994e-07,7.894,6.0658e-07,4.5576,-1.4397e-12,7.7981e-06,-6.0658e-07,-4.5575,1.5686
17357,16.072,1.3636,0,0.00017837,1782.5,6.0152e-05,15.461,5.8095e-05,0.0024827,-0.0001781,-1774.7,1.5692
17358,16.164,1.2727,0,0.00017617,1760.4,5.9456e-05,15.835,5.7349e-05,0.001786,-0.00017589,-1752.5,1.5833
17359,16.072,1.2727,0.05,7.9007e-07,7.8953,6.0668e-07,4.5583,-1.4418e-12,6.668e-06,-6.0668e-07,-4.5583,1.569
17360,16.072,1.5455,0,0.00017829,1781.7,6.0117e-05,15.354,5.8074e-05,0.0039163,-0.00017802,-1773.9,1.5696
17361,16.164,1.4545,0,0.00017608,1759.6,5.942e-05,15.739,5.7326e-05,0.0033099,-0.00017581,-1751.7,1.5836
17362,16.072,1.4545,0.05,7.9019e-07,7.8964,6.0677e-07,4.559,-7.8695e-14,6.8043e-06,-6.0677e-07,-4.559,1.5694
17363,16.072,1.7273,0,0.00017822,1781,6.0087e-05,15.268,5.8055e-05,0.005203,-0.00017796,-1773.3,1.5698
17364,16.164,1.6364,0,0.00017601,1758.9,5.939e-05,15.664,5.7306e-05,0.0046856,-0.00017574,-1751,1.584
17365,16.072,1.6364,0.05,7.9029e-07,7.8974,6.0685e-07,4.5596,-7.6291e-14,6.8375e-06,-6.0684e-07,-4.5596,1.5697
17366,16.072,1.9091,0,0.00017816,1780.4,6.0062e-05,15.201,5.8039e-05,0.0063326,-0.0001779,-1772.7,1.5701
17367,16.164,1.8182,0,0.00017595,1758.2,5.9364e-05,15.606,5.7288e-05,0.0059048,-0.00017568,-1750.4,1.5842
17368,16.072,1.8182,0.05,7.9038e-07,7.8983,6.0691e-07,4.5601,-7.0101e-14,6.3532e-06,-6.0691e-07,-4.5601,1.57
17369,16.072,2.0909,0,0.00017811,1779.9,6.0041e-05,15.149,5.8026e-05,0.007295,-0.00017785,-1772.3,1.5703
17370,16.164,2,0,0.00017589,1757.7,5.9343e-05,15.564,5.7273e-05,0.0069581,-0.00017562,-1749.9,1.5845
17371,16.072,2,0.05,7.9046e-07,7.8991,6.0697e-07,4.5605,-5.9457e-14,6.5662e-06,-6.0697e-07,-4.5605,1.5702
17372,16.072,2.2727,0,0.00017807,1779.5,6.0025e-05,15.109,5.8015e-05,0.0080877,-0.00017781,-1771.9,1.5705
17373,16.164,2.1818,0,0.00017585,1757.3,5.9326e-05,15.533,5.726e-05,0.0078403,-0.00017558,-1749.5,1.5847
17374,16.072,2.1818,0.05,7.9052e-07,7.8997,6.0702e-07,4.5609,8.5537e-13,6.5135e-06,-6.0702e-07,-4.5609,1.5704
17375,16.072,2.4545,0,0.00017804,1779.2,6.0012e-05,15.081,5.8006e-05,0.0087077,-0.00017778,-1771.6,1.5706
17376,16.164,2.3636,0,0.00017582,1756.9,5.9313e-05,15.511,5.725e-05,0.0085497,-0.00017555,-1749.1,1.5848
17377,16.072,2.3636,0.05,7.9057e-07,7.9002,6.0706e-07,4.5612,4.1088e-13,6.9459e-06,-6.0706e-07,-4.5612,1.5706
17378,16.072,2.6364,0,0.00017802,1779,6.0003e-05,15.062,5.8e-05,0.0091522,-0.00017776,-1771.4,1.5707
17379,16.164,2.5455,0,0.00017579,1756.7,5.9303e-05,15.496,5.7242e-05,0.009083,-0.00017552,-1748.9,1.5849
17380,16.072,2.5455,0.05,7.9061e-07,7.9006,6.0709e-07,4.5614,8.7808e-13,6.9147e-06,-6.0709e-07,-4.5614,1.5707
17381,16.072,2.8182,0,0.00017801,1778.8,5.9998e-05,15.051,5.7996e-05,0.0094192,-0.00017775,-1771.3,1.5708
17382,16.164,2.7273,0,0.00017577,1756.5,5.9297e-05,15.487,5.7237e-05,0.0094398,-0.0001755,-1748.7,1.585
17383,16.072,2.7273,0.05,7.9063e-07,7.9009,6.0711e-07,4.5616,8.9034e-13,6.292e-06,-6.0711e-07,-4.5616,1.5708
17384,16.072,3,0,0.000178,1778.8,5.9996e-05,15.048,5.7995e-05,0.0095076,-0.00017774,-1771.2,1.5708
17385,16.164,2.9091,0,0.00017576,1756.4,5.9294e-05,15.483,5.7235e-05,0.0096176,-0.0001755,-1748.6,1.5851
17386,16.072,2.9091,0.05,7.9064e-07,7.901,6.0712e-07,4.5616,1.8125e-12,6.8654e-06,-6.0712e-07,-4.5616,1.5708
17387,16.072,3.1818,0,0.00017801,1778.8,5.9998e-05,15.051,5.7996e-05,0.0094194,-0.00017775,-1771.3,1.5708
17388,16.164,3.0909,0,0.00017576,1756.4,5.9294e-05,15.483,5.7235e-05,0.0096175,-0.0001755,-1748.6,1.5851
17389,16.072,3.0909,0.05,7.9064e-07,7.901,6.0712e-07,4.5616,1.8255e-12,6.4861e-06,-6.0712e-07,-4.5617,1.5708
17390,16.072,3.3636,0,0.00017802,1779,6.0003e-05,15.062,5.8e-05,0.0091527,-0.00017776,-1771.4,1.5707
17391,16.164,3.2727,0,0.00017577,1756.5,5.9297e-05,15.487,5.7237e-05,0.0094397,-0.0001755,-1748.7,1.585
17392,16.072,3.2727,0.05,7.9063e-07,7.9009,6.0711e-07,4.5615,1.8383e-12,6.9392e-06,-6.0711e-07,-4.5616,1.5708
17393,16.072,3.5455,0,0.00017804,1779.2,6.0012e-05,15.081,5.8006e-05,0.0087073,-0.00017778,-1771.6,1.5706
17394,16.164,3.4545,0,0.00017579,1756.7,5.9303e-05,15.496,5.7242e-05,0.0090832,-0.00017552,-1748.9,1.5849
17395,16.072,3.4545,0.05,7.9061e-07,7.9006,6.0709e-07,4.5614,2.3051e-12,6.7903e-06,-6.0709e-07,-4.5614,1.5707
17396,16.072,3.7273,0,0.00017807,1779.5,6.0025e-05,15.109,5.8015e-05,0.0080865,-0.00017781,-1771.9,1.5705
17397,16.164,3.6364,0,0.00017582,1756.9,5.9313e-05,15.511,5.725e-05,0.0085492,-0.00017555,-1749.1,1.5848
17398,16.072,3.6364,0.05,7.9057e-07,7.9002,6.0706e-07,4.5612,2.7709e-12,7.4691e-06,-6.0706e-07,-4.5612,1.5706
17399,16.072,3.9091,0,0.00017811,1779.9,6.0041e-05,15.149,5.8026e-05,0.0072938,-0.00017785,-1772.3,1.5703
17400,16.164,3.8182,0,0.00017585,1757.3,5.9326e-05,15.533,5.726e-05,0.0078389,-0.00017558,-1749.5,1.5847
17401,16.072,3.8182,0.05,7.9052e-07,7.8997,6.0702e-07,4.5609,2.3282e-12,8.2796e-06,-6.0702e-07,-4.5609,1.5704
17402,16.072,4.0909,0,0.00017816,1780.4,6.0062e-05,15.201,5.8039e-05,0.0063308,-0.0001779,-1772.7,1.5701
17403,16.164,4,0,0.00017589,1757.7,5.9343e-05,15.564,5.7273e-05,0.0069576,-0.00017562,-1749.9,1.5845
17404,16.072,4,0.05,7.9046e-07,7.8991,6.0697e-07,4.5605,3.7012e-12,7.6208e-06,-6.0698e-07,-4.5606,1.5702
17405,16.072,4.2727,0,0.00017822,1781,6.0087e-05,15.268,5.8055e-05,0.0052031,-0.00017796,-1773.3,1.5698
17406,16.164,4.1818,0,0.00017595,1758.2,5.9364e-05,15.606,5.7288e-05,0.0059039,-0.00017568,-1750.4,1.5842
17407,16.072,4.1818,0.05,7.9038e-07,7.8983,6.0691e-07,4.5601,2.3455e-12,6.7237e-06,-6.0691e-07,-4.5601,1.57
17408,16.072,4.4545,0,0.00017829,1781.7,6.0117e-05,15.354,5.8074e-05,0.0039171,-0.00017802,-1773.9,1.5696
17409,16.164,4.3636,0,0.00017601,1758.9,5.939e-05,15.664,5.7306e-05,0.0046865,-0.00017574,-1751,1.584
17410,16.072,4.3636,0.05,7.9029e-07,7.8974,6.0684e-07,4.5595,2.8033e-12,8.3134e-06,-6.0685e-07,-4.5596,1.5697
17411,16.072,4.6364,0,0.00017837,1782.5,6.0152e-05,15.461,5.8095e-05,0.0024824,-0.0001781,-1774.7,1.5692
17412,16.164,4.5455,0,0.00017608,1759.6,5.942e-05,15.739,5.7326e-05,0.0033088,-0.00017581,-1751.7,1.5836
17413,16.072,4.5455,0.05,7.9019e-07,7.8964,6.0676e-07,4.559,3.2593e-12,6.7056e-06,-6.0677e-07,-4.559,1.5694
17414,16.072,4.8182,0,0.00017846,1783.4,6.0193e-05,15.593,5.8118e-05,0.00090293,-0.00017819,-1775.5,1.5688
17415,16.164,4.7273,0,0.00017617,1760.4,5.9456e-05,15.835,5.7349e-05,0.0017859,-0.00017589,-1752.5,1.5833
17416,16.072,4.7273,0.05,7.9007e-07,7.8953,6.0667e-07,4.5583,2.7997e-12,7.6764e-06,-6.0668e-07,-4.5584,1.569
17417,16.072,5,0,0.00017856,1784.4,6.024e-05,15.753,5.8143e-05,-0.00077772,-0.00017829,-1776.5,1.5684
17418,16.164,4.9091,0,0.00017626,1761.4,5.9497e-05,15.957,5.7374e-05,0.00010833,-0.00017598,-1753.4,1.5829
17419,16.072,4.9091,0.05,7.8994e-07,7.894,6.0657e-07,4.5575,3.6994e-12,7.5064e-06,-6.0658e-07,-4.5576,1.5686
17420,16.072,5.1818,0,0.00017868,1785.5,6.0294e-05,15.946,5.8171e-05,-0.0026727,-0.0001784,-1777.5,1.568
17421,16.164,5.0909,0,0.00017637,1762.4,5.9545e-05,16.108,5.7401e-05,-0.0016266,-0.00017609,-1754.3,1.5825
17422,16.072,5.0909,0.05,7.8978e-07,7.8924,6.0645e-07,4.5566,3.7053e-12,5.6651e-06,-6.0646e-07,-4.5567,1.5682
17423,16.072,5.3636,0,0.0001788,1786.8,6.0356e-05,16.18,5.8202e-05,-0.0042457,-0.00017852,-1778.7,1.5675
17424,16.164,5.2727,0,0.00017649,1763.6,5.96e-05,16.294,5.7431e-05,-0.0037485,-0.0001762,-1755.4,1.582
17425,16.072,5.2727,0.05,7.8942e-07,7.8887,6.0617e-07,4.5545,4.152e-12,6.7536e-06,-6.0618e-07,-4.5546,1.5677
17426,16.072,5.5455,0,0.00017895,1788.3,6.0433e-05,16.51,5.8234e-05,-0.0083271,-0.00017867,-1780,1.5669
17427,16.164,5.4545,0,0.00017662,1765,5.9663e-05,16.525,5.7463e-05,-0.0048266,-0.00017633,-1756.6,1.5815
17428,16.072,5.4545,0.05,7.8603e-07,7.8549,6.0357e-07,4.535,3.6767e-12,6.475e-06,-6.0358e-07,-4.5351,1.5672
17429,16.072,5.7273,0,0.00017926,1791.4,6.0647e-05,17.86,5.827e-05,-0.0066661,-0.00017895,-1782.4,1.5664
17430,16.164,5.6364,0,0.00017678,1766.6,5.975e-05,16.91,5.7497e-05,-0.011994,-0.00017649,-1758.1,1.581
17431,16.072,5.6364,0.05,7.3646e-07,7.3595,5.6551e-07,4.249,3.6522e-12,7.0489e-06,-5.6551e-07,-4.2491,1.5666
17432,16.164,5.8182,0,0.00017725,1771.3,6.0103e-05,19.287,5.7536e-05,0.00010078,-0.00017692,-1761.6,1.5804
17433,16.072,5.8182,0.05,3.3732e-08,0.33708,2.5903e-08,0.19459,-3.2172e-12,-5.6442e-05,-2.5901e-08,-0.19464,1.5661
17434,16.072,5.9091,0,0.00017859,1784.7,5.9998e-05,12.722,5.8304e-05,-0.0042196,-0.00017837,-1778.3,1.5658
17435,16.257,0.27273,0,0.00017475,1746.3,5.9188e-05,18.204,5.6764e-05,-0.0068842,-0.00017444,-1737.2,1.595
17436,16.349,0.18182,0,0.00017276,1726.4,5.8646e-05,19.625,5.6035e-05,0.00018354,-0.00017241,-1716.5,1.6091
17437,16.257,0.18182,0.05,3.4045e-08,0.34022,2.6142e-08,0.19644,3.8221e-12,4.2507e-05,-2.6143e-08,-0.19641,1.5947
17438,16.257,0.090909,0,0.00017407,1739.5,5.8523e-05,12.942,5.68e-05,-0.0043306,-0.00017384,-1733,1.5944
17439,16.257,0.45455,0,0.00017444,1743.2,5.8976e-05,16.889,5.6727e-05,-0.008611,-0.00017415,-1734.7,1.5956
17440,16.349,0.36364,0,0.00017228,1721.6,5.8294e-05,17.268,5.5994e-05,-0.012455,-0.00017198,-1712.9,1.6096
17441,16.257,0.36364,0.05,7.3341e-07,7.3291,5.6317e-07,4.2315,-1.8538e-12,3.7626e-06,-5.6317e-07,-4.2314,1.5953
17442,16.257,0.63636,0,0.0001743,1741.8,5.8903e-05,16.608,5.6692e-05,-0.0043375,-0.00017401,-1733.4,1.5961
17443,16.349,0.54545,0,0.00017212,1720,5.8212e-05,16.932,5.5958e-05,-0.0049495,-0.00017182,-1711.5,1.6102
17444,16.257,0.54545,0.05,7.8272e-07,7.8218,6.0104e-07,4.516,-2.3327e-12,2.3213e-06,-6.0103e-07,-4.5159,1.5958
17445,16.257,0.81818,0,0.00017417,1740.5,5.8847e-05,16.425,5.6661e-05,-0.0026958,-0.00017389,-1732.2,1.5966
17446,16.349,0.72727,0,0.00017199,1718.7,5.8154e-05,16.752,5.5924e-05,-0.0038223,-0.0001717,-1710.3,1.6107
17447,16.257,0.72727,0.05,7.8609e-07,7.8555,6.0362e-07,4.5354,-1.8745e-12,2.8825e-06,-6.0362e-07,-4.5354,1.5963
17448,16.257,1,0,0.00017406,1739.4,5.8798e-05,16.281,5.6631e-05,-0.00072623,-0.00017378,-1731.2,1.597
17449,16.349,0.90909,0,0.00017187,1717.5,5.8104e-05,16.617,5.5893e-05,-0.0016115,-0.00017158,-1709.2,1.6111
17450,16.257,0.90909,0.05,7.8646e-07,7.8592,6.039e-07,4.5375,-1.8942e-12,6.9214e-06,-6.039e-07,-4.5375,1.5968
17451,16.257,1.1818,0,0.00017396,1738.4,5.8756e-05,16.168,5.6604e-05,0.0010103,-0.00017368,-1730.3,1.5974
17452,16.349,1.0909,0,0.00017177,1716.5,5.8062e-05,16.515,5.5864e-05,0.00018586,-0.00017148,-1708.2,1.6115
17453,16.257,1.0909,0.05,7.8662e-07,7.8607,6.0403e-07,4.5384,-8.0578e-14,8.9665e-06,-6.0402e-07,-4.5384,1.5972
17454,16.257,1.3636,0,0.00017387,1737.5,5.872e-05,16.082,5.658e-05,0.0026374,-0.00017359,-1729.4,1.5978
17455,16.349,1.2727,0,0.00017168,1715.6,5.8025e-05,16.44,5.5837e-05,0.0019161,-0.00017139,-1707.3,1.6119
17456,16.257,1.2727,0.05,7.8675e-07,7.862,6.0413e-07,4.5392,-9.9659e-13,8.0563e-06,-6.0412e-07,-4.5391,1.5976
17457,16.257,1.5455,0,0.0001738,1736.8,5.8689e-05,16.017,5.6558e-05,0.0041083,-0.00017352,-1728.7,1.5981
17458,16.349,1.4545,0,0.0001716,1714.8,5.7994e-05,16.389,5.5813e-05,0.0034821,-0.00017131,-1706.5,1.6123
17459,16.257,1.4545,0.05,7.8686e-07,7.8632,6.0421e-07,4.5398,-5.3399e-13,8.2584e-06,-6.0421e-07,-4.5398,1.5979
17460,16.257,1.7273,0,0.00017373,1736.1,5.8663e-05,15.971,5.6538e-05,0.0054207,-0.00017345,-1728.1,1.5984
17461,16.349,1.6364,0,0.00017153,1714.1,5.7968e-05,16.355,5.5792e-05,0.0048904,-0.00017124,-1705.8,1.6126
17462,16.257,1.6364,0.05,7.8697e-07,7.8642,6.0429e-07,4.5404,-8.1112e-14,8.2285e-06,-6.0429e-07,-4.5404,1.5982
17463,16.257,1.9091,0,0.00017367,1735.5,5.8642e-05,15.938,5.6521e-05,0.0065673,-0.0001734,-1727.5,1.5986
17464,16.349,1.8182,0,0.00017147,1713.5,5.7947e-05,16.336,5.5773e-05,0.0061309,-0.00017118,-1705.3,1.6128
17465,16.257,1.8182,0.05,7.8705e-07,7.8651,6.0436e-07,4.5409,-7.0662e-14,7.4681e-06,-6.0436e-07,-4.5409,1.5985
17466,16.257,2.0909,0,0.00017363,1735.1,5.8624e-05,15.917,5.6507e-05,0.0075435,-0.00017335,-1727,1.5988
17467,16.349,2,0,0.00017142,1713,5.7929e-05,16.326,5.5757e-05,0.0072001,-0.00017113,-1704.8,1.6131
17468,16.257,2,0.05,7.8713e-07,7.8659,6.0442e-07,4.5414,-6.3362e-14,7.8857e-06,-6.0442e-07,-4.5414,1.5987
17469,16.257,2.2727,0,0.00017359,1734.7,5.8611e-05,15.903,5.6495e-05,0.0083448,-0.00017331,-1726.7,1.599
17470,16.349,2.1818,0,0.00017137,1712.6,5.7915e-05,16.324,5.5744e-05,0.0080947,-0.00017109,-1704.3,1.6132
17471,16.257,2.1818,0.05,7.8719e-07,7.8665,6.0447e-07,4.5417,8.5743e-13,8.3033e-06,-6.0447e-07,-4.5417,1.5989
17472,16.257,2.4545,0,0.00017356,1734.4,5.86e-05,15.895,5.6486e-05,0.0089695,-0.00017328,-1726.4,1.5992
17473,16.349,2.3636,0,0.00017134,1712.2,5.7905e-05,16.325,5.5733e-05,0.0088101,-0.00017106,-1704,1.6134
17474,16.257,2.3636,0.05,7.8724e-07,7.867,6.0451e-07,4.542,1.3201e-12,8.3767e-06,-6.0451e-07,-4.542,1.5991
17475,16.257,2.6364,0,0.00017354,1734.2,5.8593e-05,15.89,5.6479e-05,0.0094165,-0.00017326,-1726.2,1.5993
17476,16.349,2.5455,0,0.00017132,1712,5.7897e-05,16.328,5.5725e-05,0.0093482,-0.00017103,-1703.8,1.6135
17477,16.257,2.5455,0.05,7.8728e-07,7.8674,6.0453e-07,4.5422,8.7733e-13,8.575e-06,-6.0454e-07,-4.5422,1.5992
17478,16.257,2.8182,0,0.00017353,1734.1,5.8589e-05,15.888,5.6476e-05,0.0096849,-0.00017325,-1726.1,1.5993
17479,16.349,2.7273,0,0.0001713,1711.8,5.7892e-05,16.332,5.572e-05,0.0097065,-0.00017102,-1703.6,1.6136
17480,16.257,2.7273,0.05,7.8731e-07,7.8676,6.0455e-07,4.5424,4.3525e-13,7.3623e-06,-6.0455e-07,-4.5424,1.5993
17481,16.257,3,0,0.00017352,1734,5.8587e-05,15.888,5.6474e-05,0.0097744,-0.00017325,-1726,1.5993
17482,16.349,2.9091,0,0.00017129,1711.8,5.7889e-05,16.333,5.5717e-05,0.0098855,-0.00017101,-1703.5,1.6136
17483,16.257,2.9091,0.05,7.8732e-07,7.8678,6.0456e-07,4.5425,1.3576e-12,8.2949e-06,-6.0457e-07,-4.5425,1.5993
17484,16.257,3.1818,0,0.00017353,1734.1,5.8589e-05,15.888,5.6476e-05,0.0096845,-0.00017325,-1726.1,1.5993
17485,16.349,3.0909,0,0.00017129,1711.8,5.7889e-05,16.333,5.5717e-05,0.0098856,-0.00017101,-1703.5,1.6136
17486,16.257,3.0909,0.05,7.8732e-07,7.8678,6.0456e-07,4.5425,1.8256e-12,7.6793e-06,-6.0456e-07,-4.5425,1.5993
17487,16.257,3.3636,0,0.00017354,1734.2,5.8593e-05,15.89,5.6479e-05,0.0094161,-0.00017326,-1726.2,1.5993
17488,16.349,3.2727,0,0.0001713,1711.8,5.7892e-05,16.332,5.572e-05,0.0097063,-0.00017102,-1703.6,1.6136
17489,16.257,3.2727,0.05,7.8731e-07,7.8676,6.0455e-07,4.5424,1.8388e-12,8.1355e-06,-6.0455e-07,-4.5424,1.5993
17490,16.257,3.5455,0,0.00017356,1734.4,5.86e-05,15.895,5.6486e-05,0.0089695,-0.00017328,-1726.4,1.5992
17491,16.349,3.4545,0,0.00017132,1712,5.7897e-05,16.328,5.5725e-05,0.0093479,-0.00017103,-1703.8,1.6135
17492,16.257,3.4545,0.05,7.8728e-07,7.8674,6.0453e-07,4.5422,1.8517e-12,8.1088e-06,-6.0453e-07,-4.5423,1.5992
17493,16.257,3.7273,0,0.00017359,1734.7,5.8611e-05,15.903,5.6495e-05,0.0083442,-0.00017331,-1726.7,1.599
17494,16.349,3.6364,0,0.00017134,1712.2,5.7905e-05,16.325,5.5733e-05,0.0088103,-0.00017106,-1704,1.6134
17495,16.257,3.6364,0.05,7.8724e-07,7.867,6.045e-07,4.542,2.3182e-12,8.4428e-06,-6.0451e-07,-4.542,1.5991
17496,16.257,3.9091,0,0.00017363,1735.1,5.8624e-05,15.917,5.6507e-05,0.0075428,-0.00017335,-1727,1.5988
17497,16.349,3.8182,0,0.00017137,1712.6,5.7915e-05,16.324,5.5744e-05,0.0080936,-0.00017109,-1704.3,1.6132
17498,16.257,3.8182,0.05,7.8719e-07,7.8665,6.0447e-07,4.5417,2.3285e-12,9.114e-06,-6.0447e-07,-4.5418,1.5989
17499,16.257,4.0909,0,0.00017367,1735.5,5.8642e-05,15.938,5.6521e-05,0.0065676,-0.0001734,-1727.5,1.5986
17500,16.349,4,0,0.00017142,1713,5.7929e-05,16.326,5.5757e-05,0.007201,-0.00017113,-1704.8,1.6131
17501,16.257,4,0.05,7.8713e-07,7.8659,6.0442e-07,4.5413,2.3329e-12,8.9412e-06,-6.0442e-07,-4.5414,1.5987
17502,16.257,4.2727,0,0.00017373,1736.1,5.8663e-05,15.971,5.6538e-05,0.0054207,-0.00017345,-1728.1,1.5984
17503,16.349,4.1818,0,0.00017147,1713.5,5.7947e-05,16.336,5.5773e-05,0.0061309,-0.00017118,-1705.3,1.6128
17504,16.257,4.1818,0.05,7.8705e-07,7.8651,6.0436e-07,4.5409,3.2493e-12,8.0407e-06,-6.0436e-07,-4.541,1.5985
17505,16.257,4.4545,0,0.0001738,1736.8,5.8689e-05,16.017,5.6558e-05,0.0041072,-0.00017352,-1728.7,1.5981
17506,16.349,4.3636,0,0.00017153,1714.1,5.7968e-05,16.355,5.5792e-05,0.0048902,-0.00017124,-1705.8,1.6126
17507,16.257,4.3636,0.05,7.8697e-07,7.8642,6.0429e-07,4.5404,2.7967e-12,9.6841e-06,-6.0429e-07,-4.5405,1.5982
17508,16.257,4.6364,0,0.00017387,1737.5,5.872e-05,16.082,5.658e-05,0.0026364,-0.00017359,-1729.4,1.5978
17509,16.349,4.5455,0,0.0001716,1714.8,5.7994e-05,16.389,5.5813e-05,0.0034809,-0.00017131,-1706.5,1.6123
17510,16.257,4.5455,0.05,7.8686e-07,7.8632,6.0421e-07,4.5398,3.2597e-12,7.7245e-06,-6.0422e-07,-4.5399,1.5979
17511,16.257,4.8182,0,0.00017396,1738.4,5.8756e-05,16.168,5.6604e-05,0.0010099,-0.00017368,-1730.3,1.5974
17512,16.349,4.7273,0,0.00017168,1715.6,5.8025e-05,16.44,5.5837e-05,0.001916,-0.00017139,-1707.3,1.6119
17513,16.257,4.7273,0.05,7.8675e-07,7.862,6.0412e-07,4.5391,3.2631e-12,8.6535e-06,-6.0413e-07,-4.5392,1.5976
17514,16.257,5,0,0.00017406,1739.4,5.8798e-05,16.281,5.6631e-05,-0.00072822,-0.00017378,-1731.2,1.597
17515,16.349,4.9091,0,0.00017177,1716.5,5.8062e-05,16.515,5.5864e-05,0.00018385,-0.00017148,-1708.2,1.6115
17516,16.257,4.9091,0.05,7.8662e-07,7.8607,6.0402e-07,4.5384,3.7036e-12,8.5574e-06,-6.0403e-07,-4.5384,1.5972
17517,16.257,5.1818,0,0.00017417,1740.5,5.8847e-05,16.425,5.6661e-05,-0.0026973,-0.00017389,-1732.2,1.5966
17518,16.349,5.0909,0,0.00017187,1717.5,5.8105e-05,16.617,5.5893e-05,-0.0016138,-0.00017158,-1709.2,1.6111
17519,16.257,5.0909,0.05,7.8646e-07,7.8592,6.039e-07,4.5375,3.6976e-12,6.8328e-06,-6.0391e-07,-4.5375,1.5968
17520,16.257,5.3636,0,0.0001743,1741.8,5.8903e-05,16.608,5.6693e-05,-0.0043376,-0.00017401,-1733.4,1.5961
17521,16.349,5.2727,0,0.00017199,1718.7,5.8154e-05,16.752,5.5924e-05,-0.0038235,-0.0001717,-1710.3,1.6107
17522,16.257,5.2727,0.05,7.8609e-07,7.8555,6.0362e-07,4.5353,4.1427e-12,7.7385e-06,-6.0363e-07,-4.5354,1.5963
17523,16.257,5.5455,0,0.00017444,1743.2,5.8976e-05,16.889,5.6727e-05,-0.0086101,-0.00017415,-1734.7,1.5956
17524,16.349,5.4545,0,0.00017212,1720,5.8212e-05,16.933,5.5958e-05,-0.0049496,-0.00017182,-1711.5,1.6102
17525,16.257,5.4545,0.05,7.8272e-07,7.8218,6.0103e-07,4.5159,4.1341e-12,7.4518e-06,-6.0104e-07,-4.516,1.5958
17526,16.257,5.7273,0,0.00017475,1746.3,5.9188e-05,18.204,5.6764e-05,-0.0068828,-0.00017444,-1737.2,1.595
17527,16.349,5.6364,0,0.00017228,1721.6,5.8294e-05,17.268,5.5994e-05,-0.012453,-0.00017198,-1712.9,1.6096
17528,16.257,5.6364,0.05,7.3341e-07,7.3291,5.6317e-07,4.2314,4.1174e-12,7.9931e-06,-5.6318e-07,-4.2315,1.5953
17529,16.349,5.8182,0,0.00017276,1726.4,5.8646e-05,19.625,5.6035e-05,0.00018424,-0.00017241,-1716.5,1.6091
17530,16.257,5.8182,0.05,3.4045e-08,0.34022,2.6142e-08,0.1964,-5.7466e-12,-7.3963e-05,-2.6143e-08,-0.19645,1.5947
17531,16.257,5.9091,0,0.00017407,1739.5,5.8523e-05,12.942,5.68e-05,-0.0043298,-0.00017384,-1733,1.5944
17532,16.441,0.27273,0,0.00017026,1701.4,5.7735e-05,18.554,5.5264e-05,-0.0071194,-0.00016994,-1692.1,1.6237
17533,16.533,0.18182,0,0.00016828,1681.6,5.7197e-05,19.968,5.4539e-05,0.00026092,-0.00016793,-1671.5,1.6379
17534,16.441,0.18182,0.05,3.4314e-08,0.34291,2.6349e-08,0.19799,4.0255e-12,4.0625e-05,-2.6349e-08,-0.19797,1.6234
17535,16.441,0.090909,0,0.00016956,1694.5,5.7055e-05,13.165,5.5302e-05,-0.0044519,-0.00016934,-1687.8,1.6231
17536,16.441,0.45455,0,0.00016995,1698.3,5.7526e-05,17.274,5.5225e-05,-0.0089113,-0.00016965,-1689.6,1.6243
17537,16.533,0.36364,0,0.0001678,1676.8,5.6845e-05,17.632,5.4497e-05,-0.012932,-0.00016749,-1667.9,1.6384
17538,16.441,0.36364,0.05,7.3041e-07,7.299,5.6087e-07,4.2141,-1.8551e-12,4.8034e-06,-5.6086e-07,-4.2141,1.624
17539,16.441,0.63636,0,0.00016981,1696.9,5.7459e-05,17.044,5.519e-05,-0.0044396,-0.00016951,-1688.3,1.6248
17540,16.533,0.54545,0,0.00016764,1675.2,5.6769e-05,17.347,5.4459e-05,-0.0050794,-0.00016734,-1666.5,1.6389
17541,16.441,0.54545,0.05,7.7944e-07,7.7891,5.9852e-07,4.497,-1.8934e-12,3.9174e-06,-5.9851e-07,-4.497,1.6245
17542,16.441,0.81818,0,0.00016969,1695.7,5.7407e-05,16.912,5.5156e-05,-0.0027296,-0.00016939,-1687.2,1.6252
17543,16.533,0.72727,0,0.00016751,1674,5.6716e-05,17.219,5.4424e-05,-0.0039005,-0.00016721,-1665.3,1.6394
17544,16.441,0.72727,0.05,7.828e-07,7.8226,6.0109e-07,4.5164,-1.4485e-12,3.7034e-06,-6.0109e-07,-4.5164,1.625
17545,16.441,1,0,0.00016958,1694.6,5.7364e-05,16.819,5.5125e-05,-0.00068385,-0.00016928,-1686.1,1.6257
17546,16.533,0.90909,0,0.0001674,1672.8,5.6671e-05,17.136,5.4391e-05,-0.001601,-0.0001671,-1664.2,1.6399
17547,16.441,0.90909,0.05,7.8317e-07,7.8263,6.0137e-07,4.5185,-9.9197e-13,5.2512e-06,-6.0138e-07,-4.5185,1.6254
17548,16.441,1.1818,0,0.00016948,1693.6,5.7327e-05,16.755,5.5097e-05,0.0011133,-0.00016919,-1685.2,1.6261
17549,16.533,1.0909,0,0.0001673,1671.8,5.6634e-05,17.084,5.436e-05,0.00026212,-0.000167,-1663.2,1.6403
17550,16.441,1.0909,0.05,7.8332e-07,7.8278,6.015e-07,4.5194,-9.9962e-13,7.5468e-06,-6.015e-07,-4.5194,1.6259
17551,16.441,1.3636,0,0.0001694,1692.8,5.7295e-05,16.715,5.5071e-05,0.0027878,-0.00016911,-1684.4,1.6264
17552,16.533,1.2727,0,0.00016721,1670.9,5.6602e-05,17.059,5.4332e-05,0.0020481,-0.00016691,-1662.4,1.6406
17553,16.441,1.2727,0.05,7.8346e-07,7.8292,6.016e-07,4.5202,-9.9585e-13,7.5695e-06,-6.016e-07,-4.5202,1.6262
17554,16.441,1.5455,0,0.00016932,1692.1,5.7269e-05,16.695,5.5048e-05,0.0042958,-0.00016903,-1683.6,1.6268
17555,16.533,1.4545,0,0.00016713,1670.2,5.6576e-05,17.054,5.4307e-05,0.0036561,-0.00016684,-1661.6,1.641
17556,16.441,1.4545,0.05,7.8357e-07,7.8303,6.0169e-07,4.5208,-5.4771e-13,7.9484e-06,-6.0169e-07,-4.5208,1.6266
17557,16.441,1.7273,0,0.00016926,1691.4,5.7248e-05,16.688,5.5027e-05,0.005636,-0.00016897,-1683,1.627
17558,16.533,1.6364,0,0.00016707,1669.5,5.6555e-05,17.063,5.4285e-05,0.0050976,-0.00016677,-1660.9,1.6413
17559,16.441,1.6364,0.05,7.8368e-07,7.8314,6.0177e-07,4.5214,3.725e-13,8.4681e-06,-6.0176e-07,-4.5214,1.6269
17560,16.441,1.9091,0,0.00016921,1690.9,5.723e-05,16.692,5.5009e-05,0.0068025,-0.00016891,-1682.5,1.6273
17561,16.533,1.8182,0,0.00016701,1668.9,5.6538e-05,17.083,5.4265e-05,0.006363,-0.00016671,-1660.3,1.6415
17562,16.441,1.8182,0.05,7.8377e-07,7.8322,6.0183e-07,4.5219,-7.5467e-14,7.4354e-06,-6.0183e-07,-4.5219,1.6271
17563,16.441,2.0909,0,0.00016916,1690.4,5.7216e-05,16.702,5.4994e-05,0.0077928,-0.00016887,-1682,1.6275
17564,16.533,2,0,0.00016696,1668.5,5.6524e-05,17.108,5.4248e-05,0.0074512,-0.00016666,-1659.8,1.6418
17565,16.441,2,0.05,7.8384e-07,7.833,6.0189e-07,4.5224,-6.7386e-14,7.6011e-06,-6.0189e-07,-4.5224,1.6274
17566,16.441,2.2727,0,0.00016912,1690.1,5.7205e-05,16.715,5.4982e-05,0.0086036,-0.00016883,-1681.7,1.6277
17567,16.533,2.1818,0,0.00016692,1668.1,5.6513e-05,17.135,5.4234e-05,0.0083551,-0.00016662,-1659.4,1.6419
17568,16.441,2.1818,0.05,7.8391e-07,7.8336,6.0194e-07,4.5228,-5.7715e-14,8.1383e-06,-6.0194e-07,-4.5228,1.6276
17569,16.441,2.4545,0,0.0001691,1689.8,5.7197e-05,16.727,5.4972e-05,0.009234,-0.00016881,-1681.4,1.6278
17570,16.533,2.3636,0,0.00016689,1667.7,5.6505e-05,17.161,5.4222e-05,0.009079,-0.00016659,-1659.1,1.6421
17571,16.441,2.3636,0.05,7.8396e-07,7.8341,6.0198e-07,4.523,4.0877e-13,8.1251e-06,-6.0198e-07,-4.523,1.6277
17572,16.441,2.6364,0,0.00016908,1689.6,5.7192e-05,16.738,5.4965e-05,0.0096846,-0.00016879,-1681.2,1.6279
17573,16.533,2.5455,0,0.00016687,1667.5,5.6499e-05,17.182,5.4214e-05,0.0096218,-0.00016657,-1658.9,1.6422
17574,16.441,2.5455,0.05,7.8399e-07,7.8345,6.0201e-07,4.5233,4.2011e-13,8.5623e-06,-6.0201e-07,-4.5233,1.6278
17575,16.441,2.8182,0,0.00016907,1689.5,5.7188e-05,16.745,5.4961e-05,0.0099541,-0.00016877,-1681,1.6279
17576,16.533,2.7273,0,0.00016685,1667.4,5.6496e-05,17.198,5.4208e-05,0.0099823,-0.00016655,-1658.7,1.6423
17577,16.441,2.7273,0.05,7.8402e-07,7.8348,6.0203e-07,4.5234,1.343e-12,7.2326e-06,-6.0203e-07,-4.5234,1.6279
17578,16.441,3,0,0.00016906,1689.4,5.7187e-05,16.748,5.496e-05,0.010044,-0.00016877,-1681,1.628
17579,16.533,2.9091,0,0.00016684,1667.3,5.6494e-05,17.206,5.4205e-05,0.010163,-0.00016655,-1658.6,1.6423
17580,16.441,2.9091,0.05,7.8403e-07,7.8349,6.0204e-07,4.5235,1.8119e-12,8.0529e-06,-6.0204e-07,-4.5235,1.6279
17581,16.441,3.1818,0,0.00016907,1689.5,5.7188e-05,16.745,5.4961e-05,0.0099544,-0.00016877,-1681,1.6279
17582,16.533,3.0909,0,0.00016684,1667.3,5.6494e-05,17.206,5.4205e-05,0.010163,-0.00016655,-1658.6,1.6423
17583,16.441,3.0909,0.05,7.8403e-07,7.8349,6.0204e-07,4.5235,1.8261e-12,7.4444e-06,-6.0204e-07,-4.5235,1.6279
17584,16.441,3.3636,0,0.00016908,1689.6,5.7192e-05,16.738,5.4965e-05,0.0096844,-0.00016879,-1681.2,1.6279
17585,16.533,3.2727,0,0.00016685,1667.4,5.6496e-05,17.198,5.4208e-05,0.0099825,-0.00016655,-1658.7,1.6423
17586,16.441,3.2727,0.05,7.8402e-07,7.8348,6.0203e-07,4.5234,1.8401e-12,8.6223e-06,-6.0203e-07,-4.5234,1.6279
17587,16.441,3.5455,0,0.0001691,1689.8,5.7197e-05,16.727,5.4972e-05,0.0092339,-0.00016881,-1681.4,1.6278
17588,16.533,3.4545,0,0.00016687,1667.5,5.6499e-05,17.182,5.4214e-05,0.0096221,-0.00016657,-1658.9,1.6422
17589,16.441,3.4545,0.05,7.8399e-07,7.8345,6.0201e-07,4.5232,1.8536e-12,8.2441e-06,-6.0201e-07,-4.5233,1.6278
17590,16.441,3.7273,0,0.00016912,1690.1,5.7205e-05,16.715,5.4982e-05,0.0086033,-0.00016883,-1681.7,1.6277
17591,16.533,3.6364,0,0.00016689,1667.7,5.6505e-05,17.161,5.4222e-05,0.0090791,-0.00016659,-1659.1,1.6421
17592,16.441,3.6364,0.05,7.8396e-07,7.8341,6.0198e-07,4.523,1.8675e-12,9.2851e-06,-6.0198e-07,-4.5231,1.6277
17593,16.441,3.9091,0,0.00016916,1690.4,5.7216e-05,16.702,5.4994e-05,0.0077933,-0.00016887,-1682,1.6275
17594,16.533,3.8182,0,0.00016692,1668.1,5.6513e-05,17.135,5.4234e-05,0.0083556,-0.00016662,-1659.4,1.6419
17595,16.441,3.8182,0.05,7.8391e-07,7.8336,6.0194e-07,4.5227,3.2412e-12,9.8686e-06,-6.0194e-07,-4.5228,1.6276
17596,16.441,4.0909,0,0.00016921,1690.9,5.723e-05,16.692,5.5009e-05,0.0068031,-0.00016891,-1682.5,1.6273
17597,16.533,4,0,0.00016696,1668.5,5.6524e-05,17.108,5.4248e-05,0.0074506,-0.00016666,-1659.8,1.6418
17598,16.441,4,0.05,7.8384e-07,7.833,6.0189e-07,4.5224,3.2536e-12,8.9561e-06,-6.019e-07,-4.5224,1.6274
17599,16.441,4.2727,0,0.00016926,1691.4,5.7248e-05,16.689,5.5027e-05,0.0056359,-0.00016897,-1683,1.627
17600,16.533,4.1818,0,0.00016701,1668.9,5.6538e-05,17.083,5.4265e-05,0.0063627,-0.00016671,-1660.3,1.6415
17601,16.441,4.1818,0.05,7.8377e-07,7.8322,6.0183e-07,4.5219,2.3478e-12,7.9539e-06,-6.0184e-07,-4.522,1.6271
17602,16.441,4.4545,0,0.00016932,1692.1,5.7269e-05,16.695,5.5048e-05,0.0042955,-0.00016903,-1683.6,1.6268
17603,16.533,4.3636,0,0.00016707,1669.5,5.6555e-05,17.063,5.4285e-05,0.0050979,-0.00016677,-1660.9,1.6413
17604,16.441,4.3636,0.05,7.8368e-07,7.8314,6.0176e-07,4.5214,3.7224e-12,9.5177e-06,-6.0177e-07,-4.5215,1.6269
17605,16.441,4.6364,0,0.0001694,1692.8,5.7295e-05,16.715,5.5071e-05,0.0027875,-0.00016911,-1684.4,1.6264
17606,16.533,4.5455,0,0.00016713,1670.2,5.6576e-05,17.054,5.4307e-05,0.0036554,-0.00016684,-1661.6,1.641
17607,16.441,4.5455,0.05,7.8357e-07,7.8303,6.0168e-07,4.5208,2.814e-12,8.2401e-06,-6.0169e-07,-4.5209,1.6266
17608,16.441,4.8182,0,0.00016948,1693.6,5.7327e-05,16.755,5.5097e-05,0.0011116,-0.00016919,-1685.2,1.6261
17609,16.533,4.7273,0,0.00016721,1670.9,5.6602e-05,17.059,5.4332e-05,0.0020481,-0.00016691,-1662.4,1.6406
17610,16.441,4.7273,0.05,7.8346e-07,7.8292,6.0159e-07,4.5201,3.2618e-12,8.7683e-06,-6.016e-07,-4.5202,1.6262
17611,16.441,5,0,0.00016958,1694.6,5.7364e-05,16.819,5.5125e-05,-0.00068618,-0.00016928,-1686.1,1.6257
17612,16.533,4.9091,0,0.0001673,1671.8,5.6634e-05,17.084,5.436e-05,0.00026034,-0.000167,-1663.2,1.6403
17613,16.441,4.9091,0.05,7.8332e-07,7.8278,6.0149e-07,4.5194,3.2525e-12,8.4193e-06,-6.015e-07,-4.5195,1.6259
17614,16.441,5.1818,0,0.00016969,1695.7,5.7407e-05,16.912,5.5156e-05,-0.0027317,-0.00016939,-1687.2,1.6252
17615,16.533,5.0909,0,0.0001674,1672.8,5.6671e-05,17.136,5.4391e-05,-0.001602,-0.0001671,-1664.2,1.6399
17616,16.441,5.0909,0.05,7.8317e-07,7.8263,6.0137e-07,4.5185,3.698e-12,6.7401e-06,-6.0138e-07,-4.5185,1.6254
17617,16.441,5.3636,0,0.00016981,1696.9,5.7459e-05,17.044,5.519e-05,-0.0044409,-0.00016951,-1688.3,1.6248
17618,16.533,5.2727,0,0.00016751,1674,5.6716e-05,17.219,5.4424e-05,-0.0039033,-0.00016721,-1665.3,1.6394
17619,16.441,5.2727,0.05,7.828e-07,7.8226,6.0109e-07,4.5164,4.1591e-12,7.5879e-06,-6.011e-07,-4.5164,1.625
17620,16.441,5.5455,0,0.00016995,1698.3,5.7526e-05,17.275,5.5225e-05,-0.008911,-0.00016965,-1689.6,1.6243
17621,16.533,5.4545,0,0.00016764,1675.2,5.6769e-05,17.347,5.4459e-05,-0.0050801,-0.00016734,-1666.5,1.6389
17622,16.441,5.4545,0.05,7.7944e-07,7.7891,5.9851e-07,4.497,4.1374e-12,7.3178e-06,-5.9852e-07,-4.497,1.6245
17623,16.441,5.7273,0,0.00017026,1701.4,5.7735e-05,18.554,5.5264e-05,-0.0071188,-0.00016994,-1692.1,1.6237
17624,16.533,5.6364,0,0.0001678,1676.8,5.6845e-05,17.632,5.4497e-05,-0.01293,-0.00016749,-1667.9,1.6384
17625,16.441,5.6364,0.05,7.3041e-07,7.299,5.6086e-07,4.214,4.9969e-12,8.0703e-06,-5.6087e-07,-4.2142,1.624
17626,16.533,5.8182,0,0.00016828,1681.6,5.7197e-05,19.968,5.4539e-05,0.00026102,-0.00016793,-1671.5,1.6379
17627,16.441,5.8182,0.05,3.4314e-08,0.3429,2.635e-08,0.19796,-5.606e-12,-6.8176e-05,-2.6347e-08,-0.19799,1.6234
17628,16.441,5.9091,0,0.00016956,1694.5,5.7055e-05,13.165,5.5302e-05,-0.004452,-0.00016934,-1687.8,1.6231
17629,16.625,0.27273,0,0.00016579,1656.8,5.6289e-05,18.91,5.3771e-05,-0.0073639,-0.00016546,-1647.2,1.6526
17630,16.718,0.18182,0,0.00016382,1637,5.5754e-05,20.318,5.305e-05,0.00033579,-0.00016346,-1626.8,1.6668
17631,16.625,0.18182,0.05,3.4567e-08,0.34543,2.6542e-08,0.19944,3.7815e-12,5.0631e-05,-2.6544e-08,-0.19943,1.6523
17632,16.625,0.090909,0,0.00016508,1649.6,5.5594e-05,13.393,5.3811e-05,-0.0045739,-0.00016485,-1642.9,1.652
17633,16.625,0.45455,0,0.00016548,1653.7,5.6083e-05,17.667,5.373e-05,-0.0092201,-0.00016517,-1644.8,1.6531
17634,16.718,0.36364,0,0.00016334,1632.2,5.5404e-05,18.003,5.3006e-05,-0.013424,-0.00016302,-1623.2,1.6673
17635,16.625,0.36364,0.05,7.2744e-07,7.2694,5.5859e-07,4.197,-1.8728e-12,1.2168e-06,-5.5858e-07,-4.197,1.6528
17636,16.625,0.63636,0,0.00016534,1652.3,5.6021e-05,17.489,5.3693e-05,-0.0045427,-0.00016503,-1643.4,1.6536
17637,16.718,0.54545,0,0.00016318,1630.7,5.5332e-05,17.771,5.2966e-05,-0.005214,-0.00016287,-1621.7,1.6678
17638,16.625,0.54545,0.05,7.762e-07,7.7566,5.9603e-07,4.4783,-1.4135e-12,2.284e-06,-5.9602e-07,-4.4782,1.6533
17639,16.625,0.81818,0,0.00016522,1651.1,5.5975e-05,17.41,5.3658e-05,-0.0027602,-0.00016492,-1642.3,1.6541
17640,16.718,0.72727,0,0.00016306,1629.4,5.5285e-05,17.697,5.2929e-05,-0.0039807,-0.00016275,-1620.5,1.6683
17641,16.625,0.72727,0.05,7.7954e-07,7.79,5.9859e-07,4.4976,-1.3972e-12,1.677e-06,-5.9859e-07,-4.4975,1.6538
17642,16.625,1,0,0.00016512,1650,5.5937e-05,17.369,5.3625e-05,-0.00063611,-0.00016481,-1641.3,1.6545
17643,16.718,0.90909,0,0.00016295,1628.3,5.5246e-05,17.667,5.2894e-05,-0.0015863,-0.00016264,-1619.4,1.6687
17644,16.625,0.90909,0.05,7.7991e-07,7.7937,5.9887e-07,4.4997,-1.865e-12,1.9555e-06,-5.9887e-07,-4.4996,1.6543
17645,16.625,1.1818,0,0.00016502,1649.1,5.5905e-05,17.356,5.3596e-05,0.0012218,-0.00016472,-1640.3,1.6549
17646,16.718,1.0909,0,0.00016285,1627.4,5.5214e-05,17.669,5.2863e-05,0.00034289,-0.00016254,-1618.5,1.6691
17647,16.625,1.0909,0.05,7.8007e-07,7.7953,5.99e-07,4.5006,-1.4406e-12,4.8013e-06,-5.9899e-07,-4.5006,1.6547
17648,16.625,1.3636,0,0.00016494,1648.3,5.5879e-05,17.365,5.3568e-05,0.0029463,-0.00016464,-1639.5,1.6552
17649,16.718,1.2727,0,0.00016276,1626.5,5.5188e-05,17.695,5.2833e-05,0.0021863,-0.00016246,-1617.6,1.6695
17650,16.625,1.2727,0.05,7.802e-07,7.7966,5.991e-07,4.5014,-5.4387e-13,5.73e-06,-5.991e-07,-4.5013,1.655
17651,16.625,1.5455,0,0.00016487,1647.6,5.5858e-05,17.39,5.3544e-05,0.004492,-0.00016457,-1638.8,1.6555
17652,16.718,1.4545,0,0.00016269,1625.8,5.5167e-05,17.738,5.2807e-05,0.0038391,-0.00016238,-1616.8,1.6698
17653,16.625,1.4545,0.05,7.8032e-07,7.7978,5.9919e-07,4.5021,-8.4426e-14,6.0176e-06,-5.9919e-07,-4.502,1.6554
17654,16.625,1.7273,0,0.00016481,1647,5.5841e-05,17.426,5.3522e-05,0.0058622,-0.00016451,-1638.2,1.6558
17655,16.718,1.6364,0,0.00016263,1625.1,5.515e-05,17.792,5.2783e-05,0.0053149,-0.00016232,-1616.2,1.6701
17656,16.625,1.6364,0.05,7.8042e-07,7.7988,5.9927e-07,4.5027,-8.3412e-14,5.8463e-06,-5.9927e-07,-4.5026,1.6556
17657,16.625,1.9091,0,0.00016476,1646.4,5.5827e-05,17.467,5.3503e-05,0.0070523,-0.00016445,-1637.6,1.656
17658,16.718,1.8182,0,0.00016257,1624.6,5.5137e-05,17.852,5.2762e-05,0.0066064,-0.00016226,-1615.6,1.6704
17659,16.625,1.8182,0.05,7.8051e-07,7.7997,5.9934e-07,4.5032,3.8508e-13,5.7638e-06,-5.9934e-07,-4.5032,1.6559
17660,16.625,2.0909,0,0.00016472,1646,5.5817e-05,17.509,5.3487e-05,0.0080562,-0.00016441,-1637.2,1.6562
17661,16.718,2,0,0.00016253,1624.1,5.5127e-05,17.914,5.2744e-05,0.0077122,-0.00016221,-1615.1,1.6706
17662,16.625,2,0.05,7.8059e-07,7.8005,5.994e-07,4.5036,3.8622e-13,6.2905e-06,-5.994e-07,-4.5036,1.6561
17663,16.625,2.2727,0,0.00016468,1645.7,5.5809e-05,17.549,5.3474e-05,0.008875,-0.00016438,-1636.8,1.6564
17664,16.718,2.1818,0,0.00016249,1623.8,5.512e-05,17.972,5.2729e-05,0.0086289,-0.00016218,-1614.7,1.6708
17665,16.625,2.1818,0.05,7.8065e-07,7.8011,5.9944e-07,4.504,-5.7483e-14,6.2355e-06,-5.9944e-07,-4.504,1.6563
17666,16.625,2.4545,0,0.00016466,1645.4,5.5803e-05,17.584,5.3464e-05,0.0095127,-0.00016435,-1636.6,1.6565
17667,16.718,2.3636,0,0.00016246,1623.5,5.5115e-05,18.023,5.2717e-05,0.0093612,-0.00016215,-1614.4,1.6709
17668,16.625,2.3636,0.05,7.807e-07,7.8017,5.9948e-07,4.5043,1.3163e-12,6.069e-06,-5.9948e-07,-4.5043,1.6565
17669,16.625,2.6364,0,0.00016464,1645.2,5.5799e-05,17.61,5.3457e-05,0.0099665,-0.00016433,-1636.4,1.6566
17670,16.718,2.5455,0,0.00016244,1623.3,5.5111e-05,18.063,5.2708e-05,0.0099087,-0.00016212,-1614.1,1.671
17671,16.625,2.5455,0.05,7.8074e-07,7.802,5.9951e-07,4.5045,1.3299e-12,6.4145e-06,-5.9951e-07,-4.5045,1.6566
17672,16.625,2.8182,0,0.00016463,1645.1,5.5797e-05,17.627,5.3452e-05,0.010239,-0.00016432,-1636.2,1.6567
17673,16.718,2.7273,0,0.00016242,1623.1,5.5109e-05,18.092,5.2702e-05,0.010273,-0.00016211,-1614,1.6711
17674,16.625,2.7273,0.05,7.8077e-07,7.8023,5.9953e-07,4.5046,1.343e-12,5.3249e-06,-5.9953e-07,-4.5047,1.6566
17675,16.625,3,0,0.00016462,1645.1,5.5796e-05,17.633,5.3451e-05,0.010329,-0.00016432,-1636.2,1.6567
17676,16.718,2.9091,0,0.00016242,1623.1,5.5108e-05,18.107,5.2699e-05,0.010455,-0.0001621,-1613.9,1.6711
17677,16.625,2.9091,0.05,7.8078e-07,7.8024,5.9954e-07,4.5047,1.357e-12,6.2641e-06,-5.9954e-07,-4.5047,1.6567
17678,16.625,3.1818,0,0.00016463,1645.1,5.5797e-05,17.627,5.3452e-05,0.010238,-0.00016432,-1636.2,1.6567
17679,16.718,3.0909,0,0.00016242,1623.1,5.5108e-05,18.107,5.2699e-05,0.010454,-0.0001621,-1613.9,1.6711
17680,16.625,3.0909,0.05,7.8078e-07,7.8024,5.9954e-07,4.5047,1.3715e-12,5.6572e-06,-5.9954e-07,-4.5047,1.6567
17681,16.625,3.3636,0,0.00016464,1645.2,5.5799e-05,17.61,5.3457e-05,0.0099671,-0.00016433,-1636.4,1.6566
17682,16.718,3.2727,0,0.00016242,1623.1,5.5109e-05,18.092,5.2702e-05,0.010273,-0.00016211,-1614,1.6711
17683,16.625,3.2727,0.05,7.8077e-07,7.8023,5.9953e-07,4.5046,1.8404e-12,6.239e-06,-5.9953e-07,-4.5047,1.6566
17684,16.625,3.5455,0,0.00016466,1645.4,5.5803e-05,17.584,5.3464e-05,0.0095133,-0.00016435,-1636.6,1.6565
17685,16.718,3.4545,0,0.00016244,1623.3,5.5111e-05,18.063,5.2708e-05,0.0099093,-0.00016212,-1614.1,1.671
17686,16.625,3.4545,0.05,7.8074e-07,7.802,5.9951e-07,4.5045,1.8539e-12,6.4595e-06,-5.9951e-07,-4.5045,1.6566
17687,16.625,3.7273,0,0.00016468,1645.7,5.5809e-05,17.549,5.3474e-05,0.008876,-0.00016438,-1636.8,1.6564
17688,16.718,3.6364,0,0.00016246,1623.5,5.5115e-05,18.023,5.2717e-05,0.0093609,-0.00016215,-1614.4,1.6709
17689,16.625,3.6364,0.05,7.807e-07,7.8017,5.9948e-07,4.5043,2.3208e-12,7.1503e-06,-5.9949e-07,-4.5043,1.6565
17690,16.625,3.9091,0,0.00016472,1646,5.5817e-05,17.509,5.3487e-05,0.0080557,-0.00016441,-1637.2,1.6562
17691,16.718,3.8182,0,0.00016249,1623.8,5.512e-05,17.972,5.2729e-05,0.0086298,-0.00016218,-1614.7,1.6708
17692,16.625,3.8182,0.05,7.8065e-07,7.8011,5.9944e-07,4.504,2.3328e-12,7.7132e-06,-5.9945e-07,-4.504,1.6563
17693,16.625,4.0909,0,0.00016476,1646.4,5.5827e-05,17.467,5.3503e-05,0.0070507,-0.00016445,-1637.6,1.656
17694,16.718,4,0,0.00016253,1624.1,5.5127e-05,17.914,5.2744e-05,0.0077116,-0.00016221,-1615.1,1.6706
17695,16.625,4,0.05,7.8059e-07,7.8005,5.9939e-07,4.5036,2.7954e-12,7.1719e-06,-5.994e-07,-4.5037,1.6561
17696,16.625,4.2727,0,0.00016481,1647,5.5841e-05,17.426,5.3522e-05,0.0058622,-0.00016451,-1638.2,1.6558
17697,16.718,4.1818,0,0.00016257,1624.6,5.5137e-05,17.853,5.2762e-05,0.0066059,-0.00016226,-1615.6,1.6704
17698,16.625,4.1818,0.05,7.8051e-07,7.7997,5.9933e-07,4.5031,2.8069e-12,5.9613e-06,-5.9934e-07,-4.5032,1.6559
17699,16.625,4.4545,0,0.00016487,1647.6,5.5858e-05,17.39,5.3544e-05,0.0044919,-0.00016457,-1638.8,1.6555
17700,16.718,4.3636,0,0.00016263,1625.1,5.515e-05,17.792,5.2783e-05,0.0053147,-0.00016232,-1616.2,1.6701
17701,16.625,4.3636,0.05,7.8042e-07,7.7988,5.9926e-07,4.5026,2.8133e-12,7.4062e-06,-5.9927e-07,-4.5027,1.6556
17702,16.625,4.6364,0,0.00016494,1648.3,5.5879e-05,17.365,5.3568e-05,0.0029458,-0.00016464,-1639.5,1.6552
17703,16.718,4.5455,0,0.00016269,1625.8,5.5167e-05,17.738,5.2807e-05,0.0038383,-0.00016238,-1616.8,1.6698
17704,16.625,4.5455,0.05,7.8032e-07,7.7978,5.9918e-07,4.502,3.2639e-12,5.7327e-06,-5.9919e-07,-4.5021,1.6554
17705,16.625,4.8182,0,0.00016502,1649.1,5.5905e-05,17.356,5.3596e-05,0.0012216,-0.00016472,-1640.3,1.6549
17706,16.718,4.7273,0,0.00016276,1626.5,5.5188e-05,17.695,5.2833e-05,0.0021863,-0.00016246,-1617.6,1.6695
17707,16.625,4.7273,0.05,7.802e-07,7.7966,5.9909e-07,4.5013,3.2608e-12,6.7803e-06,-5.991e-07,-4.5014,1.655
17708,16.625,5,0,0.00016512,1650,5.5937e-05,17.369,5.3625e-05,-0.00063661,-0.00016481,-1641.3,1.6545
17709,16.718,4.9091,0,0.00016285,1627.4,5.5214e-05,17.669,5.2863e-05,0.00034217,-0.00016254,-1618.5,1.6691
17710,16.625,4.9091,0.05,7.8007e-07,7.7953,5.9899e-07,4.5006,3.7059e-12,6.4882e-06,-5.99e-07,-4.5006,1.6547
17711,16.625,5.1818,0,0.00016522,1651.1,5.5975e-05,17.41,5.3658e-05,-0.002762,-0.00016492,-1642.3,1.6541
17712,16.718,5.0909,0,0.00016295,1628.3,5.5246e-05,17.667,5.2894e-05,-0.001587,-0.00016264,-1619.4,1.6687
17713,16.625,5.0909,0.05,7.7991e-07,7.7937,5.9887e-07,4.4996,3.224e-12,4.804e-06,-5.9887e-07,-4.4997,1.6543
17714,16.625,5.3636,0,0.00016534,1652.3,5.6021e-05,17.489,5.3693e-05,-0.0045449,-0.00016503,-1643.4,1.6536
17715,16.718,5.2727,0,0.00016306,1629.4,5.5285e-05,17.697,5.2929e-05,-0.0039829,-0.00016275,-1620.5,1.6683
17716,16.625,5.2727,0.05,7.7954e-07,7.79,5.9859e-07,4.4975,3.6824e-12,5.4805e-06,-5.9859e-07,-4.4976,1.6538
17717,16.625,5.5455,0,0.00016548,1653.7,5.6083e-05,17.667,5.3731e-05,-0.0092195,-0.00016517,-1644.8,1.6531
17718,16.718,5.4545,0,0.00016318,1630.7,5.5332e-05,17.771,5.2966e-05,-0.0052141,-0.00016287,-1621.7,1.6678
17719,16.625,5.4545,0.05,7.762e-07,7.7566,5.9602e-07,4.4782,4.1228e-12,5.227e-06,-5.9603e-07,-4.4783,1.6533
17720,16.625,5.7273,0,0.00016579,1656.8,5.6289e-05,18.91,5.3771e-05,-0.007363,-0.00016546,-1647.2,1.6526
17721,16.718,5.6364,0,0.00016334,1632.2,5.5404e-05,18.003,5.3006e-05,-0.013423,-0.00016302,-1623.2,1.6673
17722,16.625,5.6364,0.05,7.2744e-07,7.2694,5.5858e-07,4.1969,5.0307e-12,5.5004e-06,-5.5859e-07,-4.1971,1.6528
17723,16.718,5.8182,0,0.00016382,1637,5.5754e-05,20.318,5.305e-05,0.00033592,-0.00016346,-1626.8,1.6668
17724,16.625,5.8182,0.05,3.4567e-08,0.34543,2.6544e-08,0.19942,-7.5653e-12,-7.4381e-05,-2.6542e-08,-0.19945,1.6523
17725,16.625,5.9091,0,0.00016508,1649.6,5.5594e-05,13.393,5.3811e-05,-0.0045736,-0.00016485,-1642.9,1.652
17726,16.81,0.27273,0,0.00016134,1612.3,5.4851e-05,19.273,5.2285e-05,-0.0076198,-0.00016101,-1602.6,1.6815
17727,16.902,0.18182,0,0.00015938,1592.7,5.4319e-05,20.674,5.1568e-05,0.00040991,-0.00015902,-1582.2,1.6958
17728,16.81,0.18182,0.05,3.4838e-08,0.34814,2.675e-08,0.20101,3.9202e-12,4.8829e-05,-2.6752e-08,-0.20099,1.6812
17729,16.81,0.090909,0,0.00016061,1605,5.414e-05,13.625,5.2326e-05,-0.0046983,-0.00016038,-1598.2,1.681
17730,16.81,0.45455,0,0.00016103,1609.2,5.4648e-05,18.069,5.2242e-05,-0.0095399,-0.00016072,-1600.1,1.6821
17731,16.902,0.36364,0,0.0001589,1587.9,5.397e-05,18.383,5.1521e-05,-0.013932,-0.00015858,-1578.6,1.6963
17732,16.81,0.36364,0.05,7.2452e-07,7.2402,5.5635e-07,4.1802,-1.8404e-12,3.5591e-06,-5.5634e-07,-4.1801,1.6818
17733,16.81,0.63636,0,0.00016089,1607.8,5.4591e-05,17.945,5.2202e-05,-0.0046512,-0.00016058,-1598.8,1.6825
17734,16.902,0.54545,0,0.00015874,1586.3,5.3903e-05,18.205,5.148e-05,-0.0053485,-0.00015842,-1577.1,1.6968
17735,16.81,0.54545,0.05,7.7298e-07,7.7245,5.9355e-07,4.4598,-1.8413e-12,1.1521e-06,-5.9355e-07,-4.4597,1.6823
17736,16.81,0.81818,0,0.00016078,1606.7,5.4551e-05,17.921,5.2166e-05,-0.0027916,-0.00016046,-1597.6,1.683
17737,16.902,0.72727,0,0.00015862,1585.1,5.3862e-05,18.187,5.1441e-05,-0.0040602,-0.0001583,-1575.9,1.6973
17738,16.81,0.72727,0.05,7.7631e-07,7.7577,5.9611e-07,4.4789,-9.6202e-13,2.366e-06,-5.9611e-07,-4.4789,1.6827
17739,16.81,1,0,0.00016067,1605.6,5.4519e-05,17.935,5.2132e-05,-0.00058491,-0.00016036,-1596.6,1.6834
17740,16.902,0.90909,0,0.00015851,1584,5.3829e-05,18.215,5.1404e-05,-0.0015659,-0.0001582,-1574.9,1.6977
17741,16.81,0.90909,0.05,7.7668e-07,7.7614,5.9639e-07,4.4811,-5.1898e-13,4.9717e-06,-5.9639e-07,-4.481,1.6832
17742,16.81,1.1818,0,0.00016058,1604.7,5.4492e-05,17.975,5.21e-05,0.0013355,-0.00016027,-1595.7,1.6838
17743,16.902,1.0909,0,0.00015842,1583.1,5.3803e-05,18.272,5.1371e-05,0.00043241,-0.0001581,-1573.9,1.6981
17744,16.81,1.0909,0.05,7.7684e-07,7.763,5.9652e-07,4.482,-6.5727e-14,7.2926e-06,-5.9652e-07,-4.482,1.6836
17745,16.81,1.3636,0,0.00016051,1604,5.4471e-05,18.035,5.2072e-05,0.003112,-0.00016019,-1594.9,1.6841
17746,16.902,1.2727,0,0.00015834,1582.3,5.3782e-05,18.351,5.134e-05,0.0023357,-0.00015802,-1573,1.6984
17747,16.81,1.2727,0.05,7.7698e-07,7.7644,5.9662e-07,4.4828,-9.45e-14,7.5768e-06,-5.9662e-07,-4.4828,1.6839
17748,16.81,1.5455,0,0.00016044,1603.3,5.4455e-05,18.107,5.2046e-05,0.0046987,-0.00016012,-1594.2,1.6844
17749,16.902,1.4545,0,0.00015827,1581.6,5.3766e-05,18.444,5.1312e-05,0.0040344,-0.00015795,-1572.3,1.6987
17750,16.81,1.4545,0.05,7.771e-07,7.7656,5.9672e-07,4.4835,-8.8424e-14,7.5712e-06,-5.9671e-07,-4.4835,1.6842
17751,16.81,1.7273,0,0.00016038,1602.7,5.4443e-05,18.186,5.2023e-05,0.006099,-0.00016006,-1593.5,1.6847
17752,16.902,1.6364,0,0.00015821,1581,5.3755e-05,18.546,5.1287e-05,0.005546,-0.00015788,-1571.6,1.699
17753,16.81,1.6364,0.05,7.772e-07,7.7667,5.968e-07,4.4841,-8.4561e-14,7.6753e-06,-5.968e-07,-4.4841,1.6845
17754,16.81,1.9091,0,0.00016033,1602.2,5.4433e-05,18.267,5.2003e-05,0.0073086,-0.00016001,-1593,1.6849
17755,16.902,1.8182,0,0.00015816,1580.5,5.3746e-05,18.649,5.1265e-05,0.0068644,-0.00015783,-1571,1.6993
17756,16.81,1.8182,0.05,7.773e-07,7.7676,5.9687e-07,4.4846,8.2388e-13,7.1324e-06,-5.9687e-07,-4.4846,1.6848
17757,16.81,2.0909,0,0.00016029,1601.8,5.4427e-05,18.344,5.1986e-05,0.008329,-0.00015997,-1592.6,1.6851
17758,16.902,2,0,0.00015811,1580,5.3741e-05,18.748,5.1246e-05,0.007988,-0.00015779,-1570.6,1.6995
17759,16.81,2,0.05,7.7737e-07,7.7684,5.9693e-07,4.4851,3.7711e-13,7.2073e-06,-5.9693e-07,-4.4851,1.685
17760,16.81,2.2727,0,0.00016026,1601.5,5.4422e-05,18.413,5.1972e-05,0.0091607,-0.00015994,-1592.2,1.6853
17761,16.902,2.1818,0,0.00015808,1579.7,5.3737e-05,18.839,5.1231e-05,0.0089188,-0.00015775,-1570.2,1.6997
17762,16.81,2.1818,0.05,7.7744e-07,7.769,5.9698e-07,4.4855,1.3003e-12,7.3913e-06,-5.9698e-07,-4.4854,1.6852
17763,16.81,2.4545,0,0.00016024,1601.3,5.4418e-05,18.47,5.1962e-05,0.0098039,-0.00015991,-1591.9,1.6854
17764,16.902,2.3636,0,0.00015805,1579.4,5.3734e-05,18.916,5.1218e-05,0.0096609,-0.00015772,-1569.9,1.6998
17765,16.81,2.3636,0.05,7.7749e-07,7.7695,5.9702e-07,4.4858,4.0288e-13,7.587e-06,-5.9702e-07,-4.4858,1.6853
17766,16.81,2.6364,0,0.00016022,1601.1,5.4416e-05,18.513,5.1954e-05,0.010262,-0.0001599,-1591.8,1.6855
17767,16.902,2.5455,0,0.00015803,1579.2,5.3733e-05,18.977,5.1208e-05,0.010214,-0.0001577,-1569.6,1.6999
17768,16.81,2.5455,0.05,7.7753e-07,7.7699,5.9705e-07,4.486,1.3267e-12,7.8231e-06,-5.9705e-07,-4.486,1.6854
17769,16.81,2.8182,0,0.00016021,1601,5.4415e-05,18.539,5.1949e-05,0.010537,-0.00015989,-1591.6,1.6855
17770,16.902,2.7273,0,0.00015802,1579.1,5.3732e-05,19.02,5.1202e-05,0.010582,-0.00015769,-1569.5,1.7
17771,16.81,2.7273,0.05,7.7756e-07,7.7702,5.9707e-07,4.4861,-2.3249e-14,6.7412e-06,-5.9707e-07,-4.4861,1.6855
17772,16.81,3,0,0.00016021,1601,5.4415e-05,18.548,5.1948e-05,0.010628,-0.00015988,-1591.6,1.6856
17773,16.902,2.9091,0,0.00015801,1579,5.3732e-05,19.041,5.1199e-05,0.010765,-0.00015768,-1569.4,1.7
17774,16.81,2.9091,0.05,7.7757e-07,7.7703,5.9708e-07,4.4862,1.3564e-12,7.5706e-06,-5.9708e-07,-4.4862,1.6855
17775,16.81,3.1818,0,0.00016021,1601,5.4415e-05,18.539,5.1949e-05,0.010537,-0.00015989,-1591.6,1.6855
17776,16.902,3.0909,0,0.00015801,1579,5.3732e-05,19.041,5.1199e-05,0.010765,-0.00015768,-1569.4,1.7
17777,16.81,3.0909,0.05,7.7757e-07,7.7703,5.9708e-07,4.4862,1.8269e-12,7.2116e-06,-5.9708e-07,-4.4862,1.6855
17778,16.81,3.3636,0,0.00016022,1601.1,5.4416e-05,18.513,5.1954e-05,0.010262,-0.0001599,-1591.8,1.6855
17779,16.902,3.2727,0,0.00015802,1579.1,5.3732e-05,19.02,5.1202e-05,0.010582,-0.00015769,-1569.5,1.7
17780,16.81,3.2727,0.05,7.7756e-07,7.7702,5.9706e-07,4.4861,1.8423e-12,7.8057e-06,-5.9707e-07,-4.4861,1.6855
17781,16.81,3.5455,0,0.00016024,1601.3,5.4418e-05,18.47,5.1962e-05,0.0098035,-0.00015991,-1591.9,1.6854
17782,16.902,3.4545,0,0.00015803,1579.2,5.3733e-05,18.977,5.1208e-05,0.010214,-0.0001577,-1569.6,1.6999
17783,16.81,3.4545,0.05,7.7753e-07,7.7699,5.9705e-07,4.486,1.857e-12,7.5585e-06,-5.9705e-07,-4.486,1.6854
17784,16.81,3.7273,0,0.00016026,1601.5,5.4422e-05,18.413,5.1972e-05,0.0091603,-0.00015994,-1592.2,1.6853
17785,16.902,3.6364,0,0.00015805,1579.4,5.3734e-05,18.916,5.1218e-05,0.0096606,-0.00015772,-1569.9,1.6998
17786,16.81,3.6364,0.05,7.7749e-07,7.7695,5.9701e-07,4.4857,1.8712e-12,8.6303e-06,-5.9702e-07,-4.4858,1.6853
17787,16.81,3.9091,0,0.00016029,1601.8,5.4427e-05,18.344,5.1986e-05,0.0083299,-0.00015997,-1592.6,1.6851
17788,16.902,3.8182,0,0.00015808,1579.7,5.3737e-05,18.839,5.1231e-05,0.0089191,-0.00015775,-1570.2,1.6997
17789,16.81,3.8182,0.05,7.7744e-07,7.769,5.9698e-07,4.4854,1.8819e-12,9.1813e-06,-5.9698e-07,-4.4855,1.6852
17790,16.81,4.0909,0,0.00016033,1602.2,5.4433e-05,18.267,5.2003e-05,0.0073091,-0.00016001,-1593,1.6849
17791,16.902,4,0,0.00015811,1580,5.3741e-05,18.748,5.1246e-05,0.007989,-0.00015779,-1570.6,1.6995
17792,16.81,4,0.05,7.7737e-07,7.7684,5.9692e-07,4.485,3.2556e-12,8.5537e-06,-5.9693e-07,-4.4851,1.685
17793,16.81,4.2727,0,0.00016038,1602.7,5.4443e-05,18.186,5.2023e-05,0.0060982,-0.00016006,-1593.5,1.6847
17794,16.902,4.1818,0,0.00015816,1580.5,5.3746e-05,18.649,5.1265e-05,0.0068634,-0.00015783,-1571,1.6993
17795,16.81,4.1818,0.05,7.773e-07,7.7676,5.9686e-07,4.4846,2.8109e-12,7.4586e-06,-5.9687e-07,-4.4847,1.6848
17796,16.81,4.4545,0,0.00016044,1603.3,5.4455e-05,18.107,5.2046e-05,0.0046978,-0.00016012,-1594.2,1.6844
17797,16.902,4.3636,0,0.00015821,1581,5.3755e-05,18.546,5.1287e-05,0.0055453,-0.00015788,-1571.6,1.699
17798,16.81,4.3636,0.05,7.772e-07,7.7667,5.9679e-07,4.4841,3.2734e-12,8.4761e-06,-5.968e-07,-4.4841,1.6845
17799,16.81,4.6364,0,0.00016051,1604,5.4471e-05,18.035,5.2072e-05,0.0031116,-0.00016019,-1594.9,1.6841
17800,16.902,4.5455,0,0.00015827,1581.6,5.3766e-05,18.445,5.1312e-05,0.0040346,-0.00015795,-1572.3,1.6987
17801,16.81,4.5455,0.05,7.771e-07,7.7656,5.9671e-07,4.4834,2.8188e-12,7.1191e-06,-5.9672e-07,-4.4835,1.6842
17802,16.81,4.8182,0,0.00016058,1604.7,5.4492e-05,17.975,5.21e-05,0.0013349,-0.00016027,-1595.7,1.6838
17803,16.902,4.7273,0,0.00015834,1582.3,5.3782e-05,18.351,5.134e-05,0.002335,-0.00015802,-1573,1.6984
17804,16.81,4.7273,0.05,7.7698e-07,7.7644,5.9662e-07,4.4827,3.2715e-12,8.2787e-06,-5.9662e-07,-4.4828,1.6839
17805,16.81,5,0,0.00016067,1605.6,5.4519e-05,17.935,5.2132e-05,-0.00058585,-0.00016036,-1596.6,1.6834
17806,16.902,4.9091,0,0.00015842,1583.1,5.3803e-05,18.272,5.1371e-05,0.00043212,-0.0001581,-1573.9,1.6981
17807,16.81,4.9091,0.05,7.7684e-07,7.763,5.9651e-07,4.482,3.2584e-12,7.8872e-06,-5.9652e-07,-4.482,1.6836
17808,16.81,5.1818,0,0.00016078,1606.7,5.4551e-05,17.921,5.2166e-05,-0.0027927,-0.00016046,-1597.6,1.683
17809,16.902,5.0909,0,0.00015851,1584,5.3829e-05,18.215,5.1404e-05,-0.001567,-0.0001582,-1574.9,1.6977
17810,16.81,5.0909,0.05,7.7668e-07,7.7614,5.9639e-07,4.481,3.7315e-12,6.1609e-06,-5.964e-07,-4.4811,1.6832
17811,16.81,5.3636,0,0.00016089,1607.8,5.4591e-05,17.945,5.2203e-05,-0.0046513,-0.00016058,-1598.8,1.6825
17812,16.902,5.2727,0,0.00015862,1585.1,5.3862e-05,18.187,5.1441e-05,-0.0040609,-0.0001583,-1575.9,1.6973
17813,16.81,5.2727,0.05,7.7631e-07,7.7577,5.961e-07,4.4789,3.6949e-12,7.1168e-06,-5.9611e-07,-4.479,1.6827
17814,16.81,5.5455,0,0.00016103,1609.2,5.4648e-05,18.069,5.2242e-05,-0.0095391,-0.00016072,-1600.1,1.6821
17815,16.902,5.4545,0,0.00015874,1586.3,5.3903e-05,18.205,5.148e-05,-0.0053483,-0.00015842,-1577.1,1.6968
17816,16.81,5.4545,0.05,7.7298e-07,7.7245,5.9355e-07,4.4597,4.139e-12,6.8147e-06,-5.9356e-07,-4.4598,1.6823
17817,16.81,5.7273,0,0.00016134,1612.3,5.4851e-05,19.273,5.2285e-05,-0.0076194,-0.00016101,-1602.6,1.6815
17818,16.902,5.6364,0,0.0001589,1587.9,5.397e-05,18.383,5.1521e-05,-0.013933,-0.00015858,-1578.6,1.6963
17819,16.81,5.6364,0.05,7.2452e-07,7.2402,5.5634e-07,4.1801,4.1082e-12,7.5306e-06,-5.5635e-07,-4.1802,1.6818
17820,16.902,5.8182,0,0.00015938,1592.7,5.4319e-05,20.674,5.1568e-05,0.00041061,-0.00015902,-1582.2,1.6958
17821,16.81,5.8182,0.05,3.4838e-08,0.34813,2.6753e-08,0.20098,-8.6517e-12,-9.1266e-05,-2.6749e-08,-0.20101,1.6812
17822,16.81,5.9091,0,0.00016061,1605,5.414e-05,13.625,5.2326e-05,-0.0046986,-0.00016038,-1598.2,1.681
17823,16.994,0.27273,0,0.00015691,1568,5.3419e-05,19.644,5.0804e-05,-0.0078855,-0.00015657,-1558.1,1.7106
17824,17.086,0.18182,0,0.00015496,1548.5,5.2891e-05,21.038,5.0091e-05,0.00048131,-0.00015459,-1537.9,1.7249
17825,16.994,0.18182,0.05,3.5166e-08,0.35142,2.7001e-08,0.2029,5.3625e-12,4.9862e-05,-2.7005e-08,-0.20288,1.7103
17826,16.994,0.090909,0,0.00015617,1560.6,5.2692e-05,13.861,5.0847e-05,-0.0048214,-0.00015593,-1553.6,1.7101
17827,16.994,0.45455,0,0.0001566,1564.9,5.322e-05,18.481,5.0759e-05,-0.0098647,-0.00015628,-1555.6,1.7111
17828,17.086,0.36364,0,0.00015447,1543.7,5.2543e-05,18.772,5.0043e-05,-0.014464,-0.00015415,-1534.2,1.7254
17829,16.994,0.36364,0.05,7.2165e-07,7.2115,5.5414e-07,4.1636,-1.8313e-12,3.724e-06,-5.5414e-07,-4.1635,1.7108
17830,16.994,0.63636,0,0.00015646,1563.6,5.3169e-05,18.413,5.0718e-05,-0.0047532,-0.00015614,-1554.3,1.7116
17831,17.086,0.54545,0,0.00015432,1542.2,5.2482e-05,18.651,4.9999e-05,-0.0054862,-0.000154,-1532.8,1.7259
17832,16.994,0.54545,0.05,7.698e-07,7.6927,5.9111e-07,4.4414,-9.4981e-13,2.6883e-06,-5.9111e-07,-4.4413,1.7113
17833,16.994,0.81818,0,0.00015635,1562.4,5.3135e-05,18.447,5.0679e-05,-0.0028156,-0.00015603,-1553.1,1.712
17834,17.086,0.72727,0,0.0001542,1541,5.2447e-05,18.693,4.9958e-05,-0.0041389,-0.00015388,-1531.5,1.7264
17835,16.994,0.72727,0.05,7.7311e-07,7.7258,5.9365e-07,4.4605,-1.4319e-12,4.1474e-06,-5.9365e-07,-4.4604,1.7118
17836,16.994,1,0,0.00015625,1561.5,5.3108e-05,18.518,5.0644e-05,-0.00052259,-0.00015593,-1552.1,1.7124
17837,17.086,0.90909,0,0.0001541,1539.9,5.242e-05,18.78,4.992e-05,-0.0015412,-0.00015377,-1530.5,1.7268
17838,16.994,0.90909,0.05,7.7348e-07,7.7295,5.9394e-07,4.4627,-9.426e-14,7.3192e-06,-5.9394e-07,-4.4626,1.7122
17839,16.994,1.1818,0,0.00015617,1560.6,5.3088e-05,18.614,5.0611e-05,0.0014641,-0.00015584,-1551.2,1.7128
17840,17.086,1.0909,0,0.00015401,1539.1,5.24e-05,18.896,4.9885e-05,0.0005302,-0.00015368,-1529.5,1.7271
17841,16.994,1.0909,0.05,7.7365e-07,7.7312,5.9407e-07,4.4636,-1.0501e-13,8.4283e-06,-5.9407e-07,-4.4636,1.7126
17842,16.994,1.3636,0,0.00015609,1559.9,5.3073e-05,18.727,5.0581e-05,0.003294,-0.00015577,-1550.4,1.7131
17843,17.086,1.2727,0,0.00015393,1538.3,5.2385e-05,19.031,4.9853e-05,0.0024963,-0.0001536,-1528.7,1.7275
17844,16.994,1.2727,0.05,7.7379e-07,7.7326,5.9418e-07,4.4644,-1.0453e-13,8.3249e-06,-5.9418e-07,-4.4644,1.7129
17845,16.994,1.5455,0,0.00015603,1559.2,5.3062e-05,18.85,5.0554e-05,0.004921,-0.0001557,-1549.7,1.7134
17846,17.086,1.4545,0,0.00015387,1537.6,5.2375e-05,19.178,4.9823e-05,0.004242,-0.00015353,-1527.9,1.7278
17847,16.994,1.4545,0.05,7.7392e-07,7.7338,5.9427e-07,4.4651,-9.4406e-14,7.8309e-06,-5.9427e-07,-4.4651,1.7132
17848,16.994,1.7273,0,0.00015598,1558.7,5.3054e-05,18.976,5.0529e-05,0.0063535,-0.00015564,-1549.1,1.7137
17849,17.086,1.6364,0,0.00015381,1537,5.2369e-05,19.329,4.9797e-05,0.0057899,-0.00015347,-1527.3,1.7281
17850,16.994,1.6364,0.05,7.7402e-07,7.7349,5.9435e-07,4.4658,-9.3435e-14,7.9674e-06,-5.9435e-07,-4.4657,1.7135
17851,16.994,1.9091,0,0.00015593,1558.2,5.3049e-05,19.098,5.0509e-05,0.0075879,-0.0001556,-1548.6,1.7139
17852,17.086,1.8182,0,0.00015376,1536.6,5.2365e-05,19.478,4.9774e-05,0.0071372,-0.00015342,-1526.7,1.7283
17853,16.994,1.8182,0.05,7.7412e-07,7.7359,5.9443e-07,4.4663,-8.6294e-14,7.4881e-06,-5.9443e-07,-4.4663,1.7138
17854,16.994,2.0909,0,0.00015589,1557.8,5.3046e-05,19.211,5.0491e-05,0.0086235,-0.00015556,-1548.2,1.7141
17855,17.086,2,0,0.00015372,1536.2,5.2364e-05,19.617,4.9754e-05,0.0082811,-0.00015338,-1526.2,1.7285
17856,16.994,2,0.05,7.742e-07,7.7367,5.9449e-07,4.4668,3.7422e-13,7.6222e-06,-5.9449e-07,-4.4668,1.714
17857,16.994,2.2727,0,0.00015586,1557.6,5.3045e-05,19.31,5.0476e-05,0.0094658,-0.00015553,-1547.8,1.7142
17858,17.086,2.1818,0,0.00015369,1535.8,5.2364e-05,19.742,4.9737e-05,0.0092257,-0.00015334,-1525.9,1.7287
17859,16.994,2.1818,0.05,7.7427e-07,7.7373,5.9454e-07,4.4671,1.2968e-12,7.9682e-06,-5.9454e-07,-4.4671,1.7142
17860,16.994,2.4545,0,0.00015584,1557.3,5.3044e-05,19.391,5.0465e-05,0.010118,-0.0001555,-1547.5,1.7144
17861,17.086,2.3636,0,0.00015366,1535.6,5.2364e-05,19.847,4.9724e-05,0.0099779,-0.00015332,-1525.6,1.7288
17862,16.994,2.3636,0.05,7.7432e-07,7.7378,5.9458e-07,4.4674,3.9955e-13,8.4065e-06,-5.9458e-07,-4.4674,1.7143
17863,16.994,2.6364,0,0.00015582,1557.2,5.3044e-05,19.451,5.0456e-05,0.010581,-0.00015548,-1547.3,1.7145
17864,17.086,2.5455,0,0.00015365,1535.4,5.2365e-05,19.93,4.9714e-05,0.010538,-0.0001533,-1525.3,1.7289
17865,16.994,2.5455,0.05,7.7436e-07,7.7382,5.9461e-07,4.4677,8.6967e-13,8.2793e-06,-5.9461e-07,-4.4677,1.7144
17866,16.994,2.8182,0,0.00015582,1557.1,5.3044e-05,19.489,5.0452e-05,0.010858,-0.00015547,-1547.2,1.7145
17867,17.086,2.7273,0,0.00015363,1535.3,5.2366e-05,19.987,4.9707e-05,0.010909,-0.00015328,-1525.2,1.729
17868,16.994,2.7273,0.05,7.7438e-07,7.7385,5.9463e-07,4.4678,8.8477e-13,7.4436e-06,-5.9463e-07,-4.4678,1.7145
17869,16.994,3,0,0.00015581,1557,5.3044e-05,19.501,5.045e-05,0.010951,-0.00015547,-1547.2,1.7145
17870,17.086,2.9091,0,0.00015363,1535.2,5.2366e-05,20.015,4.9704e-05,0.011094,-0.00015328,-1525.1,1.729
17871,16.994,2.9091,0.05,7.744e-07,7.7386,5.9464e-07,4.4679,1.3559e-12,7.805e-06,-5.9464e-07,-4.4679,1.7145
17872,16.994,3.1818,0,0.00015582,1557.1,5.3044e-05,19.489,5.0452e-05,0.010859,-0.00015547,-1547.2,1.7145
17873,17.086,3.0909,0,0.00015363,1535.2,5.2366e-05,20.015,4.9704e-05,0.011095,-0.00015328,-1525.1,1.729
17874,16.994,3.0909,0.05,7.744e-07,7.7386,5.9464e-07,4.4679,1.3727e-12,7.4544e-06,-5.9464e-07,-4.4679,1.7145
17875,16.994,3.3636,0,0.00015582,1557.2,5.3044e-05,19.451,5.0456e-05,0.010582,-0.00015548,-1547.3,1.7145
17876,17.086,3.2727,0,0.00015363,1535.3,5.2366e-05,19.987,4.9707e-05,0.010909,-0.00015328,-1525.2,1.729
17877,16.994,3.2727,0.05,7.7438e-07,7.7385,5.9463e-07,4.4678,1.8438e-12,8.0556e-06,-5.9463e-07,-4.4678,1.7145
17878,16.994,3.5455,0,0.00015584,1557.3,5.3044e-05,19.391,5.0465e-05,0.010119,-0.0001555,-1547.5,1.7144
17879,17.086,3.4545,0,0.00015365,1535.4,5.2365e-05,19.93,4.9714e-05,0.010538,-0.0001533,-1525.3,1.7289
17880,16.994,3.4545,0.05,7.7436e-07,7.7382,5.9461e-07,4.4677,2.3144e-12,7.935e-06,-5.9461e-07,-4.4677,1.7144
17881,16.994,3.7273,0,0.00015586,1557.6,5.3045e-05,19.31,5.0476e-05,0.0094662,-0.00015553,-1547.8,1.7142
17882,17.086,3.6364,0,0.00015366,1535.6,5.2364e-05,19.847,4.9724e-05,0.0099778,-0.00015332,-1525.6,1.7288
17883,16.994,3.6364,0.05,7.7432e-07,7.7378,5.9458e-07,4.4674,1.8734e-12,8.752e-06,-5.9458e-07,-4.4675,1.7143
17884,16.994,3.9091,0,0.00015589,1557.8,5.3046e-05,19.211,5.0491e-05,0.0086238,-0.00015556,-1548.2,1.7141
17885,17.086,3.8182,0,0.00015369,1535.8,5.2364e-05,19.742,4.9737e-05,0.0092262,-0.00015334,-1525.9,1.7287
17886,16.994,3.8182,0.05,7.7427e-07,7.7373,5.9454e-07,4.4671,1.8885e-12,9.4624e-06,-5.9454e-07,-4.4672,1.7142
17887,16.994,4.0909,0,0.00015593,1558.2,5.3049e-05,19.098,5.0509e-05,0.0075873,-0.0001556,-1548.6,1.7139
17888,17.086,4,0,0.00015372,1536.2,5.2364e-05,19.617,4.9754e-05,0.0082808,-0.00015338,-1526.2,1.7285
17889,16.994,4,0.05,7.742e-07,7.7367,5.9449e-07,4.4667,1.8955e-12,9.0487e-06,-5.9449e-07,-4.4668,1.714
17890,16.994,4.2727,0,0.00015598,1558.7,5.3054e-05,18.976,5.0529e-05,0.0063525,-0.00015564,-1549.1,1.7137
17891,17.086,4.1818,0,0.00015376,1536.6,5.2365e-05,19.478,4.9774e-05,0.0071365,-0.00015342,-1526.7,1.7283
17892,16.994,4.1818,0.05,7.7412e-07,7.7359,5.9443e-07,4.4663,2.3616e-12,7.9733e-06,-5.9443e-07,-4.4663,1.7138
17893,16.994,4.4545,0,0.00015603,1559.2,5.3062e-05,18.85,5.0554e-05,0.0049215,-0.0001557,-1549.7,1.7134
17894,17.086,4.3636,0,0.00015381,1537,5.2369e-05,19.329,4.9797e-05,0.0057903,-0.00015347,-1527.3,1.7281
17895,16.994,4.3636,0.05,7.7402e-07,7.7349,5.9435e-07,4.4657,2.8231e-12,9.7411e-06,-5.9436e-07,-4.4658,1.7135
17896,16.994,4.6364,0,0.00015609,1559.9,5.3073e-05,18.728,5.0581e-05,0.0032938,-0.00015577,-1550.4,1.7131
17897,17.086,4.5455,0,0.00015387,1537.6,5.2375e-05,19.178,4.9823e-05,0.0042424,-0.00015353,-1527.9,1.7278
17898,16.994,4.5455,0.05,7.7392e-07,7.7338,5.9427e-07,4.4651,2.8237e-12,8.1095e-06,-5.9427e-07,-4.4652,1.7132
17899,16.994,4.8182,0,0.00015617,1560.6,5.3088e-05,18.614,5.0611e-05,0.0014636,-0.00015584,-1551.2,1.7128
17900,17.086,4.7273,0,0.00015393,1538.3,5.2385e-05,19.031,4.9853e-05,0.0024955,-0.0001536,-1528.7,1.7275
17901,16.994,4.7273,0.05,7.7379e-07,7.7326,5.9417e-07,4.4644,3.7306e-12,8.6699e-06,-5.9418e-07,-4.4644,1.7129
17902,16.994,5,0,0.00015625,1561.5,5.3108e-05,18.518,5.0644e-05,-0.00052298,-0.00015593,-1552.1,1.7124
17903,17.086,4.9091,0,0.00015401,1539.1,5.24e-05,18.896,4.9885e-05,0.00052993,-0.00015368,-1529.5,1.7271
17904,16.994,4.9091,0.05,7.7365e-07,7.7312,5.9407e-07,4.4636,3.7322e-12,8.61e-06,-5.9407e-07,-4.4636,1.7126
17905,16.994,5.1818,0,0.00015635,1562.4,5.3135e-05,18.447,5.0679e-05,-0.0028162,-0.00015603,-1553.1,1.712
17906,17.086,5.0909,0,0.0001541,1539.9,5.242e-05,18.78,4.992e-05,-0.0015425,-0.00015377,-1530.5,1.7268
17907,16.994,5.0909,0.05,7.7348e-07,7.7295,5.9394e-07,4.4626,3.285e-12,6.6593e-06,-5.9394e-07,-4.4627,1.7122
17908,16.994,5.3636,0,0.00015646,1563.6,5.3169e-05,18.413,5.0718e-05,-0.0047537,-0.00015614,-1554.3,1.7116
17909,17.086,5.2727,0,0.0001542,1541,5.2447e-05,18.693,4.9958e-05,-0.0041394,-0.00015388,-1531.5,1.7264
17910,16.994,5.2727,0.05,7.7311e-07,7.7258,5.9365e-07,4.4604,3.6991e-12,7.3631e-06,-5.9365e-07,-4.4605,1.7118
17911,16.994,5.5455,0,0.0001566,1564.9,5.322e-05,18.481,5.0759e-05,-0.0098654,-0.00015628,-1555.6,1.7111
17912,17.086,5.4545,0,0.00015432,1542.2,5.2482e-05,18.651,4.9999e-05,-0.0054866,-0.000154,-1532.8,1.7259
17913,16.994,5.4545,0.05,7.698e-07,7.6927,5.911e-07,4.4413,3.668e-12,7.5987e-06,-5.9111e-07,-4.4414,1.7113
17914,16.994,5.7273,0,0.00015691,1568,5.3419e-05,19.644,5.0804e-05,-0.0078853,-0.00015657,-1558.1,1.7106
17915,17.086,5.6364,0,0.00015447,1543.7,5.2543e-05,18.772,5.0043e-05,-0.014464,-0.00015415,-1534.2,1.7254
17916,16.994,5.6364,0.05,7.2165e-07,7.2115,5.5413e-07,4.1635,3.6452e-12,8.0786e-06,-5.5414e-07,-4.1636,1.7108
17917,17.086,5.8182,0,0.00015496,1548.5,5.2891e-05,21.038,5.0091e-05,0.00048231,-0.00015459,-1537.9,1.7249
17918,16.994,5.8182,0.05,3.5166e-08,0.35141,2.7005e-08,0.20288,-6.6343e-12,-9.9308e-05,-2.7e-08,-0.2029,1.7103
17919,16.994,5.9091,0,0.00015617,1560.6,5.2692e-05,13.861,5.0847e-05,-0.0048208,-0.00015593,-1553.6,1.7101
17920,17.178,0.27273,0,0.0001525,1524,5.1995e-05,20.023,4.9329e-05,-0.008172,-0.00015215,-1513.8,1.7398
17921,17.271,0.18182,0,0.00015056,1504.6,5.147e-05,21.409,4.8621e-05,0.00053976,-0.00015018,-1493.7,1.7541
17922,17.178,0.18182,0.05,3.5595e-08,0.35571,2.7331e-08,0.20537,2.9951e-12,4.1186e-05,-2.7334e-08,-0.20536,1.7395
17923,17.178,0.090909,0,0.00015174,1516.4,5.1252e-05,14.103,4.9374e-05,-0.0049494,-0.0001515,-1509.3,1.7393
17924,17.178,0.45455,0,0.00015219,1520.9,5.18e-05,18.904,4.9283e-05,-0.010211,-0.00015186,-1511.3,1.7403
17925,17.271,0.36364,0,0.00015007,1499.7,5.1124e-05,19.172,4.857e-05,-0.015033,-0.00014974,-1490,1.7546
17926,17.178,0.36364,0.05,7.1882e-07,7.1833,5.5197e-07,4.1473,-1.3968e-12,5.8111e-06,-5.5197e-07,-4.1472,1.74
17927,17.178,0.63636,0,0.00015206,1519.5,5.1755e-05,18.896,4.924e-05,-0.0048639,-0.00015173,-1510,1.7407
17928,17.271,0.54545,0,0.00014992,1498.2,5.1069e-05,19.111,4.8525e-05,-0.0056411,-0.00014959,-1488.6,1.7551
17929,17.178,0.54545,0.05,7.6665e-07,7.6612,5.8869e-07,4.4232,-9.9041e-13,5.5597e-06,-5.8869e-07,-4.4232,1.7405
17930,17.178,0.81818,0,0.00015195,1518.4,5.1727e-05,18.991,4.9199e-05,-0.0028416,-0.00015162,-1508.9,1.7411
17931,17.271,0.72727,0,0.00014981,1497.1,5.104e-05,19.216,4.8482e-05,-0.0042289,-0.00014947,-1487.4,1.7555
17932,17.178,0.72727,0.05,7.6995e-07,7.6942,5.9123e-07,4.4423,-5.1745e-13,6.0756e-06,-5.9123e-07,-4.4422,1.7409
17933,17.178,1,0,0.00015185,1517.5,5.1707e-05,19.123,4.9161e-05,-0.00045857,-0.00015152,-1507.8,1.7415
17934,17.271,0.90909,0,0.00014971,1496.1,5.1019e-05,19.366,4.8442e-05,-0.001522,-0.00014937,-1486.3,1.7559
17935,17.178,0.90909,0.05,7.7033e-07,7.698,5.9152e-07,4.4445,-5.8481e-13,5.793e-06,-5.9152e-07,-4.4444,1.7413
17936,17.178,1.1818,0,0.00015177,1516.7,5.1692e-05,19.278,4.9127e-05,0.0015975,-0.00015143,-1506.9,1.7419
17937,17.271,1.0909,0,0.00014962,1495.2,5.1006e-05,19.543,4.8405e-05,0.00062509,-0.00014928,-1485.3,1.7563
17938,17.178,1.0909,0.05,7.705e-07,7.6997,5.9165e-07,4.4454,-5.6817e-13,5.6476e-06,-5.9165e-07,-4.4454,1.7417
17939,17.178,1.3636,0,0.0001517,1516,5.1683e-05,19.448,4.9095e-05,0.0034834,-0.00015136,-1506.1,1.7422
17940,17.271,1.2727,0,0.00014955,1494.5,5.0997e-05,19.739,4.8371e-05,0.0026552,-0.0001492,-1484.5,1.7567
17941,17.178,1.2727,0.05,7.7065e-07,7.7012,5.9176e-07,4.4463,-9.6585e-14,6.0317e-06,-5.9176e-07,-4.4463,1.742
17942,17.178,1.5455,0,0.00015164,1515.4,5.1678e-05,19.623,4.9067e-05,0.0051529,-0.0001513,-1505.5,1.7425
17943,17.271,1.4545,0,0.00014949,1493.8,5.0994e-05,19.942,4.834e-05,0.0044521,-0.00014914,-1483.8,1.757
17944,17.178,1.4545,0.05,7.7078e-07,7.7024,5.9186e-07,4.447,-9.9751e-14,5.7628e-06,-5.9186e-07,-4.447,1.7423
17945,17.178,1.7273,0,0.00015159,1514.9,5.1676e-05,19.798,4.9041e-05,0.006618,-0.00015124,-1504.9,1.7428
17946,17.271,1.6364,0,0.00014943,1493.3,5.0993e-05,20.147,4.8312e-05,0.0060387,-0.00014908,-1483.1,1.7572
17947,17.178,1.6364,0.05,7.7089e-07,7.7036,5.9195e-07,4.4477,8.0527e-13,6.6422e-06,-5.9195e-07,-4.4476,1.7426
17948,17.178,1.9091,0,0.00015155,1514.4,5.1675e-05,19.964,4.9019e-05,0.0078763,-0.0001512,-1504.4,1.743
17949,17.271,1.8182,0,0.00014939,1492.9,5.0995e-05,20.343,4.8288e-05,0.0074141,-0.00014903,-1482.6,1.7575
17950,17.178,1.8182,0.05,7.7099e-07,7.7045,5.9202e-07,4.4482,3.6758e-13,5.7472e-06,-5.9202e-07,-4.4482,1.7429
17951,17.178,2.0909,0,0.00015151,1514.1,5.1677e-05,20.115,4.9001e-05,0.0089304,-0.00015116,-1503.9,1.7432
17952,17.271,2,0,0.00014935,1492.5,5.0998e-05,20.525,4.8267e-05,0.0085801,-0.00014899,-1482.1,1.7577
17953,17.178,2,0.05,7.7107e-07,7.7054,5.9208e-07,4.4487,8.3148e-13,6.1718e-06,-5.9208e-07,-4.4487,1.7431
17954,17.178,2.2727,0,0.00015149,1513.8,5.1679e-05,20.246,4.8985e-05,0.0097857,-0.00015113,-1503.6,1.7433
17955,17.271,2.1818,0,0.00014932,1492.2,5.1001e-05,20.686,4.8249e-05,0.009541,-0.00014896,-1481.8,1.7578
17956,17.178,2.1818,0.05,7.7114e-07,7.706,5.9214e-07,4.4491,8.3928e-13,6.6275e-06,-5.9214e-07,-4.4491,1.7432
17957,17.178,2.4545,0,0.00015147,1513.6,5.1681e-05,20.353,4.8973e-05,0.010446,-0.00015111,-1503.3,1.7434
17958,17.271,2.3636,0,0.0001493,1492,5.1005e-05,20.822,4.8235e-05,0.010303,-0.00014894,-1481.5,1.758
17959,17.178,2.3636,0.05,7.7119e-07,7.7066,5.9218e-07,4.4494,3.988e-13,6.4927e-06,-5.9218e-07,-4.4494,1.7434
17960,17.178,2.6364,0,0.00015145,1513.5,5.1682e-05,20.432,4.8965e-05,0.010914,-0.00015109,-1503.1,1.7435
17961,17.271,2.5455,0,0.00014929,1491.8,5.1009e-05,20.927,4.8225e-05,0.01087,-0.00014892,-1481.2,1.7581
17962,17.178,2.5455,0.05,7.7123e-07,7.707,5.9221e-07,4.4496,1.3233e-12,6.5992e-06,-5.9221e-07,-4.4496,1.7435
17963,17.178,2.8182,0,0.00015144,1513.4,5.1684e-05,20.481,4.8959e-05,0.011194,-0.00015108,-1503,1.7436
17964,17.271,2.7273,0,0.00014927,1491.7,5.1011e-05,20.999,4.8218e-05,0.011246,-0.00014891,-1481.1,1.7581
17965,17.178,2.7273,0.05,7.7126e-07,7.7073,5.9223e-07,4.4498,4.2883e-13,5.7656e-06,-5.9223e-07,-4.4498,1.7435
17966,17.178,3,0,0.00015144,1513.4,5.1684e-05,20.497,4.8958e-05,0.011287,-0.00015108,-1503,1.7436
17967,17.271,2.9091,0,0.00014927,1491.7,5.1012e-05,21.036,4.8214e-05,0.011431,-0.0001489,-1481,1.7582
17968,17.178,2.9091,0.05,7.7127e-07,7.7074,5.9224e-07,4.4499,9.0077e-13,6.1334e-06,-5.9224e-07,-4.4499,1.7436
17969,17.178,3.1818,0,0.00015144,1513.4,5.1684e-05,20.481,4.8959e-05,0.011194,-0.00015108,-1503,1.7436
17970,17.271,3.0909,0,0.00014927,1491.7,5.1012e-05,21.036,4.8214e-05,0.011432,-0.0001489,-1481,1.7582
17971,17.178,3.0909,0.05,7.7127e-07,7.7074,5.9224e-07,4.4499,1.8278e-12,6.503e-06,-5.9224e-07,-4.4499,1.7436
17972,17.178,3.3636,0,0.00015145,1513.5,5.1682e-05,20.432,4.8965e-05,0.010914,-0.00015109,-1503.1,1.7435
17973,17.271,3.2727,0,0.00014927,1491.7,5.1011e-05,20.999,4.8218e-05,0.011244,-0.00014891,-1481.1,1.7581
17974,17.178,3.2727,0.05,7.7126e-07,7.7073,5.9223e-07,4.4498,1.8453e-12,6.3955e-06,-5.9223e-07,-4.4498,1.7435
17975,17.178,3.5455,0,0.00015147,1513.6,5.1681e-05,20.353,4.8973e-05,0.010446,-0.00015111,-1503.3,1.7434
17976,17.271,3.4545,0,0.00014929,1491.8,5.1009e-05,20.927,4.8225e-05,0.01087,-0.00014892,-1481.2,1.7581
17977,17.178,3.4545,0.05,7.7123e-07,7.707,5.9221e-07,4.4496,2.3159e-12,6.7533e-06,-5.9221e-07,-4.4497,1.7435
17978,17.178,3.7273,0,0.00015149,1513.8,5.1679e-05,20.246,4.8985e-05,0.0097857,-0.00015113,-1503.6,1.7433
17979,17.271,3.6364,0,0.0001493,1492,5.1005e-05,20.822,4.8235e-05,0.010302,-0.00014894,-1481.5,1.758
17980,17.178,3.6364,0.05,7.7119e-07,7.7066,5.9218e-07,4.4494,1.8779e-12,7.1089e-06,-5.9218e-07,-4.4494,1.7434
17981,17.178,3.9091,0,0.00015151,1514.1,5.1677e-05,20.115,4.9001e-05,0.0089302,-0.00015116,-1503.9,1.7432
17982,17.271,3.8182,0,0.00014932,1492.2,5.1001e-05,20.687,4.8249e-05,0.0095411,-0.00014896,-1481.8,1.7578
17983,17.178,3.8182,0.05,7.7114e-07,7.706,5.9213e-07,4.4491,2.3439e-12,8.1819e-06,-5.9214e-07,-4.4491,1.7432
17984,17.178,4.0909,0,0.00015155,1514.4,5.1675e-05,19.964,4.9019e-05,0.0078759,-0.0001512,-1504.4,1.743
17985,17.271,4,0,0.00014935,1492.5,5.0998e-05,20.525,4.8267e-05,0.0085793,-0.00014899,-1482.1,1.7577
17986,17.178,4,0.05,7.7107e-07,7.7054,5.9208e-07,4.4487,3.2643e-12,7.1795e-06,-5.9209e-07,-4.4487,1.7431
17987,17.178,4.2727,0,0.00015159,1514.9,5.1676e-05,19.798,4.9041e-05,0.0066186,-0.00015124,-1504.9,1.7428
17988,17.271,4.1818,0,0.00014939,1492.9,5.0995e-05,20.343,4.8288e-05,0.0074143,-0.00014903,-1482.6,1.7575
17989,17.178,4.1818,0.05,7.7099e-07,7.7045,5.9202e-07,4.4482,3.2758e-12,6.7849e-06,-5.9202e-07,-4.4482,1.7429
17990,17.178,4.4545,0,0.00015164,1515.4,5.1678e-05,19.624,4.9067e-05,0.0051533,-0.0001513,-1505.5,1.7425
17991,17.271,4.3636,0,0.00014943,1493.3,5.0993e-05,20.147,4.8312e-05,0.0060392,-0.00014908,-1483.1,1.7572
17992,17.178,4.3636,0.05,7.7089e-07,7.7036,5.9194e-07,4.4476,3.2779e-12,8.3907e-06,-5.9195e-07,-4.4477,1.7426
17993,17.178,4.6364,0,0.0001517,1516,5.1683e-05,19.448,4.9095e-05,0.0034831,-0.00015136,-1506.1,1.7422
17994,17.271,4.5455,0,0.00014949,1493.8,5.0994e-05,19.943,4.834e-05,0.004452,-0.00014914,-1483.8,1.757
17995,17.178,4.5455,0.05,7.7078e-07,7.7024,5.9186e-07,4.447,2.3688e-12,6.5997e-06,-5.9186e-07,-4.447,1.7423
17996,17.178,4.8182,0,0.00015177,1516.7,5.1692e-05,19.278,4.9127e-05,0.0015968,-0.00015143,-1506.9,1.7419
17997,17.271,4.7273,0,0.00014955,1494.5,5.0997e-05,19.739,4.8371e-05,0.0026552,-0.0001492,-1484.5,1.7567
17998,17.178,4.7273,0.05,7.7065e-07,7.7012,5.9176e-07,4.4462,3.2796e-12,7.5923e-06,-5.9176e-07,-4.4463,1.742
17999,17.178,5,0,0.00015185,1517.5,5.1707e-05,19.123,4.9161e-05,-0.00045967,-0.00015152,-1507.8,1.7415
18000,17.271,4.9091,0,0.00014962,1495.2,5.1006e-05,19.543,4.8405e-05,0.00062447,-0.00014928,-1485.3,1.7563
18001,17.178,4.9091,0.05,7.705e-07,7.6997,5.9165e-07,4.4454,3.2758e-12,7.1959e-06,-5.9165e-07,-4.4455,1.7417
18002,17.178,5.1818,0,0.00015195,1518.4,5.1727e-05,18.992,4.9199e-05,-0.0028427,-0.00015162,-1508.9,1.7411
18003,17.271,5.0909,0,0.00014971,1496.1,5.1019e-05,19.366,4.8442e-05,-0.0015248,-0.00014937,-1486.3,1.7559
18004,17.178,5.0909,0.05,7.7033e-07,7.698,5.9151e-07,4.4444,2.8172e-12,5.2273e-06,-5.9152e-07,-4.4445,1.7413
18005,17.178,5.3636,0,0.00015206,1519.5,5.1755e-05,18.896,4.924e-05,-0.0048644,-0.00015173,-1510,1.7407
18006,17.271,5.2727,0,0.00014981,1497.1,5.104e-05,19.216,4.8482e-05,-0.0042304,-0.00014947,-1487.4,1.7555
18007,17.178,5.2727,0.05,7.6995e-07,7.6942,5.9122e-07,4.4422,3.2566e-12,6.4092e-06,-5.9123e-07,-4.4423,1.7409
18008,17.178,5.5455,0,0.00015219,1520.9,5.18e-05,18.904,4.9283e-05,-0.01021,-0.00015186,-1511.3,1.7403
18009,17.271,5.4545,0,0.00014992,1498.2,5.1069e-05,19.111,4.8525e-05,-0.0056417,-0.00014959,-1488.6,1.7551
18010,17.178,5.4545,0.05,7.6665e-07,7.6612,5.8869e-07,4.4232,4.1032e-12,5.992e-06,-5.887e-07,-4.4233,1.7405
18011,17.178,5.7273,0,0.0001525,1524,5.1995e-05,20.023,4.9329e-05,-0.0081703,-0.00015215,-1513.8,1.7398
18012,17.271,5.6364,0,0.00015007,1499.7,5.1124e-05,19.172,4.857e-05,-0.015031,-0.00014974,-1490,1.7546
18013,17.178,5.6364,0.05,7.1882e-07,7.1833,5.5196e-07,4.1472,4.1012e-12,6.8403e-06,-5.5197e-07,-4.1473,1.74
18014,17.271,5.8182,0,0.00015056,1504.6,5.147e-05,21.409,4.8621e-05,0.00054104,-0.00015018,-1493.7,1.7541
18015,17.178,5.8182,0.05,3.5596e-08,0.35571,2.7335e-08,0.20536,-8.7029e-12,-0.00010331,-2.7331e-08,-0.20538,1.7395
18016,17.178,5.9091,0,0.00015174,1516.4,5.1252e-05,14.103,4.9374e-05,-0.0049501,-0.0001515,-1509.3,1.7393
18017,17.363,0.27273,0,0.00014811,1480.1,5.0579e-05,20.412,4.7861e-05,-0.008493,-0.00014775,-1469.8,1.769
18018,17.455,0.18182,0,0.00014618,1460.8,5.0056e-05,21.788,4.7156e-05,0.0005944,-0.0001458,-1449.8,1.7835
18019,17.363,0.18182,0.05,3.6181e-08,0.36156,2.7781e-08,0.20875,6.8348e-12,3.0427e-05,-2.7784e-08,-0.20874,1.7688
18020,17.363,0.090909,0,0.00014734,1472.3,4.9818e-05,14.35,4.7908e-05,-0.0050996,-0.00014709,-1465.1,1.7685
18021,17.363,0.45455,0,0.0001478,1477,5.0387e-05,19.34,4.7812e-05,-0.01059,-0.00014746,-1467.2,1.7695
18022,17.455,0.36364,0,0.00014569,1455.9,4.9712e-05,19.583,4.7103e-05,-0.015632,-0.00014535,-1446,1.784
18023,17.363,0.36364,0.05,7.1604e-07,7.1555,5.4983e-07,4.1312,-1.0009e-12,5.4396e-06,-5.4983e-07,-4.1312,1.7693
18024,17.363,0.63636,0,0.00014767,1475.7,5.0349e-05,19.396,4.7767e-05,-0.0049941,-0.00014733,-1465.9,1.77
18025,17.455,0.54545,0,0.00014554,1454.4,4.9663e-05,19.586,4.7056e-05,-0.0058025,-0.0001452,-1444.6,1.7844
18026,17.363,0.54545,0.05,7.6354e-07,7.6301,5.863e-07,4.4053,-9.766e-13,6.7924e-06,-5.863e-07,-4.4052,1.7697
18027,17.363,0.81818,0,0.00014757,1474.6,5.0327e-05,19.556,4.7724e-05,-0.0028821,-0.00014722,-1464.8,1.7704
18028,17.455,0.72727,0,0.00014543,1453.3,4.9641e-05,19.758,4.7011e-05,-0.0043213,-0.00014509,-1443.4,1.7848
18029,17.363,0.72727,0.05,7.6683e-07,7.663,5.8883e-07,4.4242,-4.2638e-14,7.9654e-06,-5.8882e-07,-4.4242,1.7702
18030,17.363,1,0,0.00014747,1473.7,5.0314e-05,19.751,4.7685e-05,-0.00040435,-0.00014713,-1463.8,1.7708
18031,17.455,0.90909,0,0.00014534,1452.4,4.9628e-05,19.975,4.6969e-05,-0.0014994,-0.00014499,-1442.3,1.7852
18032,17.363,0.90909,0.05,7.6721e-07,7.6668,5.8912e-07,4.4264,-5.4732e-13,6.2246e-06,-5.8912e-07,-4.4264,1.7706
18033,17.363,1.1818,0,0.0001474,1473,5.0306e-05,19.969,4.7649e-05,0.0017216,-0.00014705,-1462.9,1.7711
18034,17.455,1.0909,0,0.00014526,1451.6,4.9621e-05,20.219,4.693e-05,0.0007272,-0.0001449,-1441.4,1.7856
18035,17.363,1.0909,0.05,7.6739e-07,7.6686,5.8926e-07,4.4275,-5.6181e-13,4.5039e-06,-5.8926e-07,-4.4275,1.7709
18036,17.363,1.3636,0,0.00014733,1472.3,5.0303e-05,20.199,4.7615e-05,0.0036662,-0.00014698,-1462.1,1.7714
18037,17.455,1.2727,0,0.00014519,1450.9,4.9619e-05,20.478,4.6894e-05,0.0028246,-0.00014483,-1440.5,1.7859
18038,17.363,1.2727,0.05,7.6754e-07,7.6701,5.8938e-07,4.4283,-9.6818e-14,5.2498e-06,-5.8938e-07,-4.4283,1.7713
18039,17.363,1.5455,0,0.00014727,1471.7,5.0304e-05,20.431,4.7585e-05,0.0053826,-0.00014692,-1461.4,1.7717
18040,17.455,1.4545,0,0.00014513,1450.3,4.9622e-05,20.742,4.6862e-05,0.0046748,-0.00014477,-1439.8,1.7862
18041,17.363,1.4545,0.05,7.6767e-07,7.6714,5.8948e-07,4.4291,-1.1254e-13,5.7178e-06,-5.8948e-07,-4.4291,1.7715
18042,17.363,1.7273,0,0.00014723,1471.3,5.0307e-05,20.658,4.7559e-05,0.0068814,-0.00014687,-1460.8,1.772
18043,17.455,1.6364,0,0.00014508,1449.8,4.9627e-05,21.003,4.6833e-05,0.0063032,-0.00014471,-1439.2,1.7865
18044,17.363,1.6364,0.05,7.6779e-07,7.6726,5.8957e-07,4.4298,3.4906e-13,5.9952e-06,-5.8957e-07,-4.4298,1.7718
18045,17.363,1.9091,0,0.00014719,1470.9,5.0312e-05,20.871,4.7536e-05,0.0081657,-0.00014682,-1460.3,1.7722
18046,17.455,1.8182,0,0.00014504,1449.4,4.9635e-05,21.251,4.6807e-05,0.0077084,-0.00014467,-1438.7,1.7867
18047,17.363,1.8182,0.05,7.6789e-07,7.6736,5.8965e-07,4.4304,1.267e-12,5.3496e-06,-5.8965e-07,-4.4304,1.772
18048,17.363,2.0909,0,0.00014716,1470.6,5.0318e-05,21.063,4.7516e-05,0.0092394,-0.00014679,-1459.9,1.7724
18049,17.455,2,0,0.00014501,1449.1,4.9643e-05,21.478,4.6785e-05,0.0088976,-0.00014463,-1438.2,1.7869
18050,17.363,2,0.05,7.6798e-07,7.6745,5.8971e-07,4.4309,8.2294e-13,5.7774e-06,-5.8971e-07,-4.4309,1.7722
18051,17.363,2.2727,0,0.00014713,1470.3,5.0324e-05,21.229,4.75e-05,0.010107,-0.00014676,-1459.6,1.7725
18052,17.455,2.1818,0,0.00014498,1448.8,4.9651e-05,21.679,4.6767e-05,0.0098744,-0.0001446,-1437.8,1.7871
18053,17.363,2.1818,0.05,7.6805e-07,7.6752,5.8977e-07,4.4313,3.7722e-13,6.5963e-06,-5.8977e-07,-4.4313,1.7724
18054,17.363,2.4545,0,0.00014712,1470.1,5.0329e-05,21.363,4.7487e-05,0.010776,-0.00014674,-1459.3,1.7726
18055,17.455,2.3636,0,0.00014496,1448.6,4.9658e-05,21.846,4.6752e-05,0.010647,-0.00014458,-1437.6,1.7872
18056,17.363,2.3636,0.05,7.681e-07,7.6757,5.8981e-07,4.4316,3.9294e-13,6.2203e-06,-5.8981e-07,-4.4316,1.7725
18057,17.363,2.6364,0,0.0001471,1470,5.0333e-05,21.461,4.7478e-05,0.011251,-0.00014673,-1459.2,1.7727
18058,17.455,2.5455,0,0.00014495,1448.5,4.9664e-05,21.976,4.6741e-05,0.011221,-0.00014456,-1437.3,1.7873
18059,17.363,2.5455,0.05,7.6815e-07,7.6762,5.8984e-07,4.4318,1.7736e-12,6.5632e-06,-5.8984e-07,-4.4319,1.7726
18060,17.363,2.8182,0,0.00014709,1469.9,5.0335e-05,21.522,4.7472e-05,0.011533,-0.00014672,-1459,1.7728
18061,17.455,2.7273,0,0.00014494,1448.4,4.9668e-05,22.064,4.6733e-05,0.011602,-0.00014455,-1437.2,1.7874
18062,17.363,2.7273,0.05,7.6817e-07,7.6764,5.8986e-07,4.432,1.7912e-12,5.7492e-06,-5.8986e-07,-4.432,1.7727
18063,17.363,3,0,0.00014709,1469.9,5.0336e-05,21.542,4.7471e-05,0.011626,-0.00014671,-1459,1.7728
18064,17.455,2.9091,0,0.00014493,1448.3,4.967e-05,22.109,4.6729e-05,0.01179,-0.00014454,-1437.1,1.7874
18065,17.363,2.9091,0.05,7.6819e-07,7.6766,5.8987e-07,4.4321,9.0004e-13,6.1279e-06,-5.8987e-07,-4.4321,1.7727
18066,17.363,3.1818,0,0.00014709,1469.9,5.0335e-05,21.522,4.7472e-05,0.011532,-0.00014672,-1459,1.7728
18067,17.455,3.0909,0,0.00014493,1448.3,4.967e-05,22.109,4.6729e-05,0.01179,-0.00014454,-1437.1,1.7874
18068,17.363,3.0909,0.05,7.6819e-07,7.6766,5.8987e-07,4.4321,1.8285e-12,5.7934e-06,-5.8987e-07,-4.4321,1.7727
18069,17.363,3.3636,0,0.0001471,1470,5.0333e-05,21.461,4.7478e-05,0.011249,-0.00014673,-1459.2,1.7727
18070,17.455,3.2727,0,0.00014494,1448.4,4.9668e-05,22.064,4.6733e-05,0.0116,-0.00014455,-1437.2,1.7874
18071,17.363,3.2727,0.05,7.6817e-07,7.6764,5.8986e-07,4.432,1.8474e-12,6.4114e-06,-5.8986e-07,-4.432,1.7727
18072,17.363,3.5455,0,0.00014712,1470.1,5.0329e-05,21.363,4.7487e-05,0.010776,-0.00014674,-1459.3,1.7726
18073,17.455,3.4545,0,0.00014495,1448.5,4.9664e-05,21.976,4.6741e-05,0.011221,-0.00014456,-1437.3,1.7873
18074,17.363,3.4545,0.05,7.6815e-07,7.6762,5.8984e-07,4.4318,1.8647e-12,6.3105e-06,-5.8984e-07,-4.4319,1.7726
18075,17.363,3.7273,0,0.00014713,1470.3,5.0324e-05,21.229,4.75e-05,0.010107,-0.00014676,-1459.6,1.7725
18076,17.455,3.6364,0,0.00014496,1448.6,4.9658e-05,21.846,4.6752e-05,0.010647,-0.00014458,-1437.6,1.7872
18077,17.363,3.6364,0.05,7.681e-07,7.6757,5.8981e-07,4.4316,1.8826e-12,7.3815e-06,-5.8981e-07,-4.4316,1.7725
18078,17.363,3.9091,0,0.00014716,1470.6,5.0318e-05,21.063,4.7516e-05,0.0092388,-0.00014679,-1459.9,1.7724
18079,17.455,3.8182,0,0.00014498,1448.8,4.9651e-05,21.679,4.6767e-05,0.0098743,-0.0001446,-1437.8,1.7871
18080,17.363,3.8182,0.05,7.6805e-07,7.6752,5.8976e-07,4.4312,2.3528e-12,7.9726e-06,-5.8977e-07,-4.4313,1.7724
18081,17.363,4.0909,0,0.00014719,1470.9,5.0312e-05,20.871,4.7536e-05,0.0081654,-0.00014682,-1460.3,1.7722
18082,17.455,4,0,0.00014501,1449.1,4.9643e-05,21.478,4.6785e-05,0.0088971,-0.00014463,-1438.2,1.7869
18083,17.363,4,0.05,7.6798e-07,7.6745,5.8971e-07,4.4308,1.9115e-12,7.1081e-06,-5.8971e-07,-4.4309,1.7722
18084,17.363,4.2727,0,0.00014723,1471.3,5.0307e-05,20.658,4.7559e-05,0.0068815,-0.00014687,-1460.8,1.772
18085,17.455,4.1818,0,0.00014504,1449.4,4.9635e-05,21.251,4.6807e-05,0.0077073,-0.00014467,-1438.7,1.7867
18086,17.363,4.1818,0.05,7.6789e-07,7.6736,5.8964e-07,4.4303,3.281e-12,6.1483e-06,-5.8965e-07,-4.4304,1.772
18087,17.363,4.4545,0,0.00014727,1471.7,5.0304e-05,20.431,4.7585e-05,0.0053828,-0.00014692,-1461.4,1.7717
18088,17.455,4.3636,0,0.00014508,1449.8,4.9627e-05,21.003,4.6833e-05,0.0063034,-0.00014471,-1439.2,1.7865
18089,17.363,4.3636,0.05,7.6779e-07,7.6726,5.8957e-07,4.4297,3.2883e-12,7.7096e-06,-5.8957e-07,-4.4298,1.7718
18090,17.363,4.6364,0,0.00014733,1472.3,5.0303e-05,20.199,4.7615e-05,0.0036664,-0.00014698,-1462.1,1.7714
18091,17.455,4.5455,0,0.00014513,1450.3,4.9622e-05,20.742,4.6862e-05,0.0046747,-0.00014477,-1439.8,1.7862
18092,17.363,4.5455,0.05,7.6767e-07,7.6714,5.8948e-07,4.4291,2.8342e-12,6.2727e-06,-5.8948e-07,-4.4292,1.7715
18093,17.363,4.8182,0,0.0001474,1473,5.0306e-05,19.969,4.7649e-05,0.0017216,-0.00014705,-1462.9,1.7711
18094,17.455,4.7273,0,0.00014519,1450.9,4.9619e-05,20.478,4.6894e-05,0.0028251,-0.00014483,-1440.5,1.7859
18095,17.363,4.7273,0.05,7.6754e-07,7.6701,5.8937e-07,4.4283,2.8316e-12,7.3124e-06,-5.8938e-07,-4.4284,1.7713
18096,17.363,5,0,0.00014747,1473.7,5.0314e-05,19.752,4.7685e-05,-0.00040664,-0.00014713,-1463.8,1.7708
18097,17.455,4.9091,0,0.00014526,1451.6,4.9621e-05,20.219,4.693e-05,0.00072726,-0.0001449,-1441.4,1.7856
18098,17.363,4.9091,0.05,7.6739e-07,7.6686,5.8926e-07,4.4274,2.8224e-12,7.1367e-06,-5.8927e-07,-4.4275,1.7709
18099,17.363,5.1818,0,0.00014757,1474.6,5.0327e-05,19.556,4.7724e-05,-0.0028852,-0.00014722,-1464.8,1.7704
18100,17.455,5.0909,0,0.00014534,1452.4,4.9628e-05,19.975,4.6969e-05,-0.0015025,-0.00014499,-1442.3,1.7852
18101,17.363,5.0909,0.05,7.6721e-07,7.6668,5.8912e-07,4.4264,3.7318e-12,5.1461e-06,-5.8913e-07,-4.4265,1.7706
18102,17.363,5.3636,0,0.00014767,1475.7,5.0349e-05,19.396,4.7767e-05,-0.0049957,-0.00014733,-1465.9,1.77
18103,17.455,5.2727,0,0.00014543,1453.3,4.9641e-05,19.758,4.7011e-05,-0.0043237,-0.00014509,-1443.4,1.7848
18104,17.363,5.2727,0.05,7.6683e-07,7.663,5.8882e-07,4.4242,3.7042e-12,6.0724e-06,-5.8883e-07,-4.4243,1.7702
18105,17.363,5.5455,0,0.0001478,1477,5.0387e-05,19.34,4.7812e-05,-0.010589,-0.00014746,-1467.2,1.7695
18106,17.455,5.4545,0,0.00014554,1454.4,4.9663e-05,19.586,4.7056e-05,-0.0058029,-0.0001452,-1444.6,1.7844
18107,17.363,5.4545,0.05,7.6354e-07,7.6301,5.863e-07,4.4052,3.6841e-12,5.8487e-06,-5.8631e-07,-4.4053,1.7697
18108,17.363,5.7273,0,0.00014811,1480.1,5.0579e-05,20.412,4.7861e-05,-0.0084911,-0.00014775,-1469.8,1.769
18109,17.455,5.6364,0,0.00014569,1455.9,4.9712e-05,19.583,4.7103e-05,-0.015631,-0.00014535,-1446,1.784
18110,17.363,5.6364,0.05,7.1604e-07,7.1555,5.4983e-07,4.1312,4.0835e-12,6.4695e-06,-5.4984e-07,-4.1313,1.7693
18111,17.455,5.8182,0,0.00014618,1460.8,5.0056e-05,21.788,4.7156e-05,0.00059608,-0.0001458,-1449.8,1.7835
18112,17.363,5.8182,0.05,3.6181e-08,0.36156,2.7786e-08,0.20875,-9.669e-12,-9.7002e-05,-2.7779e-08,-0.20875,1.7688
18113,17.363,5.9091,0,0.00014734,1472.3,4.9818e-05,14.35,4.7908e-05,-0.0051003,-0.00014709,-1465.1,1.7685
18114,17.547,0.27273,0,0.00014374,1436.4,4.9169e-05,20.811,4.6398e-05,-0.0088185,-0.00014337,-1425.9,1.7984
18115,17.639,0.18182,0,0.00014182,1417.2,4.8649e-05,22.175,4.5698e-05,0.00065477,-0.00014143,-1406,1.8129
18116,17.547,0.18182,0.05,3.6979e-08,0.36954,2.8394e-08,0.21336,3.6724e-12,6.0546e-05,-2.8397e-08,-0.21335,1.7982
18117,17.547,0.090909,0,0.00014295,1428.5,4.8392e-05,14.603,4.6447e-05,-0.0052391,-0.00014269,-1421.1,1.7979
18118,17.547,0.45455,0,0.00014343,1433.3,4.8982e-05,19.789,4.6347e-05,-0.010972,-0.00014308,-1423.3,1.7989
18119,17.639,0.36364,0,0.00014133,1412.3,4.8307e-05,20.006,4.5643e-05,-0.016256,-0.00014098,-1402.2,1.8134
18120,17.547,0.36364,0.05,7.1331e-07,7.1282,5.4774e-07,4.1155,-5.3415e-13,5.6036e-06,-5.4774e-07,-4.1155,1.7986
18121,17.547,0.63636,0,0.0001433,1432,4.8951e-05,19.913,4.63e-05,-0.0051131,-0.00014295,-1422,1.7993
18122,17.639,0.54545,0,0.00014119,1410.9,4.8266e-05,20.078,4.5593e-05,-0.0059629,-0.00014083,-1400.7,1.8138
18123,17.547,0.54545,0.05,7.6047e-07,7.5994,5.8394e-07,4.3875,-1.0174e-12,8.1435e-06,-5.8394e-07,-4.3875,1.7991
18124,17.547,0.81818,0,0.0001432,1431,4.8937e-05,20.142,4.6255e-05,-0.0029066,-0.00014285,-1420.9,1.7997
18125,17.639,0.72727,0,0.00014108,1409.8,4.8251e-05,20.322,4.5546e-05,-0.0044063,-0.00014072,-1399.6,1.8142
18126,17.547,0.72727,0.05,7.6374e-07,7.6321,5.8646e-07,4.4064,-9.9865e-14,7.6448e-06,-5.8645e-07,-4.4064,1.7995
18127,17.547,1,0,0.00014312,1430.2,4.893e-05,20.407,4.6214e-05,-0.00032939,-0.00014276,-1419.9,1.8001
18128,17.639,0.90909,0,0.00014099,1408.9,4.8245e-05,20.611,4.5502e-05,-0.0014643,-0.00014063,-1398.5,1.8146
18129,17.547,0.90909,0.05,7.6413e-07,7.636,5.8676e-07,4.4087,-5.6399e-13,7.0933e-06,-5.8676e-07,-4.4086,1.7999
18130,17.547,1.1818,0,0.00014304,1429.4,4.893e-05,20.692,4.6176e-05,0.001873,-0.00014268,-1419,1.8004
18131,17.639,1.0909,0,0.00014091,1408.2,4.8246e-05,20.925,4.5461e-05,0.00084837,-0.00014055,-1397.6,1.815
18132,17.547,1.0909,0.05,7.6432e-07,7.6379,5.869e-07,4.4098,-1.15e-13,6.8853e-06,-5.869e-07,-4.4097,1.8002
18133,17.547,1.3636,0,0.00014298,1428.8,4.8934e-05,20.986,4.6141e-05,0.003879,-0.00014261,-1418.2,1.8007
18134,17.639,1.2727,0,0.00014085,1407.5,4.8251e-05,21.252,4.5423e-05,0.0030181,-0.00014047,-1396.8,1.8153
18135,17.547,1.2727,0.05,7.6447e-07,7.6395,5.8702e-07,4.4107,-1.2465e-13,6.646e-06,-5.8702e-07,-4.4106,1.8006
18136,17.547,1.5455,0,0.00014293,1428.3,4.8941e-05,21.279,4.6109e-05,0.0056431,-0.00014256,-1417.6,1.801
18137,17.639,1.4545,0,0.00014079,1407,4.8261e-05,21.582,4.5389e-05,0.0049226,-0.00014041,-1396.1,1.8156
18138,17.547,1.4545,0.05,7.6461e-07,7.6409,5.8713e-07,4.4115,3.3544e-13,7.1087e-06,-5.8713e-07,-4.4114,1.8009
18139,17.547,1.7273,0,0.00014289,1427.9,4.895e-05,21.561,4.6081e-05,0.0071793,-0.00014251,-1417,1.8012
18140,17.639,1.6364,0,0.00014075,1406.5,4.8273e-05,21.903,4.5359e-05,0.0065943,-0.00014036,-1395.4,1.8158
18141,17.547,1.6364,0.05,7.6474e-07,7.6421,5.8722e-07,4.4122,7.9184e-13,7.9365e-06,-5.8722e-07,-4.4121,1.8011
18142,17.547,1.9091,0,0.00014285,1427.5,4.896e-05,21.824,4.6057e-05,0.0084901,-0.00014247,-1416.5,1.8015
18143,17.639,1.8182,0,0.00014071,1406.2,4.8286e-05,22.206,4.5332e-05,0.0080316,-0.00014032,-1394.9,1.816
18144,17.547,1.8182,0.05,7.6484e-07,7.6431,5.873e-07,4.4128,3.4329e-13,6.7744e-06,-5.873e-07,-4.4128,1.8013
18145,17.547,2.0909,0,0.00014283,1427.3,4.8971e-05,22.06,4.6036e-05,0.0095828,-0.00014244,-1416.1,1.8016
18146,17.639,2,0,0.00014068,1405.9,4.8299e-05,22.482,4.5308e-05,0.0092433,-0.00014029,-1394.5,1.8162
18147,17.547,2,0.05,7.6493e-07,7.644,5.8737e-07,4.4133,-9.9666e-14,7.1162e-06,-5.8737e-07,-4.4133,1.8015
18148,17.547,2.2727,0,0.0001428,1427,4.8981e-05,22.262,4.6019e-05,0.010465,-0.00014241,-1415.8,1.8018
18149,17.639,2.1818,0,0.00014066,1405.6,4.8312e-05,22.725,4.5289e-05,0.010238,-0.00014026,-1394.1,1.8164
18150,17.547,2.1818,0.05,7.65e-07,7.6448,5.8743e-07,4.4137,-8.7157e-14,7.936e-06,-5.8743e-07,-4.4137,1.8017
18151,17.547,2.4545,0,0.00014279,1426.9,4.8989e-05,22.426,4.6006e-05,0.011143,-0.00014239,-1415.5,1.8019
18152,17.639,2.3636,0,0.00014064,1405.5,4.8323e-05,22.926,4.5273e-05,0.011023,-0.00014024,-1393.9,1.8165
18153,17.547,2.3636,0.05,7.6506e-07,7.6453,5.8747e-07,4.414,8.3809e-13,7.5674e-06,-5.8747e-07,-4.414,1.8018
18154,17.547,2.6364,0,0.00014278,1426.8,4.8995e-05,22.545,4.5996e-05,0.011623,-0.00014238,-1415.4,1.802
18155,17.639,2.5455,0,0.00014063,1405.3,4.8332e-05,23.082,4.5261e-05,0.011605,-0.00014022,-1393.7,1.8166
18156,17.547,2.5455,0.05,7.6511e-07,7.6458,5.8751e-07,4.4143,1.3129e-12,8.197e-06,-5.8751e-07,-4.4143,1.8019
18157,17.547,2.8182,0,0.00014277,1426.7,4.8999e-05,22.618,4.599e-05,0.011909,-0.00014237,-1415.3,1.802
18158,17.639,2.7273,0,0.00014062,1405.3,4.8338e-05,23.188,4.5254e-05,0.011989,-0.00014022,-1393.5,1.8167
18159,17.547,2.7273,0.05,7.6514e-07,7.6461,5.8753e-07,4.4145,1.3328e-12,7.6305e-06,-5.8753e-07,-4.4145,1.802
18160,17.547,3,0,0.00014277,1426.7,4.9e-05,22.643,4.5988e-05,0.012004,-0.00014237,-1415.2,1.802
18161,17.639,2.9091,0,0.00014062,1405.2,4.8341e-05,23.242,4.525e-05,0.01218,-0.00014021,-1393.5,1.8167
18162,17.547,2.9091,0.05,7.6515e-07,7.6462,5.8754e-07,4.4145,8.9875e-13,8.2637e-06,-5.8754e-07,-4.4146,1.802
18163,17.547,3.1818,0,0.00014277,1426.7,4.8999e-05,22.618,4.599e-05,0.011909,-0.00014237,-1415.3,1.802
18164,17.639,3.0909,0,0.00014062,1405.2,4.8341e-05,23.242,4.525e-05,0.01218,-0.00014021,-1393.5,1.8167
18165,17.547,3.0909,0.05,7.6515e-07,7.6462,5.8754e-07,4.4145,1.8298e-12,7.2336e-06,-5.8754e-07,-4.4146,1.802
18166,17.547,3.3636,0,0.00014278,1426.8,4.8995e-05,22.545,4.5996e-05,0.011623,-0.00014238,-1415.4,1.802
18167,17.639,3.2727,0,0.00014062,1405.3,4.8338e-05,23.189,4.5254e-05,0.011989,-0.00014022,-1393.5,1.8167
18168,17.547,3.2727,0.05,7.6514e-07,7.6461,5.8753e-07,4.4144,1.8511e-12,7.8711e-06,-5.8753e-07,-4.4145,1.802
18169,17.547,3.5455,0,0.00014279,1426.9,4.8989e-05,22.426,4.6006e-05,0.011143,-0.00014239,-1415.5,1.8019
18170,17.639,3.4545,0,0.00014063,1405.3,4.8332e-05,23.082,4.5261e-05,0.011604,-0.00014022,-1393.7,1.8166
18171,17.547,3.4545,0.05,7.6511e-07,7.6458,5.8751e-07,4.4143,2.3251e-12,7.7829e-06,-5.8751e-07,-4.4143,1.8019
18172,17.547,3.7273,0,0.0001428,1427.1,4.8981e-05,22.262,4.6019e-05,0.010465,-0.00014241,-1415.8,1.8018
18173,17.639,3.6364,0,0.00014064,1405.5,4.8323e-05,22.926,4.5273e-05,0.011023,-0.00014024,-1393.9,1.8165
18174,17.547,3.6364,0.05,7.6506e-07,7.6453,5.8747e-07,4.414,1.8912e-12,8.8616e-06,-5.8748e-07,-4.4141,1.8018
18175,17.547,3.9091,0,0.00014283,1427.3,4.8971e-05,22.06,4.6036e-05,0.0095829,-0.00014244,-1416.1,1.8016
18176,17.639,3.8182,0,0.00014066,1405.6,4.8312e-05,22.725,4.5289e-05,0.010238,-0.00014026,-1394.1,1.8164
18177,17.547,3.8182,0.05,7.65e-07,7.6448,5.8742e-07,4.4137,2.8168e-12,9.0062e-06,-5.8743e-07,-4.4137,1.8017
18178,17.547,4.0909,0,0.00014285,1427.5,4.896e-05,21.824,4.6057e-05,0.0084888,-0.00014247,-1416.5,1.8015
18179,17.639,4,0,0.00014068,1405.9,4.8299e-05,22.482,4.5308e-05,0.0092436,-0.00014029,-1394.5,1.8162
18180,17.547,4,0.05,7.6493e-07,7.644,5.8737e-07,4.4132,3.2877e-12,9.1227e-06,-5.8738e-07,-4.4133,1.8015
18181,17.547,4.2727,0,0.00014289,1427.9,4.895e-05,21.561,4.6081e-05,0.0071783,-0.00014251,-1417,1.8012
18182,17.639,4.1818,0,0.00014071,1406.2,4.8286e-05,22.206,4.5332e-05,0.0080304,-0.00014032,-1394.9,1.816
18183,17.547,4.1818,0.05,7.6484e-07,7.6431,5.873e-07,4.4127,2.392e-12,8.2588e-06,-5.873e-07,-4.4128,1.8013
18184,17.547,4.4545,0,0.00014293,1428.3,4.8941e-05,21.279,4.6109e-05,0.0056432,-0.00014256,-1417.6,1.801
18185,17.639,4.3636,0,0.00014075,1406.5,4.8273e-05,21.903,4.5359e-05,0.0065943,-0.00014036,-1395.4,1.8158
18186,17.547,4.3636,0.05,7.6474e-07,7.6421,5.8722e-07,4.4121,2.8507e-12,9.4044e-06,-5.8722e-07,-4.4122,1.8011
18187,17.547,4.6364,0,0.00014298,1428.8,4.8934e-05,20.986,4.6141e-05,0.0038792,-0.00014261,-1418.2,1.8007
18188,17.639,4.5455,0,0.00014079,1407,4.8261e-05,21.582,4.5389e-05,0.004923,-0.00014041,-1396.1,1.8156
18189,17.547,4.5455,0.05,7.6461e-07,7.6409,5.8713e-07,4.4114,3.3144e-12,7.9796e-06,-5.8713e-07,-4.4115,1.8009
18190,17.547,4.8182,0,0.00014304,1429.4,4.893e-05,20.692,4.6176e-05,0.0018735,-0.00014268,-1419,1.8004
18191,17.639,4.7273,0,0.00014085,1407.5,4.8251e-05,21.252,4.5423e-05,0.0030177,-0.00014047,-1396.8,1.8153
18192,17.547,4.7273,0.05,7.6447e-07,7.6395,5.8702e-07,4.4106,3.7594e-12,9.0877e-06,-5.8702e-07,-4.4107,1.8006
18193,17.547,5,0,0.00014312,1430.2,4.893e-05,20.407,4.6214e-05,-0.00033018,-0.00014276,-1419.9,1.8001
18194,17.639,4.9091,0,0.00014091,1408.2,4.8246e-05,20.925,4.5461e-05,0.00084802,-0.00014055,-1397.6,1.815
18195,17.547,4.9091,0.05,7.6432e-07,7.6379,5.869e-07,4.4097,3.7545e-12,8.663e-06,-5.869e-07,-4.4098,1.8002
18196,17.547,5.1818,0,0.0001432,1431,4.8937e-05,20.142,4.6255e-05,-0.002909,-0.00014285,-1420.9,1.7997
18197,17.639,5.0909,0,0.00014099,1408.9,4.8245e-05,20.611,4.5502e-05,-0.0014653,-0.00014063,-1398.5,1.8146
18198,17.547,5.0909,0.05,7.6413e-07,7.636,5.8675e-07,4.4086,3.7547e-12,7.0528e-06,-5.8676e-07,-4.4087,1.7999
18199,17.547,5.3636,0,0.0001433,1432,4.8951e-05,19.913,4.63e-05,-0.0051142,-0.00014295,-1422,1.7993
18200,17.639,5.2727,0,0.00014108,1409.8,4.8251e-05,20.322,4.5546e-05,-0.0044097,-0.00014072,-1399.6,1.8142
18201,17.547,5.2727,0.05,7.6374e-07,7.6321,5.8645e-07,4.4063,3.7216e-12,8.1039e-06,-5.8646e-07,-4.4064,1.7995
18202,17.547,5.5455,0,0.00014343,1433.3,4.8982e-05,19.789,4.6347e-05,-0.010973,-0.00014308,-1423.3,1.7989
18203,17.639,5.4545,0,0.00014119,1410.9,4.8266e-05,20.079,4.5593e-05,-0.0059626,-0.00014083,-1400.7,1.8138
18204,17.547,5.4545,0.05,7.6047e-07,7.5994,5.8394e-07,4.3875,3.707e-12,7.9448e-06,-5.8395e-07,-4.3876,1.7991
18205,17.547,5.7273,0,0.00014374,1436.4,4.9169e-05,20.811,4.6398e-05,-0.0088184,-0.00014337,-1425.9,1.7984
18206,17.639,5.6364,0,0.00014133,1412.3,4.8307e-05,20.006,4.5643e-05,-0.016255,-0.00014098,-1402.2,1.8134
18207,17.547,5.6364,0.05,7.1331e-07,7.1282,5.4773e-07,4.1154,3.666e-12,8.7641e-06,-5.4774e-07,-4.1155,1.7986
18208,17.639,5.8182,0,0.00014182,1417.2,4.8649e-05,22.175,4.5698e-05,0.00065423,-0.00014143,-1406,1.8129
18209,17.547,5.8182,0.05,3.6979e-08,0.36953,2.8399e-08,0.21335,-1.0392e-11,-8.8658e-05,-2.8392e-08,-0.21335,1.7982
18210,17.547,5.9091,0,0.00014295,1428.5,4.8392e-05,14.603,4.6447e-05,-0.005237,-0.00014269,-1421.1,1.7979
18211,17.732,0.27273,0,0.00013939,1392.9,4.7767e-05,21.22,4.4942e-05,-0.0091666,-0.00013901,-1382.2,1.8279
18212,17.824,0.18182,0,0.00013748,1373.9,4.725e-05,22.572,4.4246e-05,0.00070656,-0.00013708,-1362.4,1.8424
18213,17.732,0.18182,0.05,3.8047e-08,0.38021,2.9214e-08,0.21952,5.366e-12,4.5367e-05,-2.9217e-08,-0.21951,1.8276
18214,17.732,0.090909,0,0.00013858,1384.9,4.6972e-05,14.862,4.4993e-05,-0.0053794,-0.00013832,-1377.4,1.8274
18215,17.732,0.45455,0,0.00013908,1389.8,4.7585e-05,20.254,4.4888e-05,-0.011376,-0.00013872,-1379.6,1.8283
18216,17.824,0.36364,0,0.00013699,1368.9,4.6911e-05,20.443,4.4188e-05,-0.016921,-0.00013663,-1358.6,1.8429
18217,17.732,0.36364,0.05,7.1064e-07,7.1015,5.4569e-07,4.1001,-9.873e-13,3.7964e-06,-5.4568e-07,-4.1001,1.8281
18218,17.732,0.63636,0,0.00013896,1388.6,4.7561e-05,20.451,4.4839e-05,-0.0052345,-0.0001386,-1378.3,1.8288
18219,17.824,0.54545,0,0.00013685,1367.5,4.6877e-05,20.589,4.4136e-05,-0.0061352,-0.00013649,-1357.1,1.8433
18220,17.732,0.54545,0.05,7.5743e-07,7.5691,5.8162e-07,4.3701,-1.1163e-13,6.5289e-06,-5.8161e-07,-4.37,1.8285
18221,17.732,0.81818,0,0.00013886,1387.7,4.7555e-05,20.754,4.4792e-05,-0.0029269,-0.0001385,-1377.2,1.8292
18222,17.824,0.72727,0,0.00013675,1366.5,4.687e-05,20.909,4.4086e-05,-0.0044977,-0.00013638,-1355.9,1.8437
18223,17.732,0.72727,0.05,7.6069e-07,7.6017,5.8412e-07,4.3888,-5.6195e-13,3.7612e-06,-5.8412e-07,-4.3888,1.8289
18224,17.732,1,0,0.00013878,1386.8,4.7556e-05,21.092,4.4749e-05,-0.00024337,-0.00013841,-1376.2,1.8295
18225,17.824,0.90909,0,0.00013666,1365.7,4.6872e-05,21.275,4.404e-05,-0.0014249,-0.00013629,-1354.9,1.8441
18226,17.732,0.90909,0.05,7.6109e-07,7.6057,5.8442e-07,4.3911,-5.663e-13,1.5805e-06,-5.8443e-07,-4.3911,1.8293
18227,17.732,1.1818,0,0.00013871,1386.2,4.7563e-05,21.449,4.4708e-05,0.0020405,-0.00013833,-1375.3,1.8298
18228,17.824,1.0909,0,0.00013659,1364.9,4.688e-05,21.665,4.3997e-05,0.00097768,-0.00013621,-1354,1.8444
18229,17.732,1.0909,0.05,7.6129e-07,7.6076,5.8458e-07,4.3923,-5.74e-13,2.8868e-06,-5.8458e-07,-4.3923,1.8297
18230,17.732,1.3636,0,0.00013865,1385.6,4.7574e-05,21.812,4.4672e-05,0.0041111,-0.00013827,-1374.6,1.8301
18231,17.824,1.2727,0,0.00013653,1364.4,4.6894e-05,22.066,4.3958e-05,0.0032246,-0.00013614,-1353.2,1.8447
18232,17.732,1.2727,0.05,7.6146e-07,7.6093,5.847e-07,4.3932,-1.0244e-13,4.5154e-06,-5.847e-07,-4.3932,1.83
18233,17.732,1.5455,0,0.00013861,1385.1,4.7588e-05,22.17,4.4639e-05,0.0059247,-0.00013822,-1373.9,1.8304
18234,17.824,1.4545,0,0.00013648,1363.9,4.6911e-05,22.465,4.3922e-05,0.0051848,-0.00013608,-1352.5,1.845
18235,17.732,1.4545,0.05,7.616e-07,7.6108,5.8481e-07,4.3941,7.8956e-13,5.3816e-06,-5.8482e-07,-4.3941,1.8303
18236,17.732,1.7273,0,0.00013857,1384.7,4.7604e-05,22.512,4.4609e-05,0.0074983,-0.00013817,-1373.3,1.8306
18237,17.824,1.6364,0,0.00013644,1363.5,4.693e-05,22.852,4.389e-05,0.0069023,-0.00013604,-1351.9,1.8453
18238,17.732,1.6364,0.05,7.6173e-07,7.612,5.8491e-07,4.3948,3.4234e-13,5.6612e-06,-5.8491e-07,-4.3948,1.8305
18239,17.732,1.9091,0,0.00013854,1384.4,4.762e-05,22.829,4.4583e-05,0.0088367,-0.00013814,-1372.9,1.8308
18240,17.824,1.8182,0,0.00013641,1363.2,4.695e-05,23.214,4.3861e-05,0.0083727,-0.000136,-1351.4,1.8455
18241,17.732,1.8182,0.05,7.6184e-07,7.6131,5.85e-07,4.3954,3.4103e-13,3.8926e-06,-5.85e-07,-4.3955,1.8307
18242,17.732,2.0909,0,0.00013852,1384.2,4.7636e-05,23.112,4.4561e-05,0.0099506,-0.00013811,-1372.5,1.831
18243,17.824,2,0,0.00013638,1362.9,4.6969e-05,23.543,4.3837e-05,0.0096099,-0.00013597,-1351,1.8457
18244,17.732,2,0.05,7.6193e-07,7.6141,5.8507e-07,4.396,8.0292e-13,4.4316e-06,-5.8507e-07,-4.396,1.8309
18245,17.732,2.2727,0,0.0001385,1384,4.765e-05,23.354,4.4543e-05,0.010848,-0.00013808,-1372.2,1.8312
18246,17.824,2.1818,0,0.00013637,1362.7,4.6986e-05,23.831,4.3816e-05,0.010621,-0.00013594,-1350.6,1.8458
18247,17.732,2.1818,0.05,7.6201e-07,7.6149,5.8513e-07,4.3964,8.2097e-13,4.5414e-06,-5.8513e-07,-4.3964,1.8311
18248,17.732,2.4545,0,0.00013848,1383.9,4.7662e-05,23.549,4.4529e-05,0.011536,-0.00013807,-1372,1.8313
18249,17.824,2.3636,0,0.00013635,1362.6,4.7001e-05,24.069,4.3799e-05,0.011419,-0.00013593,-1350.4,1.8459
18250,17.732,2.3636,0.05,7.6207e-07,7.6155,5.8518e-07,4.3968,8.3689e-13,4.6817e-06,-5.8518e-07,-4.3968,1.8312
18251,17.732,2.6364,0,0.00013847,1383.8,4.7671e-05,23.691,4.4519e-05,0.012023,-0.00013806,-1371.8,1.8313
18252,17.824,2.5455,0,0.00013634,1362.5,4.7013e-05,24.254,4.3787e-05,0.01201,-0.00013591,-1350.2,1.846
18253,17.732,2.5455,0.05,7.6212e-07,7.6159,5.8521e-07,4.3971,1.7644e-12,5.0819e-06,-5.8521e-07,-4.3971,1.8313
18254,17.732,2.8182,0,0.00013847,1383.7,4.7676e-05,23.778,4.4513e-05,0.012312,-0.00013805,-1371.7,1.8314
18255,17.824,2.7273,0,0.00013634,1362.4,4.7022e-05,24.379,4.3779e-05,0.012401,-0.0001359,-1350.1,1.8461
18256,17.732,2.7273,0.05,7.6215e-07,7.6162,5.8524e-07,4.3972,8.765e-13,4.2806e-06,-5.8524e-07,-4.3973,1.8314
18257,17.732,3,0,0.00013847,1383.7,4.7678e-05,23.808,4.4511e-05,0.012408,-0.00013805,-1371.7,1.8314
18258,17.824,2.9091,0,0.00013633,1362.4,4.7026e-05,24.442,4.3774e-05,0.012594,-0.0001359,-1350,1.8461
18259,17.732,2.9091,0.05,7.6216e-07,7.6164,5.8525e-07,4.3973,1.353e-12,4.6837e-06,-5.8525e-07,-4.3973,1.8314
18260,17.732,3.1818,0,0.00013847,1383.7,4.7676e-05,23.778,4.4513e-05,0.012312,-0.00013805,-1371.7,1.8314
18261,17.824,3.0909,0,0.00013633,1362.4,4.7026e-05,24.442,4.3774e-05,0.012593,-0.0001359,-1350,1.8461
18262,17.732,3.0909,0.05,7.6216e-07,7.6164,5.8525e-07,4.3973,1.8303e-12,3.8998e-06,-5.8525e-07,-4.3973,1.8314
18263,17.732,3.3636,0,0.00013847,1383.8,4.7671e-05,23.691,4.4519e-05,0.012022,-0.00013806,-1371.8,1.8313
18264,17.824,3.2727,0,0.00013634,1362.4,4.7022e-05,24.379,4.3779e-05,0.0124,-0.0001359,-1350.1,1.8461
18265,17.732,3.2727,0.05,7.6215e-07,7.6162,5.8523e-07,4.3972,1.8524e-12,5.0204e-06,-5.8524e-07,-4.3973,1.8314
18266,17.732,3.5455,0,0.00013848,1383.9,4.7662e-05,23.549,4.4529e-05,0.011536,-0.00013807,-1372,1.8313
18267,17.824,3.4545,0,0.00013634,1362.5,4.7013e-05,24.254,4.3787e-05,0.01201,-0.00013591,-1350.2,1.846
18268,17.732,3.4545,0.05,7.6212e-07,7.6159,5.8521e-07,4.397,2.3281e-12,4.7059e-06,-5.8521e-07,-4.3971,1.8313
18269,17.732,3.7273,0,0.0001385,1384,4.765e-05,23.354,4.4543e-05,0.010847,-0.00013808,-1372.2,1.8312
18270,17.824,3.6364,0,0.00013635,1362.6,4.7001e-05,24.069,4.3799e-05,0.011419,-0.00013593,-1350.4,1.8459
18271,17.732,3.6364,0.05,7.6207e-07,7.6155,5.8518e-07,4.3968,2.349e-12,6.2839e-06,-5.8518e-07,-4.3968,1.8312
18272,17.732,3.9091,0,0.00013852,1384.2,4.7636e-05,23.112,4.4561e-05,0.0099504,-0.00013811,-1372.5,1.831
18273,17.824,3.8182,0,0.00013637,1362.7,4.6986e-05,23.831,4.3816e-05,0.010621,-0.00013594,-1350.6,1.8458
18274,17.732,3.8182,0.05,7.6201e-07,7.6149,5.8513e-07,4.3964,2.3673e-12,6.4189e-06,-5.8513e-07,-4.3965,1.8311
18275,17.732,4.0909,0,0.00013854,1384.4,4.7621e-05,22.829,4.4583e-05,0.0088371,-0.00013814,-1372.9,1.8308
18276,17.824,4,0,0.00013638,1362.9,4.6969e-05,23.543,4.3837e-05,0.0096096,-0.00013597,-1351,1.8457
18277,17.732,4,0.05,7.6193e-07,7.6141,5.8507e-07,4.396,2.3808e-12,6.0562e-06,-5.8507e-07,-4.396,1.8309
18278,17.732,4.2727,0,0.00013857,1384.7,4.7604e-05,22.512,4.4609e-05,0.007498,-0.00013817,-1373.3,1.8306
18279,17.824,4.1818,0,0.00013641,1363.2,4.695e-05,23.214,4.3861e-05,0.0083721,-0.000136,-1351.4,1.8455
18280,17.732,4.1818,0.05,7.6184e-07,7.6131,5.85e-07,4.3954,2.3926e-12,4.9205e-06,-5.85e-07,-4.3955,1.8307
18281,17.732,4.4545,0,0.00013861,1385.1,4.7588e-05,22.17,4.4639e-05,0.005925,-0.00013822,-1373.9,1.8304
18282,17.824,4.3636,0,0.00013644,1363.5,4.693e-05,22.852,4.389e-05,0.0069016,-0.00013604,-1351.9,1.8453
18283,17.732,4.3636,0.05,7.6173e-07,7.612,5.8491e-07,4.3948,3.306e-12,6.7861e-06,-5.8492e-07,-4.3948,1.8305
18284,17.732,4.6364,0,0.00013865,1385.6,4.7574e-05,21.812,4.4672e-05,0.0041109,-0.00013827,-1374.6,1.8301
18285,17.824,4.5455,0,0.00013648,1363.9,4.6911e-05,22.465,4.3922e-05,0.0051862,-0.00013608,-1352.5,1.845
18286,17.732,4.5455,0.05,7.616e-07,7.6108,5.8481e-07,4.394,3.32e-12,5.0531e-06,-5.8482e-07,-4.3941,1.8303
18287,17.732,4.8182,0,0.00013871,1386.2,4.7563e-05,21.449,4.4708e-05,0.0020392,-0.00013833,-1375.3,1.8298
18288,17.824,4.7273,0,0.00013653,1364.4,4.6894e-05,22.066,4.3958e-05,0.0032223,-0.00013614,-1353.2,1.8447
18289,17.732,4.7273,0.05,7.6146e-07,7.6093,5.847e-07,4.3932,3.3114e-12,5.6664e-06,-5.8471e-07,-4.3933,1.83
18290,17.732,5,0,0.00013878,1386.8,4.7556e-05,21.092,4.4749e-05,-0.00024389,-0.00013841,-1376.2,1.8295
18291,17.824,4.9091,0,0.00013659,1364.9,4.688e-05,21.665,4.3997e-05,0.00097768,-0.00013621,-1354,1.8444
18292,17.732,4.9091,0.05,7.6129e-07,7.6076,5.8457e-07,4.3922,3.758e-12,5.8217e-06,-5.8458e-07,-4.3923,1.8297
18293,17.732,5.1818,0,0.00013886,1387.7,4.7555e-05,20.754,4.4792e-05,-0.0029289,-0.0001385,-1377.2,1.8292
18294,17.824,5.0909,0,0.00013666,1365.7,4.6872e-05,21.275,4.404e-05,-0.0014263,-0.00013629,-1354.9,1.8441
18295,17.732,5.0909,0.05,7.6109e-07,7.6057,5.8442e-07,4.3911,2.8409e-12,4.3777e-06,-5.8443e-07,-4.3912,1.8293
18296,17.732,5.3636,0,0.00013896,1388.6,4.7561e-05,20.451,4.4839e-05,-0.0052364,-0.0001386,-1378.3,1.8288
18297,17.824,5.2727,0,0.00013675,1366.5,4.687e-05,20.909,4.4086e-05,-0.0044991,-0.00013638,-1355.9,1.8437
18298,17.732,5.2727,0.05,7.6069e-07,7.6017,5.8411e-07,4.3888,3.7248e-12,5.1303e-06,-5.8412e-07,-4.3889,1.8289
18299,17.732,5.5455,0,0.00013908,1389.8,4.7585e-05,20.254,4.4888e-05,-0.011374,-0.00013872,-1379.6,1.8283
18300,17.824,5.4545,0,0.00013685,1367.5,4.6877e-05,20.589,4.4136e-05,-0.0061337,-0.00013649,-1357.1,1.8433
18301,17.732,5.4545,0.05,7.5743e-07,7.5691,5.8161e-07,4.37,3.7092e-12,5.0129e-06,-5.8162e-07,-4.3701,1.8285
18302,17.732,5.7273,0,0.00013939,1392.9,4.7767e-05,21.22,4.4942e-05,-0.0091665,-0.00013901,-1382.2,1.8279
18303,17.824,5.6364,0,0.00013699,1368.9,4.6911e-05,20.443,4.4188e-05,-0.016919,-0.00013663,-1358.6,1.8429
18304,17.732,5.6364,0.05,7.1064e-07,7.1015,5.4568e-07,4.1,3.6963e-12,6.2563e-06,-5.4569e-07,-4.1001,1.8281
18305,17.824,5.8182,0,0.00013748,1373.9,4.725e-05,22.572,4.4246e-05,0.00070356,-0.00013708,-1362.4,1.8424
18306,17.732,5.8182,0.05,3.8048e-08,0.38022,2.922e-08,0.21952,-1.07e-11,-0.00011909,-2.9212e-08,-0.21952,1.8276
18307,17.732,5.9091,0,0.00013858,1384.9,4.6972e-05,14.862,4.4993e-05,-0.0053803,-0.00013832,-1377.4,1.8274
18308,17.916,0.27273,0,0.00013506,1349.6,4.6373e-05,21.641,4.3491e-05,-0.0095496,-0.00013467,-1338.7,1.8575
18309,18.008,0.18182,0,0.00013316,1330.7,4.5857e-05,22.977,4.2799e-05,0.00074425,-0.00013275,-1319,1.872
18310,17.916,0.18182,0.05,3.9451e-08,0.39423,3.0292e-08,0.22761,3.6501e-12,6.1815e-05,-3.0294e-08,-0.22761,1.8572
18311,17.916,0.090909,0,0.00013423,1341.4,4.5559e-05,15.127,4.3545e-05,-0.0055301,-0.00013397,-1333.8,1.857
18312,17.916,0.45455,0,0.00013475,1346.6,4.6196e-05,20.736,4.3435e-05,-0.011811,-0.00013438,-1336.1,1.8579
18313,18.008,0.36364,0,0.00013266,1325.7,4.5522e-05,20.894,4.2738e-05,-0.017631,-0.0001323,-1315.2,1.8725
18314,17.916,0.36364,0.05,7.0803e-07,7.0754,5.4368e-07,4.085,-1.0188e-12,8.3725e-06,-5.4368e-07,-4.085,1.8577
18315,17.916,0.63636,0,0.00013463,1345.4,4.618e-05,21.01,4.3383e-05,-0.0053712,-0.00013426,-1334.8,1.8583
18316,18.008,0.54545,0,0.00013253,1324.4,4.5496e-05,21.12,4.2684e-05,-0.0063171,-0.00013216,-1313.7,1.8729
18317,17.916,0.54545,0.05,7.5445e-07,7.5393,5.7932e-07,4.3528,-9.8318e-13,5.5557e-06,-5.7932e-07,-4.3528,1.8581
18318,17.916,0.81818,0,0.00013454,1344.5,4.6182e-05,21.393,4.3334e-05,-0.002953,-0.00013416,-1333.6,1.8587
18319,18.008,0.72727,0,0.00013243,1323.4,4.5497e-05,21.523,4.2632e-05,-0.0045942,-0.00013205,-1312.5,1.8733
18320,17.916,0.72727,0.05,7.5769e-07,7.5717,5.8181e-07,4.3715,-1.4559e-12,2.9344e-06,-5.8181e-07,-4.3715,1.8585
18321,17.916,1,0,0.00013446,1343.7,4.6191e-05,21.811,4.3288e-05,-0.0001555,-0.00013408,-1332.7,1.859
18322,18.008,0.90909,0,0.00013235,1322.6,4.5508e-05,21.971,4.2583e-05,-0.0013816,-0.00013197,-1311.5,1.8737
18323,17.916,0.90909,0.05,7.581e-07,7.5758,5.8213e-07,4.3739,-1.246e-13,2.968e-06,-5.8213e-07,-4.3739,1.8588
18324,17.916,1.1818,0,0.0001344,1343.1,4.6207e-05,22.246,4.3246e-05,0.0022133,-0.00013401,-1331.8,1.8593
18325,18.008,1.0909,0,0.00013229,1322,4.5525e-05,22.444,4.2538e-05,0.0011163,-0.00013189,-1310.6,1.874
18326,17.916,1.0909,0.05,7.5831e-07,7.5779,5.8229e-07,4.3751,-5.8911e-13,4.36e-06,-5.8229e-07,-4.3751,1.8592
18327,17.916,1.3636,0,0.00013435,1342.6,4.6226e-05,22.683,4.3208e-05,0.0043516,-0.00013395,-1331.1,1.8596
18328,18.008,1.2727,0,0.00013223,1321.4,4.5547e-05,22.924,4.2497e-05,0.0034426,-0.00013183,-1309.8,1.8743
18329,17.916,1.2727,0.05,7.5849e-07,7.5796,5.8242e-07,4.3761,-1.3921e-13,5.9034e-06,-5.8242e-07,-4.3761,1.8595
18330,17.916,1.5455,0,0.00013431,1342.2,4.6248e-05,23.111,4.3173e-05,0.0062166,-0.0001339,-1330.5,1.8599
18331,18.008,1.4545,0,0.00013219,1321,4.5572e-05,23.399,4.2459e-05,0.0054641,-0.00013178,-1309.1,1.8745
18332,17.916,1.4545,0.05,7.5864e-07,7.5812,5.8254e-07,4.377,3.0899e-13,6.1472e-06,-5.8254e-07,-4.377,1.8597
18333,17.916,1.7273,0,0.00013428,1341.8,4.6271e-05,23.518,4.3142e-05,0.0078311,-0.00013386,-1329.9,1.8601
18334,18.008,1.6364,0,0.00013216,1320.6,4.5599e-05,23.855,4.2425e-05,0.0072284,-0.00013173,-1308.6,1.8748
18335,17.916,1.6364,0.05,7.5877e-07,7.5825,5.8264e-07,4.3778,7.6519e-13,6.2682e-06,-5.8264e-07,-4.3778,1.86
18336,17.916,1.9091,0,0.00013425,1341.6,4.6293e-05,23.893,4.3114e-05,0.0092001,-0.00013383,-1329.5,1.8603
18337,18.008,1.8182,0,0.00013213,1320.4,4.5626e-05,24.282,4.2395e-05,0.0087349,-0.0001317,-1308.1,1.875
18338,17.916,1.8182,0.05,7.5889e-07,7.5837,5.8273e-07,4.3784,3.2885e-13,5.2789e-06,-5.8273e-07,-4.3784,1.8602
18339,17.916,2.0909,0,0.00013423,1341.4,4.6314e-05,24.227,4.3091e-05,0.010334,-0.0001338,-1329.1,1.8605
18340,18.008,2,0,0.00013211,1320.2,4.5651e-05,24.668,4.2369e-05,0.0099981,-0.00013167,-1307.7,1.8752
18341,17.916,2,0.05,7.5899e-07,7.5847,5.8281e-07,4.379,7.9653e-13,5.5943e-06,-5.8281e-07,-4.379,1.8604
18342,17.916,2.2727,0,0.00013421,1341.2,4.6333e-05,24.511,4.3072e-05,0.011246,-0.00013378,-1328.8,1.8606
18343,18.008,2.1818,0,0.00013209,1320,4.5674e-05,25.004,4.2348e-05,0.011028,-0.00013165,-1307.3,1.8753
18344,17.916,2.1818,0.05,7.5907e-07,7.5855,5.8287e-07,4.3795,3.6008e-13,5.4846e-06,-5.8287e-07,-4.3795,1.8605
18345,17.916,2.4545,0,0.0001342,1341.1,4.6348e-05,24.74,4.3057e-05,0.011946,-0.00013377,-1328.6,1.8607
18346,18.008,2.3636,0,0.00013208,1319.9,4.5693e-05,25.283,4.233e-05,0.01184,-0.00013163,-1307.1,1.8755
18347,17.916,2.3636,0.05,7.5914e-07,7.5861,5.8292e-07,4.3798,1.289e-12,5.8546e-06,-5.8292e-07,-4.3799,1.8607
18348,17.916,2.6364,0,0.0001342,1341,4.636e-05,24.907,4.3047e-05,0.012441,-0.00013376,-1328.4,1.8608
18349,18.008,2.5455,0,0.00013208,1319.8,4.5709e-05,25.497,4.2317e-05,0.012441,-0.00013162,-1306.9,1.8755
18350,17.916,2.5455,0.05,7.5919e-07,7.5866,5.8296e-07,4.3801,8.5206e-13,6.0143e-06,-5.8296e-07,-4.3802,1.8608
18351,17.916,2.8182,0,0.00013419,1341,4.6367e-05,25.009,4.304e-05,0.012735,-0.00013375,-1328.3,1.8609
18352,18.008,2.7273,0,0.00013207,1319.8,4.5719e-05,25.643,4.2308e-05,0.012836,-0.00013162,-1306.8,1.8756
18353,17.916,2.7273,0.05,7.5922e-07,7.5869,5.8298e-07,4.3803,4.1998e-13,5.2201e-06,-5.8299e-07,-4.3803,1.8608
18354,17.916,3,0,0.00013419,1341,4.6369e-05,25.043,4.3038e-05,0.012832,-0.00013375,-1328.3,1.8609
18355,18.008,2.9091,0,0.00013207,1319.8,4.5725e-05,25.717,4.2304e-05,0.013032,-0.00013161,-1306.7,1.8756
18356,17.916,2.9091,0.05,7.5923e-07,7.5871,5.83e-07,4.3804,1.8072e-12,5.6329e-06,-5.83e-07,-4.3804,1.8608
18357,17.916,3.1818,0,0.00013419,1341,4.6367e-05,25.009,4.304e-05,0.012734,-0.00013375,-1328.3,1.8609
18358,18.008,3.0909,0,0.00013207,1319.8,4.5725e-05,25.717,4.2304e-05,0.013032,-0.00013161,-1306.7,1.8756
18359,17.916,3.0909,0.05,7.5923e-07,7.5871,5.83e-07,4.3804,1.8309e-12,5.3348e-06,-5.83e-07,-4.3804,1.8608
18360,17.916,3.3636,0,0.0001342,1341,4.636e-05,24.907,4.3047e-05,0.01244,-0.00013376,-1328.4,1.8608
18361,18.008,3.2727,0,0.00013207,1319.8,4.5719e-05,25.643,4.2308e-05,0.012835,-0.00013162,-1306.8,1.8756
18362,17.916,3.2727,0.05,7.5922e-07,7.5869,5.8298e-07,4.3803,1.854e-12,5.9879e-06,-5.8299e-07,-4.3803,1.8608
18363,17.916,3.5455,0,0.0001342,1341.1,4.6348e-05,24.74,4.3057e-05,0.011947,-0.00013377,-1328.6,1.8607
18364,18.008,3.4545,0,0.00013208,1319.8,4.5709e-05,25.497,4.2317e-05,0.012441,-0.00013162,-1306.9,1.8755
18365,17.916,3.4545,0.05,7.5919e-07,7.5866,5.8296e-07,4.3801,1.8764e-12,6.1507e-06,-5.8296e-07,-4.3802,1.8608
18366,17.916,3.7273,0,0.00013421,1341.2,4.6333e-05,24.511,4.3072e-05,0.011247,-0.00013378,-1328.8,1.8606
18367,18.008,3.6364,0,0.00013208,1319.9,4.5693e-05,25.283,4.233e-05,0.01184,-0.00013163,-1307.1,1.8755
18368,17.916,3.6364,0.05,7.5914e-07,7.5861,5.8292e-07,4.3798,2.3529e-12,6.8092e-06,-5.8292e-07,-4.3799,1.8607
18369,17.916,3.9091,0,0.00013423,1341.4,4.6314e-05,24.227,4.3091e-05,0.010334,-0.0001338,-1329.1,1.8605
18370,18.008,3.8182,0,0.00013209,1320,4.5674e-05,25.004,4.2348e-05,0.011029,-0.00013165,-1307.3,1.8753
18371,17.916,3.8182,0.05,7.5907e-07,7.5855,5.8287e-07,4.3795,2.8259e-12,7.4129e-06,-5.8288e-07,-4.3795,1.8605
18372,17.916,4.0909,0,0.00013425,1341.6,4.6293e-05,23.893,4.3114e-05,0.0091987,-0.00013383,-1329.5,1.8603
18373,18.008,4,0,0.00013211,1320.2,4.5651e-05,24.668,4.2369e-05,0.0099976,-0.00013167,-1307.7,1.8752
18374,17.916,4,0.05,7.5899e-07,7.5847,5.8281e-07,4.379,2.3893e-12,6.5798e-06,-5.8281e-07,-4.379,1.8604
18375,17.916,4.2727,0,0.00013428,1341.8,4.6271e-05,23.518,4.3142e-05,0.0078301,-0.00013386,-1329.9,1.8601
18376,18.008,4.1818,0,0.00013213,1320.4,4.5626e-05,24.282,4.2395e-05,0.0087343,-0.0001317,-1308.1,1.875
18377,17.916,4.1818,0.05,7.5889e-07,7.5837,5.8273e-07,4.3784,3.3148e-12,5.9309e-06,-5.8274e-07,-4.3785,1.8602
18378,17.916,4.4545,0,0.00013431,1342.2,4.6248e-05,23.111,4.3173e-05,0.0062171,-0.0001339,-1330.5,1.8599
18379,18.008,4.3636,0,0.00013216,1320.6,4.5599e-05,23.855,4.2425e-05,0.0072284,-0.00013173,-1308.6,1.8748
18380,17.916,4.3636,0.05,7.5877e-07,7.5825,5.8264e-07,4.3777,2.4053e-12,7.6607e-06,-5.8265e-07,-4.3778,1.86
18381,17.916,4.6364,0,0.00013435,1342.6,4.6226e-05,22.683,4.3208e-05,0.004351,-0.00013395,-1331.1,1.8596
18382,18.008,4.5455,0,0.00013219,1321,4.5572e-05,23.399,4.2459e-05,0.0054648,-0.00013178,-1309.1,1.8745
18383,17.916,4.5455,0.05,7.5864e-07,7.5812,5.8254e-07,4.3769,3.3134e-12,5.7488e-06,-5.8254e-07,-4.377,1.8597
18384,17.916,4.8182,0,0.0001344,1343.1,4.6207e-05,22.246,4.3246e-05,0.0022123,-0.00013401,-1331.8,1.8593
18385,18.008,4.7273,0,0.00013223,1321.4,4.5547e-05,22.924,4.2497e-05,0.003441,-0.00013183,-1309.8,1.8743
18386,17.916,4.7273,0.05,7.5849e-07,7.5796,5.8242e-07,4.3761,3.3258e-12,7.033e-06,-5.8243e-07,-4.3761,1.8595
18387,17.916,5,0,0.00013446,1343.7,4.6191e-05,21.811,4.3288e-05,-0.00015639,-0.00013408,-1332.7,1.859
18388,18.008,4.9091,0,0.00013229,1322,4.5525e-05,22.444,4.2538e-05,0.0011162,-0.00013189,-1310.6,1.874
18389,17.916,4.9091,0.05,7.5831e-07,7.5779,5.8229e-07,4.3751,2.8581e-12,6.978e-06,-5.8229e-07,-4.3751,1.8592
18390,17.916,5.1818,0,0.00013454,1344.5,4.6182e-05,21.393,4.3334e-05,-0.0029538,-0.00013416,-1333.6,1.8587
18391,18.008,5.0909,0,0.00013235,1322.6,4.5508e-05,21.972,4.2583e-05,-0.0013845,-0.00013197,-1311.5,1.8737
18392,17.916,5.0909,0.05,7.581e-07,7.5758,5.8213e-07,4.3738,2.837e-12,5.2072e-06,-5.8213e-07,-4.3739,1.8588
18393,17.916,5.3636,0,0.00013463,1345.4,4.618e-05,21.01,4.3383e-05,-0.0053691,-0.00013426,-1334.8,1.8583
18394,18.008,5.2727,0,0.00013243,1323.4,4.5497e-05,21.523,4.2632e-05,-0.0045942,-0.00013205,-1312.5,1.8733
18395,17.916,5.2727,0.05,7.5769e-07,7.5717,5.8181e-07,4.3715,3.7282e-12,6.7251e-06,-5.8182e-07,-4.3716,1.8585
18396,17.916,5.5455,0,0.00013475,1346.6,4.6196e-05,20.736,4.3435e-05,-0.011809,-0.00013438,-1336.1,1.8579
18397,18.008,5.4545,0,0.00013253,1324.4,4.5496e-05,21.12,4.2684e-05,-0.0063158,-0.00013216,-1313.7,1.8729
18398,17.916,5.4545,0.05,7.5445e-07,7.5393,5.7932e-07,4.3527,3.6737e-12,6.6286e-06,-5.7932e-07,-4.3528,1.8581
18399,17.916,5.7273,0,0.00013506,1349.6,4.6373e-05,21.641,4.3491e-05,-0.0095509,-0.00013467,-1338.7,1.8575
18400,18.008,5.6364,0,0.00013266,1325.7,4.5522e-05,20.894,4.2738e-05,-0.017631,-0.0001323,-1315.2,1.8725
18401,17.916,5.6364,0.05,7.0803e-07,7.0754,5.4368e-07,4.085,4.095e-12,7.0094e-06,-5.4368e-07,-4.085,1.8577
18402,18.008,5.8182,0,0.00013316,1330.7,4.5857e-05,22.977,4.2799e-05,0.00074357,-0.00013275,-1319,1.872
18403,17.916,5.8182,0.05,3.9451e-08,0.39424,3.0297e-08,0.22762,-9.0689e-12,-7.6187e-05,-3.029e-08,-0.22761,1.8572
18404,17.916,5.9091,0,0.00013423,1341.4,4.5559e-05,15.127,4.3545e-05,-0.0055329,-0.00013397,-1333.8,1.857
18405,18.1,0.27273,0,0.00013074,1306.5,4.4985e-05,22.074,4.2046e-05,-0.0099649,-0.00013035,-1295.4,1.8871
18406,18.192,0.18182,0,0.00012886,1287.7,4.4472e-05,23.392,4.1359e-05,0.00077163,-0.00012844,-1275.8,1.9017
18407,18.1,0.18182,0.05,4.125e-08,0.41222,3.1673e-08,0.238,5.4439e-12,4.5674e-05,-3.1676e-08,-0.23799,1.8869
18408,18.1,0.090909,0,0.0001299,1298.1,4.4153e-05,15.398,4.2103e-05,-0.0056943,-0.00012963,-1290.4,1.8867
18409,18.1,0.45455,0,0.00013044,1303.5,4.4815e-05,21.235,4.1987e-05,-0.012268,-0.00013006,-1292.7,1.8875
18410,18.192,0.36364,0,0.00012836,1282.7,4.414e-05,21.361,4.1295e-05,-0.018391,-0.00012798,-1271.9,1.9022
18411,18.1,0.36364,0.05,7.0548e-07,7.05,5.4172e-07,4.0703,-1.3987e-12,5.2047e-06,-5.4172e-07,-4.0703,1.8873
18412,18.1,0.63636,0,0.00013033,1302.4,4.4808e-05,21.594,4.1933e-05,-0.0055065,-0.00012994,-1291.4,1.8879
18413,18.192,0.54545,0,0.00012823,1281.4,4.4123e-05,21.672,4.1238e-05,-0.0065078,-0.00012785,-1270.5,1.9026
18414,18.1,0.54545,0.05,7.515e-07,7.5099,5.7706e-07,4.3358,-4.933e-13,7.1014e-06,-5.7706e-07,-4.3358,1.8877
18415,18.1,0.81818,0,0.00013024,1301.5,4.4818e-05,22.063,4.1881e-05,-0.0029739,-0.00012985,-1290.3,1.8883
18416,18.192,0.72727,0,0.00012814,1280.5,4.4134e-05,22.164,4.1183e-05,-0.0046912,-0.00012775,-1269.3,1.903
18417,18.1,0.72727,0.05,7.5474e-07,7.5422,5.7955e-07,4.3545,-1.4812e-12,5.9807e-06,-5.7954e-07,-4.3545,1.8881
18418,18.1,1,0,0.00013017,1300.8,4.4837e-05,22.567,4.1833e-05,-5.5878e-05,-0.00012977,-1289.4,1.8886
18419,18.192,0.90909,0,0.00012807,1279.8,4.4154e-05,22.703,4.1132e-05,-0.0013325,-0.00012766,-1268.3,1.9033
18420,18.1,0.90909,0.05,7.5516e-07,7.5464,5.7987e-07,4.3569,-1.1852e-13,5.9608e-06,-5.7987e-07,-4.3569,1.8884
18421,18.1,1.1818,0,0.00013011,1300.2,4.4861e-05,23.085,4.1789e-05,0.0024019,-0.0001297,-1288.5,1.8889
18422,18.192,1.0909,0,0.00012801,1279.2,4.4181e-05,23.264,4.1085e-05,0.001268,-0.00012759,-1267.4,1.9036
18423,18.1,1.0909,0.05,7.5538e-07,7.5486,5.8004e-07,4.3582,-1.3094e-13,7.9574e-06,-5.8004e-07,-4.3582,1.8888
18424,18.1,1.3636,0,0.00013007,1299.8,4.4889e-05,23.603,4.1748e-05,0.0046126,-0.00012965,-1287.8,1.8892
18425,18.192,1.2727,0,0.00012796,1278.7,4.4212e-05,23.83,4.1041e-05,0.0036775,-0.00012754,-1266.6,1.9039
18426,18.1,1.2727,0.05,7.5557e-07,7.5505,5.8018e-07,4.3593,-1.2616e-13,7.4144e-06,-5.8018e-07,-4.3592,1.8891
18427,18.1,1.5455,0,0.00013003,1299.4,4.4919e-05,24.107,4.1711e-05,0.0065336,-0.00012961,-1287.2,1.8895
18428,18.192,1.4545,0,0.00012792,1278.3,4.4246e-05,24.387,4.1001e-05,0.0057657,-0.00012749,-1266,1.9042
18429,18.1,1.4545,0.05,7.5573e-07,7.5521,5.8031e-07,4.3602,7.9189e-13,7.3736e-06,-5.8031e-07,-4.3602,1.8893
18430,18.1,1.7273,0,0.00013,1299.1,4.4949e-05,24.583,4.1679e-05,0.0081895,-0.00012957,-1286.7,1.8897
18431,18.192,1.6364,0,0.00012789,1278.1,4.4281e-05,24.919,4.0965e-05,0.0075782,-0.00012745,-1265.4,1.9044
18432,18.1,1.6364,0.05,7.5587e-07,7.5535,5.8042e-07,4.361,3.2212e-13,7.7013e-06,-5.8042e-07,-4.361,1.8896
18433,18.1,1.9091,0,0.00012998,1298.9,4.4979e-05,25.021,4.165e-05,0.0095894,-0.00012954,-1286.2,1.8899
18434,18.192,1.8182,0,0.00012787,1277.8,4.4315e-05,25.415,4.0934e-05,0.009123,-0.00012742,-1264.9,1.9046
18435,18.1,1.8182,0.05,7.56e-07,7.5548,5.8051e-07,4.3618,3.3293e-13,6.7363e-06,-5.8051e-07,-4.3617,1.8898
18436,18.1,2.0909,0,0.00012997,1298.8,4.5006e-05,25.41,4.1626e-05,0.010748,-0.00012952,-1285.9,1.8901
18437,18.192,2,0,0.00012786,1277.7,4.4347e-05,25.863,4.0906e-05,0.010413,-0.0001274,-1264.6,1.9048
18438,18.1,2,0.05,7.561e-07,7.5558,5.8059e-07,4.3623,3.4837e-13,7.015e-06,-5.8059e-07,-4.3623,1.89
18439,18.1,2.2727,0,0.00012996,1298.7,4.503e-05,25.741,4.1606e-05,0.011677,-0.0001295,-1285.6,1.8902
18440,18.192,2.1818,0,0.00012785,1277.6,4.4376e-05,26.252,4.0884e-05,0.011465,-0.00012738,-1264.3,1.9049
18441,18.1,2.1818,0.05,7.5619e-07,7.5567,5.8066e-07,4.3628,3.6044e-13,7.6204e-06,-5.8066e-07,-4.3629,1.8901
18442,18.1,2.4545,0,0.00012995,1298.6,4.5049e-05,26.006,4.159e-05,0.012388,-0.00012949,-1285.4,1.8903
18443,18.192,2.3636,0,0.00012784,1277.5,4.44e-05,26.574,4.0865e-05,0.012289,-0.00012737,-1264,1.9051
18444,18.1,2.3636,0.05,7.5626e-07,7.5574,5.8071e-07,4.3632,1.2849e-12,7.2894e-06,-5.8072e-07,-4.3633,1.8902
18445,18.1,2.6364,0,0.00012994,1298.6,4.5064e-05,26.199,4.1579e-05,0.012889,-0.00012948,-1285.2,1.8904
18446,18.192,2.5455,0,0.00012784,1277.5,4.4419e-05,26.821,4.0851e-05,0.0129,-0.00012736,-1263.8,1.9051
18447,18.1,2.5455,0.05,7.5631e-07,7.5579,5.8075e-07,4.3635,3.9764e-13,7.6778e-06,-5.8075e-07,-4.3635,1.8903
18448,18.1,2.8182,0,0.00012994,1298.5,4.5073e-05,26.317,4.1572e-05,0.013187,-0.00012947,-1285.2,1.8904
18449,18.192,2.7273,0,0.00012783,1277.4,4.4432e-05,26.989,4.0842e-05,0.013301,-0.00012735,-1263.7,1.9052
18450,18.1,2.7273,0.05,7.5634e-07,7.5582,5.8078e-07,4.3637,1.7837e-12,6.6507e-06,-5.8078e-07,-4.3638,1.8904
18451,18.1,3,0,0.00012994,1298.5,4.5076e-05,26.357,4.1569e-05,0.013286,-0.00012947,-1285.1,1.8904
18452,18.192,2.9091,0,0.00012783,1277.4,4.4439e-05,27.074,4.0837e-05,0.0135,-0.00012735,-1263.7,1.9052
18453,18.1,2.9091,0.05,7.5636e-07,7.5584,5.8079e-07,4.3638,1.807e-12,6.8241e-06,-5.8079e-07,-4.3638,1.8904
18454,18.1,3.1818,0,0.00012994,1298.5,4.5073e-05,26.317,4.1572e-05,0.013187,-0.00012947,-1285.2,1.8904
18455,18.192,3.0909,0,0.00012783,1277.4,4.4439e-05,27.074,4.0837e-05,0.0135,-0.00012735,-1263.7,1.9052
18456,18.1,3.0909,0.05,7.5636e-07,7.5584,5.8079e-07,4.3638,1.8311e-12,6.5275e-06,-5.8079e-07,-4.3639,1.8904
18457,18.1,3.3636,0,0.00012994,1298.6,4.5064e-05,26.199,4.1579e-05,0.012889,-0.00012948,-1285.2,1.8904
18458,18.192,3.2727,0,0.00012783,1277.4,4.4432e-05,26.989,4.0842e-05,0.0133,-0.00012735,-1263.7,1.9052
18459,18.1,3.2727,0.05,7.5634e-07,7.5582,5.8078e-07,4.3637,1.8546e-12,7.1824e-06,-5.8078e-07,-4.3638,1.8904
18460,18.1,3.5455,0,0.00012995,1298.6,4.5049e-05,26.006,4.159e-05,0.012388,-0.00012949,-1285.4,1.8903
18461,18.192,3.4545,0,0.00012784,1277.5,4.4419e-05,26.821,4.0851e-05,0.012899,-0.00012736,-1263.8,1.9051
18462,18.1,3.4545,0.05,7.5631e-07,7.5579,5.8075e-07,4.3635,2.3332e-12,7.826e-06,-5.8075e-07,-4.3636,1.8903
18463,18.1,3.7273,0,0.00012996,1298.7,4.503e-05,25.741,4.1606e-05,0.011677,-0.0001295,-1285.6,1.8902
18464,18.192,3.6364,0,0.00012784,1277.5,4.44e-05,26.574,4.0865e-05,0.01229,-0.00012737,-1264,1.9051
18465,18.1,3.6364,0.05,7.5626e-07,7.5574,5.8071e-07,4.3632,1.8984e-12,8.4713e-06,-5.8072e-07,-4.3633,1.8902
18466,18.1,3.9091,0,0.00012997,1298.8,4.5006e-05,25.41,4.1626e-05,0.010748,-0.00012952,-1285.9,1.8901
18467,18.192,3.8182,0,0.00012785,1277.6,4.4376e-05,26.252,4.0884e-05,0.011465,-0.00012738,-1264.3,1.9049
18468,18.1,3.8182,0.05,7.5619e-07,7.5567,5.8066e-07,4.3628,2.8302e-12,9.3262e-06,-5.8066e-07,-4.3629,1.8901
18469,18.1,4.0909,0,0.00012998,1298.9,4.4979e-05,25.021,4.165e-05,0.0095897,-0.00012954,-1286.2,1.8899
18470,18.192,4,0,0.00012786,1277.7,4.4347e-05,25.863,4.0906e-05,0.010413,-0.0001274,-1264.6,1.9048
18471,18.1,4,0.05,7.561e-07,7.5558,5.8059e-07,4.3623,2.8382e-12,8.474e-06,-5.806e-07,-4.3624,1.89
18472,18.1,4.2727,0,0.00013,1299.1,4.4949e-05,24.583,4.1679e-05,0.0081898,-0.00012957,-1286.7,1.8897
18473,18.192,4.1818,0,0.00012787,1277.8,4.4315e-05,25.415,4.0934e-05,0.0091224,-0.00012742,-1264.9,1.9046
18474,18.1,4.1818,0.05,7.56e-07,7.5548,5.8051e-07,4.3617,2.8621e-12,7.3401e-06,-5.8052e-07,-4.3618,1.8898
18475,18.1,4.4545,0,0.00013003,1299.4,4.4919e-05,24.107,4.1711e-05,0.0065338,-0.00012961,-1287.2,1.8895
18476,18.192,4.3636,0,0.00012789,1278.1,4.4281e-05,24.919,4.0965e-05,0.0075785,-0.00012745,-1265.4,1.9044
18477,18.1,4.3636,0.05,7.5587e-07,7.5535,5.8041e-07,4.361,2.4177e-12,9.157e-06,-5.8042e-07,-4.3611,1.8896
18478,18.1,4.6364,0,0.00013007,1299.8,4.4889e-05,23.603,4.1748e-05,0.0046123,-0.00012965,-1287.8,1.8892
18479,18.192,4.5455,0,0.00012792,1278.3,4.4246e-05,24.387,4.1001e-05,0.0057651,-0.00012749,-1266,1.9042
18480,18.1,4.5455,0.05,7.5573e-07,7.5521,5.803e-07,4.3602,3.3203e-12,7.6605e-06,-5.8031e-07,-4.3602,1.8893
18481,18.1,4.8182,0,0.00013011,1300.2,4.4861e-05,23.085,4.1789e-05,0.0024014,-0.0001297,-1288.5,1.8889
18482,18.192,4.7273,0,0.00012796,1278.7,4.4212e-05,23.83,4.1041e-05,0.0036769,-0.00012754,-1266.6,1.9039
18483,18.1,4.7273,0.05,7.5557e-07,7.5505,5.8018e-07,4.3592,3.3029e-12,8.5696e-06,-5.8018e-07,-4.3593,1.8891
18484,18.1,5,0,0.00013017,1300.8,4.4837e-05,22.567,4.1833e-05,-5.7925e-05,-0.00012977,-1289.4,1.8886
18485,18.192,4.9091,0,0.00012801,1279.2,4.4181e-05,23.264,4.1085e-05,0.0012668,-0.00012759,-1267.4,1.9036
18486,18.1,4.9091,0.05,7.5538e-07,7.5486,5.8004e-07,4.3582,3.2802e-12,8.4517e-06,-5.8004e-07,-4.3582,1.8888
18487,18.1,5.1818,0,0.00013024,1301.5,4.4818e-05,22.063,4.1881e-05,-0.002976,-0.00012985,-1290.3,1.8883
18488,18.192,5.0909,0,0.00012807,1279.8,4.4154e-05,22.703,4.1132e-05,-0.0013351,-0.00012766,-1268.3,1.9033
18489,18.1,5.0909,0.05,7.5516e-07,7.5464,5.7987e-07,4.3569,3.2799e-12,6.5433e-06,-5.7987e-07,-4.357,1.8884
18490,18.1,5.3636,0,0.00013033,1302.4,4.4808e-05,21.594,4.1933e-05,-0.0055073,-0.00012994,-1291.4,1.8879
18491,18.192,5.2727,0,0.00012814,1280.5,4.4134e-05,22.164,4.1183e-05,-0.004693,-0.00012775,-1269.3,1.903
18492,18.1,5.2727,0.05,7.5474e-07,7.5422,5.7954e-07,4.3544,3.6942e-12,8.0554e-06,-5.7955e-07,-4.3545,1.8881
18493,18.1,5.5455,0,0.00013044,1303.5,4.4815e-05,21.235,4.1987e-05,-0.012268,-0.00013006,-1292.7,1.8875
18494,18.192,5.4545,0,0.00012823,1281.4,4.4123e-05,21.672,4.1238e-05,-0.0065086,-0.00012785,-1270.5,1.9026
18495,18.1,5.4545,0.05,7.515e-07,7.5099,5.7706e-07,4.3358,3.6783e-12,8.0807e-06,-5.7706e-07,-4.3359,1.8877
18496,18.1,5.7273,0,0.00013074,1306.5,4.4985e-05,22.074,4.2046e-05,-0.0099642,-0.00013035,-1295.4,1.8871
18497,18.192,5.6364,0,0.00012836,1282.7,4.414e-05,21.361,4.1295e-05,-0.018391,-0.00012798,-1271.9,1.9022
18498,18.1,5.6364,0.05,7.0548e-07,7.05,5.4172e-07,4.0702,3.6307e-12,8.7322e-06,-5.4173e-07,-4.0704,1.8873
18499,18.192,5.8182,0,0.00012886,1287.7,4.4472e-05,23.392,4.1359e-05,0.00077354,-0.00012844,-1275.8,1.9017
18500,18.1,5.8182,0.05,4.125e-08,0.41221,3.1678e-08,0.23799,-7.2607e-12,-7.6086e-05,-3.1671e-08,-0.23799,1.8869
18501,18.1,5.9091,0,0.0001299,1298.1,4.4153e-05,15.398,4.2103e-05,-0.0056902,-0.00012963,-1290.4,1.8867
18502,18.285,0.27273,0,0.00012645,1263.6,4.3606e-05,22.52,4.0607e-05,-0.010417,-0.00012605,-1252.2,1.9168
18503,18.377,0.18182,0,0.00012457,1244.9,4.3094e-05,23.817,3.9924e-05,0.00079086,-0.00012415,-1232.8,1.9315
18504,18.285,0.18182,0.05,4.3503e-08,0.43473,3.3403e-08,0.25099,4.412e-14,6.0364e-05,-3.3406e-08,-0.25099,1.9166
18505,18.285,0.090909,0,0.00012559,1255.1,4.2753e-05,15.676,4.0666e-05,-0.0058584,-0.00012532,-1247.1,1.9164
18506,18.285,0.45455,0,0.00012615,1260.6,4.3442e-05,21.754,4.0545e-05,-0.012761,-0.00012576,-1249.6,1.9173
18507,18.377,0.36364,0,0.00012408,1239.9,4.2767e-05,21.843,3.9857e-05,-0.019204,-0.00012369,-1228.9,1.932
18508,18.285,0.36364,0.05,7.03e-07,7.0252,5.3982e-07,4.056,-9.4055e-13,6.171e-06,-5.3982e-07,-4.056,1.917
18509,18.285,0.63636,0,0.00012604,1259.5,4.3444e-05,22.204,4.0488e-05,-0.0056518,-0.00012565,-1248.3,1.9176
18510,18.377,0.54545,0,0.00012395,1238.7,4.2759e-05,22.248,3.9797e-05,-0.0067104,-0.00012356,-1227.4,1.9323
18511,18.285,0.54545,0.05,7.4861e-07,7.481,5.7484e-07,4.3192,-6.9382e-14,6.9878e-06,-5.7484e-07,-4.3191,1.9174
18512,18.285,0.81818,0,0.00012596,1258.7,4.3464e-05,22.766,4.0434e-05,-0.002994,-0.00012556,-1247.2,1.918
18513,18.377,0.72727,0,0.00012387,1237.8,4.2779e-05,22.837,3.9739e-05,-0.0047905,-0.00012346,-1226.2,1.9327
18514,18.285,0.72727,0.05,7.5184e-07,7.5132,5.7732e-07,4.3377,-9.9013e-13,7.492e-06,-5.7732e-07,-4.3377,1.9178
18515,18.285,1,0,0.0001259,1258.1,4.3493e-05,23.362,4.0383e-05,5.1403e-05,-0.00012548,-1246.3,1.9183
18516,18.377,0.90909,0,0.0001238,1237.1,4.281e-05,23.473,3.9686e-05,-0.0012738,-0.00012338,-1225.2,1.933
18517,18.285,0.90909,0.05,7.5227e-07,7.5175,5.7765e-07,4.3403,-9.435e-14,7.9818e-06,-5.7765e-07,-4.3402,1.9181
18518,18.285,1.1818,0,0.00012585,1257.6,4.3527e-05,23.971,4.0337e-05,0.0026052,-0.00012542,-1245.4,1.9186
18519,18.377,1.0909,0,0.00012375,1236.6,4.2847e-05,24.13,3.9636e-05,0.0014348,-0.00012332,-1224.4,1.9334
18520,18.285,1.0909,0.05,7.5251e-07,7.5199,5.7783e-07,4.3416,-1.2886e-13,8.0424e-06,-5.7783e-07,-4.3416,1.9185
18521,18.285,1.3636,0,0.00012581,1257.2,4.3564e-05,24.577,4.0294e-05,0.0048925,-0.00012537,-1244.7,1.9189
18522,18.377,1.2727,0,0.00012371,1236.2,4.2888e-05,24.79,3.959e-05,0.0039346,-0.00012327,-1223.6,1.9336
18523,18.285,1.2727,0.05,7.527e-07,7.5218,5.7798e-07,4.3428,1.2151e-12,7.1182e-06,-5.7798e-07,-4.3427,1.9187
18524,18.285,1.5455,0,0.00012578,1256.9,4.3603e-05,25.162,4.0255e-05,0.0068716,-0.00012533,-1244.1,1.9191
18525,18.377,1.4545,0,0.00012368,1235.9,4.2932e-05,25.435,3.9548e-05,0.0060919,-0.00012322,-1223,1.9339
18526,18.285,1.4545,0.05,7.5288e-07,7.5236,5.7812e-07,4.3437,-1.4692e-13,7.5855e-06,-5.7812e-07,-4.3437,1.919
18527,18.285,1.7273,0,0.00012576,1256.7,4.3642e-05,25.715,4.022e-05,0.008572,-0.0001253,-1243.6,1.9194
18528,18.377,1.6364,0,0.00012366,1235.7,4.2976e-05,26.05,3.951e-05,0.0079559,-0.00012319,-1222.5,1.9341
18529,18.285,1.6364,0.05,7.5303e-07,7.5251,5.7823e-07,4.3446,7.6853e-13,7.279e-06,-5.7823e-07,-4.3446,1.9192
18530,18.285,1.9091,0,0.00012574,1256.6,4.3679e-05,26.221,4.019e-05,0.010005,-0.00012528,-1243.2,1.9195
18531,18.377,1.8182,0,0.00012364,1235.6,4.3018e-05,26.621,3.9477e-05,0.0095408,-0.00012317,-1222,1.9343
18532,18.285,1.8182,0.05,7.5316e-07,7.5264,5.7834e-07,4.3454,7.7389e-13,6.6462e-06,-5.7834e-07,-4.3454,1.9194
18533,18.285,2.0909,0,0.00012573,1256.4,4.3712e-05,26.669,4.0164e-05,0.011188,-0.00012526,-1242.9,1.9197
18534,18.377,2,0,0.00012363,1235.5,4.3058e-05,27.136,3.9448e-05,0.01086,-0.00012315,-1221.7,1.9345
18535,18.285,2,0.05,7.5327e-07,7.5276,5.7842e-07,4.346,3.3408e-13,6.7388e-06,-5.7842e-07,-4.346,1.9196
18536,18.285,2.2727,0,0.00012572,1256.4,4.3742e-05,27.05,4.0143e-05,0.012134,-0.00012524,-1242.6,1.9198
18537,18.377,2.1818,0,0.00012363,1235.4,4.3093e-05,27.582,3.9424e-05,0.011933,-0.00012313,-1221.4,1.9346
18538,18.285,2.1818,0.05,7.5337e-07,7.5285,5.7849e-07,4.3466,1.7148e-12,7.1047e-06,-5.7849e-07,-4.3466,1.9198
18539,18.285,2.4545,0,0.00012572,1256.3,4.3765e-05,27.354,4.0126e-05,0.012857,-0.00012523,-1242.4,1.9199
18540,18.377,2.3636,0,0.00012362,1235.4,4.3122e-05,27.951,3.9404e-05,0.012772,-0.00012312,-1221.2,1.9347
18541,18.285,2.3636,0.05,7.5344e-07,7.5292,5.7855e-07,4.347,1.2804e-12,7.0087e-06,-5.7855e-07,-4.347,1.9199
18542,18.285,2.6364,0,0.00012572,1256.3,4.3783e-05,27.577,4.0115e-05,0.013367,-0.00012523,-1242.3,1.92
18543,18.377,2.5455,0,0.00012362,1235.4,4.3145e-05,28.234,3.9389e-05,0.013392,-0.00012312,-1221,1.9348
18544,18.285,2.5455,0.05,7.535e-07,7.5298,5.7859e-07,4.3473,1.3019e-12,7.4046e-06,-5.7859e-07,-4.3473,1.92
18545,18.285,2.8182,0,0.00012572,1256.3,4.3794e-05,27.712,4.0107e-05,0.013668,-0.00012522,-1242.2,1.9201
18546,18.377,2.7273,0,0.00012362,1235.3,4.3161e-05,28.426,3.938e-05,0.013801,-0.00012311,-1220.9,1.9349
18547,18.285,2.7273,0.05,7.5353e-07,7.5301,5.7862e-07,4.3475,1.3262e-12,6.6304e-06,-5.7862e-07,-4.3475,1.92
18548,18.285,3,0,0.00012572,1256.3,4.3797e-05,27.757,4.0105e-05,0.013769,-0.00012522,-1242.2,1.9201
18549,18.377,2.9091,0,0.00012362,1235.3,4.3169e-05,28.523,3.9375e-05,0.014002,-0.00012311,-1220.8,1.9349
18550,18.285,2.9091,0.05,7.5355e-07,7.5303,5.7863e-07,4.3476,1.3513e-12,6.8171e-06,-5.7863e-07,-4.3476,1.92
18551,18.285,3.1818,0,0.00012572,1256.3,4.3794e-05,27.712,4.0107e-05,0.013668,-0.00012522,-1242.2,1.9201
18552,18.377,3.0909,0,0.00012362,1235.3,4.3169e-05,28.523,3.9375e-05,0.014003,-0.00012311,-1220.8,1.9349
18553,18.285,3.0909,0.05,7.5355e-07,7.5303,5.7863e-07,4.3476,1.832e-12,6.7736e-06,-5.7863e-07,-4.3476,1.92
18554,18.285,3.3636,0,0.00012572,1256.3,4.3783e-05,27.577,4.0115e-05,0.013365,-0.00012523,-1242.3,1.92
18555,18.377,3.2727,0,0.00012362,1235.3,4.3161e-05,28.426,3.938e-05,0.013799,-0.00012311,-1220.9,1.9349
18556,18.285,3.2727,0.05,7.5353e-07,7.5301,5.7862e-07,4.3475,1.8579e-12,6.9655e-06,-5.7862e-07,-4.3475,1.92
18557,18.285,3.5455,0,0.00012572,1256.3,4.3765e-05,27.355,4.0126e-05,0.012857,-0.00012523,-1242.4,1.9199
18558,18.377,3.4545,0,0.00012362,1235.4,4.3145e-05,28.234,3.9389e-05,0.013393,-0.00012312,-1221,1.9348
18559,18.285,3.4545,0.05,7.535e-07,7.5298,5.7859e-07,4.3473,2.3362e-12,6.6706e-06,-5.7859e-07,-4.3473,1.92
18560,18.285,3.7273,0,0.00012572,1256.4,4.3742e-05,27.05,4.0143e-05,0.012135,-0.00012524,-1242.6,1.9198
18561,18.377,3.6364,0,0.00012362,1235.4,4.3122e-05,27.951,3.9404e-05,0.012773,-0.00012312,-1221.2,1.9347
18562,18.285,3.6364,0.05,7.5344e-07,7.5292,5.7855e-07,4.347,1.9048e-12,7.789e-06,-5.7855e-07,-4.347,1.9199
18563,18.285,3.9091,0,0.00012573,1256.4,4.3712e-05,26.669,4.0164e-05,0.011188,-0.00012526,-1242.9,1.9197
18564,18.377,3.8182,0,0.00012363,1235.4,4.3093e-05,27.582,3.9424e-05,0.011933,-0.00012313,-1221.4,1.9346
18565,18.285,3.8182,0.05,7.5337e-07,7.5285,5.7849e-07,4.3465,1.9292e-12,8.9014e-06,-5.7849e-07,-4.3466,1.9198
18566,18.285,4.0909,0,0.00012574,1256.6,4.3679e-05,26.221,4.019e-05,0.010005,-0.00012528,-1243.2,1.9195
18567,18.377,4,0,0.00012363,1235.5,4.3058e-05,27.136,3.9448e-05,0.01086,-0.00012315,-1221.7,1.9345
18568,18.285,4,0.05,7.5327e-07,7.5275,5.7842e-07,4.346,2.8491e-12,8.0468e-06,-5.7842e-07,-4.3461,1.9196
18569,18.285,4.2727,0,0.00012576,1256.7,4.3642e-05,25.715,4.022e-05,0.0085714,-0.0001253,-1243.6,1.9194
18570,18.377,4.1818,0,0.00012364,1235.6,4.3018e-05,26.621,3.9477e-05,0.0095403,-0.00012317,-1222,1.9343
18571,18.285,4.1818,0.05,7.5316e-07,7.5264,5.7833e-07,4.3454,2.8684e-12,7.6923e-06,-5.7834e-07,-4.3454,1.9194
18572,18.285,4.4545,0,0.00012578,1256.9,4.3603e-05,25.163,4.0255e-05,0.0068713,-0.00012533,-1244.1,1.9191
18573,18.377,4.3636,0,0.00012366,1235.7,4.2976e-05,26.05,3.951e-05,0.0079565,-0.00012319,-1222.5,1.9341
18574,18.285,4.3636,0.05,7.5303e-07,7.5251,5.7823e-07,4.3446,3.3274e-12,8.7394e-06,-5.7824e-07,-4.3447,1.9192
18575,18.285,4.6364,0,0.00012581,1257.2,4.3564e-05,24.577,4.0294e-05,0.0048917,-0.00012537,-1244.7,1.9189
18576,18.377,4.5455,0,0.00012368,1235.9,4.2932e-05,25.435,3.9548e-05,0.0060911,-0.00012322,-1223,1.9339
18577,18.285,4.5455,0.05,7.5288e-07,7.5236,5.7811e-07,4.3437,2.8735e-12,7.3035e-06,-5.7812e-07,-4.3438,1.919
18578,18.285,4.8182,0,0.00012585,1257.6,4.3527e-05,23.972,4.0337e-05,0.002604,-0.00012542,-1245.4,1.9186
18579,18.377,4.7273,0,0.00012371,1236.2,4.2888e-05,24.79,3.959e-05,0.0039343,-0.00012327,-1223.6,1.9336
18580,18.285,4.7273,0.05,7.527e-07,7.5218,5.7798e-07,4.3427,1.9443e-12,7.9772e-06,-5.7799e-07,-4.3428,1.9187
18581,18.285,5,0,0.0001259,1258.1,4.3493e-05,23.363,4.0383e-05,4.9679e-05,-0.00012548,-1246.3,1.9183
18582,18.377,4.9091,0,0.00012375,1236.6,4.2847e-05,24.13,3.9636e-05,0.0014345,-0.00012332,-1224.4,1.9334
18583,18.285,4.9091,0.05,7.5251e-07,7.5199,5.7783e-07,4.3416,3.3161e-12,8.0633e-06,-5.7783e-07,-4.3416,1.9185
18584,18.285,5.1818,0,0.00012596,1258.7,4.3464e-05,22.766,4.0434e-05,-0.0029963,-0.00012556,-1247.2,1.918
18585,18.377,5.0909,0,0.0001238,1237.1,4.281e-05,23.474,3.9686e-05,-0.0012752,-0.00012338,-1225.2,1.933
18586,18.285,5.0909,0.05,7.5227e-07,7.5175,5.7765e-07,4.3402,3.2944e-12,6.6662e-06,-5.7765e-07,-4.3403,1.9181
18587,18.285,5.3636,0,0.00012604,1259.5,4.3444e-05,22.204,4.0488e-05,-0.0056537,-0.00012565,-1248.3,1.9176
18588,18.377,5.2727,0,0.00012387,1237.8,4.2779e-05,22.837,3.9739e-05,-0.0047925,-0.00012346,-1226.2,1.9327
18589,18.285,5.2727,0.05,7.5184e-07,7.5132,5.7731e-07,4.3377,3.2855e-12,7.7184e-06,-5.7732e-07,-4.3378,1.9178
18590,18.285,5.5455,0,0.00012615,1260.6,4.3442e-05,21.754,4.0545e-05,-0.012762,-0.00012576,-1249.6,1.9173
18591,18.377,5.4545,0,0.00012395,1238.7,4.2759e-05,22.248,3.9797e-05,-0.0067113,-0.00012356,-1227.4,1.9323
18592,18.285,5.4545,0.05,7.4861e-07,7.481,5.7484e-07,4.3191,3.6791e-12,7.7716e-06,-5.7484e-07,-4.3192,1.9174
18593,18.285,5.7273,0,0.00012645,1263.6,4.3606e-05,22.52,4.0607e-05,-0.010416,-0.00012605,-1252.2,1.9168
18594,18.377,5.6364,0,0.00012408,1239.9,4.2767e-05,21.843,3.9857e-05,-0.019202,-0.00012369,-1228.9,1.932
18595,18.285,5.6364,0.05,7.03e-07,7.0252,5.3982e-07,4.0559,3.6543e-12,8.6032e-06,-5.3982e-07,-4.056,1.917
18596,18.377,5.8182,0,0.00012457,1244.9,4.3094e-05,23.817,3.9924e-05,0.00079215,-0.00012415,-1232.8,1.9315
18597,18.285,5.8182,0.05,4.3503e-08,0.43473,3.3407e-08,0.25099,-8.8921e-12,-9.0368e-05,-3.3402e-08,-0.25099,1.9166
18598,18.285,5.9091,0,0.00012559,1255.1,4.2753e-05,15.676,4.0666e-05,-0.005858,-0.00012532,-1247.1,1.9164
18599,18.469,0.27273,0,0.00012218,1220.9,4.2233e-05,22.979,3.9173e-05,-0.010905,-0.00012177,-1209.3,1.9467
18600,18.561,0.18182,0,0.00012031,1202.3,4.1722e-05,24.251,3.8495e-05,0.0007964,-0.00011988,-1189.9,1.9614
18601,18.469,0.18182,0.05,4.6262e-08,0.4623,3.5522e-08,0.26691,3.4656e-12,2.9605e-05,-3.5524e-08,-0.2669,1.9464
18602,18.469,0.090909,0,0.0001213,1212.2,4.136e-05,15.96,3.9235e-05,-0.0060261,-0.00012102,-1204.1,1.9462
18603,18.469,0.45455,0,0.00012188,1217.9,4.2077e-05,22.293,3.9108e-05,-0.013284,-0.00012148,-1206.6,1.9471
18604,18.561,0.36364,0,0.00011981,1197.3,4.1401e-05,22.343,3.8424e-05,-0.020075,-0.00011942,-1186,1.9618
18605,18.469,0.36364,0.05,7.0059e-07,7.0011,5.3797e-07,4.0421,-4.6725e-13,5.905e-06,-5.3797e-07,-4.0421,1.9469
18606,18.469,0.63636,0,0.00012177,1216.9,4.2089e-05,22.842,3.9048e-05,-0.0058005,-0.00012137,-1205.3,1.9474
18607,18.561,0.54545,0,0.00011969,1196.1,4.1403e-05,22.849,3.8361e-05,-0.0069244,-0.00011929,-1184.5,1.9622
18608,18.469,0.54545,0.05,7.4578e-07,7.4526,5.7266e-07,4.3028,-6.272e-14,8.6e-06,-5.7266e-07,-4.3027,1.9472
18609,18.469,0.81818,0,0.0001217,1216.2,4.212e-05,23.505,3.8991e-05,-0.003007,-0.00012128,-1204.3,1.9478
18610,18.561,0.72727,0,0.00011962,1195.3,4.1435e-05,23.544,3.8301e-05,-0.0048936,-0.0001192,-1183.4,1.9625
18611,18.469,0.72727,0.05,7.4899e-07,7.4847,5.7513e-07,4.3213,3.6876e-13,1.126e-05,-5.7513e-07,-4.3213,1.9476
18612,18.469,1,0,0.00012165,1215.6,4.2159e-05,24.202,3.8938e-05,0.00017631,-0.00012122,-1203.3,1.9481
18613,18.561,0.90909,0,0.00011956,1194.7,4.1477e-05,24.286,3.8244e-05,-0.0012052,-0.00011912,-1182.4,1.9629
18614,18.469,0.90909,0.05,7.4944e-07,7.4892,5.7548e-07,4.3239,-1.2693e-13,1.1084e-05,-5.7548e-07,-4.3239,1.9479
18615,18.469,1.1818,0,0.0001216,1215.2,4.2204e-05,24.91,3.8889e-05,0.0028316,-0.00012116,-1202.5,1.9484
18616,18.561,1.0909,0,0.00011951,1194.3,4.1525e-05,25.047,3.8192e-05,0.001621,-0.00011906,-1181.6,1.9632
18617,18.469,1.0909,0.05,7.4969e-07,7.4917,5.7567e-07,4.3253,7.4163e-13,8.8225e-06,-5.7567e-07,-4.3253,1.9482
18618,18.469,1.3636,0,0.00012157,1214.9,4.2251e-05,25.61,3.8844e-05,0.0052008,-0.00012112,-1201.9,1.9487
18619,18.561,1.2727,0,0.00011948,1194,4.1577e-05,25.807,3.8143e-05,0.0042144,-0.00011902,-1180.8,1.9634
18620,18.469,1.2727,0.05,7.499e-07,7.4938,5.7583e-07,4.3266,2.9051e-13,8.2068e-06,-5.7583e-07,-4.3266,1.9485
18621,18.469,1.5455,0,0.00012155,1214.7,4.23e-05,26.285,3.8803e-05,0.0072415,-0.00012108,-1201.3,1.9489
18622,18.561,1.4545,0,0.00011946,1193.7,4.1631e-05,26.549,3.8099e-05,0.0064467,-0.00011898,-1180.2,1.9637
18623,18.469,1.4545,0.05,7.5009e-07,7.4957,5.7597e-07,4.3276,2.9738e-13,8.3383e-06,-5.7597e-07,-4.3276,1.9488
18624,18.469,1.7273,0,0.00012153,1214.5,4.2348e-05,26.919,3.8766e-05,0.0089882,-0.00012105,-1200.8,1.9491
18625,18.561,1.6364,0,0.00011944,1193.6,4.1685e-05,27.254,3.8059e-05,0.0083645,-0.00011895,-1179.7,1.9639
18626,18.469,1.6364,0.05,7.5025e-07,7.4973,5.761e-07,4.3286,7.5257e-13,7.8666e-06,-5.761e-07,-4.3286,1.949
18627,18.469,1.9091,0,0.00012152,1214.4,4.2393e-05,27.5,3.8734e-05,0.010457,-0.00012103,-1200.4,1.9493
18628,18.561,1.8182,0,0.00011943,1193.5,4.1736e-05,27.907,3.8024e-05,0.0099916,-0.00011893,-1179.3,1.9641
18629,18.469,1.8182,0.05,7.5039e-07,7.4987,5.7621e-07,4.3294,7.5912e-13,7.2736e-06,-5.7621e-07,-4.3294,1.9492
18630,18.469,2.0909,0,0.00012152,1214.4,4.2434e-05,28.012,3.8707e-05,0.011665,-0.00012102,-1200.1,1.9494
18631,18.561,2,0,0.00011943,1193.5,4.1784e-05,28.494,3.7993e-05,0.011341,-0.00011892,-1179,1.9643
18632,18.469,2,0.05,7.5051e-07,7.4999,5.763e-07,4.3301,7.8008e-13,7.875e-06,-5.763e-07,-4.3301,1.9494
18633,18.469,2.2727,0,0.00012152,1214.3,4.2469e-05,28.447,3.8685e-05,0.012629,-0.00012101,-1199.9,1.9496
18634,18.561,2.1818,0,0.00011943,1193.5,4.1826e-05,29.003,3.7967e-05,0.012436,-0.00011891,-1178.7,1.9644
18635,18.469,2.1818,0.05,7.5061e-07,7.5009,5.7638e-07,4.3307,8.0074e-13,7.2768e-06,-5.7638e-07,-4.3307,1.9495
18636,18.469,2.4545,0,0.00012152,1214.3,4.2498e-05,28.795,3.8667e-05,0.013365,-0.000121,-1199.7,1.9497
18637,18.561,2.3636,0,0.00011943,1193.5,4.1861e-05,29.422,3.7947e-05,0.013293,-0.0001189,-1178.5,1.9645
18638,18.469,2.3636,0.05,7.5069e-07,7.5017,5.7644e-07,4.3311,8.192e-13,8.1577e-06,-5.7644e-07,-4.3311,1.9496
18639,18.469,2.6364,0,0.00012152,1214.3,4.2519e-05,29.049,3.8654e-05,0.013883,-0.000121,-1199.5,1.9497
18640,18.561,2.5455,0,0.00011943,1193.5,4.1888e-05,29.745,3.7931e-05,0.013922,-0.0001189,-1178.3,1.9646
18641,18.469,2.5455,0.05,7.5075e-07,7.5023,5.7648e-07,4.3315,1.2968e-12,8.0857e-06,-5.7648e-07,-4.3315,1.9497
18642,18.469,2.8182,0,0.00012152,1214.3,4.2532e-05,29.203,3.8647e-05,0.014191,-0.00012099,-1199.5,1.9498
18643,18.561,2.7273,0,0.00011943,1193.5,4.1907e-05,29.963,3.7921e-05,0.014338,-0.0001189,-1178.2,1.9647
18644,18.469,2.7273,0.05,7.5079e-07,7.5027,5.7651e-07,4.3317,1.7782e-12,7.3208e-06,-5.7651e-07,-4.3317,1.9497
18645,18.469,3,0,0.00012152,1214.3,4.2536e-05,29.255,3.8644e-05,0.014292,-0.00012099,-1199.4,1.9498
18646,18.561,2.9091,0,0.00011943,1193.5,4.1916e-05,30.073,3.7916e-05,0.014543,-0.00011889,-1178.2,1.9647
18647,18.469,2.9091,0.05,7.5081e-07,7.5029,5.7653e-07,4.3318,1.3504e-12,8.0023e-06,-5.7653e-07,-4.3318,1.9498
18648,18.469,3.1818,0,0.00012152,1214.3,4.2532e-05,29.203,3.8647e-05,0.01419,-0.00012099,-1199.5,1.9498
18649,18.561,3.0909,0,0.00011943,1193.5,4.1916e-05,30.073,3.7916e-05,0.014543,-0.00011889,-1178.2,1.9647
18650,18.469,3.0909,0.05,7.5081e-07,7.5029,5.7653e-07,4.3318,1.3781e-12,7.4954e-06,-5.7653e-07,-4.3318,1.9498
18651,18.469,3.3636,0,0.00012152,1214.3,4.2519e-05,29.049,3.8654e-05,0.013883,-0.000121,-1199.5,1.9497
18652,18.561,3.2727,0,0.00011943,1193.5,4.1907e-05,29.963,3.7921e-05,0.014337,-0.0001189,-1178.2,1.9647
18653,18.469,3.2727,0.05,7.5079e-07,7.5027,5.7651e-07,4.3317,1.86e-12,7.9393e-06,-5.7651e-07,-4.3317,1.9497
18654,18.469,3.5455,0,0.00012152,1214.3,4.2498e-05,28.795,3.8667e-05,0.013366,-0.000121,-1199.7,1.9497
18655,18.561,3.4545,0,0.00011943,1193.5,4.1888e-05,29.745,3.7931e-05,0.013924,-0.0001189,-1178.3,1.9646
18656,18.469,3.4545,0.05,7.5075e-07,7.5023,5.7648e-07,4.3314,1.8865e-12,7.8986e-06,-5.7648e-07,-4.3315,1.9497
18657,18.469,3.7273,0,0.00012152,1214.3,4.2469e-05,28.447,3.8685e-05,0.01263,-0.00012101,-1199.9,1.9496
18658,18.561,3.6364,0,0.00011943,1193.5,4.1861e-05,29.422,3.7947e-05,0.013291,-0.0001189,-1178.5,1.9645
18659,18.469,3.6364,0.05,7.5069e-07,7.5017,5.7643e-07,4.3311,1.9108e-12,9.0605e-06,-5.7644e-07,-4.3311,1.9496
18660,18.469,3.9091,0,0.00012152,1214.4,4.2434e-05,28.012,3.8707e-05,0.011666,-0.00012102,-1200.1,1.9494
18661,18.561,3.8182,0,0.00011943,1193.5,4.1826e-05,29.003,3.7967e-05,0.012437,-0.00011891,-1178.7,1.9644
18662,18.469,3.8182,0.05,7.5061e-07,7.5009,5.7637e-07,4.3306,3.7515e-12,9.6831e-06,-5.7638e-07,-4.3307,1.9495
18663,18.469,4.0909,0,0.00012152,1214.4,4.2393e-05,27.5,3.8734e-05,0.010458,-0.00012103,-1200.4,1.9493
18664,18.561,4,0,0.00011943,1193.5,4.1784e-05,28.494,3.7993e-05,0.011342,-0.00011892,-1179,1.9643
18665,18.469,4,0.05,7.5051e-07,7.4999,5.763e-07,4.3301,1.9491e-12,9.3559e-06,-5.763e-07,-4.3301,1.9494
18666,18.469,4.2727,0,0.00012153,1214.5,4.2348e-05,26.92,3.8766e-05,0.0089889,-0.00012105,-1200.8,1.9491
18667,18.561,4.1818,0,0.00011943,1193.5,4.1736e-05,27.907,3.8024e-05,0.0099915,-0.00011893,-1179.3,1.9641
18668,18.469,4.1818,0.05,7.5039e-07,7.4987,5.762e-07,4.3294,2.8707e-12,8.2552e-06,-5.7621e-07,-4.3294,1.9492
18669,18.469,4.4545,0,0.00012155,1214.7,4.23e-05,26.285,3.8803e-05,0.0072417,-0.00012108,-1201.3,1.9489
18670,18.561,4.3636,0,0.00011944,1193.6,4.1685e-05,27.254,3.8059e-05,0.0083661,-0.00011895,-1179.7,1.9639
18671,18.469,4.3636,0.05,7.5025e-07,7.4973,5.761e-07,4.3285,3.33e-12,1.0231e-05,-5.761e-07,-4.3286,1.949
18672,18.469,4.6364,0,0.00012157,1214.9,4.2251e-05,25.61,3.8844e-05,0.0052006,-0.00012112,-1201.9,1.9487
18673,18.561,4.5455,0,0.00011946,1193.7,4.1631e-05,26.549,3.8099e-05,0.0064442,-0.00011898,-1180.2,1.9637
18674,18.469,4.5455,0.05,7.5009e-07,7.4957,5.7597e-07,4.3276,1.9731e-12,7.6024e-06,-5.7598e-07,-4.3277,1.9488
18675,18.469,4.8182,0,0.0001216,1215.2,4.2204e-05,24.91,3.8889e-05,0.0028323,-0.00012116,-1202.5,1.9484
18676,18.561,4.7273,0,0.00011948,1194,4.1577e-05,25.807,3.8143e-05,0.0042158,-0.00011902,-1180.8,1.9634
18677,18.469,4.7273,0.05,7.499e-07,7.4938,5.7583e-07,4.3265,2.868e-12,9.5388e-06,-5.7583e-07,-4.3266,1.9485
18678,18.469,5,0,0.00012165,1215.6,4.2159e-05,24.203,3.8938e-05,0.00017643,-0.00012122,-1203.3,1.9481
18679,18.561,4.9091,0,0.00011951,1194.3,4.1525e-05,25.047,3.8192e-05,0.0016206,-0.00011906,-1181.6,1.9632
18680,18.469,4.9091,0.05,7.4969e-07,7.4917,5.7566e-07,4.3253,3.3227e-12,8.9066e-06,-5.7567e-07,-4.3254,1.9482
18681,18.469,5.1818,0,0.0001217,1216.2,4.212e-05,23.505,3.8991e-05,-0.0030081,-0.00012128,-1204.3,1.9478
18682,18.561,5.0909,0,0.00011956,1194.7,4.1477e-05,24.286,3.8244e-05,-0.0012055,-0.00011912,-1182.4,1.9629
18683,18.469,5.0909,0.05,7.4944e-07,7.4892,5.7547e-07,4.3239,2.8458e-12,7.6006e-06,-5.7548e-07,-4.3239,1.9479
18684,18.469,5.3636,0,0.00012177,1216.9,4.2089e-05,22.842,3.9048e-05,-0.0058015,-0.00012137,-1205.3,1.9474
18685,18.561,5.2727,0,0.00011962,1195.3,4.1435e-05,23.544,3.8301e-05,-0.0048943,-0.0001192,-1183.4,1.9625
18686,18.469,5.2727,0.05,7.4899e-07,7.4847,5.7513e-07,4.3213,3.6996e-12,8.677e-06,-5.7513e-07,-4.3213,1.9476
18687,18.469,5.5455,0,0.00012188,1217.9,4.2077e-05,22.293,3.9108e-05,-0.013282,-0.00012148,-1206.6,1.9471
18688,18.561,5.4545,0,0.00011969,1196.1,4.1403e-05,22.849,3.8361e-05,-0.0069242,-0.00011929,-1184.5,1.9622
18689,18.469,5.4545,0.05,7.4577e-07,7.4526,5.7266e-07,4.3027,3.7015e-12,9.1415e-06,-5.7267e-07,-4.3028,1.9472
18690,18.469,5.7273,0,0.00012218,1220.9,4.2233e-05,22.979,3.9173e-05,-0.010903,-0.00012177,-1209.3,1.9467
18691,18.561,5.6364,0,0.00011981,1197.3,4.1401e-05,22.343,3.8424e-05,-0.020073,-0.00011942,-1186,1.9618
18692,18.469,5.6364,0.05,7.0059e-07,7.0011,5.3796e-07,4.042,3.6227e-12,9.1982e-06,-5.3797e-07,-4.0421,1.9469
18693,18.561,5.8182,0,0.00012031,1202.3,4.1722e-05,24.251,3.8495e-05,0.00079747,-0.00011988,-1189.9,1.9614
18694,18.469,5.8182,0.05,4.6262e-08,0.4623,3.5526e-08,0.26691,-8.4387e-12,-7.236e-05,-3.5521e-08,-0.26691,1.9464
18695,18.469,5.9091,0,0.0001213,1212.2,4.136e-05,15.96,3.9235e-05,-0.0060263,-0.00012102,-1204.1,1.9462
18696,18.653,0.27273,0,0.00011792,1178.4,4.0868e-05,23.451,3.7745e-05,-0.011441,-0.0001175,-1166.5,1.9766
18697,18.746,0.18182,0,0.00011606,1159.8,4.0358e-05,24.695,3.7071e-05,0.00077475,-0.00011562,-1147.3,1.9914
18698,18.653,0.18182,0.05,4.9575e-08,0.49541,3.8066e-08,0.28603,3.8945e-12,1.349e-05,-3.8068e-08,-0.28602,1.9764
18699,18.653,0.090909,0,0.00011703,1169.5,3.9974e-05,16.251,3.781e-05,-0.006204,-0.00011674,-1161.2,1.9762
18700,18.653,0.45455,0,0.00011762,1175.4,4.0721e-05,22.854,3.7677e-05,-0.013845,-0.00011722,-1163.8,1.977
18701,18.746,0.36364,0,0.00011557,1154.9,4.0043e-05,22.862,3.6997e-05,-0.021018,-0.00011516,-1143.3,1.9917
18702,18.653,0.36364,0.05,6.9826e-07,6.9778,5.3618e-07,4.0286,-5.2452e-13,5.9314e-06,-5.3618e-07,-4.0286,1.9768
18703,18.653,0.63636,0,0.00011753,1174.5,4.0743e-05,23.511,3.7614e-05,-0.00596,-0.00011711,-1162.5,1.9773
18704,18.746,0.54545,0,0.00011545,1153.8,4.0056e-05,23.478,3.6931e-05,-0.0071586,-0.00011504,-1141.8,1.9921
18705,18.653,0.54545,0.05,7.43e-07,7.4248,5.7053e-07,4.2867,-7.1495e-14,8.4309e-06,-5.7053e-07,-4.2867,1.9771
18706,18.653,0.81818,0,0.00011746,1173.8,4.0786e-05,24.284,3.7554e-05,-0.0030201,-0.00011703,-1161.5,1.9777
18707,18.746,0.72727,0,0.00011538,1153,4.01e-05,24.287,3.6867e-05,-0.005006,-0.00011495,-1140.7,1.9925
18708,18.653,0.72727,0.05,7.462e-07,7.4568,5.7299e-07,4.3052,3.3732e-13,1.1594e-05,-5.7299e-07,-4.3052,1.9775
18709,18.653,1,0,0.00011742,1173.3,4.0837e-05,25.091,3.7498e-05,0.00031358,-0.00011697,-1160.6,1.978
18710,18.746,0.90909,0,0.00011533,1152.5,4.0154e-05,25.144,3.6807e-05,-0.0011333,-0.00011488,-1139.8,1.9928
18711,18.653,0.90909,0.05,7.4667e-07,7.4615,5.7335e-07,4.3079,7.8439e-13,1.0357e-05,-5.7335e-07,-4.3079,1.9778
18712,18.653,1.1818,0,0.00011738,1173,4.0893e-05,25.905,3.7446e-05,0.0030775,-0.00011692,-1159.8,1.9782
18713,18.746,1.0909,0,0.0001153,1152.2,4.0214e-05,26.018,3.6752e-05,0.001818,-0.00011483,-1138.9,1.9931
18714,18.653,1.0909,0.05,7.4693e-07,7.4642,5.7355e-07,4.3094,3.223e-13,7.9183e-06,-5.7355e-07,-4.3094,1.9781
18715,18.653,1.3636,0,0.00011736,1172.8,4.0952e-05,26.708,3.7398e-05,0.0055323,-0.00011688,-1159.2,1.9785
18716,18.746,1.2727,0,0.00011527,1151.9,4.0279e-05,26.889,3.67e-05,0.0045139,-0.00011479,-1138.2,1.9933
18717,18.653,1.2727,0.05,7.4716e-07,7.4664,5.7373e-07,4.3108,-1.5541e-13,7.5639e-06,-5.7373e-07,-4.3107,1.9784
18718,18.653,1.5455,0,0.00011734,1172.6,4.1011e-05,27.48,3.7355e-05,0.0076392,-0.00011685,-1158.6,1.9787
18719,18.746,1.4545,0,0.00011526,1151.8,4.0344e-05,27.735,3.6654e-05,0.0068219,-0.00011476,-1137.7,1.9936
18720,18.653,1.4545,0.05,7.4736e-07,7.4685,5.7388e-07,4.3119,7.508e-13,7.8859e-06,-5.7388e-07,-4.3119,1.9786
18721,18.653,1.7273,0,0.00011734,1172.5,4.1069e-05,28.204,3.7316e-05,0.0094349,-0.00011683,-1158.2,1.9789
18722,18.746,1.6364,0,0.00011525,1151.7,4.0409e-05,28.538,3.6612e-05,0.0088,-0.00011474,-1137.2,1.9938
18723,18.653,1.6364,0.05,7.4754e-07,7.4702,5.7402e-07,4.3129,7.587e-13,7.6873e-06,-5.7402e-07,-4.3129,1.9788
18724,18.653,1.9091,0,0.00011733,1172.5,4.1122e-05,28.865,3.7282e-05,0.01094,-0.00011682,-1157.8,1.9791
18725,18.746,1.8182,0,0.00011525,1151.7,4.047e-05,29.28,3.6574e-05,0.010469,-0.00011473,-1136.8,1.994
18726,18.653,1.8182,0.05,7.4769e-07,7.4717,5.7413e-07,4.3138,7.6364e-13,7.2653e-06,-5.7413e-07,-4.3138,1.979
18727,18.653,2.0909,0,0.00011733,1172.5,4.1171e-05,29.448,3.7253e-05,0.012175,-0.00011681,-1157.5,1.9793
18728,18.746,2,0,0.00011525,1151.7,4.0526e-05,29.946,3.6542e-05,0.011851,-0.00011472,-1136.5,1.9941
18729,18.653,2,0.05,7.4782e-07,7.473,5.7423e-07,4.3145,7.8082e-13,7.14e-06,-5.7423e-07,-4.3146,1.9792
18730,18.653,2.2727,0,0.00011734,1172.6,4.1213e-05,29.942,3.723e-05,0.01316,-0.0001168,-1157.3,1.9794
18731,18.746,2.1818,0,0.00011526,1151.8,4.0575e-05,30.523,3.6515e-05,0.01297,-0.00011471,-1136.2,1.9943
18732,18.653,2.1818,0.05,7.4793e-07,7.4741,5.7432e-07,4.3152,1.2566e-12,7.4971e-06,-5.7432e-07,-4.3152,1.9793
18733,18.653,2.4545,0,0.00011734,1172.6,4.1247e-05,30.336,3.7211e-05,0.013909,-0.00011679,-1157.1,1.9795
18734,18.746,2.3636,0,0.00011527,1151.9,4.0617e-05,30.998,3.6493e-05,0.013844,-0.00011471,-1136,1.9944
18735,18.653,2.3636,0.05,7.4801e-07,7.475,5.7438e-07,4.3157,1.7266e-12,7.6511e-06,-5.7438e-07,-4.3157,1.9794
18736,18.653,2.6364,0,0.00011734,1172.6,4.1272e-05,30.624,3.7198e-05,0.014435,-0.00011679,-1157,1.9795
18737,18.746,2.5455,0,0.00011527,1151.9,4.0649e-05,31.362,3.6477e-05,0.014485,-0.00011471,-1135.9,1.9945
18738,18.653,2.5455,0.05,7.4808e-07,7.4756,5.7443e-07,4.316,8.4281e-13,7.3622e-06,-5.7443e-07,-4.316,1.9795
18739,18.653,2.8182,0,0.00011735,1172.6,4.1287e-05,30.799,3.719e-05,0.014747,-0.00011679,-1156.9,1.9796
18740,18.746,2.7273,0,0.00011528,1152,4.0671e-05,31.609,3.6466e-05,0.014907,-0.0001147,-1135.8,1.9945
18741,18.653,2.7273,0.05,7.4812e-07,7.476,5.7446e-07,4.3163,1.3233e-12,6.3657e-06,-5.7446e-07,-4.3163,1.9796
18742,18.653,3,0,0.00011735,1172.7,4.1292e-05,30.857,3.7187e-05,0.014852,-0.00011679,-1156.9,1.9796
18743,18.746,2.9091,0,0.00011528,1152,4.0682e-05,31.734,3.646e-05,0.015117,-0.0001147,-1135.8,1.9945
18744,18.653,2.9091,0.05,7.4814e-07,7.4762,5.7448e-07,4.3164,1.805e-12,7.5246e-06,-5.7448e-07,-4.3164,1.9796
18745,18.653,3.1818,0,0.00011735,1172.6,4.1287e-05,30.799,3.719e-05,0.014748,-0.00011679,-1156.9,1.9796
18746,18.746,3.0909,0,0.00011528,1152,4.0682e-05,31.734,3.646e-05,0.015116,-0.0001147,-1135.8,1.9945
18747,18.653,3.0909,0.05,7.4814e-07,7.4762,5.7448e-07,4.3164,1.3783e-12,7.0199e-06,-5.7448e-07,-4.3164,1.9796
18748,18.653,3.3636,0,0.00011734,1172.6,4.1272e-05,30.624,3.7198e-05,0.014436,-0.00011679,-1157,1.9795
18749,18.746,3.2727,0,0.00011528,1152,4.0671e-05,31.609,3.6466e-05,0.014907,-0.0001147,-1135.8,1.9945
18750,18.653,3.2727,0.05,7.4812e-07,7.476,5.7446e-07,4.3163,1.8609e-12,7.9456e-06,-5.7446e-07,-4.3163,1.9796
18751,18.653,3.5455,0,0.00011734,1172.6,4.1247e-05,30.336,3.7211e-05,0.013909,-0.00011679,-1157.1,1.9795
18752,18.746,3.4545,0,0.00011527,1151.9,4.0649e-05,31.362,3.6477e-05,0.014486,-0.00011471,-1135.9,1.9945
18753,18.653,3.4545,0.05,7.4808e-07,7.4756,5.7443e-07,4.316,1.8871e-12,7.4167e-06,-5.7443e-07,-4.3161,1.9795
18754,18.653,3.7273,0,0.00011734,1172.6,4.1213e-05,29.942,3.723e-05,0.013159,-0.0001168,-1157.3,1.9794
18755,18.746,3.6364,0,0.00011527,1151.9,4.0617e-05,30.998,3.6493e-05,0.013843,-0.00011471,-1136,1.9944
18756,18.653,3.6364,0.05,7.4801e-07,7.475,5.7438e-07,4.3157,2.3673e-12,8.8099e-06,-5.7438e-07,-4.3157,1.9794
18757,18.653,3.9091,0,0.00011733,1172.5,4.1171e-05,29.448,3.7253e-05,0.012176,-0.00011681,-1157.5,1.9793
18758,18.746,3.8182,0,0.00011526,1151.8,4.0575e-05,30.523,3.6515e-05,0.012971,-0.00011471,-1136.2,1.9943
18759,18.653,3.8182,0.05,7.4793e-07,7.4741,5.7431e-07,4.3152,1.9349e-12,9.4427e-06,-5.7432e-07,-4.3152,1.9793
18760,18.653,4.0909,0,0.00011733,1172.5,4.1122e-05,28.865,3.7282e-05,0.01094,-0.00011682,-1157.8,1.9791
18761,18.746,4,0,0.00011525,1151.7,4.0526e-05,29.946,3.6542e-05,0.011852,-0.00011472,-1136.5,1.9941
18762,18.653,4,0.05,7.4782e-07,7.473,5.7423e-07,4.3145,2.8622e-12,8.6079e-06,-5.7423e-07,-4.3146,1.9792
18763,18.653,4.2727,0,0.00011734,1172.5,4.1069e-05,28.204,3.7316e-05,0.0094357,-0.00011683,-1158.2,1.9789
18764,18.746,4.1818,0,0.00011525,1151.7,4.047e-05,29.28,3.6574e-05,0.010469,-0.00011473,-1136.8,1.994
18765,18.653,4.1818,0.05,7.4769e-07,7.4717,5.7413e-07,4.3138,2.8643e-12,7.981e-06,-5.7414e-07,-4.3138,1.979
18766,18.653,4.4545,0,0.00011734,1172.6,4.1011e-05,27.48,3.7355e-05,0.0076382,-0.00011685,-1158.6,1.9787
18767,18.746,4.3636,0,0.00011525,1151.7,4.0409e-05,28.538,3.6612e-05,0.0088002,-0.00011474,-1137.2,1.9938
18768,18.653,4.3636,0.05,7.4754e-07,7.4702,5.7401e-07,4.3129,2.8751e-12,9.623e-06,-5.7402e-07,-4.313,1.9788
18769,18.653,4.6364,0,0.00011736,1172.8,4.0952e-05,26.708,3.7398e-05,0.0055314,-0.00011688,-1159.2,1.9785
18770,18.746,4.5455,0,0.00011526,1151.8,4.0344e-05,27.735,3.6654e-05,0.0068203,-0.00011476,-1137.7,1.9936
18771,18.653,4.5455,0.05,7.4736e-07,7.4685,5.7388e-07,4.3119,2.4269e-12,7.207e-06,-5.7388e-07,-4.3119,1.9786
18772,18.653,4.8182,0,0.00011738,1173,4.0893e-05,25.905,3.7446e-05,0.0030777,-0.00011692,-1159.8,1.9782
18773,18.746,4.7273,0,0.00011527,1151.9,4.0279e-05,26.889,3.67e-05,0.0045145,-0.00011479,-1138.2,1.9933
18774,18.653,4.7273,0.05,7.4716e-07,7.4664,5.7372e-07,4.3107,3.7768e-12,8.4602e-06,-5.7373e-07,-4.3108,1.9784
18775,18.653,5,0,0.00011742,1173.3,4.0837e-05,25.091,3.7498e-05,0.00031274,-0.00011697,-1160.6,1.978
18776,18.746,4.9091,0,0.0001153,1152.2,4.0214e-05,26.018,3.6752e-05,0.0018186,-0.00011483,-1138.9,1.9931
18777,18.653,4.9091,0.05,7.4693e-07,7.4642,5.7355e-07,4.3094,2.8356e-12,8.6331e-06,-5.7355e-07,-4.3095,1.9781
18778,18.653,5.1818,0,0.00011746,1173.8,4.0786e-05,24.284,3.7554e-05,-0.00302,-0.00011703,-1161.5,1.9777
18779,18.746,5.0909,0,0.00011533,1152.5,4.0154e-05,25.144,3.6807e-05,-0.0011342,-0.00011488,-1139.8,1.9928
18780,18.653,5.0909,0.05,7.4667e-07,7.4615,5.7335e-07,4.3079,2.8376e-12,6.723e-06,-5.7335e-07,-4.3079,1.9778
18781,18.653,5.3636,0,0.00011753,1174.5,4.0743e-05,23.511,3.7614e-05,-0.0059594,-0.00011711,-1162.5,1.9773
18782,18.746,5.2727,0,0.00011538,1153,4.01e-05,24.287,3.6867e-05,-0.005004,-0.00011495,-1140.7,1.9925
18783,18.653,5.2727,0.05,7.462e-07,7.4568,5.7299e-07,4.3052,3.7039e-12,7.9927e-06,-5.7299e-07,-4.3052,1.9775
18784,18.653,5.5455,0,0.00011762,1175.4,4.0721e-05,22.854,3.7677e-05,-0.013845,-0.00011722,-1163.8,1.977
18785,18.746,5.4545,0,0.00011545,1153.8,4.0056e-05,23.478,3.6931e-05,-0.0071599,-0.00011504,-1141.8,1.9921
18786,18.653,5.4545,0.05,7.43e-07,7.4248,5.7053e-07,4.2867,3.2497e-12,7.7801e-06,-5.7053e-07,-4.2868,1.9771
18787,18.653,5.7273,0,0.00011792,1178.4,4.0868e-05,23.451,3.7745e-05,-0.01144,-0.0001175,-1166.5,1.9766
18788,18.746,5.6364,0,0.00011557,1154.9,4.0043e-05,22.862,3.6997e-05,-0.021018,-0.00011516,-1143.3,1.9917
18789,18.653,5.6364,0.05,6.9826e-07,6.9778,5.3618e-07,4.0286,3.587e-12,8.2727e-06,-5.3618e-07,-4.0287,1.9768
18790,18.746,5.8182,0,0.00011606,1159.8,4.0358e-05,24.695,3.7071e-05,0.00077679,-0.00011562,-1147.3,1.9914
18791,18.653,5.8182,0.05,4.9576e-08,0.49541,3.807e-08,0.28603,-9.0419e-12,-6.8983e-05,-3.8066e-08,-0.28603,1.9764
18792,18.653,5.9091,0,0.00011703,1169.5,3.9974e-05,16.251,3.781e-05,-0.0062044,-0.00011674,-1161.2,1.9762
18793,18.838,0.27273,0,0.00011368,1136,3.951e-05,23.938,3.6323e-05,-0.012041,-0.00011326,-1123.9,2.0066
18794,18.93,0.18182,0,0.00011183,1117.6,3.9e-05,25.148,3.5653e-05,0.0007319,-0.00011139,-1104.8,2.0214
18795,18.838,0.18182,0.05,5.3482e-08,0.53445,4.1066e-08,0.30857,2.1365e-12,2.7625e-05,-4.1068e-08,-0.30856,2.0063
18796,18.838,0.090909,0,0.00011277,1126.9,3.8594e-05,16.549,3.6391e-05,-0.0064024,-0.00011248,-1118.6,2.0062
18797,18.838,0.45455,0,0.00011339,1133.1,3.9372e-05,23.438,3.6251e-05,-0.014459,-0.00011297,-1121.2,2.0069
18798,18.93,0.36364,0,0.00011134,1112.6,3.8692e-05,23.399,3.5575e-05,-0.022035,-0.00011092,-1100.8,2.0218
18799,18.838,0.36364,0.05,6.9601e-07,6.9553,5.3445e-07,4.0157,-5.2527e-14,7.2651e-06,-5.3445e-07,-4.0156,2.0067
18800,18.838,0.63636,0,0.0001133,1132.3,3.9407e-05,24.212,3.6184e-05,-0.0061369,-0.00011287,-1120,2.0073
18801,18.93,0.54545,0,0.00011124,1111.6,3.8718e-05,24.135,3.5505e-05,-0.0074069,-0.00011081,-1099.3,2.0221
18802,18.838,0.54545,0.05,7.4028e-07,7.3977,5.6844e-07,4.2711,-9.9221e-14,7.8067e-06,-5.6844e-07,-4.271,2.0071
18803,18.838,0.81818,0,0.00011325,1131.7,3.9462e-05,25.105,3.6121e-05,-0.003038,-0.0001128,-1118.9,2.0076
18804,18.93,0.72727,0,0.00011117,1111,3.8775e-05,25.068,3.5438e-05,-0.0051192,-0.00011073,-1098.2,2.0224
18805,18.838,0.72727,0.05,7.4347e-07,7.4296,5.7089e-07,4.2895,3.3363e-13,9.8339e-06,-5.7089e-07,-4.2894,2.0074
18806,18.838,1,0,0.00011321,1131.3,3.9526e-05,26.031,3.6062e-05,0.00045335,-0.00011274,-1118.1,2.0079
18807,18.93,0.90909,0,0.00011113,1110.5,3.8842e-05,26.051,3.5375e-05,-0.0010472,-0.00011066,-1097.3,2.0228
18808,18.838,0.90909,0.05,7.4396e-07,7.4344,5.7127e-07,4.2923,3.1148e-13,1.0073e-05,-5.7127e-07,-4.2923,2.0077
18809,18.838,1.1818,0,0.00011318,1131,3.9595e-05,26.962,3.6007e-05,0.0033349,-0.0001127,-1117.3,2.0082
18810,18.93,1.0909,0,0.0001111,1110.3,3.8916e-05,27.05,3.5316e-05,0.002035,-0.00011062,-1096.5,2.023
18811,18.838,1.0909,0.05,7.4424e-07,7.4373,5.7149e-07,4.2939,-1.6136e-13,8.78e-06,-5.7148e-07,-4.2939,2.008
18812,18.838,1.3636,0,0.00011317,1130.9,3.9666e-05,27.877,3.5956e-05,0.0058811,-0.00011267,-1116.7,2.0084
18813,18.93,1.2727,0,0.00011109,1110.1,3.8993e-05,28.04,3.5262e-05,0.0048412,-0.00011059,-1095.8,2.0233
18814,18.838,1.2727,0.05,7.4449e-07,7.4397,5.7167e-07,4.2953,7.6526e-13,8.4587e-06,-5.7167e-07,-4.2953,2.0083
18815,18.838,1.5455,0,0.00011316,1130.8,3.9737e-05,28.755,3.5911e-05,0.0080568,-0.00011264,-1116.2,2.0086
18816,18.93,1.4545,0,0.00011108,1110.1,3.9071e-05,29.001,3.5213e-05,0.0072293,-0.00011056,-1095.3,2.0235
18817,18.838,1.4545,0.05,7.4471e-07,7.4419,5.7184e-07,4.2966,2.9646e-13,8.6598e-06,-5.7184e-07,-4.2966,2.0085
18818,18.838,1.7273,0,0.00011316,1130.8,3.9805e-05,29.577,3.587e-05,0.0099045,-0.00011263,-1115.8,2.0088
18819,18.93,1.6364,0,0.00011109,1110.1,3.9148e-05,29.91,3.5168e-05,0.0092708,-0.00011055,-1094.8,2.0237
18820,18.838,1.6364,0.05,7.449e-07,7.4438,5.7199e-07,4.2977,7.6604e-13,9.1152e-06,-5.7199e-07,-4.2977,2.0087
18821,18.838,1.9091,0,0.00011317,1130.9,3.9868e-05,30.325,3.5834e-05,0.011447,-0.00011262,-1115.4,2.009
18822,18.93,1.8182,0,0.00011109,1110.2,3.922e-05,30.749,3.5129e-05,0.010985,-0.00011054,-1094.5,2.0239
18823,18.838,1.8182,0.05,7.4506e-07,7.4455,5.7212e-07,4.2986,-1.3937e-13,7.7355e-06,-5.7212e-07,-4.2986,2.0089
18824,18.838,2.0909,0,0.00011317,1131,3.9925e-05,30.985,3.5803e-05,0.012711,-0.00011262,-1115.1,2.0092
18825,18.93,2,0,0.00011111,1110.3,3.9285e-05,31.501,3.5094e-05,0.012402,-0.00011054,-1094.2,2.0241
18826,18.838,2,0.05,7.452e-07,7.4469,5.7222e-07,4.2995,7.7716e-13,7.6563e-06,-5.7222e-07,-4.2995,2.0091
18827,18.838,2.2727,0,0.00011318,1131,3.9974e-05,31.543,3.5778e-05,0.013717,-0.00011261,-1114.9,2.0093
18828,18.93,2.1818,0,0.00011112,1110.4,3.9343e-05,32.152,3.5066e-05,0.013547,-0.00011053,-1094,2.0242
18829,18.838,2.1818,0.05,7.4532e-07,7.4481,5.7231e-07,4.3001,3.3979e-13,7.9709e-06,-5.7231e-07,-4.3001,2.0092
18830,18.838,2.4545,0,0.00011319,1131.1,4.0014e-05,31.988,3.5759e-05,0.014481,-0.00011261,-1114.8,2.0094
18831,18.93,2.3636,0,0.00011113,1110.5,3.9391e-05,32.687,3.5042e-05,0.014437,-0.00011054,-1093.8,2.0243
18832,18.838,2.3636,0.05,7.4541e-07,7.449,5.7238e-07,4.3007,1.2695e-12,7.8792e-06,-5.7239e-07,-4.3007,2.0093
18833,18.838,2.6364,0,0.0001132,1131.2,4.0043e-05,32.312,3.5744e-05,0.015016,-0.00011261,-1114.7,2.0094
18834,18.93,2.5455,0,0.00011114,1110.6,3.9428e-05,33.098,3.5025e-05,0.01509,-0.00011054,-1093.7,2.0244
18835,18.838,2.5455,0.05,7.4548e-07,7.4497,5.7244e-07,4.3011,8.4074e-13,8.5403e-06,-5.7244e-07,-4.3011,2.0094
18836,18.838,2.8182,0,0.0001132,1131.2,4.0061e-05,32.509,3.5736e-05,0.015335,-0.00011261,-1114.6,2.0095
18837,18.93,2.7273,0,0.00011114,1110.7,3.9453e-05,33.376,3.5013e-05,0.015521,-0.00011054,-1093.6,2.0244
18838,18.838,2.7273,0.05,7.4553e-07,7.4501,5.7247e-07,4.3013,1.3219e-12,7.3152e-06,-5.7247e-07,-4.3013,2.0094
18839,18.838,3,0,0.0001132,1131.2,4.0067e-05,32.576,3.5733e-05,0.01544,-0.00011261,-1114.6,2.0095
18840,18.93,2.9091,0,0.00011115,1110.7,3.9466e-05,33.516,3.5007e-05,0.015733,-0.00011054,-1093.6,2.0245
18841,18.838,2.9091,0.05,7.4555e-07,7.4504,5.7249e-07,4.3015,1.35e-12,8.4761e-06,-5.7249e-07,-4.3015,2.0095
18842,18.838,3.1818,0,0.0001132,1131.2,4.0061e-05,32.509,3.5736e-05,0.015334,-0.00011261,-1114.6,2.0095
18843,18.93,3.0909,0,0.00011115,1110.7,3.9466e-05,33.516,3.5007e-05,0.015733,-0.00011054,-1093.6,2.0245
18844,18.838,3.0909,0.05,7.4555e-07,7.4504,5.7249e-07,4.3015,1.3786e-12,7.499e-06,-5.7249e-07,-4.3015,2.0095
18845,18.838,3.3636,0,0.0001132,1131.2,4.0043e-05,32.312,3.5744e-05,0.015016,-0.00011261,-1114.7,2.0094
18846,18.93,3.2727,0,0.00011114,1110.7,3.9453e-05,33.376,3.5013e-05,0.01552,-0.00011054,-1093.6,2.0244
18847,18.838,3.2727,0.05,7.4553e-07,7.4501,5.7247e-07,4.3013,1.8615e-12,8.4278e-06,-5.7247e-07,-4.3013,2.0094
18848,18.838,3.5455,0,0.00011319,1131.1,4.0014e-05,31.988,3.5759e-05,0.014481,-0.00011261,-1114.8,2.0094
18849,18.93,3.4545,0,0.00011114,1110.6,3.9428e-05,33.098,3.5025e-05,0.015091,-0.00011054,-1093.7,2.0244
18850,18.838,3.4545,0.05,7.4548e-07,7.4497,5.7244e-07,4.301,1.8886e-12,7.9126e-06,-5.7244e-07,-4.3011,2.0094
18851,18.838,3.7273,0,0.00011318,1131,3.9974e-05,31.543,3.5778e-05,0.013717,-0.00011261,-1114.9,2.0093
18852,18.93,3.6364,0,0.00011113,1110.5,3.9391e-05,32.687,3.5042e-05,0.014438,-0.00011054,-1093.8,2.0243
18853,18.838,3.6364,0.05,7.4541e-07,7.449,5.7238e-07,4.3006,2.365e-12,9.7643e-06,-5.7239e-07,-4.3007,2.0093
18854,18.838,3.9091,0,0.00011317,1131,3.9925e-05,30.985,3.5803e-05,0.012713,-0.00011262,-1115.1,2.0092
18855,18.93,3.8182,0,0.00011112,1110.4,3.9343e-05,32.152,3.5066e-05,0.013547,-0.00011053,-1094,2.0242
18856,18.838,3.8182,0.05,7.4532e-07,7.4481,5.7231e-07,4.3001,2.3917e-12,1.0151e-05,-5.7232e-07,-4.3002,2.0092
18857,18.838,4.0909,0,0.00011317,1130.9,3.9868e-05,30.325,3.5834e-05,0.011448,-0.00011262,-1115.4,2.009
18858,18.93,4,0,0.00011111,1110.3,3.9285e-05,31.502,3.5094e-05,0.012402,-0.00011054,-1094.2,2.0241
18859,18.838,4,0.05,7.452e-07,7.4469,5.7222e-07,4.2994,2.8609e-12,9.5787e-06,-5.7223e-07,-4.2995,2.0091
18860,18.838,4.2727,0,0.00011316,1130.8,3.9805e-05,29.577,3.587e-05,0.009904,-0.00011263,-1115.8,2.0088
18861,18.93,4.1818,0,0.00011109,1110.2,3.922e-05,30.749,3.5129e-05,0.010986,-0.00011054,-1094.5,2.0239
18862,18.838,4.1818,0.05,7.4506e-07,7.4455,5.7211e-07,4.2986,2.428e-12,8.2357e-06,-5.7212e-07,-4.2987,2.0089
18863,18.838,4.4545,0,0.00011316,1130.8,3.9737e-05,28.755,3.5911e-05,0.0080566,-0.00011264,-1116.2,2.0086
18864,18.93,4.3636,0,0.00011109,1110.1,3.9148e-05,29.91,3.5168e-05,0.0092698,-0.00011055,-1094.8,2.0237
18865,18.838,4.3636,0.05,7.449e-07,7.4438,5.7199e-07,4.2977,2.8763e-12,1.0417e-05,-5.7199e-07,-4.2977,2.0087
18866,18.838,4.6364,0,0.00011317,1130.9,3.9666e-05,27.877,3.5956e-05,0.0058811,-0.00011267,-1116.7,2.0084
18867,18.93,4.5455,0,0.00011108,1110.1,3.9071e-05,29.001,3.5213e-05,0.0072312,-0.00011056,-1095.3,2.0235
18868,18.838,4.5455,0.05,7.4471e-07,7.4419,5.7184e-07,4.2966,2.4275e-12,8.2142e-06,-5.7184e-07,-4.2966,2.0085
18869,18.838,4.8182,0,0.00011318,1131,3.9595e-05,26.963,3.6007e-05,0.0033358,-0.0001127,-1117.3,2.0082
18870,18.93,4.7273,0,0.00011109,1110.1,3.8993e-05,28.04,3.5262e-05,0.004841,-0.00011059,-1095.8,2.0233
18871,18.838,4.7273,0.05,7.4449e-07,7.4397,5.7167e-07,4.2953,2.8624e-12,9.4118e-06,-5.7168e-07,-4.2954,2.0083
18872,18.838,5,0,0.00011321,1131.3,3.9526e-05,26.031,3.6062e-05,0.00045384,-0.00011274,-1118.1,2.0079
18873,18.93,4.9091,0,0.0001111,1110.3,3.8916e-05,27.05,3.5316e-05,0.0020359,-0.00011062,-1096.5,2.023
18874,18.838,4.9091,0.05,7.4424e-07,7.4373,5.7148e-07,4.2939,2.8385e-12,9.3283e-06,-5.7149e-07,-4.294,2.008
18875,18.838,5.1818,0,0.00011325,1131.7,3.9462e-05,25.105,3.6121e-05,-0.003037,-0.0001128,-1118.9,2.0076
18876,18.93,5.0909,0,0.00011113,1110.5,3.8842e-05,26.051,3.5375e-05,-0.00105,-0.00011066,-1097.3,2.0228
18877,18.838,5.0909,0.05,7.4396e-07,7.4344,5.7126e-07,4.2922,3.2863e-12,7.4956e-06,-5.7127e-07,-4.2923,2.0077
18878,18.838,5.3636,0,0.0001133,1132.3,3.9407e-05,24.212,3.6184e-05,-0.0061367,-0.00011287,-1120,2.0073
18879,18.93,5.2727,0,0.00011117,1111,3.8775e-05,25.069,3.5438e-05,-0.0051174,-0.00011073,-1098.2,2.0224
18880,18.838,5.2727,0.05,7.4347e-07,7.4296,5.7089e-07,4.2894,2.3716e-12,8.4236e-06,-5.709e-07,-4.2895,2.0074
18881,18.838,5.5455,0,0.00011339,1133.1,3.9372e-05,23.438,3.6251e-05,-0.01446,-0.00011297,-1121.2,2.0069
18882,18.93,5.4545,0,0.00011124,1111.6,3.8718e-05,24.135,3.5505e-05,-0.0074092,-0.00011081,-1099.3,2.0221
18883,18.838,5.4545,0.05,7.4028e-07,7.3977,5.6844e-07,4.271,3.1935e-12,7.7158e-06,-5.6844e-07,-4.2711,2.0071
18884,18.838,5.7273,0,0.00011368,1136,3.951e-05,23.938,3.6323e-05,-0.01204,-0.00011326,-1123.9,2.0066
18885,18.93,5.6364,0,0.00011134,1112.6,3.8692e-05,23.399,3.5575e-05,-0.022034,-0.00011092,-1100.8,2.0218
18886,18.838,5.6364,0.05,6.9601e-07,6.9553,5.3445e-07,4.0156,3.6417e-12,8.9292e-06,-5.3445e-07,-4.0157,2.0067
18887,18.93,5.8182,0,0.00011183,1117.6,3.9e-05,25.148,3.5653e-05,0.00073386,-0.00011139,-1104.8,2.0214
18888,18.838,5.8182,0.05,5.3482e-08,0.53445,4.1069e-08,0.30856,-6.8003e-12,-7.8341e-05,-4.1066e-08,-0.30857,2.0063
18889,18.838,5.9091,0,0.00011277,1126.9,3.8594e-05,16.549,3.6391e-05,-0.0064026,-0.00011248,-1118.6,2.0062
18890,19.022,0.27273,0,0.00010947,1093.9,3.8159e-05,24.439,3.4905e-05,-0.012688,-0.00010903,-1081.5,2.0366
18891,19.114,0.18182,0,0.00010763,1075.5,3.7649e-05,25.611,3.424e-05,0.00066932,-0.00010717,-1062.5,2.0515
18892,19.022,0.18182,0.05,5.8018e-08,0.57978,4.4549e-08,0.33474,1.4251e-12,3.939e-05,-4.4551e-08,-0.33473,2.0364
18893,19.022,0.090909,0,0.00010853,1084.6,3.7221e-05,16.853,3.4977e-05,-0.0065966,-0.00010824,-1076.1,2.0362
18894,19.022,0.45455,0,0.00010918,1091,3.8032e-05,24.047,3.4829e-05,-0.015108,-0.00010875,-1078.8,2.037
18895,19.114,0.36364,0,0.00010713,1070.6,3.735e-05,23.957,3.4158e-05,-0.023126,-0.0001067,-1058.4,2.0518
18896,19.022,0.36364,0.05,6.9385e-07,6.9337,5.3279e-07,4.0032,-4.5936e-14,8.5551e-06,-5.3279e-07,-4.0032,2.0368
18897,19.022,0.63636,0,0.0001091,1090.2,3.808e-05,24.949,3.4759e-05,-0.00631,-0.00010865,-1077.5,2.0373
18898,19.114,0.54545,0,0.00010704,1069.6,3.7389e-05,24.824,3.4084e-05,-0.0076657,-0.00010659,-1057,2.0522
18899,19.022,0.54545,0.05,7.3762e-07,7.3711,5.664e-07,4.2557,-4.3005e-14,8.6625e-06,-5.664e-07,-4.2557,2.0371
18900,19.022,0.81818,0,0.00010905,1089.8,3.8149e-05,25.972,3.4692e-05,-0.0030368,-0.00010859,-1076.5,2.0376
18901,19.114,0.72727,0,0.00010698,1069.1,3.746e-05,25.893,3.4014e-05,-0.0052264,-0.00010652,-1055.9,2.0525
18902,19.022,0.72727,0.05,7.4081e-07,7.4029,5.6885e-07,4.2741,-7.8337e-14,7.5162e-06,-5.6885e-07,-4.2741,2.0375
18903,19.022,1,0,0.00010902,1089.5,3.8227e-05,27.028,3.463e-05,0.00062555,-0.00010854,-1075.7,2.0379
18904,19.114,0.90909,0,0.00010695,1068.8,3.7542e-05,27.012,3.3947e-05,-0.00093887,-0.00010647,-1055,2.0528
18905,19.022,0.90909,0.05,7.4132e-07,7.408,5.6924e-07,4.2771,7.9169e-13,9.0438e-06,-5.6924e-07,-4.277,2.0378
18906,19.022,1.1818,0,0.00010901,1089.3,3.8309e-05,28.087,3.4572e-05,0.0036291,-0.0001085,-1075,2.0382
18907,19.114,1.0909,0,0.00010693,1068.6,3.7631e-05,28.146,3.3885e-05,0.0022866,-0.00010643,-1054.2,2.0531
18908,19.022,1.0909,0.05,7.4162e-07,7.4111,5.6947e-07,4.2788,-1.2572e-13,9.587e-06,-5.6947e-07,-4.2788,2.038
18909,19.022,1.3636,0,0.000109,1089.3,3.8394e-05,29.124,3.4518e-05,0.0062729,-0.00010848,-1074.4,2.0384
18910,19.114,1.2727,0,0.00010693,1068.6,3.7722e-05,29.267,3.3828e-05,0.0052068,-0.0001064,-1053.6,2.0533
18911,19.022,1.2727,0.05,7.4189e-07,7.4138,5.6968e-07,4.2804,3.048e-13,8.8685e-06,-5.6968e-07,-4.2803,2.0383
18912,19.022,1.5455,0,0.000109,1089.3,3.8477e-05,30.117,3.447e-05,0.0085224,-0.00010846,-1073.9,2.0386
18913,19.114,1.4545,0,0.00010694,1068.6,3.7814e-05,30.352,3.3775e-05,0.0076825,-0.00010639,-1053.1,2.0536
18914,19.022,1.4545,0.05,7.4212e-07,7.4161,5.6986e-07,4.2817,2.9487e-13,8.3514e-06,-5.6986e-07,-4.2817,2.0385
18915,19.022,1.7273,0,0.00010901,1089.4,3.8557e-05,31.045,3.4427e-05,0.010426,-0.00010845,-1073.5,2.0388
18916,19.114,1.6364,0,0.00010695,1068.7,3.7903e-05,31.378,3.3728e-05,0.0097901,-0.00010638,-1052.7,2.0538
18917,19.022,1.6364,0.05,7.4233e-07,7.4182,5.7002e-07,4.2829,1.2021e-12,9.141e-06,-5.7002e-07,-4.2829,2.0387
18918,19.022,1.9091,0,0.00010903,1089.5,3.8631e-05,31.889,3.4389e-05,0.012011,-0.00010845,-1073.2,2.039
18919,19.114,1.8182,0,0.00010696,1068.9,3.7986e-05,32.323,3.3686e-05,0.011553,-0.00010638,-1052.4,2.0539
18920,19.022,1.8182,0.05,7.4251e-07,7.42,5.7016e-07,4.2839,7.6806e-13,7.9045e-06,-5.7016e-07,-4.2839,2.0389
18921,19.022,2.0909,0,0.00010904,1089.7,3.8698e-05,32.632,3.4357e-05,0.013305,-0.00010845,-1073,2.0391
18922,19.114,2,0,0.00010698,1069.1,3.8063e-05,33.169,3.365e-05,0.013007,-0.00010638,-1052.1,2.0541
18923,19.022,2,0.05,7.4267e-07,7.4215,5.7028e-07,4.2848,1.2264e-12,8.5219e-06,-5.7028e-07,-4.2848,2.0391
18924,19.022,2.2727,0,0.00010906,1089.8,3.8755e-05,33.26,3.433e-05,0.014332,-0.00010845,-1072.8,2.0393
18925,19.114,2.1818,0,0.000107,1069.3,3.8129e-05,33.899,3.3619e-05,0.014178,-0.00010638,-1051.9,2.0542
18926,19.022,2.1818,0.05,7.4279e-07,7.4228,5.7037e-07,4.2856,7.9565e-13,8.9157e-06,-5.7037e-07,-4.2856,2.0392
18927,19.022,2.4545,0,0.00010907,1089.9,3.88e-05,33.761,3.4309e-05,0.01511,-0.00010846,-1072.7,2.0393
18928,19.114,2.3636,0,0.00010702,1069.4,3.8184e-05,34.5,3.3595e-05,0.015086,-0.00010639,-1051.8,2.0543
18929,19.022,2.3636,0.05,7.4289e-07,7.4238,5.7045e-07,4.2861,1.268e-12,8.3374e-06,-5.7045e-07,-4.2862,2.0393
18930,19.022,2.6364,0,0.00010908,1090,3.8834e-05,34.125,3.4294e-05,0.015657,-0.00010846,-1072.6,2.0394
18931,19.114,2.5455,0,0.00010703,1069.6,3.8227e-05,34.961,3.3576e-05,0.015754,-0.00010639,-1051.7,2.0544
18932,19.022,2.5455,0.05,7.4297e-07,7.4246,5.7051e-07,4.2866,1.7487e-12,9.0104e-06,-5.7051e-07,-4.2866,2.0394
18933,19.022,2.8182,0,0.00010909,1090.1,3.8854e-05,34.347,3.4285e-05,0.01598,-0.00010846,-1072.5,2.0394
18934,19.114,2.7273,0,0.00010704,1069.7,3.8256e-05,35.273,3.3564e-05,0.016191,-0.0001064,-1051.6,2.0544
18935,19.022,2.7273,0.05,7.4302e-07,7.4251,5.7055e-07,4.2869,1.7757e-12,7.5451e-06,-5.7055e-07,-4.2869,2.0394
18936,19.022,3,0,0.00010909,1090.1,3.8861e-05,34.421,3.4282e-05,0.016086,-0.00010846,-1072.5,2.0395
18937,19.114,2.9091,0,0.00010705,1069.7,3.8271e-05,35.43,3.3558e-05,0.016406,-0.0001064,-1051.6,2.0545
18938,19.022,2.9091,0.05,7.4305e-07,7.4253,5.7057e-07,4.287,1.8043e-12,8.4736e-06,-5.7057e-07,-4.287,2.0394
18939,19.022,3.1818,0,0.00010909,1090.1,3.8854e-05,34.347,3.4285e-05,0.01598,-0.00010846,-1072.5,2.0394
18940,19.114,3.0909,0,0.00010705,1069.7,3.8271e-05,35.43,3.3558e-05,0.016407,-0.0001064,-1051.6,2.0545
18941,19.022,3.0909,0.05,7.4305e-07,7.4253,5.7057e-07,4.287,1.8339e-12,7.7403e-06,-5.7057e-07,-4.287,2.0394
18942,19.022,3.3636,0,0.00010908,1090,3.8834e-05,34.125,3.4294e-05,0.015657,-0.00010846,-1072.6,2.0394
18943,19.114,3.2727,0,0.00010704,1069.7,3.8256e-05,35.273,3.3564e-05,0.01619,-0.0001064,-1051.6,2.0544
18944,19.022,3.2727,0.05,7.4302e-07,7.4251,5.7055e-07,4.2869,1.8631e-12,9.3951e-06,-5.7055e-07,-4.2869,2.0394
18945,19.022,3.5455,0,0.00010907,1089.9,3.88e-05,33.761,3.4309e-05,0.015111,-0.00010846,-1072.7,2.0393
18946,19.114,3.4545,0,0.00010703,1069.6,3.8227e-05,34.961,3.3576e-05,0.015754,-0.00010639,-1051.7,2.0544
18947,19.022,3.4545,0.05,7.4297e-07,7.4246,5.7051e-07,4.2866,1.8899e-12,8.6448e-06,-5.7051e-07,-4.2866,2.0394
18948,19.022,3.7273,0,0.00010906,1089.8,3.8755e-05,33.26,3.433e-05,0.014332,-0.00010845,-1072.8,2.0393
18949,19.114,3.6364,0,0.00010702,1069.4,3.8184e-05,34.5,3.3595e-05,0.015087,-0.00010639,-1051.8,2.0543
18950,19.022,3.6364,0.05,7.4289e-07,7.4238,5.7045e-07,4.2861,2.3686e-12,9.3099e-06,-5.7045e-07,-4.2862,2.0393
18951,19.022,3.9091,0,0.00010904,1089.7,3.8698e-05,32.632,3.4357e-05,0.013305,-0.00010845,-1073,2.0391
18952,19.114,3.8182,0,0.000107,1069.3,3.8129e-05,33.899,3.3619e-05,0.014177,-0.00010638,-1051.9,2.0542
18953,19.022,3.8182,0.05,7.4279e-07,7.4228,5.7037e-07,4.2855,2.393e-12,1.0427e-05,-5.7038e-07,-4.2856,2.0392
18954,19.022,4.0909,0,0.00010903,1089.5,3.8631e-05,31.889,3.4389e-05,0.012011,-0.00010845,-1073.2,2.039
18955,19.114,4,0,0.00010698,1069.1,3.8063e-05,33.169,3.365e-05,0.013006,-0.00010638,-1052.1,2.0541
18956,19.022,4,0.05,7.4267e-07,7.4215,5.7027e-07,4.2848,2.8681e-12,9.1504e-06,-5.7028e-07,-4.2848,2.0391
18957,19.022,4.2727,0,0.00010901,1089.4,3.8557e-05,31.045,3.4427e-05,0.010426,-0.00010845,-1073.5,2.0388
18958,19.114,4.1818,0,0.00010696,1068.9,3.7986e-05,32.323,3.3686e-05,0.011554,-0.00010638,-1052.4,2.0539
18959,19.022,4.1818,0.05,7.4251e-07,7.42,5.7015e-07,4.2839,2.4295e-12,8.9968e-06,-5.7016e-07,-4.284,2.0389
18960,19.022,4.4545,0,0.000109,1089.3,3.8477e-05,30.117,3.447e-05,0.0085236,-0.00010846,-1073.9,2.0386
18961,19.114,4.3636,0,0.00010695,1068.7,3.7903e-05,31.378,3.3728e-05,0.0097888,-0.00010638,-1052.7,2.0538
18962,19.022,4.3636,0.05,7.4233e-07,7.4182,5.7002e-07,4.2829,2.8774e-12,1.0496e-05,-5.7002e-07,-4.2829,2.0387
18963,19.022,4.6364,0,0.000109,1089.3,3.8394e-05,29.124,3.4518e-05,0.0062748,-0.00010848,-1074.4,2.0384
18964,19.114,4.5455,0,0.00010694,1068.6,3.7814e-05,30.353,3.3775e-05,0.0076833,-0.00010639,-1053.1,2.0536
18965,19.022,4.5455,0.05,7.4212e-07,7.4161,5.6986e-07,4.2817,3.786e-12,9.2536e-06,-5.6986e-07,-4.2817,2.0385
18966,19.022,4.8182,0,0.00010901,1089.3,3.8309e-05,28.087,3.4572e-05,0.003629,-0.0001085,-1075,2.0382
18967,19.114,4.7273,0,0.00010693,1068.6,3.7722e-05,29.267,3.3828e-05,0.0052068,-0.0001064,-1053.6,2.0533
18968,19.022,4.7273,0.05,7.4189e-07,7.4138,5.6967e-07,4.2803,2.4047e-12,9.2847e-06,-5.6968e-07,-4.2804,2.0383
18969,19.022,5,0,0.00010902,1089.5,3.8227e-05,27.028,3.463e-05,0.00062317,-0.00010854,-1075.7,2.0379
18970,19.114,4.9091,0,0.00010693,1068.6,3.7631e-05,28.146,3.3885e-05,0.002285,-0.00010643,-1054.2,2.0531
18971,19.022,4.9091,0.05,7.4162e-07,7.4111,5.6947e-07,4.2788,3.2972e-12,9.0133e-06,-5.6948e-07,-4.2788,2.038
18972,19.022,5.1818,0,0.00010905,1089.8,3.8149e-05,25.972,3.4692e-05,-0.0030387,-0.00010859,-1076.5,2.0376
18973,19.114,5.0909,0,0.00010695,1068.8,3.7542e-05,27.012,3.3947e-05,-0.00094246,-0.00010647,-1055,2.0528
18974,19.022,5.0909,0.05,7.4132e-07,7.408,5.6924e-07,4.277,3.2679e-12,6.962e-06,-5.6924e-07,-4.2771,2.0378
18975,19.022,5.3636,0,0.0001091,1090.2,3.808e-05,24.949,3.4759e-05,-0.0063106,-0.00010865,-1077.5,2.0373
18976,19.114,5.2727,0,0.00010698,1069.1,3.746e-05,25.893,3.4014e-05,-0.0052282,-0.00010652,-1055.9,2.0525
18977,19.022,5.2727,0.05,7.4081e-07,7.4029,5.6884e-07,4.2741,2.8286e-12,8.2501e-06,-5.6885e-07,-4.2741,2.0375
18978,19.022,5.5455,0,0.00010918,1091,3.8032e-05,24.048,3.4829e-05,-0.015107,-0.00010875,-1078.8,2.037
18979,19.114,5.4545,0,0.00010704,1069.6,3.7389e-05,24.824,3.4084e-05,-0.0076655,-0.00010659,-1057,2.0522
18980,19.022,5.4545,0.05,7.3762e-07,7.3711,5.664e-07,4.2557,3.2275e-12,8.3725e-06,-5.664e-07,-4.2557,2.0371
18981,19.022,5.7273,0,0.00010947,1093.9,3.8159e-05,24.439,3.4905e-05,-0.012685,-0.00010903,-1081.5,2.0366
18982,19.114,5.6364,0,0.00010713,1070.6,3.735e-05,23.957,3.4158e-05,-0.023123,-0.0001067,-1058.4,2.0518
18983,19.022,5.6364,0.05,6.9385e-07,6.9337,5.3279e-07,4.0032,3.5835e-12,8.5934e-06,-5.3279e-07,-4.0032,2.0368
18984,19.114,5.8182,0,0.00010763,1075.5,3.7649e-05,25.611,3.424e-05,0.00066991,-0.00010717,-1062.5,2.0515
18985,19.022,5.8182,0.05,5.8018e-08,0.57978,4.4553e-08,0.33473,-6.2161e-12,-8.7011e-05,-4.4548e-08,-0.33474,2.0364
18986,19.022,5.9091,0,0.00010853,1084.6,3.7221e-05,16.853,3.4977e-05,-0.006596,-0.00010824,-1076.1,2.0362
18987,19.206,0.27273,0,0.00010527,1051.9,3.6816e-05,24.955,3.3493e-05,-0.013397,-0.00010482,-1039.2,2.0667
18988,19.299,0.18182,0,0.00010343,1033.6,3.6304e-05,26.083,3.2833e-05,0.00057041,-0.00010296,-1020.3,2.0817
18989,19.206,0.18182,0.05,6.3215e-08,0.63172,4.8541e-08,0.36473,2.1098e-12,1.7221e-05,-4.8542e-08,-0.36472,2.0665
18990,19.206,0.090909,0,0.00010431,1042.4,3.5854e-05,17.164,3.3569e-05,-0.006793,-0.00010401,-1033.7,2.0664
18991,19.206,0.45455,0,0.00010498,1049.1,3.67e-05,24.683,3.3413e-05,-0.015804,-0.00010454,-1036.6,2.0671
18992,19.299,0.36364,0,0.00010294,1028.7,3.6015e-05,24.535,3.2746e-05,-0.024305,-0.0001025,-1016.2,2.082
18993,19.206,0.36364,0.05,6.9178e-07,6.9131,5.3121e-07,3.9913,5.0818e-15,5.4363e-06,-5.312e-07,-3.9913,2.0669
18994,19.206,0.63636,0,0.00010491,1048.4,3.6763e-05,25.724,3.3339e-05,-0.0064896,-0.00010445,-1035.3,2.0674
18995,19.299,0.54545,0,0.00010286,1027.8,3.6069e-05,25.545,3.2668e-05,-0.0079415,-0.0001024,-1014.8,2.0823
18996,19.206,0.54545,0.05,7.3504e-07,7.3453,5.6442e-07,4.2408,-9.1708e-14,6.9788e-06,-5.6442e-07,-4.2408,2.0672
18997,19.206,0.81818,0,0.00010488,1048,3.6847e-05,26.889,3.3268e-05,-0.0030251,-0.00010439,-1034.3,2.0677
18998,19.299,0.72727,0,0.00010281,1027.4,3.6156e-05,26.762,3.2594e-05,-0.0053343,-0.00010233,-1013.8,2.0827
18999,19.206,0.72727,0.05,7.3822e-07,7.3771,5.6686e-07,4.2591,-1.4421e-13,5.6788e-06,-5.6686e-07,-4.2591,2.0676
19000,19.206,1,0,0.00010486,1047.8,3.694e-05,28.087,3.3202e-05,0.00082317,-0.00010435,-1033.5,2.068
19001,19.299,0.90909,0,0.00010279,1027.2,3.6254e-05,28.031,3.2523e-05,-0.00081593,-0.00010229,-1012.9,2.0829
19002,19.206,0.90909,0.05,7.3875e-07,7.3824,5.6727e-07,4.2622,7.1978e-13,5.2065e-06,-5.6727e-07,-4.2622,2.0678
19003,19.206,1.1818,0,0.00010485,1047.8,3.7038e-05,29.285,3.3141e-05,0.0039603,-0.00010432,-1032.8,2.0683
19004,19.299,1.0909,0,0.00010279,1027.2,3.6358e-05,29.312,3.2458e-05,0.0025661,-0.00010226,-1012.2,2.0832
19005,19.206,1.0909,0.05,7.3908e-07,7.3857,5.6752e-07,4.2641,-1.8925e-13,5.5169e-06,-5.6752e-07,-4.2641,2.0681
19006,19.206,1.3636,0,0.00010486,1047.9,3.7137e-05,30.455,3.3084e-05,0.0067066,-0.00010431,-1032.3,2.0685
19007,19.299,1.2727,0,0.00010279,1027.2,3.6465e-05,30.577,3.2397e-05,0.0056091,-0.00010224,-1011.6,2.0834
19008,19.206,1.2727,0.05,7.3937e-07,7.3886,5.6774e-07,4.2658,2.5601e-13,5.5713e-06,-5.6775e-07,-4.2658,2.0684
19009,19.206,1.5455,0,0.00010487,1048,3.7234e-05,31.574,3.3033e-05,0.0090347,-0.0001043,-1031.9,2.0687
19010,19.299,1.4545,0,0.00010281,1027.4,3.6572e-05,31.798,3.2341e-05,0.0081773,-0.00010223,-1011.1,2.0837
19011,19.206,1.4545,0.05,7.3963e-07,7.3912,5.6794e-07,4.2673,1.1711e-12,6.1784e-06,-5.6794e-07,-4.2673,2.0686
19012,19.206,1.7273,0,0.00010489,1048.2,3.7327e-05,32.618,3.2987e-05,0.010996,-0.0001043,-1031.5,2.0689
19013,19.299,1.6364,0,0.00010283,1027.6,3.6675e-05,32.95,3.2291e-05,0.010354,-0.00010223,-1010.8,2.0839
19014,19.206,1.6364,0.05,7.3985e-07,7.3934,5.6812e-07,4.2686,2.9007e-13,6.8231e-06,-5.6812e-07,-4.2686,2.0688
19015,19.206,1.9091,0,0.00010491,1048.4,3.7413e-05,33.566,3.2947e-05,0.012624,-0.0001043,-1031.2,2.0691
19016,19.299,1.8182,0,0.00010286,1027.9,3.6771e-05,34.011,3.2246e-05,0.012169,-0.00010224,-1010.5,2.084
19017,19.206,1.8182,0.05,7.4005e-07,7.3954,5.6827e-07,4.2697,7.3819e-13,4.8928e-06,-5.6827e-07,-4.2697,2.069
19018,19.206,2.0909,0,0.00010494,1048.6,3.7489e-05,34.399,3.2913e-05,0.01395,-0.00010431,-1031,2.0692
19019,19.299,2,0,0.00010289,1028.2,3.6859e-05,34.959,3.2208e-05,0.013661,-0.00010225,-1010.2,2.0842
19020,19.206,2,0.05,7.4022e-07,7.3971,5.684e-07,4.2707,7.5694e-13,5.5383e-06,-5.684e-07,-4.2707,2.0691
19021,19.206,2.2727,0,0.00010496,1048.9,3.7554e-05,35.104,3.2884e-05,0.015,-0.00010432,-1030.9,2.0693
19022,19.299,2.1818,0,0.00010291,1028.4,3.6935e-05,35.777,3.2176e-05,0.01486,-0.00010226,-1010.1,2.0843
19023,19.206,2.1818,0.05,7.4036e-07,7.3985,5.685e-07,4.2715,1.2333e-12,5.9413e-06,-5.6851e-07,-4.2715,2.0692
19024,19.206,2.4545,0,0.00010498,1049,3.7607e-05,35.665,3.2862e-05,0.015796,-0.00010432,-1030.7,2.0694
19025,19.299,2.3636,0,0.00010294,1028.7,3.6999e-05,36.449,3.215e-05,0.015789,-0.00010227,-1010,2.0844
19026,19.206,2.3636,0.05,7.4047e-07,7.3996,5.6859e-07,4.2722,1.2548e-12,6.329e-06,-5.6859e-07,-4.2722,2.0693
19027,19.206,2.6364,0,0.00010499,1049.2,3.7645e-05,36.073,3.2846e-05,0.016352,-0.00010433,-1030.7,2.0694
19028,19.299,2.5455,0,0.00010296,1028.9,3.7047e-05,36.965,3.213e-05,0.01647,-0.00010228,-1009.9,2.0845
19029,19.206,2.5455,0.05,7.4056e-07,7.4005,5.6865e-07,4.2727,8.2948e-13,6.0839e-06,-5.6866e-07,-4.2727,2.0694
19030,19.206,2.8182,0,0.000105,1049.3,3.7668e-05,36.321,3.2836e-05,0.01668,-0.00010433,-1030.6,2.0695
19031,19.299,2.7273,0,0.00010297,1029,3.708e-05,37.313,3.2117e-05,0.016913,-0.00010228,-1009.8,2.0845
19032,19.206,2.7273,0.05,7.4061e-07,7.401,5.687e-07,4.273,1.3155e-12,4.3996e-06,-5.687e-07,-4.273,2.0695
19033,19.206,3,0,0.000105,1049.3,3.7676e-05,36.404,3.2833e-05,0.01679,-0.00010434,-1030.6,2.0695
19034,19.299,2.9091,0,0.00010298,1029.1,3.7097e-05,37.489,3.211e-05,0.017135,-0.00010229,-1009.8,2.0845
19035,19.206,2.9091,0.05,7.4064e-07,7.4013,5.6872e-07,4.2731,1.3478e-12,6.0753e-06,-5.6872e-07,-4.2732,2.0695
19036,19.206,3.1818,0,0.000105,1049.3,3.7668e-05,36.321,3.2836e-05,0.01668,-0.00010433,-1030.6,2.0695
19037,19.299,3.0909,0,0.00010298,1029.1,3.7097e-05,37.489,3.211e-05,0.017134,-0.00010229,-1009.8,2.0845
19038,19.206,3.0909,0.05,7.4064e-07,7.4013,5.6872e-07,4.2731,1.3809e-12,5.8474e-06,-5.6872e-07,-4.2732,2.0695
19039,19.206,3.3636,0,0.00010499,1049.2,3.7645e-05,36.073,3.2846e-05,0.016351,-0.00010433,-1030.7,2.0694
19040,19.299,3.2727,0,0.00010297,1029,3.708e-05,37.313,3.2117e-05,0.016914,-0.00010228,-1009.8,2.0845
19041,19.206,3.2727,0.05,7.4061e-07,7.401,5.687e-07,4.273,1.8687e-12,6.5726e-06,-5.687e-07,-4.273,2.0695
19042,19.206,3.5455,0,0.00010498,1049,3.7607e-05,35.665,3.2862e-05,0.015796,-0.00010432,-1030.7,2.0694
19043,19.299,3.4545,0,0.00010296,1028.9,3.7047e-05,36.965,3.213e-05,0.01647,-0.00010228,-1009.9,2.0845
19044,19.206,3.4545,0.05,7.4056e-07,7.4005,5.6865e-07,4.2726,2.3532e-12,5.8425e-06,-5.6866e-07,-4.2727,2.0694
19045,19.206,3.7273,0,0.00010496,1048.9,3.7554e-05,35.104,3.2884e-05,0.014999,-0.00010432,-1030.9,2.0693
19046,19.299,3.6364,0,0.00010294,1028.7,3.6999e-05,36.449,3.215e-05,0.015789,-0.00010227,-1010,2.0844
19047,19.206,3.6364,0.05,7.4047e-07,7.3996,5.6859e-07,4.2722,2.3857e-12,7.4976e-06,-5.6859e-07,-4.2722,2.0693
19048,19.206,3.9091,0,0.00010494,1048.6,3.7489e-05,34.4,3.2913e-05,0.013949,-0.00010431,-1031,2.0692
19049,19.299,3.8182,0,0.00010291,1028.4,3.6935e-05,35.777,3.2176e-05,0.014859,-0.00010226,-1010.1,2.0843
19050,19.206,3.8182,0.05,7.4036e-07,7.3985,5.685e-07,4.2715,1.9501e-12,8.1145e-06,-5.6851e-07,-4.2716,2.0692
19051,19.206,4.0909,0,0.00010491,1048.4,3.7413e-05,33.566,3.2947e-05,0.012623,-0.0001043,-1031.2,2.0691
19052,19.299,4,0,0.00010289,1028.2,3.6859e-05,34.959,3.2208e-05,0.01366,-0.00010225,-1010.2,2.0842
19053,19.206,4,0.05,7.4022e-07,7.3971,5.684e-07,4.2707,2.8837e-12,7.0707e-06,-5.684e-07,-4.2707,2.0691
19054,19.206,4.2727,0,0.00010489,1048.2,3.7327e-05,32.618,3.2987e-05,0.010996,-0.0001043,-1031.5,2.0689
19055,19.299,4.1818,0,0.00010286,1027.9,3.6771e-05,34.011,3.2246e-05,0.012169,-0.00010224,-1010.5,2.084
19056,19.206,4.1818,0.05,7.4005e-07,7.3954,5.6827e-07,4.2697,1.9906e-12,6.0132e-06,-5.6827e-07,-4.2698,2.069
19057,19.206,4.4545,0,0.00010487,1048,3.7234e-05,31.574,3.3033e-05,0.009033,-0.0001043,-1031.9,2.0687
19058,19.299,4.3636,0,0.00010283,1027.6,3.6675e-05,32.95,3.2291e-05,0.010353,-0.00010223,-1010.8,2.0839
19059,19.206,4.3636,0.05,7.3985e-07,7.3934,5.6812e-07,4.2686,2.451e-12,8.2241e-06,-5.6812e-07,-4.2686,2.0688
19060,19.206,4.6364,0,0.00010486,1047.9,3.7137e-05,30.455,3.3084e-05,0.0067055,-0.00010431,-1032.3,2.0685
19061,19.299,4.5455,0,0.00010281,1027.4,3.6572e-05,31.798,3.2341e-05,0.0081753,-0.00010223,-1011.1,2.0837
19062,19.206,4.5455,0.05,7.3963e-07,7.3912,5.6794e-07,4.2673,1.9954e-12,6.5363e-06,-5.6794e-07,-4.2673,2.0686
19063,19.206,4.8182,0,0.00010485,1047.8,3.7038e-05,29.285,3.3141e-05,0.0039588,-0.00010432,-1032.8,2.0683
19064,19.299,4.7273,0,0.00010279,1027.2,3.6465e-05,30.577,3.2397e-05,0.005609,-0.00010224,-1011.6,2.0834
19065,19.206,4.7273,0.05,7.3937e-07,7.3886,5.6774e-07,4.2658,2.8906e-12,7.1497e-06,-5.6775e-07,-4.2658,2.0684
19066,19.206,5,0,0.00010486,1047.8,3.694e-05,28.087,3.3202e-05,0.00082031,-0.00010435,-1033.5,2.068
19067,19.299,4.9091,0,0.00010279,1027.2,3.6358e-05,29.312,3.2458e-05,0.0025636,-0.00010226,-1012.2,2.0832
19068,19.206,4.9091,0.05,7.3908e-07,7.3857,5.6752e-07,4.2641,3.3276e-12,6.6801e-06,-5.6753e-07,-4.2642,2.0681
19069,19.206,5.1818,0,0.00010488,1048,3.6847e-05,26.889,3.3268e-05,-0.0030286,-0.00010439,-1034.3,2.0677
19070,19.299,5.0909,0,0.00010279,1027.2,3.6254e-05,28.031,3.2523e-05,-0.00081895,-0.00010229,-1012.9,2.0829
19071,19.206,5.0909,0.05,7.3875e-07,7.3824,5.6727e-07,4.2622,3.7617e-12,4.3739e-06,-5.6727e-07,-4.2623,2.0678
19072,19.206,5.3636,0,0.00010491,1048.4,3.6763e-05,25.724,3.3339e-05,-0.0064907,-0.00010445,-1035.3,2.0674
19073,19.299,5.2727,0,0.00010281,1027.4,3.6156e-05,26.762,3.2594e-05,-0.0053371,-0.00010233,-1013.8,2.0827
19074,19.206,5.2727,0.05,7.3822e-07,7.3771,5.6685e-07,4.2591,1.9047e-12,5.1405e-06,-5.6686e-07,-4.2592,2.0676
19075,19.206,5.5455,0,0.00010498,1049.1,3.67e-05,24.683,3.3413e-05,-0.015802,-0.00010454,-1036.6,2.0671
19076,19.299,5.4545,0,0.00010286,1027.8,3.6069e-05,25.545,3.2668e-05,-0.0079403,-0.0001024,-1014.8,2.0823
19077,19.206,5.4545,0.05,7.3504e-07,7.3453,5.6441e-07,4.2408,2.8053e-12,4.9722e-06,-5.6442e-07,-4.2408,2.0672
19078,19.206,5.7273,0,0.00010527,1051.9,3.6816e-05,24.954,3.3493e-05,-0.013396,-0.00010482,-1039.2,2.0667
19079,19.299,5.6364,0,0.00010294,1028.7,3.6015e-05,24.535,3.2746e-05,-0.024302,-0.0001025,-1016.2,2.082
19080,19.206,5.6364,0.05,6.9178e-07,6.9131,5.312e-07,3.9912,2.6726e-12,6.1761e-06,-5.3121e-07,-3.9913,2.0669
19081,19.299,5.8182,0,0.00010343,1033.6,3.6304e-05,26.083,3.2833e-05,0.00057078,-0.00010296,-1020.3,2.0817
19082,19.206,5.8182,0.05,6.3216e-08,0.63173,4.8543e-08,0.36472,-5.7105e-12,-6.5459e-05,-4.8541e-08,-0.36473,2.0665
19083,19.206,5.9091,0,0.00010431,1042.4,3.5854e-05,17.164,3.3569e-05,-0.0067937,-0.00010401,-1033.7,2.0664
19084,19.391,0.27273,0,0.00010108,1010.1,3.548e-05,25.485,3.2086e-05,-0.014185,-0.00010063,-997.16,2.0969
19085,19.483,0.18182,0,9.9258e-05,991.9,3.4966e-05,26.564,3.1431e-05,0.00042807,-9.878e-05,-978.35,2.1119
19086,19.391,0.18182,0.05,6.9109e-08,0.69061,5.3066e-08,0.39873,9.7003e-13,1.0693e-05,-5.3068e-08,-0.39872,2.0967
19087,19.391,0.090909,0,0.00010011,1000.4,3.4494e-05,17.481,3.2166e-05,-0.0070028,-9.9801e-05,-991.56,2.0966
19088,19.391,0.45455,0,0.00010081,1007.4,3.5377e-05,25.346,3.2002e-05,-0.016556,-0.00010035,-994.47,2.0973
19089,19.483,0.36364,0,9.8772e-05,987.04,3.4688e-05,25.135,3.134e-05,-0.025581,-9.832e-05,-974.24,2.1122
19090,19.391,0.36364,0.05,6.8982e-07,6.8934,5.297e-07,3.9799,-3.1158e-13,1.5851e-06,-5.297e-07,-3.9799,2.0971
19091,19.391,0.63636,0,0.00010075,1006.8,3.5456e-05,26.539,3.1923e-05,-0.0066786,-0.00010027,-993.26,2.0976
19092,19.483,0.54545,0,9.8695e-05,986.26,3.4759e-05,26.302,3.1257e-05,-0.008231,-9.8221e-05,-972.85,2.1126
19093,19.391,0.54545,0.05,7.3253e-07,7.3202,5.6249e-07,4.2263,-2.1297e-13,3.1557e-06,-5.6249e-07,-4.2263,2.0974
19094,19.391,0.81818,0,0.00010072,1006.5,3.5557e-05,27.86,3.1849e-05,-0.0030085,-0.00010022,-992.31,2.0979
19095,19.483,0.72727,0,9.8664e-05,985.96,3.4863e-05,27.68,3.1178e-05,-0.0054429,-9.8164e-05,-971.83,2.1129
19096,19.391,0.72727,0.05,7.357e-07,7.3519,5.6493e-07,4.2446,-1.9483e-13,4.2837e-06,-5.6493e-07,-4.2446,2.0977
19097,19.391,1,0,0.00010072,1006.5,3.5666e-05,29.213,3.1779e-05,0.001039,-0.00010019,-991.53,2.0982
19098,19.483,0.90909,0,9.8655e-05,985.87,3.4978e-05,29.112,3.1103e-05,-0.00067492,-9.8127e-05,-970.99,2.1131
19099,19.391,0.90909,0.05,7.3626e-07,7.3576,5.6536e-07,4.2479,7.5483e-13,6.6575e-06,-5.6536e-07,-4.2479,2.098
19100,19.391,1.1818,0,0.00010072,1006.5,3.578e-05,30.562,3.1713e-05,0.00432,-0.00010017,-990.9,2.0984
19101,19.483,1.0909,0,9.8662e-05,985.94,3.51e-05,30.555,3.1034e-05,0.002875,-9.8107e-05,-970.31,2.1134
19102,19.391,1.0909,0.05,7.3662e-07,7.3612,5.6564e-07,4.25,2.5201e-13,6.9782e-06,-5.6564e-07,-4.25,2.0983
19103,19.391,1.3636,0,0.00010074,1006.7,3.5895e-05,31.878,3.1653e-05,0.0071773,-0.00010016,-990.39,2.0986
19104,19.483,1.2727,0,9.8683e-05,986.15,3.5224e-05,31.976,3.0969e-05,0.0060517,-9.81e-05,-969.77,2.1136
19105,19.391,1.2727,0.05,7.3694e-07,7.3643,5.6588e-07,4.2518,2.186e-13,7.033e-06,-5.6588e-07,-4.2518,2.0985
19106,19.391,1.5455,0,0.00010077,1007,3.6008e-05,33.134,3.1599e-05,0.0095869,-0.00010016,-989.99,2.0988
19107,19.483,1.4545,0,9.8712e-05,986.44,3.5347e-05,33.346,3.091e-05,0.008718,-9.8102e-05,-969.34,2.1138
19108,19.391,1.4545,0.05,7.3722e-07,7.3671,5.6609e-07,4.2534,2.4005e-13,6.8646e-06,-5.6609e-07,-4.2534,2.0987
19109,19.391,1.7273,0,0.0001008,1007.3,3.6114e-05,34.304,3.155e-05,0.01161,-0.00010017,-989.68,2.099
19110,19.483,1.6364,0,9.8747e-05,986.79,3.5465e-05,34.636,3.0857e-05,0.010968,-9.8112e-05,-969.01,2.114
19111,19.391,1.6364,0.05,7.3747e-07,7.3696,5.6629e-07,4.2549,6.827e-13,7.5223e-06,-5.6629e-07,-4.2549,2.0989
19112,19.391,1.9091,0,0.00010083,1007.6,3.6213e-05,35.366,3.1508e-05,0.013284,-0.00010018,-989.44,2.0992
19113,19.483,1.8182,0,9.8785e-05,987.17,3.5576e-05,35.823,3.081e-05,0.012839,-9.8126e-05,-968.76,2.1142
19114,19.391,1.8182,0.05,7.3769e-07,7.3718,5.6645e-07,4.2561,7.0795e-13,6.5515e-06,-5.6645e-07,-4.2561,2.0991
19115,19.391,2.0909,0,0.00010086,1007.9,3.63e-05,36.299,3.1471e-05,0.014644,-0.00010019,-989.27,2.0993
19116,19.483,2,0,9.8822e-05,987.54,3.5675e-05,36.882,3.0769e-05,0.014371,-9.8143e-05,-968.58,2.1143
19117,19.391,2,0.05,7.3788e-07,7.3737,5.666e-07,4.2572,7.2709e-13,6.4791e-06,-5.666e-07,-4.2572,2.0992
19118,19.391,2.2727,0,0.00010089,1008.2,3.6375e-05,37.086,3.1441e-05,0.015719,-0.00010021,-989.14,2.0994
19119,19.483,2.1818,0,9.8857e-05,987.89,3.5762e-05,37.796,3.0734e-05,0.0156,-9.816e-05,-968.44,2.1144
19120,19.391,2.1818,0.05,7.3803e-07,7.3752,5.6672e-07,4.2581,1.664e-12,7.3668e-06,-5.6672e-07,-4.2581,2.0993
19121,19.391,2.4545,0,0.00010091,1008.4,3.6434e-05,37.713,3.1417e-05,0.016531,-0.00010022,-989.05,2.0995
19122,19.483,2.3636,0,9.8888e-05,988.2,3.5834e-05,38.546,3.0706e-05,0.016549,-9.8175e-05,-968.35,2.1145
19123,19.391,2.3636,0.05,7.3815e-07,7.3765,5.6681e-07,4.2588,7.8112e-13,7.6047e-06,-5.6681e-07,-4.2588,2.0994
19124,19.391,2.6364,0,0.00010093,1008.6,3.6478e-05,38.169,3.14e-05,0.017098,-0.00010023,-988.99,2.0996
19125,19.483,2.5455,0,9.8912e-05,988.44,3.589e-05,39.121,3.0685e-05,0.017245,-9.8188e-05,-968.29,2.1146
19126,19.391,2.5455,0.05,7.3825e-07,7.3774,5.6688e-07,4.2593,1.2715e-12,7.8687e-06,-5.6688e-07,-4.2593,2.0995
19127,19.391,2.8182,0,0.00010094,1008.7,3.6505e-05,38.446,3.139e-05,0.017434,-0.00010023,-988.95,2.0996
19128,19.483,2.7273,0,9.8929e-05,988.61,3.5927e-05,39.509,3.0671e-05,0.017698,-9.8197e-05,-968.25,2.1147
19129,19.391,2.7273,0.05,7.3831e-07,7.378,5.6693e-07,4.2597,1.7607e-12,6.7205e-06,-5.6693e-07,-4.2597,2.0996
19130,19.391,3,0,0.00010095,1008.8,3.6514e-05,38.539,3.1387e-05,0.017544,-0.00010024,-988.94,2.0996
19131,19.483,2.9091,0,9.8938e-05,988.69,3.5946e-05,39.705,3.0664e-05,0.017923,-9.8202e-05,-968.23,2.1147
19132,19.391,2.9091,0.05,7.3834e-07,7.3783,5.6695e-07,4.2599,1.7996e-12,7.4828e-06,-5.6696e-07,-4.2599,2.0996
19133,19.391,3.1818,0,0.00010094,1008.7,3.6505e-05,38.446,3.139e-05,0.017433,-0.00010023,-988.95,2.0996
19134,19.483,3.0909,0,9.8938e-05,988.69,3.5946e-05,39.705,3.0664e-05,0.017922,-9.8202e-05,-968.23,2.1147
19135,19.391,3.0909,0.05,7.3834e-07,7.3783,5.6695e-07,4.2599,1.8386e-12,6.8238e-06,-5.6696e-07,-4.2599,2.0996
19136,19.391,3.3636,0,0.00010093,1008.6,3.6478e-05,38.169,3.14e-05,0.017098,-0.00010023,-988.99,2.0996
19137,19.483,3.2727,0,9.8929e-05,988.61,3.5927e-05,39.509,3.0671e-05,0.017697,-9.8197e-05,-968.25,2.1147
19138,19.391,3.2727,0.05,7.3831e-07,7.378,5.6693e-07,4.2597,1.8777e-12,8.5463e-06,-5.6693e-07,-4.2597,2.0996
19139,19.391,3.5455,0,0.00010091,1008.4,3.6434e-05,37.713,3.1417e-05,0.016531,-0.00010022,-989.05,2.0995
19140,19.483,3.4545,0,9.8912e-05,988.44,3.589e-05,39.121,3.0685e-05,0.017243,-9.8188e-05,-968.29,2.1146
19141,19.391,3.4545,0.05,7.3825e-07,7.3774,5.6688e-07,4.2593,2.368e-12,8.3327e-06,-5.6688e-07,-4.2594,2.0995
19142,19.391,3.7273,0,0.00010089,1008.2,3.6375e-05,37.086,3.1441e-05,0.015719,-0.00010021,-989.14,2.0994
19143,19.483,3.6364,0,9.8888e-05,988.2,3.5834e-05,38.546,3.0706e-05,0.01655,-9.8175e-05,-968.35,2.1145
19144,19.391,3.6364,0.05,7.3815e-07,7.3765,5.6681e-07,4.2588,2.4026e-12,9.0624e-06,-5.6681e-07,-4.2588,2.0994
19145,19.391,3.9091,0,0.00010086,1007.9,3.63e-05,36.299,3.1471e-05,0.014645,-0.00010019,-989.27,2.0993
19146,19.483,3.8182,0,9.8857e-05,987.89,3.5762e-05,37.796,3.0734e-05,0.015599,-9.816e-05,-968.44,2.1144
19147,19.391,3.8182,0.05,7.3803e-07,7.3752,5.6671e-07,4.2581,2.8884e-12,9.7927e-06,-5.6672e-07,-4.2581,2.0993
19148,19.391,4.0909,0,0.00010083,1007.6,3.6213e-05,35.366,3.1508e-05,0.013285,-0.00010018,-989.44,2.0992
19149,19.483,4,0,9.8822e-05,987.54,3.5675e-05,36.882,3.0769e-05,0.014372,-9.8143e-05,-968.58,2.1143
19150,19.391,4,0.05,7.3787e-07,7.3737,5.6659e-07,4.2572,2.4514e-12,9.5049e-06,-5.666e-07,-4.2572,2.0992
19151,19.391,4.2727,0,0.0001008,1007.3,3.6114e-05,34.304,3.155e-05,0.011611,-0.00010017,-989.68,2.099
19152,19.483,4.1818,0,9.8785e-05,987.17,3.5576e-05,35.823,3.081e-05,0.012839,-9.8127e-05,-968.76,2.1142
19153,19.391,4.1818,0.05,7.3769e-07,7.3718,5.6645e-07,4.2561,2.4843e-12,8.4766e-06,-5.6645e-07,-4.2561,2.0991
19154,19.391,4.4545,0,0.00010077,1007,3.6008e-05,33.134,3.1599e-05,0.0095861,-0.00010016,-989.99,2.0988
19155,19.483,4.3636,0,9.8747e-05,986.79,3.5465e-05,34.636,3.0857e-05,0.010969,-9.8112e-05,-969.01,2.114
19156,19.391,4.3636,0.05,7.3747e-07,7.3696,5.6628e-07,4.2548,2.9338e-12,1.0626e-05,-5.6629e-07,-4.2549,2.0989
19157,19.391,4.6364,0,0.00010074,1006.7,3.5895e-05,31.879,3.1653e-05,0.0071763,-0.00010016,-990.39,2.0986
19158,19.483,4.5455,0,9.8712e-05,986.44,3.5347e-05,33.346,3.091e-05,0.008718,-9.8102e-05,-969.34,2.1138
19159,19.391,4.5455,0.05,7.3722e-07,7.3671,5.6609e-07,4.2534,3.3959e-12,8.3015e-06,-5.661e-07,-4.2534,2.0987
19160,19.391,4.8182,0,0.00010072,1006.5,3.578e-05,30.562,3.1713e-05,0.0043188,-0.00010017,-990.9,2.0984
19161,19.483,4.7273,0,9.8683e-05,986.15,3.5224e-05,31.976,3.0969e-05,0.0060506,-9.81e-05,-969.77,2.1136
19162,19.391,4.7273,0.05,7.3694e-07,7.3643,5.6588e-07,4.2518,3.3774e-12,9.1883e-06,-5.6588e-07,-4.2518,2.0985
19163,19.391,5,0,0.00010072,1006.5,3.5666e-05,29.213,3.1779e-05,0.0010363,-0.00010019,-991.53,2.0982
19164,19.483,4.9091,0,9.8662e-05,985.94,3.51e-05,30.555,3.1034e-05,0.0028746,-9.8107e-05,-970.31,2.1134
19165,19.391,4.9091,0.05,7.3662e-07,7.3612,5.6563e-07,4.2499,2.8947e-12,8.8395e-06,-5.6564e-07,-4.25,2.0983
19166,19.391,5.1818,0,0.00010072,1006.5,3.5557e-05,27.86,3.1849e-05,-0.0030109,-0.00010022,-992.31,2.0979
19167,19.483,5.0909,0,9.8655e-05,985.87,3.4978e-05,29.112,3.1103e-05,-0.00067708,-9.8127e-05,-970.99,2.1131
19168,19.391,5.0909,0.05,7.3626e-07,7.3576,5.6536e-07,4.2479,2.9078e-12,6.7856e-06,-5.6536e-07,-4.2479,2.098
19169,19.391,5.3636,0,0.00010075,1006.8,3.5456e-05,26.539,3.1923e-05,-0.0066792,-0.00010027,-993.26,2.0976
19170,19.483,5.2727,0,9.8664e-05,985.96,3.4863e-05,27.681,3.1178e-05,-0.0054447,-9.8164e-05,-971.83,2.1129
19171,19.391,5.2727,0.05,7.357e-07,7.3519,5.6493e-07,4.2446,3.3234e-12,7.7701e-06,-5.6493e-07,-4.2447,2.0977
19172,19.391,5.5455,0,0.00010081,1007.4,3.5377e-05,25.346,3.2002e-05,-0.016555,-0.00010035,-994.47,2.0973
19173,19.483,5.4545,0,9.8695e-05,986.26,3.4759e-05,26.302,3.1257e-05,-0.0082316,-9.8221e-05,-972.85,2.1126
19174,19.391,5.4545,0.05,7.3253e-07,7.3202,5.6249e-07,4.2263,2.8071e-12,7.1241e-06,-5.6249e-07,-4.2264,2.0974
19175,19.391,5.7273,0,0.00010108,1010.1,3.548e-05,25.485,3.2086e-05,-0.014183,-0.00010063,-997.16,2.0969
19176,19.483,5.6364,0,9.8772e-05,987.04,3.4688e-05,25.135,3.134e-05,-0.02558,-9.832e-05,-974.24,2.1122
19177,19.391,5.6364,0.05,6.8982e-07,6.8934,5.2969e-07,3.9799,2.7734e-12,8.1728e-06,-5.297e-07,-3.98,2.0971
19178,19.483,5.8182,0,9.9258e-05,991.9,3.4966e-05,26.564,3.1431e-05,0.00042973,-9.878e-05,-978.35,2.1119
19179,19.391,5.8182,0.05,6.9109e-08,0.69061,5.3069e-08,0.39871,-5.1297e-12,-5.5119e-05,-5.3065e-08,-0.39874,2.0967
19180,19.391,5.9091,0,0.00010011,1000.4,3.4494e-05,17.481,3.2166e-05,-0.0070041,-9.9801e-05,-991.56,2.0966
19181,19.575,0.27273,0,9.6919e-05,968.52,3.415e-05,26.031,3.0684e-05,-0.015056,-9.645e-05,-955.25,2.1272
19182,19.667,0.18182,0,9.5101e-05,950.35,3.3634e-05,27.052,3.0034e-05,0.00023759,-9.4611e-05,-936.53,2.1422
19183,19.575,0.18182,0.05,7.5727e-08,0.75675,5.8149e-08,0.43692,1.0324e-12,1.4087e-05,-5.815e-08,-0.4369,2.127
19184,19.575,0.090909,0,9.5925e-05,958.59,3.3139e-05,17.805,3.0769e-05,-0.0072181,-9.561e-05,-949.56,2.1269
19185,19.575,0.45455,0,9.6651e-05,965.84,3.4063e-05,26.038,3.0595e-05,-0.017362,-9.6182e-05,-952.57,2.1275
19186,19.667,0.36364,0,9.4619e-05,945.53,3.3369e-05,25.758,2.9937e-05,-0.026963,-9.4155e-05,-932.41,2.1425
19187,19.575,0.36364,0.05,6.8797e-07,6.8749,5.2827e-07,3.9692,-1.0804e-12,-1.9128e-06,-5.2827e-07,-3.9692,2.1274
19188,19.575,0.63636,0,9.6603e-05,965.36,3.4159e-05,27.397,3.0512e-05,-0.0068705,-9.6108e-05,-951.38,2.1278
19189,19.667,0.54545,0,9.4553e-05,944.88,3.3457e-05,27.095,2.985e-05,-0.0085387,-9.4063e-05,-931.04,2.1428
19190,19.575,0.54545,0.05,7.301e-07,7.296,5.6063e-07,4.2123,-6.7727e-13,2.5999e-06,-5.6063e-07,-4.2123,2.1277
19191,19.575,0.81818,0,9.6589e-05,965.23,3.4278e-05,28.888,3.0433e-05,-0.0029778,-9.6066e-05,-950.46,2.1281
19192,19.667,0.72727,0,9.4535e-05,944.7,3.358e-05,28.651,2.9766e-05,-0.0055491,-9.4015e-05,-930.05,2.1431
19193,19.575,0.72727,0.05,7.3327e-07,7.3276,5.6306e-07,4.2306,-2.4614e-13,5.561e-06,-5.6306e-07,-4.2306,2.128
19194,19.575,1,0,9.6596e-05,965.29,3.4406e-05,30.41,3.0358e-05,0.0012852,-9.6042e-05,-949.72,2.1284
19195,19.667,0.90909,0,9.454e-05,944.74,3.3715e-05,30.261,2.9687e-05,-0.00050632,-9.3988e-05,-929.25,2.1434
19196,19.575,0.90909,0.05,7.3387e-07,7.3336,5.6352e-07,4.2341,1.7021e-13,8.2709e-06,-5.6352e-07,-4.234,2.1282
19197,19.575,1.1818,0,9.6616e-05,965.5,3.4538e-05,31.926,3.0289e-05,0.0047215,-9.6034e-05,-949.14,2.1286
19198,19.667,1.0909,0,9.4561e-05,944.96,3.3856e-05,31.88,2.9613e-05,0.003221,-9.3979e-05,-928.62,2.1436
19199,19.575,1.0909,0.05,7.3426e-07,7.3375,5.6382e-07,4.2363,1.0843e-12,1.0257e-05,-5.6382e-07,-4.2363,2.1285
19200,19.575,1.3636,0,9.6648e-05,965.81,3.467e-05,33.401,3.0226e-05,0.0076978,-9.6036e-05,-948.68,2.1288
19201,19.667,1.2727,0,9.4596e-05,945.31,3.3999e-05,33.472,2.9545e-05,0.0065436,-9.3982e-05,-928.12,2.1439
19202,19.575,1.2727,0.05,7.346e-07,7.341,5.6409e-07,4.2383,6.525e-13,9.6825e-06,-5.6408e-07,-4.2383,2.1287
19203,19.575,1.5455,0,9.6687e-05,966.2,3.4799e-05,34.807,3.0168e-05,0.010196,-9.6047e-05,-948.32,2.129
19204,19.667,1.4545,0,9.4639e-05,945.74,3.4139e-05,35.004,2.9482e-05,0.0093132,-9.3995e-05,-927.75,2.1441
19205,19.575,1.4545,0.05,7.3491e-07,7.3441,5.6432e-07,4.2401,1.1261e-12,9.9059e-06,-5.6432e-07,-4.2401,2.1289
19206,19.575,1.7273,0,9.6729e-05,966.62,3.4921e-05,36.115,3.0116e-05,0.012286,-9.6064e-05,-948.06,2.1292
19207,19.667,1.6364,0,9.4687e-05,946.22,3.4274e-05,36.446,2.9425e-05,0.011644,-9.4014e-05,-927.46,2.1443
19208,19.575,1.6364,0.05,7.3519e-07,7.3468,5.6453e-07,4.2417,1.579e-12,1.026e-05,-5.6453e-07,-4.2417,2.1291
19209,19.575,1.9091,0,9.6772e-05,967.06,3.5033e-05,37.301,3.0071e-05,0.014008,-9.6084e-05,-947.86,2.1294
19210,19.667,1.8182,0,9.4737e-05,946.72,3.44e-05,37.77,2.9375e-05,0.013573,-9.4038e-05,-927.26,2.1444
19211,19.575,1.8182,0.05,7.3543e-07,7.3492,5.6472e-07,4.2431,6.7251e-13,9.1842e-06,-5.6472e-07,-4.2431,2.1293
19212,19.575,2.0909,0,9.6813e-05,967.47,3.5133e-05,38.341,3.0032e-05,0.015404,-9.6104e-05,-947.72,2.1295
19213,19.667,2,0,9.4785e-05,947.2,3.4513e-05,38.951,2.9331e-05,0.015147,-9.4063e-05,-927.12,2.1446
19214,19.575,2,0.05,7.3564e-07,7.3513,5.6488e-07,4.2443,1.153e-12,9.8413e-06,-5.6488e-07,-4.2443,2.1294
19215,19.575,2.2727,0,9.685e-05,967.84,3.5217e-05,39.219,3e-05,0.016504,-9.6123e-05,-947.62,2.1296
19216,19.667,2.1818,0,9.483e-05,947.64,3.4612e-05,39.968,2.9295e-05,0.016407,-9.4086e-05,-927.02,2.1447
19217,19.575,2.1818,0.05,7.3581e-07,7.353,5.6501e-07,4.2453,7.2671e-13,1.102e-05,-5.6501e-07,-4.2453,2.1295
19218,19.575,2.4545,0,9.6881e-05,968.14,3.5285e-05,39.918,2.9975e-05,0.017335,-9.614e-05,-947.56,2.1297
19219,19.667,2.3636,0,9.4868e-05,948.02,3.4693e-05,40.803,2.9265e-05,0.017378,-9.4108e-05,-926.96,2.1448
19220,19.575,2.3636,0.05,7.3595e-07,7.3544,5.6512e-07,4.2461,1.2171e-12,1.0821e-05,-5.6512e-07,-4.2461,2.1296
19221,19.575,2.6364,0,9.6904e-05,968.37,3.5334e-05,40.425,2.9956e-05,0.017914,-9.6153e-05,-947.52,2.1297
19222,19.667,2.5455,0,9.4898e-05,948.33,3.4756e-05,41.443,2.9243e-05,0.018089,-9.4125e-05,-926.92,2.1448
19223,19.575,2.5455,0.05,7.3605e-07,7.3555,5.652e-07,4.2467,1.7106e-12,1.207e-05,-5.652e-07,-4.2467,2.1297
19224,19.575,2.8182,0,9.6918e-05,968.51,3.5364e-05,40.733,2.9946e-05,0.018255,-9.6161e-05,-947.49,2.1298
19225,19.667,2.7273,0,9.4919e-05,948.53,3.4798e-05,41.875,2.9228e-05,0.01855,-9.4137e-05,-926.89,2.1449
19226,19.575,2.7273,0.05,7.3612e-07,7.3561,5.6525e-07,4.2471,8.4354e-13,1.047e-05,-5.6525e-07,-4.2471,2.1297
19227,19.575,3,0,9.6923e-05,968.56,3.5375e-05,40.837,2.9942e-05,0.018368,-9.6163e-05,-947.49,2.1298
19228,19.667,2.9091,0,9.493e-05,948.64,3.482e-05,42.093,2.922e-05,0.01878,-9.4143e-05,-926.89,2.1449
19229,19.575,2.9091,0.05,7.3616e-07,7.3565,5.6528e-07,4.2473,1.3419e-12,1.0799e-05,-5.6528e-07,-4.2473,2.1298
19230,19.575,3.1818,0,9.6918e-05,968.51,3.5364e-05,40.733,2.9946e-05,0.018254,-9.6161e-05,-947.49,2.1298
19231,19.667,3.0909,0,9.493e-05,948.64,3.482e-05,42.093,2.922e-05,0.01878,-9.4143e-05,-926.89,2.1449
19232,19.575,3.0909,0.05,7.3616e-07,7.3565,5.6528e-07,4.2473,1.3868e-12,1.066e-05,-5.6528e-07,-4.2473,2.1298
19233,19.575,3.3636,0,9.6904e-05,968.37,3.5334e-05,40.425,2.9956e-05,0.01791,-9.6153e-05,-947.52,2.1297
19234,19.667,3.2727,0,9.4919e-05,948.53,3.4798e-05,41.875,2.9228e-05,0.01855,-9.4137e-05,-926.89,2.1449
19235,19.575,3.2727,0.05,7.3612e-07,7.3561,5.6525e-07,4.2471,1.4318e-12,1.1478e-05,-5.6525e-07,-4.2471,2.1297
19236,19.575,3.5455,0,9.6881e-05,968.14,3.5285e-05,39.918,2.9975e-05,0.017333,-9.614e-05,-947.56,2.1297
19237,19.667,3.4545,0,9.4898e-05,948.33,3.4756e-05,41.443,2.9243e-05,0.018087,-9.4125e-05,-926.92,2.1448
19238,19.575,3.4545,0.05,7.3605e-07,7.3555,5.652e-07,4.2467,1.9289e-12,1.1314e-05,-5.652e-07,-4.2467,2.1297
19239,19.575,3.7273,0,9.685e-05,967.84,3.5217e-05,39.219,3e-05,0.016504,-9.6123e-05,-947.62,2.1296
19240,19.667,3.6364,0,9.4868e-05,948.02,3.4693e-05,40.803,2.9265e-05,0.017378,-9.4108e-05,-926.96,2.1448
19241,19.575,3.6364,0.05,7.3595e-07,7.3544,5.6512e-07,4.2461,2.4249e-12,1.3512e-05,-5.6512e-07,-4.2461,2.1296
19242,19.575,3.9091,0,9.6814e-05,967.47,3.5133e-05,38.341,3.0032e-05,0.015404,-9.6104e-05,-947.72,2.1295
19243,19.667,3.8182,0,9.483e-05,947.64,3.4612e-05,39.968,2.9295e-05,0.016405,-9.4086e-05,-927.02,2.1447
19244,19.575,3.8182,0.05,7.3581e-07,7.353,5.6501e-07,4.2453,2.4616e-12,1.3784e-05,-5.6501e-07,-4.2453,2.1295
19245,19.575,4.0909,0,9.6772e-05,967.06,3.5033e-05,37.301,3.0071e-05,0.014009,-9.6084e-05,-947.86,2.1294
19246,19.667,4,0,9.4785e-05,947.2,3.4513e-05,38.951,2.9331e-05,0.015148,-9.4063e-05,-927.12,2.1446
19247,19.575,4,0.05,7.3564e-07,7.3513,5.6488e-07,4.2443,2.0297e-12,1.3047e-05,-5.6488e-07,-4.2443,2.1294
19248,19.575,4.2727,0,9.6729e-05,966.62,3.4921e-05,36.115,3.0116e-05,0.012286,-9.6064e-05,-948.06,2.1292
19249,19.667,4.1818,0,9.4737e-05,946.72,3.44e-05,37.77,2.9375e-05,0.013571,-9.4038e-05,-927.26,2.1444
19250,19.575,4.1818,0.05,7.3543e-07,7.3492,5.6472e-07,4.2431,2.0639e-12,1.1589e-05,-5.6472e-07,-4.2431,2.1293
19251,19.575,4.4545,0,9.6687e-05,966.2,3.4799e-05,34.807,3.0168e-05,0.010198,-9.6047e-05,-948.32,2.129
19252,19.667,4.3636,0,9.4687e-05,946.22,3.4274e-05,36.446,2.9425e-05,0.011644,-9.4014e-05,-927.47,2.1443
19253,19.575,4.3636,0.05,7.3519e-07,7.3468,5.6453e-07,4.2417,3.8965e-12,1.4326e-05,-5.6454e-07,-4.2417,2.1291
19254,19.575,4.6364,0,9.6648e-05,965.81,3.467e-05,33.401,3.0226e-05,0.0076977,-9.6036e-05,-948.68,2.1288
19255,19.667,4.5455,0,9.4639e-05,945.74,3.4139e-05,35.004,2.9482e-05,0.0093148,-9.3995e-05,-927.75,2.1441
19256,19.575,4.5455,0.05,7.3491e-07,7.3441,5.6432e-07,4.2401,2.0621e-12,1.2327e-05,-5.6432e-07,-4.2401,2.1289
19257,19.575,4.8182,0,9.6616e-05,965.5,3.4538e-05,31.926,3.0289e-05,0.0047212,-9.6034e-05,-949.14,2.1286
19258,19.667,4.7273,0,9.4596e-05,945.31,3.3999e-05,33.472,2.9545e-05,0.0065412,-9.3982e-05,-928.12,2.1439
19259,19.575,4.7273,0.05,7.346e-07,7.341,5.6408e-07,4.2383,2.0708e-12,1.2984e-05,-5.6409e-07,-4.2383,2.1287
19260,19.575,5,0,9.6596e-05,965.29,3.4406e-05,30.41,3.0358e-05,0.0012854,-9.6042e-05,-949.72,2.1284
19261,19.667,4.9091,0,9.4561e-05,944.96,3.3856e-05,31.88,2.9613e-05,0.0032239,-9.3979e-05,-928.62,2.1436
19262,19.575,4.9091,0.05,7.3426e-07,7.3375,5.6382e-07,4.2363,3.8552e-12,1.3222e-05,-5.6382e-07,-4.2363,2.1285
19263,19.575,5.1818,0,9.6589e-05,965.23,3.4278e-05,28.888,3.0433e-05,-0.0029794,-9.6066e-05,-950.46,2.1281
19264,19.667,5.0909,0,9.454e-05,944.74,3.3715e-05,30.261,2.9687e-05,-0.00050778,-9.3988e-05,-929.25,2.1434
19265,19.575,5.0909,0.05,7.3387e-07,7.3336,5.6352e-07,4.234,2.9208e-12,1.0227e-05,-5.6352e-07,-4.2341,2.1282
19266,19.575,5.3636,0,9.6603e-05,965.36,3.4159e-05,27.397,3.0512e-05,-0.0068723,-9.6108e-05,-951.38,2.1278
19267,19.667,5.2727,0,9.4535e-05,944.7,3.358e-05,28.651,2.9766e-05,-0.0055517,-9.4015e-05,-930.05,2.1431
19268,19.575,5.2727,0.05,7.3327e-07,7.3276,5.6306e-07,4.2306,3.3455e-12,1.1008e-05,-5.6306e-07,-4.2306,2.128
19269,19.575,5.5455,0,9.6651e-05,965.84,3.4063e-05,26.038,3.0595e-05,-0.017364,-9.6182e-05,-952.57,2.1275
19270,19.667,5.4545,0,9.4553e-05,944.88,3.3457e-05,27.095,2.985e-05,-0.0085396,-9.4063e-05,-931.04,2.1428
19271,19.575,5.4545,0.05,7.301e-07,7.296,5.6062e-07,4.2123,2.9274e-12,1.0429e-05,-5.6063e-07,-4.2124,2.1277
19272,19.575,5.7273,0,9.6919e-05,968.52,3.415e-05,26.031,3.0684e-05,-0.015055,-9.645e-05,-955.25,2.1272
19273,19.667,5.6364,0,9.4619e-05,945.53,3.3369e-05,25.758,2.9937e-05,-0.026963,-9.4155e-05,-932.41,2.1425
19274,19.575,5.6364,0.05,6.8797e-07,6.8749,5.2827e-07,3.9692,2.823e-12,1.0825e-05,-5.2827e-07,-3.9693,2.1274
19275,19.667,5.8182,0,9.5101e-05,950.35,3.3634e-05,27.052,3.0034e-05,0.00023838,-9.4612e-05,-936.53,2.1422
19276,19.575,5.8182,0.05,7.5727e-08,0.75675,5.815e-08,0.4369,-3.5985e-12,-3.9499e-05,-5.8149e-08,-0.43692,2.127
19277,19.575,5.9091,0,9.5925e-05,958.59,3.3139e-05,17.805,3.0769e-05,-0.0072159,-9.561e-05,-949.56,2.1269
19278,19.76,0.27273,0,9.2772e-05,927.08,3.2828e-05,26.592,2.9287e-05,-0.016021,-9.2291e-05,-913.5,2.1575
19279,19.852,0.18182,0,9.0959e-05,908.97,3.2308e-05,27.548,2.8642e-05,-1.284e-05,-9.0459e-05,-894.88,2.1726
19280,19.76,0.18182,0.05,8.3107e-08,0.83049,6.3815e-08,0.47949,4.2961e-13,6.8462e-06,-6.3816e-08,-0.47948,2.1574
19281,19.76,0.090909,0,9.1756e-05,916.93,3.1791e-05,18.134,2.9376e-05,-0.0074353,-9.1434e-05,-907.73,2.1572
19282,19.76,0.45455,0,9.2513e-05,924.49,3.2756e-05,26.76,2.9192e-05,-0.018237,-9.2028e-05,-910.82,2.1579
19283,19.852,0.36364,0,9.0484e-05,904.21,3.2058e-05,26.404,2.854e-05,-0.028463,-9.0006e-05,-890.73,2.1729
19284,19.76,0.36364,0.05,6.8623e-07,6.8575,5.2694e-07,3.9592,-1.042e-12,-2.9185e-07,-5.2694e-07,-3.9592,2.1577
19285,19.76,0.63636,0,9.2477e-05,924.14,3.2872e-05,28.301,2.9104e-05,-0.0070728,-9.1964e-05,-909.66,2.1581
19286,19.852,0.54545,0,9.043e-05,903.68,3.2165e-05,27.928,2.8447e-05,-0.0088617,-8.9923e-05,-889.4,2.1732
19287,19.76,0.54545,0.05,7.2776e-07,7.2726,5.5883e-07,4.1988,-6.1684e-13,2.9636e-06,-5.5883e-07,-4.1988,2.158
19288,19.76,0.81818,0,9.2478e-05,924.14,3.3011e-05,29.978,2.9021e-05,-0.0029294,-9.1932e-05,-908.79,2.1584
19289,19.852,0.72727,0,9.0427e-05,903.64,3.2309e-05,29.677,2.8358e-05,-0.0056474,-8.9885e-05,-888.44,2.1735
19290,19.76,0.72727,0.05,7.3093e-07,7.3042,5.6126e-07,4.2171,-2.0893e-13,6.4039e-06,-5.6126e-07,-4.2171,2.1583
19291,19.76,1,0,9.2499e-05,924.35,3.3159e-05,31.686,2.8942e-05,0.0015672,-9.1919e-05,-908.1,2.1587
19292,19.852,0.90909,0,9.0447e-05,903.84,3.2464e-05,31.483,2.8274e-05,-0.00030536,-8.987e-05,-887.69,2.1737
19293,19.76,0.90909,0.05,7.3156e-07,7.3105,5.6175e-07,4.2208,2.2909e-13,7.693e-06,-5.6175e-07,-4.2207,2.1585
19294,19.76,1.1818,0,9.2534e-05,924.71,3.3311e-05,33.383,2.8868e-05,0.0051687,-9.1921e-05,-907.56,2.1589
19295,19.852,1.0909,0,9.0484e-05,904.22,3.2626e-05,33.295,2.8196e-05,0.0036176,-8.9872e-05,-887.11,2.174
19296,19.76,1.0909,0.05,7.3199e-07,7.3148,5.6208e-07,4.2232,2.1778e-13,9.2189e-06,-5.6208e-07,-4.2232,2.1588
19297,19.76,1.3636,0,9.2581e-05,925.17,3.3462e-05,35.033,2.8801e-05,0.0082731,-9.1935e-05,-907.15,2.1591
19298,19.852,1.2727,0,9.0534e-05,904.72,3.279e-05,35.074,2.8123e-05,0.007093,-8.9886e-05,-886.67,2.1742
19299,19.76,1.2727,0.05,7.3237e-07,7.3187,5.6237e-07,4.2254,1.9017e-13,9.9348e-06,-5.6237e-07,-4.2254,2.159
19300,19.76,1.5455,0,9.2634e-05,925.7,3.3609e-05,36.602,2.8739e-05,0.010865,-9.1957e-05,-906.85,2.1593
19301,19.852,1.4545,0,9.0593e-05,905.3,3.295e-05,36.783,2.8056e-05,0.009973,-8.9911e-05,-886.34,2.1744
19302,19.76,1.4545,0.05,7.3271e-07,7.3221,5.6263e-07,4.2274,6.5139e-13,9.9804e-06,-5.6263e-07,-4.2274,2.1592
19303,19.76,1.7273,0,9.2689e-05,926.25,3.3748e-05,38.061,2.8684e-05,0.013026,-9.1983e-05,-906.63,2.1595
19304,19.852,1.6364,0,9.0655e-05,905.93,3.3103e-05,38.39,2.7996e-05,0.01239,-8.9941e-05,-886.12,2.1746
19305,19.76,1.6364,0.05,7.3302e-07,7.3251,5.6287e-07,4.2292,1.1092e-12,1.0705e-05,-5.6287e-07,-4.2292,2.1594
19306,19.76,1.9091,0,9.2745e-05,926.81,3.3875e-05,39.381,2.8636e-05,0.014799,-9.2012e-05,-906.48,2.1596
19307,19.852,1.8182,0,9.0718e-05,906.56,3.3246e-05,39.864,2.7942e-05,0.014378,-8.9974e-05,-885.96,2.1747
19308,19.76,1.8182,0.05,7.3329e-07,7.3278,5.6307e-07,4.2307,2.1279e-13,9.6523e-06,-5.6307e-07,-4.2307,2.1595
19309,19.76,2.0909,0,9.2796e-05,927.32,3.3987e-05,40.54,2.8594e-05,0.016232,-9.204e-05,-906.38,2.1597
19310,19.852,2,0,9.0779e-05,907.16,3.3374e-05,41.177,2.7895e-05,0.015999,-9.0008e-05,-885.86,2.1748
19311,19.76,2,0.05,7.3352e-07,7.3301,5.6325e-07,4.2321,1.6002e-12,1.0245e-05,-5.6325e-07,-4.2321,2.1597
19312,19.76,2.2727,0,9.2842e-05,927.78,3.4083e-05,41.516,2.856e-05,0.017358,-9.2066e-05,-906.32,2.1598
19313,19.852,2.1818,0,9.0833e-05,907.71,3.3485e-05,42.307,2.7856e-05,0.017289,-9.0039e-05,-885.8,2.1749
19314,19.76,2.1818,0.05,7.3371e-07,7.3321,5.634e-07,4.2332,1.1747e-12,1.1462e-05,-5.634e-07,-4.2332,2.1598
19315,19.76,2.4545,0,9.288e-05,928.16,3.4159e-05,42.292,2.8533e-05,0.018206,-9.2088e-05,-906.28,2.1599
19316,19.852,2.3636,0,9.088e-05,908.17,3.3577e-05,43.235,2.7825e-05,0.018284,-9.0067e-05,-885.77,2.175
19317,19.76,2.3636,0.05,7.3387e-07,7.3336,5.6352e-07,4.2341,1.661e-12,1.0777e-05,-5.6352e-07,-4.2341,2.1599
19318,19.76,2.6364,0,9.2908e-05,928.44,3.4215e-05,42.856,2.8514e-05,0.018797,-9.2104e-05,-906.26,2.16
19319,19.852,2.5455,0,9.0916e-05,908.54,3.3647e-05,43.944,2.7801e-05,0.01901,-9.0089e-05,-885.76,2.1751
19320,19.76,2.5455,0.05,7.3399e-07,7.3348,5.6361e-07,4.2347,1.7072e-12,1.1553e-05,-5.6361e-07,-4.2347,2.1599
19321,19.76,2.8182,0,9.2925e-05,928.61,3.4249e-05,43.198,2.8502e-05,0.019146,-9.2115e-05,-906.25,2.16
19322,19.852,2.7273,0,9.0942e-05,908.79,3.3695e-05,44.424,2.7785e-05,0.019481,-9.0104e-05,-885.75,2.1751
19323,19.76,2.7273,0.05,7.3406e-07,7.3356,5.6367e-07,4.2352,1.7496e-12,9.9743e-06,-5.6367e-07,-4.2352,2.16
19324,19.76,3,0,9.2931e-05,928.67,3.426e-05,43.313,2.8498e-05,0.019262,-9.2118e-05,-906.25,2.16
19325,19.852,2.9091,0,9.0955e-05,908.92,3.3719e-05,44.665,2.7777e-05,0.019716,-9.0112e-05,-885.75,2.1752
19326,19.76,2.9091,0.05,7.341e-07,7.336,5.637e-07,4.2354,8.8621e-13,1.0792e-05,-5.637e-07,-4.2354,2.16
19327,19.76,3.1818,0,9.2925e-05,928.61,3.4249e-05,43.198,2.8502e-05,0.019147,-9.2115e-05,-906.25,2.16
19328,19.852,3.0909,0,9.0955e-05,908.92,3.3719e-05,44.665,2.7777e-05,0.019716,-9.0112e-05,-885.75,2.1752
19329,19.76,3.0909,0.05,7.341e-07,7.336,5.637e-07,4.2354,9.3298e-13,1.019e-05,-5.637e-07,-4.2354,2.16
19330,19.76,3.3636,0,9.2908e-05,928.44,3.4215e-05,42.856,2.8514e-05,0.018798,-9.2104e-05,-906.26,2.16
19331,19.852,3.2727,0,9.0942e-05,908.79,3.3695e-05,44.424,2.7785e-05,0.019482,-9.0104e-05,-885.75,2.1751
19332,19.76,3.2727,0.05,7.3406e-07,7.3356,5.6367e-07,4.2352,1.8893e-12,1.197e-05,-5.6367e-07,-4.2352,2.16
19333,19.76,3.5455,0,9.288e-05,928.16,3.4159e-05,42.292,2.8533e-05,0.018206,-9.2088e-05,-906.28,2.1599
19334,19.852,3.4545,0,9.0916e-05,908.54,3.3647e-05,43.944,2.7801e-05,0.019009,-9.0089e-05,-885.76,2.1751
19335,19.76,3.4545,0.05,7.3399e-07,7.3348,5.6361e-07,4.2347,1.9348e-12,1.182e-05,-5.6361e-07,-4.2348,2.1599
19336,19.76,3.7273,0,9.2842e-05,927.78,3.4083e-05,41.516,2.856e-05,0.017357,-9.2066e-05,-906.32,2.1598
19337,19.852,3.6364,0,9.088e-05,908.17,3.3577e-05,43.235,2.7825e-05,0.018284,-9.0067e-05,-885.77,2.175
19338,19.76,3.6364,0.05,7.3387e-07,7.3336,5.6352e-07,4.2341,1.9743e-12,1.2614e-05,-5.6352e-07,-4.2341,2.1599
19339,19.76,3.9091,0,9.2796e-05,927.32,3.3987e-05,40.54,2.8594e-05,0.016231,-9.204e-05,-906.38,2.1597
19340,19.852,3.8182,0,9.0833e-05,907.71,3.3485e-05,42.307,2.7856e-05,0.017289,-9.0039e-05,-885.8,2.1749
19341,19.76,3.8182,0.05,7.3371e-07,7.3321,5.634e-07,4.2332,2.9255e-12,1.3369e-05,-5.634e-07,-4.2332,2.1598
19342,19.76,4.0909,0,9.2745e-05,926.81,3.3875e-05,39.381,2.8636e-05,0.014799,-9.2012e-05,-906.48,2.1596
19343,19.852,4,0,9.0779e-05,907.16,3.3374e-05,41.177,2.7895e-05,0.015998,-9.0008e-05,-885.86,2.1748
19344,19.76,4,0.05,7.3352e-07,7.3301,5.6325e-07,4.232,2.5017e-12,1.2639e-05,-5.6325e-07,-4.2321,2.1597
19345,19.76,4.2727,0,9.2689e-05,926.25,3.3748e-05,38.061,2.8684e-05,0.013025,-9.1983e-05,-906.63,2.1595
19346,19.852,4.1818,0,9.0718e-05,906.56,3.3246e-05,39.864,2.7942e-05,0.014378,-8.9974e-05,-885.96,2.1747
19347,19.76,4.1818,0.05,7.3329e-07,7.3278,5.6307e-07,4.2307,2.9822e-12,1.2291e-05,-5.6308e-07,-4.2307,2.1595
19348,19.76,4.4545,0,9.2634e-05,925.7,3.3609e-05,36.602,2.8739e-05,0.010865,-9.1957e-05,-906.85,2.1593
19349,19.852,4.3636,0,9.0655e-05,905.93,3.3103e-05,38.39,2.7996e-05,0.012389,-8.9941e-05,-886.12,2.1746
19350,19.76,4.3636,0.05,7.3302e-07,7.3251,5.6287e-07,4.2291,2.9959e-12,1.4075e-05,-5.6287e-07,-4.2292,2.1594
19351,19.76,4.6364,0,9.2581e-05,925.17,3.3462e-05,35.033,2.8801e-05,0.0082725,-9.1935e-05,-907.15,2.1591
19352,19.852,4.5455,0,9.0593e-05,905.3,3.295e-05,36.783,2.8056e-05,0.0099734,-8.9911e-05,-886.34,2.1744
19353,19.76,4.5455,0.05,7.3271e-07,7.3221,5.6263e-07,4.2274,2.5585e-12,1.2264e-05,-5.6264e-07,-4.2274,2.1592
19354,19.76,4.8182,0,9.2534e-05,924.71,3.3311e-05,33.383,2.8868e-05,0.0051696,-9.1921e-05,-907.56,2.1589
19355,19.852,4.7273,0,9.0534e-05,904.72,3.279e-05,35.074,2.8123e-05,0.0070916,-8.9886e-05,-886.67,2.1742
19356,19.76,4.7273,0.05,7.3237e-07,7.3187,5.6237e-07,4.2254,3.4656e-12,1.3726e-05,-5.6237e-07,-4.2254,2.159
19357,19.76,5,0,9.2499e-05,924.35,3.3159e-05,31.686,2.8942e-05,0.0015685,-9.1919e-05,-908.1,2.1587
19358,19.852,4.9091,0,9.0484e-05,904.22,3.2626e-05,33.295,2.8196e-05,0.0036178,-8.9872e-05,-887.11,2.174
19359,19.76,4.9091,0.05,7.3199e-07,7.3148,5.6208e-07,4.2232,3.8899e-12,1.2989e-05,-5.6208e-07,-4.2233,2.1588
19360,19.76,5.1818,0,9.2478e-05,924.14,3.3011e-05,29.978,2.9021e-05,-0.0029319,-9.1932e-05,-908.79,2.1584
19361,19.852,5.0909,0,9.0447e-05,903.84,3.2464e-05,31.483,2.8274e-05,-0.00030651,-8.987e-05,-887.69,2.1737
19362,19.76,5.0909,0.05,7.3156e-07,7.3106,5.6175e-07,4.2207,2.0258e-12,1.1125e-05,-5.6175e-07,-4.2208,2.1585
19363,19.76,5.3636,0,9.2477e-05,924.14,3.2872e-05,28.301,2.9104e-05,-0.0070745,-9.1964e-05,-909.66,2.1581
19364,19.852,5.2727,0,9.0427e-05,903.64,3.2309e-05,29.677,2.8358e-05,-0.0056501,-8.9885e-05,-888.44,2.1735
19365,19.76,5.2727,0.05,7.3093e-07,7.3042,5.6126e-07,4.2171,2.443e-12,1.1104e-05,-5.6127e-07,-4.2171,2.1583
19366,19.76,5.5455,0,9.2513e-05,924.49,3.2756e-05,26.76,2.9192e-05,-0.018236,-9.2028e-05,-910.83,2.1579
19367,19.852,5.4545,0,9.043e-05,903.68,3.2165e-05,27.928,2.8447e-05,-0.0088616,-8.9923e-05,-889.4,2.1732
19368,19.76,5.4545,0.05,7.2776e-07,7.2726,5.5883e-07,4.1988,2.8639e-12,1.0981e-05,-5.5883e-07,-4.1988,2.158
19369,19.76,5.7273,0,9.2772e-05,927.08,3.2828e-05,26.592,2.9287e-05,-0.01602,-9.2291e-05,-913.5,2.1575
19370,19.852,5.6364,0,9.0484e-05,904.21,3.2058e-05,26.404,2.854e-05,-0.028461,-9.0006e-05,-890.73,2.1729
19371,19.76,5.6364,0.05,6.8623e-07,6.8575,5.2693e-07,3.9592,3.2285e-12,1.1487e-05,-5.2694e-07,-3.9592,2.1577
19372,19.852,5.8182,0,9.0959e-05,908.97,3.2308e-05,27.548,2.8642e-05,-1.2173e-05,-9.0459e-05,-894.88,2.1726
19373,19.76,5.8182,0.05,8.3107e-08,0.83049,6.3816e-08,0.47947,-2.2568e-12,-3.0971e-05,-6.3815e-08,-0.4795,2.1574
19374,19.76,5.9091,0,9.1756e-05,916.93,3.1791e-05,18.134,2.9376e-05,-0.0074332,-9.1434e-05,-907.73,2.1572
19375,19.944,0.27273,0,8.8642e-05,885.81,3.1512e-05,27.169,2.7894e-05,-0.017092,-8.8148e-05,-871.92,2.1879
19376,20.036,0.18182,0,8.6834e-05,867.75,3.0988e-05,28.05,2.7255e-05,-0.00033707,-8.6323e-05,-853.38,2.203
19377,19.944,0.18182,0.05,9.1284e-08,0.91221,7.0094e-08,0.52667,4.2835e-13,2.1852e-05,-7.0095e-08,-0.52666,2.1878
19378,19.944,0.090909,0,8.7604e-05,875.44,3.0448e-05,18.468,2.7989e-05,-0.0076485,-8.7276e-05,-866.06,2.1876
19379,19.944,0.45455,0,8.8393e-05,883.32,3.1459e-05,27.514,2.7794e-05,-0.019175,-8.7893e-05,-869.25,2.1882
19380,20.036,0.36364,0,8.6366e-05,863.06,3.0754e-05,27.073,2.7147e-05,-0.030088,-8.5874e-05,-849.22,2.2033
19381,19.944,0.36364,0.05,6.8461e-07,6.8414,5.257e-07,3.9499,-2.6549e-14,2.7216e-06,-5.257e-07,-3.9499,2.1881
19382,19.944,0.63636,0,8.8372e-05,883.11,3.1595e-05,29.254,2.7701e-05,-0.007272,-8.7838e-05,-868.12,2.1885
19383,20.036,0.54545,0,8.6327e-05,862.67,3.0883e-05,28.803,2.7048e-05,-0.0092021,-8.5801e-05,-847.91,2.2036
19384,19.944,0.54545,0.05,7.2551e-07,7.2501,5.571e-07,4.1859,-1.4215e-13,4.1932e-06,-5.571e-07,-4.1858,2.1884
19385,19.944,0.81818,0,8.8388e-05,883.27,3.1756e-05,31.135,2.7612e-05,-0.0028563,-8.7817e-05,-867.29,2.1888
19386,20.036,0.72727,0,8.6339e-05,862.79,3.1049e-05,30.764,2.6954e-05,-0.0057328,-8.5774e-05,-847,2.2039
19387,19.944,0.72727,0.05,7.2868e-07,7.2818,5.5954e-07,4.2042,5.3789e-14,6.5628e-06,-5.5954e-07,-4.2041,2.1886
19388,19.944,1,0,8.8425e-05,883.64,3.1926e-05,33.046,2.7528e-05,0.001898,-8.7816e-05,-866.65,2.189
19389,20.036,0.90909,0,8.6376e-05,863.16,3.1228e-05,32.784,2.6865e-05,-6.5528e-05,-8.5771e-05,-846.3,2.2041
19390,19.944,0.90909,0.05,7.2936e-07,7.2885,5.6005e-07,4.208,2.372e-13,6.594e-06,-5.6005e-07,-4.208,2.1889
19391,19.944,1.1818,0,8.8477e-05,884.16,3.21e-05,34.941,2.745e-05,0.0056797,-8.7831e-05,-866.17,2.1893
19392,20.036,1.0909,0,8.6431e-05,863.71,3.1413e-05,34.807,2.6781e-05,0.0040701,-8.5786e-05,-845.78,2.2043
19393,19.944,1.0909,0.05,7.2983e-07,7.2932,5.6042e-07,4.2108,-2.5448e-13,6.1674e-06,-5.6042e-07,-4.2108,2.1891
19394,19.944,1.3636,0,8.854e-05,884.79,3.2272e-05,36.782,2.7378e-05,0.0089167,-8.7856e-05,-865.82,2.1895
19395,20.036,1.2727,0,8.6498e-05,864.38,3.1599e-05,36.79,2.6703e-05,0.0077088,-8.5813e-05,-845.4,2.2045
19396,19.944,1.2727,0.05,7.3025e-07,7.2975,5.6074e-07,4.2132,1.5382e-13,7.0143e-06,-5.6074e-07,-4.2132,2.1893
19397,19.944,1.5455,0,8.8608e-05,885.47,3.2439e-05,38.53,2.7312e-05,0.011609,-8.789e-05,-865.57,2.1896
19398,20.036,1.4545,0,8.6573e-05,865.14,3.178e-05,38.694,2.6632e-05,0.010709,-8.585e-05,-845.14,2.2047
19399,19.944,1.4545,0.05,7.3063e-07,7.3013,5.6103e-07,4.2154,1.6719e-13,6.8573e-06,-5.6103e-07,-4.2154,2.1895
19400,19.944,1.7273,0,8.8678e-05,886.17,3.2596e-05,40.153,2.7254e-05,0.013843,-8.7927e-05,-865.41,2.1898
19401,20.036,1.6364,0,8.6652e-05,865.92,3.1954e-05,40.481,2.6568e-05,0.013214,-8.5892e-05,-844.96,2.2049
19402,19.944,1.6364,0.05,7.3097e-07,7.3047,5.6129e-07,4.2174,6.3312e-13,7.3593e-06,-5.613e-07,-4.2174,2.1897
19403,19.944,1.9091,0,8.8747e-05,886.86,3.2739e-05,41.621,2.7202e-05,0.015671,-8.7965e-05,-865.31,2.1899
19404,20.036,1.8182,0,8.673e-05,866.7,3.2114e-05,42.117,2.651e-05,0.015267,-8.5936e-05,-844.86,2.2051
19405,19.944,1.8182,0.05,7.3127e-07,7.3077,5.6153e-07,4.2191,1.5569e-12,5.6446e-06,-5.6153e-07,-4.2191,2.1899
19406,19.944,2.0909,0,8.881e-05,887.49,3.2866e-05,42.907,2.7158e-05,0.017143,-8.8002e-05,-865.25,2.1901
19407,20.036,2,0,8.6803e-05,867.43,3.2258e-05,43.575,2.6461e-05,0.016936,-8.5979e-05,-844.82,2.2052
19408,19.944,2,0.05,7.3153e-07,7.3103,5.6173e-07,4.2206,1.5836e-12,6.8242e-06,-5.6173e-07,-4.2206,2.19
19409,19.944,2.2727,0,8.8866e-05,888.05,3.2974e-05,43.99,2.7121e-05,0.018297,-8.8035e-05,-865.22,2.1902
19410,20.036,2.1818,0,8.6869e-05,868.09,3.2383e-05,44.828,2.6419e-05,0.018258,-8.6019e-05,-844.8,2.2053
19411,19.944,2.1818,0.05,7.3175e-07,7.3125,5.6189e-07,4.2218,1.1663e-12,7.5466e-06,-5.619e-07,-4.2219,2.1901
19412,19.944,2.4545,0,8.8911e-05,888.5,3.3059e-05,44.851,2.7093e-05,0.019165,-8.8063e-05,-865.22,2.1902
19413,20.036,2.3636,0,8.6925e-05,868.65,3.2486e-05,45.856,2.6385e-05,0.019279,-8.6054e-05,-844.8,2.2054
19414,19.944,2.3636,0.05,7.3193e-07,7.3142,5.6203e-07,4.2229,1.656e-12,7.8416e-06,-5.6203e-07,-4.2229,2.1902
19415,19.944,2.6364,0,8.8945e-05,888.84,3.3122e-05,45.476,2.7072e-05,0.019769,-8.8084e-05,-865.22,2.1903
19416,20.036,2.5455,0,8.6968e-05,869.08,3.2565e-05,46.641,2.636e-05,0.02002,-8.6081e-05,-844.81,2.2054
19417,19.944,2.5455,0.05,7.3206e-07,7.3155,5.6213e-07,4.2236,1.7003e-12,7.7008e-06,-5.6213e-07,-4.2236,2.1903
19418,19.944,2.8182,0,8.8966e-05,889.05,3.316e-05,45.855,2.706e-05,0.020125,-8.8097e-05,-865.22,2.1903
19419,20.036,2.7273,0,8.6998e-05,869.38,3.2618e-05,47.172,2.6343e-05,0.020502,-8.61e-05,-844.83,2.2055
19420,19.944,2.7273,0.05,7.3215e-07,7.3164,5.622e-07,4.2241,1.7463e-12,6.131e-06,-5.622e-07,-4.2242,2.1903
19421,19.944,3,0,8.8973e-05,889.12,3.3173e-05,45.982,2.7056e-05,0.020243,-8.8101e-05,-865.22,2.1903
19422,20.036,2.9091,0,8.7014e-05,869.54,3.2645e-05,47.439,2.6334e-05,0.020741,-8.6109e-05,-844.84,2.2055
19423,19.944,2.9091,0.05,7.3219e-07,7.3169,5.6223e-07,4.2244,1.7943e-12,8.8739e-06,-5.6224e-07,-4.2244,2.1903
19424,19.944,3.1818,0,8.8966e-05,889.05,3.316e-05,45.855,2.706e-05,0.020125,-8.8097e-05,-865.22,2.1903
19425,20.036,3.0909,0,8.7014e-05,869.54,3.2645e-05,47.439,2.6334e-05,0.020741,-8.6109e-05,-844.84,2.2055
19426,19.944,3.0909,0.05,7.3219e-07,7.3169,5.6223e-07,4.2244,9.3428e-13,7.3391e-06,-5.6224e-07,-4.2244,2.1903
19427,19.944,3.3636,0,8.8945e-05,888.84,3.3122e-05,45.476,2.7072e-05,0.019768,-8.8084e-05,-865.22,2.1903
19428,20.036,3.2727,0,8.6998e-05,869.38,3.2618e-05,47.172,2.6343e-05,0.020504,-8.61e-05,-844.83,2.2055
19429,19.944,3.2727,0.05,7.3215e-07,7.3164,5.622e-07,4.2241,1.8929e-12,8.1799e-06,-5.622e-07,-4.2242,2.1903
19430,19.944,3.5455,0,8.8911e-05,888.5,3.3059e-05,44.851,2.7093e-05,0.019165,-8.8063e-05,-865.22,2.1902
19431,20.036,3.4545,0,8.6968e-05,869.08,3.2565e-05,46.641,2.636e-05,0.02002,-8.6081e-05,-844.81,2.2054
19432,19.944,3.4545,0.05,7.3206e-07,7.3156,5.6213e-07,4.2236,1.9377e-12,8.5291e-06,-5.6213e-07,-4.2237,2.1903
19433,19.944,3.7273,0,8.8866e-05,888.05,3.2974e-05,43.99,2.7121e-05,0.018298,-8.8035e-05,-865.22,2.1902
19434,20.036,3.6364,0,8.6925e-05,868.65,3.2486e-05,45.856,2.6385e-05,0.019279,-8.6054e-05,-844.8,2.2054
19435,19.944,3.6364,0.05,7.3193e-07,7.3142,5.6203e-07,4.2229,1.9831e-12,1.0743e-05,-5.6203e-07,-4.2229,2.1902
19436,19.944,3.9091,0,8.881e-05,887.49,3.2866e-05,42.907,2.7158e-05,0.017143,-8.8002e-05,-865.25,2.1901
19437,20.036,3.8182,0,8.6869e-05,868.09,3.2383e-05,44.828,2.6419e-05,0.018261,-8.6019e-05,-844.8,2.2053
19438,19.944,3.8182,0.05,7.3175e-07,7.3125,5.6189e-07,4.2218,2.0252e-12,1.1065e-05,-5.619e-07,-4.2219,2.1901
19439,19.944,4.0909,0,8.8747e-05,886.86,3.2739e-05,41.621,2.7202e-05,0.015671,-8.7965e-05,-865.31,2.1899
19440,20.036,4,0,8.6803e-05,867.43,3.2258e-05,43.575,2.6461e-05,0.016935,-8.5979e-05,-844.82,2.2052
19441,19.944,4,0.05,7.3153e-07,7.3103,5.6172e-07,4.2206,2.0533e-12,9.8662e-06,-5.6173e-07,-4.2206,2.19
19442,19.944,4.2727,0,8.8678e-05,886.17,3.2596e-05,40.153,2.7254e-05,0.013843,-8.7927e-05,-865.41,2.1898
19443,20.036,4.1818,0,8.673e-05,866.7,3.2114e-05,42.117,2.651e-05,0.015267,-8.5936e-05,-844.86,2.2051
19444,19.944,4.1818,0.05,7.3127e-07,7.3077,5.6152e-07,4.2191,2.9803e-12,8.6446e-06,-5.6153e-07,-4.2191,2.1899
19445,19.944,4.4545,0,8.8608e-05,885.47,3.2439e-05,38.53,2.7312e-05,0.011609,-8.789e-05,-865.57,2.1896
19446,20.036,4.3636,0,8.6652e-05,865.92,3.1954e-05,40.481,2.6568e-05,0.013213,-8.5892e-05,-844.97,2.2049
19447,19.944,4.3636,0.05,7.3097e-07,7.3047,5.6129e-07,4.2173,2.0961e-12,1.1556e-05,-5.613e-07,-4.2174,2.1897
19448,19.944,4.6364,0,8.854e-05,884.79,3.2272e-05,36.782,2.7378e-05,0.0089162,-8.7856e-05,-865.82,2.1895
19449,20.036,4.5455,0,8.6573e-05,865.14,3.178e-05,38.694,2.6632e-05,0.010708,-8.585e-05,-845.14,2.2047
19450,19.944,4.5455,0.05,7.3063e-07,7.3013,5.6103e-07,4.2154,3.0018e-12,8.7438e-06,-5.6104e-07,-4.2154,2.1895
19451,19.944,4.8182,0,8.8477e-05,884.16,3.21e-05,34.941,2.745e-05,0.0056775,-8.7831e-05,-866.17,2.1893
19452,20.036,4.7273,0,8.6498e-05,864.38,3.1599e-05,36.79,2.6703e-05,0.0077082,-8.5813e-05,-845.4,2.2045
19453,19.944,4.7273,0.05,7.3025e-07,7.2975,5.6074e-07,4.2132,3.4596e-12,1.0538e-05,-5.6074e-07,-4.2132,2.1893
19454,19.944,5,0,8.8425e-05,883.64,3.1926e-05,33.046,2.7528e-05,0.0018957,-8.7816e-05,-866.65,2.189
19455,20.036,4.9091,0,8.6431e-05,863.71,3.1413e-05,34.807,2.6781e-05,0.0040688,-8.5786e-05,-845.78,2.2043
19456,19.944,4.9091,0.05,7.2983e-07,7.2932,5.6042e-07,4.2107,2.9829e-12,9.729e-06,-5.6042e-07,-4.2108,2.1891
19457,19.944,5.1818,0,8.8388e-05,883.27,3.1756e-05,31.135,2.7612e-05,-0.0028575,-8.7817e-05,-867.29,2.1888
19458,20.036,5.0909,0,8.6376e-05,863.16,3.1228e-05,32.784,2.6865e-05,-6.8186e-05,-8.5771e-05,-846.3,2.2041
19459,19.944,5.0909,0.05,7.2936e-07,7.2885,5.6005e-07,4.208,2.7214e-12,7.5494e-06,-5.6006e-07,-4.2081,2.1889
19460,19.944,5.3636,0,8.8372e-05,883.11,3.1595e-05,29.254,2.7701e-05,-0.0072714,-8.7838e-05,-868.12,2.1885
19461,20.036,5.2727,0,8.6339e-05,862.79,3.1049e-05,30.764,2.6954e-05,-0.0057347,-8.5774e-05,-847,2.2039
19462,19.944,5.2727,0.05,7.2868e-07,7.2818,5.5954e-07,4.2041,2.9138e-12,8.7565e-06,-5.5954e-07,-4.2042,2.1886
19463,19.944,5.5455,0,8.8393e-05,883.32,3.1459e-05,27.514,2.7794e-05,-0.019172,-8.7893e-05,-869.25,2.1882
19464,20.036,5.4545,0,8.6327e-05,862.67,3.0883e-05,28.803,2.7048e-05,-0.0092021,-8.5801e-05,-847.91,2.2036
19465,19.944,5.4545,0.05,7.2551e-07,7.2501,5.571e-07,4.1858,2.817e-12,8.6363e-06,-5.571e-07,-4.1859,2.1884
19466,19.944,5.7273,0,8.8642e-05,885.81,3.1512e-05,27.169,2.7894e-05,-0.01709,-8.8148e-05,-871.92,2.1879
19467,20.036,5.6364,0,8.6366e-05,863.06,3.0754e-05,27.073,2.7147e-05,-0.030087,-8.5874e-05,-849.22,2.2033
19468,19.944,5.6364,0.05,6.8461e-07,6.8414,5.257e-07,3.9499,3.0519e-12,9.5104e-06,-5.257e-07,-3.9499,2.1881
19469,20.036,5.8182,0,8.6834e-05,867.75,3.0988e-05,28.05,2.7255e-05,-0.0003354,-8.6323e-05,-853.38,2.203
19470,19.944,5.8182,0.05,9.1284e-08,0.91221,7.0095e-08,0.52665,-2.0679e-12,-3.2619e-05,-7.0095e-08,-0.52668,2.1878
19471,19.944,5.9091,0,8.7604e-05,875.44,3.0448e-05,18.468,2.7989e-05,-0.0076486,-8.7276e-05,-866.06,2.1876
19472,20.128,0.27273,0,8.4528e-05,844.7,3.0203e-05,27.759,2.6506e-05,-0.018284,-8.4022e-05,-830.49,2.2184
19473,20.221,0.18182,0,8.2725e-05,826.68,2.9673e-05,28.556,2.5873e-05,-0.00075414,-8.2202e-05,-812.03,2.2335
19474,20.128,0.18182,0.05,1.003e-07,1.0023,7.7019e-08,0.5787,4.5352e-13,2.107e-05,-7.702e-08,-0.57869,2.2182
19475,20.128,0.090909,0,8.3469e-05,834.11,2.9111e-05,18.806,2.6607e-05,-0.007864,-8.3133e-05,-824.55,2.2181
19476,20.128,0.45455,0,8.4291e-05,842.33,3.017e-05,28.302,2.6401e-05,-0.020183,-8.3774e-05,-827.83,2.2187
19477,20.221,0.36364,0,8.2266e-05,822.09,2.9458e-05,27.768,2.5758e-05,-0.03186,-8.1759e-05,-807.87,2.2338
19478,20.128,0.36364,0.05,6.8314e-07,6.8266,5.2456e-07,3.9414,4.6856e-13,7.6068e-06,-5.2456e-07,-3.9414,2.2185
19479,20.128,0.63636,0,8.4286e-05,842.28,3.033e-05,30.26,2.6301e-05,-0.0074693,-8.373e-05,-826.74,2.2189
19480,20.221,0.54545,0,8.2242e-05,821.85,2.9611e-05,29.721,2.5654e-05,-0.0095593,-8.1696e-05,-806.59,2.234
19481,20.128,0.54545,0.05,7.2336e-07,7.2286,5.5545e-07,4.1735,8.3979e-13,1.1247e-05,-5.5545e-07,-4.1734,2.2188
19482,20.128,0.81818,0,8.4319e-05,842.61,3.0514e-05,32.363,2.6207e-05,-0.0027534,-8.3722e-05,-825.96,2.2192
19483,20.221,0.72727,0,8.2272e-05,822.15,2.9801e-05,31.915,2.5553e-05,-0.0058083,-8.1682e-05,-805.73,2.2343
19484,20.128,0.72727,0.05,7.2654e-07,7.2604,5.5789e-07,4.1918,7.6536e-13,9.8013e-06,-5.5789e-07,-4.1918,2.2191
19485,20.128,1,0,8.4374e-05,843.16,3.0708e-05,34.497,2.6117e-05,0.0022766,-8.3734e-05,-825.38,2.2194
19486,20.221,0.90909,0,8.2327e-05,822.71,3.0006e-05,34.169,2.5458e-05,0.00021676,-8.1693e-05,-805.09,2.2345
19487,20.128,0.90909,0.05,7.2726e-07,7.2676,5.5845e-07,4.196,6.8143e-13,7.2389e-06,-5.5845e-07,-4.1959,2.2193
19488,20.128,1.1818,0,8.4445e-05,843.86,3.0906e-05,36.61,2.6034e-05,0.0062504,-8.3762e-05,-824.96,2.2197
19489,20.221,1.0909,0,8.2401e-05,823.45,3.0216e-05,36.424,2.5369e-05,0.0045788,-8.1721e-05,-804.63,2.2348
19490,20.128,1.0909,0.05,7.2778e-07,7.2728,5.5885e-07,4.199,6.4503e-13,6.4562e-06,-5.5885e-07,-4.199,2.2195
19491,20.128,1.3636,0,8.4525e-05,844.67,3.1101e-05,38.659,2.5957e-05,0.0096358,-8.3801e-05,-824.67,2.2198
19492,20.221,1.2727,0,8.2488e-05,824.31,3.0426e-05,38.631,2.5286e-05,0.0083962,-8.1763e-05,-804.31,2.235
19493,20.128,1.2727,0.05,7.2825e-07,7.2775,5.5921e-07,4.2017,6.6116e-13,6.1618e-06,-5.5921e-07,-4.2017,2.2197
19494,20.128,1.5455,0,8.4611e-05,845.53,3.1289e-05,40.602,2.5887e-05,0.012434,-8.3847e-05,-824.49,2.22
19495,20.221,1.4545,0,8.2582e-05,825.25,3.0631e-05,40.747,2.521e-05,0.011527,-8.1813e-05,-804.12,2.2352
19496,20.128,1.4545,0.05,7.2868e-07,7.2817,5.5953e-07,4.2041,8.7051e-13,6.4811e-06,-5.5953e-07,-4.2041,2.2199
19497,20.128,1.7273,0,8.4697e-05,846.39,3.1466e-05,42.405,2.5825e-05,0.014746,-8.3896e-05,-824.38,2.2202
19498,20.221,1.6364,0,8.2678e-05,826.21,3.0826e-05,42.73,2.5141e-05,0.014123,-8.1868e-05,-804.01,2.2353
19499,20.128,1.6364,0.05,7.2906e-07,7.2856,5.5983e-07,4.2063,6.1673e-13,6.5614e-06,-5.5983e-07,-4.2063,2.2201
19500,20.128,1.9091,0,8.478e-05,847.22,3.1628e-05,44.033,2.5769e-05,0.016632,-8.3945e-05,-824.34,2.2203
19501,20.221,1.8182,0,8.2772e-05,827.15,3.1006e-05,44.544,2.508e-05,0.016247,-8.1924e-05,-803.97,2.2355
19502,20.128,1.8182,0.05,7.294e-07,7.289,5.6009e-07,4.2083,1.1065e-12,5.2219e-06,-5.6009e-07,-4.2083,2.2202
19503,20.128,2.0909,0,8.4856e-05,847.98,3.177e-05,45.458,2.5722e-05,0.018144,-8.3991e-05,-824.33,2.2204
19504,20.221,2,0,8.286e-05,828.03,3.1168e-05,46.159,2.5027e-05,0.017965,-8.1978e-05,-803.97,2.2356
19505,20.128,2,0.05,7.2969e-07,7.2919,5.6031e-07,4.21,1.1394e-12,6.3635e-06,-5.6031e-07,-4.21,2.2204
19506,20.128,2.2727,0,8.4923e-05,848.64,3.189e-05,46.657,2.5683e-05,0.019327,-8.4032e-05,-824.34,2.2205
19507,20.221,2.1818,0,8.2938e-05,828.81,3.1308e-05,47.545,2.4982e-05,0.019323,-8.2026e-05,-804,2.2357
19508,20.128,2.1818,0.05,7.2994e-07,7.2944,5.605e-07,4.2114,1.6188e-12,7.5241e-06,-5.6051e-07,-4.2114,2.2205
19509,20.128,2.4545,0,8.4977e-05,849.18,3.1986e-05,47.61,2.5653e-05,0.020215,-8.4066e-05,-824.37,2.2206
19510,20.221,2.3636,0,8.3004e-05,829.46,3.1423e-05,48.681,2.4946e-05,0.020368,-8.2068e-05,-804.04,2.2358
19511,20.128,2.3636,0.05,7.3014e-07,7.2964,5.6066e-07,4.2126,1.2023e-12,6.413e-06,-5.6066e-07,-4.2126,2.2206
19512,20.128,2.6364,0,8.5017e-05,849.58,3.2056e-05,48.301,2.5631e-05,0.020832,-8.4092e-05,-824.39,2.2207
19513,20.221,2.5455,0,8.3055e-05,829.98,3.1511e-05,49.549,2.4919e-05,0.021125,-8.2101e-05,-804.08,2.2358
19514,20.128,2.5455,0.05,7.3029e-07,7.2979,5.6077e-07,4.2134,7.9243e-13,7.6902e-06,-5.6077e-07,-4.2135,2.2206
19515,20.128,2.8182,0,8.5041e-05,849.83,3.2099e-05,48.72,2.5617e-05,0.021196,-8.4107e-05,-824.41,2.2207
19516,20.221,2.7273,0,8.309e-05,830.33,3.157e-05,50.135,2.4901e-05,0.021618,-8.2123e-05,-804.12,2.2359
19517,20.128,2.7273,0.05,7.304e-07,7.2989,5.6085e-07,4.214,8.3684e-13,5.6576e-06,-5.6085e-07,-4.214,2.2207
19518,20.128,3,0,8.5049e-05,849.91,3.2113e-05,48.861,2.5613e-05,0.021316,-8.4112e-05,-824.41,2.2207
19519,20.221,2.9091,0,8.3108e-05,830.51,3.16e-05,50.43,2.4892e-05,0.021862,-8.2135e-05,-804.13,2.2359
19520,20.128,2.9091,0.05,7.3045e-07,7.2994,5.6089e-07,4.2143,1.7942e-12,6.9672e-06,-5.6089e-07,-4.2143,2.2207
19521,20.128,3.1818,0,8.5041e-05,849.83,3.2099e-05,48.72,2.5617e-05,0.021198,-8.4107e-05,-824.41,2.2207
19522,20.221,3.0909,0,8.3108e-05,830.51,3.16e-05,50.43,2.4892e-05,0.021861,-8.2135e-05,-804.13,2.2359
19523,20.128,3.0909,0.05,7.3045e-07,7.2994,5.6089e-07,4.2143,1.8437e-12,7.8151e-06,-5.6089e-07,-4.2143,2.2207
19524,20.128,3.3636,0,8.5017e-05,849.58,3.2056e-05,48.301,2.5631e-05,0.020834,-8.4092e-05,-824.39,2.2207
19525,20.221,3.2727,0,8.309e-05,830.33,3.157e-05,50.135,2.4901e-05,0.02162,-8.2123e-05,-804.12,2.2359
19526,20.128,3.2727,0.05,7.304e-07,7.2989,5.6085e-07,4.214,1.8922e-12,8.1828e-06,-5.6085e-07,-4.214,2.2207
19527,20.128,3.5455,0,8.4977e-05,849.18,3.1986e-05,47.61,2.5653e-05,0.020215,-8.4066e-05,-824.37,2.2206
19528,20.221,3.4545,0,8.3055e-05,829.98,3.1511e-05,49.549,2.4919e-05,0.021126,-8.2101e-05,-804.08,2.2358
19529,20.128,3.4545,0.05,7.3029e-07,7.2979,5.6077e-07,4.2134,1.9377e-12,8.5229e-06,-5.6078e-07,-4.2135,2.2206
19530,20.128,3.7273,0,8.4923e-05,848.64,3.189e-05,46.657,2.5683e-05,0.019328,-8.4032e-05,-824.34,2.2205
19531,20.221,3.6364,0,8.3004e-05,829.46,3.1423e-05,48.681,2.4946e-05,0.020367,-8.2068e-05,-804.04,2.2358
19532,20.128,3.6364,0.05,7.3014e-07,7.2964,5.6066e-07,4.2125,1.9814e-12,9.7925e-06,-5.6066e-07,-4.2126,2.2206
19533,20.128,3.9091,0,8.4856e-05,847.98,3.177e-05,45.458,2.5722e-05,0.018144,-8.3991e-05,-824.33,2.2204
19534,20.221,3.8182,0,8.2938e-05,828.81,3.1308e-05,47.545,2.4982e-05,0.019324,-8.2026e-05,-804,2.2357
19535,20.128,3.8182,0.05,7.2994e-07,7.2944,5.605e-07,4.2114,2.4769e-12,1.1073e-05,-5.6051e-07,-4.2114,2.2205
19536,20.128,4.0909,0,8.478e-05,847.22,3.1628e-05,44.033,2.5769e-05,0.01663,-8.3945e-05,-824.34,2.2203
19537,20.221,4,0,8.286e-05,828.03,3.1168e-05,46.159,2.5027e-05,0.017964,-8.1978e-05,-803.97,2.2356
19538,20.128,4,0.05,7.2969e-07,7.2919,5.6031e-07,4.21,2.5045e-12,1.1243e-05,-5.6032e-07,-4.21,2.2204
19539,20.128,4.2727,0,8.4697e-05,846.39,3.1466e-05,42.405,2.5825e-05,0.014745,-8.3896e-05,-824.38,2.2202
19540,20.221,4.1818,0,8.2772e-05,827.15,3.1006e-05,44.544,2.508e-05,0.016247,-8.1924e-05,-803.97,2.2355
19541,20.128,4.1818,0.05,7.294e-07,7.289,5.6009e-07,4.2083,2.5256e-12,9.0837e-06,-5.6009e-07,-4.2083,2.2202
19542,20.128,4.4545,0,8.4611e-05,845.53,3.129e-05,40.602,2.5887e-05,0.012433,-8.3847e-05,-824.49,2.22
19543,20.221,4.3636,0,8.2678e-05,826.21,3.0826e-05,42.73,2.5141e-05,0.014123,-8.1868e-05,-804.01,2.2353
19544,20.128,4.3636,0.05,7.2906e-07,7.2856,5.5983e-07,4.2063,2.535e-12,9.6653e-06,-5.5983e-07,-4.2063,2.2201
19545,20.128,4.6364,0,8.4525e-05,844.67,3.1101e-05,38.659,2.5957e-05,0.0096346,-8.3801e-05,-824.67,2.2198
19546,20.221,4.5455,0,8.2582e-05,825.25,3.0631e-05,40.747,2.521e-05,0.011526,-8.1813e-05,-804.12,2.2352
19547,20.128,4.5455,0.05,7.2868e-07,7.2817,5.5953e-07,4.2041,2.7629e-12,8.7711e-06,-5.5954e-07,-4.2041,2.2199
19548,20.128,4.8182,0,8.4445e-05,843.86,3.0906e-05,36.61,2.6034e-05,0.0062506,-8.3762e-05,-824.96,2.2197
19549,20.221,4.7273,0,8.2488e-05,824.31,3.0426e-05,38.631,2.5286e-05,0.0083952,-8.1763e-05,-804.31,2.235
19550,20.128,4.7273,0.05,7.2825e-07,7.2775,5.5921e-07,4.2016,2.7375e-12,9.6405e-06,-5.5921e-07,-4.2017,2.2197
19551,20.128,5,0,8.4374e-05,843.16,3.0708e-05,34.497,2.6117e-05,0.0022749,-8.3734e-05,-825.38,2.2194
19552,20.221,4.9091,0,8.2401e-05,823.45,3.0216e-05,36.424,2.5369e-05,0.0045796,-8.1721e-05,-804.63,2.2348
19553,20.128,4.9091,0.05,7.2778e-07,7.2728,5.5884e-07,4.1989,2.7261e-12,9.5411e-06,-5.5885e-07,-4.199,2.2195
19554,20.128,5.1818,0,8.4319e-05,842.61,3.0514e-05,32.363,2.6207e-05,-0.0027567,-8.3722e-05,-825.96,2.2192
19555,20.221,5.0909,0,8.2327e-05,822.71,3.0006e-05,34.169,2.5458e-05,0.00021388,-8.1693e-05,-805.09,2.2345
19556,20.128,5.0909,0.05,7.2726e-07,7.2676,5.5844e-07,4.1959,2.5058e-12,7.3455e-06,-5.5845e-07,-4.196,2.2193
19557,20.128,5.3636,0,8.4286e-05,842.28,3.033e-05,30.26,2.6301e-05,-0.0074718,-8.373e-05,-826.74,2.2189
19558,20.221,5.2727,0,8.2272e-05,822.15,2.9801e-05,31.915,2.5553e-05,-0.0058096,-8.1682e-05,-805.73,2.2343
19559,20.128,5.2727,0.05,7.2654e-07,7.2604,5.5789e-07,4.1918,2.6444e-12,8.3291e-06,-5.5789e-07,-4.1918,2.2191
19560,20.128,5.5455,0,8.4291e-05,842.33,3.017e-05,28.302,2.6401e-05,-0.020184,-8.3774e-05,-827.83,2.2187
19561,20.221,5.4545,0,8.2242e-05,821.85,2.9611e-05,29.721,2.5654e-05,-0.0095608,-8.1696e-05,-806.59,2.234
19562,20.128,5.4545,0.05,7.2336e-07,7.2286,5.5545e-07,4.1734,2.7898e-12,8.0346e-06,-5.5545e-07,-4.1735,2.2188
19563,20.128,5.7273,0,8.4528e-05,844.7,3.0203e-05,27.759,2.6506e-05,-0.018283,-8.4022e-05,-830.49,2.2184
19564,20.221,5.6364,0,8.2266e-05,822.09,2.9458e-05,27.768,2.5758e-05,-0.031858,-8.1759e-05,-807.87,2.2338
19565,20.128,5.6364,0.05,6.8314e-07,6.8266,5.2456e-07,3.9413,2.9981e-12,9.6139e-06,-5.2457e-07,-3.9414,2.2185
19566,20.221,5.8182,0,8.2725e-05,826.68,2.9673e-05,28.556,2.5873e-05,-0.0007524,-8.2202e-05,-812.03,2.2335
19567,20.128,5.8182,0.05,1.003e-07,1.0023,7.7019e-08,0.57868,-1.4725e-12,-2.7127e-05,-7.702e-08,-0.57871,2.2182
19568,20.128,5.9091,0,8.3469e-05,834.11,2.9111e-05,18.806,2.6607e-05,-0.0078635,-8.3133e-05,-824.55,2.2181
19569,20.313,0.27273,0,8.0431e-05,803.76,2.8901e-05,28.364,2.5123e-05,-0.019625,-7.9912e-05,-789.21,2.2489
19570,20.405,0.18182,0,7.8631e-05,785.77,2.8364e-05,29.066,2.4495e-05,-0.0012793,-7.8097e-05,-770.84,2.264
19571,20.313,0.18182,0.05,1.1021e-07,1.1013,8.4625e-08,0.63584,9.1044e-13,1.9974e-06,-8.4624e-08,-0.63583,2.2487
19572,20.313,0.090909,0,7.9349e-05,792.94,2.778e-05,19.148,2.523e-05,-0.0080799,-7.9006e-05,-783.2,2.2486
19573,20.313,0.45455,0,8.0207e-05,801.52,2.889e-05,29.125,2.5011e-05,-0.021284,-7.9673e-05,-786.57,2.2492
19574,20.405,0.36364,0,7.8183e-05,781.29,2.8169e-05,28.487,2.4373e-05,-0.033788,-7.7659e-05,-766.67,2.2643
19575,20.313,0.36364,0.05,6.818e-07,6.8133,5.2354e-07,3.9337,3.0426e-13,6.9085e-06,-5.2354e-07,-3.9336,2.249
19576,20.313,0.63636,0,8.022e-05,801.64,2.9075e-05,31.322,2.4905e-05,-0.0076743,-7.9641e-05,-785.53,2.2494
19577,20.405,0.54545,0,7.8176e-05,781.22,2.8348e-05,30.687,2.4262e-05,-0.0099301,-7.7609e-05,-765.43,2.2646
19578,20.313,0.54545,0.05,7.2132e-07,7.2082,5.5388e-07,4.1617,8.1259e-13,8.9314e-06,-5.5388e-07,-4.1617,2.2493
19579,20.313,0.81818,0,8.0272e-05,802.17,2.9286e-05,33.67,2.4804e-05,-0.0026249,-7.9646e-05,-784.8,2.2497
19580,20.405,0.72727,0,7.8226e-05,781.72,2.8566e-05,33.136,2.4155e-05,-0.0058603,-7.7609e-05,-764.62,2.2648
19581,20.313,0.72727,0.05,7.2451e-07,7.2401,5.5633e-07,4.1801,9.1552e-13,1.0586e-05,-5.5633e-07,-4.1801,2.2495
19582,20.313,1,0,8.0347e-05,802.92,2.9506e-05,36.047,2.4709e-05,0.0027082,-7.9673e-05,-784.29,2.2499
19583,20.405,0.90909,0,7.8302e-05,782.48,2.8798e-05,35.647,2.4054e-05,0.00055599,-7.7635e-05,-764.05,2.265
19584,20.313,0.90909,0.05,7.2528e-07,7.2478,5.5693e-07,4.1845,6.8536e-13,7.3345e-06,-5.5693e-07,-4.1845,2.2498
19585,20.313,1.1818,0,8.0438e-05,803.82,2.973e-05,38.398,2.462e-05,0.0068908,-7.9716e-05,-783.93,2.2501
19586,20.405,1.0909,0,7.8397e-05,783.43,2.9036e-05,38.155,2.3959e-05,0.0051682,-7.7678e-05,-763.66,2.2653
19587,20.313,1.0909,0.05,7.2586e-07,7.2536,5.5737e-07,4.1879,6.5152e-13,4.6919e-06,-5.5737e-07,-4.1879,2.25
19588,20.313,1.3636,0,8.0538e-05,804.83,2.995e-05,40.675,2.4538e-05,0.010434,-7.9769e-05,-783.71,2.2503
19589,20.405,1.2727,0,7.8505e-05,784.51,2.9273e-05,40.607,2.387e-05,0.0091753,-7.7735e-05,-763.41,2.2655
19590,20.313,1.2727,0.05,7.2639e-07,7.2588,5.5777e-07,4.1909,6.6057e-13,3.9327e-06,-5.5777e-07,-4.1909,2.2502
19591,20.313,1.5455,0,8.0643e-05,805.87,3.0162e-05,42.832,2.4464e-05,0.013346,-7.9829e-05,-783.6,2.2505
19592,20.405,1.4545,0,7.862e-05,785.65,2.9504e-05,42.955,2.3789e-05,0.012444,-7.7801e-05,-763.29,2.2656
19593,20.313,1.4545,0.05,7.2686e-07,7.2636,5.5814e-07,4.1936,6.2558e-13,4.4876e-06,-5.5814e-07,-4.1937,2.2504
19594,20.313,1.7273,0,8.0747e-05,806.91,3.0361e-05,44.829,2.4396e-05,0.015741,-7.9891e-05,-783.56,2.2506
19595,20.405,1.6364,0,7.8735e-05,786.81,2.9723e-05,45.152,2.3715e-05,0.01514,-7.7869e-05,-763.25,2.2658
19596,20.313,1.6364,0.05,7.273e-07,7.2679,5.5847e-07,4.1961,8.1922e-13,5.0228e-06,-5.5847e-07,-4.1962,2.2505
19597,20.313,1.9091,0,8.0846e-05,807.9,3.0541e-05,46.632,2.4337e-05,0.017686,-7.9951e-05,-783.57,2.2508
19598,20.405,1.8182,0,7.8847e-05,787.92,2.9924e-05,47.16,2.365e-05,0.017337,-7.7938e-05,-763.27,2.2659
19599,20.313,1.8182,0.05,7.2768e-07,7.2718,5.5877e-07,4.1984,1.0978e-12,3.7316e-06,-5.5877e-07,-4.1984,2.2507
19600,20.313,2.0909,0,8.0936e-05,808.8,3.07e-05,48.208,2.4287e-05,0.019241,-8.0008e-05,-783.61,2.2509
19601,20.405,2,0,7.895e-05,788.95,3.0105e-05,48.944,2.3593e-05,0.019106,-7.8003e-05,-763.33,2.2661
19602,20.313,2,0.05,7.2801e-07,7.2751,5.5902e-07,4.2003,1.1249e-12,4.8376e-06,-5.5903e-07,-4.2003,2.2508
19603,20.313,2.2727,0,8.1014e-05,809.58,3.0835e-05,49.533,2.4245e-05,0.020456,-8.0057e-05,-783.67,2.251
19604,20.405,2.1818,0,7.9041e-05,789.87,3.026e-05,50.475,2.3545e-05,0.020502,-7.8061e-05,-763.41,2.2662
19605,20.313,2.1818,0.05,7.283e-07,7.2779,5.5924e-07,4.2019,1.6088e-12,5.118e-06,-5.5924e-07,-4.2019,2.2509
19606,20.313,2.4545,0,8.1077e-05,810.21,3.0942e-05,50.585,2.4212e-05,0.021365,-8.0098e-05,-783.73,2.251
19607,20.405,2.3636,0,7.9118e-05,790.64,3.0388e-05,51.728,2.3507e-05,0.021571,-7.8111e-05,-763.49,2.2662
19608,20.313,2.3636,0.05,7.2853e-07,7.2802,5.5942e-07,4.2032,1.652e-12,5.4181e-06,-5.5942e-07,-4.2033,2.251
19609,20.313,2.6364,0,8.1124e-05,810.68,3.102e-05,51.348,2.4189e-05,0.021995,-8.0128e-05,-783.77,2.2511
19610,20.405,2.5455,0,7.9178e-05,791.23,3.0486e-05,52.685,2.3477e-05,0.022346,-7.815e-05,-763.56,2.2663
19611,20.313,2.5455,0.05,7.287e-07,7.282,5.5955e-07,4.2042,1.2437e-12,5.2717e-06,-5.5955e-07,-4.2043,2.251
19612,20.313,2.8182,0,8.1152e-05,810.96,3.1067e-05,51.81,2.4175e-05,0.022366,-8.0146e-05,-783.81,2.2511
19613,20.405,2.7273,0,7.9219e-05,791.64,3.0553e-05,53.331,2.3458e-05,0.022854,-7.8176e-05,-763.62,2.2663
19614,20.313,2.7273,0.05,7.2882e-07,7.2831,5.5964e-07,4.2049,1.2883e-12,4.6756e-06,-5.5964e-07,-4.2049,2.2511
19615,20.313,3,0,8.1162e-05,811.06,3.1083e-05,51.965,2.417e-05,0.022489,-8.0153e-05,-783.82,2.2511
19616,20.405,2.9091,0,7.9239e-05,791.85,3.0586e-05,53.656,2.3448e-05,0.023098,-7.819e-05,-763.64,2.2664
19617,20.313,2.9091,0.05,7.2888e-07,7.2837,5.5969e-07,4.2052,1.3387e-12,5.5295e-06,-5.5969e-07,-4.2053,2.2511
19618,20.313,3.1818,0,8.1152e-05,810.96,3.1067e-05,51.81,2.4175e-05,0.022366,-8.0146e-05,-783.81,2.2511
19619,20.405,3.0909,0,7.9239e-05,791.85,3.0586e-05,53.656,2.3448e-05,0.023097,-7.819e-05,-763.64,2.2664
19620,20.313,3.0909,0.05,7.2888e-07,7.2837,5.5968e-07,4.2052,1.39e-12,4.9615e-06,-5.5969e-07,-4.2053,2.2511
19621,20.313,3.3636,0,8.1124e-05,810.68,3.102e-05,51.348,2.4189e-05,0.021995,-8.0128e-05,-783.77,2.2511
19622,20.405,3.2727,0,7.9219e-05,791.64,3.0553e-05,53.331,2.3458e-05,0.022854,-7.8176e-05,-763.62,2.2663
19623,20.313,3.2727,0.05,7.2882e-07,7.2831,5.5964e-07,4.2049,1.8947e-12,6.2951e-06,-5.5964e-07,-4.2049,2.2511
19624,20.313,3.5455,0,8.1077e-05,810.21,3.0942e-05,50.585,2.4212e-05,0.021365,-8.0098e-05,-783.73,2.251
19625,20.405,3.4545,0,7.9178e-05,791.23,3.0486e-05,52.685,2.3477e-05,0.022346,-7.815e-05,-763.56,2.2663
19626,20.313,3.4545,0.05,7.287e-07,7.282,5.5955e-07,4.2042,1.9408e-12,6.6259e-06,-5.5955e-07,-4.2043,2.251
19627,20.313,3.7273,0,8.1014e-05,809.58,3.0835e-05,49.533,2.4245e-05,0.020455,-8.0057e-05,-783.67,2.251
19628,20.405,3.6364,0,7.9118e-05,790.64,3.0388e-05,51.728,2.3507e-05,0.021572,-7.8111e-05,-763.49,2.2662
19629,20.313,3.6364,0.05,7.2853e-07,7.2802,5.5942e-07,4.2032,2.4408e-12,7.9381e-06,-5.5942e-07,-4.2033,2.251
19630,20.313,3.9091,0,8.0936e-05,808.8,3.07e-05,48.208,2.4287e-05,0.019241,-8.0008e-05,-783.61,2.2509
19631,20.405,3.8182,0,7.9041e-05,789.87,3.026e-05,50.475,2.3545e-05,0.020502,-7.8061e-05,-763.41,2.2662
19632,20.313,3.8182,0.05,7.283e-07,7.278,5.5924e-07,4.2019,2.4847e-12,9.114e-06,-5.5924e-07,-4.202,2.2509
19633,20.313,4.0909,0,8.0846e-05,807.9,3.0541e-05,46.632,2.4337e-05,0.017686,-7.9951e-05,-783.57,2.2508
19634,20.405,4,0,7.895e-05,788.95,3.0105e-05,48.944,2.3593e-05,0.019105,-7.8003e-05,-763.33,2.2661
19635,20.313,4,0.05,7.2801e-07,7.2751,5.5902e-07,4.2003,2.2839e-12,8.9469e-06,-5.5903e-07,-4.2003,2.2508
19636,20.313,4.2727,0,8.0747e-05,806.91,3.0361e-05,44.829,2.4396e-05,0.015742,-7.9891e-05,-783.56,2.2506
19637,20.405,4.1818,0,7.8847e-05,787.92,2.9924e-05,47.16,2.365e-05,0.017337,-7.7938e-05,-763.27,2.2659
19638,20.313,4.1818,0.05,7.2768e-07,7.2718,5.5877e-07,4.1983,2.2939e-12,7.1581e-06,-5.5877e-07,-4.1984,2.2507
19639,20.313,4.4545,0,8.0643e-05,805.87,3.0162e-05,42.832,2.4464e-05,0.013347,-7.9829e-05,-783.6,2.2505
19640,20.405,4.3636,0,7.8735e-05,786.81,2.9723e-05,45.152,2.3715e-05,0.015141,-7.7869e-05,-763.25,2.2658
19641,20.313,4.3636,0.05,7.273e-07,7.2679,5.5847e-07,4.1961,2.5511e-12,9.6487e-06,-5.5847e-07,-4.1962,2.2505
19642,20.313,4.6364,0,8.0538e-05,804.83,2.995e-05,40.675,2.4538e-05,0.010433,-7.9769e-05,-783.71,2.2503
19643,20.405,4.5455,0,7.862e-05,785.65,2.9504e-05,42.955,2.3789e-05,0.012445,-7.7801e-05,-763.29,2.2656
19644,20.313,4.5455,0.05,7.2686e-07,7.2636,5.5814e-07,4.1936,2.79e-12,7.8851e-06,-5.5814e-07,-4.1937,2.2504
19645,20.313,4.8182,0,8.0438e-05,803.82,2.973e-05,38.398,2.462e-05,0.0068904,-7.9716e-05,-783.93,2.2501
19646,20.405,4.7273,0,7.8505e-05,784.51,2.9273e-05,40.608,2.387e-05,0.0091753,-7.7735e-05,-763.41,2.2655
19647,20.313,4.7273,0.05,7.2639e-07,7.2588,5.5777e-07,4.1909,2.7578e-12,8.767e-06,-5.5778e-07,-4.1909,2.2502
19648,20.313,5,0,8.0347e-05,802.92,2.9506e-05,36.047,2.4709e-05,0.0027078,-7.9673e-05,-784.29,2.2499
19649,20.405,4.9091,0,7.8397e-05,783.43,2.9036e-05,38.155,2.3959e-05,0.0051677,-7.7678e-05,-763.66,2.2653
19650,20.313,4.9091,0.05,7.2586e-07,7.2536,5.5737e-07,4.1879,2.7681e-12,8.0213e-06,-5.5737e-07,-4.1879,2.25
19651,20.313,5.1818,0,8.0272e-05,802.17,2.9286e-05,33.67,2.4804e-05,-0.0026257,-7.9646e-05,-784.8,2.2497
19652,20.405,5.0909,0,7.8302e-05,782.48,2.8798e-05,35.647,2.4054e-05,0.00055402,-7.7635e-05,-764.05,2.265
19653,20.313,5.0909,0.05,7.2528e-07,7.2478,5.5693e-07,4.1845,2.923e-12,5.5462e-06,-5.5693e-07,-4.1846,2.2498
19654,20.313,5.3636,0,8.022e-05,801.64,2.9075e-05,31.322,2.4905e-05,-0.0076745,-7.9641e-05,-785.53,2.2494
19655,20.405,5.2727,0,7.8226e-05,781.72,2.8566e-05,33.136,2.4155e-05,-0.0058625,-7.7609e-05,-764.62,2.2648
19656,20.313,5.2727,0.05,7.2451e-07,7.2401,5.5633e-07,4.18,2.6633e-12,7.3799e-06,-5.5633e-07,-4.1801,2.2495
19657,20.313,5.5455,0,8.0207e-05,801.52,2.889e-05,29.125,2.5011e-05,-0.021282,-7.9673e-05,-786.57,2.2492
19658,20.405,5.4545,0,7.8176e-05,781.22,2.8348e-05,30.687,2.4262e-05,-0.0099304,-7.7609e-05,-765.43,2.2646
19659,20.313,5.4545,0.05,7.2132e-07,7.2082,5.5388e-07,4.1616,2.7658e-12,6.6192e-06,-5.5389e-07,-4.1617,2.2493
19660,20.313,5.7273,0,8.0431e-05,803.76,2.8901e-05,28.364,2.5123e-05,-0.019622,-7.9912e-05,-789.21,2.2489
19661,20.405,5.6364,0,7.8183e-05,781.29,2.8169e-05,28.487,2.4373e-05,-0.033785,-7.7659e-05,-766.67,2.2643
19662,20.313,5.6364,0.05,6.818e-07,6.8133,5.2353e-07,3.9336,2.6726e-12,7.8573e-06,-5.2354e-07,-3.9337,2.249
19663,20.405,5.8182,0,7.8631e-05,785.77,2.8364e-05,29.066,2.4495e-05,-0.001276,-7.8097e-05,-770.84,2.264
19664,20.313,5.8182,0.05,1.1021e-07,1.1013,8.4625e-08,0.63582,-1.8253e-12,-3.0458e-05,-8.4625e-08,-0.63585,2.2487
19665,20.313,5.9091,0,7.9349e-05,792.94,2.778e-05,19.148,2.523e-05,-0.0080802,-7.9006e-05,-783.2,2.2486
19666,20.497,0.27273,0,7.635e-05,762.98,2.7605e-05,28.982,2.3745e-05,-0.021114,-7.5816e-05,-748.08,2.2794
19667,20.589,0.18182,0,7.4552e-05,745.01,2.7059e-05,29.576,2.3122e-05,-0.0019298,-7.4005e-05,-729.78,2.2946
19668,20.497,0.18182,0.05,1.2105e-07,1.2096,9.295e-08,0.69839,2.9245e-13,7.247e-06,-9.2949e-08,-0.69838,2.2793
19669,20.497,0.090909,0,7.5245e-05,751.93,2.6454e-05,19.493,2.3858e-05,-0.0082756,-7.4895e-05,-742,2.2791
19670,20.497,0.45455,0,7.6142e-05,760.89,2.7619e-05,29.985,2.3625e-05,-0.022456,-7.5588e-05,-745.47,2.2797
19671,20.589,0.36364,0,7.4116e-05,740.65,2.6888e-05,29.233,2.2993e-05,-0.035875,-7.3576e-05,-725.62,2.2949
19672,20.497,0.36364,0.05,6.8061e-07,6.8014,5.2262e-07,3.9268,7.4296e-13,6.4279e-06,-5.2263e-07,-3.9268,2.2796
19673,20.497,0.63636,0,7.6174e-05,761.21,2.7831e-05,32.444,2.3512e-05,-0.0078567,-7.557e-05,-744.47,2.28
19674,20.589,0.54545,0,7.4129e-05,740.78,2.7095e-05,31.703,2.2875e-05,-0.010304,-7.3539e-05,-724.43,2.2951
19675,20.497,0.54545,0.05,7.1939e-07,7.1889,5.524e-07,4.1505,4.6285e-13,6.6743e-06,-5.524e-07,-4.1505,2.2798
19676,20.497,0.81818,0,7.6247e-05,761.95,2.8071e-05,35.06,2.3405e-05,-0.0024381,-7.559e-05,-743.81,2.2802
19677,20.589,0.72727,0,7.42e-05,741.49,2.7344e-05,34.431,2.276e-05,-0.0058744,-7.3555e-05,-723.68,2.2954
19678,20.497,0.72727,0.05,7.2259e-07,7.2209,5.5486e-07,4.169,7.4421e-13,8.4164e-06,-5.5486e-07,-4.169,2.2801
19679,20.497,1,0,7.6345e-05,762.92,2.8321e-05,37.705,2.3303e-05,0.003227,-7.5633e-05,-743.37,2.2804
19680,20.589,0.90909,0,7.43e-05,742.49,2.7606e-05,37.225,2.2652e-05,0.00097328,-7.3597e-05,-723.17,2.2956
19681,20.497,0.90909,0.05,7.2343e-07,7.2293,5.555e-07,4.1739,6.7481e-13,8.9834e-06,-5.5551e-07,-4.1739,2.2803
19682,20.497,1.1818,0,7.6458e-05,764.05,2.8573e-05,40.317,2.3208e-05,0.0076358,-7.5692e-05,-743.09,2.2806
19683,20.589,1.0909,0,7.4419e-05,743.68,2.7875e-05,40.011,2.255e-05,0.0058578,-7.3657e-05,-722.86,2.2958
19684,20.497,1.0909,0.05,7.2408e-07,7.2358,5.56e-07,4.1776,8.3832e-13,6.4035e-06,-5.56e-07,-4.1776,2.2805
19685,20.497,1.3636,0,7.658e-05,765.27,2.8821e-05,42.842,2.312e-05,0.011345,-7.5761e-05,-742.94,2.2808
19686,20.589,1.2727,0,7.455e-05,744.99,2.8141e-05,42.732,2.2455e-05,0.01007,-7.3731e-05,-722.7,2.296
19687,20.497,1.2727,0.05,7.2467e-07,7.2417,5.5645e-07,4.181,8.5024e-13,4.9165e-06,-5.5645e-07,-4.181,2.2807
19688,20.497,1.5455,0,7.6705e-05,766.53,2.9059e-05,45.232,2.304e-05,0.014379,-7.5836e-05,-742.9,2.281
19689,20.589,1.4545,0,7.4687e-05,746.36,2.84e-05,45.331,2.2368e-05,0.013486,-7.3813e-05,-722.65,2.2962
19690,20.497,1.4545,0.05,7.2521e-07,7.247,5.5687e-07,4.1841,8.3855e-13,4.5083e-06,-5.5687e-07,-4.1841,2.2809
19691,20.497,1.7273,0,7.6829e-05,767.76,2.928e-05,47.442,2.2969e-05,0.016862,-7.5911e-05,-742.93,2.2811
19692,20.589,1.6364,0,7.4824e-05,747.72,2.8644e-05,47.762,2.229e-05,0.016288,-7.3897e-05,-722.69,2.2963
19693,20.497,1.6364,0.05,7.257e-07,7.2519,5.5724e-07,4.1869,8.3315e-13,4.9638e-06,-5.5725e-07,-4.1869,2.281
19694,20.497,1.9091,0,7.6945e-05,768.92,2.9482e-05,49.434,2.2905e-05,0.01887,-7.5985e-05,-743,2.2812
19695,20.589,1.8182,0,7.4955e-05,749.03,2.8869e-05,49.98,2.222e-05,0.018561,-7.3979e-05,-722.78,2.2964
19696,20.497,1.8182,0.05,7.2613e-07,7.2563,5.5758e-07,4.1894,8.6461e-13,4.5744e-06,-5.5758e-07,-4.1895,2.2812
19697,20.497,2.0909,0,7.705e-05,769.97,2.9659e-05,51.174,2.2851e-05,0.020471,-7.6052e-05,-743.1,2.2814
19698,20.589,2,0,7.5075e-05,750.23,2.907e-05,51.948,2.2159e-05,0.020384,-7.4056e-05,-722.9,2.2966
19699,20.497,2,0.05,7.2652e-07,7.2601,5.5787e-07,4.1916,1.1098e-12,4.788e-06,-5.5787e-07,-4.1916,2.2813
19700,20.497,2.2727,0,7.7141e-05,770.88,2.9809e-05,52.635,2.2807e-05,0.021715,-7.611e-05,-743.2,2.2814
19701,20.589,2.1818,0,7.5181e-05,751.29,2.9243e-05,53.635,2.2107e-05,0.021817,-7.4125e-05,-723.03,2.2967
19702,20.497,2.1818,0.05,7.2684e-07,7.2634,5.5812e-07,4.1935,1.3745e-12,4.0425e-06,-5.5812e-07,-4.1935,2.2814
19703,20.497,2.4545,0,7.7214e-05,771.61,2.9928e-05,53.794,2.2772e-05,0.022645,-7.6158e-05,-743.3,2.2815
19704,20.589,2.3636,0,7.527e-05,752.18,2.9385e-05,55.015,2.2066e-05,0.022913,-7.4182e-05,-723.15,2.2967
19705,20.497,2.3636,0.05,7.271e-07,7.266,5.5832e-07,4.195,1.413e-12,4.8519e-06,-5.5833e-07,-4.195,2.2815
19706,20.497,2.6364,0,7.7268e-05,772.15,3.0015e-05,54.634,2.2746e-05,0.023289,-7.6193e-05,-743.37,2.2816
19707,20.589,2.5455,0,7.5338e-05,752.87,2.9494e-05,56.068,2.2035e-05,0.023705,-7.4228e-05,-723.25,2.2968
19708,20.497,2.5455,0.05,7.273e-07,7.268,5.5848e-07,4.1962,1.4611e-12,6.1673e-06,-5.5848e-07,-4.1962,2.2815
19709,20.497,2.8182,0,7.7301e-05,772.48,3.0067e-05,55.143,2.2731e-05,0.023668,-7.6215e-05,-743.42,2.2816
19710,20.589,2.7273,0,7.5385e-05,753.33,2.9567e-05,56.777,2.2014e-05,0.024218,-7.4258e-05,-723.33,2.2968
19711,20.497,2.7273,0.05,7.2744e-07,7.2694,5.5858e-07,4.197,1.5117e-12,4.1721e-06,-5.5858e-07,-4.197,2.2816
19712,20.497,3,0,7.7312e-05,772.59,3.0085e-05,55.313,2.2726e-05,0.023793,-7.6222e-05,-743.44,2.2816
19713,20.589,2.9091,0,7.5409e-05,753.57,2.9604e-05,57.135,2.2003e-05,0.024472,-7.4274e-05,-723.37,2.2969
19714,20.497,2.9091,0.05,7.2751e-07,7.27,5.5863e-07,4.1973,1.7921e-12,6.4734e-06,-5.5864e-07,-4.1974,2.2816
19715,20.497,3.1818,0,7.7301e-05,772.48,3.0067e-05,55.143,2.2731e-05,0.023668,-7.6215e-05,-743.42,2.2816
19716,20.589,3.0909,0,7.5409e-05,753.57,2.9604e-05,57.135,2.2003e-05,0.024472,-7.4274e-05,-723.37,2.2969
19717,20.497,3.0909,0.05,7.2751e-07,7.27,5.5863e-07,4.1973,1.6186e-12,5.9253e-06,-5.5864e-07,-4.1974,2.2816
19718,20.497,3.3636,0,7.7268e-05,772.15,3.0015e-05,54.634,2.2746e-05,0.02329,-7.6193e-05,-743.37,2.2816
19719,20.589,3.2727,0,7.5385e-05,753.33,2.9567e-05,56.777,2.2014e-05,0.02422,-7.4258e-05,-723.33,2.2968
19720,20.497,3.2727,0.05,7.2744e-07,7.2694,5.5858e-07,4.197,1.8992e-12,6.8012e-06,-5.5858e-07,-4.197,2.2816
19721,20.497,3.5455,0,7.7214e-05,771.61,2.9928e-05,53.794,2.2772e-05,0.022646,-7.6158e-05,-743.3,2.2815
19722,20.589,3.4545,0,7.5338e-05,752.87,2.9494e-05,56.068,2.2035e-05,0.023705,-7.4228e-05,-723.25,2.2968
19723,20.497,3.4545,0.05,7.273e-07,7.268,5.5848e-07,4.1962,1.9491e-12,7.1669e-06,-5.5848e-07,-4.1962,2.2815
19724,20.497,3.7273,0,7.7141e-05,770.88,2.9809e-05,52.635,2.2807e-05,0.021716,-7.611e-05,-743.2,2.2814
19725,20.589,3.6364,0,7.527e-05,752.18,2.9385e-05,55.015,2.2066e-05,0.022913,-7.4182e-05,-723.15,2.2967
19726,20.497,3.6364,0.05,7.271e-07,7.266,5.5832e-07,4.195,2.2193e-12,7.9851e-06,-5.5833e-07,-4.1951,2.2815
19727,20.497,3.9091,0,7.705e-05,769.97,2.9659e-05,51.174,2.2851e-05,0.02047,-7.6052e-05,-743.1,2.2814
19728,20.589,3.8182,0,7.5181e-05,751.29,2.9243e-05,53.635,2.2107e-05,0.021819,-7.4125e-05,-723.03,2.2967
19729,20.497,3.8182,0.05,7.2684e-07,7.2634,5.5812e-07,4.1935,2.0322e-12,1.0215e-05,-5.5812e-07,-4.1935,2.2814
19730,20.497,4.0909,0,7.6945e-05,768.92,2.9482e-05,49.434,2.2905e-05,0.018869,-7.5985e-05,-743,2.2812
19731,20.589,4,0,7.5075e-05,750.23,2.907e-05,51.948,2.2159e-05,0.020383,-7.4056e-05,-722.9,2.2966
19732,20.497,4,0.05,7.2652e-07,7.2601,5.5787e-07,4.1916,2.5284e-12,9.5215e-06,-5.5787e-07,-4.1917,2.2813
19733,20.497,4.2727,0,7.6829e-05,767.76,2.928e-05,47.442,2.2969e-05,0.016862,-7.5911e-05,-742.93,2.2811
19734,20.589,4.1818,0,7.4955e-05,749.03,2.8869e-05,49.98,2.222e-05,0.018561,-7.3979e-05,-722.78,2.2964
19735,20.497,4.1818,0.05,7.2613e-07,7.2563,5.5758e-07,4.1894,2.313e-12,7.7774e-06,-5.5758e-07,-4.1895,2.2812
19736,20.497,4.4545,0,7.6705e-05,766.53,2.9059e-05,45.232,2.304e-05,0.01438,-7.5836e-05,-742.9,2.281
19737,20.589,4.3636,0,7.4824e-05,747.72,2.8644e-05,47.762,2.229e-05,0.016288,-7.3897e-05,-722.69,2.2963
19738,20.497,4.3636,0.05,7.257e-07,7.2519,5.5724e-07,4.1869,3.0139e-12,1.0252e-05,-5.5724e-07,-4.1869,2.281
19739,20.497,4.6364,0,7.658e-05,765.27,2.8821e-05,42.842,2.312e-05,0.011346,-7.5761e-05,-742.94,2.2808
19740,20.589,4.5455,0,7.4687e-05,746.36,2.84e-05,45.331,2.2368e-05,0.013486,-7.3813e-05,-722.65,2.2962
19741,20.497,4.5455,0.05,7.2521e-07,7.247,5.5687e-07,4.1841,3.0217e-12,7.6346e-06,-5.5687e-07,-4.1841,2.2809
19742,20.497,4.8182,0,7.6458e-05,764.05,2.8573e-05,40.317,2.3208e-05,0.0076358,-7.5692e-05,-743.09,2.2806
19743,20.589,4.7273,0,7.455e-05,744.99,2.8141e-05,42.732,2.2455e-05,0.01007,-7.3731e-05,-722.7,2.296
19744,20.497,4.7273,0.05,7.2467e-07,7.2417,5.5645e-07,4.1809,2.32e-12,9.1036e-06,-5.5646e-07,-4.181,2.2807
19745,20.497,5,0,7.6345e-05,762.92,2.8321e-05,37.705,2.3303e-05,0.0032249,-7.5633e-05,-743.37,2.2804
19746,20.589,4.9091,0,7.4419e-05,743.68,2.7875e-05,40.011,2.255e-05,0.0058561,-7.3657e-05,-722.86,2.2958
19747,20.497,4.9091,0.05,7.2408e-07,7.2358,5.56e-07,4.1775,2.7701e-12,8.3132e-06,-5.56e-07,-4.1776,2.2805
19748,20.497,5.1818,0,7.6247e-05,761.95,2.8071e-05,35.06,2.3405e-05,-0.0024414,-7.559e-05,-743.81,2.2802
19749,20.589,5.0909,0,7.43e-05,742.49,2.7606e-05,37.225,2.2652e-05,0.00097056,-7.3597e-05,-723.17,2.2956
19750,20.497,5.0909,0.05,7.2343e-07,7.2293,5.555e-07,4.1738,2.5099e-12,6.1506e-06,-5.5551e-07,-4.1739,2.2803
19751,20.497,5.3636,0,7.6174e-05,761.21,2.7832e-05,32.444,2.3512e-05,-0.0078588,-7.557e-05,-744.47,2.28
19752,20.589,5.2727,0,7.42e-05,741.49,2.7344e-05,34.431,2.276e-05,-0.0058769,-7.3555e-05,-723.68,2.2954
19753,20.497,5.2727,0.05,7.2259e-07,7.2209,5.5486e-07,4.169,2.6558e-12,7.2559e-06,-5.5486e-07,-4.169,2.2801
19754,20.497,5.5455,0,7.6142e-05,760.89,2.7619e-05,29.985,2.3625e-05,-0.022455,-7.5588e-05,-745.47,2.2797
19755,20.589,5.4545,0,7.4129e-05,740.78,2.7095e-05,31.703,2.2875e-05,-0.010304,-7.3539e-05,-724.43,2.2951
19756,20.497,5.4545,0.05,7.1939e-07,7.1889,5.524e-07,4.1505,2.5797e-12,6.6551e-06,-5.524e-07,-4.1505,2.2798
19757,20.497,5.7273,0,7.635e-05,762.98,2.7605e-05,28.982,2.3745e-05,-0.021111,-7.5816e-05,-748.08,2.2794
19758,20.589,5.6364,0,7.4116e-05,740.65,2.6888e-05,29.233,2.2993e-05,-0.035875,-7.3576e-05,-725.62,2.2949
19759,20.497,5.6364,0.05,6.8061e-07,6.8014,5.2262e-07,3.9268,2.725e-12,6.972e-06,-5.2263e-07,-3.9268,2.2796
19760,20.589,5.8182,0,7.4552e-05,745.01,2.7059e-05,29.576,2.3122e-05,-0.0019264,-7.4005e-05,-729.78,2.2946
19761,20.497,5.8182,0.05,1.2105e-07,1.2096,9.2949e-08,0.69837,-1.5059e-12,-2.6402e-05,-9.295e-08,-0.6984,2.2793
19762,20.497,5.9091,0,7.5245e-05,751.93,2.6454e-05,19.493,2.3858e-05,-0.0082746,-7.4895e-05,-742,2.2791
19763,20.681,0.27273,0,7.2285e-05,722.35,2.6314e-05,29.613,2.237e-05,-0.022778,-7.1736e-05,-707.1,2.31
19764,20.774,0.18182,0,7.0487e-05,704.39,2.5759e-05,30.085,2.1754e-05,-0.0027419,-6.9927e-05,-688.86,2.3252
19765,20.681,0.18182,0.05,1.3289e-07,1.328,1.0204e-07,0.7667,2.7306e-13,5.0142e-06,-1.0204e-07,-0.7667,2.3099
19766,20.681,0.090909,0,7.1156e-05,711.07,2.5133e-05,19.838,2.2491e-05,-0.0084502,-7.0798e-05,-700.95,2.3098
19767,20.681,0.45455,0,7.2094e-05,720.44,2.6356e-05,30.883,2.2243e-05,-0.023713,-7.1519e-05,-704.51,2.3103
19768,20.774,0.36364,0,7.0066e-05,700.18,2.5615e-05,30.004,2.1617e-05,-0.038151,-6.9508e-05,-684.71,2.3255
19769,20.681,0.36364,0.05,6.7959e-07,6.7912,5.2184e-07,3.9209,1.1409e-13,7.4033e-06,-5.2184e-07,-3.9209,2.3102
19770,20.681,0.63636,0,7.2147e-05,720.97,2.66e-05,33.631,2.2123e-05,-0.0080208,-7.1516e-05,-703.57,2.3105
19771,20.774,0.54545,0,7.0101e-05,700.53,2.5853e-05,32.771,2.149e-05,-0.01068,-6.9486e-05,-683.57,2.3257
19772,20.681,0.54545,0.05,7.1757e-07,7.1708,5.5101e-07,4.1401,6.2164e-13,9.8762e-06,-5.5101e-07,-4.1401,2.3104
19773,20.681,0.81818,0,7.2245e-05,721.95,2.6871e-05,36.541,2.2008e-05,-0.0021894,-7.1554e-05,-702.98,2.3108
19774,20.774,0.72727,0,7.0197e-05,701.48,2.6134e-05,35.808,2.1368e-05,-0.0058437,-6.9519e-05,-682.89,2.326
19775,20.681,0.72727,0.05,7.208e-07,7.2031,5.5349e-07,4.1587,7.6591e-13,7.7243e-06,-5.5349e-07,-4.1587,2.3106
19776,20.681,1,0,7.2367e-05,723.17,2.7153e-05,39.479,2.1899e-05,0.0038398,-7.1614e-05,-702.62,2.311
19777,20.774,0.90909,0,7.0322e-05,702.73,2.6431e-05,38.912,2.1252e-05,0.0014793,-6.9579e-05,-682.47,2.3262
19778,20.681,0.90909,0.05,7.2172e-07,7.2122,5.5419e-07,4.164,4.9429e-13,7.4334e-06,-5.5419e-07,-4.164,2.3109
19779,20.681,1.1818,0,7.2504e-05,724.54,2.7436e-05,42.377,2.1797e-05,0.0084943,-7.169e-05,-702.42,2.3112
19780,20.774,1.0909,0,7.0467e-05,704.19,2.6732e-05,42.003,2.1143e-05,0.0066591,-6.9658e-05,-682.24,2.3264
19781,20.681,1.0909,0.05,7.2244e-07,7.2194,5.5475e-07,4.1682,7.8937e-13,7.6254e-06,-5.5475e-07,-4.1681,2.3111
19782,20.681,1.3636,0,7.2651e-05,726.01,2.7714e-05,45.175,2.1703e-05,0.012386,-7.1777e-05,-702.36,2.3114
19783,20.774,1.2727,0,7.0624e-05,705.76,2.7031e-05,45.017,2.1042e-05,0.011096,-6.9751e-05,-682.17,2.3266
19784,20.681,1.2727,0.05,7.2311e-07,7.2261,5.5526e-07,4.172,7.7064e-13,6.7918e-06,-5.5526e-07,-4.172,2.3113
19785,20.681,1.5455,0,7.2799e-05,727.49,2.798e-05,47.818,2.1618e-05,0.015548,-7.1868e-05,-702.4,2.3115
19786,20.774,1.4545,0,7.0786e-05,707.37,2.732e-05,47.892,2.0948e-05,0.01467,-6.985e-05,-682.2,2.3267
19787,20.681,1.4545,0.05,7.2372e-07,7.2322,5.5573e-07,4.1755,7.7426e-13,6.8679e-06,-5.5573e-07,-4.1755,2.3114
19788,20.681,1.7273,0,7.2944e-05,728.94,2.8227e-05,50.259,2.1541e-05,0.018122,-7.1959e-05,-702.5,2.3117
19789,20.774,1.6364,0,7.0946e-05,708.97,2.7593e-05,50.577,2.0864e-05,0.017584,-6.995e-05,-682.32,2.3269
19790,20.681,1.6364,0.05,7.2428e-07,7.2378,5.5616e-07,4.1787,1.0261e-12,6.4358e-06,-5.5616e-07,-4.1787,2.3116
19791,20.681,1.9091,0,7.3079e-05,730.29,2.8452e-05,52.456,2.1473e-05,0.020197,-7.2045e-05,-702.64,2.3118
19792,20.774,1.8182,0,7.1098e-05,710.49,2.7843e-05,53.022,2.0789e-05,0.019936,-7.0047e-05,-682.48,2.327
19793,20.681,1.8182,0.05,7.2478e-07,7.2428,5.5654e-07,4.1816,1.0403e-12,6.2579e-06,-5.5654e-07,-4.1816,2.3117
19794,20.681,2.0909,0,7.3201e-05,731.5,2.8648e-05,54.373,2.1415e-05,0.021843,-7.2124e-05,-702.79,2.3119
19795,20.774,2,0,7.1237e-05,711.88,2.8066e-05,55.189,2.0723e-05,0.021815,-7.0137e-05,-682.67,2.3271
19796,20.681,2,0.05,7.2522e-07,7.2472,5.5688e-07,4.1842,6.234e-13,7.3753e-06,-5.5688e-07,-4.1842,2.3118
19797,20.681,2.2727,0,7.3305e-05,732.55,2.8814e-05,55.98,2.1367e-05,0.023121,-7.2192e-05,-702.94,2.312
19798,20.774,2.1818,0,7.1359e-05,713.09,2.8257e-05,57.045,2.0668e-05,0.023287,-7.0217e-05,-682.85,2.3272
19799,20.681,2.1818,0.05,7.2559e-07,7.2509,5.5716e-07,4.1863,1.1203e-12,6.744e-06,-5.5717e-07,-4.1863,2.3119
19800,20.681,2.4545,0,7.339e-05,733.39,2.8946e-05,57.255,2.1329e-05,0.024073,-7.2247e-05,-703.07,2.312
19801,20.774,2.3636,0,7.146e-05,714.11,2.8414e-05,58.56,2.0624e-05,0.024411,-7.0283e-05,-683.01,2.3273
19802,20.681,2.3636,0.05,7.259e-07,7.254,5.574e-07,4.1881,9.3538e-13,7.082e-06,-5.574e-07,-4.1881,2.312
19803,20.681,2.6364,0,7.3451e-05,734.01,2.9042e-05,58.178,2.1302e-05,0.02473,-7.2288e-05,-703.18,2.3121
19804,20.774,2.5455,0,7.1539e-05,714.89,2.8534e-05,59.715,2.059e-05,0.025219,-7.0335e-05,-683.15,2.3274
19805,20.681,2.5455,0.05,7.2613e-07,7.2563,5.5758e-07,4.1894,1.4437e-12,7.4762e-06,-5.5758e-07,-4.1894,2.3121
19806,20.681,2.8182,0,7.3489e-05,734.38,2.91e-05,58.736,2.1286e-05,0.025117,-7.2313e-05,-703.24,2.3121
19807,20.774,2.7273,0,7.1592e-05,715.42,2.8615e-05,60.494,2.0568e-05,0.025743,-7.037e-05,-683.25,2.3274
19808,20.681,2.7273,0.05,7.2628e-07,7.2578,5.5769e-07,4.1903,1.2739e-12,7.4267e-06,-5.577e-07,-4.1903,2.3121
19809,20.681,3,0,7.3502e-05,734.51,2.9119e-05,58.924,2.128e-05,0.025244,-7.2321e-05,-703.26,2.3121
19810,20.774,2.9091,0,7.1619e-05,715.69,2.8656e-05,60.886,2.0556e-05,0.026001,-7.0388e-05,-683.3,2.3274
19811,20.681,2.9091,0.05,7.2636e-07,7.2586,5.5776e-07,4.1908,1.561e-12,9.3068e-06,-5.5776e-07,-4.1908,2.3121
19812,20.681,3.1818,0,7.3489e-05,734.38,2.91e-05,58.736,2.1286e-05,0.025117,-7.2313e-05,-703.24,2.3121
19813,20.774,3.0909,0,7.1619e-05,715.69,2.8656e-05,60.886,2.0556e-05,0.026001,-7.0388e-05,-683.3,2.3274
19814,20.681,3.0909,0.05,7.2636e-07,7.2586,5.5776e-07,4.1908,1.6223e-12,7.8606e-06,-5.5776e-07,-4.1908,2.3121
19815,20.681,3.3636,0,7.3451e-05,734.01,2.9042e-05,58.178,2.1302e-05,0.024732,-7.2288e-05,-703.18,2.3121
19816,20.774,3.2727,0,7.1592e-05,715.42,2.8615e-05,60.494,2.0568e-05,0.025744,-7.037e-05,-683.25,2.3274
19817,20.681,3.2727,0.05,7.2628e-07,7.2578,5.577e-07,4.1903,1.91e-12,8.7917e-06,-5.577e-07,-4.1903,2.3121
19818,20.681,3.5455,0,7.339e-05,733.39,2.8946e-05,57.255,2.1329e-05,0.024073,-7.2247e-05,-703.07,2.312
19819,20.774,3.4545,0,7.1539e-05,714.89,2.8534e-05,59.715,2.059e-05,0.025218,-7.0335e-05,-683.15,2.3274
19820,20.681,3.4545,0.05,7.2613e-07,7.2563,5.5758e-07,4.1894,1.9674e-12,1.0171e-05,-5.5758e-07,-4.1894,2.3121
19821,20.681,3.7273,0,7.3305e-05,732.55,2.8814e-05,55.98,2.1367e-05,0.023121,-7.2192e-05,-702.94,2.312
19822,20.774,3.6364,0,7.146e-05,714.11,2.8414e-05,58.56,2.0624e-05,0.024409,-7.0283e-05,-683.01,2.3273
19823,20.681,3.6364,0.05,7.259e-07,7.254,5.574e-07,4.1881,2.2436e-12,1.1053e-05,-5.574e-07,-4.1881,2.312
19824,20.681,3.9091,0,7.3201e-05,731.5,2.8648e-05,54.373,2.1415e-05,0.021844,-7.2124e-05,-702.79,2.3119
19825,20.774,3.8182,0,7.1359e-05,713.09,2.8257e-05,57.045,2.0668e-05,0.023289,-7.0217e-05,-682.85,2.3272
19826,20.681,3.8182,0.05,7.2559e-07,7.2509,5.5716e-07,4.1863,2.0712e-12,1.2366e-05,-5.5717e-07,-4.1863,2.3119
19827,20.681,4.0909,0,7.3079e-05,730.29,2.8452e-05,52.456,2.1473e-05,0.020197,-7.2045e-05,-702.64,2.3118
19828,20.774,4,0,7.1237e-05,711.88,2.8066e-05,55.189,2.0723e-05,0.021814,-7.0137e-05,-682.67,2.3271
19829,20.681,4,0.05,7.2522e-07,7.2472,5.5688e-07,4.1841,2.5692e-12,1.1718e-05,-5.5688e-07,-4.1842,2.3118
19830,20.681,4.2727,0,7.2944e-05,728.94,2.8227e-05,50.259,2.1541e-05,0.018123,-7.1959e-05,-702.5,2.3117
19831,20.774,4.1818,0,7.1098e-05,710.49,2.7843e-05,53.022,2.0789e-05,0.019936,-7.0047e-05,-682.48,2.327
19832,20.681,4.1818,0.05,7.2478e-07,7.2428,5.5654e-07,4.1816,2.368e-12,1.0874e-05,-5.5654e-07,-4.1817,2.3117
19833,20.681,4.4545,0,7.2799e-05,727.49,2.798e-05,47.818,2.1618e-05,0.015548,-7.1868e-05,-702.4,2.3115
19834,20.774,4.3636,0,7.0946e-05,708.97,2.7593e-05,50.577,2.0864e-05,0.017584,-6.995e-05,-682.32,2.3269
19835,20.681,4.3636,0.05,7.2428e-07,7.2378,5.5615e-07,4.1787,2.8375e-12,1.3534e-05,-5.5616e-07,-4.1788,2.3116
19836,20.681,4.6364,0,7.2651e-05,726.01,2.7714e-05,45.175,2.1703e-05,0.012385,-7.1777e-05,-702.36,2.3114
19837,20.774,4.5455,0,7.0786e-05,707.37,2.732e-05,47.893,2.0948e-05,0.014668,-6.985e-05,-682.2,2.3267
19838,20.681,4.5455,0.05,7.2372e-07,7.2322,5.5573e-07,4.1755,2.8255e-12,1.1603e-05,-5.5573e-07,-4.1755,2.3114
19839,20.681,4.8182,0,7.2504e-05,724.54,2.7436e-05,42.377,2.1797e-05,0.0084931,-7.169e-05,-702.42,2.3112
19840,20.774,4.7273,0,7.0624e-05,705.76,2.7031e-05,45.017,2.1042e-05,0.011096,-6.9751e-05,-682.17,2.3266
19841,20.681,4.7273,0.05,7.2311e-07,7.2261,5.5525e-07,4.172,3.0384e-12,1.2015e-05,-5.5526e-07,-4.172,2.3113
19842,20.681,5,0,7.2367e-05,723.17,2.7153e-05,39.479,2.1899e-05,0.0038375,-7.1614e-05,-702.62,2.311
19843,20.774,4.9091,0,7.0467e-05,704.19,2.6733e-05,42.003,2.1143e-05,0.0066587,-6.9658e-05,-682.24,2.3264
19844,20.681,4.9091,0.05,7.2244e-07,7.2194,5.5474e-07,4.1681,2.8118e-12,1.1608e-05,-5.5475e-07,-4.1682,2.3111
19845,20.681,5.1818,0,7.2245e-05,721.95,2.6871e-05,36.541,2.2008e-05,-0.0021914,-7.1554e-05,-702.98,2.3108
19846,20.774,5.0909,0,7.0322e-05,702.73,2.6431e-05,38.912,2.1252e-05,0.0014775,-6.9579e-05,-682.47,2.3262
19847,20.681,5.0909,0.05,7.2172e-07,7.2122,5.5419e-07,4.1639,2.3057e-12,1.0144e-05,-5.5419e-07,-4.164,2.3109
19848,20.681,5.3636,0,7.2147e-05,720.97,2.66e-05,33.631,2.2123e-05,-0.0080213,-7.1516e-05,-703.57,2.3105
19849,20.774,5.2727,0,7.0197e-05,701.48,2.6134e-05,35.808,2.1368e-05,-0.0058461,-6.9519e-05,-682.89,2.326
19850,20.681,5.2727,0.05,7.208e-07,7.2031,5.5348e-07,4.1587,2.733e-12,1.0301e-05,-5.5349e-07,-4.1587,2.3106
19851,20.681,5.5455,0,7.2094e-05,720.44,2.6356e-05,30.883,2.2243e-05,-0.023713,-7.1519e-05,-704.51,2.3103
19852,20.774,5.4545,0,7.0101e-05,700.53,2.5853e-05,32.771,2.149e-05,-0.01068,-6.9486e-05,-683.57,2.3257
19853,20.681,5.4545,0.05,7.1757e-07,7.1708,5.5101e-07,4.14,2.4043e-12,9.3839e-06,-5.5101e-07,-4.1401,2.3104
19854,20.681,5.7273,0,7.2285e-05,722.35,2.6314e-05,29.613,2.237e-05,-0.022777,-7.1736e-05,-707.1,2.31
19855,20.774,5.6364,0,7.0066e-05,700.18,2.5615e-05,30.004,2.1617e-05,-0.03815,-6.9508e-05,-684.71,2.3255
19856,20.681,5.6364,0.05,6.7959e-07,6.7912,5.2184e-07,3.9209,2.7445e-12,9.991e-06,-5.2184e-07,-3.9209,2.3102
19857,20.774,5.8182,0,7.0487e-05,704.39,2.5759e-05,30.085,2.1754e-05,-0.0027396,-6.9927e-05,-688.86,2.3252
19858,20.681,5.8182,0.05,1.3289e-07,1.328,1.0204e-07,0.76668,-2.2802e-14,-2.1415e-05,-1.0204e-07,-0.76671,2.3099
19859,20.681,5.9091,0,7.1156e-05,711.07,2.5133e-05,19.838,2.2491e-05,-0.0084481,-7.0798e-05,-700.95,2.3098
19860,20.866,0.27273,0,6.8234e-05,681.87,2.503e-05,30.256,2.1e-05,-0.024657,-6.767e-05,-666.25,2.3407
19861,20.958,0.18182,0,6.6436e-05,663.9,2.4463e-05,30.589,2.0391e-05,-0.0037487,-6.5863e-05,-648.08,2.3559
19862,20.866,0.18182,0.05,1.4579e-07,1.4569,1.1195e-07,0.84114,1.9539e-13,-1.0634e-08,-1.1195e-07,-0.84113,2.3405
19863,20.866,0.090909,0,6.7083e-05,670.37,2.3817e-05,20.184,2.1129e-05,-0.0085951,-6.6717e-05,-660.05,2.3404
19864,20.866,0.45455,0,6.8063e-05,680.16,2.5103e-05,31.821,2.0864e-05,-0.025065,-6.7466e-05,-663.7,2.3409
19865,20.958,0.36364,0,6.6033e-05,659.87,2.4349e-05,30.802,2.0244e-05,-0.040635,-6.5456e-05,-643.95,2.3562
19866,20.866,0.36364,0.05,6.7873e-07,6.7827,5.2118e-07,3.916,6.8888e-13,7.7826e-06,-5.2118e-07,-3.916,2.3408
19867,20.866,0.63636,0,6.8141e-05,680.94,2.538e-05,34.887,2.0736e-05,-0.0081533,-6.7481e-05,-662.83,2.3412
19868,20.958,0.54545,0,6.6092e-05,660.46,2.4622e-05,33.897,2.0109e-05,-0.01105,-6.545e-05,-642.87,2.3564
19869,20.866,0.54545,0.05,7.1589e-07,7.154,5.4972e-07,4.1303,4.5736e-13,6.549e-06,-5.4972e-07,-4.1303,2.341
19870,20.866,0.81818,0,6.8265e-05,682.18,2.5686e-05,38.121,2.0613e-05,-0.0018643,-6.7537e-05,-662.32,2.3414
19871,20.958,0.72727,0,6.6215e-05,661.69,2.4939e-05,37.272,1.9978e-05,-0.0057487,-6.5502e-05,-642.27,2.3566
19872,20.866,0.72727,0.05,7.1915e-07,7.1866,5.5222e-07,4.1492,3.9227e-13,6.9169e-06,-5.5222e-07,-4.1492,2.3413
19873,20.866,1,0,6.8414e-05,683.67,2.6003e-05,41.382,2.0496e-05,0.0045625,-6.7616e-05,-662.04,2.3416
19874,20.958,0.90909,0,6.6369e-05,663.23,2.5273e-05,40.718,1.9854e-05,0.0020968,-6.5582e-05,-641.93,2.3568
19875,20.866,0.90909,0.05,7.2016e-07,7.1966,5.5299e-07,4.155,3.4994e-13,5.8179e-06,-5.5299e-07,-4.155,2.3415
19876,20.866,1.1818,0,6.858e-05,685.32,2.6321e-05,44.593,2.0387e-05,0.0094853,-6.7712e-05,-661.93,2.3418
19877,20.958,1.0909,0,6.6543e-05,664.97,2.5611e-05,44.144,1.9737e-05,0.007603,-6.5682e-05,-641.8,2.357
19878,20.866,1.0909,0.05,7.2097e-07,7.2048,5.5362e-07,4.1597,9.5746e-13,5.5784e-06,-5.5362e-07,-4.1597,2.3417
19879,20.866,1.3636,0,6.8753e-05,687.06,2.6631e-05,47.688,2.0286e-05,0.013573,-6.7817e-05,-661.96,2.342
19880,20.958,1.2727,0,6.6729e-05,666.83,2.5945e-05,47.479,1.9628e-05,0.012281,-6.5794e-05,-641.82,2.3572
19881,20.866,1.2727,0.05,7.2173e-07,7.2123,5.542e-07,4.164,7.0177e-13,5.2267e-06,-5.542e-07,-4.164,2.3419
19882,20.866,1.5455,0,6.8927e-05,688.79,2.6928e-05,50.607,2.0194e-05,0.016873,-6.7926e-05,-662.08,2.3421
19883,20.958,1.4545,0,6.6918e-05,668.72,2.6267e-05,50.655,1.9528e-05,0.016022,-6.5912e-05,-641.94,2.3574
19884,20.866,1.4545,0.05,7.2243e-07,7.2193,5.5473e-07,4.1681,7.0356e-13,4.5131e-06,-5.5473e-07,-4.1681,2.342
19885,20.866,1.7273,0,6.9094e-05,690.47,2.7203e-05,53.299,2.0112e-05,0.019545,-6.8033e-05,-662.26,2.3423
19886,20.958,1.6364,0,6.7103e-05,670.57,2.657e-05,53.614,1.9437e-05,0.019056,-6.603e-05,-642.14,2.3575
19887,20.866,1.6364,0.05,7.2307e-07,7.2257,5.5523e-07,4.1717,7.4452e-13,5.2243e-06,-5.5523e-07,-4.1718,2.3422
19888,20.866,1.9091,0,6.925e-05,692.02,2.7452e-05,55.717,2.0039e-05,0.021687,-6.8134e-05,-662.47,2.3424
19889,20.958,1.8182,0,6.7278e-05,672.32,2.6847e-05,56.306,1.9356e-05,0.021489,-6.6143e-05,-642.38,2.3576
19890,20.866,1.8182,0.05,7.2364e-07,7.2314,5.5567e-07,4.1751,7.6791e-13,5.3654e-06,-5.5567e-07,-4.1751,2.3423
19891,20.866,2.0909,0,6.939e-05,693.42,2.7669e-05,57.825,1.9977e-05,0.02338,-6.8225e-05,-662.69,2.3425
19892,20.958,2,0,6.7437e-05,673.91,2.7094e-05,58.687,1.9286e-05,0.023426,-6.6246e-05,-642.63,2.3577
19893,20.866,2,0.05,7.2415e-07,7.2365,5.5606e-07,4.178,5.7689e-13,4.1041e-06,-5.5606e-07,-4.178,2.3424
19894,20.866,2.2727,0,6.9509e-05,694.61,2.7853e-05,59.59,1.9925e-05,0.024691,-6.8303e-05,-662.89,2.3426
19895,20.958,2.1818,0,6.7576e-05,675.29,2.7305e-05,60.723,1.9227e-05,0.02494,-6.6338e-05,-642.87,2.3578
19896,20.866,2.1818,0.05,7.2458e-07,7.2408,5.5639e-07,4.1805,1.2992e-12,5.9373e-06,-5.5639e-07,-4.1805,2.3425
19897,20.866,2.4545,0,6.9605e-05,695.57,2.7998e-05,60.987,1.9885e-05,0.025665,-6.8366e-05,-663.06,2.3426
19898,20.958,2.3636,0,6.7691e-05,676.45,2.7478e-05,62.384,1.9179e-05,0.026088,-6.6414e-05,-643.08,2.3579
19899,20.866,2.3636,0.05,7.2493e-07,7.2443,5.5666e-07,4.1825,1.3595e-12,5.395e-06,-5.5666e-07,-4.1825,2.3426
19900,20.866,2.6364,0,6.9675e-05,696.27,2.8104e-05,61.999,1.9856e-05,0.026336,-6.8413e-05,-663.19,2.3427
19901,20.958,2.5455,0,6.778e-05,677.33,2.761e-05,63.648,1.9143e-05,0.026913,-6.6472e-05,-643.25,2.358
19902,20.866,2.5455,0.05,7.252e-07,7.247,5.5686e-07,4.1841,1.6509e-12,6.8161e-06,-5.5687e-07,-4.1841,2.3426
19903,20.866,2.8182,0,6.9718e-05,696.7,2.8167e-05,62.611,1.9838e-05,0.02673,-6.8441e-05,-663.27,2.3427
19904,20.958,2.7273,0,6.784e-05,677.93,2.7699e-05,64.5,1.9119e-05,0.027449,-6.6512e-05,-643.37,2.358
19905,20.866,2.7273,0.05,7.2538e-07,7.2488,5.57e-07,4.1851,1.2615e-12,6.3842e-06,-5.57e-07,-4.1851,2.3427
19906,20.866,3,0,6.9732e-05,696.84,2.8189e-05,62.816,1.9832e-05,0.026859,-6.8451e-05,-663.3,2.3427
19907,20.958,2.9091,0,6.7871e-05,678.24,2.7744e-05,64.928,1.9106e-05,0.027712,-6.6532e-05,-643.43,2.358
19908,20.866,2.9091,0.05,7.2547e-07,7.2497,5.5707e-07,4.1856,1.7842e-12,6.892e-06,-5.5708e-07,-4.1856,2.3427
19909,20.866,3.1818,0,6.9718e-05,696.7,2.8167e-05,62.611,1.9838e-05,0.026729,-6.8441e-05,-663.27,2.3427
19910,20.958,3.0909,0,6.7871e-05,678.24,2.7744e-05,64.928,1.9106e-05,0.02771,-6.6532e-05,-643.43,2.358
19911,20.866,3.0909,0.05,7.2547e-07,7.2497,5.5707e-07,4.1856,1.8538e-12,7.4137e-06,-5.5708e-07,-4.1857,2.3427
19912,20.866,3.3636,0,6.9675e-05,696.27,2.8104e-05,61.999,1.9856e-05,0.026335,-6.8413e-05,-663.19,2.3427
19913,20.958,3.2727,0,6.784e-05,677.93,2.7699e-05,64.5,1.9119e-05,0.027448,-6.6512e-05,-643.37,2.358
19914,20.866,3.2727,0.05,7.2538e-07,7.2488,5.57e-07,4.1851,1.9222e-12,7.9266e-06,-5.57e-07,-4.1851,2.3427
19915,20.866,3.5455,0,6.9605e-05,695.57,2.7998e-05,60.987,1.9885e-05,0.025662,-6.8366e-05,-663.06,2.3426
19916,20.958,3.4545,0,6.778e-05,677.33,2.761e-05,63.648,1.9143e-05,0.026914,-6.6472e-05,-643.25,2.358
19917,20.866,3.4545,0.05,7.252e-07,7.247,5.5686e-07,4.1841,2.2125e-12,8.4026e-06,-5.5687e-07,-4.1841,2.3426
19918,20.866,3.7273,0,6.9509e-05,694.61,2.7853e-05,59.59,1.9925e-05,0.02469,-6.8303e-05,-662.89,2.3426
19919,20.958,3.6364,0,6.7691e-05,676.45,2.7478e-05,62.384,1.9179e-05,0.026088,-6.6414e-05,-643.08,2.3579
19920,20.866,3.6364,0.05,7.2493e-07,7.2443,5.5666e-07,4.1825,2.0464e-12,1.0273e-05,-5.5666e-07,-4.1825,2.3426
19921,20.866,3.9091,0,6.939e-05,693.42,2.7669e-05,57.825,1.9977e-05,0.023381,-6.8225e-05,-662.69,2.3425
19922,20.958,3.8182,0,6.7576e-05,675.29,2.7305e-05,60.723,1.9227e-05,0.02494,-6.6338e-05,-642.87,2.3578
19923,20.866,3.8182,0.05,7.2458e-07,7.2408,5.5639e-07,4.1805,2.3308e-12,1.2602e-05,-5.5639e-07,-4.1805,2.3425
19924,20.866,4.0909,0,6.925e-05,692.02,2.7452e-05,55.717,2.0039e-05,0.021687,-6.8134e-05,-662.47,2.3424
19925,20.958,4,0,6.7437e-05,673.91,2.7094e-05,58.687,1.9286e-05,0.023425,-6.6246e-05,-642.63,2.3577
19926,20.866,4,0.05,7.2415e-07,7.2365,5.5606e-07,4.178,2.6015e-12,1.1072e-05,-5.5606e-07,-4.178,2.3424
19927,20.866,4.2727,0,6.9094e-05,690.47,2.7203e-05,53.299,2.0112e-05,0.019545,-6.8033e-05,-662.26,2.3423
19928,20.958,4.1818,0,6.7278e-05,672.32,2.6847e-05,56.306,1.9356e-05,0.021491,-6.6143e-05,-642.38,2.3576
19929,20.866,4.1818,0.05,7.2364e-07,7.2314,5.5567e-07,4.1751,2.4075e-12,1.042e-05,-5.5567e-07,-4.1751,2.3423
19930,20.866,4.4545,0,6.8927e-05,688.79,2.6928e-05,50.607,2.0194e-05,0.016871,-6.7926e-05,-662.08,2.3421
19931,20.958,4.3636,0,6.7103e-05,670.57,2.657e-05,53.614,1.9437e-05,0.019056,-6.603e-05,-642.14,2.3575
19932,20.866,4.3636,0.05,7.2307e-07,7.2257,5.5522e-07,4.1717,2.8931e-12,1.2934e-05,-5.5523e-07,-4.1718,2.3422
19933,20.866,4.6364,0,6.8753e-05,687.06,2.6631e-05,47.688,2.0286e-05,0.013571,-6.7817e-05,-661.96,2.342
19934,20.958,4.5455,0,6.6918e-05,668.72,2.6267e-05,50.655,1.9528e-05,0.01602,-6.5912e-05,-641.94,2.3574
19935,20.866,4.5455,0.05,7.2243e-07,7.2193,5.5473e-07,4.168,2.4313e-12,1.0133e-05,-5.5474e-07,-4.1681,2.342
19936,20.866,4.8182,0,6.858e-05,685.32,2.6321e-05,44.593,2.0387e-05,0.0094855,-6.7712e-05,-661.93,2.3418
19937,20.958,4.7273,0,6.6729e-05,666.83,2.5945e-05,47.479,1.9628e-05,0.012282,-6.5794e-05,-641.82,2.3572
19938,20.866,4.7273,0.05,7.2173e-07,7.2123,5.542e-07,4.164,2.6674e-12,1.1812e-05,-5.542e-07,-4.164,2.3419
19939,20.866,5,0,6.8414e-05,683.67,2.6003e-05,41.382,2.0496e-05,0.0045627,-6.7616e-05,-662.04,2.3416
19940,20.958,4.9091,0,6.6543e-05,664.97,2.5611e-05,44.144,1.9737e-05,0.0076017,-6.5682e-05,-641.8,2.357
19941,20.866,4.9091,0.05,7.2097e-07,7.2048,5.5362e-07,4.1596,2.635e-12,1.2679e-05,-5.5362e-07,-4.1597,2.3417
19942,20.866,5.1818,0,6.8265e-05,682.18,2.5686e-05,38.121,2.0613e-05,-0.0018665,-6.7537e-05,-662.32,2.3414
19943,20.958,5.0909,0,6.6369e-05,663.23,2.5273e-05,40.718,1.9854e-05,0.0020965,-6.5582e-05,-641.93,2.3568
19944,20.866,5.0909,0.05,7.2016e-07,7.1966,5.5299e-07,4.1549,2.6306e-12,9.352e-06,-5.5299e-07,-4.155,2.3415
19945,20.866,5.3636,0,6.8141e-05,680.94,2.538e-05,34.887,2.0736e-05,-0.008156,-6.7481e-05,-662.83,2.3412
19946,20.958,5.2727,0,6.6215e-05,661.69,2.4939e-05,37.272,1.9978e-05,-0.0057527,-6.5502e-05,-642.27,2.3566
19947,20.866,5.2727,0.05,7.1915e-07,7.1866,5.5222e-07,4.1491,2.5442e-12,9.5587e-06,-5.5222e-07,-4.1492,2.3413
19948,20.866,5.5455,0,6.8063e-05,680.16,2.5103e-05,31.821,2.0864e-05,-0.025065,-6.7466e-05,-663.7,2.3409
19949,20.958,5.4545,0,6.6092e-05,660.47,2.4622e-05,33.897,2.0109e-05,-0.011052,-6.545e-05,-642.87,2.3564
19950,20.866,5.4545,0.05,7.1589e-07,7.154,5.4971e-07,4.1303,2.5125e-12,9.1556e-06,-5.4972e-07,-4.1304,2.341
19951,20.866,5.7273,0,6.8234e-05,681.87,2.503e-05,30.256,2.1e-05,-0.024655,-6.767e-05,-666.25,2.3407
19952,20.958,5.6364,0,6.6033e-05,659.87,2.4349e-05,30.802,2.0244e-05,-0.040632,-6.5456e-05,-643.95,2.3562
19953,20.866,5.6364,0.05,6.7873e-07,6.7827,5.2118e-07,3.9159,2.3636e-12,9.4907e-06,-5.2119e-07,-3.916,2.3408
19954,20.958,5.8182,0,6.6436e-05,663.9,2.4463e-05,30.589,2.0391e-05,-0.0037485,-6.5863e-05,-648.08,2.3559
19955,20.866,5.8182,0.05,1.4579e-07,1.4569,1.1195e-07,0.84112,-5.7865e-13,-1.9381e-05,-1.1195e-07,-0.84116,2.3405
19956,20.866,5.9091,0,6.7083e-05,670.37,2.3817e-05,20.184,2.1129e-05,-0.0085933,-6.6717e-05,-660.05,2.3404
19957,21.05,0.27273,0,6.4199e-05,641.55,2.3751e-05,30.908,1.9634e-05,-0.026771,-6.3618e-05,-625.55,2.3714
19958,21.142,0.18182,0,6.2398e-05,623.55,2.317e-05,31.085,1.9032e-05,-0.0049915,-6.1811e-05,-607.43,2.3866
19959,21.05,0.18182,0.05,1.5983e-07,1.5972,1.2273e-07,0.92212,-5.7281e-14,-3.6083e-06,-1.2273e-07,-0.92212,2.3712
19960,21.05,0.090909,0,6.3024e-05,629.81,2.2505e-05,20.527,1.9772e-05,-0.0086894,-6.265e-05,-619.3,2.3711
19961,21.05,0.45455,0,6.405e-05,640.06,2.3858e-05,32.802,1.9489e-05,-0.026515,-6.343e-05,-623.04,2.3716
19962,21.142,0.36364,0,6.2016e-05,619.73,2.309e-05,31.627,1.8875e-05,-0.043341,-6.1418e-05,-603.33,2.3869
19963,21.05,0.36364,0.05,6.7806e-07,6.776,5.2067e-07,3.9121,7.0403e-13,6.9868e-06,-5.2067e-07,-3.9121,2.3715
19964,21.05,0.63636,0,6.4156e-05,641.11,2.4173e-05,36.218,1.9351e-05,-0.0082393,-6.3463e-05,-622.24,2.3719
19965,21.142,0.54545,0,6.2102e-05,620.59,2.3401e-05,35.084,1.873e-05,-0.011404,-6.1431e-05,-602.31,2.3871
19966,21.05,0.54545,0.05,7.1434e-07,7.1385,5.4853e-07,4.1214,5.7812e-13,6.4982e-06,-5.4853e-07,-4.1214,2.3717
19967,21.05,0.81818,0,6.4309e-05,642.65,2.4518e-05,39.809,1.9219e-05,-0.0014339,-6.3539e-05,-621.82,2.3721
19968,21.142,0.72727,0,6.2255e-05,622.12,2.3759e-05,38.834,1.859e-05,-0.0055689,-6.1503e-05,-601.8,2.3873
19969,21.05,0.72727,0.05,7.1765e-07,7.1716,5.5107e-07,4.1405,8.7881e-13,5.7223e-06,-5.5107e-07,-4.1405,2.372
19970,21.05,1,0,6.4489e-05,644.44,2.4873e-05,43.425,1.9095e-05,0.0054337,-6.364e-05,-621.63,2.3723
19971,21.142,0.90909,0,6.2441e-05,623.98,2.4133e-05,42.655,1.8457e-05,0.0028577,-6.1606e-05,-601.56,2.3875
19972,21.05,0.90909,0.05,7.1876e-07,7.1827,5.5192e-07,4.1469,1.0412e-12,7.386e-06,-5.5192e-07,-4.1469,2.3722
19973,21.05,1.1818,0,6.4685e-05,646.4,2.5229e-05,46.979,1.8977e-05,0.010648,-6.3757e-05,-621.63,2.3725
19974,21.142,1.0909,0,6.2648e-05,626.05,2.4512e-05,46.45,1.8331e-05,0.0087225,-6.1728e-05,-601.53,2.3877
19975,21.05,1.0909,0.05,7.1969e-07,7.1919,5.5263e-07,4.1522,5.9118e-13,4.4507e-06,-5.5263e-07,-4.1523,2.3723
19976,21.05,1.3636,0,6.4887e-05,648.43,2.5575e-05,50.399,1.8869e-05,0.014941,-6.3883e-05,-621.75,2.3726
19977,21.142,1.2727,0,6.2866e-05,628.22,2.4885e-05,50.135,1.8214e-05,0.013661,-6.1862e-05,-601.65,2.3879
19978,21.05,1.2727,0.05,7.2055e-07,7.2005,5.5329e-07,4.1572,6.1565e-13,4.8578e-06,-5.5329e-07,-4.1572,2.3725
19979,21.05,1.5455,0,6.5089e-05,650.44,2.5904e-05,53.618,1.877e-05,0.018387,-6.401e-05,-621.96,2.3728
19980,21.142,1.4545,0,6.3085e-05,630.41,2.5242e-05,53.638,1.8106e-05,0.01758,-6.2001e-05,-601.87,2.388
19981,21.05,1.4545,0.05,7.2135e-07,7.2085,5.5391e-07,4.1618,3.7747e-13,4.8656e-06,-5.5391e-07,-4.1618,2.3727
19982,21.05,1.7273,0,6.5282e-05,652.37,2.6209e-05,56.581,1.8681e-05,0.021162,-6.4134e-05,-622.22,2.3729
19983,21.142,1.6364,0,6.3298e-05,632.54,2.5578e-05,56.895,1.8008e-05,0.020739,-6.2137e-05,-602.16,2.3882
19984,21.05,1.6364,0.05,7.2208e-07,7.2159,5.5447e-07,4.1661,8.7408e-13,5.9472e-06,-5.5447e-07,-4.1661,2.3728
19985,21.05,1.9091,0,6.546e-05,654.15,2.6484e-05,59.238,1.8603e-05,0.023374,-6.425e-05,-622.51,2.373
19986,21.142,1.8182,0,6.3497e-05,634.54,2.5884e-05,59.852,1.7921e-05,0.02326,-6.2267e-05,-602.48,2.3883
19987,21.05,1.8182,0.05,7.2275e-07,7.2225,5.5498e-07,4.1699,6.976e-13,5.2306e-06,-5.5498e-07,-4.1699,2.3729
19988,21.05,2.0909,0,6.5619e-05,655.74,2.6724e-05,61.549,1.8536e-05,0.025119,-6.4354e-05,-622.78,2.3731
19989,21.142,2,0,6.3678e-05,636.34,2.6156e-05,62.463,1.7846e-05,0.025255,-6.2385e-05,-602.8,2.3884
19990,21.05,2,0.05,7.2334e-07,7.2284,5.5543e-07,4.1733,9.6435e-13,4.577e-06,-5.5543e-07,-4.1733,2.373
19991,21.05,2.2727,0,6.5754e-05,657.09,2.6926e-05,63.483,1.8481e-05,0.026462,-6.4443e-05,-623.03,2.3732
19992,21.142,2.1818,0,6.3835e-05,637.91,2.6388e-05,64.691,1.7782e-05,0.02681,-6.2488e-05,-603.09,2.3885
19993,21.05,2.1818,0.05,7.2384e-07,7.2334,5.5582e-07,4.1762,1.2429e-12,6.9537e-06,-5.5582e-07,-4.1762,2.3731
19994,21.05,2.4545,0,6.5863e-05,658.17,2.7086e-05,65.012,1.8437e-05,0.027455,-6.4515e-05,-623.24,2.3733
19995,21.142,2.3636,0,6.3965e-05,639.21,2.6578e-05,66.506,1.7731e-05,0.027983,-6.2573e-05,-603.35,2.3886
19996,21.05,2.3636,0.05,7.2425e-07,7.2375,5.5613e-07,4.1785,1.3147e-12,6.9433e-06,-5.5613e-07,-4.1786,2.3732
19997,21.05,2.6364,0,6.5942e-05,658.96,2.7202e-05,66.117,1.8406e-05,0.02814,-6.4567e-05,-623.4,2.3733
19998,21.142,2.5455,0,6.4065e-05,640.21,2.6723e-05,67.886,1.7692e-05,0.028825,-6.2639e-05,-603.55,2.3886
19999,21.05,2.5455,0.05,7.2456e-07,7.2406,5.5637e-07,4.1803,1.3889e-12,6.1075e-06,-5.5637e-07,-4.1804,2.3733
20000,21.05,2.8182,0,6.599e-05,659.44,2.7272e-05,66.786,1.8387e-05,0.028543,-6.4599e-05,-623.5,2.3733
20001,21.142,2.7273,0,6.4133e-05,640.89,2.6821e-05,68.816,1.7666e-05,0.029371,-6.2684e-05,-603.69,2.3886
20002,21.05,2.7273,0.05,7.2477e-07,7.2427,5.5653e-07,4.1815,1.468e-12,6.705e-06,-5.5653e-07,-4.1816,2.3733
20003,21.05,3,0,6.6006e-05,659.61,2.7295e-05,67.01,1.8381e-05,0.028674,-6.461e-05,-623.53,2.3733
20004,21.142,2.9091,0,6.4167e-05,641.23,2.687e-05,69.283,1.7653e-05,0.029638,-6.2707e-05,-603.76,2.3887
20005,21.05,2.9091,0.05,7.2487e-07,7.2437,5.5661e-07,4.1822,1.5501e-12,9.2239e-06,-5.5661e-07,-4.1822,2.3733
20006,21.05,3.1818,0,6.599e-05,659.44,2.7272e-05,66.786,1.8387e-05,0.028541,-6.4599e-05,-623.5,2.3733
20007,21.142,3.0909,0,6.4167e-05,641.23,2.687e-05,69.283,1.7653e-05,0.029637,-6.2707e-05,-603.76,2.3887
20008,21.05,3.0909,0.05,7.2487e-07,7.2437,5.5661e-07,4.1822,1.1784e-12,6.034e-06,-5.5661e-07,-4.1822,2.3733
20009,21.05,3.3636,0,6.5942e-05,658.96,2.7202e-05,66.117,1.8406e-05,0.028141,-6.4567e-05,-623.4,2.3733
20010,21.142,3.2727,0,6.4133e-05,640.89,2.6821e-05,68.816,1.7666e-05,0.02937,-6.2684e-05,-603.69,2.3886
20011,21.05,3.2727,0.05,7.2477e-07,7.2427,5.5653e-07,4.1815,1.9415e-12,9.508e-06,-5.5653e-07,-4.1816,2.3733
20012,21.05,3.5455,0,6.5863e-05,658.17,2.7086e-05,65.012,1.8437e-05,0.027457,-6.4515e-05,-623.24,2.3733
20013,21.142,3.4545,0,6.4065e-05,640.21,2.6723e-05,67.886,1.7692e-05,0.028827,-6.2639e-05,-603.55,2.3886
20014,21.05,3.4545,0.05,7.2456e-07,7.2406,5.5637e-07,4.1803,1.7923e-12,9.13e-06,-5.5637e-07,-4.1804,2.3733
20015,21.05,3.7273,0,6.5754e-05,657.09,2.6926e-05,63.483,1.8481e-05,0.026462,-6.4443e-05,-623.03,2.3732
20016,21.142,3.6364,0,6.3965e-05,639.21,2.6578e-05,66.506,1.7731e-05,0.027983,-6.2573e-05,-603.35,2.3886
20017,21.05,3.6364,0.05,7.2425e-07,7.2375,5.5613e-07,4.1785,2.3189e-12,1.2533e-05,-5.5613e-07,-4.1786,2.3732
20018,21.05,3.9091,0,6.5619e-05,655.74,2.6724e-05,61.549,1.8536e-05,0.025118,-6.4354e-05,-622.78,2.3731
20019,21.142,3.8182,0,6.3835e-05,637.91,2.6388e-05,64.691,1.7782e-05,0.026809,-6.2488e-05,-603.09,2.3885
20020,21.05,3.8182,0.05,7.2384e-07,7.2334,5.5581e-07,4.1762,2.3951e-12,1.3551e-05,-5.5582e-07,-4.1762,2.3731
20021,21.05,4.0909,0,6.546e-05,654.15,2.6484e-05,59.238,1.8603e-05,0.023375,-6.425e-05,-622.51,2.373
20022,21.142,4,0,6.3678e-05,636.34,2.6156e-05,62.463,1.7846e-05,0.025255,-6.2385e-05,-602.8,2.3884
20023,21.05,4,0.05,7.2334e-07,7.2284,5.5543e-07,4.1733,2.6642e-12,1.2444e-05,-5.5543e-07,-4.1733,2.373
20024,21.05,4.2727,0,6.5282e-05,652.37,2.6209e-05,56.581,1.8681e-05,0.021163,-6.4134e-05,-622.22,2.3729
20025,21.142,4.1818,0,6.3497e-05,634.54,2.5884e-05,59.852,1.7921e-05,0.023261,-6.2267e-05,-602.48,2.3883
20026,21.05,4.1818,0.05,7.2275e-07,7.2225,5.5498e-07,4.1699,2.2493e-12,1.1851e-05,-5.5498e-07,-4.1699,2.3729
20027,21.05,4.4545,0,6.5089e-05,650.44,2.5904e-05,53.618,1.877e-05,0.018388,-6.401e-05,-621.96,2.3728
20028,21.142,4.3636,0,6.3298e-05,632.54,2.5578e-05,56.895,1.8008e-05,0.02074,-6.2137e-05,-602.16,2.3882
20029,21.05,4.3636,0.05,7.2208e-07,7.2159,5.5447e-07,4.1661,2.9731e-12,1.4929e-05,-5.5447e-07,-4.1661,2.3728
20030,21.05,4.6364,0,6.4887e-05,648.43,2.5575e-05,50.399,1.8869e-05,0.014943,-6.3883e-05,-621.75,2.3726
20031,21.142,4.5455,0,6.3085e-05,630.41,2.5242e-05,53.638,1.8106e-05,0.017579,-6.2001e-05,-601.87,2.388
20032,21.05,4.5455,0.05,7.2135e-07,7.2085,5.539e-07,4.1618,2.7561e-12,1.255e-05,-5.5391e-07,-4.1619,2.3727
20033,21.05,4.8182,0,6.4685e-05,646.4,2.5229e-05,46.979,1.8977e-05,0.010648,-6.3757e-05,-621.63,2.3725
20034,21.142,4.7273,0,6.2866e-05,628.22,2.4885e-05,50.135,1.8214e-05,0.013662,-6.1862e-05,-601.65,2.3879
20035,21.05,4.7273,0.05,7.2055e-07,7.2005,5.5329e-07,4.1572,2.7441e-12,1.4542e-05,-5.5329e-07,-4.1572,2.3725
20036,21.05,5,0,6.4489e-05,644.44,2.4873e-05,43.425,1.9095e-05,0.005432,-6.364e-05,-621.63,2.3723
20037,21.142,4.9091,0,6.2648e-05,626.05,2.4512e-05,46.45,1.8331e-05,0.0087199,-6.1728e-05,-601.53,2.3877
20038,21.05,4.9091,0.05,7.1969e-07,7.1919,5.5263e-07,4.1522,2.7419e-12,1.4582e-05,-5.5263e-07,-4.1523,2.3723
20039,21.05,5.1818,0,6.4309e-05,642.65,2.4518e-05,39.809,1.9219e-05,-0.0014359,-6.3539e-05,-621.82,2.3721
20040,21.142,5.0909,0,6.2441e-05,623.98,2.4133e-05,42.655,1.8457e-05,0.0028579,-6.1606e-05,-601.56,2.3875
20041,21.05,5.0909,0.05,7.1876e-07,7.1827,5.5192e-07,4.1469,2.7396e-12,1.243e-05,-5.5192e-07,-4.1469,2.3722
20042,21.05,5.3636,0,6.4156e-05,641.11,2.4173e-05,36.218,1.9351e-05,-0.008242,-6.3463e-05,-622.24,2.3719
20043,21.142,5.2727,0,6.2255e-05,622.12,2.3759e-05,38.834,1.859e-05,-0.0055711,-6.1503e-05,-601.8,2.3873
20044,21.05,5.2727,0.05,7.1765e-07,7.1716,5.5106e-07,4.1405,2.6388e-12,1.2867e-05,-5.5107e-07,-4.1405,2.372
20045,21.05,5.5455,0,6.405e-05,640.06,2.3858e-05,32.802,1.9489e-05,-0.026514,-6.343e-05,-623.04,2.3716
20046,21.142,5.4545,0,6.2102e-05,620.59,2.3401e-05,35.084,1.873e-05,-0.011402,-6.1431e-05,-602.31,2.3871
20047,21.05,5.4545,0.05,7.1434e-07,7.1385,5.4853e-07,4.1214,2.5943e-12,1.2009e-05,-5.4853e-07,-4.1214,2.3717
20048,21.05,5.7273,0,6.4199e-05,641.55,2.3751e-05,30.908,1.9634e-05,-0.02677,-6.3618e-05,-625.55,2.3714
20049,21.142,5.6364,0,6.2016e-05,619.73,2.309e-05,31.627,1.8875e-05,-0.043338,-6.1418e-05,-603.33,2.3869
20050,21.05,5.6364,0.05,6.7806e-07,6.776,5.2067e-07,3.9121,2.9811e-12,1.2466e-05,-5.2067e-07,-3.9121,2.3715
20051,21.142,5.8182,0,6.2398e-05,623.55,2.317e-05,31.085,1.9032e-05,-0.0049938,-6.1811e-05,-607.43,2.3866
20052,21.05,5.8182,0.05,1.5983e-07,1.5972,1.2273e-07,0.92211,2.8457e-13,-4.2758e-06,-1.2273e-07,-0.92214,2.3712
20053,21.05,5.9091,0,6.3024e-05,629.81,2.2505e-05,20.527,1.9772e-05,-0.0086902,-6.265e-05,-619.3,2.3711
20054,21.235,0.27273,0,6.0178e-05,601.37,2.2477e-05,31.569,1.8272e-05,-0.029159,-5.9579e-05,-584.97,2.4021
20055,21.327,0.18182,0,5.8373e-05,583.33,2.188e-05,31.569,1.7678e-05,-0.0065344,-5.7772e-05,-566.91,2.4174
20056,21.235,0.18182,0.05,1.7508e-07,1.7496,1.3444e-07,1.0101,-1.0959e-12,-5.325e-06,-1.3444e-07,-1.0101,2.402
20057,21.235,0.090909,0,5.898e-05,589.39,2.1198e-05,20.866,1.842e-05,-0.008719,-5.8597e-05,-578.69,2.4019
20058,21.235,0.45455,0,6.0055e-05,600.14,2.2623e-05,33.829,1.8117e-05,-0.02806,-5.9409e-05,-582.52,2.4024
20059,21.327,0.36364,0,5.8015e-05,579.75,2.1839e-05,32.481,1.751e-05,-0.046289,-5.7395e-05,-562.85,2.4176
20060,21.235,0.36364,0.05,6.7759e-07,6.7712,5.203e-07,3.9093,-1.0709e-14,-1.4886e-06,-5.203e-07,-3.9093,2.4022
20061,21.235,0.63636,0,6.0191e-05,601.5,2.2979e-05,37.631,1.7969e-05,-0.0082594,-5.9463e-05,-581.8,2.4026
20062,21.327,0.54545,0,5.8132e-05,580.92,2.2192e-05,36.338,1.7354e-05,-0.011712,-5.7429e-05,-561.9,2.4178
20063,21.235,0.54545,0.05,7.1294e-07,7.1245,5.4745e-07,4.1133,-9.5119e-14,-1.4529e-06,-5.4745e-07,-4.1133,2.4025
20064,21.235,0.81818,0,6.0378e-05,603.36,2.3366e-05,41.617,1.7828e-05,-0.00087309,-5.9562e-05,-581.47,2.4028
20065,21.327,0.72727,0,5.8319e-05,582.79,2.2595e-05,40.501,1.7204e-05,-0.0052697,-5.7524e-05,-561.48,2.4181
20066,21.235,0.72727,0.05,7.1631e-07,7.1582,5.5004e-07,4.1328,4.5232e-13,1.4867e-06,-5.5004e-07,-4.1328,2.4027
20067,21.235,1,0,6.0592e-05,605.5,2.3764e-05,45.622,1.7693e-05,0.0064807,-5.9686e-05,-581.39,2.403
20068,21.327,0.90909,0,5.8541e-05,585.01,2.3014e-05,44.738,1.706e-05,0.0038049,-5.7651e-05,-561.35,2.4182
20069,21.235,0.90909,0.05,7.1755e-07,7.1705,5.5099e-07,4.1399,9.0663e-13,3.6673e-06,-5.5099e-07,-4.1399,2.4029
20070,21.235,1.1818,0,6.0821e-05,607.79,2.4161e-05,49.553,1.7567e-05,0.012014,-5.9826e-05,-581.49,2.4031
20071,21.327,1.0909,0,5.8784e-05,587.43,2.3437e-05,48.936,1.6925e-05,0.010059,-5.7798e-05,-561.43,2.4184
20072,21.235,1.0909,0.05,7.186e-07,7.1811,5.518e-07,4.146,6.3047e-13,4.06e-06,-5.518e-07,-4.146,2.403
20073,21.235,1.3636,0,6.1056e-05,610.14,2.4546e-05,53.326,1.7451e-05,0.016534,-5.9974e-05,-581.72,2.4033
20074,21.327,1.2727,0,5.9037e-05,589.96,2.3851e-05,53.005,1.6799e-05,0.015282,-5.7956e-05,-561.66,2.4186
20075,21.235,1.2727,0.05,7.1959e-07,7.1909,5.5255e-07,4.1517,8.0062e-13,2.4039e-06,-5.5255e-07,-4.1517,2.4032
20076,21.235,1.5455,0,6.1288e-05,612.46,2.4911e-05,56.871,1.7344e-05,0.020134,-6.0122e-05,-582.03,2.4035
20077,21.327,1.4545,0,5.9289e-05,592.48,2.4248e-05,56.863,1.6683e-05,0.019393,-5.8116e-05,-561.99,2.4187
20078,21.235,1.4545,0.05,7.2051e-07,7.2001,5.5326e-07,4.157,1.2496e-12,1.853e-06,-5.5326e-07,-4.157,2.4034
20079,21.235,1.7273,0,6.1508e-05,614.66,2.5248e-05,60.126,1.7248e-05,0.023017,-6.0264e-05,-582.38,2.4036
20080,21.327,1.6364,0,5.9532e-05,594.91,2.4619e-05,60.442,1.6577e-05,0.022685,-5.8273e-05,-562.37,2.4189
20081,21.235,1.6364,0.05,7.2136e-07,7.2086,5.5392e-07,4.1619,1.0536e-12,2.5945e-06,-5.5392e-07,-4.1619,2.4035
20082,21.235,1.9091,0,6.1711e-05,616.68,2.5551e-05,63.039,1.7164e-05,0.025302,-6.0396e-05,-582.73,2.4037
20083,21.327,1.8182,0,5.9758e-05,597.17,2.4956e-05,63.683,1.6484e-05,0.025294,-5.842e-05,-562.77,2.419
20084,21.235,1.8182,0.05,7.2213e-07,7.2163,5.5451e-07,4.1663,8.6203e-13,1.5508e-06,-5.5451e-07,-4.1664,2.4036
20085,21.235,2.0909,0,6.1891e-05,618.48,2.5815e-05,65.569,1.7092e-05,0.027094,-6.0514e-05,-583.07,2.4038
20086,21.327,2,0,5.9963e-05,599.21,2.5254e-05,66.539,1.6402e-05,0.027349,-5.8552e-05,-563.15,2.4191
20087,21.235,2,0.05,7.2281e-07,7.2231,5.5503e-07,4.1703,6.9632e-13,2.0152e-06,-5.5503e-07,-4.1703,2.4037
20088,21.235,2.2727,0,6.2043e-05,620,2.6036e-05,67.681,1.7032e-05,0.028469,-6.0614e-05,-583.37,2.4039
20089,21.327,2.1818,0,6.0139e-05,600.98,2.5509e-05,68.971,1.6334e-05,0.028943,-5.8668e-05,-563.5,2.4192
20090,21.235,2.1818,0.05,7.2339e-07,7.2289,5.5547e-07,4.1736,1.2185e-12,2.8938e-06,-5.5548e-07,-4.1736,2.4038
20091,21.235,2.4545,0,6.2165e-05,621.22,2.6212e-05,69.349,1.6986e-05,0.029485,-6.0694e-05,-583.62,2.4039
20092,21.327,2.3636,0,6.0285e-05,602.43,2.5717e-05,70.949,1.6278e-05,0.030142,-5.8763e-05,-563.8,2.4192
20093,21.235,2.3636,0.05,7.2387e-07,7.2337,5.5584e-07,4.1763,1.0668e-12,3.4955e-06,-5.5584e-07,-4.1764,2.4039
20094,21.235,2.6364,0,6.2253e-05,622.1,2.6338e-05,70.554,1.6952e-05,0.030183,-6.0752e-05,-583.81,2.404
20095,21.327,2.5455,0,6.0396e-05,603.55,2.5875e-05,72.452,1.6237e-05,0.031002,-5.8836e-05,-564.04,2.4193
20096,21.235,2.5455,0.05,7.2423e-07,7.2373,5.5612e-07,4.1784,1.1477e-12,5.0349e-06,-5.5612e-07,-4.1785,2.4039
20097,21.235,2.8182,0,6.2307e-05,622.64,2.6415e-05,71.282,1.6932e-05,0.030591,-6.0787e-05,-583.92,2.404
20098,21.327,2.7273,0,6.0472e-05,604.3,2.5982e-05,73.462,1.6209e-05,0.031555,-5.8886e-05,-564.2,2.4193
20099,21.235,2.7273,0.05,7.2447e-07,7.2397,5.563e-07,4.1798,1.2326e-12,2.8189e-06,-5.563e-07,-4.1799,2.404
20100,21.235,3,0,6.2325e-05,622.82,2.644e-05,71.526,1.6925e-05,0.030725,-6.0799e-05,-583.96,2.404
20101,21.327,2.9091,0,6.051e-05,604.68,2.6035e-05,73.97,1.6195e-05,0.031826,-5.8911e-05,-564.28,2.4194
20102,21.235,2.9091,0.05,7.2459e-07,7.2409,5.564e-07,4.1805,1.7744e-12,4.4341e-06,-5.564e-07,-4.1806,2.404
20103,21.235,3.1818,0,6.2307e-05,622.64,2.6415e-05,71.282,1.6932e-05,0.030591,-6.0787e-05,-583.92,2.404
20104,21.327,3.0909,0,6.051e-05,604.68,2.6035e-05,73.97,1.6195e-05,0.031827,-5.8911e-05,-564.28,2.4194
20105,21.235,3.0909,0.05,7.2459e-07,7.2409,5.564e-07,4.1805,1.4086e-12,5.1019e-06,-5.564e-07,-4.1806,2.404
20106,21.235,3.3636,0,6.2253e-05,622.1,2.6338e-05,70.554,1.6952e-05,0.030182,-6.0752e-05,-583.81,2.404
20107,21.327,3.2727,0,6.0472e-05,604.3,2.5982e-05,73.462,1.6209e-05,0.031554,-5.8886e-05,-564.2,2.4193
20108,21.235,3.2727,0.05,7.2447e-07,7.2397,5.563e-07,4.1798,1.9505e-12,6.7121e-06,-5.5631e-07,-4.1799,2.404
20109,21.235,3.5455,0,6.2165e-05,621.22,2.6212e-05,69.349,1.6986e-05,0.029484,-6.0694e-05,-583.62,2.4039
20110,21.327,3.4545,0,6.0396e-05,603.55,2.5875e-05,72.452,1.6237e-05,0.031002,-5.8836e-05,-564.04,2.4193
20111,21.235,3.4545,0.05,7.2423e-07,7.2373,5.5611e-07,4.1784,1.8062e-12,7.3326e-06,-5.5612e-07,-4.1785,2.4039
20112,21.235,3.7273,0,6.2043e-05,620,2.6036e-05,67.681,1.7032e-05,0.028469,-6.0614e-05,-583.37,2.4039
20113,21.327,3.6364,0,6.0285e-05,602.43,2.5717e-05,70.95,1.6278e-05,0.030141,-5.8763e-05,-563.8,2.4192
20114,21.235,3.6364,0.05,7.2387e-07,7.2337,5.5584e-07,4.1763,2.3331e-12,8.8736e-06,-5.5584e-07,-4.1764,2.4039
20115,21.235,3.9091,0,6.1891e-05,618.48,2.5815e-05,65.569,1.7092e-05,0.027094,-6.0514e-05,-583.07,2.4038
20116,21.327,3.8182,0,6.0139e-05,600.98,2.5509e-05,68.971,1.6334e-05,0.028943,-5.8668e-05,-563.5,2.4192
20117,21.235,3.8182,0.05,7.2339e-07,7.2289,5.5547e-07,4.1736,2.6345e-12,1.1795e-05,-5.5548e-07,-4.1736,2.4038
20118,21.235,4.0909,0,6.1711e-05,616.68,2.5551e-05,63.039,1.7164e-05,0.025301,-6.0396e-05,-582.73,2.4037
20119,21.327,4,0,5.9963e-05,599.21,2.5254e-05,66.539,1.6402e-05,0.027349,-5.8552e-05,-563.15,2.4191
20120,21.235,4,0.05,7.2281e-07,7.2231,5.5503e-07,4.1702,2.2444e-12,9.3097e-06,-5.5503e-07,-4.1703,2.4037
20121,21.235,4.2727,0,6.1508e-05,614.66,2.5248e-05,60.126,1.7248e-05,0.023016,-6.0264e-05,-582.38,2.4036
20122,21.327,4.1818,0,5.9758e-05,597.17,2.4956e-05,63.683,1.6484e-05,0.025293,-5.842e-05,-562.77,2.419
20123,21.235,4.1818,0.05,7.2213e-07,7.2163,5.545e-07,4.1663,2.2809e-12,9.6491e-06,-5.5451e-07,-4.1664,2.4036
20124,21.235,4.4545,0,6.1288e-05,612.46,2.4911e-05,56.871,1.7344e-05,0.020135,-6.0122e-05,-582.03,2.4035
20125,21.327,4.3636,0,5.9532e-05,594.91,2.4619e-05,60.442,1.6577e-05,0.022685,-5.8273e-05,-562.37,2.4189
20126,21.235,4.3636,0.05,7.2136e-07,7.2086,5.5391e-07,4.1619,2.9903e-12,1.2366e-05,-5.5392e-07,-4.1619,2.4035
20127,21.235,4.6364,0,6.1056e-05,610.14,2.4546e-05,53.326,1.7451e-05,0.016534,-5.9974e-05,-581.72,2.4033
20128,21.327,4.5455,0,5.9289e-05,592.48,2.4248e-05,56.863,1.6683e-05,0.019392,-5.8116e-05,-561.99,2.4187
20129,21.235,4.5455,0.05,7.2051e-07,7.2001,5.5326e-07,4.157,3.0146e-12,9.6419e-06,-5.5326e-07,-4.157,2.4034
20130,21.235,4.8182,0,6.0821e-05,607.79,2.4161e-05,49.553,1.7567e-05,0.012013,-5.9826e-05,-581.49,2.4031
20131,21.327,4.7273,0,5.9037e-05,589.96,2.3851e-05,53.005,1.6799e-05,0.015282,-5.7956e-05,-561.66,2.4186
20132,21.235,4.7273,0.05,7.1959e-07,7.1909,5.5255e-07,4.1517,2.7538e-12,1.2128e-05,-5.5256e-07,-4.1517,2.4032
20133,21.235,5,0,6.0592e-05,605.5,2.3764e-05,45.623,1.7693e-05,0.00648,-5.9686e-05,-581.39,2.403
20134,21.327,4.9091,0,5.8784e-05,587.43,2.3437e-05,48.936,1.6925e-05,0.010058,-5.7798e-05,-561.43,2.4184
20135,21.235,4.9091,0.05,7.186e-07,7.1811,5.5179e-07,4.146,2.7548e-12,1.175e-05,-5.518e-07,-4.146,2.403
20136,21.235,5.1818,0,6.0378e-05,603.36,2.3366e-05,41.617,1.7828e-05,-0.00087303,-5.9562e-05,-581.47,2.4028
20137,21.327,5.0909,0,5.8541e-05,585.01,2.3014e-05,44.738,1.706e-05,0.0038043,-5.7651e-05,-561.35,2.4182
20138,21.235,5.0909,0.05,7.1755e-07,7.1705,5.5099e-07,4.1399,2.7465e-12,9.7228e-06,-5.5099e-07,-4.1399,2.4029
20139,21.235,5.3636,0,6.0191e-05,601.5,2.2979e-05,37.631,1.7969e-05,-0.0082572,-5.9463e-05,-581.8,2.4026
20140,21.327,5.2727,0,5.8319e-05,582.79,2.2595e-05,40.501,1.7204e-05,-0.0052705,-5.7524e-05,-561.48,2.4181
20141,21.235,5.2727,0.05,7.1631e-07,7.1582,5.5004e-07,4.1327,2.9393e-12,1.0922e-05,-5.5004e-07,-4.1328,2.4027
20142,21.235,5.5455,0,6.0055e-05,600.14,2.2623e-05,33.829,1.8117e-05,-0.028056,-5.9409e-05,-582.52,2.4024
20143,21.327,5.4545,0,5.8132e-05,580.92,2.2192e-05,36.338,1.7354e-05,-0.011712,-5.7429e-05,-561.9,2.4178
20144,21.235,5.4545,0.05,7.1294e-07,7.1245,5.4745e-07,4.1133,2.6222e-12,1.0575e-05,-5.4745e-07,-4.1134,2.4025
20145,21.235,5.7273,0,6.0178e-05,601.37,2.2477e-05,31.569,1.8272e-05,-0.029159,-5.9579e-05,-584.97,2.4021
20146,21.327,5.6364,0,5.8015e-05,579.75,2.1839e-05,32.481,1.751e-05,-0.046286,-5.7395e-05,-562.85,2.4176
20147,21.235,5.6364,0.05,6.7759e-07,6.7712,5.203e-07,3.9093,2.9253e-12,1.1283e-05,-5.203e-07,-3.9094,2.4022
20148,21.327,5.8182,0,5.8373e-05,583.33,2.188e-05,31.569,1.7678e-05,-0.0065339,-5.7772e-05,-566.91,2.4174
20149,21.235,5.8182,0.05,1.7508e-07,1.7496,1.3444e-07,1.0101,1.7886e-13,-4.9534e-06,-1.3444e-07,-1.0101,2.402
20150,21.235,5.9091,0,5.898e-05,589.39,2.1198e-05,20.866,1.842e-05,-0.0087185,-5.8597e-05,-578.69,2.4019
20151,21.419,0.27273,0,5.6171e-05,561.33,2.1209e-05,32.236,1.6914e-05,-0.031871,-5.5554e-05,-544.53,2.4329
20152,21.511,0.18182,0,5.4361e-05,543.23,2.0593e-05,32.036,1.6328e-05,-0.0084407,-5.3745e-05,-526.51,2.4482
20153,21.419,0.18182,0.05,1.9164e-07,1.9151,1.4715e-07,1.1057,-1.9412e-13,2.9941e-06,-1.4715e-07,-1.1057,2.4328
20154,21.419,0.090909,0,5.495e-05,549.13,1.9895e-05,21.198,1.7073e-05,-0.0086586,-5.4559e-05,-538.22,2.4327
20155,21.419,0.45455,0,5.6078e-05,560.4,2.1397e-05,34.904,1.6747e-05,-0.029689,-5.5403e-05,-542.14,2.4331
20156,21.511,0.36364,0,5.403e-05,539.93,2.0595e-05,33.363,1.6148e-05,-0.049505,-5.3386e-05,-522.5,2.4484
20157,21.419,0.36364,0.05,6.7731e-07,6.7685,5.2009e-07,3.9078,-2.4977e-13,-1.0686e-06,-5.2009e-07,-3.9078,2.433
20158,21.419,0.63636,0,5.6249e-05,562.1,2.1799e-05,39.135,1.6589e-05,-0.0081675,-5.5481e-05,-541.51,2.4333
20159,21.511,0.54545,0,5.4182e-05,541.45,2.0995e-05,37.665,1.5981e-05,-0.011951,-5.3443e-05,-521.64,2.4486
20160,21.419,0.54545,0.05,7.117e-07,7.1121,5.465e-07,4.1061,-3.3089e-13,-5.6398e-07,-5.4649e-07,-4.1062,2.4332
20161,21.419,0.81818,0,5.6472e-05,564.33,2.2234e-05,43.557,1.6437e-05,-0.00012806,-5.5605e-05,-541.29,2.4335
20162,21.511,0.72727,0,5.4408e-05,543.7,2.1447e-05,42.288,1.5819e-05,-0.0048046,-5.3565e-05,-521.33,2.4488
20163,21.419,0.72727,0.05,7.1515e-07,7.1465,5.4914e-07,4.126,4.9581e-13,1.7678e-06,-5.4914e-07,-4.126,2.4334
20164,21.419,1,0,5.6724e-05,566.85,2.2678e-05,47.992,1.6292e-05,0.0077619,-5.5755e-05,-541.33,2.4337
20165,21.511,0.90909,0,5.467e-05,546.32,2.1917e-05,46.983,1.5664e-05,0.0049928,-5.3719e-05,-521.31,2.449
20166,21.419,0.90909,0.05,7.1653e-07,7.1604,5.5021e-07,4.1341,6.4628e-13,4.5657e-06,-5.5021e-07,-4.1341,2.4336
20167,21.419,1.1818,0,5.6992e-05,569.52,2.312e-05,52.335,1.6156e-05,0.013639,-5.592e-05,-541.54,2.4339
20168,21.511,1.0909,0,5.4953e-05,549.15,2.2388e-05,51.626,1.5518e-05,0.011675,-5.3893e-05,-521.51,2.4492
20169,21.419,1.0909,0.05,7.1774e-07,7.1725,5.5114e-07,4.141,8.0024e-13,6.0053e-06,-5.5114e-07,-4.141,2.4338
20170,21.419,1.3636,0,5.7263e-05,572.23,2.3547e-05,56.494,1.6031e-05,0.018403,-5.6092e-05,-541.88,2.434
20171,21.511,1.2727,0,5.5245e-05,552.07,2.2848e-05,56.113,1.5382e-05,0.017205,-5.4076e-05,-521.86,2.4493
20172,21.419,1.2727,0.05,7.1888e-07,7.1838,5.5201e-07,4.1476,5.8984e-13,4.8595e-06,-5.5201e-07,-4.1476,2.434
20173,21.419,1.5455,0,5.7527e-05,574.88,2.395e-05,60.39,1.5916e-05,0.022169,-5.6261e-05,-542.29,2.4342
20174,21.511,1.4545,0,5.5533e-05,554.95,2.3287e-05,60.356,1.5257e-05,0.021519,-5.4259e-05,-522.29,2.4495
20175,21.419,1.4545,0.05,7.1995e-07,7.1945,5.5283e-07,4.1537,6.0642e-13,3.5522e-06,-5.5283e-07,-4.1537,2.4341
20176,21.419,1.7273,0,5.7777e-05,577.38,2.4322e-05,63.959,1.5813e-05,0.025161,-5.6423e-05,-542.72,2.4343
20177,21.511,1.6364,0,5.5809e-05,557.71,2.3695e-05,64.28,1.5143e-05,0.02495,-5.4437e-05,-522.77,2.4496
20178,21.419,1.6364,0.05,7.2093e-07,7.2043,5.5359e-07,4.1594,8.5461e-13,5.0137e-06,-5.5359e-07,-4.1594,2.4342
20179,21.419,1.9091,0,5.8006e-05,579.66,2.4655e-05,67.146,1.5722e-05,0.02752,-5.6571e-05,-543.15,2.4344
20180,21.511,1.8182,0,5.6065e-05,560.26,2.4065e-05,67.824,1.5042e-05,0.027649,-5.4602e-05,-523.25,2.4497
20181,21.419,1.8182,0.05,7.2182e-07,7.2133,5.5427e-07,4.1646,6.7596e-13,2.6129e-06,-5.5427e-07,-4.1646,2.4343
20182,21.419,2.0909,0,5.8208e-05,581.68,2.4944e-05,69.907,1.5644e-05,0.029363,-5.6702e-05,-543.55,2.4345
20183,21.511,2,0,5.6294e-05,562.55,2.4392e-05,70.939,1.4954e-05,0.029766,-5.475e-05,-523.7,2.4498
20184,21.419,2,0.05,7.2261e-07,7.2211,5.5488e-07,4.1691,5.0134e-13,3.5677e-06,-5.5488e-07,-4.1691,2.4344
20185,21.419,2.2727,0,5.8378e-05,583.38,2.5186e-05,72.207,1.558e-05,0.030769,-5.6813e-05,-543.9,2.4346
20186,21.511,2.1818,0,5.6491e-05,564.52,2.467e-05,73.587,1.4881e-05,0.031398,-5.4878e-05,-524.11,2.4499
20187,21.419,2.1818,0.05,7.2329e-07,7.2279,5.5539e-07,4.173,1.4688e-12,3.1267e-06,-5.5539e-07,-4.173,2.4345
20188,21.419,2.4545,0,5.8514e-05,584.74,2.5377e-05,74.022,1.5529e-05,0.031806,-5.6902e-05,-544.19,2.4346
20189,21.511,2.3636,0,5.6653e-05,566.14,2.4896e-05,75.736,1.4821e-05,0.032622,-5.4983e-05,-524.45,2.45
20190,21.419,2.3636,0.05,7.2384e-07,7.2334,5.5582e-07,4.1762,1.0833e-12,4.5336e-06,-5.5582e-07,-4.1762,2.4346
20191,21.419,2.6364,0,5.8613e-05,585.72,2.5515e-05,75.331,1.5493e-05,0.032517,-5.6966e-05,-544.4,2.4347
20192,21.511,2.5455,0,5.6777e-05,567.38,2.5068e-05,77.366,1.4776e-05,0.033498,-5.5063e-05,-524.71,2.45
20193,21.419,2.5455,0.05,7.2425e-07,7.2375,5.5614e-07,4.1786,1.3877e-12,6.0807e-06,-5.5614e-07,-4.1786,2.4346
20194,21.419,2.8182,0,5.8673e-05,586.32,2.5598e-05,76.121,1.5471e-05,0.032931,-5.7005e-05,-544.53,2.4347
20195,21.511,2.7273,0,5.686e-05,568.21,2.5184e-05,78.461,1.4746e-05,0.034061,-5.5117e-05,-524.89,2.4501
20196,21.419,2.7273,0.05,7.2454e-07,7.2404,5.5635e-07,4.1802,1.2395e-12,3.8378e-06,-5.5636e-07,-4.1802,2.4347
20197,21.419,3,0,5.8693e-05,586.52,2.5626e-05,76.386,1.5464e-05,0.033067,-5.7019e-05,-544.57,2.4347
20198,21.511,2.9091,0,5.6903e-05,568.63,2.5242e-05,79.011,1.4731e-05,0.034335,-5.5145e-05,-524.98,2.4501
20199,21.419,2.9091,0.05,7.2468e-07,7.2418,5.5646e-07,4.181,1.3225e-12,6.3614e-06,-5.5646e-07,-4.1811,2.4347
20200,21.419,3.1818,0,5.8673e-05,586.32,2.5598e-05,76.121,1.5471e-05,0.03293,-5.7005e-05,-544.53,2.4347
20201,21.511,3.0909,0,5.6903e-05,568.63,2.5242e-05,79.011,1.4731e-05,0.034335,-5.5145e-05,-524.98,2.4501
20202,21.419,3.0909,0.05,7.2468e-07,7.2418,5.5646e-07,4.181,1.6333e-12,5.0819e-06,-5.5646e-07,-4.1811,2.4347
20203,21.419,3.3636,0,5.8613e-05,585.72,2.5515e-05,75.331,1.5493e-05,0.032516,-5.6966e-05,-544.4,2.4347
20204,21.511,3.2727,0,5.686e-05,568.21,2.5184e-05,78.461,1.4746e-05,0.03406,-5.5117e-05,-524.89,2.4501
20205,21.419,3.2727,0.05,7.2454e-07,7.2404,5.5635e-07,4.1802,1.9416e-12,8.5585e-06,-5.5636e-07,-4.1802,2.4347
20206,21.419,3.5455,0,5.8514e-05,584.74,2.5377e-05,74.022,1.5529e-05,0.031806,-5.6902e-05,-544.19,2.4346
20207,21.511,3.4545,0,5.6777e-05,567.38,2.5068e-05,77.366,1.4776e-05,0.033498,-5.5063e-05,-524.71,2.45
20208,21.419,3.4545,0.05,7.2425e-07,7.2375,5.5614e-07,4.1786,1.7921e-12,9.1228e-06,-5.5614e-07,-4.1786,2.4346
20209,21.419,3.7273,0,5.8378e-05,583.38,2.5186e-05,72.207,1.558e-05,0.030769,-5.6813e-05,-543.9,2.4346
20210,21.511,3.6364,0,5.6653e-05,566.14,2.4896e-05,75.736,1.4821e-05,0.032622,-5.4983e-05,-524.45,2.45
20211,21.419,3.6364,0.05,7.2384e-07,7.2334,5.5581e-07,4.1762,2.0894e-12,9.6154e-06,-5.5582e-07,-4.1762,2.4346
20212,21.419,3.9091,0,5.8208e-05,581.68,2.4944e-05,69.907,1.5644e-05,0.029362,-5.6702e-05,-543.55,2.4345
20213,21.511,3.8182,0,5.6491e-05,564.52,2.467e-05,73.587,1.4881e-05,0.031398,-5.4878e-05,-524.11,2.4499
20214,21.419,3.8182,0.05,7.2329e-07,7.2279,5.5539e-07,4.173,2.3777e-12,1.2042e-05,-5.554e-07,-4.173,2.4345
20215,21.419,4.0909,0,5.8006e-05,579.66,2.4655e-05,67.146,1.5722e-05,0.027519,-5.6571e-05,-543.15,2.4344
20216,21.511,4,0,5.6294e-05,562.55,2.4392e-05,70.939,1.4954e-05,0.029766,-5.475e-05,-523.7,2.4498
20217,21.419,4,0.05,7.2261e-07,7.2211,5.5487e-07,4.1691,2.4277e-12,1.2442e-05,-5.5488e-07,-4.1691,2.4344
20218,21.419,4.2727,0,5.7777e-05,577.38,2.4322e-05,63.959,1.5813e-05,0.02516,-5.6423e-05,-542.72,2.4343
20219,21.511,4.1818,0,5.6065e-05,560.26,2.4065e-05,67.824,1.5042e-05,0.027649,-5.4602e-05,-523.25,2.4497
20220,21.419,4.1818,0.05,7.2182e-07,7.2133,5.5427e-07,4.1645,2.2337e-12,1.0379e-05,-5.5427e-07,-4.1646,2.4343
20221,21.419,4.4545,0,5.7527e-05,574.88,2.395e-05,60.39,1.5916e-05,0.022168,-5.6261e-05,-542.29,2.4342
20222,21.511,4.3636,0,5.5809e-05,557.71,2.3695e-05,64.28,1.5143e-05,0.024949,-5.4437e-05,-522.77,2.4496
20223,21.419,4.3636,0.05,7.2093e-07,7.2043,5.5358e-07,4.1594,3.1732e-12,1.3833e-05,-5.5359e-07,-4.1594,2.4342
20224,21.419,4.6364,0,5.7263e-05,572.23,2.3547e-05,56.494,1.6031e-05,0.018403,-5.6092e-05,-541.88,2.434
20225,21.511,4.5455,0,5.5533e-05,554.95,2.3287e-05,60.356,1.5257e-05,0.021518,-5.4259e-05,-522.29,2.4495
20226,21.419,4.5455,0.05,7.1995e-07,7.1945,5.5283e-07,4.1537,2.7208e-12,1.097e-05,-5.5283e-07,-4.1538,2.4341
20227,21.419,4.8182,0,5.6992e-05,569.52,2.312e-05,52.335,1.6156e-05,0.01364,-5.592e-05,-541.54,2.4339
20228,21.511,4.7273,0,5.5245e-05,552.07,2.2848e-05,56.113,1.5382e-05,0.017205,-5.4076e-05,-521.86,2.4493
20229,21.419,4.7273,0.05,7.1888e-07,7.1838,5.5201e-07,4.1476,2.9242e-12,1.3382e-05,-5.5201e-07,-4.1476,2.434
20230,21.419,5,0,5.6724e-05,566.85,2.2678e-05,47.992,1.6292e-05,0.0077607,-5.5755e-05,-541.33,2.4337
20231,21.511,4.9091,0,5.4953e-05,549.15,2.2388e-05,51.626,1.5518e-05,0.011675,-5.3893e-05,-521.51,2.4492
20232,21.419,4.9091,0.05,7.1774e-07,7.1725,5.5113e-07,4.141,2.6991e-12,1.3605e-05,-5.5114e-07,-4.141,2.4338
20233,21.419,5.1818,0,5.6472e-05,564.33,2.2234e-05,43.557,1.6437e-05,-0.00012945,-5.5605e-05,-541.29,2.4335
20234,21.511,5.0909,0,5.467e-05,546.32,2.1917e-05,46.983,1.5664e-05,0.0049909,-5.3719e-05,-521.31,2.449
20235,21.419,5.0909,0.05,7.1654e-07,7.1604,5.5021e-07,4.134,2.4753e-12,1.1765e-05,-5.5021e-07,-4.1341,2.4336
20236,21.419,5.3636,0,5.6249e-05,562.1,2.1799e-05,39.135,1.6589e-05,-0.0081702,-5.5481e-05,-541.51,2.4333
20237,21.511,5.2727,0,5.4408e-05,543.7,2.1447e-05,42.288,1.5819e-05,-0.0048075,-5.3565e-05,-521.33,2.4488
20238,21.419,5.2727,0.05,7.1515e-07,7.1465,5.4914e-07,4.126,3.0271e-12,1.2537e-05,-5.4915e-07,-4.1261,2.4334
20239,21.419,5.5455,0,5.6078e-05,560.4,2.1397e-05,34.904,1.6747e-05,-0.02969,-5.5403e-05,-542.14,2.4331
20240,21.511,5.4545,0,5.4182e-05,541.45,2.0995e-05,37.665,1.5981e-05,-0.011953,-5.3443e-05,-521.64,2.4486
20241,21.419,5.4545,0.05,7.117e-07,7.1121,5.4649e-07,4.1061,2.7125e-12,1.1348e-05,-5.465e-07,-4.1062,2.4332
20242,21.419,5.7273,0,5.6171e-05,561.33,2.1209e-05,32.236,1.6914e-05,-0.031868,-5.5554e-05,-544.53,2.4329
20243,21.511,5.6364,0,5.403e-05,539.93,2.0595e-05,33.363,1.6148e-05,-0.049501,-5.3386e-05,-522.5,2.4484
20244,21.419,5.6364,0.05,6.7731e-07,6.7685,5.2009e-07,3.9078,2.8171e-12,1.2943e-05,-5.2009e-07,-3.9078,2.433
20245,21.511,5.8182,0,5.4361e-05,543.23,2.0593e-05,32.036,1.6328e-05,-0.008438,-5.3745e-05,-526.51,2.4482
20246,21.419,5.8182,0.05,1.9164e-07,1.915,1.4715e-07,1.1056,4.5185e-13,-3.3332e-06,-1.4715e-07,-1.1057,2.4328
20247,21.419,5.9091,0,5.4951e-05,549.13,1.9895e-05,21.198,1.7073e-05,-0.0086543,-5.4559e-05,-538.22,2.4327
20248,21.603,0.27273,0,5.2179e-05,521.43,1.9945e-05,32.908,1.556e-05,-0.034953,-5.1542e-05,-504.21,2.4637
20249,21.695,0.18182,0,5.036e-05,503.25,1.9307e-05,32.481,1.4983e-05,-0.010797,-4.9729e-05,-486.23,2.479
20250,21.603,0.18182,0.05,2.096e-07,2.0946,1.6095e-07,1.2093,8.6509e-13,4.4133e-06,-1.6095e-07,-1.2093,2.4636
20251,21.603,0.090909,0,5.0936e-05,509,1.8596e-05,21.519,1.5731e-05,-0.0084537,-5.0535e-05,-497.91,2.4635
20252,21.603,0.45455,0,5.212e-05,520.84,2.0181e-05,36.033,1.5381e-05,-0.031409,-5.1414e-05,-501.9,2.4639
20253,21.695,0.36364,0,5.0063e-05,500.28,1.9358e-05,34.277,1.4789e-05,-0.053013,-4.9392e-05,-482.29,2.4792
20254,21.603,0.36364,0.05,6.7726e-07,6.7679,5.2005e-07,3.9074,5.0313e-13,4.1049e-06,-5.2005e-07,-3.9075,2.4638
20255,21.603,0.63636,0,5.233e-05,522.93,2.0634e-05,40.741,1.5211e-05,-0.0079351,-5.1517e-05,-501.38,2.4641
20256,21.695,0.54545,0,5.0254e-05,502.2,1.9812e-05,39.075,1.461e-05,-0.012086,-4.9475e-05,-481.52,2.4794
20257,21.603,0.54545,0.05,7.1062e-07,7.1013,5.4567e-07,4.0999,6.0668e-13,2.1086e-06,-5.4567e-07,-4.0999,2.464
20258,21.603,0.81818,0,5.2595e-05,525.59,2.1121e-05,45.645,1.5046e-05,0.00085062,-5.167e-05,-501.28,2.4643
20259,21.695,0.72727,0,5.0523e-05,504.89,2.0319e-05,44.208,1.4435e-05,-0.0041206,-4.9626e-05,-481.33,2.4796
20260,21.603,0.72727,0.05,7.1418e-07,7.1368,5.484e-07,4.1205,7.4159e-13,2.8277e-06,-5.484e-07,-4.1205,2.4642
20261,21.603,1,0,5.289e-05,528.53,2.1618e-05,50.555,1.489e-05,0.0093369,-5.1848e-05,-501.44,2.4645
20262,21.695,0.90909,0,5.0831e-05,507.96,2.0843e-05,49.412,1.4268e-05,0.0064862,-4.981e-05,-481.45,2.4798
20263,21.603,0.90909,0.05,7.1575e-07,7.1525,5.4961e-07,4.1295,9.022e-13,4.8792e-06,-5.4961e-07,-4.1295,2.4644
20264,21.603,1.1818,0,5.3199e-05,531.62,2.2108e-05,55.349,1.4744e-05,0.015594,-5.204e-05,-501.78,2.4647
20265,21.695,1.0909,0,5.1159e-05,511.24,2.1367e-05,54.542,1.411e-05,0.013644,-5.0013e-05,-481.78,2.48
20266,21.603,1.0909,0.05,7.1714e-07,7.1665,5.5067e-07,4.1376,6.6604e-13,4.4328e-06,-5.5068e-07,-4.1376,2.4646
20267,21.603,1.3636,0,5.3509e-05,534.72,2.2581e-05,59.926,1.4608e-05,0.020617,-5.2237e-05,-502.23,2.4648
20268,21.695,1.2727,0,5.1494e-05,514.58,2.1877e-05,59.485,1.3963e-05,0.019506,-5.0223e-05,-482.25,2.4801
20269,21.603,1.2727,0.05,7.1846e-07,7.1796,5.5169e-07,4.1451,8.8883e-13,3.576e-06,-5.5169e-07,-4.1452,2.4647
20270,21.603,1.5455,0,5.381e-05,537.73,2.3025e-05,64.202,1.4484e-05,0.024554,-5.2429e-05,-502.73,2.4649
20271,21.695,1.4545,0,5.1822e-05,517.86,2.2361e-05,64.143,1.3827e-05,0.024035,-5.0431e-05,-482.79,2.4803
20272,21.603,1.4545,0.05,7.1969e-07,7.192,5.5264e-07,4.1523,9.1078e-13,4.1413e-06,-5.5264e-07,-4.1523,2.4649
20273,21.603,1.7273,0,5.4092e-05,540.55,2.3433e-05,68.106,1.4373e-05,0.027661,-5.261e-05,-503.26,2.4651
20274,21.695,1.6364,0,5.2133e-05,520.97,2.2809e-05,68.437,1.3705e-05,0.027607,-5.063e-05,-483.36,2.4804
20275,21.603,1.6364,0.05,7.2084e-07,7.2034,5.5351e-07,4.1589,6.9923e-13,4.0132e-06,-5.5351e-07,-4.1589,2.465
20276,21.603,1.9091,0,5.4349e-05,543.11,2.3798e-05,71.582,1.4275e-05,0.030096,-5.2776e-05,-503.76,2.4652
20277,21.695,1.8182,0,5.2419e-05,523.83,2.3214e-05,72.303,1.3596e-05,0.0304,-5.0813e-05,-483.91,2.4805
20278,21.603,1.8182,0.05,7.2187e-07,7.2137,5.5431e-07,4.1648,1.1726e-12,2.8129e-06,-5.5431e-07,-4.1649,2.4651
20279,21.603,2.0909,0,5.4574e-05,545.36,2.4113e-05,74.587,1.4191e-05,0.031988,-5.2921e-05,-504.22,2.4653
20280,21.695,2,0,5.2675e-05,526.39,2.357e-05,75.691,1.3501e-05,0.032578,-5.0977e-05,-484.43,2.4806
20281,21.603,2,0.05,7.2279e-07,7.2229,5.5501e-07,4.1701,7.7405e-13,3.0306e-06,-5.5501e-07,-4.1701,2.4652
20282,21.603,2.2727,0,5.4764e-05,547.26,2.4377e-05,77.085,1.4122e-05,0.033426,-5.3043e-05,-504.62,2.4653
20283,21.695,2.1818,0,5.2894e-05,528.58,2.3873e-05,78.563,1.3421e-05,0.034248,-5.1117e-05,-484.88,2.4807
20284,21.603,2.1818,0.05,7.2357e-07,7.2307,5.5561e-07,4.1746,1.2834e-12,4.3911e-06,-5.5561e-07,-4.1746,2.4653
20285,21.603,2.4545,0,5.4914e-05,548.76,2.4584e-05,79.052,1.4067e-05,0.034481,-5.314e-05,-504.94,2.4654
20286,21.695,2.3636,0,5.3073e-05,530.37,2.4118e-05,80.89,1.3357e-05,0.035497,-5.1232e-05,-485.26,2.4808
20287,21.603,2.3636,0.05,7.242e-07,7.237,5.561e-07,4.1783,6.6448e-13,4.8406e-06,-5.561e-07,-4.1783,2.4653
20288,21.603,2.6364,0,5.5023e-05,549.85,2.4733e-05,80.469,1.4028e-05,0.035205,-5.321e-05,-505.17,2.4654
20289,21.695,2.5455,0,5.321e-05,531.73,2.4304e-05,82.651,1.3309e-05,0.036388,-5.1319e-05,-485.55,2.4808
20290,21.603,2.5455,0.05,7.2468e-07,7.2418,5.5647e-07,4.1811,1.1876e-12,5.325e-06,-5.5647e-07,-4.1811,2.4654
20291,21.603,2.8182,0,5.5089e-05,550.51,2.4824e-05,81.324,1.4005e-05,0.035625,-5.3253e-05,-505.31,2.4655
20292,21.695,2.7273,0,5.3302e-05,532.65,2.4429e-05,83.833,1.3276e-05,0.03696,-5.1378e-05,-485.75,2.4808
20293,21.603,2.7273,0.05,7.2501e-07,7.2451,5.5672e-07,4.1829,1.2565e-12,3.9733e-06,-5.5672e-07,-4.183,2.4654
20294,21.603,3,0,5.5112e-05,550.73,2.4854e-05,81.609,1.3997e-05,0.035763,-5.3267e-05,-505.36,2.4655
20295,21.695,2.9091,0,5.3348e-05,533.11,2.4491e-05,84.426,1.326e-05,0.037238,-5.1408e-05,-485.85,2.4809
20296,21.603,2.9091,0.05,7.2517e-07,7.2467,5.5684e-07,4.1839,1.783e-12,5.452e-06,-5.5685e-07,-4.1839,2.4654
20297,21.603,3.1818,0,5.5089e-05,550.51,2.4824e-05,81.324,1.4005e-05,0.035625,-5.3253e-05,-505.31,2.4655
20298,21.695,3.0909,0,5.3348e-05,533.11,2.4491e-05,84.426,1.326e-05,0.037237,-5.1408e-05,-485.85,2.4809
20299,21.603,3.0909,0.05,7.2517e-07,7.2467,5.5684e-07,4.1839,1.8547e-12,4.0834e-06,-5.5685e-07,-4.1839,2.4654
20300,21.603,3.3636,0,5.5023e-05,549.85,2.4733e-05,80.469,1.4028e-05,0.035204,-5.321e-05,-505.17,2.4654
20301,21.695,3.2727,0,5.3302e-05,532.65,2.4429e-05,83.833,1.3276e-05,0.036959,-5.1378e-05,-485.75,2.4808
20302,21.603,3.2727,0.05,7.2501e-07,7.2451,5.5672e-07,4.1829,1.6966e-12,5.555e-06,-5.5672e-07,-4.183,2.4654
20303,21.603,3.5455,0,5.4914e-05,548.76,2.4584e-05,79.052,1.4067e-05,0.034482,-5.314e-05,-504.94,2.4654
20304,21.695,3.4545,0,5.321e-05,531.73,2.4304e-05,82.651,1.3309e-05,0.036387,-5.1319e-05,-485.55,2.4808
20305,21.603,3.4545,0.05,7.2468e-07,7.2418,5.5647e-07,4.1811,1.9885e-12,7.957e-06,-5.5647e-07,-4.1811,2.4654
20306,21.603,3.7273,0,5.4764e-05,547.26,2.4377e-05,77.085,1.4122e-05,0.033426,-5.3043e-05,-504.62,2.4653
20307,21.695,3.6364,0,5.3073e-05,530.37,2.4118e-05,80.89,1.3357e-05,0.035497,-5.1232e-05,-485.26,2.4808
20308,21.603,3.6364,0.05,7.242e-07,7.237,5.561e-07,4.1783,2.0482e-12,1.0285e-05,-5.561e-07,-4.1783,2.4653
20309,21.603,3.9091,0,5.4574e-05,545.36,2.4113e-05,74.587,1.4191e-05,0.031988,-5.2921e-05,-504.22,2.4653
20310,21.695,3.8182,0,5.2894e-05,528.58,2.3873e-05,78.563,1.3421e-05,0.034249,-5.1117e-05,-484.88,2.4807
20311,21.603,3.8182,0.05,7.2357e-07,7.2307,5.5561e-07,4.1746,2.3226e-12,1.1593e-05,-5.5561e-07,-4.1746,2.4653
20312,21.603,4.0909,0,5.4349e-05,543.11,2.3798e-05,71.582,1.4275e-05,0.030097,-5.2776e-05,-503.76,2.4652
20313,21.695,4,0,5.2675e-05,526.39,2.357e-05,75.691,1.3501e-05,0.032578,-5.0977e-05,-484.43,2.4806
20314,21.603,4,0.05,7.2279e-07,7.2229,5.5501e-07,4.1701,2.3652e-12,1.0096e-05,-5.5501e-07,-4.1701,2.4652
20315,21.603,4.2727,0,5.4092e-05,540.55,2.3433e-05,68.106,1.4373e-05,0.027661,-5.261e-05,-503.26,2.4651
20316,21.695,4.1818,0,5.2419e-05,523.83,2.3214e-05,72.303,1.3596e-05,0.030402,-5.0813e-05,-483.91,2.4805
20317,21.603,4.1818,0.05,7.2187e-07,7.2137,5.5431e-07,4.1648,2.3969e-12,9.3075e-06,-5.5431e-07,-4.1649,2.4651
20318,21.603,4.4545,0,5.381e-05,537.73,2.3025e-05,64.202,1.4484e-05,0.024552,-5.2429e-05,-502.73,2.4649
20319,21.695,4.3636,0,5.2133e-05,520.97,2.2809e-05,68.437,1.3705e-05,0.027607,-5.063e-05,-483.36,2.4804
20320,21.603,4.3636,0.05,7.2084e-07,7.2034,5.5351e-07,4.1589,2.6264e-12,1.2174e-05,-5.5352e-07,-4.1589,2.465
20321,21.603,4.6364,0,5.3509e-05,534.72,2.2581e-05,59.926,1.4608e-05,0.020615,-5.2237e-05,-502.23,2.4648
20322,21.695,4.5455,0,5.1822e-05,517.86,2.2361e-05,64.143,1.3827e-05,0.024033,-5.0431e-05,-482.79,2.4803
20323,21.603,4.5455,0.05,7.1969e-07,7.192,5.5263e-07,4.1523,2.3778e-12,1.0071e-05,-5.5264e-07,-4.1523,2.4649
20324,21.603,4.8182,0,5.3199e-05,531.62,2.2108e-05,55.349,1.4744e-05,0.015593,-5.204e-05,-501.78,2.4647
20325,21.695,4.7273,0,5.1494e-05,514.58,2.1877e-05,59.485,1.3963e-05,0.019506,-5.0223e-05,-482.25,2.4801
20326,21.603,4.7273,0.05,7.1846e-07,7.1796,5.5168e-07,4.1451,2.3961e-12,1.1949e-05,-5.5169e-07,-4.1452,2.4647
20327,21.603,5,0,5.289e-05,528.53,2.1618e-05,50.555,1.489e-05,0.0093355,-5.1848e-05,-501.44,2.4645
20328,21.695,4.9091,0,5.1159e-05,511.24,2.1367e-05,54.542,1.411e-05,0.013644,-5.0013e-05,-481.78,2.48
20329,21.603,4.9091,0.05,7.1714e-07,7.1665,5.5067e-07,4.1375,3.0191e-12,1.1573e-05,-5.5068e-07,-4.1376,2.4646
20330,21.603,5.1818,0,5.2595e-05,525.59,2.1121e-05,45.645,1.5046e-05,0.00084723,-5.167e-05,-501.28,2.4643
20331,21.695,5.0909,0,5.0831e-05,507.96,2.0843e-05,49.412,1.4268e-05,0.0064854,-4.981e-05,-481.45,2.4798
20332,21.603,5.0909,0.05,7.1575e-07,7.1526,5.496e-07,4.1295,2.497e-12,1.0315e-05,-5.4961e-07,-4.1295,2.4644
20333,21.603,5.3636,0,5.233e-05,522.93,2.0634e-05,40.741,1.5211e-05,-0.0079375,-5.1517e-05,-501.38,2.4641
20334,21.695,5.2727,0,5.0523e-05,504.89,2.0319e-05,44.208,1.4435e-05,-0.0041219,-4.9626e-05,-481.33,2.4796
20335,21.603,5.2727,0.05,7.1418e-07,7.1368,5.484e-07,4.1204,2.1573e-12,1.0823e-05,-5.484e-07,-4.1205,2.4642
20336,21.603,5.5455,0,5.212e-05,520.84,2.0181e-05,36.033,1.5381e-05,-0.031407,-5.1414e-05,-501.9,2.4639
20337,21.695,5.4545,0,5.0254e-05,502.2,1.9812e-05,39.075,1.461e-05,-0.012085,-4.9475e-05,-481.52,2.4794
20338,21.603,5.4545,0.05,7.1062e-07,7.1013,5.4567e-07,4.0999,2.2919e-12,1.0363e-05,-5.4567e-07,-4.1,2.464
20339,21.603,5.7273,0,5.2179e-05,521.43,1.9945e-05,32.908,1.556e-05,-0.03495,-5.1542e-05,-504.21,2.4637
20340,21.695,5.6364,0,5.0063e-05,500.28,1.9358e-05,34.277,1.4789e-05,-0.053009,-4.9392e-05,-482.29,2.4792
20341,21.603,5.6364,0.05,6.7726e-07,6.7679,5.2005e-07,3.9074,2.3708e-12,1.0425e-05,-5.2005e-07,-3.9075,2.4638
20342,21.695,5.8182,0,5.036e-05,503.25,1.9307e-05,32.481,1.4983e-05,-0.010796,-4.9729e-05,-486.23,2.479
20343,21.603,5.8182,0.05,2.096e-07,2.0946,1.6095e-07,1.2093,-6.5073e-14,-9.37e-06,-1.6095e-07,-1.2093,2.4636
20344,21.603,5.9091,0,5.0936e-05,509,1.8596e-05,21.519,1.5731e-05,-0.0084554,-5.0535e-05,-497.91,2.4635
20345,21.788,0.27273,0,4.8201e-05,481.68,1.8685e-05,33.582,1.4211e-05,-0.038476,-4.7542e-05,-464.02,2.4946
20346,21.88,0.18182,0,4.637e-05,463.38,1.8023e-05,32.895,1.3643e-05,-0.013723,-4.5723e-05,-446.07,2.5099
20347,21.788,0.18182,0.05,2.291e-07,2.2894,1.7592e-07,1.3218,5.0139e-13,5.2121e-06,-1.7592e-07,-1.3218,2.4944
20348,21.788,0.090909,0,4.6935e-05,469.03,1.73e-05,21.827,1.4394e-05,-0.0080744,-4.6526e-05,-457.74,2.4943
20349,21.788,0.45455,0,4.8181e-05,481.48,1.8976e-05,37.22,1.4018e-05,-0.033196,-4.744e-05,-461.81,2.4948
20350,21.88,0.36364,0,4.6113e-05,460.81,1.813e-05,35.223,1.3434e-05,-0.056829,-4.5413e-05,-442.21,2.5101
20351,21.788,0.36364,0.05,6.7743e-07,6.7697,5.2018e-07,3.9085,8.3365e-13,6.8784e-06,-5.2018e-07,-3.9085,2.4947
20352,21.788,0.63636,0,4.8435e-05,484.02,1.9486e-05,42.46,1.3834e-05,-0.0074998,-4.7573e-05,-461.39,2.495
20353,21.88,0.54545,0,4.6349e-05,463.17,1.8642e-05,40.578,1.324e-05,-0.012048,-4.5526e-05,-441.56,2.5103
20354,21.788,0.54545,0.05,7.0973e-07,7.0924,5.4498e-07,4.0948,3.5635e-13,2.8471e-06,-5.4498e-07,-4.0948,2.4949
20355,21.788,0.81818,0,4.8749e-05,487.15,2.0031e-05,47.902,1.3656e-05,0.0021344,-4.7757e-05,-461.43,2.4951
20356,21.88,0.72727,0,4.6669e-05,466.36,1.9211e-05,46.283,1.3051e-05,-0.0031252,-4.5709e-05,-441.5,2.5105
20357,21.788,0.72727,0.05,7.1343e-07,7.1293,5.4782e-07,4.1161,8.884e-13,6.6555e-06,-5.4782e-07,-4.1161,2.495
20358,21.788,1,0,4.9091e-05,490.58,2.0584e-05,53.335,1.3487e-05,0.011287,-4.7966e-05,-461.72,2.4953
20359,21.88,0.90909,0,4.7028e-05,469.95,1.9796e-05,52.049,1.287e-05,0.0083911,-4.5925e-05,-441.76,2.5107
20360,21.788,0.90909,0.05,7.1522e-07,7.1473,5.492e-07,4.1265,6.3664e-13,7.9574e-06,-5.492e-07,-4.1265,2.4952
20361,21.788,1.1818,0,4.9447e-05,494.13,2.1129e-05,58.623,1.3329e-05,0.017958,-4.8188e-05,-462.19,2.4955
20362,21.88,1.0909,0,4.7406e-05,473.74,2.0379e-05,57.716,1.2699e-05,0.016073,-4.616e-05,-442.23,2.5108
20363,21.788,1.0909,0.05,7.1683e-07,7.1634,5.5044e-07,4.1358,9.3239e-13,7.9082e-06,-5.5044e-07,-4.1358,2.4954
20364,21.788,1.3636,0,4.98e-05,497.66,2.1651e-05,63.654,1.3182e-05,0.023259,-4.8411e-05,-462.76,2.4956
20365,21.88,1.2727,0,4.7788e-05,477.55,2.0942e-05,63.154,1.254e-05,0.022291,-4.6399e-05,-442.82,2.511
20366,21.788,1.2727,0.05,7.1837e-07,7.1787,5.5162e-07,4.1446,9.6277e-13,6.6047e-06,-5.5162e-07,-4.1446,2.4955
20367,21.788,1.5455,0,5.014e-05,501.05,2.2139e-05,68.336,1.3048e-05,0.027377,-4.8626e-05,-463.37,2.4957
20368,21.88,1.4545,0,4.8159e-05,481.26,2.1474e-05,68.258,1.2393e-05,0.027048,-4.6633e-05,-443.47,2.5111
20369,21.788,1.4545,0.05,7.198e-07,7.1931,5.5272e-07,4.1529,9.6198e-13,5.7239e-06,-5.5272e-07,-4.1529,2.4957
20370,21.788,1.7273,0,5.0457e-05,504.22,2.2585e-05,72.596,1.2928e-05,0.030602,-4.8828e-05,-463.98,2.4959
20371,21.88,1.6364,0,4.8508e-05,484.75,2.1965e-05,72.945,1.2261e-05,0.030767,-4.6854e-05,-444.13,2.5112
20372,21.788,1.6364,0.05,7.2113e-07,7.2063,5.5374e-07,4.1606,7.4848e-13,6.4801e-06,-5.5374e-07,-4.1606,2.4958
20373,21.788,1.9091,0,5.0743e-05,507.08,2.2983e-05,76.377,1.2822e-05,0.033115,-4.901e-05,-464.55,2.496
20374,21.88,1.8182,0,4.8828e-05,487.94,2.2406e-05,77.148,1.2143e-05,0.033656,-4.7056e-05,-444.76,2.5113
20375,21.788,1.8182,0.05,7.2233e-07,7.2183,5.5466e-07,4.1675,1.209e-12,4.8546e-06,-5.5466e-07,-4.1675,2.4959
20376,21.788,2.0909,0,5.0993e-05,509.58,2.3325e-05,79.635,1.2731e-05,0.035054,-4.9169e-05,-465.06,2.4961
20377,21.88,2,0,4.9111e-05,490.77,2.2793e-05,80.82,1.2041e-05,0.035892,-4.7234e-05,-445.33,2.5114
20378,21.788,2,0.05,7.2338e-07,7.2288,5.5547e-07,4.1736,5.7297e-13,6.9648e-06,-5.5547e-07,-4.1736,2.496
20379,21.788,2.2727,0,5.1203e-05,511.68,2.361e-05,82.338,1.2657e-05,0.036523,-4.9302e-05,-465.5,2.4961
20380,21.88,2.1818,0,4.9353e-05,493.19,2.3119e-05,83.923,1.1955e-05,0.037601,-4.7386e-05,-445.83,2.5115
20381,21.788,2.1818,0.05,7.2428e-07,7.2378,5.5616e-07,4.1788,1.0746e-12,7.3942e-06,-5.5616e-07,-4.1788,2.4961
20382,21.788,2.4545,0,5.1369e-05,513.33,2.3834e-05,84.461,1.2598e-05,0.037599,-4.9408e-05,-465.85,2.4962
20383,21.88,2.3636,0,4.955e-05,495.16,2.3384e-05,86.432,1.1886e-05,0.038876,-4.751e-05,-446.24,2.5116
20384,21.788,2.3636,0.05,7.2501e-07,7.2451,5.5672e-07,4.183,1.3613e-12,6.8379e-06,-5.5672e-07,-4.183,2.4961
20385,21.788,2.6364,0,5.1489e-05,514.53,2.3996e-05,85.989,1.2556e-05,0.038333,-4.9484e-05,-466.1,2.4962
20386,21.88,2.5455,0,4.97e-05,496.66,2.3584e-05,88.328,1.1834e-05,0.03978,-4.7604e-05,-446.55,2.5116
20387,21.788,2.5455,0.05,7.2557e-07,7.2507,5.5714e-07,4.1862,1.1942e-12,9.2119e-06,-5.5715e-07,-4.1862,2.4962
20388,21.788,2.8182,0,5.1561e-05,515.26,2.4093e-05,86.91,1.2531e-05,0.038759,-4.9529e-05,-466.26,2.4962
20389,21.88,2.7273,0,4.9801e-05,497.66,2.3718e-05,89.598,1.1799e-05,0.04036,-4.7667e-05,-446.76,2.5116
20390,21.788,2.7273,0.05,7.2594e-07,7.2544,5.5743e-07,4.1883,8.0786e-13,7.8157e-06,-5.5743e-07,-4.1883,2.4962
20391,21.788,3,0,5.1585e-05,515.5,2.4125e-05,87.217,1.2523e-05,0.038898,-4.9545e-05,-466.31,2.4962
20392,21.88,2.9091,0,4.9851e-05,498.17,2.3785e-05,90.235,1.1781e-05,0.040644,-4.7699e-05,-446.87,2.5117
20393,21.788,2.9091,0.05,7.2613e-07,7.2563,5.5757e-07,4.1894,1.1029e-12,9.281e-06,-5.5758e-07,-4.1894,2.4962
20394,21.788,3.1818,0,5.1561e-05,515.26,2.4093e-05,86.91,1.2531e-05,0.038758,-4.9529e-05,-466.26,2.4962
20395,21.88,3.0909,0,4.9851e-05,498.17,2.3785e-05,90.235,1.1781e-05,0.040643,-4.7699e-05,-446.87,2.5117
20396,21.788,3.0909,0.05,7.2613e-07,7.2563,5.5757e-07,4.1894,1.8528e-12,7.8838e-06,-5.5758e-07,-4.1894,2.4962
20397,21.788,3.3636,0,5.1489e-05,514.53,2.3996e-05,85.989,1.2556e-05,0.038332,-4.9484e-05,-466.1,2.4962
20398,21.88,3.2727,0,4.9801e-05,497.66,2.3718e-05,89.598,1.1799e-05,0.040361,-4.7667e-05,-446.76,2.5116
20399,21.788,3.2727,0.05,7.2594e-07,7.2544,5.5743e-07,4.1883,1.6916e-12,1.2196e-05,-5.5743e-07,-4.1883,2.4962
20400,21.788,3.5455,0,5.1369e-05,513.33,2.3834e-05,84.461,1.2598e-05,0.037598,-4.9408e-05,-465.85,2.4962
20401,21.88,3.4545,0,4.97e-05,496.66,2.3584e-05,88.328,1.1834e-05,0.03978,-4.7604e-05,-446.55,2.5116
20402,21.788,3.4545,0.05,7.2557e-07,7.2507,5.5714e-07,4.1862,1.981e-12,1.0761e-05,-5.5715e-07,-4.1862,2.4962
20403,21.788,3.7273,0,5.1203e-05,511.68,2.361e-05,82.338,1.2657e-05,0.036524,-4.9302e-05,-465.5,2.4961
20404,21.88,3.6364,0,4.955e-05,495.16,2.3384e-05,86.432,1.1886e-05,0.038876,-4.751e-05,-446.24,2.5116
20405,21.788,3.6364,0.05,7.2501e-07,7.2451,5.5672e-07,4.183,1.813e-12,1.3055e-05,-5.5672e-07,-4.183,2.4961
20406,21.788,3.9091,0,5.0993e-05,509.58,2.3325e-05,79.635,1.2731e-05,0.035054,-4.9169e-05,-465.06,2.4961
20407,21.88,3.8182,0,4.9353e-05,493.19,2.3119e-05,83.923,1.1955e-05,0.037602,-4.7386e-05,-445.83,2.5115
20408,21.788,3.8182,0.05,7.2428e-07,7.2378,5.5616e-07,4.1787,2.3118e-12,1.3386e-05,-5.5616e-07,-4.1788,2.4961
20409,21.788,4.0909,0,5.0743e-05,507.08,2.2983e-05,76.377,1.2822e-05,0.033114,-4.901e-05,-464.55,2.496
20410,21.88,4,0,4.9111e-05,490.77,2.2793e-05,80.82,1.2041e-05,0.035892,-4.7234e-05,-445.33,2.5114
20411,21.788,4,0.05,7.2338e-07,7.2288,5.5547e-07,4.1736,2.119e-12,1.3647e-05,-5.5547e-07,-4.1736,2.496
20412,21.788,4.2727,0,5.0457e-05,504.22,2.2585e-05,72.596,1.2928e-05,0.030603,-4.8828e-05,-463.98,2.4959
20413,21.88,4.1818,0,4.8828e-05,487.94,2.2406e-05,77.148,1.2143e-05,0.033656,-4.7056e-05,-444.76,2.5113
20414,21.788,4.1818,0.05,7.2233e-07,7.2183,5.5466e-07,4.1675,2.3729e-12,1.3759e-05,-5.5466e-07,-4.1675,2.4959
20415,21.788,4.4545,0,5.014e-05,501.05,2.2139e-05,68.336,1.3048e-05,0.027377,-4.8626e-05,-463.37,2.4957
20416,21.88,4.3636,0,4.8508e-05,484.75,2.1965e-05,72.945,1.2261e-05,0.030767,-4.6854e-05,-444.13,2.5112
20417,21.788,4.3636,0.05,7.2113e-07,7.2063,5.5374e-07,4.1606,2.5964e-12,1.5863e-05,-5.5374e-07,-4.1606,2.4958
20418,21.788,4.6364,0,4.98e-05,497.66,2.1651e-05,63.654,1.3182e-05,0.023259,-4.8411e-05,-462.76,2.4956
20419,21.88,4.5455,0,4.8159e-05,481.26,2.1474e-05,68.258,1.2393e-05,0.027047,-4.6633e-05,-443.47,2.5111
20420,21.788,4.5455,0.05,7.198e-07,7.1931,5.5272e-07,4.1529,2.3486e-12,1.3198e-05,-5.5272e-07,-4.1529,2.4957
20421,21.788,4.8182,0,4.9447e-05,494.13,2.1129e-05,58.623,1.3329e-05,0.017958,-4.8188e-05,-462.19,2.4955
20422,21.88,4.7273,0,4.7788e-05,477.55,2.0942e-05,63.154,1.254e-05,0.02229,-4.6399e-05,-442.82,2.511
20423,21.788,4.7273,0.05,7.1836e-07,7.1787,5.5161e-07,4.1446,2.7662e-12,1.5641e-05,-5.5162e-07,-4.1446,2.4955
20424,21.788,5,0,4.9091e-05,490.58,2.0584e-05,53.335,1.3487e-05,0.011287,-4.7966e-05,-461.72,2.4953
20425,21.88,4.9091,0,4.7406e-05,473.74,2.0379e-05,57.716,1.2699e-05,0.016072,-4.616e-05,-442.23,2.5108
20426,21.788,4.9091,0.05,7.1683e-07,7.1634,5.5044e-07,4.1358,2.9614e-12,1.4296e-05,-5.5044e-07,-4.1358,2.4954
20427,21.788,5.1818,0,4.8749e-05,487.15,2.0031e-05,47.902,1.3656e-05,0.0021358,-4.7757e-05,-461.43,2.4951
20428,21.88,5.0909,0,4.7028e-05,469.95,1.9796e-05,52.049,1.287e-05,0.0083921,-4.5925e-05,-441.76,2.5107
20429,21.788,5.0909,0.05,7.1522e-07,7.1473,5.492e-07,4.1265,2.4104e-12,1.2216e-05,-5.492e-07,-4.1265,2.4952
20430,21.788,5.3636,0,4.8435e-05,484.02,1.9486e-05,42.46,1.3834e-05,-0.0074982,-4.7573e-05,-461.39,2.495
20431,21.88,5.2727,0,4.6669e-05,466.36,1.9211e-05,46.283,1.3051e-05,-0.0031255,-4.5709e-05,-441.5,2.5105
20432,21.788,5.2727,0.05,7.1343e-07,7.1293,5.4782e-07,4.1161,1.8937e-12,1.3796e-05,-5.4782e-07,-4.1161,2.495
20433,21.788,5.5455,0,4.8181e-05,481.48,1.8976e-05,37.22,1.4018e-05,-0.033195,-4.744e-05,-461.81,2.4948
20434,21.88,5.4545,0,4.6349e-05,463.17,1.8642e-05,40.578,1.324e-05,-0.012047,-4.5526e-05,-441.56,2.5103
20435,21.788,5.4545,0.05,7.0973e-07,7.0924,5.4498e-07,4.0948,2.2545e-12,1.3236e-05,-5.4498e-07,-4.0948,2.4949
20436,21.788,5.7273,0,4.8201e-05,481.68,1.8685e-05,33.582,1.4211e-05,-0.038474,-4.7542e-05,-464.02,2.4946
20437,21.88,5.6364,0,4.6113e-05,460.81,1.813e-05,35.223,1.3434e-05,-0.056828,-4.5413e-05,-442.21,2.5101
20438,21.788,5.6364,0.05,6.7743e-07,6.7697,5.2018e-07,3.9085,2.3645e-12,1.2595e-05,-5.2019e-07,-3.9085,2.4947
20439,21.88,5.8182,0,4.637e-05,463.38,1.8023e-05,32.895,1.3643e-05,-0.013724,-4.5723e-05,-446.07,2.5099
20440,21.788,5.8182,0.05,2.2909e-07,2.2894,1.7592e-07,1.3218,9.3309e-14,-1.1609e-06,-1.7592e-07,-1.3218,2.4944
20441,21.788,5.9091,0,4.6935e-05,469.03,1.73e-05,21.827,1.4394e-05,-0.0080741,-4.6526e-05,-457.74,2.4943
20442,21.972,0.27273,0,4.4237e-05,442.07,1.743e-05,34.254,1.2865e-05,-0.042509,-4.3555e-05,-423.96,2.5254
20443,22.064,0.18182,0,4.2393e-05,423.64,1.6738e-05,33.272,1.2308e-05,-0.017371,-4.1729e-05,-406.03,2.5408
20444,21.972,0.18182,0.05,2.5024e-07,2.5007,1.9216e-07,1.4438,-2.8685e-13,-1.4922e-06,-1.9216e-07,-1.4438,2.5253
20445,21.972,0.090909,0,4.295e-05,429.21,1.6008e-05,22.116,1.3063e-05,-0.0074258,-4.2531e-05,-417.72,2.5252
20446,21.972,0.45455,0,4.4264e-05,442.33,1.7782e-05,38.474,1.2657e-05,-0.035011,-4.3484e-05,-421.85,2.5256
20447,22.064,0.36364,0,4.2181e-05,421.52,1.6909e-05,36.207,1.2083e-05,-0.060967,-4.1449e-05,-402.28,2.541
20448,21.972,0.36364,0.05,6.7786e-07,6.7739,5.2051e-07,3.9109,1.0534e-12,8.4287e-06,-5.2051e-07,-3.9109,2.5255
20449,21.972,0.63636,0,4.4569e-05,445.38,1.8356e-05,44.312,1.2458e-05,-0.0067545,-4.3649e-05,-421.57,2.5258
20450,22.064,0.54545,0,4.2471e-05,424.41,1.7489e-05,42.19,1.1872e-05,-0.011736,-4.1595e-05,-401.75,2.5412
20451,21.972,0.54545,0.05,7.0904e-07,7.0855,5.4445e-07,4.0908,9.1626e-13,5.6278e-06,-5.4446e-07,-4.0908,2.5257
20452,21.972,0.81818,0,4.4936e-05,449.05,1.8966e-05,50.353,1.2265e-05,0.0038547,-4.3867e-05,-421.75,2.526
20453,22.064,0.72727,0,4.2847e-05,428.18,1.8127e-05,48.536,1.1667e-05,-0.0016909,-4.1815e-05,-401.84,2.5414
20454,21.972,0.72727,0.05,7.1293e-07,7.1243,5.4744e-07,4.1132,5.5288e-13,3.001e-06,-5.4744e-07,-4.1132,2.5259
20455,21.972,1,0,4.5333e-05,453.02,1.9582e-05,56.365,1.2082e-05,0.013747,-4.411e-05,-422.2,2.5262
20456,22.064,0.90909,0,4.3265e-05,432.35,1.878e-05,54.929,1.1471e-05,0.010853,-4.2068e-05,-402.25,2.5415
20457,21.972,0.90909,0.05,7.1499e-07,7.145,5.4902e-07,4.1252,1.5658e-13,1.3174e-06,-5.4902e-07,-4.1252,2.5261
20458,21.972,1.1818,0,4.574e-05,457.09,2.0185e-05,62.191,1.191e-05,0.020868,-4.4363e-05,-422.8,2.5263
20459,22.064,1.0909,0,4.37e-05,436.7,1.9426e-05,61.184,1.1285e-05,0.019109,-4.2336e-05,-402.87,2.5417
20460,21.972,1.0909,0.05,7.1687e-07,7.1638,5.5047e-07,4.136,1.8286e-13,1.1818e-06,-5.5047e-07,-4.136,2.5262
20461,21.972,1.3636,0,4.6141e-05,461.09,2.076e-05,67.711,1.1751e-05,0.026465,-4.4615e-05,-423.48,2.5265
20462,22.064,1.2727,0,4.4133e-05,441.03,2.0047e-05,67.158,1.1112e-05,0.02571,-4.2605e-05,-403.59,2.5418
20463,21.972,1.2727,0.05,7.1866e-07,7.1816,5.5184e-07,4.1463,4.7703e-13,2.9805e-06,-5.5184e-07,-4.1463,2.5264
20464,21.972,1.5455,0,4.6524e-05,464.91,2.1295e-05,72.825,1.1606e-05,0.030772,-4.4854e-05,-424.19,2.5266
20465,22.064,1.4545,0,4.4551e-05,445.21,2.063e-05,72.738,1.0954e-05,0.030705,-4.2866e-05,-404.35,2.542
20466,21.972,1.4545,0.05,7.2033e-07,7.1983,5.5312e-07,4.156,3.1121e-13,1.6242e-06,-5.5313e-07,-4.156,2.5265
20467,21.972,1.7273,0,4.6877e-05,468.45,2.1781e-05,77.46,1.1476e-05,0.034119,-4.5076e-05,-424.88,2.5267
20468,22.064,1.6364,0,4.4942e-05,449.11,2.1165e-05,77.837,1.081e-05,0.034578,-4.3108e-05,-405.09,2.5421
20469,21.972,1.6364,0.05,7.2187e-07,7.2137,5.5431e-07,4.1648,5.8568e-13,4.5004e-06,-5.5431e-07,-4.1648,2.5266
20470,21.972,1.9091,0,4.7195e-05,471.62,2.2212e-05,81.558,1.1362e-05,0.036706,-4.5275e-05,-425.51,2.5268
20471,22.064,1.8182,0,4.5296e-05,452.65,2.1644e-05,82.392,1.0683e-05,0.037563,-4.3328e-05,-405.78,2.5422
20472,21.972,1.8182,0.05,7.2325e-07,7.2275,5.5537e-07,4.1728,8.6699e-13,2.0768e-06,-5.5537e-07,-4.1728,2.5267
20473,21.972,2.0909,0,4.7471e-05,474.38,2.2582e-05,85.078,1.1264e-05,0.038694,-4.5447e-05,-426.07,2.5269
20474,22.064,2,0,4.5608e-05,455.77,2.2061e-05,86.355,1.0573e-05,0.039859,-4.3521e-05,-406.4,2.5423
20475,21.972,2,0.05,7.2447e-07,7.2397,5.563e-07,4.1798,7.0445e-13,5.3223e-06,-5.563e-07,-4.1798,2.5268
20476,21.972,2.2727,0,4.7701e-05,476.68,2.2889e-05,87.99,1.1184e-05,0.040196,-4.5591e-05,-426.54,2.5269
20477,22.064,2.1818,0,4.5874e-05,458.42,2.2412e-05,89.695,1.048e-05,0.04161,-4.3684e-05,-406.93,2.5423
20478,21.972,2.1818,0.05,7.2549e-07,7.2499,5.5709e-07,4.1857,9.9091e-13,4.8262e-06,-5.5709e-07,-4.1857,2.5269
20479,21.972,2.4545,0,4.7883e-05,478.5,2.313e-05,90.273,1.1121e-05,0.04129,-4.5703e-05,-426.91,2.527
20480,22.064,2.3636,0,4.6089e-05,460.57,2.2696e-05,92.387,1.0406e-05,0.042909,-4.3817e-05,-407.36,2.5424
20481,21.972,2.3636,0.05,7.2632e-07,7.2582,5.5773e-07,4.1905,1.0617e-12,5.4102e-06,-5.5773e-07,-4.1906,2.527
20482,21.972,2.6364,0,4.8014e-05,479.8,2.3303e-05,91.913,1.1076e-05,0.042035,-4.5785e-05,-427.18,2.527
20483,22.064,2.5455,0,4.6252e-05,462.2,2.291e-05,94.418,1.0349e-05,0.043829,-4.3916e-05,-407.69,2.5424
20484,21.972,2.5455,0.05,7.2695e-07,7.2645,5.5821e-07,4.1942,6.9115e-13,7.8984e-06,-5.5821e-07,-4.1942,2.527
20485,21.972,2.8182,0,4.8093e-05,480.59,2.3407e-05,92.9,1.1049e-05,0.04247,-4.5833e-05,-427.35,2.5271
20486,22.064,2.7273,0,4.6362e-05,463.3,2.3053e-05,95.777,1.0312e-05,0.044417,-4.3983e-05,-407.91,2.5425
20487,21.972,2.7273,0.05,7.2738e-07,7.2688,5.5853e-07,4.1966,7.797e-13,5.7087e-06,-5.5854e-07,-4.1966,2.527
20488,21.972,3,0,4.8119e-05,480.86,2.3442e-05,93.229,1.104e-05,0.042613,-4.585e-05,-427.4,2.5271
20489,22.064,2.9091,0,4.6417e-05,463.85,2.3125e-05,96.457,1.0293e-05,0.044707,-4.4017e-05,-408.02,2.5425
20490,21.972,2.9091,0.05,7.2759e-07,7.2709,5.587e-07,4.1978,1.549e-12,8.2628e-06,-5.587e-07,-4.1978,2.5271
20491,21.972,3.1818,0,4.8093e-05,480.59,2.3407e-05,92.9,1.1049e-05,0.042471,-4.5833e-05,-427.35,2.5271
20492,22.064,3.0909,0,4.6417e-05,463.85,2.3125e-05,96.457,1.0293e-05,0.044705,-4.4017e-05,-408.02,2.5425
20493,21.972,3.0909,0.05,7.2759e-07,7.2709,5.587e-07,4.1978,1.6338e-12,6.9928e-06,-5.587e-07,-4.1979,2.5271
20494,21.972,3.3636,0,4.8014e-05,479.8,2.3303e-05,91.913,1.1076e-05,0.042037,-4.5785e-05,-427.18,2.527
20495,22.064,3.2727,0,4.6362e-05,463.3,2.3053e-05,95.777,1.0312e-05,0.044419,-4.3983e-05,-407.91,2.5425
20496,21.972,3.2727,0.05,7.2738e-07,7.2688,5.5853e-07,4.1966,1.946e-12,1.0494e-05,-5.5854e-07,-4.1966,2.527
20497,21.972,3.5455,0,4.7883e-05,478.5,2.313e-05,90.273,1.1121e-05,0.041291,-4.5703e-05,-426.91,2.527
20498,22.064,3.4545,0,4.6252e-05,462.2,2.291e-05,94.418,1.0349e-05,0.043829,-4.3916e-05,-407.69,2.5424
20499,21.972,3.4545,0.05,7.2695e-07,7.2645,5.5821e-07,4.1942,1.3476e-12,1.0156e-05,-5.5821e-07,-4.1942,2.527
20500,21.972,3.7273,0,4.7701e-05,476.68,2.2889e-05,87.99,1.1184e-05,0.040196,-4.5591e-05,-426.54,2.5269
20501,22.064,3.6364,0,4.6089e-05,460.57,2.2696e-05,92.387,1.0406e-05,0.042909,-4.3817e-05,-407.36,2.5424
20502,21.972,3.6364,0.05,7.2632e-07,7.2582,5.5773e-07,4.1905,2.1004e-12,1.1684e-05,-5.5773e-07,-4.1906,2.527
20503,21.972,3.9091,0,4.7471e-05,474.38,2.2582e-05,85.078,1.1264e-05,0.038693,-4.5447e-05,-426.07,2.5269
20504,22.064,3.8182,0,4.5874e-05,458.42,2.2412e-05,89.695,1.048e-05,0.041609,-4.3684e-05,-406.93,2.5423
20505,21.972,3.8182,0.05,7.2549e-07,7.2499,5.5709e-07,4.1857,2.1494e-12,1.3043e-05,-5.5709e-07,-4.1858,2.5269
20506,21.972,4.0909,0,4.7195e-05,471.62,2.2212e-05,81.558,1.1362e-05,0.036705,-4.5275e-05,-425.51,2.5268
20507,22.064,4,0,4.5608e-05,455.77,2.2061e-05,86.355,1.0573e-05,0.039859,-4.3521e-05,-406.4,2.5423
20508,21.972,4,0.05,7.2447e-07,7.2397,5.563e-07,4.1798,2.2062e-12,1.3386e-05,-5.563e-07,-4.1798,2.5268
20509,21.972,4.2727,0,4.6877e-05,468.45,2.1781e-05,77.46,1.1476e-05,0.034116,-4.5076e-05,-424.88,2.5267
20510,22.064,4.1818,0,4.5296e-05,452.65,2.1644e-05,82.392,1.0683e-05,0.037562,-4.3328e-05,-405.78,2.5422
20511,21.972,4.1818,0.05,7.2325e-07,7.2275,5.5537e-07,4.1728,1.7946e-12,1.2715e-05,-5.5537e-07,-4.1728,2.5267
20512,21.972,4.4545,0,4.6524e-05,464.91,2.1295e-05,72.825,1.1606e-05,0.030771,-4.4854e-05,-424.19,2.5266
20513,22.064,4.3636,0,4.4942e-05,449.11,2.1165e-05,77.837,1.081e-05,0.034577,-4.3108e-05,-405.09,2.5421
20514,21.972,4.3636,0.05,7.2187e-07,7.2137,5.543e-07,4.1648,2.4605e-12,1.5552e-05,-5.5431e-07,-4.1649,2.5266
20515,21.972,4.6364,0,4.6141e-05,461.09,2.076e-05,67.711,1.1751e-05,0.026465,-4.4615e-05,-423.48,2.5265
20516,22.064,4.5455,0,4.4551e-05,445.21,2.063e-05,72.738,1.0954e-05,0.030705,-4.2866e-05,-404.35,2.542
20517,21.972,4.5455,0.05,7.2033e-07,7.1983,5.5312e-07,4.156,2.4862e-12,1.3337e-05,-5.5313e-07,-4.156,2.5265
20518,21.972,4.8182,0,4.574e-05,457.09,2.0185e-05,62.191,1.191e-05,0.020867,-4.4363e-05,-422.8,2.5263
20519,22.064,4.7273,0,4.4133e-05,441.03,2.0047e-05,67.158,1.1112e-05,0.025709,-4.2605e-05,-403.59,2.5418
20520,21.972,4.7273,0.05,7.1866e-07,7.1816,5.5184e-07,4.1463,2.473e-12,1.5691e-05,-5.5184e-07,-4.1463,2.5264
20521,21.972,5,0,4.5333e-05,453.02,1.9582e-05,56.365,1.2082e-05,0.013748,-4.411e-05,-422.2,2.5262
20522,22.064,4.9091,0,4.37e-05,436.7,1.9426e-05,61.184,1.1285e-05,0.019109,-4.2336e-05,-402.87,2.5417
20523,21.972,4.9091,0.05,7.1687e-07,7.1638,5.5047e-07,4.136,2.4299e-12,1.4828e-05,-5.5047e-07,-4.136,2.5262
20524,21.972,5.1818,0,4.4936e-05,449.05,1.8966e-05,50.353,1.2265e-05,0.0038541,-4.3867e-05,-421.75,2.526
20525,22.064,5.0909,0,4.3265e-05,432.35,1.878e-05,54.929,1.1471e-05,0.010854,-4.2068e-05,-402.25,2.5415
20526,21.972,5.0909,0.05,7.1499e-07,7.145,5.4902e-07,4.1251,2.2133e-12,1.1861e-05,-5.4903e-07,-4.1252,2.5261
20527,21.972,5.3636,0,4.4569e-05,445.38,1.8356e-05,44.312,1.2458e-05,-0.0067555,-4.3649e-05,-421.57,2.5258
20528,22.064,5.2727,0,4.2847e-05,428.18,1.8127e-05,48.536,1.1667e-05,-0.0016921,-4.1815e-05,-401.84,2.5414
20529,21.972,5.2727,0.05,7.1293e-07,7.1243,5.4744e-07,4.1132,2.4845e-12,1.4041e-05,-5.4744e-07,-4.1133,2.5259
20530,21.972,5.5455,0,4.4264e-05,442.33,1.7782e-05,38.474,1.2657e-05,-0.035011,-4.3484e-05,-421.85,2.5256
20531,22.064,5.4545,0,4.2471e-05,424.41,1.7489e-05,42.19,1.1872e-05,-0.011737,-4.1595e-05,-401.75,2.5412
20532,21.972,5.4545,0.05,7.0904e-07,7.0855,5.4445e-07,4.0908,2.1828e-12,1.3013e-05,-5.4446e-07,-4.0908,2.5257
20533,21.972,5.7273,0,4.4237e-05,442.07,1.743e-05,34.254,1.2865e-05,-0.042511,-4.3555e-05,-423.96,2.5254
20534,22.064,5.6364,0,4.2181e-05,421.52,1.6909e-05,36.207,1.2083e-05,-0.060967,-4.1449e-05,-402.28,2.541
20535,21.972,5.6364,0.05,6.7786e-07,6.7739,5.2051e-07,3.9109,2.23e-12,1.3261e-05,-5.2051e-07,-3.9109,2.5255
20536,22.064,5.8182,0,4.2393e-05,423.64,1.6738e-05,33.272,1.2308e-05,-0.017373,-4.1729e-05,-406.03,2.5408
20537,21.972,5.8182,0.05,2.5024e-07,2.5007,1.9215e-07,1.4438,1.164e-12,1.9244e-06,-1.9216e-07,-1.4438,2.5253
20538,21.972,5.9091,0,4.295e-05,429.21,1.6008e-05,22.116,1.3063e-05,-0.0074257,-4.2531e-05,-417.72,2.5252
20539,22.156,0.27273,0,4.0289e-05,402.61,1.6178e-05,34.924,1.1524e-05,-0.047152,-3.9581e-05,-384.03,2.5563
20540,22.249,0.18182,0,3.8427e-05,384,1.5453e-05,33.6,1.0978e-05,-0.02195,-3.7745e-05,-366.11,2.5717
20541,22.156,0.18182,0.05,2.7321e-07,2.7302,2.0979e-07,1.5763,-4.9955e-13,-5.0157e-06,-2.0979e-07,-1.5763,2.5562
20542,22.156,0.090909,0,3.8981e-05,389.54,1.4718e-05,22.38,1.1739e-05,-0.006398,-3.8552e-05,-377.87,2.5561
20543,22.156,0.45455,0,4.0369e-05,403.41,1.6601e-05,39.805,1.1298e-05,-0.036792,-3.9545e-05,-382.05,2.5565
20544,22.249,0.36364,0,3.827e-05,382.44,1.5698e-05,37.234,1.0734e-05,-0.065435,-3.7501e-05,-362.49,2.5719
20545,22.156,0.36364,0.05,6.7855e-07,6.7808,5.2104e-07,3.9149,6.056e-13,4.3573e-06,-5.2104e-07,-3.9149,2.5564
20546,22.156,0.63636,0,4.0734e-05,407.06,1.7247e-05,46.319,1.1082e-05,-0.0055702,-3.9748e-05,-381.92,2.5567
20547,22.249,0.54545,0,3.8622e-05,385.95,1.6355e-05,43.933,1.0506e-05,-0.011015,-3.7686e-05,-362.11,2.5721
20548,22.156,0.54545,0.05,7.0859e-07,7.081,5.4411e-07,4.0882,1.2095e-12,9.2301e-06,-5.4411e-07,-4.0882,2.5566
20549,22.156,0.81818,0,4.1164e-05,411.35,1.793e-05,53.032,1.0873e-05,0.0061598,-4.0004e-05,-382.26,2.5569
20550,22.249,0.72727,0,3.9065e-05,390.38,1.707e-05,51.003,1.0282e-05,0.00035562,-3.7946e-05,-362.37,2.5723
20551,22.156,0.72727,0.05,7.1272e-07,7.1223,5.4728e-07,4.1121,6.9254e-13,4.4303e-06,-5.4728e-07,-4.1121,2.5568
20552,22.156,1,0,4.1622e-05,415.93,1.8615e-05,59.681,1.0674e-05,0.016881,-4.0284e-05,-382.86,2.557
20553,22.249,0.90909,0,3.9549e-05,395.22,1.7798e-05,58.093,1.0069e-05,0.014062,-3.8239e-05,-362.95,2.5724
20554,22.156,0.90909,0.05,7.1512e-07,7.1463,5.4913e-07,4.1259,2.4759e-13,7.3795e-07,-5.4913e-07,-4.1259,2.5569
20555,22.156,1.1818,0,4.2086e-05,420.57,1.9281e-05,66.095,1.0487e-05,0.02449,-4.057e-05,-383.6,2.5572
20556,22.249,1.0909,0,4.0047e-05,400.2,1.8514e-05,64.992,9.8669e-06,0.022947,-3.8544e-05,-363.71,2.5726
20557,22.156,1.0909,0.05,7.1733e-07,7.1683,5.5082e-07,4.1386,3.3447e-13,1.7836e-07,-5.5082e-07,-4.1387,2.5571
20558,22.156,1.3636,0,4.2539e-05,425.1,1.9912e-05,72.138,1.0315e-05,0.030402,-4.085e-05,-384.4,2.5573
20559,22.249,1.2727,0,4.0539e-05,405.11,1.9197e-05,71.542,9.6792e-06,0.02996,-3.8844e-05,-364.56,2.5727
20560,22.156,1.2727,0.05,7.1942e-07,7.1892,5.5242e-07,4.1507,1.1168e-13,-1.55e-06,-5.5242e-07,-4.1507,2.5572
20561,22.156,1.5455,0,4.2967e-05,429.38,2.0496e-05,77.709,1.0158e-05,0.034905,-4.1114e-05,-385.2,2.5574
20562,22.249,1.4545,0,4.1007e-05,409.79,1.9834e-05,77.625,9.507e-06,0.035206,-3.9131e-05,-365.41,2.5728
20563,22.156,1.4545,0.05,7.2136e-07,7.2086,5.5391e-07,4.1619,3.9705e-13,-8.3499e-08,-5.5392e-07,-4.1619,2.5574
20564,22.156,1.7273,0,4.336e-05,433.3,2.1023e-05,82.734,1.0017e-05,0.038375,-4.1356e-05,-385.96,2.5576
20565,22.249,1.6364,0,4.1441e-05,414.12,2.0413e-05,83.153,9.3517e-06,0.039233,-3.9395e-05,-366.22,2.5729
20566,22.156,1.6364,0.05,7.2314e-07,7.2264,5.5528e-07,4.1721,2.2097e-13,3.1402e-06,-5.5528e-07,-4.1722,2.5575
20567,22.156,1.9091,0,4.371e-05,436.8,2.1488e-05,87.157,9.8938e-06,0.041042,-4.157e-05,-386.64,2.5577
20568,22.249,1.8182,0,4.1832e-05,418.03,2.093e-05,88.067,9.2142e-06,0.042318,-3.9631e-05,-366.96,2.573
20569,22.156,1.8182,0.05,7.2472e-07,7.2422,5.565e-07,4.1813,7.106e-13,2.4538e-06,-5.565e-07,-4.1813,2.5576
20570,22.156,2.0909,0,4.4013e-05,439.83,2.1887e-05,90.943,9.7886e-06,0.043082,-4.1754e-05,-387.23,2.5577
20571,22.249,2,0,4.2174e-05,421.45,2.1377e-05,92.326,9.0953e-06,0.04468,-3.9837e-05,-367.62,2.5731
20572,22.156,2,0.05,7.261e-07,7.256,5.5756e-07,4.1893,7.5377e-13,3.7397e-06,-5.5756e-07,-4.1893,2.5577
20573,22.156,2.2727,0,4.4264e-05,442.34,2.2215e-05,94.066,9.7019e-06,0.044617,-4.1907e-05,-387.72,2.5578
20574,22.249,2.1818,0,4.2463e-05,424.34,2.1753e-05,95.902,8.9956e-06,0.046471,-4.0011e-05,-368.17,2.5732
20575,22.156,2.1818,0.05,7.2727e-07,7.2676,5.5845e-07,4.196,1.0398e-12,4.1194e-06,-5.5845e-07,-4.196,2.5578
20576,22.156,2.4545,0,4.4462e-05,444.31,2.2473e-05,96.508,9.6342e-06,0.045734,-4.2027e-05,-388.11,2.5579
20577,22.249,2.3636,0,4.2697e-05,426.68,2.2055e-05,98.777,8.9154e-06,0.047798,-4.015e-05,-368.61,2.5733
20578,22.156,2.3636,0.05,7.282e-07,7.277,5.5917e-07,4.2014,1.0951e-12,5.6822e-06,-5.5917e-07,-4.2014,2.5578
20579,22.156,2.6364,0,4.4604e-05,445.73,2.2657e-05,98.259,9.5856e-06,0.046492,-4.2112e-05,-388.39,2.5579
20580,22.249,2.5455,0,4.2874e-05,428.44,2.2283e-05,100.94,8.8551e-06,0.048739,-4.0255e-05,-368.94,2.5733
20581,22.156,2.5455,0.05,7.2891e-07,7.2841,5.5971e-07,4.2054,9.4342e-13,7.1205e-06,-5.5971e-07,-4.2055,2.5579
20582,22.156,2.8182,0,4.469e-05,446.59,2.2768e-05,99.312,9.5564e-06,0.046932,-4.2164e-05,-388.56,2.5579
20583,22.249,2.7273,0,4.2992e-05,429.62,2.2435e-05,102.39,8.8148e-06,0.049337,-4.0325e-05,-369.17,2.5733
20584,22.156,2.7273,0.05,7.2938e-07,7.2888,5.6007e-07,4.2082,1.0214e-12,4.8626e-06,-5.6008e-07,-4.2082,2.5579
20585,22.156,3,0,4.4718e-05,446.88,2.2805e-05,99.663,9.5467e-06,0.047076,-4.2181e-05,-388.61,2.5579
20586,22.249,2.9091,0,4.3051e-05,430.22,2.2511e-05,103.11,8.7946e-06,0.04963,-4.036e-05,-369.28,2.5734
20587,22.156,2.9091,0.05,7.2962e-07,7.2911,5.6026e-07,4.2095,1.0986e-12,8.296e-06,-5.6026e-07,-4.2096,2.5579
20588,22.156,3.1818,0,4.469e-05,446.59,2.2768e-05,99.312,9.5564e-06,0.046931,-4.2164e-05,-388.56,2.5579
20589,22.249,3.0909,0,4.3051e-05,430.22,2.2511e-05,103.11,8.7946e-06,0.04963,-4.036e-05,-369.28,2.5734
20590,22.156,3.0909,0.05,7.2962e-07,7.2911,5.6025e-07,4.2095,1.6296e-12,6.961e-06,-5.6026e-07,-4.2096,2.5579
20591,22.156,3.3636,0,4.4604e-05,445.73,2.2657e-05,98.259,9.5856e-06,0.046491,-4.2112e-05,-388.39,2.5579
20592,22.249,3.2727,0,4.2992e-05,429.62,2.2435e-05,102.39,8.8148e-06,0.049337,-4.0325e-05,-369.17,2.5733
20593,22.156,3.2727,0.05,7.2938e-07,7.2888,5.6007e-07,4.2082,1.7037e-12,8.4763e-06,-5.6008e-07,-4.2082,2.5579
20594,22.156,3.5455,0,4.4462e-05,444.31,2.2473e-05,96.508,9.6342e-06,0.045733,-4.2027e-05,-388.11,2.5579
20595,22.249,3.4545,0,4.2874e-05,428.44,2.2283e-05,100.94,8.8551e-06,0.048738,-4.0255e-05,-368.94,2.5733
20596,22.156,3.4545,0.05,7.2891e-07,7.2841,5.5971e-07,4.2054,1.7776e-12,8.0856e-06,-5.5971e-07,-4.2055,2.5579
20597,22.156,3.7273,0,4.4264e-05,442.34,2.2215e-05,94.066,9.7019e-06,0.044617,-4.1907e-05,-387.72,2.5578
20598,22.249,3.6364,0,4.2697e-05,426.68,2.2055e-05,98.777,8.9154e-06,0.047798,-4.015e-05,-368.61,2.5733
20599,22.156,3.6364,0.05,7.282e-07,7.277,5.5917e-07,4.2014,1.83e-12,1.042e-05,-5.5917e-07,-4.2014,2.5578
20600,22.156,3.9091,0,4.4013e-05,439.83,2.1887e-05,90.943,9.7886e-06,0.043082,-4.1754e-05,-387.23,2.5577
20601,22.249,3.8182,0,4.2463e-05,424.34,2.1753e-05,95.902,8.9956e-06,0.046471,-4.0011e-05,-368.17,2.5732
20602,22.156,3.8182,0.05,7.2727e-07,7.2676,5.5845e-07,4.196,2.1061e-12,1.0748e-05,-5.5845e-07,-4.196,2.5578
20603,22.156,4.0909,0,4.371e-05,436.8,2.1488e-05,87.157,9.8938e-06,0.041043,-4.157e-05,-386.64,2.5577
20604,22.249,4,0,4.2174e-05,421.45,2.1377e-05,92.326,9.0953e-06,0.04468,-3.9837e-05,-367.62,2.5731
20605,22.156,4,0.05,7.261e-07,7.256,5.5756e-07,4.1893,2.1486e-12,1.2038e-05,-5.5756e-07,-4.1893,2.5577
20606,22.156,4.2727,0,4.336e-05,433.3,2.1023e-05,82.734,1.0017e-05,0.038376,-4.1356e-05,-385.96,2.5576
20607,22.249,4.1818,0,4.1832e-05,418.03,2.093e-05,88.067,9.2142e-06,0.042317,-3.9631e-05,-366.96,2.573
20608,22.156,4.1818,0.05,7.2472e-07,7.2422,5.565e-07,4.1813,1.7071e-12,1.1268e-05,-5.565e-07,-4.1813,2.5576
20609,22.156,4.4545,0,4.2967e-05,429.38,2.0496e-05,77.709,1.0158e-05,0.034904,-4.1114e-05,-385.2,2.5574
20610,22.249,4.3636,0,4.1441e-05,414.12,2.0413e-05,83.153,9.3517e-06,0.039234,-3.9395e-05,-366.22,2.5729
20611,22.156,4.3636,0.05,7.2314e-07,7.2264,5.5528e-07,4.1721,2.1829e-12,1.3101e-05,-5.5528e-07,-4.1722,2.5575
20612,22.156,4.6364,0,4.2539e-05,425.1,1.9912e-05,72.138,1.0315e-05,0.030401,-4.085e-05,-384.4,2.5573
20613,22.249,4.5455,0,4.1007e-05,409.79,1.9834e-05,77.625,9.507e-06,0.035204,-3.9131e-05,-365.41,2.5728
20614,22.156,4.5455,0.05,7.2136e-07,7.2086,5.5391e-07,4.1619,1.9572e-12,1.1338e-05,-5.5392e-07,-4.1619,2.5574
20615,22.156,4.8182,0,4.2086e-05,420.57,1.9281e-05,66.095,1.0487e-05,0.02449,-4.057e-05,-383.6,2.5572
20616,22.249,4.7273,0,4.0539e-05,405.11,1.9197e-05,71.542,9.6792e-06,0.02996,-3.8844e-05,-364.56,2.5727
20617,22.156,4.7273,0.05,7.1942e-07,7.1892,5.5242e-07,4.1507,2.3244e-12,1.2224e-05,-5.5242e-07,-4.1507,2.5572
20618,22.156,5,0,4.1622e-05,415.93,1.8615e-05,59.681,1.0674e-05,0.016882,-4.0284e-05,-382.86,2.557
20619,22.249,4.9091,0,4.0047e-05,400.2,1.8514e-05,64.992,9.8669e-06,0.022949,-3.8544e-05,-363.71,2.5726
20620,22.156,4.9091,0.05,7.1733e-07,7.1683,5.5082e-07,4.1386,2.3483e-12,1.2943e-05,-5.5082e-07,-4.1387,2.5571
20621,22.156,5.1818,0,4.1164e-05,411.35,1.793e-05,53.032,1.0873e-05,0.0061598,-4.0004e-05,-382.26,2.5569
20622,22.249,5.0909,0,3.9549e-05,395.22,1.7798e-05,58.093,1.0069e-05,0.014061,-3.8239e-05,-362.95,2.5724
20623,22.156,5.0909,0.05,7.1512e-07,7.1463,5.4912e-07,4.1259,1.7844e-12,1.1015e-05,-5.4913e-07,-4.1259,2.5569
20624,22.156,5.3636,0,4.0734e-05,407.06,1.7247e-05,46.319,1.1082e-05,-0.0055708,-3.9748e-05,-381.92,2.5567
20625,22.249,5.2727,0,3.9065e-05,390.38,1.707e-05,51.003,1.0282e-05,0.00035552,-3.7946e-05,-362.37,2.5723
20626,22.156,5.2727,0.05,7.1272e-07,7.1223,5.4728e-07,4.1121,2.1874e-12,1.1011e-05,-5.4728e-07,-4.1121,2.5568
20627,22.156,5.5455,0,4.0369e-05,403.41,1.6601e-05,39.805,1.1298e-05,-0.036792,-3.9545e-05,-382.05,2.5565
20628,22.249,5.4545,0,3.8622e-05,385.95,1.6355e-05,43.933,1.0506e-05,-0.011017,-3.7686e-05,-362.11,2.5721
20629,22.156,5.4545,0.05,7.0859e-07,7.081,5.4411e-07,4.0882,2.0786e-12,1.1037e-05,-5.4411e-07,-4.0882,2.5566
20630,22.156,5.7273,0,4.0289e-05,402.61,1.6178e-05,34.924,1.1524e-05,-0.047153,-3.9581e-05,-384.03,2.5563
20631,22.249,5.6364,0,3.827e-05,382.44,1.5698e-05,37.234,1.0734e-05,-0.065433,-3.7501e-05,-362.49,2.5719
20632,22.156,5.6364,0.05,6.7855e-07,6.7808,5.2104e-07,3.9149,1.9353e-12,1.1341e-05,-5.2105e-07,-3.9149,2.5564
20633,22.249,5.8182,0,3.8427e-05,384,1.5453e-05,33.6,1.0978e-05,-0.021949,-3.7745e-05,-366.11,2.5717
20634,22.156,5.8182,0.05,2.7321e-07,2.7302,2.0979e-07,1.5763,9.2008e-13,-7.8811e-07,-2.0979e-07,-1.5763,2.5562
20635,22.156,5.9091,0,3.8981e-05,389.54,1.4718e-05,22.38,1.1739e-05,-0.0063998,-3.8552e-05,-377.87,2.5561
20636,22.341,0.27273,0,3.6357e-05,363.32,1.4931e-05,35.589,1.0187e-05,-0.052524,-3.5621e-05,-344.23,2.5873
20637,22.433,0.18182,0,3.4473e-05,344.49,1.4166e-05,33.868,9.6547e-06,-0.027726,-3.3772e-05,-326.32,2.6027
20638,22.341,0.18182,0.05,2.9817e-07,2.9796,2.2896e-07,1.7203,9.6246e-13,1.2092e-05,-2.2896e-07,-1.7203,2.5872
20639,22.341,0.090909,0,3.5029e-05,350.05,1.3431e-05,22.613,1.0421e-05,-0.0048276,-3.4589e-05,-338.2,2.5871
20640,22.341,0.45455,0,3.6502e-05,364.77,1.5435e-05,41.231,9.9421e-06,-0.038448,-3.5625e-05,-342.42,2.5875
20641,22.433,0.36364,0,3.4384e-05,343.6,1.4498e-05,38.315,9.3896e-06,-0.070192,-3.3572e-05,-322.86,2.6028
20642,22.341,0.36364,0.05,6.7955e-07,6.7908,5.2181e-07,3.9207,1.3441e-12,1.3756e-05,-5.2181e-07,-3.9207,2.5873
20643,22.341,0.63636,0,3.6936e-05,369.11,1.6164e-05,48.514,9.7064e-06,-0.0037519,-3.5871e-05,-342.46,2.5876
20644,22.433,0.54545,0,3.4808e-05,347.84,1.5242e-05,45.837,9.1403e-06,-0.0096494,-3.3801e-05,-322.65,2.603
20645,22.341,0.54545,0.05,7.0842e-07,7.0793,5.4398e-07,4.0872,1.1158e-12,1.2675e-05,-5.4398e-07,-4.0872,2.5875
20646,22.341,0.81818,0,3.7438e-05,374.12,1.6928e-05,55.98,9.4783e-06,0.0092742,-3.617e-05,-342.98,2.5878
20647,22.433,0.72727,0,3.533e-05,353.05,1.6046e-05,53.728,8.896e-06,0.0033038,-3.4107e-05,-323.11,2.6032
20648,22.341,0.72727,0.05,7.1289e-07,7.124,5.4741e-07,4.113,1.0964e-12,7.7223e-06,-5.4741e-07,-4.113,2.5877
20649,22.341,1,0,3.7966e-05,379.4,1.7688e-05,63.335,9.2617e-06,0.020918,-3.649e-05,-343.74,2.5879
20650,22.433,0.90909,0,3.5891e-05,358.66,1.6858e-05,61.595,8.6627e-06,0.018324,-3.4443e-05,-323.87,2.6033
20651,22.341,0.90909,0.05,7.157e-07,7.1521,5.4957e-07,4.1292,9.495e-13,6.9084e-06,-5.4957e-07,-4.1292,2.5879
20652,22.341,1.1818,0,3.8494e-05,384.68,1.8422e-05,70.383,9.0588e-06,0.029058,-3.681e-05,-344.61,2.5881
20653,22.433,1.0909,0,3.646e-05,364.35,1.7648e-05,69.195,8.4428e-06,0.027899,-3.4786e-05,-324.78,2.6035
20654,22.341,1.0909,0.05,7.183e-07,7.178,5.5156e-07,4.1442,5.4537e-13,5.6263e-06,-5.5156e-07,-4.1442,2.588
20655,22.341,1.3636,0,3.9004e-05,389.77,1.9112e-05,76.983,8.8713e-06,0.035306,-3.7119e-05,-345.52,2.5882
20656,22.433,1.2727,0,3.7014e-05,369.88,1.8397e-05,76.36,8.2385e-06,0.035352,-3.5118e-05,-325.73,2.6036
20657,22.341,1.2727,0.05,7.2074e-07,7.2024,5.5343e-07,4.1583,6.7661e-13,6.8053e-06,-5.5344e-07,-4.1583,2.5881
20658,22.341,1.5455,0,3.948e-05,394.53,1.9746e-05,83.03,8.701e-06,0.04001,-3.7406e-05,-346.39,2.5883
20659,22.433,1.4545,0,3.7536e-05,375.1,1.9088e-05,82.966,8.0516e-06,0.040855,-3.543e-05,-326.66,2.6037
20660,22.341,1.4545,0.05,7.2299e-07,7.2249,5.5516e-07,4.1713,5.4972e-13,5.9827e-06,-5.5516e-07,-4.1713,2.5883
20661,22.341,1.7273,0,3.9914e-05,398.86,2.0315e-05,88.453,8.5488e-06,0.043608,-3.7666e-05,-347.2,2.5884
20662,22.433,1.6364,0,3.8016e-05,379.9,1.9714e-05,88.934,7.8835e-06,0.045048,-3.5714e-05,-327.53,2.6038
20663,22.341,1.6364,0.05,7.2502e-07,7.2452,5.5673e-07,4.183,9.5721e-13,8.3374e-06,-5.5673e-07,-4.183,2.5884
20664,22.341,1.9091,0,4.0298e-05,402.7,2.0815e-05,93.206,8.4158e-06,0.04636,-3.7895e-05,-347.91,2.5885
20665,22.433,1.8182,0,3.8445e-05,384.18,2.0267e-05,94.209,7.735e-06,0.048238,-3.5965e-05,-328.3,2.6039
20666,22.341,1.8182,0.05,7.2682e-07,7.2632,5.5811e-07,4.1934,9.2776e-13,8.0427e-06,-5.5811e-07,-4.1934,2.5885
20667,22.341,2.0909,0,4.0628e-05,406,2.124e-05,97.258,8.3024e-06,0.048454,-3.809e-05,-348.53,2.5886
20668,22.433,2,0,3.8817e-05,387.9,2.0744e-05,98.761,7.607e-06,0.050672,-3.6182e-05,-328.96,2.604
20669,22.341,2,0.05,7.2838e-07,7.2787,5.593e-07,4.2024,7.0682e-13,7.0885e-06,-5.593e-07,-4.2024,2.5886
20670,22.341,2.2727,0,4.0901e-05,408.73,2.159e-05,100.59,8.2092e-06,0.050024,-3.825e-05,-349.03,2.5887
20671,22.433,2.1818,0,3.9131e-05,391.04,2.1144e-05,102.57,7.4997e-06,0.05251,-3.6363e-05,-329.52,2.6041
20672,22.341,2.1818,0.05,7.2967e-07,7.2917,5.603e-07,4.2099,9.5674e-13,8.2098e-06,-5.603e-07,-4.2099,2.5886
20673,22.341,2.4545,0,4.1115e-05,410.86,2.1863e-05,103.19,8.1364e-06,0.051167,-3.8375e-05,-349.42,2.5887
20674,22.433,2.3636,0,3.9383e-05,393.56,2.1464e-05,105.62,7.4137e-06,0.053873,-3.6508e-05,-329.96,2.6042
20675,22.341,2.3636,0.05,7.3071e-07,7.3021,5.6109e-07,4.2158,1.2195e-12,7.4656e-06,-5.611e-07,-4.2159,2.5887
20676,22.341,2.6364,0,4.1268e-05,412.4,2.2058e-05,105.05,8.0843e-06,0.051942,-3.8465e-05,-349.7,2.5888
20677,22.433,2.5455,0,3.9573e-05,395.46,2.1704e-05,107.91,7.349e-06,0.054835,-3.6617e-05,-330.29,2.6042
20678,22.341,2.5455,0.05,7.3149e-07,7.3098,5.6169e-07,4.2203,1.2568e-12,8.7207e-06,-5.6169e-07,-4.2203,2.5887
20679,22.341,2.8182,0,4.136e-05,413.32,2.2175e-05,106.16,8.053e-06,0.05239,-3.8518e-05,-349.87,2.5888
20680,22.433,2.7273,0,3.9701e-05,396.73,2.1864e-05,109.44,7.3058e-06,0.05545,-3.6689e-05,-330.51,2.6042
20681,22.341,2.7273,0.05,7.3201e-07,7.315,5.6209e-07,4.2233,1.3007e-12,8.104e-06,-5.6209e-07,-4.2233,2.5888
20682,22.341,3,0,4.1391e-05,413.63,2.2214e-05,106.53,8.0425e-06,0.052538,-3.8536e-05,-349.92,2.5888
20683,22.433,2.9091,0,3.9764e-05,397.37,2.1944e-05,110.21,7.2841e-06,0.055751,-3.6726e-05,-330.62,2.6042
20684,22.341,2.9091,0.05,7.3227e-07,7.3176,5.6229e-07,4.2248,1.3433e-12,9.3797e-06,-5.6229e-07,-4.2248,2.5888
20685,22.341,3.1818,0,4.136e-05,413.32,2.2175e-05,106.16,8.053e-06,0.052391,-3.8518e-05,-349.87,2.5888
20686,22.433,3.0909,0,3.9764e-05,397.37,2.1944e-05,110.21,7.2841e-06,0.05575,-3.6726e-05,-330.62,2.6042
20687,22.341,3.0909,0.05,7.3227e-07,7.3176,5.6229e-07,4.2248,1.6119e-12,9.6891e-06,-5.6229e-07,-4.2248,2.5888
20688,22.341,3.3636,0,4.1268e-05,412.4,2.2058e-05,105.05,8.0843e-06,0.051942,-3.8465e-05,-349.7,2.5888
20689,22.433,3.2727,0,3.9701e-05,396.73,2.1864e-05,109.44,7.3058e-06,0.055451,-3.6689e-05,-330.51,2.6042
20690,22.341,3.2727,0.05,7.3201e-07,7.315,5.6209e-07,4.2233,1.4258e-12,9.9959e-06,-5.6209e-07,-4.2233,2.5888
20691,22.341,3.5455,0,4.1115e-05,410.86,2.1863e-05,103.19,8.1364e-06,0.051166,-3.8375e-05,-349.42,2.5887
20692,22.433,3.4545,0,3.9573e-05,395.46,2.1704e-05,107.91,7.349e-06,0.054836,-3.6617e-05,-330.29,2.6042
20693,22.341,3.4545,0.05,7.3149e-07,7.3098,5.6169e-07,4.2203,1.6914e-12,1.1241e-05,-5.6169e-07,-4.2203,2.5887
20694,22.341,3.7273,0,4.0901e-05,408.73,2.159e-05,100.59,8.2092e-06,0.050024,-3.825e-05,-349.03,2.5887
20695,22.433,3.6364,0,3.9383e-05,393.56,2.1464e-05,105.62,7.4137e-06,0.053873,-3.6508e-05,-329.96,2.6042
20696,22.341,3.6364,0.05,7.3071e-07,7.3021,5.6109e-07,4.2158,1.9458e-12,1.2379e-05,-5.611e-07,-4.2159,2.5887
20697,22.341,3.9091,0,4.0628e-05,406,2.124e-05,97.258,8.3024e-06,0.048453,-3.809e-05,-348.53,2.5886
20698,22.433,3.8182,0,3.9131e-05,391.04,2.1144e-05,102.57,7.4997e-06,0.052511,-3.6363e-05,-329.52,2.6041
20699,22.341,3.8182,0.05,7.2967e-07,7.2917,5.603e-07,4.2099,1.9481e-12,1.3484e-05,-5.603e-07,-4.2099,2.5886
20700,22.341,4.0909,0,4.0298e-05,402.7,2.0815e-05,93.206,8.4158e-06,0.046358,-3.7895e-05,-347.91,2.5885
20701,22.433,4,0,3.8817e-05,387.9,2.0744e-05,98.761,7.607e-06,0.050671,-3.6182e-05,-328.96,2.604
20702,22.341,4,0.05,7.2838e-07,7.2787,5.593e-07,4.2024,1.7433e-12,1.2599e-05,-5.593e-07,-4.2024,2.5886
20703,22.341,4.2727,0,3.9914e-05,398.86,2.0315e-05,88.453,8.5488e-06,0.043608,-3.7666e-05,-347.2,2.5884
20704,22.433,4.1818,0,3.8445e-05,384.18,2.0267e-05,94.21,7.735e-06,0.048237,-3.5965e-05,-328.3,2.6039
20705,22.341,4.1818,0.05,7.2682e-07,7.2632,5.5811e-07,4.1934,2.1763e-12,1.3436e-05,-5.5811e-07,-4.1934,2.5885
20706,22.341,4.4545,0,3.948e-05,394.53,1.9746e-05,83.03,8.701e-06,0.04001,-3.7406e-05,-346.39,2.5883
20707,22.433,4.3636,0,3.8016e-05,379.9,1.9714e-05,88.934,7.8835e-06,0.045049,-3.5714e-05,-327.53,2.6038
20708,22.341,4.3636,0.05,7.2502e-07,7.2452,5.5673e-07,4.183,1.724e-12,1.4281e-05,-5.5673e-07,-4.183,2.5884
20709,22.341,4.6364,0,3.9004e-05,389.77,1.9112e-05,76.983,8.8713e-06,0.035304,-3.7119e-05,-345.52,2.5882
20710,22.433,4.5455,0,3.7536e-05,375.1,1.9088e-05,82.966,8.0516e-06,0.040855,-3.543e-05,-326.66,2.6037
20711,22.341,4.5455,0.05,7.2299e-07,7.2249,5.5516e-07,4.1713,1.6473e-12,1.1977e-05,-5.5516e-07,-4.1713,2.5883
20712,22.341,4.8182,0,3.8494e-05,384.68,1.8422e-05,70.383,9.0587e-06,0.029058,-3.681e-05,-344.61,2.5881
20713,22.433,4.7273,0,3.7014e-05,369.88,1.8397e-05,76.36,8.2385e-06,0.035348,-3.5118e-05,-325.73,2.6036
20714,22.341,4.7273,0.05,7.2074e-07,7.2024,5.5343e-07,4.1583,1.8568e-12,1.3361e-05,-5.5344e-07,-4.1583,2.5881
20715,22.341,5,0,3.7966e-05,379.4,1.7688e-05,63.335,9.2617e-06,0.020918,-3.649e-05,-343.74,2.5879
20716,22.433,4.9091,0,3.646e-05,364.35,1.7648e-05,69.196,8.4428e-06,0.0279,-3.4786e-05,-324.78,2.6035
20717,22.341,4.9091,0.05,7.183e-07,7.178,5.5156e-07,4.1442,1.789e-12,1.2237e-05,-5.5156e-07,-4.1442,2.588
20718,22.341,5.1818,0,3.7438e-05,374.12,1.6928e-05,55.98,9.4783e-06,0.0092729,-3.617e-05,-342.98,2.5878
20719,22.433,5.0909,0,3.5891e-05,358.66,1.6858e-05,61.595,8.6627e-06,0.018321,-3.4443e-05,-323.87,2.6033
20720,22.341,5.0909,0.05,7.157e-07,7.1521,5.4957e-07,4.1292,1.8698e-12,1.1093e-05,-5.4957e-07,-4.1293,2.5879
20721,22.341,5.3636,0,3.6936e-05,369.11,1.6164e-05,48.514,9.7064e-06,-0.003753,-3.5871e-05,-342.46,2.5876
20722,22.433,5.2727,0,3.533e-05,353.05,1.6046e-05,53.728,8.8959e-06,0.0033017,-3.4107e-05,-323.11,2.6032
20723,22.341,5.2727,0.05,7.1289e-07,7.124,5.4741e-07,4.113,1.529e-12,1.1413e-05,-5.4741e-07,-4.113,2.5877
20724,22.341,5.5455,0,3.6502e-05,364.77,1.5435e-05,41.231,9.9421e-06,-0.038448,-3.5625e-05,-342.42,2.5875
20725,22.433,5.4545,0,3.4808e-05,347.84,1.5242e-05,45.837,9.1403e-06,-0.0096499,-3.3801e-05,-322.65,2.603
20726,22.341,5.4545,0.05,7.0842e-07,7.0793,5.4398e-07,4.0872,1.4442e-12,1.0348e-05,-5.4398e-07,-4.0872,2.5875
20727,22.341,5.7273,0,3.6357e-05,363.32,1.4931e-05,35.589,1.0187e-05,-0.052521,-3.5621e-05,-344.23,2.5873
20728,22.433,5.6364,0,3.4384e-05,343.6,1.4498e-05,38.315,9.3896e-06,-0.070187,-3.3572e-05,-322.86,2.6028
20729,22.341,5.6364,0.05,6.7955e-07,6.7908,5.2181e-07,3.9207,1.6584e-12,1.2108e-05,-5.2181e-07,-3.9207,2.5873
20730,22.433,5.8182,0,3.4473e-05,344.49,1.4166e-05,33.868,9.6547e-06,-0.027725,-3.3772e-05,-326.32,2.6027
20731,22.341,5.8182,0.05,2.9817e-07,2.9796,2.2896e-07,1.7203,-2.4451e-14,2.4254e-06,-2.2896e-07,-1.7203,2.5872
20732,22.341,5.9091,0,3.5029e-05,350.05,1.3431e-05,22.613,1.0421e-05,-0.0048284,-3.4589e-05,-338.2,2.5871
20733,22.525,0.27273,0,3.2443e-05,324.21,1.3688e-05,36.248,8.8554e-06,-0.058716,-3.1675e-05,-304.59,2.6182
20734,22.617,0.18182,0,3.0532e-05,305.11,1.2876e-05,34.062,8.3381e-06,-0.035128,-2.981e-05,-286.66,2.6336
20735,22.525,0.18182,0.05,3.2537e-07,3.2514,2.4984e-07,1.8772,9.1342e-13,1.0095e-05,-2.4984e-07,-1.8772,2.6181
20736,22.525,0.090909,0,3.1096e-05,310.74,1.2147e-05,22.806,9.111e-06,-0.0024229,-3.0645e-05,-298.71,2.618
20737,22.525,0.45455,0,3.2667e-05,326.44,1.4286e-05,42.776,8.588e-06,-0.03976,-3.1728e-05,-302.96,2.6184
20738,22.617,0.36364,0,3.0526e-05,305.05,1.3311e-05,39.467,8.0485e-06,-0.075192,-2.9663e-05,-283.42,2.6338
20739,22.525,0.36364,0.05,6.809e-07,6.8043,5.2285e-07,3.9285,1.0859e-12,6.7757e-06,-5.2285e-07,-3.9285,2.6183
20740,22.525,0.63636,0,3.3184e-05,331.61,1.511e-05,50.941,8.3301e-06,-0.00094848,-3.2023e-05,-303.2,2.6186
20741,22.617,0.54545,0,3.1039e-05,310.18,1.4158e-05,47.949,7.775e-06,-0.0073226,-2.9944e-05,-283.42,2.634
20742,22.525,0.54545,0.05,7.0861e-07,7.0812,5.4412e-07,4.0883,5.5276e-13,-1.9809e-07,-5.4412e-07,-4.0883,2.6185
20743,22.525,0.81818,0,3.377e-05,337.47,1.5965e-05,59.256,8.0805e-06,0.013585,-3.2369e-05,-303.91,2.6187
20744,22.617,0.72727,0,3.1653e-05,316.31,1.5062e-05,56.777,7.5069e-06,0.0075126,-3.0303e-05,-284.08,2.6341
20745,22.525,0.72727,0.05,7.1352e-07,7.1303,5.4789e-07,4.1167,1.0724e-13,-4.2533e-06,-5.479e-07,-4.1167,2.6186
20746,22.525,1,0,3.4377e-05,343.53,1.6809e-05,67.386,7.8439e-06,0.02626,-3.2731e-05,-304.84,2.6189
20747,22.617,0.90909,0,3.2303e-05,322.8,1.5966e-05,65.505,7.2513e-06,0.024024,-3.0686e-05,-285.02,2.6343
20748,22.525,0.90909,0.05,7.1685e-07,7.1635,5.5045e-07,4.1359,4.9873e-13,-3.7667e-06,-5.5045e-07,-4.1359,2.6188
20749,22.525,1.1818,0,3.4976e-05,349.52,1.7615e-05,75.117,7.6226e-06,0.034973,-3.3087e-05,-305.84,2.619
20750,22.617,1.0909,0,3.2951e-05,329.28,1.6837e-05,73.864,7.011e-06,0.034351,-3.1067e-05,-286.07,2.6344
20751,22.525,1.0909,0.05,7.1991e-07,7.1942,5.528e-07,4.1535,3.7158e-13,-1.7955e-06,-5.528e-07,-4.1536,2.6189
20752,22.525,1.3636,0,3.5546e-05,355.22,1.8367e-05,82.299,7.4189e-06,0.041569,-3.3423e-05,-306.83,2.6191
20753,22.617,1.2727,0,3.3574e-05,335.5,1.7653e-05,81.672,6.7885e-06,0.042269,-3.143e-05,-287.11,2.6345
20754,22.525,1.2727,0.05,7.2275e-07,7.2225,5.5498e-07,4.1699,8.9779e-13,1.6927e-08,-5.5498e-07,-4.1699,2.6191
20755,22.525,1.5455,0,3.6074e-05,360.5,1.9051e-05,88.833,7.2342e-06,0.04649,-3.3732e-05,-307.76,2.6193
20756,22.617,1.4545,0,3.4154e-05,341.3,1.84e-05,88.815,6.5857e-06,0.048049,-3.1764e-05,-288.1,2.6347
20757,22.525,1.4545,0.05,7.2534e-07,7.2484,5.5697e-07,4.1848,9.3206e-13,2.2893e-06,-5.5697e-07,-4.1849,2.6192
20758,22.525,1.7273,0,3.6551e-05,365.26,1.9661e-05,94.659,7.0698e-06,0.05023,-3.4008e-05,-308.59,2.6194
20759,22.617,1.6364,0,3.468e-05,346.57,1.907e-05,95.222,6.4038e-06,0.052422,-3.2065e-05,-288.98,2.6348
20760,22.525,1.6364,0.05,7.2764e-07,7.2714,5.5874e-07,4.1981,9.7163e-13,2.543e-06,-5.5874e-07,-4.1982,2.6193
20761,22.525,1.9091,0,3.697e-05,369.44,2.0193e-05,99.737,6.9263e-06,0.053072,-3.4249e-05,-309.32,2.6194
20762,22.617,1.8182,0,3.5148e-05,351.23,1.9659e-05,100.85,6.2438e-06,0.055732,-3.2328e-05,-289.76,2.6349
20763,22.525,1.8182,0.05,7.2966e-07,7.2915,5.6028e-07,4.2097,7.1765e-13,1.2676e-06,-5.6029e-07,-4.2098,2.6194
20764,22.525,2.0909,0,3.7327e-05,373.02,2.0645e-05,104.05,6.8044e-06,0.055231,-3.4452e-05,-309.93,2.6195
20765,22.617,2,0,3.5551e-05,355.27,2.0164e-05,105.69,6.106e-06,0.05825,-3.2554e-05,-290.41,2.635
20766,22.525,2,0.05,7.3137e-07,7.3087,5.616e-07,4.2197,9.4558e-13,5.1191e-07,-5.616e-07,-4.2197,2.6195
20767,22.525,2.2727,0,3.7622e-05,375.96,2.1015e-05,107.58,6.7043e-06,0.056849,-3.4618e-05,-310.43,2.6196
20768,22.617,2.1818,0,3.5889e-05,358.64,2.0585e-05,109.72,5.991e-06,0.060149,-3.2741e-05,-290.95,2.635
20769,22.525,2.1818,0.05,7.3279e-07,7.3228,5.6269e-07,4.2278,1.4273e-12,1.6047e-06,-5.6269e-07,-4.2279,2.6195
20770,22.525,2.4545,0,3.7851e-05,378.25,2.1302e-05,110.33,6.6263e-06,0.058023,-3.4747e-05,-310.81,2.6196
20771,22.617,2.3636,0,3.616e-05,361.35,2.0922e-05,112.94,5.8988e-06,0.061559,-3.2889e-05,-291.38,2.6351
20772,22.525,2.3636,0.05,7.3392e-07,7.3341,5.6356e-07,4.2343,7.6757e-13,2.7596e-06,-5.6356e-07,-4.2344,2.6196
20773,22.525,2.6364,0,3.8016e-05,379.9,2.1507e-05,112.29,6.5705e-06,0.05882,-3.4839e-05,-311.08,2.6197
20774,22.617,2.5455,0,3.6363e-05,363.38,2.1173e-05,115.35,5.8296e-06,0.062553,-3.3001e-05,-291.69,2.6351
20775,22.525,2.5455,0.05,7.3475e-07,7.3425,5.642e-07,4.2392,1.0427e-12,3.09e-06,-5.642e-07,-4.2392,2.6196
20776,22.525,2.8182,0,3.8115e-05,380.88,2.163e-05,113.47,6.537e-06,0.059284,-3.4894e-05,-311.24,2.6197
20777,22.617,2.7273,0,3.6499e-05,364.74,2.1341e-05,116.96,5.7835e-06,0.063189,-3.3074e-05,-291.9,2.6351
20778,22.525,2.7273,0.05,7.3531e-07,7.348,5.6463e-07,4.2424,1.08e-12,3.3842e-06,-5.6463e-07,-4.2424,2.6197
20779,22.525,3,0,3.8147e-05,381.21,2.1671e-05,113.86,6.5258e-06,0.059436,-3.4913e-05,-311.29,2.6197
20780,22.617,2.9091,0,3.6567e-05,365.42,2.1425e-05,117.76,5.7604e-06,0.0635,-3.3111e-05,-292,2.6352
20781,22.525,2.9091,0.05,7.3559e-07,7.3508,5.6484e-07,4.244,1.5737e-12,3.6809e-06,-5.6484e-07,-4.244,2.6197
20782,22.525,3.1818,0,3.8115e-05,380.88,2.163e-05,113.47,6.537e-06,0.059284,-3.4894e-05,-311.24,2.6197
20783,22.617,3.0909,0,3.6567e-05,365.42,2.1425e-05,117.76,5.7604e-06,0.063499,-3.3111e-05,-292,2.6352
20784,22.525,3.0909,0.05,7.3559e-07,7.3508,5.6484e-07,4.244,1.3811e-12,3.9416e-06,-5.6484e-07,-4.244,2.6197
20785,22.525,3.3636,0,3.8016e-05,379.9,2.1507e-05,112.29,6.5705e-06,0.058821,-3.4839e-05,-311.08,2.6197
20786,22.617,3.2727,0,3.6499e-05,364.74,2.1341e-05,116.96,5.7835e-06,0.063189,-3.3074e-05,-291.9,2.6351
20787,22.525,3.2727,0.05,7.3531e-07,7.348,5.6463e-07,4.2424,1.869e-12,5.1417e-06,-5.6463e-07,-4.2424,2.6197
20788,22.525,3.5455,0,3.7851e-05,378.25,2.1302e-05,110.33,6.6263e-06,0.058024,-3.4747e-05,-310.81,2.6196
20789,22.617,3.4545,0,3.6363e-05,363.38,2.1173e-05,115.35,5.8296e-06,0.062552,-3.3001e-05,-291.69,2.6351
20790,22.525,3.4545,0.05,7.3475e-07,7.3425,5.642e-07,4.2392,1.4449e-12,5.3808e-06,-5.642e-07,-4.2392,2.6196
20791,22.525,3.7273,0,3.7622e-05,375.96,2.1015e-05,107.58,6.7043e-06,0.056849,-3.4618e-05,-310.43,2.6196
20792,22.617,3.6364,0,3.616e-05,361.35,2.0922e-05,112.94,5.8988e-06,0.061559,-3.2889e-05,-291.38,2.6351
20793,22.525,3.6364,0.05,7.3392e-07,7.3341,5.6356e-07,4.2343,1.9192e-12,6.465e-06,-5.6356e-07,-4.2344,2.6196
20794,22.525,3.9091,0,3.7327e-05,373.02,2.0645e-05,104.05,6.8044e-06,0.055231,-3.4452e-05,-309.93,2.6195
20795,22.617,3.8182,0,3.5889e-05,358.64,2.0585e-05,109.72,5.991e-06,0.06015,-3.2741e-05,-290.95,2.635
20796,22.525,3.8182,0.05,7.3279e-07,7.3228,5.6269e-07,4.2278,1.9227e-12,6.5274e-06,-5.6269e-07,-4.2279,2.6195
20797,22.525,4.0909,0,3.697e-05,369.44,2.0193e-05,99.737,6.9263e-06,0.053072,-3.4249e-05,-309.32,2.6194
20798,22.617,4,0,3.5551e-05,355.27,2.0164e-05,105.69,6.106e-06,0.05825,-3.2554e-05,-290.41,2.635
20799,22.525,4,0.05,7.3137e-07,7.3087,5.616e-07,4.2196,1.6807e-12,6.3652e-06,-5.616e-07,-4.2197,2.6195
20800,22.525,4.2727,0,3.6551e-05,365.26,1.9661e-05,94.659,7.0698e-06,0.05023,-3.4008e-05,-308.59,2.6194
20801,22.617,4.1818,0,3.5148e-05,351.23,1.9659e-05,100.85,6.2438e-06,0.05573,-3.2328e-05,-289.76,2.6349
20802,22.525,4.1818,0.05,7.2966e-07,7.2915,5.6028e-07,4.2097,1.9029e-12,5.5072e-06,-5.6029e-07,-4.2098,2.6194
20803,22.525,4.4545,0,3.6074e-05,360.5,1.9051e-05,88.833,7.2342e-06,0.046492,-3.3732e-05,-307.76,2.6193
20804,22.617,4.3636,0,3.468e-05,346.57,1.907e-05,95.222,6.4038e-06,0.052424,-3.2065e-05,-288.98,2.6348
20805,22.525,4.3636,0.05,7.2764e-07,7.2714,5.5874e-07,4.1981,1.8554e-12,8.8265e-06,-5.5874e-07,-4.1982,2.6193
20806,22.525,4.6364,0,3.5546e-05,355.22,1.8367e-05,82.299,7.4189e-06,0.041568,-3.3423e-05,-306.83,2.6191
20807,22.617,4.5455,0,3.4154e-05,341.3,1.84e-05,88.815,6.5857e-06,0.048048,-3.1764e-05,-288.1,2.6347
20808,22.525,4.5455,0.05,7.2534e-07,7.2484,5.5697e-07,4.1848,1.5809e-12,5.7244e-06,-5.5697e-07,-4.1849,2.6192
20809,22.525,4.8182,0,3.4976e-05,349.52,1.7615e-05,75.117,7.6226e-06,0.034969,-3.3087e-05,-305.84,2.619
20810,22.617,4.7273,0,3.3574e-05,335.5,1.7653e-05,81.672,6.7885e-06,0.042267,-3.143e-05,-287.11,2.6345
20811,22.525,4.7273,0.05,7.2275e-07,7.2225,5.5498e-07,4.1699,1.7595e-12,7.2939e-06,-5.5498e-07,-4.1699,2.6191
20812,22.525,5,0,3.4377e-05,343.53,1.6809e-05,67.386,7.8439e-06,0.026258,-3.2731e-05,-304.84,2.6189
20813,22.617,4.9091,0,3.2951e-05,329.28,1.6837e-05,73.864,7.011e-06,0.03435,-3.1067e-05,-286.07,2.6344
20814,22.525,4.9091,0.05,7.1991e-07,7.1942,5.528e-07,4.1535,1.6787e-12,6.2735e-06,-5.528e-07,-4.1536,2.6189
20815,22.525,5.1818,0,3.377e-05,337.47,1.5965e-05,59.256,8.0805e-06,0.013581,-3.2369e-05,-303.91,2.6187
20816,22.617,5.0909,0,3.2303e-05,322.8,1.5966e-05,65.506,7.2513e-06,0.02402,-3.0686e-05,-285.02,2.6343
20817,22.525,5.0909,0.05,7.1685e-07,7.1635,5.5045e-07,4.1359,1.5801e-12,4.0632e-06,-5.5045e-07,-4.1359,2.6188
20818,22.525,5.3636,0,3.3184e-05,331.61,1.511e-05,50.941,8.3301e-06,-0.00094995,-3.2023e-05,-303.2,2.6186
20819,22.617,5.2727,0,3.1653e-05,316.31,1.5062e-05,56.777,7.5069e-06,0.0075106,-3.0303e-05,-284.08,2.6341
20820,22.525,5.2727,0.05,7.1352e-07,7.1303,5.4789e-07,4.1167,1.4729e-12,4.708e-06,-5.479e-07,-4.1167,2.6186
20821,22.525,5.5455,0,3.2667e-05,326.44,1.4286e-05,42.776,8.588e-06,-0.039756,-3.1728e-05,-302.96,2.6184
20822,22.617,5.4545,0,3.1039e-05,310.18,1.4158e-05,47.949,7.775e-06,-0.0073215,-2.9944e-05,-283.42,2.634
20823,22.525,5.4545,0.05,7.0861e-07,7.0812,5.4412e-07,4.0883,1.4158e-12,4.2196e-06,-5.4412e-07,-4.0883,2.6185
20824,22.525,5.7273,0,3.2443e-05,324.21,1.3688e-05,36.248,8.8554e-06,-0.058713,-3.1675e-05,-304.59,2.6182
20825,22.617,5.6364,0,3.0526e-05,305.05,1.3311e-05,39.467,8.0485e-06,-0.075187,-2.9663e-05,-283.42,2.6338
20826,22.525,5.6364,0.05,6.809e-07,6.8043,5.2285e-07,3.9285,1.5962e-12,5.7811e-06,-5.2285e-07,-3.9285,2.6183
20827,22.617,5.8182,0,3.0532e-05,305.11,1.2876e-05,34.062,8.3381e-06,-0.03513,-2.981e-05,-286.66,2.6336
20828,22.525,5.8182,0.05,3.2537e-07,3.2514,2.4984e-07,1.8772,-2.2046e-13,-7.0489e-06,-2.4984e-07,-1.8772,2.6181
20829,22.525,5.9091,0,3.1096e-05,310.74,1.2147e-05,22.806,9.111e-06,-0.0024266,-3.0645e-05,-298.71,2.618
20830,22.709,0.27273,0,2.8552e-05,285.33,1.245e-05,36.904,7.5293e-06,-0.065982,-2.7745e-05,-265.11,2.6492
20831,22.802,0.18182,0,2.6607e-05,265.88,1.1582e-05,34.164,7.0295e-06,-0.044571,-2.586e-05,-247.17,2.6646
20832,22.709,0.18182,0.05,3.5509e-07,3.5484,2.7266e-07,2.0487,1.284e-12,7.5489e-06,-2.7266e-07,-2.0487,2.6491
20833,22.709,0.090909,0,2.7184e-05,271.66,1.0864e-05,22.946,7.8103e-06,0.001158,-2.6721e-05,-259.46,2.649
20834,22.709,0.45455,0,2.8872e-05,288.52,1.3161e-05,44.478,7.2358e-06,-0.040528,-2.7857e-05,-263.72,2.6494
20835,22.802,0.36364,0,2.6705e-05,266.87,1.2142e-05,40.723,6.7112e-06,-0.080017,-2.5779e-05,-244.2,2.6648
20836,22.709,0.36364,0.05,6.8269e-07,6.8222,5.2422e-07,3.9388,1.5751e-12,9.6137e-06,-5.2422e-07,-3.9388,2.6493
20837,22.709,0.63636,0,2.9491e-05,294.7,1.4094e-05,53.666,6.9521e-06,0.003199,-2.8209e-05,-264.18,2.6495
20838,22.802,0.54545,0,2.7329e-05,273.1,1.3109e-05,50.336,6.4093e-06,-0.0032089,-2.6122e-05,-244.43,2.6649
20839,22.709,0.54545,0.05,7.0928e-07,7.0879,5.4464e-07,4.0922,5.6722e-13,-3.9261e-07,-5.4464e-07,-4.0922,2.6494
20840,22.709,0.81818,0,3.0175e-05,301.54,1.5052e-05,62.937,6.6779e-06,0.019476,-2.8607e-05,-265.1,2.6497
20841,22.802,0.72727,0,2.8054e-05,280.34,1.4129e-05,60.237,6.1135e-06,0.013885,-2.6539e-05,-245.33,2.6651
20842,22.709,0.72727,0.05,7.1479e-07,7.143,5.4887e-07,4.124,2.8157e-13,-3.8091e-06,-5.4887e-07,-4.124,2.6496
20843,22.709,1,0,3.0872e-05,308.5,1.5985e-05,71.915,6.4186e-06,0.033304,-2.9013e-05,-266.18,2.6498
20844,22.802,0.90909,0,2.8805e-05,287.85,1.5134e-05,69.918,5.8325e-06,0.032085,-2.6971e-05,-246.44,2.6652
20845,22.709,0.90909,0.05,7.1876e-07,7.1826,5.5192e-07,4.1469,2.5067e-14,-4.2058e-06,-5.5192e-07,-4.1469,2.6497
20846,22.709,1.1818,0,3.1548e-05,315.26,1.6867e-05,80.367,6.177e-06,0.042634,-2.9403e-05,-267.29,2.65
20847,22.802,1.0909,0,2.9541e-05,295.21,1.6089e-05,79.081,5.5694e-06,0.043235,-2.739e-05,-247.6,2.6654
20848,22.709,1.0909,0.05,7.2237e-07,7.2187,5.5469e-07,4.1677,4.6618e-13,-2.2922e-06,-5.5469e-07,-4.1677,2.6499
20849,22.709,1.3636,0,3.2184e-05,321.62,1.768e-05,88.147,5.9554e-06,0.049611,-2.9765e-05,-268.34,2.6501
20850,22.802,1.2727,0,3.0237e-05,302.16,1.6972e-05,87.551,5.327e-06,0.051661,-2.7781e-05,-248.71,2.6655
20851,22.709,1.2727,0.05,7.2564e-07,7.2514,5.572e-07,4.1866,2.988e-13,8.3851e-07,-5.5721e-07,-4.1866,2.65
20852,22.709,1.5455,0,3.2766e-05,327.43,1.8414e-05,95.17,5.7554e-06,0.054766,-3.0092e-05,-269.29,2.6502
20853,22.802,1.4545,0,3.0877e-05,308.56,1.7773e-05,95.229,5.107e-06,0.057752,-2.8134e-05,-249.7,2.6656
20854,22.709,1.4545,0.05,7.2857e-07,7.2807,5.5945e-07,4.2035,6.8067e-13,2.3357e-06,-5.5945e-07,-4.2035,2.6501
20855,22.709,1.7273,0,3.3286e-05,332.63,1.9064e-05,101.39,5.5779e-06,0.058662,-3.0381e-05,-270.12,2.6503
20856,22.802,1.6364,0,3.1453e-05,314.31,1.8486e-05,102.06,4.9106e-06,0.062331,-2.8448e-05,-250.58,2.6657
20857,22.709,1.6364,0.05,7.3113e-07,7.3063,5.6142e-07,4.2183,9.3482e-13,1.3865e-06,-5.6142e-07,-4.2183,2.6502
20858,22.709,1.9091,0,3.374e-05,337.17,1.9627e-05,106.78,5.4236e-06,0.061618,-3.063e-05,-270.83,2.6504
20859,22.802,1.8182,0,3.1959e-05,319.37,1.9108e-05,108.03,4.7384e-06,0.06579,-2.8719e-05,-251.32,2.6658
20860,22.709,1.8182,0.05,7.3333e-07,7.3283,5.6311e-07,4.231,6.9792e-13,1.2782e-06,-5.6311e-07,-4.231,2.6503
20861,22.709,2.0909,0,3.4125e-05,341.02,2.0102e-05,111.34,5.2927e-06,0.063859,-3.0839e-05,-271.42,2.6505
20862,22.802,2,0,3.2393e-05,323.71,1.9639e-05,113.13,4.5907e-06,0.068421,-2.895e-05,-251.94,2.6659
20863,22.709,2,0.05,7.3518e-07,7.3468,5.6453e-07,4.2416,7.1666e-13,4.4683e-07,-5.6453e-07,-4.2417,2.6504
20864,22.709,2.2727,0,3.4441e-05,344.17,2.049e-05,115.05,5.1856e-06,0.065538,-3.1009e-05,-271.89,2.6505
20865,22.802,2.1818,0,3.2755e-05,327.32,2.0079e-05,117.37,4.4677e-06,0.070406,-2.914e-05,-252.44,2.666
20866,22.709,2.1818,0.05,7.3669e-07,7.3619,5.6569e-07,4.2504,1.1989e-12,1.6252e-06,-5.6569e-07,-4.2504,2.6505
20867,22.709,2.4545,0,3.4686e-05,346.62,2.079e-05,117.94,5.1022e-06,0.06676,-3.114e-05,-272.25,2.6506
20868,22.802,2.3636,0,3.3044e-05,330.21,2.0429e-05,120.74,4.3693e-06,0.071878,-2.929e-05,-252.83,2.666
20869,22.709,2.3636,0.05,7.3788e-07,7.3737,5.666e-07,4.2572,7.7175e-13,3.7337e-06,-5.666e-07,-4.2572,2.6505
20870,22.709,2.6364,0,3.4861e-05,348.37,2.1005e-05,120,5.0427e-06,0.067588,-3.1233e-05,-272.5,2.6506
20871,22.802,2.5455,0,3.326e-05,332.37,2.0691e-05,123.26,4.2956e-06,0.072919,-2.9402e-05,-253.12,2.6661
20872,22.709,2.5455,0.05,7.3876e-07,7.3825,5.6727e-07,4.2623,1.2696e-12,4.0371e-06,-5.6728e-07,-4.2623,2.6506
20873,22.709,2.8182,0,3.4967e-05,349.42,2.1133e-05,121.23,5.007e-06,0.068069,-3.1289e-05,-272.65,2.6506
20874,22.802,2.7273,0,3.3405e-05,333.81,2.0865e-05,124.94,4.2465e-06,0.073585,-2.9477e-05,-253.31,2.6661
20875,22.709,2.7273,0.05,7.3934e-07,7.3883,5.6772e-07,4.2656,8.5377e-13,4.3471e-06,-5.6772e-07,-4.2656,2.6506
20876,22.709,3,0,3.5002e-05,349.77,2.1176e-05,121.64,4.9951e-06,0.068227,-3.1308e-05,-272.7,2.6506
20877,22.802,2.9091,0,3.3477e-05,334.53,2.0952e-05,125.78,4.2219e-06,0.073908,-2.9514e-05,-253.4,2.6661
20878,22.709,2.9091,0.05,7.3963e-07,7.3911,5.6794e-07,4.2673,1.8008e-12,3.6778e-06,-5.6794e-07,-4.2673,2.6506
20879,22.709,3.1818,0,3.4967e-05,349.42,2.1133e-05,121.23,5.007e-06,0.068068,-3.1289e-05,-272.65,2.6506
20880,22.802,3.0909,0,3.3477e-05,334.53,2.0952e-05,125.78,4.222e-06,0.073911,-2.9514e-05,-253.4,2.6661
20881,22.709,3.0909,0.05,7.3963e-07,7.3911,5.6794e-07,4.2673,1.1543e-12,2.0379e-06,-5.6794e-07,-4.2673,2.6506
20882,22.709,3.3636,0,3.4861e-05,348.37,2.1005e-05,120,5.0427e-06,0.067586,-3.1233e-05,-272.5,2.6506
20883,22.802,3.2727,0,3.3405e-05,333.81,2.0865e-05,124.94,4.2465e-06,0.073584,-2.9477e-05,-253.31,2.6661
20884,22.709,3.2727,0.05,7.3934e-07,7.3883,5.6772e-07,4.2656,1.8678e-12,5.1463e-06,-5.6772e-07,-4.2656,2.6506
20885,22.709,3.5455,0,3.4686e-05,346.62,2.079e-05,117.94,5.1022e-06,0.066759,-3.114e-05,-272.25,2.6506
20886,22.802,3.4545,0,3.326e-05,332.37,2.0691e-05,123.26,4.2956e-06,0.072918,-2.9402e-05,-253.12,2.6661
20887,22.709,3.4545,0.05,7.3876e-07,7.3825,5.6727e-07,4.2623,1.4421e-12,6.2808e-06,-5.6728e-07,-4.2623,2.6506
20888,22.709,3.7273,0,3.4441e-05,344.17,2.049e-05,115.05,5.1856e-06,0.065539,-3.1009e-05,-271.89,2.6505
20889,22.802,3.6364,0,3.3044e-05,330.21,2.0429e-05,120.74,4.3693e-06,0.071878,-2.929e-05,-252.83,2.666
20890,22.709,3.6364,0.05,7.3788e-07,7.3737,5.666e-07,4.2572,1.6871e-12,7.3627e-06,-5.666e-07,-4.2572,2.6505
20891,22.709,3.9091,0,3.4125e-05,341.02,2.0102e-05,111.34,5.2927e-06,0.06386,-3.0839e-05,-271.42,2.6505
20892,22.802,3.8182,0,3.2755e-05,327.32,2.0079e-05,117.37,4.4677e-06,0.070406,-2.914e-05,-252.44,2.666
20893,22.709,3.8182,0.05,7.3669e-07,7.3619,5.6569e-07,4.2504,1.9213e-12,8.386e-06,-5.6569e-07,-4.2504,2.6505
20894,22.709,4.0909,0,3.374e-05,337.17,1.9627e-05,106.78,5.4236e-06,0.061617,-3.063e-05,-270.83,2.6504
20895,22.802,4,0,3.2393e-05,323.71,1.9639e-05,113.13,4.5907e-06,0.068421,-2.895e-05,-251.94,2.6659
20896,22.709,4,0.05,7.3518e-07,7.3468,5.6453e-07,4.2416,1.9097e-12,7.3113e-06,-5.6453e-07,-4.2417,2.6504
20897,22.709,4.2727,0,3.3286e-05,332.63,1.9064e-05,101.39,5.5779e-06,0.058662,-3.0381e-05,-270.12,2.6503
20898,22.802,4.1818,0,3.1959e-05,319.37,1.9108e-05,108.03,4.7384e-06,0.065789,-2.8719e-05,-251.32,2.6658
20899,22.709,4.1818,0.05,7.3333e-07,7.3283,5.6311e-07,4.231,1.6686e-12,6.2204e-06,-5.6311e-07,-4.231,2.6503
20900,22.709,4.4545,0,3.2766e-05,327.43,1.8414e-05,95.17,5.7554e-06,0.054765,-3.0092e-05,-269.29,2.6502
20901,22.802,4.3636,0,3.1453e-05,314.31,1.8486e-05,102.06,4.9106e-06,0.062332,-2.8448e-05,-250.58,2.6657
20902,22.709,4.3636,0.05,7.3113e-07,7.3063,5.6142e-07,4.2183,1.6136e-12,7.8538e-06,-5.6142e-07,-4.2183,2.6502
20903,22.709,4.6364,0,3.2184e-05,321.62,1.768e-05,88.147,5.9554e-06,0.049609,-2.9765e-05,-268.34,2.6501
20904,22.802,4.5455,0,3.0877e-05,308.56,1.7773e-05,95.229,5.107e-06,0.057749,-2.8134e-05,-249.7,2.6656
20905,22.709,4.5455,0.05,7.2857e-07,7.2807,5.5945e-07,4.2035,1.5849e-12,6.36e-06,-5.5945e-07,-4.2035,2.6501
20906,22.709,4.8182,0,3.1548e-05,315.26,1.6867e-05,80.367,6.177e-06,0.042634,-2.9403e-05,-267.29,2.65
20907,22.802,4.7273,0,3.0237e-05,302.16,1.6972e-05,87.551,5.327e-06,0.05166,-2.7781e-05,-248.71,2.6655
20908,22.709,4.7273,0.05,7.2564e-07,7.2514,5.572e-07,4.1866,1.7221e-12,6.9703e-06,-5.5721e-07,-4.1866,2.65
20909,22.709,5,0,3.0872e-05,308.5,1.5985e-05,71.915,6.4186e-06,0.033302,-2.9013e-05,-266.18,2.6498
20910,22.802,4.9091,0,2.9541e-05,295.21,1.6089e-05,79.081,5.5694e-06,0.043234,-2.739e-05,-247.6,2.6654
20911,22.709,4.9091,0.05,7.2237e-07,7.2187,5.5469e-07,4.1677,1.589e-12,7.8487e-06,-5.5469e-07,-4.1677,2.6499
20912,22.709,5.1818,0,3.0175e-05,301.54,1.5052e-05,62.937,6.6779e-06,0.019475,-2.8607e-05,-265.1,2.6497
20913,22.802,5.0909,0,2.8805e-05,287.85,1.5134e-05,69.918,5.8325e-06,0.032084,-2.6971e-05,-246.44,2.6652
20914,22.709,5.0909,0.05,7.1876e-07,7.1826,5.5191e-07,4.1469,1.4346e-12,3.4991e-06,-5.5192e-07,-4.1469,2.6497
20915,22.709,5.3636,0,2.9491e-05,294.7,1.4094e-05,53.666,6.9521e-06,0.0031996,-2.8209e-05,-264.18,2.6495
20916,22.802,5.2727,0,2.8054e-05,280.34,1.4129e-05,60.237,6.1135e-06,0.013882,-2.6539e-05,-245.33,2.6651
20917,22.709,5.2727,0.05,7.1479e-07,7.143,5.4887e-07,4.124,1.4072e-12,4.955e-06,-5.4887e-07,-4.124,2.6496
20918,22.709,5.5455,0,2.8872e-05,288.52,1.3161e-05,44.478,7.2358e-06,-0.040527,-2.7857e-05,-263.72,2.6494
20919,22.802,5.4545,0,2.7329e-05,273.1,1.3109e-05,50.336,6.4093e-06,-0.003207,-2.6122e-05,-244.43,2.6649
20920,22.709,5.4545,0.05,7.0928e-07,7.0879,5.4464e-07,4.0922,1.3128e-12,4.1368e-06,-5.4464e-07,-4.0922,2.6494
20921,22.709,5.7273,0,2.8552e-05,285.33,1.245e-05,36.904,7.5293e-06,-0.065982,-2.7745e-05,-265.11,2.6492
20922,22.802,5.6364,0,2.6705e-05,266.87,1.2142e-05,40.723,6.7112e-06,-0.080014,-2.5779e-05,-244.2,2.6648
20923,22.709,5.6364,0.05,6.8269e-07,6.8222,5.2422e-07,3.9388,1.3815e-12,5.0506e-06,-5.2422e-07,-3.9388,2.6493
20924,22.802,5.8182,0,2.6607e-05,265.88,1.1582e-05,34.164,7.0295e-06,-0.044571,-2.586e-05,-247.17,2.6646
20925,22.709,5.8182,0.05,3.5509e-07,3.5484,2.7266e-07,2.0487,-7.0208e-15,-7.468e-06,-2.7266e-07,-2.0487,2.6491
20926,22.709,5.9091,0,2.7184e-05,271.66,1.0864e-05,22.946,7.8103e-06,0.0011527,-2.6721e-05,-259.46,2.649
20927,22.894,0.27273,0,2.469e-05,246.73,1.1219e-05,37.565,6.2094e-06,-0.073973,-2.3836e-05,-225.82,2.6802
20928,22.986,0.18182,0,2.27e-05,226.85,1.0284e-05,34.153,5.7304e-06,-0.05743,-2.1926e-05,-207.86,2.6956
20929,22.894,0.18182,0.05,3.8773e-07,3.8747,2.9773e-07,2.237,1.2865e-12,8.5867e-06,-2.9773e-07,-2.237,2.6801
20930,22.894,0.090909,0,2.3299e-05,232.83,9.5837e-06,23.02,6.5208e-06,0.0070145,-2.2822e-05,-220.46,2.68
20931,22.894,0.45455,0,2.5133e-05,251.15,1.2066e-05,46.4,5.8851e-06,-0.039612,-2.402e-05,-224.73,2.6803
20932,22.986,0.36364,0,2.2936e-05,229.2,1.0997e-05,42.137,5.3776e-06,-0.084915,-2.1927e-05,-205.24,2.6958
20933,22.894,0.36364,0.05,6.8507e-07,6.846,5.2605e-07,3.9525,1.8708e-12,1.0694e-05,-5.2605e-07,-3.9525,2.6802
20934,22.894,0.63636,0,2.5875e-05,258.57,1.3127e-05,56.782,5.571e-06,0.010123,-2.4436e-05,-225.45,2.6805
20935,22.986,0.54545,0,2.37e-05,236.83,1.2109e-05,53.107,5.0416e-06,0.002916,-2.2345e-05,-205.77,2.6959
20936,22.894,0.54545,0.05,7.1066e-07,7.1017,5.457e-07,4.1002,1.5114e-12,9.3781e-06,-5.457e-07,-4.1002,2.6804
20937,22.894,0.81818,0,2.6675e-05,266.57,1.4199e-05,67.128,5.2684e-06,0.028446,-2.4891e-05,-226.58,2.6807
20938,22.986,0.72727,0,2.4558e-05,245.41,1.326e-05,64.236,4.7134e-06,0.02267,-2.2826e-05,-206.9,2.6961
20939,22.894,0.72727,0.05,7.1699e-07,7.1649,5.5055e-07,4.1367,8.422e-13,1.5665e-06,-5.5056e-07,-4.1367,2.6806
20940,22.894,1,0,2.7473e-05,274.54,1.5228e-05,77.019,4.9835e-06,0.043563,-2.534e-05,-227.8,2.6808
20941,22.986,0.90909,0,2.5426e-05,254.08,1.4373e-05,74.95,4.4034e-06,0.042794,-2.3307e-05,-208.17,2.6962
20942,22.894,0.90909,0.05,7.2172e-07,7.2122,5.5419e-07,4.164,2.9467e-13,-3.8113e-06,-5.5419e-07,-4.164,2.6807
20943,22.894,1.1818,0,2.8235e-05,282.15,1.6187e-05,86.217,4.7195e-06,0.053577,-2.5762e-05,-228.97,2.6809
20944,22.986,1.0909,0,2.6258e-05,262.4,1.5413e-05,84.947,4.115e-06,0.054848,-2.3761e-05,-209.39,2.6963
20945,22.894,1.0909,0.05,7.2593e-07,7.2543,5.5743e-07,4.1883,1.8565e-13,-3.3694e-06,-5.5743e-07,-4.1883,2.6808
20946,22.894,1.3636,0,2.8939e-05,289.19,1.706e-05,94.595,4.4787e-06,0.060982,-2.6145e-05,-230.03,2.681
20947,22.986,1.2727,0,2.7031e-05,270.13,1.6363e-05,94.073,3.851e-06,0.063845,-2.4173e-05,-210.5,2.6965
20948,22.894,1.2727,0.05,7.2965e-07,7.2915,5.6028e-07,4.2097,4.6202e-13,-2.3344e-07,-5.6028e-07,-4.2098,2.681
20949,22.894,1.5455,0,2.9576e-05,295.56,1.7841e-05,102.09,4.2624e-06,0.066418,-2.6486e-05,-230.96,2.6812
20950,22.986,1.4545,0,2.7733e-05,277.14,1.7214e-05,102.26,3.613e-06,0.070303,-2.454e-05,-211.46,2.6966
20951,22.894,1.4545,0.05,7.3289e-07,7.3238,5.6277e-07,4.2284,6.6312e-13,2.1682e-06,-5.6277e-07,-4.2284,2.6811
20952,22.894,1.7273,0,3.014e-05,301.19,1.8527e-05,108.68,4.0713e-06,0.070515,-2.6783e-05,-231.75,2.6813
20953,22.986,1.6364,0,2.8357e-05,283.38,1.7965e-05,109.5,3.4015e-06,0.075148,-2.4861e-05,-212.27,2.6967
20954,22.894,1.6364,0.05,7.3566e-07,7.3515,5.6489e-07,4.2444,7.0912e-13,2.3218e-06,-5.6489e-07,-4.2444,2.6812
20955,22.894,1.9091,0,3.0629e-05,306.08,1.9117e-05,114.36,3.9057e-06,0.073622,-2.7036e-05,-232.41,2.6813
20956,22.986,1.8182,0,2.8902e-05,288.82,1.8615e-05,115.78,3.2169e-06,0.078806,-2.5136e-05,-212.95,2.6968
20957,22.894,1.8182,0.05,7.3798e-07,7.3747,5.6668e-07,4.2578,7.1156e-13,4.9765e-07,-5.6668e-07,-4.2578,2.6813
20958,22.894,2.0909,0,3.1041e-05,310.2,1.9613e-05,119.14,3.7658e-06,0.075981,-2.7248e-05,-232.95,2.6814
20959,22.986,2,0,2.9366e-05,293.46,1.9168e-05,121.11,3.0592e-06,0.081593,-2.5368e-05,-213.51,2.6969
20960,22.894,2,0.05,7.3991e-07,7.394,5.6816e-07,4.2689,7.3147e-13,1.4601e-06,-5.6816e-07,-4.2689,2.6814
20961,22.894,2.2727,0,3.1378e-05,313.56,2.0016e-05,123.03,3.6516e-06,0.077749,-2.7419e-05,-233.37,2.6815
20962,22.986,2.1818,0,2.9752e-05,297.31,1.9624e-05,125.53,2.9281e-06,0.083699,-2.5558e-05,-213.95,2.6969
20963,22.894,2.1818,0.05,7.4146e-07,7.4095,5.6935e-07,4.2779,9.8745e-13,2.6972e-06,-5.6935e-07,-4.2779,2.6814
20964,22.894,2.4545,0,3.1639e-05,316.17,2.0328e-05,126.04,3.5628e-06,0.079036,-2.755e-05,-233.69,2.6815
20965,22.986,2.3636,0,3.0059e-05,300.38,1.9986e-05,129.04,2.8236e-06,0.085264,-2.5707e-05,-214.29,2.697
20966,22.894,2.3636,0.05,7.4266e-07,7.4215,5.7027e-07,4.2848,1.0117e-12,4.7849e-06,-5.7027e-07,-4.2848,2.6815
20967,22.894,2.6364,0,3.1825e-05,318.03,2.0549e-05,128.19,3.4995e-06,0.079911,-2.7644e-05,-233.92,2.6816
20968,22.986,2.5455,0,3.0288e-05,302.67,2.0256e-05,131.66,2.7454e-06,0.086372,-2.5819e-05,-214.53,2.697
20969,22.894,2.5455,0.05,7.4355e-07,7.4304,5.7095e-07,4.2899,1.0474e-12,2.1985e-06,-5.7095e-07,-4.2899,2.6815
20970,22.894,2.8182,0,3.1936e-05,319.14,2.0682e-05,129.47,3.4616e-06,0.080418,-2.7699e-05,-234.05,2.6816
20971,22.986,2.7273,0,3.044e-05,304.19,2.0436e-05,133.4,2.6934e-06,0.08708,-2.5892e-05,-214.69,2.697
20972,22.894,2.7273,0.05,7.4413e-07,7.4361,5.714e-07,4.2932,8.5756e-13,2.4748e-06,-5.714e-07,-4.2933,2.6816
20973,22.894,3,0,3.1973e-05,319.51,2.0726e-05,129.9,3.449e-06,0.080585,-2.7718e-05,-234.09,2.6816
20974,22.986,2.9091,0,3.0516e-05,304.95,2.0525e-05,134.26,2.6674e-06,0.087426,-2.5929e-05,-214.77,2.6971
20975,22.894,2.9091,0.05,7.4441e-07,7.439,5.7162e-07,4.2949,1.1198e-12,3.6863e-06,-5.7162e-07,-4.2949,2.6816
20976,22.894,3.1818,0,3.1936e-05,319.14,2.0682e-05,129.47,3.4616e-06,0.08042,-2.7699e-05,-234.05,2.6816
20977,22.986,3.0909,0,3.0516e-05,304.95,2.0525e-05,134.26,2.6674e-06,0.087427,-2.5929e-05,-214.77,2.6971
20978,22.894,3.0909,0.05,7.4441e-07,7.439,5.7162e-07,4.2949,1.1534e-12,4.8925e-06,-5.7162e-07,-4.2949,2.6816
20979,22.894,3.3636,0,3.1825e-05,318.03,2.0549e-05,128.19,3.4995e-06,0.07991,-2.7644e-05,-233.92,2.6816
20980,22.986,3.2727,0,3.044e-05,304.19,2.0436e-05,133.4,2.6934e-06,0.087081,-2.5892e-05,-214.69,2.697
20981,22.894,3.2727,0.05,7.4413e-07,7.4361,5.714e-07,4.2932,1.4106e-12,7.9813e-06,-5.714e-07,-4.2933,2.6816
20982,22.894,3.5455,0,3.1639e-05,316.17,2.0328e-05,126.04,3.5628e-06,0.079034,-2.755e-05,-233.69,2.6815
20983,22.986,3.4545,0,3.0288e-05,302.67,2.0256e-05,131.66,2.7454e-06,0.08637,-2.5819e-05,-214.53,2.697
20984,22.894,3.4545,0.05,7.4355e-07,7.4304,5.7095e-07,4.2899,1.6615e-12,7.1989e-06,-5.7095e-07,-4.2899,2.6815
20985,22.894,3.7273,0,3.1378e-05,313.56,2.0016e-05,123.03,3.6516e-06,0.077748,-2.7419e-05,-233.37,2.6815
20986,22.986,3.6364,0,3.0059e-05,300.38,1.9986e-05,129.04,2.8236e-06,0.085264,-2.5707e-05,-214.29,2.697
20987,22.894,3.6364,0.05,7.4266e-07,7.4215,5.7027e-07,4.2848,1.6737e-12,8.2777e-06,-5.7028e-07,-4.2848,2.6815
20988,22.894,3.9091,0,3.1041e-05,310.2,1.9613e-05,119.14,3.7658e-06,0.07598,-2.7248e-05,-232.95,2.6814
20989,22.986,3.8182,0,2.9752e-05,297.31,1.9624e-05,125.53,2.9281e-06,0.083699,-2.5558e-05,-213.95,2.6969
20990,22.894,3.8182,0.05,7.4146e-07,7.4095,5.6935e-07,4.2778,1.4596e-12,8.3599e-06,-5.6935e-07,-4.2779,2.6814
20991,22.894,4.0909,0,3.0629e-05,306.08,1.9117e-05,114.36,3.9057e-06,0.073622,-2.7036e-05,-232.41,2.6813
20992,22.986,4,0,2.9366e-05,293.46,1.9168e-05,121.11,3.0592e-06,0.081592,-2.5368e-05,-213.51,2.6969
20993,22.894,4,0.05,7.3991e-07,7.394,5.6816e-07,4.2689,1.2294e-12,8.3019e-06,-5.6816e-07,-4.2689,2.6814
20994,22.894,4.2727,0,3.014e-05,301.19,1.8527e-05,108.68,4.0713e-06,0.070515,-2.6783e-05,-231.75,2.6813
20995,22.986,4.1818,0,2.8902e-05,288.82,1.8615e-05,115.78,3.2169e-06,0.078807,-2.5136e-05,-212.95,2.6968
20996,22.894,4.1818,0.05,7.3798e-07,7.3748,5.6668e-07,4.2578,1.2108e-12,8.0022e-06,-5.6668e-07,-4.2578,2.6813
20997,22.894,4.4545,0,2.9576e-05,295.56,1.7841e-05,102.09,4.2624e-06,0.066418,-2.6486e-05,-230.96,2.6812
20998,22.986,4.3636,0,2.8357e-05,283.38,1.7965e-05,109.5,3.4015e-06,0.075147,-2.4861e-05,-212.27,2.6967
20999,22.894,4.3636,0.05,7.3566e-07,7.3515,5.6489e-07,4.2444,1.8247e-12,9.6455e-06,-5.6489e-07,-4.2444,2.6812
21000,22.894,4.6364,0,2.8939e-05,289.19,1.706e-05,94.595,4.4787e-06,0.06098,-2.6145e-05,-230.03,2.681
21001,22.986,4.5455,0,2.7733e-05,277.14,1.7214e-05,102.26,3.613e-06,0.070303,-2.454e-05,-211.46,2.6966
21002,22.894,4.5455,0.05,7.3289e-07,7.3238,5.6277e-07,4.2284,1.3275e-12,6.4545e-06,-5.6277e-07,-4.2284,2.6811
21003,22.894,4.8182,0,2.8235e-05,282.15,1.6187e-05,86.217,4.7195e-06,0.053575,-2.5762e-05,-228.97,2.6809
21004,22.986,4.7273,0,2.7031e-05,270.13,1.6363e-05,94.074,3.851e-06,0.063844,-2.4173e-05,-210.5,2.6965
21005,22.894,4.7273,0.05,7.2965e-07,7.2915,5.6028e-07,4.2097,1.4546e-12,7.6552e-06,-5.6028e-07,-4.2098,2.681
21006,22.894,5,0,2.7473e-05,274.54,1.5228e-05,77.019,4.9835e-06,0.043562,-2.534e-05,-227.8,2.6808
21007,22.986,4.9091,0,2.6258e-05,262.4,1.5413e-05,84.947,4.115e-06,0.054846,-2.3761e-05,-209.39,2.6963
21008,22.894,4.9091,0.05,7.2593e-07,7.2543,5.5742e-07,4.1883,1.4913e-12,7.6753e-06,-5.5743e-07,-4.1883,2.6808
21009,22.894,5.1818,0,2.6675e-05,266.57,1.4199e-05,67.128,5.2684e-06,0.028444,-2.4891e-05,-226.58,2.6807
21010,22.986,5.0909,0,2.5426e-05,254.08,1.4373e-05,74.95,4.4034e-06,0.042793,-2.3307e-05,-208.17,2.6962
21011,22.894,5.0909,0.05,7.2172e-07,7.2122,5.5419e-07,4.164,1.1785e-12,5.2852e-06,-5.5419e-07,-4.164,2.6807
21012,22.894,5.3636,0,2.5875e-05,258.57,1.3127e-05,56.782,5.571e-06,0.010122,-2.4436e-05,-225.45,2.6805
21013,22.986,5.2727,0,2.4558e-05,245.41,1.326e-05,64.236,4.7134e-06,0.022666,-2.2826e-05,-206.9,2.6961
21014,22.894,5.2727,0.05,7.1699e-07,7.1649,5.5055e-07,4.1366,1.1979e-12,5.6269e-06,-5.5056e-07,-4.1367,2.6806
21015,22.894,5.5455,0,2.5133e-05,251.15,1.2066e-05,46.4,5.8851e-06,-0.039609,-2.402e-05,-224.73,2.6803
21016,22.986,5.4545,0,2.37e-05,236.83,1.2109e-05,53.107,5.0416e-06,0.0029193,-2.2345e-05,-205.77,2.6959
21017,22.894,5.4545,0.05,7.1066e-07,7.1017,5.457e-07,4.1002,1.0298e-12,4.8379e-06,-5.457e-07,-4.1002,2.6804
21018,22.894,5.7273,0,2.469e-05,246.73,1.1219e-05,37.565,6.2094e-06,-0.073971,-2.3836e-05,-225.82,2.6802
21019,22.986,5.6364,0,2.2936e-05,229.2,1.0997e-05,42.137,5.3776e-06,-0.084914,-2.1927e-05,-205.24,2.6958
21020,22.894,5.6364,0.05,6.8507e-07,6.846,5.2605e-07,3.9525,1.1777e-12,5.548e-06,-5.2605e-07,-3.9525,2.6802
21021,22.986,5.8182,0,2.27e-05,226.85,1.0284e-05,34.153,5.7304e-06,-0.057431,-2.1926e-05,-207.86,2.6956
21022,22.894,5.8182,0.05,3.8773e-07,3.8747,2.9773e-07,2.237,-4.4997e-14,-5.2528e-06,-2.9773e-07,-2.237,2.6801
21023,22.894,5.9091,0,2.3299e-05,232.83,9.5837e-06,23.02,6.5208e-06,0.0070151,-2.2822e-05,-220.46,2.68
21024,23.078,0.27273,0,2.0868e-05,208.53,9.9991e-06,38.254,4.8965e-06,-0.084434,-1.9952e-05,-186.79,2.7112
21025,23.17,0.18182,0,1.8821e-05,188.08,8.9796e-06,34.012,4.4432e-06,-0.072764,-1.8011e-05,-168.78,2.7266
21026,23.078,0.18182,0.05,4.2386e-07,4.2357,3.2547e-07,2.4455,9.9084e-13,6.1279e-06,-3.2547e-07,-2.4455,2.7111
21027,23.078,0.090909,0,1.9447e-05,194.33,8.3052e-06,23.006,5.2453e-06,0.015169,-1.8953e-05,-181.8,2.711
21028,23.078,0.45455,0,2.1471e-05,214.56,1.1014e-05,48.643,4.5347e-06,-0.03799,-2.0226e-05,-186.08,2.7113
21029,23.17,0.36364,0,1.9244e-05,192.31,9.8907e-06,43.817,4.0476e-06,-0.085874,-1.812e-05,-166.65,2.7268
21030,23.078,0.36364,0.05,6.8834e-07,6.8786,5.2856e-07,3.9714,4.049e-13,7.6644e-07,-5.2856e-07,-3.9714,2.7112
21031,23.078,0.63636,0,2.2368e-05,223.52,1.2225e-05,60.431,4.1845e-06,0.018993,-2.0718e-05,-187.09,2.7115
21032,23.17,0.54545,0,2.0189e-05,201.75,1.1179e-05,56.435,3.6699e-06,0.016507,-1.8628e-05,-167.52,2.7269
21033,23.078,0.54545,0.05,7.1317e-07,7.1268,5.4763e-07,4.1147,6.6558e-13,1.8524e-06,-5.4763e-07,-4.1147,2.7114
21034,23.078,0.81818,0,2.3305e-05,232.89,1.3422e-05,71.971,3.8488e-06,0.039651,-2.1231e-05,-188.4,2.7116
21035,23.17,0.72727,0,2.1208e-05,211.94,1.2475e-05,68.951,3.3034e-06,0.039476,-1.9177e-05,-168.87,2.7271
21036,23.078,0.72727,0.05,7.2058e-07,7.2008,5.5331e-07,4.1574,8.9381e-13,3.1396e-06,-5.5332e-07,-4.1574,2.7116
21037,23.078,1,0,2.4216e-05,241.99,1.455e-05,82.818,3.5352e-06,0.05623,-2.172e-05,-189.7,2.7118
21038,23.17,0.90909,0,2.2206e-05,221.91,1.37e-05,80.752,2.9605e-06,0.061882,-1.9702e-05,-170.22,2.7272
21039,23.078,0.90909,0.05,7.2619e-07,7.2569,5.5762e-07,4.1898,7.1285e-13,1.0365e-06,-5.5762e-07,-4.1898,2.7117
21040,23.078,1.1818,0,2.5067e-05,250.5,1.5583e-05,92.759,3.2468e-06,0.067012,-2.2166e-05,-190.88,2.7119
21041,23.17,1.0909,0,2.3141e-05,231.25,1.4822e-05,91.573,2.6445e-06,0.075046,-2.0181e-05,-171.43,2.7273
21042,23.078,1.0909,0.05,7.3099e-07,7.3049,5.6131e-07,4.2175,4.5022e-13,-1.7284e-06,-5.6131e-07,-4.2175,2.7118
21043,23.078,1.3636,0,2.5842e-05,258.25,1.6512e-05,101.71,2.9856e-06,0.074925,-2.2564e-05,-191.89,2.712
21044,23.17,1.2727,0,2.3993e-05,239.77,1.5831e-05,101.32,2.3578e-06,0.084786,-2.0607e-05,-172.46,2.7275
21045,23.078,1.2727,0.05,7.3508e-07,7.3457,5.6445e-07,4.241,4.9266e-13,-1.147e-06,-5.6445e-07,-4.241,2.712
21046,23.078,1.5455,0,2.6535e-05,265.17,1.7334e-05,109.64,2.7524e-06,0.080719,-2.2911e-05,-192.75,2.7121
21047,23.17,1.4545,0,2.4756e-05,247.39,1.6726e-05,109.98,2.1011e-06,0.09176,-2.0979e-05,-173.32,2.7276
21048,23.078,1.4545,0.05,7.3851e-07,7.38,5.6709e-07,4.2609,7.0262e-13,1.1577e-06,-5.6709e-07,-4.2609,2.7121
21049,23.078,1.7273,0,2.7142e-05,271.24,1.8051e-05,116.57,2.5474e-06,0.085086,-2.3211e-05,-193.45,2.7122
21050,23.17,1.6364,0,2.5428e-05,254.11,1.7508e-05,117.56,1.8744e-06,0.096997,-2.13e-05,-174.03,2.7277
21051,23.078,1.6364,0.05,7.4137e-07,7.4086,5.6928e-07,4.2773,4.6366e-13,1.3524e-06,-5.6928e-07,-4.2774,2.7122
21052,23.078,1.9091,0,2.7665e-05,276.46,1.8664e-05,122.51,2.3706e-06,0.088404,-2.3465e-05,-194.03,2.7123
21053,23.17,1.8182,0,2.6011e-05,259.93,1.8182e-05,124.11,1.6775e-06,0.10096,-2.1574e-05,-174.6,2.7278
21054,23.078,1.8182,0.05,7.4372e-07,7.4321,5.7109e-07,4.2909,7.0571e-13,-4.3935e-07,-5.7109e-07,-4.2909,2.7123
21055,23.078,2.0909,0,2.8105e-05,280.85,1.9177e-05,127.48,2.2217e-06,0.090928,-2.3675e-05,-194.49,2.7124
21056,23.17,2,0,2.6505e-05,264.87,1.8752e-05,129.65,1.5099e-06,0.10399,-2.1803e-05,-175.06,2.7278
21057,23.078,2,0.05,7.4563e-07,7.4511,5.7255e-07,4.3019,7.2642e-13,1.4948e-06,-5.7255e-07,-4.3019,2.7123
21058,23.078,2.2727,0,2.8462e-05,284.42,1.9592e-05,131.52,2.1004e-06,0.092825,-2.3844e-05,-194.84,2.7124
21059,23.17,2.1818,0,2.6914e-05,268.95,1.9221e-05,134.22,1.3711e-06,0.10629,-2.199e-05,-175.42,2.7279
21060,23.078,2.1818,0.05,7.4714e-07,7.4662,5.7371e-07,4.3106,7.5073e-13,-1.8452e-07,-5.7371e-07,-4.3106,2.7124
21061,23.078,2.4545,0,2.8738e-05,287.18,1.9913e-05,134.64,2.0064e-06,0.09421,-2.3974e-05,-195.11,2.7125
21062,23.17,2.3636,0,2.7238e-05,272.19,1.9592e-05,137.84,1.2606e-06,0.108,-2.2137e-05,-175.69,2.728
21063,23.078,2.3636,0.05,7.483e-07,7.4779,5.746e-07,4.3173,7.8486e-13,-8.8859e-07,-5.746e-07,-4.3174,2.7125
21064,23.078,2.6364,0,2.8934e-05,289.14,2.0141e-05,136.85,1.9395e-06,0.095151,-2.4066e-05,-195.3,2.7125
21065,23.17,2.5455,0,2.748e-05,274.61,1.9868e-05,140.54,1.1781e-06,0.10921,-2.2245e-05,-175.89,2.728
21066,23.078,2.5455,0.05,7.4915e-07,7.4863,5.7525e-07,4.3222,8.2232e-13,5.058e-06,-5.7525e-07,-4.3222,2.7125
21067,23.078,2.8182,0,2.9052e-05,290.31,2.0277e-05,138.18,1.8994e-06,0.095697,-2.412e-05,-195.41,2.7125
21068,23.17,2.7273,0,2.764e-05,276.21,2.0052e-05,142.33,1.1233e-06,0.10999,-2.2317e-05,-176.01,2.728
21069,23.078,2.7273,0.05,7.497e-07,7.4918,5.7567e-07,4.3254,8.586e-13,-3.8565e-07,-5.7568e-07,-4.3254,2.7125
21070,23.078,3,0,2.9091e-05,290.71,2.0322e-05,138.62,1.8861e-06,0.095878,-2.4138e-05,-195.44,2.7126
21071,23.17,2.9091,0,2.772e-05,277.01,2.0143e-05,143.22,1.096e-06,0.11037,-2.2353e-05,-176.08,2.728
21072,23.078,2.9091,0.05,7.4997e-07,7.4945,5.7588e-07,4.327,1.1195e-12,1.7774e-06,-5.7588e-07,-4.327,2.7125
21073,23.078,3.1818,0,2.9052e-05,290.31,2.0277e-05,138.18,1.8994e-06,0.095698,-2.412e-05,-195.41,2.7125
21074,23.17,3.0909,0,2.772e-05,277.01,2.0143e-05,143.22,1.096e-06,0.11037,-2.2353e-05,-176.08,2.728
21075,23.078,3.0909,0.05,7.4997e-07,7.4945,5.7588e-07,4.327,1.381e-12,7.7554e-06,-5.7588e-07,-4.327,2.7125
21076,23.078,3.3636,0,2.8934e-05,289.14,2.0141e-05,136.85,1.9395e-06,0.09515,-2.4066e-05,-195.3,2.7125
21077,23.17,3.2727,0,2.764e-05,276.21,2.0052e-05,142.33,1.1233e-06,0.10999,-2.2317e-05,-176.01,2.728
21078,23.078,3.2727,0.05,7.497e-07,7.4918,5.7567e-07,4.3254,1.41e-12,4.1587e-06,-5.7568e-07,-4.3254,2.7125
21079,23.078,3.5455,0,2.8738e-05,287.18,1.9913e-05,134.64,2.0064e-06,0.094209,-2.3974e-05,-195.11,2.7125
21080,23.17,3.4545,0,2.748e-05,274.61,1.9868e-05,140.54,1.1781e-06,0.10921,-2.2245e-05,-175.89,2.728
21081,23.078,3.4545,0.05,7.4915e-07,7.4863,5.7525e-07,4.3222,1.4343e-12,4.3393e-06,-5.7525e-07,-4.3222,2.7125
21082,23.078,3.7273,0,2.8462e-05,284.42,1.9592e-05,131.52,2.1004e-06,0.092827,-2.3844e-05,-194.84,2.7124
21083,23.17,3.6364,0,2.7238e-05,272.19,1.9592e-05,137.84,1.2606e-06,0.108,-2.2137e-05,-175.69,2.728
21084,23.078,3.6364,0.05,7.483e-07,7.4779,5.746e-07,4.3173,1.2224e-12,1.0146e-05,-5.746e-07,-4.3174,2.7125
21085,23.078,3.9091,0,2.8105e-05,280.85,1.9177e-05,127.48,2.2217e-06,0.090928,-2.3675e-05,-194.49,2.7124
21086,23.17,3.8182,0,2.6914e-05,268.95,1.9221e-05,134.22,1.3711e-06,0.10629,-2.199e-05,-175.42,2.7279
21087,23.078,3.8182,0.05,7.4714e-07,7.4662,5.7371e-07,4.3106,1.9146e-12,1.0262e-05,-5.7371e-07,-4.3106,2.7124
21088,23.078,4.0909,0,2.7665e-05,276.46,1.8664e-05,122.51,2.3706e-06,0.088403,-2.3465e-05,-194.03,2.7123
21089,23.17,4,0,2.6505e-05,264.87,1.8752e-05,129.65,1.5099e-06,0.10399,-2.1803e-05,-175.06,2.7278
21090,23.078,4,0.05,7.4563e-07,7.4511,5.7255e-07,4.3019,1.2212e-12,9.2267e-06,-5.7255e-07,-4.3019,2.7123
21091,23.078,4.2727,0,2.7142e-05,271.24,1.8051e-05,116.57,2.5474e-06,0.085086,-2.3211e-05,-193.45,2.7122
21092,23.17,4.1818,0,2.6011e-05,259.93,1.8182e-05,124.11,1.6775e-06,0.10096,-2.1574e-05,-174.6,2.7278
21093,23.078,4.1818,0.05,7.4372e-07,7.4321,5.7108e-07,4.2909,1.4306e-12,7.2211e-06,-5.7109e-07,-4.2909,2.7123
21094,23.078,4.4545,0,2.6535e-05,265.17,1.7334e-05,109.64,2.7523e-06,0.080719,-2.2911e-05,-192.75,2.7121
21095,23.17,4.3636,0,2.5428e-05,254.11,1.7508e-05,117.56,1.8744e-06,0.096998,-2.13e-05,-174.03,2.7277
21096,23.078,4.3636,0.05,7.4137e-07,7.4086,5.6928e-07,4.2773,1.8346e-12,9.7109e-06,-5.6928e-07,-4.2774,2.7122
21097,23.078,4.6364,0,2.5842e-05,258.25,1.6512e-05,101.71,2.9856e-06,0.074927,-2.2564e-05,-191.89,2.712
21098,23.17,4.5455,0,2.4756e-05,247.39,1.6726e-05,109.98,2.1011e-06,0.09176,-2.0979e-05,-173.32,2.7276
21099,23.078,4.5455,0.05,7.3851e-07,7.38,5.6709e-07,4.2609,1.324e-12,8.3634e-06,-5.6709e-07,-4.2609,2.7121
21100,23.078,4.8182,0,2.5067e-05,250.5,1.5583e-05,92.76,3.2468e-06,0.067011,-2.2166e-05,-190.88,2.7119
21101,23.17,4.7273,0,2.3993e-05,239.77,1.5831e-05,101.32,2.3578e-06,0.084786,-2.0607e-05,-172.46,2.7275
21102,23.078,4.7273,0.05,7.3508e-07,7.3457,5.6445e-07,4.241,1.6977e-12,6.6804e-06,-5.6445e-07,-4.2411,2.712
21103,23.078,5,0,2.4216e-05,241.99,1.455e-05,82.818,3.5352e-06,0.056228,-2.172e-05,-189.7,2.7118
21104,23.17,4.9091,0,2.3141e-05,231.25,1.4822e-05,91.573,2.6445e-06,0.075044,-2.0181e-05,-171.43,2.7273
21105,23.078,4.9091,0.05,7.3099e-07,7.3049,5.6131e-07,4.2175,1.4492e-12,8.5511e-06,-5.6131e-07,-4.2175,2.7118
21106,23.078,5.1818,0,2.3305e-05,232.89,1.3422e-05,71.971,3.8488e-06,0.039648,-2.1231e-05,-188.4,2.7116
21107,23.17,5.0909,0,2.2206e-05,221.91,1.37e-05,80.752,2.9605e-06,0.061879,-1.9702e-05,-170.22,2.7272
21108,23.078,5.0909,0.05,7.2619e-07,7.2569,5.5762e-07,4.1898,1.1387e-12,6.3453e-06,-5.5762e-07,-4.1898,2.7117
21109,23.078,5.3636,0,2.2368e-05,223.52,1.2225e-05,60.431,4.1845e-06,0.018993,-2.0718e-05,-187.09,2.7115
21110,23.17,5.2727,0,2.1208e-05,211.94,1.2475e-05,68.951,3.3034e-06,0.039475,-1.9177e-05,-168.87,2.7271
21111,23.078,5.2727,0.05,7.2058e-07,7.2008,5.5331e-07,4.1574,1.0903e-12,5.1542e-06,-5.5332e-07,-4.1574,2.7116
21112,23.078,5.5455,0,2.1471e-05,214.56,1.1014e-05,48.643,4.5347e-06,-0.037989,-2.0226e-05,-186.08,2.7113
21113,23.17,5.4545,0,2.0189e-05,201.75,1.1179e-05,56.435,3.6699e-06,0.01651,-1.8628e-05,-167.52,2.7269
21114,23.078,5.4545,0.05,7.1317e-07,7.1268,5.4763e-07,4.1147,1.1396e-12,3.6192e-06,-5.4763e-07,-4.1147,2.7114
21115,23.078,5.7273,0,2.0868e-05,208.53,9.9991e-06,38.254,4.8965e-06,-0.084436,-1.9952e-05,-186.79,2.7112
21116,23.17,5.6364,0,1.9244e-05,192.31,9.8907e-06,43.817,4.0476e-06,-0.085872,-1.812e-05,-166.65,2.7268
21117,23.078,5.6364,0.05,6.8834e-07,6.8786,5.2856e-07,3.9714,1.0246e-12,3.9706e-06,-5.2856e-07,-3.9714,2.7112
21118,23.17,5.8182,0,1.8821e-05,188.08,8.9796e-06,34.012,4.4432e-06,-0.072767,-1.8011e-05,-168.78,2.7266
21119,23.078,5.8182,0.05,4.2386e-07,4.2357,3.2547e-07,2.4455,-1.2919e-13,-4.7145e-06,-3.2547e-07,-2.4455,2.7111
21120,23.078,5.9091,0,1.9447e-05,194.33,8.3052e-06,23.006,5.2453e-06,0.015168,-1.8953e-05,-181.8,2.711
21121,23.263,0.27273,0,1.7107e-05,170.95,8.7992e-06,39.034,3.5922e-06,-0.090093,-1.6105e-05,-148.09,2.7422
21122,23.355,0.18182,0,1.4985e-05,149.75,7.6731e-06,33.733,3.1701e-06,-0.10051,-1.4123e-05,-130.04,2.7576
21123,23.263,0.18182,0.05,4.6443e-07,4.6411,3.5662e-07,2.6795,-3.0781e-14,1.32e-06,-3.5662e-07,-2.6795,2.7421
21124,23.263,0.090909,0,1.5638e-05,156.28,7.029e-06,22.876,3.9888e-06,0.033853,-1.5123e-05,-143.56,2.742
21125,23.263,0.45455,0,1.793e-05,179.17,1.0026e-05,51.389,3.1837e-06,-0.024838,-1.6494e-05,-147.87,2.7424
21126,23.355,0.36364,0,1.5679e-05,156.68,8.8494e-06,45.972,2.7187e-06,-0.091486,-1.4382e-05,-128.58,2.7578
21127,23.263,0.36364,0.05,6.9311e-07,6.9263,5.3222e-07,3.9989,6.6618e-13,3.7546e-06,-5.3222e-07,-3.9989,2.7423
21128,23.263,0.63636,0,1.9021e-05,190.08,1.1412e-05,64.827,2.7896e-06,0.042009,-1.707e-05,-149.17,2.7425
21129,23.355,0.54545,0,1.6861e-05,168.5,1.035e-05,60.595,2.2885e-06,0.027478,-1.4992e-05,-129.81,2.7579
21130,23.263,0.54545,0.05,7.1773e-07,7.1724,5.5113e-07,4.141,-3.0535e-13,-3.4374e-06,-5.5113e-07,-4.141,2.7424
21131,23.263,0.81818,0,2.0116e-05,201.03,1.2742e-05,77.652,2.4157e-06,0.065586,-1.7637e-05,-150.61,2.7426
21132,23.355,0.72727,0,1.8069e-05,180.56,1.18e-05,74.614,1.8771e-06,0.054923,-1.5604e-05,-131.29,2.7581
21133,23.263,0.72727,0.05,7.2642e-07,7.2591,5.578e-07,4.1911,-1.7951e-13,-3.5641e-06,-5.578e-07,-4.1911,2.7426
21134,23.263,1,0,2.1149e-05,211.34,1.3965e-05,89.454,2.0703e-06,0.084034,-1.8156e-05,-151.89,2.7428
21135,23.355,0.90909,0,1.9207e-05,191.94,1.3131e-05,87.488,1.4976e-06,0.079977,-1.6161e-05,-132.6,2.7582
21136,23.263,0.90909,0.05,7.3285e-07,7.3234,5.6274e-07,4.2282,5.8941e-14,-1.0113e-06,-5.6274e-07,-4.2282,2.7427
21137,23.263,1.1818,0,2.2092e-05,220.77,1.5065e-05,100.09,1.7559e-06,0.0959,-1.8617e-05,-152.98,2.7429
21138,23.355,1.0909,0,2.0245e-05,202.31,1.4325e-05,99.066,1.1524e-06,0.094459,-1.6651e-05,-133.68,2.7583
21139,23.263,1.0909,0.05,7.3806e-07,7.3755,5.6674e-07,4.2582,1.9439e-13,7.3526e-07,-5.6674e-07,-4.2583,2.7428
21140,23.263,1.3636,0,2.2937e-05,229.22,1.6041e-05,109.56,1.4737e-06,0.10458,-1.9019e-05,-153.87,2.743
21141,23.355,1.2727,0,2.1175e-05,211.6,1.5382e-05,109.35,8.4244e-07,0.10518,-1.7078e-05,-134.55,2.7585
21142,23.263,1.2727,0.05,7.4228e-07,7.4177,5.6998e-07,4.2826,4.1401e-13,9.404e-07,-5.6998e-07,-4.2826,2.743
21143,23.263,1.5455,0,2.3684e-05,236.68,1.6897e-05,117.87,1.2235e-06,0.11095,-1.9365e-05,-154.59,2.7431
21144,23.355,1.4545,0,2.1997e-05,219.82,1.6311e-05,118.4,5.672e-07,0.11286,-1.7447e-05,-135.24,2.7586
21145,23.263,1.4545,0.05,7.457e-07,7.4518,5.726e-07,4.3023,4.0059e-13,9.608e-07,-5.726e-07,-4.3023,2.7431
21146,23.263,1.7273,0,2.4334e-05,243.17,1.7637e-05,125.08,1.0049e-06,0.11576,-1.9661e-05,-155.16,2.7432
21147,23.355,1.6364,0,2.2716e-05,227,1.7116e-05,126.28,3.2577e-07,0.11866,-1.7762e-05,-135.78,2.7587
21148,23.263,1.6364,0.05,7.4845e-07,7.4793,5.7472e-07,4.3182,3.8285e-13,1.796e-06,-5.7472e-07,-4.3182,2.7432
21149,23.263,1.9091,0,2.489e-05,248.73,1.8268e-05,131.24,8.1714e-07,0.11943,-1.991e-05,-155.62,2.7433
21150,23.355,1.8182,0,2.3335e-05,233.19,1.7807e-05,133.04,1.1709e-07,0.12306,-1.8028e-05,-136.21,2.7588
21151,23.263,1.8182,0.05,7.5066e-07,7.5014,5.7641e-07,4.3309,4.2477e-13,-7.2131e-08,-5.7641e-07,-4.3309,2.7433
21152,23.263,2.0909,0,2.5355e-05,253.38,1.8793e-05,136.37,6.5962e-07,0.12224,-2.0116e-05,-155.98,2.7434
21153,23.355,2,0,2.3858e-05,238.41,1.8389e-05,138.74,-5.9825e-08,0.12644,-1.825e-05,-136.55,2.7588
21154,23.263,2,0.05,7.5241e-07,7.5189,5.7776e-07,4.341,4.5193e-13,2.0518e-06,-5.7776e-07,-4.3411,2.7433
21155,23.263,2.2727,0,2.5732e-05,257.14,1.9218e-05,140.53,5.3166e-07,0.12435,-2.0281e-05,-156.25,2.7434
21156,23.355,2.1818,0,2.4288e-05,242.72,1.8867e-05,143.43,-2.0588e-07,0.12901,-1.8431e-05,-136.81,2.7589
21157,23.263,2.1818,0.05,7.5378e-07,7.5326,5.7881e-07,4.349,7.1429e-13,4.1969e-06,-5.7881e-07,-4.349,2.7434
21158,23.263,2.4545,0,2.6023e-05,260.05,1.9545e-05,143.73,4.3272e-07,0.1259,-2.0407e-05,-156.45,2.7435
21159,23.355,2.3636,0,2.463e-05,246.13,1.9244e-05,147.14,-3.2182e-07,0.13093,-1.8573e-05,-137,2.759
21160,23.263,2.3636,0.05,7.5482e-07,7.543,5.7961e-07,4.355,7.5297e-13,7.1876e-07,-5.7961e-07,-4.355,2.7434
21161,23.263,2.6364,0,2.6229e-05,262.11,1.9777e-05,146,3.6236e-07,0.12695,-2.0496e-05,-156.59,2.7435
21162,23.355,2.5455,0,2.4884e-05,248.66,1.9525e-05,149.9,-4.0826e-07,0.13229,-1.8678e-05,-137.14,2.759
21163,23.263,2.5455,0.05,7.5557e-07,7.5505,5.8019e-07,4.3593,7.9679e-13,4.8629e-06,-5.8019e-07,-4.3593,2.7435
21164,23.263,2.8182,0,2.6353e-05,263.35,1.9916e-05,147.36,3.2027e-07,0.12757,-2.0549e-05,-156.67,2.7435
21165,23.355,2.7273,0,2.5052e-05,250.35,1.9711e-05,151.73,-4.6564e-07,0.13317,-1.8747e-05,-137.23,2.759
21166,23.263,2.7273,0.05,7.5606e-07,7.5554,5.8056e-07,4.3621,6.1476e-13,5.2141e-06,-5.8056e-07,-4.3621,2.7435
21167,23.263,3,0,2.6394e-05,263.76,1.9962e-05,147.81,3.0626e-07,0.12777,-2.0566e-05,-156.7,2.7435
21168,23.355,2.9091,0,2.5136e-05,251.19,1.9803e-05,152.64,-4.9425e-07,0.1336,-1.8782e-05,-137.27,2.759
21169,23.263,2.9091,0.05,7.563e-07,7.5577,5.8074e-07,4.3635,8.8681e-13,5.5516e-06,-5.8074e-07,-4.3635,2.7435
21170,23.263,3.1818,0,2.6353e-05,263.35,1.9916e-05,147.36,3.2027e-07,0.12756,-2.0549e-05,-156.67,2.7435
21171,23.355,3.0909,0,2.5136e-05,251.19,1.9803e-05,152.64,-4.9425e-07,0.1336,-1.8782e-05,-137.27,2.759
21172,23.263,3.0909,0.05,7.563e-07,7.5577,5.8074e-07,4.3635,9.3192e-13,7.798e-06,-5.8074e-07,-4.3635,2.7435
21173,23.263,3.3636,0,2.6229e-05,262.11,1.9777e-05,146,3.6236e-07,0.12695,-2.0496e-05,-156.59,2.7435
21174,23.355,3.2727,0,2.5052e-05,250.35,1.9711e-05,151.73,-4.6564e-07,0.13317,-1.8747e-05,-137.23,2.759
21175,23.263,3.2727,0.05,7.5606e-07,7.5554,5.8056e-07,4.3621,9.7273e-13,8.1046e-06,-5.8056e-07,-4.3621,2.7435
21176,23.263,3.5455,0,2.6023e-05,260.05,1.9545e-05,143.73,4.3272e-07,0.1259,-2.0407e-05,-156.45,2.7435
21177,23.355,3.4545,0,2.4884e-05,248.66,1.9525e-05,149.9,-4.0826e-07,0.1323,-1.8678e-05,-137.14,2.759
21178,23.263,3.4545,0.05,7.5557e-07,7.5505,5.8018e-07,4.3593,1.2332e-12,8.3617e-06,-5.8019e-07,-4.3593,2.7435
21179,23.263,3.7273,0,2.5732e-05,257.14,1.9218e-05,140.53,5.3166e-07,0.12435,-2.0281e-05,-156.25,2.7434
21180,23.355,3.6364,0,2.463e-05,246.13,1.9244e-05,147.14,-3.2183e-07,0.13093,-1.8573e-05,-137,2.759
21181,23.263,3.6364,0.05,7.5482e-07,7.543,5.7961e-07,4.355,1.4945e-12,8.576e-06,-5.7961e-07,-4.355,2.7434
21182,23.263,3.9091,0,2.5355e-05,253.38,1.8793e-05,136.37,6.5962e-07,0.12224,-2.0116e-05,-155.98,2.7434
21183,23.355,3.8182,0,2.4288e-05,242.72,1.8867e-05,143.43,-2.0588e-07,0.12901,-1.8431e-05,-136.81,2.7589
21184,23.263,3.8182,0.05,7.5378e-07,7.5326,5.7881e-07,4.349,1.7406e-12,1.4466e-05,-5.7881e-07,-4.349,2.7434
21185,23.263,4.0909,0,2.489e-05,248.73,1.8268e-05,131.24,8.1714e-07,0.11944,-1.991e-05,-155.62,2.7433
21186,23.355,4,0,2.3858e-05,238.41,1.8389e-05,138.74,-5.9826e-08,0.12644,-1.825e-05,-136.55,2.7588
21187,23.263,4,0.05,7.5241e-07,7.5189,5.7776e-07,4.341,1.5285e-12,1.4594e-05,-5.7776e-07,-4.3411,2.7433
21188,23.263,4.2727,0,2.4334e-05,243.17,1.7637e-05,125.08,1.0049e-06,0.11576,-1.9661e-05,-155.16,2.7432
21189,23.355,4.1818,0,2.3335e-05,233.19,1.7807e-05,133.04,1.1709e-07,0.12306,-1.8028e-05,-136.21,2.7588
21190,23.263,4.1818,0.05,7.5066e-07,7.5014,5.7641e-07,4.3309,1.9731e-12,1.1716e-05,-5.7641e-07,-4.3309,2.7433
21191,23.263,4.4545,0,2.3684e-05,236.68,1.6897e-05,117.87,1.2235e-06,0.11095,-1.9365e-05,-154.59,2.7431
21192,23.355,4.3636,0,2.2716e-05,227,1.7116e-05,126.28,3.2576e-07,0.11866,-1.7762e-05,-135.78,2.7587
21193,23.263,4.3636,0.05,7.4845e-07,7.4793,5.7472e-07,4.3182,1.7332e-12,1.4384e-05,-5.7472e-07,-4.3182,2.7432
21194,23.263,4.6364,0,2.2937e-05,229.22,1.6041e-05,109.56,1.4737e-06,0.10458,-1.9019e-05,-153.87,2.743
21195,23.355,4.5455,0,2.1997e-05,219.82,1.6311e-05,118.4,5.672e-07,0.11286,-1.7447e-05,-135.24,2.7586
21196,23.263,4.5455,0.05,7.457e-07,7.4518,5.726e-07,4.3023,1.4696e-12,1.2218e-05,-5.726e-07,-4.3023,2.7431
21197,23.263,4.8182,0,2.2092e-05,220.77,1.5065e-05,100.09,1.7559e-06,0.095899,-1.8617e-05,-152.98,2.7429
21198,23.355,4.7273,0,2.1175e-05,211.6,1.5382e-05,109.35,8.4244e-07,0.10518,-1.7078e-05,-134.55,2.7585
21199,23.263,4.7273,0.05,7.4228e-07,7.4177,5.6998e-07,4.2826,1.5987e-12,1.239e-05,-5.6998e-07,-4.2826,2.743
21200,23.263,5,0,2.1149e-05,211.34,1.3965e-05,89.454,2.0703e-06,0.084031,-1.8156e-05,-151.89,2.7428
21201,23.355,4.9091,0,2.0245e-05,202.31,1.4325e-05,99.066,1.1524e-06,0.094455,-1.6651e-05,-133.68,2.7583
21202,23.263,4.9091,0.05,7.3806e-07,7.3755,5.6674e-07,4.2582,1.4262e-12,1.2862e-05,-5.6674e-07,-4.2583,2.7428
21203,23.263,5.1818,0,2.0116e-05,201.03,1.2742e-05,77.652,2.4157e-06,0.065584,-1.7637e-05,-150.61,2.7426
21204,23.355,5.0909,0,1.9207e-05,191.94,1.3131e-05,87.488,1.4976e-06,0.079974,-1.6161e-05,-132.6,2.7582
21205,23.263,5.0909,0.05,7.3285e-07,7.3234,5.6274e-07,4.2282,1.2097e-12,9.0831e-06,-5.6274e-07,-4.2282,2.7427
21206,23.263,5.3636,0,1.9021e-05,190.08,1.1412e-05,64.827,2.7896e-06,0.042011,-1.707e-05,-149.17,2.7425
21207,23.355,5.2727,0,1.8069e-05,180.56,1.18e-05,74.614,1.8771e-06,0.054921,-1.5604e-05,-131.29,2.7581
21208,23.263,5.2727,0.05,7.2642e-07,7.2591,5.578e-07,4.1911,1.2991e-12,9.4531e-06,-5.578e-07,-4.1911,2.7426
21209,23.263,5.5455,0,1.793e-05,179.17,1.0026e-05,51.389,3.1837e-06,-0.024834,-1.6494e-05,-147.87,2.7424
21210,23.355,5.4545,0,1.6861e-05,168.5,1.035e-05,60.595,2.2885e-06,0.027483,-1.4992e-05,-129.81,2.7579
21211,23.263,5.4545,0.05,7.1773e-07,7.1724,5.5113e-07,4.141,1.0142e-12,6.7886e-06,-5.5113e-07,-4.141,2.7424
21212,23.263,5.7273,0,1.7107e-05,170.95,8.7992e-06,39.034,3.5922e-06,-0.090091,-1.6105e-05,-148.09,2.7422
21213,23.355,5.6364,0,1.5679e-05,156.68,8.8494e-06,45.972,2.7187e-06,-0.091481,-1.4382e-05,-128.58,2.7578
21214,23.263,5.6364,0.05,6.9311e-07,6.9263,5.3222e-07,3.9989,9.6309e-13,7.4392e-06,-5.3222e-07,-3.9989,2.7423
21215,23.355,5.8182,0,1.4985e-05,149.75,7.6731e-06,33.733,3.1701e-06,-0.10052,-1.4123e-05,-130.04,2.7576
21216,23.263,5.8182,0.05,4.6443e-07,4.6411,3.5662e-07,2.6795,2.0082e-13,4.1513e-07,-3.5662e-07,-2.6795,2.7421
21217,23.263,5.9091,0,1.5638e-05,156.28,7.029e-06,22.876,3.9888e-06,0.033854,-1.5123e-05,-143.56,2.742
21218,23.447,0.27273,0,1.3452e-05,134.43,7.6398e-06,40.044,2.2949e-06,-0.11523,-1.2315e-05,-109.89,2.7732
21219,23.539,0.18182,0,1.1235e-05,112.27,6.3773e-06,33.392,1.9177e-06,-0.11559,-1.0287e-05,-91.815,2.7887
21220,23.447,0.18182,0.05,5.1075e-07,5.104,3.9219e-07,2.9468,1.2573e-12,8.4562e-06,-3.9219e-07,-2.9468,2.7731
21221,23.447,0.090909,0,1.1893e-05,118.85,5.7559e-06,22.579,2.7571e-06,0.047383,-1.1347e-05,-105.93,2.7731
21222,23.447,0.45455,0,1.4586e-05,145.76,9.1423e-06,54.95,1.825e-06,-0.028647,-1.2851e-05,-110.3,2.7734
21223,23.539,0.36364,0,1.235e-05,123.41,7.9299e-06,49.091,1.3895e-06,-0.051221,-1.0758e-05,-91.324,2.7888
21224,23.447,0.36364,0.05,7.0123e-07,7.0075,5.3846e-07,4.0458,3.3615e-13,2.7884e-06,-5.3846e-07,-4.0458,2.7733
21225,23.447,0.63636,0,1.5917e-05,159.06,1.0723e-05,70.267,1.3771e-06,0.048451,-1.3512e-05,-111.82,2.7735
21226,23.539,0.54545,0,1.3833e-05,138.23,9.6706e-06,66.046,8.9392e-07,0.10123,-1.1472e-05,-92.809,2.789
21227,23.447,0.54545,0.05,7.2616e-07,7.2566,5.576e-07,4.1896,-7.9246e-14,-2.8173e-06,-5.576e-07,-4.1896,2.7734
21228,23.447,0.81818,0,1.7186e-05,171.74,1.2181e-05,84.383,9.5992e-07,0.07603,-1.4119e-05,-113.22,2.7737
21229,23.539,0.72727,0,1.5243e-05,152.32,1.1266e-05,81.54,4.3109e-07,0.13448,-1.2122e-05,-94.187,2.7891
21230,23.447,0.72727,0.05,7.3587e-07,7.3536,5.6506e-07,4.2456,-3.4785e-13,-5.7349e-06,-5.6506e-07,-4.2456,2.7736
21231,23.447,1,0,1.8341e-05,183.29,1.3485e-05,97.057,5.8056e-07,0.0966,-1.4651e-05,-114.34,2.7738
21232,23.539,0.90909,0,1.6518e-05,165.07,1.2682e-05,95.353,1.3169e-08,0.16484,-1.2686e-05,-95.252,2.7892
21233,23.447,0.90909,0.05,7.4264e-07,7.4212,5.7025e-07,4.2846,2.1693e-13,-1.7996e-06,-5.7025e-07,-4.2847,2.7737
21234,23.447,1.1818,0,1.9374e-05,193.6,1.4638e-05,108.29,2.3972e-07,0.10975,-1.511e-05,-115.22,2.7739
21235,23.539,1.0909,0,1.7653e-05,176.41,1.3928e-05,107.55,-3.6117e-07,0.18234,-1.317e-05,-96.056,2.7894
21236,23.447,1.0909,0.05,7.4773e-07,7.4721,5.7416e-07,4.314,4.6294e-13,1.0861e-06,-5.7416e-07,-4.314,2.7738
21237,23.447,1.3636,0,2.0286e-05,202.72,1.5649e-05,118.17,-6.3242e-08,0.11943,-1.5504e-05,-115.9,2.774
21238,23.539,1.2727,0,1.8655e-05,186.42,1.5019e-05,118.25,-6.9342e-07,0.19541,-1.3584e-05,-96.66,2.7895
21239,23.447,1.2727,0.05,7.5162e-07,7.5111,5.7715e-07,4.3365,4.6762e-13,1.0616e-06,-5.7715e-07,-4.3365,2.774
21240,23.447,1.5455,0,2.1083e-05,210.69,1.6528e-05,126.79,-3.2973e-07,0.12655,-1.5841e-05,-116.42,2.7741
21241,23.539,1.4545,0,1.9532e-05,195.18,1.5968e-05,127.59,-9.8594e-07,0.20488,-1.3938e-05,-97.115,2.7896
21242,23.447,1.4545,0.05,7.5465e-07,7.5412,5.7947e-07,4.3539,7.3138e-13,1.7359e-06,-5.7947e-07,-4.3539,2.7741
21243,23.447,1.7273,0,2.1773e-05,217.58,1.7285e-05,134.22,-5.6121e-07,0.13198,-1.6127e-05,-116.82,2.7742
21244,23.539,1.6364,0,2.0293e-05,202.79,1.6789e-05,135.68,-1.2409e-06,0.21208,-1.424e-05,-97.459,2.7897
21245,23.447,1.6364,0.05,7.57e-07,7.5648,5.8128e-07,4.3675,5.3181e-13,-1.7262e-07,-5.8128e-07,-4.3675,2.7742
21246,23.447,1.9091,0,2.236e-05,223.45,1.7927e-05,140.53,-7.5907e-07,0.13613,-1.6367e-05,-117.14,2.7743
21247,23.539,1.8182,0,2.0945e-05,209.3,1.7489e-05,142.6,-1.4601e-06,0.21761,-1.4495e-05,-97.72,2.7898
21248,23.447,1.8182,0.05,7.5884e-07,7.5831,5.8269e-07,4.3781,2.9546e-13,2.654e-06,-5.8269e-07,-4.3781,2.7743
21249,23.447,2.0909,0,2.285e-05,228.34,1.8461e-05,145.79,-9.2451e-07,0.13932,-1.6565e-05,-117.37,2.7744
21250,23.539,2,0,2.1494e-05,214.79,1.8078e-05,148.41,-1.6454e-06,0.22188,-1.4707e-05,-97.916,2.7898
21251,23.447,2,0.05,7.6027e-07,7.5974,5.8379e-07,4.3864,3.1701e-13,9.0653e-07,-5.8379e-07,-4.3864,2.7743
21252,23.447,2.2727,0,2.3246e-05,232.3,1.8891e-05,150.04,-1.0586e-06,0.14173,-1.6723e-05,-117.55,2.7744
21253,23.539,2.1818,0,2.1945e-05,219.3,1.856e-05,153.19,-1.7978e-06,0.22514,-1.4879e-05,-98.063,2.7899
21254,23.447,2.1818,0.05,7.6137e-07,7.6084,5.8463e-07,4.3927,3.4073e-13,2.9552e-06,-5.8463e-07,-4.3927,2.7744
21255,23.447,2.4545,0,2.3551e-05,235.34,1.9222e-05,153.3,-1.162e-06,0.14349,-1.6844e-05,-117.68,2.7745
21256,23.539,2.3636,0,2.2302e-05,222.87,1.8941e-05,156.96,-1.9186e-06,0.22759,-1.5015e-05,-98.17,2.79
21257,23.447,2.3636,0.05,7.6219e-07,7.6166,5.8527e-07,4.3975,8.0953e-13,3.0894e-06,-5.8527e-07,-4.3975,2.7744
21258,23.447,2.6364,0,2.3767e-05,237.51,1.9457e-05,155.62,-1.2354e-06,0.1447,-1.6929e-05,-117.77,2.7745
21259,23.539,2.5455,0,2.2567e-05,225.52,1.9224e-05,159.76,-2.0085e-06,0.22934,-1.5115e-05,-98.245,2.79
21260,23.447,2.5455,0.05,7.6278e-07,7.6225,5.8572e-07,4.4008,8.409e-13,1.4054e-06,-5.8572e-07,-4.4009,2.7745
21261,23.447,2.8182,0,2.3896e-05,238.8,1.9597e-05,157,-1.2793e-06,0.1454,-1.698e-05,-117.82,2.7745
21262,23.539,2.7273,0,2.2743e-05,227.27,1.9411e-05,161.62,-2.0681e-06,0.23047,-1.5181e-05,-98.292,2.79
21263,23.447,2.7273,0.05,7.6315e-07,7.6263,5.8601e-07,4.403,8.6877e-13,3.5134e-06,-5.8601e-07,-4.403,2.7745
21264,23.447,3,0,2.3939e-05,239.23,1.9644e-05,157.46,-1.2939e-06,0.14563,-1.6996e-05,-117.84,2.7745
21265,23.539,2.9091,0,2.2831e-05,228.15,1.9504e-05,162.54,-2.0978e-06,0.23102,-1.5214e-05,-98.315,2.79
21266,23.447,2.9091,0.05,7.6334e-07,7.6281,5.8615e-07,4.4041,4.4116e-13,5.62e-06,-5.8615e-07,-4.4041,2.7745
21267,23.447,3.1818,0,2.3896e-05,238.8,1.9597e-05,157,-1.2793e-06,0.1454,-1.698e-05,-117.82,2.7745
21268,23.539,3.0909,0,2.2831e-05,228.15,1.9504e-05,162.54,-2.0978e-06,0.23102,-1.5214e-05,-98.315,2.79
21269,23.447,3.0909,0.05,7.6334e-07,7.6281,5.8615e-07,4.4041,1.15e-12,3.9133e-06,-5.8615e-07,-4.4041,2.7745
21270,23.447,3.3636,0,2.3767e-05,237.51,1.9457e-05,155.62,-1.2354e-06,0.1447,-1.6929e-05,-117.77,2.7745
21271,23.539,3.2727,0,2.2743e-05,227.27,1.9411e-05,161.62,-2.0681e-06,0.23047,-1.5181e-05,-98.292,2.79
21272,23.447,3.2727,0.05,7.6315e-07,7.6263,5.8601e-07,4.403,1.6265e-12,7.8985e-06,-5.8601e-07,-4.403,2.7745
21273,23.447,3.5455,0,2.3551e-05,235.34,1.9222e-05,153.3,-1.162e-06,0.14349,-1.6844e-05,-117.68,2.7745
21274,23.539,3.4545,0,2.2567e-05,225.52,1.9224e-05,159.76,-2.0085e-06,0.22934,-1.5115e-05,-98.245,2.79
21275,23.447,3.4545,0.05,7.6278e-07,7.6225,5.8572e-07,4.4008,1.1892e-12,8.0186e-06,-5.8572e-07,-4.4009,2.7745
21276,23.447,3.7273,0,2.3246e-05,232.3,1.8891e-05,150.04,-1.0586e-06,0.14173,-1.6723e-05,-117.55,2.7744
21277,23.539,3.6364,0,2.2302e-05,222.87,1.8941e-05,156.96,-1.9186e-06,0.22759,-1.5015e-05,-98.17,2.79
21278,23.447,3.6364,0.05,7.6219e-07,7.6166,5.8527e-07,4.3975,1.652e-12,1.0028e-05,-5.8527e-07,-4.3975,2.7744
21279,23.447,3.9091,0,2.285e-05,228.34,1.8461e-05,145.79,-9.2452e-07,0.13932,-1.6565e-05,-117.37,2.7744
21280,23.539,3.8182,0,2.1945e-05,219.3,1.856e-05,153.19,-1.7978e-06,0.22515,-1.4879e-05,-98.063,2.7899
21281,23.447,3.8182,0.05,7.6137e-07,7.6084,5.8463e-07,4.3927,1.2181e-12,1.2042e-05,-5.8463e-07,-4.3927,2.7744
21282,23.447,4.0909,0,2.236e-05,223.45,1.7927e-05,140.53,-7.5907e-07,0.13613,-1.6367e-05,-117.14,2.7743
21283,23.539,4,0,2.1494e-05,214.79,1.8078e-05,148.41,-1.6454e-06,0.22188,-1.4707e-05,-97.916,2.7898
21284,23.447,4,0.05,7.6027e-07,7.5974,5.8379e-07,4.3864,1.6608e-12,1.1923e-05,-5.8379e-07,-4.3864,2.7743
21285,23.447,4.2727,0,2.1773e-05,217.58,1.7285e-05,134.22,-5.6121e-07,0.13198,-1.6127e-05,-116.82,2.7742
21286,23.539,4.1818,0,2.0945e-05,209.3,1.7489e-05,142.6,-1.4602e-06,0.21761,-1.4495e-05,-97.72,2.7898
21287,23.447,4.1818,0.05,7.5884e-07,7.5831,5.8269e-07,4.3781,1.8664e-12,1.3735e-05,-5.8269e-07,-4.3781,2.7743
21288,23.447,4.4545,0,2.1083e-05,210.69,1.6528e-05,126.79,-3.2973e-07,0.12655,-1.5841e-05,-116.42,2.7741
21289,23.539,4.3636,0,2.0293e-05,202.79,1.6789e-05,135.68,-1.2409e-06,0.21209,-1.424e-05,-97.459,2.7897
21290,23.447,4.3636,0.05,7.57e-07,7.5648,5.8128e-07,4.3675,1.8283e-12,1.6269e-05,-5.8128e-07,-4.3675,2.7742
21291,23.447,4.6364,0,2.0286e-05,202.72,1.5649e-05,118.17,-6.3244e-08,0.11943,-1.5504e-05,-115.9,2.774
21292,23.539,4.5455,0,1.9532e-05,195.18,1.5968e-05,127.59,-9.8594e-07,0.20488,-1.3938e-05,-97.115,2.7896
21293,23.447,4.5455,0.05,7.5464e-07,7.5412,5.7947e-07,4.3539,1.3572e-12,1.2044e-05,-5.7947e-07,-4.3539,2.7741
21294,23.447,4.8182,0,1.9374e-05,193.6,1.4638e-05,108.29,2.3972e-07,0.10975,-1.511e-05,-115.22,2.7739
21295,23.539,4.7273,0,1.8655e-05,186.42,1.5019e-05,118.25,-6.9342e-07,0.19541,-1.3584e-05,-96.66,2.7895
21296,23.447,4.7273,0.05,7.5162e-07,7.5111,5.7715e-07,4.3365,1.5856e-12,1.1491e-05,-5.7715e-07,-4.3365,2.774
21297,23.447,5,0,1.8341e-05,183.29,1.3485e-05,97.057,5.8056e-07,0.096596,-1.4651e-05,-114.34,2.7738
21298,23.539,4.9091,0,1.7653e-05,176.41,1.3928e-05,107.55,-3.6118e-07,0.18234,-1.317e-05,-96.056,2.7894
21299,23.447,4.9091,0.05,7.4773e-07,7.4721,5.7416e-07,4.314,1.3799e-12,9.9144e-06,-5.7416e-07,-4.314,2.7738
21300,23.447,5.1818,0,1.7186e-05,171.74,1.2181e-05,84.383,9.5992e-07,0.076027,-1.4119e-05,-113.22,2.7737
21301,23.539,5.0909,0,1.6518e-05,165.07,1.2682e-05,95.353,1.3166e-08,0.16484,-1.2686e-05,-95.252,2.7892
21302,23.447,5.0909,0.05,7.4264e-07,7.4212,5.7025e-07,4.2846,1.071e-12,7.2932e-06,-5.7025e-07,-4.2847,2.7737
21303,23.447,5.3636,0,1.5917e-05,159.06,1.0723e-05,70.267,1.3771e-06,0.048451,-1.3512e-05,-111.82,2.7735
21304,23.539,5.2727,0,1.5243e-05,152.32,1.1266e-05,81.54,4.3108e-07,0.13448,-1.2122e-05,-94.187,2.7891
21305,23.447,5.2727,0.05,7.3587e-07,7.3536,5.6506e-07,4.2456,1.1227e-12,5.919e-06,-5.6506e-07,-4.2456,2.7736
21306,23.447,5.5455,0,1.4586e-05,145.76,9.1423e-06,54.95,1.825e-06,-0.028642,-1.2851e-05,-110.3,2.7734
21307,23.539,5.4545,0,1.3833e-05,138.23,9.6706e-06,66.046,8.9392e-07,0.10123,-1.1472e-05,-92.809,2.789
21308,23.447,5.4545,0.05,7.2616e-07,7.2566,5.576e-07,4.1896,7.4759e-13,5.2053e-06,-5.576e-07,-4.1896,2.7734
21309,23.447,5.7273,0,1.3452e-05,134.43,7.6398e-06,40.044,2.2949e-06,-0.11523,-1.2315e-05,-109.89,2.7732
21310,23.539,5.6364,0,1.235e-05,123.41,7.9299e-06,49.091,1.3895e-06,-0.051217,-1.0758e-05,-91.324,2.7888
21311,23.447,5.6364,0.05,7.0123e-07,7.0075,5.3846e-07,4.0458,4.3947e-13,5.0772e-06,-5.3846e-07,-4.0458,2.7733
21312,23.539,5.8182,0,1.1235e-05,112.27,6.3773e-06,33.392,1.9177e-06,-0.1156,-1.0287e-05,-91.815,2.7887
21313,23.447,5.8182,0.05,5.1075e-07,5.104,3.9219e-07,2.9468,-2.8346e-13,-4.487e-06,-3.9219e-07,-2.9468,2.7731
21314,23.447,5.9091,0,1.1893e-05,118.85,5.7559e-06,22.579,2.7571e-06,0.047381,-1.1347e-05,-105.93,2.7731
21315,23.631,0.27273,0,1.0022e-05,100.15,6.5735e-06,41.733,1.0119e-06,-0.055074,-8.6356e-06,-72.543,2.8043
21316,23.723,0.18182,0,7.7527e-06,77.474,5.1974e-06,33.697,6.7122e-07,-0.31052,-6.6027e-06,-54.964,2.8197
21317,23.631,0.18182,0.05,5.6885e-07,5.6846,4.3681e-07,3.282,6.6192e-13,6.6339e-06,-4.3681e-07,-3.282,2.8042
21318,23.631,0.090909,0,8.2639e-06,82.582,4.4967e-06,22.143,1.5685e-06,0.142,-7.6618e-06,-69.211,2.8041
21319,23.631,0.45455,0,1.1601e-05,115.93,8.4312e-06,59.983,4.6114e-07,0.098738,-9.3539e-06,-73.648,2.8044
21320,23.723,0.36364,0,9.5076e-06,95.01,7.2626e-06,54.206,2.6399e-08,-0.16325,-7.3385e-06,-55.501,2.8198
21321,23.631,0.36364,0.05,7.1974e-07,7.1925,5.5267e-07,4.1526,1.0393e-12,9.3671e-06,-5.5267e-07,-4.1526,2.8043
21322,23.631,0.63636,0,1.3202e-05,131.92,1.0202e-05,77.23,-4.9903e-08,0.20399,-1.0072e-05,-75.1,2.8045
21323,23.723,0.54545,0,1.1305e-05,112.97,9.2149e-06,73.389,-5.4617e-07,0.047374,-8.0996e-06,-56.706,2.82
21324,23.631,0.54545,0.05,7.4314e-07,7.4263,5.7064e-07,4.2875,-3.2582e-14,-6.7044e-07,-5.7064e-07,-4.2875,2.8045
21325,23.631,0.81818,0,1.4636e-05,146.26,1.176e-05,92.46,-5.1359e-07,0.23892,-1.0685e-05,-76.184,2.8047
21326,23.723,0.72727,0,1.2893e-05,128.85,1.0907e-05,90.02,-1.062e-06,0.090154,-8.7385e-06,-57.588,2.8201
21327,23.631,0.72727,0.05,7.5219e-07,7.5167,5.7759e-07,4.3398,-6.844e-13,-5.2665e-06,-5.7759e-07,-4.3398,2.8046
21328,23.631,1,0,1.5901e-05,158.9,1.312e-05,105.81,-9.2651e-07,0.26607,-1.1203e-05,-76.947,2.8048
21329,23.723,0.90909,0,1.4281e-05,142.71,1.2371e-05,104.47,-1.5161e-06,0.13123,-9.2746e-06,-58.163,2.8203
21330,23.631,0.90909,0.05,7.5762e-07,7.571,5.8176e-07,4.3711,-7.5521e-13,-3.5369e-06,-5.8176e-07,-4.3711,2.8047
21331,23.631,1.1818,0,1.7011e-05,169.99,1.4306e-05,117.48,-1.2922e-06,0.28365,-1.1643e-05,-77.488,2.8049
21332,23.723,1.0909,0,1.5493e-05,154.83,1.3641e-05,117.05,-1.9164e-06,0.15573,-9.7288e-06,-58.544,2.8204
21333,23.631,1.0909,0.05,7.6139e-07,7.6087,5.8466e-07,4.3929,-2.7549e-13,-8.0656e-07,-5.8465e-07,-4.3929,2.8049
21334,23.631,1.3636,0,1.798e-05,179.68,1.5336e-05,127.65,-1.614e-06,0.29675,-1.2018e-05,-77.875,2.805
21335,23.723,1.2727,0,1.6551e-05,165.39,1.4745e-05,128,-2.2679e-06,0.17446,-1.0116e-05,-58.795,2.8205
21336,23.631,1.2727,0.05,7.6409e-07,7.6356,5.8673e-07,4.4084,9.4308e-14,2.742e-07,-5.8673e-07,-4.4084,2.805
21337,23.631,1.5455,0,1.8822e-05,188.09,1.6227e-05,136.47,-1.8949e-06,0.30656,-1.2338e-05,-78.155,2.8051
21338,23.723,1.4545,0,1.747e-05,174.58,1.5701e-05,137.51,-2.5749e-06,0.18842,-1.0447e-05,-58.961,2.8206
21339,23.631,1.4545,0.05,7.6606e-07,7.6553,5.8824e-07,4.4198,2.2512e-13,6.8943e-07,-5.8824e-07,-4.4198,2.8051
21340,23.631,1.7273,0,1.9547e-05,195.33,1.6991e-05,144.04,-2.1376e-06,0.3141,-1.2608e-05,-78.358,2.8052
21341,23.723,1.6364,0,1.8263e-05,182.51,1.6525e-05,145.71,-2.841e-06,0.1993,-1.0729e-05,-59.07,2.8207
21342,23.631,1.6364,0.05,7.6752e-07,7.6699,5.8936e-07,4.4282,-1.4718e-13,1.0028e-06,-5.8936e-07,-4.4282,2.8052
21343,23.631,1.9091,0,2.0161e-05,201.47,1.7639e-05,150.46,-2.3442e-06,0.31995,-1.2835e-05,-78.506,2.8053
21344,23.723,1.8182,0,1.8941e-05,189.28,1.7227e-05,152.7,-3.0689e-06,0.20781,-1.0968e-05,-59.14,2.8208
21345,23.631,1.8182,0.05,7.6861e-07,7.6808,5.9019e-07,4.4345,1.1927e-13,1.2467e-06,-5.9019e-07,-4.4345,2.8053
21346,23.631,2.0909,0,2.0672e-05,206.58,1.8176e-05,155.8,-2.5164e-06,0.32447,-1.3022e-05,-78.612,2.8054
21347,23.723,2,0,1.9511e-05,194.97,1.7816e-05,158.58,-3.2609e-06,0.2145,-1.1166e-05,-59.184,2.8209
21348,23.631,2,0.05,7.6942e-07,7.6889,5.9082e-07,4.4392,3.8646e-13,1.628e-06,-5.9082e-07,-4.4392,2.8053
21349,23.631,2.2727,0,2.1085e-05,210.7,1.8609e-05,160.1,-2.6556e-06,0.32792,-1.3172e-05,-78.689,2.8054
21350,23.723,2.1818,0,1.9978e-05,199.64,1.8299e-05,163.39,-3.4185e-06,0.2197,-1.1328e-05,-59.21,2.8209
21351,23.631,2.1818,0.05,7.7003e-07,7.695,5.9129e-07,4.4427,2.1124e-13,2.0095e-06,-5.9129e-07,-4.4427,2.8054
21352,23.631,2.4545,0,2.1402e-05,213.87,1.8942e-05,163.41,-2.7629e-06,0.33046,-1.3287e-05,-78.742,2.8055
21353,23.723,2.3636,0,2.0346e-05,203.32,1.868e-05,167.2,-3.5431e-06,0.22364,-1.1455e-05,-59.226,2.821
21354,23.631,2.3636,0.05,7.7047e-07,7.6994,5.9163e-07,4.4452,2.6053e-13,2.3821e-06,-5.9163e-07,-4.4452,2.8055
21355,23.631,2.6364,0,2.1627e-05,216.12,1.9177e-05,165.75,-2.8389e-06,0.3322,-1.3368e-05,-78.777,2.8055
21356,23.723,2.5455,0,2.062e-05,206.06,1.8962e-05,170.02,-3.6358e-06,0.22648,-1.1549e-05,-59.234,2.821
21357,23.631,2.5455,0.05,7.7078e-07,7.7025,5.9186e-07,4.447,7.7219e-13,4.695e-06,-5.9186e-07,-4.447,2.8055
21358,23.631,2.8182,0,2.1761e-05,217.46,1.9318e-05,167.15,-2.8843e-06,0.33322,-1.3416e-05,-78.796,2.8055
21359,23.723,2.7273,0,2.0802e-05,207.87,1.9149e-05,171.89,-3.6972e-06,0.22832,-1.1612e-05,-59.238,2.821
21360,23.631,2.7273,0.05,7.7097e-07,7.7044,5.9201e-07,4.4481,3.7209e-13,5.1045e-06,-5.9201e-07,-4.4481,2.8055
21361,23.631,3,0,2.1806e-05,217.91,1.9364e-05,167.61,-2.8994e-06,0.33355,-1.3432e-05,-78.803,2.8055
21362,23.723,2.9091,0,2.0892e-05,208.78,1.9243e-05,172.82,-3.7277e-06,0.22923,-1.1643e-05,-59.24,2.8211
21363,23.631,2.9091,0.05,7.7107e-07,7.7054,5.9208e-07,4.4487,6.5434e-13,9.3276e-06,-5.9208e-07,-4.4487,2.8055
21364,23.631,3.1818,0,2.1761e-05,217.46,1.9318e-05,167.15,-2.8843e-06,0.33322,-1.3416e-05,-78.796,2.8055
21365,23.723,3.0909,0,2.0892e-05,208.78,1.9243e-05,172.82,-3.7277e-06,0.22923,-1.1643e-05,-59.24,2.8211
21366,23.631,3.0909,0.05,7.7107e-07,7.7054,5.9208e-07,4.4487,9.3712e-13,9.7442e-06,-5.9208e-07,-4.4487,2.8055
21367,23.631,3.3636,0,2.1627e-05,216.12,1.9177e-05,165.75,-2.8389e-06,0.3322,-1.3368e-05,-78.777,2.8055
21368,23.723,3.2727,0,2.0802e-05,207.87,1.9149e-05,171.89,-3.6972e-06,0.22832,-1.1612e-05,-59.238,2.821
21369,23.631,3.2727,0.05,7.7097e-07,7.7044,5.9201e-07,4.4481,9.8962e-13,1.0135e-05,-5.9201e-07,-4.4481,2.8055
21370,23.631,3.5455,0,2.1402e-05,213.87,1.8942e-05,163.41,-2.7629e-06,0.33046,-1.3287e-05,-78.742,2.8055
21371,23.723,3.4545,0,2.062e-05,206.06,1.8962e-05,170.02,-3.6358e-06,0.22648,-1.1549e-05,-59.234,2.821
21372,23.631,3.4545,0.05,7.7078e-07,7.7025,5.9186e-07,4.447,1.263e-12,1.2388e-05,-5.9186e-07,-4.447,2.8055
21373,23.631,3.7273,0,2.1085e-05,210.7,1.8609e-05,160.1,-2.6556e-06,0.32792,-1.3172e-05,-78.689,2.8054
21374,23.723,3.6364,0,2.0346e-05,203.32,1.868e-05,167.2,-3.5431e-06,0.22364,-1.1455e-05,-59.226,2.821
21375,23.631,3.6364,0.05,7.7047e-07,7.6994,5.9162e-07,4.4452,1.7596e-12,1.2729e-05,-5.9163e-07,-4.4452,2.8055
21376,23.631,3.9091,0,2.0672e-05,206.58,1.8176e-05,155.8,-2.5164e-06,0.32447,-1.3022e-05,-78.612,2.8054
21377,23.723,3.8182,0,1.9978e-05,199.64,1.8299e-05,163.39,-3.4185e-06,0.2197,-1.1328e-05,-59.21,2.8209
21378,23.631,3.8182,0.05,7.7003e-07,7.695,5.9129e-07,4.4427,1.5883e-12,1.8799e-05,-5.9129e-07,-4.4427,2.8054
21379,23.631,4.0909,0,2.0161e-05,201.47,1.7639e-05,150.46,-2.3442e-06,0.31995,-1.2835e-05,-78.506,2.8053
21380,23.723,4,0,1.9511e-05,194.97,1.7816e-05,158.58,-3.2609e-06,0.2145,-1.1166e-05,-59.184,2.8209
21381,23.631,4,0.05,7.6942e-07,7.6889,5.9082e-07,4.4392,1.84e-12,1.7181e-05,-5.9082e-07,-4.4392,2.8053
21382,23.631,4.2727,0,1.9547e-05,195.33,1.6991e-05,144.04,-2.1376e-06,0.3141,-1.2608e-05,-78.358,2.8052
21383,23.723,4.1818,0,1.8941e-05,189.28,1.7227e-05,152.7,-3.0689e-06,0.20781,-1.0968e-05,-59.14,2.8208
21384,23.631,4.1818,0.05,7.6861e-07,7.6808,5.9019e-07,4.4345,2.0945e-12,1.3686e-05,-5.902e-07,-4.4345,2.8053
21385,23.631,4.4545,0,1.8822e-05,188.09,1.6227e-05,136.47,-1.8949e-06,0.30655,-1.2338e-05,-78.155,2.8051
21386,23.723,4.3636,0,1.8263e-05,182.51,1.6525e-05,145.71,-2.841e-06,0.1993,-1.0729e-05,-59.07,2.8207
21387,23.631,4.3636,0.05,7.6752e-07,7.6699,5.8936e-07,4.4282,1.8924e-12,2.1137e-05,-5.8936e-07,-4.4282,2.8052
21388,23.631,4.6364,0,1.798e-05,179.68,1.5336e-05,127.65,-1.614e-06,0.29675,-1.2018e-05,-77.875,2.805
21389,23.723,4.5455,0,1.747e-05,174.58,1.5701e-05,137.51,-2.5749e-06,0.18842,-1.0447e-05,-58.961,2.8206
21390,23.631,4.5455,0.05,7.6606e-07,7.6553,5.8824e-07,4.4198,2.1126e-12,1.5704e-05,-5.8824e-07,-4.4198,2.8051
21391,23.631,4.8182,0,1.7011e-05,169.99,1.4306e-05,117.48,-1.2922e-06,0.28365,-1.1643e-05,-77.488,2.8049
21392,23.723,4.7273,0,1.6551e-05,165.39,1.4745e-05,128,-2.2679e-06,0.17446,-1.0116e-05,-58.795,2.8205
21393,23.631,4.7273,0.05,7.6409e-07,7.6356,5.8672e-07,4.4084,2.0769e-12,1.7307e-05,-5.8673e-07,-4.4084,2.805
21394,23.631,5,0,1.5901e-05,158.9,1.312e-05,105.81,-9.2651e-07,0.26606,-1.1203e-05,-76.947,2.8048
21395,23.723,4.9091,0,1.5493e-05,154.83,1.3641e-05,117.05,-1.9164e-06,0.15573,-9.7288e-06,-58.544,2.8204
21396,23.631,4.9091,0.05,7.6139e-07,7.6087,5.8465e-07,4.3929,2.0505e-12,1.8945e-05,-5.8466e-07,-4.3929,2.8049
21397,23.631,5.1818,0,1.4636e-05,146.26,1.176e-05,92.46,-5.1359e-07,0.23892,-1.0685e-05,-76.184,2.8047
21398,23.723,5.0909,0,1.4281e-05,142.71,1.2371e-05,104.47,-1.5161e-06,0.13123,-9.2746e-06,-58.163,2.8203
21399,23.631,5.0909,0.05,7.5762e-07,7.571,5.8176e-07,4.3711,1.5113e-12,1.612e-05,-5.8176e-07,-4.3711,2.8047
21400,23.631,5.3636,0,1.3202e-05,131.92,1.0202e-05,77.23,-4.9904e-08,0.20399,-1.0072e-05,-75.1,2.8045
21401,23.723,5.2727,0,1.2893e-05,128.85,1.0907e-05,90.02,-1.062e-06,0.090154,-8.7385e-06,-57.588,2.8201
21402,23.631,5.2727,0.05,7.5219e-07,7.5167,5.7759e-07,4.3398,1.7767e-12,1.5345e-05,-5.7759e-07,-4.3398,2.8046
21403,23.631,5.5455,0,1.1601e-05,115.93,8.4312e-06,59.983,4.6114e-07,0.098742,-9.3539e-06,-73.648,2.8044
21404,23.723,5.4545,0,1.1305e-05,112.97,9.2149e-06,73.389,-5.4617e-07,0.047377,-8.0996e-06,-56.706,2.82
21405,23.631,5.4545,0.05,7.4314e-07,7.4263,5.7064e-07,4.2875,1.3517e-12,1.3368e-05,-5.7064e-07,-4.2876,2.8045
21406,23.631,5.7273,0,1.0022e-05,100.15,6.5735e-06,41.733,1.0119e-06,-0.055073,-8.6356e-06,-72.543,2.8043
21407,23.723,5.6364,0,9.5076e-06,95.01,7.2626e-06,54.206,2.6401e-08,-0.16325,-7.3385e-06,-55.501,2.8198
21408,23.631,5.6364,0.05,7.1974e-07,7.1925,5.5267e-07,4.1526,1.3605e-12,1.4395e-05,-5.5267e-07,-4.1526,2.8043
21409,23.723,5.8182,0,7.7527e-06,77.473,5.1974e-06,33.697,6.7122e-07,-0.31052,-6.6027e-06,-54.964,2.8197
21410,23.631,5.8182,0.05,5.6885e-07,5.6846,4.3681e-07,3.282,7.7778e-13,7.413e-06,-4.3681e-07,-3.282,2.8042
21411,23.631,5.9091,0,8.2639e-06,82.582,4.4967e-06,22.143,1.5685e-06,0.142,-7.6618e-06,-69.211,2.8041
21412,23.816,0.27273,0,7.192e-06,71.87,5.7999e-06,45.521,-3.0993e-07,-0.3858,-5.2236e-06,-37.305,2.8353
21413,23.816,0.18182,0.05,6.931e-07,6.9262,5.3222e-07,3.9989,6.8811e-13,1.0437e-05,-5.3222e-07,-3.9989,2.8352
21414,23.816,0.090909,0,4.8964e-06,48.93,3.2906e-06,21.459,4.247e-07,-0.073905,-4.163e-06,-34.544,2.8351
21415,23.908,0.18182,0,4.8634e-06,48.601,4.1759e-06,34.931,-4.7806e-07,-0.036623,-3.2103e-06,-20.565,2.8507
21416,23.816,0.45455,0,9.2975e-06,92.911,8.027e-06,67.467,-9.7272e-07,-0.15305,-6.0731e-06,-38.475,2.8354
21417,23.816,0.36364,0.05,7.8567e-07,7.8513,6.033e-07,4.533,-1.8389e-13,2.2087e-06,-6.033e-07,-4.533,2.8354
21418,23.908,0.36364,0,7.3608e-06,73.557,6.7541e-06,60.45,-1.2699e-06,0.16124,-4.1538e-06,-21.508,2.8509
21419,23.816,0.63636,0,1.111e-05,111.03,9.9117e-06,86.114,-1.55e-06,-0.0043494,-6.7654e-06,-39.191,2.8356
21420,23.816,0.54545,0.05,7.9523e-07,7.9468,6.1064e-07,4.5881,2.3031e-13,4.373e-06,-6.1064e-07,-4.5881,2.8355
21421,23.908,0.54545,0,9.4131e-06,94.066,8.8421e-06,81.206,-1.9184e-06,0.35551,-4.8985e-06,-22.036,2.851
21422,23.816,0.81818,0,1.266e-05,126.51,1.1512e-05,101.99,-2.0558e-06,0.047673,-7.3319e-06,-39.595,2.8357
21423,23.816,0.72727,0.05,7.9589e-07,7.9534,6.1114e-07,4.5919,-3.2717e-13,1.3379e-06,-6.1114e-07,-4.5919,2.8356
21424,23.908,0.72727,0,1.1141e-05,111.33,1.0592e-05,98.597,-2.4816e-06,0.36826,-5.503e-06,-22.334,2.8512
21425,23.816,1,0,1.3997e-05,139.88,1.2888e-05,115.68,-2.4968e-06,0.089714,-7.8063e-06,-39.803,2.8358
21426,23.816,0.90909,0.05,7.9519e-07,7.9464,6.1061e-07,4.5879,-3.0421e-13,1.0914e-06,-6.1061e-07,-4.5879,2.8358
21427,23.908,0.90909,0,1.2618e-05,126.1,1.2086e-05,113.49,-2.9664e-06,0.39169,-6.0097e-06,-22.475,2.8513
21428,23.816,1.1818,0,1.5157e-05,151.46,1.4078e-05,127.55,-2.8824e-06,0.11873,-8.2091e-06,-39.904,2.836
21429,23.816,1.0909,0.05,7.9368e-07,7.9313,6.0945e-07,4.5792,-1.4391e-13,1.8576e-06,-6.0945e-07,-4.5791,2.8359
21430,23.908,1.0909,0,1.3895e-05,138.86,1.3376e-05,126.36,-3.3883e-06,0.40203,-6.4414e-06,-22.538,2.8514
21431,23.816,1.3636,0,1.6163e-05,161.51,1.5108e-05,137.84,-3.2188e-06,0.14133,-8.5534e-06,-39.941,2.8361
21432,23.816,1.2727,0.05,7.9184e-07,7.9129,6.0803e-07,4.5685,-1.2226e-13,4.1732e-07,-6.0803e-07,-4.5685,2.836
21433,23.908,1.2727,0,1.5002e-05,149.92,1.4493e-05,137.52,-3.7555e-06,0.4102,-6.8121e-06,-22.556,2.8515
21434,23.816,1.5455,0,1.7032e-05,170.2,1.5997e-05,146.73,-3.5106e-06,0.15899,-8.8476e-06,-39.941,2.8362
21435,23.816,1.4545,0.05,7.8988e-07,7.8934,6.0653e-07,4.5572,-2.1094e-13,4.1106e-07,-6.0653e-07,-4.5572,2.8361
21436,23.908,1.4545,0,1.5961e-05,159.5,1.546e-05,147.19,-4.0744e-06,0.41573,-7.1307e-06,-22.548,2.8516
21437,23.816,1.7273,0,1.7778e-05,177.66,1.6759e-05,154.36,-3.7616e-06,0.17311,-9.0978e-06,-39.921,2.8363
21438,23.816,1.6364,0.05,7.8796e-07,7.8741,6.0505e-07,4.5461,3.0288e-14,4.2275e-06,-6.0505e-07,-4.5461,2.8362
21439,23.908,1.6364,0,1.6787e-05,167.75,1.6292e-05,155.52,-4.3497e-06,0.41986,-7.4036e-06,-22.526,2.8517
21440,23.816,1.9091,0,1.8409e-05,183.97,1.7403e-05,160.81,-3.9746e-06,0.18439,-9.3082e-06,-39.89,2.8363
21441,23.816,1.8182,0.05,7.8616e-07,7.8561,6.0367e-07,4.5358,4.1937e-14,2.4786e-06,-6.0367e-07,-4.5357,2.8363
21442,23.908,1.8182,0,1.749e-05,174.78,1.7002e-05,162.62,-4.5847e-06,0.42292,-7.6353e-06,-22.498,2.8518
21443,23.816,2.0909,0,1.8933e-05,189.2,1.7938e-05,166.17,-4.1517e-06,0.19337,-9.482e-06,-39.856,2.8364
21444,23.816,2,0.05,7.8454e-07,7.84,6.0243e-07,4.5264,-1.5817e-13,4.4468e-06,-6.0243e-07,-4.5264,2.8364
21445,23.908,2,0,1.8081e-05,180.68,1.7597e-05,168.57,-4.7822e-06,0.42524,-7.8291e-06,-22.468,2.8519
21446,23.816,2.2727,0,1.9356e-05,193.43,1.8368e-05,170.48,-4.2946e-06,0.20036,-9.6216e-06,-39.824,2.8365
21447,23.816,2.1818,0.05,7.8315e-07,7.8261,6.0136e-07,4.5184,7.7363e-14,6.5021e-06,-6.0136e-07,-4.5184,2.8364
21448,23.908,2.1818,0,1.8564e-05,185.52,1.8084e-05,173.45,-4.9441e-06,0.42699,-7.9874e-06,-22.439,2.852
21449,23.816,2.4545,0,1.9681e-05,196.67,1.8699e-05,173.8,-4.4046e-06,0.20561,-9.7285e-06,-39.796,2.8365
21450,23.816,2.3636,0.05,7.8201e-07,7.8147,6.0048e-07,4.5118,1.064e-13,6.675e-06,-6.0048e-07,-4.5118,2.8365
21451,23.908,2.3636,0,1.8946e-05,189.33,1.8468e-05,177.3,-5.0719e-06,0.42827,-8.1121e-06,-22.414,2.852
21452,23.816,2.6364,0,1.991e-05,198.97,1.8934e-05,176.15,-4.4825e-06,0.20926,-9.8041e-06,-39.775,2.8365
21453,23.816,2.5455,0.05,7.8113e-07,7.806,5.9981e-07,4.5068,1.379e-13,1.2662e-05,-5.9981e-07,-4.5068,2.8365
21454,23.908,2.5455,0,1.9229e-05,192.16,1.8754e-05,180.16,-5.1669e-06,0.42918,-8.2046e-06,-22.395,2.852
21455,23.816,2.8182,0,2.0048e-05,200.34,1.9073e-05,177.55,-4.529e-06,0.21141,-9.8491e-06,-39.762,2.8366
21456,23.816,2.7273,0.05,7.8055e-07,7.8001,5.9936e-07,4.5034,8.5461e-13,9.1283e-06,-5.9936e-07,-4.5034,2.8365
21457,23.908,2.7273,0,1.9417e-05,194.04,1.8943e-05,182.05,-5.2298e-06,0.42975,-8.2657e-06,-22.381,2.8521
21458,23.816,3,0,2.0093e-05,200.79,1.912e-05,178.02,-4.5444e-06,0.21212,-9.864e-06,-39.757,2.8366
21459,23.816,2.9091,0.05,7.8025e-07,7.7971,5.9914e-07,4.5017,6.6316e-13,1.1301e-05,-5.9914e-07,-4.5017,2.8366
21460,23.908,2.9091,0,1.951e-05,194.97,1.9037e-05,182.99,-5.2611e-06,0.43003,-8.2962e-06,-22.374,2.8521
21461,23.816,3.1818,0,2.0048e-05,200.34,1.9073e-05,177.55,-4.529e-06,0.21141,-9.8491e-06,-39.762,2.8366
21462,23.816,3.0909,0.05,7.8025e-07,7.7971,5.9914e-07,4.5017,9.2838e-13,1.1586e-05,-5.9914e-07,-4.5017,2.8366
21463,23.908,3.0909,0,1.951e-05,194.97,1.9037e-05,182.99,-5.2611e-06,0.43003,-8.2962e-06,-22.374,2.8521
21464,23.816,3.3636,0,1.991e-05,198.97,1.8934e-05,176.15,-4.4825e-06,0.20926,-9.8041e-06,-39.775,2.8365
21465,23.816,3.2727,0.05,7.8055e-07,7.8001,5.9936e-07,4.5034,1.4169e-12,1.3751e-05,-5.9936e-07,-4.5034,2.8365
21466,23.908,3.2727,0,1.9417e-05,194.04,1.8943e-05,182.05,-5.2298e-06,0.42975,-8.2657e-06,-22.381,2.8521
21467,23.816,3.5455,0,1.9681e-05,196.67,1.8699e-05,173.8,-4.4046e-06,0.20561,-9.7285e-06,-39.796,2.8365
21468,23.816,3.4545,0.05,7.8113e-07,7.806,5.9981e-07,4.5068,9.9104e-13,1.7753e-05,-5.9981e-07,-4.5068,2.8365
21469,23.908,3.4545,0,1.9229e-05,192.16,1.8754e-05,180.16,-5.1669e-06,0.42918,-8.2046e-06,-22.395,2.852
21470,23.816,3.7273,0,1.9356e-05,193.43,1.8368e-05,170.48,-4.2946e-06,0.20036,-9.6216e-06,-39.824,2.8365
21471,23.816,3.6364,0.05,7.8201e-07,7.8147,6.0048e-07,4.5118,1.9161e-12,1.7951e-05,-6.0048e-07,-4.5118,2.8365
21472,23.908,3.6364,0,1.8946e-05,189.33,1.8468e-05,177.3,-5.0719e-06,0.42827,-8.1121e-06,-22.414,2.852
21473,23.816,3.9091,0,1.8933e-05,189.2,1.7938e-05,166.17,-4.1517e-06,0.19337,-9.482e-06,-39.856,2.8364
21474,23.816,3.8182,0.05,7.8315e-07,7.8261,6.0136e-07,4.5184,1.7329e-12,2.0135e-05,-6.0136e-07,-4.5184,2.8364
21475,23.908,3.8182,0,1.8564e-05,185.52,1.8084e-05,173.45,-4.9441e-06,0.42698,-7.9874e-06,-22.439,2.852
21476,23.816,4.0909,0,1.8409e-05,183.97,1.7403e-05,160.81,-3.9746e-06,0.18439,-9.3082e-06,-39.89,2.8363
21477,23.816,4,0.05,7.8454e-07,7.84,6.0243e-07,4.5264,1.5239e-12,2.0259e-05,-6.0243e-07,-4.5264,2.8364
21478,23.908,4,0,1.8081e-05,180.68,1.7597e-05,168.57,-4.7822e-06,0.42524,-7.8291e-06,-22.468,2.8519
21479,23.816,4.2727,0,1.7778e-05,177.66,1.6759e-05,154.36,-3.7616e-06,0.1731,-9.0978e-06,-39.921,2.8363
21480,23.816,4.1818,0.05,7.8616e-07,7.8561,6.0367e-07,4.5358,1.9762e-12,2.0273e-05,-6.0367e-07,-4.5357,2.8363
21481,23.908,4.1818,0,1.749e-05,174.78,1.7002e-05,162.62,-4.5847e-06,0.42292,-7.6353e-06,-22.498,2.8518
21482,23.816,4.4545,0,1.7032e-05,170.2,1.5997e-05,146.73,-3.5106e-06,0.15899,-8.8476e-06,-39.941,2.8362
21483,23.816,4.3636,0.05,7.8796e-07,7.8741,6.0505e-07,4.5461,1.9634e-12,2.2157e-05,-6.0505e-07,-4.5461,2.8362
21484,23.908,4.3636,0,1.6787e-05,167.75,1.6292e-05,155.52,-4.3497e-06,0.41986,-7.4036e-06,-22.526,2.8517
21485,23.816,4.6364,0,1.6163e-05,161.51,1.5108e-05,137.84,-3.2188e-06,0.14133,-8.5534e-06,-39.941,2.8361
21486,23.816,4.5455,0.05,7.8988e-07,7.8934,6.0653e-07,4.5572,1.9612e-12,2.0161e-05,-6.0653e-07,-4.5572,2.8361
21487,23.908,4.5455,0,1.5961e-05,159.5,1.546e-05,147.19,-4.0745e-06,0.41573,-7.1307e-06,-22.548,2.8516
21488,23.816,4.8182,0,1.5157e-05,151.46,1.4078e-05,127.55,-2.8824e-06,0.11873,-8.2091e-06,-39.904,2.836
21489,23.816,4.7273,0.05,7.9184e-07,7.9129,6.0803e-07,4.5685,1.7826e-12,2.1637e-05,-6.0803e-07,-4.5685,2.836
21490,23.908,4.7273,0,1.5002e-05,149.92,1.4493e-05,137.52,-3.7555e-06,0.4102,-6.8121e-06,-22.556,2.8515
21491,23.816,5,0,1.3997e-05,139.88,1.2888e-05,115.68,-2.4968e-06,0.089711,-7.8063e-06,-39.803,2.8358
21492,23.816,4.9091,0.05,7.9368e-07,7.9313,6.0945e-07,4.5792,1.8611e-12,2.1451e-05,-6.0945e-07,-4.5792,2.8359
21493,23.908,4.9091,0,1.3895e-05,138.86,1.3376e-05,126.36,-3.3883e-06,0.40203,-6.4414e-06,-22.538,2.8514
21494,23.816,5.1818,0,1.266e-05,126.51,1.1512e-05,101.99,-2.0558e-06,0.047673,-7.3319e-06,-39.595,2.8357
21495,23.816,5.0909,0.05,7.9519e-07,7.9464,6.1061e-07,4.5879,1.6598e-12,1.8396e-05,-6.1061e-07,-4.5879,2.8358
21496,23.908,5.0909,0,1.2618e-05,126.1,1.2086e-05,113.49,-2.9664e-06,0.39169,-6.0097e-06,-22.475,2.8513
21497,23.816,5.3636,0,1.111e-05,111.03,9.9117e-06,86.114,-1.55e-06,-0.0043484,-6.7654e-06,-39.191,2.8356
21498,23.816,5.2727,0.05,7.9589e-07,7.9534,6.1114e-07,4.5919,1.6594e-12,2.1183e-05,-6.1114e-07,-4.5919,2.8356
21499,23.908,5.2727,0,1.1141e-05,111.33,1.0592e-05,98.597,-2.4816e-06,0.36825,-5.5031e-06,-22.334,2.8512
21500,23.816,5.5455,0,9.2975e-06,92.911,8.027e-06,67.467,-9.7272e-07,-0.15305,-6.0731e-06,-38.475,2.8354
21501,23.816,5.4545,0.05,7.9523e-07,7.9468,6.1064e-07,4.5881,1.5016e-12,1.7717e-05,-6.1064e-07,-4.5881,2.8355
21502,23.908,5.4545,0,9.4131e-06,94.066,8.8421e-06,81.206,-1.9184e-06,0.35551,-4.8985e-06,-22.036,2.851
21503,23.816,5.7273,0,7.192e-06,71.87,5.7999e-06,45.521,-3.0992e-07,-0.3858,-5.2236e-06,-37.305,2.8353
21504,23.816,5.6364,0.05,7.8567e-07,7.8513,6.033e-07,4.533,1.4185e-12,1.8282e-05,-6.033e-07,-4.533,2.8354
21505,23.908,5.6364,0,7.3608e-06,73.557,6.7541e-06,60.45,-1.2699e-06,0.16124,-4.1538e-06,-21.508,2.8509
21506,23.816,5.8182,0.05,6.931e-07,6.9262,5.3222e-07,3.9989,1.1645e-12,1.356e-05,-5.3222e-07,-3.9989,2.8352
21507,23.908,5.8182,0,4.8634e-06,48.601,4.1759e-06,34.931,-4.7806e-07,-0.036622,-3.2103e-06,-20.565,2.8507
21508,23.816,5.9091,0,4.8964e-06,48.93,3.2906e-06,21.459,4.247e-07,-0.073907,-4.163e-06,-34.544,2.8351
21509,23.816,5.7273,0.1,7.192e-06,71.87,5.2236e-06,37.305,3.0992e-07,0.3858,-5.7999e-06,-45.521,2.8353
21510,23.723,5.8182,0.1,7.7527e-06,77.473,6.6027e-06,54.964,-6.7122e-07,0.31052,-5.1973e-06,-33.697,2.8197
21511,23.816,5.9091,0.1,4.8964e-06,48.93,4.163e-06,34.544,-4.247e-07,0.073907,-3.2906e-06,-21.459,2.8351
21512,23.908,5.8182,0.1,4.8634e-06,48.601,3.2103e-06,20.565,4.7806e-07,0.036623,-4.1759e-06,-34.931,2.8507
21513,23.816,5.5455,0.1,9.2975e-06,92.911,6.0731e-06,38.475,9.7271e-07,0.15305,-8.027e-06,-67.467,2.8354
21514,23.723,5.6364,0.1,9.5076e-06,95.01,7.3385e-06,55.501,-2.6402e-08,0.16325,-7.2626e-06,-54.206,2.8198
21515,23.908,5.6364,0.1,7.3608e-06,73.557,4.1538e-06,21.508,1.2698e-06,-0.16124,-6.7541e-06,-60.45,2.8509
21516,23.816,5.3636,0.1,1.111e-05,111.03,6.7654e-06,39.191,1.55e-06,0.004348,-9.9117e-06,-86.114,2.8356
21517,23.723,5.4545,0.1,1.1305e-05,112.97,8.0996e-06,56.706,5.4617e-07,-0.047377,-9.2149e-06,-73.389,2.82
21518,23.908,5.4545,0.1,9.4131e-06,94.066,4.8985e-06,22.036,1.9184e-06,-0.35551,-8.8421e-06,-81.206,2.851
21519,23.816,5.1818,0.1,1.266e-05,126.51,7.3319e-06,39.595,2.0558e-06,-0.047673,-1.1512e-05,-101.99,2.8357
21520,23.723,5.2727,0.1,1.2893e-05,128.85,8.7385e-06,57.588,1.062e-06,-0.090154,-1.0907e-05,-90.02,2.8201
21521,23.908,5.2727,0.1,1.1141e-05,111.33,5.5031e-06,22.334,2.4816e-06,-0.36825,-1.0592e-05,-98.597,2.8512
21522,23.816,5,0.1,1.3997e-05,139.88,7.8063e-06,39.803,2.4968e-06,-0.089713,-1.2888e-05,-115.68,2.8358
21523,23.723,5.0909,0.1,1.4281e-05,142.71,9.2746e-06,58.163,1.5161e-06,-0.13123,-1.2371e-05,-104.47,2.8203
21524,23.908,5.0909,0.1,1.2618e-05,126.1,6.0097e-06,22.475,2.9664e-06,-0.39169,-1.2086e-05,-113.49,2.8513
21525,23.816,4.8182,0.1,1.5157e-05,151.46,8.2091e-06,39.904,2.8824e-06,-0.11873,-1.4078e-05,-127.55,2.836
21526,23.723,4.9091,0.1,1.5493e-05,154.83,9.7288e-06,58.544,1.9164e-06,-0.15573,-1.3641e-05,-117.05,2.8204
21527,23.908,4.9091,0.1,1.3895e-05,138.86,6.4414e-06,22.538,3.3883e-06,-0.40203,-1.3376e-05,-126.36,2.8514
21528,23.816,4.6364,0.1,1.6163e-05,161.51,8.5534e-06,39.941,3.2188e-06,-0.14133,-1.5108e-05,-137.84,2.8361
21529,23.723,4.7273,0.1,1.6551e-05,165.39,1.0116e-05,58.795,2.2679e-06,-0.17446,-1.4745e-05,-128,2.8205
21530,23.908,4.7273,0.1,1.5002e-05,149.92,6.8121e-06,22.556,3.7555e-06,-0.4102,-1.4493e-05,-137.52,2.8515
21531,23.816,4.4545,0.1,1.7032e-05,170.2,8.8476e-06,39.941,3.5106e-06,-0.15899,-1.5997e-05,-146.73,2.8362
21532,23.723,4.5455,0.1,1.747e-05,174.58,1.0447e-05,58.961,2.5749e-06,-0.18842,-1.5701e-05,-137.51,2.8206
21533,23.908,4.5455,0.1,1.5961e-05,159.5,7.1307e-06,22.548,4.0744e-06,-0.41573,-1.546e-05,-147.19,2.8516
21534,23.816,4.2727,0.1,1.7778e-05,177.66,9.0978e-06,39.921,3.7616e-06,-0.17311,-1.6759e-05,-154.36,2.8363
21535,23.723,4.3636,0.1,1.8263e-05,182.51,1.0729e-05,59.07,2.841e-06,-0.1993,-1.6525e-05,-145.71,2.8207
21536,23.908,4.3636,0.1,1.6787e-05,167.75,7.4036e-06,22.526,4.3497e-06,-0.41985,-1.6292e-05,-155.52,2.8517
21537,23.816,4.0909,0.1,1.8409e-05,183.97,9.3082e-06,39.89,3.9746e-06,-0.18439,-1.7403e-05,-160.81,2.8363
21538,23.723,4.1818,0.1,1.8941e-05,189.28,1.0968e-05,59.14,3.0689e-06,-0.20781,-1.7227e-05,-152.7,2.8208
21539,23.908,4.1818,0.1,1.749e-05,174.78,7.6353e-06,22.498,4.5847e-06,-0.42292,-1.7002e-05,-162.62,2.8518
21540,23.816,3.9091,0.1,1.8933e-05,189.2,9.4821e-06,39.856,4.1517e-06,-0.19337,-1.7938e-05,-166.17,2.8364
21541,23.723,4,0.1,1.9511e-05,194.97,1.1166e-05,59.184,3.2609e-06,-0.2145,-1.7816e-05,-158.58,2.8209
21542,23.908,4,0.1,1.8081e-05,180.68,7.8291e-06,22.468,4.7822e-06,-0.42524,-1.7597e-05,-168.57,2.8519
21543,23.816,3.7273,0.1,1.9356e-05,193.43,9.6216e-06,39.824,4.2946e-06,-0.20036,-1.8368e-05,-170.48,2.8365
21544,23.723,3.8182,0.1,1.9978e-05,199.64,1.1328e-05,59.21,3.4185e-06,-0.21969,-1.8299e-05,-163.39,2.8209
21545,23.908,3.8182,0.1,1.8564e-05,185.52,7.9874e-06,22.439,4.9441e-06,-0.42698,-1.8084e-05,-173.45,2.852
21546,23.816,3.5455,0.1,1.9681e-05,196.67,9.7285e-06,39.796,4.4046e-06,-0.20561,-1.8699e-05,-173.8,2.8365
21547,23.723,3.6364,0.1,2.0346e-05,203.32,1.1455e-05,59.226,3.5431e-06,-0.22364,-1.868e-05,-167.2,2.821
21548,23.908,3.6364,0.1,1.8946e-05,189.33,8.1121e-06,22.414,5.0719e-06,-0.42827,-1.8468e-05,-177.3,2.852
21549,23.816,3.3636,0.1,1.991e-05,198.97,9.8041e-06,39.775,4.4825e-06,-0.20926,-1.8934e-05,-176.15,2.8365
21550,23.723,3.4545,0.1,2.062e-05,206.06,1.1549e-05,59.234,3.6358e-06,-0.22648,-1.8962e-05,-170.02,2.821
21551,23.908,3.4545,0.1,1.9229e-05,192.16,8.2046e-06,22.395,5.1669e-06,-0.42917,-1.8754e-05,-180.16,2.852
21552,23.816,3.1818,0.1,2.0048e-05,200.34,9.8491e-06,39.762,4.529e-06,-0.21141,-1.9073e-05,-177.55,2.8366
21553,23.723,3.2727,0.1,2.0802e-05,207.87,1.1612e-05,59.238,3.6972e-06,-0.22832,-1.9149e-05,-171.89,2.821
21554,23.908,3.2727,0.1,1.9417e-05,194.04,8.2657e-06,22.381,5.2298e-06,-0.42975,-1.8943e-05,-182.05,2.8521
21555,23.816,3,0.1,2.0093e-05,200.79,9.864e-06,39.757,4.5444e-06,-0.21212,-1.912e-05,-178.02,2.8366
21556,23.723,3.0909,0.1,2.0892e-05,208.78,1.1643e-05,59.24,3.7277e-06,-0.22923,-1.9243e-05,-172.82,2.8211
21557,23.908,3.0909,0.1,1.951e-05,194.97,8.2962e-06,22.374,5.2611e-06,-0.43003,-1.9037e-05,-182.99,2.8521
21558,23.816,2.8182,0.1,2.0048e-05,200.34,9.8491e-06,39.762,4.529e-06,-0.21141,-1.9073e-05,-177.55,2.8366
21559,23.723,2.9091,0.1,2.0892e-05,208.78,1.1643e-05,59.24,3.7277e-06,-0.22923,-1.9243e-05,-172.82,2.8211
21560,23.908,2.9091,0.1,1.951e-05,194.97,8.2962e-06,22.374,5.2611e-06,-0.43004,-1.9037e-05,-182.99,2.8521
21561,23.816,2.6364,0.1,1.991e-05,198.97,9.8041e-06,39.775,4.4825e-06,-0.20926,-1.8934e-05,-176.15,2.8365
21562,23.723,2.7273,0.1,2.0802e-05,207.87,1.1612e-05,59.238,3.6972e-06,-0.22832,-1.9149e-05,-171.89,2.821
21563,23.908,2.7273,0.1,1.9417e-05,194.04,8.2657e-06,22.381,5.2298e-06,-0.42975,-1.8943e-05,-182.05,2.8521
21564,23.816,2.4545,0.1,1.9681e-05,196.67,9.7285e-06,39.796,4.4046e-06,-0.20561,-1.8699e-05,-173.8,2.8365
21565,23.723,2.5455,0.1,2.062e-05,206.06,1.1549e-05,59.234,3.6358e-06,-0.22648,-1.8962e-05,-170.02,2.821
21566,23.908,2.5455,0.1,1.9229e-05,192.16,8.2046e-06,22.395,5.1669e-06,-0.42917,-1.8754e-05,-180.16,2.852
21567,23.816,2.2727,0.1,1.9356e-05,193.43,9.6216e-06,39.824,4.2946e-06,-0.20036,-1.8368e-05,-170.48,2.8365
21568,23.723,2.3636,0.1,2.0346e-05,203.32,1.1455e-05,59.226,3.5431e-06,-0.22364,-1.868e-05,-167.2,2.821
21569,23.908,2.3636,0.1,1.8946e-05,189.33,8.1121e-06,22.414,5.0719e-06,-0.42827,-1.8468e-05,-177.3,2.852
21570,23.816,2.0909,0.1,1.8933e-05,189.2,9.482e-06,39.856,4.1517e-06,-0.19337,-1.7938e-05,-166.17,2.8364
21571,23.723,2.1818,0.1,1.9978e-05,199.64,1.1328e-05,59.21,3.4185e-06,-0.2197,-1.8299e-05,-163.39,2.8209
21572,23.908,2.1818,0.1,1.8564e-05,185.52,7.9874e-06,22.439,4.9441e-06,-0.42699,-1.8084e-05,-173.45,2.852
21573,23.816,1.9091,0.1,1.8409e-05,183.97,9.3082e-06,39.89,3.9746e-06,-0.18439,-1.7403e-05,-160.81,2.8363
21574,23.723,2,0.1,1.9511e-05,194.97,1.1166e-05,59.184,3.2608e-06,-0.2145,-1.7816e-05,-158.58,2.8209
21575,23.908,2,0.1,1.8081e-05,180.68,7.8291e-06,22.468,4.7822e-06,-0.42524,-1.7597e-05,-168.57,2.8519
21576,23.816,1.7273,0.1,1.7778e-05,177.66,9.0978e-06,39.921,3.7616e-06,-0.17311,-1.6759e-05,-154.36,2.8363
21577,23.723,1.8182,0.1,1.8941e-05,189.28,1.0968e-05,59.14,3.0689e-06,-0.20781,-1.7227e-05,-152.7,2.8208
21578,23.908,1.8182,0.1,1.749e-05,174.78,7.6353e-06,22.498,4.5847e-06,-0.42292,-1.7002e-05,-162.61,2.8518
21579,23.816,1.5455,0.1,1.7032e-05,170.2,8.8476e-06,39.941,3.5106e-06,-0.15899,-1.5997e-05,-146.73,2.8362
21580,23.723,1.6364,0.1,1.8263e-05,182.51,1.0729e-05,59.07,2.841e-06,-0.1993,-1.6525e-05,-145.71,2.8207
21581,23.908,1.6364,0.1,1.6787e-05,167.75,7.4036e-06,22.526,4.3497e-06,-0.41985,-1.6292e-05,-155.52,2.8517
21582,23.816,1.3636,0.1,1.6163e-05,161.51,8.5534e-06,39.941,3.2188e-06,-0.14133,-1.5108e-05,-137.84,2.8361
21583,23.723,1.4545,0.1,1.747e-05,174.58,1.0447e-05,58.961,2.5749e-06,-0.18842,-1.5701e-05,-137.51,2.8206
21584,23.908,1.4545,0.1,1.5961e-05,159.5,7.1307e-06,22.548,4.0744e-06,-0.41573,-1.546e-05,-147.19,2.8516
21585,23.816,1.1818,0.1,1.5157e-05,151.46,8.2091e-06,39.904,2.8824e-06,-0.11873,-1.4078e-05,-127.55,2.836
21586,23.723,1.2727,0.1,1.6551e-05,165.39,1.0116e-05,58.795,2.2679e-06,-0.17446,-1.4745e-05,-128,2.8205
21587,23.908,1.2727,0.1,1.5002e-05,149.92,6.8121e-06,22.556,3.7555e-06,-0.4102,-1.4493e-05,-137.52,2.8515
21588,23.816,1,0.1,1.3997e-05,139.88,7.8063e-06,39.803,2.4968e-06,-0.089714,-1.2888e-05,-115.68,2.8358
21589,23.723,1.0909,0.1,1.5493e-05,154.83,9.7288e-06,58.544,1.9164e-06,-0.15573,-1.3641e-05,-117.05,2.8204
21590,23.908,1.0909,0.1,1.3895e-05,138.86,6.4414e-06,22.538,3.3883e-06,-0.40203,-1.3376e-05,-126.36,2.8514
21591,23.816,0.81818,0.1,1.266e-05,126.51,7.3319e-06,39.595,2.0558e-06,-0.047675,-1.1512e-05,-101.99,2.8357
21592,23.723,0.90909,0.1,1.4281e-05,142.71,9.2746e-06,58.163,1.5161e-06,-0.13123,-1.2371e-05,-104.47,2.8203
21593,23.908,0.90909,0.1,1.2618e-05,126.1,6.0097e-06,22.475,2.9664e-06,-0.39169,-1.2086e-05,-113.49,2.8513
21594,23.816,0.63636,0.1,1.111e-05,111.03,6.7654e-06,39.191,1.55e-06,0.0043483,-9.9117e-06,-86.114,2.8356
21595,23.723,0.72727,0.1,1.2893e-05,128.85,8.7385e-06,57.588,1.062e-06,-0.090154,-1.0907e-05,-90.02,2.8201
21596,23.908,0.72727,0.1,1.1141e-05,111.33,5.5031e-06,22.334,2.4816e-06,-0.36826,-1.0592e-05,-98.597,2.8512
21597,23.816,0.45455,0.1,9.2975e-06,92.911,6.0731e-06,38.475,9.7272e-07,0.15305,-8.027e-06,-67.467,2.8354
21598,23.723,0.54545,0.1,1.1305e-05,112.97,8.0996e-06,56.706,5.4617e-07,-0.047375,-9.2149e-06,-73.389,2.82
21599,23.908,0.54545,0.1,9.4131e-06,94.066,4.8985e-06,22.036,1.9184e-06,-0.35551,-8.8421e-06,-81.206,2.851
21600,23.816,0.27273,0.1,7.192e-06,71.87,5.2236e-06,37.305,3.0992e-07,0.3858,-5.7999e-06,-45.521,2.8353
21601,23.723,0.36364,0.1,9.5076e-06,95.01,7.3385e-06,55.501,-2.64e-08,0.16325,-7.2626e-06,-54.206,2.8198
21602,23.908,0.36364,0.1,7.3608e-06,73.557,4.1538e-06,21.508,1.2699e-06,-0.16124,-6.7541e-06,-60.45,2.8509
21603,23.723,0.18182,0.1,7.7527e-06,77.474,6.6027e-06,54.964,-6.7122e-07,0.31052,-5.1974e-06,-33.697,2.8197
21604,23.908,0.18182,0.1,4.8634e-06,48.601,3.2103e-06,20.565,4.7806e-07,0.036622,-4.1759e-06,-34.931,2.8507
21605,23.816,0.090909,0.1,4.8964e-06,48.93,4.163e-06,34.544,-4.247e-07,0.073905,-3.2906e-06,-21.459,2.8351
21606,23.631,5.7273,0.1,1.0022e-05,100.15,8.6356e-06,72.543,-1.0119e-06,0.055074,-6.5735e-06,-41.733,2.8043
21607,23.539,5.8182,0.1,1.1235e-05,112.27,1.0287e-05,91.815,-1.9177e-06,0.11559,-6.3773e-06,-33.392,2.7887
21608,23.631,5.9091,0.1,8.2639e-06,82.582,7.6618e-06,69.211,-1.5685e-06,-0.142,-4.4967e-06,-22.143,2.8041
21609,23.631,5.5455,0.1,1.1601e-05,115.93,9.3539e-06,73.648,-4.6114e-07,-0.098741,-8.4312e-06,-59.983,2.8044
21610,23.539,5.6364,0.1,1.235e-05,123.41,1.0758e-05,91.324,-1.3895e-06,0.051218,-7.9299e-06,-49.09,2.7888
21611,23.631,5.3636,0.1,1.3202e-05,131.92,1.0072e-05,75.1,4.9903e-08,-0.20399,-1.0202e-05,-77.23,2.8045
21612,23.539,5.4545,0.1,1.3833e-05,138.23,1.1472e-05,92.809,-8.9392e-07,-0.10123,-9.6706e-06,-66.046,2.789
21613,23.631,5.1818,0.1,1.4636e-05,146.26,1.0685e-05,76.184,5.1359e-07,-0.23892,-1.176e-05,-92.46,2.8047
21614,23.539,5.2727,0.1,1.5243e-05,152.32,1.2122e-05,94.187,-4.3109e-07,-0.13448,-1.1266e-05,-81.54,2.7891
21615,23.631,5,0.1,1.5901e-05,158.9,1.1203e-05,76.947,9.2651e-07,-0.26607,-1.312e-05,-105.81,2.8048
21616,23.539,5.0909,0.1,1.6518e-05,165.07,1.2686e-05,95.252,-1.3167e-08,-0.16484,-1.2682e-05,-95.353,2.7892
21617,23.631,4.8182,0.1,1.7011e-05,169.99,1.1643e-05,77.488,1.2922e-06,-0.28365,-1.4306e-05,-117.48,2.8049
21618,23.539,4.9091,0.1,1.7653e-05,176.41,1.317e-05,96.056,3.6118e-07,-0.18234,-1.3928e-05,-107.55,2.7894
21619,23.631,4.6364,0.1,1.798e-05,179.68,1.2018e-05,77.875,1.614e-06,-0.29675,-1.5336e-05,-127.65,2.805
21620,23.539,4.7273,0.1,1.8655e-05,186.42,1.3584e-05,96.66,6.9342e-07,-0.19541,-1.5019e-05,-118.25,2.7895
21621,23.631,4.4545,0.1,1.8822e-05,188.09,1.2338e-05,78.155,1.8949e-06,-0.30655,-1.6227e-05,-136.47,2.8051
21622,23.539,4.5455,0.1,1.9532e-05,195.18,1.3938e-05,97.115,9.8594e-07,-0.20488,-1.5968e-05,-127.59,2.7896
21623,23.631,4.2727,0.1,1.9547e-05,195.33,1.2608e-05,78.358,2.1376e-06,-0.3141,-1.6991e-05,-144.04,2.8052
21624,23.539,4.3636,0.1,2.0293e-05,202.79,1.424e-05,97.459,1.2409e-06,-0.21209,-1.6789e-05,-135.68,2.7897
21625,23.631,4.0909,0.1,2.0161e-05,201.47,1.2835e-05,78.506,2.3442e-06,-0.31995,-1.7639e-05,-150.46,2.8053
21626,23.539,4.1818,0.1,2.0945e-05,209.3,1.4495e-05,97.72,1.4602e-06,-0.21761,-1.7489e-05,-142.6,2.7898
21627,23.631,3.9091,0.1,2.0672e-05,206.58,1.3022e-05,78.612,2.5164e-06,-0.32447,-1.8176e-05,-155.8,2.8054
21628,23.539,4,0.1,2.1494e-05,214.79,1.4707e-05,97.916,1.6454e-06,-0.22188,-1.8078e-05,-148.41,2.7898
21629,23.631,3.7273,0.1,2.1085e-05,210.7,1.3172e-05,78.689,2.6556e-06,-0.32792,-1.8609e-05,-160.1,2.8054
21630,23.539,3.8182,0.1,2.1945e-05,219.3,1.4879e-05,98.063,1.7978e-06,-0.22514,-1.856e-05,-153.19,2.7899
21631,23.631,3.5455,0.1,2.1402e-05,213.87,1.3287e-05,78.742,2.7629e-06,-0.33046,-1.8942e-05,-163.41,2.8055
21632,23.539,3.6364,0.1,2.2302e-05,222.87,1.5015e-05,98.17,1.9186e-06,-0.22759,-1.8941e-05,-156.96,2.79
21633,23.631,3.3636,0.1,2.1627e-05,216.12,1.3368e-05,78.777,2.8389e-06,-0.3322,-1.9177e-05,-165.75,2.8055
21634,23.539,3.4545,0.1,2.2567e-05,225.52,1.5115e-05,98.245,2.0085e-06,-0.22934,-1.9224e-05,-159.76,2.79
21635,23.631,3.1818,0.1,2.1761e-05,217.46,1.3416e-05,78.796,2.8843e-06,-0.33322,-1.9318e-05,-167.15,2.8055
21636,23.539,3.2727,0.1,2.2743e-05,227.27,1.5181e-05,98.292,2.0681e-06,-0.23047,-1.9411e-05,-161.62,2.79
21637,23.631,3,0.1,2.1806e-05,217.91,1.3432e-05,78.803,2.8994e-06,-0.33356,-1.9364e-05,-167.61,2.8055
21638,23.539,3.0909,0.1,2.2831e-05,228.15,1.5214e-05,98.315,2.0978e-06,-0.23102,-1.9504e-05,-162.54,2.79
21639,23.631,2.8182,0.1,2.1761e-05,217.46,1.3416e-05,78.796,2.8843e-06,-0.33322,-1.9318e-05,-167.15,2.8055
21640,23.539,2.9091,0.1,2.2831e-05,228.15,1.5214e-05,98.315,2.0978e-06,-0.23102,-1.9504e-05,-162.54,2.79
21641,23.631,2.6364,0.1,2.1627e-05,216.12,1.3368e-05,78.777,2.8389e-06,-0.3322,-1.9177e-05,-165.75,2.8055
21642,23.539,2.7273,0.1,2.2743e-05,227.27,1.5181e-05,98.292,2.0681e-06,-0.23047,-1.9411e-05,-161.62,2.79
21643,23.631,2.4545,0.1,2.1402e-05,213.87,1.3287e-05,78.742,2.7629e-06,-0.33046,-1.8942e-05,-163.41,2.8055
21644,23.539,2.5455,0.1,2.2567e-05,225.52,1.5115e-05,98.245,2.0085e-06,-0.22934,-1.9224e-05,-159.76,2.79
21645,23.631,2.2727,0.1,2.1085e-05,210.7,1.3172e-05,78.689,2.6556e-06,-0.32792,-1.8609e-05,-160.1,2.8054
21646,23.539,2.3636,0.1,2.2302e-05,222.87,1.5015e-05,98.17,1.9186e-06,-0.22759,-1.8941e-05,-156.96,2.79
21647,23.631,2.0909,0.1,2.0672e-05,206.58,1.3022e-05,78.612,2.5164e-06,-0.32447,-1.8176e-05,-155.8,2.8054
21648,23.539,2.1818,0.1,2.1945e-05,219.3,1.4879e-05,98.063,1.7978e-06,-0.22515,-1.856e-05,-153.19,2.7899
21649,23.631,1.9091,0.1,2.0161e-05,201.47,1.2835e-05,78.506,2.3442e-06,-0.31995,-1.7639e-05,-150.46,2.8053
21650,23.539,2,0.1,2.1494e-05,214.79,1.4707e-05,97.916,1.6454e-06,-0.22188,-1.8078e-05,-148.41,2.7898
21651,23.631,1.7273,0.1,1.9547e-05,195.33,1.2608e-05,78.358,2.1376e-06,-0.3141,-1.6991e-05,-144.04,2.8052
21652,23.539,1.8182,0.1,2.0945e-05,209.3,1.4495e-05,97.72,1.4601e-06,-0.21761,-1.7489e-05,-142.6,2.7898
21653,23.631,1.5455,0.1,1.8822e-05,188.09,1.2338e-05,78.155,1.8949e-06,-0.30656,-1.6227e-05,-136.47,2.8051
21654,23.539,1.6364,0.1,2.0293e-05,202.79,1.424e-05,97.459,1.2409e-06,-0.21208,-1.6789e-05,-135.68,2.7897
21655,23.631,1.3636,0.1,1.798e-05,179.68,1.2018e-05,77.875,1.614e-06,-0.29675,-1.5336e-05,-127.65,2.805
21656,23.539,1.4545,0.1,1.9532e-05,195.18,1.3938e-05,97.115,9.8594e-07,-0.20488,-1.5968e-05,-127.59,2.7896
21657,23.631,1.1818,0.1,1.7011e-05,169.99,1.1643e-05,77.488,1.2922e-06,-0.28365,-1.4306e-05,-117.48,2.8049
21658,23.539,1.2727,0.1,1.8655e-05,186.42,1.3584e-05,96.66,6.9342e-07,-0.19541,-1.5019e-05,-118.25,2.7895
21659,23.631,1,0.1,1.5901e-05,158.9,1.1203e-05,76.947,9.2651e-07,-0.26607,-1.312e-05,-105.81,2.8048
21660,23.539,1.0909,0.1,1.7653e-05,176.41,1.317e-05,96.056,3.6117e-07,-0.18234,-1.3928e-05,-107.55,2.7894
21661,23.631,0.81818,0.1,1.4636e-05,146.26,1.0685e-05,76.184,5.1359e-07,-0.23892,-1.176e-05,-92.46,2.8047
21662,23.539,0.90909,0.1,1.6518e-05,165.07,1.2686e-05,95.252,-1.3168e-08,-0.16484,-1.2682e-05,-95.353,2.7892
21663,23.631,0.63636,0.1,1.3202e-05,131.92,1.0072e-05,75.1,4.9903e-08,-0.20399,-1.0202e-05,-77.23,2.8045
21664,23.539,0.72727,0.1,1.5243e-05,152.32,1.2122e-05,94.187,-4.3109e-07,-0.13448,-1.1266e-05,-81.54,2.7891
21665,23.631,0.45455,0.1,1.1601e-05,115.93,9.3539e-06,73.648,-4.6114e-07,-0.098738,-8.4312e-06,-59.983,2.8044
21666,23.539,0.54545,0.1,1.3833e-05,138.23,1.1472e-05,92.809,-8.9392e-07,-0.10123,-9.6706e-06,-66.046,2.789
21667,23.631,0.27273,0.1,1.0022e-05,100.15,8.6356e-06,72.543,-1.0119e-06,0.055073,-6.5735e-06,-41.733,2.8043
21668,23.539,0.36364,0.1,1.235e-05,123.41,1.0758e-05,91.324,-1.3895e-06,0.05122,-7.9299e-06,-49.091,2.7888
21669,23.539,0.18182,0.1,1.1235e-05,112.27,1.0287e-05,91.815,-1.9177e-06,0.11559,-6.3773e-06,-33.392,2.7887
21670,23.631,0.090909,0.1,8.2639e-06,82.582,7.6618e-06,69.211,-1.5685e-06,-0.142,-4.4967e-06,-22.143,2.8041
21671,23.447,5.7273,0.1,1.3452e-05,134.43,1.2315e-05,109.89,-2.2949e-06,0.11523,-7.6398e-06,-40.044,2.7732
21672,23.355,5.8182,0.1,1.4985e-05,149.75,1.4123e-05,130.04,-3.1701e-06,0.10051,-7.6731e-06,-33.733,2.7576
21673,23.447,5.9091,0.1,1.1893e-05,118.85,1.1347e-05,105.93,-2.7571e-06,-0.047381,-5.7559e-06,-22.579,2.7731
21674,23.447,5.5455,0.1,1.4586e-05,145.76,1.2851e-05,110.3,-1.825e-06,0.028643,-9.1423e-06,-54.95,2.7734
21675,23.355,5.6364,0.1,1.5679e-05,156.68,1.4382e-05,128.58,-2.7187e-06,0.091482,-8.8494e-06,-45.972,2.7578
21676,23.447,5.3636,0.1,1.5917e-05,159.06,1.3512e-05,111.82,-1.3771e-06,-0.048454,-1.0723e-05,-70.267,2.7735
21677,23.355,5.4545,0.1,1.6861e-05,168.5,1.4992e-05,129.81,-2.2885e-06,-0.027483,-1.035e-05,-60.595,2.7579
21678,23.447,5.1818,0.1,1.7186e-05,171.74,1.4119e-05,113.22,-9.5992e-07,-0.07603,-1.2181e-05,-84.383,2.7737
21679,23.355,5.2727,0.1,1.8069e-05,180.56,1.5604e-05,131.29,-1.8771e-06,-0.054923,-1.18e-05,-74.614,2.7581
21680,23.447,5,0.1,1.8341e-05,183.29,1.4651e-05,114.34,-5.8056e-07,-0.096597,-1.3485e-05,-97.057,2.7738
21681,23.355,5.0909,0.1,1.9207e-05,191.94,1.6161e-05,132.6,-1.4976e-06,-0.079975,-1.3131e-05,-87.488,2.7582
21682,23.447,4.8182,0.1,1.9374e-05,193.6,1.511e-05,115.22,-2.3972e-07,-0.10975,-1.4638e-05,-108.29,2.7739
21683,23.355,4.9091,0.1,2.0245e-05,202.31,1.6651e-05,133.68,-1.1524e-06,-0.094455,-1.4325e-05,-99.066,2.7583
21684,23.447,4.6364,0.1,2.0286e-05,202.72,1.5504e-05,115.9,6.3244e-08,-0.11943,-1.5649e-05,-118.17,2.774
21685,23.355,4.7273,0.1,2.1175e-05,211.6,1.7078e-05,134.55,-8.4244e-07,-0.10518,-1.5382e-05,-109.35,2.7585
21686,23.447,4.4545,0.1,2.1083e-05,210.69,1.5841e-05,116.42,3.2973e-07,-0.12656,-1.6528e-05,-126.79,2.7741
21687,23.355,4.5455,0.1,2.1997e-05,219.82,1.7447e-05,135.24,-5.672e-07,-0.11286,-1.6311e-05,-118.4,2.7586
21688,23.447,4.2727,0.1,2.1773e-05,217.58,1.6127e-05,116.82,5.6121e-07,-0.13198,-1.7285e-05,-134.22,2.7742
21689,23.355,4.3636,0.1,2.2716e-05,227,1.7762e-05,135.78,-3.2576e-07,-0.11866,-1.7116e-05,-126.28,2.7587
21690,23.447,4.0909,0.1,2.236e-05,223.45,1.6367e-05,117.14,7.5907e-07,-0.13613,-1.7927e-05,-140.53,2.7743
21691,23.355,4.1818,0.1,2.3335e-05,233.19,1.8028e-05,136.21,-1.1709e-07,-0.12307,-1.7807e-05,-133.04,2.7588
21692,23.447,3.9091,0.1,2.285e-05,228.34,1.6565e-05,117.37,9.2452e-07,-0.13932,-1.8461e-05,-145.79,2.7744
21693,23.355,4,0.1,2.3858e-05,238.41,1.825e-05,136.55,5.9826e-08,-0.12644,-1.8389e-05,-138.74,2.7588
21694,23.447,3.7273,0.1,2.3246e-05,232.3,1.6723e-05,117.55,1.0586e-06,-0.14173,-1.8891e-05,-150.04,2.7744
21695,23.355,3.8182,0.1,2.4288e-05,242.72,1.8431e-05,136.81,2.0588e-07,-0.12901,-1.8867e-05,-143.43,2.7589
21696,23.447,3.5455,0.1,2.3551e-05,235.34,1.6844e-05,117.68,1.162e-06,-0.14349,-1.9222e-05,-153.3,2.7745
21697,23.355,3.6364,0.1,2.463e-05,246.13,1.8573e-05,137,3.2183e-07,-0.13093,-1.9244e-05,-147.14,2.759
21698,23.447,3.3636,0.1,2.3767e-05,237.51,1.6929e-05,117.77,1.2354e-06,-0.1447,-1.9457e-05,-155.62,2.7745
21699,23.355,3.4545,0.1,2.4884e-05,248.66,1.8678e-05,137.14,4.0826e-07,-0.1323,-1.9525e-05,-149.9,2.759
21700,23.447,3.1818,0.1,2.3896e-05,238.8,1.698e-05,117.82,1.2793e-06,-0.1454,-1.9597e-05,-157,2.7745
21701,23.355,3.2727,0.1,2.5052e-05,250.35,1.8747e-05,137.23,4.6564e-07,-0.13317,-1.9711e-05,-151.73,2.759
21702,23.447,3,0.1,2.3939e-05,239.23,1.6996e-05,117.84,1.2939e-06,-0.14563,-1.9644e-05,-157.46,2.7745
21703,23.355,3.0909,0.1,2.5136e-05,251.19,1.8782e-05,137.27,4.9425e-07,-0.1336,-1.9803e-05,-152.64,2.759
21704,23.447,2.8182,0.1,2.3896e-05,238.8,1.698e-05,117.82,1.2793e-06,-0.1454,-1.9597e-05,-157,2.7745
21705,23.355,2.9091,0.1,2.5136e-05,251.19,1.8782e-05,137.27,4.9425e-07,-0.1336,-1.9803e-05,-152.64,2.759
21706,23.447,2.6364,0.1,2.3767e-05,237.51,1.6929e-05,117.77,1.2354e-06,-0.1447,-1.9457e-05,-155.62,2.7745
21707,23.355,2.7273,0.1,2.5052e-05,250.35,1.8747e-05,137.23,4.6564e-07,-0.13317,-1.9711e-05,-151.73,2.759
21708,23.447,2.4545,0.1,2.3551e-05,235.34,1.6844e-05,117.68,1.162e-06,-0.14349,-1.9222e-05,-153.3,2.7745
21709,23.355,2.5455,0.1,2.4884e-05,248.66,1.8678e-05,137.14,4.0826e-07,-0.1323,-1.9525e-05,-149.9,2.759
21710,23.447,2.2727,0.1,2.3246e-05,232.3,1.6723e-05,117.55,1.0586e-06,-0.14173,-1.8891e-05,-150.04,2.7744
21711,23.355,2.3636,0.1,2.463e-05,246.13,1.8573e-05,137,3.2182e-07,-0.13093,-1.9244e-05,-147.14,2.759
21712,23.447,2.0909,0.1,2.285e-05,228.34,1.6565e-05,117.37,9.2452e-07,-0.13932,-1.8461e-05,-145.79,2.7744
21713,23.355,2.1818,0.1,2.4288e-05,242.72,1.8431e-05,136.81,2.0588e-07,-0.12901,-1.8867e-05,-143.43,2.7589
21714,23.447,1.9091,0.1,2.236e-05,223.45,1.6367e-05,117.14,7.5907e-07,-0.13613,-1.7927e-05,-140.53,2.7743
21715,23.355,2,0.1,2.3858e-05,238.41,1.825e-05,136.55,5.9825e-08,-0.12644,-1.8389e-05,-138.74,2.7588
21716,23.447,1.7273,0.1,2.1773e-05,217.58,1.6127e-05,116.82,5.6121e-07,-0.13198,-1.7285e-05,-134.22,2.7742
21717,23.355,1.8182,0.1,2.3335e-05,233.19,1.8028e-05,136.21,-1.1709e-07,-0.12306,-1.7807e-05,-133.04,2.7588
21718,23.447,1.5455,0.1,2.1083e-05,210.69,1.5841e-05,116.42,3.2973e-07,-0.12656,-1.6528e-05,-126.79,2.7741
21719,23.355,1.6364,0.1,2.2716e-05,227,1.7762e-05,135.78,-3.2577e-07,-0.11866,-1.7116e-05,-126.28,2.7587
21720,23.447,1.3636,0.1,2.0286e-05,202.72,1.5504e-05,115.9,6.3242e-08,-0.11943,-1.5649e-05,-118.17,2.774
21721,23.355,1.4545,0.1,2.1997e-05,219.82,1.7447e-05,135.24,-5.672e-07,-0.11286,-1.6311e-05,-118.4,2.7586
21722,23.447,1.1818,0.1,1.9374e-05,193.6,1.511e-05,115.22,-2.3972e-07,-0.10975,-1.4638e-05,-108.29,2.7739
21723,23.355,1.2727,0.1,2.1175e-05,211.6,1.7078e-05,134.55,-8.4244e-07,-0.10518,-1.5382e-05,-109.35,2.7585
21724,23.447,1,0.1,1.8341e-05,183.29,1.4651e-05,114.34,-5.8056e-07,-0.0966,-1.3485e-05,-97.057,2.7738
21725,23.355,1.0909,0.1,2.0245e-05,202.31,1.6651e-05,133.68,-1.1524e-06,-0.094459,-1.4325e-05,-99.066,2.7583
21726,23.447,0.81818,0.1,1.7186e-05,171.74,1.4119e-05,113.22,-9.5992e-07,-0.076031,-1.2181e-05,-84.383,2.7737
21727,23.355,0.90909,0.1,1.9207e-05,191.94,1.6161e-05,132.6,-1.4976e-06,-0.079977,-1.3131e-05,-87.488,2.7582
21728,23.447,0.63636,0.1,1.5917e-05,159.06,1.3512e-05,111.82,-1.3771e-06,-0.048452,-1.0723e-05,-70.267,2.7735
21729,23.355,0.72727,0.1,1.8069e-05,180.56,1.5604e-05,131.29,-1.8771e-06,-0.054925,-1.18e-05,-74.614,2.7581
21730,23.447,0.45455,0.1,1.4586e-05,145.76,1.2851e-05,110.3,-1.825e-06,0.028646,-9.1423e-06,-54.95,2.7734
21731,23.355,0.54545,0.1,1.6861e-05,168.5,1.4992e-05,129.81,-2.2885e-06,-0.027478,-1.035e-05,-60.595,2.7579
21732,23.447,0.27273,0.1,1.3452e-05,134.43,1.2315e-05,109.89,-2.2949e-06,0.11523,-7.6398e-06,-40.044,2.7732
21733,23.355,0.36364,0.1,1.5679e-05,156.68,1.4382e-05,128.58,-2.7187e-06,0.091484,-8.8494e-06,-45.972,2.7578
21734,23.355,0.18182,0.1,1.4985e-05,149.75,1.4123e-05,130.04,-3.1701e-06,0.10051,-7.6731e-06,-33.733,2.7576
21735,23.447,0.090909,0.1,1.1893e-05,118.85,1.1347e-05,105.93,-2.7571e-06,-0.04738,-5.7559e-06,-22.579,2.7731
21736,23.263,5.7273,0.1,1.7107e-05,170.95,1.6105e-05,148.09,-3.5922e-06,0.090092,-8.7992e-06,-39.034,2.7422
21737,23.17,5.8182,0.1,1.8821e-05,188.08,1.8011e-05,168.78,-4.4432e-06,0.072766,-8.9796e-06,-34.012,2.7266
21738,23.263,5.9091,0.1,1.5638e-05,156.28,1.5123e-05,143.56,-3.9888e-06,-0.033852,-7.029e-06,-22.876,2.742
21739,23.263,5.5455,0.1,1.793e-05,179.17,1.6494e-05,147.87,-3.1837e-06,0.024835,-1.0026e-05,-51.389,2.7424
21740,23.17,5.6364,0.1,1.9244e-05,192.31,1.812e-05,166.65,-4.0476e-06,0.085872,-9.8907e-06,-43.817,2.7268
21741,23.263,5.3636,0.1,1.9021e-05,190.08,1.707e-05,149.17,-2.7896e-06,-0.042012,-1.1412e-05,-64.827,2.7425
21742,23.17,5.4545,0.1,2.0189e-05,201.75,1.8628e-05,167.52,-3.6699e-06,-0.016511,-1.1179e-05,-56.435,2.7269
21743,23.263,5.1818,0.1,2.0116e-05,201.03,1.7637e-05,150.61,-2.4157e-06,-0.065585,-1.2742e-05,-77.652,2.7426
21744,23.17,5.2727,0.1,2.1208e-05,211.94,1.9177e-05,168.87,-3.3034e-06,-0.039476,-1.2475e-05,-68.951,2.7271
21745,23.263,5,0.1,2.1149e-05,211.34,1.8156e-05,151.89,-2.0703e-06,-0.084031,-1.3965e-05,-89.454,2.7428
21746,23.17,5.0909,0.1,2.2206e-05,221.91,1.9702e-05,170.22,-2.9605e-06,-0.06188,-1.37e-05,-80.752,2.7272
21747,23.263,4.8182,0.1,2.2092e-05,220.77,1.8617e-05,152.98,-1.7559e-06,-0.095899,-1.5065e-05,-100.09,2.7429
21748,23.17,4.9091,0.1,2.3141e-05,231.25,2.0181e-05,171.43,-2.6445e-06,-0.075044,-1.4822e-05,-91.573,2.7273
21749,23.263,4.6364,0.1,2.2937e-05,229.22,1.9019e-05,153.87,-1.4737e-06,-0.10458,-1.6041e-05,-109.56,2.743
21750,23.17,4.7273,0.1,2.3993e-05,239.77,2.0607e-05,172.46,-2.3578e-06,-0.084787,-1.5831e-05,-101.32,2.7275
21751,23.263,4.4545,0.1,2.3684e-05,236.68,1.9365e-05,154.59,-1.2235e-06,-0.11095,-1.6897e-05,-117.87,2.7431
21752,23.17,4.5455,0.1,2.4756e-05,247.39,2.0979e-05,173.32,-2.1011e-06,-0.09176,-1.6726e-05,-109.98,2.7276
21753,23.263,4.2727,0.1,2.4334e-05,243.17,1.9661e-05,155.16,-1.0049e-06,-0.11576,-1.7637e-05,-125.08,2.7432
21754,23.17,4.3636,0.1,2.5428e-05,254.11,2.13e-05,174.03,-1.8744e-06,-0.096997,-1.7508e-05,-117.56,2.7277
21755,23.263,4.0909,0.1,2.489e-05,248.73,1.991e-05,155.62,-8.1714e-07,-0.11944,-1.8268e-05,-131.24,2.7433
21756,23.17,4.1818,0.1,2.6011e-05,259.93,2.1574e-05,174.6,-1.6775e-06,-0.10096,-1.8182e-05,-124.11,2.7278
21757,23.263,3.9091,0.1,2.5355e-05,253.38,2.0116e-05,155.98,-6.5962e-07,-0.12224,-1.8793e-05,-136.37,2.7434
21758,23.17,4,0.1,2.6505e-05,264.87,2.1803e-05,175.06,-1.5099e-06,-0.10399,-1.8752e-05,-129.65,2.7278
21759,23.263,3.7273,0.1,2.5732e-05,257.14,2.0281e-05,156.25,-5.3166e-07,-0.12435,-1.9218e-05,-140.53,2.7434
21760,23.17,3.8182,0.1,2.6914e-05,268.95,2.199e-05,175.42,-1.3711e-06,-0.10629,-1.9221e-05,-134.22,2.7279
21761,23.263,3.5455,0.1,2.6023e-05,260.05,2.0407e-05,156.45,-4.3272e-07,-0.1259,-1.9545e-05,-143.73,2.7435
21762,23.17,3.6364,0.1,2.7238e-05,272.19,2.2137e-05,175.69,-1.2606e-06,-0.108,-1.9592e-05,-137.84,2.728
21763,23.263,3.3636,0.1,2.6229e-05,262.11,2.0496e-05,156.59,-3.6236e-07,-0.12695,-1.9777e-05,-146,2.7435
21764,23.17,3.4545,0.1,2.748e-05,274.61,2.2245e-05,175.89,-1.1781e-06,-0.10921,-1.9868e-05,-140.54,2.728
21765,23.263,3.1818,0.1,2.6353e-05,263.35,2.0549e-05,156.67,-3.2027e-07,-0.12757,-1.9916e-05,-147.36,2.7435
21766,23.17,3.2727,0.1,2.764e-05,276.21,2.2317e-05,176.01,-1.1233e-06,-0.10999,-2.0052e-05,-142.33,2.728
21767,23.263,3,0.1,2.6394e-05,263.76,2.0566e-05,156.7,-3.0626e-07,-0.12777,-1.9962e-05,-147.81,2.7435
21768,23.17,3.0909,0.1,2.772e-05,277.01,2.2353e-05,176.08,-1.096e-06,-0.11037,-2.0143e-05,-143.22,2.728
21769,23.263,2.8182,0.1,2.6353e-05,263.35,2.0549e-05,156.67,-3.2027e-07,-0.12757,-1.9916e-05,-147.36,2.7435
21770,23.17,2.9091,0.1,2.772e-05,277.01,2.2353e-05,176.08,-1.096e-06,-0.11037,-2.0143e-05,-143.22,2.728
21771,23.263,2.6364,0.1,2.6229e-05,262.11,2.0496e-05,156.59,-3.6236e-07,-0.12695,-1.9777e-05,-146,2.7435
21772,23.17,2.7273,0.1,2.764e-05,276.21,2.2317e-05,176.01,-1.1233e-06,-0.10999,-2.0052e-05,-142.33,2.728
21773,23.263,2.4545,0.1,2.6023e-05,260.05,2.0407e-05,156.45,-4.3272e-07,-0.1259,-1.9545e-05,-143.73,2.7435
21774,23.17,2.5455,0.1,2.748e-05,274.61,2.2245e-05,175.89,-1.1781e-06,-0.10921,-1.9868e-05,-140.54,2.728
21775,23.263,2.2727,0.1,2.5732e-05,257.14,2.0281e-05,156.25,-5.3166e-07,-0.12435,-1.9218e-05,-140.53,2.7434
21776,23.17,2.3636,0.1,2.7238e-05,272.19,2.2137e-05,175.69,-1.2606e-06,-0.108,-1.9592e-05,-137.84,2.728
21777,23.263,2.0909,0.1,2.5355e-05,253.38,2.0116e-05,155.98,-6.5962e-07,-0.12224,-1.8793e-05,-136.37,2.7434
21778,23.17,2.1818,0.1,2.6914e-05,268.95,2.199e-05,175.42,-1.3711e-06,-0.10629,-1.9221e-05,-134.22,2.7279
21779,23.263,1.9091,0.1,2.489e-05,248.73,1.991e-05,155.62,-8.1714e-07,-0.11944,-1.8268e-05,-131.24,2.7433
21780,23.17,2,0.1,2.6505e-05,264.87,2.1803e-05,175.06,-1.5099e-06,-0.10399,-1.8752e-05,-129.65,2.7278
21781,23.263,1.7273,0.1,2.4334e-05,243.17,1.9661e-05,155.16,-1.0049e-06,-0.11576,-1.7637e-05,-125.08,2.7432
21782,23.17,1.8182,0.1,2.6011e-05,259.93,2.1574e-05,174.6,-1.6775e-06,-0.10096,-1.8182e-05,-124.11,2.7278
21783,23.263,1.5455,0.1,2.3684e-05,236.68,1.9365e-05,154.59,-1.2235e-06,-0.11095,-1.6897e-05,-117.87,2.7431
21784,23.17,1.6364,0.1,2.5428e-05,254.11,2.13e-05,174.03,-1.8744e-06,-0.096998,-1.7508e-05,-117.56,2.7277
21785,23.263,1.3636,0.1,2.2937e-05,229.22,1.9019e-05,153.87,-1.4737e-06,-0.10458,-1.6041e-05,-109.56,2.743
21786,23.17,1.4545,0.1,2.4756e-05,247.39,2.0979e-05,173.32,-2.1011e-06,-0.09176,-1.6726e-05,-109.98,2.7276
21787,23.263,1.1818,0.1,2.2092e-05,220.77,1.8617e-05,152.98,-1.7559e-06,-0.0959,-1.5065e-05,-100.09,2.7429
21788,23.17,1.2727,0.1,2.3993e-05,239.77,2.0607e-05,172.46,-2.3578e-06,-0.084787,-1.5831e-05,-101.32,2.7275
21789,23.263,1,0.1,2.1149e-05,211.34,1.8156e-05,151.89,-2.0703e-06,-0.084034,-1.3965e-05,-89.454,2.7428
21790,23.17,1.0909,0.1,2.3141e-05,231.25,2.0181e-05,171.43,-2.6445e-06,-0.075046,-1.4822e-05,-91.573,2.7273
21791,23.263,0.81818,0.1,2.0116e-05,201.03,1.7637e-05,150.61,-2.4157e-06,-0.065587,-1.2742e-05,-77.652,2.7426
21792,23.17,0.90909,0.1,2.2206e-05,221.91,1.9702e-05,170.22,-2.9605e-06,-0.061882,-1.37e-05,-80.752,2.7272
21793,23.263,0.63636,0.1,1.9021e-05,190.08,1.707e-05,149.17,-2.7896e-06,-0.04201,-1.1412e-05,-64.827,2.7425
21794,23.17,0.72727,0.1,2.1208e-05,211.94,1.9177e-05,168.87,-3.3034e-06,-0.039476,-1.2475e-05,-68.951,2.7271
21795,23.263,0.45455,0.1,1.793e-05,179.17,1.6494e-05,147.87,-3.1837e-06,0.024838,-1.0026e-05,-51.389,2.7424
21796,23.17,0.54545,0.1,2.0189e-05,201.75,1.8628e-05,167.52,-3.6699e-06,-0.016506,-1.1179e-05,-56.435,2.7269
21797,23.263,0.27273,0.1,1.7107e-05,170.95,1.6105e-05,148.09,-3.5922e-06,0.090091,-8.7992e-06,-39.034,2.7422
21798,23.17,0.36364,0.1,1.9244e-05,192.31,1.812e-05,166.65,-4.0476e-06,0.085874,-9.8907e-06,-43.817,2.7268
21799,23.17,0.18182,0.1,1.8821e-05,188.08,1.8011e-05,168.78,-4.4432e-06,0.072764,-8.9796e-06,-34.012,2.7266
21800,23.263,0.090909,0.1,1.5638e-05,156.28,1.5123e-05,143.56,-3.9888e-06,-0.033855,-7.029e-06,-22.876,2.742
21801,23.078,5.7273,0.1,2.0868e-05,208.53,1.9952e-05,186.79,-4.8965e-06,0.084434,-9.9991e-06,-38.254,2.7112
21802,22.986,5.8182,0.1,2.27e-05,226.85,2.1926e-05,207.86,-5.7304e-06,0.05743,-1.0284e-05,-34.153,2.6956
21803,23.078,5.9091,0.1,1.9447e-05,194.33,1.8953e-05,181.8,-5.2453e-06,-0.015169,-8.3052e-06,-23.006,2.711
21804,23.078,5.5455,0.1,2.1471e-05,214.56,2.0226e-05,186.08,-4.5347e-06,0.037987,-1.1014e-05,-48.643,2.7113
21805,22.986,5.6364,0.1,2.2936e-05,229.2,2.1927e-05,205.24,-5.3776e-06,0.084914,-1.0997e-05,-42.137,2.6958
21806,23.078,5.3636,0.1,2.2368e-05,223.52,2.0718e-05,187.09,-4.1845e-06,-0.018995,-1.2225e-05,-60.431,2.7115
21807,22.986,5.4545,0.1,2.37e-05,236.83,2.2345e-05,205.77,-5.0416e-06,-0.0029202,-1.2109e-05,-53.107,2.6959
21808,23.078,5.1818,0.1,2.3305e-05,232.89,2.1231e-05,188.4,-3.8488e-06,-0.039649,-1.3422e-05,-71.971,2.7116
21809,22.986,5.2727,0.1,2.4558e-05,245.41,2.2826e-05,206.9,-4.7134e-06,-0.022667,-1.326e-05,-64.236,2.6961
21810,23.078,5,0.1,2.4216e-05,241.99,2.172e-05,189.7,-3.5352e-06,-0.056229,-1.455e-05,-82.818,2.7118
21811,22.986,5.0909,0.1,2.5426e-05,254.08,2.3307e-05,208.17,-4.4034e-06,-0.042793,-1.4373e-05,-74.95,2.6962
21812,23.078,4.8182,0.1,2.5067e-05,250.5,2.2166e-05,190.88,-3.2468e-06,-0.067012,-1.5583e-05,-92.759,2.7119
21813,22.986,4.9091,0.1,2.6258e-05,262.4,2.3761e-05,209.39,-4.115e-06,-0.054847,-1.5413e-05,-84.947,2.6963
21814,23.078,4.6364,0.1,2.5842e-05,258.25,2.2564e-05,191.89,-2.9856e-06,-0.074927,-1.6512e-05,-101.71,2.712
21815,22.986,4.7273,0.1,2.7031e-05,270.13,2.4173e-05,210.5,-3.851e-06,-0.063845,-1.6363e-05,-94.074,2.6965
21816,23.078,4.4545,0.1,2.6535e-05,265.17,2.2911e-05,192.75,-2.7523e-06,-0.08072,-1.7334e-05,-109.64,2.7121
21817,22.986,4.5455,0.1,2.7733e-05,277.14,2.454e-05,211.46,-3.613e-06,-0.070304,-1.7214e-05,-102.26,2.6966
21818,23.078,4.2727,0.1,2.7142e-05,271.24,2.3211e-05,193.45,-2.5474e-06,-0.085087,-1.8051e-05,-116.57,2.7122
21819,22.986,4.3636,0.1,2.8357e-05,283.38,2.4861e-05,212.27,-3.4015e-06,-0.075148,-1.7965e-05,-109.5,2.6967
21820,23.078,4.0909,0.1,2.7665e-05,276.46,2.3465e-05,194.03,-2.3706e-06,-0.088405,-1.8664e-05,-122.51,2.7123
21821,22.986,4.1818,0.1,2.8902e-05,288.82,2.5136e-05,212.95,-3.2169e-06,-0.078807,-1.8615e-05,-115.78,2.6968
21822,23.078,3.9091,0.1,2.8105e-05,280.85,2.3675e-05,194.49,-2.2217e-06,-0.090929,-1.9177e-05,-127.48,2.7124
21823,22.986,4,0.1,2.9366e-05,293.46,2.5368e-05,213.51,-3.0592e-06,-0.081592,-1.9168e-05,-121.11,2.6969
21824,23.078,3.7273,0.1,2.8462e-05,284.42,2.3844e-05,194.84,-2.1004e-06,-0.092827,-1.9592e-05,-131.52,2.7124
21825,22.986,3.8182,0.1,2.9752e-05,297.31,2.5558e-05,213.95,-2.9281e-06,-0.0837,-1.9624e-05,-125.53,2.6969
21826,23.078,3.5455,0.1,2.8738e-05,287.18,2.3974e-05,195.11,-2.0064e-06,-0.094209,-1.9913e-05,-134.64,2.7125
21827,22.986,3.6364,0.1,3.0059e-05,300.38,2.5707e-05,214.29,-2.8236e-06,-0.085263,-1.9986e-05,-129.04,2.697
21828,23.078,3.3636,0.1,2.8934e-05,289.14,2.4066e-05,195.3,-1.9395e-06,-0.095151,-2.0141e-05,-136.85,2.7125
21829,22.986,3.4545,0.1,3.0288e-05,302.67,2.5819e-05,214.53,-2.7454e-06,-0.086371,-2.0256e-05,-131.66,2.697
21830,23.078,3.1818,0.1,2.9052e-05,290.31,2.412e-05,195.41,-1.8994e-06,-0.095699,-2.0277e-05,-138.18,2.7125
21831,22.986,3.2727,0.1,3.044e-05,304.19,2.5892e-05,214.69,-2.6934e-06,-0.087081,-2.0436e-05,-133.4,2.697
21832,23.078,3,0.1,2.9091e-05,290.71,2.4138e-05,195.44,-1.8861e-06,-0.09588,-2.0322e-05,-138.62,2.7126
21833,22.986,3.0909,0.1,3.0516e-05,304.95,2.5929e-05,214.77,-2.6674e-06,-0.087428,-2.0525e-05,-134.26,2.6971
21834,23.078,2.8182,0.1,2.9052e-05,290.31,2.412e-05,195.41,-1.8994e-06,-0.0957,-2.0277e-05,-138.18,2.7125
21835,22.986,2.9091,0.1,3.0516e-05,304.95,2.5929e-05,214.77,-2.6674e-06,-0.087428,-2.0525e-05,-134.26,2.6971
21836,23.078,2.6364,0.1,2.8934e-05,289.14,2.4066e-05,195.3,-1.9395e-06,-0.095151,-2.0141e-05,-136.85,2.7125
21837,22.986,2.7273,0.1,3.044e-05,304.19,2.5892e-05,214.69,-2.6934e-06,-0.08708,-2.0436e-05,-133.4,2.697
21838,23.078,2.4545,0.1,2.8738e-05,287.18,2.3974e-05,195.11,-2.0064e-06,-0.094209,-1.9913e-05,-134.64,2.7125
21839,22.986,2.5455,0.1,3.0288e-05,302.67,2.5819e-05,214.53,-2.7454e-06,-0.086371,-2.0256e-05,-131.66,2.697
21840,23.078,2.2727,0.1,2.8462e-05,284.42,2.3844e-05,194.84,-2.1004e-06,-0.092826,-1.9592e-05,-131.52,2.7124
21841,22.986,2.3636,0.1,3.0059e-05,300.38,2.5707e-05,214.29,-2.8236e-06,-0.085263,-1.9986e-05,-129.04,2.697
21842,23.078,2.0909,0.1,2.8105e-05,280.85,2.3675e-05,194.49,-2.2217e-06,-0.090929,-1.9177e-05,-127.48,2.7124
21843,22.986,2.1818,0.1,2.9752e-05,297.31,2.5558e-05,213.95,-2.9281e-06,-0.0837,-1.9624e-05,-125.53,2.6969
21844,23.078,1.9091,0.1,2.7665e-05,276.46,2.3465e-05,194.03,-2.3706e-06,-0.088404,-1.8664e-05,-122.51,2.7123
21845,22.986,2,0.1,2.9366e-05,293.46,2.5368e-05,213.51,-3.0592e-06,-0.081592,-1.9168e-05,-121.11,2.6969
21846,23.078,1.7273,0.1,2.7142e-05,271.24,2.3211e-05,193.45,-2.5474e-06,-0.085087,-1.8051e-05,-116.57,2.7122
21847,22.986,1.8182,0.1,2.8902e-05,288.82,2.5136e-05,212.95,-3.2169e-06,-0.078807,-1.8615e-05,-115.78,2.6968
21848,23.078,1.5455,0.1,2.6535e-05,265.17,2.2911e-05,192.75,-2.7524e-06,-0.08072,-1.7334e-05,-109.64,2.7121
21849,22.986,1.6364,0.1,2.8357e-05,283.38,2.4861e-05,212.27,-3.4015e-06,-0.075148,-1.7965e-05,-109.5,2.6967
21850,23.078,1.3636,0.1,2.5842e-05,258.25,2.2564e-05,191.89,-2.9856e-06,-0.074927,-1.6512e-05,-101.71,2.712
21851,22.986,1.4545,0.1,2.7733e-05,277.14,2.454e-05,211.46,-3.613e-06,-0.070304,-1.7214e-05,-102.26,2.6966
21852,23.078,1.1818,0.1,2.5067e-05,250.5,2.2166e-05,190.88,-3.2468e-06,-0.067013,-1.5583e-05,-92.759,2.7119
21853,22.986,1.2727,0.1,2.7031e-05,270.13,2.4173e-05,210.5,-3.851e-06,-0.063846,-1.6363e-05,-94.073,2.6965
21854,23.078,1,0.1,2.4216e-05,241.99,2.172e-05,189.7,-3.5352e-06,-0.056231,-1.455e-05,-82.818,2.7118
21855,22.986,1.0909,0.1,2.6258e-05,262.4,2.3761e-05,209.39,-4.115e-06,-0.054848,-1.5413e-05,-84.947,2.6963
21856,23.078,0.81818,0.1,2.3305e-05,232.89,2.1231e-05,188.4,-3.8488e-06,-0.039651,-1.3422e-05,-71.971,2.7116
21857,22.986,0.90909,0.1,2.5426e-05,254.08,2.3307e-05,208.17,-4.4034e-06,-0.042795,-1.4373e-05,-74.95,2.6962
21858,23.078,0.63636,0.1,2.2368e-05,223.52,2.0718e-05,187.09,-4.1845e-06,-0.018993,-1.2225e-05,-60.431,2.7115
21859,22.986,0.72727,0.1,2.4558e-05,245.41,2.2826e-05,206.9,-4.7134e-06,-0.022669,-1.326e-05,-64.236,2.6961
21860,23.078,0.45455,0.1,2.1471e-05,214.56,2.0226e-05,186.08,-4.5347e-06,0.037991,-1.1014e-05,-48.643,2.7113
21861,22.986,0.54545,0.1,2.37e-05,236.83,2.2345e-05,205.77,-5.0416e-06,-0.0029163,-1.2109e-05,-53.107,2.6959
21862,23.078,0.27273,0.1,2.0868e-05,208.53,1.9952e-05,186.79,-4.8965e-06,0.084435,-9.9991e-06,-38.254,2.7112
21863,22.986,0.36364,0.1,2.2936e-05,229.2,2.1927e-05,205.24,-5.3776e-06,0.084917,-1.0997e-05,-42.137,2.6958
21864,22.986,0.18182,0.1,2.27e-05,226.85,2.1926e-05,207.86,-5.7304e-06,0.057429,-1.0284e-05,-34.153,2.6956
21865,23.078,0.090909,0.1,1.9447e-05,194.33,1.8953e-05,181.8,-5.2453e-06,-0.015165,-8.3052e-06,-23.006,2.711
21866,22.894,5.7273,0.1,2.469e-05,246.73,2.3836e-05,225.82,-6.2094e-06,0.073972,-1.1219e-05,-37.565,2.6802
21867,22.802,5.8182,0.1,2.6607e-05,265.88,2.586e-05,247.17,-7.0295e-06,0.04457,-1.1582e-05,-34.164,2.6646
21868,22.894,5.9091,0.1,2.3299e-05,232.83,2.2822e-05,220.46,-6.5208e-06,-0.0070134,-9.5837e-06,-23.02,2.68
21869,22.894,5.5455,0.1,2.5133e-05,251.15,2.402e-05,224.73,-5.8851e-06,0.039609,-1.2066e-05,-46.4,2.6803
21870,22.802,5.6364,0.1,2.6705e-05,266.87,2.5779e-05,244.2,-6.7112e-06,0.080014,-1.2142e-05,-40.723,2.6648
21871,22.894,5.3636,0.1,2.5875e-05,258.57,2.4436e-05,225.45,-5.571e-06,-0.010123,-1.3127e-05,-56.782,2.6805
21872,22.802,5.4545,0.1,2.7329e-05,273.1,2.6122e-05,244.43,-6.4093e-06,0.0032066,-1.3109e-05,-50.336,2.6649
21873,22.894,5.1818,0.1,2.6675e-05,266.57,2.4891e-05,226.58,-5.2684e-06,-0.028443,-1.4199e-05,-67.128,2.6807
21874,22.802,5.2727,0.1,2.8054e-05,280.34,2.6539e-05,245.33,-6.1135e-06,-0.013883,-1.4129e-05,-60.237,2.6651
21875,22.894,5,0.1,2.7473e-05,274.54,2.534e-05,227.8,-4.9835e-06,-0.043562,-1.5228e-05,-77.019,2.6808
21876,22.802,5.0909,0.1,2.8805e-05,287.85,2.6971e-05,246.44,-5.8325e-06,-0.032084,-1.5134e-05,-69.918,2.6652
21877,22.894,4.8182,0.1,2.8235e-05,282.15,2.5762e-05,228.97,-4.7195e-06,-0.053576,-1.6187e-05,-86.217,2.6809
21878,22.802,4.9091,0.1,2.9541e-05,295.21,2.739e-05,247.6,-5.5694e-06,-0.043234,-1.6089e-05,-79.081,2.6654
21879,22.894,4.6364,0.1,2.8939e-05,289.19,2.6145e-05,230.03,-4.4787e-06,-0.060981,-1.706e-05,-94.595,2.681
21880,22.802,4.7273,0.1,3.0237e-05,302.16,2.7781e-05,248.71,-5.327e-06,-0.05166,-1.6972e-05,-87.551,2.6655
21881,22.894,4.4545,0.1,2.9576e-05,295.56,2.6486e-05,230.96,-4.2624e-06,-0.066418,-1.7841e-05,-102.09,2.6812
21882,22.802,4.5455,0.1,3.0877e-05,308.56,2.8134e-05,249.7,-5.107e-06,-0.057751,-1.7773e-05,-95.229,2.6656
21883,22.894,4.2727,0.1,3.014e-05,301.19,2.6783e-05,231.75,-4.0713e-06,-0.070516,-1.8527e-05,-108.68,2.6813
21884,22.802,4.3636,0.1,3.1453e-05,314.31,2.8448e-05,250.58,-4.9106e-06,-0.062331,-1.8486e-05,-102.06,2.6657
21885,22.894,4.0909,0.1,3.0629e-05,306.08,2.7036e-05,232.41,-3.9057e-06,-0.073622,-1.9117e-05,-114.36,2.6813
21886,22.802,4.1818,0.1,3.1959e-05,319.37,2.8719e-05,251.32,-4.7384e-06,-0.06579,-1.9108e-05,-108.03,2.6658
21887,22.894,3.9091,0.1,3.1041e-05,310.2,2.7248e-05,232.95,-3.7658e-06,-0.07598,-1.9613e-05,-119.14,2.6814
21888,22.802,4,0.1,3.2393e-05,323.71,2.895e-05,251.94,-4.5907e-06,-0.068421,-1.9639e-05,-113.13,2.6659
21889,22.894,3.7273,0.1,3.1378e-05,313.56,2.7419e-05,233.37,-3.6516e-06,-0.077749,-2.0016e-05,-123.03,2.6815
21890,22.802,3.8182,0.1,3.2755e-05,327.32,2.914e-05,252.44,-4.4677e-06,-0.070408,-2.0079e-05,-117.37,2.666
21891,22.894,3.5455,0.1,3.1639e-05,316.17,2.755e-05,233.69,-3.5628e-06,-0.079036,-2.0328e-05,-126.04,2.6815
21892,22.802,3.6364,0.1,3.3044e-05,330.21,2.929e-05,252.83,-4.3693e-06,-0.071878,-2.0429e-05,-120.74,2.666
21893,22.894,3.3636,0.1,3.1825e-05,318.03,2.7644e-05,233.92,-3.4995e-06,-0.079911,-2.0549e-05,-128.19,2.6816
21894,22.802,3.4545,0.1,3.326e-05,332.37,2.9402e-05,253.12,-4.2956e-06,-0.07292,-2.0691e-05,-123.26,2.6661
21895,22.894,3.1818,0.1,3.1936e-05,319.14,2.7699e-05,234.05,-3.4616e-06,-0.080419,-2.0682e-05,-129.47,2.6816
21896,22.802,3.2727,0.1,3.3405e-05,333.81,2.9477e-05,253.31,-4.2465e-06,-0.073585,-2.0865e-05,-124.94,2.6661
21897,22.894,3,0.1,3.1973e-05,319.51,2.7718e-05,234.09,-3.449e-06,-0.080586,-2.0726e-05,-129.9,2.6816
21898,22.802,3.0909,0.1,3.3477e-05,334.53,2.9514e-05,253.4,-4.2219e-06,-0.073911,-2.0952e-05,-125.78,2.6661
21899,22.894,2.8182,0.1,3.1936e-05,319.14,2.7699e-05,234.05,-3.4616e-06,-0.080418,-2.0682e-05,-129.47,2.6816
21900,22.802,2.9091,0.1,3.3477e-05,334.53,2.9514e-05,253.4,-4.2219e-06,-0.073909,-2.0952e-05,-125.78,2.6661
21901,22.894,2.6364,0.1,3.1825e-05,318.03,2.7644e-05,233.92,-3.4995e-06,-0.07991,-2.0549e-05,-128.19,2.6816
21902,22.802,2.7273,0.1,3.3405e-05,333.81,2.9477e-05,253.31,-4.2465e-06,-0.073584,-2.0865e-05,-124.94,2.6661
21903,22.894,2.4545,0.1,3.1639e-05,316.17,2.755e-05,233.69,-3.5628e-06,-0.079035,-2.0328e-05,-126.04,2.6815
21904,22.802,2.5455,0.1,3.326e-05,332.37,2.9402e-05,253.12,-4.2956e-06,-0.072919,-2.0691e-05,-123.26,2.6661
21905,22.894,2.2727,0.1,3.1378e-05,313.56,2.7419e-05,233.37,-3.6516e-06,-0.077749,-2.0016e-05,-123.03,2.6815
21906,22.802,2.3636,0.1,3.3044e-05,330.21,2.929e-05,252.83,-4.3693e-06,-0.071878,-2.0429e-05,-120.74,2.666
21907,22.894,2.0909,0.1,3.1041e-05,310.2,2.7248e-05,232.95,-3.7658e-06,-0.07598,-1.9613e-05,-119.14,2.6814
21908,22.802,2.1818,0.1,3.2755e-05,327.32,2.914e-05,252.44,-4.4677e-06,-0.070408,-2.0079e-05,-117.37,2.666
21909,22.894,1.9091,0.1,3.0629e-05,306.08,2.7036e-05,232.41,-3.9057e-06,-0.073621,-1.9117e-05,-114.36,2.6813
21910,22.802,2,0.1,3.2393e-05,323.71,2.895e-05,251.94,-4.5907e-06,-0.068421,-1.9639e-05,-113.13,2.6659
21911,22.894,1.7273,0.1,3.014e-05,301.19,2.6783e-05,231.75,-4.0713e-06,-0.070515,-1.8527e-05,-108.68,2.6813
21912,22.802,1.8182,0.1,3.1959e-05,319.37,2.8719e-05,251.32,-4.7384e-06,-0.06579,-1.9108e-05,-108.03,2.6658
21913,22.894,1.5455,0.1,2.9576e-05,295.56,2.6486e-05,230.96,-4.2624e-06,-0.066418,-1.7841e-05,-102.09,2.6812
21914,22.802,1.6364,0.1,3.1453e-05,314.31,2.8448e-05,250.58,-4.9106e-06,-0.062331,-1.8486e-05,-102.06,2.6657
21915,22.894,1.3636,0.1,2.8939e-05,289.19,2.6145e-05,230.03,-4.4787e-06,-0.060982,-1.706e-05,-94.595,2.681
21916,22.802,1.4545,0.1,3.0877e-05,308.56,2.8134e-05,249.7,-5.107e-06,-0.057751,-1.7773e-05,-95.229,2.6656
21917,22.894,1.1818,0.1,2.8235e-05,282.15,2.5762e-05,228.97,-4.7195e-06,-0.053577,-1.6187e-05,-86.217,2.6809
21918,22.802,1.2727,0.1,3.0237e-05,302.16,2.7781e-05,248.71,-5.327e-06,-0.051661,-1.6972e-05,-87.551,2.6655
21919,22.894,1,0.1,2.7473e-05,274.54,2.534e-05,227.8,-4.9835e-06,-0.043564,-1.5228e-05,-77.019,2.6808
21920,22.802,1.0909,0.1,2.9541e-05,295.21,2.739e-05,247.6,-5.5694e-06,-0.043236,-1.6089e-05,-79.081,2.6654
21921,22.894,0.81818,0.1,2.6675e-05,266.57,2.4891e-05,226.58,-5.2684e-06,-0.028446,-1.4199e-05,-67.128,2.6807
21922,22.802,0.90909,0.1,2.8805e-05,287.85,2.6971e-05,246.44,-5.8325e-06,-0.032085,-1.5134e-05,-69.918,2.6652
21923,22.894,0.63636,0.1,2.5875e-05,258.57,2.4436e-05,225.45,-5.571e-06,-0.010124,-1.3127e-05,-56.782,2.6805
21924,22.802,0.72727,0.1,2.8054e-05,280.34,2.6539e-05,245.33,-6.1135e-06,-0.013886,-1.4129e-05,-60.237,2.6651
21925,22.894,0.45455,0.1,2.5133e-05,251.15,2.402e-05,224.73,-5.8851e-06,0.039613,-1.2066e-05,-46.4,2.6803
21926,22.802,0.54545,0.1,2.7329e-05,273.1,2.6122e-05,244.43,-6.4093e-06,0.0032096,-1.3109e-05,-50.336,2.6649
21927,22.894,0.27273,0.1,2.469e-05,246.73,2.3836e-05,225.82,-6.2094e-06,0.073973,-1.1219e-05,-37.565,2.6802
21928,22.802,0.36364,0.1,2.6705e-05,266.87,2.5779e-05,244.2,-6.7112e-06,0.080018,-1.2142e-05,-40.723,2.6648
21929,22.802,0.18182,0.1,2.6607e-05,265.88,2.586e-05,247.17,-7.0295e-06,0.044569,-1.1582e-05,-34.164,2.6646
21930,22.894,0.090909,0.1,2.3299e-05,232.83,2.2822e-05,220.46,-6.5208e-06,-0.0070175,-9.5837e-06,-23.02,2.68
21931,22.709,5.7273,0.1,2.8552e-05,285.33,2.7745e-05,265.11,-7.5293e-06,0.065979,-1.245e-05,-36.903,2.6492
21932,22.617,5.8182,0.1,3.0532e-05,305.11,2.981e-05,286.66,-8.3381e-06,0.035128,-1.2876e-05,-34.062,2.6336
21933,22.709,5.9091,0.1,2.7184e-05,271.66,2.6721e-05,259.46,-7.8103e-06,-0.0011541,-1.0864e-05,-22.946,2.649
21934,22.709,5.5455,0.1,2.8872e-05,288.52,2.7857e-05,263.72,-7.2358e-06,0.040525,-1.3161e-05,-44.478,2.6494
21935,22.617,5.6364,0.1,3.0526e-05,305.05,2.9663e-05,283.42,-8.0485e-06,0.075186,-1.3311e-05,-39.467,2.6338
21936,22.709,5.3636,0.1,2.9491e-05,294.7,2.8209e-05,264.18,-6.9521e-06,-0.0031996,-1.4094e-05,-53.666,2.6495
21937,22.617,5.4545,0.1,3.1039e-05,310.18,2.9944e-05,283.42,-7.775e-06,0.0073216,-1.4158e-05,-47.949,2.634
21938,22.709,5.1818,0.1,3.0175e-05,301.54,2.8607e-05,265.1,-6.6779e-06,-0.019476,-1.5052e-05,-62.937,2.6497
21939,22.617,5.2727,0.1,3.1653e-05,316.31,3.0303e-05,284.08,-7.5069e-06,-0.0075115,-1.5062e-05,-56.777,2.6341
21940,22.709,5,0.1,3.0872e-05,308.5,2.9013e-05,266.18,-6.4186e-06,-0.033303,-1.5985e-05,-71.915,2.6498
21941,22.617,5.0909,0.1,3.2303e-05,322.8,3.0686e-05,285.02,-7.2513e-06,-0.024022,-1.5966e-05,-65.506,2.6343
21942,22.709,4.8182,0.1,3.1548e-05,315.26,2.9403e-05,267.29,-6.177e-06,-0.042633,-1.6867e-05,-80.367,2.65
21943,22.617,4.9091,0.1,3.2951e-05,329.28,3.1067e-05,286.07,-7.011e-06,-0.034351,-1.6837e-05,-73.864,2.6344
21944,22.709,4.6364,0.1,3.2184e-05,321.62,2.9765e-05,268.34,-5.9554e-06,-0.04961,-1.768e-05,-88.147,2.6501
21945,22.617,4.7273,0.1,3.3574e-05,335.5,3.143e-05,287.11,-6.7885e-06,-0.042267,-1.7653e-05,-81.672,2.6345
21946,22.709,4.4545,0.1,3.2766e-05,327.43,3.0092e-05,269.29,-5.7554e-06,-0.054766,-1.8414e-05,-95.17,2.6502
21947,22.617,4.5455,0.1,3.4154e-05,341.3,3.1764e-05,288.1,-6.5857e-06,-0.04805,-1.84e-05,-88.815,2.6347
21948,22.709,4.2727,0.1,3.3286e-05,332.63,3.0381e-05,270.12,-5.5779e-06,-0.058662,-1.9064e-05,-101.39,2.6503
21949,22.617,4.3636,0.1,3.468e-05,346.57,3.2065e-05,288.98,-6.4038e-06,-0.052422,-1.907e-05,-95.222,2.6348
21950,22.709,4.0909,0.1,3.374e-05,337.17,3.063e-05,270.83,-5.4236e-06,-0.061619,-1.9627e-05,-106.78,2.6504
21951,22.617,4.1818,0.1,3.5148e-05,351.23,3.2328e-05,289.76,-6.2438e-06,-0.055732,-1.9659e-05,-100.85,2.6349
21952,22.709,3.9091,0.1,3.4125e-05,341.02,3.0839e-05,271.42,-5.2927e-06,-0.063862,-2.0102e-05,-111.34,2.6505
21953,22.617,4,0.1,3.5551e-05,355.27,3.2554e-05,290.41,-6.106e-06,-0.058251,-2.0164e-05,-105.69,2.635
21954,22.709,3.7273,0.1,3.4441e-05,344.17,3.1009e-05,271.89,-5.1856e-06,-0.065541,-2.049e-05,-115.05,2.6505
21955,22.617,3.8182,0.1,3.5889e-05,358.64,3.2741e-05,290.95,-5.991e-06,-0.060153,-2.0585e-05,-109.72,2.635
21956,22.709,3.5455,0.1,3.4686e-05,346.62,3.114e-05,272.25,-5.1022e-06,-0.06676,-2.079e-05,-117.94,2.6506
21957,22.617,3.6364,0.1,3.616e-05,361.35,3.2889e-05,291.38,-5.8988e-06,-0.061559,-2.0922e-05,-112.94,2.6351
21958,22.709,3.3636,0.1,3.4861e-05,348.37,3.1233e-05,272.5,-5.0427e-06,-0.067588,-2.1005e-05,-120,2.6506
21959,22.617,3.4545,0.1,3.6363e-05,363.38,3.3001e-05,291.69,-5.8296e-06,-0.062553,-2.1173e-05,-115.35,2.6351
21960,22.709,3.1818,0.1,3.4967e-05,349.42,3.1289e-05,272.65,-5.007e-06,-0.068069,-2.1133e-05,-121.23,2.6506
21961,22.617,3.2727,0.1,3.6499e-05,364.74,3.3074e-05,291.9,-5.7835e-06,-0.063189,-2.1341e-05,-116.96,2.6351
21962,22.709,3,0.1,3.5002e-05,349.77,3.1308e-05,272.7,-4.9951e-06,-0.068227,-2.1176e-05,-121.64,2.6506
21963,22.617,3.0909,0.1,3.6567e-05,365.42,3.3111e-05,292,-5.7604e-06,-0.063499,-2.1425e-05,-117.76,2.6352
21964,22.709,2.8182,0.1,3.4967e-05,349.42,3.1289e-05,272.65,-5.007e-06,-0.068069,-2.1133e-05,-121.23,2.6506
21965,22.617,2.9091,0.1,3.6567e-05,365.42,3.3111e-05,292,-5.7604e-06,-0.0635,-2.1425e-05,-117.76,2.6352
21966,22.709,2.6364,0.1,3.4861e-05,348.37,3.1233e-05,272.5,-5.0427e-06,-0.067588,-2.1005e-05,-120,2.6506
21967,22.617,2.7273,0.1,3.6499e-05,364.74,3.3074e-05,291.9,-5.7835e-06,-0.063189,-2.1341e-05,-116.96,2.6351
21968,22.709,2.4545,0.1,3.4686e-05,346.62,3.114e-05,272.25,-5.1022e-06,-0.066759,-2.079e-05,-117.94,2.6506
21969,22.617,2.5455,0.1,3.6363e-05,363.38,3.3001e-05,291.69,-5.8296e-06,-0.062553,-2.1173e-05,-115.35,2.6351
21970,22.709,2.2727,0.1,3.4441e-05,344.17,3.1009e-05,271.89,-5.1856e-06,-0.06554,-2.049e-05,-115.05,2.6505
21971,22.617,2.3636,0.1,3.616e-05,361.35,3.2889e-05,291.38,-5.8988e-06,-0.061559,-2.0922e-05,-112.94,2.6351
21972,22.709,2.0909,0.1,3.4125e-05,341.02,3.0839e-05,271.42,-5.2927e-06,-0.063861,-2.0102e-05,-111.34,2.6505
21973,22.617,2.1818,0.1,3.5889e-05,358.64,3.2741e-05,290.95,-5.991e-06,-0.060152,-2.0585e-05,-109.72,2.635
21974,22.709,1.9091,0.1,3.374e-05,337.17,3.063e-05,270.83,-5.4236e-06,-0.061619,-1.9627e-05,-106.78,2.6504
21975,22.617,2,0.1,3.5551e-05,355.27,3.2554e-05,290.41,-6.106e-06,-0.058251,-2.0164e-05,-105.69,2.635
21976,22.709,1.7273,0.1,3.3286e-05,332.63,3.0381e-05,270.12,-5.5779e-06,-0.058663,-1.9064e-05,-101.39,2.6503
21977,22.617,1.8182,0.1,3.5148e-05,351.23,3.2328e-05,289.76,-6.2438e-06,-0.055732,-1.9659e-05,-100.85,2.6349
21978,22.709,1.5455,0.1,3.2766e-05,327.43,3.0092e-05,269.29,-5.7554e-06,-0.054766,-1.8414e-05,-95.17,2.6502
21979,22.617,1.6364,0.1,3.468e-05,346.57,3.2065e-05,288.98,-6.4038e-06,-0.052422,-1.907e-05,-95.222,2.6348
21980,22.709,1.3636,0.1,3.2184e-05,321.62,2.9765e-05,268.34,-5.9554e-06,-0.049611,-1.768e-05,-88.147,2.6501
21981,22.617,1.4545,0.1,3.4154e-05,341.3,3.1764e-05,288.1,-6.5857e-06,-0.048051,-1.84e-05,-88.815,2.6347
21982,22.709,1.1818,0.1,3.1548e-05,315.26,2.9403e-05,267.29,-6.177e-06,-0.042634,-1.6867e-05,-80.367,2.65
21983,22.617,1.2727,0.1,3.3574e-05,335.5,3.143e-05,287.11,-6.7885e-06,-0.04227,-1.7653e-05,-81.672,2.6345
21984,22.709,1,0.1,3.0872e-05,308.5,2.9013e-05,266.18,-6.4186e-06,-0.033304,-1.5985e-05,-71.915,2.6498
21985,22.617,1.0909,0.1,3.2951e-05,329.28,3.1067e-05,286.07,-7.011e-06,-0.034351,-1.6837e-05,-73.864,2.6344
21986,22.709,0.81818,0.1,3.0175e-05,301.54,2.8607e-05,265.1,-6.6779e-06,-0.019478,-1.5052e-05,-62.937,2.6497
21987,22.617,0.90909,0.1,3.2303e-05,322.8,3.0686e-05,285.02,-7.2513e-06,-0.024024,-1.5966e-05,-65.506,2.6343
21988,22.709,0.63636,0.1,2.9491e-05,294.7,2.8209e-05,264.18,-6.9521e-06,-0.0031991,-1.4094e-05,-53.666,2.6495
21989,22.617,0.72727,0.1,3.1653e-05,316.31,3.0303e-05,284.08,-7.5069e-06,-0.0075135,-1.5062e-05,-56.777,2.6341
21990,22.709,0.45455,0.1,2.8872e-05,288.52,2.7857e-05,263.72,-7.2358e-06,0.040529,-1.3161e-05,-44.478,2.6494
21991,22.617,0.54545,0.1,3.1039e-05,310.18,2.9944e-05,283.42,-7.775e-06,0.0073227,-1.4158e-05,-47.949,2.634
21992,22.709,0.27273,0.1,2.8552e-05,285.33,2.7745e-05,265.11,-7.5293e-06,0.065982,-1.245e-05,-36.904,2.6492
21993,22.617,0.36364,0.1,3.0526e-05,305.05,2.9663e-05,283.42,-8.0485e-06,0.07519,-1.3311e-05,-39.467,2.6338
21994,22.617,0.18182,0.1,3.0532e-05,305.11,2.981e-05,286.66,-8.3381e-06,0.035129,-1.2876e-05,-34.062,2.6336
21995,22.709,0.090909,0.1,2.7184e-05,271.66,2.6721e-05,259.46,-7.8103e-06,-0.0011551,-1.0864e-05,-22.946,2.649
21996,22.525,5.7273,0.1,3.2443e-05,324.21,3.1675e-05,304.59,-8.8554e-06,0.058713,-1.3688e-05,-36.248,2.6182
21997,22.433,5.8182,0.1,3.4473e-05,344.49,3.3772e-05,326.32,-9.6547e-06,0.027725,-1.4166e-05,-33.868,2.6027
21998,22.525,5.9091,0.1,3.1096e-05,310.74,3.0645e-05,298.71,-9.111e-06,0.0024265,-1.2147e-05,-22.806,2.618
21999,22.525,5.5455,0.1,3.2667e-05,326.44,3.1728e-05,302.96,-8.588e-06,0.039757,-1.4286e-05,-42.776,2.6184
22000,22.433,5.6364,0.1,3.4384e-05,343.6,3.3572e-05,322.86,-9.3896e-06,0.070189,-1.4498e-05,-38.314,2.6028
22001,22.525,5.3636,0.1,3.3184e-05,331.61,3.2023e-05,303.2,-8.3301e-06,0.00094916,-1.511e-05,-50.941,2.6186
22002,22.433,5.4545,0.1,3.4808e-05,347.84,3.3801e-05,322.65,-9.1403e-06,0.0096508,-1.5242e-05,-45.837,2.603
22003,22.525,5.1818,0.1,3.377e-05,337.47,3.2369e-05,303.91,-8.0805e-06,-0.013582,-1.5965e-05,-59.256,2.6187
22004,22.433,5.2727,0.1,3.533e-05,353.05,3.4107e-05,323.11,-8.8959e-06,-0.0033024,-1.6046e-05,-53.728,2.6032
22005,22.525,5,0.1,3.4377e-05,343.53,3.2731e-05,304.84,-7.8439e-06,-0.026259,-1.6809e-05,-67.386,2.6189
22006,22.433,5.0909,0.1,3.5891e-05,358.66,3.4443e-05,323.86,-8.6627e-06,-0.018321,-1.6858e-05,-61.595,2.6033
22007,22.525,4.8182,0.1,3.4976e-05,349.52,3.3087e-05,305.84,-7.6226e-06,-0.034972,-1.7615e-05,-75.117,2.619
22008,22.433,4.9091,0.1,3.646e-05,364.35,3.4786e-05,324.78,-8.4428e-06,-0.0279,-1.7648e-05,-69.196,2.6035
22009,22.525,4.6364,0.1,3.5546e-05,355.22,3.3423e-05,306.83,-7.4189e-06,-0.041569,-1.8367e-05,-82.299,2.6191
22010,22.433,4.7273,0.1,3.7014e-05,369.88,3.5118e-05,325.73,-8.2385e-06,-0.035349,-1.8397e-05,-76.36,2.6036
22011,22.525,4.4545,0.1,3.6074e-05,360.5,3.3732e-05,307.76,-7.2342e-06,-0.046492,-1.9051e-05,-88.833,2.6193
22012,22.433,4.5455,0.1,3.7536e-05,375.1,3.543e-05,326.66,-8.0516e-06,-0.040855,-1.9088e-05,-82.966,2.6037
22013,22.525,4.2727,0.1,3.6551e-05,365.26,3.4008e-05,308.59,-7.0698e-06,-0.050231,-1.9661e-05,-94.659,2.6194
22014,22.433,4.3636,0.1,3.8016e-05,379.9,3.5714e-05,327.53,-7.8835e-06,-0.045048,-1.9714e-05,-88.934,2.6038
22015,22.525,4.0909,0.1,3.697e-05,369.44,3.4249e-05,309.32,-6.9263e-06,-0.053073,-2.0193e-05,-99.737,2.6194
22016,22.433,4.1818,0.1,3.8445e-05,384.18,3.5965e-05,328.3,-7.735e-06,-0.048238,-2.0267e-05,-94.209,2.6039
22017,22.525,3.9091,0.1,3.7327e-05,373.02,3.4452e-05,309.93,-6.8044e-06,-0.055232,-2.0645e-05,-104.05,2.6195
22018,22.433,4,0.1,3.8817e-05,387.9,3.6182e-05,328.96,-7.607e-06,-0.050671,-2.0744e-05,-98.761,2.604
22019,22.525,3.7273,0.1,3.7622e-05,375.96,3.4618e-05,310.43,-6.7043e-06,-0.05685,-2.1015e-05,-107.58,2.6196
22020,22.433,3.8182,0.1,3.9131e-05,391.04,3.6363e-05,329.52,-7.4997e-06,-0.052511,-2.1144e-05,-102.57,2.6041
22021,22.525,3.5455,0.1,3.7851e-05,378.25,3.4747e-05,310.81,-6.6263e-06,-0.058024,-2.1302e-05,-110.33,2.6196
22022,22.433,3.6364,0.1,3.9383e-05,393.56,3.6508e-05,329.96,-7.4137e-06,-0.053873,-2.1464e-05,-105.62,2.6042
22023,22.525,3.3636,0.1,3.8016e-05,379.9,3.4839e-05,311.08,-6.5705e-06,-0.058821,-2.1507e-05,-112.29,2.6197
22024,22.433,3.4545,0.1,3.9573e-05,395.46,3.6617e-05,330.29,-7.349e-06,-0.054835,-2.1704e-05,-107.91,2.6042
22025,22.525,3.1818,0.1,3.8115e-05,380.88,3.4894e-05,311.24,-6.537e-06,-0.059283,-2.163e-05,-113.47,2.6197
22026,22.433,3.2727,0.1,3.9701e-05,396.73,3.6689e-05,330.51,-7.3058e-06,-0.055451,-2.1864e-05,-109.44,2.6042
22027,22.525,3,0.1,3.8147e-05,381.21,3.4913e-05,311.29,-6.5258e-06,-0.059436,-2.1671e-05,-113.86,2.6197
22028,22.433,3.0909,0.1,3.9764e-05,397.37,3.6726e-05,330.62,-7.2841e-06,-0.055749,-2.1944e-05,-110.21,2.6042
22029,22.525,2.8182,0.1,3.8115e-05,380.88,3.4894e-05,311.24,-6.537e-06,-0.059285,-2.163e-05,-113.47,2.6197
22030,22.433,2.9091,0.1,3.9764e-05,397.37,3.6726e-05,330.62,-7.2841e-06,-0.055751,-2.1944e-05,-110.21,2.6042
22031,22.525,2.6364,0.1,3.8016e-05,379.9,3.4839e-05,311.08,-6.5705e-06,-0.058821,-2.1507e-05,-112.29,2.6197
22032,22.433,2.7273,0.1,3.9701e-05,396.73,3.6689e-05,330.51,-7.3058e-06,-0.055451,-2.1864e-05,-109.44,2.6042
22033,22.525,2.4545,0.1,3.7851e-05,378.25,3.4747e-05,310.81,-6.6263e-06,-0.058024,-2.1302e-05,-110.33,2.6196
22034,22.433,2.5455,0.1,3.9573e-05,395.46,3.6617e-05,330.29,-7.349e-06,-0.054835,-2.1704e-05,-107.91,2.6042
22035,22.525,2.2727,0.1,3.7622e-05,375.96,3.4618e-05,310.43,-6.7043e-06,-0.05685,-2.1015e-05,-107.58,2.6196
22036,22.433,2.3636,0.1,3.9383e-05,393.56,3.6508e-05,329.96,-7.4137e-06,-0.053874,-2.1464e-05,-105.62,2.6042
22037,22.525,2.0909,0.1,3.7327e-05,373.02,3.4452e-05,309.93,-6.8044e-06,-0.055232,-2.0645e-05,-104.05,2.6195
22038,22.433,2.1818,0.1,3.9131e-05,391.04,3.6363e-05,329.52,-7.4997e-06,-0.052511,-2.1144e-05,-102.57,2.6041
22039,22.525,1.9091,0.1,3.697e-05,369.44,3.4249e-05,309.32,-6.9263e-06,-0.053073,-2.0193e-05,-99.737,2.6194
22040,22.433,2,0.1,3.8817e-05,387.9,3.6182e-05,328.96,-7.607e-06,-0.050672,-2.0744e-05,-98.761,2.604
22041,22.525,1.7273,0.1,3.6551e-05,365.26,3.4008e-05,308.59,-7.0698e-06,-0.05023,-1.9661e-05,-94.659,2.6194
22042,22.433,1.8182,0.1,3.8445e-05,384.18,3.5965e-05,328.3,-7.735e-06,-0.048238,-2.0267e-05,-94.209,2.6039
22043,22.525,1.5455,0.1,3.6074e-05,360.5,3.3732e-05,307.76,-7.2342e-06,-0.046493,-1.9051e-05,-88.833,2.6193
22044,22.433,1.6364,0.1,3.8016e-05,379.9,3.5714e-05,327.53,-7.8835e-06,-0.045048,-1.9714e-05,-88.934,2.6038
22045,22.525,1.3636,0.1,3.5546e-05,355.22,3.3423e-05,306.83,-7.4189e-06,-0.041572,-1.8367e-05,-82.299,2.6191
22046,22.433,1.4545,0.1,3.7536e-05,375.1,3.543e-05,326.66,-8.0516e-06,-0.040857,-1.9088e-05,-82.966,2.6037
22047,22.525,1.1818,0.1,3.4976e-05,349.52,3.3087e-05,305.84,-7.6226e-06,-0.034972,-1.7615e-05,-75.117,2.619
22048,22.433,1.2727,0.1,3.7014e-05,369.88,3.5118e-05,325.73,-8.2385e-06,-0.035351,-1.8397e-05,-76.36,2.6036
22049,22.525,1,0.1,3.4377e-05,343.53,3.2731e-05,304.84,-7.8439e-06,-0.026261,-1.6809e-05,-67.386,2.6189
22050,22.433,1.0909,0.1,3.646e-05,364.35,3.4786e-05,324.78,-8.4428e-06,-0.027898,-1.7648e-05,-69.195,2.6035
22051,22.525,0.81818,0.1,3.377e-05,337.47,3.2369e-05,303.91,-8.0805e-06,-0.013585,-1.5965e-05,-59.256,2.6187
22052,22.433,0.90909,0.1,3.5891e-05,358.66,3.4443e-05,323.87,-8.6627e-06,-0.018323,-1.6858e-05,-61.595,2.6033
22053,22.525,0.63636,0.1,3.3184e-05,331.61,3.2023e-05,303.2,-8.3301e-06,0.00094791,-1.511e-05,-50.941,2.6186
22054,22.433,0.72727,0.1,3.533e-05,353.05,3.4107e-05,323.11,-8.896e-06,-0.0033039,-1.6046e-05,-53.728,2.6032
22055,22.525,0.45455,0.1,3.2667e-05,326.44,3.1728e-05,302.96,-8.588e-06,0.039758,-1.4286e-05,-42.776,2.6184
22056,22.433,0.54545,0.1,3.4808e-05,347.84,3.3801e-05,322.65,-9.1403e-06,0.00965,-1.5242e-05,-45.837,2.603
22057,22.525,0.27273,0.1,3.2443e-05,324.21,3.1675e-05,304.59,-8.8554e-06,0.058715,-1.3688e-05,-36.248,2.6182
22058,22.433,0.36364,0.1,3.4384e-05,343.6,3.3572e-05,322.86,-9.3896e-06,0.070191,-1.4498e-05,-38.315,2.6028
22059,22.433,0.18182,0.1,3.4473e-05,344.49,3.3772e-05,326.32,-9.6547e-06,0.027727,-1.4166e-05,-33.868,2.6027
22060,22.525,0.090909,0.1,3.1096e-05,310.74,3.0645e-05,298.71,-9.111e-06,0.0024231,-1.2147e-05,-22.806,2.618
22061,22.341,5.7273,0.1,3.6357e-05,363.32,3.5621e-05,344.23,-1.0187e-05,0.052522,-1.4931e-05,-35.589,2.5873
22062,22.249,5.8182,0.1,3.8427e-05,384,3.7745e-05,366.11,-1.0978e-05,0.02195,-1.5453e-05,-33.6,2.5717
22063,22.341,5.9091,0.1,3.5029e-05,350.05,3.4589e-05,338.2,-1.0421e-05,0.0048302,-1.3431e-05,-22.613,2.5871
22064,22.341,5.5455,0.1,3.6502e-05,364.77,3.5625e-05,342.42,-9.9421e-06,0.038449,-1.5435e-05,-41.231,2.5875
22065,22.249,5.6364,0.1,3.827e-05,382.44,3.7501e-05,362.49,-1.0734e-05,0.065434,-1.5698e-05,-37.233,2.5719
22066,22.341,5.3636,0.1,3.6936e-05,369.11,3.5871e-05,342.46,-9.7064e-06,0.003754,-1.6164e-05,-48.514,2.5876
22067,22.249,5.4545,0.1,3.8622e-05,385.95,3.7686e-05,362.11,-1.0506e-05,0.011018,-1.6355e-05,-43.933,2.5721
22068,22.341,5.1818,0.1,3.7438e-05,374.12,3.617e-05,342.98,-9.4783e-06,-0.0092728,-1.6928e-05,-55.98,2.5878
22069,22.249,5.2727,0.1,3.9065e-05,390.38,3.7946e-05,362.37,-1.0282e-05,-0.00035555,-1.707e-05,-51.003,2.5723
22070,22.341,5,0.1,3.7966e-05,379.4,3.649e-05,343.74,-9.2617e-06,-0.020917,-1.7688e-05,-63.335,2.5879
22071,22.249,5.0909,0.1,3.9549e-05,395.22,3.8239e-05,362.95,-1.0069e-05,-0.014061,-1.7798e-05,-58.093,2.5724
22072,22.341,4.8182,0.1,3.8494e-05,384.68,3.681e-05,344.61,-9.0587e-06,-0.029057,-1.8422e-05,-70.383,2.5881
22073,22.249,4.9091,0.1,4.0047e-05,400.2,3.8544e-05,363.71,-9.8669e-06,-0.022947,-1.8514e-05,-64.992,2.5726
22074,22.341,4.6364,0.1,3.9004e-05,389.77,3.7119e-05,345.52,-8.8713e-06,-0.035303,-1.9112e-05,-76.983,2.5882
22075,22.249,4.7273,0.1,4.0539e-05,405.11,3.8844e-05,364.56,-9.6792e-06,-0.02996,-1.9197e-05,-71.542,2.5727
22076,22.341,4.4545,0.1,3.948e-05,394.53,3.7406e-05,346.39,-8.701e-06,-0.040009,-1.9746e-05,-83.03,2.5883
22077,22.249,4.5455,0.1,4.1007e-05,409.79,3.9131e-05,365.41,-9.507e-06,-0.035204,-1.9834e-05,-77.625,2.5728
22078,22.341,4.2727,0.1,3.9914e-05,398.86,3.7666e-05,347.2,-8.5488e-06,-0.043607,-2.0315e-05,-88.453,2.5884
22079,22.249,4.3636,0.1,4.1441e-05,414.12,3.9395e-05,366.22,-9.3517e-06,-0.039232,-2.0413e-05,-83.153,2.5729
22080,22.341,4.0909,0.1,4.0298e-05,402.7,3.7895e-05,347.91,-8.4158e-06,-0.046358,-2.0815e-05,-93.206,2.5885
22081,22.249,4.1818,0.1,4.1832e-05,418.03,3.9631e-05,366.96,-9.2142e-06,-0.042317,-2.093e-05,-88.067,2.573
22082,22.341,3.9091,0.1,4.0628e-05,406,3.809e-05,348.53,-8.3024e-06,-0.048453,-2.124e-05,-97.258,2.5886
22083,22.249,4,0.1,4.2174e-05,421.45,3.9837e-05,367.62,-9.0953e-06,-0.04468,-2.1377e-05,-92.326,2.5731
22084,22.341,3.7273,0.1,4.0901e-05,408.73,3.825e-05,349.03,-8.2092e-06,-0.050024,-2.159e-05,-100.59,2.5887
22085,22.249,3.8182,0.1,4.2463e-05,424.34,4.0011e-05,368.17,-8.9956e-06,-0.046471,-2.1753e-05,-95.902,2.5732
22086,22.341,3.5455,0.1,4.1115e-05,410.86,3.8375e-05,349.42,-8.1364e-06,-0.051165,-2.1863e-05,-103.19,2.5887
22087,22.249,3.6364,0.1,4.2697e-05,426.68,4.015e-05,368.61,-8.9154e-06,-0.047797,-2.2055e-05,-98.777,2.5733
22088,22.341,3.3636,0.1,4.1268e-05,412.4,3.8465e-05,349.7,-8.0843e-06,-0.051941,-2.2058e-05,-105.05,2.5888
22089,22.249,3.4545,0.1,4.2874e-05,428.44,4.0255e-05,368.94,-8.8551e-06,-0.048738,-2.2283e-05,-100.94,2.5733
22090,22.341,3.1818,0.1,4.136e-05,413.32,3.8518e-05,349.87,-8.053e-06,-0.05239,-2.2175e-05,-106.16,2.5888
22091,22.249,3.2727,0.1,4.2992e-05,429.62,4.0325e-05,369.17,-8.8148e-06,-0.049338,-2.2435e-05,-102.39,2.5733
22092,22.341,3,0.1,4.1391e-05,413.63,3.8536e-05,349.92,-8.0425e-06,-0.052538,-2.2214e-05,-106.53,2.5888
22093,22.249,3.0909,0.1,4.3051e-05,430.22,4.036e-05,369.28,-8.7946e-06,-0.04963,-2.2511e-05,-103.11,2.5734
22094,22.341,2.8182,0.1,4.136e-05,413.32,3.8518e-05,349.87,-8.053e-06,-0.052391,-2.2175e-05,-106.16,2.5888
22095,22.249,2.9091,0.1,4.3051e-05,430.22,4.036e-05,369.28,-8.7946e-06,-0.04963,-2.2511e-05,-103.11,2.5734
22096,22.341,2.6364,0.1,4.1268e-05,412.4,3.8465e-05,349.7,-8.0843e-06,-0.051941,-2.2058e-05,-105.05,2.5888
22097,22.249,2.7273,0.1,4.2992e-05,429.62,4.0325e-05,369.17,-8.8148e-06,-0.049337,-2.2435e-05,-102.39,2.5733
22098,22.341,2.4545,0.1,4.1115e-05,410.86,3.8375e-05,349.42,-8.1364e-06,-0.051166,-2.1863e-05,-103.19,2.5887
22099,22.249,2.5455,0.1,4.2874e-05,428.44,4.0255e-05,368.94,-8.8551e-06,-0.048737,-2.2283e-05,-100.94,2.5733
22100,22.341,2.2727,0.1,4.0901e-05,408.73,3.825e-05,349.03,-8.2092e-06,-0.050024,-2.159e-05,-100.59,2.5887
22101,22.249,2.3636,0.1,4.2697e-05,426.68,4.015e-05,368.61,-8.9154e-06,-0.047799,-2.2055e-05,-98.777,2.5733
22102,22.341,2.0909,0.1,4.0628e-05,406,3.809e-05,348.53,-8.3024e-06,-0.048454,-2.124e-05,-97.258,2.5886
22103,22.249,2.1818,0.1,4.2463e-05,424.34,4.0011e-05,368.17,-8.9956e-06,-0.04647,-2.1753e-05,-95.901,2.5732
22104,22.341,1.9091,0.1,4.0298e-05,402.7,3.7895e-05,347.91,-8.4158e-06,-0.046359,-2.0815e-05,-93.206,2.5885
22105,22.249,2,0.1,4.2174e-05,421.45,3.9837e-05,367.62,-9.0953e-06,-0.044681,-2.1377e-05,-92.326,2.5731
22106,22.341,1.7273,0.1,3.9914e-05,398.86,3.7666e-05,347.2,-8.5488e-06,-0.043608,-2.0315e-05,-88.453,2.5884
22107,22.249,1.8182,0.1,4.1832e-05,418.03,3.9631e-05,366.96,-9.2142e-06,-0.042317,-2.093e-05,-88.067,2.573
22108,22.341,1.5455,0.1,3.948e-05,394.53,3.7406e-05,346.39,-8.701e-06,-0.040009,-1.9746e-05,-83.03,2.5883
22109,22.249,1.6364,0.1,4.1441e-05,414.12,3.9395e-05,366.22,-9.3517e-06,-0.039233,-2.0413e-05,-83.153,2.5729
22110,22.341,1.3636,0.1,3.9004e-05,389.77,3.7119e-05,345.52,-8.8713e-06,-0.035305,-1.9112e-05,-76.983,2.5882
22111,22.249,1.4545,0.1,4.1007e-05,409.79,3.9131e-05,365.41,-9.507e-06,-0.035205,-1.9834e-05,-77.625,2.5728
22112,22.341,1.1818,0.1,3.8494e-05,384.68,3.681e-05,344.61,-9.0588e-06,-0.029057,-1.8422e-05,-70.383,2.5881
22113,22.249,1.2727,0.1,4.0539e-05,405.11,3.8844e-05,364.56,-9.6792e-06,-0.029961,-1.9197e-05,-71.542,2.5727
22114,22.341,1,0.1,3.7966e-05,379.4,3.649e-05,343.74,-9.2617e-06,-0.020917,-1.7688e-05,-63.335,2.5879
22115,22.249,1.0909,0.1,4.0047e-05,400.2,3.8544e-05,363.71,-9.8669e-06,-0.022947,-1.8514e-05,-64.992,2.5726
22116,22.341,0.81818,0.1,3.7438e-05,374.12,3.617e-05,342.98,-9.4783e-06,-0.0092735,-1.6928e-05,-55.98,2.5878
22117,22.249,0.90909,0.1,3.9549e-05,395.22,3.8239e-05,362.95,-1.0069e-05,-0.014062,-1.7798e-05,-58.093,2.5724
22118,22.341,0.63636,0.1,3.6936e-05,369.11,3.5871e-05,342.46,-9.7064e-06,0.003753,-1.6164e-05,-48.514,2.5876
22119,22.249,0.72727,0.1,3.9065e-05,390.38,3.7946e-05,362.37,-1.0282e-05,-0.00035723,-1.707e-05,-51.003,2.5723
22120,22.341,0.45455,0.1,3.6502e-05,364.77,3.5625e-05,342.42,-9.9421e-06,0.03845,-1.5435e-05,-41.231,2.5875
22121,22.249,0.54545,0.1,3.8622e-05,385.95,3.7686e-05,362.11,-1.0506e-05,0.011017,-1.6355e-05,-43.933,2.5721
22122,22.341,0.27273,0.1,3.6357e-05,363.32,3.5621e-05,344.23,-1.0187e-05,0.052525,-1.4931e-05,-35.589,2.5873
22123,22.249,0.36364,0.1,3.827e-05,382.44,3.7501e-05,362.49,-1.0734e-05,0.065436,-1.5698e-05,-37.234,2.5719
22124,22.249,0.18182,0.1,3.8427e-05,384,3.7745e-05,366.11,-1.0978e-05,0.021949,-1.5453e-05,-33.6,2.5717
22125,22.341,0.090909,0.1,3.5029e-05,350.05,3.4589e-05,338.2,-1.0421e-05,0.0048305,-1.3431e-05,-22.613,2.5871
22126,22.156,5.7273,0.1,4.0289e-05,402.61,3.9581e-05,384.03,-1.1524e-05,0.047153,-1.6178e-05,-34.924,2.5563
22127,22.064,5.8182,0.1,4.2393e-05,423.64,4.1729e-05,406.03,-1.2308e-05,0.017373,-1.6738e-05,-33.272,2.5408
22128,22.156,5.9091,0.1,3.8981e-05,389.54,3.8552e-05,377.87,-1.1739e-05,0.006402,-1.4718e-05,-22.38,2.5561
22129,22.156,5.5455,0.1,4.0369e-05,403.41,3.9545e-05,382.05,-1.1298e-05,0.036793,-1.6601e-05,-39.805,2.5565
22130,22.064,5.6364,0.1,4.2181e-05,421.52,4.1449e-05,402.28,-1.2083e-05,0.060967,-1.6909e-05,-36.207,2.541
22131,22.156,5.3636,0.1,4.0734e-05,407.06,3.9748e-05,381.92,-1.1082e-05,0.0055704,-1.7247e-05,-46.319,2.5567
22132,22.064,5.4545,0.1,4.2471e-05,424.41,4.1595e-05,401.75,-1.1872e-05,0.011737,-1.7489e-05,-42.19,2.5412
22133,22.156,5.1818,0.1,4.1164e-05,411.35,4.0004e-05,382.26,-1.0873e-05,-0.0061599,-1.793e-05,-53.032,2.5569
22134,22.064,5.2727,0.1,4.2847e-05,428.18,4.1815e-05,401.84,-1.1667e-05,0.0016917,-1.8127e-05,-48.536,2.5414
22135,22.156,5,0.1,4.1622e-05,415.93,4.0284e-05,382.86,-1.0674e-05,-0.01688,-1.8615e-05,-59.681,2.557
22136,22.064,5.0909,0.1,4.3265e-05,432.35,4.2068e-05,402.25,-1.1471e-05,-0.010853,-1.878e-05,-54.929,2.5415
22137,22.156,4.8182,0.1,4.2086e-05,420.57,4.057e-05,383.6,-1.0487e-05,-0.02449,-1.9281e-05,-66.095,2.5572
22138,22.064,4.9091,0.1,4.37e-05,436.7,4.2336e-05,402.87,-1.1285e-05,-0.019108,-1.9426e-05,-61.184,2.5417
22139,22.156,4.6364,0.1,4.2539e-05,425.1,4.085e-05,384.4,-1.0315e-05,-0.030402,-1.9912e-05,-72.138,2.5573
22140,22.064,4.7273,0.1,4.4133e-05,441.03,4.2605e-05,403.59,-1.1112e-05,-0.02571,-2.0047e-05,-67.158,2.5418
22141,22.156,4.4545,0.1,4.2967e-05,429.38,4.1114e-05,385.2,-1.0158e-05,-0.034904,-2.0496e-05,-77.709,2.5574
22142,22.064,4.5455,0.1,4.4551e-05,445.21,4.2866e-05,404.35,-1.0954e-05,-0.030706,-2.063e-05,-72.738,2.542
22143,22.156,4.2727,0.1,4.336e-05,433.3,4.1356e-05,385.96,-1.0017e-05,-0.038375,-2.1023e-05,-82.734,2.5576
22144,22.064,4.3636,0.1,4.4942e-05,449.11,4.3108e-05,405.09,-1.081e-05,-0.034576,-2.1165e-05,-77.837,2.5421
22145,22.156,4.0909,0.1,4.371e-05,436.8,4.157e-05,386.64,-9.8938e-06,-0.041043,-2.1488e-05,-87.157,2.5577
22146,22.064,4.1818,0.1,4.5296e-05,452.65,4.3328e-05,405.78,-1.0683e-05,-0.037562,-2.1644e-05,-82.392,2.5422
22147,22.156,3.9091,0.1,4.4013e-05,439.83,4.1754e-05,387.23,-9.7886e-06,-0.043083,-2.1887e-05,-90.943,2.5577
22148,22.064,4,0.1,4.5608e-05,455.77,4.3521e-05,406.4,-1.0573e-05,-0.039861,-2.2061e-05,-86.355,2.5423
22149,22.156,3.7273,0.1,4.4264e-05,442.34,4.1907e-05,387.72,-9.7019e-06,-0.044616,-2.2215e-05,-94.066,2.5578
22150,22.064,3.8182,0.1,4.5874e-05,458.42,4.3684e-05,406.93,-1.048e-05,-0.04161,-2.2412e-05,-89.695,2.5423
22151,22.156,3.5455,0.1,4.4462e-05,444.31,4.2027e-05,388.11,-9.6342e-06,-0.045733,-2.2473e-05,-96.508,2.5579
22152,22.064,3.6364,0.1,4.6089e-05,460.57,4.3817e-05,407.36,-1.0406e-05,-0.042909,-2.2696e-05,-92.387,2.5424
22153,22.156,3.3636,0.1,4.4604e-05,445.73,4.2112e-05,388.39,-9.5856e-06,-0.046492,-2.2657e-05,-98.259,2.5579
22154,22.064,3.4545,0.1,4.6252e-05,462.2,4.3916e-05,407.69,-1.0349e-05,-0.043829,-2.291e-05,-94.418,2.5424
22155,22.156,3.1818,0.1,4.469e-05,446.59,4.2164e-05,388.56,-9.5564e-06,-0.046932,-2.2768e-05,-99.312,2.5579
22156,22.064,3.2727,0.1,4.6362e-05,463.3,4.3983e-05,407.91,-1.0312e-05,-0.044419,-2.3053e-05,-95.777,2.5425
22157,22.156,3,0.1,4.4718e-05,446.88,4.2181e-05,388.61,-9.5467e-06,-0.047076,-2.2805e-05,-99.663,2.5579
22158,22.064,3.0909,0.1,4.6417e-05,463.85,4.4017e-05,408.02,-1.0293e-05,-0.044706,-2.3125e-05,-96.457,2.5425
22159,22.156,2.8182,0.1,4.469e-05,446.59,4.2164e-05,388.56,-9.5564e-06,-0.046932,-2.2768e-05,-99.312,2.5579
22160,22.064,2.9091,0.1,4.6417e-05,463.85,4.4017e-05,408.02,-1.0293e-05,-0.044706,-2.3125e-05,-96.457,2.5425
22161,22.156,2.6364,0.1,4.4604e-05,445.73,4.2112e-05,388.39,-9.5856e-06,-0.046492,-2.2657e-05,-98.259,2.5579
22162,22.064,2.7273,0.1,4.6362e-05,463.3,4.3983e-05,407.91,-1.0312e-05,-0.044418,-2.3053e-05,-95.777,2.5425
22163,22.156,2.4545,0.1,4.4462e-05,444.31,4.2027e-05,388.11,-9.6342e-06,-0.045734,-2.2473e-05,-96.508,2.5579
22164,22.064,2.5455,0.1,4.6252e-05,462.2,4.3916e-05,407.69,-1.0349e-05,-0.043829,-2.291e-05,-94.418,2.5424
22165,22.156,2.2727,0.1,4.4264e-05,442.34,4.1907e-05,387.72,-9.7019e-06,-0.044617,-2.2215e-05,-94.066,2.5578
22166,22.064,2.3636,0.1,4.6089e-05,460.57,4.3817e-05,407.36,-1.0406e-05,-0.04291,-2.2696e-05,-92.387,2.5424
22167,22.156,2.0909,0.1,4.4013e-05,439.83,4.1754e-05,387.23,-9.7886e-06,-0.043082,-2.1887e-05,-90.943,2.5577
22168,22.064,2.1818,0.1,4.5874e-05,458.42,4.3684e-05,406.93,-1.048e-05,-0.041609,-2.2412e-05,-89.695,2.5423
22169,22.156,1.9091,0.1,4.371e-05,436.8,4.157e-05,386.64,-9.8938e-06,-0.041043,-2.1488e-05,-87.157,2.5577
22170,22.064,2,0.1,4.5608e-05,455.77,4.3521e-05,406.4,-1.0573e-05,-0.03986,-2.2061e-05,-86.355,2.5423
22171,22.156,1.7273,0.1,4.336e-05,433.3,4.1356e-05,385.96,-1.0017e-05,-0.038376,-2.1023e-05,-82.734,2.5576
22172,22.064,1.8182,0.1,4.5296e-05,452.65,4.3328e-05,405.78,-1.0683e-05,-0.037563,-2.1644e-05,-82.392,2.5422
22173,22.156,1.5455,0.1,4.2967e-05,429.38,4.1114e-05,385.2,-1.0158e-05,-0.034905,-2.0496e-05,-77.709,2.5574
22174,22.064,1.6364,0.1,4.4942e-05,449.11,4.3108e-05,405.09,-1.081e-05,-0.034578,-2.1165e-05,-77.837,2.5421
22175,22.156,1.3636,0.1,4.2539e-05,425.1,4.085e-05,384.4,-1.0315e-05,-0.030403,-1.9912e-05,-72.138,2.5573
22176,22.064,1.4545,0.1,4.4551e-05,445.21,4.2866e-05,404.35,-1.0954e-05,-0.030706,-2.063e-05,-72.738,2.542
22177,22.156,1.1818,0.1,4.2086e-05,420.57,4.057e-05,383.6,-1.0487e-05,-0.024491,-1.9281e-05,-66.095,2.5572
22178,22.064,1.2727,0.1,4.4133e-05,441.03,4.2605e-05,403.59,-1.1112e-05,-0.02571,-2.0047e-05,-67.158,2.5418
22179,22.156,1,0.1,4.1622e-05,415.93,4.0284e-05,382.86,-1.0674e-05,-0.016883,-1.8615e-05,-59.681,2.557
22180,22.064,1.0909,0.1,4.37e-05,436.7,4.2336e-05,402.87,-1.1285e-05,-0.01911,-1.9426e-05,-61.184,2.5417
22181,22.156,0.81818,0.1,4.1164e-05,411.35,4.0004e-05,382.26,-1.0873e-05,-0.0061623,-1.793e-05,-53.031,2.5569
22182,22.064,0.90909,0.1,4.3265e-05,432.35,4.2068e-05,402.25,-1.1471e-05,-0.010854,-1.878e-05,-54.929,2.5415
22183,22.156,0.63636,0.1,4.0734e-05,407.06,3.9748e-05,381.92,-1.1082e-05,0.0055689,-1.7247e-05,-46.319,2.5567
22184,22.064,0.72727,0.1,4.2847e-05,428.18,4.1815e-05,401.84,-1.1667e-05,0.0016907,-1.8127e-05,-48.536,2.5414
22185,22.156,0.45455,0.1,4.0369e-05,403.41,3.9545e-05,382.05,-1.1298e-05,0.036792,-1.6601e-05,-39.805,2.5565
22186,22.064,0.54545,0.1,4.2471e-05,424.41,4.1595e-05,401.75,-1.1872e-05,0.011736,-1.7489e-05,-42.19,2.5412
22187,22.156,0.27273,0.1,4.0289e-05,402.61,3.9581e-05,384.03,-1.1524e-05,0.047151,-1.6178e-05,-34.924,2.5563
22188,22.064,0.36364,0.1,4.2181e-05,421.52,4.1449e-05,402.28,-1.2083e-05,0.060969,-1.6909e-05,-36.207,2.541
22189,22.064,0.18182,0.1,4.2393e-05,423.64,4.1729e-05,406.03,-1.2308e-05,0.017369,-1.6738e-05,-33.272,2.5408
22190,22.156,0.090909,0.1,3.8981e-05,389.54,3.8552e-05,377.87,-1.1739e-05,0.0063964,-1.4718e-05,-22.38,2.5561
22191,21.972,5.7273,0.1,4.4237e-05,442.07,4.3555e-05,423.96,-1.2865e-05,0.04251,-1.743e-05,-34.254,2.5254
22192,21.88,5.8182,0.1,4.637e-05,463.38,4.5723e-05,446.07,-1.3643e-05,0.013725,-1.8023e-05,-32.895,2.5099
22193,21.972,5.9091,0.1,4.295e-05,429.21,4.2531e-05,417.72,-1.3063e-05,0.0074263,-1.6008e-05,-22.116,2.5252
22194,21.972,5.5455,0.1,4.4264e-05,442.33,4.3484e-05,421.85,-1.2657e-05,0.03501,-1.7782e-05,-38.474,2.5256
22195,21.88,5.6364,0.1,4.6113e-05,460.81,4.5413e-05,442.21,-1.3434e-05,0.056827,-1.813e-05,-35.223,2.5101
22196,21.972,5.3636,0.1,4.4569e-05,445.38,4.3649e-05,421.57,-1.2458e-05,0.0067552,-1.8356e-05,-44.312,2.5258
22197,21.88,5.4545,0.1,4.6349e-05,463.17,4.5526e-05,441.56,-1.324e-05,0.012046,-1.8642e-05,-40.578,2.5103
22198,21.972,5.1818,0.1,4.4936e-05,449.05,4.3867e-05,421.75,-1.2265e-05,-0.003854,-1.8966e-05,-50.353,2.526
22199,21.88,5.2727,0.1,4.6669e-05,466.36,4.5709e-05,441.5,-1.3051e-05,0.0031259,-1.9211e-05,-46.283,2.5105
22200,21.972,5,0.1,4.5333e-05,453.02,4.411e-05,422.2,-1.2082e-05,-0.013747,-1.9582e-05,-56.365,2.5262
22201,21.88,5.0909,0.1,4.7028e-05,469.95,4.5925e-05,441.76,-1.287e-05,-0.0083922,-1.9796e-05,-52.049,2.5107
22202,21.972,4.8182,0.1,4.574e-05,457.09,4.4363e-05,422.8,-1.191e-05,-0.020867,-2.0185e-05,-62.191,2.5263
22203,21.88,4.9091,0.1,4.7406e-05,473.74,4.616e-05,442.23,-1.2699e-05,-0.016072,-2.0379e-05,-57.716,2.5108
22204,21.972,4.6364,0.1,4.6141e-05,461.09,4.4615e-05,423.48,-1.1751e-05,-0.026465,-2.076e-05,-67.711,2.5265
22205,21.88,4.7273,0.1,4.7788e-05,477.55,4.6399e-05,442.82,-1.254e-05,-0.02229,-2.0942e-05,-63.154,2.511
22206,21.972,4.4545,0.1,4.6524e-05,464.91,4.4854e-05,424.19,-1.1606e-05,-0.030771,-2.1295e-05,-72.825,2.5266
22207,21.88,4.5455,0.1,4.8159e-05,481.26,4.6633e-05,443.47,-1.2393e-05,-0.027048,-2.1474e-05,-68.258,2.5111
22208,21.972,4.2727,0.1,4.6877e-05,468.45,4.5076e-05,424.88,-1.1476e-05,-0.034117,-2.1781e-05,-77.46,2.5267
22209,21.88,4.3636,0.1,4.8508e-05,484.75,4.6854e-05,444.13,-1.2261e-05,-0.030766,-2.1965e-05,-72.945,2.5112
22210,21.972,4.0909,0.1,4.7195e-05,471.62,4.5275e-05,425.51,-1.1362e-05,-0.036706,-2.2212e-05,-81.558,2.5268
22211,21.88,4.1818,0.1,4.8828e-05,487.94,4.7055e-05,444.76,-1.2143e-05,-0.033656,-2.2406e-05,-77.148,2.5113
22212,21.972,3.9091,0.1,4.7471e-05,474.38,4.5447e-05,426.07,-1.1264e-05,-0.038695,-2.2582e-05,-85.078,2.5269
22213,21.88,4,0.1,4.9111e-05,490.77,4.7234e-05,445.33,-1.2041e-05,-0.035892,-2.2793e-05,-80.82,2.5114
22214,21.972,3.7273,0.1,4.7701e-05,476.68,4.5591e-05,426.54,-1.1184e-05,-0.040197,-2.2889e-05,-87.99,2.5269
22215,21.88,3.8182,0.1,4.9353e-05,493.19,4.7386e-05,445.83,-1.1955e-05,-0.037602,-2.3119e-05,-83.923,2.5115
22216,21.972,3.5455,0.1,4.7883e-05,478.5,4.5703e-05,426.91,-1.1121e-05,-0.041291,-2.313e-05,-90.273,2.527
22217,21.88,3.6364,0.1,4.955e-05,495.16,4.751e-05,446.24,-1.1886e-05,-0.038876,-2.3384e-05,-86.432,2.5116
22218,21.972,3.3636,0.1,4.8014e-05,479.8,4.5785e-05,427.18,-1.1076e-05,-0.042036,-2.3303e-05,-91.913,2.527
22219,21.88,3.4545,0.1,4.97e-05,496.66,4.7604e-05,446.55,-1.1834e-05,-0.039781,-2.3584e-05,-88.328,2.5116
22220,21.972,3.1818,0.1,4.8093e-05,480.59,4.5833e-05,427.35,-1.1049e-05,-0.042471,-2.3407e-05,-92.9,2.5271
22221,21.88,3.2727,0.1,4.9801e-05,497.66,4.7667e-05,446.76,-1.1799e-05,-0.040361,-2.3718e-05,-89.598,2.5116
22222,21.972,3,0.1,4.8119e-05,480.86,4.585e-05,427.4,-1.104e-05,-0.042612,-2.3442e-05,-93.229,2.5271
22223,21.88,3.0909,0.1,4.9851e-05,498.17,4.7699e-05,446.87,-1.1781e-05,-0.040644,-2.3785e-05,-90.235,2.5117
22224,21.972,2.8182,0.1,4.8093e-05,480.59,4.5833e-05,427.35,-1.1049e-05,-0.04247,-2.3407e-05,-92.9,2.5271
22225,21.88,2.9091,0.1,4.9851e-05,498.17,4.7699e-05,446.87,-1.1781e-05,-0.040644,-2.3785e-05,-90.235,2.5117
22226,21.972,2.6364,0.1,4.8014e-05,479.8,4.5785e-05,427.18,-1.1076e-05,-0.042036,-2.3303e-05,-91.913,2.527
22227,21.88,2.7273,0.1,4.9801e-05,497.66,4.7667e-05,446.76,-1.1799e-05,-0.040361,-2.3718e-05,-89.598,2.5116
22228,21.972,2.4545,0.1,4.7883e-05,478.5,4.5703e-05,426.91,-1.1121e-05,-0.041291,-2.313e-05,-90.273,2.527
22229,21.88,2.5455,0.1,4.97e-05,496.66,4.7604e-05,446.55,-1.1834e-05,-0.039781,-2.3584e-05,-88.328,2.5116
22230,21.972,2.2727,0.1,4.7701e-05,476.68,4.5591e-05,426.54,-1.1184e-05,-0.040196,-2.2889e-05,-87.99,2.5269
22231,21.88,2.3636,0.1,4.955e-05,495.16,4.751e-05,446.24,-1.1886e-05,-0.038876,-2.3384e-05,-86.432,2.5116
22232,21.972,2.0909,0.1,4.7471e-05,474.38,4.5447e-05,426.07,-1.1264e-05,-0.038694,-2.2582e-05,-85.078,2.5269
22233,21.88,2.1818,0.1,4.9353e-05,493.19,4.7386e-05,445.83,-1.1955e-05,-0.037601,-2.3119e-05,-83.923,2.5115
22234,21.972,1.9091,0.1,4.7195e-05,471.62,4.5275e-05,425.51,-1.1362e-05,-0.036707,-2.2212e-05,-81.558,2.5268
22235,21.88,2,0.1,4.9111e-05,490.77,4.7234e-05,445.33,-1.2041e-05,-0.035892,-2.2793e-05,-80.82,2.5114
22236,21.972,1.7273,0.1,4.6877e-05,468.45,4.5076e-05,424.88,-1.1476e-05,-0.034119,-2.1781e-05,-77.46,2.5267
22237,21.88,1.8182,0.1,4.8828e-05,487.94,4.7056e-05,444.76,-1.2143e-05,-0.033656,-2.2406e-05,-77.148,2.5113
22238,21.972,1.5455,0.1,4.6524e-05,464.91,4.4854e-05,424.19,-1.1606e-05,-0.030771,-2.1295e-05,-72.825,2.5266
22239,21.88,1.6364,0.1,4.8508e-05,484.75,4.6854e-05,444.13,-1.2261e-05,-0.030766,-2.1965e-05,-72.945,2.5112
22240,21.972,1.3636,0.1,4.6141e-05,461.09,4.4615e-05,423.48,-1.1751e-05,-0.026465,-2.0759e-05,-67.711,2.5265
22241,21.88,1.4545,0.1,4.8159e-05,481.26,4.6633e-05,443.47,-1.2393e-05,-0.027048,-2.1474e-05,-68.258,2.5111
22242,21.972,1.1818,0.1,4.574e-05,457.09,4.4363e-05,422.8,-1.191e-05,-0.020867,-2.0185e-05,-62.191,2.5263
22243,21.88,1.2727,0.1,4.7788e-05,477.55,4.6399e-05,442.82,-1.254e-05,-0.02229,-2.0942e-05,-63.154,2.511
22244,21.972,1,0.1,4.5333e-05,453.02,4.411e-05,422.2,-1.2082e-05,-0.013748,-1.9582e-05,-56.364,2.5262
22245,21.88,1.0909,0.1,4.7406e-05,473.74,4.616e-05,442.23,-1.2699e-05,-0.016073,-2.0379e-05,-57.716,2.5108
22246,21.972,0.81818,0.1,4.4936e-05,449.05,4.3867e-05,421.75,-1.2265e-05,-0.0038532,-1.8966e-05,-50.353,2.526
22247,21.88,0.90909,0.1,4.7028e-05,469.95,4.5925e-05,441.76,-1.287e-05,-0.0083914,-1.9796e-05,-52.049,2.5107
22248,21.972,0.63636,0.1,4.4569e-05,445.38,4.3649e-05,421.57,-1.2458e-05,0.0067555,-1.8356e-05,-44.312,2.5258
22249,21.88,0.72727,0.1,4.6669e-05,466.36,4.5709e-05,441.5,-1.3051e-05,0.0031265,-1.9211e-05,-46.283,2.5105
22250,21.972,0.45455,0.1,4.4264e-05,442.33,4.3484e-05,421.85,-1.2657e-05,0.035012,-1.7782e-05,-38.474,2.5256
22251,21.88,0.54545,0.1,4.6349e-05,463.17,4.5526e-05,441.56,-1.324e-05,0.012047,-1.8642e-05,-40.578,2.5103
22252,21.972,0.27273,0.1,4.4237e-05,442.07,4.3555e-05,423.96,-1.2865e-05,0.042511,-1.743e-05,-34.254,2.5254
22253,21.88,0.36364,0.1,4.6113e-05,460.81,4.5413e-05,442.21,-1.3434e-05,0.05683,-1.813e-05,-35.223,2.5101
22254,21.88,0.18182,0.1,4.637e-05,463.38,4.5723e-05,446.07,-1.3643e-05,0.013724,-1.8023e-05,-32.895,2.5099
22255,21.972,0.090909,0.1,4.295e-05,429.21,4.2531e-05,417.72,-1.3063e-05,0.0074261,-1.6008e-05,-22.116,2.5252
22256,21.788,5.7273,0.1,4.8201e-05,481.68,4.7542e-05,464.02,-1.4211e-05,0.038475,-1.8685e-05,-33.582,2.4946
22257,21.695,5.8182,0.1,5.036e-05,503.25,4.9729e-05,486.23,-1.4983e-05,0.010798,-1.9307e-05,-32.481,2.479
22258,21.788,5.9091,0.1,4.6935e-05,469.03,4.6526e-05,457.74,-1.4394e-05,0.0080755,-1.73e-05,-21.827,2.4943
22259,21.788,5.5455,0.1,4.8181e-05,481.48,4.744e-05,461.81,-1.4018e-05,0.033195,-1.8976e-05,-37.22,2.4948
22260,21.695,5.6364,0.1,5.0063e-05,500.28,4.9392e-05,482.29,-1.4789e-05,0.05301,-1.9358e-05,-34.277,2.4792
22261,21.788,5.3636,0.1,4.8435e-05,484.02,4.7573e-05,461.39,-1.3834e-05,0.0074985,-1.9486e-05,-42.46,2.495
22262,21.695,5.4545,0.1,5.0254e-05,502.2,4.9475e-05,481.52,-1.461e-05,0.012085,-1.9812e-05,-39.075,2.4794
22263,21.788,5.1818,0.1,4.8749e-05,487.15,4.7757e-05,461.43,-1.3656e-05,-0.0021355,-2.0031e-05,-47.902,2.4951
22264,21.695,5.2727,0.1,5.0523e-05,504.89,4.9626e-05,481.33,-1.4435e-05,0.0041219,-2.0319e-05,-44.208,2.4796
22265,21.788,5,0.1,4.9091e-05,490.58,4.7966e-05,461.72,-1.3487e-05,-0.011287,-2.0584e-05,-53.335,2.4953
22266,21.695,5.0909,0.1,5.0831e-05,507.96,4.981e-05,481.45,-1.4268e-05,-0.0064849,-2.0843e-05,-49.412,2.4798
22267,21.788,4.8182,0.1,4.9447e-05,494.13,4.8188e-05,462.19,-1.3329e-05,-0.017957,-2.1129e-05,-58.623,2.4955
22268,21.695,4.9091,0.1,5.1159e-05,511.24,5.0013e-05,481.78,-1.411e-05,-0.013644,-2.1367e-05,-54.542,2.48
22269,21.788,4.6364,0.1,4.98e-05,497.66,4.8411e-05,462.76,-1.3182e-05,-0.023258,-2.1651e-05,-63.654,2.4956
22270,21.695,4.7273,0.1,5.1494e-05,514.58,5.0223e-05,482.25,-1.3963e-05,-0.019505,-2.1877e-05,-59.485,2.4801
22271,21.788,4.4545,0.1,5.014e-05,501.05,4.8626e-05,463.37,-1.3048e-05,-0.027376,-2.2139e-05,-68.336,2.4957
22272,21.695,4.5455,0.1,5.1822e-05,517.86,5.0431e-05,482.79,-1.3827e-05,-0.024034,-2.2361e-05,-64.143,2.4803
22273,21.788,4.2727,0.1,5.0457e-05,504.22,4.8828e-05,463.98,-1.2928e-05,-0.030602,-2.2585e-05,-72.596,2.4959
22274,21.695,4.3636,0.1,5.2133e-05,520.97,5.063e-05,483.36,-1.3705e-05,-0.027607,-2.2809e-05,-68.437,2.4804
22275,21.788,4.0909,0.1,5.0743e-05,507.08,4.901e-05,464.55,-1.2822e-05,-0.033113,-2.2983e-05,-76.377,2.496
22276,21.695,4.1818,0.1,5.2419e-05,523.83,5.0813e-05,483.91,-1.3596e-05,-0.030401,-2.3214e-05,-72.303,2.4805
22277,21.788,3.9091,0.1,5.0993e-05,509.58,4.9169e-05,465.06,-1.2731e-05,-0.035053,-2.3325e-05,-79.635,2.4961
22278,21.695,4,0.1,5.2675e-05,526.38,5.0977e-05,484.43,-1.3501e-05,-0.032576,-2.357e-05,-75.691,2.4806
22279,21.788,3.7273,0.1,5.1203e-05,511.68,4.9302e-05,465.5,-1.2657e-05,-0.036523,-2.361e-05,-82.338,2.4961
22280,21.695,3.8182,0.1,5.2894e-05,528.58,5.1117e-05,484.88,-1.3421e-05,-0.034249,-2.3873e-05,-78.563,2.4807
22281,21.788,3.5455,0.1,5.1369e-05,513.33,4.9408e-05,465.85,-1.2598e-05,-0.037599,-2.3834e-05,-84.461,2.4962
22282,21.695,3.6364,0.1,5.3073e-05,530.37,5.1232e-05,485.26,-1.3357e-05,-0.035497,-2.4118e-05,-80.89,2.4808
22283,21.788,3.3636,0.1,5.1489e-05,514.53,4.9484e-05,466.1,-1.2556e-05,-0.038333,-2.3996e-05,-85.989,2.4962
22284,21.695,3.4545,0.1,5.321e-05,531.73,5.1319e-05,485.55,-1.3309e-05,-0.036387,-2.4304e-05,-82.651,2.4808
22285,21.788,3.1818,0.1,5.1561e-05,515.26,4.9529e-05,466.26,-1.2531e-05,-0.038758,-2.4093e-05,-86.91,2.4962
22286,21.695,3.2727,0.1,5.3302e-05,532.65,5.1378e-05,485.75,-1.3276e-05,-0.036958,-2.4429e-05,-83.833,2.4808
22287,21.788,3,0.1,5.1585e-05,515.5,4.9545e-05,466.31,-1.2523e-05,-0.038899,-2.4125e-05,-87.217,2.4962
22288,21.695,3.0909,0.1,5.3348e-05,533.11,5.1408e-05,485.85,-1.326e-05,-0.037237,-2.4491e-05,-84.426,2.4809
22289,21.788,2.8182,0.1,5.1561e-05,515.26,4.9529e-05,466.26,-1.2531e-05,-0.03876,-2.4093e-05,-86.91,2.4962
22290,21.695,2.9091,0.1,5.3348e-05,533.11,5.1408e-05,485.85,-1.326e-05,-0.037238,-2.4491e-05,-84.426,2.4809
22291,21.788,2.6364,0.1,5.1489e-05,514.53,4.9484e-05,466.1,-1.2556e-05,-0.038333,-2.3996e-05,-85.989,2.4962
22292,21.695,2.7273,0.1,5.3302e-05,532.65,5.1378e-05,485.75,-1.3276e-05,-0.03696,-2.4429e-05,-83.833,2.4808
22293,21.788,2.4545,0.1,5.1369e-05,513.33,4.9408e-05,465.85,-1.2598e-05,-0.037599,-2.3834e-05,-84.461,2.4962
22294,21.695,2.5455,0.1,5.321e-05,531.73,5.1319e-05,485.55,-1.3309e-05,-0.036387,-2.4304e-05,-82.651,2.4808
22295,21.788,2.2727,0.1,5.1203e-05,511.68,4.9302e-05,465.5,-1.2657e-05,-0.036523,-2.361e-05,-82.338,2.4961
22296,21.695,2.3636,0.1,5.3073e-05,530.37,5.1232e-05,485.26,-1.3357e-05,-0.035497,-2.4118e-05,-80.89,2.4808
22297,21.788,2.0909,0.1,5.0993e-05,509.58,4.9169e-05,465.06,-1.2731e-05,-0.035053,-2.3325e-05,-79.635,2.4961
22298,21.695,2.1818,0.1,5.2894e-05,528.58,5.1117e-05,484.88,-1.3421e-05,-0.034247,-2.3873e-05,-78.562,2.4807
22299,21.788,1.9091,0.1,5.0743e-05,507.08,4.901e-05,464.55,-1.2822e-05,-0.033114,-2.2983e-05,-76.377,2.496
22300,21.695,2,0.1,5.2675e-05,526.38,5.0977e-05,484.43,-1.3501e-05,-0.032578,-2.357e-05,-75.691,2.4806
22301,21.788,1.7273,0.1,5.0457e-05,504.22,4.8828e-05,463.98,-1.2928e-05,-0.030601,-2.2585e-05,-72.596,2.4959
22302,21.695,1.8182,0.1,5.2419e-05,523.83,5.0813e-05,483.91,-1.3596e-05,-0.0304,-2.3214e-05,-72.303,2.4805
22303,21.788,1.5455,0.1,5.014e-05,501.05,4.8626e-05,463.37,-1.3048e-05,-0.027376,-2.2139e-05,-68.336,2.4957
22304,21.695,1.6364,0.1,5.2133e-05,520.97,5.063e-05,483.36,-1.3705e-05,-0.027606,-2.2809e-05,-68.437,2.4804
22305,21.788,1.3636,0.1,4.98e-05,497.66,4.8411e-05,462.76,-1.3182e-05,-0.023259,-2.1651e-05,-63.653,2.4956
22306,21.695,1.4545,0.1,5.1822e-05,517.86,5.0431e-05,482.79,-1.3827e-05,-0.024035,-2.2361e-05,-64.143,2.4803
22307,21.788,1.1818,0.1,4.9447e-05,494.13,4.8188e-05,462.19,-1.3329e-05,-0.017958,-2.1129e-05,-58.623,2.4955
22308,21.695,1.2727,0.1,5.1494e-05,514.58,5.0223e-05,482.25,-1.3963e-05,-0.019505,-2.1877e-05,-59.485,2.4801
22309,21.788,1,0.1,4.9091e-05,490.58,4.7966e-05,461.72,-1.3487e-05,-0.011287,-2.0584e-05,-53.335,2.4953
22310,21.695,1.0909,0.1,5.1159e-05,511.24,5.0013e-05,481.78,-1.411e-05,-0.013644,-2.1367e-05,-54.542,2.48
22311,21.788,0.81818,0.1,4.8749e-05,487.15,4.7757e-05,461.43,-1.3656e-05,-0.0021351,-2.0031e-05,-47.902,2.4951
22312,21.695,0.90909,0.1,5.0831e-05,507.96,4.981e-05,481.45,-1.4268e-05,-0.0064877,-2.0843e-05,-49.411,2.4798
22313,21.788,0.63636,0.1,4.8435e-05,484.02,4.7573e-05,461.39,-1.3834e-05,0.0074999,-1.9486e-05,-42.46,2.495
22314,21.695,0.72727,0.1,5.0523e-05,504.89,4.9626e-05,481.33,-1.4435e-05,0.0041213,-2.0319e-05,-44.208,2.4796
22315,21.788,0.45455,0.1,4.8181e-05,481.48,4.744e-05,461.81,-1.4018e-05,0.033196,-1.8976e-05,-37.22,2.4948
22316,21.695,0.54545,0.1,5.0254e-05,502.2,4.9475e-05,481.52,-1.461e-05,0.012085,-1.9812e-05,-39.075,2.4794
22317,21.788,0.27273,0.1,4.8201e-05,481.68,4.7542e-05,464.02,-1.4211e-05,0.038476,-1.8685e-05,-33.582,2.4946
22318,21.695,0.36364,0.1,5.0063e-05,500.28,4.9392e-05,482.29,-1.4789e-05,0.053013,-1.9358e-05,-34.277,2.4792
22319,21.695,0.18182,0.1,5.036e-05,503.25,4.9729e-05,486.23,-1.4983e-05,0.010798,-1.9307e-05,-32.481,2.479
22320,21.788,0.090909,0.1,4.6935e-05,469.03,4.6526e-05,457.74,-1.4394e-05,0.0080793,-1.73e-05,-21.827,2.4943
22321,21.603,5.7273,0.1,5.2179e-05,521.43,5.1542e-05,504.21,-1.556e-05,0.034952,-1.9945e-05,-32.908,2.4637
22322,21.511,5.8182,0.1,5.4361e-05,543.23,5.3745e-05,526.51,-1.6328e-05,0.0084385,-2.0593e-05,-32.036,2.4482
22323,21.603,5.9091,0.1,5.0936e-05,509,5.0535e-05,497.91,-1.5731e-05,0.0084571,-1.8596e-05,-21.519,2.4635
22324,21.603,5.5455,0.1,5.212e-05,520.84,5.1414e-05,501.9,-1.5381e-05,0.031407,-2.0181e-05,-36.033,2.4639
22325,21.511,5.6364,0.1,5.403e-05,539.93,5.3386e-05,522.5,-1.6148e-05,0.049502,-2.0595e-05,-33.363,2.4484
22326,21.603,5.3636,0.1,5.2329e-05,522.93,5.1517e-05,501.38,-1.5211e-05,0.0079369,-2.0634e-05,-40.741,2.4641
22327,21.511,5.4545,0.1,5.4182e-05,541.45,5.3443e-05,521.64,-1.5981e-05,0.011951,-2.0995e-05,-37.665,2.4486
22328,21.603,5.1818,0.1,5.2595e-05,525.59,5.167e-05,501.28,-1.5046e-05,-0.00084692,-2.1121e-05,-45.645,2.4643
22329,21.511,5.2727,0.1,5.4408e-05,543.7,5.3565e-05,521.33,-1.5819e-05,0.0048071,-2.1447e-05,-42.288,2.4488
22330,21.603,5,0.1,5.289e-05,528.53,5.1848e-05,501.44,-1.489e-05,-0.0093353,-2.1618e-05,-50.555,2.4645
22331,21.511,5.0909,0.1,5.467e-05,546.32,5.3719e-05,521.31,-1.5664e-05,-0.0049909,-2.1917e-05,-46.983,2.449
22332,21.603,4.8182,0.1,5.3199e-05,531.62,5.204e-05,501.78,-1.4744e-05,-0.015594,-2.2108e-05,-55.349,2.4647
22333,21.511,4.9091,0.1,5.4953e-05,549.15,5.3893e-05,521.51,-1.5518e-05,-0.011676,-2.2388e-05,-51.626,2.4492
22334,21.603,4.6364,0.1,5.3509e-05,534.72,5.2237e-05,502.23,-1.4608e-05,-0.020616,-2.2581e-05,-59.926,2.4648
22335,21.511,4.7273,0.1,5.5245e-05,552.07,5.4076e-05,521.86,-1.5382e-05,-0.017205,-2.2848e-05,-56.113,2.4493
22336,21.603,4.4545,0.1,5.381e-05,537.73,5.2429e-05,502.73,-1.4484e-05,-0.024553,-2.3025e-05,-64.202,2.4649
22337,21.511,4.5455,0.1,5.5533e-05,554.95,5.4259e-05,522.29,-1.5257e-05,-0.02152,-2.3287e-05,-60.356,2.4495
22338,21.603,4.2727,0.1,5.4092e-05,540.55,5.261e-05,503.26,-1.4373e-05,-0.027662,-2.3433e-05,-68.106,2.4651
22339,21.511,4.3636,0.1,5.5809e-05,557.7,5.4437e-05,522.77,-1.5143e-05,-0.024948,-2.3695e-05,-64.28,2.4496
22340,21.603,4.0909,0.1,5.4349e-05,543.11,5.2776e-05,503.76,-1.4275e-05,-0.030096,-2.3798e-05,-71.582,2.4652
22341,21.511,4.1818,0.1,5.6065e-05,560.26,5.4602e-05,523.25,-1.5042e-05,-0.02765,-2.4065e-05,-67.824,2.4497
22342,21.603,3.9091,0.1,5.4574e-05,545.36,5.2921e-05,504.22,-1.4191e-05,-0.031987,-2.4113e-05,-74.587,2.4653
22343,21.511,4,0.1,5.6294e-05,562.55,5.475e-05,523.7,-1.4954e-05,-0.029766,-2.4392e-05,-70.939,2.4498
22344,21.603,3.7273,0.1,5.4764e-05,547.26,5.3043e-05,504.62,-1.4122e-05,-0.033426,-2.4377e-05,-77.085,2.4653
22345,21.511,3.8182,0.1,5.6491e-05,564.52,5.4878e-05,524.11,-1.4881e-05,-0.031398,-2.467e-05,-73.587,2.4499
22346,21.603,3.5455,0.1,5.4914e-05,548.76,5.314e-05,504.94,-1.4067e-05,-0.034481,-2.4584e-05,-79.052,2.4654
22347,21.511,3.6364,0.1,5.6653e-05,566.14,5.4983e-05,524.45,-1.4821e-05,-0.032623,-2.4896e-05,-75.736,2.45
22348,21.603,3.3636,0.1,5.5023e-05,549.85,5.321e-05,505.17,-1.4028e-05,-0.035204,-2.4733e-05,-80.469,2.4654
22349,21.511,3.4545,0.1,5.6777e-05,567.38,5.5063e-05,524.71,-1.4776e-05,-0.033497,-2.5068e-05,-77.366,2.45
22350,21.603,3.1818,0.1,5.5089e-05,550.51,5.3253e-05,505.31,-1.4005e-05,-0.035625,-2.4824e-05,-81.324,2.4655
22351,21.511,3.2727,0.1,5.686e-05,568.21,5.5117e-05,524.89,-1.4746e-05,-0.03406,-2.5184e-05,-78.461,2.4501
22352,21.603,3,0.1,5.5112e-05,550.73,5.3267e-05,505.36,-1.3997e-05,-0.035763,-2.4854e-05,-81.609,2.4655
22353,21.511,3.0909,0.1,5.6903e-05,568.63,5.5145e-05,524.98,-1.4731e-05,-0.034335,-2.5242e-05,-79.011,2.4501
22354,21.603,2.8182,0.1,5.5089e-05,550.51,5.3253e-05,505.31,-1.4005e-05,-0.035626,-2.4824e-05,-81.324,2.4655
22355,21.511,2.9091,0.1,5.6903e-05,568.63,5.5145e-05,524.98,-1.4731e-05,-0.034336,-2.5242e-05,-79.011,2.4501
22356,21.603,2.6364,0.1,5.5023e-05,549.85,5.321e-05,505.17,-1.4028e-05,-0.035205,-2.4733e-05,-80.469,2.4654
22357,21.511,2.7273,0.1,5.686e-05,568.21,5.5117e-05,524.89,-1.4746e-05,-0.034061,-2.5184e-05,-78.461,2.4501
22358,21.603,2.4545,0.1,5.4914e-05,548.76,5.314e-05,504.94,-1.4067e-05,-0.034481,-2.4584e-05,-79.052,2.4654
22359,21.511,2.5455,0.1,5.6777e-05,567.38,5.5063e-05,524.71,-1.4776e-05,-0.033497,-2.5068e-05,-77.366,2.45
22360,21.603,2.2727,0.1,5.4764e-05,547.26,5.3043e-05,504.62,-1.4122e-05,-0.033425,-2.4377e-05,-77.085,2.4653
22361,21.511,2.3636,0.1,5.6653e-05,566.14,5.4983e-05,524.45,-1.4821e-05,-0.032622,-2.4896e-05,-75.736,2.45
22362,21.603,2.0909,0.1,5.4574e-05,545.36,5.2921e-05,504.22,-1.4191e-05,-0.031987,-2.4113e-05,-74.587,2.4653
22363,21.511,2.1818,0.1,5.6491e-05,564.52,5.4878e-05,524.11,-1.4881e-05,-0.031398,-2.467e-05,-73.587,2.4499
22364,21.603,1.9091,0.1,5.4349e-05,543.11,5.2776e-05,503.76,-1.4275e-05,-0.030096,-2.3798e-05,-71.582,2.4652
22365,21.511,2,0.1,5.6294e-05,562.55,5.475e-05,523.7,-1.4954e-05,-0.029765,-2.4392e-05,-70.939,2.4498
22366,21.603,1.7273,0.1,5.4092e-05,540.55,5.261e-05,503.26,-1.4373e-05,-0.027661,-2.3433e-05,-68.106,2.4651
22367,21.511,1.8182,0.1,5.6065e-05,560.26,5.4602e-05,523.25,-1.5042e-05,-0.02765,-2.4065e-05,-67.824,2.4497
22368,21.603,1.5455,0.1,5.381e-05,537.73,5.2429e-05,502.73,-1.4484e-05,-0.024553,-2.3025e-05,-64.202,2.4649
22369,21.511,1.6364,0.1,5.5809e-05,557.7,5.4437e-05,522.77,-1.5143e-05,-0.024949,-2.3695e-05,-64.28,2.4496
22370,21.603,1.3636,0.1,5.3509e-05,534.72,5.2237e-05,502.23,-1.4608e-05,-0.020616,-2.2581e-05,-59.926,2.4648
22371,21.511,1.4545,0.1,5.5533e-05,554.95,5.4259e-05,522.29,-1.5257e-05,-0.021519,-2.3287e-05,-60.356,2.4495
22372,21.603,1.1818,0.1,5.3199e-05,531.62,5.204e-05,501.78,-1.4744e-05,-0.015593,-2.2108e-05,-55.349,2.4647
22373,21.511,1.2727,0.1,5.5245e-05,552.07,5.4076e-05,521.86,-1.5382e-05,-0.017206,-2.2848e-05,-56.113,2.4493
22374,21.603,1,0.1,5.289e-05,528.53,5.1848e-05,501.44,-1.489e-05,-0.009338,-2.1617e-05,-50.555,2.4645
22375,21.511,1.0909,0.1,5.4953e-05,549.15,5.3893e-05,521.51,-1.5518e-05,-0.011676,-2.2388e-05,-51.626,2.4492
22376,21.603,0.81818,0.1,5.2595e-05,525.59,5.167e-05,501.28,-1.5046e-05,-0.00085079,-2.1121e-05,-45.645,2.4643
22377,21.511,0.90909,0.1,5.467e-05,546.32,5.3719e-05,521.31,-1.5664e-05,-0.004993,-2.1917e-05,-46.983,2.449
22378,21.603,0.63636,0.1,5.233e-05,522.93,5.1517e-05,501.38,-1.5211e-05,0.0079352,-2.0634e-05,-40.741,2.4641
22379,21.511,0.72727,0.1,5.4408e-05,543.7,5.3565e-05,521.33,-1.5819e-05,0.0048046,-2.1447e-05,-42.288,2.4488
22380,21.603,0.45455,0.1,5.212e-05,520.84,5.1414e-05,501.9,-1.5381e-05,0.031409,-2.0181e-05,-36.033,2.4639
22381,21.511,0.54545,0.1,5.4182e-05,541.45,5.3443e-05,521.64,-1.5981e-05,0.01195,-2.0995e-05,-37.665,2.4486
22382,21.603,0.27273,0.1,5.2179e-05,521.43,5.1542e-05,504.21,-1.556e-05,0.034953,-1.9945e-05,-32.908,2.4637
22383,21.511,0.36364,0.1,5.403e-05,539.93,5.3386e-05,522.5,-1.6148e-05,0.049505,-2.0595e-05,-33.363,2.4484
22384,21.511,0.18182,0.1,5.4361e-05,543.23,5.3745e-05,526.51,-1.6328e-05,0.0084397,-2.0593e-05,-32.036,2.4482
22385,21.603,0.090909,0.1,5.0936e-05,509,5.0535e-05,497.91,-1.5731e-05,0.0084525,-1.8596e-05,-21.519,2.4635
22386,21.419,5.7273,0.1,5.6171e-05,561.33,5.5554e-05,544.53,-1.6914e-05,0.031867,-2.1209e-05,-32.236,2.4329
22387,21.327,5.8182,0.1,5.8373e-05,583.33,5.7772e-05,566.91,-1.7678e-05,0.006534,-2.188e-05,-31.569,2.4174
22388,21.419,5.9091,0.1,5.495e-05,549.13,5.4559e-05,538.22,-1.7073e-05,0.0086547,-1.9895e-05,-21.198,2.4327
22389,21.419,5.5455,0.1,5.6078e-05,560.4,5.5403e-05,542.14,-1.6747e-05,0.029689,-2.1397e-05,-34.904,2.4331
22390,21.327,5.6364,0.1,5.8015e-05,579.75,5.7395e-05,562.85,-1.751e-05,0.046286,-2.1839e-05,-32.481,2.4176
22391,21.419,5.3636,0.1,5.6249e-05,562.1,5.5481e-05,541.51,-1.6589e-05,0.008169,-2.1799e-05,-39.135,2.4333
22392,21.327,5.4545,0.1,5.8132e-05,580.92,5.7429e-05,561.9,-1.7354e-05,0.01171,-2.2192e-05,-36.338,2.4178
22393,21.419,5.1818,0.1,5.6472e-05,564.33,5.5605e-05,541.29,-1.6437e-05,0.00012867,-2.2234e-05,-43.557,2.4335
22394,21.327,5.2727,0.1,5.8319e-05,582.79,5.7524e-05,561.48,-1.7204e-05,0.0052704,-2.2595e-05,-40.501,2.4181
22395,21.419,5,0.1,5.6724e-05,566.85,5.5755e-05,541.33,-1.6292e-05,-0.0077623,-2.2678e-05,-47.992,2.4337
22396,21.327,5.0909,0.1,5.8541e-05,585.01,5.7651e-05,561.35,-1.706e-05,-0.0038062,-2.3014e-05,-44.738,2.4182
22397,21.419,4.8182,0.1,5.6992e-05,569.52,5.592e-05,541.54,-1.6156e-05,-0.01364,-2.312e-05,-52.335,2.4339
22398,21.327,4.9091,0.1,5.8784e-05,587.43,5.7798e-05,561.43,-1.6925e-05,-0.010058,-2.3437e-05,-48.936,2.4184
22399,21.419,4.6364,0.1,5.7263e-05,572.23,5.6092e-05,541.88,-1.6031e-05,-0.018404,-2.3547e-05,-56.494,2.434
22400,21.327,4.7273,0.1,5.9037e-05,589.96,5.7956e-05,561.66,-1.6799e-05,-0.015282,-2.3851e-05,-53.005,2.4186
22401,21.419,4.4545,0.1,5.7527e-05,574.88,5.6261e-05,542.29,-1.5916e-05,-0.022168,-2.395e-05,-60.39,2.4342
22402,21.327,4.5455,0.1,5.9289e-05,592.48,5.8116e-05,561.99,-1.6683e-05,-0.019394,-2.4248e-05,-56.863,2.4187
22403,21.419,4.2727,0.1,5.7777e-05,577.38,5.6423e-05,542.72,-1.5813e-05,-0.025161,-2.4322e-05,-63.959,2.4343
22404,21.327,4.3636,0.1,5.9532e-05,594.91,5.8273e-05,562.37,-1.6577e-05,-0.022684,-2.4619e-05,-60.442,2.4189
22405,21.419,4.0909,0.1,5.8006e-05,579.66,5.6571e-05,543.15,-1.5722e-05,-0.027523,-2.4655e-05,-67.146,2.4344
22406,21.327,4.1818,0.1,5.9758e-05,597.17,5.842e-05,562.77,-1.6484e-05,-0.025295,-2.4956e-05,-63.683,2.419
22407,21.419,3.9091,0.1,5.8208e-05,581.68,5.6702e-05,543.55,-1.5644e-05,-0.029364,-2.4944e-05,-69.907,2.4345
22408,21.327,4,0.1,5.9963e-05,599.21,5.8552e-05,563.15,-1.6402e-05,-0.027351,-2.5254e-05,-66.539,2.4191
22409,21.419,3.7273,0.1,5.8378e-05,583.38,5.6813e-05,543.9,-1.558e-05,-0.03077,-2.5186e-05,-72.207,2.4346
22410,21.327,3.8182,0.1,6.0139e-05,600.98,5.8668e-05,563.5,-1.6334e-05,-0.028942,-2.5509e-05,-68.971,2.4192
22411,21.419,3.5455,0.1,5.8514e-05,584.74,5.6902e-05,544.19,-1.5529e-05,-0.031807,-2.5377e-05,-74.022,2.4346
22412,21.327,3.6364,0.1,6.0285e-05,602.43,5.8763e-05,563.8,-1.6278e-05,-0.030142,-2.5717e-05,-70.949,2.4192
22413,21.419,3.3636,0.1,5.8613e-05,585.72,5.6966e-05,544.4,-1.5493e-05,-0.032517,-2.5515e-05,-75.331,2.4347
22414,21.327,3.4545,0.1,6.0396e-05,603.55,5.8836e-05,564.04,-1.6237e-05,-0.031001,-2.5875e-05,-72.452,2.4193
22415,21.419,3.1818,0.1,5.8673e-05,586.32,5.7005e-05,544.53,-1.5471e-05,-0.032931,-2.5598e-05,-76.121,2.4347
22416,21.327,3.2727,0.1,6.0472e-05,604.3,5.8886e-05,564.2,-1.6209e-05,-0.031556,-2.5982e-05,-73.462,2.4193
22417,21.419,3,0.1,5.8693e-05,586.52,5.7019e-05,544.57,-1.5464e-05,-0.033067,-2.5626e-05,-76.386,2.4347
22418,21.327,3.0909,0.1,6.051e-05,604.68,5.8911e-05,564.28,-1.6195e-05,-0.031827,-2.6035e-05,-73.97,2.4194
22419,21.419,2.8182,0.1,5.8673e-05,586.32,5.7005e-05,544.53,-1.5471e-05,-0.032931,-2.5598e-05,-76.121,2.4347
22420,21.327,2.9091,0.1,6.051e-05,604.68,5.8911e-05,564.28,-1.6195e-05,-0.031827,-2.6035e-05,-73.97,2.4194
22421,21.419,2.6364,0.1,5.8613e-05,585.72,5.6966e-05,544.4,-1.5493e-05,-0.032516,-2.5515e-05,-75.331,2.4347
22422,21.327,2.7273,0.1,6.0472e-05,604.3,5.8886e-05,564.2,-1.6209e-05,-0.031555,-2.5982e-05,-73.462,2.4193
22423,21.419,2.4545,0.1,5.8514e-05,584.74,5.6902e-05,544.19,-1.5529e-05,-0.031806,-2.5377e-05,-74.022,2.4346
22424,21.327,2.5455,0.1,6.0396e-05,603.55,5.8836e-05,564.04,-1.6237e-05,-0.031001,-2.5875e-05,-72.452,2.4193
22425,21.419,2.2727,0.1,5.8378e-05,583.38,5.6813e-05,543.9,-1.558e-05,-0.03077,-2.5186e-05,-72.207,2.4346
22426,21.327,2.3636,0.1,6.0285e-05,602.43,5.8763e-05,563.8,-1.6278e-05,-0.030142,-2.5717e-05,-70.949,2.4192
22427,21.419,2.0909,0.1,5.8208e-05,581.68,5.6702e-05,543.55,-1.5644e-05,-0.029362,-2.4944e-05,-69.906,2.4345
22428,21.327,2.1818,0.1,6.0139e-05,600.98,5.8668e-05,563.5,-1.6334e-05,-0.028942,-2.5509e-05,-68.971,2.4192
22429,21.419,1.9091,0.1,5.8006e-05,579.66,5.6571e-05,543.15,-1.5722e-05,-0.027521,-2.4655e-05,-67.146,2.4344
22430,21.327,2,0.1,5.9963e-05,599.21,5.8552e-05,563.15,-1.6402e-05,-0.027349,-2.5254e-05,-66.539,2.4191
22431,21.419,1.7273,0.1,5.7777e-05,577.38,5.6423e-05,542.72,-1.5813e-05,-0.025161,-2.4322e-05,-63.959,2.4343
22432,21.327,1.8182,0.1,5.9758e-05,597.17,5.842e-05,562.77,-1.6484e-05,-0.025295,-2.4956e-05,-63.683,2.419
22433,21.419,1.5455,0.1,5.7527e-05,574.88,5.6261e-05,542.29,-1.5916e-05,-0.022169,-2.395e-05,-60.39,2.4342
22434,21.327,1.6364,0.1,5.9532e-05,594.91,5.8273e-05,562.37,-1.6577e-05,-0.022685,-2.4619e-05,-60.442,2.4189
22435,21.419,1.3636,0.1,5.7263e-05,572.23,5.6092e-05,541.88,-1.6031e-05,-0.018404,-2.3547e-05,-56.494,2.434
22436,21.327,1.4545,0.1,5.9289e-05,592.48,5.8116e-05,561.99,-1.6683e-05,-0.019394,-2.4248e-05,-56.863,2.4187
22437,21.419,1.1818,0.1,5.6992e-05,569.52,5.592e-05,541.54,-1.6156e-05,-0.01364,-2.312e-05,-52.335,2.4339
22438,21.327,1.2727,0.1,5.9037e-05,589.96,5.7956e-05,561.66,-1.6799e-05,-0.015283,-2.3851e-05,-53.005,2.4186
22439,21.419,1,0.1,5.6724e-05,566.85,5.5755e-05,541.33,-1.6292e-05,-0.0077613,-2.2678e-05,-47.992,2.4337
22440,21.327,1.0909,0.1,5.8784e-05,587.43,5.7798e-05,561.43,-1.6925e-05,-0.01006,-2.3437e-05,-48.936,2.4184
22441,21.419,0.81818,0.1,5.6472e-05,564.33,5.5605e-05,541.29,-1.6437e-05,0.00012803,-2.2234e-05,-43.557,2.4335
22442,21.327,0.90909,0.1,5.8541e-05,585.01,5.7651e-05,561.35,-1.706e-05,-0.0038045,-2.3014e-05,-44.738,2.4182
22443,21.419,0.63636,0.1,5.6249e-05,562.1,5.5481e-05,541.51,-1.6589e-05,0.0081669,-2.1799e-05,-39.135,2.4333
22444,21.327,0.72727,0.1,5.8319e-05,582.79,5.7524e-05,561.48,-1.7204e-05,0.005268,-2.2595e-05,-40.501,2.4181
22445,21.419,0.45455,0.1,5.6078e-05,560.4,5.5403e-05,542.14,-1.6747e-05,0.029689,-2.1397e-05,-34.904,2.4331
22446,21.327,0.54545,0.1,5.8132e-05,580.92,5.7429e-05,561.9,-1.7354e-05,0.011712,-2.2192e-05,-36.338,2.4178
22447,21.419,0.27273,0.1,5.6171e-05,561.33,5.5554e-05,544.53,-1.6914e-05,0.03187,-2.1209e-05,-32.236,2.4329
22448,21.327,0.36364,0.1,5.8015e-05,579.75,5.7395e-05,562.85,-1.751e-05,0.046288,-2.1839e-05,-32.481,2.4176
22449,21.327,0.18182,0.1,5.8373e-05,583.33,5.7772e-05,566.91,-1.7678e-05,0.0065339,-2.188e-05,-31.569,2.4174
22450,21.419,0.090909,0.1,5.495e-05,549.13,5.4559e-05,538.22,-1.7073e-05,0.0086576,-1.9895e-05,-21.198,2.4327
22451,21.235,5.7273,0.1,6.0178e-05,601.37,5.9579e-05,584.97,-1.8272e-05,0.02916,-2.2477e-05,-31.569,2.4021
22452,21.142,5.8182,0.1,6.2398e-05,623.55,6.1811e-05,607.43,-1.9032e-05,0.0049936,-2.317e-05,-31.085,2.3866
22453,21.235,5.9091,0.1,5.898e-05,589.39,5.8597e-05,578.69,-1.842e-05,0.0087223,-2.1198e-05,-20.866,2.4019
22454,21.235,5.5455,0.1,6.0055e-05,600.14,5.9409e-05,582.52,-1.8117e-05,0.028056,-2.2623e-05,-33.829,2.4024
22455,21.142,5.6364,0.1,6.2016e-05,619.73,6.1418e-05,603.33,-1.8875e-05,0.043338,-2.309e-05,-31.627,2.3869
22456,21.235,5.3636,0.1,6.0191e-05,601.5,5.9463e-05,581.8,-1.7969e-05,0.0082569,-2.2979e-05,-37.631,2.4026
22457,21.142,5.4545,0.1,6.2102e-05,620.59,6.1431e-05,602.31,-1.873e-05,0.011401,-2.3401e-05,-35.084,2.3871
22458,21.235,5.1818,0.1,6.0378e-05,603.36,5.9562e-05,581.47,-1.7828e-05,0.00087179,-2.3366e-05,-41.617,2.4028
22459,21.142,5.2727,0.1,6.2255e-05,622.12,6.1503e-05,601.8,-1.859e-05,0.0055711,-2.3759e-05,-38.834,2.3873
22460,21.235,5,0.1,6.0592e-05,605.5,5.9686e-05,581.39,-1.7693e-05,-0.0064806,-2.3764e-05,-45.623,2.403
22461,21.142,5.0909,0.1,6.2441e-05,623.98,6.1606e-05,601.56,-1.8457e-05,-0.0028583,-2.4133e-05,-42.655,2.3875
22462,21.235,4.8182,0.1,6.0821e-05,607.79,5.9826e-05,581.49,-1.7567e-05,-0.012012,-2.4161e-05,-49.553,2.4031
22463,21.142,4.9091,0.1,6.2648e-05,626.05,6.1728e-05,601.53,-1.8331e-05,-0.0087191,-2.4512e-05,-46.45,2.3877
22464,21.235,4.6364,0.1,6.1056e-05,610.14,5.9974e-05,581.72,-1.7451e-05,-0.016534,-2.4546e-05,-53.326,2.4033
22465,21.142,4.7273,0.1,6.2866e-05,628.22,6.1862e-05,601.65,-1.8214e-05,-0.013661,-2.4885e-05,-50.135,2.3879
22466,21.235,4.4545,0.1,6.1288e-05,612.46,6.0122e-05,582.03,-1.7344e-05,-0.020135,-2.4911e-05,-56.871,2.4035
22467,21.142,4.5455,0.1,6.3085e-05,630.41,6.2001e-05,601.87,-1.8106e-05,-0.01758,-2.5242e-05,-53.638,2.388
22468,21.235,4.2727,0.1,6.1508e-05,614.66,6.0264e-05,582.38,-1.7248e-05,-0.023016,-2.5248e-05,-60.126,2.4036
22469,21.142,4.3636,0.1,6.3298e-05,632.54,6.2137e-05,602.16,-1.8008e-05,-0.02074,-2.5578e-05,-56.895,2.3882
22470,21.235,4.0909,0.1,6.1711e-05,616.68,6.0396e-05,582.73,-1.7164e-05,-0.025302,-2.5551e-05,-63.039,2.4037
22471,21.142,4.1818,0.1,6.3497e-05,634.54,6.2267e-05,602.48,-1.7921e-05,-0.023261,-2.5884e-05,-59.852,2.3883
22472,21.235,3.9091,0.1,6.1891e-05,618.48,6.0514e-05,583.07,-1.7092e-05,-0.027094,-2.5815e-05,-65.569,2.4038
22473,21.142,4,0.1,6.3678e-05,636.34,6.2385e-05,602.8,-1.7846e-05,-0.025256,-2.6156e-05,-62.463,2.3884
22474,21.235,3.7273,0.1,6.2043e-05,620,6.0614e-05,583.37,-1.7032e-05,-0.028468,-2.6036e-05,-67.681,2.4039
22475,21.142,3.8182,0.1,6.3835e-05,637.91,6.2488e-05,603.09,-1.7782e-05,-0.026809,-2.6388e-05,-64.691,2.3885
22476,21.235,3.5455,0.1,6.2165e-05,621.22,6.0694e-05,583.62,-1.6986e-05,-0.029484,-2.6212e-05,-69.349,2.4039
22477,21.142,3.6364,0.1,6.3965e-05,639.21,6.2573e-05,603.35,-1.7731e-05,-0.027983,-2.6578e-05,-66.506,2.3886
22478,21.235,3.3636,0.1,6.2253e-05,622.1,6.0752e-05,583.81,-1.6952e-05,-0.030183,-2.6338e-05,-70.554,2.404
22479,21.142,3.4545,0.1,6.4065e-05,640.21,6.2639e-05,603.55,-1.7692e-05,-0.028826,-2.6723e-05,-67.886,2.3886
22480,21.235,3.1818,0.1,6.2307e-05,622.64,6.0787e-05,583.92,-1.6932e-05,-0.030591,-2.6415e-05,-71.282,2.404
22481,21.142,3.2727,0.1,6.4133e-05,640.89,6.2684e-05,603.69,-1.7666e-05,-0.029371,-2.6821e-05,-68.816,2.3886
22482,21.235,3,0.1,6.2325e-05,622.82,6.0799e-05,583.96,-1.6925e-05,-0.030725,-2.644e-05,-71.526,2.404
22483,21.142,3.0909,0.1,6.4167e-05,641.23,6.2707e-05,603.76,-1.7653e-05,-0.029638,-2.687e-05,-69.283,2.3887
22484,21.235,2.8182,0.1,6.2307e-05,622.64,6.0787e-05,583.92,-1.6932e-05,-0.030591,-2.6415e-05,-71.282,2.404
22485,21.142,2.9091,0.1,6.4167e-05,641.23,6.2707e-05,603.76,-1.7653e-05,-0.029637,-2.687e-05,-69.283,2.3887
22486,21.235,2.6364,0.1,6.2253e-05,622.1,6.0752e-05,583.81,-1.6952e-05,-0.030183,-2.6338e-05,-70.554,2.404
22487,21.142,2.7273,0.1,6.4133e-05,640.89,6.2684e-05,603.69,-1.7666e-05,-0.029371,-2.6821e-05,-68.816,2.3886
22488,21.235,2.4545,0.1,6.2165e-05,621.22,6.0694e-05,583.62,-1.6986e-05,-0.029485,-2.6212e-05,-69.349,2.4039
22489,21.142,2.5455,0.1,6.4065e-05,640.21,6.2639e-05,603.55,-1.7692e-05,-0.028826,-2.6723e-05,-67.886,2.3886
22490,21.235,2.2727,0.1,6.2043e-05,620,6.0614e-05,583.37,-1.7032e-05,-0.028469,-2.6036e-05,-67.681,2.4039
22491,21.142,2.3636,0.1,6.3965e-05,639.21,6.2573e-05,603.35,-1.7731e-05,-0.027983,-2.6578e-05,-66.506,2.3886
22492,21.235,2.0909,0.1,6.1891e-05,618.48,6.0514e-05,583.07,-1.7092e-05,-0.027094,-2.5815e-05,-65.569,2.4038
22493,21.142,2.1818,0.1,6.3835e-05,637.91,6.2488e-05,603.09,-1.7782e-05,-0.02681,-2.6388e-05,-64.691,2.3885
22494,21.235,1.9091,0.1,6.1711e-05,616.68,6.0396e-05,582.73,-1.7164e-05,-0.025302,-2.5551e-05,-63.039,2.4037
22495,21.142,2,0.1,6.3678e-05,636.34,6.2385e-05,602.8,-1.7846e-05,-0.025256,-2.6156e-05,-62.463,2.3884
22496,21.235,1.7273,0.1,6.1508e-05,614.66,6.0264e-05,582.38,-1.7248e-05,-0.023017,-2.5248e-05,-60.126,2.4036
22497,21.142,1.8182,0.1,6.3497e-05,634.54,6.2267e-05,602.48,-1.7921e-05,-0.02326,-2.5884e-05,-59.852,2.3883
22498,21.235,1.5455,0.1,6.1288e-05,612.46,6.0122e-05,582.03,-1.7344e-05,-0.020136,-2.4911e-05,-56.871,2.4035
22499,21.142,1.6364,0.1,6.3298e-05,632.54,6.2137e-05,602.16,-1.8008e-05,-0.020741,-2.5578e-05,-56.895,2.3882
22500,21.235,1.3636,0.1,6.1056e-05,610.14,5.9974e-05,581.72,-1.7451e-05,-0.016535,-2.4546e-05,-53.326,2.4033
22501,21.142,1.4545,0.1,6.3085e-05,630.41,6.2001e-05,601.87,-1.8106e-05,-0.01758,-2.5242e-05,-53.638,2.388
22502,21.235,1.1818,0.1,6.0821e-05,607.79,5.9826e-05,581.49,-1.7567e-05,-0.012015,-2.4161e-05,-49.553,2.4031
22503,21.142,1.2727,0.1,6.2866e-05,628.22,6.1862e-05,601.65,-1.8214e-05,-0.013661,-2.4885e-05,-50.135,2.3879
22504,21.235,1,0.1,6.0592e-05,605.5,5.9686e-05,581.39,-1.7693e-05,-0.0064814,-2.3764e-05,-45.622,2.403
22505,21.142,1.0909,0.1,6.2648e-05,626.05,6.1728e-05,601.53,-1.8331e-05,-0.0087226,-2.4512e-05,-46.45,2.3877
22506,21.235,0.81818,0.1,6.0378e-05,603.36,5.9562e-05,581.47,-1.7828e-05,0.00087173,-2.3366e-05,-41.617,2.4028
22507,21.142,0.90909,0.1,6.2441e-05,623.98,6.1606e-05,601.56,-1.8457e-05,-0.0028566,-2.4133e-05,-42.655,2.3875
22508,21.235,0.63636,0.1,6.0191e-05,601.5,5.9463e-05,581.8,-1.7969e-05,0.008258,-2.2979e-05,-37.631,2.4026
22509,21.142,0.72727,0.1,6.2255e-05,622.12,6.1503e-05,601.8,-1.859e-05,0.0055684,-2.3759e-05,-38.834,2.3873
22510,21.235,0.45455,0.1,6.0055e-05,600.14,5.9409e-05,582.52,-1.8117e-05,0.028058,-2.2623e-05,-33.829,2.4024
22511,21.142,0.54545,0.1,6.2102e-05,620.59,6.1431e-05,602.31,-1.873e-05,0.011405,-2.3401e-05,-35.084,2.3871
22512,21.235,0.27273,0.1,6.0178e-05,601.37,5.9579e-05,584.97,-1.8272e-05,0.029158,-2.2477e-05,-31.569,2.4021
22513,21.142,0.36364,0.1,6.2016e-05,619.73,6.1418e-05,603.33,-1.8875e-05,0.043339,-2.309e-05,-31.627,2.3869
22514,21.142,0.18182,0.1,6.2398e-05,623.55,6.1811e-05,607.43,-1.9032e-05,0.0049907,-2.317e-05,-31.085,2.3866
22515,21.235,0.090909,0.1,5.898e-05,589.39,5.8597e-05,578.69,-1.842e-05,0.0087183,-2.1198e-05,-20.866,2.4019
22516,21.05,5.7273,0.1,6.4199e-05,641.55,6.3618e-05,625.55,-1.9634e-05,0.02677,-2.3751e-05,-30.908,2.3714
22517,20.958,5.8182,0.1,6.6436e-05,663.9,6.5863e-05,648.08,-2.0391e-05,0.0037477,-2.4463e-05,-30.589,2.3559
22518,21.05,5.9091,0.1,6.3024e-05,629.81,6.265e-05,619.3,-1.9772e-05,0.0086888,-2.2505e-05,-20.527,2.3711
22519,21.05,5.5455,0.1,6.405e-05,640.06,6.343e-05,623.04,-1.9489e-05,0.026514,-2.3858e-05,-32.802,2.3716
22520,20.958,5.6364,0.1,6.6033e-05,659.87,6.5456e-05,643.95,-2.0244e-05,0.040633,-2.4349e-05,-30.802,2.3562
22521,21.05,5.3636,0.1,6.4156e-05,641.11,6.3463e-05,622.24,-1.9351e-05,0.0082416,-2.4173e-05,-36.218,2.3719
22522,20.958,5.4545,0.1,6.6092e-05,660.46,6.545e-05,642.87,-2.0109e-05,0.011051,-2.4622e-05,-33.897,2.3564
22523,21.05,5.1818,0.1,6.4309e-05,642.65,6.3539e-05,621.82,-1.9219e-05,0.0014367,-2.4518e-05,-39.809,2.3721
22524,20.958,5.2727,0.1,6.6215e-05,661.69,6.5502e-05,642.27,-1.9978e-05,0.0057514,-2.4939e-05,-37.272,2.3566
22525,21.05,5,0.1,6.4489e-05,644.44,6.364e-05,621.63,-1.9095e-05,-0.0054311,-2.4873e-05,-43.425,2.3723
22526,20.958,5.0909,0.1,6.6369e-05,663.23,6.5582e-05,641.93,-1.9854e-05,-0.0020952,-2.5273e-05,-40.718,2.3568
22527,21.05,4.8182,0.1,6.4685e-05,646.4,6.3757e-05,621.63,-1.8977e-05,-0.010647,-2.5229e-05,-46.979,2.3725
22528,20.958,4.9091,0.1,6.6543e-05,664.97,6.5682e-05,641.8,-1.9737e-05,-0.0076011,-2.5611e-05,-44.144,2.357
22529,21.05,4.6364,0.1,6.4887e-05,648.43,6.3883e-05,621.75,-1.8869e-05,-0.014942,-2.5575e-05,-50.399,2.3726
22530,20.958,4.7273,0.1,6.6729e-05,666.83,6.5794e-05,641.82,-1.9628e-05,-0.012281,-2.5945e-05,-47.479,2.3572
22531,21.05,4.4545,0.1,6.5089e-05,650.44,6.401e-05,621.96,-1.877e-05,-0.018388,-2.5904e-05,-53.618,2.3728
22532,20.958,4.5455,0.1,6.6918e-05,668.72,6.5912e-05,641.94,-1.9528e-05,-0.01602,-2.6267e-05,-50.655,2.3574
22533,21.05,4.2727,0.1,6.5282e-05,652.37,6.4134e-05,622.22,-1.8681e-05,-0.021163,-2.6209e-05,-56.581,2.3729
22534,20.958,4.3636,0.1,6.7103e-05,670.57,6.603e-05,642.14,-1.9437e-05,-0.019056,-2.657e-05,-53.614,2.3575
22535,21.05,4.0909,0.1,6.546e-05,654.15,6.425e-05,622.5,-1.8603e-05,-0.023375,-2.6484e-05,-59.238,2.373
22536,20.958,4.1818,0.1,6.7278e-05,672.32,6.6143e-05,642.38,-1.9356e-05,-0.02149,-2.6847e-05,-56.306,2.3576
22537,21.05,3.9091,0.1,6.5619e-05,655.74,6.4354e-05,622.78,-1.8536e-05,-0.025119,-2.6724e-05,-61.549,2.3731
22538,20.958,4,0.1,6.7437e-05,673.91,6.6246e-05,642.63,-1.9286e-05,-0.023426,-2.7094e-05,-58.687,2.3577
22539,21.05,3.7273,0.1,6.5754e-05,657.09,6.4443e-05,623.03,-1.8481e-05,-0.026461,-2.6926e-05,-63.483,2.3732
22540,20.958,3.8182,0.1,6.7576e-05,675.29,6.6338e-05,642.87,-1.9227e-05,-0.02494,-2.7305e-05,-60.723,2.3578
22541,21.05,3.5455,0.1,6.5863e-05,658.17,6.4515e-05,623.24,-1.8437e-05,-0.027456,-2.7086e-05,-65.012,2.3733
22542,20.958,3.6364,0.1,6.7691e-05,676.45,6.6413e-05,643.08,-1.9179e-05,-0.026087,-2.7478e-05,-62.384,2.3579
22543,21.05,3.3636,0.1,6.5942e-05,658.96,6.4567e-05,623.4,-1.8406e-05,-0.028141,-2.7202e-05,-66.117,2.3733
22544,20.958,3.4545,0.1,6.778e-05,677.33,6.6472e-05,643.25,-1.9143e-05,-0.026913,-2.761e-05,-63.648,2.358
22545,21.05,3.1818,0.1,6.599e-05,659.44,6.4599e-05,623.5,-1.8387e-05,-0.028542,-2.7272e-05,-66.786,2.3733
22546,20.958,3.2727,0.1,6.784e-05,677.93,6.6512e-05,643.37,-1.9119e-05,-0.027448,-2.7699e-05,-64.5,2.358
22547,21.05,3,0.1,6.6006e-05,659.61,6.461e-05,623.53,-1.8381e-05,-0.028674,-2.7295e-05,-67.01,2.3733
22548,20.958,3.0909,0.1,6.7871e-05,678.24,6.6532e-05,643.43,-1.9106e-05,-0.02771,-2.7744e-05,-64.928,2.358
22549,21.05,2.8182,0.1,6.599e-05,659.44,6.4599e-05,623.5,-1.8387e-05,-0.028542,-2.7272e-05,-66.786,2.3733
22550,20.958,2.9091,0.1,6.7871e-05,678.24,6.6532e-05,643.43,-1.9106e-05,-0.027711,-2.7744e-05,-64.928,2.358
22551,21.05,2.6364,0.1,6.5942e-05,658.96,6.4567e-05,623.4,-1.8406e-05,-0.028141,-2.7202e-05,-66.117,2.3733
22552,20.958,2.7273,0.1,6.784e-05,677.93,6.6512e-05,643.37,-1.9119e-05,-0.027449,-2.7699e-05,-64.5,2.358
22553,21.05,2.4545,0.1,6.5863e-05,658.17,6.4515e-05,623.24,-1.8437e-05,-0.027455,-2.7086e-05,-65.012,2.3733
22554,20.958,2.5455,0.1,6.778e-05,677.33,6.6472e-05,643.25,-1.9143e-05,-0.026914,-2.761e-05,-63.648,2.358
22555,21.05,2.2727,0.1,6.5754e-05,657.09,6.4443e-05,623.03,-1.8481e-05,-0.026462,-2.6926e-05,-63.483,2.3732
22556,20.958,2.3636,0.1,6.7691e-05,676.45,6.6413e-05,643.08,-1.9179e-05,-0.026087,-2.7478e-05,-62.384,2.3579
22557,21.05,2.0909,0.1,6.5619e-05,655.74,6.4354e-05,622.78,-1.8536e-05,-0.02512,-2.6724e-05,-61.549,2.3731
22558,20.958,2.1818,0.1,6.7576e-05,675.29,6.6338e-05,642.87,-1.9227e-05,-0.02494,-2.7305e-05,-60.723,2.3578
22559,21.05,1.9091,0.1,6.546e-05,654.15,6.425e-05,622.51,-1.8603e-05,-0.023374,-2.6484e-05,-59.238,2.373
22560,20.958,2,0.1,6.7437e-05,673.91,6.6246e-05,642.63,-1.9286e-05,-0.023427,-2.7094e-05,-58.687,2.3577
22561,21.05,1.7273,0.1,6.5282e-05,652.37,6.4134e-05,622.22,-1.8681e-05,-0.021162,-2.6209e-05,-56.58,2.3729
22562,20.958,1.8182,0.1,6.7278e-05,672.32,6.6143e-05,642.38,-1.9356e-05,-0.021489,-2.6847e-05,-56.306,2.3576
22563,21.05,1.5455,0.1,6.5089e-05,650.44,6.401e-05,621.96,-1.877e-05,-0.018388,-2.5904e-05,-53.618,2.3728
22564,20.958,1.6364,0.1,6.7103e-05,670.57,6.603e-05,642.14,-1.9437e-05,-0.019056,-2.657e-05,-53.614,2.3575
22565,21.05,1.3636,0.1,6.4887e-05,648.43,6.3883e-05,621.75,-1.8869e-05,-0.014941,-2.5575e-05,-50.399,2.3726
22566,20.958,1.4545,0.1,6.6918e-05,668.72,6.5912e-05,641.94,-1.9528e-05,-0.016021,-2.6267e-05,-50.655,2.3574
22567,21.05,1.1818,0.1,6.4685e-05,646.4,6.3757e-05,621.63,-1.8977e-05,-0.010647,-2.5229e-05,-46.979,2.3725
22568,20.958,1.2727,0.1,6.6729e-05,666.83,6.5794e-05,641.82,-1.9628e-05,-0.01228,-2.5945e-05,-47.479,2.3572
22569,21.05,1,0.1,6.4489e-05,644.44,6.364e-05,621.63,-1.9095e-05,-0.005432,-2.4873e-05,-43.425,2.3723
22570,20.958,1.0909,0.1,6.6543e-05,664.97,6.5682e-05,641.8,-1.9737e-05,-0.0076029,-2.5611e-05,-44.144,2.357
22571,21.05,0.81818,0.1,6.4309e-05,642.65,6.3539e-05,621.82,-1.9219e-05,0.0014358,-2.4518e-05,-39.809,2.3721
22572,20.958,0.90909,0.1,6.6369e-05,663.23,6.5582e-05,641.93,-1.9854e-05,-0.002095,-2.5273e-05,-40.718,2.3568
22573,21.05,0.63636,0.1,6.4156e-05,641.11,6.3463e-05,622.24,-1.9351e-05,0.0082419,-2.4173e-05,-36.218,2.3719
22574,20.958,0.72727,0.1,6.6215e-05,661.69,6.5502e-05,642.27,-1.9978e-05,0.0057492,-2.4939e-05,-37.272,2.3566
22575,21.05,0.45455,0.1,6.405e-05,640.06,6.343e-05,623.04,-1.9489e-05,0.026517,-2.3858e-05,-32.802,2.3716
22576,20.958,0.54545,0.1,6.6092e-05,660.46,6.545e-05,642.87,-2.0109e-05,0.011052,-2.4622e-05,-33.897,2.3564
22577,21.05,0.27273,0.1,6.4199e-05,641.55,6.3618e-05,625.55,-1.9634e-05,0.02677,-2.3751e-05,-30.908,2.3714
22578,20.958,0.36364,0.1,6.6033e-05,659.87,6.5456e-05,643.95,-2.0244e-05,0.040635,-2.4349e-05,-30.802,2.3562
22579,20.958,0.18182,0.1,6.6436e-05,663.9,6.5863e-05,648.08,-2.0391e-05,0.0037473,-2.4463e-05,-30.589,2.3559
22580,21.05,0.090909,0.1,6.3024e-05,629.81,6.265e-05,619.3,-1.9772e-05,0.0086909,-2.2505e-05,-20.527,2.3711
22581,20.866,5.7273,0.1,6.8234e-05,681.87,6.767e-05,666.25,-2.1e-05,0.024655,-2.503e-05,-30.256,2.3407
22582,20.774,5.8182,0.1,7.0487e-05,704.39,6.9927e-05,688.86,-2.1754e-05,0.0027405,-2.5759e-05,-30.085,2.3252
22583,20.866,5.9091,0.1,6.7083e-05,670.37,6.6717e-05,660.05,-2.1129e-05,0.008595,-2.3817e-05,-20.184,2.3404
22584,20.866,5.5455,0.1,6.8063e-05,680.16,6.7466e-05,663.7,-2.0864e-05,0.025066,-2.5103e-05,-31.821,2.3409
22585,20.774,5.6364,0.1,7.0066e-05,700.18,6.9508e-05,684.71,-2.1617e-05,0.03815,-2.5615e-05,-30.004,2.3255
22586,20.866,5.3636,0.1,6.8141e-05,680.94,6.7481e-05,662.83,-2.0736e-05,0.0081549,-2.538e-05,-34.887,2.3412
22587,20.774,5.4545,0.1,7.0101e-05,700.53,6.9486e-05,683.57,-2.149e-05,0.010681,-2.5853e-05,-32.771,2.3257
22588,20.866,5.1818,0.1,6.8265e-05,682.18,6.7537e-05,662.32,-2.0613e-05,0.0018656,-2.5686e-05,-38.121,2.3414
22589,20.774,5.2727,0.1,7.0197e-05,701.48,6.9519e-05,682.89,-2.1368e-05,0.0058445,-2.6134e-05,-35.808,2.326
22590,20.866,5,0.1,6.8414e-05,683.67,6.7616e-05,662.04,-2.0496e-05,-0.0045617,-2.6003e-05,-41.382,2.3416
22591,20.774,5.0909,0.1,7.0322e-05,702.73,6.9579e-05,682.47,-2.1252e-05,-0.0014767,-2.6431e-05,-38.912,2.3262
22592,20.866,4.8182,0.1,6.858e-05,685.32,6.7712e-05,661.93,-2.0387e-05,-0.0094851,-2.6321e-05,-44.593,2.3418
22593,20.774,4.9091,0.1,7.0467e-05,704.19,6.9658e-05,682.24,-2.1143e-05,-0.0066589,-2.6733e-05,-42.003,2.3264
22594,20.866,4.6364,0.1,6.8753e-05,687.06,6.7817e-05,661.96,-2.0286e-05,-0.013571,-2.6631e-05,-47.688,2.342
22595,20.774,4.7273,0.1,7.0624e-05,705.76,6.9751e-05,682.17,-2.1042e-05,-0.011096,-2.7031e-05,-45.017,2.3266
22596,20.866,4.4545,0.1,6.8927e-05,688.79,6.7926e-05,662.08,-2.0194e-05,-0.016872,-2.6928e-05,-50.607,2.3421
22597,20.774,4.5455,0.1,7.0786e-05,707.37,6.985e-05,682.2,-2.0948e-05,-0.014668,-2.732e-05,-47.893,2.3267
22598,20.866,4.2727,0.1,6.9094e-05,690.47,6.8033e-05,662.26,-2.0112e-05,-0.019545,-2.7203e-05,-53.299,2.3423
22599,20.774,4.3636,0.1,7.0946e-05,708.97,6.995e-05,682.32,-2.0864e-05,-0.017584,-2.7593e-05,-50.577,2.3269
22600,20.866,4.0909,0.1,6.925e-05,692.02,6.8134e-05,662.47,-2.0039e-05,-0.021687,-2.7452e-05,-55.717,2.3424
22601,20.774,4.1818,0.1,7.1098e-05,710.49,7.0047e-05,682.48,-2.0789e-05,-0.019936,-2.7843e-05,-53.022,2.327
22602,20.866,3.9091,0.1,6.939e-05,693.42,6.8225e-05,662.69,-1.9977e-05,-0.02338,-2.7669e-05,-57.825,2.3425
22603,20.774,4,0.1,7.1237e-05,711.88,7.0137e-05,682.67,-2.0723e-05,-0.021814,-2.8066e-05,-55.189,2.3271
22604,20.866,3.7273,0.1,6.9509e-05,694.61,6.8303e-05,662.89,-1.9925e-05,-0.02469,-2.7853e-05,-59.59,2.3426
22605,20.774,3.8182,0.1,7.1359e-05,713.09,7.0217e-05,682.85,-2.0668e-05,-0.023288,-2.8257e-05,-57.045,2.3272
22606,20.866,3.5455,0.1,6.9605e-05,695.57,6.8366e-05,663.06,-1.9885e-05,-0.025663,-2.7998e-05,-60.987,2.3426
22607,20.774,3.6364,0.1,7.146e-05,714.11,7.0283e-05,683.01,-2.0624e-05,-0.024409,-2.8414e-05,-58.56,2.3273
22608,20.866,3.3636,0.1,6.9675e-05,696.27,6.8413e-05,663.19,-1.9856e-05,-0.026335,-2.8104e-05,-61.999,2.3427
22609,20.774,3.4545,0.1,7.1539e-05,714.89,7.0335e-05,683.15,-2.059e-05,-0.025218,-2.8534e-05,-59.715,2.3274
22610,20.866,3.1818,0.1,6.9718e-05,696.7,6.8441e-05,663.27,-1.9838e-05,-0.026729,-2.8167e-05,-62.611,2.3427
22611,20.774,3.2727,0.1,7.1592e-05,715.42,7.037e-05,683.25,-2.0568e-05,-0.025743,-2.8615e-05,-60.494,2.3274
22612,20.866,3,0.1,6.9732e-05,696.84,6.8451e-05,663.3,-1.9832e-05,-0.026859,-2.8189e-05,-62.816,2.3427
22613,20.774,3.0909,0.1,7.1619e-05,715.69,7.0388e-05,683.3,-2.0556e-05,-0.026001,-2.8656e-05,-60.886,2.3274
22614,20.866,2.8182,0.1,6.9718e-05,696.7,6.8441e-05,663.27,-1.9838e-05,-0.02673,-2.8167e-05,-62.611,2.3427
22615,20.774,2.9091,0.1,7.1619e-05,715.69,7.0388e-05,683.3,-2.0556e-05,-0.026001,-2.8656e-05,-60.886,2.3274
22616,20.866,2.6364,0.1,6.9675e-05,696.27,6.8413e-05,663.19,-1.9856e-05,-0.026336,-2.8104e-05,-61.999,2.3427
22617,20.774,2.7273,0.1,7.1592e-05,715.42,7.037e-05,683.25,-2.0568e-05,-0.025744,-2.8615e-05,-60.494,2.3274
22618,20.866,2.4545,0.1,6.9605e-05,695.57,6.8366e-05,663.06,-1.9885e-05,-0.025665,-2.7998e-05,-60.987,2.3426
22619,20.774,2.5455,0.1,7.1539e-05,714.89,7.0335e-05,683.15,-2.059e-05,-0.025219,-2.8534e-05,-59.715,2.3274
22620,20.866,2.2727,0.1,6.9509e-05,694.61,6.8303e-05,662.89,-1.9925e-05,-0.02469,-2.7853e-05,-59.59,2.3426
22621,20.774,2.3636,0.1,7.146e-05,714.11,7.0283e-05,683.01,-2.0624e-05,-0.02441,-2.8414e-05,-58.56,2.3273
22622,20.866,2.0909,0.1,6.939e-05,693.42,6.8225e-05,662.69,-1.9977e-05,-0.02338,-2.7669e-05,-57.825,2.3425
22623,20.774,2.1818,0.1,7.1359e-05,713.09,7.0217e-05,682.85,-2.0668e-05,-0.023287,-2.8257e-05,-57.045,2.3272
22624,20.866,1.9091,0.1,6.925e-05,692.02,6.8134e-05,662.47,-2.0039e-05,-0.021687,-2.7452e-05,-55.717,2.3424
22625,20.774,2,0.1,7.1237e-05,711.88,7.0137e-05,682.67,-2.0723e-05,-0.021815,-2.8066e-05,-55.189,2.3271
22626,20.866,1.7273,0.1,6.9094e-05,690.47,6.8033e-05,662.26,-2.0112e-05,-0.019545,-2.7203e-05,-53.299,2.3423
22627,20.774,1.8182,0.1,7.1098e-05,710.49,7.0047e-05,682.48,-2.0789e-05,-0.019936,-2.7843e-05,-53.022,2.327
22628,20.866,1.5455,0.1,6.8927e-05,688.79,6.7926e-05,662.08,-2.0194e-05,-0.016872,-2.6928e-05,-50.607,2.3421
22629,20.774,1.6364,0.1,7.0946e-05,708.97,6.995e-05,682.32,-2.0864e-05,-0.017584,-2.7593e-05,-50.576,2.3269
22630,20.866,1.3636,0.1,6.8753e-05,687.06,6.7817e-05,661.96,-2.0286e-05,-0.013572,-2.6631e-05,-47.688,2.342
22631,20.774,1.4545,0.1,7.0786e-05,707.37,6.985e-05,682.2,-2.0948e-05,-0.014669,-2.732e-05,-47.892,2.3267
22632,20.866,1.1818,0.1,6.858e-05,685.32,6.7712e-05,661.93,-2.0387e-05,-0.0094853,-2.6321e-05,-44.593,2.3418
22633,20.774,1.2727,0.1,7.0624e-05,705.76,6.9751e-05,682.17,-2.1042e-05,-0.011096,-2.7031e-05,-45.017,2.3266
22634,20.866,1,0.1,6.8414e-05,683.67,6.7616e-05,662.04,-2.0496e-05,-0.0045624,-2.6003e-05,-41.382,2.3416
22635,20.774,1.0909,0.1,7.0467e-05,704.19,6.9658e-05,682.24,-2.1143e-05,-0.0066589,-2.6732e-05,-42.003,2.3264
22636,20.866,0.81818,0.1,6.8265e-05,682.18,6.7537e-05,662.32,-2.0613e-05,0.0018646,-2.5686e-05,-38.121,2.3414
22637,20.774,0.90909,0.1,7.0322e-05,702.73,6.9579e-05,682.47,-2.1252e-05,-0.0014786,-2.6431e-05,-38.912,2.3262
22638,20.866,0.63636,0.1,6.8141e-05,680.94,6.7481e-05,662.83,-2.0736e-05,0.0081534,-2.538e-05,-34.887,2.3412
22639,20.774,0.72727,0.1,7.0197e-05,701.48,6.9519e-05,682.89,-2.1368e-05,0.0058428,-2.6134e-05,-35.808,2.326
22640,20.866,0.45455,0.1,6.8063e-05,680.16,6.7466e-05,663.7,-2.0864e-05,0.025066,-2.5103e-05,-31.821,2.3409
22641,20.774,0.54545,0.1,7.0101e-05,700.53,6.9486e-05,683.57,-2.149e-05,0.01068,-2.5853e-05,-32.771,2.3257
22642,20.866,0.27273,0.1,6.8234e-05,681.87,6.767e-05,666.25,-2.1e-05,0.024657,-2.503e-05,-30.256,2.3407
22643,20.774,0.36364,0.1,7.0066e-05,700.18,6.9508e-05,684.71,-2.1617e-05,0.038153,-2.5615e-05,-30.004,2.3255
22644,20.774,0.18182,0.1,7.0487e-05,704.39,6.9927e-05,688.86,-2.1754e-05,0.0027419,-2.5759e-05,-30.085,2.3252
22645,20.866,0.090909,0.1,6.7083e-05,670.37,6.6717e-05,660.05,-2.1129e-05,0.0085943,-2.3817e-05,-20.184,2.3404
22646,20.681,5.7273,0.1,7.2285e-05,722.35,7.1736e-05,707.1,-2.237e-05,0.022778,-2.6314e-05,-29.613,2.31
22647,20.589,5.8182,0.1,7.4552e-05,745.01,7.4005e-05,729.78,-2.3122e-05,0.0019279,-2.7059e-05,-29.576,2.2946
22648,20.681,5.9091,0.1,7.1156e-05,711.07,7.0798e-05,700.95,-2.2491e-05,0.0084486,-2.5133e-05,-19.838,2.3098
22649,20.681,5.5455,0.1,7.2094e-05,720.44,7.1519e-05,704.51,-2.2243e-05,0.023713,-2.6356e-05,-30.883,2.3103
22650,20.589,5.6364,0.1,7.4116e-05,740.65,7.3576e-05,725.62,-2.2993e-05,0.035875,-2.6888e-05,-29.233,2.2949
22651,20.681,5.3636,0.1,7.2147e-05,720.97,7.1516e-05,703.57,-2.2123e-05,0.008021,-2.66e-05,-33.631,2.3105
22652,20.589,5.4545,0.1,7.4129e-05,740.78,7.3539e-05,724.43,-2.2875e-05,0.010304,-2.7095e-05,-31.703,2.2951
22653,20.681,5.1818,0.1,7.2245e-05,721.95,7.1554e-05,702.98,-2.2008e-05,0.0021915,-2.6871e-05,-36.541,2.3108
22654,20.589,5.2727,0.1,7.42e-05,741.49,7.3555e-05,723.68,-2.276e-05,0.0058762,-2.7344e-05,-34.431,2.2954
22655,20.681,5,0.1,7.2367e-05,723.17,7.1614e-05,702.62,-2.1899e-05,-0.0038378,-2.7153e-05,-39.479,2.311
22656,20.589,5.0909,0.1,7.43e-05,742.49,7.3597e-05,723.17,-2.2652e-05,-0.00097105,-2.7606e-05,-37.225,2.2956
22657,20.681,4.8182,0.1,7.2504e-05,724.54,7.169e-05,702.42,-2.1797e-05,-0.0084941,-2.7436e-05,-42.377,2.3112
22658,20.589,4.9091,0.1,7.4419e-05,743.68,7.3657e-05,722.86,-2.255e-05,-0.0058576,-2.7875e-05,-40.011,2.2958
22659,20.681,4.6364,0.1,7.2651e-05,726.01,7.1777e-05,702.36,-2.1703e-05,-0.012385,-2.7714e-05,-45.175,2.3114
22660,20.589,4.7273,0.1,7.455e-05,744.99,7.3731e-05,722.7,-2.2455e-05,-0.01007,-2.8141e-05,-42.732,2.296
22661,20.681,4.4545,0.1,7.2799e-05,727.49,7.1868e-05,702.4,-2.1618e-05,-0.015548,-2.798e-05,-47.818,2.3115
22662,20.589,4.5455,0.1,7.4687e-05,746.36,7.3813e-05,722.65,-2.2368e-05,-0.013487,-2.84e-05,-45.331,2.2962
22663,20.681,4.2727,0.1,7.2944e-05,728.94,7.1959e-05,702.5,-2.1541e-05,-0.018123,-2.8227e-05,-50.259,2.3117
22664,20.589,4.3636,0.1,7.4824e-05,747.72,7.3897e-05,722.69,-2.229e-05,-0.016288,-2.8644e-05,-47.762,2.2963
22665,20.681,4.0909,0.1,7.3079e-05,730.29,7.2045e-05,702.64,-2.1473e-05,-0.020197,-2.8452e-05,-52.456,2.3118
22666,20.589,4.1818,0.1,7.4955e-05,749.03,7.3979e-05,722.78,-2.222e-05,-0.018561,-2.8869e-05,-49.98,2.2964
22667,20.681,3.9091,0.1,7.3201e-05,731.5,7.2124e-05,702.79,-2.1415e-05,-0.021844,-2.8648e-05,-54.373,2.3119
22668,20.589,4,0.1,7.5075e-05,750.23,7.4056e-05,722.9,-2.2159e-05,-0.020383,-2.907e-05,-51.948,2.2966
22669,20.681,3.7273,0.1,7.3305e-05,732.55,7.2192e-05,702.94,-2.1367e-05,-0.023121,-2.8814e-05,-55.98,2.312
22670,20.589,3.8182,0.1,7.5181e-05,751.29,7.4125e-05,723.03,-2.2107e-05,-0.02182,-2.9243e-05,-53.635,2.2967
22671,20.681,3.5455,0.1,7.339e-05,733.39,7.2247e-05,703.07,-2.1329e-05,-0.024073,-2.8946e-05,-57.255,2.312
22672,20.589,3.6364,0.1,7.527e-05,752.18,7.4182e-05,723.15,-2.2066e-05,-0.022913,-2.9385e-05,-55.015,2.2967
22673,20.681,3.3636,0.1,7.3451e-05,734.01,7.2288e-05,703.18,-2.1302e-05,-0.024731,-2.9042e-05,-58.178,2.3121
22674,20.589,3.4545,0.1,7.5338e-05,752.86,7.4228e-05,723.25,-2.2035e-05,-0.023705,-2.9494e-05,-56.068,2.2968
22675,20.681,3.1818,0.1,7.3489e-05,734.38,7.2313e-05,703.24,-2.1286e-05,-0.025117,-2.91e-05,-58.736,2.3121
22676,20.589,3.2727,0.1,7.5385e-05,753.33,7.4258e-05,723.33,-2.2014e-05,-0.02422,-2.9567e-05,-56.777,2.2968
22677,20.681,3,0.1,7.3502e-05,734.51,7.2321e-05,703.26,-2.128e-05,-0.025244,-2.9119e-05,-58.924,2.3121
22678,20.589,3.0909,0.1,7.5409e-05,753.57,7.4274e-05,723.37,-2.2003e-05,-0.024472,-2.9604e-05,-57.135,2.2969
22679,20.681,2.8182,0.1,7.3489e-05,734.38,7.2313e-05,703.24,-2.1286e-05,-0.025117,-2.91e-05,-58.736,2.3121
22680,20.589,2.9091,0.1,7.5409e-05,753.57,7.4274e-05,723.37,-2.2003e-05,-0.024472,-2.9604e-05,-57.135,2.2969
22681,20.681,2.6364,0.1,7.3451e-05,734.01,7.2288e-05,703.18,-2.1302e-05,-0.024731,-2.9042e-05,-58.178,2.3121
22682,20.589,2.7273,0.1,7.5385e-05,753.33,7.4258e-05,723.33,-2.2014e-05,-0.024219,-2.9567e-05,-56.777,2.2968
22683,20.681,2.4545,0.1,7.339e-05,733.39,7.2247e-05,703.07,-2.1329e-05,-0.024073,-2.8946e-05,-57.255,2.312
22684,20.589,2.5455,0.1,7.5338e-05,752.86,7.4228e-05,723.25,-2.2035e-05,-0.023706,-2.9494e-05,-56.068,2.2968
22685,20.681,2.2727,0.1,7.3305e-05,732.55,7.2192e-05,702.94,-2.1367e-05,-0.023121,-2.8814e-05,-55.98,2.312
22686,20.589,2.3636,0.1,7.527e-05,752.18,7.4182e-05,723.15,-2.2066e-05,-0.022913,-2.9385e-05,-55.015,2.2967
22687,20.681,2.0909,0.1,7.3201e-05,731.5,7.2124e-05,702.79,-2.1415e-05,-0.021844,-2.8648e-05,-54.373,2.3119
22688,20.589,2.1818,0.1,7.5181e-05,751.29,7.4125e-05,723.03,-2.2107e-05,-0.021819,-2.9243e-05,-53.635,2.2967
22689,20.681,1.9091,0.1,7.3079e-05,730.29,7.2045e-05,702.64,-2.1473e-05,-0.020197,-2.8452e-05,-52.456,2.3118
22690,20.589,2,0.1,7.5075e-05,750.23,7.4056e-05,722.9,-2.2159e-05,-0.020383,-2.907e-05,-51.948,2.2966
22691,20.681,1.7273,0.1,7.2944e-05,728.94,7.1959e-05,702.5,-2.1541e-05,-0.018123,-2.8227e-05,-50.259,2.3117
22692,20.589,1.8182,0.1,7.4955e-05,749.03,7.3979e-05,722.78,-2.222e-05,-0.018561,-2.8869e-05,-49.98,2.2964
22693,20.681,1.5455,0.1,7.2799e-05,727.49,7.1868e-05,702.4,-2.1618e-05,-0.015548,-2.798e-05,-47.818,2.3115
22694,20.589,1.6364,0.1,7.4824e-05,747.72,7.3897e-05,722.69,-2.229e-05,-0.016289,-2.8644e-05,-47.762,2.2963
22695,20.681,1.3636,0.1,7.2651e-05,726.01,7.1777e-05,702.36,-2.1703e-05,-0.012386,-2.7714e-05,-45.175,2.3114
22696,20.589,1.4545,0.1,7.4687e-05,746.36,7.3813e-05,722.65,-2.2368e-05,-0.013486,-2.84e-05,-45.331,2.2962
22697,20.681,1.1818,0.1,7.2504e-05,724.54,7.169e-05,702.42,-2.1797e-05,-0.008494,-2.7436e-05,-42.377,2.3112
22698,20.589,1.2727,0.1,7.455e-05,744.99,7.3731e-05,722.7,-2.2455e-05,-0.010071,-2.8141e-05,-42.732,2.296
22699,20.681,1,0.1,7.2367e-05,723.17,7.1614e-05,702.62,-2.1899e-05,-0.003839,-2.7153e-05,-39.479,2.311
22700,20.589,1.0909,0.1,7.4419e-05,743.68,7.3657e-05,722.86,-2.255e-05,-0.0058566,-2.7875e-05,-40.011,2.2958
22701,20.681,0.81818,0.1,7.2245e-05,721.95,7.1554e-05,702.98,-2.2008e-05,0.0021889,-2.6871e-05,-36.541,2.3108
22702,20.589,0.90909,0.1,7.43e-05,742.49,7.3597e-05,723.17,-2.2652e-05,-0.00097284,-2.7606e-05,-37.225,2.2956
22703,20.681,0.63636,0.1,7.2147e-05,720.97,7.1516e-05,703.57,-2.2123e-05,0.0080202,-2.66e-05,-33.631,2.3105
22704,20.589,0.72727,0.1,7.42e-05,741.49,7.3555e-05,723.68,-2.276e-05,0.005874,-2.7344e-05,-34.431,2.2954
22705,20.681,0.45455,0.1,7.2094e-05,720.44,7.1519e-05,704.51,-2.2243e-05,0.023714,-2.6356e-05,-30.883,2.3103
22706,20.589,0.54545,0.1,7.4129e-05,740.78,7.3539e-05,724.43,-2.2875e-05,0.010304,-2.7095e-05,-31.703,2.2951
22707,20.681,0.27273,0.1,7.2285e-05,722.35,7.1736e-05,707.1,-2.237e-05,0.02278,-2.6314e-05,-29.613,2.31
22708,20.589,0.36364,0.1,7.4116e-05,740.65,7.3576e-05,725.62,-2.2993e-05,0.035876,-2.6888e-05,-29.233,2.2949
22709,20.589,0.18182,0.1,7.4552e-05,745.01,7.4005e-05,729.78,-2.3122e-05,0.0019306,-2.7059e-05,-29.576,2.2946
22710,20.681,0.090909,0.1,7.1156e-05,711.07,7.0798e-05,700.95,-2.2491e-05,0.0084511,-2.5133e-05,-19.838,2.3098
22711,20.497,5.7273,0.1,7.635e-05,762.98,7.5816e-05,748.08,-2.3745e-05,0.021112,-2.7605e-05,-28.982,2.2794
22712,20.405,5.8182,0.1,7.8631e-05,785.77,7.8097e-05,770.83,-2.4495e-05,0.0012764,-2.8364e-05,-29.066,2.264
22713,20.497,5.9091,0.1,7.5245e-05,751.93,7.4895e-05,742,-2.3858e-05,0.0082761,-2.6454e-05,-19.493,2.2791
22714,20.497,5.5455,0.1,7.6142e-05,760.89,7.5588e-05,745.47,-2.3625e-05,0.022455,-2.7619e-05,-29.985,2.2797
22715,20.405,5.6364,0.1,7.8183e-05,781.29,7.7659e-05,766.67,-2.4373e-05,0.033785,-2.8169e-05,-28.487,2.2643
22716,20.497,5.3636,0.1,7.6174e-05,761.21,7.557e-05,744.47,-2.3512e-05,0.0078586,-2.7831e-05,-32.444,2.28
22717,20.405,5.4545,0.1,7.8176e-05,781.22,7.7609e-05,765.43,-2.4262e-05,0.0099306,-2.8348e-05,-30.687,2.2646
22718,20.497,5.1818,0.1,7.6247e-05,761.95,7.559e-05,743.81,-2.3405e-05,0.0024401,-2.8071e-05,-35.06,2.2802
22719,20.405,5.2727,0.1,7.8226e-05,781.72,7.7609e-05,764.62,-2.4155e-05,0.0058631,-2.8566e-05,-33.136,2.2648
22720,20.497,5,0.1,7.6345e-05,762.92,7.5633e-05,743.37,-2.3303e-05,-0.0032265,-2.8321e-05,-37.705,2.2804
22721,20.405,5.0909,0.1,7.8302e-05,782.48,7.7635e-05,764.05,-2.4054e-05,-0.00055525,-2.8798e-05,-35.647,2.265
22722,20.497,4.8182,0.1,7.6458e-05,764.05,7.5692e-05,743.09,-2.3208e-05,-0.0076362,-2.8573e-05,-40.317,2.2806
22723,20.405,4.9091,0.1,7.8397e-05,783.43,7.7678e-05,763.66,-2.3959e-05,-0.005169,-2.9036e-05,-38.155,2.2653
22724,20.497,4.6364,0.1,7.658e-05,765.27,7.5761e-05,742.94,-2.312e-05,-0.011347,-2.8821e-05,-42.842,2.2808
22725,20.405,4.7273,0.1,7.8505e-05,784.51,7.7735e-05,763.41,-2.387e-05,-0.0091759,-2.9273e-05,-40.608,2.2655
22726,20.497,4.4545,0.1,7.6705e-05,766.53,7.5836e-05,742.9,-2.304e-05,-0.01438,-2.9059e-05,-45.232,2.281
22727,20.405,4.5455,0.1,7.862e-05,785.65,7.7801e-05,763.29,-2.3789e-05,-0.012445,-2.9504e-05,-42.955,2.2656
22728,20.497,4.2727,0.1,7.6829e-05,767.76,7.5911e-05,742.93,-2.2969e-05,-0.016862,-2.928e-05,-47.442,2.2811
22729,20.405,4.3636,0.1,7.8735e-05,786.81,7.7869e-05,763.25,-2.3715e-05,-0.01514,-2.9723e-05,-45.152,2.2658
22730,20.497,4.0909,0.1,7.6945e-05,768.92,7.5985e-05,743,-2.2905e-05,-0.01887,-2.9482e-05,-49.434,2.2812
22731,20.405,4.1818,0.1,7.8847e-05,787.92,7.7938e-05,763.27,-2.365e-05,-0.017337,-2.9924e-05,-47.16,2.2659
22732,20.497,3.9091,0.1,7.705e-05,769.97,7.6052e-05,743.1,-2.2851e-05,-0.020471,-2.9659e-05,-51.174,2.2814
22733,20.405,4,0.1,7.895e-05,788.95,7.8003e-05,763.33,-2.3593e-05,-0.019106,-3.0105e-05,-48.944,2.2661
22734,20.497,3.7273,0.1,7.7141e-05,770.88,7.611e-05,743.2,-2.2807e-05,-0.021717,-2.9809e-05,-52.635,2.2814
22735,20.405,3.8182,0.1,7.9041e-05,789.87,7.8061e-05,763.41,-2.3545e-05,-0.020503,-3.026e-05,-50.475,2.2662
22736,20.497,3.5455,0.1,7.7214e-05,771.61,7.6158e-05,743.3,-2.2772e-05,-0.022646,-2.9928e-05,-53.794,2.2815
22737,20.405,3.6364,0.1,7.9118e-05,790.64,7.8111e-05,763.49,-2.3507e-05,-0.021571,-3.0388e-05,-51.728,2.2662
22738,20.497,3.3636,0.1,7.7268e-05,772.15,7.6193e-05,743.37,-2.2746e-05,-0.02329,-3.0015e-05,-54.634,2.2816
22739,20.405,3.4545,0.1,7.9178e-05,791.23,7.815e-05,763.56,-2.3477e-05,-0.022346,-3.0486e-05,-52.685,2.2663
22740,20.497,3.1818,0.1,7.7301e-05,772.48,7.6215e-05,743.42,-2.2731e-05,-0.023669,-3.0067e-05,-55.143,2.2816
22741,20.405,3.2727,0.1,7.9219e-05,791.64,7.8176e-05,763.62,-2.3458e-05,-0.022854,-3.0553e-05,-53.331,2.2663
22742,20.497,3,0.1,7.7312e-05,772.59,7.6222e-05,743.44,-2.2726e-05,-0.023793,-3.0085e-05,-55.313,2.2816
22743,20.405,3.0909,0.1,7.9239e-05,791.85,7.819e-05,763.64,-2.3448e-05,-0.023097,-3.0586e-05,-53.656,2.2664
22744,20.497,2.8182,0.1,7.7301e-05,772.48,7.6215e-05,743.42,-2.2731e-05,-0.023668,-3.0067e-05,-55.143,2.2816
22745,20.405,2.9091,0.1,7.9239e-05,791.85,7.819e-05,763.64,-2.3448e-05,-0.023098,-3.0586e-05,-53.656,2.2664
22746,20.497,2.6364,0.1,7.7268e-05,772.15,7.6193e-05,743.37,-2.2746e-05,-0.02329,-3.0015e-05,-54.634,2.2816
22747,20.405,2.7273,0.1,7.9219e-05,791.64,7.8176e-05,763.62,-2.3458e-05,-0.022854,-3.0553e-05,-53.331,2.2663
22748,20.497,2.4545,0.1,7.7214e-05,771.61,7.6158e-05,743.3,-2.2772e-05,-0.022646,-2.9928e-05,-53.794,2.2815
22749,20.405,2.5455,0.1,7.9178e-05,791.23,7.815e-05,763.56,-2.3477e-05,-0.022347,-3.0486e-05,-52.685,2.2663
22750,20.497,2.2727,0.1,7.7141e-05,770.88,7.611e-05,743.2,-2.2807e-05,-0.021716,-2.9809e-05,-52.635,2.2814
22751,20.405,2.3636,0.1,7.9118e-05,790.64,7.8111e-05,763.49,-2.3507e-05,-0.021571,-3.0388e-05,-51.728,2.2662
22752,20.497,2.0909,0.1,7.705e-05,769.97,7.6052e-05,743.1,-2.2851e-05,-0.020471,-2.9659e-05,-51.174,2.2814
22753,20.405,2.1818,0.1,7.9041e-05,789.87,7.8061e-05,763.41,-2.3545e-05,-0.020504,-3.026e-05,-50.475,2.2662
22754,20.497,1.9091,0.1,7.6945e-05,768.92,7.5985e-05,743,-2.2905e-05,-0.01887,-2.9482e-05,-49.434,2.2812
22755,20.405,2,0.1,7.895e-05,788.95,7.8003e-05,763.33,-2.3593e-05,-0.019105,-3.0105e-05,-48.944,2.2661
22756,20.497,1.7273,0.1,7.6829e-05,767.76,7.5911e-05,742.93,-2.2969e-05,-0.016863,-2.928e-05,-47.442,2.2811
22757,20.405,1.8182,0.1,7.8847e-05,787.92,7.7938e-05,763.27,-2.365e-05,-0.017337,-2.9924e-05,-47.16,2.2659
22758,20.497,1.5455,0.1,7.6705e-05,766.53,7.5836e-05,742.9,-2.304e-05,-0.014379,-2.9058e-05,-45.232,2.281
22759,20.405,1.6364,0.1,7.8735e-05,786.81,7.7869e-05,763.25,-2.3715e-05,-0.015141,-2.9723e-05,-45.152,2.2658
22760,20.497,1.3636,0.1,7.658e-05,765.27,7.5761e-05,742.94,-2.312e-05,-0.011346,-2.8821e-05,-42.842,2.2808
22761,20.405,1.4545,0.1,7.862e-05,785.65,7.7801e-05,763.29,-2.3789e-05,-0.012444,-2.9504e-05,-42.954,2.2656
22762,20.497,1.1818,0.1,7.6458e-05,764.05,7.5692e-05,743.09,-2.3208e-05,-0.0076355,-2.8573e-05,-40.317,2.2806
22763,20.405,1.2727,0.1,7.8505e-05,784.51,7.7735e-05,763.41,-2.387e-05,-0.0091763,-2.9273e-05,-40.607,2.2655
22764,20.497,1,0.1,7.6345e-05,762.92,7.5633e-05,743.37,-2.3303e-05,-0.0032261,-2.8321e-05,-37.705,2.2804
22765,20.405,1.0909,0.1,7.8397e-05,783.43,7.7678e-05,763.66,-2.3959e-05,-0.0051683,-2.9036e-05,-38.155,2.2653
22766,20.497,0.81818,0.1,7.6247e-05,761.95,7.559e-05,743.81,-2.3405e-05,0.0024388,-2.8071e-05,-35.06,2.2802
22767,20.405,0.90909,0.1,7.8302e-05,782.48,7.7635e-05,764.05,-2.4054e-05,-0.00055642,-2.8798e-05,-35.647,2.265
22768,20.497,0.63636,0.1,7.6174e-05,761.21,7.557e-05,744.47,-2.3512e-05,0.0078572,-2.7831e-05,-32.444,2.28
22769,20.405,0.72727,0.1,7.8226e-05,781.72,7.7609e-05,764.62,-2.4155e-05,0.005861,-2.8566e-05,-33.136,2.2648
22770,20.497,0.45455,0.1,7.6142e-05,760.89,7.5588e-05,745.47,-2.3625e-05,0.022455,-2.7619e-05,-29.985,2.2797
22771,20.405,0.54545,0.1,7.8176e-05,781.22,7.7609e-05,765.43,-2.4262e-05,0.0099302,-2.8348e-05,-30.687,2.2646
22772,20.497,0.27273,0.1,7.635e-05,762.98,7.5816e-05,748.08,-2.3745e-05,0.021114,-2.7605e-05,-28.982,2.2794
22773,20.405,0.36364,0.1,7.8183e-05,781.29,7.7659e-05,766.67,-2.4373e-05,0.033787,-2.8169e-05,-28.487,2.2643
22774,20.405,0.18182,0.1,7.8631e-05,785.77,7.8097e-05,770.84,-2.4495e-05,0.0012792,-2.8364e-05,-29.066,2.264
22775,20.497,0.090909,0.1,7.5245e-05,751.93,7.4895e-05,742,-2.3858e-05,0.0082769,-2.6454e-05,-19.493,2.2791
22776,20.313,5.7273,0.1,8.0431e-05,803.76,7.9912e-05,789.21,-2.5123e-05,0.019622,-2.8901e-05,-28.364,2.2489
22777,20.221,5.8182,0.1,8.2725e-05,826.68,8.2202e-05,812.03,-2.5873e-05,0.00075216,-2.9673e-05,-28.556,2.2335
22778,20.313,5.9091,0.1,7.9349e-05,792.94,7.9006e-05,783.2,-2.523e-05,0.0080797,-2.778e-05,-19.148,2.2486
22779,20.313,5.5455,0.1,8.0207e-05,801.52,7.9673e-05,786.57,-2.5011e-05,0.021282,-2.889e-05,-29.125,2.2492
22780,20.221,5.6364,0.1,8.2266e-05,822.09,8.1759e-05,807.87,-2.5758e-05,0.031858,-2.9458e-05,-27.768,2.2338
22781,20.313,5.3636,0.1,8.022e-05,801.64,7.9641e-05,785.53,-2.4905e-05,0.0076756,-2.9075e-05,-31.322,2.2494
22782,20.221,5.4545,0.1,8.2242e-05,821.85,8.1696e-05,806.59,-2.5654e-05,0.0095607,-2.9611e-05,-29.721,2.234
22783,20.313,5.1818,0.1,8.0272e-05,802.17,7.9646e-05,784.8,-2.4804e-05,0.0026264,-2.9286e-05,-33.67,2.2497
22784,20.221,5.2727,0.1,8.2272e-05,822.15,8.1682e-05,805.73,-2.5553e-05,0.0058104,-2.9801e-05,-31.915,2.2343
22785,20.313,5,0.1,8.0347e-05,802.92,7.9673e-05,784.29,-2.4709e-05,-0.0027087,-2.9506e-05,-36.047,2.2499
22786,20.221,5.0909,0.1,8.2327e-05,822.71,8.1693e-05,805.09,-2.5458e-05,-0.00021504,-3.0006e-05,-34.169,2.2345
22787,20.313,4.8182,0.1,8.0438e-05,803.82,7.9716e-05,783.93,-2.462e-05,-0.0068919,-2.973e-05,-38.398,2.2501
22788,20.221,4.9091,0.1,8.2401e-05,823.45,8.1721e-05,804.63,-2.5369e-05,-0.0045799,-3.0216e-05,-36.424,2.2348
22789,20.313,4.6364,0.1,8.0538e-05,804.83,7.9769e-05,783.71,-2.4538e-05,-0.010434,-2.995e-05,-40.675,2.2503
22790,20.221,4.7273,0.1,8.2488e-05,824.31,8.1763e-05,804.31,-2.5286e-05,-0.008396,-3.0426e-05,-38.631,2.235
22791,20.313,4.4545,0.1,8.0643e-05,805.87,7.9829e-05,783.6,-2.4463e-05,-0.013346,-3.0162e-05,-42.832,2.2505
22792,20.221,4.5455,0.1,8.2582e-05,825.25,8.1813e-05,804.12,-2.521e-05,-0.011527,-3.0631e-05,-40.747,2.2352
22793,20.313,4.2727,0.1,8.0747e-05,806.91,7.9891e-05,783.56,-2.4396e-05,-0.015741,-3.0361e-05,-44.829,2.2506
22794,20.221,4.3636,0.1,8.2678e-05,826.21,8.1868e-05,804.01,-2.5141e-05,-0.014124,-3.0826e-05,-42.73,2.2353
22795,20.313,4.0909,0.1,8.0846e-05,807.9,7.9951e-05,783.57,-2.4337e-05,-0.017687,-3.0541e-05,-46.632,2.2508
22796,20.221,4.1818,0.1,8.2772e-05,827.15,8.1924e-05,803.97,-2.508e-05,-0.016248,-3.1006e-05,-44.544,2.2355
22797,20.313,3.9091,0.1,8.0936e-05,808.8,8.0008e-05,783.61,-2.4287e-05,-0.019242,-3.07e-05,-48.208,2.2509
22798,20.221,4,0.1,8.286e-05,828.03,8.1978e-05,803.97,-2.5027e-05,-0.017964,-3.1168e-05,-46.159,2.2356
22799,20.313,3.7273,0.1,8.1014e-05,809.58,8.0057e-05,783.67,-2.4245e-05,-0.020456,-3.0835e-05,-49.533,2.251
22800,20.221,3.8182,0.1,8.2938e-05,828.81,8.2026e-05,804,-2.4982e-05,-0.019324,-3.1308e-05,-47.545,2.2357
22801,20.313,3.5455,0.1,8.1077e-05,810.21,8.0098e-05,783.73,-2.4212e-05,-0.021365,-3.0942e-05,-50.585,2.251
22802,20.221,3.6364,0.1,8.3004e-05,829.46,8.2068e-05,804.04,-2.4946e-05,-0.020368,-3.1423e-05,-48.681,2.2358
22803,20.313,3.3636,0.1,8.1124e-05,810.68,8.0128e-05,783.77,-2.4189e-05,-0.021995,-3.102e-05,-51.348,2.2511
22804,20.221,3.4545,0.1,8.3055e-05,829.98,8.2101e-05,804.08,-2.4919e-05,-0.021126,-3.1511e-05,-49.549,2.2358
22805,20.313,3.1818,0.1,8.1152e-05,810.96,8.0146e-05,783.81,-2.4175e-05,-0.022366,-3.1067e-05,-51.81,2.2511
22806,20.221,3.2727,0.1,8.309e-05,830.33,8.2123e-05,804.12,-2.4901e-05,-0.021619,-3.157e-05,-50.135,2.2359
22807,20.313,3,0.1,8.1162e-05,811.06,8.0153e-05,783.82,-2.417e-05,-0.022489,-3.1083e-05,-51.965,2.2511
22808,20.221,3.0909,0.1,8.3108e-05,830.51,8.2135e-05,804.13,-2.4892e-05,-0.021861,-3.16e-05,-50.43,2.2359
22809,20.313,2.8182,0.1,8.1152e-05,810.96,8.0146e-05,783.81,-2.4175e-05,-0.022367,-3.1067e-05,-51.81,2.2511
22810,20.221,2.9091,0.1,8.3108e-05,830.51,8.2135e-05,804.13,-2.4892e-05,-0.021862,-3.16e-05,-50.43,2.2359
22811,20.313,2.6364,0.1,8.1124e-05,810.68,8.0128e-05,783.77,-2.4189e-05,-0.021995,-3.102e-05,-51.348,2.2511
22812,20.221,2.7273,0.1,8.309e-05,830.33,8.2123e-05,804.12,-2.4901e-05,-0.021619,-3.157e-05,-50.135,2.2359
22813,20.313,2.4545,0.1,8.1077e-05,810.21,8.0098e-05,783.73,-2.4212e-05,-0.021365,-3.0942e-05,-50.585,2.251
22814,20.221,2.5455,0.1,8.3055e-05,829.98,8.2101e-05,804.08,-2.4919e-05,-0.021125,-3.1511e-05,-49.549,2.2358
22815,20.313,2.2727,0.1,8.1014e-05,809.58,8.0057e-05,783.67,-2.4245e-05,-0.020457,-3.0835e-05,-49.533,2.251
22816,20.221,2.3636,0.1,8.3004e-05,829.46,8.2068e-05,804.04,-2.4946e-05,-0.020368,-3.1423e-05,-48.681,2.2358
22817,20.313,2.0909,0.1,8.0936e-05,808.8,8.0008e-05,783.61,-2.4287e-05,-0.019242,-3.07e-05,-48.208,2.2509
22818,20.221,2.1818,0.1,8.2938e-05,828.81,8.2026e-05,804,-2.4982e-05,-0.019324,-3.1308e-05,-47.545,2.2357
22819,20.313,1.9091,0.1,8.0846e-05,807.9,7.9951e-05,783.57,-2.4337e-05,-0.017685,-3.0541e-05,-46.632,2.2508
22820,20.221,2,0.1,8.286e-05,828.03,8.1978e-05,803.97,-2.5027e-05,-0.017964,-3.1168e-05,-46.159,2.2356
22821,20.313,1.7273,0.1,8.0747e-05,806.91,7.9891e-05,783.56,-2.4396e-05,-0.015741,-3.0361e-05,-44.829,2.2506
22822,20.221,1.8182,0.1,8.2772e-05,827.15,8.1924e-05,803.97,-2.508e-05,-0.016247,-3.1006e-05,-44.544,2.2355
22823,20.313,1.5455,0.1,8.0643e-05,805.87,7.9829e-05,783.6,-2.4464e-05,-0.013346,-3.0162e-05,-42.832,2.2505
22824,20.221,1.6364,0.1,8.2678e-05,826.21,8.1868e-05,804.01,-2.5141e-05,-0.014124,-3.0826e-05,-42.73,2.2353
22825,20.313,1.3636,0.1,8.0538e-05,804.83,7.9769e-05,783.71,-2.4538e-05,-0.010434,-2.995e-05,-40.675,2.2503
22826,20.221,1.4545,0.1,8.2582e-05,825.25,8.1813e-05,804.12,-2.521e-05,-0.011527,-3.0631e-05,-40.747,2.2352
22827,20.313,1.1818,0.1,8.0438e-05,803.82,7.9716e-05,783.93,-2.462e-05,-0.0068924,-2.973e-05,-38.398,2.2501
22828,20.221,1.2727,0.1,8.2488e-05,824.31,8.1763e-05,804.31,-2.5286e-05,-0.0083961,-3.0426e-05,-38.631,2.235
22829,20.313,1,0.1,8.0347e-05,802.92,7.9673e-05,784.29,-2.4709e-05,-0.0027096,-2.9506e-05,-36.047,2.2499
22830,20.221,1.0909,0.1,8.2401e-05,823.45,8.1721e-05,804.63,-2.5369e-05,-0.0045799,-3.0216e-05,-36.424,2.2348
22831,20.313,0.81818,0.1,8.0272e-05,802.17,7.9646e-05,784.8,-2.4804e-05,0.0026245,-2.9286e-05,-33.67,2.2497
22832,20.221,0.90909,0.1,8.2327e-05,822.71,8.1693e-05,805.09,-2.5458e-05,-0.0002167,-3.0006e-05,-34.169,2.2345
22833,20.313,0.63636,0.1,8.022e-05,801.64,7.9641e-05,785.53,-2.4905e-05,0.0076746,-2.9075e-05,-31.322,2.2494
22834,20.221,0.72727,0.1,8.2272e-05,822.15,8.1682e-05,805.73,-2.5553e-05,0.0058082,-2.9801e-05,-31.915,2.2343
22835,20.313,0.45455,0.1,8.0207e-05,801.52,7.9673e-05,786.57,-2.5011e-05,0.021284,-2.889e-05,-29.125,2.2492
22836,20.221,0.54545,0.1,8.2242e-05,821.85,8.1696e-05,806.59,-2.5654e-05,0.0095597,-2.961e-05,-29.721,2.234
22837,20.313,0.27273,0.1,8.0431e-05,803.76,7.9912e-05,789.21,-2.5123e-05,0.019625,-2.8901e-05,-28.364,2.2489
22838,20.221,0.36364,0.1,8.2266e-05,822.09,8.1759e-05,807.87,-2.5758e-05,0.031862,-2.9458e-05,-27.768,2.2338
22839,20.221,0.18182,0.1,8.2725e-05,826.68,8.2202e-05,812.03,-2.5873e-05,0.00075337,-2.9673e-05,-28.556,2.2335
22840,20.313,0.090909,0.1,7.9349e-05,792.94,7.9006e-05,783.2,-2.523e-05,0.0080797,-2.778e-05,-19.148,2.2486
22841,20.128,5.7273,0.1,8.4528e-05,844.7,8.4022e-05,830.49,-2.6506e-05,0.018283,-3.0203e-05,-27.759,2.2184
22842,20.036,5.8182,0.1,8.6834e-05,867.75,8.6323e-05,853.38,-2.7255e-05,0.00033483,-3.0988e-05,-28.05,2.203
22843,20.128,5.9091,0.1,8.3469e-05,834.11,8.3133e-05,824.55,-2.6607e-05,0.0078647,-2.9111e-05,-18.806,2.2181
22844,20.128,5.5455,0.1,8.4291e-05,842.33,8.3774e-05,827.83,-2.6401e-05,0.020184,-3.017e-05,-28.302,2.2187
22845,20.036,5.6364,0.1,8.6366e-05,863.06,8.5874e-05,849.22,-2.7147e-05,0.030087,-3.0754e-05,-27.073,2.2033
22846,20.128,5.3636,0.1,8.4286e-05,842.28,8.373e-05,826.74,-2.6301e-05,0.0074713,-3.033e-05,-30.26,2.2189
22847,20.036,5.4545,0.1,8.6327e-05,862.67,8.5801e-05,847.91,-2.7048e-05,0.0092023,-3.0883e-05,-28.803,2.2036
22848,20.128,5.1818,0.1,8.4319e-05,842.61,8.3722e-05,825.96,-2.6207e-05,0.0027557,-3.0514e-05,-32.363,2.2192
22849,20.036,5.2727,0.1,8.6339e-05,862.79,8.5774e-05,847,-2.6954e-05,0.0057345,-3.1049e-05,-30.764,2.2039
22850,20.128,5,0.1,8.4374e-05,843.16,8.3734e-05,825.38,-2.6117e-05,-0.0022755,-3.0708e-05,-34.497,2.2194
22851,20.036,5.0909,0.1,8.6376e-05,863.16,8.5771e-05,846.3,-2.6865e-05,6.6717e-05,-3.1228e-05,-32.784,2.2041
22852,20.128,4.8182,0.1,8.4445e-05,843.86,8.3762e-05,824.96,-2.6034e-05,-0.0062503,-3.0906e-05,-36.61,2.2197
22853,20.036,4.9091,0.1,8.6431e-05,863.71,8.5786e-05,845.78,-2.6781e-05,-0.0040695,-3.1413e-05,-34.807,2.2043
22854,20.128,4.6364,0.1,8.4525e-05,844.67,8.3801e-05,824.67,-2.5957e-05,-0.0096349,-3.1101e-05,-38.659,2.2198
22855,20.036,4.7273,0.1,8.6498e-05,864.38,8.5813e-05,845.4,-2.6703e-05,-0.0077075,-3.1599e-05,-36.79,2.2045
22856,20.128,4.4545,0.1,8.4611e-05,845.53,8.3847e-05,824.49,-2.5887e-05,-0.012434,-3.1289e-05,-40.602,2.22
22857,20.036,4.5455,0.1,8.6573e-05,865.14,8.585e-05,845.14,-2.6632e-05,-0.010711,-3.178e-05,-38.694,2.2047
22858,20.128,4.2727,0.1,8.4697e-05,846.39,8.3896e-05,824.38,-2.5825e-05,-0.014747,-3.1466e-05,-42.405,2.2202
22859,20.036,4.3636,0.1,8.6652e-05,865.92,8.5892e-05,844.96,-2.6568e-05,-0.013213,-3.1954e-05,-40.481,2.2049
22860,20.128,4.0909,0.1,8.478e-05,847.22,8.3945e-05,824.34,-2.5769e-05,-0.016631,-3.1628e-05,-44.033,2.2203
22861,20.036,4.1818,0.1,8.673e-05,866.7,8.5936e-05,844.86,-2.651e-05,-0.015268,-3.2114e-05,-42.117,2.2051
22862,20.128,3.9091,0.1,8.4856e-05,847.98,8.3991e-05,824.33,-2.5722e-05,-0.018144,-3.177e-05,-45.458,2.2204
22863,20.036,4,0.1,8.6803e-05,867.43,8.5979e-05,844.82,-2.6461e-05,-0.016935,-3.2258e-05,-43.575,2.2052
22864,20.128,3.7273,0.1,8.4923e-05,848.64,8.4032e-05,824.34,-2.5683e-05,-0.019328,-3.189e-05,-46.657,2.2205
22865,20.036,3.8182,0.1,8.6869e-05,868.09,8.6019e-05,844.8,-2.6419e-05,-0.01826,-3.2383e-05,-44.828,2.2053
22866,20.128,3.5455,0.1,8.4977e-05,849.18,8.4066e-05,824.37,-2.5653e-05,-0.020216,-3.1986e-05,-47.61,2.2206
22867,20.036,3.6364,0.1,8.6925e-05,868.65,8.6054e-05,844.8,-2.6385e-05,-0.019278,-3.2486e-05,-45.856,2.2054
22868,20.128,3.3636,0.1,8.5017e-05,849.58,8.4092e-05,824.39,-2.5631e-05,-0.020834,-3.2056e-05,-48.301,2.2207
22869,20.036,3.4545,0.1,8.6968e-05,869.08,8.6081e-05,844.81,-2.636e-05,-0.020021,-3.2565e-05,-46.641,2.2054
22870,20.128,3.1818,0.1,8.5041e-05,849.83,8.4107e-05,824.41,-2.5617e-05,-0.021196,-3.2099e-05,-48.72,2.2207
22871,20.036,3.2727,0.1,8.6998e-05,869.38,8.61e-05,844.83,-2.6343e-05,-0.020503,-3.2618e-05,-47.172,2.2055
22872,20.128,3,0.1,8.5049e-05,849.91,8.4112e-05,824.41,-2.5613e-05,-0.021316,-3.2113e-05,-48.861,2.2207
22873,20.036,3.0909,0.1,8.7014e-05,869.54,8.6109e-05,844.84,-2.6334e-05,-0.020741,-3.2645e-05,-47.439,2.2055
22874,20.128,2.8182,0.1,8.5041e-05,849.83,8.4107e-05,824.41,-2.5617e-05,-0.021197,-3.2099e-05,-48.72,2.2207
22875,20.036,2.9091,0.1,8.7014e-05,869.54,8.6109e-05,844.84,-2.6334e-05,-0.020741,-3.2645e-05,-47.439,2.2055
22876,20.128,2.6364,0.1,8.5017e-05,849.58,8.4092e-05,824.39,-2.5631e-05,-0.020833,-3.2056e-05,-48.301,2.2207
22877,20.036,2.7273,0.1,8.6998e-05,869.38,8.61e-05,844.83,-2.6343e-05,-0.020503,-3.2618e-05,-47.172,2.2055
22878,20.128,2.4545,0.1,8.4977e-05,849.18,8.4066e-05,824.37,-2.5653e-05,-0.020216,-3.1986e-05,-47.61,2.2206
22879,20.036,2.5455,0.1,8.6968e-05,869.08,8.6081e-05,844.81,-2.636e-05,-0.020019,-3.2565e-05,-46.641,2.2054
22880,20.128,2.2727,0.1,8.4923e-05,848.64,8.4032e-05,824.34,-2.5683e-05,-0.019327,-3.189e-05,-46.657,2.2205
22881,20.036,2.3636,0.1,8.6925e-05,868.65,8.6054e-05,844.8,-2.6385e-05,-0.019279,-3.2486e-05,-45.856,2.2054
22882,20.128,2.0909,0.1,8.4856e-05,847.98,8.3991e-05,824.33,-2.5722e-05,-0.018144,-3.177e-05,-45.458,2.2204
22883,20.036,2.1818,0.1,8.6869e-05,868.09,8.6019e-05,844.8,-2.6419e-05,-0.018258,-3.2383e-05,-44.828,2.2053
22884,20.128,1.9091,0.1,8.478e-05,847.22,8.3945e-05,824.34,-2.5769e-05,-0.016632,-3.1628e-05,-44.033,2.2203
22885,20.036,2,0.1,8.6803e-05,867.43,8.5979e-05,844.82,-2.6461e-05,-0.016937,-3.2258e-05,-43.575,2.2052
22886,20.128,1.7273,0.1,8.4697e-05,846.39,8.3896e-05,824.38,-2.5825e-05,-0.014747,-3.1466e-05,-42.405,2.2202
22887,20.036,1.8182,0.1,8.673e-05,866.7,8.5936e-05,844.86,-2.651e-05,-0.015268,-3.2114e-05,-42.117,2.2051
22888,20.128,1.5455,0.1,8.4611e-05,845.53,8.3847e-05,824.49,-2.5887e-05,-0.012435,-3.1289e-05,-40.602,2.22
22889,20.036,1.6364,0.1,8.6652e-05,865.92,8.5892e-05,844.96,-2.6568e-05,-0.013214,-3.1954e-05,-40.48,2.2049
22890,20.128,1.3636,0.1,8.4525e-05,844.67,8.3801e-05,824.67,-2.5957e-05,-0.0096355,-3.1101e-05,-38.658,2.2198
22891,20.036,1.4545,0.1,8.6573e-05,865.14,8.585e-05,845.14,-2.6632e-05,-0.01071,-3.178e-05,-38.694,2.2047
22892,20.128,1.1818,0.1,8.4445e-05,843.86,8.3762e-05,824.96,-2.6034e-05,-0.00625,-3.0906e-05,-36.61,2.2197
22893,20.036,1.2727,0.1,8.6498e-05,864.38,8.5813e-05,845.4,-2.6703e-05,-0.0077078,-3.1599e-05,-36.79,2.2045
22894,20.128,1,0.1,8.4374e-05,843.16,8.3734e-05,825.38,-2.6117e-05,-0.0022762,-3.0708e-05,-34.497,2.2194
22895,20.036,1.0909,0.1,8.6431e-05,863.71,8.5786e-05,845.78,-2.6781e-05,-0.00407,-3.1413e-05,-34.807,2.2043
22896,20.128,0.81818,0.1,8.4319e-05,842.61,8.3722e-05,825.96,-2.6207e-05,0.0027537,-3.0514e-05,-32.363,2.2192
22897,20.036,0.90909,0.1,8.6376e-05,863.16,8.5771e-05,846.3,-2.6865e-05,6.5381e-05,-3.1228e-05,-32.783,2.2041
22898,20.128,0.63636,0.1,8.4286e-05,842.28,8.373e-05,826.74,-2.6301e-05,0.0074692,-3.033e-05,-30.26,2.2189
22899,20.036,0.72727,0.1,8.6339e-05,862.79,8.5774e-05,847,-2.6954e-05,0.005733,-3.1049e-05,-30.764,2.2039
22900,20.128,0.45455,0.1,8.4291e-05,842.33,8.3774e-05,827.83,-2.6401e-05,0.020185,-3.017e-05,-28.302,2.2187
22901,20.036,0.54545,0.1,8.6327e-05,862.67,8.5801e-05,847.91,-2.7048e-05,0.0092018,-3.0883e-05,-28.803,2.2036
22902,20.128,0.27273,0.1,8.4528e-05,844.7,8.4022e-05,830.49,-2.6506e-05,0.018285,-3.0203e-05,-27.759,2.2184
22903,20.036,0.36364,0.1,8.6366e-05,863.06,8.5874e-05,849.22,-2.7147e-05,0.03009,-3.0754e-05,-27.073,2.2033
22904,20.036,0.18182,0.1,8.6834e-05,867.75,8.6323e-05,853.38,-2.7255e-05,0.00033572,-3.0988e-05,-28.05,2.203
22905,20.128,0.090909,0.1,8.3469e-05,834.11,8.3133e-05,824.55,-2.6607e-05,0.0078653,-2.9111e-05,-18.806,2.2181
22906,19.944,5.7273,0.1,8.8642e-05,885.81,8.8148e-05,871.92,-2.7894e-05,0.01709,-3.1512e-05,-27.169,2.1879
22907,19.852,5.8182,0.1,9.0959e-05,908.97,9.0459e-05,894.88,-2.8642e-05,1.1997e-05,-3.2308e-05,-27.548,2.1726
22908,19.944,5.9091,0.1,8.7604e-05,875.44,8.7276e-05,866.06,-2.7989e-05,0.0076484,-3.0448e-05,-18.468,2.1876
22909,19.944,5.5455,0.1,8.8393e-05,883.32,8.7893e-05,869.25,-2.7794e-05,0.019173,-3.1459e-05,-27.514,2.1882
22910,19.852,5.6364,0.1,9.0484e-05,904.21,9.0006e-05,890.73,-2.854e-05,0.028463,-3.2058e-05,-26.404,2.1729
22911,19.944,5.3636,0.1,8.8372e-05,883.11,8.7838e-05,868.12,-2.7701e-05,0.0072718,-3.1595e-05,-29.254,2.1885
22912,19.852,5.4545,0.1,9.043e-05,903.68,8.9923e-05,889.4,-2.8447e-05,0.0088616,-3.2165e-05,-27.928,2.1732
22913,19.944,5.1818,0.1,8.8388e-05,883.27,8.7817e-05,867.29,-2.7612e-05,0.0028569,-3.1756e-05,-31.135,2.1888
22914,19.852,5.2727,0.1,9.0427e-05,903.64,8.9885e-05,888.44,-2.8358e-05,0.0056498,-3.2309e-05,-29.677,2.1735
22915,19.944,5,0.1,8.8425e-05,883.64,8.7816e-05,866.65,-2.7528e-05,-0.0018973,-3.1926e-05,-33.046,2.189
22916,19.852,5.0909,0.1,9.0447e-05,903.84,8.987e-05,887.69,-2.8274e-05,0.00030676,-3.2464e-05,-31.483,2.1737
22917,19.944,4.8182,0.1,8.8477e-05,884.16,8.7831e-05,866.17,-2.745e-05,-0.0056779,-3.21e-05,-34.941,2.1893
22918,19.852,4.9091,0.1,9.0484e-05,904.22,8.9872e-05,887.11,-2.8196e-05,-0.0036179,-3.2626e-05,-33.295,2.174
22919,19.944,4.6364,0.1,8.854e-05,884.79,8.7856e-05,865.82,-2.7378e-05,-0.0089179,-3.2272e-05,-36.782,2.1895
22920,19.852,4.7273,0.1,9.0534e-05,904.72,8.9886e-05,886.67,-2.8123e-05,-0.0070905,-3.279e-05,-35.074,2.1742
22921,19.944,4.4545,0.1,8.8608e-05,885.47,8.789e-05,865.57,-2.7312e-05,-0.01161,-3.2439e-05,-38.53,2.1896
22922,19.852,4.5455,0.1,9.0593e-05,905.3,8.9911e-05,886.34,-2.8056e-05,-0.0099751,-3.295e-05,-36.783,2.1744
22923,19.944,4.2727,0.1,8.8678e-05,886.17,8.7927e-05,865.41,-2.7254e-05,-0.013843,-3.2596e-05,-40.153,2.1898
22924,19.852,4.3636,0.1,9.0655e-05,905.93,8.9941e-05,886.12,-2.7996e-05,-0.012387,-3.3103e-05,-38.39,2.1746
22925,19.944,4.0909,0.1,8.8747e-05,886.86,8.7965e-05,865.31,-2.7202e-05,-0.015672,-3.2739e-05,-41.621,2.1899
22926,19.852,4.1818,0.1,9.0718e-05,906.56,8.9974e-05,885.96,-2.7942e-05,-0.014378,-3.3246e-05,-39.864,2.1747
22927,19.944,3.9091,0.1,8.881e-05,887.49,8.8002e-05,865.25,-2.7158e-05,-0.017143,-3.2866e-05,-42.907,2.1901
22928,19.852,4,0.1,9.0779e-05,907.16,9.0008e-05,885.86,-2.7895e-05,-0.015998,-3.3374e-05,-41.177,2.1748
22929,19.944,3.7273,0.1,8.8866e-05,888.05,8.8035e-05,865.22,-2.7121e-05,-0.018297,-3.2974e-05,-43.99,2.1902
22930,19.852,3.8182,0.1,9.0833e-05,907.71,9.0039e-05,885.8,-2.7856e-05,-0.017289,-3.3485e-05,-42.307,2.1749
22931,19.944,3.5455,0.1,8.8911e-05,888.5,8.8063e-05,865.22,-2.7093e-05,-0.019165,-3.3059e-05,-44.851,2.1902
22932,19.852,3.6364,0.1,9.088e-05,908.17,9.0067e-05,885.77,-2.7825e-05,-0.018283,-3.3577e-05,-43.235,2.175
22933,19.944,3.3636,0.1,8.8945e-05,888.84,8.8084e-05,865.22,-2.7072e-05,-0.019769,-3.3122e-05,-45.476,2.1903
22934,19.852,3.4545,0.1,9.0916e-05,908.54,9.0089e-05,885.76,-2.7801e-05,-0.019009,-3.3647e-05,-43.944,2.1751
22935,19.944,3.1818,0.1,8.8966e-05,889.05,8.8097e-05,865.22,-2.706e-05,-0.020126,-3.316e-05,-45.855,2.1903
22936,19.852,3.2727,0.1,9.0942e-05,908.79,9.0104e-05,885.75,-2.7785e-05,-0.019482,-3.3695e-05,-44.424,2.1751
22937,19.944,3,0.1,8.8973e-05,889.12,8.8101e-05,865.22,-2.7056e-05,-0.020244,-3.3173e-05,-45.982,2.1903
22938,19.852,3.0909,0.1,9.0955e-05,908.92,9.0112e-05,885.75,-2.7777e-05,-0.019716,-3.3719e-05,-44.665,2.1752
22939,19.944,2.8182,0.1,8.8966e-05,889.05,8.8097e-05,865.22,-2.706e-05,-0.020126,-3.316e-05,-45.855,2.1903
22940,19.852,2.9091,0.1,9.0955e-05,908.92,9.0112e-05,885.75,-2.7777e-05,-0.019715,-3.3719e-05,-44.665,2.1752
22941,19.944,2.6364,0.1,8.8945e-05,888.84,8.8084e-05,865.22,-2.7072e-05,-0.019769,-3.3122e-05,-45.476,2.1903
22942,19.852,2.7273,0.1,9.0942e-05,908.79,9.0104e-05,885.75,-2.7785e-05,-0.019482,-3.3695e-05,-44.424,2.1751
22943,19.944,2.4545,0.1,8.8911e-05,888.5,8.8063e-05,865.22,-2.7093e-05,-0.019165,-3.3059e-05,-44.851,2.1902
22944,19.852,2.5455,0.1,9.0916e-05,908.54,9.0089e-05,885.76,-2.7801e-05,-0.019009,-3.3647e-05,-43.944,2.1751
22945,19.944,2.2727,0.1,8.8866e-05,888.05,8.8035e-05,865.22,-2.7121e-05,-0.018296,-3.2974e-05,-43.99,2.1902
22946,19.852,2.3636,0.1,9.088e-05,908.17,9.0067e-05,885.77,-2.7825e-05,-0.018283,-3.3577e-05,-43.235,2.175
22947,19.944,2.0909,0.1,8.881e-05,887.49,8.8002e-05,865.25,-2.7158e-05,-0.017143,-3.2866e-05,-42.907,2.1901
22948,19.852,2.1818,0.1,9.0833e-05,907.71,9.0039e-05,885.8,-2.7856e-05,-0.017288,-3.3485e-05,-42.307,2.1749
22949,19.944,1.9091,0.1,8.8747e-05,886.86,8.7965e-05,865.31,-2.7202e-05,-0.015671,-3.2739e-05,-41.621,2.1899
22950,19.852,2,0.1,9.0779e-05,907.16,9.0008e-05,885.86,-2.7895e-05,-0.015999,-3.3374e-05,-41.177,2.1748
22951,19.944,1.7273,0.1,8.8678e-05,886.17,8.7927e-05,865.41,-2.7254e-05,-0.013843,-3.2596e-05,-40.153,2.1898
22952,19.852,1.8182,0.1,9.0718e-05,906.56,8.9974e-05,885.96,-2.7942e-05,-0.014377,-3.3246e-05,-39.864,2.1747
22953,19.944,1.5455,0.1,8.8608e-05,885.47,8.789e-05,865.57,-2.7312e-05,-0.011609,-3.2439e-05,-38.53,2.1896
22954,19.852,1.6364,0.1,9.0655e-05,905.93,8.9941e-05,886.12,-2.7996e-05,-0.012389,-3.3103e-05,-38.39,2.1746
22955,19.944,1.3636,0.1,8.854e-05,884.79,8.7856e-05,865.82,-2.7378e-05,-0.0089168,-3.2272e-05,-36.782,2.1895
22956,19.852,1.4545,0.1,9.0593e-05,905.3,8.9911e-05,886.34,-2.8056e-05,-0.0099732,-3.295e-05,-36.783,2.1744
22957,19.944,1.1818,0.1,8.8477e-05,884.16,8.7831e-05,866.17,-2.745e-05,-0.005679,-3.21e-05,-34.941,2.1893
22958,19.852,1.2727,0.1,9.0534e-05,904.72,8.9886e-05,886.67,-2.8123e-05,-0.0070924,-3.279e-05,-35.074,2.1742
22959,19.944,1,0.1,8.8425e-05,883.64,8.7816e-05,866.65,-2.7528e-05,-0.0018984,-3.1926e-05,-33.046,2.189
22960,19.852,1.0909,0.1,9.0484e-05,904.22,8.9872e-05,887.11,-2.8196e-05,-0.0036176,-3.2626e-05,-33.295,2.174
22961,19.944,0.81818,0.1,8.8388e-05,883.27,8.7817e-05,867.29,-2.7612e-05,0.0028559,-3.1756e-05,-31.135,2.1888
22962,19.852,0.90909,0.1,9.0447e-05,903.84,8.987e-05,887.69,-2.8274e-05,0.00030471,-3.2464e-05,-31.483,2.1737
22963,19.944,0.63636,0.1,8.8372e-05,883.11,8.7838e-05,868.12,-2.7701e-05,0.007272,-3.1595e-05,-29.254,2.1885
22964,19.852,0.72727,0.1,9.0427e-05,903.64,8.9885e-05,888.44,-2.8358e-05,0.0056483,-3.2309e-05,-29.677,2.1735
22965,19.944,0.45455,0.1,8.8393e-05,883.32,8.7893e-05,869.25,-2.7794e-05,0.019175,-3.1459e-05,-27.514,2.1882
22966,19.852,0.54545,0.1,9.043e-05,903.68,8.9923e-05,889.4,-2.8447e-05,0.0088616,-3.2165e-05,-27.928,2.1732
22967,19.944,0.27273,0.1,8.8642e-05,885.81,8.8148e-05,871.92,-2.7894e-05,0.017091,-3.1512e-05,-27.169,2.1879
22968,19.852,0.36364,0.1,9.0484e-05,904.21,9.0006e-05,890.73,-2.854e-05,0.028464,-3.2058e-05,-26.404,2.1729
22969,19.852,0.18182,0.1,9.0959e-05,908.97,9.0459e-05,894.88,-2.8642e-05,1.2628e-05,-3.2308e-05,-27.548,2.1726
22970,19.944,0.090909,0.1,8.7604e-05,875.44,8.7276e-05,866.06,-2.7989e-05,0.0076489,-3.0448e-05,-18.468,2.1876
22971,19.76,5.7273,0.1,9.2772e-05,927.08,9.2291e-05,913.5,-2.9287e-05,0.016022,-3.2828e-05,-26.592,2.1575
22972,19.667,5.8182,0.1,9.5101e-05,950.35,9.4611e-05,936.53,-3.0034e-05,-0.00023824,-3.3634e-05,-27.052,2.1422
22973,19.76,5.9091,0.1,9.1756e-05,916.93,9.1434e-05,907.73,-2.9376e-05,0.0074361,-3.1791e-05,-18.134,2.1572
22974,19.76,5.5455,0.1,9.2513e-05,924.49,9.2028e-05,910.82,-2.9192e-05,0.018238,-3.2756e-05,-26.76,2.1579
22975,19.667,5.6364,0.1,9.4619e-05,945.53,9.4155e-05,932.41,-2.9937e-05,0.026965,-3.3369e-05,-25.758,2.1425
22976,19.76,5.3636,0.1,9.2477e-05,924.14,9.1964e-05,909.66,-2.9104e-05,0.0070741,-3.2872e-05,-28.301,2.1581
22977,19.667,5.4545,0.1,9.4553e-05,944.88,9.4063e-05,931.04,-2.985e-05,0.0085397,-3.3457e-05,-27.095,2.1428
22978,19.76,5.1818,0.1,9.2478e-05,924.14,9.1932e-05,908.79,-2.9021e-05,0.0029325,-3.3011e-05,-29.978,2.1584
22979,19.667,5.2727,0.1,9.4535e-05,944.7,9.4015e-05,930.05,-2.9766e-05,0.0055512,-3.358e-05,-28.651,2.1431
22980,19.76,5,0.1,9.2499e-05,924.35,9.1919e-05,908.1,-2.8942e-05,-0.0015669,-3.3159e-05,-31.686,2.1587
22981,19.667,5.0909,0.1,9.454e-05,944.74,9.3988e-05,929.25,-2.9687e-05,0.00050808,-3.3715e-05,-30.261,2.1434
22982,19.76,4.8182,0.1,9.2534e-05,924.71,9.1921e-05,907.56,-2.8868e-05,-0.0051684,-3.3311e-05,-33.383,2.1589
22983,19.667,4.9091,0.1,9.4561e-05,944.96,9.3979e-05,928.62,-2.9613e-05,-0.0032222,-3.3856e-05,-31.88,2.1436
22984,19.76,4.6364,0.1,9.2581e-05,925.17,9.1935e-05,907.15,-2.8801e-05,-0.0082715,-3.3462e-05,-35.033,2.1591
22985,19.667,4.7273,0.1,9.4596e-05,945.31,9.3982e-05,928.12,-2.9545e-05,-0.0065415,-3.3999e-05,-33.472,2.1439
22986,19.76,4.4545,0.1,9.2634e-05,925.7,9.1957e-05,906.85,-2.8739e-05,-0.010864,-3.3609e-05,-36.602,2.1593
22987,19.667,4.5455,0.1,9.4639e-05,945.74,9.3995e-05,927.75,-2.9482e-05,-0.0093135,-3.4139e-05,-35.004,2.1441
22988,19.76,4.2727,0.1,9.2689e-05,926.25,9.1983e-05,906.63,-2.8684e-05,-0.013024,-3.3748e-05,-38.061,2.1595
22989,19.667,4.3636,0.1,9.4687e-05,946.22,9.4014e-05,927.46,-2.9425e-05,-0.011643,-3.4274e-05,-36.446,2.1443
22990,19.76,4.0909,0.1,9.2745e-05,926.81,9.2012e-05,906.48,-2.8636e-05,-0.014798,-3.3875e-05,-39.381,2.1596
22991,19.667,4.1818,0.1,9.4737e-05,946.72,9.4038e-05,927.26,-2.9375e-05,-0.013572,-3.44e-05,-37.77,2.1444
22992,19.76,3.9091,0.1,9.2796e-05,927.32,9.204e-05,906.38,-2.8594e-05,-0.016231,-3.3987e-05,-40.54,2.1597
22993,19.667,4,0.1,9.4785e-05,947.2,9.4063e-05,927.12,-2.9331e-05,-0.015147,-3.4513e-05,-38.951,2.1446
22994,19.76,3.7273,0.1,9.2842e-05,927.78,9.2066e-05,906.32,-2.856e-05,-0.017357,-3.4083e-05,-41.516,2.1598
22995,19.667,3.8182,0.1,9.483e-05,947.64,9.4086e-05,927.02,-2.9295e-05,-0.016405,-3.4612e-05,-39.968,2.1447
22996,19.76,3.5455,0.1,9.288e-05,928.16,9.2088e-05,906.28,-2.8533e-05,-0.018205,-3.4159e-05,-42.292,2.1599
22997,19.667,3.6364,0.1,9.4868e-05,948.02,9.4108e-05,926.96,-2.9265e-05,-0.017378,-3.4693e-05,-40.803,2.1448
22998,19.76,3.3636,0.1,9.2908e-05,928.44,9.2104e-05,906.26,-2.8514e-05,-0.018796,-3.4215e-05,-42.856,2.16
22999,19.667,3.4545,0.1,9.4898e-05,948.33,9.4125e-05,926.92,-2.9243e-05,-0.018086,-3.4756e-05,-41.442,2.1448
23000,19.76,3.1818,0.1,9.2925e-05,928.61,9.2115e-05,906.25,-2.8502e-05,-0.019146,-3.4249e-05,-43.198,2.16
23001,19.667,3.2727,0.1,9.4919e-05,948.53,9.4137e-05,926.89,-2.9228e-05,-0.01855,-3.4798e-05,-41.875,2.1449
23002,19.76,3,0.1,9.2931e-05,928.67,9.2118e-05,906.25,-2.8498e-05,-0.019261,-3.426e-05,-43.313,2.16
23003,19.667,3.0909,0.1,9.493e-05,948.64,9.4143e-05,926.89,-2.922e-05,-0.018779,-3.482e-05,-42.093,2.1449
23004,19.76,2.8182,0.1,9.2925e-05,928.61,9.2115e-05,906.25,-2.8502e-05,-0.019145,-3.4249e-05,-43.198,2.16
23005,19.667,2.9091,0.1,9.493e-05,948.64,9.4143e-05,926.89,-2.922e-05,-0.018779,-3.482e-05,-42.093,2.1449
23006,19.76,2.6364,0.1,9.2908e-05,928.44,9.2104e-05,906.26,-2.8514e-05,-0.018797,-3.4215e-05,-42.856,2.16
23007,19.667,2.7273,0.1,9.4919e-05,948.53,9.4137e-05,926.89,-2.9228e-05,-0.01855,-3.4798e-05,-41.875,2.1449
23008,19.76,2.4545,0.1,9.288e-05,928.16,9.2088e-05,906.28,-2.8533e-05,-0.018205,-3.4159e-05,-42.292,2.1599
23009,19.667,2.5455,0.1,9.4898e-05,948.33,9.4125e-05,926.92,-2.9243e-05,-0.018087,-3.4756e-05,-41.442,2.1448
23010,19.76,2.2727,0.1,9.2842e-05,927.78,9.2066e-05,906.32,-2.856e-05,-0.017356,-3.4083e-05,-41.516,2.1598
23011,19.667,2.3636,0.1,9.4868e-05,948.02,9.4108e-05,926.96,-2.9265e-05,-0.017377,-3.4693e-05,-40.803,2.1448
23012,19.76,2.0909,0.1,9.2796e-05,927.32,9.204e-05,906.38,-2.8594e-05,-0.016231,-3.3987e-05,-40.54,2.1597
23013,19.667,2.1818,0.1,9.483e-05,947.64,9.4086e-05,927.02,-2.9295e-05,-0.016405,-3.4612e-05,-39.968,2.1447
23014,19.76,1.9091,0.1,9.2745e-05,926.81,9.2012e-05,906.48,-2.8636e-05,-0.014798,-3.3875e-05,-39.381,2.1596
23015,19.667,2,0.1,9.4785e-05,947.2,9.4063e-05,927.12,-2.9331e-05,-0.015147,-3.4513e-05,-38.951,2.1446
23016,19.76,1.7273,0.1,9.2689e-05,926.25,9.1983e-05,906.63,-2.8684e-05,-0.013024,-3.3748e-05,-38.061,2.1595
23017,19.667,1.8182,0.1,9.4737e-05,946.72,9.4038e-05,927.26,-2.9375e-05,-0.013571,-3.44e-05,-37.77,2.1444
23018,19.76,1.5455,0.1,9.2634e-05,925.7,9.1957e-05,906.85,-2.8739e-05,-0.010864,-3.3609e-05,-36.602,2.1593
23019,19.667,1.6364,0.1,9.4687e-05,946.22,9.4014e-05,927.46,-2.9425e-05,-0.011643,-3.4274e-05,-36.446,2.1443
23020,19.76,1.3636,0.1,9.2581e-05,925.17,9.1935e-05,907.15,-2.8801e-05,-0.0082726,-3.3462e-05,-35.033,2.1591
23021,19.667,1.4545,0.1,9.4639e-05,945.74,9.3995e-05,927.75,-2.9482e-05,-0.0093128,-3.4139e-05,-35.004,2.1441
23022,19.76,1.1818,0.1,9.2534e-05,924.71,9.1921e-05,907.56,-2.8868e-05,-0.0051688,-3.3311e-05,-33.383,2.1589
23023,19.667,1.2727,0.1,9.4596e-05,945.31,9.3982e-05,928.12,-2.9545e-05,-0.0065427,-3.3999e-05,-33.472,2.1439
23024,19.76,1,0.1,9.2499e-05,924.35,9.1919e-05,908.1,-2.8942e-05,-0.0015675,-3.3159e-05,-31.686,2.1587
23025,19.667,1.0909,0.1,9.4561e-05,944.96,9.3979e-05,928.62,-2.9613e-05,-0.0032209,-3.3856e-05,-31.88,2.1436
23026,19.76,0.81818,0.1,9.2478e-05,924.14,9.1932e-05,908.79,-2.9021e-05,0.0029299,-3.3011e-05,-29.978,2.1584
23027,19.667,0.90909,0.1,9.454e-05,944.74,9.3988e-05,929.25,-2.9687e-05,0.00050675,-3.3715e-05,-30.261,2.1434
23028,19.76,0.63636,0.1,9.2477e-05,924.14,9.1964e-05,909.66,-2.9104e-05,0.007073,-3.2872e-05,-28.301,2.1581
23029,19.667,0.72727,0.1,9.4535e-05,944.7,9.4015e-05,930.05,-2.9766e-05,0.0055502,-3.358e-05,-28.651,2.1431
23030,19.76,0.45455,0.1,9.2513e-05,924.49,9.2028e-05,910.83,-2.9192e-05,0.018238,-3.2756e-05,-26.76,2.1579
23031,19.667,0.54545,0.1,9.4553e-05,944.88,9.4063e-05,931.04,-2.985e-05,0.008539,-3.3457e-05,-27.095,2.1428
23032,19.76,0.27273,0.1,9.2772e-05,927.08,9.2291e-05,913.5,-2.9287e-05,0.016022,-3.2828e-05,-26.592,2.1575
23033,19.667,0.36364,0.1,9.4619e-05,945.53,9.4155e-05,932.41,-2.9937e-05,0.026965,-3.3369e-05,-25.758,2.1425
23034,19.667,0.18182,0.1,9.5101e-05,950.35,9.4611e-05,936.53,-3.0034e-05,-0.00023652,-3.3634e-05,-27.052,2.1422
23035,19.76,0.090909,0.1,9.1756e-05,916.93,9.1434e-05,907.73,-2.9376e-05,0.007435,-3.1791e-05,-18.134,2.1572
23036,19.575,5.7273,0.1,9.6919e-05,968.52,9.645e-05,955.25,-3.0684e-05,0.015055,-3.415e-05,-26.031,2.1272
23037,19.483,5.8182,0.1,9.9258e-05,991.9,9.878e-05,978.35,-3.1431e-05,-0.00043015,-3.4966e-05,-26.564,2.1119
23038,19.575,5.9091,0.1,9.5925e-05,958.59,9.561e-05,949.56,-3.0769e-05,0.0072164,-3.3139e-05,-17.805,2.1269
23039,19.575,5.5455,0.1,9.6651e-05,965.84,9.6182e-05,952.57,-3.0595e-05,0.017364,-3.4063e-05,-26.038,2.1275
23040,19.483,5.6364,0.1,9.8772e-05,987.04,9.832e-05,974.24,-3.134e-05,0.02558,-3.4688e-05,-25.135,2.1122
23041,19.575,5.3636,0.1,9.6603e-05,965.36,9.6108e-05,951.38,-3.0512e-05,0.0068722,-3.4159e-05,-27.397,2.1278
23042,19.483,5.4545,0.1,9.8695e-05,986.26,9.8221e-05,972.85,-3.1257e-05,0.0082316,-3.4759e-05,-26.302,2.1126
23043,19.575,5.1818,0.1,9.6589e-05,965.23,9.6066e-05,950.46,-3.0433e-05,0.0029786,-3.4278e-05,-28.888,2.1281
23044,19.483,5.2727,0.1,9.8664e-05,985.96,9.8164e-05,971.83,-3.1178e-05,0.0054446,-3.4863e-05,-27.681,2.1129
23045,19.575,5,0.1,9.6596e-05,965.29,9.6042e-05,949.72,-3.0358e-05,-0.0012849,-3.4406e-05,-30.41,2.1284
23046,19.483,5.0909,0.1,9.8655e-05,985.87,9.8127e-05,970.99,-3.1103e-05,0.00067598,-3.4978e-05,-29.112,2.1131
23047,19.575,4.8182,0.1,9.6616e-05,965.5,9.6034e-05,949.14,-3.0289e-05,-0.004721,-3.4538e-05,-31.926,2.1286
23048,19.483,4.9091,0.1,9.8662e-05,985.94,9.8107e-05,970.31,-3.1034e-05,-0.0028741,-3.51e-05,-30.555,2.1134
23049,19.575,4.6364,0.1,9.6648e-05,965.81,9.6036e-05,948.68,-3.0226e-05,-0.0076976,-3.467e-05,-33.401,2.1288
23050,19.483,4.7273,0.1,9.8683e-05,986.15,9.81e-05,969.77,-3.0969e-05,-0.0060518,-3.5224e-05,-31.976,2.1136
23051,19.575,4.4545,0.1,9.6687e-05,966.2,9.6047e-05,948.32,-3.0168e-05,-0.010196,-3.4799e-05,-34.807,2.129
23052,19.483,4.5455,0.1,9.8712e-05,986.44,9.8102e-05,969.34,-3.091e-05,-0.0087177,-3.5347e-05,-33.346,2.1138
23053,19.575,4.2727,0.1,9.6729e-05,966.62,9.6064e-05,948.06,-3.0116e-05,-0.012286,-3.4921e-05,-36.115,2.1292
23054,19.483,4.3636,0.1,9.8747e-05,986.79,9.8112e-05,969.01,-3.0857e-05,-0.010969,-3.5465e-05,-34.636,2.114
23055,19.575,4.0909,0.1,9.6772e-05,967.06,9.6084e-05,947.86,-3.0071e-05,-0.014008,-3.5033e-05,-37.301,2.1294
23056,19.483,4.1818,0.1,9.8785e-05,987.17,9.8126e-05,968.76,-3.081e-05,-0.012839,-3.5576e-05,-35.823,2.1142
23057,19.575,3.9091,0.1,9.6813e-05,967.47,9.6104e-05,947.72,-3.0032e-05,-0.015403,-3.5133e-05,-38.341,2.1295
23058,19.483,4,0.1,9.8822e-05,987.54,9.8143e-05,968.58,-3.0769e-05,-0.014371,-3.5675e-05,-36.882,2.1143
23059,19.575,3.7273,0.1,9.685e-05,967.84,9.6123e-05,947.62,-3e-05,-0.016503,-3.5217e-05,-39.219,2.1296
23060,19.483,3.8182,0.1,9.8857e-05,987.89,9.816e-05,968.44,-3.0734e-05,-0.0156,-3.5762e-05,-37.796,2.1144
23061,19.575,3.5455,0.1,9.6881e-05,968.14,9.614e-05,947.56,-2.9975e-05,-0.017333,-3.5285e-05,-39.918,2.1297
23062,19.483,3.6364,0.1,9.8888e-05,988.2,9.8175e-05,968.35,-3.0706e-05,-0.01655,-3.5834e-05,-38.546,2.1145
23063,19.575,3.3636,0.1,9.6904e-05,968.37,9.6153e-05,947.52,-2.9956e-05,-0.017911,-3.5334e-05,-40.425,2.1297
23064,19.483,3.4545,0.1,9.8912e-05,988.44,9.8188e-05,968.29,-3.0685e-05,-0.017243,-3.589e-05,-39.121,2.1146
23065,19.575,3.1818,0.1,9.6918e-05,968.51,9.6161e-05,947.49,-2.9946e-05,-0.018253,-3.5364e-05,-40.733,2.1298
23066,19.483,3.2727,0.1,9.8929e-05,988.61,9.8197e-05,968.25,-3.0671e-05,-0.017699,-3.5927e-05,-39.509,2.1147
23067,19.575,3,0.1,9.6923e-05,968.56,9.6163e-05,947.49,-2.9942e-05,-0.018367,-3.5375e-05,-40.837,2.1298
23068,19.483,3.0909,0.1,9.8938e-05,988.69,9.8202e-05,968.23,-3.0664e-05,-0.017922,-3.5946e-05,-39.705,2.1147
23069,19.575,2.8182,0.1,9.6918e-05,968.51,9.6161e-05,947.49,-2.9946e-05,-0.018254,-3.5364e-05,-40.733,2.1298
23070,19.483,2.9091,0.1,9.8938e-05,988.69,9.8202e-05,968.23,-3.0664e-05,-0.017923,-3.5946e-05,-39.705,2.1147
23071,19.575,2.6364,0.1,9.6904e-05,968.37,9.6153e-05,947.52,-2.9956e-05,-0.017911,-3.5334e-05,-40.425,2.1297
23072,19.483,2.7273,0.1,9.8929e-05,988.61,9.8197e-05,968.25,-3.0671e-05,-0.017698,-3.5927e-05,-39.509,2.1147
23073,19.575,2.4545,0.1,9.6881e-05,968.14,9.614e-05,947.56,-2.9975e-05,-0.017332,-3.5285e-05,-39.918,2.1297
23074,19.483,2.5455,0.1,9.8912e-05,988.44,9.8188e-05,968.29,-3.0685e-05,-0.017244,-3.589e-05,-39.121,2.1146
23075,19.575,2.2727,0.1,9.685e-05,967.84,9.6123e-05,947.62,-3e-05,-0.016502,-3.5217e-05,-39.219,2.1296
23076,19.483,2.3636,0.1,9.8888e-05,988.2,9.8175e-05,968.35,-3.0706e-05,-0.016549,-3.5834e-05,-38.546,2.1145
23077,19.575,2.0909,0.1,9.6813e-05,967.47,9.6104e-05,947.72,-3.0032e-05,-0.015403,-3.5133e-05,-38.341,2.1295
23078,19.483,2.1818,0.1,9.8857e-05,987.89,9.816e-05,968.44,-3.0734e-05,-0.015599,-3.5762e-05,-37.796,2.1144
23079,19.575,1.9091,0.1,9.6772e-05,967.06,9.6084e-05,947.86,-3.0071e-05,-0.014008,-3.5033e-05,-37.301,2.1294
23080,19.483,2,0.1,9.8822e-05,987.54,9.8143e-05,968.58,-3.0769e-05,-0.014372,-3.5675e-05,-36.882,2.1143
23081,19.575,1.7273,0.1,9.6729e-05,966.62,9.6064e-05,948.06,-3.0116e-05,-0.012285,-3.4921e-05,-36.115,2.1292
23082,19.483,1.8182,0.1,9.8785e-05,987.17,9.8126e-05,968.76,-3.081e-05,-0.012839,-3.5576e-05,-35.823,2.1142
23083,19.575,1.5455,0.1,9.6687e-05,966.2,9.6047e-05,948.32,-3.0168e-05,-0.010195,-3.4799e-05,-34.807,2.129
23084,19.483,1.6364,0.1,9.8747e-05,986.79,9.8112e-05,969.01,-3.0857e-05,-0.010968,-3.5465e-05,-34.636,2.114
23085,19.575,1.3636,0.1,9.6648e-05,965.81,9.6036e-05,948.68,-3.0226e-05,-0.007697,-3.467e-05,-33.401,2.1288
23086,19.483,1.4545,0.1,9.8712e-05,986.44,9.8102e-05,969.34,-3.091e-05,-0.0087179,-3.5347e-05,-33.346,2.1138
23087,19.575,1.1818,0.1,9.6616e-05,965.5,9.6034e-05,949.14,-3.0289e-05,-0.0047205,-3.4538e-05,-31.926,2.1286
23088,19.483,1.2727,0.1,9.8683e-05,986.15,9.81e-05,969.77,-3.0969e-05,-0.0060513,-3.5224e-05,-31.976,2.1136
23089,19.575,1,0.1,9.6596e-05,965.29,9.6042e-05,949.72,-3.0358e-05,-0.0012844,-3.4406e-05,-30.41,2.1284
23090,19.483,1.0909,0.1,9.8662e-05,985.94,9.8107e-05,970.31,-3.1034e-05,-0.0028746,-3.51e-05,-30.555,2.1134
23091,19.575,0.81818,0.1,9.6589e-05,965.23,9.6066e-05,950.46,-3.0433e-05,0.0029789,-3.4278e-05,-28.888,2.1281
23092,19.483,0.90909,0.1,9.8655e-05,985.87,9.8127e-05,970.99,-3.1103e-05,0.00067562,-3.4978e-05,-29.112,2.1131
23093,19.575,0.63636,0.1,9.6603e-05,965.36,9.6108e-05,951.38,-3.0512e-05,0.0068716,-3.4159e-05,-27.397,2.1278
23094,19.483,0.72727,0.1,9.8664e-05,985.96,9.8164e-05,971.83,-3.1178e-05,0.0054438,-3.4863e-05,-27.68,2.1129
23095,19.575,0.45455,0.1,9.6651e-05,965.84,9.6182e-05,952.57,-3.0595e-05,0.017364,-3.4063e-05,-26.038,2.1275
23096,19.483,0.54545,0.1,9.8695e-05,986.26,9.8221e-05,972.85,-3.1257e-05,0.008231,-3.4759e-05,-26.302,2.1126
23097,19.575,0.27273,0.1,9.6919e-05,968.52,9.645e-05,955.25,-3.0684e-05,0.015057,-3.415e-05,-26.031,2.1272
23098,19.483,0.36364,0.1,9.8772e-05,987.04,9.832e-05,974.24,-3.134e-05,0.025582,-3.4688e-05,-25.135,2.1122
23099,19.483,0.18182,0.1,9.9258e-05,991.9,9.878e-05,978.35,-3.1431e-05,-0.00042858,-3.4966e-05,-26.564,2.1119
23100,19.575,0.090909,0.1,9.5925e-05,958.59,9.561e-05,949.56,-3.0769e-05,0.0072181,-3.3139e-05,-17.805,2.1269
23101,19.391,5.7273,0.1,0.00010108,1010.1,0.00010063,997.16,-3.2086e-05,0.014184,-3.548e-05,-25.485,2.0969
23102,19.299,5.8182,0.1,0.00010343,1033.6,0.00010296,1020.3,-3.2833e-05,-0.000571,-3.6304e-05,-26.083,2.0817
23103,19.391,5.9091,0.1,0.00010011,1000.4,9.9801e-05,991.56,-3.2166e-05,0.0070036,-3.4494e-05,-17.481,2.0966
23104,19.391,5.5455,0.1,0.00010081,1007.4,0.00010035,994.47,-3.2002e-05,0.016555,-3.5377e-05,-25.346,2.0973
23105,19.299,5.6364,0.1,0.00010294,1028.7,0.0001025,1016.2,-3.2746e-05,0.024302,-3.6015e-05,-24.535,2.082
23106,19.391,5.3636,0.1,0.00010075,1006.8,0.00010027,993.26,-3.1923e-05,0.0066791,-3.5456e-05,-26.539,2.0976
23107,19.299,5.4545,0.1,0.00010286,1027.8,0.0001024,1014.8,-3.2668e-05,0.0079396,-3.6069e-05,-25.545,2.0823
23108,19.391,5.1818,0.1,0.00010072,1006.5,0.00010022,992.31,-3.1849e-05,0.0030105,-3.5557e-05,-27.86,2.0979
23109,19.299,5.2727,0.1,0.00010281,1027.4,0.00010233,1013.8,-3.2594e-05,0.005336,-3.6156e-05,-26.762,2.0827
23110,19.391,5,0.1,0.00010072,1006.5,0.00010019,991.53,-3.1779e-05,-0.0010373,-3.5666e-05,-29.213,2.0982
23111,19.299,5.0909,0.1,0.00010279,1027.2,0.00010229,1012.9,-3.2523e-05,0.00081853,-3.6254e-05,-28.031,2.0829
23112,19.391,4.8182,0.1,0.00010072,1006.5,0.00010017,990.9,-3.1713e-05,-0.0043197,-3.578e-05,-30.562,2.0984
23113,19.299,4.9091,0.1,0.00010279,1027.2,0.00010226,1012.2,-3.2457e-05,-0.0025648,-3.6358e-05,-29.312,2.0832
23114,19.391,4.6364,0.1,0.00010074,1006.7,0.00010016,990.39,-3.1653e-05,-0.0071773,-3.5895e-05,-31.879,2.0986
23115,19.299,4.7273,0.1,0.00010279,1027.2,0.00010224,1011.6,-3.2397e-05,-0.0056099,-3.6465e-05,-30.577,2.0834
23116,19.391,4.4545,0.1,0.00010077,1007,0.00010016,989.99,-3.1599e-05,-0.0095869,-3.6008e-05,-33.134,2.0988
23117,19.299,4.5455,0.1,0.00010281,1027.4,0.00010223,1011.1,-3.2341e-05,-0.0081759,-3.6572e-05,-31.798,2.0837
23118,19.391,4.2727,0.1,0.0001008,1007.3,0.00010017,989.68,-3.155e-05,-0.011611,-3.6114e-05,-34.304,2.099
23119,19.299,4.3636,0.1,0.00010283,1027.6,0.00010223,1010.8,-3.2291e-05,-0.010354,-3.6675e-05,-32.95,2.0839
23120,19.391,4.0909,0.1,0.00010083,1007.6,0.00010018,989.44,-3.1508e-05,-0.013285,-3.6213e-05,-35.366,2.0992
23121,19.299,4.1818,0.1,0.00010286,1027.9,0.00010224,1010.5,-3.2246e-05,-0.01217,-3.6771e-05,-34.011,2.084
23122,19.391,3.9091,0.1,0.00010086,1007.9,0.00010019,989.27,-3.1471e-05,-0.014645,-3.63e-05,-36.299,2.0993
23123,19.299,4,0.1,0.00010289,1028.2,0.00010225,1010.2,-3.2208e-05,-0.013662,-3.6859e-05,-34.959,2.0842
23124,19.391,3.7273,0.1,0.00010089,1008.2,0.00010021,989.14,-3.1441e-05,-0.01572,-3.6375e-05,-37.086,2.0994
23125,19.299,3.8182,0.1,0.00010291,1028.4,0.00010226,1010.1,-3.2176e-05,-0.01486,-3.6935e-05,-35.777,2.0843
23126,19.391,3.5455,0.1,0.00010091,1008.4,0.00010022,989.05,-3.1417e-05,-0.016531,-3.6434e-05,-37.713,2.0995
23127,19.299,3.6364,0.1,0.00010294,1028.7,0.00010227,1010,-3.215e-05,-0.015789,-3.6999e-05,-36.449,2.0844
23128,19.391,3.3636,0.1,0.00010093,1008.6,0.00010023,988.99,-3.14e-05,-0.017099,-3.6478e-05,-38.169,2.0996
23129,19.299,3.4545,0.1,0.00010296,1028.9,0.00010228,1009.9,-3.213e-05,-0.01647,-3.7047e-05,-36.965,2.0845
23130,19.391,3.1818,0.1,0.00010094,1008.7,0.00010023,988.95,-3.139e-05,-0.017435,-3.6505e-05,-38.446,2.0996
23131,19.299,3.2727,0.1,0.00010297,1029,0.00010228,1009.8,-3.2117e-05,-0.016915,-3.708e-05,-37.313,2.0845
23132,19.391,3,0.1,0.00010095,1008.8,0.00010024,988.94,-3.1387e-05,-0.017545,-3.6514e-05,-38.539,2.0996
23133,19.299,3.0909,0.1,0.00010298,1029.1,0.00010229,1009.8,-3.211e-05,-0.017136,-3.7097e-05,-37.489,2.0845
23134,19.391,2.8182,0.1,0.00010094,1008.7,0.00010023,988.95,-3.139e-05,-0.017434,-3.6505e-05,-38.446,2.0996
23135,19.299,2.9091,0.1,0.00010298,1029.1,0.00010229,1009.8,-3.211e-05,-0.017135,-3.7097e-05,-37.489,2.0845
23136,19.391,2.6364,0.1,0.00010093,1008.6,0.00010023,988.99,-3.14e-05,-0.017099,-3.6478e-05,-38.169,2.0996
23137,19.299,2.7273,0.1,0.00010297,1029,0.00010228,1009.8,-3.2117e-05,-0.016914,-3.708e-05,-37.313,2.0845
23138,19.391,2.4545,0.1,0.00010091,1008.4,0.00010022,989.05,-3.1417e-05,-0.016531,-3.6434e-05,-37.713,2.0995
23139,19.299,2.5455,0.1,0.00010296,1028.9,0.00010228,1009.9,-3.213e-05,-0.016471,-3.7047e-05,-36.965,2.0845
23140,19.391,2.2727,0.1,0.00010089,1008.2,0.00010021,989.14,-3.1441e-05,-0.015719,-3.6375e-05,-37.086,2.0994
23141,19.299,2.3636,0.1,0.00010294,1028.7,0.00010227,1010,-3.215e-05,-0.015788,-3.6999e-05,-36.449,2.0844
23142,19.391,2.0909,0.1,0.00010086,1007.9,0.00010019,989.27,-3.1471e-05,-0.014645,-3.63e-05,-36.299,2.0993
23143,19.299,2.1818,0.1,0.00010291,1028.4,0.00010226,1010.1,-3.2176e-05,-0.01486,-3.6935e-05,-35.777,2.0843
23144,19.391,1.9091,0.1,0.00010083,1007.6,0.00010018,989.44,-3.1508e-05,-0.013286,-3.6213e-05,-35.366,2.0992
23145,19.299,2,0.1,0.00010289,1028.2,0.00010225,1010.2,-3.2208e-05,-0.013662,-3.6859e-05,-34.959,2.0842
23146,19.391,1.7273,0.1,0.0001008,1007.3,0.00010017,989.68,-3.155e-05,-0.011612,-3.6114e-05,-34.304,2.099
23147,19.299,1.8182,0.1,0.00010286,1027.9,0.00010224,1010.5,-3.2246e-05,-0.012169,-3.6771e-05,-34.011,2.084
23148,19.391,1.5455,0.1,0.00010077,1007,0.00010016,989.99,-3.1599e-05,-0.0095881,-3.6008e-05,-33.134,2.0988
23149,19.299,1.6364,0.1,0.00010283,1027.6,0.00010223,1010.8,-3.2291e-05,-0.010354,-3.6675e-05,-32.95,2.0839
23150,19.391,1.3636,0.1,0.00010074,1006.7,0.00010016,990.39,-3.1653e-05,-0.0071776,-3.5895e-05,-31.878,2.0986
23151,19.299,1.4545,0.1,0.00010281,1027.4,0.00010223,1011.1,-3.2341e-05,-0.0081777,-3.6572e-05,-31.798,2.0837
23152,19.391,1.1818,0.1,0.00010072,1006.5,0.00010017,990.9,-3.1713e-05,-0.0043201,-3.578e-05,-30.562,2.0984
23153,19.299,1.2727,0.1,0.00010279,1027.2,0.00010224,1011.6,-3.2397e-05,-0.0056099,-3.6465e-05,-30.577,2.0834
23154,19.391,1,0.1,0.00010072,1006.5,0.00010019,991.53,-3.1779e-05,-0.0010387,-3.5666e-05,-29.213,2.0982
23155,19.299,1.0909,0.1,0.00010279,1027.2,0.00010226,1012.2,-3.2458e-05,-0.0025664,-3.6358e-05,-29.312,2.0832
23156,19.391,0.81818,0.1,0.00010072,1006.5,0.00010022,992.31,-3.1849e-05,0.0030091,-3.5557e-05,-27.86,2.0979
23157,19.299,0.90909,0.1,0.00010279,1027.2,0.00010229,1012.9,-3.2523e-05,0.0008163,-3.6254e-05,-28.031,2.0829
23158,19.391,0.63636,0.1,0.00010075,1006.8,0.00010027,993.26,-3.1923e-05,0.0066784,-3.5456e-05,-26.539,2.0976
23159,19.299,0.72727,0.1,0.00010281,1027.4,0.00010233,1013.8,-3.2594e-05,0.0053337,-3.6156e-05,-26.762,2.0827
23160,19.391,0.45455,0.1,0.00010081,1007.4,0.00010035,994.47,-3.2002e-05,0.016556,-3.5377e-05,-25.346,2.0973
23161,19.299,0.54545,0.1,0.00010286,1027.8,0.0001024,1014.8,-3.2668e-05,0.0079411,-3.6069e-05,-25.545,2.0823
23162,19.391,0.27273,0.1,0.00010108,1010.1,0.00010063,997.16,-3.2086e-05,0.014184,-3.548e-05,-25.485,2.0969
23163,19.299,0.36364,0.1,0.00010294,1028.7,0.0001025,1016.2,-3.2746e-05,0.024304,-3.6015e-05,-24.535,2.082
23164,19.299,0.18182,0.1,0.00010343,1033.6,0.00010296,1020.3,-3.2833e-05,-0.00057206,-3.6304e-05,-26.083,2.0817
23165,19.391,0.090909,0.1,0.00010011,1000.4,9.9801e-05,991.56,-3.2166e-05,0.0070035,-3.4494e-05,-17.481,2.0966
23166,19.206,5.7273,0.1,0.00010527,1051.9,0.00010482,1039.2,-3.3493e-05,0.013395,-3.6816e-05,-24.954,2.0667
23167,19.114,5.8182,0.1,0.00010763,1075.5,0.00010717,1062.5,-3.424e-05,-0.00066947,-3.7649e-05,-25.611,2.0515
23168,19.206,5.9091,0.1,0.00010431,1042.4,0.00010401,1033.7,-3.3569e-05,0.0067947,-3.5854e-05,-17.164,2.0664
23169,19.206,5.5455,0.1,0.00010498,1049.1,0.00010454,1036.6,-3.3413e-05,0.015801,-3.67e-05,-24.683,2.0671
23170,19.114,5.6364,0.1,0.00010713,1070.6,0.0001067,1058.4,-3.4158e-05,0.023124,-3.735e-05,-23.956,2.0518
23171,19.206,5.3636,0.1,0.00010491,1048.4,0.00010445,1035.3,-3.3339e-05,0.0064889,-3.6763e-05,-25.724,2.0674
23172,19.114,5.4545,0.1,0.00010704,1069.6,0.00010659,1057,-3.4084e-05,0.0076657,-3.7389e-05,-24.824,2.0522
23173,19.206,5.1818,0.1,0.00010488,1048,0.00010439,1034.3,-3.3268e-05,0.0030274,-3.6847e-05,-26.889,2.0677
23174,19.114,5.2727,0.1,0.00010698,1069.1,0.00010652,1055.9,-3.4014e-05,0.0052274,-3.746e-05,-25.893,2.0525
23175,19.206,5,0.1,0.00010486,1047.8,0.00010435,1033.5,-3.3202e-05,-0.00082094,-3.694e-05,-28.087,2.068
23176,19.114,5.0909,0.1,0.00010695,1068.8,0.00010647,1055,-3.3947e-05,0.00094222,-3.7542e-05,-27.012,2.0528
23177,19.206,4.8182,0.1,0.00010485,1047.8,0.00010432,1032.8,-3.3141e-05,-0.00396,-3.7038e-05,-29.285,2.0683
23178,19.114,4.9091,0.1,0.00010693,1068.6,0.00010643,1054.2,-3.3885e-05,-0.002286,-3.7631e-05,-28.146,2.0531
23179,19.206,4.6364,0.1,0.00010486,1047.9,0.00010431,1032.3,-3.3084e-05,-0.006706,-3.7137e-05,-30.455,2.0685
23180,19.114,4.7273,0.1,0.00010693,1068.6,0.0001064,1053.6,-3.3828e-05,-0.0052074,-3.7722e-05,-29.267,2.0533
23181,19.206,4.4545,0.1,0.00010487,1048,0.0001043,1031.9,-3.3033e-05,-0.0090331,-3.7234e-05,-31.574,2.0687
23182,19.114,4.5455,0.1,0.00010694,1068.6,0.00010639,1053.1,-3.3775e-05,-0.0076818,-3.7814e-05,-30.353,2.0536
23183,19.206,4.2727,0.1,0.00010489,1048.2,0.0001043,1031.5,-3.2987e-05,-0.010997,-3.7327e-05,-32.618,2.0689
23184,19.114,4.3636,0.1,0.00010695,1068.7,0.00010638,1052.7,-3.3728e-05,-0.0097891,-3.7903e-05,-31.378,2.0538
23185,19.206,4.0909,0.1,0.00010491,1048.4,0.0001043,1031.2,-3.2947e-05,-0.012625,-3.7413e-05,-33.566,2.0691
23186,19.114,4.1818,0.1,0.00010696,1068.9,0.00010638,1052.4,-3.3686e-05,-0.011554,-3.7986e-05,-32.323,2.0539
23187,19.206,3.9091,0.1,0.00010494,1048.6,0.00010431,1031,-3.2913e-05,-0.01395,-3.7489e-05,-34.399,2.0692
23188,19.114,4,0.1,0.00010698,1069.1,0.00010638,1052.1,-3.365e-05,-0.013007,-3.8063e-05,-33.169,2.0541
23189,19.206,3.7273,0.1,0.00010496,1048.9,0.00010432,1030.9,-3.2884e-05,-0.015,-3.7554e-05,-35.104,2.0693
23190,19.114,3.8182,0.1,0.000107,1069.3,0.00010638,1051.9,-3.3619e-05,-0.014177,-3.8129e-05,-33.899,2.0542
23191,19.206,3.5455,0.1,0.00010498,1049,0.00010432,1030.7,-3.2862e-05,-0.015796,-3.7607e-05,-35.665,2.0694
23192,19.114,3.6364,0.1,0.00010702,1069.4,0.00010639,1051.8,-3.3595e-05,-0.015088,-3.8184e-05,-34.5,2.0543
23193,19.206,3.3636,0.1,0.00010499,1049.2,0.00010433,1030.7,-3.2846e-05,-0.016352,-3.7645e-05,-36.073,2.0694
23194,19.114,3.4545,0.1,0.00010703,1069.6,0.00010639,1051.7,-3.3576e-05,-0.015754,-3.8227e-05,-34.961,2.0544
23195,19.206,3.1818,0.1,0.000105,1049.3,0.00010433,1030.6,-3.2836e-05,-0.016681,-3.7668e-05,-36.321,2.0695
23196,19.114,3.2727,0.1,0.00010704,1069.7,0.0001064,1051.6,-3.3564e-05,-0.01619,-3.8256e-05,-35.273,2.0544
23197,19.206,3,0.1,0.000105,1049.3,0.00010434,1030.6,-3.2833e-05,-0.01679,-3.7676e-05,-36.404,2.0695
23198,19.114,3.0909,0.1,0.00010705,1069.7,0.0001064,1051.6,-3.3558e-05,-0.016407,-3.8271e-05,-35.43,2.0545
23199,19.206,2.8182,0.1,0.000105,1049.3,0.00010433,1030.6,-3.2836e-05,-0.016681,-3.7668e-05,-36.321,2.0695
23200,19.114,2.9091,0.1,0.00010705,1069.7,0.0001064,1051.6,-3.3558e-05,-0.016407,-3.8271e-05,-35.43,2.0545
23201,19.206,2.6364,0.1,0.00010499,1049.2,0.00010433,1030.7,-3.2846e-05,-0.016352,-3.7645e-05,-36.073,2.0694
23202,19.114,2.7273,0.1,0.00010704,1069.7,0.0001064,1051.6,-3.3564e-05,-0.016191,-3.8256e-05,-35.273,2.0544
23203,19.206,2.4545,0.1,0.00010498,1049,0.00010432,1030.7,-3.2862e-05,-0.015795,-3.7607e-05,-35.665,2.0694
23204,19.114,2.5455,0.1,0.00010703,1069.6,0.00010639,1051.7,-3.3576e-05,-0.015755,-3.8227e-05,-34.961,2.0544
23205,19.206,2.2727,0.1,0.00010496,1048.9,0.00010432,1030.9,-3.2884e-05,-0.015,-3.7554e-05,-35.104,2.0693
23206,19.114,2.3636,0.1,0.00010702,1069.4,0.00010639,1051.8,-3.3595e-05,-0.015087,-3.8184e-05,-34.5,2.0543
23207,19.206,2.0909,0.1,0.00010494,1048.6,0.00010431,1031,-3.2913e-05,-0.013951,-3.7489e-05,-34.399,2.0692
23208,19.114,2.1818,0.1,0.000107,1069.3,0.00010638,1051.9,-3.3619e-05,-0.014178,-3.8129e-05,-33.899,2.0542
23209,19.206,1.9091,0.1,0.00010491,1048.4,0.0001043,1031.2,-3.2947e-05,-0.012625,-3.7413e-05,-33.566,2.0691
23210,19.114,2,0.1,0.00010698,1069.1,0.00010638,1052.1,-3.365e-05,-0.013007,-3.8063e-05,-33.169,2.0541
23211,19.206,1.7273,0.1,0.00010489,1048.2,0.0001043,1031.5,-3.2987e-05,-0.010996,-3.7327e-05,-32.618,2.0689
23212,19.114,1.8182,0.1,0.00010696,1068.9,0.00010638,1052.4,-3.3686e-05,-0.011553,-3.7986e-05,-32.323,2.0539
23213,19.206,1.5455,0.1,0.00010487,1048,0.0001043,1031.9,-3.3033e-05,-0.0090341,-3.7234e-05,-31.574,2.0687
23214,19.114,1.6364,0.1,0.00010695,1068.7,0.00010638,1052.7,-3.3728e-05,-0.0097891,-3.7903e-05,-31.378,2.0538
23215,19.206,1.3636,0.1,0.00010486,1047.9,0.00010431,1032.3,-3.3084e-05,-0.0067075,-3.7137e-05,-30.455,2.0685
23216,19.114,1.4545,0.1,0.00010694,1068.6,0.00010639,1053.1,-3.3775e-05,-0.0076825,-3.7814e-05,-30.352,2.0536
23217,19.206,1.1818,0.1,0.00010485,1047.8,0.00010432,1032.8,-3.3141e-05,-0.0039611,-3.7038e-05,-29.285,2.0683
23218,19.114,1.2727,0.1,0.00010693,1068.6,0.0001064,1053.6,-3.3828e-05,-0.0052074,-3.7722e-05,-29.267,2.0533
23219,19.206,1,0.1,0.00010486,1047.8,0.00010435,1033.5,-3.3202e-05,-0.00082336,-3.694e-05,-28.087,2.068
23220,19.114,1.0909,0.1,0.00010693,1068.6,0.00010643,1054.2,-3.3885e-05,-0.0022873,-3.7631e-05,-28.146,2.0531
23221,19.206,0.81818,0.1,0.00010488,1048,0.00010439,1034.3,-3.3268e-05,0.0030244,-3.6847e-05,-26.889,2.0677
23222,19.114,0.90909,0.1,0.00010695,1068.8,0.00010647,1055,-3.3947e-05,0.00094013,-3.7542e-05,-27.012,2.0528
23223,19.206,0.63636,0.1,0.00010491,1048.4,0.00010445,1035.3,-3.3339e-05,0.0064889,-3.6763e-05,-25.724,2.0674
23224,19.114,0.72727,0.1,0.00010698,1069.1,0.00010652,1055.9,-3.4014e-05,0.0052254,-3.746e-05,-25.893,2.0525
23225,19.206,0.45455,0.1,0.00010498,1049.1,0.00010454,1036.6,-3.3413e-05,0.015804,-3.67e-05,-24.683,2.0671
23226,19.114,0.54545,0.1,0.00010704,1069.6,0.00010659,1057,-3.4084e-05,0.007666,-3.7389e-05,-24.824,2.0522
23227,19.206,0.27273,0.1,0.00010527,1051.9,0.00010482,1039.2,-3.3493e-05,0.013396,-3.6816e-05,-24.954,2.0667
23228,19.114,0.36364,0.1,0.00010713,1070.6,0.0001067,1058.4,-3.4158e-05,0.023126,-3.735e-05,-23.957,2.0518
23229,19.114,0.18182,0.1,0.00010763,1075.5,0.00010717,1062.5,-3.424e-05,-0.00066926,-3.7649e-05,-25.611,2.0515
23230,19.206,0.090909,0.1,0.00010431,1042.4,0.00010401,1033.7,-3.3569e-05,0.0067918,-3.5854e-05,-17.164,2.0664
23231,19.022,5.7273,0.1,0.00010947,1093.9,0.00010903,1081.5,-3.4905e-05,0.012687,-3.8159e-05,-24.439,2.0366
23232,18.93,5.8182,0.1,0.00011183,1117.6,0.00011139,1104.8,-3.5653e-05,-0.00073347,-3.9e-05,-25.148,2.0214
23233,19.022,5.9091,0.1,0.00010853,1084.6,0.00010824,1076.1,-3.4977e-05,0.0065978,-3.7221e-05,-16.853,2.0362
23234,19.022,5.5455,0.1,0.00010918,1091,0.00010875,1078.8,-3.4829e-05,0.015108,-3.8032e-05,-24.047,2.037
23235,18.93,5.6364,0.1,0.00011134,1112.6,0.00011092,1100.8,-3.5575e-05,0.022035,-3.8692e-05,-23.399,2.0218
23236,19.022,5.3636,0.1,0.0001091,1090.2,0.00010865,1077.5,-3.4759e-05,0.0063117,-3.808e-05,-24.949,2.0373
23237,18.93,5.4545,0.1,0.00011124,1111.6,0.00011081,1099.3,-3.5505e-05,0.0074091,-3.8718e-05,-24.135,2.0221
23238,19.022,5.1818,0.1,0.00010905,1089.8,0.00010859,1076.5,-3.4692e-05,0.0030388,-3.8149e-05,-25.972,2.0376
23239,18.93,5.2727,0.1,0.00011117,1111,0.00011073,1098.2,-3.5438e-05,0.0051197,-3.8775e-05,-25.069,2.0224
23240,19.022,5,0.1,0.00010902,1089.5,0.00010854,1075.7,-3.463e-05,-0.00062382,-3.8227e-05,-27.028,2.0379
23241,18.93,5.0909,0.1,0.00011113,1110.5,0.00011066,1097.3,-3.5375e-05,0.0010497,-3.8842e-05,-26.051,2.0228
23242,19.022,4.8182,0.1,0.00010901,1089.3,0.0001085,1075,-3.4572e-05,-0.0036293,-3.8309e-05,-28.087,2.0382
23243,18.93,4.9091,0.1,0.0001111,1110.3,0.00011062,1096.5,-3.5316e-05,-0.0020353,-3.8916e-05,-27.05,2.023
23244,19.022,4.6364,0.1,0.000109,1089.3,0.00010848,1074.4,-3.4518e-05,-0.0062735,-3.8394e-05,-29.124,2.0384
23245,18.93,4.7273,0.1,0.00011109,1110.1,0.00011059,1095.8,-3.5262e-05,-0.0048404,-3.8993e-05,-28.04,2.0233
23246,19.022,4.4545,0.1,0.000109,1089.3,0.00010846,1073.9,-3.447e-05,-0.0085224,-3.8477e-05,-30.117,2.0386
23247,18.93,4.5455,0.1,0.00011108,1110.1,0.00011056,1095.3,-3.5213e-05,-0.0072298,-3.9071e-05,-29.001,2.0235
23248,19.022,4.2727,0.1,0.00010901,1089.4,0.00010845,1073.5,-3.4427e-05,-0.010426,-3.8557e-05,-31.045,2.0388
23249,18.93,4.3636,0.1,0.00011109,1110.1,0.00011055,1094.8,-3.5168e-05,-0.0092693,-3.9148e-05,-29.91,2.0237
23250,19.022,4.0909,0.1,0.00010903,1089.5,0.00010845,1073.2,-3.4389e-05,-0.01201,-3.8631e-05,-31.889,2.039
23251,18.93,4.1818,0.1,0.00011109,1110.2,0.00011054,1094.5,-3.5129e-05,-0.010985,-3.922e-05,-30.749,2.0239
23252,19.022,3.9091,0.1,0.00010904,1089.7,0.00010845,1073,-3.4357e-05,-0.013304,-3.8698e-05,-32.632,2.0391
23253,18.93,4,0.1,0.00011111,1110.3,0.00011054,1094.2,-3.5094e-05,-0.012401,-3.9285e-05,-31.502,2.0241
23254,19.022,3.7273,0.1,0.00010906,1089.8,0.00010845,1072.8,-3.433e-05,-0.014333,-3.8755e-05,-33.26,2.0393
23255,18.93,3.8182,0.1,0.00011112,1110.4,0.00011053,1094,-3.5066e-05,-0.013547,-3.9343e-05,-32.152,2.0242
23256,19.022,3.5455,0.1,0.00010907,1089.9,0.00010846,1072.7,-3.4309e-05,-0.015111,-3.88e-05,-33.761,2.0393
23257,18.93,3.6364,0.1,0.00011113,1110.5,0.00011054,1093.8,-3.5042e-05,-0.014438,-3.9391e-05,-32.687,2.0243
23258,19.022,3.3636,0.1,0.00010908,1090,0.00010846,1072.6,-3.4294e-05,-0.015656,-3.8834e-05,-34.125,2.0394
23259,18.93,3.4545,0.1,0.00011114,1110.6,0.00011054,1093.7,-3.5025e-05,-0.015091,-3.9428e-05,-33.098,2.0244
23260,19.022,3.1818,0.1,0.00010909,1090.1,0.00010846,1072.5,-3.4285e-05,-0.015979,-3.8854e-05,-34.347,2.0394
23261,18.93,3.2727,0.1,0.00011114,1110.7,0.00011054,1093.6,-3.5013e-05,-0.01552,-3.9453e-05,-33.376,2.0244
23262,19.022,3,0.1,0.00010909,1090.1,0.00010846,1072.5,-3.4282e-05,-0.016086,-3.8861e-05,-34.421,2.0395
23263,18.93,3.0909,0.1,0.00011115,1110.7,0.00011054,1093.6,-3.5007e-05,-0.015732,-3.9466e-05,-33.516,2.0245
23264,19.022,2.8182,0.1,0.00010909,1090.1,0.00010846,1072.5,-3.4285e-05,-0.01598,-3.8854e-05,-34.347,2.0394
23265,18.93,2.9091,0.1,0.00011115,1110.7,0.00011054,1093.6,-3.5007e-05,-0.015733,-3.9466e-05,-33.516,2.0245
23266,19.022,2.6364,0.1,0.00010908,1090,0.00010846,1072.6,-3.4294e-05,-0.015657,-3.8834e-05,-34.125,2.0394
23267,18.93,2.7273,0.1,0.00011114,1110.7,0.00011054,1093.6,-3.5013e-05,-0.01552,-3.9453e-05,-33.376,2.0244
23268,19.022,2.4545,0.1,0.00010907,1089.9,0.00010846,1072.7,-3.4309e-05,-0.015111,-3.88e-05,-33.761,2.0393
23269,18.93,2.5455,0.1,0.00011114,1110.6,0.00011054,1093.7,-3.5025e-05,-0.01509,-3.9428e-05,-33.098,2.0244
23270,19.022,2.2727,0.1,0.00010906,1089.8,0.00010845,1072.8,-3.433e-05,-0.014332,-3.8755e-05,-33.26,2.0393
23271,18.93,2.3636,0.1,0.00011113,1110.5,0.00011054,1093.8,-3.5042e-05,-0.014438,-3.9391e-05,-32.687,2.0243
23272,19.022,2.0909,0.1,0.00010904,1089.7,0.00010845,1073,-3.4357e-05,-0.013304,-3.8698e-05,-32.632,2.0391
23273,18.93,2.1818,0.1,0.00011112,1110.4,0.00011053,1094,-3.5066e-05,-0.013547,-3.9343e-05,-32.152,2.0242
23274,19.022,1.9091,0.1,0.00010903,1089.5,0.00010845,1073.2,-3.4389e-05,-0.012011,-3.8631e-05,-31.889,2.039
23275,18.93,2,0.1,0.00011111,1110.3,0.00011054,1094.2,-3.5094e-05,-0.012402,-3.9285e-05,-31.501,2.0241
23276,19.022,1.7273,0.1,0.00010901,1089.4,0.00010845,1073.5,-3.4427e-05,-0.010426,-3.8557e-05,-31.045,2.0388
23277,18.93,1.8182,0.1,0.00011109,1110.2,0.00011054,1094.5,-3.5129e-05,-0.010985,-3.922e-05,-30.749,2.0239
23278,19.022,1.5455,0.1,0.000109,1089.3,0.00010846,1073.9,-3.447e-05,-0.0085222,-3.8477e-05,-30.117,2.0386
23279,18.93,1.6364,0.1,0.00011109,1110.1,0.00011055,1094.8,-3.5168e-05,-0.0092697,-3.9148e-05,-29.91,2.0237
23280,19.022,1.3636,0.1,0.000109,1089.3,0.00010848,1074.4,-3.4518e-05,-0.0062727,-3.8394e-05,-29.124,2.0384
23281,18.93,1.4545,0.1,0.00011108,1110.1,0.00011056,1095.3,-3.5213e-05,-0.0072289,-3.9071e-05,-29.001,2.0235
23282,19.022,1.1818,0.1,0.00010901,1089.3,0.0001085,1075,-3.4572e-05,-0.0036296,-3.8309e-05,-28.087,2.0382
23283,18.93,1.2727,0.1,0.00011109,1110.1,0.00011059,1095.8,-3.5262e-05,-0.0048404,-3.8993e-05,-28.04,2.0233
23284,19.022,1,0.1,0.00010902,1089.5,0.00010854,1075.7,-3.463e-05,-0.00062484,-3.8227e-05,-27.028,2.0379
23285,18.93,1.0909,0.1,0.0001111,1110.3,0.00011062,1096.5,-3.5316e-05,-0.0020362,-3.8916e-05,-27.05,2.023
23286,19.022,0.81818,0.1,0.00010905,1089.8,0.00010859,1076.5,-3.4692e-05,0.0030377,-3.8149e-05,-25.972,2.0376
23287,18.93,0.90909,0.1,0.00011113,1110.5,0.00011066,1097.3,-3.5375e-05,0.0010484,-3.8842e-05,-26.051,2.0228
23288,19.022,0.63636,0.1,0.0001091,1090.2,0.00010865,1077.5,-3.4759e-05,0.00631,-3.808e-05,-24.949,2.0373
23289,18.93,0.72727,0.1,0.00011117,1111,0.00011073,1098.2,-3.5438e-05,0.0051189,-3.8775e-05,-25.068,2.0224
23290,19.022,0.45455,0.1,0.00010918,1091,0.00010875,1078.8,-3.4829e-05,0.015108,-3.8032e-05,-24.047,2.037
23291,18.93,0.54545,0.1,0.00011124,1111.6,0.00011081,1099.3,-3.5505e-05,0.0074073,-3.8718e-05,-24.135,2.0221
23292,19.022,0.27273,0.1,0.00010947,1093.9,0.00010903,1081.5,-3.4905e-05,0.012688,-3.8159e-05,-24.439,2.0366
23293,18.93,0.36364,0.1,0.00011134,1112.6,0.00011092,1100.8,-3.5575e-05,0.022036,-3.8692e-05,-23.399,2.0218
23294,18.93,0.18182,0.1,0.00011183,1117.6,0.00011139,1104.8,-3.5653e-05,-0.00073187,-3.9e-05,-25.148,2.0214
23295,19.022,0.090909,0.1,0.00010853,1084.6,0.00010824,1076.1,-3.4977e-05,0.0065985,-3.7221e-05,-16.853,2.0362
23296,18.838,5.7273,0.1,0.00011368,1136,0.00011326,1123.9,-3.6323e-05,0.01204,-3.951e-05,-23.938,2.0066
23297,18.746,5.8182,0.1,0.00011606,1159.8,0.00011562,1147.3,-3.7071e-05,-0.00077641,-4.0358e-05,-24.695,1.9914
23298,18.838,5.9091,0.1,0.00011277,1126.9,0.00011248,1118.6,-3.6391e-05,0.0064031,-3.8594e-05,-16.549,2.0062
23299,18.838,5.5455,0.1,0.00011339,1133.1,0.00011297,1121.2,-3.6251e-05,0.01446,-3.9372e-05,-23.438,2.0069
23300,18.746,5.6364,0.1,0.00011557,1154.9,0.00011516,1143.3,-3.6997e-05,0.021018,-4.0043e-05,-22.862,1.9917
23301,18.838,5.3636,0.1,0.0001133,1132.3,0.00011287,1120,-3.6184e-05,0.0061377,-3.9407e-05,-24.212,2.0073
23302,18.746,5.4545,0.1,0.00011545,1153.8,0.00011504,1141.8,-3.6931e-05,0.0071593,-4.0056e-05,-23.478,1.9921
23303,18.838,5.1818,0.1,0.00011325,1131.7,0.0001128,1118.9,-3.6121e-05,0.0030389,-3.9462e-05,-25.105,2.0076
23304,18.746,5.2727,0.1,0.00011538,1153,0.00011495,1140.7,-3.6867e-05,0.0050058,-4.01e-05,-24.287,1.9925
23305,18.838,5,0.1,0.00011321,1131.3,0.00011274,1118.1,-3.6062e-05,-0.00045295,-3.9526e-05,-26.031,2.0079
23306,18.746,5.0909,0.1,0.00011533,1152.5,0.00011488,1139.8,-3.6807e-05,0.001134,-4.0154e-05,-25.144,1.9928
23307,18.838,4.8182,0.1,0.00011318,1131,0.0001127,1117.3,-3.6007e-05,-0.0033343,-3.9595e-05,-26.963,2.0082
23308,18.746,4.9091,0.1,0.0001153,1152.2,0.00011483,1138.9,-3.6752e-05,-0.0018173,-4.0214e-05,-26.018,1.9931
23309,18.838,4.6364,0.1,0.00011317,1130.9,0.00011267,1116.7,-3.5956e-05,-0.0058804,-3.9666e-05,-27.877,2.0084
23310,18.746,4.7273,0.1,0.00011527,1151.9,0.00011479,1138.2,-3.67e-05,-0.0045141,-4.0279e-05,-26.889,1.9933
23311,18.838,4.4545,0.1,0.00011316,1130.8,0.00011264,1116.2,-3.5911e-05,-0.0080559,-3.9737e-05,-28.755,2.0086
23312,18.746,4.5455,0.1,0.00011526,1151.8,0.00011476,1137.7,-3.6654e-05,-0.0068205,-4.0344e-05,-27.735,1.9936
23313,18.838,4.2727,0.1,0.00011316,1130.8,0.00011263,1115.8,-3.587e-05,-0.0099037,-3.9805e-05,-29.577,2.0088
23314,18.746,4.3636,0.1,0.00011525,1151.7,0.00011474,1137.2,-3.6612e-05,-0.0087995,-4.0409e-05,-28.538,1.9938
23315,18.838,4.0909,0.1,0.00011317,1130.9,0.00011262,1115.4,-3.5834e-05,-0.011448,-3.9868e-05,-30.325,2.009
23316,18.746,4.1818,0.1,0.00011525,1151.7,0.00011473,1136.8,-3.6574e-05,-0.010468,-4.047e-05,-29.28,1.994
23317,18.838,3.9091,0.1,0.00011317,1131,0.00011262,1115.1,-3.5803e-05,-0.012712,-3.9925e-05,-30.985,2.0092
23318,18.746,4,0.1,0.00011525,1151.7,0.00011472,1136.5,-3.6542e-05,-0.011851,-4.0526e-05,-29.946,1.9941
23319,18.838,3.7273,0.1,0.00011318,1131,0.00011261,1114.9,-3.5778e-05,-0.013717,-3.9974e-05,-31.543,2.0093
23320,18.746,3.8182,0.1,0.00011526,1151.8,0.00011471,1136.2,-3.6515e-05,-0.012971,-4.0575e-05,-30.523,1.9943
23321,18.838,3.5455,0.1,0.00011319,1131.1,0.00011261,1114.8,-3.5759e-05,-0.014481,-4.0014e-05,-31.988,2.0094
23322,18.746,3.6364,0.1,0.00011527,1151.9,0.00011471,1136,-3.6493e-05,-0.013843,-4.0617e-05,-30.998,1.9944
23323,18.838,3.3636,0.1,0.0001132,1131.2,0.00011261,1114.7,-3.5744e-05,-0.015016,-4.0043e-05,-32.312,2.0094
23324,18.746,3.4545,0.1,0.00011527,1151.9,0.00011471,1135.9,-3.6477e-05,-0.014486,-4.0649e-05,-31.362,1.9945
23325,18.838,3.1818,0.1,0.0001132,1131.2,0.00011261,1114.6,-3.5736e-05,-0.015334,-4.0061e-05,-32.509,2.0095
23326,18.746,3.2727,0.1,0.00011528,1152,0.0001147,1135.8,-3.6466e-05,-0.014907,-4.0671e-05,-31.609,1.9945
23327,18.838,3,0.1,0.0001132,1131.2,0.00011261,1114.6,-3.5733e-05,-0.01544,-4.0067e-05,-32.576,2.0095
23328,18.746,3.0909,0.1,0.00011528,1152,0.0001147,1135.8,-3.646e-05,-0.015116,-4.0682e-05,-31.734,1.9945
23329,18.838,2.8182,0.1,0.0001132,1131.2,0.00011261,1114.6,-3.5736e-05,-0.015334,-4.0061e-05,-32.509,2.0095
23330,18.746,2.9091,0.1,0.00011528,1152,0.0001147,1135.8,-3.646e-05,-0.015116,-4.0682e-05,-31.734,1.9945
23331,18.838,2.6364,0.1,0.0001132,1131.2,0.00011261,1114.7,-3.5744e-05,-0.015015,-4.0043e-05,-32.312,2.0094
23332,18.746,2.7273,0.1,0.00011528,1152,0.0001147,1135.8,-3.6466e-05,-0.014907,-4.0671e-05,-31.609,1.9945
23333,18.838,2.4545,0.1,0.00011319,1131.1,0.00011261,1114.8,-3.5759e-05,-0.01448,-4.0014e-05,-31.988,2.0094
23334,18.746,2.5455,0.1,0.00011527,1151.9,0.00011471,1135.9,-3.6477e-05,-0.014485,-4.0649e-05,-31.362,1.9945
23335,18.838,2.2727,0.1,0.00011318,1131,0.00011261,1114.9,-3.5778e-05,-0.013717,-3.9974e-05,-31.543,2.0093
23336,18.746,2.3636,0.1,0.00011527,1151.9,0.00011471,1136,-3.6493e-05,-0.013844,-4.0617e-05,-30.998,1.9944
23337,18.838,2.0909,0.1,0.00011317,1131,0.00011262,1115.1,-3.5803e-05,-0.012712,-3.9925e-05,-30.984,2.0092
23338,18.746,2.1818,0.1,0.00011526,1151.8,0.00011471,1136.2,-3.6515e-05,-0.012971,-4.0575e-05,-30.523,1.9943
23339,18.838,1.9091,0.1,0.00011317,1130.9,0.00011262,1115.4,-3.5834e-05,-0.011447,-3.9868e-05,-30.325,2.009
23340,18.746,2,0.1,0.00011525,1151.7,0.00011472,1136.5,-3.6542e-05,-0.011852,-4.0526e-05,-29.946,1.9941
23341,18.838,1.7273,0.1,0.00011316,1130.8,0.00011263,1115.8,-3.587e-05,-0.0099037,-3.9805e-05,-29.577,2.0088
23342,18.746,1.8182,0.1,0.00011525,1151.7,0.00011473,1136.8,-3.6574e-05,-0.010468,-4.047e-05,-29.28,1.994
23343,18.838,1.5455,0.1,0.00011316,1130.8,0.00011264,1116.2,-3.5911e-05,-0.0080556,-3.9737e-05,-28.755,2.0086
23344,18.746,1.6364,0.1,0.00011525,1151.7,0.00011474,1137.2,-3.6612e-05,-0.0088,-4.0409e-05,-28.538,1.9938
23345,18.838,1.3636,0.1,0.00011317,1130.9,0.00011267,1116.7,-3.5956e-05,-0.0058802,-3.9666e-05,-27.877,2.0084
23346,18.746,1.4545,0.1,0.00011526,1151.8,0.00011476,1137.7,-3.6654e-05,-0.0068213,-4.0344e-05,-27.735,1.9936
23347,18.838,1.1818,0.1,0.00011318,1131,0.0001127,1117.3,-3.6007e-05,-0.0033348,-3.9595e-05,-26.962,2.0082
23348,18.746,1.2727,0.1,0.00011527,1151.9,0.00011479,1138.2,-3.67e-05,-0.0045141,-4.0279e-05,-26.889,1.9933
23349,18.838,1,0.1,0.00011321,1131.3,0.00011274,1118.1,-3.6062e-05,-0.00045404,-3.9526e-05,-26.031,2.0079
23350,18.746,1.0909,0.1,0.0001153,1152.2,0.00011483,1138.9,-3.6752e-05,-0.001819,-4.0214e-05,-26.018,1.9931
23351,18.838,0.81818,0.1,0.00011325,1131.7,0.0001128,1118.9,-3.6121e-05,0.003038,-3.9462e-05,-25.105,2.0076
23352,18.746,0.90909,0.1,0.00011533,1152.5,0.00011488,1139.8,-3.6807e-05,0.0011322,-4.0154e-05,-25.144,1.9928
23353,18.838,0.63636,0.1,0.0001133,1132.3,0.00011287,1120,-3.6184e-05,0.0061369,-3.9407e-05,-24.212,2.0073
23354,18.746,0.72727,0.1,0.00011538,1153,0.00011495,1140.7,-3.6867e-05,0.0050061,-4.01e-05,-24.286,1.9925
23355,18.838,0.45455,0.1,0.00011339,1133.1,0.00011297,1121.2,-3.6251e-05,0.01446,-3.9372e-05,-23.438,2.0069
23356,18.746,0.54545,0.1,0.00011545,1153.8,0.00011504,1141.8,-3.6931e-05,0.0071584,-4.0056e-05,-23.478,1.9921
23357,18.838,0.27273,0.1,0.00011368,1136,0.00011326,1123.9,-3.6323e-05,0.012041,-3.951e-05,-23.938,2.0066
23358,18.746,0.36364,0.1,0.00011557,1154.9,0.00011516,1143.3,-3.6997e-05,0.021019,-4.0043e-05,-22.862,1.9917
23359,18.746,0.18182,0.1,0.00011606,1159.8,0.00011562,1147.3,-3.7071e-05,-0.000776,-4.0358e-05,-24.695,1.9914
23360,18.838,0.090909,0.1,0.00011277,1126.9,0.00011248,1118.6,-3.6391e-05,0.0064028,-3.8594e-05,-16.549,2.0062
23361,18.653,5.7273,0.1,0.00011792,1178.4,0.0001175,1166.5,-3.7745e-05,0.011441,-4.0868e-05,-23.451,1.9766
23362,18.561,5.8182,0.1,0.00012031,1202.3,0.00011988,1189.9,-3.8495e-05,-0.00079692,-4.1722e-05,-24.251,1.9614
23363,18.653,5.9091,0.1,0.00011703,1169.5,0.00011674,1161.2,-3.781e-05,0.0062055,-3.9974e-05,-16.251,1.9762
23364,18.653,5.5455,0.1,0.00011762,1175.4,0.00011722,1163.8,-3.7677e-05,0.013845,-4.0721e-05,-22.854,1.977
23365,18.561,5.6364,0.1,0.00011981,1197.3,0.00011942,1186,-3.8424e-05,0.020073,-4.1401e-05,-22.343,1.9618
23366,18.653,5.3636,0.1,0.00011753,1174.5,0.00011711,1162.5,-3.7614e-05,0.0059596,-4.0743e-05,-23.511,1.9773
23367,18.561,5.4545,0.1,0.00011969,1196.1,0.00011929,1184.5,-3.8361e-05,0.006925,-4.1403e-05,-22.849,1.9622
23368,18.653,5.1818,0.1,0.00011746,1173.8,0.00011703,1161.5,-3.7554e-05,0.0030198,-4.0786e-05,-24.284,1.9777
23369,18.561,5.2727,0.1,0.00011962,1195.3,0.0001192,1183.4,-3.8301e-05,0.0048942,-4.1435e-05,-23.544,1.9625
23370,18.653,5,0.1,0.00011742,1173.3,0.00011697,1160.6,-3.7498e-05,-0.00031254,-4.0837e-05,-25.091,1.978
23371,18.561,5.0909,0.1,0.00011956,1194.7,0.00011912,1182.4,-3.8244e-05,0.0012059,-4.1477e-05,-24.286,1.9629
23372,18.653,4.8182,0.1,0.00011738,1173,0.00011692,1159.8,-3.7446e-05,-0.0030776,-4.0893e-05,-25.905,1.9782
23373,18.561,4.9091,0.1,0.00011951,1194.3,0.00011906,1181.6,-3.8192e-05,-0.0016205,-4.1525e-05,-25.047,1.9632
23374,18.653,4.6364,0.1,0.00011736,1172.8,0.00011688,1159.2,-3.7398e-05,-0.0055317,-4.0952e-05,-26.708,1.9785
23375,18.561,4.7273,0.1,0.00011948,1194,0.00011902,1180.8,-3.8143e-05,-0.004216,-4.1577e-05,-25.807,1.9634
23376,18.653,4.4545,0.1,0.00011734,1172.6,0.00011685,1158.6,-3.7355e-05,-0.0076383,-4.1011e-05,-27.48,1.9787
23377,18.561,4.5455,0.1,0.00011946,1193.7,0.00011898,1180.2,-3.8099e-05,-0.0064443,-4.1631e-05,-26.549,1.9637
23378,18.653,4.2727,0.1,0.00011734,1172.5,0.00011683,1158.2,-3.7316e-05,-0.009435,-4.1069e-05,-28.204,1.9789
23379,18.561,4.3636,0.1,0.00011944,1193.6,0.00011895,1179.7,-3.8059e-05,-0.0083654,-4.1685e-05,-27.254,1.9639
23380,18.653,4.0909,0.1,0.00011733,1172.5,0.00011682,1157.8,-3.7282e-05,-0.01094,-4.1122e-05,-28.865,1.9791
23381,18.561,4.1818,0.1,0.00011943,1193.5,0.00011893,1179.3,-3.8024e-05,-0.0099911,-4.1736e-05,-27.907,1.9641
23382,18.653,3.9091,0.1,0.00011733,1172.5,0.00011681,1157.5,-3.7253e-05,-0.012175,-4.1171e-05,-29.448,1.9793
23383,18.561,4,0.1,0.00011943,1193.5,0.00011892,1179,-3.7993e-05,-0.011341,-4.1784e-05,-28.494,1.9643
23384,18.653,3.7273,0.1,0.00011734,1172.6,0.0001168,1157.3,-3.723e-05,-0.01316,-4.1213e-05,-29.942,1.9794
23385,18.561,3.8182,0.1,0.00011943,1193.5,0.00011891,1178.7,-3.7967e-05,-0.012437,-4.1826e-05,-29.003,1.9644
23386,18.653,3.5455,0.1,0.00011734,1172.6,0.00011679,1157.1,-3.7211e-05,-0.013909,-4.1247e-05,-30.336,1.9795
23387,18.561,3.6364,0.1,0.00011943,1193.5,0.0001189,1178.5,-3.7947e-05,-0.013292,-4.1861e-05,-29.422,1.9645
23388,18.653,3.3636,0.1,0.00011734,1172.6,0.00011679,1157,-3.7198e-05,-0.014436,-4.1272e-05,-30.624,1.9795
23389,18.561,3.4545,0.1,0.00011943,1193.5,0.0001189,1178.3,-3.7931e-05,-0.013924,-4.1888e-05,-29.745,1.9646
23390,18.653,3.1818,0.1,0.00011735,1172.6,0.00011679,1156.9,-3.719e-05,-0.014748,-4.1287e-05,-30.799,1.9796
23391,18.561,3.2727,0.1,0.00011943,1193.5,0.0001189,1178.2,-3.7921e-05,-0.014338,-4.1907e-05,-29.963,1.9647
23392,18.653,3,0.1,0.00011735,1172.7,0.00011679,1156.9,-3.7187e-05,-0.014851,-4.1292e-05,-30.857,1.9796
23393,18.561,3.0909,0.1,0.00011943,1193.5,0.00011889,1178.2,-3.7916e-05,-0.014543,-4.1916e-05,-30.073,1.9647
23394,18.653,2.8182,0.1,0.00011735,1172.6,0.00011679,1156.9,-3.719e-05,-0.014748,-4.1287e-05,-30.799,1.9796
23395,18.561,2.9091,0.1,0.00011943,1193.5,0.00011889,1178.2,-3.7916e-05,-0.014543,-4.1916e-05,-30.073,1.9647
23396,18.653,2.6364,0.1,0.00011734,1172.6,0.00011679,1157,-3.7198e-05,-0.014436,-4.1272e-05,-30.624,1.9795
23397,18.561,2.7273,0.1,0.00011943,1193.5,0.0001189,1178.2,-3.7921e-05,-0.014337,-4.1907e-05,-29.963,1.9647
23398,18.653,2.4545,0.1,0.00011734,1172.6,0.00011679,1157.1,-3.7211e-05,-0.01391,-4.1247e-05,-30.336,1.9795
23399,18.561,2.5455,0.1,0.00011943,1193.5,0.0001189,1178.3,-3.7931e-05,-0.013923,-4.1888e-05,-29.745,1.9646
23400,18.653,2.2727,0.1,0.00011734,1172.6,0.0001168,1157.3,-3.723e-05,-0.01316,-4.1213e-05,-29.942,1.9794
23401,18.561,2.3636,0.1,0.00011943,1193.5,0.0001189,1178.5,-3.7947e-05,-0.013293,-4.1861e-05,-29.422,1.9645
23402,18.653,2.0909,0.1,0.00011733,1172.5,0.00011681,1157.5,-3.7253e-05,-0.012176,-4.1171e-05,-29.448,1.9793
23403,18.561,2.1818,0.1,0.00011943,1193.5,0.00011891,1178.7,-3.7967e-05,-0.012437,-4.1826e-05,-29.003,1.9644
23404,18.653,1.9091,0.1,0.00011733,1172.5,0.00011682,1157.8,-3.7282e-05,-0.01094,-4.1122e-05,-28.865,1.9791
23405,18.561,2,0.1,0.00011943,1193.5,0.00011892,1179,-3.7993e-05,-0.011342,-4.1784e-05,-28.494,1.9643
23406,18.653,1.7273,0.1,0.00011734,1172.5,0.00011683,1158.2,-3.7316e-05,-0.0094352,-4.1069e-05,-28.204,1.9789
23407,18.561,1.8182,0.1,0.00011943,1193.5,0.00011893,1179.3,-3.8024e-05,-0.0099911,-4.1736e-05,-27.907,1.9641
23408,18.653,1.5455,0.1,0.00011734,1172.6,0.00011685,1158.6,-3.7355e-05,-0.00764,-4.1011e-05,-27.48,1.9787
23409,18.561,1.6364,0.1,0.00011944,1193.6,0.00011895,1179.7,-3.8059e-05,-0.0083663,-4.1685e-05,-27.254,1.9639
23410,18.653,1.3636,0.1,0.00011736,1172.8,0.00011688,1159.2,-3.7398e-05,-0.0055328,-4.0952e-05,-26.708,1.9785
23411,18.561,1.4545,0.1,0.00011946,1193.7,0.00011898,1180.2,-3.8099e-05,-0.0064459,-4.1631e-05,-26.549,1.9637
23412,18.653,1.1818,0.1,0.00011738,1173,0.00011692,1159.8,-3.7446e-05,-0.0030787,-4.0893e-05,-25.905,1.9782
23413,18.561,1.2727,0.1,0.00011948,1194,0.00011902,1180.8,-3.8143e-05,-0.0042157,-4.1577e-05,-25.807,1.9634
23414,18.653,1,0.1,0.00011742,1173.3,0.00011697,1160.6,-3.7498e-05,-0.00031494,-4.0837e-05,-25.091,1.978
23415,18.561,1.0909,0.1,0.00011951,1194.3,0.00011906,1181.6,-3.8192e-05,-0.001622,-4.1525e-05,-25.047,1.9632
23416,18.653,0.81818,0.1,0.00011746,1173.8,0.00011703,1161.5,-3.7554e-05,0.0030192,-4.0786e-05,-24.284,1.9777
23417,18.561,0.90909,0.1,0.00011956,1194.7,0.00011912,1182.4,-3.8244e-05,0.0012041,-4.1477e-05,-24.286,1.9629
23418,18.653,0.63636,0.1,0.00011753,1174.5,0.00011711,1162.5,-3.7614e-05,0.0059599,-4.0743e-05,-23.511,1.9773
23419,18.561,0.72727,0.1,0.00011962,1195.3,0.0001192,1183.4,-3.8301e-05,0.0048939,-4.1435e-05,-23.544,1.9625
23420,18.653,0.45455,0.1,0.00011762,1175.4,0.00011722,1163.8,-3.7677e-05,0.013845,-4.0721e-05,-22.854,1.977
23421,18.561,0.54545,0.1,0.00011969,1196.1,0.00011929,1184.5,-3.8361e-05,0.0069246,-4.1403e-05,-22.849,1.9622
23422,18.653,0.27273,0.1,0.00011792,1178.4,0.0001175,1166.5,-3.7745e-05,0.011441,-4.0868e-05,-23.451,1.9766
23423,18.561,0.36364,0.1,0.00011981,1197.3,0.00011942,1186,-3.8424e-05,0.020076,-4.1401e-05,-22.343,1.9618
23424,18.561,0.18182,0.1,0.00012031,1202.3,0.00011988,1189.9,-3.8495e-05,-0.00079674,-4.1722e-05,-24.251,1.9614
23425,18.653,0.090909,0.1,0.00011703,1169.5,0.00011674,1161.2,-3.781e-05,0.0062036,-3.9974e-05,-16.251,1.9762
23426,18.469,5.7273,0.1,0.00012218,1220.9,0.00012177,1209.3,-3.9173e-05,0.010904,-4.2233e-05,-22.979,1.9467
23427,18.377,5.8182,0.1,0.00012457,1244.9,0.00012415,1232.8,-3.9924e-05,-0.00079204,-4.3094e-05,-23.817,1.9315
23428,18.469,5.9091,0.1,0.0001213,1212.2,0.00012102,1204.1,-3.9235e-05,0.0060271,-4.136e-05,-15.96,1.9462
23429,18.469,5.5455,0.1,0.00012188,1217.9,0.00012148,1206.6,-3.9108e-05,0.013283,-4.2077e-05,-22.293,1.9471
23430,18.377,5.6364,0.1,0.00012408,1239.9,0.00012369,1228.9,-3.9857e-05,0.019203,-4.2767e-05,-21.843,1.932
23431,18.469,5.3636,0.1,0.00012177,1216.9,0.00012137,1205.3,-3.9048e-05,0.005802,-4.2089e-05,-22.842,1.9474
23432,18.377,5.4545,0.1,0.00012395,1238.7,0.00012356,1227.4,-3.9797e-05,0.0067116,-4.2759e-05,-22.248,1.9323
23433,18.469,5.1818,0.1,0.0001217,1216.2,0.00012128,1204.3,-3.8991e-05,0.0030086,-4.212e-05,-23.505,1.9478
23434,18.377,5.2727,0.1,0.00012387,1237.8,0.00012346,1226.2,-3.9739e-05,0.0047933,-4.2779e-05,-22.837,1.9327
23435,18.469,5,0.1,0.00012165,1215.6,0.00012122,1203.3,-3.8938e-05,-0.00017609,-4.2159e-05,-24.203,1.9481
23436,18.377,5.0909,0.1,0.0001238,1237.1,0.00012338,1225.2,-3.9686e-05,0.0012758,-4.281e-05,-23.474,1.933
23437,18.469,4.8182,0.1,0.0001216,1215.2,0.00012116,1202.5,-3.8889e-05,-0.0028325,-4.2204e-05,-24.91,1.9484
23438,18.377,4.9091,0.1,0.00012375,1236.6,0.00012332,1224.4,-3.9636e-05,-0.0014353,-4.2847e-05,-24.13,1.9334
23439,18.469,4.6364,0.1,0.00012157,1214.9,0.00012112,1201.9,-3.8844e-05,-0.0052005,-4.2251e-05,-25.61,1.9487
23440,18.377,4.7273,0.1,0.00012371,1236.2,0.00012327,1223.6,-3.959e-05,-0.0039346,-4.2888e-05,-24.79,1.9336
23441,18.469,4.4545,0.1,0.00012155,1214.7,0.00012108,1201.3,-3.8803e-05,-0.0072411,-4.23e-05,-26.285,1.9489
23442,18.377,4.5455,0.1,0.00012368,1235.9,0.00012322,1223,-3.9548e-05,-0.0060913,-4.2932e-05,-25.435,1.9339
23443,18.469,4.2727,0.1,0.00012153,1214.5,0.00012105,1200.8,-3.8766e-05,-0.0089886,-4.2348e-05,-26.92,1.9491
23444,18.377,4.3636,0.1,0.00012366,1235.7,0.00012319,1222.5,-3.951e-05,-0.0079563,-4.2976e-05,-26.05,1.9341
23445,18.469,4.0909,0.1,0.00012152,1214.4,0.00012103,1200.4,-3.8734e-05,-0.010457,-4.2393e-05,-27.5,1.9493
23446,18.377,4.1818,0.1,0.00012364,1235.6,0.00012317,1222,-3.9477e-05,-0.0095403,-4.3018e-05,-26.621,1.9343
23447,18.469,3.9091,0.1,0.00012152,1214.4,0.00012102,1200.1,-3.8707e-05,-0.011665,-4.2434e-05,-28.012,1.9494
23448,18.377,4,0.1,0.00012363,1235.5,0.00012315,1221.7,-3.9448e-05,-0.01086,-4.3058e-05,-27.136,1.9345
23449,18.469,3.7273,0.1,0.00012152,1214.3,0.00012101,1199.9,-3.8685e-05,-0.01263,-4.2469e-05,-28.447,1.9496
23450,18.377,3.8182,0.1,0.00012363,1235.4,0.00012313,1221.4,-3.9424e-05,-0.011932,-4.3093e-05,-27.582,1.9346
23451,18.469,3.5455,0.1,0.00012152,1214.3,0.000121,1199.7,-3.8667e-05,-0.013366,-4.2498e-05,-28.795,1.9497
23452,18.377,3.6364,0.1,0.00012362,1235.4,0.00012312,1221.1,-3.9404e-05,-0.012773,-4.3122e-05,-27.951,1.9347
23453,18.469,3.3636,0.1,0.00012152,1214.3,0.000121,1199.5,-3.8654e-05,-0.013883,-4.2519e-05,-29.049,1.9497
23454,18.377,3.4545,0.1,0.00012362,1235.4,0.00012312,1221,-3.9389e-05,-0.013392,-4.3145e-05,-28.234,1.9348
23455,18.469,3.1818,0.1,0.00012152,1214.3,0.00012099,1199.5,-3.8647e-05,-0.01419,-4.2532e-05,-29.203,1.9498
23456,18.377,3.2727,0.1,0.00012362,1235.3,0.00012311,1220.9,-3.938e-05,-0.013801,-4.3161e-05,-28.426,1.9349
23457,18.469,3,0.1,0.00012152,1214.3,0.00012099,1199.4,-3.8644e-05,-0.014292,-4.2536e-05,-29.254,1.9498
23458,18.377,3.0909,0.1,0.00012362,1235.3,0.00012311,1220.8,-3.9375e-05,-0.014002,-4.3169e-05,-28.523,1.9349
23459,18.469,2.8182,0.1,0.00012152,1214.3,0.00012099,1199.5,-3.8647e-05,-0.01419,-4.2532e-05,-29.203,1.9498
23460,18.377,2.9091,0.1,0.00012362,1235.3,0.00012311,1220.8,-3.9375e-05,-0.014003,-4.3169e-05,-28.523,1.9349
23461,18.469,2.6364,0.1,0.00012152,1214.3,0.000121,1199.5,-3.8654e-05,-0.013883,-4.2519e-05,-29.049,1.9497
23462,18.377,2.7273,0.1,0.00012362,1235.3,0.00012311,1220.9,-3.938e-05,-0.0138,-4.3161e-05,-28.426,1.9349
23463,18.469,2.4545,0.1,0.00012152,1214.3,0.000121,1199.7,-3.8667e-05,-0.013365,-4.2498e-05,-28.795,1.9497
23464,18.377,2.5455,0.1,0.00012362,1235.4,0.00012312,1221,-3.9389e-05,-0.013393,-4.3145e-05,-28.234,1.9348
23465,18.469,2.2727,0.1,0.00012152,1214.3,0.00012101,1199.9,-3.8685e-05,-0.01263,-4.2469e-05,-28.447,1.9496
23466,18.377,2.3636,0.1,0.00012362,1235.4,0.00012312,1221.2,-3.9404e-05,-0.012772,-4.3122e-05,-27.951,1.9347
23467,18.469,2.0909,0.1,0.00012152,1214.4,0.00012102,1200.1,-3.8707e-05,-0.011665,-4.2434e-05,-28.012,1.9494
23468,18.377,2.1818,0.1,0.00012363,1235.4,0.00012313,1221.4,-3.9424e-05,-0.011933,-4.3093e-05,-27.582,1.9346
23469,18.469,1.9091,0.1,0.00012152,1214.4,0.00012103,1200.4,-3.8734e-05,-0.010457,-4.2393e-05,-27.5,1.9493
23470,18.377,2,0.1,0.00012363,1235.5,0.00012315,1221.7,-3.9448e-05,-0.01086,-4.3058e-05,-27.136,1.9345
23471,18.469,1.7273,0.1,0.00012153,1214.5,0.00012105,1200.8,-3.8766e-05,-0.0089893,-4.2348e-05,-26.919,1.9491
23472,18.377,1.8182,0.1,0.00012364,1235.6,0.00012317,1222,-3.9477e-05,-0.0095406,-4.3018e-05,-26.621,1.9343
23473,18.469,1.5455,0.1,0.00012155,1214.7,0.00012108,1201.3,-3.8803e-05,-0.0072419,-4.23e-05,-26.285,1.9489
23474,18.377,1.6364,0.1,0.00012366,1235.7,0.00012319,1222.5,-3.951e-05,-0.0079567,-4.2976e-05,-26.05,1.9341
23475,18.469,1.3636,0.1,0.00012157,1214.9,0.00012112,1201.9,-3.8844e-05,-0.0052008,-4.2251e-05,-25.61,1.9487
23476,18.377,1.4545,0.1,0.00012368,1235.9,0.00012322,1223,-3.9548e-05,-0.0060912,-4.2932e-05,-25.435,1.9339
23477,18.469,1.1818,0.1,0.0001216,1215.2,0.00012116,1202.5,-3.8889e-05,-0.0028327,-4.2204e-05,-24.91,1.9484
23478,18.377,1.2727,0.1,0.00012371,1236.2,0.00012327,1223.6,-3.959e-05,-0.0039351,-4.2888e-05,-24.789,1.9336
23479,18.469,1,0.1,0.00012165,1215.6,0.00012122,1203.3,-3.8938e-05,-0.00017703,-4.2159e-05,-24.202,1.9481
23480,18.377,1.0909,0.1,0.00012375,1236.6,0.00012332,1224.4,-3.9636e-05,-0.0014351,-4.2847e-05,-24.13,1.9334
23481,18.469,0.81818,0.1,0.0001217,1216.2,0.00012128,1204.3,-3.8991e-05,0.003007,-4.212e-05,-23.505,1.9478
23482,18.377,0.90909,0.1,0.0001238,1237.1,0.00012338,1225.2,-3.9686e-05,0.0012741,-4.281e-05,-23.473,1.933
23483,18.469,0.63636,0.1,0.00012177,1216.9,0.00012137,1205.3,-3.9048e-05,0.005801,-4.2089e-05,-22.842,1.9474
23484,18.377,0.72727,0.1,0.00012387,1237.8,0.00012346,1226.2,-3.9739e-05,0.0047917,-4.2779e-05,-22.837,1.9327
23485,18.469,0.45455,0.1,0.00012188,1217.9,0.00012148,1206.6,-3.9108e-05,0.013285,-4.2077e-05,-22.293,1.9471
23486,18.377,0.54545,0.1,0.00012395,1238.7,0.00012356,1227.4,-3.9797e-05,0.0067109,-4.2759e-05,-22.248,1.9323
23487,18.469,0.27273,0.1,0.00012218,1220.9,0.00012177,1209.3,-3.9173e-05,0.010906,-4.2233e-05,-22.979,1.9467
23488,18.377,0.36364,0.1,0.00012408,1239.9,0.00012369,1228.9,-3.9857e-05,0.019205,-4.2767e-05,-21.843,1.932
23489,18.377,0.18182,0.1,0.00012457,1244.9,0.00012415,1232.8,-3.9924e-05,-0.00079137,-4.3094e-05,-23.817,1.9315
23490,18.469,0.090909,0.1,0.0001213,1212.2,0.00012102,1204.1,-3.9235e-05,0.0060263,-4.136e-05,-15.96,1.9462
23491,18.285,5.7273,0.1,0.00012645,1263.6,0.00012605,1252.2,-4.0607e-05,0.010417,-4.3606e-05,-22.52,1.9168
23492,18.192,5.8182,0.1,0.00012886,1287.7,0.00012844,1275.8,-4.1359e-05,-0.00077327,-4.4472e-05,-23.392,1.9017
23493,18.285,5.9091,0.1,0.00012559,1255.1,0.00012532,1247.1,-4.0666e-05,0.005859,-4.2753e-05,-15.676,1.9164
23494,18.285,5.5455,0.1,0.00012615,1260.6,0.00012576,1249.6,-4.0545e-05,0.012762,-4.3442e-05,-21.754,1.9173
23495,18.192,5.6364,0.1,0.00012836,1282.7,0.00012798,1271.9,-4.1295e-05,0.018391,-4.414e-05,-21.361,1.9022
23496,18.285,5.3636,0.1,0.00012604,1259.5,0.00012565,1248.3,-4.0488e-05,0.0056544,-4.3444e-05,-22.204,1.9176
23497,18.192,5.4545,0.1,0.00012823,1281.4,0.00012785,1270.5,-4.1238e-05,0.0065087,-4.4123e-05,-21.672,1.9026
23498,18.285,5.1818,0.1,0.00012596,1258.7,0.00012556,1247.2,-4.0434e-05,0.0029972,-4.3464e-05,-22.766,1.918
23499,18.192,5.2727,0.1,0.00012814,1280.5,0.00012775,1269.3,-4.1183e-05,0.0046939,-4.4134e-05,-22.164,1.903
23500,18.285,5,0.1,0.0001259,1258.1,0.00012548,1246.3,-4.0383e-05,-5.0126e-05,-4.3493e-05,-23.363,1.9183
23501,18.192,5.0909,0.1,0.00012807,1279.8,0.00012766,1268.3,-4.1132e-05,0.0013344,-4.4154e-05,-22.703,1.9033
23502,18.285,4.8182,0.1,0.00012585,1257.6,0.00012542,1245.4,-4.0337e-05,-0.0026047,-4.3527e-05,-23.972,1.9186
23503,18.192,4.9091,0.1,0.00012801,1279.2,0.00012759,1267.4,-4.1085e-05,-0.0012674,-4.4181e-05,-23.264,1.9036
23504,18.285,4.6364,0.1,0.00012581,1257.2,0.00012537,1244.7,-4.0294e-05,-0.0048921,-4.3564e-05,-24.577,1.9189
23505,18.192,4.7273,0.1,0.00012796,1278.7,0.00012754,1266.6,-4.1041e-05,-0.0036771,-4.4212e-05,-23.83,1.9039
23506,18.285,4.4545,0.1,0.00012578,1256.9,0.00012533,1244.1,-4.0255e-05,-0.006872,-4.3603e-05,-25.163,1.9191
23507,18.192,4.5455,0.1,0.00012792,1278.3,0.00012749,1266,-4.1001e-05,-0.0057655,-4.4246e-05,-24.387,1.9042
23508,18.285,4.2727,0.1,0.00012576,1256.7,0.0001253,1243.6,-4.022e-05,-0.0085716,-4.3642e-05,-25.715,1.9194
23509,18.192,4.3636,0.1,0.00012789,1278.1,0.00012745,1265.4,-4.0965e-05,-0.0075785,-4.4281e-05,-24.919,1.9044
23510,18.285,4.0909,0.1,0.00012574,1256.6,0.00012528,1243.2,-4.019e-05,-0.010005,-4.3679e-05,-26.221,1.9195
23511,18.192,4.1818,0.1,0.00012787,1277.8,0.00012742,1264.9,-4.0934e-05,-0.0091222,-4.4315e-05,-25.415,1.9046
23512,18.285,3.9091,0.1,0.00012573,1256.4,0.00012526,1242.9,-4.0164e-05,-0.011187,-4.3712e-05,-26.669,1.9197
23513,18.192,4,0.1,0.00012786,1277.7,0.0001274,1264.6,-4.0906e-05,-0.010413,-4.4347e-05,-25.863,1.9048
23514,18.285,3.7273,0.1,0.00012572,1256.4,0.00012524,1242.6,-4.0143e-05,-0.012134,-4.3742e-05,-27.05,1.9198
23515,18.192,3.8182,0.1,0.00012785,1277.6,0.00012738,1264.3,-4.0883e-05,-0.011464,-4.4376e-05,-26.252,1.9049
23516,18.285,3.5455,0.1,0.00012572,1256.3,0.00012523,1242.4,-4.0126e-05,-0.012857,-4.3765e-05,-27.354,1.9199
23517,18.192,3.6364,0.1,0.00012784,1277.5,0.00012737,1264,-4.0865e-05,-0.01229,-4.44e-05,-26.574,1.9051
23518,18.285,3.3636,0.1,0.00012572,1256.3,0.00012523,1242.3,-4.0115e-05,-0.013366,-4.3783e-05,-27.577,1.92
23519,18.192,3.4545,0.1,0.00012784,1277.5,0.00012736,1263.8,-4.0851e-05,-0.012899,-4.4419e-05,-26.821,1.9051
23520,18.285,3.1818,0.1,0.00012572,1256.3,0.00012522,1242.2,-4.0107e-05,-0.013669,-4.3794e-05,-27.712,1.9201
23521,18.192,3.2727,0.1,0.00012783,1277.4,0.00012735,1263.7,-4.0842e-05,-0.013301,-4.4432e-05,-26.989,1.9052
23522,18.285,3,0.1,0.00012572,1256.3,0.00012522,1242.2,-4.0105e-05,-0.013769,-4.3797e-05,-27.757,1.9201
23523,18.192,3.0909,0.1,0.00012783,1277.4,0.00012735,1263.7,-4.0837e-05,-0.0135,-4.4439e-05,-27.074,1.9052
23524,18.285,2.8182,0.1,0.00012572,1256.3,0.00012522,1242.2,-4.0107e-05,-0.013669,-4.3794e-05,-27.712,1.9201
23525,18.192,2.9091,0.1,0.00012783,1277.4,0.00012735,1263.7,-4.0837e-05,-0.0135,-4.4439e-05,-27.074,1.9052
23526,18.285,2.6364,0.1,0.00012572,1256.3,0.00012523,1242.3,-4.0115e-05,-0.013367,-4.3783e-05,-27.577,1.92
23527,18.192,2.7273,0.1,0.00012783,1277.4,0.00012735,1263.7,-4.0842e-05,-0.013301,-4.4432e-05,-26.989,1.9052
23528,18.285,2.4545,0.1,0.00012572,1256.3,0.00012523,1242.4,-4.0126e-05,-0.012857,-4.3765e-05,-27.354,1.9199
23529,18.192,2.5455,0.1,0.00012784,1277.5,0.00012736,1263.8,-4.0851e-05,-0.0129,-4.4419e-05,-26.821,1.9051
23530,18.285,2.2727,0.1,0.00012572,1256.4,0.00012524,1242.6,-4.0143e-05,-0.012134,-4.3742e-05,-27.05,1.9198
23531,18.192,2.3636,0.1,0.00012784,1277.5,0.00012737,1264,-4.0865e-05,-0.012289,-4.44e-05,-26.574,1.9051
23532,18.285,2.0909,0.1,0.00012573,1256.4,0.00012526,1242.9,-4.0164e-05,-0.011187,-4.3712e-05,-26.669,1.9197
23533,18.192,2.1818,0.1,0.00012785,1277.6,0.00012738,1264.3,-4.0884e-05,-0.011465,-4.4376e-05,-26.252,1.9049
23534,18.285,1.9091,0.1,0.00012574,1256.6,0.00012528,1243.2,-4.019e-05,-0.010005,-4.3679e-05,-26.221,1.9195
23535,18.192,2,0.1,0.00012786,1277.7,0.0001274,1264.6,-4.0906e-05,-0.010413,-4.4347e-05,-25.863,1.9048
23536,18.285,1.7273,0.1,0.00012576,1256.7,0.0001253,1243.6,-4.022e-05,-0.0085716,-4.3642e-05,-25.715,1.9194
23537,18.192,1.8182,0.1,0.00012787,1277.8,0.00012742,1264.9,-4.0934e-05,-0.0091225,-4.4315e-05,-25.415,1.9046
23538,18.285,1.5455,0.1,0.00012578,1256.9,0.00012533,1244.1,-4.0255e-05,-0.0068714,-4.3603e-05,-25.162,1.9191
23539,18.192,1.6364,0.1,0.00012789,1278.1,0.00012745,1265.4,-4.0965e-05,-0.0075785,-4.4281e-05,-24.919,1.9044
23540,18.285,1.3636,0.1,0.00012581,1257.2,0.00012537,1244.7,-4.0294e-05,-0.0048923,-4.3564e-05,-24.577,1.9189
23541,18.192,1.4545,0.1,0.00012792,1278.3,0.00012749,1266,-4.1001e-05,-0.0057653,-4.4246e-05,-24.386,1.9042
23542,18.285,1.1818,0.1,0.00012585,1257.6,0.00012542,1245.4,-4.0337e-05,-0.0026049,-4.3527e-05,-23.971,1.9186
23543,18.192,1.2727,0.1,0.00012796,1278.7,0.00012754,1266.6,-4.1041e-05,-0.0036773,-4.4212e-05,-23.83,1.9039
23544,18.285,1,0.1,0.0001259,1258.1,0.00012548,1246.3,-4.0383e-05,-5.0679e-05,-4.3493e-05,-23.362,1.9183
23545,18.192,1.0909,0.1,0.00012801,1279.2,0.00012759,1267.4,-4.1085e-05,-0.0012673,-4.4181e-05,-23.264,1.9036
23546,18.285,0.81818,0.1,0.00012596,1258.7,0.00012556,1247.2,-4.0434e-05,0.0029954,-4.3464e-05,-22.766,1.918
23547,18.192,0.90909,0.1,0.00012807,1279.8,0.00012766,1268.3,-4.1132e-05,0.0013331,-4.4154e-05,-22.703,1.9033
23548,18.285,0.63636,0.1,0.00012604,1259.5,0.00012565,1248.3,-4.0488e-05,0.005653,-4.3444e-05,-22.204,1.9176
23549,18.192,0.72727,0.1,0.00012814,1280.5,0.00012775,1269.3,-4.1183e-05,0.0046923,-4.4134e-05,-22.164,1.903
23550,18.285,0.45455,0.1,0.00012615,1260.6,0.00012576,1249.6,-4.0545e-05,0.012761,-4.3442e-05,-21.754,1.9173
23551,18.192,0.54545,0.1,0.00012823,1281.4,0.00012785,1270.5,-4.1238e-05,0.0065079,-4.4123e-05,-21.672,1.9026
23552,18.285,0.27273,0.1,0.00012645,1263.6,0.00012605,1252.2,-4.0607e-05,0.010417,-4.3606e-05,-22.52,1.9168
23553,18.192,0.36364,0.1,0.00012836,1282.7,0.00012798,1271.9,-4.1295e-05,0.018391,-4.414e-05,-21.361,1.9022
23554,18.192,0.18182,0.1,0.00012886,1287.7,0.00012844,1275.8,-4.1359e-05,-0.00077203,-4.4472e-05,-23.392,1.9017
23555,18.285,0.090909,0.1,0.00012559,1255.1,0.00012532,1247.1,-4.0666e-05,0.0058603,-4.2753e-05,-15.676,1.9164
23556,18.1,5.7273,0.1,0.00013074,1306.5,0.00013035,1295.4,-4.2046e-05,0.0099645,-4.4985e-05,-22.074,1.8871
23557,18.008,5.8182,0.1,0.00013316,1330.7,0.00013275,1319,-4.2799e-05,-0.00074414,-4.5857e-05,-22.977,1.872
23558,18.1,5.9091,0.1,0.0001299,1298.1,0.00012963,1290.4,-4.2103e-05,0.0056913,-4.4153e-05,-15.398,1.8867
23559,18.1,5.5455,0.1,0.00013044,1303.5,0.00013006,1292.7,-4.1987e-05,0.012269,-4.4815e-05,-21.235,1.8875
23560,18.008,5.6364,0.1,0.00013266,1325.7,0.0001323,1315.2,-4.2738e-05,0.017631,-4.5522e-05,-20.894,1.8725
23561,18.1,5.3636,0.1,0.00013033,1302.4,0.00012994,1291.4,-4.1933e-05,0.0055075,-4.4808e-05,-21.594,1.8879
23562,18.008,5.4545,0.1,0.00013253,1324.4,0.00013216,1313.7,-4.2684e-05,0.0063155,-4.5496e-05,-21.12,1.8729
23563,18.1,5.1818,0.1,0.00013024,1301.5,0.00012985,1290.3,-4.1881e-05,0.0029753,-4.4818e-05,-22.063,1.8883
23564,18.008,5.2727,0.1,0.00013243,1323.4,0.00013205,1312.5,-4.2632e-05,0.0045948,-4.5497e-05,-21.523,1.8733
23565,18.1,5,0.1,0.00013017,1300.8,0.00012977,1289.4,-4.1833e-05,5.709e-05,-4.4837e-05,-22.567,1.8886
23566,18.008,5.0909,0.1,0.00013235,1322.6,0.00013197,1311.5,-4.2583e-05,0.0013835,-4.5508e-05,-21.972,1.8737
23567,18.1,4.8182,0.1,0.00013011,1300.2,0.0001297,1288.5,-4.1789e-05,-0.0024015,-4.4861e-05,-23.085,1.8889
23568,18.008,4.9091,0.1,0.00013229,1322,0.00013189,1310.6,-4.2538e-05,-0.0011159,-4.5525e-05,-22.444,1.874
23569,18.1,4.6364,0.1,0.00013007,1299.8,0.00012965,1287.8,-4.1748e-05,-0.0046125,-4.4889e-05,-23.603,1.8892
23570,18.008,4.7273,0.1,0.00013223,1321.4,0.00013183,1309.8,-4.2497e-05,-0.0034411,-4.5547e-05,-22.924,1.8743
23571,18.1,4.4545,0.1,0.00013003,1299.4,0.00012961,1287.2,-4.1711e-05,-0.0065335,-4.4919e-05,-24.107,1.8895
23572,18.008,4.5455,0.1,0.00013219,1321,0.00013178,1309.1,-4.2459e-05,-0.0054651,-4.5572e-05,-23.399,1.8745
23573,18.1,4.2727,0.1,0.00013,1299.1,0.00012957,1286.7,-4.1679e-05,-0.0081894,-4.4949e-05,-24.583,1.8897
23574,18.008,4.3636,0.1,0.00013216,1320.6,0.00013173,1308.6,-4.2425e-05,-0.0072286,-4.5599e-05,-23.855,1.8748
23575,18.1,4.0909,0.1,0.00012998,1298.9,0.00012954,1286.2,-4.165e-05,-0.0095897,-4.4979e-05,-25.021,1.8899
23576,18.008,4.1818,0.1,0.00013213,1320.4,0.0001317,1308.1,-4.2395e-05,-0.008735,-4.5626e-05,-24.282,1.875
23577,18.1,3.9091,0.1,0.00012997,1298.8,0.00012952,1285.9,-4.1626e-05,-0.010748,-4.5006e-05,-25.41,1.8901
23578,18.008,4,0.1,0.00013211,1320.2,0.00013167,1307.7,-4.2369e-05,-0.0099981,-4.5651e-05,-24.668,1.8752
23579,18.1,3.7273,0.1,0.00012996,1298.7,0.0001295,1285.6,-4.1606e-05,-0.011677,-4.503e-05,-25.741,1.8902
23580,18.008,3.8182,0.1,0.00013209,1320,0.00013165,1307.3,-4.2348e-05,-0.011029,-4.5674e-05,-25.004,1.8753
23581,18.1,3.5455,0.1,0.00012995,1298.6,0.00012949,1285.4,-4.159e-05,-0.012388,-4.5049e-05,-26.006,1.8903
23582,18.008,3.6364,0.1,0.00013208,1319.9,0.00013163,1307.1,-4.233e-05,-0.01184,-4.5693e-05,-25.283,1.8755
23583,18.1,3.3636,0.1,0.00012994,1298.6,0.00012948,1285.2,-4.1579e-05,-0.012889,-4.5064e-05,-26.199,1.8904
23584,18.008,3.4545,0.1,0.00013208,1319.8,0.00013162,1306.9,-4.2317e-05,-0.01244,-4.5709e-05,-25.497,1.8755
23585,18.1,3.1818,0.1,0.00012994,1298.5,0.00012947,1285.2,-4.1572e-05,-0.013187,-4.5073e-05,-26.317,1.8904
23586,18.008,3.2727,0.1,0.00013207,1319.8,0.00013162,1306.8,-4.2308e-05,-0.012836,-4.5719e-05,-25.643,1.8756
23587,18.1,3,0.1,0.00012994,1298.5,0.00012947,1285.1,-4.1569e-05,-0.013286,-4.5076e-05,-26.357,1.8904
23588,18.008,3.0909,0.1,0.00013207,1319.8,0.00013161,1306.7,-4.2304e-05,-0.013032,-4.5725e-05,-25.717,1.8756
23589,18.1,2.8182,0.1,0.00012994,1298.5,0.00012947,1285.2,-4.1572e-05,-0.013187,-4.5073e-05,-26.317,1.8904
23590,18.008,2.9091,0.1,0.00013207,1319.8,0.00013161,1306.7,-4.2304e-05,-0.013033,-4.5725e-05,-25.717,1.8756
23591,18.1,2.6364,0.1,0.00012994,1298.6,0.00012948,1285.2,-4.1579e-05,-0.012889,-4.5064e-05,-26.199,1.8904
23592,18.008,2.7273,0.1,0.00013207,1319.8,0.00013162,1306.8,-4.2308e-05,-0.012836,-4.5719e-05,-25.643,1.8756
23593,18.1,2.4545,0.1,0.00012995,1298.6,0.00012949,1285.4,-4.159e-05,-0.012388,-4.5049e-05,-26.006,1.8903
23594,18.008,2.5455,0.1,0.00013208,1319.8,0.00013162,1306.9,-4.2317e-05,-0.01244,-4.5709e-05,-25.497,1.8755
23595,18.1,2.2727,0.1,0.00012996,1298.7,0.0001295,1285.6,-4.1606e-05,-0.011677,-4.503e-05,-25.74,1.8902
23596,18.008,2.3636,0.1,0.00013208,1319.9,0.00013163,1307.1,-4.233e-05,-0.01184,-4.5693e-05,-25.283,1.8755
23597,18.1,2.0909,0.1,0.00012997,1298.8,0.00012952,1285.9,-4.1626e-05,-0.010748,-4.5006e-05,-25.41,1.8901
23598,18.008,2.1818,0.1,0.00013209,1320,0.00013165,1307.3,-4.2348e-05,-0.01103,-4.5674e-05,-25.004,1.8753
23599,18.1,1.9091,0.1,0.00012998,1298.9,0.00012954,1286.2,-4.165e-05,-0.0095903,-4.4979e-05,-25.021,1.8899
23600,18.008,2,0.1,0.00013211,1320.2,0.00013167,1307.7,-4.2369e-05,-0.0099993,-4.5651e-05,-24.668,1.8752
23601,18.1,1.7273,0.1,0.00013,1299.1,0.00012957,1286.7,-4.1679e-05,-0.0081896,-4.4949e-05,-24.583,1.8897
23602,18.008,1.8182,0.1,0.00013213,1320.4,0.0001317,1308.1,-4.2395e-05,-0.0087346,-4.5626e-05,-24.282,1.875
23603,18.1,1.5455,0.1,0.00013003,1299.4,0.00012961,1287.2,-4.1711e-05,-0.0065338,-4.4919e-05,-24.107,1.8895
23604,18.008,1.6364,0.1,0.00013216,1320.6,0.00013173,1308.6,-4.2425e-05,-0.0072288,-4.5599e-05,-23.855,1.8748
23605,18.1,1.3636,0.1,0.00013007,1299.8,0.00012965,1287.8,-4.1748e-05,-0.0046123,-4.4889e-05,-23.603,1.8892
23606,18.008,1.4545,0.1,0.00013219,1321,0.00013178,1309.1,-4.2459e-05,-0.0054653,-4.5572e-05,-23.399,1.8745
23607,18.1,1.1818,0.1,0.00013011,1300.2,0.0001297,1288.5,-4.1789e-05,-0.0024014,-4.4861e-05,-23.085,1.8889
23608,18.008,1.2727,0.1,0.00013223,1321.4,0.00013183,1309.8,-4.2497e-05,-0.0034419,-4.5547e-05,-22.924,1.8743
23609,18.1,1,0.1,0.00013017,1300.8,0.00012977,1289.4,-4.1833e-05,5.6433e-05,-4.4837e-05,-22.567,1.8886
23610,18.008,1.0909,0.1,0.00013229,1322,0.00013189,1310.6,-4.2538e-05,-0.0011163,-4.5525e-05,-22.443,1.874
23611,18.1,0.81818,0.1,0.00013024,1301.5,0.00012985,1290.3,-4.1881e-05,0.0029743,-4.4818e-05,-22.063,1.8883
23612,18.008,0.90909,0.1,0.00013235,1322.6,0.00013197,1311.5,-4.2583e-05,0.0013816,-4.5508e-05,-21.971,1.8737
23613,18.1,0.63636,0.1,0.00013033,1302.4,0.00012994,1291.4,-4.1933e-05,0.0055065,-4.4808e-05,-21.594,1.8879
23614,18.008,0.72727,0.1,0.00013243,1323.4,0.00013205,1312.5,-4.2632e-05,0.0045935,-4.5497e-05,-21.523,1.8733
23615,18.1,0.45455,0.1,0.00013044,1303.5,0.00013006,1292.7,-4.1987e-05,0.012268,-4.4815e-05,-21.235,1.8875
23616,18.008,0.54545,0.1,0.00013253,1324.4,0.00013216,1313.7,-4.2684e-05,0.0063165,-4.5496e-05,-21.12,1.8729
23617,18.1,0.27273,0.1,0.00013074,1306.5,0.00013035,1295.4,-4.2046e-05,0.0099649,-4.4985e-05,-22.074,1.8871
23618,18.008,0.36364,0.1,0.00013266,1325.7,0.0001323,1315.2,-4.2738e-05,0.017631,-4.5522e-05,-20.894,1.8725
23619,18.008,0.18182,0.1,0.00013316,1330.7,0.00013275,1319,-4.2799e-05,-0.00074396,-4.5857e-05,-22.977,1.872
23620,18.1,0.090909,0.1,0.0001299,1298.1,0.00012963,1290.4,-4.2103e-05,0.0056922,-4.4153e-05,-15.398,1.8867
23621,17.916,5.7273,0.1,0.00013506,1349.6,0.00013467,1338.7,-4.3491e-05,0.0095504,-4.6373e-05,-21.641,1.8575
23622,17.824,5.8182,0.1,0.00013748,1373.9,0.00013708,1362.4,-4.4246e-05,-0.00070451,-4.725e-05,-22.572,1.8424
23623,17.916,5.9091,0.1,0.00013423,1341.4,0.00013397,1333.8,-4.3545e-05,0.005534,-4.5559e-05,-15.127,1.857
23624,17.916,5.5455,0.1,0.00013475,1346.6,0.00013438,1336.1,-4.3435e-05,0.011809,-4.6196e-05,-20.736,1.8579
23625,17.824,5.6364,0.1,0.00013699,1368.9,0.00013663,1358.6,-4.4188e-05,0.016919,-4.6911e-05,-20.443,1.8429
23626,17.916,5.3636,0.1,0.00013463,1345.4,0.00013426,1334.8,-4.3383e-05,0.0053692,-4.618e-05,-21.01,1.8583
23627,17.824,5.4545,0.1,0.00013685,1367.5,0.00013649,1357.1,-4.4136e-05,0.0061328,-4.6877e-05,-20.589,1.8433
23628,17.916,5.1818,0.1,0.00013454,1344.5,0.00013416,1333.6,-4.3334e-05,0.002954,-4.6182e-05,-21.393,1.8587
23629,17.824,5.2727,0.1,0.00013675,1366.5,0.00013638,1355.9,-4.4086e-05,0.0044991,-4.687e-05,-20.909,1.8437
23630,17.916,5,0.1,0.00013446,1343.7,0.00013408,1332.7,-4.3288e-05,0.00015651,-4.6191e-05,-21.811,1.859
23631,17.824,5.0909,0.1,0.00013666,1365.7,0.00013629,1354.9,-4.404e-05,0.0014264,-4.6872e-05,-21.275,1.8441
23632,17.916,4.8182,0.1,0.0001344,1343.1,0.00013401,1331.8,-4.3246e-05,-0.002212,-4.6207e-05,-22.246,1.8593
23633,17.824,4.9091,0.1,0.00013659,1364.9,0.00013621,1354,-4.3997e-05,-0.00097768,-4.688e-05,-21.665,1.8444
23634,17.916,4.6364,0.1,0.00013435,1342.6,0.00013395,1331.1,-4.3208e-05,-0.0043513,-4.6226e-05,-22.683,1.8596
23635,17.824,4.7273,0.1,0.00013653,1364.4,0.00013614,1353.2,-4.3958e-05,-0.0032233,-4.6894e-05,-22.066,1.8447
23636,17.916,4.4545,0.1,0.00013431,1342.2,0.0001339,1330.5,-4.3173e-05,-0.0062179,-4.6248e-05,-23.111,1.8599
23637,17.824,4.5455,0.1,0.00013648,1363.9,0.00013608,1352.5,-4.3922e-05,-0.0051863,-4.6911e-05,-22.465,1.845
23638,17.916,4.2727,0.1,0.00013428,1341.8,0.00013386,1329.9,-4.3142e-05,-0.0078315,-4.6271e-05,-23.518,1.8601
23639,17.824,4.3636,0.1,0.00013644,1363.5,0.00013604,1351.9,-4.389e-05,-0.0069026,-4.693e-05,-22.852,1.8453
23640,17.916,4.0909,0.1,0.00013425,1341.6,0.00013383,1329.5,-4.3114e-05,-0.0091999,-4.6293e-05,-23.893,1.8603
23641,17.824,4.1818,0.1,0.00013641,1363.2,0.000136,1351.4,-4.3861e-05,-0.0083731,-4.695e-05,-23.214,1.8455
23642,17.916,3.9091,0.1,0.00013423,1341.4,0.0001338,1329.1,-4.3091e-05,-0.010335,-4.6314e-05,-24.227,1.8605
23643,17.824,4,0.1,0.00013638,1362.9,0.00013597,1351,-4.3837e-05,-0.0096103,-4.6969e-05,-23.543,1.8457
23644,17.916,3.7273,0.1,0.00013421,1341.2,0.00013378,1328.8,-4.3072e-05,-0.011247,-4.6333e-05,-24.511,1.8606
23645,17.824,3.8182,0.1,0.00013637,1362.7,0.00013594,1350.6,-4.3816e-05,-0.010622,-4.6986e-05,-23.831,1.8458
23646,17.916,3.5455,0.1,0.0001342,1341.1,0.00013377,1328.6,-4.3057e-05,-0.011947,-4.6348e-05,-24.74,1.8607
23647,17.824,3.6364,0.1,0.00013635,1362.6,0.00013593,1350.4,-4.3799e-05,-0.011419,-4.7001e-05,-24.069,1.8459
23648,17.916,3.3636,0.1,0.0001342,1341,0.00013376,1328.4,-4.3047e-05,-0.012441,-4.636e-05,-24.907,1.8608
23649,17.824,3.4545,0.1,0.00013634,1362.5,0.00013591,1350.2,-4.3787e-05,-0.01201,-4.7013e-05,-24.254,1.846
23650,17.916,3.1818,0.1,0.00013419,1341,0.00013375,1328.3,-4.304e-05,-0.012734,-4.6367e-05,-25.009,1.8609
23651,17.824,3.2727,0.1,0.00013634,1362.4,0.0001359,1350.1,-4.3779e-05,-0.0124,-4.7022e-05,-24.379,1.8461
23652,17.916,3,0.1,0.00013419,1341,0.00013375,1328.3,-4.3038e-05,-0.012832,-4.6369e-05,-25.043,1.8609
23653,17.824,3.0909,0.1,0.00013633,1362.4,0.0001359,1350,-4.3774e-05,-0.012594,-4.7026e-05,-24.442,1.8461
23654,17.916,2.8182,0.1,0.00013419,1341,0.00013375,1328.3,-4.304e-05,-0.012735,-4.6367e-05,-25.008,1.8609
23655,17.824,2.9091,0.1,0.00013633,1362.4,0.0001359,1350,-4.3774e-05,-0.012595,-4.7026e-05,-24.442,1.8461
23656,17.916,2.6364,0.1,0.0001342,1341,0.00013376,1328.4,-4.3047e-05,-0.012441,-4.636e-05,-24.907,1.8608
23657,17.824,2.7273,0.1,0.00013634,1362.4,0.0001359,1350.1,-4.3779e-05,-0.012401,-4.7022e-05,-24.379,1.8461
23658,17.916,2.4545,0.1,0.0001342,1341.1,0.00013377,1328.6,-4.3057e-05,-0.011947,-4.6348e-05,-24.74,1.8607
23659,17.824,2.5455,0.1,0.00013634,1362.5,0.00013591,1350.2,-4.3787e-05,-0.012011,-4.7013e-05,-24.254,1.846
23660,17.916,2.2727,0.1,0.00013421,1341.2,0.00013378,1328.8,-4.3072e-05,-0.011248,-4.6333e-05,-24.511,1.8606
23661,17.824,2.3636,0.1,0.00013635,1362.6,0.00013593,1350.4,-4.3799e-05,-0.011419,-4.7001e-05,-24.069,1.8459
23662,17.916,2.0909,0.1,0.00013423,1341.4,0.0001338,1329.1,-4.3091e-05,-0.010336,-4.6314e-05,-24.227,1.8605
23663,17.824,2.1818,0.1,0.00013637,1362.7,0.00013594,1350.6,-4.3816e-05,-0.010623,-4.6986e-05,-23.831,1.8458
23664,17.916,1.9091,0.1,0.00013425,1341.6,0.00013383,1329.5,-4.3114e-05,-0.0092002,-4.6293e-05,-23.893,1.8603
23665,17.824,2,0.1,0.00013638,1362.9,0.00013597,1351,-4.3837e-05,-0.0096108,-4.6969e-05,-23.543,1.8457
23666,17.916,1.7273,0.1,0.00013428,1341.8,0.00013386,1329.9,-4.3142e-05,-0.0078311,-4.6271e-05,-23.518,1.8601
23667,17.824,1.8182,0.1,0.00013641,1363.2,0.000136,1351.4,-4.3861e-05,-0.0083725,-4.695e-05,-23.214,1.8455
23668,17.916,1.5455,0.1,0.00013431,1342.2,0.0001339,1330.5,-4.3173e-05,-0.0062181,-4.6248e-05,-23.111,1.8599
23669,17.824,1.6364,0.1,0.00013644,1363.5,0.00013604,1351.9,-4.389e-05,-0.0069021,-4.693e-05,-22.852,1.8453
23670,17.916,1.3636,0.1,0.00013435,1342.6,0.00013395,1331.1,-4.3208e-05,-0.0043524,-4.6226e-05,-22.683,1.8596
23671,17.824,1.4545,0.1,0.00013648,1363.9,0.00013608,1352.5,-4.3922e-05,-0.0051862,-4.6911e-05,-22.465,1.845
23672,17.916,1.1818,0.1,0.0001344,1343.1,0.00013401,1331.8,-4.3246e-05,-0.0022131,-4.6207e-05,-22.246,1.8593
23673,17.824,1.2727,0.1,0.00013653,1364.4,0.00013614,1353.2,-4.3958e-05,-0.0032237,-4.6894e-05,-22.066,1.8447
23674,17.916,1,0.1,0.00013446,1343.7,0.00013408,1332.7,-4.3288e-05,0.0001549,-4.6191e-05,-21.811,1.859
23675,17.824,1.0909,0.1,0.00013659,1364.9,0.00013621,1354,-4.3997e-05,-0.00097816,-4.688e-05,-21.665,1.8444
23676,17.916,0.81818,0.1,0.00013454,1344.5,0.00013416,1333.6,-4.3334e-05,0.0029519,-4.6182e-05,-21.393,1.8587
23677,17.824,0.90909,0.1,0.00013666,1365.7,0.00013629,1354.9,-4.404e-05,0.0014247,-4.6872e-05,-21.275,1.8441
23678,17.916,0.63636,0.1,0.00013463,1345.4,0.00013426,1334.8,-4.3383e-05,0.0053699,-4.618e-05,-21.01,1.8583
23679,17.824,0.72727,0.1,0.00013675,1366.5,0.00013638,1355.9,-4.4086e-05,0.0044964,-4.687e-05,-20.909,1.8437
23680,17.916,0.45455,0.1,0.00013475,1346.6,0.00013438,1336.1,-4.3435e-05,0.01181,-4.6196e-05,-20.736,1.8579
23681,17.824,0.54545,0.1,0.00013685,1367.5,0.00013649,1357.1,-4.4136e-05,0.0061354,-4.6877e-05,-20.589,1.8433
23682,17.916,0.27273,0.1,0.00013506,1349.6,0.00013467,1338.7,-4.3491e-05,0.0095494,-4.6373e-05,-21.641,1.8575
23683,17.824,0.36364,0.1,0.00013699,1368.9,0.00013663,1358.6,-4.4188e-05,0.01692,-4.6911e-05,-20.443,1.8429
23684,17.824,0.18182,0.1,0.00013748,1373.9,0.00013708,1362.4,-4.4246e-05,-0.00070619,-4.725e-05,-22.572,1.8424
23685,17.916,0.090909,0.1,0.00013423,1341.4,0.00013397,1333.8,-4.3545e-05,0.0055337,-4.5559e-05,-15.127,1.857
23686,17.732,5.7273,0.1,0.00013939,1392.9,0.00013901,1382.2,-4.4942e-05,0.0091661,-4.7767e-05,-21.22,1.8279
23687,17.639,5.8182,0.1,0.00014182,1417.2,0.00014143,1406,-4.5698e-05,-0.00065442,-4.8649e-05,-22.175,1.8129
23688,17.732,5.9091,0.1,0.00013858,1384.9,0.00013832,1377.4,-4.4993e-05,0.0053792,-4.6972e-05,-14.862,1.8274
23689,17.732,5.5455,0.1,0.00013908,1389.8,0.00013872,1379.6,-4.4888e-05,0.011374,-4.7585e-05,-20.254,1.8283
23690,17.639,5.6364,0.1,0.00014133,1412.3,0.00014098,1402.2,-4.5643e-05,0.016255,-4.8307e-05,-20.006,1.8134
23691,17.732,5.3636,0.1,0.00013896,1388.6,0.0001386,1378.3,-4.4839e-05,0.0052354,-4.7561e-05,-20.451,1.8288
23692,17.639,5.4545,0.1,0.00014119,1410.9,0.00014083,1400.7,-4.5593e-05,0.0059629,-4.8266e-05,-20.079,1.8138
23693,17.732,5.1818,0.1,0.00013886,1387.7,0.0001385,1377.2,-4.4792e-05,0.0029287,-4.7555e-05,-20.754,1.8292
23694,17.639,5.2727,0.1,0.00014108,1409.8,0.00014072,1399.6,-4.5546e-05,0.0044093,-4.8251e-05,-20.322,1.8142
23695,17.732,5,0.1,0.00013878,1386.8,0.00013841,1376.2,-4.4749e-05,0.00024392,-4.7556e-05,-21.092,1.8295
23696,17.639,5.0909,0.1,0.00014099,1408.9,0.00014063,1398.5,-4.5502e-05,0.0014659,-4.8245e-05,-20.611,1.8146
23697,17.732,4.8182,0.1,0.00013871,1386.2,0.00013833,1375.3,-4.4708e-05,-0.0020405,-4.7563e-05,-21.449,1.8298
23698,17.639,4.9091,0.1,0.00014091,1408.2,0.00014055,1397.6,-4.5461e-05,-0.00084806,-4.8246e-05,-20.925,1.815
23699,17.732,4.6364,0.1,0.00013865,1385.6,0.00013827,1374.6,-4.4672e-05,-0.0041117,-4.7574e-05,-21.812,1.8301
23700,17.639,4.7273,0.1,0.00014085,1407.5,0.00014047,1396.8,-4.5423e-05,-0.0030183,-4.8251e-05,-21.252,1.8153
23701,17.732,4.4545,0.1,0.00013861,1385.1,0.00013822,1373.9,-4.4639e-05,-0.0059252,-4.7588e-05,-22.17,1.8304
23702,17.639,4.5455,0.1,0.00014079,1407,0.00014041,1396.1,-4.5389e-05,-0.004922,-4.8261e-05,-21.582,1.8156
23703,17.732,4.2727,0.1,0.00013857,1384.7,0.00013817,1373.3,-4.4609e-05,-0.0074986,-4.7604e-05,-22.512,1.8306
23704,17.639,4.3636,0.1,0.00014075,1406.5,0.00014036,1395.4,-4.5359e-05,-0.0065943,-4.8273e-05,-21.903,1.8158
23705,17.732,4.0909,0.1,0.00013854,1384.4,0.00013814,1372.9,-4.4583e-05,-0.0088376,-4.762e-05,-22.829,1.8308
23706,17.639,4.1818,0.1,0.00014071,1406.2,0.00014032,1394.9,-4.5332e-05,-0.0080304,-4.8286e-05,-22.206,1.816
23707,17.732,3.9091,0.1,0.00013852,1384.2,0.00013811,1372.5,-4.4561e-05,-0.009951,-4.7636e-05,-23.112,1.831
23708,17.639,4,0.1,0.00014068,1405.9,0.00014029,1394.5,-4.5308e-05,-0.0092435,-4.8299e-05,-22.482,1.8162
23709,17.732,3.7273,0.1,0.0001385,1384,0.00013808,1372.2,-4.4543e-05,-0.010847,-4.765e-05,-23.354,1.8312
23710,17.639,3.8182,0.1,0.00014066,1405.6,0.00014026,1394.1,-4.5289e-05,-0.010238,-4.8312e-05,-22.725,1.8164
23711,17.732,3.5455,0.1,0.00013848,1383.9,0.00013807,1372,-4.4529e-05,-0.011536,-4.7662e-05,-23.549,1.8313
23712,17.639,3.6364,0.1,0.00014064,1405.5,0.00014024,1393.9,-4.5273e-05,-0.011022,-4.8323e-05,-22.926,1.8165
23713,17.732,3.3636,0.1,0.00013847,1383.8,0.00013806,1371.8,-4.4519e-05,-0.012023,-4.7671e-05,-23.691,1.8313
23714,17.639,3.4545,0.1,0.00014063,1405.3,0.00014022,1393.7,-4.5261e-05,-0.011605,-4.8332e-05,-23.082,1.8166
23715,17.732,3.1818,0.1,0.00013847,1383.7,0.00013805,1371.7,-4.4513e-05,-0.012312,-4.7676e-05,-23.778,1.8314
23716,17.639,3.2727,0.1,0.00014062,1405.3,0.00014022,1393.5,-4.5254e-05,-0.01199,-4.8338e-05,-23.188,1.8167
23717,17.732,3,0.1,0.00013847,1383.7,0.00013805,1371.7,-4.4511e-05,-0.012409,-4.7678e-05,-23.808,1.8314
23718,17.639,3.0909,0.1,0.00014062,1405.2,0.00014021,1393.5,-4.525e-05,-0.01218,-4.8341e-05,-23.242,1.8167
23719,17.732,2.8182,0.1,0.00013847,1383.7,0.00013805,1371.7,-4.4513e-05,-0.012313,-4.7676e-05,-23.778,1.8314
23720,17.639,2.9091,0.1,0.00014062,1405.2,0.00014021,1393.5,-4.525e-05,-0.01218,-4.8341e-05,-23.242,1.8167
23721,17.732,2.6364,0.1,0.00013847,1383.8,0.00013806,1371.8,-4.4519e-05,-0.012023,-4.7671e-05,-23.691,1.8313
23722,17.639,2.7273,0.1,0.00014062,1405.3,0.00014022,1393.5,-4.5254e-05,-0.011989,-4.8338e-05,-23.188,1.8167
23723,17.732,2.4545,0.1,0.00013848,1383.9,0.00013807,1372,-4.4529e-05,-0.011536,-4.7662e-05,-23.549,1.8313
23724,17.639,2.5455,0.1,0.00014063,1405.3,0.00014022,1393.7,-4.5261e-05,-0.011605,-4.8332e-05,-23.082,1.8166
23725,17.732,2.2727,0.1,0.0001385,1384,0.00013808,1372.2,-4.4543e-05,-0.010848,-4.765e-05,-23.354,1.8312
23726,17.639,2.3636,0.1,0.00014064,1405.5,0.00014024,1393.9,-4.5273e-05,-0.011022,-4.8323e-05,-22.926,1.8165
23727,17.732,2.0909,0.1,0.00013852,1384.2,0.00013811,1372.5,-4.4561e-05,-0.0099518,-4.7636e-05,-23.112,1.831
23728,17.639,2.1818,0.1,0.00014066,1405.6,0.00014026,1394.1,-4.5289e-05,-0.010239,-4.8312e-05,-22.725,1.8164
23729,17.732,1.9091,0.1,0.00013854,1384.4,0.00013814,1372.9,-4.4583e-05,-0.0088373,-4.762e-05,-22.829,1.8308
23730,17.639,2,0.1,0.00014068,1405.9,0.00014029,1394.5,-4.5308e-05,-0.0092438,-4.8299e-05,-22.482,1.8162
23731,17.732,1.7273,0.1,0.00013857,1384.7,0.00013817,1373.3,-4.4609e-05,-0.0074979,-4.7604e-05,-22.512,1.8306
23732,17.639,1.8182,0.1,0.00014071,1406.2,0.00014032,1394.9,-4.5332e-05,-0.0080313,-4.8286e-05,-22.206,1.816
23733,17.732,1.5455,0.1,0.00013861,1385.1,0.00013822,1373.9,-4.4639e-05,-0.0059244,-4.7588e-05,-22.17,1.8304
23734,17.639,1.6364,0.1,0.00014075,1406.5,0.00014036,1395.4,-4.5359e-05,-0.0065932,-4.8273e-05,-21.903,1.8158
23735,17.732,1.3636,0.1,0.00013865,1385.6,0.00013827,1374.6,-4.4672e-05,-0.0041108,-4.7574e-05,-21.812,1.8301
23736,17.639,1.4545,0.1,0.00014079,1407,0.00014041,1396.1,-4.5389e-05,-0.0049229,-4.8261e-05,-21.582,1.8156
23737,17.732,1.1818,0.1,0.00013871,1386.2,0.00013833,1375.3,-4.4708e-05,-0.0020403,-4.7563e-05,-21.449,1.8298
23738,17.639,1.2727,0.1,0.00014085,1407.5,0.00014047,1396.8,-4.5423e-05,-0.0030182,-4.8251e-05,-21.252,1.8153
23739,17.732,1,0.1,0.00013878,1386.8,0.00013841,1376.2,-4.4749e-05,0.00024332,-4.7556e-05,-21.092,1.8295
23740,17.639,1.0909,0.1,0.00014091,1408.2,0.00014055,1397.6,-4.5461e-05,-0.00084818,-4.8246e-05,-20.925,1.815
23741,17.732,0.81818,0.1,0.00013886,1387.7,0.0001385,1377.2,-4.4792e-05,0.0029264,-4.7555e-05,-20.754,1.8292
23742,17.639,0.90909,0.1,0.00014099,1408.9,0.00014063,1398.5,-4.5502e-05,0.001465,-4.8245e-05,-20.61,1.8146
23743,17.732,0.63636,0.1,0.00013896,1388.6,0.0001386,1378.3,-4.4839e-05,0.0052346,-4.7561e-05,-20.451,1.8288
23744,17.639,0.72727,0.1,0.00014108,1409.8,0.00014072,1399.6,-4.5546e-05,0.004406,-4.8251e-05,-20.322,1.8142
23745,17.732,0.45455,0.1,0.00013908,1389.8,0.00013872,1379.6,-4.4888e-05,0.011376,-4.7585e-05,-20.254,1.8283
23746,17.639,0.54545,0.1,0.00014119,1410.9,0.00014083,1400.7,-4.5593e-05,0.0059632,-4.8266e-05,-20.078,1.8138
23747,17.732,0.27273,0.1,0.00013939,1392.9,0.00013901,1382.2,-4.4942e-05,0.0091659,-4.7767e-05,-21.22,1.8279
23748,17.639,0.36364,0.1,0.00014133,1412.3,0.00014098,1402.2,-4.5643e-05,0.016256,-4.8307e-05,-20.006,1.8134
23749,17.639,0.18182,0.1,0.00014182,1417.2,0.00014143,1406,-4.5698e-05,-0.00065452,-4.8649e-05,-22.175,1.8129
23750,17.732,0.090909,0.1,0.00013858,1384.9,0.00013832,1377.4,-4.4993e-05,0.0053775,-4.6972e-05,-14.862,1.8274
23751,17.547,5.7273,0.1,0.00014374,1436.4,0.00014337,1425.9,-4.6398e-05,0.0088185,-4.9169e-05,-20.811,1.7984
23752,17.455,5.8182,0.1,0.00014618,1460.8,0.0001458,1449.8,-4.7156e-05,-0.00059624,-5.0056e-05,-21.788,1.7835
23753,17.547,5.9091,0.1,0.00014295,1428.5,0.00014269,1421.1,-4.6447e-05,0.0052385,-4.8392e-05,-14.603,1.7979
23754,17.547,5.5455,0.1,0.00014343,1433.3,0.00014308,1423.3,-4.6347e-05,0.010973,-4.8982e-05,-19.789,1.7989
23755,17.455,5.6364,0.1,0.00014569,1455.9,0.00014535,1446,-4.7103e-05,0.015631,-4.9712e-05,-19.583,1.784
23756,17.547,5.3636,0.1,0.0001433,1432,0.00014295,1422,-4.63e-05,0.005115,-4.8951e-05,-19.913,1.7993
23757,17.455,5.4545,0.1,0.00014554,1454.4,0.0001452,1444.6,-4.7056e-05,0.0058034,-4.9663e-05,-19.586,1.7844
23758,17.547,5.1818,0.1,0.0001432,1431,0.00014285,1420.9,-4.6255e-05,0.0029093,-4.8937e-05,-20.142,1.7997
23759,17.455,5.2727,0.1,0.00014543,1453.3,0.00014509,1443.4,-4.7011e-05,0.0043233,-4.9641e-05,-19.758,1.7848
23760,17.547,5,0.1,0.00014312,1430.2,0.00014276,1419.9,-4.6214e-05,0.00033075,-4.893e-05,-20.407,1.8001
23761,17.455,5.0909,0.1,0.00014534,1452.4,0.00014499,1442.3,-4.6969e-05,0.0015025,-4.9628e-05,-19.975,1.7852
23762,17.547,4.8182,0.1,0.00014304,1429.4,0.00014268,1419,-4.6176e-05,-0.0018729,-4.893e-05,-20.692,1.8004
23763,17.455,4.9091,0.1,0.00014526,1451.6,0.0001449,1441.4,-4.693e-05,-0.00072644,-4.9621e-05,-20.219,1.7856
23764,17.547,4.6364,0.1,0.00014298,1428.8,0.00014261,1418.2,-4.6141e-05,-0.0038781,-4.8934e-05,-20.986,1.8007
23765,17.455,4.7273,0.1,0.00014519,1450.9,0.00014483,1440.5,-4.6894e-05,-0.0028248,-4.9619e-05,-20.478,1.7859
23766,17.547,4.4545,0.1,0.00014293,1428.3,0.00014256,1417.6,-4.6109e-05,-0.005642,-4.8941e-05,-21.279,1.801
23767,17.455,4.5455,0.1,0.00014513,1450.3,0.00014477,1439.8,-4.6862e-05,-0.0046739,-4.9622e-05,-20.742,1.7862
23768,17.547,4.2727,0.1,0.00014289,1427.9,0.00014251,1417,-4.6081e-05,-0.0071778,-4.895e-05,-21.561,1.8012
23769,17.455,4.3636,0.1,0.00014508,1449.8,0.00014471,1439.2,-4.6833e-05,-0.0063033,-4.9627e-05,-21.003,1.7865
23770,17.547,4.0909,0.1,0.00014285,1427.5,0.00014247,1416.5,-4.6057e-05,-0.0084882,-4.896e-05,-21.824,1.8015
23771,17.455,4.1818,0.1,0.00014504,1449.4,0.00014467,1438.7,-4.6807e-05,-0.0077077,-4.9635e-05,-21.251,1.7867
23772,17.547,3.9091,0.1,0.00014283,1427.3,0.00014244,1416.1,-4.6036e-05,-0.0095823,-4.8971e-05,-22.06,1.8016
23773,17.455,4,0.1,0.00014501,1449.1,0.00014463,1438.2,-4.6785e-05,-0.0088966,-4.9643e-05,-21.478,1.7869
23774,17.547,3.7273,0.1,0.0001428,1427,0.00014241,1415.8,-4.6019e-05,-0.010464,-4.8981e-05,-22.262,1.8018
23775,17.455,3.8182,0.1,0.00014498,1448.8,0.0001446,1437.8,-4.6767e-05,-0.0098743,-4.9651e-05,-21.679,1.7871
23776,17.547,3.5455,0.1,0.00014279,1426.9,0.00014239,1415.5,-4.6006e-05,-0.011142,-4.8989e-05,-22.426,1.8019
23777,17.455,3.6364,0.1,0.00014496,1448.6,0.00014458,1437.6,-4.6752e-05,-0.010646,-4.9658e-05,-21.846,1.7872
23778,17.547,3.3636,0.1,0.00014278,1426.8,0.00014238,1415.4,-4.5996e-05,-0.011623,-4.8995e-05,-22.545,1.802
23779,17.455,3.4545,0.1,0.00014495,1448.5,0.00014456,1437.3,-4.6741e-05,-0.011221,-4.9664e-05,-21.976,1.7873
23780,17.547,3.1818,0.1,0.00014277,1426.7,0.00014237,1415.3,-4.599e-05,-0.011909,-4.8999e-05,-22.618,1.802
23781,17.455,3.2727,0.1,0.00014494,1448.4,0.00014455,1437.2,-4.6733e-05,-0.011601,-4.9668e-05,-22.064,1.7874
23782,17.547,3,0.1,0.00014277,1426.7,0.00014237,1415.2,-4.5988e-05,-0.012004,-4.9e-05,-22.643,1.802
23783,17.455,3.0909,0.1,0.00014493,1448.3,0.00014454,1437.1,-4.6729e-05,-0.01179,-4.967e-05,-22.109,1.7874
23784,17.547,2.8182,0.1,0.00014277,1426.7,0.00014237,1415.3,-4.599e-05,-0.011908,-4.8999e-05,-22.618,1.802
23785,17.455,2.9091,0.1,0.00014493,1448.3,0.00014454,1437.1,-4.6729e-05,-0.01179,-4.967e-05,-22.109,1.7874
23786,17.547,2.6364,0.1,0.00014278,1426.8,0.00014238,1415.4,-4.5996e-05,-0.011623,-4.8995e-05,-22.545,1.802
23787,17.455,2.7273,0.1,0.00014494,1448.4,0.00014455,1437.2,-4.6733e-05,-0.011601,-4.9668e-05,-22.064,1.7874
23788,17.547,2.4545,0.1,0.00014279,1426.9,0.00014239,1415.5,-4.6006e-05,-0.011142,-4.8989e-05,-22.426,1.8019
23789,17.455,2.5455,0.1,0.00014495,1448.5,0.00014456,1437.3,-4.6741e-05,-0.011222,-4.9664e-05,-21.976,1.7873
23790,17.547,2.2727,0.1,0.0001428,1427,0.00014241,1415.8,-4.6019e-05,-0.010464,-4.8981e-05,-22.262,1.8018
23791,17.455,2.3636,0.1,0.00014496,1448.6,0.00014458,1437.6,-4.6752e-05,-0.010646,-4.9658e-05,-21.846,1.7872
23792,17.547,2.0909,0.1,0.00014283,1427.3,0.00014244,1416.1,-4.6036e-05,-0.0095829,-4.8971e-05,-22.06,1.8016
23793,17.455,2.1818,0.1,0.00014498,1448.8,0.0001446,1437.8,-4.6767e-05,-0.0098742,-4.9651e-05,-21.679,1.7871
23794,17.547,1.9091,0.1,0.00014285,1427.5,0.00014247,1416.5,-4.6057e-05,-0.0084898,-4.896e-05,-21.824,1.8015
23795,17.455,2,0.1,0.00014501,1449.1,0.00014463,1438.2,-4.6785e-05,-0.008897,-4.9643e-05,-21.478,1.7869
23796,17.547,1.7273,0.1,0.00014289,1427.9,0.00014251,1417,-4.6081e-05,-0.0071782,-4.895e-05,-21.561,1.8012
23797,17.455,1.8182,0.1,0.00014504,1449.4,0.00014467,1438.7,-4.6807e-05,-0.0077085,-4.9635e-05,-21.251,1.7867
23798,17.547,1.5455,0.1,0.00014293,1428.3,0.00014256,1417.6,-4.6109e-05,-0.0056426,-4.8941e-05,-21.279,1.801
23799,17.455,1.6364,0.1,0.00014508,1449.8,0.00014471,1439.2,-4.6833e-05,-0.0063027,-4.9627e-05,-21.003,1.7865
23800,17.547,1.3636,0.1,0.00014298,1428.8,0.00014261,1418.2,-4.6141e-05,-0.0038797,-4.8934e-05,-20.986,1.8007
23801,17.455,1.4545,0.1,0.00014513,1450.3,0.00014477,1439.8,-4.6862e-05,-0.0046748,-4.9622e-05,-20.742,1.7862
23802,17.547,1.1818,0.1,0.00014304,1429.4,0.00014268,1419,-4.6176e-05,-0.0018731,-4.893e-05,-20.692,1.8004
23803,17.455,1.2727,0.1,0.00014519,1450.9,0.00014483,1440.5,-4.6894e-05,-0.0028247,-4.9619e-05,-20.478,1.7859
23804,17.547,1,0.1,0.00014312,1430.2,0.00014276,1419.9,-4.6214e-05,0.00033031,-4.893e-05,-20.407,1.8001
23805,17.455,1.0909,0.1,0.00014526,1451.6,0.0001449,1441.4,-4.693e-05,-0.00072728,-4.9621e-05,-20.219,1.7856
23806,17.547,0.81818,0.1,0.0001432,1431,0.00014285,1420.9,-4.6255e-05,0.0029074,-4.8937e-05,-20.142,1.7997
23807,17.455,0.90909,0.1,0.00014534,1452.4,0.00014499,1442.3,-4.6969e-05,0.0015003,-4.9628e-05,-19.975,1.7852
23808,17.547,0.63636,0.1,0.0001433,1432,0.00014295,1422,-4.63e-05,0.005113,-4.8951e-05,-19.913,1.7993
23809,17.455,0.72727,0.1,0.00014543,1453.3,0.00014509,1443.4,-4.7011e-05,0.0043218,-4.9641e-05,-19.758,1.7848
23810,17.547,0.45455,0.1,0.00014343,1433.3,0.00014308,1423.3,-4.6347e-05,0.010973,-4.8982e-05,-19.789,1.7989
23811,17.455,0.54545,0.1,0.00014554,1454.4,0.0001452,1444.6,-4.7056e-05,0.0058023,-4.9663e-05,-19.586,1.7844
23812,17.547,0.27273,0.1,0.00014374,1436.4,0.00014337,1425.9,-4.6398e-05,0.0088197,-4.9169e-05,-20.811,1.7984
23813,17.455,0.36364,0.1,0.00014569,1455.9,0.00014535,1446,-4.7103e-05,0.015633,-4.9712e-05,-19.583,1.784
23814,17.455,0.18182,0.1,0.00014618,1460.8,0.0001458,1449.8,-4.7156e-05,-0.00059545,-5.0056e-05,-21.788,1.7835
23815,17.547,0.090909,0.1,0.00014295,1428.5,0.00014269,1421.1,-4.6447e-05,0.0052394,-4.8392e-05,-14.603,1.7979
23816,17.363,5.7273,0.1,0.00014811,1480.1,0.00014775,1469.8,-4.7861e-05,0.0084909,-5.0579e-05,-20.412,1.769
23817,17.271,5.8182,0.1,0.00015056,1504.6,0.00015018,1493.7,-4.8621e-05,-0.00054159,-5.147e-05,-21.409,1.7541
23818,17.363,5.9091,0.1,0.00014734,1472.3,0.00014709,1465.1,-4.7908e-05,0.0050994,-4.9818e-05,-14.35,1.7685
23819,17.363,5.5455,0.1,0.0001478,1477,0.00014746,1467.2,-4.7812e-05,0.01059,-5.0387e-05,-19.34,1.7695
23820,17.271,5.6364,0.1,0.00015007,1499.7,0.00014974,1490,-4.857e-05,0.015032,-5.1124e-05,-19.172,1.7546
23821,17.363,5.3636,0.1,0.00014767,1475.7,0.00014733,1465.9,-4.7767e-05,0.0049951,-5.0349e-05,-19.396,1.77
23822,17.271,5.4545,0.1,0.00014992,1498.2,0.00014959,1488.6,-4.8525e-05,0.0056416,-5.1069e-05,-19.111,1.7551
23823,17.363,5.1818,0.1,0.00014757,1474.6,0.00014722,1464.8,-4.7724e-05,0.0028845,-5.0327e-05,-19.556,1.7704
23824,17.271,5.2727,0.1,0.00014981,1497.1,0.00014947,1487.4,-4.8482e-05,0.0042303,-5.104e-05,-19.216,1.7555
23825,17.363,5,0.1,0.00014747,1473.7,0.00014713,1463.8,-4.7685e-05,0.00040692,-5.0314e-05,-19.752,1.7708
23826,17.271,5.0909,0.1,0.00014971,1496.1,0.00014937,1486.3,-4.8442e-05,0.0015242,-5.1019e-05,-19.366,1.7559
23827,17.363,4.8182,0.1,0.0001474,1473,0.00014705,1462.9,-4.7649e-05,-0.0017211,-5.0306e-05,-19.969,1.7711
23828,17.271,4.9091,0.1,0.00014962,1495.2,0.00014928,1485.3,-4.8405e-05,-0.000624,-5.1006e-05,-19.543,1.7563
23829,17.363,4.6364,0.1,0.00014733,1472.3,0.00014698,1462.1,-4.7615e-05,-0.0036664,-5.0303e-05,-20.199,1.7714
23830,17.271,4.7273,0.1,0.00014955,1494.5,0.0001492,1484.5,-4.8371e-05,-0.0026547,-5.0997e-05,-19.739,1.7567
23831,17.363,4.4545,0.1,0.00014727,1471.7,0.00014692,1461.4,-4.7585e-05,-0.005383,-5.0304e-05,-20.431,1.7717
23832,17.271,4.5455,0.1,0.00014949,1493.8,0.00014914,1483.8,-4.834e-05,-0.0044518,-5.0994e-05,-19.943,1.757
23833,17.363,4.2727,0.1,0.00014723,1471.3,0.00014687,1460.8,-4.7559e-05,-0.0068823,-5.0307e-05,-20.658,1.772
23834,17.271,4.3636,0.1,0.00014943,1493.3,0.00014908,1483.1,-4.8312e-05,-0.0060395,-5.0993e-05,-20.147,1.7572
23835,17.363,4.0909,0.1,0.00014719,1470.9,0.00014682,1460.3,-4.7536e-05,-0.0081659,-5.0312e-05,-20.871,1.7722
23836,17.271,4.1818,0.1,0.00014939,1492.9,0.00014903,1482.6,-4.8288e-05,-0.0074143,-5.0995e-05,-20.343,1.7575
23837,17.363,3.9091,0.1,0.00014716,1470.6,0.00014679,1459.9,-4.7516e-05,-0.0092389,-5.0318e-05,-21.063,1.7724
23838,17.271,4,0.1,0.00014935,1492.5,0.00014899,1482.1,-4.8267e-05,-0.0085802,-5.0998e-05,-20.525,1.7577
23839,17.363,3.7273,0.1,0.00014713,1470.3,0.00014676,1459.6,-4.75e-05,-0.010107,-5.0324e-05,-21.229,1.7725
23840,17.271,3.8182,0.1,0.00014932,1492.2,0.00014896,1481.8,-4.8249e-05,-0.009541,-5.1001e-05,-20.687,1.7578
23841,17.363,3.5455,0.1,0.00014712,1470.1,0.00014674,1459.3,-4.7487e-05,-0.010776,-5.0329e-05,-21.363,1.7726
23842,17.271,3.6364,0.1,0.0001493,1492,0.00014894,1481.5,-4.8235e-05,-0.010303,-5.1005e-05,-20.822,1.758
23843,17.363,3.3636,0.1,0.0001471,1470,0.00014673,1459.2,-4.7478e-05,-0.01125,-5.0333e-05,-21.461,1.7727
23844,17.271,3.4545,0.1,0.00014929,1491.8,0.00014892,1481.2,-4.8225e-05,-0.01087,-5.1009e-05,-20.927,1.7581
23845,17.363,3.1818,0.1,0.00014709,1469.9,0.00014672,1459,-4.7472e-05,-0.011532,-5.0335e-05,-21.522,1.7728
23846,17.271,3.2727,0.1,0.00014927,1491.7,0.00014891,1481.1,-4.8218e-05,-0.011245,-5.1011e-05,-20.999,1.7581
23847,17.363,3,0.1,0.00014709,1469.9,0.00014671,1459,-4.7471e-05,-0.011627,-5.0336e-05,-21.542,1.7728
23848,17.271,3.0909,0.1,0.00014927,1491.7,0.0001489,1481,-4.8214e-05,-0.011432,-5.1012e-05,-21.036,1.7582
23849,17.363,2.8182,0.1,0.00014709,1469.9,0.00014672,1459,-4.7472e-05,-0.011533,-5.0335e-05,-21.522,1.7728
23850,17.271,2.9091,0.1,0.00014927,1491.7,0.0001489,1481,-4.8214e-05,-0.011432,-5.1012e-05,-21.036,1.7582
23851,17.363,2.6364,0.1,0.0001471,1470,0.00014673,1459.2,-4.7478e-05,-0.01125,-5.0333e-05,-21.461,1.7727
23852,17.271,2.7273,0.1,0.00014927,1491.7,0.00014891,1481.1,-4.8218e-05,-0.011245,-5.1011e-05,-20.999,1.7581
23853,17.363,2.4545,0.1,0.00014712,1470.1,0.00014674,1459.3,-4.7487e-05,-0.010776,-5.0329e-05,-21.363,1.7726
23854,17.271,2.5455,0.1,0.00014929,1491.8,0.00014892,1481.2,-4.8225e-05,-0.01087,-5.1009e-05,-20.927,1.7581
23855,17.363,2.2727,0.1,0.00014713,1470.3,0.00014676,1459.6,-4.75e-05,-0.010107,-5.0324e-05,-21.228,1.7725
23856,17.271,2.3636,0.1,0.0001493,1492,0.00014894,1481.5,-4.8235e-05,-0.010302,-5.1005e-05,-20.822,1.758
23857,17.363,2.0909,0.1,0.00014716,1470.6,0.00014679,1459.9,-4.7516e-05,-0.0092386,-5.0318e-05,-21.063,1.7724
23858,17.271,2.1818,0.1,0.00014932,1492.2,0.00014896,1481.8,-4.8249e-05,-0.009541,-5.1001e-05,-20.686,1.7578
23859,17.363,1.9091,0.1,0.00014719,1470.9,0.00014682,1460.3,-4.7536e-05,-0.0081656,-5.0312e-05,-20.871,1.7722
23860,17.271,2,0.1,0.00014935,1492.5,0.00014899,1482.1,-4.8267e-05,-0.0085803,-5.0998e-05,-20.525,1.7577
23861,17.363,1.7273,0.1,0.00014723,1471.3,0.00014687,1460.8,-4.7559e-05,-0.006882,-5.0307e-05,-20.658,1.772
23862,17.271,1.8182,0.1,0.00014939,1492.9,0.00014903,1482.6,-4.8288e-05,-0.0074142,-5.0995e-05,-20.343,1.7575
23863,17.363,1.5455,0.1,0.00014727,1471.7,0.00014692,1461.4,-4.7585e-05,-0.0053827,-5.0304e-05,-20.431,1.7717
23864,17.271,1.6364,0.1,0.00014943,1493.3,0.00014908,1483.1,-4.8312e-05,-0.0060392,-5.0993e-05,-20.147,1.7572
23865,17.363,1.3636,0.1,0.00014733,1472.3,0.00014698,1462.1,-4.7615e-05,-0.0036655,-5.0303e-05,-20.199,1.7714
23866,17.271,1.4545,0.1,0.00014949,1493.8,0.00014914,1483.8,-4.834e-05,-0.0044521,-5.0994e-05,-19.942,1.757
23867,17.363,1.1818,0.1,0.0001474,1473,0.00014705,1462.9,-4.7649e-05,-0.0017216,-5.0306e-05,-19.969,1.7711
23868,17.271,1.2727,0.1,0.00014955,1494.5,0.0001492,1484.5,-4.8371e-05,-0.0026542,-5.0997e-05,-19.739,1.7567
23869,17.363,1,0.1,0.00014747,1473.7,0.00014713,1463.8,-4.7685e-05,0.00040427,-5.0314e-05,-19.751,1.7708
23870,17.271,1.0909,0.1,0.00014962,1495.2,0.00014928,1485.3,-4.8405e-05,-0.00062555,-5.1006e-05,-19.543,1.7563
23871,17.363,0.81818,0.1,0.00014757,1474.6,0.00014722,1464.8,-4.7724e-05,0.0028826,-5.0327e-05,-19.556,1.7704
23872,17.271,0.90909,0.1,0.00014971,1496.1,0.00014937,1486.3,-4.8442e-05,0.0015219,-5.1019e-05,-19.366,1.7559
23873,17.363,0.63636,0.1,0.00014767,1475.7,0.00014733,1465.9,-4.7767e-05,0.0049945,-5.0349e-05,-19.396,1.77
23874,17.271,0.72727,0.1,0.00014981,1497.1,0.00014947,1487.4,-4.8482e-05,0.0042292,-5.104e-05,-19.216,1.7555
23875,17.363,0.45455,0.1,0.0001478,1477,0.00014746,1467.2,-4.7812e-05,0.01059,-5.0387e-05,-19.34,1.7695
23876,17.271,0.54545,0.1,0.00014992,1498.2,0.00014959,1488.6,-4.8525e-05,0.0056407,-5.1069e-05,-19.111,1.7551
23877,17.363,0.27273,0.1,0.00014811,1480.1,0.00014775,1469.8,-4.7861e-05,0.0084918,-5.0579e-05,-20.412,1.769
23878,17.271,0.36364,0.1,0.00015007,1499.7,0.00014974,1490,-4.857e-05,0.015034,-5.1124e-05,-19.172,1.7546
23879,17.271,0.18182,0.1,0.00015056,1504.6,0.00015018,1493.7,-4.8621e-05,-0.00054139,-5.147e-05,-21.409,1.7541
23880,17.363,0.090909,0.1,0.00014734,1472.3,0.00014709,1465.1,-4.7908e-05,0.0051,-4.9818e-05,-14.35,1.7685
23881,17.178,5.7273,0.1,0.0001525,1524,0.00015215,1513.8,-4.9329e-05,0.0081706,-5.1995e-05,-20.023,1.7398
23882,17.086,5.8182,0.1,0.00015496,1548.5,0.00015459,1537.9,-5.0091e-05,-0.00048285,-5.2891e-05,-21.038,1.7249
23883,17.178,5.9091,0.1,0.00015174,1516.4,0.0001515,1509.3,-4.9374e-05,0.004951,-5.1252e-05,-14.103,1.7393
23884,17.178,5.5455,0.1,0.00015219,1520.9,0.00015186,1511.3,-4.9283e-05,0.01021,-5.18e-05,-18.904,1.7403
23885,17.086,5.6364,0.1,0.00015447,1543.7,0.00015415,1534.2,-5.0043e-05,0.014464,-5.2543e-05,-18.772,1.7254
23886,17.178,5.3636,0.1,0.00015206,1519.5,0.00015173,1510,-4.9239e-05,0.0048647,-5.1755e-05,-18.896,1.7407
23887,17.086,5.4545,0.1,0.00015432,1542.2,0.000154,1532.8,-4.9999e-05,0.0054868,-5.2482e-05,-18.651,1.7259
23888,17.178,5.1818,0.1,0.00015195,1518.4,0.00015162,1508.9,-4.9199e-05,0.0028427,-5.1727e-05,-18.992,1.7411
23889,17.086,5.2727,0.1,0.0001542,1541,0.00015388,1531.5,-4.9958e-05,0.0041397,-5.2447e-05,-18.693,1.7264
23890,17.178,5,0.1,0.00015185,1517.5,0.00015152,1507.8,-4.9161e-05,0.00045931,-5.1707e-05,-19.123,1.7415
23891,17.086,5.0909,0.1,0.0001541,1539.9,0.00015377,1530.5,-4.992e-05,0.0015423,-5.242e-05,-18.78,1.7268
23892,17.178,4.8182,0.1,0.00015177,1516.7,0.00015143,1506.9,-4.9127e-05,-0.0015964,-5.1692e-05,-19.278,1.7419
23893,17.086,4.9091,0.1,0.00015401,1539,0.00015368,1529.5,-4.9885e-05,-0.00052989,-5.24e-05,-18.896,1.7271
23894,17.178,4.6364,0.1,0.0001517,1516,0.00015136,1506.1,-4.9095e-05,-0.0034824,-5.1683e-05,-19.448,1.7422
23895,17.086,4.7273,0.1,0.00015393,1538.3,0.0001536,1528.7,-4.9853e-05,-0.0024952,-5.2385e-05,-19.031,1.7275
23896,17.178,4.4545,0.1,0.00015164,1515.4,0.0001513,1505.5,-4.9067e-05,-0.0051532,-5.1678e-05,-19.624,1.7425
23897,17.086,4.5455,0.1,0.00015387,1537.6,0.00015353,1527.9,-4.9823e-05,-0.0042419,-5.2375e-05,-19.178,1.7278
23898,17.178,4.2727,0.1,0.00015159,1514.9,0.00015124,1504.9,-4.9041e-05,-0.0066182,-5.1676e-05,-19.798,1.7428
23899,17.086,4.3636,0.1,0.00015381,1537,0.00015347,1527.3,-4.9797e-05,-0.0057906,-5.2369e-05,-19.329,1.7281
23900,17.178,4.0909,0.1,0.00015155,1514.4,0.0001512,1504.4,-4.9019e-05,-0.0078764,-5.1675e-05,-19.964,1.743
23901,17.086,4.1818,0.1,0.00015376,1536.6,0.00015342,1526.7,-4.9774e-05,-0.007136,-5.2365e-05,-19.478,1.7283
23902,17.178,3.9091,0.1,0.00015151,1514.1,0.00015116,1503.9,-4.9001e-05,-0.0089309,-5.1677e-05,-20.115,1.7432
23903,17.086,4,0.1,0.00015372,1536.2,0.00015338,1526.2,-4.9754e-05,-0.008281,-5.2364e-05,-19.617,1.7285
23904,17.178,3.7273,0.1,0.00015149,1513.8,0.00015113,1503.6,-4.8985e-05,-0.0097862,-5.1679e-05,-20.246,1.7433
23905,17.086,3.8182,0.1,0.00015369,1535.8,0.00015334,1525.9,-4.9737e-05,-0.0092263,-5.2364e-05,-19.742,1.7287
23906,17.178,3.5455,0.1,0.00015147,1513.6,0.00015111,1503.3,-4.8973e-05,-0.010446,-5.1681e-05,-20.353,1.7434
23907,17.086,3.6364,0.1,0.00015366,1535.6,0.00015332,1525.6,-4.9724e-05,-0.0099788,-5.2364e-05,-19.847,1.7288
23908,17.178,3.3636,0.1,0.00015145,1513.5,0.00015109,1503.1,-4.8965e-05,-0.010914,-5.1682e-05,-20.432,1.7435
23909,17.086,3.4545,0.1,0.00015365,1535.4,0.0001533,1525.3,-4.9714e-05,-0.010538,-5.2365e-05,-19.93,1.7289
23910,17.178,3.1818,0.1,0.00015144,1513.4,0.00015108,1503,-4.8959e-05,-0.011194,-5.1684e-05,-20.481,1.7436
23911,17.086,3.2727,0.1,0.00015363,1535.3,0.00015328,1525.2,-4.9707e-05,-0.010909,-5.2366e-05,-19.987,1.729
23912,17.178,3,0.1,0.00015144,1513.4,0.00015108,1503,-4.8958e-05,-0.011287,-5.1684e-05,-20.497,1.7436
23913,17.086,3.0909,0.1,0.00015363,1535.2,0.00015328,1525.1,-4.9704e-05,-0.011094,-5.2366e-05,-20.015,1.729
23914,17.178,2.8182,0.1,0.00015144,1513.4,0.00015108,1503,-4.8959e-05,-0.011194,-5.1684e-05,-20.481,1.7436
23915,17.086,2.9091,0.1,0.00015363,1535.2,0.00015328,1525.1,-4.9704e-05,-0.011094,-5.2366e-05,-20.015,1.729
23916,17.178,2.6364,0.1,0.00015145,1513.5,0.00015109,1503.1,-4.8965e-05,-0.010914,-5.1682e-05,-20.432,1.7435
23917,17.086,2.7273,0.1,0.00015363,1535.3,0.00015328,1525.2,-4.9707e-05,-0.010908,-5.2366e-05,-19.987,1.729
23918,17.178,2.4545,0.1,0.00015147,1513.6,0.00015111,1503.3,-4.8973e-05,-0.010446,-5.1681e-05,-20.353,1.7434
23919,17.086,2.5455,0.1,0.00015365,1535.4,0.0001533,1525.3,-4.9714e-05,-0.010537,-5.2365e-05,-19.93,1.7289
23920,17.178,2.2727,0.1,0.00015149,1513.8,0.00015113,1503.6,-4.8985e-05,-0.009786,-5.1679e-05,-20.246,1.7433
23921,17.086,2.3636,0.1,0.00015366,1535.6,0.00015332,1525.6,-4.9724e-05,-0.0099775,-5.2364e-05,-19.847,1.7288
23922,17.178,2.0909,0.1,0.00015151,1514.1,0.00015116,1503.9,-4.9001e-05,-0.0089314,-5.1677e-05,-20.115,1.7432
23923,17.086,2.1818,0.1,0.00015369,1535.8,0.00015334,1525.9,-4.9737e-05,-0.0092264,-5.2364e-05,-19.742,1.7287
23924,17.178,1.9091,0.1,0.00015155,1514.4,0.0001512,1504.4,-4.9019e-05,-0.0078768,-5.1675e-05,-19.964,1.743
23925,17.086,2,0.1,0.00015372,1536.2,0.00015338,1526.2,-4.9754e-05,-0.0082813,-5.2364e-05,-19.617,1.7285
23926,17.178,1.7273,0.1,0.00015159,1514.9,0.00015124,1504.9,-4.9041e-05,-0.006618,-5.1676e-05,-19.798,1.7428
23927,17.086,1.8182,0.1,0.00015376,1536.6,0.00015342,1526.7,-4.9774e-05,-0.0071371,-5.2365e-05,-19.478,1.7283
23928,17.178,1.5455,0.1,0.00015164,1515.4,0.0001513,1505.5,-4.9067e-05,-0.0051534,-5.1678e-05,-19.623,1.7425
23929,17.086,1.6364,0.1,0.00015381,1537,0.00015347,1527.3,-4.9797e-05,-0.0057902,-5.2369e-05,-19.329,1.7281
23930,17.178,1.3636,0.1,0.0001517,1516,0.00015136,1506.1,-4.9095e-05,-0.0034831,-5.1683e-05,-19.448,1.7422
23931,17.086,1.4545,0.1,0.00015387,1537.6,0.00015353,1527.9,-4.9823e-05,-0.004242,-5.2375e-05,-19.178,1.7278
23932,17.178,1.1818,0.1,0.00015177,1516.7,0.00015143,1506.9,-4.9127e-05,-0.0015969,-5.1692e-05,-19.278,1.7419
23933,17.086,1.2727,0.1,0.00015393,1538.3,0.0001536,1528.7,-4.9853e-05,-0.0024954,-5.2385e-05,-19.031,1.7275
23934,17.178,1,0.1,0.00015185,1517.5,0.00015152,1507.8,-4.9161e-05,0.00045804,-5.1707e-05,-19.123,1.7415
23935,17.086,1.0909,0.1,0.00015401,1539.1,0.00015368,1529.5,-4.9885e-05,-0.00053053,-5.24e-05,-18.895,1.7271
23936,17.178,0.81818,0.1,0.00015195,1518.4,0.00015162,1508.9,-4.9199e-05,0.0028412,-5.1727e-05,-18.991,1.7411
23937,17.086,0.90909,0.1,0.0001541,1539.9,0.00015377,1530.5,-4.992e-05,0.0015408,-5.242e-05,-18.78,1.7268
23938,17.178,0.63636,0.1,0.00015206,1519.5,0.00015173,1510,-4.924e-05,0.0048633,-5.1755e-05,-18.896,1.7407
23939,17.086,0.72727,0.1,0.0001542,1541,0.00015388,1531.5,-4.9958e-05,0.0041392,-5.2447e-05,-18.693,1.7264
23940,17.178,0.45455,0.1,0.00015219,1520.9,0.00015186,1511.3,-4.9283e-05,0.010211,-5.18e-05,-18.904,1.7403
23941,17.086,0.54545,0.1,0.00015432,1542.2,0.000154,1532.8,-4.9999e-05,0.0054856,-5.2482e-05,-18.651,1.7259
23942,17.178,0.27273,0.1,0.0001525,1524,0.00015215,1513.8,-4.9329e-05,0.0081718,-5.1995e-05,-20.023,1.7398
23943,17.086,0.36364,0.1,0.00015447,1543.7,0.00015415,1534.2,-5.0043e-05,0.014464,-5.2543e-05,-18.772,1.7254
23944,17.086,0.18182,0.1,0.00015496,1548.5,0.00015459,1537.9,-5.0091e-05,-0.00048195,-5.2891e-05,-21.038,1.7249
23945,17.178,0.090909,0.1,0.00015174,1516.4,0.0001515,1509.3,-4.9374e-05,0.0049502,-5.1252e-05,-14.103,1.7393
23946,16.994,5.7273,0.1,0.00015691,1568,0.00015657,1558.1,-5.0804e-05,0.0078849,-5.3419e-05,-19.644,1.7106
23947,16.902,5.8182,0.1,0.00015938,1592.7,0.00015902,1582.2,-5.1568e-05,-0.00041108,-5.4319e-05,-20.674,1.6958
23948,16.994,5.9091,0.1,0.00015617,1560.6,0.00015593,1553.6,-5.0847e-05,0.0048213,-5.2692e-05,-13.861,1.7101
23949,16.994,5.5455,0.1,0.0001566,1564.9,0.00015628,1555.6,-5.0759e-05,0.0098655,-5.322e-05,-18.481,1.7111
23950,16.902,5.6364,0.1,0.0001589,1587.9,0.00015858,1578.6,-5.1521e-05,0.013933,-5.397e-05,-18.383,1.6963
23951,16.994,5.3636,0.1,0.00015646,1563.6,0.00015614,1554.3,-5.0718e-05,0.0047538,-5.3169e-05,-18.413,1.7116
23952,16.902,5.4545,0.1,0.00015874,1586.3,0.00015842,1577.1,-5.148e-05,0.0053483,-5.3903e-05,-18.205,1.6968
23953,16.994,5.1818,0.1,0.00015635,1562.4,0.00015603,1553.1,-5.0679e-05,0.0028165,-5.3135e-05,-18.447,1.712
23954,16.902,5.2727,0.1,0.00015862,1585.1,0.0001583,1575.9,-5.1441e-05,0.0040614,-5.3862e-05,-18.187,1.6973
23955,16.994,5,0.1,0.00015625,1561.5,0.00015593,1552.1,-5.0644e-05,0.00052325,-5.3108e-05,-18.518,1.7124
23956,16.902,5.0909,0.1,0.00015851,1584,0.0001582,1574.9,-5.1404e-05,0.0015676,-5.3829e-05,-18.215,1.6977
23957,16.994,4.8182,0.1,0.00015617,1560.6,0.00015584,1551.2,-5.0611e-05,-0.0014638,-5.3088e-05,-18.614,1.7128
23958,16.902,4.9091,0.1,0.00015842,1583.1,0.0001581,1573.9,-5.1371e-05,-0.00043184,-5.3803e-05,-18.272,1.6981
23959,16.994,4.6364,0.1,0.00015609,1559.9,0.00015577,1550.4,-5.0581e-05,-0.0032937,-5.3073e-05,-18.728,1.7131
23960,16.902,4.7273,0.1,0.00015834,1582.3,0.00015802,1573,-5.134e-05,-0.0023349,-5.3782e-05,-18.351,1.6984
23961,16.994,4.4545,0.1,0.00015603,1559.2,0.0001557,1549.7,-5.0554e-05,-0.0049214,-5.3062e-05,-18.85,1.7134
23962,16.902,4.5455,0.1,0.00015827,1581.6,0.00015795,1572.3,-5.1312e-05,-0.0040345,-5.3766e-05,-18.445,1.6987
23963,16.994,4.2727,0.1,0.00015598,1558.7,0.00015564,1549.1,-5.0529e-05,-0.0063528,-5.3054e-05,-18.976,1.7137
23964,16.902,4.3636,0.1,0.00015821,1581,0.00015788,1571.6,-5.1287e-05,-0.0055454,-5.3755e-05,-18.546,1.699
23965,16.994,4.0909,0.1,0.00015593,1558.2,0.0001556,1548.6,-5.0509e-05,-0.0075865,-5.3049e-05,-19.098,1.7139
23966,16.902,4.1818,0.1,0.00015816,1580.5,0.00015783,1571,-5.1265e-05,-0.0068636,-5.3746e-05,-18.649,1.6993
23967,16.994,3.9091,0.1,0.00015589,1557.8,0.00015556,1548.2,-5.0491e-05,-0.0086236,-5.3046e-05,-19.211,1.7141
23968,16.902,4,0.1,0.00015811,1580,0.00015779,1570.6,-5.1246e-05,-0.0079877,-5.3741e-05,-18.748,1.6995
23969,16.994,3.7273,0.1,0.00015586,1557.6,0.00015553,1547.8,-5.0476e-05,-0.0094669,-5.3045e-05,-19.31,1.7142
23970,16.902,3.8182,0.1,0.00015808,1579.7,0.00015775,1570.2,-5.1231e-05,-0.0089191,-5.3737e-05,-18.839,1.6997
23971,16.994,3.5455,0.1,0.00015584,1557.3,0.0001555,1547.5,-5.0465e-05,-0.010119,-5.3044e-05,-19.391,1.7144
23972,16.902,3.6364,0.1,0.00015805,1579.4,0.00015772,1569.9,-5.1218e-05,-0.0096609,-5.3734e-05,-18.916,1.6998
23973,16.994,3.3636,0.1,0.00015582,1557.2,0.00015548,1547.3,-5.0456e-05,-0.010582,-5.3044e-05,-19.451,1.7145
23974,16.902,3.4545,0.1,0.00015803,1579.2,0.0001577,1569.6,-5.1208e-05,-0.010214,-5.3733e-05,-18.977,1.6999
23975,16.994,3.1818,0.1,0.00015582,1557.1,0.00015547,1547.2,-5.0452e-05,-0.010859,-5.3044e-05,-19.489,1.7145
23976,16.902,3.2727,0.1,0.00015802,1579.1,0.00015769,1569.5,-5.1202e-05,-0.010582,-5.3732e-05,-19.02,1.7
23977,16.994,3,0.1,0.00015581,1557,0.00015547,1547.2,-5.045e-05,-0.01095,-5.3044e-05,-19.501,1.7145
23978,16.902,3.0909,0.1,0.00015801,1579,0.00015768,1569.4,-5.1199e-05,-0.010765,-5.3732e-05,-19.041,1.7
23979,16.994,2.8182,0.1,0.00015582,1557.1,0.00015547,1547.2,-5.0452e-05,-0.010858,-5.3044e-05,-19.489,1.7145
23980,16.902,2.9091,0.1,0.00015801,1579,0.00015768,1569.4,-5.1199e-05,-0.010765,-5.3732e-05,-19.041,1.7
23981,16.994,2.6364,0.1,0.00015582,1557.2,0.00015548,1547.3,-5.0456e-05,-0.010581,-5.3044e-05,-19.451,1.7145
23982,16.902,2.7273,0.1,0.00015802,1579.1,0.00015769,1569.5,-5.1202e-05,-0.010581,-5.3732e-05,-19.02,1.7
23983,16.994,2.4545,0.1,0.00015584,1557.3,0.0001555,1547.5,-5.0465e-05,-0.010118,-5.3044e-05,-19.391,1.7144
23984,16.902,2.5455,0.1,0.00015803,1579.2,0.0001577,1569.6,-5.1208e-05,-0.010214,-5.3733e-05,-18.977,1.6999
23985,16.994,2.2727,0.1,0.00015586,1557.6,0.00015553,1547.8,-5.0476e-05,-0.0094659,-5.3045e-05,-19.31,1.7142
23986,16.902,2.3636,0.1,0.00015805,1579.4,0.00015772,1569.9,-5.1218e-05,-0.0096604,-5.3734e-05,-18.916,1.6998
23987,16.994,2.0909,0.1,0.00015589,1557.8,0.00015556,1548.2,-5.0491e-05,-0.0086234,-5.3046e-05,-19.211,1.7141
23988,16.902,2.1818,0.1,0.00015808,1579.7,0.00015775,1570.2,-5.1231e-05,-0.0089192,-5.3737e-05,-18.839,1.6997
23989,16.994,1.9091,0.1,0.00015593,1558.2,0.0001556,1548.6,-5.0509e-05,-0.0075875,-5.3049e-05,-19.098,1.7139
23990,16.902,2,0.1,0.00015811,1580,0.00015779,1570.6,-5.1246e-05,-0.0079878,-5.3741e-05,-18.748,1.6995
23991,16.994,1.7273,0.1,0.00015598,1558.7,0.00015564,1549.1,-5.0529e-05,-0.0063535,-5.3054e-05,-18.976,1.7137
23992,16.902,1.8182,0.1,0.00015816,1580.5,0.00015783,1571,-5.1265e-05,-0.006864,-5.3746e-05,-18.649,1.6993
23993,16.994,1.5455,0.1,0.00015603,1559.2,0.0001557,1549.7,-5.0554e-05,-0.0049207,-5.3062e-05,-18.85,1.7134
23994,16.902,1.6364,0.1,0.00015821,1581,0.00015788,1571.6,-5.1287e-05,-0.0055459,-5.3755e-05,-18.546,1.699
23995,16.994,1.3636,0.1,0.00015609,1559.9,0.00015577,1550.4,-5.0581e-05,-0.0032933,-5.3073e-05,-18.727,1.7131
23996,16.902,1.4545,0.1,0.00015827,1581.6,0.00015795,1572.3,-5.1312e-05,-0.004034,-5.3766e-05,-18.444,1.6987
23997,16.994,1.1818,0.1,0.00015617,1560.6,0.00015584,1551.2,-5.0611e-05,-0.0014641,-5.3088e-05,-18.614,1.7128
23998,16.902,1.2727,0.1,0.00015834,1582.3,0.00015802,1573,-5.134e-05,-0.0023356,-5.3782e-05,-18.351,1.6984
23999,16.994,1,0.1,0.00015625,1561.5,0.00015593,1552.1,-5.0644e-05,0.0005224,-5.3108e-05,-18.518,1.7124
24000,16.902,1.0909,0.1,0.00015842,1583.1,0.0001581,1573.9,-5.1371e-05,-0.00043252,-5.3803e-05,-18.272,1.6981
24001,16.994,0.81818,0.1,0.00015635,1562.4,0.00015603,1553.1,-5.0679e-05,0.0028159,-5.3135e-05,-18.447,1.712
24002,16.902,0.90909,0.1,0.00015851,1584,0.0001582,1574.9,-5.1404e-05,0.0015667,-5.3829e-05,-18.215,1.6977
24003,16.994,0.63636,0.1,0.00015646,1563.6,0.00015614,1554.3,-5.0718e-05,0.0047535,-5.3169e-05,-18.413,1.7116
24004,16.902,0.72727,0.1,0.00015862,1585.1,0.0001583,1575.9,-5.1441e-05,0.0040607,-5.3862e-05,-18.187,1.6973
24005,16.994,0.45455,0.1,0.0001566,1564.9,0.00015628,1555.6,-5.0759e-05,0.0098646,-5.322e-05,-18.481,1.7111
24006,16.902,0.54545,0.1,0.00015874,1586.3,0.00015842,1577.1,-5.148e-05,0.0053486,-5.3903e-05,-18.205,1.6968
24007,16.994,0.27273,0.1,0.00015691,1568,0.00015657,1558.1,-5.0804e-05,0.0078852,-5.3419e-05,-19.644,1.7106
24008,16.902,0.36364,0.1,0.0001589,1587.9,0.00015858,1578.6,-5.1521e-05,0.013933,-5.397e-05,-18.383,1.6963
24009,16.902,0.18182,0.1,0.00015938,1592.7,0.00015902,1582.2,-5.1568e-05,-0.00040993,-5.4319e-05,-20.674,1.6958
24010,16.994,0.090909,0.1,0.00015617,1560.6,0.00015593,1553.6,-5.0847e-05,0.0048221,-5.2692e-05,-13.861,1.7101
24011,16.81,5.7273,0.1,0.00016134,1612.3,0.00016101,1602.6,-5.2285e-05,0.0076198,-5.4851e-05,-19.273,1.6815
24012,16.718,5.8182,0.1,0.00016382,1637,0.00016346,1626.8,-5.305e-05,-0.00033652,-5.5754e-05,-20.318,1.6668
24013,16.81,5.9091,0.1,0.00016061,1605,0.00016038,1598.2,-5.2326e-05,0.0046994,-5.414e-05,-13.625,1.681
24014,16.81,5.5455,0.1,0.00016103,1609.2,0.00016072,1600.1,-5.2242e-05,0.0095395,-5.4648e-05,-18.069,1.6821
24015,16.718,5.6364,0.1,0.00016334,1632.2,0.00016302,1623.2,-5.3006e-05,0.013422,-5.5404e-05,-18.003,1.6673
24016,16.81,5.3636,0.1,0.00016089,1607.8,0.00016058,1598.8,-5.2202e-05,0.0046517,-5.4591e-05,-17.945,1.6825
24017,16.718,5.4545,0.1,0.00016318,1630.7,0.00016287,1621.7,-5.2966e-05,0.0052137,-5.5332e-05,-17.771,1.6678
24018,16.81,5.1818,0.1,0.00016078,1606.7,0.00016046,1597.6,-5.2166e-05,0.0027936,-5.4551e-05,-17.921,1.683
24019,16.718,5.2727,0.1,0.00016306,1629.4,0.00016275,1620.5,-5.2929e-05,0.0039826,-5.5285e-05,-17.697,1.6683
24020,16.81,5,0.1,0.00016067,1605.6,0.00016036,1596.6,-5.2132e-05,0.0005865,-5.4519e-05,-17.935,1.6834
24021,16.718,5.0909,0.1,0.00016295,1628.3,0.00016264,1619.4,-5.2894e-05,0.0015871,-5.5246e-05,-17.667,1.6687
24022,16.81,4.8182,0.1,0.00016058,1604.7,0.00016027,1595.7,-5.21e-05,-0.0013344,-5.4492e-05,-17.975,1.6838
24023,16.718,4.9091,0.1,0.00016285,1627.4,0.00016254,1618.5,-5.2863e-05,-0.00034204,-5.5214e-05,-17.669,1.6691
24024,16.81,4.6364,0.1,0.00016051,1604,0.00016019,1594.9,-5.2072e-05,-0.0031115,-5.4471e-05,-18.035,1.6841
24025,16.718,4.7273,0.1,0.00016276,1626.5,0.00016246,1617.6,-5.2833e-05,-0.0021867,-5.5188e-05,-17.695,1.6695
24026,16.81,4.4545,0.1,0.00016044,1603.3,0.00016012,1594.2,-5.2046e-05,-0.0046979,-5.4455e-05,-18.107,1.6844
24027,16.718,4.5455,0.1,0.00016269,1625.8,0.00016238,1616.8,-5.2807e-05,-0.0038392,-5.5167e-05,-17.738,1.6698
24028,16.81,4.2727,0.1,0.00016038,1602.7,0.00016006,1593.5,-5.2023e-05,-0.0060982,-5.4443e-05,-18.186,1.6847
24029,16.718,4.3636,0.1,0.00016263,1625.1,0.00016232,1616.2,-5.2783e-05,-0.0053148,-5.515e-05,-17.792,1.6701
24030,16.81,4.0909,0.1,0.00016033,1602.2,0.00016001,1593,-5.2003e-05,-0.0073088,-5.4433e-05,-18.267,1.6849
24031,16.718,4.1818,0.1,0.00016257,1624.6,0.00016226,1615.6,-5.2762e-05,-0.0066068,-5.5137e-05,-17.852,1.6704
24032,16.81,3.9091,0.1,0.00016029,1601.8,0.00015997,1592.6,-5.1986e-05,-0.0083289,-5.4427e-05,-18.344,1.6851
24033,16.718,4,0.1,0.00016253,1624.1,0.00016221,1615.1,-5.2744e-05,-0.0077112,-5.5127e-05,-17.914,1.6706
24034,16.81,3.7273,0.1,0.00016026,1601.5,0.00015994,1592.2,-5.1972e-05,-0.0091599,-5.4422e-05,-18.413,1.6853
24035,16.718,3.8182,0.1,0.00016249,1623.8,0.00016218,1614.7,-5.2729e-05,-0.0086294,-5.512e-05,-17.972,1.6708
24036,16.81,3.5455,0.1,0.00016024,1601.3,0.00015991,1591.9,-5.1962e-05,-0.0098037,-5.4418e-05,-18.47,1.6854
24037,16.718,3.6364,0.1,0.00016246,1623.5,0.00016215,1614.4,-5.2717e-05,-0.0093613,-5.5115e-05,-18.023,1.6709
24038,16.81,3.3636,0.1,0.00016022,1601.1,0.0001599,1591.8,-5.1954e-05,-0.010262,-5.4416e-05,-18.513,1.6855
24039,16.718,3.4545,0.1,0.00016244,1623.3,0.00016212,1614.1,-5.2708e-05,-0.0099092,-5.5111e-05,-18.063,1.671
24040,16.81,3.1818,0.1,0.00016021,1601,0.00015989,1591.6,-5.1949e-05,-0.010536,-5.4415e-05,-18.539,1.6855
24041,16.718,3.2727,0.1,0.00016242,1623.1,0.00016211,1614,-5.2702e-05,-0.010273,-5.5109e-05,-18.092,1.6711
24042,16.81,3,0.1,0.00016021,1601,0.00015988,1591.6,-5.1948e-05,-0.010627,-5.4415e-05,-18.548,1.6856
24043,16.718,3.0909,0.1,0.00016242,1623.1,0.0001621,1613.9,-5.2699e-05,-0.010455,-5.5108e-05,-18.107,1.6711
24044,16.81,2.8182,0.1,0.00016021,1601,0.00015989,1591.6,-5.1949e-05,-0.010536,-5.4415e-05,-18.539,1.6855
24045,16.718,2.9091,0.1,0.00016242,1623.1,0.0001621,1613.9,-5.2699e-05,-0.010454,-5.5108e-05,-18.107,1.6711
24046,16.81,2.6364,0.1,0.00016022,1601.1,0.0001599,1591.8,-5.1954e-05,-0.010263,-5.4416e-05,-18.513,1.6855
24047,16.718,2.7273,0.1,0.00016242,1623.1,0.00016211,1614,-5.2702e-05,-0.010273,-5.5109e-05,-18.092,1.6711
24048,16.81,2.4545,0.1,0.00016024,1601.3,0.00015991,1591.9,-5.1962e-05,-0.009804,-5.4418e-05,-18.47,1.6854
24049,16.718,2.5455,0.1,0.00016244,1623.3,0.00016212,1614.1,-5.2708e-05,-0.0099093,-5.5111e-05,-18.063,1.671
24050,16.81,2.2727,0.1,0.00016026,1601.5,0.00015994,1592.2,-5.1972e-05,-0.0091605,-5.4422e-05,-18.413,1.6853
24051,16.718,2.3636,0.1,0.00016246,1623.5,0.00016215,1614.4,-5.2717e-05,-0.0093615,-5.5115e-05,-18.023,1.6709
24052,16.81,2.0909,0.1,0.00016029,1601.8,0.00015997,1592.6,-5.1986e-05,-0.0083292,-5.4427e-05,-18.344,1.6851
24053,16.718,2.1818,0.1,0.00016249,1623.8,0.00016218,1614.7,-5.2729e-05,-0.0086295,-5.512e-05,-17.972,1.6708
24054,16.81,1.9091,0.1,0.00016033,1602.2,0.00016001,1593,-5.2003e-05,-0.0073084,-5.4433e-05,-18.267,1.6849
24055,16.718,2,0.1,0.00016253,1624.1,0.00016221,1615.1,-5.2744e-05,-0.007712,-5.5127e-05,-17.914,1.6706
24056,16.81,1.7273,0.1,0.00016038,1602.7,0.00016006,1593.5,-5.2023e-05,-0.0060983,-5.4443e-05,-18.186,1.6847
24057,16.718,1.8182,0.1,0.00016257,1624.6,0.00016226,1615.6,-5.2762e-05,-0.0066062,-5.5137e-05,-17.852,1.6704
24058,16.81,1.5455,0.1,0.00016044,1603.3,0.00016012,1594.2,-5.2046e-05,-0.0046984,-5.4455e-05,-18.107,1.6844
24059,16.718,1.6364,0.1,0.00016263,1625.1,0.00016232,1616.2,-5.2783e-05,-0.005316,-5.515e-05,-17.792,1.6701
24060,16.81,1.3636,0.1,0.00016051,1604,0.00016019,1594.9,-5.2072e-05,-0.0031121,-5.4471e-05,-18.035,1.6841
24061,16.718,1.4545,0.1,0.00016269,1625.8,0.00016238,1616.8,-5.2807e-05,-0.0038394,-5.5167e-05,-17.738,1.6698
24062,16.81,1.1818,0.1,0.00016058,1604.7,0.00016027,1595.7,-5.21e-05,-0.0013355,-5.4492e-05,-17.975,1.6838
24063,16.718,1.2727,0.1,0.00016276,1626.5,0.00016246,1617.6,-5.2833e-05,-0.0021867,-5.5188e-05,-17.695,1.6695
24064,16.81,1,0.1,0.00016067,1605.6,0.00016036,1596.6,-5.2132e-05,0.00058572,-5.4519e-05,-17.935,1.6834
24065,16.718,1.0909,0.1,0.00016285,1627.4,0.00016254,1618.5,-5.2863e-05,-0.00034318,-5.5214e-05,-17.669,1.6691
24066,16.81,0.81818,0.1,0.00016078,1606.7,0.00016046,1597.6,-5.2166e-05,0.0027925,-5.4551e-05,-17.921,1.683
24067,16.718,0.90909,0.1,0.00016295,1628.3,0.00016264,1619.4,-5.2894e-05,0.0015858,-5.5246e-05,-17.667,1.6687
24068,16.81,0.63636,0.1,0.00016089,1607.8,0.00016058,1598.8,-5.2203e-05,0.0046516,-5.4591e-05,-17.945,1.6825
24069,16.718,0.72727,0.1,0.00016306,1629.4,0.00016275,1620.5,-5.2929e-05,0.0039812,-5.5285e-05,-17.696,1.6683
24070,16.81,0.45455,0.1,0.00016103,1609.2,0.00016072,1600.1,-5.2242e-05,0.0095406,-5.4648e-05,-18.069,1.6821
24071,16.718,0.54545,0.1,0.00016318,1630.7,0.00016287,1621.7,-5.2966e-05,0.0052139,-5.5332e-05,-17.771,1.6678
24072,16.81,0.27273,0.1,0.00016134,1612.3,0.00016101,1602.6,-5.2285e-05,0.0076207,-5.4851e-05,-19.273,1.6815
24073,16.718,0.36364,0.1,0.00016334,1632.2,0.00016302,1623.2,-5.3006e-05,0.013424,-5.5404e-05,-18.003,1.6673
24074,16.718,0.18182,0.1,0.00016382,1637,0.00016346,1626.8,-5.305e-05,-0.00033612,-5.5754e-05,-20.318,1.6668
24075,16.81,0.090909,0.1,0.00016061,1605,0.00016038,1598.2,-5.2326e-05,0.0046998,-5.414e-05,-13.625,1.681
24076,16.625,5.7273,0.1,0.00016579,1656.8,0.00016546,1647.2,-5.3771e-05,0.0073617,-5.6289e-05,-18.91,1.6526
24077,16.533,5.8182,0.1,0.00016828,1681.6,0.00016793,1671.5,-5.4539e-05,-0.00026109,-5.7197e-05,-19.968,1.6379
24078,16.625,5.9091,0.1,0.00016508,1649.6,0.00016485,1642.9,-5.3811e-05,0.0045736,-5.5594e-05,-13.393,1.652
24079,16.625,5.5455,0.1,0.00016548,1653.7,0.00016517,1644.8,-5.373e-05,0.0092184,-5.6083e-05,-17.667,1.6531
24080,16.533,5.6364,0.1,0.0001678,1676.8,0.00016749,1667.9,-5.4497e-05,0.01293,-5.6845e-05,-17.632,1.6384
24081,16.625,5.3636,0.1,0.00016534,1652.3,0.00016503,1643.4,-5.3693e-05,0.0045438,-5.6021e-05,-17.489,1.6536
24082,16.533,5.4545,0.1,0.00016764,1675.2,0.00016734,1666.5,-5.4459e-05,0.0050804,-5.6769e-05,-17.347,1.6389
24083,16.625,5.1818,0.1,0.00016522,1651.1,0.00016492,1642.3,-5.3658e-05,0.0027609,-5.5975e-05,-17.41,1.6541
24084,16.533,5.2727,0.1,0.00016751,1674,0.00016721,1665.3,-5.4424e-05,0.0039026,-5.6716e-05,-17.219,1.6394
24085,16.625,5,0.1,0.00016512,1650,0.00016481,1641.3,-5.3625e-05,0.00063618,-5.5937e-05,-17.369,1.6545
24086,16.533,5.0909,0.1,0.0001674,1672.8,0.0001671,1664.2,-5.4391e-05,0.0016014,-5.6671e-05,-17.136,1.6399
24087,16.625,4.8182,0.1,0.00016502,1649.1,0.00016472,1640.3,-5.3596e-05,-0.0012224,-5.5905e-05,-17.356,1.6549
24088,16.533,4.9091,0.1,0.0001673,1671.8,0.000167,1663.2,-5.436e-05,-0.00026076,-5.6634e-05,-17.084,1.6403
24089,16.625,4.6364,0.1,0.00016494,1648.3,0.00016464,1639.5,-5.3568e-05,-0.0029471,-5.5879e-05,-17.365,1.6552
24090,16.533,4.7273,0.1,0.00016721,1670.9,0.00016691,1662.4,-5.4332e-05,-0.0020484,-5.6602e-05,-17.059,1.6406
24091,16.625,4.4545,0.1,0.00016487,1647.6,0.00016457,1638.8,-5.3544e-05,-0.0044927,-5.5858e-05,-17.39,1.6555
24092,16.533,4.5455,0.1,0.00016713,1670.2,0.00016684,1661.6,-5.4307e-05,-0.0036554,-5.6576e-05,-17.054,1.641
24093,16.625,4.2727,0.1,0.00016481,1647,0.00016451,1638.2,-5.3522e-05,-0.0058631,-5.5841e-05,-17.426,1.6558
24094,16.533,4.3636,0.1,0.00016707,1669.5,0.00016677,1660.9,-5.4285e-05,-0.0050974,-5.6555e-05,-17.063,1.6413
24095,16.625,4.0909,0.1,0.00016476,1646.4,0.00016445,1637.6,-5.3503e-05,-0.0070515,-5.5827e-05,-17.467,1.656
24096,16.533,4.1818,0.1,0.00016701,1668.9,0.00016671,1660.3,-5.4265e-05,-0.0063636,-5.6538e-05,-17.083,1.6415
24097,16.625,3.9091,0.1,0.00016472,1646,0.00016441,1637.2,-5.3487e-05,-0.0080559,-5.5817e-05,-17.509,1.6562
24098,16.533,4,0.1,0.00016696,1668.5,0.00016666,1659.8,-5.4248e-05,-0.0074502,-5.6524e-05,-17.108,1.6418
24099,16.625,3.7273,0.1,0.00016468,1645.7,0.00016438,1636.8,-5.3474e-05,-0.0088764,-5.5809e-05,-17.549,1.6564
24100,16.533,3.8182,0.1,0.00016692,1668.1,0.00016662,1659.4,-5.4234e-05,-0.0083552,-5.6513e-05,-17.135,1.6419
24101,16.625,3.5455,0.1,0.00016466,1645.4,0.00016435,1636.6,-5.3464e-05,-0.0095135,-5.5803e-05,-17.584,1.6565
24102,16.533,3.6364,0.1,0.00016689,1667.7,0.00016659,1659.1,-5.4222e-05,-0.009079,-5.6505e-05,-17.161,1.6421
24103,16.625,3.3636,0.1,0.00016464,1645.2,0.00016433,1636.4,-5.3457e-05,-0.0099674,-5.5799e-05,-17.61,1.6566
24104,16.533,3.4545,0.1,0.00016687,1667.5,0.00016657,1658.9,-5.4214e-05,-0.0096221,-5.6499e-05,-17.182,1.6422
24105,16.625,3.1818,0.1,0.00016463,1645.1,0.00016432,1636.2,-5.3452e-05,-0.010239,-5.5797e-05,-17.627,1.6567
24106,16.533,3.2727,0.1,0.00016685,1667.4,0.00016655,1658.7,-5.4208e-05,-0.0099821,-5.6496e-05,-17.198,1.6423
24107,16.625,3,0.1,0.00016462,1645.1,0.00016432,1636.2,-5.3451e-05,-0.01033,-5.5796e-05,-17.633,1.6567
24108,16.533,3.0909,0.1,0.00016684,1667.3,0.00016655,1658.6,-5.4205e-05,-0.010163,-5.6494e-05,-17.206,1.6423
24109,16.625,2.8182,0.1,0.00016463,1645.1,0.00016432,1636.2,-5.3452e-05,-0.010239,-5.5797e-05,-17.627,1.6567
24110,16.533,2.9091,0.1,0.00016684,1667.3,0.00016655,1658.6,-5.4205e-05,-0.010162,-5.6494e-05,-17.206,1.6423
24111,16.625,2.6364,0.1,0.00016464,1645.2,0.00016433,1636.4,-5.3457e-05,-0.0099676,-5.5799e-05,-17.61,1.6566
24112,16.533,2.7273,0.1,0.00016685,1667.4,0.00016655,1658.7,-5.4208e-05,-0.0099829,-5.6496e-05,-17.198,1.6423
24113,16.625,2.4545,0.1,0.00016466,1645.4,0.00016435,1636.6,-5.3464e-05,-0.0095136,-5.5803e-05,-17.584,1.6565
24114,16.533,2.5455,0.1,0.00016687,1667.5,0.00016657,1658.9,-5.4214e-05,-0.0096219,-5.6499e-05,-17.182,1.6422
24115,16.625,2.2727,0.1,0.00016468,1645.7,0.00016438,1636.8,-5.3474e-05,-0.0088762,-5.5809e-05,-17.549,1.6564
24116,16.533,2.3636,0.1,0.00016689,1667.7,0.00016659,1659.1,-5.4222e-05,-0.0090796,-5.6505e-05,-17.161,1.6421
24117,16.625,2.0909,0.1,0.00016472,1646,0.00016441,1637.2,-5.3487e-05,-0.0080565,-5.5817e-05,-17.509,1.6562
24118,16.533,2.1818,0.1,0.00016692,1668.1,0.00016662,1659.4,-5.4234e-05,-0.008355,-5.6513e-05,-17.135,1.6419
24119,16.625,1.9091,0.1,0.00016476,1646.4,0.00016445,1637.6,-5.3503e-05,-0.0070522,-5.5827e-05,-17.467,1.656
24120,16.533,2,0.1,0.00016696,1668.5,0.00016666,1659.8,-5.4248e-05,-0.0074508,-5.6524e-05,-17.108,1.6418
24121,16.625,1.7273,0.1,0.00016481,1647,0.00016451,1638.2,-5.3522e-05,-0.0058637,-5.5841e-05,-17.426,1.6558
24122,16.533,1.8182,0.1,0.00016701,1668.9,0.00016671,1660.3,-5.4265e-05,-0.0063637,-5.6538e-05,-17.083,1.6415
24123,16.625,1.5455,0.1,0.00016487,1647.6,0.00016457,1638.8,-5.3544e-05,-0.0044936,-5.5858e-05,-17.39,1.6555
24124,16.533,1.6364,0.1,0.00016707,1669.5,0.00016677,1660.9,-5.4285e-05,-0.0050985,-5.6555e-05,-17.063,1.6413
24125,16.625,1.3636,0.1,0.00016494,1648.3,0.00016464,1639.5,-5.3568e-05,-0.0029468,-5.5879e-05,-17.365,1.6552
24126,16.533,1.4545,0.1,0.00016713,1670.2,0.00016684,1661.6,-5.4307e-05,-0.0036562,-5.6576e-05,-17.054,1.641
24127,16.625,1.1818,0.1,0.00016502,1649.1,0.00016472,1640.3,-5.3596e-05,-0.0012224,-5.5905e-05,-17.356,1.6549
24128,16.533,1.2727,0.1,0.00016721,1670.9,0.00016691,1662.4,-5.4332e-05,-0.0020481,-5.6602e-05,-17.059,1.6406
24129,16.625,1,0.1,0.00016512,1650,0.00016481,1641.3,-5.3625e-05,0.00063458,-5.5937e-05,-17.369,1.6545
24130,16.533,1.0909,0.1,0.0001673,1671.8,0.000167,1663.2,-5.436e-05,-0.00026147,-5.6634e-05,-17.084,1.6403
24131,16.625,0.81818,0.1,0.00016522,1651.1,0.00016492,1642.3,-5.3658e-05,0.0027594,-5.5975e-05,-17.41,1.6541
24132,16.533,0.90909,0.1,0.0001674,1672.8,0.0001671,1664.2,-5.4391e-05,0.0016001,-5.6671e-05,-17.136,1.6399
24133,16.625,0.63636,0.1,0.00016534,1652.3,0.00016503,1643.4,-5.3693e-05,0.0045427,-5.6021e-05,-17.489,1.6536
24134,16.533,0.72727,0.1,0.00016751,1674,0.00016721,1665.3,-5.4424e-05,0.0039013,-5.6716e-05,-17.219,1.6394
24135,16.625,0.45455,0.1,0.00016548,1653.7,0.00016517,1644.8,-5.3731e-05,0.0092189,-5.6083e-05,-17.667,1.6531
24136,16.533,0.54545,0.1,0.00016764,1675.2,0.00016734,1666.5,-5.4459e-05,0.0050793,-5.6769e-05,-17.347,1.6389
24137,16.625,0.27273,0.1,0.00016579,1656.8,0.00016546,1647.2,-5.3771e-05,0.0073626,-5.6289e-05,-18.91,1.6526
24138,16.533,0.36364,0.1,0.0001678,1676.8,0.00016749,1667.9,-5.4497e-05,0.012932,-5.6845e-05,-17.632,1.6384
24139,16.533,0.18182,0.1,0.00016828,1681.6,0.00016793,1671.5,-5.4539e-05,-0.000261,-5.7197e-05,-19.968,1.6379
24140,16.625,0.090909,0.1,0.00016508,1649.6,0.00016485,1642.9,-5.3811e-05,0.0045728,-5.5594e-05,-13.393,1.652
24141,16.441,5.7273,0.1,0.00017026,1701.4,0.00016994,1692.1,-5.5264e-05,0.0071194,-5.7735e-05,-18.554,1.6237
24142,16.349,5.8182,0.1,0.00017276,1726.4,0.00017241,1716.5,-5.6035e-05,-0.00018385,-5.8646e-05,-19.625,1.6091
24143,16.441,5.9091,0.1,0.00016956,1694.5,0.00016934,1687.8,-5.5302e-05,0.0044525,-5.7055e-05,-13.165,1.6231
24144,16.441,5.5455,0.1,0.00016995,1698.3,0.00016965,1689.6,-5.5225e-05,0.0089118,-5.7526e-05,-17.274,1.6243
24145,16.349,5.6364,0.1,0.00017228,1721.6,0.00017198,1712.9,-5.5994e-05,0.012454,-5.8294e-05,-17.268,1.6096
24146,16.441,5.3636,0.1,0.00016981,1696.9,0.00016951,1688.3,-5.519e-05,0.0044416,-5.7459e-05,-17.044,1.6248
24147,16.349,5.4545,0.1,0.00017212,1720,0.00017182,1711.5,-5.5958e-05,0.0049506,-5.8212e-05,-16.933,1.6102
24148,16.441,5.1818,0.1,0.00016969,1695.7,0.00016939,1687.2,-5.5156e-05,0.0027314,-5.7407e-05,-16.912,1.6252
24149,16.349,5.2727,0.1,0.00017199,1718.7,0.0001717,1710.3,-5.5924e-05,0.0038239,-5.8154e-05,-16.752,1.6107
24150,16.441,5,0.1,0.00016958,1694.6,0.00016928,1686.1,-5.5125e-05,0.00068555,-5.7364e-05,-16.819,1.6257
24151,16.349,5.0909,0.1,0.00017187,1717.5,0.00017158,1709.2,-5.5893e-05,0.0016134,-5.8105e-05,-16.617,1.6111
24152,16.441,4.8182,0.1,0.00016948,1693.6,0.00016919,1685.2,-5.5097e-05,-0.0011116,-5.7327e-05,-16.755,1.6261
24153,16.349,4.9091,0.1,0.00017177,1716.5,0.00017148,1708.2,-5.5864e-05,-0.00018363,-5.8062e-05,-16.515,1.6115
24154,16.441,4.6364,0.1,0.0001694,1692.8,0.00016911,1684.4,-5.5071e-05,-0.0027865,-5.7295e-05,-16.715,1.6264
24155,16.349,4.7273,0.1,0.00017168,1715.6,0.00017139,1707.3,-5.5837e-05,-0.0019158,-5.8025e-05,-16.44,1.6119
24156,16.441,4.4545,0.1,0.00016932,1692.1,0.00016903,1683.6,-5.5048e-05,-0.0042941,-5.7269e-05,-16.695,1.6268
24157,16.349,4.5455,0.1,0.0001716,1714.8,0.00017131,1706.5,-5.5813e-05,-0.0034808,-5.7994e-05,-16.389,1.6123
24158,16.441,4.2727,0.1,0.00016926,1691.4,0.00016897,1683,-5.5027e-05,-0.0056355,-5.7248e-05,-16.688,1.627
24159,16.349,4.3636,0.1,0.00017153,1714.1,0.00017124,1705.8,-5.5792e-05,-0.0048888,-5.7968e-05,-16.355,1.6126
24160,16.441,4.0909,0.1,0.00016921,1690.9,0.00016891,1682.5,-5.5009e-05,-0.0068028,-5.723e-05,-16.692,1.6273
24161,16.349,4.1818,0.1,0.00017147,1713.5,0.00017118,1705.3,-5.5773e-05,-0.0061315,-5.7947e-05,-16.336,1.6128
24162,16.441,3.9091,0.1,0.00016916,1690.4,0.00016887,1682,-5.4994e-05,-0.0077923,-5.7216e-05,-16.702,1.6275
24163,16.349,4,0.1,0.00017142,1713,0.00017113,1704.8,-5.5757e-05,-0.0072005,-5.7929e-05,-16.326,1.6131
24164,16.441,3.7273,0.1,0.00016912,1690.1,0.00016883,1681.7,-5.4982e-05,-0.0086024,-5.7205e-05,-16.715,1.6277
24165,16.349,3.8182,0.1,0.00017137,1712.6,0.00017109,1704.3,-5.5744e-05,-0.0080936,-5.7915e-05,-16.324,1.6132
24166,16.441,3.5455,0.1,0.0001691,1689.8,0.00016881,1681.4,-5.4972e-05,-0.0092336,-5.7197e-05,-16.727,1.6278
24167,16.349,3.6364,0.1,0.00017134,1712.2,0.00017106,1704,-5.5733e-05,-0.0088099,-5.7905e-05,-16.325,1.6134
24168,16.441,3.3636,0.1,0.00016908,1689.6,0.00016879,1681.2,-5.4965e-05,-0.0096837,-5.7192e-05,-16.738,1.6279
24169,16.349,3.4545,0.1,0.00017132,1712,0.00017103,1703.8,-5.5725e-05,-0.0093481,-5.7897e-05,-16.328,1.6135
24170,16.441,3.1818,0.1,0.00016907,1689.5,0.00016877,1681,-5.4961e-05,-0.0099535,-5.7188e-05,-16.745,1.6279
24171,16.349,3.2727,0.1,0.0001713,1711.8,0.00017102,1703.6,-5.572e-05,-0.0097056,-5.7892e-05,-16.331,1.6136
24172,16.441,3,0.1,0.00016906,1689.4,0.00016877,1681,-5.496e-05,-0.010044,-5.7187e-05,-16.748,1.628
24173,16.349,3.0909,0.1,0.00017129,1711.8,0.00017101,1703.5,-5.5717e-05,-0.0098857,-5.7889e-05,-16.333,1.6136
24174,16.441,2.8182,0.1,0.00016907,1689.5,0.00016877,1681,-5.4961e-05,-0.0099539,-5.7188e-05,-16.745,1.6279
24175,16.349,2.9091,0.1,0.00017129,1711.8,0.00017101,1703.5,-5.5717e-05,-0.0098852,-5.7889e-05,-16.333,1.6136
24176,16.441,2.6364,0.1,0.00016908,1689.6,0.00016879,1681.2,-5.4965e-05,-0.0096841,-5.7192e-05,-16.738,1.6279
24177,16.349,2.7273,0.1,0.0001713,1711.8,0.00017102,1703.6,-5.572e-05,-0.0097059,-5.7892e-05,-16.331,1.6136
24178,16.441,2.4545,0.1,0.0001691,1689.8,0.00016881,1681.4,-5.4972e-05,-0.0092339,-5.7197e-05,-16.727,1.6278
24179,16.349,2.5455,0.1,0.00017132,1712,0.00017103,1703.8,-5.5725e-05,-0.0093479,-5.7897e-05,-16.328,1.6135
24180,16.441,2.2727,0.1,0.00016912,1690.1,0.00016883,1681.7,-5.4982e-05,-0.0086029,-5.7205e-05,-16.715,1.6277
24181,16.349,2.3636,0.1,0.00017134,1712.2,0.00017106,1704,-5.5733e-05,-0.00881,-5.7905e-05,-16.325,1.6134
24182,16.441,2.0909,0.1,0.00016916,1690.4,0.00016887,1682,-5.4994e-05,-0.0077921,-5.7216e-05,-16.702,1.6275
24183,16.349,2.1818,0.1,0.00017137,1712.6,0.00017109,1704.3,-5.5744e-05,-0.0080943,-5.7915e-05,-16.324,1.6132
24184,16.441,1.9091,0.1,0.00016921,1690.9,0.00016891,1682.5,-5.5009e-05,-0.0068028,-5.723e-05,-16.692,1.6273
24185,16.349,2,0.1,0.00017142,1713,0.00017113,1704.8,-5.5757e-05,-0.0072005,-5.7929e-05,-16.326,1.6131
24186,16.441,1.7273,0.1,0.00016926,1691.4,0.00016897,1683,-5.5027e-05,-0.0056361,-5.7248e-05,-16.688,1.627
24187,16.349,1.8182,0.1,0.00017147,1713.5,0.00017118,1705.3,-5.5773e-05,-0.0061315,-5.7947e-05,-16.336,1.6128
24188,16.441,1.5455,0.1,0.00016932,1692.1,0.00016903,1683.6,-5.5048e-05,-0.0042952,-5.7269e-05,-16.695,1.6268
24189,16.349,1.6364,0.1,0.00017153,1714.1,0.00017124,1705.8,-5.5792e-05,-0.00489,-5.7968e-05,-16.355,1.6126
24190,16.441,1.3636,0.1,0.0001694,1692.8,0.00016911,1684.4,-5.5071e-05,-0.0027874,-5.7295e-05,-16.715,1.6264
24191,16.349,1.4545,0.1,0.0001716,1714.8,0.00017131,1706.5,-5.5813e-05,-0.0034808,-5.7994e-05,-16.389,1.6123
24192,16.441,1.1818,0.1,0.00016948,1693.6,0.00016919,1685.2,-5.5097e-05,-0.0011119,-5.7327e-05,-16.755,1.6261
24193,16.349,1.2727,0.1,0.00017168,1715.6,0.00017139,1707.3,-5.5837e-05,-0.0019161,-5.8025e-05,-16.44,1.6119
24194,16.441,1,0.1,0.00016958,1694.6,0.00016928,1686.1,-5.5125e-05,0.0006852,-5.7364e-05,-16.819,1.6257
24195,16.349,1.0909,0.1,0.00017177,1716.5,0.00017148,1708.2,-5.5864e-05,-0.00018439,-5.8062e-05,-16.515,1.6115
24196,16.441,0.81818,0.1,0.00016969,1695.7,0.00016939,1687.2,-5.5156e-05,0.0027304,-5.7407e-05,-16.912,1.6252
24197,16.349,0.90909,0.1,0.00017187,1717.5,0.00017158,1709.2,-5.5893e-05,0.0016128,-5.8105e-05,-16.617,1.6111
24198,16.441,0.63636,0.1,0.00016981,1696.9,0.00016951,1688.3,-5.519e-05,0.0044402,-5.7459e-05,-17.044,1.6248
24199,16.349,0.72727,0.1,0.00017199,1718.7,0.0001717,1710.3,-5.5924e-05,0.0038223,-5.8154e-05,-16.752,1.6107
24200,16.441,0.45455,0.1,0.00016995,1698.3,0.00016965,1689.6,-5.5225e-05,0.0089122,-5.7526e-05,-17.274,1.6243
24201,16.349,0.54545,0.1,0.00017212,1720,0.00017182,1711.5,-5.5958e-05,0.0049495,-5.8212e-05,-16.932,1.6102
24202,16.441,0.27273,0.1,0.00017026,1701.4,0.00016994,1692.1,-5.5264e-05,0.0071206,-5.7735e-05,-18.554,1.6237
24203,16.349,0.36364,0.1,0.00017228,1721.6,0.00017198,1712.9,-5.5994e-05,0.012456,-5.8294e-05,-17.268,1.6096
24204,16.349,0.18182,0.1,0.00017276,1726.4,0.00017241,1716.5,-5.6035e-05,-0.00018303,-5.8646e-05,-19.625,1.6091
24205,16.441,0.090909,0.1,0.00016956,1694.5,0.00016934,1687.8,-5.5302e-05,0.0044536,-5.7055e-05,-13.165,1.6231
24206,16.257,5.7273,0.1,0.00017475,1746.3,0.00017444,1737.2,-5.6764e-05,0.0068832,-5.9188e-05,-18.204,1.595
24207,16.164,5.8182,0.1,0.00017725,1771.3,0.00017692,1761.6,-5.7536e-05,-0.0001005,-6.0103e-05,-19.287,1.5804
24208,16.257,5.9091,0.1,0.00017407,1739.5,0.00017384,1733,-5.68e-05,0.0043313,-5.8523e-05,-12.942,1.5944
24209,16.257,5.5455,0.1,0.00017444,1743.2,0.00017415,1734.7,-5.6727e-05,0.0086108,-5.8976e-05,-16.889,1.5956
24210,16.164,5.6364,0.1,0.00017678,1766.6,0.00017649,1758.1,-5.7497e-05,0.011995,-5.975e-05,-16.91,1.581
24211,16.257,5.3636,0.1,0.0001743,1741.8,0.00017401,1733.4,-5.6692e-05,0.0043383,-5.8903e-05,-16.608,1.5961
24212,16.164,5.4545,0.1,0.00017662,1765,0.00017633,1756.6,-5.7463e-05,0.004827,-5.9663e-05,-16.525,1.5815
24213,16.257,5.1818,0.1,0.00017417,1740.5,0.00017389,1732.2,-5.6661e-05,0.0026976,-5.8847e-05,-16.425,1.5966
24214,16.164,5.2727,0.1,0.00017649,1763.6,0.0001762,1755.4,-5.7431e-05,0.0037487,-5.96e-05,-16.294,1.582
24215,16.257,5,0.1,0.00017406,1739.4,0.00017378,1731.2,-5.6631e-05,0.00072868,-5.8798e-05,-16.281,1.597
24216,16.164,5.0909,0.1,0.00017637,1762.4,0.00017609,1754.3,-5.7401e-05,0.0016268,-5.9545e-05,-16.108,1.5825
24217,16.257,4.8182,0.1,0.00017396,1738.4,0.00017368,1730.3,-5.6604e-05,-0.0010095,-5.8756e-05,-16.168,1.5974
24218,16.164,4.9091,0.1,0.00017626,1761.4,0.00017598,1753.4,-5.7374e-05,-0.00010762,-5.9497e-05,-15.957,1.5829
24219,16.257,4.6364,0.1,0.00017387,1737.5,0.00017359,1729.4,-5.658e-05,-0.0026371,-5.872e-05,-16.082,1.5978
24220,16.164,4.7273,0.1,0.00017617,1760.4,0.00017589,1752.5,-5.7349e-05,-0.0017861,-5.9456e-05,-15.835,1.5833
24221,16.257,4.4545,0.1,0.0001738,1736.8,0.00017352,1728.7,-5.6558e-05,-0.004107,-5.8689e-05,-16.017,1.5981
24222,16.164,4.5455,0.1,0.00017608,1759.6,0.00017581,1751.7,-5.7326e-05,-0.0033091,-5.942e-05,-15.739,1.5836
24223,16.257,4.2727,0.1,0.00017373,1736.1,0.00017345,1728.1,-5.6538e-05,-0.0054203,-5.8663e-05,-15.971,1.5984
24224,16.164,4.3636,0.1,0.00017601,1758.9,0.00017574,1751,-5.7306e-05,-0.0046855,-5.939e-05,-15.664,1.584
24225,16.257,4.0909,0.1,0.00017367,1735.5,0.0001734,1727.5,-5.6521e-05,-0.0065679,-5.8642e-05,-15.938,1.5986
24226,16.164,4.1818,0.1,0.00017595,1758.2,0.00017568,1750.4,-5.7288e-05,-0.0059049,-5.9364e-05,-15.606,1.5842
24227,16.257,3.9091,0.1,0.00017363,1735.1,0.00017335,1727,-5.6507e-05,-0.0075432,-5.8624e-05,-15.917,1.5988
24228,16.164,4,0.1,0.00017589,1757.7,0.00017562,1749.9,-5.7273e-05,-0.0069575,-5.9343e-05,-15.564,1.5845
24229,16.257,3.7273,0.1,0.00017359,1734.7,0.00017331,1726.7,-5.6495e-05,-0.0083447,-5.8611e-05,-15.903,1.599
24230,16.164,3.8182,0.1,0.00017585,1757.3,0.00017558,1749.5,-5.726e-05,-0.0078397,-5.9326e-05,-15.533,1.5847
24231,16.257,3.5455,0.1,0.00017356,1734.4,0.00017328,1726.4,-5.6486e-05,-0.0089697,-5.86e-05,-15.895,1.5992
24232,16.164,3.6364,0.1,0.00017582,1756.9,0.00017555,1749.1,-5.725e-05,-0.0085494,-5.9313e-05,-15.511,1.5848
24233,16.257,3.3636,0.1,0.00017354,1734.2,0.00017326,1726.2,-5.6479e-05,-0.0094164,-5.8593e-05,-15.89,1.5993
24234,16.164,3.4545,0.1,0.00017579,1756.7,0.00017552,1748.9,-5.7242e-05,-0.0090834,-5.9303e-05,-15.496,1.5849
24235,16.257,3.1818,0.1,0.00017353,1734.1,0.00017325,1726.1,-5.6476e-05,-0.0096848,-5.8589e-05,-15.888,1.5993
24236,16.164,3.2727,0.1,0.00017577,1756.5,0.0001755,1748.7,-5.7237e-05,-0.0094394,-5.9297e-05,-15.487,1.585
24237,16.257,3,0.1,0.00017352,1734,0.00017325,1726,-5.6474e-05,-0.0097742,-5.8587e-05,-15.888,1.5993
24238,16.164,3.0909,0.1,0.00017576,1756.4,0.0001755,1748.6,-5.7235e-05,-0.009617,-5.9294e-05,-15.483,1.5851
24239,16.257,2.8182,0.1,0.00017353,1734.1,0.00017325,1726.1,-5.6476e-05,-0.0096842,-5.8589e-05,-15.888,1.5993
24240,16.164,2.9091,0.1,0.00017576,1756.4,0.0001755,1748.6,-5.7235e-05,-0.0096172,-5.9294e-05,-15.483,1.5851
24241,16.257,2.6364,0.1,0.00017354,1734.2,0.00017326,1726.2,-5.6479e-05,-0.009416,-5.8593e-05,-15.89,1.5993
24242,16.164,2.7273,0.1,0.00017577,1756.5,0.0001755,1748.7,-5.7237e-05,-0.0094391,-5.9297e-05,-15.487,1.585
24243,16.257,2.4545,0.1,0.00017356,1734.4,0.00017328,1726.4,-5.6486e-05,-0.0089692,-5.86e-05,-15.895,1.5992
24244,16.164,2.5455,0.1,0.00017579,1756.7,0.00017552,1748.9,-5.7242e-05,-0.0090829,-5.9303e-05,-15.496,1.5849
24245,16.257,2.2727,0.1,0.00017359,1734.7,0.00017331,1726.7,-5.6495e-05,-0.008345,-5.8611e-05,-15.903,1.599
24246,16.164,2.3636,0.1,0.00017582,1756.9,0.00017555,1749.1,-5.725e-05,-0.0085492,-5.9313e-05,-15.511,1.5848
24247,16.257,2.0909,0.1,0.00017363,1735.1,0.00017335,1727,-5.6507e-05,-0.0075441,-5.8624e-05,-15.917,1.5988
24248,16.164,2.1818,0.1,0.00017585,1757.3,0.00017558,1749.5,-5.726e-05,-0.0078406,-5.9326e-05,-15.533,1.5847
24249,16.257,1.9091,0.1,0.00017367,1735.5,0.0001734,1727.5,-5.6521e-05,-0.0065679,-5.8642e-05,-15.938,1.5986
24250,16.164,2,0.1,0.00017589,1757.7,0.00017562,1749.9,-5.7273e-05,-0.0069581,-5.9343e-05,-15.564,1.5845
24251,16.257,1.7273,0.1,0.00017373,1736.1,0.00017345,1728.1,-5.6538e-05,-0.0054209,-5.8663e-05,-15.971,1.5984
24252,16.164,1.8182,0.1,0.00017595,1758.2,0.00017568,1750.4,-5.7288e-05,-0.0059045,-5.9364e-05,-15.606,1.5842
24253,16.257,1.5455,0.1,0.0001738,1736.8,0.00017352,1728.7,-5.6558e-05,-0.0041072,-5.8689e-05,-16.017,1.5981
24254,16.164,1.6364,0.1,0.00017601,1758.9,0.00017574,1751,-5.7306e-05,-0.004686,-5.939e-05,-15.664,1.584
24255,16.257,1.3636,0.1,0.00017387,1737.5,0.00017359,1729.4,-5.658e-05,-0.0026365,-5.872e-05,-16.082,1.5978
24256,16.164,1.4545,0.1,0.00017608,1759.6,0.00017581,1751.7,-5.7326e-05,-0.0033088,-5.942e-05,-15.739,1.5836
24257,16.257,1.1818,0.1,0.00017396,1738.4,0.00017368,1730.3,-5.6604e-05,-0.0010102,-5.8756e-05,-16.168,1.5974
24258,16.164,1.2727,0.1,0.00017617,1760.4,0.00017589,1752.5,-5.7349e-05,-0.0017862,-5.9456e-05,-15.835,1.5833
24259,16.257,1,0.1,0.00017406,1739.4,0.00017378,1731.2,-5.6631e-05,0.00072763,-5.8798e-05,-16.281,1.597
24260,16.164,1.0909,0.1,0.00017626,1761.4,0.00017598,1753.4,-5.7374e-05,-0.00010856,-5.9497e-05,-15.957,1.5829
24261,16.257,0.81818,0.1,0.00017417,1740.5,0.00017389,1732.2,-5.6661e-05,0.0026964,-5.8847e-05,-16.425,1.5966
24262,16.164,0.90909,0.1,0.00017637,1762.4,0.00017609,1754.3,-5.7401e-05,0.0016258,-5.9545e-05,-16.108,1.5825
24263,16.257,0.63636,0.1,0.0001743,1741.8,0.00017401,1733.4,-5.6693e-05,0.004337,-5.8903e-05,-16.608,1.5961
24264,16.164,0.72727,0.1,0.00017649,1763.6,0.0001762,1755.4,-5.7431e-05,0.0037474,-5.96e-05,-16.294,1.582
24265,16.257,0.45455,0.1,0.00017444,1743.2,0.00017415,1734.7,-5.6727e-05,0.008611,-5.8976e-05,-16.889,1.5956
24266,16.164,0.54545,0.1,0.00017662,1765,0.00017633,1756.6,-5.7463e-05,0.0048266,-5.9663e-05,-16.525,1.5815
24267,16.257,0.27273,0.1,0.00017475,1746.3,0.00017444,1737.2,-5.6764e-05,0.0068844,-5.9188e-05,-18.204,1.595
24268,16.164,0.36364,0.1,0.00017678,1766.6,0.00017649,1758.1,-5.7497e-05,0.011995,-5.975e-05,-16.91,1.581
24269,16.164,0.18182,0.1,0.00017725,1771.3,0.00017692,1761.6,-5.7536e-05,-9.9686e-05,-6.0103e-05,-19.287,1.5804
24270,16.257,0.090909,0.1,0.00017407,1739.5,0.00017384,1733,-5.68e-05,0.0043307,-5.8523e-05,-12.942,1.5944
24271,16.072,5.7273,0.1,0.00017926,1791.4,0.00017895,1782.4,-5.827e-05,0.0066667,-6.0647e-05,-17.86,1.5664
24272,15.98,5.8182,0.1,0.00018177,1816.5,0.00018144,1806.9,-5.9044e-05,-1.2127e-05,-6.1567e-05,-18.954,1.5518
24273,16.072,5.9091,0.1,0.00017859,1784.7,0.00017837,1778.3,-5.8304e-05,0.0042199,-5.9998e-05,-12.722,1.5658
24274,16.072,5.5455,0.1,0.00017895,1788.3,0.00017867,1780,-5.8234e-05,0.0083273,-6.0433e-05,-16.51,1.5669
24275,15.98,5.6364,0.1,0.0001813,1811.8,0.00018102,1803.5,-5.9007e-05,0.011548,-6.1212e-05,-16.557,1.5524
24276,16.072,5.3636,0.1,0.0001788,1786.8,0.00017852,1778.7,-5.8202e-05,0.0042456,-6.0356e-05,-16.18,1.5675
24277,15.98,5.4545,0.1,0.00018114,1810.1,0.00018086,1802,-5.8975e-05,0.004708,-6.1121e-05,-16.124,1.553
24278,16.072,5.1818,0.1,0.00017868,1785.5,0.0001784,1777.5,-5.8171e-05,0.0026727,-6.0294e-05,-15.946,1.568
24279,15.98,5.2727,0.1,0.000181,1808.8,0.00018073,1800.8,-5.8944e-05,0.0036767,-6.1053e-05,-15.843,1.5535
24280,16.072,5,0.1,0.00017856,1784.4,0.00017829,1776.5,-5.8143e-05,0.00077813,-6.024e-05,-15.753,1.5684
24281,15.98,5.0909,0.1,0.00018088,1807.6,0.00018061,1799.7,-5.8916e-05,0.0016405,-6.0993e-05,-15.608,1.554
24282,16.072,4.8182,0.1,0.00017846,1783.4,0.00017819,1775.5,-5.8118e-05,-0.00090278,-6.0193e-05,-15.593,1.5688
24283,15.98,4.9091,0.1,0.00018077,1806.5,0.0001805,1798.7,-5.889e-05,-3.289e-05,-6.094e-05,-15.408,1.5544
24284,16.072,4.6364,0.1,0.00017837,1782.5,0.0001781,1774.7,-5.8095e-05,-0.0024823,-6.0152e-05,-15.461,1.5692
24285,15.98,4.7273,0.1,0.00018067,1805.5,0.00018041,1797.8,-5.8866e-05,-0.0016582,-6.0894e-05,-15.24,1.5548
24286,16.072,4.4545,0.1,0.00017829,1781.7,0.00017802,1773.9,-5.8074e-05,-0.0039167,-6.0117e-05,-15.354,1.5696
24287,15.98,4.5455,0.1,0.00018059,1804.6,0.00018033,1797,-5.8845e-05,-0.0031402,-6.0854e-05,-15.1,1.5552
24288,16.072,4.2727,0.1,0.00017822,1781,0.00017796,1773.3,-5.8055e-05,-0.0052035,-6.0087e-05,-15.268,1.5698
24289,15.98,4.3636,0.1,0.00018051,1803.9,0.00018025,1796.3,-5.8825e-05,-0.0044868,-6.0819e-05,-14.985,1.5555
24290,16.072,4.0909,0.1,0.00017816,1780.4,0.0001779,1772.7,-5.8039e-05,-0.0063314,-6.0062e-05,-15.201,1.5701
24291,15.98,4.1818,0.1,0.00018045,1803.2,0.00018019,1795.7,-5.8809e-05,-0.0056828,-6.079e-05,-14.891,1.5558
24292,16.072,3.9091,0.1,0.00017811,1779.9,0.00017785,1772.3,-5.8026e-05,-0.0072941,-6.0041e-05,-15.149,1.5703
24293,15.98,4,0.1,0.00018039,1802.7,0.00018013,1795.2,-5.8794e-05,-0.0067209,-6.0765e-05,-14.816,1.556
24294,16.072,3.7273,0.1,0.00017807,1779.5,0.00017781,1771.9,-5.8015e-05,-0.0080871,-6.0025e-05,-15.109,1.5705
24295,15.98,3.8182,0.1,0.00018035,1802.2,0.00018009,1794.8,-5.8782e-05,-0.0075931,-6.0745e-05,-14.757,1.5562
24296,16.072,3.5455,0.1,0.00017804,1779.2,0.00017778,1771.6,-5.8006e-05,-0.0087076,-6.0012e-05,-15.081,1.5706
24297,15.98,3.6364,0.1,0.00018031,1801.9,0.00018006,1794.5,-5.8773e-05,-0.0082964,-6.073e-05,-14.712,1.5564
24298,16.072,3.3636,0.1,0.00017802,1779,0.00017776,1771.4,-5.8e-05,-0.0091522,-6.0003e-05,-15.062,1.5707
24299,15.98,3.4545,0.1,0.00018028,1801.6,0.00018003,1794.2,-5.8766e-05,-0.0088279,-6.0718e-05,-14.68,1.5565
24300,16.072,3.1818,0.1,0.00017801,1778.8,0.00017775,1771.3,-5.7996e-05,-0.0094182,-5.9998e-05,-15.051,1.5708
24301,15.98,3.2727,0.1,0.00018027,1801.4,0.00018001,1794,-5.8761e-05,-0.0091812,-6.0711e-05,-14.66,1.5566
24302,16.072,3,0.1,0.000178,1778.8,0.00017774,1771.2,-5.7995e-05,-0.0095068,-5.9996e-05,-15.048,1.5708
24303,15.98,3.0909,0.1,0.00018026,1801.3,0.00018,1793.9,-5.8758e-05,-0.0093585,-6.0707e-05,-14.65,1.5566
24304,16.072,2.8182,0.1,0.00017801,1778.8,0.00017775,1771.3,-5.7996e-05,-0.0094187,-5.9998e-05,-15.051,1.5708
24305,15.98,2.9091,0.1,0.00018026,1801.3,0.00018,1793.9,-5.8758e-05,-0.0093586,-6.0707e-05,-14.65,1.5566
24306,16.072,2.6364,0.1,0.00017802,1779,0.00017776,1771.4,-5.8e-05,-0.0091519,-6.0003e-05,-15.062,1.5707
24307,15.98,2.7273,0.1,0.00018027,1801.4,0.00018001,1794,-5.8761e-05,-0.0091819,-6.0711e-05,-14.66,1.5566
24308,16.072,2.4545,0.1,0.00017804,1779.2,0.00017778,1771.6,-5.8006e-05,-0.0087075,-6.0012e-05,-15.081,1.5706
24309,15.98,2.5455,0.1,0.00018028,1801.6,0.00018003,1794.2,-5.8766e-05,-0.008827,-6.0718e-05,-14.68,1.5565
24310,16.072,2.2727,0.1,0.00017807,1779.5,0.00017781,1771.9,-5.8015e-05,-0.0080874,-6.0025e-05,-15.109,1.5705
24311,15.98,2.3636,0.1,0.00018031,1801.9,0.00018006,1794.5,-5.8773e-05,-0.0082965,-6.073e-05,-14.712,1.5564
24312,16.072,2.0909,0.1,0.00017811,1779.9,0.00017785,1772.3,-5.8026e-05,-0.0072946,-6.0041e-05,-15.149,1.5703
24313,15.98,2.1818,0.1,0.00018035,1802.2,0.00018009,1794.8,-5.8782e-05,-0.007593,-6.0745e-05,-14.757,1.5562
24314,16.072,1.9091,0.1,0.00017816,1780.4,0.0001779,1772.7,-5.8039e-05,-0.0063317,-6.0062e-05,-15.201,1.5701
24315,15.98,2,0.1,0.00018039,1802.7,0.00018013,1795.2,-5.8794e-05,-0.0067214,-6.0765e-05,-14.815,1.556
24316,16.072,1.7273,0.1,0.00017822,1781,0.00017796,1773.3,-5.8055e-05,-0.005203,-6.0087e-05,-15.268,1.5698
24317,15.98,1.8182,0.1,0.00018045,1803.2,0.00018019,1795.7,-5.8809e-05,-0.005683,-6.079e-05,-14.891,1.5558
24318,16.072,1.5455,0.1,0.00017829,1781.7,0.00017802,1773.9,-5.8074e-05,-0.0039167,-6.0117e-05,-15.354,1.5696
24319,15.98,1.6364,0.1,0.00018051,1803.9,0.00018025,1796.3,-5.8825e-05,-0.004487,-6.0819e-05,-14.985,1.5555
24320,16.072,1.3636,0.1,0.00017837,1782.5,0.0001781,1774.7,-5.8095e-05,-0.0024827,-6.0152e-05,-15.461,1.5692
24321,15.98,1.4545,0.1,0.00018059,1804.6,0.00018033,1797,-5.8845e-05,-0.0031407,-6.0854e-05,-15.1,1.5552
24322,16.072,1.1818,0.1,0.00017846,1783.4,0.00017819,1775.5,-5.8118e-05,-0.00090313,-6.0193e-05,-15.592,1.5688
24323,15.98,1.2727,0.1,0.00018067,1805.5,0.00018041,1797.8,-5.8866e-05,-0.0016585,-6.0894e-05,-15.24,1.5548
24324,16.072,1,0.1,0.00017856,1784.4,0.00017829,1776.5,-5.8143e-05,0.00077729,-6.024e-05,-15.753,1.5684
24325,15.98,1.0909,0.1,0.00018077,1806.5,0.0001805,1798.7,-5.889e-05,-3.3716e-05,-6.094e-05,-15.408,1.5544
24326,16.072,0.81818,0.1,0.00017868,1785.5,0.0001784,1777.5,-5.8171e-05,0.0026717,-6.0294e-05,-15.946,1.568
24327,15.98,0.90909,0.1,0.00018088,1807.6,0.00018061,1799.7,-5.8916e-05,0.0016395,-6.0993e-05,-15.608,1.554
24328,16.072,0.63636,0.1,0.0001788,1786.8,0.00017852,1778.7,-5.8202e-05,0.0042452,-6.0356e-05,-16.18,1.5675
24329,15.98,0.72727,0.1,0.000181,1808.8,0.00018073,1800.8,-5.8944e-05,0.0036753,-6.1053e-05,-15.843,1.5535
24330,16.072,0.45455,0.1,0.00017895,1788.3,0.00017867,1780,-5.8234e-05,0.008327,-6.0433e-05,-16.51,1.5669
24331,15.98,0.54545,0.1,0.00018114,1810.1,0.00018086,1802,-5.8975e-05,0.0047082,-6.1121e-05,-16.124,1.553
24332,16.072,0.27273,0.1,0.00017926,1791.4,0.00017895,1782.4,-5.827e-05,0.0066665,-6.0647e-05,-17.86,1.5664
24333,15.98,0.36364,0.1,0.0001813,1811.8,0.00018102,1803.5,-5.9007e-05,0.011549,-6.1212e-05,-16.557,1.5524
24334,15.98,0.18182,0.1,0.00018177,1816.5,0.00018144,1806.9,-5.9044e-05,-1.2336e-05,-6.1567e-05,-18.954,1.5518
24335,16.072,0.090909,0.1,0.00017859,1784.7,0.00017837,1778.3,-5.8304e-05,0.00422,-5.9998e-05,-12.722,1.5658
24336,15.888,5.7273,0.1,0.00018379,1836.7,0.00018349,1827.9,-5.9782e-05,0.0064498,-6.2114e-05,-17.52,1.5379
24337,15.796,5.8182,0.1,0.00018631,1861.9,0.00018599,1852.5,-6.0559e-05,6.6896e-05,-6.3038e-05,-18.625,1.5234
24338,15.888,5.9091,0.1,0.00018314,1830.1,0.00018292,1823.8,-5.9814e-05,0.0041051,-6.1479e-05,-12.506,1.5373
24339,15.888,5.5455,0.1,0.00018348,1833.6,0.0001832,1825.5,-5.9748e-05,0.0080431,-6.1897e-05,-16.136,1.5385
24340,15.796,5.6364,0.1,0.00018585,1857.2,0.00018557,1849,-6.0524e-05,0.011095,-6.2682e-05,-16.208,1.524
24341,15.888,5.3636,0.1,0.00018333,1832.1,0.00018306,1824.1,-5.9717e-05,0.0041499,-6.1815e-05,-15.757,1.539
24342,15.796,5.4545,0.1,0.00018568,1855.5,0.00018541,1847.6,-6.0493e-05,0.0045779,-6.2587e-05,-15.728,1.5245
24343,15.888,5.1818,0.1,0.0001832,1830.8,0.00018293,1823,-5.9688e-05,0.0026423,-6.1748e-05,-15.474,1.5395
24344,15.796,5.2727,0.1,0.00018554,1854.1,0.00018527,1846.4,-6.0464e-05,0.0035925,-6.2513e-05,-15.397,1.5251
24345,15.888,5,0.1,0.00018309,1829.6,0.00018282,1821.9,-5.9662e-05,0.00082027,-6.1689e-05,-15.232,1.54
24346,15.796,5.0909,0.1,0.00018542,1852.9,0.00018515,1845.3,-6.0437e-05,0.0016398,-6.2448e-05,-15.113,1.5256
24347,15.888,4.8182,0.1,0.00018298,1828.5,0.00018272,1821,-5.9638e-05,-0.00080382,-6.1637e-05,-15.025,1.5404
24348,15.796,4.9091,0.1,0.0001853,1851.7,0.00018505,1844.3,-6.0412e-05,2.7295e-05,-6.2391e-05,-14.866,1.526
24349,15.888,4.6364,0.1,0.00018289,1827.6,0.00018263,1820.1,-5.9616e-05,-0.0023374,-6.1592e-05,-14.849,1.5408
24350,15.796,4.7273,0.1,0.0001852,1850.7,0.00018495,1843.4,-6.039e-05,-0.0015467,-6.234e-05,-14.652,1.5264
24351,15.888,4.4545,0.1,0.0001828,1826.8,0.00018255,1819.4,-5.9596e-05,-0.0037369,-6.1552e-05,-14.7,1.5411
24352,15.796,4.5455,0.1,0.00018511,1849.9,0.00018486,1842.6,-6.0369e-05,-0.0029892,-6.2295e-05,-14.469,1.5268
24353,15.888,4.2727,0.1,0.00018273,1826.1,0.00018248,1818.7,-5.9579e-05,-0.0049973,-6.1518e-05,-14.576,1.5414
24354,15.796,4.3636,0.1,0.00018503,1849.1,0.00018479,1841.9,-6.0351e-05,-0.0043055,-6.2256e-05,-14.314,1.5271
24355,15.888,4.0909,0.1,0.00018267,1825.5,0.00018242,1818.2,-5.9564e-05,-0.0061075,-6.1489e-05,-14.475,1.5417
24356,15.796,4.1818,0.1,0.00018497,1848.4,0.00018472,1841.3,-6.0336e-05,-0.00548,-6.2223e-05,-14.184,1.5274
24357,15.888,3.9091,0.1,0.00018262,1824.9,0.00018237,1817.7,-5.9551e-05,-0.0070586,-6.1466e-05,-14.393,1.5419
24358,15.796,4,0.1,0.00018491,1847.8,0.00018467,1840.7,-6.0322e-05,-0.0065032,-6.2195e-05,-14.077,1.5277
24359,15.888,3.7273,0.1,0.00018258,1824.5,0.00018233,1817.3,-5.954e-05,-0.007844,-6.1446e-05,-14.329,1.5421
24360,15.796,3.8182,0.1,0.00018486,1847.4,0.00018462,1840.3,-6.0311e-05,-0.0073668,-6.2172e-05,-13.991,1.5279
24361,15.888,3.5455,0.1,0.00018255,1824.2,0.0001823,1817,-5.9532e-05,-0.0084605,-6.1432e-05,-14.281,1.5422
24362,15.796,3.6364,0.1,0.00018483,1847,0.00018458,1840,-6.0302e-05,-0.0080648,-6.2154e-05,-13.924,1.528
24363,15.888,3.3636,0.1,0.00018252,1824,0.00018228,1816.8,-5.9526e-05,-0.0089024,-6.1421e-05,-14.248,1.5423
24364,15.796,3.4545,0.1,0.0001848,1846.7,0.00018456,1839.7,-6.0295e-05,-0.0085937,-6.2141e-05,-13.876,1.5282
24365,15.888,3.1818,0.1,0.00018251,1823.8,0.00018226,1816.7,-5.9523e-05,-0.0091679,-6.1415e-05,-14.228,1.5424
24366,15.796,3.2727,0.1,0.00018478,1846.5,0.00018454,1839.5,-6.0291e-05,-0.0089464,-6.2132e-05,-13.844,1.5282
24367,15.888,3,0.1,0.00018251,1823.8,0.00018226,1816.6,-5.9522e-05,-0.009257,-6.1413e-05,-14.222,1.5424
24368,15.796,3.0909,0.1,0.00018477,1846.4,0.00018453,1839.5,-6.0288e-05,-0.0091241,-6.2128e-05,-13.828,1.5283
24369,15.888,2.8182,0.1,0.00018251,1823.8,0.00018226,1816.7,-5.9523e-05,-0.0091682,-6.1415e-05,-14.228,1.5424
24370,15.796,2.9091,0.1,0.00018477,1846.4,0.00018453,1839.5,-6.0288e-05,-0.0091236,-6.2128e-05,-13.828,1.5283
24371,15.888,2.6364,0.1,0.00018252,1824,0.00018228,1816.8,-5.9526e-05,-0.0089024,-6.1421e-05,-14.248,1.5423
24372,15.796,2.7273,0.1,0.00018478,1846.5,0.00018454,1839.5,-6.0291e-05,-0.0089464,-6.2132e-05,-13.844,1.5282
24373,15.888,2.4545,0.1,0.00018255,1824.2,0.0001823,1817,-5.9532e-05,-0.0084599,-6.1432e-05,-14.281,1.5422
24374,15.796,2.5455,0.1,0.0001848,1846.7,0.00018456,1839.7,-6.0295e-05,-0.0085937,-6.2141e-05,-13.876,1.5282
24375,15.888,2.2727,0.1,0.00018258,1824.5,0.00018233,1817.3,-5.954e-05,-0.0078437,-6.1446e-05,-14.329,1.5421
24376,15.796,2.3636,0.1,0.00018483,1847,0.00018458,1840,-6.0302e-05,-0.0080649,-6.2154e-05,-13.924,1.528
24377,15.888,2.0909,0.1,0.00018262,1824.9,0.00018237,1817.7,-5.9551e-05,-0.0070585,-6.1466e-05,-14.393,1.5419
24378,15.796,2.1818,0.1,0.00018486,1847.4,0.00018462,1840.3,-6.0311e-05,-0.0073667,-6.2172e-05,-13.991,1.5279
24379,15.888,1.9091,0.1,0.00018267,1825.5,0.00018242,1818.2,-5.9564e-05,-0.0061079,-6.1489e-05,-14.475,1.5417
24380,15.796,2,0.1,0.00018491,1847.8,0.00018467,1840.7,-6.0322e-05,-0.0065043,-6.2195e-05,-14.077,1.5277
24381,15.888,1.7273,0.1,0.00018273,1826.1,0.00018248,1818.7,-5.9579e-05,-0.0049981,-6.1518e-05,-14.576,1.5414
24382,15.796,1.8182,0.1,0.00018497,1848.4,0.00018472,1841.3,-6.0336e-05,-0.0054799,-6.2223e-05,-14.184,1.5274
24383,15.888,1.5455,0.1,0.0001828,1826.8,0.00018255,1819.4,-5.9596e-05,-0.0037375,-6.1552e-05,-14.7,1.5411
24384,15.796,1.6364,0.1,0.00018503,1849.1,0.00018479,1841.9,-6.0351e-05,-0.0043059,-6.2256e-05,-14.314,1.5271
24385,15.888,1.3636,0.1,0.00018289,1827.6,0.00018263,1820.1,-5.9616e-05,-0.0023379,-6.1592e-05,-14.849,1.5408
24386,15.796,1.4545,0.1,0.00018511,1849.9,0.00018486,1842.6,-6.0369e-05,-0.0029894,-6.2295e-05,-14.469,1.5268
24387,15.888,1.1818,0.1,0.00018298,1828.5,0.00018272,1821,-5.9638e-05,-0.0008046,-6.1637e-05,-15.025,1.5404
24388,15.796,1.2727,0.1,0.0001852,1850.7,0.00018495,1843.4,-6.039e-05,-0.001547,-6.234e-05,-14.652,1.5264
24389,15.888,1,0.1,0.00018309,1829.6,0.00018282,1821.9,-5.9662e-05,0.00081926,-6.1689e-05,-15.232,1.54
24390,15.796,1.0909,0.1,0.0001853,1851.7,0.00018505,1844.3,-6.0412e-05,2.5899e-05,-6.2391e-05,-14.866,1.526
24391,15.888,0.81818,0.1,0.0001832,1830.8,0.00018293,1823,-5.9688e-05,0.002641,-6.1748e-05,-15.474,1.5395
24392,15.796,0.90909,0.1,0.00018542,1852.9,0.00018515,1845.3,-6.0437e-05,0.0016381,-6.2448e-05,-15.113,1.5256
24393,15.888,0.63636,0.1,0.00018333,1832.1,0.00018306,1824.1,-5.9717e-05,0.004149,-6.1815e-05,-15.757,1.539
24394,15.796,0.72727,0.1,0.00018554,1854.1,0.00018527,1846.4,-6.0464e-05,0.0035904,-6.2513e-05,-15.397,1.5251
24395,15.888,0.45455,0.1,0.00018348,1833.6,0.0001832,1825.5,-5.9748e-05,0.0080437,-6.1897e-05,-16.136,1.5385
24396,15.796,0.54545,0.1,0.00018568,1855.5,0.00018541,1847.6,-6.0493e-05,0.0045786,-6.2587e-05,-15.728,1.5245
24397,15.888,0.27273,0.1,0.00018379,1836.7,0.00018349,1827.9,-5.9782e-05,0.0064499,-6.2114e-05,-17.52,1.5379
24398,15.796,0.36364,0.1,0.00018585,1857.2,0.00018557,1849,-6.0524e-05,0.011096,-6.2682e-05,-16.208,1.524
24399,15.796,0.18182,0.1,0.00018631,1861.9,0.00018599,1852.5,-6.0559e-05,6.5204e-05,-6.3038e-05,-18.625,1.5234
24400,15.888,0.090909,0.1,0.00018314,1830.1,0.00018292,1823.8,-5.9814e-05,0.004104,-6.1479e-05,-12.506,1.5373
24401,15.704,5.7273,0.1,0.00018835,1882.2,0.00018805,1873.5,-6.13e-05,0.0062189,-6.3588e-05,-17.184,1.5095
24402,15.611,5.8182,0.1,0.00019087,1907.4,0.00019056,1898.2,-6.208e-05,0.00014898,-6.4515e-05,-18.3,1.495
24403,15.704,5.9091,0.1,0.0001877,1875.7,0.00018749,1869.6,-6.1331e-05,0.0039718,-6.2968e-05,-12.293,1.5089
24404,15.704,5.5455,0.1,0.00018803,1879.1,0.00018776,1871.1,-6.1268e-05,0.0077417,-6.3368e-05,-15.766,1.5101
24405,15.611,5.6364,0.1,0.00019041,1902.8,0.00019013,1894.8,-6.2046e-05,0.010647,-6.4159e-05,-15.863,1.4957
24406,15.704,5.3636,0.1,0.00018788,1877.5,0.00018762,1869.8,-6.1239e-05,0.0040338,-6.3281e-05,-15.338,1.5107
24407,15.611,5.4545,0.1,0.00019024,1901.1,0.00018997,1893.4,-6.2017e-05,0.0044483,-6.4059e-05,-15.335,1.4963
24408,15.704,5.1818,0.1,0.00018775,1876.2,0.00018749,1868.6,-6.1212e-05,0.0025909,-6.3209e-05,-15.006,1.5112
24409,15.611,5.2727,0.1,0.0001901,1899.7,0.00018984,1892.1,-6.199e-05,0.0035064,-6.398e-05,-14.954,1.4968
24410,15.704,5,0.1,0.00018763,1875,0.00018737,1867.6,-6.1187e-05,0.00084074,-6.3146e-05,-14.716,1.5117
24411,15.611,5.0909,0.1,0.00018997,1898.4,0.00018972,1891,-6.1964e-05,0.0016379,-6.391e-05,-14.622,1.4973
24412,15.704,4.8182,0.1,0.00018752,1873.9,0.00018727,1866.6,-6.1164e-05,-0.00072803,-6.3089e-05,-14.463,1.5121
24413,15.611,4.9091,0.1,0.00018985,1897.2,0.00018961,1890,-6.1941e-05,8.5397e-05,-6.3848e-05,-14.327,1.4978
24414,15.704,4.6364,0.1,0.00018742,1872.9,0.00018718,1865.8,-6.1143e-05,-0.0022169,-6.3039e-05,-14.242,1.5125
24415,15.611,4.7273,0.1,0.00018975,1896.2,0.00018951,1889.1,-6.192e-05,-0.0014377,-6.3792e-05,-14.068,1.4982
24416,15.704,4.4545,0.1,0.00018734,1872.1,0.0001871,1865,-6.1125e-05,-0.0035818,-6.2995e-05,-14.053,1.5128
24417,15.611,4.5455,0.1,0.00018966,1895.3,0.00018942,1888.3,-6.1901e-05,-0.0028409,-6.3743e-05,-13.843,1.4986
24418,15.704,4.2727,0.1,0.00018726,1871.4,0.00018702,1864.4,-6.1108e-05,-0.0048171,-6.2957e-05,-13.891,1.5131
24419,15.611,4.3636,0.1,0.00018958,1894.5,0.00018934,1887.6,-6.1884e-05,-0.0041271,-6.37e-05,-13.648,1.4989
24420,15.704,4.0909,0.1,0.0001872,1870.7,0.00018696,1863.8,-6.1094e-05,-0.0059091,-6.2924e-05,-13.756,1.5134
24421,15.611,4.1818,0.1,0.00018951,1893.8,0.00018928,1887,-6.1869e-05,-0.0052819,-6.3663e-05,-13.482,1.4992
24422,15.704,3.9091,0.1,0.00018715,1870.2,0.00018691,1863.3,-6.1082e-05,-0.0068487,-6.2897e-05,-13.645,1.5136
24423,15.611,4,0.1,0.00018945,1893.2,0.00018922,1886.5,-6.1856e-05,-0.0062907,-6.3632e-05,-13.344,1.4994
24424,15.704,3.7273,0.1,0.0001871,1869.8,0.00018687,1862.9,-6.1072e-05,-0.0076282,-6.2876e-05,-13.556,1.5138
24425,15.611,3.8182,0.1,0.0001894,1892.7,0.00018917,1886,-6.1846e-05,-0.0071471,-6.3606e-05,-13.231,1.4997
24426,15.704,3.5455,0.1,0.00018707,1869.4,0.00018684,1862.6,-6.1065e-05,-0.0082411,-6.2859e-05,-13.489,1.514
24427,15.611,3.6364,0.1,0.00018936,1892.3,0.00018913,1885.7,-6.1837e-05,-0.007841,-6.3586e-05,-13.142,1.4998
24428,15.704,3.3636,0.1,0.00018705,1869.2,0.00018681,1862.4,-6.1059e-05,-0.0086828,-6.2847e-05,-13.442,1.5141
24429,15.611,3.4545,0.1,0.00018933,1892,0.00018911,1885.4,-6.1831e-05,-0.0083678,-6.357e-05,-13.077,1.4999
24430,15.704,3.1818,0.1,0.00018703,1869,0.0001868,1862.3,-6.1056e-05,-0.0089488,-6.284e-05,-13.414,1.5141
24431,15.611,3.2727,0.1,0.00018931,1891.8,0.00018909,1885.3,-6.1827e-05,-0.0087215,-6.356e-05,-13.034,1.5
24432,15.704,3,0.1,0.00018703,1869,0.0001868,1862.3,-6.1055e-05,-0.0090373,-6.2838e-05,-13.404,1.5142
24433,15.611,3.0909,0.1,0.0001893,1891.7,0.00018908,1885.2,-6.1825e-05,-0.0088985,-6.3555e-05,-13.012,1.5001
24434,15.704,2.8182,0.1,0.00018703,1869,0.0001868,1862.3,-6.1056e-05,-0.0089481,-6.284e-05,-13.414,1.5141
24435,15.611,2.9091,0.1,0.0001893,1891.7,0.00018908,1885.2,-6.1825e-05,-0.0088984,-6.3555e-05,-13.012,1.5001
24436,15.704,2.6364,0.1,0.00018705,1869.2,0.00018681,1862.4,-6.1059e-05,-0.0086828,-6.2847e-05,-13.442,1.5141
24437,15.611,2.7273,0.1,0.00018931,1891.8,0.00018909,1885.3,-6.1827e-05,-0.0087209,-6.356e-05,-13.034,1.5
24438,15.704,2.4545,0.1,0.00018707,1869.4,0.00018684,1862.6,-6.1065e-05,-0.0082419,-6.2859e-05,-13.489,1.514
24439,15.611,2.5455,0.1,0.00018933,1892,0.00018911,1885.4,-6.1831e-05,-0.0083681,-6.357e-05,-13.077,1.4999
24440,15.704,2.2727,0.1,0.0001871,1869.8,0.00018687,1862.9,-6.1072e-05,-0.0076285,-6.2876e-05,-13.556,1.5138
24441,15.611,2.3636,0.1,0.00018936,1892.3,0.00018913,1885.7,-6.1837e-05,-0.0078415,-6.3586e-05,-13.142,1.4998
24442,15.704,2.0909,0.1,0.00018715,1870.2,0.00018691,1863.3,-6.1082e-05,-0.0068499,-6.2897e-05,-13.645,1.5136
24443,15.611,2.1818,0.1,0.0001894,1892.7,0.00018917,1886,-6.1846e-05,-0.0071466,-6.3606e-05,-13.231,1.4997
24444,15.704,1.9091,0.1,0.0001872,1870.7,0.00018696,1863.8,-6.1094e-05,-0.0059098,-6.2924e-05,-13.756,1.5134
24445,15.611,2,0.1,0.00018945,1893.2,0.00018922,1886.5,-6.1856e-05,-0.0062923,-6.3632e-05,-13.344,1.4994
24446,15.704,1.7273,0.1,0.00018726,1871.4,0.00018702,1864.4,-6.1108e-05,-0.0048167,-6.2957e-05,-13.891,1.5131
24447,15.611,1.8182,0.1,0.00018951,1893.8,0.00018928,1887,-6.1869e-05,-0.0052814,-6.3663e-05,-13.482,1.4992
24448,15.704,1.5455,0.1,0.00018734,1872.1,0.0001871,1865,-6.1125e-05,-0.0035817,-6.2995e-05,-14.053,1.5128
24449,15.611,1.6364,0.1,0.00018958,1894.5,0.00018934,1887.6,-6.1884e-05,-0.0041276,-6.37e-05,-13.648,1.4989
24450,15.704,1.3636,0.1,0.00018742,1872.9,0.00018718,1865.8,-6.1143e-05,-0.002217,-6.3039e-05,-14.242,1.5125
24451,15.611,1.4545,0.1,0.00018966,1895.3,0.00018942,1888.3,-6.1901e-05,-0.0028409,-6.3743e-05,-13.842,1.4986
24452,15.704,1.1818,0.1,0.00018752,1873.9,0.00018727,1866.6,-6.1164e-05,-0.00072896,-6.3089e-05,-14.463,1.5121
24453,15.611,1.2727,0.1,0.00018975,1896.2,0.00018951,1889.1,-6.192e-05,-0.0014379,-6.3792e-05,-14.068,1.4982
24454,15.704,1,0.1,0.00018763,1875,0.00018737,1867.6,-6.1187e-05,0.00083861,-6.3146e-05,-14.716,1.5117
24455,15.611,1.0909,0.1,0.00018985,1897.2,0.00018961,1890,-6.1941e-05,8.4485e-05,-6.3848e-05,-14.327,1.4978
24456,15.704,0.81818,0.1,0.00018775,1876.2,0.00018749,1868.6,-6.1212e-05,0.0025883,-6.3209e-05,-15.006,1.5112
24457,15.611,0.90909,0.1,0.00018997,1898.4,0.00018972,1891,-6.1964e-05,0.0016358,-6.391e-05,-14.622,1.4973
24458,15.704,0.63636,0.1,0.00018788,1877.5,0.00018762,1869.8,-6.1239e-05,0.0040331,-6.3281e-05,-15.338,1.5107
24459,15.611,0.72727,0.1,0.0001901,1899.7,0.00018984,1892.1,-6.199e-05,0.0035046,-6.398e-05,-14.954,1.4968
24460,15.704,0.45455,0.1,0.00018803,1879.1,0.00018776,1871.1,-6.1268e-05,0.0077425,-6.3368e-05,-15.766,1.5101
24461,15.611,0.54545,0.1,0.00019024,1901.1,0.00018997,1893.4,-6.2017e-05,0.0044484,-6.4059e-05,-15.335,1.4963
24462,15.704,0.27273,0.1,0.00018835,1882.2,0.00018805,1873.5,-6.13e-05,0.0062178,-6.3588e-05,-17.184,1.5095
24463,15.611,0.36364,0.1,0.00019041,1902.8,0.00019013,1894.8,-6.2046e-05,0.010648,-6.4159e-05,-15.863,1.4957
24464,15.611,0.18182,0.1,0.00019087,1907.4,0.00019056,1898.2,-6.208e-05,0.00014897,-6.4515e-05,-18.3,1.495
24465,15.704,0.090909,0.1,0.0001877,1875.7,0.00018749,1869.6,-6.1331e-05,0.0039715,-6.2968e-05,-12.293,1.5089
24466,15.519,5.7273,0.1,0.00019292,1927.8,0.00019262,1919.4,-6.2826e-05,0.0060118,-6.5069e-05,-16.851,1.4813
24467,15.427,5.8182,0.1,0.00019545,1953.2,0.00019514,1944.1,-6.3607e-05,0.00024733,-6.6e-05,-17.978,1.4669
24468,15.519,5.9091,0.1,0.00019229,1921.5,0.00019208,1915.5,-6.2855e-05,0.0038562,-6.4464e-05,-12.082,1.4806
24469,15.519,5.5455,0.1,0.00019261,1924.7,0.00019234,1917,-6.2795e-05,0.0074633,-6.4845e-05,-15.398,1.4819
24470,15.427,5.6364,0.1,0.00019499,1948.6,0.00019472,1940.8,-6.3576e-05,0.010214,-6.5643e-05,-15.52,1.4675
24471,15.519,5.3636,0.1,0.00019245,1923.2,0.00019219,1915.7,-6.2768e-05,0.0039365,-6.4754e-05,-14.921,1.4824
24472,15.427,5.4545,0.1,0.00019482,1946.8,0.00019456,1939.3,-6.3548e-05,0.0043309,-6.5537e-05,-14.943,1.4681
24473,15.519,5.1818,0.1,0.00019231,1921.8,0.00019206,1914.5,-6.2742e-05,0.0025573,-6.4677e-05,-14.54,1.483
24474,15.427,5.2727,0.1,0.00019467,1945.4,0.00019442,1938.1,-6.3522e-05,0.0034327,-6.5454e-05,-14.513,1.4687
24475,15.519,5,0.1,0.00019219,1920.6,0.00019195,1913.4,-6.2718e-05,0.00087954,-6.4609e-05,-14.202,1.4835
24476,15.427,5.0909,0.1,0.00019454,1944.1,0.0001943,1937,-6.3498e-05,0.0016478,-6.5379e-05,-14.131,1.4692
24477,15.519,4.8182,0.1,0.00019208,1919.5,0.00019184,1912.5,-6.2697e-05,-0.00063365,-6.4547e-05,-13.903,1.4839
24478,15.427,4.9091,0.1,0.00019443,1942.9,0.00019419,1936,-6.3476e-05,0.00015513,-6.5312e-05,-13.789,1.4696
24479,15.519,4.6364,0.1,0.00019198,1918.5,0.00019175,1911.6,-6.2677e-05,-0.0020771,-6.4492e-05,-13.638,1.4843
24480,15.427,4.7273,0.1,0.00019432,1941.9,0.00019409,1935.1,-6.3457e-05,-0.0013164,-6.5251e-05,-13.485,1.4701
24481,15.519,4.4545,0.1,0.00019189,1917.6,0.00019166,1910.9,-6.266e-05,-0.0034074,-6.4444e-05,-13.408,1.4847
24482,15.427,4.5455,0.1,0.00019423,1940.9,0.000194,1934.3,-6.3439e-05,-0.0026808,-6.5197e-05,-13.216,1.4705
24483,15.519,4.2727,0.1,0.00019182,1916.8,0.00019159,1910.2,-6.2645e-05,-0.0046185,-6.4402e-05,-13.209,1.485
24484,15.427,4.3636,0.1,0.00019414,1940.1,0.00019392,1933.6,-6.3423e-05,-0.0039382,-6.515e-05,-12.982,1.4708
24485,15.519,4.0909,0.1,0.00019175,1916.2,0.00019153,1909.6,-6.2631e-05,-0.005695,-6.4366e-05,-13.04,1.4853
24486,15.427,4.1818,0.1,0.00019407,1939.4,0.00019385,1932.9,-6.3409e-05,-0.0050729,-6.5109e-05,-12.781,1.4711
24487,15.519,3.9091,0.1,0.0001917,1915.6,0.00019147,1909.1,-6.262e-05,-0.0066249,-6.4336e-05,-12.9,1.4855
24488,15.427,4,0.1,0.00019401,1938.7,0.00019379,1932.4,-6.3397e-05,-0.0060701,-6.5075e-05,-12.611,1.4714
24489,15.519,3.7273,0.1,0.00019165,1915.2,0.00019143,1908.8,-6.2611e-05,-0.0073995,-6.4312e-05,-12.787,1.4857
24490,15.427,3.8182,0.1,0.00019396,1938.2,0.00019374,1932,-6.3387e-05,-0.0069197,-6.5046e-05,-12.472,1.4716
24491,15.519,3.5455,0.1,0.00019162,1914.8,0.0001914,1908.5,-6.2604e-05,-0.0080103,-6.4293e-05,-12.701,1.4858
24492,15.427,3.6364,0.1,0.00019392,1937.8,0.0001937,1931.6,-6.338e-05,-0.0076112,-6.5024e-05,-12.361,1.4717
24493,15.519,3.3636,0.1,0.00019159,1914.6,0.00019137,1908.2,-6.2599e-05,-0.0084514,-6.428e-05,-12.639,1.4859
24494,15.427,3.4545,0.1,0.00019389,1937.5,0.00019367,1931.3,-6.3374e-05,-0.0081373,-6.5007e-05,-12.279,1.4719
24495,15.519,3.1818,0.1,0.00019158,1914.4,0.00019136,1908.1,-6.2596e-05,-0.0087174,-6.4272e-05,-12.603,1.486
24496,15.427,3.2727,0.1,0.00019387,1937.3,0.00019365,1931.2,-6.337e-05,-0.0084915,-6.4996e-05,-12.225,1.472
24497,15.519,3,0.1,0.00019157,1914.4,0.00019135,1908.1,-6.2595e-05,-0.0088062,-6.4269e-05,-12.591,1.486
24498,15.427,3.0909,0.1,0.00019386,1937.2,0.00019364,1931.1,-6.3368e-05,-0.0086691,-6.499e-05,-12.198,1.472
24499,15.519,2.8182,0.1,0.00019158,1914.4,0.00019136,1908.1,-6.2596e-05,-0.0087174,-6.4272e-05,-12.603,1.486
24500,15.427,2.9091,0.1,0.00019386,1937.2,0.00019364,1931.1,-6.3368e-05,-0.0086691,-6.499e-05,-12.198,1.472
24501,15.519,2.6364,0.1,0.00019159,1914.6,0.00019137,1908.2,-6.2599e-05,-0.008451,-6.428e-05,-12.639,1.4859
24502,15.427,2.7273,0.1,0.00019387,1937.3,0.00019365,1931.2,-6.337e-05,-0.0084913,-6.4996e-05,-12.225,1.472
24503,15.519,2.4545,0.1,0.00019162,1914.8,0.0001914,1908.5,-6.2604e-05,-0.0080103,-6.4293e-05,-12.701,1.4858
24504,15.427,2.5455,0.1,0.00019389,1937.5,0.00019367,1931.3,-6.3374e-05,-0.0081375,-6.5007e-05,-12.279,1.4719
24505,15.519,2.2727,0.1,0.00019165,1915.2,0.00019143,1908.8,-6.2611e-05,-0.0073992,-6.4312e-05,-12.787,1.4857
24506,15.427,2.3636,0.1,0.00019392,1937.8,0.0001937,1931.6,-6.338e-05,-0.007611,-6.5024e-05,-12.361,1.4717
24507,15.519,2.0909,0.1,0.0001917,1915.6,0.00019147,1909.1,-6.262e-05,-0.0066249,-6.4336e-05,-12.9,1.4855
24508,15.427,2.1818,0.1,0.00019396,1938.2,0.00019374,1932,-6.3387e-05,-0.0069195,-6.5046e-05,-12.472,1.4716
24509,15.519,1.9091,0.1,0.00019175,1916.2,0.00019153,1909.6,-6.2631e-05,-0.0056954,-6.4366e-05,-13.04,1.4853
24510,15.427,2,0.1,0.00019401,1938.7,0.00019379,1932.4,-6.3397e-05,-0.0060706,-6.5075e-05,-12.611,1.4714
24511,15.519,1.7273,0.1,0.00019182,1916.8,0.00019159,1910.2,-6.2645e-05,-0.0046189,-6.4402e-05,-13.209,1.485
24512,15.427,1.8182,0.1,0.00019407,1939.4,0.00019385,1932.9,-6.3409e-05,-0.005073,-6.5109e-05,-12.781,1.4711
24513,15.519,1.5455,0.1,0.00019189,1917.6,0.00019166,1910.9,-6.266e-05,-0.003408,-6.4444e-05,-13.408,1.4847
24514,15.427,1.6364,0.1,0.00019414,1940.1,0.00019392,1933.6,-6.3423e-05,-0.0039385,-6.515e-05,-12.982,1.4708
24515,15.519,1.3636,0.1,0.00019198,1918.5,0.00019175,1911.6,-6.2677e-05,-0.0020772,-6.4492e-05,-13.638,1.4843
24516,15.427,1.4545,0.1,0.00019423,1940.9,0.000194,1934.3,-6.3439e-05,-0.0026807,-6.5197e-05,-13.216,1.4705
24517,15.519,1.1818,0.1,0.00019208,1919.5,0.00019184,1912.5,-6.2697e-05,-0.00063377,-6.4547e-05,-13.902,1.4839
24518,15.427,1.2727,0.1,0.00019432,1941.9,0.00019409,1935.1,-6.3457e-05,-0.001317,-6.5251e-05,-13.485,1.4701
24519,15.519,1,0.1,0.00019219,1920.6,0.00019195,1913.4,-6.2718e-05,0.00087863,-6.4609e-05,-14.202,1.4835
24520,15.427,1.0909,0.1,0.00019443,1942.9,0.00019419,1936,-6.3476e-05,0.00015479,-6.5312e-05,-13.789,1.4696
24521,15.519,0.81818,0.1,0.00019231,1921.8,0.00019206,1914.5,-6.2742e-05,0.0025559,-6.4677e-05,-14.54,1.483
24522,15.427,0.90909,0.1,0.00019454,1944.1,0.0001943,1937,-6.3498e-05,0.0016452,-6.5379e-05,-14.131,1.4692
24523,15.519,0.63636,0.1,0.00019245,1923.2,0.00019219,1915.7,-6.2768e-05,0.0039354,-6.4754e-05,-14.921,1.4824
24524,15.427,0.72727,0.1,0.00019467,1945.4,0.00019442,1938.1,-6.3522e-05,0.003431,-6.5454e-05,-14.513,1.4687
24525,15.519,0.45455,0.1,0.00019261,1924.7,0.00019234,1917,-6.2795e-05,0.0074632,-6.4845e-05,-15.398,1.4819
24526,15.427,0.54545,0.1,0.00019482,1946.8,0.00019456,1939.3,-6.3548e-05,0.0043309,-6.5537e-05,-14.943,1.4681
24527,15.519,0.27273,0.1,0.00019292,1927.8,0.00019262,1919.4,-6.2826e-05,0.0060135,-6.5069e-05,-16.851,1.4813
24528,15.427,0.36364,0.1,0.00019499,1948.6,0.00019472,1940.8,-6.3576e-05,0.010215,-6.5643e-05,-15.52,1.4675
24529,15.427,0.18182,0.1,0.00019545,1953.2,0.00019514,1944.1,-6.3607e-05,0.00024894,-6.6e-05,-17.978,1.4669
24530,15.519,0.090909,0.1,0.00019229,1921.5,0.00019208,1915.5,-6.2855e-05,0.0038571,-6.4464e-05,-12.082,1.4806
24531,15.335,5.7273,0.1,0.00019751,1973.7,0.00019722,1965.4,-6.4357e-05,0.0058123,-6.6557e-05,-16.521,1.4531
24532,15.243,5.8182,0.1,0.00020006,1999.2,0.00019975,1990.3,-6.5142e-05,0.00034757,-6.7492e-05,-17.658,1.4388
24533,15.335,5.9091,0.1,0.00019689,1967.6,0.00019669,1961.6,-6.4385e-05,0.0037462,-6.5966e-05,-11.873,1.4525
24534,15.335,5.5455,0.1,0.0001972,1970.6,0.00019694,1963.1,-6.4329e-05,0.0071887,-6.633e-05,-15.031,1.4538
24535,15.243,5.6364,0.1,0.00019959,1994.6,0.00019933,1986.9,-6.5112e-05,0.0097762,-6.7133e-05,-15.177,1.4395
24536,15.335,5.3636,0.1,0.00019704,1969,0.00019679,1961.7,-6.4303e-05,0.003845,-6.6233e-05,-14.504,1.4544
24537,15.243,5.4545,0.1,0.00019942,1992.8,0.00019917,1985.5,-6.5086e-05,0.0042107,-6.7023e-05,-14.55,1.4401
24538,15.335,5.1818,0.1,0.0001969,1967.6,0.00019666,1960.6,-6.4278e-05,0.0025299,-6.6152e-05,-14.074,1.4549
24539,15.243,5.2727,0.1,0.00019927,1991.3,0.00019903,1984.3,-6.5061e-05,0.003356,-6.6934e-05,-14.07,1.4406
24540,15.335,5,0.1,0.00019677,1966.4,0.00019654,1959.5,-6.4256e-05,0.00092345,-6.6078e-05,-13.688,1.4554
24541,15.243,5.0909,0.1,0.00019914,1990,0.0001989,1983.2,-6.5039e-05,0.0016547,-6.6854e-05,-13.638,1.4412
24542,15.335,4.8182,0.1,0.00019666,1965.3,0.00019643,1958.5,-6.4236e-05,-0.00053384,-6.6012e-05,-13.341,1.4558
24543,15.243,4.9091,0.1,0.00019902,1988.8,0.00019879,1982.1,-6.5018e-05,0.00022185,-6.6782e-05,-13.248,1.4416
24544,15.335,4.6364,0.1,0.00019656,1964.2,0.00019633,1957.7,-6.4218e-05,-0.0019324,-6.5952e-05,-13.033,1.4563
24545,15.243,4.7273,0.1,0.00019891,1987.7,0.00019869,1981.2,-6.5e-05,-0.0011975,-6.6716e-05,-12.898,1.4421
24546,15.335,4.4545,0.1,0.00019647,1963.3,0.00019625,1956.9,-6.4202e-05,-0.0032299,-6.59e-05,-12.761,1.4566
24547,15.243,4.5455,0.1,0.00019881,1986.7,0.00019859,1980.4,-6.4983e-05,-0.002523,-6.6658e-05,-12.587,1.4425
24548,15.335,4.2727,0.1,0.00019639,1962.5,0.00019617,1956.2,-6.4187e-05,-0.0044168,-6.5854e-05,-12.525,1.457
24549,15.243,4.3636,0.1,0.00019872,1985.9,0.00019851,1979.7,-6.4969e-05,-0.0037518,-6.6607e-05,-12.313,1.4428
24550,15.335,4.0909,0.1,0.00019632,1961.9,0.00019611,1955.7,-6.4175e-05,-0.0054776,-6.5814e-05,-12.323,1.4572
24551,15.243,4.1818,0.1,0.00019865,1985.1,0.00019844,1979.1,-6.4956e-05,-0.0048669,-6.6562e-05,-12.076,1.4431
24552,15.335,3.9091,0.1,0.00019626,1961.3,0.00019605,1955.2,-6.4165e-05,-0.0063993,-6.5781e-05,-12.153,1.4575
24553,15.243,4,0.1,0.00019859,1984.5,0.00019838,1978.5,-6.4945e-05,-0.0058533,-6.6524e-05,-11.875,1.4434
24554,15.335,3.7273,0.1,0.00019622,1960.8,0.00019601,1954.8,-6.4156e-05,-0.00717,-6.5754e-05,-12.016,1.4577
24555,15.243,3.8182,0.1,0.00019853,1984,0.00019833,1978.1,-6.4936e-05,-0.0066978,-6.6493e-05,-11.708,1.4436
24556,15.335,3.5455,0.1,0.00019618,1960.5,0.00019598,1954.5,-6.4149e-05,-0.0077803,-6.5734e-05,-11.91,1.4578
24557,15.243,3.6364,0.1,0.00019849,1983.5,0.00019829,1977.7,-6.4928e-05,-0.0073878,-6.6468e-05,-11.576,1.4438
24558,15.335,3.3636,0.1,0.00019615,1960.2,0.00019595,1954.2,-6.4145e-05,-0.0082221,-6.5719e-05,-11.835,1.4579
24559,15.243,3.4545,0.1,0.00019846,1983.2,0.00019826,1977.5,-6.4923e-05,-0.0079155,-6.6449e-05,-11.477,1.4439
24560,15.335,3.1818,0.1,0.00019614,1960,0.00019594,1954.1,-6.4142e-05,-0.0084894,-6.571e-05,-11.79,1.458
24561,15.243,3.2727,0.1,0.00019844,1983,0.00019824,1977.3,-6.4919e-05,-0.0082709,-6.6437e-05,-11.411,1.444
24562,15.335,3,0.1,0.00019613,1960,0.00019593,1954.1,-6.4141e-05,-0.0085787,-6.5707e-05,-11.775,1.458
24563,15.243,3.0909,0.1,0.00019843,1982.9,0.00019823,1977.2,-6.4917e-05,-0.0084498,-6.6431e-05,-11.379,1.4441
24564,15.335,2.8182,0.1,0.00019614,1960,0.00019594,1954.1,-6.4142e-05,-0.0084892,-6.571e-05,-11.79,1.458
24565,15.243,2.9091,0.1,0.00019843,1982.9,0.00019823,1977.2,-6.4917e-05,-0.0084498,-6.6431e-05,-11.379,1.4441
24566,15.335,2.6364,0.1,0.00019615,1960.2,0.00019595,1954.2,-6.4145e-05,-0.0082224,-6.5719e-05,-11.835,1.4579
24567,15.243,2.7273,0.1,0.00019844,1983,0.00019824,1977.3,-6.4919e-05,-0.0082713,-6.6437e-05,-11.411,1.444
24568,15.335,2.4545,0.1,0.00019618,1960.5,0.00019598,1954.5,-6.4149e-05,-0.0077803,-6.5734e-05,-11.91,1.4578
24569,15.243,2.5455,0.1,0.00019846,1983.2,0.00019826,1977.5,-6.4923e-05,-0.0079156,-6.6449e-05,-11.477,1.4439
24570,15.335,2.2727,0.1,0.00019622,1960.8,0.00019601,1954.8,-6.4156e-05,-0.00717,-6.5754e-05,-12.016,1.4577
24571,15.243,2.3636,0.1,0.00019849,1983.5,0.00019829,1977.7,-6.4928e-05,-0.0073878,-6.6468e-05,-11.576,1.4438
24572,15.335,2.0909,0.1,0.00019626,1961.3,0.00019605,1955.2,-6.4165e-05,-0.0063997,-6.5781e-05,-12.153,1.4575
24573,15.243,2.1818,0.1,0.00019853,1984,0.00019833,1978.1,-6.4936e-05,-0.0066981,-6.6493e-05,-11.708,1.4436
24574,15.335,1.9091,0.1,0.00019632,1961.9,0.00019611,1955.7,-6.4175e-05,-0.0054777,-6.5814e-05,-12.323,1.4572
24575,15.243,2,0.1,0.00019859,1984.5,0.00019838,1978.5,-6.4945e-05,-0.0058533,-6.6524e-05,-11.875,1.4434
24576,15.335,1.7273,0.1,0.00019639,1962.5,0.00019617,1956.2,-6.4187e-05,-0.0044167,-6.5854e-05,-12.525,1.457
24577,15.243,1.8182,0.1,0.00019865,1985.1,0.00019844,1979.1,-6.4956e-05,-0.0048668,-6.6562e-05,-12.076,1.4431
24578,15.335,1.5455,0.1,0.00019647,1963.3,0.00019625,1956.9,-6.4202e-05,-0.0032296,-6.59e-05,-12.761,1.4566
24579,15.243,1.6364,0.1,0.00019872,1985.9,0.00019851,1979.7,-6.4969e-05,-0.0037517,-6.6607e-05,-12.313,1.4428
24580,15.335,1.3636,0.1,0.00019656,1964.2,0.00019633,1957.7,-6.4218e-05,-0.0019329,-6.5952e-05,-13.033,1.4563
24581,15.243,1.4545,0.1,0.00019881,1986.7,0.00019859,1980.4,-6.4983e-05,-0.0025226,-6.6658e-05,-12.587,1.4425
24582,15.335,1.1818,0.1,0.00019666,1965.3,0.00019643,1958.5,-6.4236e-05,-0.00053467,-6.6012e-05,-13.341,1.4558
24583,15.243,1.2727,0.1,0.00019891,1987.7,0.00019869,1981.2,-6.5e-05,-0.0011987,-6.6716e-05,-12.898,1.4421
24584,15.335,1,0.1,0.00019677,1966.4,0.00019654,1959.5,-6.4256e-05,0.00092141,-6.6078e-05,-13.688,1.4554
24585,15.243,1.0909,0.1,0.00019902,1988.8,0.00019879,1982.1,-6.5018e-05,0.00022181,-6.6782e-05,-13.248,1.4416
24586,15.335,0.81818,0.1,0.0001969,1967.6,0.00019666,1960.6,-6.4278e-05,0.0025269,-6.6152e-05,-14.074,1.4549
24587,15.243,0.90909,0.1,0.00019914,1990,0.0001989,1983.2,-6.5039e-05,0.0016515,-6.6854e-05,-13.638,1.4412
24588,15.335,0.63636,0.1,0.00019704,1969,0.00019679,1961.7,-6.4303e-05,0.0038443,-6.6233e-05,-14.504,1.4544
24589,15.243,0.72727,0.1,0.00019927,1991.3,0.00019903,1984.3,-6.5061e-05,0.0033544,-6.6934e-05,-14.07,1.4406
24590,15.335,0.45455,0.1,0.0001972,1970.6,0.00019694,1963.1,-6.4329e-05,0.0071895,-6.633e-05,-15.031,1.4538
24591,15.243,0.54545,0.1,0.00019942,1992.8,0.00019917,1985.5,-6.5086e-05,0.0042116,-6.7023e-05,-14.55,1.4401
24592,15.335,0.27273,0.1,0.00019751,1973.7,0.00019722,1965.4,-6.4357e-05,0.0058129,-6.6557e-05,-16.521,1.4531
24593,15.243,0.36364,0.1,0.00019959,1994.6,0.00019933,1986.9,-6.5112e-05,0.009777,-6.7133e-05,-15.177,1.4395
24594,15.243,0.18182,0.1,0.00020006,1999.2,0.00019975,1990.3,-6.5142e-05,0.00034809,-6.7492e-05,-17.658,1.4388
24595,15.335,0.090909,0.1,0.00019689,1967.6,0.00019669,1961.6,-6.4385e-05,0.0037457,-6.5966e-05,-11.873,1.4525
24596,15.15,5.7273,0.1,0.00020212,2019.8,0.00020184,2011.7,-6.5896e-05,0.0056027,-6.8051e-05,-16.191,1.4252
24597,15.058,5.8182,0.1,0.00020468,2045.4,0.00020438,2036.6,-6.6682e-05,0.00044869,-6.899e-05,-17.34,1.4109
24598,15.15,5.9091,0.1,0.00020152,2013.8,0.00020132,2007.9,-6.5922e-05,0.0036253,-6.7475e-05,-11.666,1.4245
24599,15.15,5.5455,0.1,0.00020181,2016.7,0.00020156,2009.3,-6.5869e-05,0.0069027,-6.7821e-05,-14.663,1.4258
24600,15.058,5.6364,0.1,0.00020422,2040.8,0.00020396,2033.3,-6.6654e-05,0.009331,-6.863e-05,-14.834,1.4115
24601,15.15,5.3636,0.1,0.00020165,2015.1,0.0002014,2008,-6.5844e-05,0.0037417,-6.772e-05,-14.086,1.4264
24602,15.058,5.4545,0.1,0.00020404,2039,0.00020379,2031.9,-6.663e-05,0.0040849,-6.8515e-05,-14.157,1.4122
24603,15.15,5.1818,0.1,0.00020151,2013.7,0.00020127,2006.8,-6.5822e-05,0.0024902,-6.7633e-05,-13.605,1.4269
24604,15.058,5.2727,0.1,0.00020389,2037.5,0.00020365,2030.6,-6.6607e-05,0.0032736,-6.8421e-05,-13.624,1.4128
24605,15.15,5,0.1,0.00020138,2012.4,0.00020115,2005.8,-6.5801e-05,0.00095627,-6.7554e-05,-13.17,1.4275
24606,15.058,5.0909,0.1,0.00020375,2036.1,0.00020353,2029.5,-6.6586e-05,0.0016577,-6.8336e-05,-13.142,1.4133
24607,15.15,4.8182,0.1,0.00020126,2011.2,0.00020104,2004.8,-6.5782e-05,-0.00044472,-6.7483e-05,-12.776,1.4279
24608,15.058,4.9091,0.1,0.00020363,2034.9,0.00020341,2028.5,-6.6567e-05,0.0002863,-6.8258e-05,-12.703,1.4138
24609,15.15,4.6364,0.1,0.00020116,2010.2,0.00020094,2003.9,-6.5765e-05,-0.0017972,-6.7418e-05,-12.423,1.4283
24610,15.058,4.7273,0.1,0.00020352,2033.8,0.0002033,2027.6,-6.655e-05,-0.0010806,-6.8188e-05,-12.306,1.4142
24611,15.15,4.4545,0.1,0.00020106,2009.2,0.00020085,2003.2,-6.575e-05,-0.0030602,-6.7361e-05,-12.11,1.4287
24612,15.058,4.5455,0.1,0.00020342,2032.8,0.00020321,2026.8,-6.6535e-05,-0.0023659,-6.8125e-05,-11.951,1.4146
24613,15.15,4.2727,0.1,0.00020098,2008.4,0.00020078,2002.5,-6.5737e-05,-0.0042234,-6.7312e-05,-11.835,1.4291
24614,15.058,4.3636,0.1,0.00020333,2031.9,0.00020313,2026,-6.6521e-05,-0.0035656,-6.8069e-05,-11.637,1.415
24615,15.15,4.0909,0.1,0.00020091,2007.7,0.00020071,2001.9,-6.5725e-05,-0.00527,-6.7268e-05,-11.599,1.4293
24616,15.058,4.1818,0.1,0.00020325,2031.1,0.00020305,2025.4,-6.6509e-05,-0.0046626,-6.8021e-05,-11.363,1.4153
24617,15.15,3.9091,0.1,0.00020085,2007.1,0.00020065,2001.4,-6.5716e-05,-0.0061846,-6.7232e-05,-11.4,1.4296
24618,15.058,4,0.1,0.00020318,2030.4,0.00020299,2024.8,-6.6499e-05,-0.0056394,-6.798e-05,-11.13,1.4156
24619,15.15,3.7273,0.1,0.0002008,2006.6,0.00020061,2001,-6.5708e-05,-0.0069532,-6.7203e-05,-11.239,1.4298
24620,15.058,3.8182,0.1,0.00020313,2029.9,0.00020294,2024.4,-6.6491e-05,-0.0064801,-6.7945e-05,-10.936,1.4158
24621,15.15,3.5455,0.1,0.00020076,2006.3,0.00020057,2000.7,-6.5702e-05,-0.0075646,-6.718e-05,-11.113,1.4299
24622,15.058,3.6364,0.1,0.00020309,2029.4,0.0002029,2024,-6.6484e-05,-0.0071715,-6.7918e-05,-10.781,1.416
24623,15.15,3.3636,0.1,0.00020074,2006,0.00020055,2000.5,-6.5697e-05,-0.0080089,-6.7164e-05,-11.024,1.43
24624,15.058,3.4545,0.1,0.00020305,2029.1,0.00020287,2023.8,-6.6479e-05,-0.0077017,-6.7897e-05,-10.665,1.4161
24625,15.15,3.1818,0.1,0.00020072,2005.8,0.00020053,2000.3,-6.5695e-05,-0.0082777,-6.7154e-05,-10.971,1.4301
24626,15.058,3.2727,0.1,0.00020303,2028.9,0.00020285,2023.6,-6.6476e-05,-0.0080608,-6.7884e-05,-10.588,1.4162
24627,15.15,3,0.1,0.00020072,2005.8,0.00020053,2000.3,-6.5694e-05,-0.008368,-6.7151e-05,-10.953,1.4301
24628,15.058,3.0909,0.1,0.00020302,2028.8,0.00020284,2023.5,-6.6474e-05,-0.008241,-6.7877e-05,-10.55,1.4162
24629,15.15,2.8182,0.1,0.00020072,2005.8,0.00020053,2000.3,-6.5695e-05,-0.0082783,-6.7154e-05,-10.971,1.4301
24630,15.058,2.9091,0.1,0.00020302,2028.8,0.00020284,2023.5,-6.6474e-05,-0.0082415,-6.7877e-05,-10.55,1.4162
24631,15.15,2.6364,0.1,0.00020074,2006,0.00020055,2000.5,-6.5697e-05,-0.008009,-6.7164e-05,-11.024,1.43
24632,15.058,2.7273,0.1,0.00020303,2028.9,0.00020285,2023.6,-6.6476e-05,-0.0080608,-6.7884e-05,-10.588,1.4162
24633,15.15,2.4545,0.1,0.00020076,2006.3,0.00020057,2000.7,-6.5702e-05,-0.0075646,-6.718e-05,-11.113,1.4299
24634,15.058,2.5455,0.1,0.00020305,2029.1,0.00020287,2023.8,-6.6479e-05,-0.007702,-6.7897e-05,-10.665,1.4161
24635,15.15,2.2727,0.1,0.0002008,2006.6,0.00020061,2001,-6.5708e-05,-0.0069534,-6.7203e-05,-11.239,1.4298
24636,15.058,2.3636,0.1,0.00020309,2029.4,0.0002029,2024,-6.6484e-05,-0.0071715,-6.7918e-05,-10.781,1.416
24637,15.15,2.0909,0.1,0.00020085,2007.1,0.00020065,2001.4,-6.5716e-05,-0.0061844,-6.7232e-05,-11.4,1.4296
24638,15.058,2.1818,0.1,0.00020313,2029.9,0.00020294,2024.4,-6.6491e-05,-0.0064802,-6.7945e-05,-10.936,1.4158
24639,15.15,1.9091,0.1,0.00020091,2007.7,0.00020071,2001.9,-6.5725e-05,-0.0052696,-6.7268e-05,-11.599,1.4293
24640,15.058,2,0.1,0.00020318,2030.4,0.00020299,2024.8,-6.6499e-05,-0.0056391,-6.798e-05,-11.13,1.4156
24641,15.15,1.7273,0.1,0.00020098,2008.4,0.00020078,2002.5,-6.5737e-05,-0.0042232,-6.7312e-05,-11.835,1.4291
24642,15.058,1.8182,0.1,0.00020325,2031.1,0.00020305,2025.4,-6.6509e-05,-0.0046623,-6.8021e-05,-11.363,1.4153
24643,15.15,1.5455,0.1,0.00020106,2009.2,0.00020085,2003.2,-6.575e-05,-0.00306,-6.7361e-05,-12.11,1.4287
24644,15.058,1.6364,0.1,0.00020333,2031.9,0.00020313,2026,-6.6521e-05,-0.0035658,-6.8069e-05,-11.637,1.415
24645,15.15,1.3636,0.1,0.00020116,2010.2,0.00020094,2003.9,-6.5765e-05,-0.0017976,-6.7418e-05,-12.423,1.4283
24646,15.058,1.4545,0.1,0.00020342,2032.8,0.00020321,2026.8,-6.6535e-05,-0.0023662,-6.8125e-05,-11.951,1.4146
24647,15.15,1.1818,0.1,0.00020126,2011.2,0.00020104,2004.8,-6.5782e-05,-0.00044518,-6.7483e-05,-12.776,1.4279
24648,15.058,1.2727,0.1,0.00020352,2033.8,0.0002033,2027.6,-6.655e-05,-0.0010817,-6.8188e-05,-12.306,1.4142
24649,15.15,1,0.1,0.00020138,2012.4,0.00020115,2005.8,-6.5801e-05,0.00095502,-6.7554e-05,-13.17,1.4275
24650,15.058,1.0909,0.1,0.00020363,2034.9,0.00020341,2028.5,-6.6567e-05,0.00028558,-6.8258e-05,-12.703,1.4138
24651,15.15,0.81818,0.1,0.00020151,2013.7,0.00020127,2006.8,-6.5822e-05,0.0024884,-6.7633e-05,-13.605,1.4269
24652,15.058,0.90909,0.1,0.00020375,2036.1,0.00020353,2029.5,-6.6586e-05,0.0016556,-6.8336e-05,-13.142,1.4133
24653,15.15,0.63636,0.1,0.00020165,2015.1,0.0002014,2008,-6.5844e-05,0.0037417,-6.772e-05,-14.086,1.4264
24654,15.058,0.72727,0.1,0.00020389,2037.5,0.00020365,2030.6,-6.6607e-05,0.0032719,-6.8421e-05,-13.624,1.4128
24655,15.15,0.45455,0.1,0.00020181,2016.7,0.00020156,2009.3,-6.5869e-05,0.0069036,-6.7821e-05,-14.663,1.4258
24656,15.058,0.54545,0.1,0.00020404,2039,0.00020379,2031.9,-6.663e-05,0.0040853,-6.8515e-05,-14.157,1.4122
24657,15.15,0.27273,0.1,0.00020212,2019.8,0.00020184,2011.7,-6.5896e-05,0.0056033,-6.8051e-05,-16.191,1.4252
24658,15.058,0.36364,0.1,0.00020422,2040.8,0.00020396,2033.3,-6.6654e-05,0.0093312,-6.863e-05,-14.834,1.4115
24659,15.058,0.18182,0.1,0.00020468,2045.4,0.00020438,2036.6,-6.6682e-05,0.00044868,-6.899e-05,-17.34,1.4109
24660,15.15,0.090909,0.1,0.00020152,2013.8,0.00020132,2007.9,-6.5922e-05,0.0036239,-6.7475e-05,-11.666,1.4245
24661,14.966,5.7273,0.1,0.00020675,2066.1,0.00020648,2058.1,-6.7441e-05,0.0053963,-6.9553e-05,-15.861,1.3973
24662,14.874,5.8182,0.1,0.00020932,2091.7,0.00020902,2083.2,-6.823e-05,0.0005555,-7.0496e-05,-17.023,1.3831
24663,14.966,5.9091,0.1,0.00020616,2060.2,0.00020597,2054.5,-6.7466e-05,0.0035043,-6.8991e-05,-11.461,1.3966
24664,14.966,5.5455,0.1,0.00020644,2063,0.00020619,2055.8,-6.7416e-05,0.0066149,-6.9319e-05,-14.295,1.398
24665,14.874,5.6364,0.1,0.00020886,2087.2,0.00020861,2079.9,-6.8204e-05,0.0088781,-7.0133e-05,-14.49,1.3838
24666,14.966,5.3636,0.1,0.00020628,2061.3,0.00020604,2054.5,-6.7393e-05,0.0036388,-6.9212e-05,-13.665,1.3986
24667,14.874,5.4545,0.1,0.00020868,2085.3,0.00020844,2078.4,-6.8181e-05,0.0039562,-7.0013e-05,-13.76,1.3844
24668,14.966,5.1818,0.1,0.00020613,2059.9,0.00020591,2053.3,-6.7372e-05,0.0024532,-6.912e-05,-13.132,1.3991
24669,14.874,5.2727,0.1,0.00020853,2083.8,0.0002083,2077.2,-6.816e-05,0.0031898,-6.9914e-05,-13.174,1.385
24670,14.966,5,0.1,0.000206,2058.6,0.00020578,2052.2,-6.7352e-05,0.00099404,-6.9036e-05,-12.646,1.3997
24671,14.874,5.0909,0.1,0.00020839,2082.4,0.00020817,2076.1,-6.814e-05,0.0016605,-6.9823e-05,-12.639,1.3856
24672,14.966,4.8182,0.1,0.00020588,2057.4,0.00020567,2051.3,-6.7335e-05,-0.00034914,-6.8959e-05,-12.204,1.4001
24673,14.874,4.9091,0.1,0.00020826,2081.2,0.00020805,2075.1,-6.8123e-05,0.00035235,-6.974e-05,-12.149,1.3861
24674,14.966,4.6364,0.1,0.00020577,2056.3,0.00020557,2050.4,-6.7319e-05,-0.001655,-6.889e-05,-11.805,1.4006
24675,14.874,4.7273,0.1,0.00020814,2080,0.00020794,2074.1,-6.8107e-05,-0.00096054,-6.9665e-05,-11.704,1.3865
24676,14.966,4.4545,0.1,0.00020568,2055.3,0.00020548,2049.6,-6.7306e-05,-0.0028833,-6.8829e-05,-11.449,1.4009
24677,14.874,4.5455,0.1,0.00020804,2079,0.00020785,2073.3,-6.8093e-05,-0.0022038,-6.9597e-05,-11.304,1.3869
24678,14.966,4.2727,0.1,0.00020559,2054.5,0.0002054,2048.9,-6.7293e-05,-0.0040233,-6.8775e-05,-11.136,1.4013
24679,14.874,4.3636,0.1,0.00020795,2078.1,0.00020776,2072.6,-6.808e-05,-0.0033748,-6.9537e-05,-10.949,1.3873
24680,14.966,4.0909,0.1,0.00020552,2053.8,0.00020533,2048.3,-6.7283e-05,-0.0050568,-6.8728e-05,-10.865,1.4016
24681,14.874,4.1818,0.1,0.00020787,2077.3,0.00020769,2071.9,-6.807e-05,-0.0044535,-6.9485e-05,-10.638,1.3876
24682,14.966,3.9091,0.1,0.00020546,2053.2,0.00020527,2047.8,-6.7274e-05,-0.0059658,-6.8689e-05,-10.636,1.4018
24683,14.874,4,0.1,0.0002078,2076.6,0.00020762,2071.4,-6.806e-05,-0.0054218,-6.944e-05,-10.371,1.3879
24684,14.966,3.7273,0.1,0.00020541,2052.7,0.00020523,2047.4,-6.7267e-05,-0.0067348,-6.8657e-05,-10.45,1.402
24685,14.874,3.8182,0.1,0.00020774,2076,0.00020757,2070.9,-6.8053e-05,-0.006261,-6.9403e-05,-10.149,1.3881
24686,14.966,3.5455,0.1,0.00020537,2052.3,0.00020519,2047.1,-6.7261e-05,-0.0073496,-6.8632e-05,-10.305,1.4022
24687,14.874,3.6364,0.1,0.0002077,2075.6,0.00020753,2070.5,-6.8047e-05,-0.0069562,-6.9373e-05,-9.9721,1.3883
24688,14.966,3.3636,0.1,0.00020534,2052,0.00020516,2046.9,-6.7257e-05,-0.0077982,-6.8614e-05,-10.201,1.4023
24689,14.874,3.4545,0.1,0.00020766,2075.2,0.0002075,2070.3,-6.8042e-05,-0.0074915,-6.935e-05,-9.839,1.3884
24690,14.966,3.1818,0.1,0.00020532,2051.8,0.00020515,2046.7,-6.7255e-05,-0.0080709,-6.8603e-05,-10.139,1.4024
24691,14.874,3.2727,0.1,0.00020764,2075,0.00020747,2070.1,-6.8039e-05,-0.0078556,-6.9336e-05,-9.7503,1.3885
24692,14.966,3,0.1,0.00020532,2051.8,0.00020514,2046.7,-6.7254e-05,-0.0081621,-6.8599e-05,-10.118,1.4024
24693,14.874,3.0909,0.1,0.00020763,2074.9,0.00020746,2070,-6.8037e-05,-0.008039,-6.9328e-05,-9.706,1.3886
24694,14.966,2.8182,0.1,0.00020532,2051.8,0.00020515,2046.7,-6.7255e-05,-0.0080708,-6.8603e-05,-10.139,1.4024
24695,14.874,2.9091,0.1,0.00020763,2074.9,0.00020746,2070,-6.8037e-05,-0.008039,-6.9328e-05,-9.706,1.3886
24696,14.966,2.6364,0.1,0.00020534,2052,0.00020516,2046.9,-6.7257e-05,-0.0077984,-6.8614e-05,-10.201,1.4023
24697,14.874,2.7273,0.1,0.00020764,2075,0.00020747,2070.1,-6.8039e-05,-0.0078556,-6.9336e-05,-9.7503,1.3885
24698,14.966,2.4545,0.1,0.00020537,2052.3,0.00020519,2047.1,-6.7261e-05,-0.0073499,-6.8632e-05,-10.305,1.4022
24699,14.874,2.5455,0.1,0.00020766,2075.2,0.0002075,2070.3,-6.8042e-05,-0.0074922,-6.935e-05,-9.839,1.3884
24700,14.966,2.2727,0.1,0.00020541,2052.7,0.00020523,2047.4,-6.7267e-05,-0.0067346,-6.8657e-05,-10.45,1.402
24701,14.874,2.3636,0.1,0.0002077,2075.6,0.00020753,2070.5,-6.8047e-05,-0.006956,-6.9373e-05,-9.972,1.3883
24702,14.966,2.0909,0.1,0.00020546,2053.2,0.00020527,2047.8,-6.7274e-05,-0.0059658,-6.8689e-05,-10.636,1.4018
24703,14.874,2.1818,0.1,0.00020774,2076,0.00020757,2070.9,-6.8053e-05,-0.0062615,-6.9403e-05,-10.149,1.3881
24704,14.966,1.9091,0.1,0.00020552,2053.8,0.00020533,2048.3,-6.7283e-05,-0.0050566,-6.8728e-05,-10.865,1.4016
24705,14.874,2,0.1,0.0002078,2076.6,0.00020762,2071.4,-6.806e-05,-0.005422,-6.944e-05,-10.371,1.3879
24706,14.966,1.7273,0.1,0.00020559,2054.5,0.0002054,2048.9,-6.7293e-05,-0.0040234,-6.8775e-05,-11.136,1.4013
24707,14.874,1.8182,0.1,0.00020787,2077.3,0.00020769,2071.9,-6.807e-05,-0.0044538,-6.9485e-05,-10.638,1.3876
24708,14.966,1.5455,0.1,0.00020568,2055.3,0.00020548,2049.6,-6.7306e-05,-0.002884,-6.8829e-05,-11.449,1.4009
24709,14.874,1.6364,0.1,0.00020795,2078.1,0.00020776,2072.6,-6.808e-05,-0.0033752,-6.9537e-05,-10.949,1.3873
24710,14.966,1.3636,0.1,0.00020577,2056.3,0.00020557,2050.4,-6.7319e-05,-0.001656,-6.889e-05,-11.805,1.4006
24711,14.874,1.4545,0.1,0.00020804,2079,0.00020785,2073.3,-6.8093e-05,-0.0022048,-6.9597e-05,-11.304,1.3869
24712,14.966,1.1818,0.1,0.00020588,2057.4,0.00020567,2051.3,-6.7335e-05,-0.00035041,-6.8959e-05,-12.204,1.4001
24713,14.874,1.2727,0.1,0.00020814,2080,0.00020794,2074.1,-6.8107e-05,-0.00096125,-6.9665e-05,-11.704,1.3865
24714,14.966,1,0.1,0.000206,2058.6,0.00020578,2052.2,-6.7353e-05,0.00099248,-6.9036e-05,-12.646,1.3997
24715,14.874,1.0909,0.1,0.00020826,2081.2,0.00020805,2075.1,-6.8123e-05,0.00035192,-6.974e-05,-12.149,1.3861
24716,14.966,0.81818,0.1,0.00020613,2059.9,0.00020591,2053.3,-6.7372e-05,0.0024513,-6.912e-05,-13.132,1.3991
24717,14.874,0.90909,0.1,0.00020839,2082.4,0.00020817,2076.1,-6.814e-05,0.0016597,-6.9823e-05,-12.639,1.3856
24718,14.966,0.63636,0.1,0.00020628,2061.3,0.00020604,2054.5,-6.7393e-05,0.0036376,-6.9212e-05,-13.665,1.3986
24719,14.874,0.72727,0.1,0.00020853,2083.8,0.0002083,2077.2,-6.816e-05,0.0031873,-6.9914e-05,-13.173,1.385
24720,14.966,0.45455,0.1,0.00020644,2063,0.00020619,2055.8,-6.7416e-05,0.0066146,-6.9319e-05,-14.295,1.398
24721,14.874,0.54545,0.1,0.00020868,2085.3,0.00020844,2078.4,-6.8181e-05,0.0039556,-7.0013e-05,-13.759,1.3844
24722,14.966,0.27273,0.1,0.00020675,2066.1,0.00020648,2058.1,-6.7441e-05,0.0053956,-6.9553e-05,-15.861,1.3973
24723,14.874,0.36364,0.1,0.00020886,2087.2,0.00020861,2079.9,-6.8204e-05,0.0088781,-7.0133e-05,-14.49,1.3838
24724,14.874,0.18182,0.1,0.00020932,2091.7,0.00020902,2083.2,-6.823e-05,0.0005547,-7.0496e-05,-17.023,1.3831
24725,14.966,0.090909,0.1,0.00020616,2060.2,0.00020597,2054.5,-6.7466e-05,0.0035053,-6.8991e-05,-11.461,1.3966
24726,14.782,5.7273,0.1,0.00021141,2112.6,0.00021114,2104.8,-6.8993e-05,0.0051837,-7.106e-05,-15.531,1.3696
24727,14.69,5.8182,0.1,0.00021398,2138.3,0.00021369,2129.9,-6.9784e-05,0.00067197,-7.2008e-05,-16.706,1.3554
24728,14.782,5.9091,0.1,0.00021083,2106.9,0.00021064,2101.2,-6.9016e-05,0.0033796,-7.0514e-05,-11.256,1.3689
24729,14.782,5.5455,0.1,0.00021109,2109.5,0.00021085,2102.5,-6.8969e-05,0.0063181,-7.0823e-05,-13.923,1.3703
24730,14.69,5.6364,0.1,0.00021352,2133.8,0.00021328,2126.6,-6.976e-05,0.0084185,-7.1643e-05,-14.143,1.3561
24731,14.782,5.3636,0.1,0.00021092,2107.8,0.0002107,2101.1,-6.8948e-05,0.0035311,-7.0711e-05,-13.239,1.3709
24732,14.69,5.4545,0.1,0.00021334,2131.9,0.00021311,2125.2,-6.9739e-05,0.0038291,-7.1517e-05,-13.357,1.3568
24733,14.782,5.1818,0.1,0.00021078,2106.3,0.00021056,2100,-6.8929e-05,0.002412,-7.0613e-05,-12.652,1.3715
24734,14.69,5.2727,0.1,0.00021318,2130.4,0.00021296,2124,-6.9719e-05,0.0031077,-7.1412e-05,-12.716,1.3574
24735,14.782,5,0.1,0.00021064,2105,0.00021043,2098.9,-6.8911e-05,0.0010284,-7.0523e-05,-12.114,1.372
24736,14.69,5.0909,0.1,0.00021304,2128.9,0.00021283,2122.8,-6.9702e-05,0.0016682,-7.1316e-05,-12.126,1.358
24737,14.782,4.8182,0.1,0.00021052,2103.7,0.00021032,2097.9,-6.8895e-05,-0.00025494,-7.0442e-05,-11.621,1.3725
24738,14.69,4.9091,0.1,0.00021291,2127.6,0.00021271,2121.8,-6.9686e-05,0.00042579,-7.1227e-05,-11.584,1.3585
24739,14.782,4.6364,0.1,0.00021041,2102.6,0.00021022,2097,-6.8881e-05,-0.0015112,-7.0368e-05,-11.175,1.3729
24740,14.69,4.7273,0.1,0.00021279,2126.4,0.0002126,2120.9,-6.9671e-05,-0.0008297,-7.1147e-05,-11.09,1.3589
24741,14.782,4.4545,0.1,0.00021031,2101.6,0.00021012,2096.2,-6.8868e-05,-0.0027035,-7.0302e-05,-10.775,1.3733
24742,14.69,4.5455,0.1,0.00021268,2125.4,0.0002125,2120,-6.9658e-05,-0.0020303,-7.1074e-05,-10.643,1.3594
24743,14.782,4.2727,0.1,0.00021022,2100.8,0.00021004,2095.5,-6.8857e-05,-0.0038199,-7.0243e-05,-10.422,1.3737
24744,14.69,4.3636,0.1,0.00021259,2124.4,0.00021241,2119.3,-6.9647e-05,-0.0031711,-7.101e-05,-10.245,1.3597
24745,14.782,4.0909,0.1,0.00021015,2100,0.00020997,2094.9,-6.8847e-05,-0.0048403,-7.0193e-05,-10.116,1.374
24746,14.69,4.1818,0.1,0.00021251,2123.6,0.00021234,2118.6,-6.9637e-05,-0.004232,-7.0953e-05,-9.8955,1.3601
24747,14.782,3.9091,0.1,0.00021008,2099.4,0.00020991,2094.4,-6.8839e-05,-0.0057457,-7.015e-05,-9.8564,1.3742
24748,14.69,4,0.1,0.00021244,2122.9,0.00021227,2118.1,-6.9629e-05,-0.0051935,-7.0905e-05,-9.5952,1.3603
24749,14.782,3.7273,0.1,0.00021003,2098.9,0.00020987,2094,-6.8832e-05,-0.0065174,-7.0115e-05,-9.644,1.3744
24750,14.69,3.8182,0.1,0.00021238,2122.3,0.00021222,2117.6,-6.9622e-05,-0.0060336,-7.0865e-05,-9.3445,1.3606
24751,14.782,3.5455,0.1,0.00020999,2098.5,0.00020983,2093.7,-6.8827e-05,-0.0071385,-7.0088e-05,-9.4786,1.3746
24752,14.69,3.6364,0.1,0.00021233,2121.8,0.00021217,2117.2,-6.9616e-05,-0.0067349,-7.0832e-05,-9.1436,1.3608
24753,14.782,3.3636,0.1,0.00020996,2098.2,0.0002098,2093.5,-6.8824e-05,-0.0075937,-7.0069e-05,-9.3604,1.3747
24754,14.69,3.4545,0.1,0.0002123,2121.5,0.00021214,2117,-6.9612e-05,-0.0072793,-7.0808e-05,-8.9927,1.3609
24755,14.782,3.1818,0.1,0.00020994,2098,0.00020978,2093.3,-6.8822e-05,-0.0078711,-7.0057e-05,-9.2895,1.3748
24756,14.69,3.2727,0.1,0.00021227,2121.3,0.00021212,2116.8,-6.9609e-05,-0.0076501,-7.0792e-05,-8.892,1.361
24757,14.782,3,0.1,0.00020994,2097.9,0.00020978,2093.3,-6.8821e-05,-0.0079642,-7.0053e-05,-9.2658,1.3748
24758,14.69,3.0909,0.1,0.00021226,2121.1,0.00021211,2116.7,-6.9608e-05,-0.0078382,-7.0784e-05,-8.8417,1.361
24759,14.782,2.8182,0.1,0.00020994,2098,0.00020978,2093.3,-6.8822e-05,-0.0078711,-7.0057e-05,-9.2895,1.3748
24760,14.69,2.9091,0.1,0.00021226,2121.1,0.00021211,2116.7,-6.9608e-05,-0.0078378,-7.0784e-05,-8.8417,1.361
24761,14.782,2.6364,0.1,0.00020996,2098.2,0.0002098,2093.5,-6.8824e-05,-0.0075941,-7.0069e-05,-9.3604,1.3747
24762,14.69,2.7273,0.1,0.00021227,2121.3,0.00021212,2116.8,-6.9609e-05,-0.0076498,-7.0792e-05,-8.892,1.361
24763,14.782,2.4545,0.1,0.00020999,2098.5,0.00020983,2093.7,-6.8827e-05,-0.0071388,-7.0088e-05,-9.4786,1.3746
24764,14.69,2.5455,0.1,0.0002123,2121.5,0.00021214,2117,-6.9612e-05,-0.0072793,-7.0808e-05,-8.9927,1.3609
24765,14.782,2.2727,0.1,0.00021003,2098.9,0.00020987,2094,-6.8832e-05,-0.0065178,-7.0115e-05,-9.6439,1.3744
24766,14.69,2.3636,0.1,0.00021233,2121.8,0.00021217,2117.3,-6.9616e-05,-0.006735,-7.0832e-05,-9.1436,1.3608
24767,14.782,2.0909,0.1,0.00021008,2099.4,0.00020991,2094.4,-6.8839e-05,-0.0057464,-7.015e-05,-9.8564,1.3742
24768,14.69,2.1818,0.1,0.00021238,2122.3,0.00021222,2117.6,-6.9622e-05,-0.0060343,-7.0865e-05,-9.3445,1.3606
24769,14.782,1.9091,0.1,0.00021015,2100,0.00020997,2094.9,-6.8847e-05,-0.0048411,-7.0193e-05,-10.116,1.374
24770,14.69,2,0.1,0.00021244,2122.9,0.00021227,2118.1,-6.9629e-05,-0.0051937,-7.0905e-05,-9.5952,1.3603
24771,14.782,1.7273,0.1,0.00021022,2100.8,0.00021004,2095.5,-6.8857e-05,-0.0038206,-7.0243e-05,-10.422,1.3737
24772,14.69,1.8182,0.1,0.00021251,2123.6,0.00021234,2118.6,-6.9637e-05,-0.0042324,-7.0953e-05,-9.8954,1.3601
24773,14.782,1.5455,0.1,0.00021031,2101.6,0.00021012,2096.2,-6.8868e-05,-0.0027042,-7.0302e-05,-10.775,1.3733
24774,14.69,1.6364,0.1,0.00021259,2124.4,0.00021241,2119.3,-6.9647e-05,-0.0031715,-7.101e-05,-10.245,1.3597
24775,14.782,1.3636,0.1,0.00021041,2102.6,0.00021022,2097,-6.8881e-05,-0.001512,-7.0368e-05,-11.175,1.3729
24776,14.69,1.4545,0.1,0.00021268,2125.4,0.0002125,2120,-6.9658e-05,-0.0020307,-7.1074e-05,-10.643,1.3594
24777,14.782,1.1818,0.1,0.00021052,2103.7,0.00021032,2097.9,-6.8895e-05,-0.00025481,-7.0442e-05,-11.621,1.3725
24778,14.69,1.2727,0.1,0.00021279,2126.4,0.0002126,2120.9,-6.9671e-05,-0.00083023,-7.1147e-05,-11.09,1.3589
24779,14.782,1,0.1,0.00021064,2105,0.00021043,2098.9,-6.8911e-05,0.0010288,-7.0523e-05,-12.113,1.372
24780,14.69,1.0909,0.1,0.00021291,2127.6,0.00021271,2121.8,-6.9686e-05,0.00042594,-7.1227e-05,-11.584,1.3585
24781,14.782,0.81818,0.1,0.00021078,2106.3,0.00021056,2100,-6.8929e-05,0.0024107,-7.0613e-05,-12.652,1.3715
24782,14.69,0.90909,0.1,0.00021304,2128.9,0.00021283,2122.8,-6.9702e-05,0.0016672,-7.1316e-05,-12.126,1.358
24783,14.782,0.63636,0.1,0.00021092,2107.8,0.0002107,2101.1,-6.8948e-05,0.0035293,-7.0711e-05,-13.239,1.3709
24784,14.69,0.72727,0.1,0.00021318,2130.4,0.00021296,2124,-6.9719e-05,0.0031053,-7.1412e-05,-12.716,1.3574
24785,14.782,0.45455,0.1,0.00021109,2109.5,0.00021085,2102.5,-6.8969e-05,0.0063179,-7.0823e-05,-13.923,1.3703
24786,14.69,0.54545,0.1,0.00021334,2131.9,0.00021311,2125.2,-6.9739e-05,0.003829,-7.1517e-05,-13.357,1.3568
24787,14.782,0.27273,0.1,0.00021141,2112.6,0.00021114,2104.8,-6.8993e-05,0.0051835,-7.106e-05,-15.531,1.3696
24788,14.69,0.36364,0.1,0.00021352,2133.8,0.00021328,2126.6,-6.976e-05,0.0084192,-7.1643e-05,-14.143,1.3561
24789,14.69,0.18182,0.1,0.00021398,2138.3,0.00021369,2129.9,-6.9784e-05,0.00067131,-7.2008e-05,-16.706,1.3554
24790,14.782,0.090909,0.1,0.00021083,2106.9,0.00021064,2101.2,-6.9016e-05,0.0033792,-7.0514e-05,-11.256,1.3689
24791,14.597,5.7273,0.1,0.00021608,2159.3,0.00021582,2151.7,-7.0551e-05,0.0049791,-7.2575e-05,-15.199,1.342
24792,14.505,5.8182,0.1,0.00021866,2185.1,0.00021838,2176.9,-7.1345e-05,0.00079784,-7.3527e-05,-16.388,1.3279
24793,14.597,5.9091,0.1,0.00021552,2153.7,0.00021533,2148.2,-7.0573e-05,0.0032616,-7.2044e-05,-11.052,1.3413
24794,14.597,5.5455,0.1,0.00021576,2156.2,0.00021553,2149.4,-7.053e-05,0.006025,-7.2333e-05,-13.546,1.3427
24795,14.505,5.6364,0.1,0.00021821,2180.6,0.00021797,2173.6,-7.1323e-05,0.0079492,-7.316e-05,-13.793,1.3287
24796,14.597,5.3636,0.1,0.00021559,2154.4,0.00021537,2148,-7.051e-05,0.0034314,-7.2215e-05,-12.806,1.3433
24797,14.505,5.4545,0.1,0.00021802,2178.7,0.0002178,2172.2,-7.1304e-05,0.0037001,-7.3028e-05,-12.949,1.3293
24798,14.597,5.1818,0.1,0.00021544,2152.9,0.00021523,2146.8,-7.0492e-05,0.0023816,-7.2111e-05,-12.162,1.3439
24799,14.505,5.2727,0.1,0.00021786,2177.1,0.00021765,2170.9,-7.1286e-05,0.0030264,-7.2916e-05,-12.248,1.3299
24800,14.597,5,0.1,0.0002153,2151.6,0.0002151,2145.7,-7.0476e-05,0.0010786,-7.2016e-05,-11.569,1.3445
24801,14.505,5.0909,0.1,0.00021771,2175.6,0.00021751,2169.8,-7.127e-05,0.0016802,-7.2814e-05,-11.602,1.3305
24802,14.597,4.8182,0.1,0.00021518,2150.3,0.00021499,2144.8,-7.0462e-05,-0.00014097,-7.1929e-05,-11.025,1.345
24803,14.505,4.9091,0.1,0.00021758,2174.3,0.00021739,2168.8,-7.1255e-05,0.00050848,-7.272e-05,-11.006,1.331
24804,14.597,4.6364,0.1,0.00021506,2149.1,0.00021488,2143.9,-7.0449e-05,-0.0013464,-7.185e-05,-10.53,1.3454
24805,14.505,4.7273,0.1,0.00021746,2173.1,0.00021728,2167.8,-7.1242e-05,-0.00068706,-7.2634e-05,-10.459,1.3315
24806,14.597,4.4545,0.1,0.00021496,2148.1,0.00021479,2143.1,-7.0437e-05,-0.0025019,-7.1779e-05,-10.085,1.3458
24807,14.505,4.5455,0.1,0.00021735,2172,0.00021718,2167,-7.1231e-05,-0.0018418,-7.2556e-05,-9.9641,1.3319
24808,14.597,4.2727,0.1,0.00021487,2147.2,0.0002147,2142.4,-7.0427e-05,-0.0035942,-7.1716e-05,-9.6904,1.3462
24809,14.505,4.3636,0.1,0.00021725,2171,0.00021709,2166.2,-7.122e-05,-0.0029508,-7.2487e-05,-9.5213,1.3323
24810,14.597,4.0909,0.1,0.00021479,2146.4,0.00021463,2141.8,-7.0419e-05,-0.0046035,-7.1662e-05,-9.3471,1.3465
24811,14.505,4.1818,0.1,0.00021716,2170.1,0.00021701,2165.6,-7.1212e-05,-0.0039939,-7.2427e-05,-9.1318,1.3327
24812,14.597,3.9091,0.1,0.00021473,2145.8,0.00021457,2141.2,-7.0411e-05,-0.0055074,-7.1616e-05,-9.0557,1.3467
24813,14.505,4,0.1,0.00021709,2169.4,0.00021694,2165,-7.1204e-05,-0.0049506,-7.2374e-05,-8.7964,1.3329
24814,14.597,3.7273,0.1,0.00021467,2145.2,0.00021452,2140.8,-7.0405e-05,-0.0062845,-7.1578e-05,-8.8166,1.347
24815,14.505,3.8182,0.1,0.00021703,2168.8,0.00021688,2164.5,-7.1198e-05,-0.0057951,-7.2331e-05,-8.5157,1.3332
24816,14.597,3.5455,0.1,0.00021463,2144.8,0.00021448,2140.5,-7.0401e-05,-0.0069156,-7.1549e-05,-8.6302,1.3471
24817,14.505,3.6364,0.1,0.00021698,2168.3,0.00021684,2164.2,-7.1193e-05,-0.0065066,-7.2296e-05,-8.2904,1.3334
24818,14.597,3.3636,0.1,0.0002146,2144.5,0.00021446,2140.3,-7.0398e-05,-0.0073808,-7.1528e-05,-8.4969,1.3472
24819,14.505,3.4545,0.1,0.00021694,2167.9,0.0002168,2163.9,-7.119e-05,-0.0070632,-7.2269e-05,-8.121,1.3335
24820,14.597,3.1818,0.1,0.00021458,2144.4,0.00021444,2140.1,-7.0396e-05,-0.0076655,-7.1515e-05,-8.4167,1.3473
24821,14.505,3.2727,0.1,0.00021692,2167.7,0.00021678,2163.7,-7.1187e-05,-0.0074451,-7.2252e-05,-8.0078,1.3336
24822,14.597,3,0.1,0.00021458,2144.3,0.00021443,2140.1,-7.0395e-05,-0.0077614,-7.1511e-05,-8.39,1.3473
24823,14.505,3.0909,0.1,0.00021691,2167.6,0.00021677,2163.6,-7.1186e-05,-0.0076394,-7.2243e-05,-7.9511,1.3337
24824,14.597,2.8182,0.1,0.00021458,2144.4,0.00021444,2140.1,-7.0396e-05,-0.0076649,-7.1515e-05,-8.4167,1.3473
24825,14.505,2.9091,0.1,0.00021691,2167.6,0.00021677,2163.6,-7.1186e-05,-0.0076392,-7.2243e-05,-7.9511,1.3337
24826,14.597,2.6364,0.1,0.0002146,2144.5,0.00021446,2140.3,-7.0398e-05,-0.0073801,-7.1528e-05,-8.4969,1.3472
24827,14.505,2.7273,0.1,0.00021692,2167.7,0.00021678,2163.7,-7.1187e-05,-0.0074444,-7.2252e-05,-8.0078,1.3336
24828,14.597,2.4545,0.1,0.00021463,2144.8,0.00021448,2140.5,-7.0401e-05,-0.0069154,-7.1549e-05,-8.6302,1.3471
24829,14.505,2.5455,0.1,0.00021694,2167.9,0.0002168,2163.9,-7.119e-05,-0.0070631,-7.2269e-05,-8.1209,1.3335
24830,14.597,2.2727,0.1,0.00021467,2145.2,0.00021452,2140.8,-7.0405e-05,-0.0062848,-7.1578e-05,-8.8166,1.347
24831,14.505,2.3636,0.1,0.00021698,2168.3,0.00021684,2164.2,-7.1193e-05,-0.0065065,-7.2296e-05,-8.2903,1.3334
24832,14.597,2.0909,0.1,0.00021473,2145.8,0.00021457,2141.2,-7.0411e-05,-0.0055077,-7.1616e-05,-9.0557,1.3467
24833,14.505,2.1818,0.1,0.00021703,2168.8,0.00021688,2164.5,-7.1198e-05,-0.0057953,-7.2331e-05,-8.5156,1.3332
24834,14.597,1.9091,0.1,0.00021479,2146.4,0.00021463,2141.8,-7.0419e-05,-0.0046034,-7.1662e-05,-9.3471,1.3465
24835,14.505,2,0.1,0.00021709,2169.4,0.00021694,2165,-7.1204e-05,-0.0049508,-7.2374e-05,-8.7963,1.3329
24836,14.597,1.7273,0.1,0.00021487,2147.2,0.0002147,2142.4,-7.0427e-05,-0.0035942,-7.1716e-05,-9.6903,1.3462
24837,14.505,1.8182,0.1,0.00021716,2170.1,0.00021701,2165.6,-7.1212e-05,-0.0039944,-7.2427e-05,-9.1318,1.3327
24838,14.597,1.5455,0.1,0.00021496,2148.1,0.00021479,2143.1,-7.0437e-05,-0.0025019,-7.1779e-05,-10.085,1.3458
24839,14.505,1.6364,0.1,0.00021725,2171,0.00021709,2166.2,-7.122e-05,-0.0029508,-7.2487e-05,-9.5213,1.3323
24840,14.597,1.3636,0.1,0.00021506,2149.1,0.00021488,2143.9,-7.0449e-05,-0.0013466,-7.185e-05,-10.53,1.3454
24841,14.505,1.4545,0.1,0.00021735,2172,0.00021718,2167,-7.1231e-05,-0.0018422,-7.2556e-05,-9.964,1.3319
24842,14.597,1.1818,0.1,0.00021518,2150.3,0.00021499,2144.8,-7.0462e-05,-0.00014148,-7.1929e-05,-11.025,1.345
24843,14.505,1.2727,0.1,0.00021746,2173.1,0.00021728,2167.8,-7.1242e-05,-0.00068735,-7.2634e-05,-10.459,1.3315
24844,14.597,1,0.1,0.0002153,2151.6,0.0002151,2145.7,-7.0476e-05,0.0010774,-7.2016e-05,-11.569,1.3445
24845,14.505,1.0909,0.1,0.00021758,2174.3,0.00021739,2168.8,-7.1255e-05,0.00050775,-7.272e-05,-11.006,1.331
24846,14.597,0.81818,0.1,0.00021544,2152.9,0.00021523,2146.8,-7.0492e-05,0.0023795,-7.2111e-05,-12.162,1.3439
24847,14.505,0.90909,0.1,0.00021771,2175.6,0.00021751,2169.8,-7.127e-05,0.0016788,-7.2814e-05,-11.602,1.3305
24848,14.597,0.63636,0.1,0.00021559,2154.4,0.00021537,2148,-7.051e-05,0.0034307,-7.2215e-05,-12.806,1.3433
24849,14.505,0.72727,0.1,0.00021786,2177.1,0.00021765,2170.9,-7.1286e-05,0.0030242,-7.2916e-05,-12.248,1.3299
24850,14.597,0.45455,0.1,0.00021576,2156.2,0.00021553,2149.4,-7.053e-05,0.0060258,-7.2333e-05,-13.546,1.3427
24851,14.505,0.54545,0.1,0.00021802,2178.7,0.0002178,2172.2,-7.1304e-05,0.0037008,-7.3028e-05,-12.949,1.3293
24852,14.597,0.27273,0.1,0.00021608,2159.3,0.00021582,2151.7,-7.0551e-05,0.0049793,-7.2575e-05,-15.199,1.342
24853,14.505,0.36364,0.1,0.00021821,2180.6,0.00021797,2173.6,-7.1323e-05,0.0079492,-7.316e-05,-13.793,1.3287
24854,14.505,0.18182,0.1,0.00021866,2185.1,0.00021838,2176.9,-7.1345e-05,0.00079772,-7.3527e-05,-16.388,1.3279
24855,14.597,0.090909,0.1,0.00021552,2153.7,0.00021533,2148.2,-7.0573e-05,0.0032618,-7.2044e-05,-11.052,1.3413
24856,14.413,5.7273,0.1,0.00022077,2206.2,0.00022052,2198.7,-7.2117e-05,0.0047643,-7.4096e-05,-14.864,1.3146
24857,14.321,5.8182,0.1,0.00022337,2232.1,0.00022309,2224,-7.2913e-05,0.0009175,-7.5052e-05,-16.069,1.3006
24858,14.413,5.9091,0.1,0.00022023,2200.7,0.00022004,2195.3,-7.2137e-05,0.0031363,-7.3581e-05,-10.847,1.3139
24859,14.413,5.5455,0.1,0.00022046,2203,0.00022023,2196.4,-7.2097e-05,0.0057161,-7.385e-05,-13.164,1.3153
24860,14.321,5.6364,0.1,0.00022291,2227.6,0.00022268,2220.8,-7.2893e-05,0.0074484,-7.4682e-05,-13.437,1.3013
24861,14.413,5.3636,0.1,0.00022028,2201.3,0.00022007,2195.1,-7.2079e-05,0.0033225,-7.3725e-05,-12.363,1.316
24862,14.321,5.4545,0.1,0.00022272,2225.7,0.0002225,2219.4,-7.2876e-05,0.0035509,-7.4544e-05,-12.531,1.302
24863,14.413,5.1818,0.1,0.00022013,2199.7,0.00021993,2193.9,-7.2063e-05,0.0023455,-7.3616e-05,-11.661,1.3166
24864,14.321,5.2727,0.1,0.00022256,2224,0.00022235,2218.1,-7.286e-05,0.0029276,-7.4426e-05,-11.77,1.3026
24865,14.413,5,0.1,0.00021998,2198.3,0.0002198,2192.8,-7.2049e-05,0.0011266,-7.3514e-05,-11.011,1.3171
24866,14.321,5.0909,0.1,0.00022241,2222.5,0.00022222,2217,-7.2845e-05,0.0016801,-7.4318e-05,-11.064,1.3032
24867,14.413,4.8182,0.1,0.00021985,2197,0.00021968,2191.8,-7.2036e-05,-2.5381e-05,-7.3421e-05,-10.412,1.3176
24868,14.321,4.9091,0.1,0.00022227,2221.1,0.00022209,2215.9,-7.2832e-05,0.00058324,-7.4218e-05,-10.41,1.3037
24869,14.413,4.6364,0.1,0.00021974,2195.9,0.00021957,2190.9,-7.2024e-05,-0.0011753,-7.3337e-05,-9.8659,1.3181
24870,14.321,4.7273,0.1,0.00022214,2219.9,0.00022197,2215,-7.2821e-05,-0.00054669,-7.4126e-05,-9.8087,1.3042
24871,14.413,4.4545,0.1,0.00021963,2194.8,0.00021947,2190.1,-7.2014e-05,-0.0022897,-7.3261e-05,-9.3732,1.3185
24872,14.321,4.5455,0.1,0.00022203,2218.8,0.00022187,2214.1,-7.281e-05,-0.0016506,-7.4043e-05,-9.2629,1.3047
24873,14.413,4.2727,0.1,0.00021954,2193.9,0.00021939,2189.4,-7.2005e-05,-0.0033566,-7.3194e-05,-8.9355,1.3188
24874,14.321,4.3636,0.1,0.00022193,2217.7,0.00022178,2213.3,-7.2801e-05,-0.0027247,-7.3969e-05,-8.7735,1.3051
24875,14.413,4.0909,0.1,0.00021946,2193.1,0.00021931,2188.8,-7.1997e-05,-0.0043549,-7.3135e-05,-8.5538,1.3192
24876,14.321,4.1818,0.1,0.00022184,2216.9,0.0002217,2212.7,-7.2794e-05,-0.0037495,-7.3903e-05,-8.342,1.3054
24877,14.413,3.9091,0.1,0.00021939,2192.4,0.00021925,2188.3,-7.1991e-05,-0.0052608,-7.3086e-05,-8.2292,1.3194
24878,14.321,4,0.1,0.00022176,2216.1,0.00022163,2212.1,-7.2787e-05,-0.0047025,-7.3847e-05,-7.9697,1.3057
24879,14.413,3.7273,0.1,0.00021933,2191.8,0.0002192,2187.8,-7.1986e-05,-0.0060483,-7.3045e-05,-7.9623,1.3196
24880,14.321,3.8182,0.1,0.0002217,2215.5,0.00022157,2211.6,-7.2782e-05,-0.0055555,-7.38e-05,-7.6577,1.3059
24881,14.413,3.5455,0.1,0.00021929,2191.4,0.00021916,2187.5,-7.1982e-05,-0.0066932,-7.3013e-05,-7.754,1.3198
24882,14.321,3.6364,0.1,0.00022165,2215,0.00022152,2211.2,-7.2778e-05,-0.0062835,-7.3763e-05,-7.4069,1.3061
24883,14.413,3.3636,0.1,0.00021926,2191.1,0.00021913,2187.3,-7.1979e-05,-0.007173,-7.299e-05,-7.6048,1.3199
24884,14.321,3.4545,0.1,0.00022161,2214.6,0.00022149,2211,-7.2775e-05,-0.0068575,-7.3734e-05,-7.2181,1.3063
24885,14.413,3.1818,0.1,0.00021924,2190.9,0.00021911,2187.1,-7.1977e-05,-0.0074688,-7.2977e-05,-7.5152,1.32
24886,14.321,3.2727,0.1,0.00022159,2214.3,0.00022146,2210.8,-7.2772e-05,-0.007256,-7.3715e-05,-7.0919,1.3064
24887,14.413,3,0.1,0.00021923,2190.8,0.00021911,2187.1,-7.1977e-05,-0.0075685,-7.2972e-05,-7.4852,1.32
24888,14.321,3.0909,0.1,0.00022157,2214.2,0.00022145,2210.7,-7.2771e-05,-0.0074592,-7.3706e-05,-7.0287,1.3064
24889,14.413,2.8182,0.1,0.00021924,2190.9,0.00021911,2187.1,-7.1977e-05,-0.0074685,-7.2977e-05,-7.5151,1.32
24890,14.321,2.9091,0.1,0.00022157,2214.2,0.00022145,2210.7,-7.2771e-05,-0.0074587,-7.3706e-05,-7.0287,1.3064
24891,14.413,2.6364,0.1,0.00021926,2191.1,0.00021913,2187.3,-7.1979e-05,-0.0071729,-7.299e-05,-7.6048,1.3199
24892,14.321,2.7273,0.1,0.00022159,2214.3,0.00022146,2210.8,-7.2772e-05,-0.0072556,-7.3715e-05,-7.0919,1.3064
24893,14.413,2.4545,0.1,0.00021929,2191.4,0.00021916,2187.5,-7.1982e-05,-0.0066932,-7.3013e-05,-7.754,1.3198
24894,14.321,2.5455,0.1,0.00022161,2214.6,0.00022149,2211,-7.2775e-05,-0.0068581,-7.3734e-05,-7.2181,1.3063
24895,14.413,2.2727,0.1,0.00021933,2191.8,0.0002192,2187.8,-7.1986e-05,-0.006048,-7.3045e-05,-7.9623,1.3196
24896,14.321,2.3636,0.1,0.00022165,2215,0.00022152,2211.2,-7.2778e-05,-0.0062832,-7.3763e-05,-7.4069,1.3061
24897,14.413,2.0909,0.1,0.00021939,2192.4,0.00021925,2188.3,-7.1991e-05,-0.005261,-7.3086e-05,-8.2291,1.3194
24898,14.321,2.1818,0.1,0.0002217,2215.5,0.00022157,2211.6,-7.2782e-05,-0.0055552,-7.38e-05,-7.6577,1.3059
24899,14.413,1.9091,0.1,0.00021946,2193.1,0.00021931,2188.8,-7.1997e-05,-0.0043557,-7.3135e-05,-8.5538,1.3192
24900,14.321,2,0.1,0.00022176,2216.1,0.00022163,2212.1,-7.2787e-05,-0.0047026,-7.3847e-05,-7.9697,1.3057
24901,14.413,1.7273,0.1,0.00021954,2193.9,0.00021939,2189.4,-7.2005e-05,-0.003357,-7.3194e-05,-8.9355,1.3188
24902,14.321,1.8182,0.1,0.00022184,2216.9,0.0002217,2212.7,-7.2794e-05,-0.0037502,-7.3903e-05,-8.342,1.3054
24903,14.413,1.5455,0.1,0.00021963,2194.8,0.00021947,2190.1,-7.2014e-05,-0.00229,-7.3261e-05,-9.3732,1.3185
24904,14.321,1.6364,0.1,0.00022193,2217.7,0.00022178,2213.3,-7.2801e-05,-0.0027249,-7.3969e-05,-8.7735,1.3051
24905,14.413,1.3636,0.1,0.00021974,2195.9,0.00021957,2190.9,-7.2024e-05,-0.0011758,-7.3337e-05,-9.8658,1.3181
24906,14.321,1.4545,0.1,0.00022203,2218.8,0.00022187,2214.1,-7.281e-05,-0.0016509,-7.4043e-05,-9.2628,1.3047
24907,14.413,1.1818,0.1,0.00021985,2197,0.00021968,2191.8,-7.2036e-05,-2.5897e-05,-7.3421e-05,-10.412,1.3176
24908,14.321,1.2727,0.1,0.00022214,2219.9,0.00022197,2215,-7.2821e-05,-0.00054649,-7.4126e-05,-9.8087,1.3042
24909,14.413,1,0.1,0.00021998,2198.3,0.0002198,2192.8,-7.2049e-05,0.0011257,-7.3514e-05,-11.011,1.3171
24910,14.321,1.0909,0.1,0.00022227,2221.1,0.00022209,2215.9,-7.2832e-05,0.00058286,-7.4218e-05,-10.409,1.3037
24911,14.413,0.81818,0.1,0.00022013,2199.8,0.00021993,2193.9,-7.2063e-05,0.0023439,-7.3616e-05,-11.661,1.3166
24912,14.321,0.90909,0.1,0.00022241,2222.5,0.00022222,2217,-7.2845e-05,0.0016789,-7.4318e-05,-11.064,1.3032
24913,14.413,0.63636,0.1,0.00022028,2201.3,0.00022007,2195.1,-7.2079e-05,0.0033217,-7.3725e-05,-12.363,1.316
24914,14.321,0.72727,0.1,0.00022256,2224,0.00022235,2218.1,-7.286e-05,0.0029256,-7.4426e-05,-11.77,1.3026
24915,14.413,0.45455,0.1,0.00022046,2203,0.00022023,2196.4,-7.2097e-05,0.0057159,-7.385e-05,-13.164,1.3153
24916,14.321,0.54545,0.1,0.00022272,2225.7,0.0002225,2219.4,-7.2876e-05,0.0035512,-7.4544e-05,-12.531,1.302
24917,14.413,0.27273,0.1,0.00022077,2206.2,0.00022052,2198.7,-7.2117e-05,0.0047639,-7.4096e-05,-14.864,1.3146
24918,14.321,0.36364,0.1,0.00022291,2227.6,0.00022268,2220.8,-7.2893e-05,0.0074484,-7.4682e-05,-13.437,1.3013
24919,14.321,0.18182,0.1,0.00022337,2232.1,0.00022309,2224,-7.2913e-05,0.00091668,-7.5052e-05,-16.069,1.3006
24920,14.413,0.090909,0.1,0.00022023,2200.7,0.00022004,2195.3,-7.2137e-05,0.0031358,-7.3581e-05,-10.847,1.3139
24921,14.229,5.7273,0.1,0.00022549,2253.3,0.00022524,2246,-7.3689e-05,0.0045197,-7.5623e-05,-14.526,1.2873
24922,14.136,5.8182,0.1,0.00022809,2279.3,0.00022782,2271.4,-7.4488e-05,0.0010468,-7.6584e-05,-15.748,1.2734
24923,14.229,5.9091,0.1,0.00022496,2248,0.00022477,2242.7,-7.3707e-05,0.002984,-7.5124e-05,-10.642,1.2866
24924,14.229,5.5455,0.1,0.00022517,2250.1,0.00022495,2243.7,-7.3672e-05,0.0053708,-7.5372e-05,-12.774,1.288
24925,14.136,5.6364,0.1,0.00022763,2274.8,0.00022741,2268.2,-7.447e-05,0.0069279,-7.6211e-05,-13.075,1.2741
24926,14.229,5.3636,0.1,0.00022499,2248.3,0.00022479,2242.4,-7.3656e-05,0.0031848,-7.5241e-05,-11.91,1.2887
24927,14.136,5.4545,0.1,0.00022744,2272.8,0.00022723,2266.8,-7.4454e-05,0.0033962,-7.6066e-05,-12.104,1.2748
24928,14.229,5.1818,0.1,0.00022483,2246.8,0.00022464,2241.2,-7.3641e-05,0.0022852,-7.5125e-05,-11.145,1.2893
24929,14.136,5.2727,0.1,0.00022727,2271.2,0.00022708,2265.5,-7.444e-05,0.0028257,-7.5942e-05,-11.277,1.2755
24930,14.229,5,0.1,0.00022468,2245.3,0.00022451,2240.1,-7.3628e-05,0.0011568,-7.5017e-05,-10.435,1.2899
24931,14.136,5.0909,0.1,0.00022712,2269.6,0.00022694,2264.3,-7.4428e-05,0.0016841,-7.5826e-05,-10.508,1.2761
24932,14.229,4.8182,0.1,0.00022455,2244,0.00022438,2239.1,-7.3617e-05,7.8785e-05,-7.4918e-05,-9.7791,1.2904
24933,14.136,4.9091,0.1,0.00022698,2268.2,0.00022681,2263.3,-7.4416e-05,0.00066917,-7.572e-05,-9.7929,1.2766
24934,14.229,4.6364,0.1,0.00022443,2242.7,0.00022427,2238.1,-7.3607e-05,-0.0010093,-7.4828e-05,-9.1788,1.2909
24935,14.136,4.7273,0.1,0.00022685,2266.9,0.00022669,2262.3,-7.4406e-05,-0.00038671,-7.5622e-05,-9.1347,1.2771
24936,14.229,4.4545,0.1,0.00022432,2241.7,0.00022417,2237.3,-7.3598e-05,-0.0020783,-7.4747e-05,-8.6363,1.2913
24937,14.136,4.5455,0.1,0.00022673,2265.7,0.00022658,2261.4,-7.4397e-05,-0.0014337,-7.5533e-05,-8.5354,1.2775
24938,14.229,4.2727,0.1,0.00022422,2240.7,0.00022408,2236.6,-7.359e-05,-0.0031173,-7.4675e-05,-8.1532,1.2917
24939,14.136,4.3636,0.1,0.00022662,2264.7,0.00022649,2260.7,-7.439e-05,-0.0024682,-7.5454e-05,-7.9969,1.2779
24940,14.229,4.0909,0.1,0.00022414,2239.9,0.00022401,2236,-7.3584e-05,-0.0041051,-7.4612e-05,-7.7312,1.292
24941,14.136,4.1818,0.1,0.00022653,2263.8,0.0002264,2260,-7.4383e-05,-0.0034726,-7.5384e-05,-7.5213,1.2783
24942,14.229,3.9091,0.1,0.00022407,2239.2,0.00022394,2235.5,-7.3578e-05,-0.0050149,-7.4559e-05,-7.3716,1.2922
24943,14.136,4,0.1,0.00022645,2263,0.00022633,2259.4,-7.4378e-05,-0.0044237,-7.5323e-05,-7.1102,1.2786
24944,14.229,3.7273,0.1,0.00022401,2238.6,0.00022389,2235,-7.3574e-05,-0.0058186,-7.4515e-05,-7.0757,1.2925
24945,14.136,3.8182,0.1,0.00022639,2262.3,0.00022627,2258.9,-7.4373e-05,-0.0052902,-7.5273e-05,-6.7652,1.2788
24946,14.229,3.5455,0.1,0.00022397,2238.1,0.00022385,2234.7,-7.357e-05,-0.0064855,-7.448e-05,-6.8444,1.2926
24947,14.136,3.6364,0.1,0.00022634,2261.8,0.00022622,2258.5,-7.437e-05,-0.0060413,-7.5232e-05,-6.4875,1.279
24948,14.229,3.3636,0.1,0.00022393,2237.8,0.00022382,2234.4,-7.3568e-05,-0.0069866,-7.4456e-05,-6.6786,1.2928
24949,14.136,3.4545,0.1,0.0002263,2261.4,0.00022619,2258.3,-7.4367e-05,-0.0066434,-7.5202e-05,-6.2784,1.2792
24950,14.229,3.1818,0.1,0.00022392,2237.6,0.0002238,2234.3,-7.3566e-05,-0.0072982,-7.4441e-05,-6.5789,1.2928
24951,14.136,3.2727,0.1,0.00022627,2261.1,0.00022616,2258.1,-7.4365e-05,-0.007065,-7.5181e-05,-6.1384,1.2793
24952,14.229,3,0.1,0.00022391,2237.5,0.0002238,2234.3,-7.3566e-05,-0.007403,-7.4436e-05,-6.5456,1.2929
24953,14.136,3.0909,0.1,0.00022626,2261,0.00022615,2258,-7.4364e-05,-0.0072815,-7.5171e-05,-6.0683,1.2793
24954,14.229,2.8182,0.1,0.00022392,2237.6,0.0002238,2234.3,-7.3566e-05,-0.0072974,-7.4441e-05,-6.5789,1.2928
24955,14.136,2.9091,0.1,0.00022626,2261,0.00022615,2258,-7.4364e-05,-0.007281,-7.5171e-05,-6.0683,1.2793
24956,14.229,2.6364,0.1,0.00022393,2237.8,0.00022382,2234.4,-7.3568e-05,-0.0069868,-7.4456e-05,-6.6786,1.2928
24957,14.136,2.7273,0.1,0.00022627,2261.1,0.00022616,2258.1,-7.4365e-05,-0.0070652,-7.5181e-05,-6.1384,1.2793
24958,14.229,2.4545,0.1,0.00022397,2238.1,0.00022385,2234.7,-7.357e-05,-0.0064858,-7.448e-05,-6.8444,1.2926
24959,14.136,2.5455,0.1,0.0002263,2261.4,0.00022619,2258.3,-7.4367e-05,-0.0066435,-7.5202e-05,-6.2784,1.2792
24960,14.229,2.2727,0.1,0.00022401,2238.6,0.00022389,2235,-7.3574e-05,-0.0058182,-7.4515e-05,-7.0757,1.2925
24961,14.136,2.3636,0.1,0.00022634,2261.8,0.00022622,2258.5,-7.437e-05,-0.0060415,-7.5232e-05,-6.4875,1.279
24962,14.229,2.0909,0.1,0.00022407,2239.2,0.00022394,2235.5,-7.3578e-05,-0.0050145,-7.4559e-05,-7.3716,1.2922
24963,14.136,2.1818,0.1,0.00022639,2262.3,0.00022627,2258.9,-7.4373e-05,-0.0052896,-7.5273e-05,-6.7652,1.2788
24964,14.229,1.9091,0.1,0.00022414,2239.9,0.00022401,2236,-7.3584e-05,-0.0041051,-7.4612e-05,-7.7312,1.292
24965,14.136,2,0.1,0.00022645,2263,0.00022633,2259.4,-7.4378e-05,-0.0044237,-7.5323e-05,-7.1102,1.2786
24966,14.229,1.7273,0.1,0.00022422,2240.7,0.00022408,2236.6,-7.359e-05,-0.0031178,-7.4675e-05,-8.1532,1.2917
24967,14.136,1.8182,0.1,0.00022653,2263.8,0.0002264,2260,-7.4383e-05,-0.0034735,-7.5384e-05,-7.5212,1.2783
24968,14.229,1.5455,0.1,0.00022432,2241.7,0.00022417,2237.3,-7.3598e-05,-0.0020786,-7.4747e-05,-8.6363,1.2913
24969,14.136,1.6364,0.1,0.00022662,2264.7,0.00022649,2260.7,-7.439e-05,-0.0024688,-7.5454e-05,-7.9969,1.2779
24970,14.229,1.3636,0.1,0.00022443,2242.7,0.00022427,2238.1,-7.3607e-05,-0.0010089,-7.4828e-05,-9.1788,1.2909
24971,14.136,1.4545,0.1,0.00022673,2265.7,0.00022658,2261.4,-7.4397e-05,-0.0014338,-7.5533e-05,-8.5353,1.2775
24972,14.229,1.1818,0.1,0.00022455,2244,0.00022438,2239.1,-7.3617e-05,7.9118e-05,-7.4918e-05,-9.779,1.2904
24973,14.136,1.2727,0.1,0.00022685,2266.9,0.00022669,2262.3,-7.4406e-05,-0.00038713,-7.5622e-05,-9.1347,1.2771
24974,14.229,1,0.1,0.00022468,2245.3,0.00022451,2240.1,-7.3628e-05,0.0011561,-7.5017e-05,-10.435,1.2899
24975,14.136,1.0909,0.1,0.00022698,2268.2,0.00022681,2263.3,-7.4416e-05,0.00066897,-7.572e-05,-9.7929,1.2766
24976,14.229,0.81818,0.1,0.00022483,2246.8,0.00022464,2241.2,-7.3641e-05,0.0022835,-7.5125e-05,-11.145,1.2893
24977,14.136,0.90909,0.1,0.00022712,2269.6,0.00022694,2264.3,-7.4428e-05,0.0016825,-7.5826e-05,-10.508,1.2761
24978,14.229,0.63636,0.1,0.00022499,2248.3,0.00022479,2242.4,-7.3656e-05,0.0031839,-7.5241e-05,-11.91,1.2887
24979,14.136,0.72727,0.1,0.00022727,2271.2,0.00022708,2265.5,-7.444e-05,0.0028232,-7.5942e-05,-11.277,1.2755
24980,14.229,0.45455,0.1,0.00022517,2250.1,0.00022495,2243.7,-7.3672e-05,0.0053713,-7.5372e-05,-12.774,1.288
24981,14.136,0.54545,0.1,0.00022744,2272.8,0.00022723,2266.8,-7.4454e-05,0.0033964,-7.6066e-05,-12.104,1.2748
24982,14.229,0.27273,0.1,0.00022549,2253.3,0.00022524,2246,-7.3689e-05,0.0045194,-7.5623e-05,-14.526,1.2873
24983,14.136,0.36364,0.1,0.00022763,2274.8,0.00022741,2268.2,-7.447e-05,0.0069283,-7.6211e-05,-13.075,1.2741
24984,14.136,0.18182,0.1,0.00022809,2279.3,0.00022782,2271.4,-7.4488e-05,0.001046,-7.6584e-05,-15.748,1.2734
24985,14.229,0.090909,0.1,0.00022496,2248,0.00022477,2242.7,-7.3707e-05,0.0029843,-7.5124e-05,-10.642,1.2866
24986,14.044,5.7273,0.1,0.00023022,2300.6,0.00022998,2293.5,-7.5269e-05,0.0042922,-7.7157e-05,-14.182,1.2602
24987,13.952,5.8182,0.1,0.00023284,2326.7,0.00023257,2319,-7.607e-05,0.0012012,-7.8123e-05,-15.423,1.2463
24988,14.044,5.9091,0.1,0.0002297,2295.5,0.00022953,2290.2,-7.5285e-05,0.0028522,-7.6674e-05,-10.435,1.2594
24989,14.044,5.5455,0.1,0.0002299,2297.4,0.00022969,2291.2,-7.5253e-05,0.0050361,-7.6901e-05,-12.374,1.2609
24990,13.952,5.6364,0.1,0.00023238,2322.2,0.00023216,2315.8,-7.6054e-05,0.0064003,-7.7746e-05,-12.704,1.2471
24991,14.044,5.3636,0.1,0.00022972,2295.6,0.00022952,2289.9,-7.5239e-05,0.0030671,-7.6763e-05,-11.444,1.2616
24992,13.952,5.4545,0.1,0.00023218,2320.2,0.00023198,2314.3,-7.6041e-05,0.0032495,-7.7593e-05,-11.664,1.2478
24993,14.044,5.1818,0.1,0.00022955,2294,0.00022937,2288.6,-7.5227e-05,0.00225,-7.6639e-05,-10.613,1.2622
24994,13.952,5.2727,0.1,0.00023201,2318.5,0.00023182,2313.1,-7.6028e-05,0.0027368,-7.7462e-05,-10.768,1.2484
24995,14.044,5,0.1,0.0002294,2292.5,0.00022924,2287.5,-7.5215e-05,0.0012202,-7.6525e-05,-9.8388,1.2628
24996,13.952,5.0909,0.1,0.00023185,2316.9,0.00023168,2311.9,-7.6017e-05,0.0017092,-7.7339e-05,-9.9314,1.2491
24997,14.044,4.8182,0.1,0.00022927,2291.1,0.00022911,2286.5,-7.5205e-05,0.00022566,-7.642e-05,-9.122,1.2633
24998,13.952,4.9091,0.1,0.0002317,2315.4,0.00023154,2310.8,-7.6008e-05,0.00078615,-7.7226e-05,-9.1523,1.2496
24999,14.044,4.6364,0.1,0.00022914,2289.8,0.000229,2285.6,-7.5197e-05,-0.0007919,-7.6323e-05,-8.4648,1.2638
25000,13.952,4.7273,0.1,0.00023157,2314.1,0.00023142,2309.9,-7.5999e-05,-0.00018492,-7.7122e-05,-8.4333,1.2501
25001,14.044,4.4545,0.1,0.00022903,2288.7,0.00022889,2284.8,-7.5189e-05,-0.0018085,-7.6236e-05,-7.8696,1.2642
25002,13.952,4.5455,0.1,0.00023145,2312.9,0.00023131,2309,-7.5992e-05,-0.0011645,-7.7027e-05,-7.7773,1.2506
25003,14.044,4.2727,0.1,0.00022893,2287.7,0.0002288,2284,-7.5183e-05,-0.0028146,-7.6159e-05,-7.3386,1.2646
25004,13.952,4.3636,0.1,0.00023134,2311.8,0.00023122,2308.2,-7.5986e-05,-0.0021514,-7.6942e-05,-7.1868,1.251
25005,14.044,4.0909,0.1,0.00022884,2286.8,0.00022872,2283.4,-7.5177e-05,-0.0037908,-7.6092e-05,-6.874,1.265
25006,13.952,4.1818,0.1,0.00023124,2310.8,0.00023113,2307.5,-7.598e-05,-0.0031311,-7.6867e-05,-6.6644,1.2513
25007,14.044,3.9091,0.1,0.00022877,2286.1,0.00022866,2282.9,-7.5173e-05,-0.0047093,-7.6034e-05,-6.4775,1.2652
25008,13.952,4,0.1,0.00023116,2310,0.00023106,2306.9,-7.5976e-05,-0.0040799,-7.6802e-05,-6.2123,1.2516
25009,14.044,3.7273,0.1,0.00022871,2285.5,0.0002286,2282.4,-7.5169e-05,-0.0055356,-7.5987e-05,-6.1509,1.2655
25010,13.952,3.8182,0.1,0.00023109,2309.3,0.00023099,2306.4,-7.5972e-05,-0.0049664,-7.6748e-05,-5.8324,1.2519
25011,14.044,3.5455,0.1,0.00022866,2285,0.00022856,2282.1,-7.5166e-05,-0.0062346,-7.595e-05,-5.8954,1.2656
25012,13.952,3.6364,0.1,0.00023104,2308.8,0.00023094,2306,-7.5969e-05,-0.0057524,-7.6704e-05,-5.5263,1.2521
25013,14.044,3.3636,0.1,0.00022863,2284.7,0.00022853,2281.8,-7.5164e-05,-0.0067684,-7.5924e-05,-5.7121,1.2658
25014,13.952,3.4545,0.1,0.000231,2308.4,0.00023091,2305.7,-7.5967e-05,-0.0063957,-7.6671e-05,-5.2956,1.2522
25015,14.044,3.1818,0.1,0.00022861,2284.5,0.00022851,2281.7,-7.5163e-05,-0.0071028,-7.5908e-05,-5.6018,1.2658
25016,13.952,3.2727,0.1,0.00023097,2308.1,0.00023088,2305.5,-7.5966e-05,-0.0068531,-7.6649e-05,-5.1411,1.2523
25017,14.044,3,0.1,0.0002286,2284.4,0.00022851,2281.6,-7.5163e-05,-0.0072167,-7.5903e-05,-5.5649,1.2659
25018,13.952,3.0909,0.1,0.00023096,2308,0.00023087,2305.4,-7.5965e-05,-0.0070906,-7.6638e-05,-5.0637,1.2524
25019,14.044,2.8182,0.1,0.00022861,2284.5,0.00022851,2281.7,-7.5163e-05,-0.0071033,-7.5908e-05,-5.6017,1.2658
25020,13.952,2.9091,0.1,0.00023096,2308,0.00023087,2305.4,-7.5965e-05,-0.0070906,-7.6638e-05,-5.0637,1.2524
25021,14.044,2.6364,0.1,0.00022863,2284.7,0.00022853,2281.8,-7.5165e-05,-0.0067686,-7.5924e-05,-5.712,1.2658
25022,13.952,2.7273,0.1,0.00023097,2308.1,0.00023088,2305.5,-7.5966e-05,-0.0068534,-7.6649e-05,-5.1411,1.2523
25023,14.044,2.4545,0.1,0.00022866,2285,0.00022856,2282.1,-7.5166e-05,-0.0062345,-7.595e-05,-5.8953,1.2656
25024,13.952,2.5455,0.1,0.000231,2308.4,0.00023091,2305.7,-7.5967e-05,-0.0063958,-7.6671e-05,-5.2955,1.2522
25025,14.044,2.2727,0.1,0.00022871,2285.5,0.0002286,2282.4,-7.5169e-05,-0.0055354,-7.5987e-05,-6.1508,1.2655
25026,13.952,2.3636,0.1,0.00023104,2308.8,0.00023094,2306,-7.5969e-05,-0.0057526,-7.6704e-05,-5.5263,1.2521
25027,14.044,2.0909,0.1,0.00022877,2286.1,0.00022866,2282.9,-7.5173e-05,-0.004709,-7.6034e-05,-6.4775,1.2652
25028,13.952,2.1818,0.1,0.00023109,2309.3,0.00023099,2306.4,-7.5972e-05,-0.0049662,-7.6748e-05,-5.8323,1.2519
25029,14.044,1.9091,0.1,0.00022884,2286.8,0.00022872,2283.4,-7.5177e-05,-0.0037916,-7.6092e-05,-6.8739,1.265
25030,13.952,2,0.1,0.00023116,2310,0.00023106,2306.9,-7.5976e-05,-0.0040807,-7.6802e-05,-6.2122,1.2516
25031,14.044,1.7273,0.1,0.00022893,2287.7,0.0002288,2284,-7.5183e-05,-0.0028156,-7.6159e-05,-7.3386,1.2646
25032,13.952,1.8182,0.1,0.00023124,2310.8,0.00023113,2307.5,-7.598e-05,-0.0031317,-7.6867e-05,-6.6644,1.2513
25033,14.044,1.5455,0.1,0.00022903,2288.7,0.00022889,2284.8,-7.5189e-05,-0.0018091,-7.6236e-05,-7.8695,1.2642
25034,13.952,1.6364,0.1,0.00023134,2311.8,0.00023122,2308.2,-7.5986e-05,-0.0021521,-7.6942e-05,-7.1868,1.251
25035,14.044,1.3636,0.1,0.00022914,2289.8,0.000229,2285.6,-7.5197e-05,-0.00079282,-7.6323e-05,-8.4647,1.2638
25036,13.952,1.4545,0.1,0.00023145,2312.9,0.00023131,2309,-7.5992e-05,-0.001165,-7.7027e-05,-7.7772,1.2506
25037,14.044,1.1818,0.1,0.00022927,2291.1,0.00022911,2286.5,-7.5205e-05,0.00022471,-7.642e-05,-9.122,1.2633
25038,13.952,1.2727,0.1,0.00023157,2314.1,0.00023142,2309.9,-7.5999e-05,-0.00018589,-7.7122e-05,-8.4332,1.2501
25039,14.044,1,0.1,0.0002294,2292.5,0.00022924,2287.5,-7.5215e-05,0.0012191,-7.6525e-05,-9.8387,1.2628
25040,13.952,1.0909,0.1,0.0002317,2315.4,0.00023154,2310.8,-7.6008e-05,0.00078597,-7.7226e-05,-9.1522,1.2496
25041,14.044,0.81818,0.1,0.00022955,2294,0.00022937,2288.6,-7.5227e-05,0.0022476,-7.6639e-05,-10.613,1.2622
25042,13.952,0.90909,0.1,0.00023185,2316.9,0.00023168,2311.9,-7.6017e-05,0.0017072,-7.7339e-05,-9.9314,1.2491
25043,14.044,0.63636,0.1,0.00022972,2295.6,0.00022952,2289.9,-7.5239e-05,0.0030656,-7.6763e-05,-11.444,1.2616
25044,13.952,0.72727,0.1,0.00023201,2318.5,0.00023182,2313.1,-7.6028e-05,0.0027347,-7.7462e-05,-10.768,1.2484
25045,14.044,0.45455,0.1,0.0002299,2297.4,0.00022969,2291.2,-7.5253e-05,0.0050362,-7.6901e-05,-12.374,1.2609
25046,13.952,0.54545,0.1,0.00023218,2320.2,0.00023198,2314.3,-7.6041e-05,0.0032501,-7.7593e-05,-11.664,1.2478
25047,14.044,0.27273,0.1,0.00023022,2300.6,0.00022998,2293.5,-7.5269e-05,0.0042921,-7.7157e-05,-14.182,1.2602
25048,13.952,0.36364,0.1,0.00023238,2322.2,0.00023216,2315.8,-7.6054e-05,0.0063999,-7.7746e-05,-12.704,1.2471
25049,13.952,0.18182,0.1,0.00023284,2326.7,0.00023257,2319,-7.607e-05,0.0012011,-7.8123e-05,-15.423,1.2463
25050,14.044,0.090909,0.1,0.0002297,2295.5,0.00022953,2290.2,-7.5285e-05,0.002852,-7.6674e-05,-10.435,1.2594
25051,13.86,5.7273,0.1,0.00023498,2348.1,0.00023474,2341.2,-7.6855e-05,0.0040625,-7.8697e-05,-13.832,1.2332
25052,13.768,5.8182,0.1,0.0002376,2374.4,0.00023734,2366.8,-7.7659e-05,0.0013654,-7.9668e-05,-15.094,1.2194
25053,13.86,5.9091,0.1,0.00023447,2343.1,0.0002343,2338,-7.6869e-05,0.0027217,-7.8231e-05,-10.227,1.2325
25054,13.86,5.5455,0.1,0.00023465,2344.9,0.00023445,2338.9,-7.6842e-05,0.0046909,-7.8435e-05,-11.964,1.234
25055,13.768,5.6364,0.1,0.00023714,2369.8,0.00023693,2363.6,-7.7645e-05,0.0058442,-7.9287e-05,-12.325,1.2202
25056,13.86,5.3636,0.1,0.00023447,2343,0.00023428,2337.5,-7.683e-05,0.0029497,-7.8289e-05,-10.962,1.2347
25057,13.768,5.4545,0.1,0.00023694,2367.8,0.00023675,2362.1,-7.7634e-05,0.0030927,-7.9126e-05,-11.21,1.2209
25058,13.86,5.1818,0.1,0.0002343,2341.4,0.00023412,2336.3,-7.6819e-05,0.0022235,-7.8158e-05,-10.06,1.2353
25059,13.768,5.2727,0.1,0.00023676,2366,0.00023659,2360.9,-7.7624e-05,0.0026426,-7.8987e-05,-10.24,1.2216
25060,13.86,5,0.1,0.00023414,2339.8,0.00023398,2335.2,-7.681e-05,0.0013027,-7.8037e-05,-9.2187,1.2359
25061,13.768,5.0909,0.1,0.0002366,2364.4,0.00023644,2359.7,-7.7615e-05,0.0017406,-7.8857e-05,-9.3319,1.2222
25062,13.86,4.8182,0.1,0.000234,2338.4,0.00023386,2334.2,-7.6802e-05,0.00040328,-7.7925e-05,-8.4375,1.2364
25063,13.768,4.9091,0.1,0.00023645,2362.8,0.0002363,2358.6,-7.7607e-05,0.00092363,-7.8736e-05,-8.4842,1.2228
25064,13.86,4.6364,0.1,0.00023387,2337.1,0.00023374,2333.2,-7.6794e-05,-0.00053028,-7.7822e-05,-7.7197,1.2369
25065,13.768,4.7273,0.1,0.00023631,2361.5,0.00023618,2357.6,-7.76e-05,5.198e-05,-7.8625e-05,-7.7005,1.2233
25066,13.86,4.4545,0.1,0.00023375,2335.9,0.00023363,2332.4,-7.6788e-05,-0.001482,-7.7729e-05,-7.0685,1.2374
25067,13.768,4.5455,0.1,0.00023618,2360.2,0.00023606,2356.7,-7.7594e-05,-0.0008428,-7.8524e-05,-6.9841,1.2238
25068,13.86,4.2727,0.1,0.00023365,2334.9,0.00023354,2331.6,-7.6783e-05,-0.0024468,-7.7646e-05,-6.4867,1.2377
25069,13.768,4.3636,0.1,0.00023607,2359.1,0.00023596,2355.9,-7.7589e-05,-0.0017671,-7.8433e-05,-6.3383,1.2242
25070,13.86,4.0909,0.1,0.00023356,2334,0.00023346,2331,-7.6779e-05,-0.0034067,-7.7574e-05,-5.9769,1.2381
25071,13.768,4.1818,0.1,0.00023597,2358.1,0.00023587,2355.2,-7.7585e-05,-0.0027112,-7.8352e-05,-5.7662,1.2245
25072,13.86,3.9091,0.1,0.00023348,2333.2,0.00023339,2330.4,-7.6775e-05,-0.0043349,-7.7512e-05,-5.5413,1.2384
25073,13.768,4,0.1,0.00023589,2357.2,0.0002358,2354.6,-7.7582e-05,-0.0036552,-7.8283e-05,-5.2704,1.2248
25074,13.86,3.7273,0.1,0.00023342,2332.6,0.00023333,2330,-7.6773e-05,-0.0051962,-7.7462e-05,-5.1821,1.2386
25075,13.768,3.8182,0.1,0.00023582,2356.5,0.00023573,2354.1,-7.7579e-05,-0.0045682,-7.8225e-05,-4.8534,1.2251
25076,13.86,3.5455,0.1,0.00023337,2332.1,0.00023329,2329.7,-7.677e-05,-0.0059437,-7.7422e-05,-4.9008,1.2388
25077,13.768,3.6364,0.1,0.00023576,2356,0.00023568,2353.7,-7.7577e-05,-0.0054068,-7.8178e-05,-4.5171,1.2253
25078,13.86,3.3636,0.1,0.00023334,2331.8,0.00023326,2329.4,-7.6769e-05,-0.0065271,-7.7394e-05,-4.699,1.2389
25079,13.768,3.4545,0.1,0.00023572,2355.5,0.00023564,2353.4,-7.7576e-05,-0.0061143,-7.8142e-05,-4.2634,1.2255
25080,13.86,3.1818,0.1,0.00023332,2331.6,0.00023324,2329.3,-7.6768e-05,-0.0068994,-7.7376e-05,-4.5774,1.239
25081,13.768,3.2727,0.1,0.00023569,2355.3,0.00023562,2353.2,-7.7575e-05,-0.0066304,-7.8119e-05,-4.0935,1.2256
25082,13.86,3,0.1,0.00023331,2331.5,0.00023323,2329.2,-7.6768e-05,-0.0070274,-7.7371e-05,-4.5368,1.239
25083,13.768,3.0909,0.1,0.00023567,2355.1,0.00023561,2353.1,-7.7574e-05,-0.0069029,-7.8107e-05,-4.0083,1.2256
25084,13.86,2.8182,0.1,0.00023332,2331.6,0.00023324,2329.3,-7.6768e-05,-0.0068992,-7.7376e-05,-4.5774,1.239
25085,13.768,2.9091,0.1,0.00023567,2355.1,0.00023561,2353.1,-7.7574e-05,-0.0069031,-7.8107e-05,-4.0083,1.2256
25086,13.86,2.6364,0.1,0.00023334,2331.8,0.00023326,2329.4,-7.6769e-05,-0.0065272,-7.7394e-05,-4.6989,1.2389
25087,13.768,2.7273,0.1,0.00023569,2355.3,0.00023562,2353.2,-7.7575e-05,-0.0066302,-7.8119e-05,-4.0935,1.2256
25088,13.86,2.4545,0.1,0.00023337,2332.1,0.00023329,2329.7,-7.677e-05,-0.0059441,-7.7422e-05,-4.9008,1.2388
25089,13.768,2.5455,0.1,0.00023572,2355.5,0.00023564,2353.4,-7.7576e-05,-0.0061147,-7.8142e-05,-4.2634,1.2255
25090,13.86,2.2727,0.1,0.00023342,2332.6,0.00023333,2330,-7.6773e-05,-0.0051963,-7.7462e-05,-5.1821,1.2386
25091,13.768,2.3636,0.1,0.00023576,2356,0.00023568,2353.7,-7.7577e-05,-0.0054064,-7.8178e-05,-4.5171,1.2253
25092,13.86,2.0909,0.1,0.00023348,2333.2,0.00023339,2330.4,-7.6775e-05,-0.0043357,-7.7512e-05,-5.5413,1.2384
25093,13.768,2.1818,0.1,0.00023582,2356.5,0.00023573,2354.1,-7.7579e-05,-0.0045685,-7.8225e-05,-4.8533,1.2251
25094,13.86,1.9091,0.1,0.00023356,2334,0.00023346,2331,-7.6779e-05,-0.0034072,-7.7574e-05,-5.9769,1.2381
25095,13.768,2,0.1,0.00023589,2357.2,0.0002358,2354.6,-7.7582e-05,-0.0036551,-7.8283e-05,-5.2704,1.2248
25096,13.86,1.7273,0.1,0.00023365,2334.9,0.00023354,2331.6,-7.6783e-05,-0.002447,-7.7646e-05,-6.4867,1.2377
25097,13.768,1.8182,0.1,0.00023597,2358.1,0.00023587,2355.2,-7.7585e-05,-0.0027113,-7.8352e-05,-5.7662,1.2245
25098,13.86,1.5455,0.1,0.00023375,2335.9,0.00023363,2332.4,-7.6788e-05,-0.0014826,-7.7729e-05,-7.0685,1.2374
25099,13.768,1.6364,0.1,0.00023607,2359.1,0.00023596,2355.9,-7.7589e-05,-0.0017675,-7.8433e-05,-6.3383,1.2242
25100,13.86,1.3636,0.1,0.00023387,2337.1,0.00023374,2333.2,-7.6794e-05,-0.00053078,-7.7822e-05,-7.7197,1.2369
25101,13.768,1.4545,0.1,0.00023618,2360.2,0.00023606,2356.7,-7.7594e-05,-0.00084336,-7.8524e-05,-6.984,1.2238
25102,13.86,1.1818,0.1,0.000234,2338.4,0.00023386,2334.2,-7.6802e-05,0.00040308,-7.7925e-05,-8.4374,1.2364
25103,13.768,1.2727,0.1,0.00023631,2361.5,0.00023618,2357.6,-7.76e-05,5.2343e-05,-7.8625e-05,-7.7004,1.2233
25104,13.86,1,0.1,0.00023414,2339.8,0.00023398,2335.2,-7.681e-05,0.0013016,-7.8037e-05,-9.2187,1.2359
25105,13.768,1.0909,0.1,0.00023645,2362.8,0.0002363,2358.6,-7.7607e-05,0.00092299,-7.8736e-05,-8.4842,1.2228
25106,13.86,0.81818,0.1,0.0002343,2341.4,0.00023412,2336.3,-7.6819e-05,0.0022218,-7.8158e-05,-10.06,1.2353
25107,13.768,0.90909,0.1,0.0002366,2364.4,0.00023644,2359.7,-7.7615e-05,0.0017387,-7.8857e-05,-9.3318,1.2222
25108,13.86,0.63636,0.1,0.00023447,2343,0.00023428,2337.5,-7.683e-05,0.0029496,-7.8289e-05,-10.962,1.2347
25109,13.768,0.72727,0.1,0.00023676,2366,0.00023659,2360.9,-7.7624e-05,0.0026412,-7.8987e-05,-10.24,1.2216
25110,13.86,0.45455,0.1,0.00023465,2344.9,0.00023445,2338.9,-7.6842e-05,0.0046909,-7.8435e-05,-11.964,1.234
25111,13.768,0.54545,0.1,0.00023694,2367.8,0.00023675,2362.1,-7.7634e-05,0.003093,-7.9126e-05,-11.21,1.2209
25112,13.86,0.27273,0.1,0.00023498,2348.1,0.00023474,2341.2,-7.6855e-05,0.004062,-7.8697e-05,-13.832,1.2332
25113,13.768,0.36364,0.1,0.00023714,2369.8,0.00023693,2363.6,-7.7645e-05,0.0058439,-7.9287e-05,-12.325,1.2202
25114,13.768,0.18182,0.1,0.0002376,2374.4,0.00023734,2366.8,-7.7659e-05,0.0013656,-7.9668e-05,-15.094,1.2194
25115,13.86,0.090909,0.1,0.00023447,2343.1,0.0002343,2338,-7.6869e-05,0.0027218,-7.8231e-05,-10.227,1.2325
25116,13.676,5.7273,0.1,0.00023975,2395.9,0.00023952,2389.1,-7.8449e-05,0.0038126,-8.0243e-05,-13.476,1.2064
25117,13.583,5.8182,0.1,0.00024239,2422.2,0.00024213,2414.8,-7.9255e-05,0.00154,-8.122e-05,-14.76,1.1927
25118,13.676,5.9091,0.1,0.00023927,2391,0.00023909,2386,-7.8461e-05,0.002577,-7.9794e-05,-10.017,1.2056
25119,13.676,5.5455,0.1,0.00023943,2392.6,0.00023923,2386.8,-7.8438e-05,0.0043166,-7.9974e-05,-11.541,1.2072
25120,13.583,5.6364,0.1,0.00024193,2417.6,0.00024172,2411.6,-7.9244e-05,0.0052537,-8.0833e-05,-11.935,1.1935
25121,13.676,5.3636,0.1,0.00023923,2390.7,0.00023905,2385.4,-7.8428e-05,0.002816,-7.9821e-05,-10.462,1.2079
25122,13.583,5.4545,0.1,0.00024172,2415.5,0.00024153,2410.1,-7.9235e-05,0.0029224,-8.0664e-05,-10.74,1.1942
25123,13.676,5.1818,0.1,0.00023906,2388.9,0.0002389,2384.2,-7.8419e-05,0.0021887,-7.9682e-05,-9.4856,1.2085
25124,13.583,5.2727,0.1,0.00024154,2413.7,0.00024137,2408.8,-7.9226e-05,0.0025414,-8.0516e-05,-9.6908,1.1949
25125,13.676,5,0.1,0.0002389,2387.3,0.00023875,2383,-7.8412e-05,0.0013926,-7.9553e-05,-8.5716,1.2091
25126,13.583,5.0909,0.1,0.00024137,2412,0.00024122,2407.6,-7.9219e-05,0.0017806,-8.0378e-05,-8.7059,1.1955
25127,13.676,4.8182,0.1,0.00023875,2385.9,0.00023862,2382,-7.8405e-05,0.00060643,-7.9433e-05,-7.7215,1.2097
25128,13.583,4.9091,0.1,0.00024121,2410.4,0.00024108,2406.5,-7.9213e-05,0.0010889,-8.025e-05,-7.7849,1.1961
25129,13.676,4.6364,0.1,0.00023862,2384.5,0.0002385,2381.1,-7.84e-05,-0.00022321,-7.9323e-05,-6.9392,1.2102
25130,13.583,4.7273,0.1,0.00024107,2409,0.00024095,2405.5,-7.9209e-05,0.00034165,-8.0131e-05,-6.932,1.1966
25131,13.676,4.4545,0.1,0.0002385,2383.3,0.00023839,2380.2,-7.8395e-05,-0.001088,-7.9224e-05,-6.2284,1.2106
25132,13.583,4.5455,0.1,0.00024094,2407.7,0.00024083,2404.6,-7.9204e-05,-0.00044099,-8.0023e-05,-6.1512,1.1971
25133,13.676,4.2727,0.1,0.00023839,2382.2,0.00023829,2379.4,-7.8391e-05,-0.0019914,-7.9136e-05,-5.5924,1.211
25134,13.583,4.3636,0.1,0.00024082,2406.5,0.00024073,2403.8,-7.9201e-05,-0.0012729,-7.9926e-05,-5.4464,1.1975
25135,13.676,4.0909,0.1,0.0002383,2381.3,0.00023821,2378.8,-7.8388e-05,-0.0029237,-7.9058e-05,-5.0344,1.2114
25136,13.583,4.1818,0.1,0.00024072,2405.5,0.00024064,2403.1,-7.9198e-05,-0.0021554,-7.984e-05,-4.8211,1.1979
25137,13.676,3.9091,0.1,0.00023822,2380.5,0.00023814,2378.2,-7.8386e-05,-0.0038631,-7.8992e-05,-4.5572,1.2116
25138,13.583,4,0.1,0.00024063,2404.6,0.00024056,2402.5,-7.9196e-05,-0.0030816,-7.9765e-05,-4.2787,1.1982
25139,13.676,3.7273,0.1,0.00023815,2379.9,0.00023808,2377.8,-7.8384e-05,-0.0047715,-7.8937e-05,-4.1632,1.2119
25140,13.583,3.8182,0.1,0.00024056,2403.9,0.00024049,2402,-7.9194e-05,-0.0040248,-7.9703e-05,-3.822,1.1985
25141,13.676,3.5455,0.1,0.0002381,2379.4,0.00023803,2377.4,-7.8383e-05,-0.0055947,-7.8895e-05,-3.8545,1.2121
25142,13.583,3.6364,0.1,0.0002405,2403.3,0.00024044,2401.6,-7.9193e-05,-0.0049409,-7.9652e-05,-3.4535,1.1987
25143,13.676,3.3636,0.1,0.00023806,2379,0.000238,2377.2,-7.8382e-05,-0.0062613,-7.8864e-05,-3.6327,1.2122
25144,13.583,3.4545,0.1,0.00024045,2402.9,0.0002404,2401.3,-7.9192e-05,-0.0057566,-7.9614e-05,-3.1752,1.1988
25145,13.676,3.1818,0.1,0.00023804,2378.8,0.00023798,2377,-7.8381e-05,-0.0066982,-7.8846e-05,-3.4992,1.2123
25146,13.583,3.2727,0.1,0.00024042,2402.6,0.00024037,2401.1,-7.9192e-05,-0.0063784,-7.9589e-05,-2.9887,1.199
25147,13.676,3,0.1,0.00023803,2378.7,0.00023798,2377,-7.8381e-05,-0.0068509,-7.884e-05,-3.4546,1.2123
25148,13.583,3.0909,0.1,0.00024041,2402.4,0.00024036,2401,-7.9191e-05,-0.0067169,-7.9576e-05,-2.8952,1.199
25149,13.676,2.8182,0.1,0.00023804,2378.8,0.00023798,2377,-7.8381e-05,-0.0066984,-7.8846e-05,-3.4992,1.2123
25150,13.583,2.9091,0.1,0.00024041,2402.4,0.00024036,2401,-7.9191e-05,-0.0067171,-7.9576e-05,-2.8952,1.199
25151,13.676,2.6364,0.1,0.00023806,2379,0.000238,2377.2,-7.8382e-05,-0.0062613,-7.8864e-05,-3.6327,1.2122
25152,13.583,2.7273,0.1,0.00024042,2402.6,0.00024037,2401.1,-7.9192e-05,-0.0063783,-7.9589e-05,-2.9887,1.199
25153,13.676,2.4545,0.1,0.0002381,2379.4,0.00023803,2377.4,-7.8383e-05,-0.0055943,-7.8895e-05,-3.8544,1.2121
25154,13.583,2.5455,0.1,0.00024045,2402.9,0.0002404,2401.3,-7.9192e-05,-0.0057563,-7.9614e-05,-3.1751,1.1988
25155,13.676,2.2727,0.1,0.00023815,2379.9,0.00023808,2377.8,-7.8384e-05,-0.0047713,-7.8937e-05,-4.1631,1.2119
25156,13.583,2.3636,0.1,0.0002405,2403.3,0.00024044,2401.6,-7.9193e-05,-0.0049405,-7.9652e-05,-3.4534,1.1987
25157,13.676,2.0909,0.1,0.00023822,2380.5,0.00023814,2378.2,-7.8386e-05,-0.0038624,-7.8992e-05,-4.5571,1.2116
25158,13.583,2.1818,0.1,0.00024056,2403.9,0.00024049,2402,-7.9194e-05,-0.0040251,-7.9703e-05,-3.822,1.1985
25159,13.676,1.9091,0.1,0.0002383,2381.3,0.00023821,2378.8,-7.8388e-05,-0.0029232,-7.9058e-05,-5.0344,1.2114
25160,13.583,2,0.1,0.00024063,2404.6,0.00024056,2402.5,-7.9196e-05,-0.0030812,-7.9765e-05,-4.2787,1.1982
25161,13.676,1.7273,0.1,0.00023839,2382.2,0.00023829,2379.4,-7.8391e-05,-0.0019917,-7.9136e-05,-5.5924,1.211
25162,13.583,1.8182,0.1,0.00024072,2405.5,0.00024064,2403.1,-7.9198e-05,-0.0021554,-7.984e-05,-4.8211,1.1979
25163,13.676,1.5455,0.1,0.0002385,2383.3,0.00023839,2380.2,-7.8395e-05,-0.0010884,-7.9224e-05,-6.2283,1.2106
25164,13.583,1.6364,0.1,0.00024082,2406.5,0.00024073,2403.8,-7.9201e-05,-0.001273,-7.9926e-05,-5.4463,1.1975
25165,13.676,1.3636,0.1,0.00023862,2384.5,0.0002385,2381.1,-7.84e-05,-0.0002229,-7.9323e-05,-6.9392,1.2102
25166,13.583,1.4545,0.1,0.00024094,2407.7,0.00024083,2404.6,-7.9204e-05,-0.00044172,-8.0023e-05,-6.1511,1.1971
25167,13.676,1.1818,0.1,0.00023875,2385.9,0.00023862,2382,-7.8405e-05,0.00060636,-7.9433e-05,-7.7214,1.2097
25168,13.583,1.2727,0.1,0.00024107,2409,0.00024095,2405.5,-7.9209e-05,0.0003418,-8.0131e-05,-6.9319,1.1966
25169,13.676,1,0.1,0.0002389,2387.3,0.00023875,2383,-7.8412e-05,0.0013912,-7.9553e-05,-8.5715,1.2091
25170,13.583,1.0909,0.1,0.00024121,2410.4,0.00024108,2406.5,-7.9213e-05,0.0010881,-8.025e-05,-7.7849,1.1961
25171,13.676,0.81818,0.1,0.00023906,2388.9,0.0002389,2384.2,-7.8419e-05,0.0021871,-7.9682e-05,-9.4856,1.2085
25172,13.583,0.90909,0.1,0.00024137,2412,0.00024122,2407.6,-7.9219e-05,0.0017787,-8.0378e-05,-8.7058,1.1955
25173,13.676,0.63636,0.1,0.00023923,2390.7,0.00023905,2385.4,-7.8428e-05,0.0028149,-7.9821e-05,-10.462,1.2079
25174,13.583,0.72727,0.1,0.00024154,2413.7,0.00024137,2408.8,-7.9226e-05,0.00254,-8.0516e-05,-9.6907,1.1949
25175,13.676,0.45455,0.1,0.00023943,2392.6,0.00023923,2386.8,-7.8438e-05,0.0043165,-7.9974e-05,-11.541,1.2072
25176,13.583,0.54545,0.1,0.00024172,2415.5,0.00024153,2410.1,-7.9235e-05,0.0029219,-8.0664e-05,-10.74,1.1942
25177,13.676,0.27273,0.1,0.00023975,2395.9,0.00023952,2389.1,-7.8449e-05,0.003813,-8.0243e-05,-13.476,1.2064
25178,13.583,0.36364,0.1,0.00024193,2417.6,0.00024172,2411.6,-7.9244e-05,0.005254,-8.0833e-05,-11.935,1.1935
25179,13.583,0.18182,0.1,0.00024239,2422.2,0.00024213,2414.8,-7.9255e-05,0.0015401,-8.122e-05,-14.76,1.1927
25180,13.676,0.090909,0.1,0.00023927,2391,0.00023909,2386,-7.8461e-05,0.0025758,-7.9794e-05,-10.017,1.2056
25181,13.491,5.7273,0.1,0.00024455,2443.8,0.00024432,2437.2,-8.005e-05,0.0035549,-8.1795e-05,-13.11,1.1798
25182,13.399,5.8182,0.1,0.00024719,2470.2,0.00024695,2463,-8.0858e-05,0.0017339,-8.2778e-05,-14.42,1.1661
25183,13.491,5.9091,0.1,0.00024408,2439.1,0.00024391,2434.2,-8.006e-05,0.0024314,-8.1365e-05,-9.8035,1.179
25184,13.491,5.5455,0.1,0.00024422,2440.5,0.00024403,2434.9,-8.0041e-05,0.0039221,-8.1519e-05,-11.104,1.1806
25185,13.399,5.6364,0.1,0.00024673,2465.6,0.00024653,2459.8,-8.085e-05,0.0046324,-8.2385e-05,-11.533,1.1669
25186,13.491,5.3636,0.1,0.00024402,2438.5,0.00024385,2433.5,-8.0033e-05,0.0026771,-8.1357e-05,-9.9428,1.1813
25187,13.399,5.4545,0.1,0.00024652,2463.5,0.00024634,2458.3,-8.0843e-05,0.0027441,-8.2207e-05,-10.252,1.1677
25188,13.491,5.1818,0.1,0.00024384,2436.7,0.00024369,2432.3,-8.0027e-05,0.002163,-8.121e-05,-8.8854,1.1819
25189,13.399,5.2727,0.1,0.00024633,2461.6,0.00024617,2457,-8.0837e-05,0.0024424,-8.205e-05,-9.1172,1.1684
25190,13.491,5,0.1,0.00024367,2435.1,0.00024354,2431.1,-8.0021e-05,0.0015112,-8.1072e-05,-7.8938,1.1826
25191,13.399,5.0909,0.1,0.00024615,2459.8,0.00024602,2455.8,-8.0832e-05,0.0018426,-8.1904e-05,-8.0501,1.169
25192,13.491,4.8182,0.1,0.00024352,2433.5,0.0002434,2430,-8.0017e-05,0.00086534,-8.0945e-05,-6.9701,1.1831
25193,13.399,4.9091,0.1,0.00024599,2458.2,0.00024587,2454.7,-8.0828e-05,0.0013033,-8.1766e-05,-7.0506,1.1696
25194,13.491,4.6364,0.1,0.00024338,2432.1,0.00024328,2429.1,-8.0013e-05,0.00017441,-8.0827e-05,-6.1188,1.1836
25195,13.399,4.7273,0.1,0.00024584,2456.7,0.00024574,2453.7,-8.0825e-05,0.00072112,-8.164e-05,-6.1235,1.1701
25196,13.491,4.4545,0.1,0.00024326,2430.9,0.00024317,2428.2,-8.001e-05,-0.0005642,-8.0721e-05,-5.3441,1.1841
25197,13.399,4.5455,0.1,0.00024571,2455.4,0.00024562,2452.7,-8.0822e-05,0.0001029,-8.1524e-05,-5.2736,1.1706
25198,13.491,4.2727,0.1,0.00024315,2429.8,0.00024307,2427.4,-8.0008e-05,-0.0013641,-8.0626e-05,-4.6502,1.1845
25199,13.399,4.3636,0.1,0.00024559,2454.2,0.00024551,2451.9,-8.0821e-05,-0.00057498,-8.142e-05,-4.5055,1.1711
25200,13.491,4.0909,0.1,0.00024305,2428.8,0.00024298,2426.8,-8.0006e-05,-0.0022329,-8.0543e-05,-4.0406,1.1848
25201,13.399,4.1818,0.1,0.00024548,2453.1,0.00024542,2451.2,-8.0819e-05,-0.0013292,-8.1328e-05,-3.8234,1.1714
25202,13.491,3.9091,0.1,0.00024297,2428,0.00024291,2426.2,-8.0005e-05,-0.0031649,-8.0472e-05,-3.5188,1.1851
25203,13.399,4,0.1,0.00024539,2452.2,0.00024533,2450.6,-8.0818e-05,-0.0021794,-8.1248e-05,-3.2311,1.1717
25204,13.491,3.7273,0.1,0.0002429,2427.3,0.00024284,2425.8,-8.0004e-05,-0.0041334,-8.0414e-05,-3.0876,1.1853
25205,13.399,3.8182,0.1,0.00024531,2451.4,0.00024526,2450.1,-8.0818e-05,-0.0031255,-8.1181e-05,-2.7319,1.172
25206,13.491,3.5455,0.1,0.00024284,2426.8,0.0002428,2425.4,-8.0003e-05,-0.0050789,-8.0368e-05,-2.7495,1.1855
25207,13.399,3.6364,0.1,0.00024525,2450.8,0.00024521,2449.6,-8.0817e-05,-0.0041462,-8.1127e-05,-2.3287,1.1722
25208,13.491,3.3636,0.1,0.00024281,2426.4,0.00024276,2425.1,-8.0002e-05,-0.0058998,-8.0335e-05,-2.5064,1.1857
25209,13.399,3.4545,0.1,0.0002452,2450.3,0.00024517,2449.3,-8.0817e-05,-0.0051597,-8.1086e-05,-2.0239,1.1724
25210,13.491,3.1818,0.1,0.00024278,2426.2,0.00024274,2425,-8.0002e-05,-0.0064688,-8.0315e-05,-2.36,1.1857
25211,13.399,3.2727,0.1,0.00024517,2450,0.00024514,2449.1,-8.0817e-05,-0.006015,-8.1058e-05,-1.8196,1.1725
25212,13.491,3,0.1,0.00024278,2426.1,0.00024274,2424.9,-8.0002e-05,-0.0066735,-8.0309e-05,-2.311,1.1858
25213,13.399,3.0909,0.1,0.00024516,2449.9,0.00024513,2449,-8.0817e-05,-0.0065154,-8.1045e-05,-1.717,1.1726
25214,13.491,2.8182,0.1,0.00024278,2426.2,0.00024274,2425,-8.0002e-05,-0.0064687,-8.0315e-05,-2.36,1.1857
25215,13.399,2.9091,0.1,0.00024516,2449.9,0.00024513,2449,-8.0817e-05,-0.0065156,-8.1045e-05,-1.717,1.1726
25216,13.491,2.6364,0.1,0.00024281,2426.4,0.00024276,2425.1,-8.0002e-05,-0.0058994,-8.0335e-05,-2.5064,1.1857
25217,13.399,2.7273,0.1,0.00024517,2450,0.00024514,2449.1,-8.0817e-05,-0.0060146,-8.1058e-05,-1.8196,1.1725
25218,13.491,2.4545,0.1,0.00024284,2426.8,0.0002428,2425.4,-8.0003e-05,-0.0050786,-8.0368e-05,-2.7495,1.1855
25219,13.399,2.5455,0.1,0.0002452,2450.3,0.00024517,2449.3,-8.0817e-05,-0.00516,-8.1086e-05,-2.0239,1.1724
25220,13.491,2.2727,0.1,0.0002429,2427.3,0.00024284,2425.8,-8.0004e-05,-0.0041336,-8.0414e-05,-3.0876,1.1853
25221,13.399,2.3636,0.1,0.00024525,2450.8,0.00024521,2449.6,-8.0817e-05,-0.0041459,-8.1127e-05,-2.3287,1.1722
25222,13.491,2.0909,0.1,0.00024297,2428,0.00024291,2426.2,-8.0005e-05,-0.0031655,-8.0472e-05,-3.5188,1.1851
25223,13.399,2.1818,0.1,0.00024531,2451.4,0.00024526,2450.1,-8.0818e-05,-0.003126,-8.1181e-05,-2.7319,1.172
25224,13.491,1.9091,0.1,0.00024305,2428.8,0.00024298,2426.8,-8.0006e-05,-0.0022331,-8.0543e-05,-4.0406,1.1848
25225,13.399,2,0.1,0.00024539,2452.2,0.00024533,2450.6,-8.0818e-05,-0.0021792,-8.1248e-05,-3.2311,1.1717
25226,13.491,1.7273,0.1,0.00024315,2429.8,0.00024307,2427.4,-8.0008e-05,-0.0013639,-8.0626e-05,-4.6501,1.1845
25227,13.399,1.8182,0.1,0.00024548,2453.1,0.00024542,2451.2,-8.0819e-05,-0.0013295,-8.1328e-05,-3.8234,1.1714
25228,13.491,1.5455,0.1,0.00024326,2430.9,0.00024317,2428.2,-8.001e-05,-0.00056461,-8.0721e-05,-5.3441,1.1841
25229,13.399,1.6364,0.1,0.00024559,2454.2,0.00024551,2451.9,-8.0821e-05,-0.0005746,-8.142e-05,-4.5055,1.1711
25230,13.491,1.3636,0.1,0.00024338,2432.1,0.00024328,2429.1,-8.0013e-05,0.00017354,-8.0827e-05,-6.1187,1.1836
25231,13.399,1.4545,0.1,0.00024571,2455.4,0.00024562,2452.7,-8.0822e-05,0.00010198,-8.1524e-05,-5.2736,1.1706
25232,13.491,1.1818,0.1,0.00024352,2433.5,0.0002434,2430,-8.0017e-05,0.00086471,-8.0945e-05,-6.9701,1.1831
25233,13.399,1.2727,0.1,0.00024584,2456.7,0.00024574,2453.7,-8.0825e-05,0.0007208,-8.164e-05,-6.1234,1.1701
25234,13.491,1,0.1,0.00024367,2435.1,0.00024354,2431.1,-8.0021e-05,0.0015098,-8.1072e-05,-7.8938,1.1826
25235,13.399,1.0909,0.1,0.00024599,2458.2,0.00024587,2454.7,-8.0828e-05,0.0013034,-8.1766e-05,-7.0505,1.1696
25236,13.491,0.81818,0.1,0.00024384,2436.7,0.00024369,2432.3,-8.0027e-05,0.0021613,-8.121e-05,-8.8854,1.1819
25237,13.399,0.90909,0.1,0.00024615,2459.8,0.00024602,2455.8,-8.0832e-05,0.0018404,-8.1904e-05,-8.05,1.169
25238,13.491,0.63636,0.1,0.00024402,2438.5,0.00024385,2433.5,-8.0033e-05,0.0026762,-8.1357e-05,-9.9428,1.1813
25239,13.399,0.72727,0.1,0.00024633,2461.6,0.00024617,2457,-8.0837e-05,0.0024409,-8.205e-05,-9.1172,1.1684
25240,13.491,0.45455,0.1,0.00024422,2440.5,0.00024403,2434.9,-8.0041e-05,0.0039221,-8.1519e-05,-11.104,1.1806
25241,13.399,0.54545,0.1,0.00024652,2463.5,0.00024634,2458.3,-8.0843e-05,0.0027442,-8.2207e-05,-10.252,1.1677
25242,13.491,0.27273,0.1,0.00024455,2443.8,0.00024432,2437.2,-8.005e-05,0.0035549,-8.1795e-05,-13.11,1.1798
25243,13.399,0.36364,0.1,0.00024673,2465.6,0.00024653,2459.8,-8.085e-05,0.0046322,-8.2385e-05,-11.533,1.1669
25244,13.399,0.18182,0.1,0.00024719,2470.2,0.00024695,2463,-8.0858e-05,0.001734,-8.2778e-05,-14.42,1.1661
25245,13.491,0.090909,0.1,0.00024408,2439.1,0.00024391,2434.2,-8.006e-05,0.0024309,-8.1365e-05,-9.8035,1.179
25246,13.307,5.7273,0.1,0.00024936,2491.9,0.00024914,2485.5,-8.1658e-05,0.0032893,-8.3353e-05,-12.735,1.1533
25247,13.215,5.8182,0.1,0.00025202,2518.5,0.00025178,2511.4,-8.2469e-05,0.0019429,-8.4342e-05,-14.073,1.1397
25248,13.307,5.9091,0.1,0.00024891,2487.4,0.00024875,2482.6,-8.1665e-05,0.0022845,-8.2942e-05,-9.5867,1.1525
25249,13.307,5.5455,0.1,0.00024903,2488.6,0.00024885,2483.2,-8.1651e-05,0.0035076,-8.3069e-05,-10.651,1.1541
25250,13.215,5.6364,0.1,0.00025156,2513.8,0.00025137,2508.3,-8.2463e-05,0.0039691,-8.3943e-05,-11.116,1.1405
25251,13.307,5.3636,0.1,0.00024883,2486.5,0.00024866,2481.8,-8.1646e-05,0.0025361,-8.2898e-05,-9.4008,1.1548
25252,13.215,5.4545,0.1,0.00025134,2511.6,0.00025117,2506.8,-8.2458e-05,0.0025505,-8.3755e-05,-9.7428,1.1413
25253,13.307,5.1818,0.1,0.00024864,2484.7,0.0002485,2480.6,-8.1642e-05,0.0021507,-8.2741e-05,-8.2567,1.1555
25254,13.215,5.2727,0.1,0.00025114,2509.7,0.000251,2505.4,-8.2455e-05,0.0023392,-8.3588e-05,-8.5167,1.142
25255,13.307,5,0.1,0.00024847,2483,0.00024835,2479.4,-8.1639e-05,0.0016708,-8.2595e-05,-7.1818,1.1561
25256,13.215,5.0909,0.1,0.00025096,2507.9,0.00025084,2504.2,-8.2452e-05,0.0019275,-8.3432e-05,-7.3611,1.1427
25257,13.307,4.8182,0.1,0.00024831,2481.4,0.0002482,2478.3,-8.1636e-05,0.0012078,-8.2459e-05,-6.1791,1.1567
25258,13.215,4.9091,0.1,0.00025079,2506.2,0.00025069,2503.1,-8.245e-05,0.0015851,-8.3286e-05,-6.2771,1.1433
25259,13.307,4.6364,0.1,0.00024817,2479.9,0.00024808,2477.3,-8.1634e-05,0.00071828,-8.2334e-05,-5.2536,1.1572
25260,13.215,4.7273,0.1,0.00025064,2504.6,0.00025055,2502,-8.2449e-05,0.0012363,-8.3151e-05,-5.2703,1.1438
25261,13.307,4.4545,0.1,0.00024803,2478.6,0.00024796,2476.4,-8.1633e-05,0.00019024,-8.222e-05,-4.4105,1.1577
25262,13.215,4.5455,0.1,0.0002505,2503.2,0.00025042,2501.1,-8.2449e-05,0.00088707,-8.3027e-05,-4.3463,1.1443
25263,13.307,4.2727,0.1,0.00024792,2477.5,0.00024786,2475.6,-8.1632e-05,-0.00040149,-8.2118e-05,-3.6544,1.1581
25264,13.215,4.3636,0.1,0.00025037,2502,0.00025031,2500.2,-8.2448e-05,0.00051812,-8.2916e-05,-3.5103,1.1447
25265,13.307,4.0909,0.1,0.00024782,2476.5,0.00024777,2475,-8.1632e-05,-0.001087,-8.2029e-05,-2.9896,1.1584
25266,13.215,4.1818,0.1,0.00025026,2500.9,0.00025021,2499.5,-8.2449e-05,0.00010424,-8.2817e-05,-2.7673,1.1451
25267,13.307,3.9091,0.1,0.00024773,2475.6,0.00024769,2474.4,-8.1631e-05,-0.0019011,-8.1953e-05,-2.42,1.1587
25268,13.215,4,0.1,0.00025016,2499.9,0.00025013,2498.8,-8.2449e-05,-0.00039407,-8.2731e-05,-2.1215,1.1454
25269,13.307,3.7273,0.1,0.00024766,2474.9,0.00024763,2473.9,-8.1631e-05,-0.002872,-8.189e-05,-1.9489,1.159
25270,13.215,3.8182,0.1,0.00025008,2499.1,0.00025006,2498.3,-8.2449e-05,-0.0010385,-8.2659e-05,-1.5768,1.1457
25271,13.307,3.5455,0.1,0.0002476,2474.3,0.00024758,2473.5,-8.1632e-05,-0.0039943,-8.1841e-05,-1.5791,1.1592
25272,13.215,3.6364,0.1,0.00025002,2498.5,0.00025,2497.9,-8.245e-05,-0.0019302,-8.2601e-05,-1.1365,1.1459
25273,13.307,3.3636,0.1,0.00024756,2473.9,0.00024754,2473.3,-8.1632e-05,-0.0051632,-8.1806e-05,-1.313,1.1593
25274,13.215,3.4545,0.1,0.00024997,2498,0.00024996,2497.6,-8.245e-05,-0.0031882,-8.2557e-05,-0.8033,1.1461
25275,13.307,3.1818,0.1,0.00024754,2473.7,0.00024752,2473.1,-8.1632e-05,-0.0061157,-8.1784e-05,-1.1524,1.1594
25276,13.215,3.2727,0.1,0.00024994,2497.6,0.00024993,2497.4,-8.2451e-05,-0.0048021,-8.2527e-05,-0.57917,1.1462
25277,13.307,3,0.1,0.00024753,2473.6,0.00024751,2473.1,-8.1632e-05,-0.0064938,-8.1777e-05,-1.0987,1.1594
25278,13.215,3.0909,0.1,0.00024992,2497.5,0.00024991,2497.2,-8.2451e-05,-0.006187,-8.2512e-05,-0.46617,1.1463
25279,13.307,2.8182,0.1,0.00024754,2473.7,0.00024752,2473.1,-8.1632e-05,-0.0061156,-8.1784e-05,-1.1524,1.1594
25280,13.215,2.9091,0.1,0.00024992,2497.5,0.00024991,2497.2,-8.2451e-05,-0.0061867,-8.2512e-05,-0.46617,1.1463
25281,13.307,2.6364,0.1,0.00024756,2473.9,0.00024754,2473.3,-8.1632e-05,-0.0051635,-8.1806e-05,-1.313,1.1593
25282,13.215,2.7273,0.1,0.00024994,2497.6,0.00024993,2497.4,-8.2451e-05,-0.004802,-8.2527e-05,-0.57916,1.1462
25283,13.307,2.4545,0.1,0.0002476,2474.3,0.00024758,2473.5,-8.1632e-05,-0.0039947,-8.1841e-05,-1.5791,1.1592
25284,13.215,2.5455,0.1,0.00024997,2498,0.00024996,2497.6,-8.245e-05,-0.0031884,-8.2557e-05,-0.80329,1.1461
25285,13.307,2.2727,0.1,0.00024766,2474.9,0.00024763,2473.9,-8.1631e-05,-0.0028721,-8.189e-05,-1.9489,1.159
25286,13.215,2.3636,0.1,0.00025002,2498.5,0.00025,2497.9,-8.245e-05,-0.0019299,-8.2601e-05,-1.1365,1.1459
25287,13.307,2.0909,0.1,0.00024773,2475.6,0.00024769,2474.4,-8.1631e-05,-0.0019008,-8.1953e-05,-2.42,1.1587
25288,13.215,2.1818,0.1,0.00025008,2499.1,0.00025006,2498.3,-8.2449e-05,-0.0010386,-8.2659e-05,-1.5768,1.1457
25289,13.307,1.9091,0.1,0.00024782,2476.5,0.00024777,2475,-8.1632e-05,-0.0010869,-8.2029e-05,-2.9896,1.1584
25290,13.215,2,0.1,0.00025016,2499.9,0.00025013,2498.8,-8.2449e-05,-0.00039368,-8.2731e-05,-2.1214,1.1454
25291,13.307,1.7273,0.1,0.00024792,2477.5,0.00024786,2475.6,-8.1632e-05,-0.0004015,-8.2118e-05,-3.6544,1.1581
25292,13.215,1.8182,0.1,0.00025026,2500.9,0.00025021,2499.5,-8.2449e-05,0.00010422,-8.2817e-05,-2.7672,1.1451
25293,13.307,1.5455,0.1,0.00024804,2478.6,0.00024796,2476.4,-8.1633e-05,0.00019011,-8.222e-05,-4.4104,1.1577
25294,13.215,1.6364,0.1,0.00025037,2502,0.00025031,2500.2,-8.2448e-05,0.00051839,-8.2916e-05,-3.5103,1.1447
25295,13.307,1.3636,0.1,0.00024817,2479.9,0.00024808,2477.3,-8.1634e-05,0.00071791,-8.2334e-05,-5.2535,1.1572
25296,13.215,1.4545,0.1,0.0002505,2503.2,0.00025042,2501.1,-8.2449e-05,0.00088673,-8.3027e-05,-4.3462,1.1443
25297,13.307,1.1818,0.1,0.00024831,2481.4,0.0002482,2478.3,-8.1636e-05,0.0012082,-8.2459e-05,-6.179,1.1567
25298,13.215,1.2727,0.1,0.00025064,2504.6,0.00025055,2502,-8.2449e-05,0.001236,-8.3151e-05,-5.2702,1.1438
25299,13.307,1,0.1,0.00024847,2483,0.00024835,2479.4,-8.1639e-05,0.00167,-8.2595e-05,-7.1818,1.1561
25300,13.215,1.0909,0.1,0.00025079,2506.2,0.00025069,2503.1,-8.245e-05,0.0015854,-8.3286e-05,-6.277,1.1433
25301,13.307,0.81818,0.1,0.00024864,2484.7,0.0002485,2480.6,-8.1642e-05,0.0021487,-8.2741e-05,-8.2567,1.1555
25302,13.215,0.90909,0.1,0.00025096,2507.9,0.00025084,2504.2,-8.2452e-05,0.0019258,-8.3432e-05,-7.361,1.1427
25303,13.307,0.63636,0.1,0.00024883,2486.5,0.00024866,2481.8,-8.1646e-05,0.0025355,-8.2898e-05,-9.4007,1.1548
25304,13.215,0.72727,0.1,0.00025114,2509.7,0.000251,2505.4,-8.2455e-05,0.0023372,-8.3588e-05,-8.5166,1.142
25305,13.307,0.45455,0.1,0.00024903,2488.6,0.00024885,2483.2,-8.1651e-05,0.0035075,-8.3069e-05,-10.651,1.1541
25306,13.215,0.54545,0.1,0.00025134,2511.6,0.00025117,2506.8,-8.2458e-05,0.0025506,-8.3755e-05,-9.7428,1.1413
25307,13.307,0.27273,0.1,0.00024936,2491.9,0.00024914,2485.5,-8.1658e-05,0.0032892,-8.3353e-05,-12.735,1.1533
25308,13.215,0.36364,0.1,0.00025156,2513.8,0.00025137,2508.3,-8.2463e-05,0.0039691,-8.3943e-05,-11.116,1.1405
25309,13.215,0.18182,0.1,0.00025202,2518.5,0.00025178,2511.4,-8.2469e-05,0.001943,-8.4342e-05,-14.073,1.1397
25310,13.307,0.090909,0.1,0.00024891,2487.4,0.00024875,2482.6,-8.1665e-05,0.0022849,-8.2942e-05,-9.5867,1.1525
25311,13.122,5.7273,0.1,0.0002542,2540.2,0.00025399,2534.1,-8.3273e-05,0.0030001,-8.4917e-05,-12.348,1.127
25312,13.03,5.8182,0.1,0.00025687,2566.9,0.00025663,2560,-8.4087e-05,0.0021724,-8.5913e-05,-13.718,1.1135
25313,13.122,5.9091,0.1,0.00025377,2535.9,0.00025361,2531.2,-8.3278e-05,0.0021245,-8.4525e-05,-9.366,1.1261
25314,13.122,5.5455,0.1,0.00025386,2536.9,0.00025369,2531.8,-8.3269e-05,0.0030536,-8.4625e-05,-10.18,1.1278
25315,13.03,5.6364,0.1,0.0002564,2562.3,0.00025622,2556.9,-8.4083e-05,0.0032624,-8.5506e-05,-10.685,1.1143
25316,13.122,5.3636,0.1,0.00025365,2534.8,0.0002535,2530.3,-8.3267e-05,0.0023753,-8.4443e-05,-8.8336,1.1285
25317,13.03,5.4545,0.1,0.00025618,2560,0.00025602,2555.4,-8.4081e-05,0.0023422,-8.5308e-05,-9.2109,1.1151
25318,13.122,5.1818,0.1,0.00025346,2532.8,0.00025333,2529,-8.3265e-05,0.0021409,-8.4276e-05,-7.5962,1.1292
25319,13.03,5.2727,0.1,0.00025597,2558,0.00025584,2554,-8.408e-05,0.0022362,-8.513e-05,-7.8861,1.1158
25320,13.122,5,0.1,0.00025328,2531.1,0.00025317,2527.8,-8.3264e-05,0.0018769,-8.412e-05,-6.4317,1.1299
25321,13.03,5.0909,0.1,0.00025579,2556.1,0.00025567,2552.8,-8.408e-05,0.0020524,-8.4964e-05,-6.6352,1.1165
25322,13.122,4.8182,0.1,0.00025312,2529.4,0.00025303,2526.7,-8.3263e-05,0.0016693,-8.3975e-05,-5.3439,1.1304
25323,13.03,4.9091,0.1,0.00025561,2554.3,0.00025552,2551.6,-8.4081e-05,0.0019789,-8.4808e-05,-5.4602,1.1171
25324,13.122,4.6364,0.1,0.00025297,2527.9,0.00025289,2525.7,-8.3264e-05,0.0015001,-8.3841e-05,-4.3388,1.131
25325,13.03,4.7273,0.1,0.00025545,2552.7,0.00025537,2550.5,-8.4082e-05,0.0019967,-8.4663e-05,-4.3677,1.1177
25326,13.122,4.4545,0.1,0.00025283,2526.6,0.00025277,2524.8,-8.3264e-05,0.0013838,-8.372e-05,-3.4221,1.1314
25327,13.03,4.5455,0.1,0.0002553,2551.3,0.00025525,2549.6,-8.4083e-05,0.0021631,-8.4531e-05,-3.364,1.1181
25328,13.122,4.2727,0.1,0.00025271,2525.3,0.00025266,2524,-8.3265e-05,0.0013323,-8.3611e-05,-2.5994,1.1318
25329,13.03,4.3636,0.1,0.00025517,2550,0.00025513,2548.7,-8.4085e-05,0.0025811,-8.4412e-05,-2.4553,1.1186
25330,13.122,4.0909,0.1,0.0002526,2524.3,0.00025257,2523.3,-8.3266e-05,0.0013754,-8.3516e-05,-1.8757,1.1322
25331,13.03,4.1818,0.1,0.00025505,2548.8,0.00025503,2548,-8.4086e-05,0.0035002,-8.4306e-05,-1.6474,1.119
25332,13.122,3.9091,0.1,0.00025251,2523.4,0.00025249,2522.8,-8.3267e-05,0.0015885,-8.3434e-05,-1.2555,1.1325
25333,13.03,4,0.1,0.00025495,2547.8,0.00025494,2547.3,-8.4088e-05,0.0057811,-8.4214e-05,-0.94632,1.1193
25334,13.122,3.7273,0.1,0.00025244,2522.6,0.00025243,2522.3,-8.3267e-05,0.0021855,-8.3367e-05,-0.74293,1.1328
25335,13.03,3.8182,0.1,0.00025487,2546.9,0.00025486,2546.8,-8.4088e-05,0.014802,-8.4138e-05,-0.36196,1.1196
25336,13.122,3.5455,0.1,0.00025238,2522.1,0.00025237,2521.9,-8.3268e-05,0.0040979,-8.3314e-05,-0.34221,1.1329
25337,13.03,3.6364,0.1,0.0002548,2546.3,0.0002548,2546.3,-8.4069e-05,0.16486,-8.4096e-05,-0.032476,1.1198
25338,13.122,3.3636,0.1,0.00025234,2521.6,0.00025234,2521.6,-8.3267e-05,0.018951,-8.3278e-05,-0.06758,1.1331
25339,13.03,3.4545,0.1,0.00025475,2545.8,0.00025476,2546,-8.4025e-05,0.50557,-8.4094e-05,-0.010686,1.12
25340,13.122,3.1818,0.1,0.00025231,2521.4,0.00025232,2521.5,-8.3252e-05,0.13489,-8.3271e-05,-0.0090596,1.1332
25341,13.03,3.2727,0.1,0.00025472,2545.4,0.00025473,2545.8,-8.3994e-05,0.74526,-8.4094e-05,-0.0073234,1.1201
25342,13.122,3,0.1,0.0002523,2521.3,0.00025231,2521.4,-8.3244e-05,0.19044,-8.327e-05,-0.0063268,1.1332
25343,13.03,3.0909,0.1,0.0002547,2545.2,0.00025471,2545.7,-8.3978e-05,0.86621,-8.4094e-05,-0.0063415,1.1201
25344,13.122,2.8182,0.1,0.00025231,2521.4,0.00025232,2521.5,-8.3252e-05,0.1349,-8.3271e-05,-0.0090597,1.1332
25345,13.03,2.9091,0.1,0.0002547,2545.2,0.00025471,2545.7,-8.3978e-05,0.86622,-8.4094e-05,-0.0063411,1.1201
25346,13.122,2.6364,0.1,0.00025234,2521.6,0.00025234,2521.6,-8.3267e-05,0.018955,-8.3278e-05,-0.067572,1.1331
25347,13.03,2.7273,0.1,0.00025472,2545.4,0.00025473,2545.8,-8.3994e-05,0.74526,-8.4094e-05,-0.007324,1.1201
25348,13.122,2.4545,0.1,0.00025238,2522.1,0.00025237,2521.9,-8.3268e-05,0.004099,-8.3314e-05,-0.3422,1.1329
25349,13.03,2.5455,0.1,0.00025475,2545.8,0.00025476,2546,-8.4025e-05,0.50558,-8.4094e-05,-0.010685,1.12
25350,13.122,2.2727,0.1,0.00025244,2522.6,0.00025243,2522.3,-8.3267e-05,0.002186,-8.3367e-05,-0.74291,1.1328
25351,13.03,2.3636,0.1,0.0002548,2546.3,0.0002548,2546.3,-8.4069e-05,0.16487,-8.4096e-05,-0.032474,1.1198
25352,13.122,2.0909,0.1,0.00025251,2523.4,0.00025249,2522.8,-8.3267e-05,0.0015886,-8.3434e-05,-1.2555,1.1325
25353,13.03,2.1818,0.1,0.00025487,2546.9,0.00025486,2546.8,-8.4088e-05,0.014803,-8.4138e-05,-0.36194,1.1196
25354,13.122,1.9091,0.1,0.0002526,2524.3,0.00025257,2523.3,-8.3266e-05,0.0013758,-8.3516e-05,-1.8757,1.1322
25355,13.03,2,0.1,0.00025495,2547.8,0.00025494,2547.3,-8.4088e-05,0.0057808,-8.4214e-05,-0.94629,1.1193
25356,13.122,1.7273,0.1,0.00025271,2525.3,0.00025266,2524,-8.3265e-05,0.0013326,-8.3611e-05,-2.5994,1.1318
25357,13.03,1.8182,0.1,0.00025505,2548.8,0.00025503,2548,-8.4086e-05,0.0035009,-8.4306e-05,-1.6474,1.119
25358,13.122,1.5455,0.1,0.00025283,2526.6,0.00025277,2524.8,-8.3264e-05,0.0013839,-8.372e-05,-3.4221,1.1314
25359,13.03,1.6364,0.1,0.00025517,2550,0.00025513,2548.7,-8.4085e-05,0.0025806,-8.4412e-05,-2.4552,1.1186
25360,13.122,1.3636,0.1,0.00025297,2527.9,0.00025289,2525.7,-8.3264e-05,0.0014999,-8.3841e-05,-4.3387,1.131
25361,13.03,1.4545,0.1,0.0002553,2551.3,0.00025525,2549.6,-8.4083e-05,0.0021635,-8.4531e-05,-3.3639,1.1181
25362,13.122,1.1818,0.1,0.00025312,2529.4,0.00025303,2526.7,-8.3263e-05,0.0016689,-8.3975e-05,-5.3438,1.1304
25363,13.03,1.2727,0.1,0.00025545,2552.7,0.00025537,2550.5,-8.4082e-05,0.0019961,-8.4663e-05,-4.3676,1.1177
25364,13.122,1,0.1,0.00025328,2531.1,0.00025317,2527.8,-8.3264e-05,0.0018763,-8.412e-05,-6.4317,1.1299
25365,13.03,1.0909,0.1,0.00025561,2554.3,0.00025552,2551.6,-8.4081e-05,0.0019785,-8.4808e-05,-5.4602,1.1171
25366,13.122,0.81818,0.1,0.00025346,2532.8,0.00025333,2529,-8.3265e-05,0.0021392,-8.4276e-05,-7.5962,1.1292
25367,13.03,0.90909,0.1,0.00025579,2556.1,0.00025567,2552.8,-8.408e-05,0.0020514,-8.4964e-05,-6.6351,1.1165
25368,13.122,0.63636,0.1,0.00025365,2534.8,0.0002535,2530.3,-8.3267e-05,0.0023741,-8.4443e-05,-8.8336,1.1285
25369,13.03,0.72727,0.1,0.00025597,2558,0.00025584,2554,-8.408e-05,0.0022343,-8.513e-05,-7.886,1.1158
25370,13.122,0.45455,0.1,0.00025386,2536.9,0.00025369,2531.8,-8.3269e-05,0.0030538,-8.4625e-05,-10.179,1.1278
25371,13.03,0.54545,0.1,0.00025618,2560,0.00025602,2555.4,-8.4081e-05,0.0023415,-8.5308e-05,-9.2109,1.1151
25372,13.122,0.27273,0.1,0.0002542,2540.3,0.00025399,2534.1,-8.3273e-05,0.0030003,-8.4917e-05,-12.348,1.127
25373,13.03,0.36364,0.1,0.0002564,2562.3,0.00025622,2556.9,-8.4083e-05,0.0032631,-8.5506e-05,-10.684,1.1143
25374,13.03,0.18182,0.1,0.00025687,2566.9,0.00025663,2560,-8.4087e-05,0.0021725,-8.5913e-05,-13.718,1.1135
25375,13.122,0.090909,0.1,0.00025377,2535.9,0.00025361,2531.2,-8.3278e-05,0.0021243,-8.4525e-05,-9.366,1.1261
25376,12.938,5.7273,0.1,0.00025906,2588.8,0.00025885,2582.8,-8.4896e-05,0.002707,-8.6487e-05,-11.949,1.1009
25377,12.846,5.8182,0.1,0.00026174,2615.6,0.00026151,2608.9,-8.5712e-05,0.0024468,-8.7489e-05,-13.353,1.0874
25378,12.938,5.9091,0.1,0.00025864,2584.6,0.00025849,2580.1,-8.4899e-05,0.001969,-8.6115e-05,-9.1405,1.1
25379,12.938,5.5455,0.1,0.00025871,2585.4,0.00025855,2580.5,-8.4895e-05,0.0025782,-8.6185e-05,-9.6877,1.1017
25380,12.846,5.6364,0.1,0.00026127,2610.9,0.00026109,2605.8,-8.5711e-05,0.002529,-8.7074e-05,-10.235,1.0883
25381,12.938,5.3636,0.1,0.0002585,2583.2,0.00025835,2579,-8.4895e-05,0.0022166,-8.5992e-05,-8.2386,1.1024
25382,12.846,5.4545,0.1,0.00026103,2608.5,0.00026089,2604.2,-8.5712e-05,0.0021383,-8.6864e-05,-8.6536,1.0891
25383,12.938,5.1818,0.1,0.0002583,2581.2,0.00025818,2577.7,-8.4896e-05,0.0021638,-8.5814e-05,-6.9006,1.1031
25384,12.846,5.2727,0.1,0.00026082,2606.4,0.0002607,2602.8,-8.5714e-05,0.00216,-8.6676e-05,-7.2223,1.0898
25385,12.938,5,0.1,0.00025811,2579.3,0.00025802,2576.5,-8.4897e-05,0.0021821,-8.5648e-05,-5.6395,1.1038
25386,12.846,5.0909,0.1,0.00026063,2604.5,0.00026053,2601.6,-8.5716e-05,0.0022626,-8.6498e-05,-5.8686,1.0905
25387,12.938,4.8182,0.1,0.00025794,2577.6,0.00025786,2575.4,-8.4899e-05,0.0023647,-8.5493e-05,-4.4601,1.1044
25388,12.846,4.9091,0.1,0.00026045,2602.7,0.00026037,2600.4,-8.5719e-05,0.0025869,-8.6331e-05,-4.5956,1.0911
25389,12.938,4.6364,0.1,0.00025778,2576.1,0.00025773,2574.4,-8.4901e-05,0.0027956,-8.535e-05,-3.3692,1.1049
25390,12.846,4.7273,0.1,0.00026028,2601,0.00026022,2599.3,-8.5723e-05,0.0032651,-8.6177e-05,-3.4107,1.0917
25391,12.938,4.4545,0.1,0.00025764,2574.6,0.0002576,2573.4,-8.4904e-05,0.0037061,-8.522e-05,-2.3738,1.1054
25392,12.846,4.5455,0.1,0.00026013,2599.5,0.00026009,2598.3,-8.5726e-05,0.0046938,-8.6035e-05,-2.3216,1.0922
25393,12.938,4.2727,0.1,0.00025751,2573.4,0.00025749,2572.6,-8.4906e-05,0.0057711,-8.5104e-05,-1.4807,1.1058
25394,12.846,4.3636,0.1,0.00025999,2598.1,0.00025996,2597.4,-8.5729e-05,0.0082493,-8.5908e-05,-1.3365,1.0926
25395,12.938,4.0909,0.1,0.0002574,2572.3,0.00025739,2571.9,-8.4907e-05,0.012233,-8.5002e-05,-0.69887,1.1062
25396,12.846,4.1818,0.1,0.00025987,2596.9,0.00025986,2596.6,-8.573e-05,0.024137,-8.5796e-05,-0.47206,1.093
25397,12.938,3.9091,0.1,0.00025731,2571.3,0.00025731,2571.3,-8.49e-05,0.088283,-8.4924e-05,-0.098702,1.1065
25398,12.846,4,0.1,0.00025976,2595.8,0.00025977,2596,-8.569e-05,0.35205,-8.5741e-05,-0.033805,1.0934
25399,12.938,3.7273,0.1,0.00025723,2570.5,0.00025724,2570.8,-8.4838e-05,0.56511,-8.4915e-05,-0.015849,1.1067
25400,12.846,3.8182,0.1,0.00025967,2594.9,0.00025969,2595.4,-8.5609e-05,0.97782,-8.5741e-05,-0.012737,1.0936
25401,12.938,3.5455,0.1,0.00025717,2569.9,0.00025719,2570.4,-8.4782e-05,0.99784,-8.4916e-05,-0.0092323,1.1069
25402,12.846,3.6364,0.1,0.0002596,2594.2,0.00025963,2595,-8.5543e-05,1.4968,-8.5743e-05,-0.0086742,1.0939
25403,12.938,3.3636,0.1,0.00025713,2569.5,0.00025715,2570.1,-8.4742e-05,1.3118,-8.4917e-05,-0.0071894,1.1071
25404,12.846,3.4545,0.1,0.00025955,2593.7,0.00025958,2594.6,-8.5492e-05,1.8908,-8.5745e-05,-0.0071028,1.094
25405,12.938,3.1818,0.1,0.0002571,2569.2,0.00025713,2570,-8.4717e-05,1.5015,-8.4918e-05,-0.0063775,1.1071
25406,12.846,3.2727,0.1,0.00025951,2593.3,0.00025955,2594.4,-8.5458e-05,2.1554,-8.5746e-05,-0.0063795,1.0941
25407,12.938,3,0.1,0.00025709,2569.1,0.00025712,2569.9,-8.4709e-05,1.5649,-8.4918e-05,-0.0061515,1.1072
25408,12.846,3.0909,0.1,0.00025949,2593.1,0.00025953,2594.3,-8.5441e-05,2.2882,-8.5746e-05,-0.0060823,1.0942
25409,12.938,2.8182,0.1,0.0002571,2569.2,0.00025713,2570,-8.4717e-05,1.5015,-8.4918e-05,-0.0063778,1.1071
25410,12.846,2.9091,0.1,0.00025949,2593.1,0.00025953,2594.3,-8.5441e-05,2.2882,-8.5746e-05,-0.006082,1.0942
25411,12.938,2.6364,0.1,0.00025713,2569.5,0.00025715,2570.1,-8.4742e-05,1.3118,-8.4917e-05,-0.0071894,1.1071
25412,12.846,2.7273,0.1,0.00025951,2593.3,0.00025955,2594.4,-8.5458e-05,2.1554,-8.5746e-05,-0.0063799,1.0941
25413,12.938,2.4545,0.1,0.00025717,2569.9,0.00025719,2570.4,-8.4782e-05,0.99785,-8.4916e-05,-0.0092323,1.1069
25414,12.846,2.5455,0.1,0.00025955,2593.7,0.00025958,2594.6,-8.5492e-05,1.8908,-8.5745e-05,-0.0071029,1.094
25415,12.938,2.2727,0.1,0.00025723,2570.5,0.00025724,2570.8,-8.4838e-05,0.56512,-8.4915e-05,-0.015849,1.1067
25416,12.846,2.3636,0.1,0.0002596,2594.2,0.00025963,2595,-8.5543e-05,1.4968,-8.5743e-05,-0.0086744,1.0939
25417,12.938,2.0909,0.1,0.00025731,2571.3,0.00025731,2571.3,-8.49e-05,0.088295,-8.4924e-05,-0.098691,1.1065
25418,12.846,2.1818,0.1,0.00025967,2594.9,0.00025969,2595.4,-8.5609e-05,0.97784,-8.5741e-05,-0.012738,1.0936
25419,12.938,1.9091,0.1,0.0002574,2572.3,0.00025739,2571.9,-8.4907e-05,0.012233,-8.5002e-05,-0.69884,1.1062
25420,12.846,2,0.1,0.00025976,2595.8,0.00025977,2596,-8.569e-05,0.35208,-8.5741e-05,-0.033804,1.0934
25421,12.938,1.7273,0.1,0.00025751,2573.4,0.00025749,2572.6,-8.4906e-05,0.0057711,-8.5104e-05,-1.4806,1.1058
25422,12.846,1.8182,0.1,0.00025987,2596.9,0.00025986,2596.6,-8.573e-05,0.02414,-8.5796e-05,-0.47203,1.093
25423,12.938,1.5455,0.1,0.00025764,2574.6,0.0002576,2573.4,-8.4904e-05,0.003706,-8.522e-05,-2.3737,1.1054
25424,12.846,1.6364,0.1,0.00025999,2598.1,0.00025996,2597.4,-8.5729e-05,0.0082496,-8.5908e-05,-1.3364,1.0926
25425,12.938,1.3636,0.1,0.00025778,2576.1,0.00025773,2574.4,-8.4901e-05,0.0027957,-8.535e-05,-3.3691,1.1049
25426,12.846,1.4545,0.1,0.00026013,2599.5,0.00026009,2598.3,-8.5726e-05,0.0046939,-8.6035e-05,-2.3215,1.0922
25427,12.938,1.1818,0.1,0.00025794,2577.6,0.00025786,2575.4,-8.4899e-05,0.0023641,-8.5493e-05,-4.46,1.1044
25428,12.846,1.2727,0.1,0.00026028,2601,0.00026022,2599.3,-8.5723e-05,0.003265,-8.6177e-05,-3.4106,1.0917
25429,12.938,1,0.1,0.00025811,2579.3,0.00025802,2576.5,-8.4897e-05,0.0021814,-8.5648e-05,-5.6395,1.1038
25430,12.846,1.0909,0.1,0.00026045,2602.7,0.00026037,2600.4,-8.5719e-05,0.0025862,-8.6331e-05,-4.5955,1.0911
25431,12.938,0.81818,0.1,0.0002583,2581.2,0.00025818,2577.7,-8.4896e-05,0.0021626,-8.5814e-05,-6.9006,1.1031
25432,12.846,0.90909,0.1,0.00026063,2604.5,0.00026053,2601.6,-8.5716e-05,0.0022617,-8.6498e-05,-5.8686,1.0905
25433,12.938,0.63636,0.1,0.0002585,2583.2,0.00025835,2579,-8.4895e-05,0.0022151,-8.5992e-05,-8.2386,1.1024
25434,12.846,0.72727,0.1,0.00026082,2606.4,0.0002607,2602.8,-8.5714e-05,0.0021584,-8.6676e-05,-7.2222,1.0898
25435,12.938,0.45455,0.1,0.00025871,2585.4,0.00025855,2580.5,-8.4895e-05,0.0025779,-8.6185e-05,-9.6877,1.1017
25436,12.846,0.54545,0.1,0.00026103,2608.5,0.00026089,2604.2,-8.5712e-05,0.0021376,-8.6864e-05,-8.6535,1.0891
25437,12.938,0.27273,0.1,0.00025906,2588.8,0.00025885,2582.8,-8.4896e-05,0.0027074,-8.6487e-05,-11.949,1.1009
25438,12.846,0.36364,0.1,0.00026127,2610.9,0.00026109,2605.8,-8.5711e-05,0.0025291,-8.7074e-05,-10.235,1.0883
25439,12.846,0.18182,0.1,0.00026174,2615.6,0.00026151,2608.9,-8.5712e-05,0.0024469,-8.7489e-05,-13.353,1.0874
25440,12.938,0.090909,0.1,0.00025864,2584.6,0.00025849,2580.1,-8.4899e-05,0.0019676,-8.6115e-05,-9.1405,1.1
25441,12.754,5.7273,0.1,0.00026394,2637.5,0.00026374,2631.8,-8.6527e-05,0.0024314,-8.8062e-05,-11.536,1.0749
25442,12.662,5.8182,0.1,0.00026663,2664.5,0.00026641,2658,-8.7344e-05,0.002755,-8.9072e-05,-12.978,1.0615
25443,12.754,5.9091,0.1,0.00026354,2633.6,0.00026339,2629.1,-8.6526e-05,0.0018416,-8.7712e-05,-8.9095,1.074
25444,12.754,5.5455,0.1,0.00026359,2634,0.00026343,2629.4,-8.6529e-05,0.0020983,-8.775e-05,-9.1734,1.0757
25445,12.662,5.6364,0.1,0.00026616,2659.7,0.00026599,2654.8,-8.7347e-05,0.0017464,-8.8647e-05,-9.767,1.0624
25446,12.754,5.3636,0.1,0.00026336,2631.8,0.00026323,2628,-8.6531e-05,0.0020817,-8.7545e-05,-7.6128,1.0765
25447,12.662,5.4545,0.1,0.00026591,2657.3,0.00026577,2653.2,-8.7351e-05,0.0019204,-8.8425e-05,-8.0683,1.0632
25448,12.754,5.1818,0.1,0.00026315,2629.7,0.00026305,2626.6,-8.6535e-05,0.0022568,-8.7356e-05,-6.1663,1.0772
25449,12.662,5.2727,0.1,0.00026569,2655.1,0.00026558,2651.8,-8.7356e-05,0.0021004,-8.8224e-05,-6.5221,1.064
25450,12.754,5,0.1,0.00026296,2627.8,0.00026288,2625.4,-8.6539e-05,0.002672,-8.7178e-05,-4.8009,1.0779
25451,12.662,5.0909,0.1,0.00026549,2653.1,0.0002654,2650.5,-8.7361e-05,0.0025857,-8.8034e-05,-5.0574,1.0646
25452,12.754,4.8182,0.1,0.00026278,2626,0.00026272,2624.2,-8.6543e-05,0.003529,-8.7012e-05,-3.5227,1.0785
25453,12.662,4.9091,0.1,0.0002653,2651.2,0.00026524,2649.3,-8.7366e-05,0.0035666,-8.7856e-05,-3.6786,1.0653
25454,12.754,4.6364,0.1,0.00026262,2624.4,0.00026258,2623.2,-8.6547e-05,0.0053656,-8.6859e-05,-2.3399,1.079
25455,12.662,4.7273,0.1,0.00026512,2649.4,0.00026508,2648.2,-8.7372e-05,0.0057225,-8.7691e-05,-2.3946,1.0659
25456,12.754,4.4545,0.1,0.00026247,2622.9,0.00026245,2622.2,-8.6551e-05,0.01034,-8.672e-05,-1.2622,1.0795
25457,12.662,4.5455,0.1,0.00026496,2647.8,0.00026494,2647.2,-8.7377e-05,0.012051,-8.754e-05,-1.2165,1.0664
25458,12.754,4.2727,0.1,0.00026234,2621.5,0.00026233,2621.4,-8.6551e-05,0.042926,-8.66e-05,-0.32109,1.0799
25459,12.662,4.3636,0.1,0.00026482,2646.4,0.00026482,2646.3,-8.7374e-05,0.076752,-8.7411e-05,-0.20648,1.0668
25460,12.754,4.0909,0.1,0.00026222,2620.4,0.00026223,2620.7,-8.6481e-05,0.60417,-8.6564e-05,-0.024229,1.0803
25461,12.662,4.1818,0.1,0.00026469,2645.1,0.00026471,2645.5,-8.7276e-05,0.84832,-8.7392e-05,-0.020204,1.0672
25462,12.754,3.9091,0.1,0.00026212,2619.4,0.00026214,2620,-8.6388e-05,1.3283,-8.6566e-05,-0.011684,1.0806
25463,12.662,4,0.1,0.00026458,2644,0.00026461,2644.8,-8.7171e-05,1.6734,-8.7395e-05,-0.011015,1.0676
25464,12.754,3.7273,0.1,0.00026204,2618.6,0.00026207,2619.5,-8.631e-05,1.9352,-8.6569e-05,-0.0084461,1.0809
25465,12.662,3.8182,0.1,0.00026449,2643.1,0.00026453,2644.2,-8.7082e-05,2.3755,-8.7399e-05,-0.0082652,1.0679
25466,12.754,3.5455,0.1,0.00026197,2617.9,0.00026201,2619.1,-8.6249e-05,2.413,-8.6572e-05,-0.0070669,1.0811
25467,12.662,3.6364,0.1,0.00026441,2642.3,0.00026446,2643.8,-8.701e-05,2.9446,-8.7403e-05,-0.0070224,1.0681
25468,12.754,3.3636,0.1,0.00026193,2617.5,0.00026197,2618.8,-8.6206e-05,2.7571,-8.6573e-05,-0.0063803,1.0812
25469,12.662,3.4545,0.1,0.00026436,2641.7,0.00026441,2643.4,-8.6955e-05,3.3754,-8.7405e-05,-0.006372,1.0683
25470,12.754,3.1818,0.1,0.0002619,2617.2,0.00026195,2618.7,-8.6179e-05,2.9646,-8.6574e-05,-0.0060476,1.0813
25471,12.662,3.2727,0.1,0.00026432,2641.4,0.00026438,2643.2,-8.6919e-05,3.6645,-8.7407e-05,-0.0060261,1.0684
25472,12.754,3,0.1,0.00026189,2617.1,0.00026194,2618.6,-8.617e-05,3.034,-8.6575e-05,-0.0059468,1.0813
25473,12.662,3.0909,0.1,0.0002643,2641.2,0.00026436,2643.1,-8.69e-05,3.8096,-8.7408e-05,-0.0058734,1.0684
25474,12.754,2.8182,0.1,0.0002619,2617.2,0.00026195,2618.7,-8.6179e-05,2.9646,-8.6574e-05,-0.0060474,1.0813
25475,12.662,2.9091,0.1,0.0002643,2641.2,0.00026436,2643.1,-8.69e-05,3.8096,-8.7408e-05,-0.0058731,1.0684
25476,12.754,2.6364,0.1,0.00026193,2617.5,0.00026197,2618.8,-8.6206e-05,2.7571,-8.6573e-05,-0.0063807,1.0812
25477,12.662,2.7273,0.1,0.00026432,2641.4,0.00026438,2643.2,-8.6919e-05,3.6645,-8.7407e-05,-0.0060263,1.0684
25478,12.754,2.4545,0.1,0.00026197,2617.9,0.00026201,2619.1,-8.6249e-05,2.413,-8.6572e-05,-0.0070672,1.0811
25479,12.662,2.5455,0.1,0.00026436,2641.7,0.00026441,2643.4,-8.6955e-05,3.3754,-8.7405e-05,-0.0063721,1.0683
25480,12.754,2.2727,0.1,0.00026204,2618.6,0.00026207,2619.5,-8.631e-05,1.9352,-8.6569e-05,-0.0084466,1.0809
25481,12.662,2.3636,0.1,0.00026441,2642.3,0.00026446,2643.8,-8.701e-05,2.9446,-8.7403e-05,-0.0070226,1.0681
25482,12.754,2.0909,0.1,0.00026212,2619.4,0.00026214,2620,-8.6388e-05,1.3283,-8.6566e-05,-0.011684,1.0806
25483,12.662,2.1818,0.1,0.00026449,2643.1,0.00026453,2644.2,-8.7082e-05,2.3756,-8.7399e-05,-0.0082657,1.0679
25484,12.754,1.9091,0.1,0.00026222,2620.4,0.00026223,2620.7,-8.6481e-05,0.6042,-8.6564e-05,-0.02423,1.0803
25485,12.662,2,0.1,0.00026458,2644,0.00026461,2644.8,-8.7171e-05,1.6735,-8.7395e-05,-0.011015,1.0676
25486,12.754,1.7273,0.1,0.00026234,2621.5,0.00026233,2621.4,-8.6551e-05,0.042933,-8.66e-05,-0.32106,1.0799
25487,12.662,1.8182,0.1,0.00026469,2645.1,0.00026471,2645.5,-8.7276e-05,0.84836,-8.7392e-05,-0.020205,1.0672
25488,12.754,1.5455,0.1,0.00026247,2622.9,0.00026245,2622.2,-8.6551e-05,0.010341,-8.672e-05,-1.2621,1.0795
25489,12.662,1.6364,0.1,0.00026482,2646.4,0.00026482,2646.3,-8.7374e-05,0.076765,-8.7411e-05,-0.20645,1.0668
25490,12.754,1.3636,0.1,0.00026262,2624.4,0.00026258,2623.2,-8.6547e-05,0.0053656,-8.6859e-05,-2.3398,1.079
25491,12.662,1.4545,0.1,0.00026496,2647.8,0.00026494,2647.2,-8.7377e-05,0.012051,-8.754e-05,-1.2165,1.0664
25492,12.754,1.1818,0.1,0.00026278,2626,0.00026272,2624.2,-8.6543e-05,0.0035289,-8.7012e-05,-3.5226,1.0785
25493,12.662,1.2727,0.1,0.00026512,2649.4,0.00026508,2648.2,-8.7372e-05,0.0057228,-8.7691e-05,-2.3945,1.0659
25494,12.754,1,0.1,0.00026296,2627.8,0.00026288,2625.4,-8.6539e-05,0.0026711,-8.7178e-05,-4.8008,1.0779
25495,12.662,1.0909,0.1,0.0002653,2651.2,0.00026524,2649.3,-8.7366e-05,0.0035659,-8.7856e-05,-3.6785,1.0653
25496,12.754,0.81818,0.1,0.00026315,2629.7,0.00026305,2626.6,-8.6535e-05,0.0022555,-8.7356e-05,-6.1662,1.0772
25497,12.662,0.90909,0.1,0.00026549,2653.1,0.0002654,2650.5,-8.7361e-05,0.0025842,-8.8034e-05,-5.0574,1.0646
25498,12.754,0.63636,0.1,0.00026336,2631.8,0.00026323,2628,-8.6531e-05,0.0020808,-8.7545e-05,-7.6128,1.0765
25499,12.662,0.72727,0.1,0.00026569,2655.1,0.00026558,2651.8,-8.7356e-05,0.0020989,-8.8224e-05,-6.522,1.064
25500,12.754,0.45455,0.1,0.00026359,2634,0.00026343,2629.4,-8.6529e-05,0.002098,-8.775e-05,-9.1733,1.0757
25501,12.662,0.54545,0.1,0.00026591,2657.3,0.00026577,2653.2,-8.7351e-05,0.00192,-8.8425e-05,-8.0683,1.0632
25502,12.754,0.27273,0.1,0.00026394,2637.5,0.00026374,2631.8,-8.6527e-05,0.0024311,-8.8062e-05,-11.536,1.0749
25503,12.662,0.36364,0.1,0.00026616,2659.7,0.00026599,2654.8,-8.7347e-05,0.001746,-8.8647e-05,-9.767,1.0624
25504,12.662,0.18182,0.1,0.00026663,2664.5,0.00026641,2658,-8.7344e-05,0.0027548,-8.9072e-05,-12.978,1.0615
25505,12.754,0.090909,0.1,0.00026354,2633.6,0.00026339,2629.1,-8.6526e-05,0.0018421,-8.7712e-05,-8.9095,1.074
25506,12.569,5.7273,0.1,0.00026884,2686.5,0.00026864,2680.9,-8.8165e-05,0.0021187,-8.9643e-05,-11.107,1.0491
25507,12.477,5.8182,0.1,0.00027154,2713.6,0.00027133,2707.2,-8.8984e-05,0.0030854,-9.0661e-05,-12.592,1.0358
25508,12.569,5.9091,0.1,0.00026846,2682.7,0.00026831,2678.4,-8.8161e-05,0.0016897,-8.9316e-05,-8.6726,1.0482
25509,12.569,5.5455,0.1,0.00026848,2682.9,0.00026833,2678.6,-8.817e-05,0.001555,-8.9319e-05,-8.6345,1.0499
25510,12.477,5.6364,0.1,0.00027106,2708.8,0.0002709,2704.1,-8.8991e-05,0.00089319,-9.0226e-05,-9.2777,1.0367
25511,12.569,5.3636,0.1,0.00026824,2680.6,0.00026812,2677.1,-8.8175e-05,0.0019169,-8.9101e-05,-6.9535,1.0507
25512,12.477,5.4545,0.1,0.00027081,2706.2,0.00027068,2702.5,-8.8998e-05,0.0016706,-8.999e-05,-7.4526,1.0375
25513,12.569,5.1818,0.1,0.00026803,2678.4,0.00026794,2675.7,-8.8182e-05,0.0023902,-8.8899e-05,-5.3896,1.0515
25514,12.477,5.2727,0.1,0.00027058,2704,0.00027048,2701.1,-8.9005e-05,0.0020532,-8.9775e-05,-5.7821,1.0383
25515,12.569,5,0.1,0.00026783,2676.4,0.00026776,2674.5,-8.8188e-05,0.0034192,-8.871e-05,-3.9117,1.0521
25516,12.477,5.0909,0.1,0.00027037,2701.8,0.0002703,2699.7,-8.9014e-05,0.0030911,-8.9573e-05,-4.1975,1.039
25517,12.569,4.8182,0.1,0.00026764,2674.5,0.0002676,2673.3,-8.8195e-05,0.0056927,-8.8532e-05,-2.5273,1.0527
25518,12.477,4.9091,0.1,0.00027017,2699.8,0.00027012,2698.5,-8.9022e-05,0.0053577,-8.9382e-05,-2.7048,1.0396
25519,12.569,4.6364,0.1,0.00026747,2672.8,0.00026745,2672.2,-8.8201e-05,0.012647,-8.8369e-05,-1.2485,1.0533
25520,12.477,4.7273,0.1,0.00026999,2698,0.00026996,2697.3,-8.9029e-05,0.012479,-8.9206e-05,-1.3167,1.0402
25521,12.569,4.4545,0.1,0.00026731,2671.3,0.00026731,2671.2,-8.8196e-05,0.10551,-8.8232e-05,-0.16513,1.0538
25522,12.477,4.5455,0.1,0.00026982,2696.3,0.00026982,2696.3,-8.9022e-05,0.1276,-8.9058e-05,-0.14576,1.0407
25523,12.569,4.2727,0.1,0.00026717,2669.9,0.00026719,2670.4,-8.8081e-05,1.018,-8.8219e-05,-0.018813,1.0542
25524,12.477,4.3636,0.1,0.00026967,2694.8,0.00026969,2695.4,-8.8891e-05,1.1679,-8.9049e-05,-0.017852,1.0412
25525,12.569,4.0909,0.1,0.00026705,2668.7,0.00026708,2669.6,-8.7963e-05,1.9438,-8.8224e-05,-0.010732,1.0546
25526,12.477,4.1818,0.1,0.00026953,2693.5,0.00026957,2694.6,-8.8761e-05,2.2026,-8.9056e-05,-0.01047,1.0416
25527,12.569,3.9091,0.1,0.00026695,2667.6,0.00026699,2669,-8.7862e-05,2.7436,-8.8229e-05,-0.008186,1.0549
25528,12.477,4,0.1,0.00026942,2692.3,0.00026947,2693.8,-8.8647e-05,3.1086,-8.9062e-05,-0.0080844,1.042
25529,12.569,3.7273,0.1,0.00026686,2666.8,0.00026692,2668.5,-8.7779e-05,3.4073,-8.8233e-05,-0.0070034,1.0552
25530,12.477,3.8182,0.1,0.00026932,2691.3,0.00026938,2693.3,-8.8551e-05,3.8754,-8.9067e-05,-0.0069593,1.0423
25531,12.569,3.5455,0.1,0.00026679,2666.1,0.00026686,2668,-8.7713e-05,3.9292,-8.8237e-05,-0.0063665,1.0554
25532,12.477,3.6364,0.1,0.00026924,2690.5,0.00026932,2692.8,-8.8473e-05,4.4964,-8.9072e-05,-0.0063413,1.0425
25533,12.569,3.3636,0.1,0.00026674,2665.6,0.00026682,2667.7,-8.7665e-05,4.3049,-8.8239e-05,-0.0060097,1.0555
25534,12.477,3.4545,0.1,0.00026918,2689.9,0.00026926,2692.4,-8.8414e-05,4.9667,-8.9076e-05,-0.0059835,1.0427
25535,12.569,3.1818,0.1,0.00026671,2665.3,0.00026679,2667.6,-8.7637e-05,4.5316,-8.8241e-05,-0.0058245,1.0556
25536,12.477,3.2727,0.1,0.00026914,2689.5,0.00026923,2692.2,-8.8374e-05,5.2823,-8.9078e-05,-0.0057808,1.0428
25537,12.569,3,0.1,0.00026671,2665.2,0.00026678,2667.5,-8.7627e-05,4.6073,-8.8241e-05,-0.0057668,1.0556
25538,12.477,3.0909,0.1,0.00026912,2689.3,0.00026921,2692.1,-8.8355e-05,5.4407,-8.9079e-05,-0.0056883,1.0429
25539,12.569,2.8182,0.1,0.00026671,2665.3,0.00026679,2667.6,-8.7637e-05,4.5316,-8.8241e-05,-0.0058246,1.0556
25540,12.477,2.9091,0.1,0.00026912,2689.3,0.00026921,2692.1,-8.8355e-05,5.4407,-8.9079e-05,-0.0056883,1.0429
25541,12.569,2.6364,0.1,0.00026674,2665.6,0.00026682,2667.7,-8.7665e-05,4.3049,-8.8239e-05,-0.0060096,1.0555
25542,12.477,2.7273,0.1,0.00026914,2689.5,0.00026923,2692.2,-8.8374e-05,5.2823,-8.9078e-05,-0.0057808,1.0428
25543,12.569,2.4545,0.1,0.00026679,2666.1,0.00026686,2668,-8.7713e-05,3.9292,-8.8237e-05,-0.0063666,1.0554
25544,12.477,2.5455,0.1,0.00026918,2689.9,0.00026926,2692.4,-8.8414e-05,4.9667,-8.9076e-05,-0.0059831,1.0427
25545,12.569,2.2727,0.1,0.00026686,2666.8,0.00026692,2668.5,-8.7779e-05,3.4074,-8.8233e-05,-0.0070036,1.0552
25546,12.477,2.3636,0.1,0.00026924,2690.5,0.00026932,2692.8,-8.8473e-05,4.4965,-8.9072e-05,-0.0063417,1.0425
25547,12.569,2.0909,0.1,0.00026695,2667.6,0.00026699,2669,-8.7862e-05,2.7436,-8.8229e-05,-0.0081863,1.0549
25548,12.477,2.1818,0.1,0.00026932,2691.3,0.00026938,2693.3,-8.8551e-05,3.8754,-8.9067e-05,-0.0069594,1.0423
25549,12.569,1.9091,0.1,0.00026705,2668.7,0.00026708,2669.6,-8.7964e-05,1.9439,-8.8224e-05,-0.010733,1.0546
25550,12.477,2,0.1,0.00026942,2692.3,0.00026947,2693.8,-8.8647e-05,3.1086,-8.9062e-05,-0.0080848,1.042
25551,12.569,1.7273,0.1,0.00026717,2669.9,0.00026719,2670.4,-8.8081e-05,1.018,-8.8219e-05,-0.018813,1.0542
25552,12.477,1.8182,0.1,0.00026953,2693.5,0.00026957,2694.6,-8.8761e-05,2.2026,-8.9056e-05,-0.010471,1.0416
25553,12.569,1.5455,0.1,0.00026731,2671.3,0.00026731,2671.2,-8.8196e-05,0.10553,-8.8232e-05,-0.1651,1.0538
25554,12.477,1.6364,0.1,0.00026967,2694.8,0.00026969,2695.4,-8.8891e-05,1.1679,-8.9049e-05,-0.017852,1.0412
25555,12.569,1.3636,0.1,0.00026747,2672.8,0.00026745,2672.2,-8.8201e-05,0.012647,-8.8369e-05,-1.2485,1.0533
25556,12.477,1.4545,0.1,0.00026982,2696.3,0.00026982,2696.3,-8.9022e-05,0.12762,-8.9058e-05,-0.14573,1.0407
25557,12.569,1.1818,0.1,0.00026764,2674.5,0.0002676,2673.3,-8.8195e-05,0.0056924,-8.8532e-05,-2.5272,1.0527
25558,12.477,1.2727,0.1,0.00026999,2698,0.00026996,2697.3,-8.9029e-05,0.01248,-8.9206e-05,-1.3167,1.0402
25559,12.569,1,0.1,0.00026783,2676.4,0.00026776,2674.5,-8.8188e-05,0.0034179,-8.871e-05,-3.9116,1.0521
25560,12.477,1.0909,0.1,0.00027017,2699.8,0.00027012,2698.5,-8.9022e-05,0.0053575,-8.9382e-05,-2.7047,1.0396
25561,12.569,0.81818,0.1,0.00026803,2678.4,0.00026794,2675.7,-8.8182e-05,0.0023886,-8.8899e-05,-5.3895,1.0515
25562,12.477,0.90909,0.1,0.00027037,2701.8,0.0002703,2699.7,-8.9014e-05,0.00309,-8.9573e-05,-4.1975,1.039
25563,12.569,0.63636,0.1,0.00026824,2680.6,0.00026812,2677.1,-8.8175e-05,0.001916,-8.9101e-05,-6.9535,1.0507
25564,12.477,0.72727,0.1,0.00027058,2704,0.00027048,2701.1,-8.9005e-05,0.0020521,-8.9775e-05,-5.7821,1.0383
25565,12.569,0.45455,0.1,0.00026848,2682.9,0.00026833,2678.6,-8.817e-05,0.0015546,-8.9319e-05,-8.6345,1.0499
25566,12.477,0.54545,0.1,0.00027081,2706.2,0.00027068,2702.5,-8.8998e-05,0.0016704,-8.999e-05,-7.4526,1.0375
25567,12.569,0.27273,0.1,0.00026884,2686.5,0.00026864,2680.9,-8.8165e-05,0.0021184,-8.9643e-05,-11.107,1.0491
25568,12.477,0.36364,0.1,0.00027106,2708.8,0.0002709,2704.1,-8.8991e-05,0.00089304,-9.0226e-05,-9.2777,1.0367
25569,12.477,0.18182,0.1,0.00027154,2713.6,0.00027133,2707.2,-8.8984e-05,0.003085,-9.0661e-05,-12.592,1.0358
25570,12.569,0.090909,0.1,0.00026846,2682.7,0.00026831,2678.4,-8.8161e-05,0.0016891,-8.9316e-05,-8.6726,1.0482
25571,12.385,5.7273,0.1,0.00027375,2735.7,0.00027357,2730.3,-8.981e-05,0.0017913,-9.123e-05,-10.662,1.0235
25572,12.293,5.8182,0.1,0.00027648,2762.8,0.00027627,2756.7,-9.0632e-05,0.0034666,-9.2255e-05,-12.193,1.0103
25573,12.385,5.9091,0.1,0.0002734,2732.1,0.00027325,2727.9,-8.9804e-05,0.0015375,-9.0926e-05,-8.4289,1.0226
25574,12.385,5.5455,0.1,0.00027339,2732,0.00027325,2728,-8.9819e-05,0.00096615,-9.0893e-05,-8.0687,1.0244
25575,12.293,5.6364,0.1,0.00027599,2758,0.00027584,2753.6,-9.0642e-05,-1.3455e-05,-9.1809e-05,-8.7655,1.0112
25576,12.385,5.3636,0.1,0.00027315,2729.6,0.00027304,2726.4,-8.9828e-05,0.0017481,-9.0661e-05,-6.2575,1.0251
25577,12.293,5.4545,0.1,0.00027573,2755.4,0.00027561,2752,-9.0653e-05,0.0014086,-9.1558e-05,-6.8037,1.012
25578,12.385,5.1818,0.1,0.00027292,2727.3,0.00027284,2725,-8.9837e-05,0.0026365,-9.0445e-05,-4.5667,1.0259
25579,12.293,5.2727,0.1,0.00027549,2753,0.0002754,2750.5,-9.0664e-05,0.0020657,-9.1329e-05,-4.9988,1.0128
25580,12.385,5,0.1,0.00027271,2725.2,0.00027266,2723.7,-8.9847e-05,0.0047617,-9.0242e-05,-2.9674,1.0266
25581,12.293,5.0909,0.1,0.00027527,2750.8,0.00027521,2749.1,-9.0675e-05,0.0040003,-9.1112e-05,-3.2847,1.0135
25582,12.385,4.8182,0.1,0.00027251,2723.3,0.00027249,2722.5,-8.9856e-05,0.011266,-9.0053e-05,-1.4706,1.0272
25583,12.293,4.9091,0.1,0.00027506,2748.7,0.00027503,2747.8,-9.0685e-05,0.0096636,-9.0909e-05,-1.6705,1.0142
25584,12.385,4.6364,0.1,0.00027233,2721.5,0.00027233,2721.4,-8.9852e-05,0.11039,-8.989e-05,-0.17443,1.0277
25585,12.293,4.7273,0.1,0.00027486,2746.7,0.00027486,2746.7,-9.0687e-05,0.083951,-9.0729e-05,-0.23142,1.0148
25586,12.385,4.4545,0.1,0.00027217,2719.8,0.00027219,2720.4,-8.9712e-05,1.2317,-8.9879e-05,-0.017879,1.0282
25587,12.293,4.5455,0.1,0.00027469,2745,0.00027471,2745.6,-9.054e-05,1.267,-9.0711e-05,-0.017985,1.0153
25588,12.385,4.2727,0.1,0.00027202,2718.4,0.00027206,2719.5,-8.9569e-05,2.3755,-8.9886e-05,-0.010412,1.0287
25589,12.293,4.3636,0.1,0.00027453,2743.4,0.00027457,2744.7,-9.0383e-05,2.5291,-9.0721e-05,-0.01031,1.0158
25590,12.385,4.0909,0.1,0.0002719,2717.1,0.00027195,2718.8,-8.9442e-05,3.3895,-8.9894e-05,-0.0080491,1.0291
25591,12.293,4.1818,0.1,0.00027439,2742,0.00027445,2743.8,-9.0242e-05,3.6605,-9.073e-05,-0.0079704,1.0162
25592,12.385,3.9091,0.1,0.00027179,2716,0.00027186,2718.1,-8.9333e-05,4.2622,-8.9901e-05,-0.0069386,1.0294
25593,12.293,4,0.1,0.00027426,2740.8,0.00027434,2743.1,-9.0119e-05,4.6485,-9.0738e-05,-0.0068816,1.0166
25594,12.385,3.7273,0.1,0.00027169,2715.1,0.00027178,2717.6,-8.9242e-05,4.9862,-8.9907e-05,-0.006324,1.0297
25595,12.293,3.8182,0.1,0.00027416,2739.7,0.00027425,2742.5,-9.0015e-05,5.4846,-9.0745e-05,-0.0062772,1.0169
25596,12.385,3.5455,0.1,0.00027162,2714.4,0.00027172,2717.1,-8.9171e-05,5.5555,-8.9911e-05,-0.0059603,1.0299
25597,12.293,3.6364,0.1,0.00027408,2738.9,0.00027418,2742,-8.993e-05,6.162,-9.0751e-05,-0.0059139,1.0171
25598,12.385,3.3636,0.1,0.00027157,2713.9,0.00027167,2716.8,-8.912e-05,5.9656,-8.9915e-05,-0.0057441,1.03
25599,12.293,3.4545,0.1,0.00027402,2738.3,0.00027413,2741.6,-8.9867e-05,6.6751,-9.0756e-05,-0.0056915,1.0173
25600,12.385,3.1818,0.1,0.00027154,2713.5,0.00027165,2716.6,-8.9089e-05,6.2129,-8.9917e-05,-0.005628,1.0301
25601,12.293,3.2727,0.1,0.00027397,2737.8,0.00027409,2741.3,-8.9824e-05,7.0195,-9.0759e-05,-0.0055605,1.0174
25602,12.385,3,0.1,0.00027153,2713.4,0.00027164,2716.6,-8.9079e-05,6.2956,-8.9918e-05,-0.0055914,1.0301
25603,12.293,3.0909,0.1,0.00027395,2737.6,0.00027407,2741.2,-8.9803e-05,7.1925,-9.0761e-05,-0.0054998,1.0174
25604,12.385,2.8182,0.1,0.00027154,2713.5,0.00027165,2716.6,-8.9089e-05,6.2129,-8.9917e-05,-0.0056279,1.0301
25605,12.293,2.9091,0.1,0.00027395,2737.6,0.00027407,2741.2,-8.9803e-05,7.1925,-9.0761e-05,-0.0054998,1.0174
25606,12.385,2.6364,0.1,0.00027157,2713.9,0.00027167,2716.8,-8.912e-05,5.9656,-8.9915e-05,-0.0057438,1.03
25607,12.293,2.7273,0.1,0.00027397,2737.8,0.00027409,2741.3,-8.9824e-05,7.0195,-9.0759e-05,-0.0055606,1.0174
25608,12.385,2.4545,0.1,0.00027162,2714.4,0.00027172,2717.1,-8.9171e-05,5.5556,-8.9911e-05,-0.0059603,1.0299
25609,12.293,2.5455,0.1,0.00027402,2738.3,0.00027413,2741.6,-8.9867e-05,6.6751,-9.0756e-05,-0.0056911,1.0173
25610,12.385,2.2727,0.1,0.00027169,2715.1,0.00027178,2717.6,-8.9242e-05,4.9862,-8.9907e-05,-0.0063244,1.0297
25611,12.293,2.3636,0.1,0.00027408,2738.9,0.00027418,2742,-8.993e-05,6.162,-9.0751e-05,-0.0059143,1.0171
25612,12.385,2.0909,0.1,0.00027179,2716,0.00027186,2718.1,-8.9333e-05,4.2623,-8.9901e-05,-0.0069388,1.0294
25613,12.293,2.1818,0.1,0.00027416,2739.7,0.00027425,2742.5,-9.0015e-05,5.4846,-9.0745e-05,-0.0062772,1.0169
25614,12.385,1.9091,0.1,0.0002719,2717.1,0.00027195,2718.8,-8.9442e-05,3.3895,-8.9894e-05,-0.0080495,1.0291
25615,12.293,2,0.1,0.00027426,2740.8,0.00027434,2743.1,-9.0119e-05,4.6485,-9.0738e-05,-0.0068819,1.0166
25616,12.385,1.7273,0.1,0.00027202,2718.4,0.00027206,2719.5,-8.9569e-05,2.3755,-8.9886e-05,-0.010412,1.0287
25617,12.293,1.8182,0.1,0.00027439,2742,0.00027445,2743.8,-9.0242e-05,3.6605,-9.073e-05,-0.007971,1.0162
25618,12.385,1.5455,0.1,0.00027217,2719.8,0.00027219,2720.4,-8.9712e-05,1.2317,-8.9879e-05,-0.017879,1.0282
25619,12.293,1.6364,0.1,0.00027453,2743.4,0.00027457,2744.7,-9.0383e-05,2.5292,-9.0721e-05,-0.010311,1.0158
25620,12.385,1.3636,0.1,0.00027233,2721.5,0.00027233,2721.4,-8.9852e-05,0.11041,-8.989e-05,-0.1744,1.0277
25621,12.293,1.4545,0.1,0.00027469,2745,0.00027471,2745.6,-9.054e-05,1.2671,-9.0711e-05,-0.017985,1.0153
25622,12.385,1.1818,0.1,0.00027251,2723.3,0.00027249,2722.5,-8.9856e-05,0.011267,-9.0053e-05,-1.4706,1.0272
25623,12.293,1.2727,0.1,0.00027486,2746.7,0.00027486,2746.7,-9.0687e-05,0.083964,-9.0729e-05,-0.23139,1.0148
25624,12.385,1,0.1,0.00027271,2725.2,0.00027266,2723.7,-8.9847e-05,0.0047617,-9.0242e-05,-2.9673,1.0266
25625,12.293,1.0909,0.1,0.00027506,2748.7,0.00027503,2747.8,-9.0685e-05,0.009664,-9.0909e-05,-1.6705,1.0142
25626,12.385,0.81818,0.1,0.00027292,2727.3,0.00027284,2725,-8.9837e-05,0.0026358,-9.0445e-05,-4.5667,1.0259
25627,12.293,0.90909,0.1,0.00027527,2750.8,0.00027521,2749.1,-9.0675e-05,0.0039991,-9.1112e-05,-3.2847,1.0135
25628,12.385,0.63636,0.1,0.00027315,2729.6,0.00027304,2726.4,-8.9828e-05,0.0017477,-9.0661e-05,-6.2575,1.0251
25629,12.293,0.72727,0.1,0.00027549,2753,0.0002754,2750.5,-9.0664e-05,0.0020642,-9.1329e-05,-4.9987,1.0128
25630,12.385,0.45455,0.1,0.00027339,2732,0.00027325,2728,-8.9819e-05,0.00096618,-9.0893e-05,-8.0687,1.0244
25631,12.293,0.54545,0.1,0.00027573,2755.4,0.00027561,2752,-9.0653e-05,0.0014093,-9.1558e-05,-6.8036,1.012
25632,12.385,0.27273,0.1,0.00027375,2735.7,0.00027357,2730.3,-8.981e-05,0.0017909,-9.123e-05,-10.662,1.0235
25633,12.293,0.36364,0.1,0.00027599,2758,0.00027584,2753.6,-9.0642e-05,-1.3294e-05,-9.1809e-05,-8.7654,1.0112
25634,12.293,0.18182,0.1,0.00027648,2762.8,0.00027627,2756.7,-9.0632e-05,0.0034653,-9.2255e-05,-12.193,1.0103
25635,12.385,0.090909,0.1,0.0002734,2732.1,0.00027325,2727.9,-8.9804e-05,0.0015358,-9.0926e-05,-8.4289,1.0226
25636,12.201,5.7273,0.1,0.0002787,2785,0.00027852,2779.9,-9.1464e-05,0.0014743,-9.2821e-05,-10.198,0.99807
25637,12.108,5.8182,0.1,0.00028143,2812.4,0.00028123,2806.4,-9.2287e-05,0.0039105,-9.3856e-05,-11.78,0.98497
25638,12.201,5.9091,0.1,0.00027836,2781.7,0.00027822,2777.6,-9.1453e-05,0.0014069,-9.2542e-05,-8.1778,0.99714
25639,12.201,5.5455,0.1,0.00027832,2781.3,0.00027819,2777.6,-9.1476e-05,0.00034837,-9.2471e-05,-7.4737,0.99895
25640,12.108,5.6364,0.1,0.00028094,2807.4,0.0002808,2803.3,-9.2301e-05,-0.00097602,-9.3396e-05,-8.2284,0.98588
25641,12.201,5.3636,0.1,0.00027807,2778.8,0.00027797,2776,-9.1488e-05,0.0016045,-9.2223e-05,-5.5216,0.99976
25642,12.108,5.4545,0.1,0.00028066,2804.7,0.00028056,2801.6,-9.2315e-05,0.001136,-9.313e-05,-6.1186,0.98673
25643,12.201,5.1818,0.1,0.00027783,2776.4,0.00027777,2774.5,-9.1501e-05,0.0031274,-9.1993e-05,-3.6937,1.0005
25644,12.108,5.2727,0.1,0.00028041,2802.2,0.00028034,2800.1,-9.233e-05,0.0021895,-9.2885e-05,-4.1685,0.98752
25645,12.201,5,0.1,0.00027761,2774.2,0.00027758,2773.2,-9.1513e-05,0.0077472,-9.1776e-05,-1.9642,1.0012
25646,12.108,5.0909,0.1,0.00028018,2799.9,0.00028014,2798.7,-9.2344e-05,0.0058886,-9.2653e-05,-2.315,0.98824
25647,12.201,4.8182,0.1,0.0002774,2772.1,0.0002774,2772,-9.1521e-05,0.050531,-9.1578e-05,-0.37724,1.0018
25648,12.108,4.9091,0.1,0.00027996,2797.7,0.00027995,2797.4,-9.2356e-05,0.030989,-9.2438e-05,-0.58488,0.98891
25649,12.201,4.6364,0.1,0.00027722,2770.2,0.00027724,2770.8,-9.1379e-05,1.2067,-9.1543e-05,-0.019059,1.0024
25650,12.108,4.7273,0.1,0.00027976,2795.7,0.00027978,2796.2,-9.2227e-05,1.1083,-9.2377e-05,-0.020511,0.98951
25651,12.201,4.4545,0.1,0.00027704,2768.5,0.00027709,2769.8,-9.1208e-05,2.5863,-9.1553e-05,-0.010385,1.0029
25652,12.108,4.5455,0.1,0.00027957,2793.8,0.00027962,2795.1,-9.204e-05,2.6149,-9.2389e-05,-0.010424,0.99005
25653,12.201,4.2727,0.1,0.00027689,2767,0.00027695,2768.9,-9.1052e-05,3.8358,-9.1564e-05,-0.0079532,1.0034
25654,12.108,4.3636,0.1,0.00027941,2792.1,0.00027947,2794.1,-9.187e-05,3.9927,-9.2402e-05,-0.0079004,0.99054
25655,12.201,4.0909,0.1,0.00027675,2765.6,0.00027684,2768.1,-9.0915e-05,4.9409,-9.1574e-05,-0.0068497,1.0037
25656,12.108,4.1818,0.1,0.00027926,2790.6,0.00027934,2793.2,-9.1717e-05,5.2252,-9.2414e-05,-0.0067915,0.99096
25657,12.201,3.9091,0.1,0.00027664,2764.5,0.00027674,2767.4,-9.0798e-05,5.8922,-9.1583e-05,-0.0062421,1.0041
25658,12.108,4,0.1,0.00027913,2789.3,0.00027923,2792.5,-9.1585e-05,6.3017,-9.2424e-05,-0.0061873,0.99132
25659,12.201,3.7273,0.1,0.00027654,2763.5,0.00027666,2766.8,-9.07e-05,6.6816,-9.159e-05,-0.0058741,1.0043
25660,12.108,3.8182,0.1,0.00027902,2788.3,0.00027914,2791.8,-9.1473e-05,7.2132,-9.2433e-05,-0.0058202,0.99162
25661,12.201,3.5455,0.1,0.00027647,2762.8,0.00027659,2766.4,-9.0623e-05,7.3026,-9.1596e-05,-0.0056434,1.0046
25662,12.108,3.6364,0.1,0.00027893,2787.4,0.00027906,2791.3,-9.1382e-05,7.9521,-9.2441e-05,-0.0055855,0.99187
25663,12.201,3.3636,0.1,0.00027641,2762.2,0.00027654,2766.1,-9.0568e-05,7.75,-9.16e-05,-0.005501,1.0047
25664,12.108,3.4545,0.1,0.00027886,2786.7,0.00027901,2791,-9.1313e-05,8.512,-9.2447e-05,-0.0054365,0.99205
25665,12.201,3.1818,0.1,0.00027638,2761.9,0.00027652,2765.9,-9.0535e-05,8.02,-9.1603e-05,-0.0054226,1.0048
25666,12.108,3.2727,0.1,0.00027882,2786.3,0.00027897,2790.7,-9.1267e-05,8.888,-9.2451e-05,-0.0053458,0.99217
25667,12.201,3,0.1,0.00027637,2761.8,0.00027651,2765.8,-9.0524e-05,8.1103,-9.1604e-05,-0.0053976,1.0048
25668,12.108,3.0909,0.1,0.0002788,2786,0.00027895,2790.6,-9.1244e-05,9.0768,-9.2452e-05,-0.0053032,0.99223
25669,12.201,2.8182,0.1,0.00027638,2761.9,0.00027652,2765.9,-9.0535e-05,8.02,-9.1603e-05,-0.0054227,1.0048
25670,12.108,2.9091,0.1,0.0002788,2786,0.00027895,2790.6,-9.1244e-05,9.0768,-9.2452e-05,-0.0053031,0.99223
25671,12.201,2.6364,0.1,0.00027641,2762.2,0.00027654,2766.1,-9.0568e-05,7.75,-9.16e-05,-0.0055009,1.0047
25672,12.108,2.7273,0.1,0.00027882,2786.3,0.00027897,2790.7,-9.1267e-05,8.888,-9.2451e-05,-0.0053461,0.99217
25673,12.201,2.4545,0.1,0.00027647,2762.8,0.00027659,2766.4,-9.0623e-05,7.3026,-9.1596e-05,-0.0056434,1.0046
25674,12.108,2.5455,0.1,0.00027886,2786.7,0.00027901,2791,-9.1313e-05,8.512,-9.2447e-05,-0.0054362,0.99205
25675,12.201,2.2727,0.1,0.00027654,2763.5,0.00027666,2766.8,-9.07e-05,6.6816,-9.159e-05,-0.0058742,1.0043
25676,12.108,2.3636,0.1,0.00027893,2787.4,0.00027906,2791.3,-9.1382e-05,7.9521,-9.2441e-05,-0.005586,0.99187
25677,12.201,2.0909,0.1,0.00027664,2764.5,0.00027674,2767.4,-9.0798e-05,5.8922,-9.1583e-05,-0.0062422,1.0041
25678,12.108,2.1818,0.1,0.00027902,2788.3,0.00027914,2791.8,-9.1473e-05,7.2133,-9.2433e-05,-0.0058201,0.99162
25679,12.201,1.9091,0.1,0.00027675,2765.6,0.00027684,2768.1,-9.0915e-05,4.941,-9.1574e-05,-0.00685,1.0037
25680,12.108,2,0.1,0.00027913,2789.3,0.00027923,2792.5,-9.1585e-05,6.3017,-9.2424e-05,-0.0061877,0.99132
25681,12.201,1.7273,0.1,0.00027689,2767,0.00027695,2768.9,-9.1052e-05,3.8359,-9.1564e-05,-0.007954,1.0034
25682,12.108,1.8182,0.1,0.00027926,2790.6,0.00027934,2793.2,-9.1717e-05,5.2252,-9.2414e-05,-0.006792,0.99096
25683,12.201,1.5455,0.1,0.00027704,2768.5,0.00027709,2769.8,-9.1208e-05,2.5863,-9.1553e-05,-0.010385,1.0029
25684,12.108,1.6364,0.1,0.00027941,2792.1,0.00027947,2794.1,-9.187e-05,3.9927,-9.2402e-05,-0.0079013,0.99054
25685,12.201,1.3636,0.1,0.00027722,2770.2,0.00027724,2770.8,-9.1379e-05,1.2067,-9.1543e-05,-0.019059,1.0024
25686,12.108,1.4545,0.1,0.00027957,2793.8,0.00027962,2795.1,-9.204e-05,2.6149,-9.239e-05,-0.010424,0.99005
25687,12.201,1.1818,0.1,0.0002774,2772.1,0.0002774,2772,-9.1521e-05,0.050537,-9.1578e-05,-0.3772,1.0018
25688,12.108,1.2727,0.1,0.00027976,2795.7,0.00027978,2796.2,-9.2227e-05,1.1084,-9.2377e-05,-0.020512,0.98951
25689,12.201,1,0.1,0.00027761,2774.2,0.00027758,2773.2,-9.1514e-05,0.0077463,-9.1776e-05,-1.9641,1.0012
25690,12.108,1.0909,0.1,0.00027996,2797.7,0.00027995,2797.4,-9.2356e-05,0.030991,-9.2438e-05,-0.58483,0.98891
25691,12.201,0.81818,0.1,0.00027783,2776.4,0.00027777,2774.5,-9.1501e-05,0.0031253,-9.1993e-05,-3.6937,1.0005
25692,12.108,0.90909,0.1,0.00028018,2799.9,0.00028014,2798.7,-9.2344e-05,0.0058866,-9.2653e-05,-2.315,0.98824
25693,12.201,0.63636,0.1,0.00027807,2778.8,0.00027797,2776,-9.1488e-05,0.0016043,-9.2223e-05,-5.5215,0.99976
25694,12.108,0.72727,0.1,0.00028041,2802.2,0.00028034,2800.1,-9.233e-05,0.0021875,-9.2885e-05,-4.1685,0.98752
25695,12.201,0.45455,0.1,0.00027832,2781.3,0.00027819,2777.6,-9.1476e-05,0.00034929,-9.2471e-05,-7.4737,0.99895
25696,12.108,0.54545,0.1,0.00028066,2804.7,0.00028056,2801.6,-9.2315e-05,0.0011368,-9.313e-05,-6.1186,0.98673
25697,12.201,0.27273,0.1,0.0002787,2785,0.00027852,2779.9,-9.1464e-05,0.0014734,-9.2821e-05,-10.198,0.99807
25698,12.108,0.36364,0.1,0.00028094,2807.4,0.0002808,2803.3,-9.2301e-05,-0.00097687,-9.3396e-05,-8.2284,0.98588
25699,12.108,0.18182,0.1,0.00028143,2812.4,0.00028123,2806.4,-9.2287e-05,0.0039095,-9.3856e-05,-11.78,0.98497
25700,12.201,0.090909,0.1,0.00027836,2781.7,0.00027822,2777.6,-9.1454e-05,0.0014057,-9.2542e-05,-8.1778,0.99714
25701,12.016,5.7273,0.1,0.00028366,2834.6,0.00028349,2829.7,-9.3125e-05,0.0011546,-9.4418e-05,-9.7132,0.97284
25702,11.924,5.8182,0.1,0.0002864,2862.1,0.00028621,2856.4,-9.395e-05,0.0044247,-9.5462e-05,-11.352,0.95983
25703,12.016,5.9091,0.1,0.00028334,2831.5,0.00028321,2827.5,-9.3111e-05,0.0012879,-9.4165e-05,-7.9185,0.97189
25704,12.016,5.5455,0.1,0.00028327,2830.8,0.00028316,2827.4,-9.3141e-05,-0.00031929,-9.4052e-05,-6.847,0.97373
25705,11.924,5.6364,0.1,0.0002859,2857.1,0.00028577,2853.2,-9.3969e-05,-0.0020028,-9.4988e-05,-7.6644,0.96075
25706,12.016,5.3636,0.1,0.00028301,2828.1,0.00028293,2825.7,-9.3157e-05,0.0014851,-9.3789e-05,-4.7425,0.97455
25707,11.924,5.4545,0.1,0.00028562,2854.2,0.00028553,2851.5,-9.3987e-05,0.00085006,-9.4705e-05,-5.3947,0.96161
25708,12.016,5.1818,0.1,0.00028276,2825.7,0.00028271,2824.3,-9.3173e-05,0.0041208,-9.3542e-05,-2.7667,0.97531
25709,11.924,5.2727,0.1,0.00028536,2851.6,0.0002853,2850,-9.4005e-05,0.0025349,-9.4443e-05,-3.2877,0.96241
25710,12.016,5,0.1,0.00028253,2823.3,0.00028251,2822.9,-9.3188e-05,0.018429,-9.3311e-05,-0.90297,0.97601
25711,11.924,5.0909,0.1,0.00028511,2849.2,0.00028509,2848.5,-9.4022e-05,0.011277,-9.4195e-05,-1.2862,0.96315
25712,12.016,4.8182,0.1,0.00028231,2821.2,0.00028233,2821.6,-9.3086e-05,0.90658,-9.321e-05,-0.024153,0.97665
25713,11.924,4.9091,0.1,0.00028488,2846.9,0.00028489,2847.2,-9.3955e-05,0.6583,-9.4046e-05,-0.031133,0.96383
25714,12.016,4.6364,0.1,0.00028211,2819.2,0.00028216,2820.4,-9.2885e-05,2.5368,-9.3224e-05,-0.010669,0.97723
25715,11.924,4.7273,0.1,0.00028467,2844.7,0.00028471,2845.9,-9.3738e-05,2.4193,-9.4061e-05,-0.010915,0.96444
25716,12.016,4.4545,0.1,0.00028193,2817.4,0.000282,2819.4,-9.2699e-05,4.0426,-9.3238e-05,-0.0079136,0.97775
25717,11.924,4.5455,0.1,0.00028447,2842.8,0.00028454,2844.8,-9.3536e-05,4.0636,-9.4078e-05,-0.0078897,0.96499
25718,12.016,4.2727,0.1,0.00028177,2815.7,0.00028186,2818.4,-9.2532e-05,5.4032,-9.3252e-05,-0.0067626,0.97821
25719,11.924,4.3636,0.1,0.0002843,2841,0.00028439,2843.8,-9.3352e-05,5.5634,-9.4094e-05,-0.006704,0.96548
25720,12.016,4.0909,0.1,0.00028163,2814.3,0.00028174,2817.6,-9.2384e-05,6.6069,-9.3264e-05,-0.0061479,0.9786
25721,11.924,4.1818,0.1,0.00028414,2839.4,0.00028426,2842.9,-9.3188e-05,6.9054,-9.4108e-05,-0.0060859,0.96591
25722,12.016,3.9091,0.1,0.0002815,2813.1,0.00028163,2816.9,-9.2257e-05,7.6435,-9.3275e-05,-0.0057757,0.97894
25723,11.924,4,0.1,0.000284,2838.1,0.00028414,2842.1,-9.3045e-05,8.0785,-9.4121e-05,-0.0057138,0.96628
25724,12.016,3.7273,0.1,0.0002814,2812.1,0.00028155,2816.3,-9.2152e-05,8.5044,-9.3284e-05,-0.0055352,0.97921
25725,11.924,3.8182,0.1,0.00028389,2836.9,0.00028404,2841.4,-9.2924e-05,9.0724,-9.4132e-05,-0.0054712,0.96659
25726,12.016,3.5455,0.1,0.00028132,2811.3,0.00028148,2815.9,-9.2069e-05,9.182,-9.3291e-05,-0.0053777,0.97942
25727,11.924,3.6364,0.1,0.00028379,2836,0.00028396,2840.9,-9.2825e-05,9.8786,-9.4141e-05,-0.0053082,0.96683
25728,12.016,3.3636,0.1,0.00028127,2810.7,0.00028143,2815.5,-9.2009e-05,9.6703,-9.3297e-05,-0.0052775,0.97958
25729,11.924,3.4545,0.1,0.00028372,2835.3,0.0002839,2840.5,-9.2751e-05,10.49,-9.4148e-05,-0.0052008,0.96702
25730,12.016,3.1818,0.1,0.00028123,2810.4,0.0002814,2815.3,-9.1973e-05,9.9651,-9.33e-05,-0.005221,0.97967
25731,11.924,3.2727,0.1,0.00028367,2834.8,0.00028386,2840.2,-9.2701e-05,10.9,-9.4153e-05,-0.0051341,0.96714
25732,12.016,3,0.1,0.00028122,2810.3,0.00028139,2815.3,-9.1961e-05,10.064,-9.3301e-05,-0.0052027,0.9797
25733,11.924,3.0909,0.1,0.00028365,2834.6,0.00028384,2840.1,-9.2676e-05,11.107,-9.4155e-05,-0.0051011,0.9672
25734,12.016,2.8182,0.1,0.00028123,2810.4,0.0002814,2815.3,-9.1973e-05,9.9651,-9.33e-05,-0.0052211,0.97967
25735,11.924,2.9091,0.1,0.00028365,2834.6,0.00028384,2840.1,-9.2676e-05,11.107,-9.4155e-05,-0.0051015,0.9672
25736,12.016,2.6364,0.1,0.00028127,2810.7,0.00028143,2815.5,-9.2009e-05,9.6703,-9.3297e-05,-0.0052776,0.97958
25737,11.924,2.7273,0.1,0.00028367,2834.8,0.00028386,2840.2,-9.2701e-05,10.9,-9.4153e-05,-0.0051339,0.96714
25738,12.016,2.4545,0.1,0.00028132,2811.3,0.00028148,2815.9,-9.2069e-05,9.182,-9.3291e-05,-0.005378,0.97942
25739,11.924,2.5455,0.1,0.00028372,2835.3,0.0002839,2840.5,-9.2751e-05,10.49,-9.4148e-05,-0.0052009,0.96702
25740,12.016,2.2727,0.1,0.0002814,2812.1,0.00028155,2816.3,-9.2152e-05,8.5044,-9.3284e-05,-0.0055356,0.97921
25741,11.924,2.3636,0.1,0.00028379,2836,0.00028396,2840.9,-9.2825e-05,9.8786,-9.4141e-05,-0.0053084,0.96683
25742,12.016,2.0909,0.1,0.0002815,2813.1,0.00028163,2816.9,-9.2257e-05,7.6436,-9.3275e-05,-0.0057759,0.97894
25743,11.924,2.1818,0.1,0.00028389,2836.9,0.00028404,2841.4,-9.2924e-05,9.0724,-9.4132e-05,-0.0054716,0.96659
25744,12.016,1.9091,0.1,0.00028163,2814.3,0.00028174,2817.6,-9.2384e-05,6.6069,-9.3264e-05,-0.0061483,0.9786
25745,11.924,2,0.1,0.000284,2838.1,0.00028414,2842.1,-9.3045e-05,8.0785,-9.4121e-05,-0.0057141,0.96628
25746,12.016,1.7273,0.1,0.00028177,2815.7,0.00028186,2818.4,-9.2532e-05,5.4032,-9.3252e-05,-0.0067632,0.97821
25747,11.924,1.8182,0.1,0.00028414,2839.4,0.00028426,2842.9,-9.3188e-05,6.9055,-9.4108e-05,-0.0060865,0.96591
25748,12.016,1.5455,0.1,0.00028193,2817.4,0.000282,2819.4,-9.2699e-05,4.0426,-9.3238e-05,-0.0079142,0.97775
25749,11.924,1.6364,0.1,0.0002843,2841,0.00028439,2843.8,-9.3352e-05,5.5634,-9.4094e-05,-0.0067043,0.96548
25750,12.016,1.3636,0.1,0.00028211,2819.2,0.00028216,2820.4,-9.2885e-05,2.5369,-9.3224e-05,-0.01067,0.97723
25751,11.924,1.4545,0.1,0.00028447,2842.8,0.00028454,2844.8,-9.3536e-05,4.0636,-9.4078e-05,-0.0078902,0.96499
25752,12.016,1.1818,0.1,0.00028231,2821.2,0.00028233,2821.6,-9.3086e-05,0.90663,-9.321e-05,-0.024153,0.97665
25753,11.924,1.2727,0.1,0.00028467,2844.7,0.00028471,2845.9,-9.3738e-05,2.4193,-9.4061e-05,-0.010915,0.96444
25754,12.016,1,0.1,0.00028253,2823.3,0.00028251,2822.9,-9.3188e-05,0.018429,-9.3311e-05,-0.90292,0.97601
25755,11.924,1.0909,0.1,0.00028488,2846.9,0.00028489,2847.2,-9.3955e-05,0.65834,-9.4046e-05,-0.031131,0.96383
25756,12.016,0.81818,0.1,0.00028276,2825.7,0.00028271,2824.3,-9.3173e-05,0.0041189,-9.3542e-05,-2.7666,0.97531
25757,11.924,0.90909,0.1,0.00028511,2849.2,0.00028509,2848.5,-9.4022e-05,0.011276,-9.4195e-05,-1.2862,0.96315
25758,12.016,0.63636,0.1,0.00028301,2828.1,0.00028293,2825.7,-9.3157e-05,0.0014842,-9.3789e-05,-4.7425,0.97455
25759,11.924,0.72727,0.1,0.00028536,2851.6,0.0002853,2850,-9.4005e-05,0.0025331,-9.4443e-05,-3.2877,0.96241
25760,12.016,0.45455,0.1,0.00028327,2830.8,0.00028316,2827.4,-9.3141e-05,-0.00032026,-9.4052e-05,-6.847,0.97373
25761,11.924,0.54545,0.1,0.00028562,2854.2,0.00028553,2851.5,-9.3987e-05,0.00085002,-9.4705e-05,-5.3947,0.96161
25762,12.016,0.27273,0.1,0.00028366,2834.6,0.00028349,2829.7,-9.3125e-05,0.0011536,-9.4418e-05,-9.7132,0.97284
25763,11.924,0.36364,0.1,0.0002859,2857.1,0.00028577,2853.2,-9.3969e-05,-0.0020042,-9.4989e-05,-7.6644,0.96075
25764,11.924,0.18182,0.1,0.0002864,2862.1,0.00028621,2856.4,-9.395e-05,0.0044247,-9.5462e-05,-11.352,0.95983
25765,12.016,0.090909,0.1,0.00028334,2831.5,0.00028321,2827.5,-9.3111e-05,0.0012888,-9.4165e-05,-7.9185,0.97189
25766,11.832,5.7273,0.1,0.00028864,2884.4,0.00028848,2879.8,-9.4794e-05,0.00084905,-9.602e-05,-9.207,0.9478
25767,11.74,5.8182,0.1,0.0002914,2912,0.00029121,2906.5,-9.5621e-05,0.0050201,-9.7073e-05,-10.908,0.93488
25768,11.832,5.9091,0.1,0.00028835,2881.5,0.00028822,2877.7,-9.4776e-05,0.0011944,-9.5795e-05,-7.6504,0.94684
25769,11.832,5.5455,0.1,0.00028825,2880.5,0.00028814,2877.4,-9.4814e-05,-0.0010327,-9.5638e-05,-6.1862,0.9487
25770,11.74,5.6364,0.1,0.00029089,2906.9,0.00029077,2903.4,-9.5644e-05,-0.0031028,-9.6585e-05,-7.0716,0.93581
25771,11.832,5.3636,0.1,0.00028797,2877.7,0.0002879,2875.7,-9.4835e-05,0.0014337,-9.5356e-05,-3.917,0.94954
25772,11.74,5.4545,0.1,0.00029059,2903.9,0.00029051,2901.6,-9.5666e-05,0.00054894,-9.6283e-05,-4.6291,0.93669
25773,11.832,5.1818,0.1,0.00028771,2875.1,0.00028768,2874.2,-9.4854e-05,0.0065674,-9.5093e-05,-1.7822,0.95031
25774,11.74,5.2727,0.1,0.00029032,2901.2,0.00029028,2900,-9.5689e-05,0.0034162,-9.6002e-05,-2.3527,0.9375
25775,11.832,5,0.1,0.00028746,2872.6,0.00028747,2872.8,-9.4834e-05,0.31675,-9.4883e-05,-0.058389,0.95102
25776,11.74,5.0909,0.1,0.00029006,2898.6,0.00029006,2898.5,-9.5703e-05,0.066176,-9.5744e-05,-0.23949,0.93825
25777,11.832,4.8182,0.1,0.00028724,2870.4,0.00028727,2871.5,-9.4605e-05,2.1859,-9.4897e-05,-0.011503,0.95167
25778,11.74,4.9091,0.1,0.00028982,2896.2,0.00028985,2897.1,-9.5481e-05,1.9006,-9.5736e-05,-0.012287,0.93894
25779,11.832,4.6364,0.1,0.00028703,2868.3,0.00028709,2870.3,-9.4387e-05,3.9669,-9.4916e-05,-0.0079424,0.95226
25780,11.74,4.7273,0.1,0.00028959,2893.9,0.00028966,2895.9,-9.5246e-05,3.8292,-9.5756e-05,-0.0079755,0.93956
25781,11.832,4.4545,0.1,0.00028683,2866.4,0.00028693,2869.2,-9.4186e-05,5.6052,-9.4933e-05,-0.00668,0.95279
25782,11.74,4.5455,0.1,0.00028939,2891.9,0.00028948,2894.7,-9.5028e-05,5.6177,-9.5777e-05,-0.0066379,0.94012
25783,11.832,4.2727,0.1,0.00028666,2864.6,0.00028678,2868.2,-9.4006e-05,7.0862,-9.495e-05,-0.0060429,0.95325
25784,11.74,4.3636,0.1,0.0002892,2890,0.00028932,2893.6,-9.483e-05,7.2496,-9.5795e-05,-0.005989,0.94062
25785,11.832,4.0909,0.1,0.00028651,2863.1,0.00028665,2867.3,-9.3846e-05,8.3974,-9.4965e-05,-0.0056644,0.95365
25786,11.74,4.1818,0.1,0.00028903,2888.3,0.00028918,2892.7,-9.4652e-05,8.7113,-9.5813e-05,-0.0056097,0.94106
25787,11.832,3.9091,0.1,0.00028638,2861.8,0.00028654,2866.6,-9.3709e-05,9.5275,-9.4978e-05,-0.005417,0.95399
25788,11.74,4,0.1,0.00028889,2886.9,0.00028906,2891.9,-9.4498e-05,9.9899,-9.5828e-05,-0.0053609,0.94143
25789,11.832,3.7273,0.1,0.00028627,2860.8,0.00028645,2866,-9.3595e-05,10.467,-9.4989e-05,-0.0052478,0.95427
25790,11.74,3.8182,0.1,0.00028877,2885.7,0.00028895,2891.2,-9.4367e-05,11.074,-9.5841e-05,-0.0051873,0.94174
25791,11.832,3.5455,0.1,0.00028619,2859.9,0.00028638,2865.5,-9.3505e-05,11.206,-9.4997e-05,-0.0051318,0.95449
25792,11.74,3.6364,0.1,0.00028867,2884.7,0.00028887,2890.6,-9.426e-05,11.954,-9.5852e-05,-0.005064,0.94199
25793,11.832,3.3636,0.1,0.00028613,2859.3,0.00028633,2865.2,-9.3441e-05,11.74,-9.5004e-05,-0.0050559,0.95464
25794,11.74,3.4545,0.1,0.00028859,2883.9,0.0002888,2890.2,-9.418e-05,12.622,-9.586e-05,-0.0049798,0.94218
25795,11.832,3.1818,0.1,0.00028609,2858.9,0.0002863,2865,-9.3402e-05,12.062,-9.5008e-05,-0.0050116,0.95473
25796,11.74,3.2727,0.1,0.00028854,2883.4,0.00028876,2889.9,-9.4126e-05,13.07,-9.5866e-05,-0.0049258,0.9423
25797,11.832,3,0.1,0.00028608,2858.8,0.00028628,2864.9,-9.3389e-05,12.169,-9.5009e-05,-0.004997,0.95477
25798,11.74,3.0909,0.1,0.00028852,2883.2,0.00028874,2889.8,-9.4098e-05,13.296,-9.5869e-05,-0.0048983,0.94236
25799,11.832,2.8182,0.1,0.00028609,2858.9,0.0002863,2865,-9.3402e-05,12.062,-9.5008e-05,-0.0050117,0.95473
25800,11.74,2.9091,0.1,0.00028852,2883.2,0.00028874,2889.8,-9.4098e-05,13.296,-9.5869e-05,-0.0048988,0.94236
25801,11.832,2.6364,0.1,0.00028613,2859.3,0.00028633,2865.2,-9.3441e-05,11.74,-9.5004e-05,-0.0050557,0.95464
25802,11.74,2.7273,0.1,0.00028854,2883.4,0.00028876,2889.9,-9.4126e-05,13.07,-9.5866e-05,-0.0049258,0.9423
25803,11.832,2.4545,0.1,0.00028619,2859.9,0.00028638,2865.5,-9.3505e-05,11.206,-9.4997e-05,-0.0051319,0.95449
25804,11.74,2.5455,0.1,0.00028859,2883.9,0.0002888,2890.2,-9.418e-05,12.622,-9.586e-05,-0.0049801,0.94218
25805,11.832,2.2727,0.1,0.00028627,2860.8,0.00028645,2866,-9.3595e-05,10.467,-9.4989e-05,-0.0052479,0.95427
25806,11.74,2.3636,0.1,0.00028867,2884.7,0.00028887,2890.6,-9.426e-05,11.954,-9.5852e-05,-0.0050644,0.94199
25807,11.832,2.0909,0.1,0.00028638,2861.8,0.00028654,2866.6,-9.3709e-05,9.5275,-9.4978e-05,-0.0054175,0.95399
25808,11.74,2.1818,0.1,0.00028877,2885.7,0.00028895,2891.2,-9.4367e-05,11.074,-9.5841e-05,-0.0051874,0.94174
25809,11.832,1.9091,0.1,0.00028651,2863.1,0.00028665,2867.3,-9.3846e-05,8.3974,-9.4965e-05,-0.0056648,0.95365
25810,11.74,2,0.1,0.00028889,2886.9,0.00028906,2891.9,-9.4498e-05,9.9899,-9.5828e-05,-0.0053611,0.94143
25811,11.832,1.7273,0.1,0.00028666,2864.6,0.00028678,2868.2,-9.4006e-05,7.0862,-9.495e-05,-0.0060432,0.95325
25812,11.74,1.8182,0.1,0.00028903,2888.3,0.00028918,2892.7,-9.4652e-05,8.7113,-9.5813e-05,-0.0056098,0.94106
25813,11.832,1.5455,0.1,0.00028683,2866.4,0.00028693,2869.2,-9.4186e-05,5.6052,-9.4933e-05,-0.0066803,0.95279
25814,11.74,1.6364,0.1,0.0002892,2890,0.00028932,2893.6,-9.483e-05,7.2497,-9.5795e-05,-0.0059899,0.94062
25815,11.832,1.3636,0.1,0.00028703,2868.3,0.00028709,2870.3,-9.4387e-05,3.9669,-9.4916e-05,-0.007943,0.95226
25816,11.74,1.4545,0.1,0.00028939,2891.9,0.00028948,2894.7,-9.5028e-05,5.6177,-9.5777e-05,-0.0066384,0.94012
25817,11.832,1.1818,0.1,0.00028724,2870.4,0.00028727,2871.5,-9.4605e-05,2.186,-9.4897e-05,-0.011503,0.95167
25818,11.74,1.2727,0.1,0.00028959,2893.9,0.00028966,2895.9,-9.5246e-05,3.8292,-9.5756e-05,-0.0079763,0.93956
25819,11.832,1,0.1,0.00028746,2872.6,0.00028747,2872.8,-9.4834e-05,0.31679,-9.4883e-05,-0.058383,0.95102
25820,11.74,1.0909,0.1,0.00028982,2896.2,0.00028985,2897.1,-9.5481e-05,1.9006,-9.5736e-05,-0.012287,0.93894
25821,11.832,0.81818,0.1,0.00028771,2875.1,0.00028768,2874.2,-9.4854e-05,0.0065659,-9.5093e-05,-1.7822,0.95031
25822,11.74,0.90909,0.1,0.00029006,2898.6,0.00029006,2898.5,-9.5703e-05,0.066187,-9.5744e-05,-0.23946,0.93825
25823,11.832,0.63636,0.1,0.00028797,2877.7,0.0002879,2875.7,-9.4835e-05,0.0014328,-9.5356e-05,-3.917,0.94954
25824,11.74,0.72727,0.1,0.00029032,2901.2,0.00029028,2900,-9.5689e-05,0.0034144,-9.6002e-05,-2.3527,0.9375
25825,11.832,0.45455,0.1,0.00028825,2880.5,0.00028814,2877.4,-9.4814e-05,-0.0010332,-9.5638e-05,-6.1862,0.9487
25826,11.74,0.54545,0.1,0.00029059,2903.9,0.00029051,2901.6,-9.5666e-05,0.00054872,-9.6283e-05,-4.629,0.93669
25827,11.832,0.27273,0.1,0.00028864,2884.4,0.00028848,2879.8,-9.4794e-05,0.00084862,-9.602e-05,-9.207,0.9478
25828,11.74,0.36364,0.1,0.00029089,2906.9,0.00029077,2903.4,-9.5644e-05,-0.0031025,-9.6585e-05,-7.0716,0.93581
25829,11.74,0.18182,0.1,0.0002914,2912,0.00029121,2906.5,-9.5621e-05,0.0050199,-9.7074e-05,-10.908,0.93488
25830,11.832,0.090909,0.1,0.00028835,2881.5,0.00028822,2877.7,-9.4776e-05,0.0011944,-9.5795e-05,-7.6504,0.94684
25831,11.647,5.7273,0.1,0.00029364,2934.4,0.00029349,2930,-9.6471e-05,0.00054924,-9.7626e-05,-8.6775,0.92295
25832,11.555,5.8182,0.1,0.00029642,2962.1,0.00029624,2956.9,-9.73e-05,0.0057181,-9.8691e-05,-10.446,0.91012
25833,11.647,5.9091,0.1,0.00029338,2931.8,0.00029325,2928.1,-9.6449e-05,0.0011161,-9.7431e-05,-7.3727,0.92198
25834,11.647,5.5455,0.1,0.00029324,2930.3,0.00029314,2927.6,-9.6496e-05,-0.0018163,-9.7226e-05,-5.4888,0.92387
25835,11.555,5.6364,0.1,0.0002959,2957,0.00029579,2953.7,-9.7328e-05,-0.0042756,-9.8185e-05,-6.4479,0.91107
25836,11.647,5.3636,0.1,0.00029294,2927.4,0.00029289,2925.9,-9.6521e-05,0.0015138,-9.6926e-05,-3.0417,0.92472
25837,11.555,5.4545,0.1,0.00029559,2953.8,0.00029552,2951.9,-9.7355e-05,0.0002447,-9.7863e-05,-3.8187,0.91196
25838,11.647,5.1818,0.1,0.00029267,2924.7,0.00029266,2924.3,-9.6543e-05,0.016896,-9.6644e-05,-0.74239,0.92551
25839,11.555,5.2727,0.1,0.0002953,2951,0.00029528,2950.3,-9.7381e-05,0.0061586,-9.7563e-05,-1.3611,0.91279
25840,11.647,5,0.1,0.00029241,2922.1,0.00029244,2922.9,-9.6371e-05,1.4918,-9.6572e-05,-0.014006,0.92623
25841,11.555,5.0909,0.1,0.00029503,2948.2,0.00029504,2948.7,-9.7273e-05,1.0183,-9.7411e-05,-0.017476,0.91355
25842,11.647,4.8182,0.1,0.00029217,2919.7,0.00029224,2921.5,-9.6119e-05,3.564,-9.6595e-05,-0.0081222,0.92689
25843,11.555,4.9091,0.1,0.00029477,2945.7,0.00029483,2947.3,-9.7003e-05,3.2439,-9.7436e-05,-0.0082675,0.91425
25844,11.647,4.6364,0.1,0.00029195,2917.5,0.00029205,2920.3,-9.5884e-05,5.5005,-9.6617e-05,-0.0066327,0.92749
25845,11.555,4.7273,0.1,0.00029453,2943.3,0.00029462,2946,-9.675e-05,5.3403,-9.7461e-05,-0.0066002,0.91488
25846,11.647,4.4545,0.1,0.00029175,2915.5,0.00029187,2919.1,-9.5669e-05,7.2824,-9.6639e-05,-0.0059583,0.92802
25847,11.555,4.5455,0.1,0.00029432,2941.1,0.00029444,2944.8,-9.6515e-05,7.2849,-9.7485e-05,-0.0059081,0.91545
25848,11.647,4.2727,0.1,0.00029157,2913.7,0.00029172,2918.1,-9.5474e-05,8.8947,-9.6658e-05,-0.0055702,0.92849
25849,11.555,4.3636,0.1,0.00029412,2939.1,0.00029427,2943.7,-9.6301e-05,9.0611,-9.7508e-05,-0.0055162,0.91595
25850,11.647,4.0909,0.1,0.00029141,2912.1,0.00029158,2917.2,-9.5301e-05,10.324,-9.6676e-05,-0.0053171,0.9289
25851,11.555,4.1818,0.1,0.00029394,2937.4,0.00029412,2942.7,-9.6109e-05,10.654,-9.7528e-05,-0.0052619,0.9164
25852,11.647,3.9091,0.1,0.00029127,2910.7,0.00029146,2916.4,-9.5153e-05,11.556,-9.6691e-05,-0.0051382,0.92924
25853,11.555,4,0.1,0.00029379,2935.8,0.00029399,2941.8,-9.5942e-05,12.048,-9.7546e-05,-0.0050794,0.91678
25854,11.647,3.7273,0.1,0.00029116,2909.5,0.00029137,2915.8,-9.5029e-05,12.581,-9.6704e-05,-0.0050075,0.92953
25855,11.555,3.8182,0.1,0.00029366,2934.5,0.00029388,2941.1,-9.58e-05,13.232,-9.7562e-05,-0.0049425,0.91709
25856,11.647,3.5455,0.1,0.00029107,2908.7,0.00029129,2915.3,-9.4932e-05,13.389,-9.6715e-05,-0.0049136,0.92975
25857,11.555,3.6364,0.1,0.00029355,2933.5,0.00029379,2940.5,-9.5685e-05,14.193,-9.7574e-05,-0.0048391,0.91735
25858,11.647,3.3636,0.1,0.000291,2908,0.00029124,2915,-9.4862e-05,13.972,-9.6722e-05,-0.0048497,0.9299
25859,11.555,3.4545,0.1,0.00029347,2932.7,0.00029372,2940.1,-9.5597e-05,14.923,-9.7584e-05,-0.0047658,0.91754
25860,11.647,3.1818,0.1,0.00029096,2907.6,0.0002912,2914.8,-9.482e-05,14.324,-9.6727e-05,-0.0048116,0.93
25861,11.555,3.2727,0.1,0.00029342,2932.1,0.00029368,2939.8,-9.5539e-05,15.413,-9.7591e-05,-0.0047167,0.91766
25862,11.647,3,0.1,0.00029095,2907.5,0.00029119,2914.7,-9.4806e-05,14.441,-9.6728e-05,-0.004799,0.93003
25863,11.555,3.0909,0.1,0.00029339,2931.9,0.00029365,2939.7,-9.5509e-05,15.66,-9.7594e-05,-0.004692,0.91772
25864,11.647,2.8182,0.1,0.00029096,2907.6,0.0002912,2914.8,-9.482e-05,14.324,-9.6727e-05,-0.0048121,0.93
25865,11.555,2.9091,0.1,0.00029339,2931.9,0.00029365,2939.7,-9.5509e-05,15.66,-9.7594e-05,-0.0046919,0.91772
25866,11.647,2.6364,0.1,0.000291,2908,0.00029124,2915,-9.4862e-05,13.972,-9.6722e-05,-0.0048502,0.9299
25867,11.555,2.7273,0.1,0.00029342,2932.1,0.00029368,2939.8,-9.5539e-05,15.413,-9.7591e-05,-0.004717,0.91766
25868,11.647,2.4545,0.1,0.00029107,2908.7,0.00029129,2915.3,-9.4932e-05,13.389,-9.6715e-05,-0.0049142,0.92975
25869,11.555,2.5455,0.1,0.00029347,2932.7,0.00029372,2940.1,-9.5597e-05,14.923,-9.7584e-05,-0.0047659,0.91754
25870,11.647,2.2727,0.1,0.00029116,2909.5,0.00029137,2915.8,-9.5029e-05,12.581,-9.6704e-05,-0.0050078,0.92953
25871,11.555,2.3636,0.1,0.00029355,2933.5,0.00029379,2940.5,-9.5685e-05,14.193,-9.7574e-05,-0.0048393,0.91735
25872,11.647,2.0909,0.1,0.00029127,2910.7,0.00029146,2916.4,-9.5153e-05,11.556,-9.6691e-05,-0.0051381,0.92924
25873,11.555,2.1818,0.1,0.00029366,2934.5,0.00029388,2941.1,-9.58e-05,13.232,-9.7562e-05,-0.0049426,0.91709
25874,11.647,1.9091,0.1,0.00029141,2912.1,0.00029158,2917.2,-9.5301e-05,10.324,-9.6676e-05,-0.0053169,0.9289
25875,11.555,2,0.1,0.00029379,2935.8,0.00029399,2941.8,-9.5942e-05,12.048,-9.7546e-05,-0.0050799,0.91678
25876,11.647,1.7273,0.1,0.00029157,2913.7,0.00029172,2918.1,-9.5474e-05,8.8948,-9.6658e-05,-0.0055708,0.92849
25877,11.555,1.8182,0.1,0.00029394,2937.4,0.00029412,2942.7,-9.6109e-05,10.654,-9.7528e-05,-0.0052616,0.9164
25878,11.647,1.5455,0.1,0.00029175,2915.5,0.00029187,2919.1,-9.5669e-05,7.2824,-9.6639e-05,-0.0059593,0.92802
25879,11.555,1.6364,0.1,0.00029412,2939.1,0.00029427,2943.7,-9.6301e-05,9.0611,-9.7508e-05,-0.005517,0.91595
25880,11.647,1.3636,0.1,0.00029195,2917.5,0.00029205,2920.3,-9.5884e-05,5.5005,-9.6617e-05,-0.0066334,0.92749
25881,11.555,1.4545,0.1,0.00029432,2941.1,0.00029444,2944.8,-9.6515e-05,7.2849,-9.7485e-05,-0.0059083,0.91545
25882,11.647,1.1818,0.1,0.00029217,2919.7,0.00029224,2921.5,-9.6119e-05,3.5641,-9.6595e-05,-0.0081231,0.92689
25883,11.555,1.2727,0.1,0.00029453,2943.3,0.00029462,2946,-9.675e-05,5.3404,-9.7461e-05,-0.0066011,0.91488
25884,11.647,1,0.1,0.00029241,2922.1,0.00029244,2922.9,-9.6372e-05,1.4918,-9.6572e-05,-0.014007,0.92623
25885,11.555,1.0909,0.1,0.00029477,2945.7,0.00029483,2947.3,-9.7003e-05,3.2439,-9.7436e-05,-0.0082684,0.91425
25886,11.647,0.81818,0.1,0.00029267,2924.7,0.00029266,2924.3,-9.6543e-05,0.016896,-9.6644e-05,-0.74234,0.92551
25887,11.555,0.90909,0.1,0.00029503,2948.2,0.00029504,2948.7,-9.7273e-05,1.0183,-9.7411e-05,-0.017477,0.91355
25888,11.647,0.63636,0.1,0.00029294,2927.4,0.00029289,2925.9,-9.6521e-05,0.0015127,-9.6926e-05,-3.0417,0.92472
25889,11.555,0.72727,0.1,0.0002953,2951,0.00029528,2950.3,-9.7381e-05,0.0061581,-9.7563e-05,-1.361,0.91279
25890,11.647,0.45455,0.1,0.00029324,2930.3,0.00029314,2927.6,-9.6496e-05,-0.0018158,-9.7226e-05,-5.4888,0.92387
25891,11.555,0.54545,0.1,0.00029559,2953.8,0.00029552,2951.9,-9.7355e-05,0.00024505,-9.7863e-05,-3.8187,0.91196
25892,11.647,0.27273,0.1,0.00029364,2934.4,0.00029349,2930,-9.6471e-05,0.00054977,-9.7626e-05,-8.6775,0.92295
25893,11.555,0.36364,0.1,0.0002959,2957,0.00029579,2953.7,-9.7328e-05,-0.0042753,-9.8185e-05,-6.4479,0.91107
25894,11.555,0.18182,0.1,0.00029642,2962.1,0.00029624,2956.9,-9.73e-05,0.0057173,-9.8691e-05,-10.446,0.91012
25895,11.647,0.090909,0.1,0.00029338,2931.8,0.00029325,2928.1,-9.6449e-05,0.0011137,-9.7431e-05,-7.3727,0.92198
25896,11.463,5.7273,0.1,0.00029866,2984.6,0.00029853,2980.5,-9.8156e-05,0.00029634,-9.9238e-05,-8.1232,0.89831
25897,11.371,5.8182,0.1,0.00030146,3012.5,0.00030129,3007.5,-9.8987e-05,0.0065688,-0.00010031,-9.9655,0.88557
25898,11.463,5.9091,0.1,0.00029843,2982.2,0.00029831,2978.7,-9.813e-05,0.0010861,-9.9073e-05,-7.0848,0.89731
25899,11.463,5.5455,0.1,0.00029825,2980.4,0.00029817,2978,-9.8186e-05,-0.0026509,-9.8818e-05,-4.7525,0.89923
25900,11.371,5.6364,0.1,0.00030093,3007.2,0.00030083,3004.3,-9.902e-05,-0.0054964,-9.979e-05,-5.7914,0.88653
25901,11.463,5.3636,0.1,0.00029794,2977.3,0.0002979,2976.3,-9.8215e-05,0.0019975,-9.8497e-05,-2.1135,0.9001
25902,11.371,5.4545,0.1,0.0003006,3003.9,0.00030055,3002.4,-9.9051e-05,-1.1321e-05,-9.9446e-05,-2.9608,0.88744
25903,11.463,5.1818,0.1,0.00029765,2974.5,0.00029766,2974.7,-9.8188e-05,0.42554,-9.8249e-05,-0.033117,0.9009
25904,11.371,5.2727,0.1,0.0003003,3000.9,0.00030029,3000.8,-9.908e-05,0.029175,-9.9127e-05,-0.3271,0.88827
25905,11.463,5,0.1,0.00029738,2971.8,0.00029743,2973.2,-9.7903e-05,2.7879,-9.8275e-05,-0.008591,0.90163
25906,11.371,5.0909,0.1,0.00030001,2998,0.00030005,2999.2,-9.8814e-05,2.2615,-9.9116e-05,-0.0090393,0.88905
25907,11.463,4.8182,0.1,0.00029713,2969.2,0.00029721,2971.8,-9.7631e-05,5.0404,-9.8303e-05,-0.0066205,0.9023
25908,11.371,4.9091,0.1,0.00029974,2995.3,0.00029982,2997.7,-9.8523e-05,4.6821,-9.9147e-05,-0.0066071,0.88975
25909,11.463,4.6364,0.1,0.00029689,2966.9,0.00029702,2970.5,-9.7378e-05,7.1448,-9.8329e-05,-0.0058792,0.90291
25910,11.371,4.7273,0.1,0.00029949,2992.8,0.00029961,2996.3,-9.8249e-05,6.9595,-9.9176e-05,-0.0058198,0.8904
25911,11.463,4.4545,0.1,0.00029668,2964.7,0.00029683,2969.3,-9.7145e-05,9.0833,-9.8354e-05,-0.0054817,0.90345
25912,11.371,4.5455,0.1,0.00029926,2990.5,0.00029941,2995,-9.7996e-05,9.0741,-9.9205e-05,-0.005423,0.89098
25913,11.463,4.2727,0.1,0.00029649,2962.8,0.00029667,2968.2,-9.6934e-05,10.839,-9.8377e-05,-0.0052218,0.90393
25914,11.371,4.3636,0.1,0.00029905,2988.4,0.00029923,2993.9,-9.7765e-05,11.008,-9.9231e-05,-0.005162,0.89149
25915,11.463,4.0909,0.1,0.00029632,2961.1,0.00029652,2967.3,-9.6748e-05,12.397,-9.8398e-05,-0.0050343,0.90434
25916,11.371,4.1818,0.1,0.00029886,2986.5,0.00029907,2992.9,-9.7558e-05,12.744,-9.9254e-05,-0.0049712,0.89194
25917,11.463,3.9091,0.1,0.00029617,2959.7,0.0002964,2966.5,-9.6587e-05,13.742,-9.8416e-05,-0.0048904,0.90469
25918,11.371,4,0.1,0.00029869,2984.9,0.00029894,2992,-9.7376e-05,14.266,-9.9276e-05,-0.0048213,0.89232
25919,11.463,3.7273,0.1,0.00029605,2958.4,0.0002963,2965.8,-9.6453e-05,14.862,-9.8432e-05,-0.0047782,0.90498
25920,11.371,3.8182,0.1,0.00029856,2983.5,0.00029882,2991.2,-9.7222e-05,15.559,-9.9294e-05,-0.0046994,0.89264
25921,11.463,3.5455,0.1,0.00029595,2957.5,0.00029622,2965.3,-9.6347e-05,15.745,-9.8444e-05,-0.0046936,0.9052
25922,11.371,3.6364,0.1,0.00029844,2982.4,0.00029872,2990.6,-9.7097e-05,16.61,-9.9309e-05,-0.0046027,0.8929
25923,11.463,3.3636,0.1,0.00029588,2956.8,0.00029616,2965,-9.6271e-05,16.382,-9.8452e-05,-0.0046337,0.90536
25924,11.371,3.4545,0.1,0.00029836,2981.5,0.00029865,2990.2,-9.7002e-05,17.408,-9.932e-05,-0.004531,0.89309
25925,11.463,3.1818,0.1,0.00029584,2956.4,0.00029612,2964.7,-9.6226e-05,16.768,-9.8458e-05,-0.0045972,0.90546
25926,11.371,3.2727,0.1,0.0002983,2981,0.0002986,2989.9,-9.6939e-05,17.945,-9.9328e-05,-0.0044818,0.89322
25927,11.463,3,0.1,0.00029583,2956.2,0.00029611,2964.7,-9.621e-05,16.896,-9.846e-05,-0.0045848,0.90549
25928,11.371,3.0909,0.1,0.00029827,2980.7,0.00029858,2989.7,-9.6907e-05,18.215,-9.9331e-05,-0.0044566,0.89328
25929,11.463,2.8182,0.1,0.00029584,2956.4,0.00029612,2964.7,-9.6226e-05,16.768,-9.8458e-05,-0.0045969,0.90546
25930,11.371,2.9091,0.1,0.00029827,2980.7,0.00029858,2989.7,-9.6907e-05,18.215,-9.9331e-05,-0.0044566,0.89328
25931,11.463,2.6364,0.1,0.00029588,2956.8,0.00029616,2965,-9.6271e-05,16.382,-9.8452e-05,-0.0046336,0.90536
25932,11.371,2.7273,0.1,0.0002983,2981,0.0002986,2989.9,-9.6939e-05,17.945,-9.9328e-05,-0.0044817,0.89322
25933,11.463,2.4545,0.1,0.00029595,2957.5,0.00029622,2965.3,-9.6347e-05,15.745,-9.8444e-05,-0.0046933,0.9052
25934,11.371,2.5455,0.1,0.00029836,2981.5,0.00029865,2990.2,-9.7002e-05,17.408,-9.932e-05,-0.004531,0.89309
25935,11.463,2.2727,0.1,0.00029605,2958.4,0.0002963,2965.8,-9.6453e-05,14.862,-9.8432e-05,-0.0047782,0.90498
25936,11.371,2.3636,0.1,0.00029844,2982.4,0.00029872,2990.6,-9.7097e-05,16.61,-9.9309e-05,-0.0046025,0.8929
25937,11.463,2.0909,0.1,0.00029617,2959.7,0.0002964,2966.5,-9.6587e-05,13.743,-9.8416e-05,-0.0048911,0.90469
25938,11.371,2.1818,0.1,0.00029856,2983.5,0.00029882,2991.3,-9.7222e-05,15.559,-9.9294e-05,-0.0046997,0.89264
25939,11.463,1.9091,0.1,0.00029632,2961.1,0.00029652,2967.3,-9.6748e-05,12.397,-9.8398e-05,-0.0050347,0.90434
25940,11.371,2,0.1,0.00029869,2984.9,0.00029894,2992,-9.7376e-05,14.266,-9.9276e-05,-0.0048217,0.89232
25941,11.463,1.7273,0.1,0.00029649,2962.8,0.00029667,2968.2,-9.6934e-05,10.839,-9.8377e-05,-0.0052217,0.90393
25942,11.371,1.8182,0.1,0.00029886,2986.5,0.00029907,2992.9,-9.7558e-05,12.744,-9.9254e-05,-0.0049716,0.89194
25943,11.463,1.5455,0.1,0.00029668,2964.7,0.00029683,2969.3,-9.7145e-05,9.0834,-9.8354e-05,-0.0054818,0.90345
25944,11.371,1.6364,0.1,0.00029905,2988.4,0.00029923,2993.9,-9.7765e-05,11.008,-9.9231e-05,-0.0051624,0.89149
25945,11.463,1.3636,0.1,0.00029689,2966.9,0.00029702,2970.5,-9.7378e-05,7.1448,-9.8329e-05,-0.0058798,0.90291
25946,11.371,1.4545,0.1,0.00029926,2990.5,0.00029941,2995,-9.7996e-05,9.0742,-9.9205e-05,-0.0054237,0.89098
25947,11.463,1.1818,0.1,0.00029713,2969.2,0.00029721,2971.8,-9.7631e-05,5.0404,-9.8303e-05,-0.0066214,0.9023
25948,11.371,1.2727,0.1,0.00029949,2992.8,0.00029961,2996.3,-9.8249e-05,6.9595,-9.9176e-05,-0.0058205,0.8904
25949,11.463,1,0.1,0.00029738,2971.8,0.00029743,2973.2,-9.7903e-05,2.7879,-9.8275e-05,-0.0085921,0.90163
25950,11.371,1.0909,0.1,0.00029974,2995.3,0.00029982,2997.7,-9.8523e-05,4.6822,-9.9147e-05,-0.0066077,0.88975
25951,11.463,0.81818,0.1,0.00029765,2974.5,0.00029766,2974.7,-9.8188e-05,0.42558,-9.8249e-05,-0.033115,0.9009
25952,11.371,0.90909,0.1,0.00030001,2998,0.00030005,2999.2,-9.8814e-05,2.2616,-9.9116e-05,-0.0090406,0.88905
25953,11.463,0.63636,0.1,0.00029794,2977.3,0.0002979,2976.3,-9.8215e-05,0.0019982,-9.8497e-05,-2.1135,0.9001
25954,11.371,0.72727,0.1,0.0003003,3000.9,0.00030029,3000.8,-9.908e-05,0.029178,-9.9127e-05,-0.32706,0.88827
25955,11.463,0.45455,0.1,0.00029825,2980.4,0.00029817,2978,-9.8186e-05,-0.0026508,-9.8819e-05,-4.7525,0.89923
25956,11.371,0.54545,0.1,0.0003006,3003.9,0.00030055,3002.4,-9.9051e-05,-1.0794e-05,-9.9446e-05,-2.9608,0.88744
25957,11.463,0.27273,0.1,0.00029866,2984.6,0.00029853,2980.5,-9.8157e-05,0.00029527,-9.9238e-05,-8.1232,0.89831
25958,11.371,0.36364,0.1,0.00030093,3007.2,0.00030083,3004.3,-9.902e-05,-0.0054975,-9.979e-05,-5.7914,0.88653
25959,11.371,0.18182,0.1,0.00030146,3012.5,0.00030129,3007.5,-9.8987e-05,0.0065675,-0.00010031,-9.9655,0.88557
25960,11.463,0.090909,0.1,0.00029843,2982.2,0.00029831,2978.7,-9.813e-05,0.0010856,-9.9073e-05,-7.0848,0.89731
25961,11.279,5.7273,0.1,0.00030371,3035,0.00030358,3031.2,-9.985e-05,0.00014129,-0.00010085,-7.5423,0.87386
25962,11.187,5.8182,0.1,0.00030652,3063.1,0.00030636,3058.3,-0.00010068,0.0075875,-0.00010194,-9.4655,0.86121
25963,11.279,5.9091,0.1,0.0003035,3032.9,0.00030338,3029.5,-9.9819e-05,0.001144,-0.00010072,-6.7859,0.87285
25964,11.279,5.5455,0.1,0.00030328,3030.7,0.00030321,3028.7,-9.9885e-05,-0.0035166,-0.00010041,-3.9746,0.8748
25965,11.187,5.6364,0.1,0.00030598,3057.7,0.00030589,3055.1,-0.00010072,-0.0067805,-0.0001014,-5.1004,0.8622
25966,11.279,5.3636,0.1,0.00030295,3027.5,0.00030294,3026.9,-9.9919e-05,0.0040913,-0.00010007,-1.1301,0.87568
25967,11.187,5.4545,0.1,0.00030563,3054.2,0.0003056,3053.2,-0.00010076,-0.00015342,-0.00010103,-2.0526,0.86311
25968,11.279,5.1818,0.1,0.00030265,3024.4,0.00030268,3025.2,-9.9742e-05,1.5931,-9.9955e-05,-0.010325,0.87649
25969,11.187,5.2727,0.1,0.00030531,3051,0.00030533,3051.4,-0.00010068,0.83933,-0.0001008,-0.013882,0.86396
25970,11.279,5,0.1,0.00030237,3021.6,0.00030244,3023.7,-9.9432e-05,4.1756,-9.9988e-05,-0.0066309,0.87724
25971,11.187,5.0909,0.1,0.00030501,3048,0.00030507,3049.8,-0.00010035,3.5936,-0.00010083,-0.0066659,0.86475
25972,11.279,4.8182,0.1,0.0003021,3018.9,0.00030221,3022.2,-9.9139e-05,6.621,-0.00010002,-0.0057932,0.87792
25973,11.187,4.9091,0.1,0.00030472,3045.1,0.00030483,3048.2,-0.00010004,6.2203,-0.00010087,-0.0057717,0.86547
25974,11.279,4.6364,0.1,0.00030185,3016.4,0.000302,3020.9,-9.8865e-05,8.9083,-0.00010005,-0.0053807,0.87853
25975,11.187,4.7273,0.1,0.00030446,3042.5,0.00030461,3046.8,-9.9744e-05,8.6942,-0.0001009,-0.0053511,0.86612
25976,11.279,4.4545,0.1,0.00030162,3014.1,0.00030181,3019.6,-9.8614e-05,11.018,-0.00010008,-0.0051202,0.87908
25977,11.187,4.5455,0.1,0.00030421,3040,0.0003044,3045.5,-9.9471e-05,10.995,-0.00010093,-0.0050963,0.86671
25978,11.279,4.2727,0.1,0.00030142,3012.1,0.00030163,3018.5,-9.8386e-05,12.932,-0.00010011,-0.0049245,0.87957
25979,11.187,4.3636,0.1,0.00030399,3037.8,0.00030421,3044.3,-9.922e-05,13.102,-0.00010096,-0.0048979,0.86723
25980,11.279,4.0909,0.1,0.00030124,3010.3,0.00030148,3017.6,-9.8184e-05,14.631,-0.00010013,-0.0047676,0.87999
25981,11.187,4.1818,0.1,0.00030379,3035.8,0.00030404,3043.3,-9.8996e-05,14.995,-0.00010099,-0.0047341,0.86768
25982,11.279,3.9091,0.1,0.00030108,3008.7,0.00030135,3016.7,-9.8009e-05,16.101,-0.00010015,-0.0046367,0.88034
25983,11.187,4,0.1,0.00030361,3034,0.00030389,3042.3,-9.8799e-05,16.658,-0.00010102,-0.0045932,0.86807
25984,11.279,3.7273,0.1,0.00030095,3007.4,0.00030124,3016,-9.7864e-05,17.325,-0.00010017,-0.004528,0.88063
25985,11.187,3.8182,0.1,0.00030347,3032.6,0.00030377,3041.6,-9.8632e-05,18.071,-0.00010104,-0.0044708,0.8684
25986,11.279,3.5455,0.1,0.00030085,3006.4,0.00030115,3015.5,-9.775e-05,18.291,-0.00010018,-0.0044425,0.88086
25987,11.187,3.6364,0.1,0.00030335,3031.4,0.00030367,3040.9,-9.8496e-05,19.221,-0.00010106,-0.0043699,0.86866
25988,11.279,3.3636,0.1,0.00030077,3005.7,0.00030109,3015.1,-9.7667e-05,18.988,-0.00010019,-0.0043804,0.88102
25989,11.187,3.4545,0.1,0.00030325,3030.5,0.00030359,3040.5,-9.8393e-05,20.095,-0.00010107,-0.0042926,0.86885
25990,11.279,3.1818,0.1,0.00030073,3005.2,0.00030106,3014.9,-9.7617e-05,19.41,-0.0001002,-0.0043419,0.88112
25991,11.187,3.2727,0.1,0.00030319,3029.8,0.00030354,3040.1,-9.8324e-05,20.684,-0.00010108,-0.004239,0.86898
25992,11.279,3,0.1,0.00030072,3005.1,0.00030104,3014.8,-9.7601e-05,19.551,-0.0001002,-0.004329,0.88115
25993,11.187,3.0909,0.1,0.00030316,3029.5,0.00030351,3040,-9.8289e-05,20.98,-0.00010108,-0.0042111,0.86905
25994,11.279,2.8182,0.1,0.00030073,3005.2,0.00030106,3014.9,-9.7617e-05,19.41,-0.0001002,-0.0043421,0.88112
25995,11.187,2.9091,0.1,0.00030316,3029.5,0.00030351,3040,-9.8289e-05,20.98,-0.00010108,-0.0042115,0.86905
25996,11.279,2.6364,0.1,0.00030077,3005.7,0.00030109,3015.1,-9.7667e-05,18.988,-0.00010019,-0.0043805,0.88102
25997,11.187,2.7273,0.1,0.00030319,3029.8,0.00030354,3040.1,-9.8324e-05,20.684,-0.00010108,-0.0042391,0.86898
25998,11.279,2.4545,0.1,0.00030085,3006.4,0.00030115,3015.5,-9.775e-05,18.291,-0.00010018,-0.0044427,0.88086
25999,11.187,2.5455,0.1,0.00030325,3030.5,0.00030359,3040.5,-9.8393e-05,20.095,-0.00010107,-0.0042926,0.86885
26000,11.279,2.2727,0.1,0.00030095,3007.4,0.00030124,3016,-9.7864e-05,17.325,-0.00010017,-0.004528,0.88063
26001,11.187,2.3636,0.1,0.00030335,3031.4,0.00030367,3040.9,-9.8496e-05,19.221,-0.00010106,-0.0043701,0.86866
26002,11.279,2.0909,0.1,0.00030108,3008.7,0.00030135,3016.7,-9.8009e-05,16.101,-0.00010015,-0.0046367,0.88034
26003,11.187,2.1818,0.1,0.00030347,3032.6,0.00030377,3041.6,-9.8632e-05,18.071,-0.00010104,-0.0044713,0.8684
26004,11.279,1.9091,0.1,0.00030124,3010.3,0.00030148,3017.6,-9.8184e-05,14.631,-0.00010013,-0.004768,0.87999
26005,11.187,2,0.1,0.00030361,3034,0.00030389,3042.3,-9.8799e-05,16.658,-0.00010102,-0.0045936,0.86807
26006,11.279,1.7273,0.1,0.00030142,3012.1,0.00030163,3018.5,-9.8386e-05,12.932,-0.00010011,-0.0049254,0.87957
26007,11.187,1.8182,0.1,0.00030379,3035.8,0.00030404,3043.3,-9.8996e-05,14.995,-0.00010099,-0.0047347,0.86768
26008,11.279,1.5455,0.1,0.00030162,3014.1,0.00030181,3019.6,-9.8614e-05,11.018,-0.00010008,-0.0051212,0.87908
26009,11.187,1.6364,0.1,0.00030399,3037.8,0.00030421,3044.3,-9.922e-05,13.102,-0.00010096,-0.0048985,0.86723
26010,11.279,1.3636,0.1,0.00030185,3016.4,0.000302,3020.9,-9.8865e-05,8.9083,-0.00010005,-0.0053815,0.87853
26011,11.187,1.4545,0.1,0.00030421,3040,0.0003044,3045.5,-9.9471e-05,10.995,-0.00010093,-0.0050969,0.86671
26012,11.279,1.1818,0.1,0.0003021,3018.9,0.00030221,3022.2,-9.9139e-05,6.6211,-0.00010002,-0.0057936,0.87792
26013,11.187,1.2727,0.1,0.00030446,3042.5,0.00030461,3046.8,-9.9744e-05,8.6943,-0.0001009,-0.0053519,0.86612
26014,11.279,1,0.1,0.00030237,3021.6,0.00030244,3023.7,-9.9432e-05,4.1756,-9.9988e-05,-0.0066317,0.87724
26015,11.187,1.0909,0.1,0.00030472,3045.1,0.00030483,3048.2,-0.00010004,6.2203,-0.00010087,-0.0057721,0.86547
26016,11.279,0.81818,0.1,0.00030265,3024.4,0.00030268,3025.2,-9.9742e-05,1.5931,-9.9955e-05,-0.010326,0.87649
26017,11.187,0.90909,0.1,0.00030501,3048,0.00030507,3049.8,-0.00010035,3.5936,-0.00010083,-0.0066677,0.86475
26018,11.279,0.63636,0.1,0.00030295,3027.5,0.00030294,3026.9,-9.9919e-05,0.0040906,-0.00010007,-1.13,0.87568
26019,11.187,0.72727,0.1,0.00030531,3051,0.00030533,3051.4,-0.00010068,0.83937,-0.0001008,-0.013883,0.86396
26020,11.279,0.45455,0.1,0.00030328,3030.7,0.00030321,3028.7,-9.9885e-05,-0.0035173,-0.00010041,-3.9746,0.8748
26021,11.187,0.54545,0.1,0.00030563,3054.2,0.0003056,3053.2,-0.00010076,-0.00015351,-0.00010103,-2.0526,0.86311
26022,11.279,0.27273,0.1,0.00030371,3035,0.00030358,3031.2,-9.985e-05,0.00013978,-0.00010085,-7.5423,0.87386
26023,11.187,0.36364,0.1,0.00030598,3057.7,0.00030589,3055.1,-0.00010072,-0.0067815,-0.0001014,-5.1004,0.8622
26024,11.187,0.18182,0.1,0.00030652,3063.1,0.00030636,3058.3,-0.00010068,0.0075864,-0.00010194,-9.4655,0.86121
26025,11.279,0.090909,0.1,0.0003035,3032.9,0.00030338,3029.5,-9.9819e-05,0.0011431,-0.00010072,-6.7859,0.87285
26026,11.094,5.7273,0.1,0.00030877,3085.6,0.00030865,3082.1,-0.00010155,5.9756e-05,-0.00010247,-6.9339,0.84962
26027,11.002,5.8182,0.1,0.0003116,3113.9,0.00031145,3109.4,-0.00010238,0.0087993,-0.00010358,-8.945,0.83707
26028,11.094,5.9091,0.1,0.00030859,3083.8,0.00030848,3080.6,-0.00010152,0.0012449,-0.00010238,-6.4757,0.8486
26029,11.094,5.5455,0.1,0.00030833,3081.2,0.00030827,3079.6,-0.00010159,-0.004484,-0.00010201,-3.1533,0.85058
26030,11.002,5.6364,0.1,0.00031105,3108.3,0.00031097,3106.1,-0.00010243,-0.0081342,-0.00010301,-4.3731,0.83807
26031,11.094,5.3636,0.1,0.00030799,3077.8,0.00030799,3077.7,-0.00010163,0.046308,-0.00010165,-0.12687,0.85147
26032,11.002,5.4545,0.1,0.00031068,3104.7,0.00031066,3104.1,-0.00010247,0.00021864,-0.00010262,-1.0921,0.839
26033,11.094,5.1818,0.1,0.00030767,3074.6,0.00030772,3076,-0.00010129,2.8567,-0.00010167,-0.0069544,0.85229
26034,11.002,5.2727,0.1,0.00031035,3101.3,0.00031038,3102.3,-0.00010224,2.0263,-0.00010252,-0.0073876,0.83986
26035,11.094,5,0.1,0.00030737,3071.5,0.00030746,3074.4,-0.00010096,5.658,-0.00010171,-0.0057459,0.85305
26036,11.002,5.0909,0.1,0.00031003,3098.1,0.00031011,3100.6,-0.00010189,5.0147,-0.00010256,-0.0057106,0.84066
26037,11.094,4.8182,0.1,0.00030708,3068.7,0.00030722,3072.8,-0.00010064,8.3128,-0.00010175,-0.0053479,0.85374
26038,11.002,4.9091,0.1,0.00030972,3095.1,0.00030986,3099,-0.00010155,7.8644,-0.0001026,-0.0053504,0.84139
26039,11.094,4.6364,0.1,0.00030682,3066.1,0.000307,3071.4,-0.00010035,10.8,-0.00010178,-0.0050874,0.85436
26040,11.002,4.7273,0.1,0.00030944,3092.3,0.00030962,3097.5,-0.00010123,10.553,-0.00010264,-0.0050897,0.84205
26041,11.094,4.4545,0.1,0.00030658,3063.6,0.0003068,3070.2,-0.00010007,13.097,-0.00010182,-0.0048903,0.85492
26042,11.002,4.5455,0.1,0.00030918,3089.7,0.0003094,3096.2,-0.00010094,13.056,-0.00010268,-0.0048968,0.84264
26043,11.094,4.2727,0.1,0.00030636,3061.5,0.00030661,3069,-9.9828e-05,15.184,-0.00010185,-0.0047194,0.85541
26044,11.002,4.3636,0.1,0.00030894,3087.3,0.0003092,3094.9,-0.00010067,15.353,-0.00010271,-0.0047193,0.84317
26045,11.094,4.0909,0.1,0.00030616,3059.5,0.00030645,3068,-9.9609e-05,17.04,-0.00010188,-0.0045681,0.85584
26046,11.002,4.1818,0.1,0.00030873,3085.1,0.00030902,3093.8,-0.00010042,17.421,-0.00010274,-0.0045569,0.84363
26047,11.094,3.9091,0.1,0.000306,3057.9,0.00030631,3067.1,-9.942e-05,18.646,-0.0001019,-0.0044331,0.8562
26048,11.002,4,0.1,0.00030854,3083.3,0.00030886,3092.9,-0.00010021,19.238,-0.00010277,-0.0044076,0.84403
26049,11.094,3.7273,0.1,0.00030586,3056.5,0.00030619,3066.4,-9.9262e-05,19.985,-0.00010192,-0.0043165,0.85649
26050,11.002,3.8182,0.1,0.00030838,3081.7,0.00030873,3092,-0.00010003,20.785,-0.00010279,-0.0042728,0.84436
26051,11.094,3.5455,0.1,0.00030575,3055.4,0.0003061,3065.9,-9.9137e-05,21.043,-0.00010194,-0.0042223,0.85672
26052,11.002,3.6364,0.1,0.00030826,3080.4,0.00030862,3091.4,-9.988e-05,22.045,-0.00010281,-0.0041586,0.84462
26053,11.094,3.3636,0.1,0.00030567,3054.6,0.00030604,3065.5,-9.9047e-05,21.808,-0.00010195,-0.0041525,0.85688
26054,11.002,3.4545,0.1,0.00030816,3079.5,0.00030854,3090.9,-9.9768e-05,23.003,-0.00010283,-0.0040696,0.84482
26055,11.094,3.1818,0.1,0.00030562,3054.1,0.000306,3065.2,-9.8993e-05,22.27,-0.00010196,-0.0041089,0.85698
26056,11.002,3.2727,0.1,0.00030809,3078.8,0.00030849,3090.6,-9.9692e-05,23.649,-0.00010284,-0.0040072,0.84495
26057,11.094,3,0.1,0.00030561,3054,0.00030598,3065.1,-9.8975e-05,22.425,-0.00010196,-0.0040942,0.85702
26058,11.002,3.0909,0.1,0.00030806,3078.5,0.00030846,3090.4,-9.9654e-05,23.973,-0.00010285,-0.0039749,0.84502
26059,11.094,2.8182,0.1,0.00030562,3054.1,0.000306,3065.2,-9.8993e-05,22.27,-0.00010196,-0.0041092,0.85698
26060,11.002,2.9091,0.1,0.00030806,3078.5,0.00030846,3090.4,-9.9654e-05,23.973,-0.00010285,-0.0039749,0.84502
26061,11.094,2.6364,0.1,0.00030567,3054.6,0.00030604,3065.5,-9.9047e-05,21.808,-0.00010195,-0.0041525,0.85688
26062,11.002,2.7273,0.1,0.00030809,3078.8,0.00030849,3090.6,-9.9692e-05,23.649,-0.00010284,-0.0040075,0.84495
26063,11.094,2.4545,0.1,0.00030575,3055.4,0.0003061,3065.9,-9.9137e-05,21.043,-0.00010194,-0.0042223,0.85672
26064,11.002,2.5455,0.1,0.00030816,3079.5,0.00030854,3090.9,-9.9768e-05,23.003,-0.00010283,-0.0040694,0.84482
26065,11.094,2.2727,0.1,0.00030586,3056.5,0.00030619,3066.4,-9.9262e-05,19.985,-0.00010192,-0.0043171,0.85649
26066,11.002,2.3636,0.1,0.00030826,3080.4,0.00030862,3091.4,-9.988e-05,22.045,-0.00010281,-0.0041589,0.84462
26067,11.094,2.0909,0.1,0.000306,3057.9,0.00030631,3067.1,-9.942e-05,18.646,-0.0001019,-0.004434,0.8562
26068,11.002,2.1818,0.1,0.00030838,3081.7,0.00030873,3092,-0.00010003,20.785,-0.00010279,-0.0042734,0.84436
26069,11.094,1.9091,0.1,0.00030616,3059.5,0.00030645,3068,-9.9609e-05,17.04,-0.00010188,-0.0045688,0.85584
26070,11.002,2,0.1,0.00030854,3083.3,0.00030886,3092.9,-0.00010021,19.238,-0.00010277,-0.0044081,0.84403
26071,11.094,1.7273,0.1,0.00030636,3061.5,0.00030661,3069,-9.9828e-05,15.184,-0.00010185,-0.0047199,0.85541
26072,11.002,1.8182,0.1,0.00030873,3085.1,0.00030902,3093.8,-0.00010042,17.421,-0.00010274,-0.0045575,0.84363
26073,11.094,1.5455,0.1,0.00030658,3063.6,0.0003068,3070.2,-0.00010007,13.097,-0.00010182,-0.0048906,0.85492
26074,11.002,1.6364,0.1,0.00030894,3087.3,0.0003092,3094.9,-0.00010067,15.353,-0.00010271,-0.0047197,0.84317
26075,11.094,1.3636,0.1,0.00030682,3066.1,0.000307,3071.4,-0.00010035,10.8,-0.00010178,-0.005088,0.85436
26076,11.002,1.4545,0.1,0.00030918,3089.7,0.0003094,3096.2,-0.00010094,13.057,-0.00010268,-0.0048974,0.84264
26077,11.094,1.1818,0.1,0.00030708,3068.7,0.00030722,3072.8,-0.00010064,8.3128,-0.00010175,-0.0053487,0.85374
26078,11.002,1.2727,0.1,0.00030944,3092.3,0.00030962,3097.5,-0.00010123,10.553,-0.00010264,-0.0050904,0.84205
26079,11.094,1,0.1,0.00030737,3071.5,0.00030746,3074.4,-0.00010096,5.658,-0.00010171,-0.0057474,0.85305
26080,11.002,1.0909,0.1,0.00030972,3095.1,0.00030986,3099,-0.00010155,7.8645,-0.0001026,-0.0053513,0.84139
26081,11.094,0.81818,0.1,0.00030767,3074.6,0.00030772,3076,-0.00010129,2.8568,-0.00010167,-0.0069563,0.85229
26082,11.002,0.90909,0.1,0.00031003,3098.1,0.00031011,3100.6,-0.00010189,5.0147,-0.00010256,-0.005713,0.84066
26083,11.094,0.63636,0.1,0.00030799,3077.8,0.00030799,3077.7,-0.00010163,0.046318,-0.00010165,-0.12685,0.85147
26084,11.002,0.72727,0.1,0.00031035,3101.3,0.00031038,3102.3,-0.00010224,2.0263,-0.00010252,-0.0073887,0.83986
26085,11.094,0.45455,0.1,0.00030833,3081.2,0.00030827,3079.6,-0.00010159,-0.0044844,-0.00010201,-3.1533,0.85058
26086,11.002,0.54545,0.1,0.00031068,3104.7,0.00031066,3104.1,-0.00010247,0.0002187,-0.00010262,-1.0921,0.839
26087,11.094,0.27273,0.1,0.00030877,3085.6,0.00030865,3082.1,-0.00010155,5.91e-05,-0.00010247,-6.9339,0.84962
26088,11.002,0.36364,0.1,0.00031105,3108.3,0.00031097,3106.1,-0.00010243,-0.0081349,-0.00010301,-4.3731,0.83807
26089,11.002,0.18182,0.1,0.0003116,3113.9,0.00031145,3109.4,-0.00010238,0.008799,-0.00010358,-8.945,0.83707
26090,11.094,0.090909,0.1,0.00030859,3083.8,0.00030848,3080.6,-0.00010152,0.0012445,-0.00010238,-6.4757,0.8486
26091,10.91,5.7273,0.1,0.00031386,3136.4,0.00031375,3133.3,-0.00010326,0.0001383,-0.0001041,-6.2965,0.82559
26092,10.818,5.8182,0.1,0.0003167,3164.8,0.00031656,3160.6,-0.00010409,0.01029,-0.00010521,-8.4032,0.81314
26093,10.91,5.9091,0.1,0.00031371,3134.9,0.00031361,3131.9,-0.00010322,0.0014386,-0.00010404,-6.1534,0.82455
26094,10.91,5.5455,0.1,0.0003134,3131.8,0.00031336,3130.7,-0.00010331,-0.0055326,-0.00010361,-2.2862,0.82656
26095,10.818,5.6364,0.1,0.00031613,3159.2,0.00031607,3157.3,-0.00010415,-0.0094989,-0.00010463,-3.6081,0.81415
26096,10.91,5.3636,0.1,0.00031304,3128.2,0.00031306,3128.7,-0.00010322,1.0359,-0.00010335,-0.0079816,0.82746
26097,10.818,5.4545,0.1,0.00031575,3155.4,0.00031575,3155.3,-0.00010419,0.019843,-0.00010421,-0.095551,0.81509
26098,10.91,5.1818,0.1,0.0003127,3124.9,0.00031277,3127,-0.00010284,4.2037,-0.0001034,-0.0058545,0.8283
26099,10.818,5.2727,0.1,0.0003154,3151.8,0.00031545,3153.4,-0.00010381,3.292,-0.00010424,-0.0060016,0.81597
26100,10.91,5,0.1,0.00031238,3121.7,0.0003125,3125.3,-0.00010248,7.2404,-0.00010344,-0.0053342,0.82906
26101,10.818,5.0909,0.1,0.00031506,3148.4,0.00031517,3151.7,-0.00010342,6.529,-0.00010429,-0.0053118,0.81678
26102,10.91,4.8182,0.1,0.00031208,3118.6,0.00031225,3123.7,-0.00010214,10.123,-0.00010349,-0.0051183,0.82976
26103,10.818,4.9091,0.1,0.00031474,3145.2,0.0003149,3150,-0.00010306,9.6209,-0.00010434,-0.0051548,0.81751
26104,10.91,4.6364,0.1,0.0003118,3115.8,0.00031202,3122.2,-0.00010182,12.828,-0.00010353,-0.0049193,0.8304
26105,10.818,4.7273,0.1,0.00031444,3142.2,0.00031465,3148.5,-0.00010272,12.543,-0.00010439,-0.0049522,0.81819
26106,10.91,4.4545,0.1,0.00031154,3113.3,0.0003118,3120.9,-0.00010153,15.331,-0.00010357,-0.0047405,0.83096
26107,10.818,4.5455,0.1,0.00031416,3139.4,0.00031442,3147,-0.0001024,15.27,-0.00010443,-0.004773,0.81879
26108,10.91,4.2727,0.1,0.00031131,3110.9,0.0003116,3119.7,-0.00010126,17.608,-0.0001036,-0.0045673,0.83146
26109,10.818,4.3636,0.1,0.0003139,3136.9,0.0003142,3145.7,-0.0001021,17.775,-0.00010447,-0.0045884,0.81932
26110,10.91,4.0909,0.1,0.0003111,3108.9,0.00031143,3118.6,-0.00010102,19.636,-0.00010364,-0.0044037,0.83189
26111,10.818,4.1818,0.1,0.00031368,3134.6,0.00031401,3144.6,-0.00010184,20.035,-0.0001045,-0.0044082,0.81979
26112,10.91,3.9091,0.1,0.00031092,3107.1,0.00031128,3117.7,-0.00010082,21.394,-0.00010366,-0.0042521,0.83226
26113,10.818,4,0.1,0.00031348,3132.6,0.00031385,3143.6,-0.00010161,22.023,-0.00010454,-0.0042366,0.82019
26114,10.91,3.7273,0.1,0.00031078,3105.6,0.00031116,3117,-0.00010064,22.862,-0.00010369,-0.0041179,0.83256
26115,10.818,3.8182,0.1,0.00031331,3130.9,0.00031371,3142.7,-0.00010141,23.718,-0.00010456,-0.0040786,0.82053
26116,10.91,3.5455,0.1,0.00031066,3104.5,0.00031106,3116.4,-0.00010051,24.022,-0.00010371,-0.0040076,0.83279
26117,10.818,3.6364,0.1,0.00031317,3129.5,0.00031359,3142,-0.00010125,25.1,-0.00010459,-0.0039428,0.8208
26118,10.91,3.3636,0.1,0.00031058,3103.6,0.00031099,3116,-0.00010041,24.861,-0.00010372,-0.0039252,0.83296
26119,10.818,3.4545,0.1,0.00031307,3128.5,0.0003135,3141.5,-0.00010112,26.153,-0.00010461,-0.0038362,0.821
26120,10.91,3.1818,0.1,0.00031052,3103.1,0.00031095,3115.7,-0.00010035,25.368,-0.00010373,-0.0038736,0.83306
26121,10.818,3.2727,0.1,0.000313,3127.8,0.00031344,3141.1,-0.00010104,26.862,-0.00010462,-0.0037613,0.82113
26122,10.91,3,0.1,0.00031051,3102.9,0.00031093,3115.6,-0.00010033,25.538,-0.00010373,-0.0038558,0.83309
26123,10.818,3.0909,0.1,0.00031296,3127.5,0.00031342,3141,-0.000101,27.218,-0.00010462,-0.0037227,0.8212
26124,10.91,2.8182,0.1,0.00031052,3103.1,0.00031095,3115.7,-0.00010035,25.368,-0.00010373,-0.0038736,0.83306
26125,10.818,2.9091,0.1,0.00031296,3127.5,0.00031342,3141,-0.000101,27.218,-0.00010462,-0.0037225,0.8212
26126,10.91,2.6364,0.1,0.00031058,3103.6,0.00031099,3116,-0.00010041,24.861,-0.00010372,-0.0039253,0.83296
26127,10.818,2.7273,0.1,0.000313,3127.8,0.00031344,3141.1,-0.00010104,26.862,-0.00010462,-0.0037616,0.82113
26128,10.91,2.4545,0.1,0.00031066,3104.5,0.00031106,3116.4,-0.00010051,24.022,-0.00010371,-0.0040078,0.83279
26129,10.818,2.5455,0.1,0.00031307,3128.5,0.0003135,3141.5,-0.00010112,26.153,-0.00010461,-0.0038363,0.821
26130,10.91,2.2727,0.1,0.00031078,3105.6,0.00031116,3117,-0.00010064,22.862,-0.00010369,-0.0041183,0.83256
26131,10.818,2.3636,0.1,0.00031317,3129.5,0.00031359,3142,-0.00010125,25.1,-0.00010459,-0.0039432,0.8208
26132,10.91,2.0909,0.1,0.00031092,3107.1,0.00031128,3117.7,-0.00010082,21.394,-0.00010366,-0.0042525,0.83226
26133,10.818,2.1818,0.1,0.00031331,3130.9,0.00031371,3142.7,-0.00010141,23.718,-0.00010456,-0.0040788,0.82053
26134,10.91,1.9091,0.1,0.0003111,3108.9,0.00031143,3118.6,-0.00010102,19.636,-0.00010364,-0.0044041,0.83189
26135,10.818,2,0.1,0.00031348,3132.6,0.00031385,3143.6,-0.00010161,22.023,-0.00010454,-0.0042369,0.82019
26136,10.91,1.7273,0.1,0.00031131,3110.9,0.0003116,3119.7,-0.00010126,17.608,-0.0001036,-0.0045678,0.83146
26137,10.818,1.8182,0.1,0.00031368,3134.6,0.00031401,3144.6,-0.00010184,20.035,-0.0001045,-0.0044088,0.81979
26138,10.91,1.5455,0.1,0.00031154,3113.3,0.0003118,3120.9,-0.00010153,15.331,-0.00010357,-0.0047412,0.83096
26139,10.818,1.6364,0.1,0.0003139,3136.9,0.0003142,3145.7,-0.0001021,17.775,-0.00010447,-0.0045886,0.81932
26140,10.91,1.3636,0.1,0.0003118,3115.8,0.00031202,3122.2,-0.00010182,12.828,-0.00010353,-0.0049199,0.8304
26141,10.818,1.4545,0.1,0.00031416,3139.4,0.00031442,3147,-0.0001024,15.27,-0.00010443,-0.0047739,0.81879
26142,10.91,1.1818,0.1,0.00031208,3118.6,0.00031225,3123.7,-0.00010214,10.123,-0.00010349,-0.0051191,0.82976
26143,10.818,1.2727,0.1,0.00031444,3142.2,0.00031465,3148.5,-0.00010272,12.543,-0.00010439,-0.0049528,0.81819
26144,10.91,1,0.1,0.00031238,3121.7,0.0003125,3125.3,-0.00010248,7.2404,-0.00010344,-0.005336,0.82906
26145,10.818,1.0909,0.1,0.00031474,3145.2,0.0003149,3150,-0.00010306,9.621,-0.00010434,-0.0051556,0.81751
26146,10.91,0.81818,0.1,0.0003127,3124.9,0.00031277,3127,-0.00010284,4.2037,-0.0001034,-0.0058561,0.8283
26147,10.818,0.90909,0.1,0.00031506,3148.4,0.00031517,3151.7,-0.00010342,6.5291,-0.00010429,-0.005314,0.81678
26148,10.91,0.63636,0.1,0.00031304,3128.2,0.00031306,3128.7,-0.00010322,1.036,-0.00010335,-0.0079819,0.82746
26149,10.818,0.72727,0.1,0.0003154,3151.8,0.00031545,3153.4,-0.00010381,3.292,-0.00010424,-0.0060026,0.81597
26150,10.91,0.45455,0.1,0.0003134,3131.8,0.00031336,3130.7,-0.00010331,-0.0055331,-0.00010361,-2.2862,0.82656
26151,10.818,0.54545,0.1,0.00031575,3155.4,0.00031575,3155.3,-0.00010419,0.01985,-0.00010421,-0.095531,0.81509
26152,10.91,0.27273,0.1,0.00031386,3136.4,0.00031375,3133.3,-0.00010326,0.00013774,-0.0001041,-6.2965,0.82559
26153,10.818,0.36364,0.1,0.00031613,3159.2,0.00031607,3157.3,-0.00010415,-0.0094997,-0.00010463,-3.6081,0.81415
26154,10.818,0.18182,0.1,0.0003167,3164.8,0.00031656,3160.6,-0.00010409,0.01029,-0.00010521,-8.4032,0.81314
26155,10.91,0.090909,0.1,0.00031371,3134.9,0.00031361,3131.9,-0.00010322,0.0014373,-0.00010404,-6.1534,0.82455
26156,10.726,5.7273,0.1,0.00031897,3187.5,0.00031887,3184.6,-0.00010498,0.00050239,-0.00010573,-5.6292,0.80177
26157,10.633,5.8182,0.1,0.00032183,3216.1,0.00032169,3212.1,-0.00010581,0.012147,-0.00010686,-7.8397,0.78942
26158,10.726,5.9091,0.1,0.00031885,3186.3,0.00031875,3183.4,-0.00010493,0.0017793,-0.00010571,-5.8189,0.80072
26159,10.726,5.5455,0.1,0.00031849,3182.7,0.00031846,3182,-0.00010503,-0.0066419,-0.00010521,-1.3717,0.80276
26160,10.633,5.6364,0.1,0.00032124,3210.2,0.00032119,3208.8,-0.00010587,-0.010785,-0.00010624,-2.8044,0.79045
26161,10.726,5.3636,0.1,0.00031811,3178.9,0.00031815,3180,-0.00010479,2.2078,-0.00010509,-0.0054511,0.80367
26162,10.633,5.4545,0.1,0.00032084,3206.2,0.00032086,3206.7,-0.00010579,1.0026,-0.00010593,-0.0048774,0.7914
26163,10.726,5.1818,0.1,0.00031775,3175.3,0.00031785,3178.1,-0.00010439,5.6366,-0.00010514,-0.0054763,0.80452
26164,10.633,5.2727,0.1,0.00032047,3202.4,0.00032054,3204.8,-0.00010537,4.6355,-0.00010598,-0.0056754,0.79229
26165,10.726,5,0.1,0.00031741,3171.9,0.00031756,3176.4,-0.000104,8.9283,-0.00010519,-0.0051674,0.8053
26166,10.633,5.0909,0.1,0.00032011,3198.9,0.00032024,3202.9,-0.00010495,8.141,-0.00010604,-0.0052032,0.79311
26167,10.726,4.8182,0.1,0.00031709,3168.7,0.0003173,3174.7,-0.00010363,12.059,-0.00010524,-0.0050139,0.80601
26168,10.633,4.9091,0.1,0.00031977,3195.5,0.00031996,3201.2,-0.00010456,11.496,-0.00010609,-0.0051078,0.79386
26169,10.726,4.6364,0.1,0.00031679,3165.7,0.00031705,3173.2,-0.00010329,15.003,-0.00010528,-0.0048236,0.80665
26170,10.633,4.7273,0.1,0.00031945,3192.3,0.00031969,3199.6,-0.00010419,14.674,-0.00010614,-0.0049052,0.79454
26171,10.726,4.4545,0.1,0.00031652,3163,0.00031682,3171.8,-0.00010297,17.732,-0.00010533,-0.0046333,0.80722
26172,10.633,4.5455,0.1,0.00031915,3189.3,0.00031945,3198.1,-0.00010384,17.645,-0.00010619,-0.0047084,0.79515
26173,10.726,4.2727,0.1,0.00031627,3160.5,0.00031661,3170.6,-0.00010268,20.219,-0.00010537,-0.0044379,0.80773
26174,10.633,4.3636,0.1,0.00031888,3186.6,0.00031922,3196.7,-0.00010353,20.381,-0.00010624,-0.004495,0.79569
26175,10.726,4.0909,0.1,0.00031605,3158.3,0.00031643,3169.5,-0.00010242,22.438,-0.00010541,-0.004247,0.80816
26176,10.633,4.1818,0.1,0.00031864,3184.2,0.00031902,3195.5,-0.00010324,22.852,-0.00010628,-0.0042813,0.79617
26177,10.726,3.9091,0.1,0.00031586,3156.4,0.00031627,3168.5,-0.0001022,24.364,-0.00010544,-0.0040668,0.80853
26178,10.633,4,0.1,0.00031842,3182,0.00031884,3194.5,-0.00010299,25.03,-0.00010632,-0.0040747,0.79657
26179,10.726,3.7273,0.1,0.0003157,3154.8,0.00031613,3167.7,-0.00010201,25.973,-0.00010547,-0.0039057,0.80884
26180,10.633,3.8182,0.1,0.00031824,3180.2,0.00031869,3193.6,-0.00010277,26.891,-0.00010635,-0.0038839,0.79691
26181,10.726,3.5455,0.1,0.00031558,3153.6,0.00031603,3167.1,-0.00010186,27.247,-0.00010549,-0.0037723,0.80907
26182,10.633,3.6364,0.1,0.00031809,3178.7,0.00031857,3192.8,-0.00010259,28.409,-0.00010637,-0.0037186,0.79718
26183,10.726,3.3636,0.1,0.00031548,3152.7,0.00031595,3166.7,-0.00010175,28.169,-0.0001055,-0.0036725,0.80924
26184,10.633,3.4545,0.1,0.00031798,3177.6,0.00031847,3192.3,-0.00010246,29.566,-0.00010639,-0.0035884,0.79739
26185,10.726,3.1818,0.1,0.00031543,3152.1,0.00031591,3166.4,-0.00010169,28.727,-0.00010551,-0.0036101,0.80934
26186,10.633,3.2727,0.1,0.0003179,3176.9,0.00031841,3191.9,-0.00010237,30.346,-0.00010641,-0.0034968,0.79752
26187,10.726,3,0.1,0.00031541,3151.9,0.00031589,3166.3,-0.00010167,28.914,-0.00010552,-0.0035889,0.80938
26188,10.633,3.0909,0.1,0.00031787,3176.5,0.00031838,3191.7,-0.00010232,30.738,-0.00010642,-0.0034499,0.79759
26189,10.726,2.8182,0.1,0.00031543,3152.1,0.00031591,3166.4,-0.00010169,28.727,-0.00010551,-0.0036103,0.80934
26190,10.633,2.9091,0.1,0.00031787,3176.5,0.00031838,3191.7,-0.00010232,30.738,-0.00010642,-0.0034497,0.79759
26191,10.726,2.6364,0.1,0.00031548,3152.7,0.00031595,3166.7,-0.00010175,28.169,-0.0001055,-0.0036728,0.80924
26192,10.633,2.7273,0.1,0.0003179,3176.9,0.00031841,3191.9,-0.00010237,30.346,-0.00010641,-0.003497,0.79752
26193,10.726,2.4545,0.1,0.00031558,3153.6,0.00031603,3167.1,-0.00010186,27.247,-0.00010549,-0.0037727,0.80907
26194,10.633,2.5455,0.1,0.00031798,3177.6,0.00031847,3192.3,-0.00010246,29.566,-0.00010639,-0.0035886,0.79739
26195,10.726,2.2727,0.1,0.0003157,3154.8,0.00031613,3167.7,-0.00010201,25.973,-0.00010547,-0.0039059,0.80884
26196,10.633,2.3636,0.1,0.00031809,3178.7,0.00031857,3192.8,-0.00010259,28.409,-0.00010637,-0.0037189,0.79718
26197,10.726,2.0909,0.1,0.00031586,3156.4,0.00031627,3168.5,-0.0001022,24.364,-0.00010544,-0.004067,0.80853
26198,10.633,2.1818,0.1,0.00031824,3180.2,0.00031869,3193.6,-0.00010277,26.891,-0.00010635,-0.0038839,0.79691
26199,10.726,1.9091,0.1,0.00031605,3158.3,0.00031643,3169.5,-0.00010242,22.438,-0.00010541,-0.0042474,0.80816
26200,10.633,2,0.1,0.00031842,3182,0.00031884,3194.5,-0.00010299,25.031,-0.00010632,-0.0040752,0.79657
26201,10.726,1.7273,0.1,0.00031627,3160.5,0.00031661,3170.6,-0.00010268,20.219,-0.00010537,-0.0044382,0.80773
26202,10.633,1.8182,0.1,0.00031864,3184.2,0.00031902,3195.5,-0.00010324,22.852,-0.00010628,-0.0042819,0.79617
26203,10.726,1.5455,0.1,0.00031652,3163,0.00031682,3171.8,-0.00010297,17.732,-0.00010533,-0.0046338,0.80722
26204,10.633,1.6364,0.1,0.00031888,3186.6,0.00031922,3196.7,-0.00010353,20.381,-0.00010624,-0.0044951,0.79569
26205,10.726,1.3636,0.1,0.00031679,3165.7,0.00031705,3173.2,-0.00010329,15.003,-0.00010528,-0.0048245,0.80665
26206,10.633,1.4545,0.1,0.00031915,3189.3,0.00031945,3198.1,-0.00010384,17.645,-0.00010619,-0.0047091,0.79515
26207,10.726,1.1818,0.1,0.00031709,3168.7,0.0003173,3174.7,-0.00010363,12.059,-0.00010524,-0.0050145,0.80601
26208,10.633,1.2727,0.1,0.00031945,3192.3,0.00031969,3199.6,-0.00010419,14.674,-0.00010614,-0.004906,0.79454
26209,10.726,1,0.1,0.00031741,3171.9,0.00031756,3176.4,-0.000104,8.9284,-0.00010519,-0.0051686,0.8053
26210,10.633,1.0909,0.1,0.00031977,3195.5,0.00031996,3201.2,-0.00010456,11.496,-0.00010609,-0.005108,0.79386
26211,10.726,0.81818,0.1,0.00031775,3175.3,0.00031785,3178.1,-0.00010439,5.6366,-0.00010514,-0.0054779,0.80452
26212,10.633,0.90909,0.1,0.00032011,3198.9,0.00032024,3202.9,-0.00010495,8.141,-0.00010604,-0.005205,0.79311
26213,10.726,0.63636,0.1,0.00031811,3178.9,0.00031815,3180,-0.00010479,2.2078,-0.00010509,-0.0054519,0.80367
26214,10.633,0.72727,0.1,0.00032047,3202.4,0.00032054,3204.8,-0.00010537,4.6356,-0.00010598,-0.0056764,0.79229
26215,10.726,0.45455,0.1,0.00031849,3182.7,0.00031846,3182,-0.00010503,-0.0066423,-0.00010521,-1.3717,0.80276
26216,10.633,0.54545,0.1,0.00032084,3206.2,0.00032086,3206.7,-0.00010579,1.0027,-0.00010593,-0.004878,0.7914
26217,10.726,0.27273,0.1,0.00031897,3187.5,0.00031887,3184.6,-0.00010498,0.00050152,-0.00010573,-5.6292,0.80177
26218,10.633,0.36364,0.1,0.00032124,3210.2,0.00032119,3208.8,-0.00010587,-0.010786,-0.00010624,-2.8044,0.79045
26219,10.633,0.18182,0.1,0.00032183,3216.1,0.00032169,3212.1,-0.00010581,0.012147,-0.00010686,-7.8397,0.78942
26220,10.726,0.090909,0.1,0.00031885,3186.3,0.00031875,3183.4,-0.00010493,0.0017783,-0.00010571,-5.8189,0.80072
26221,10.541,5.7273,0.1,0.00032409,3238.7,0.00032401,3236.2,-0.00010671,0.0013048,-0.00010736,-4.9317,0.77817
26222,10.449,5.8182,0.1,0.00032697,3267.5,0.00032685,3263.8,-0.00010754,0.014478,-0.00010851,-7.2542,0.76592
26223,10.541,5.9091,0.1,0.00032401,3237.9,0.00032392,3235.1,-0.00010665,0.002294,-0.00010738,-5.4717,0.7771
26224,10.541,5.5455,0.1,0.00032359,3233.7,0.00032359,3233.5,-0.00010677,-0.0077722,-0.00010682,-0.40855,0.77917
26225,10.449,5.6364,0.1,0.00032637,3261.5,0.00032634,3260.5,-0.00010761,-0.011742,-0.00010787,-1.9616,0.76696
26226,10.541,5.3636,0.1,0.0003232,3229.7,0.00032325,3231.4,-0.00010637,3.4499,-0.00010683,-0.0050679,0.78009
26227,10.449,5.4545,0.1,0.00032595,3257.2,0.00032598,3258.3,-0.00010738,2.1344,-0.00010767,-0.004458,0.76793
26228,10.541,5.1818,0.1,0.00032282,3225.9,0.00032294,3229.5,-0.00010593,7.1587,-0.00010688,-0.0054549,0.78095
26229,10.449,5.2727,0.1,0.00032555,3253.3,0.00032565,3256.3,-0.00010692,6.0588,-0.00010773,-0.0057833,0.76883
26230,10.541,5,0.1,0.00032246,3222.3,0.00032264,3227.7,-0.00010551,10.727,-0.00010694,-0.0051755,0.78174
26231,10.449,5.0909,0.1,0.00032517,3249.5,0.00032534,3254.4,-0.00010648,9.8545,-0.00010779,-0.0052906,0.76966
26232,10.541,4.8182,0.1,0.00032212,3219,0.00032236,3226,-0.00010512,14.128,-0.000107,-0.0050199,0.78246
26233,10.449,4.9091,0.1,0.00032481,3245.8,0.00032504,3252.6,-0.00010606,13.496,-0.00010785,-0.0051846,0.77042
26234,10.541,4.6364,0.1,0.0003218,3215.8,0.00032209,3224.4,-0.00010474,17.333,-0.00010705,-0.0048042,0.78311
26235,10.449,4.7273,0.1,0.00032447,3242.4,0.00032475,3250.9,-0.00010566,16.953,-0.00010791,-0.0049454,0.77111
26236,10.541,4.4545,0.1,0.00032151,3212.8,0.00032185,3223,-0.0001044,20.311,-0.0001071,-0.0045798,0.78369
26237,10.449,4.5455,0.1,0.00032415,3239.3,0.00032449,3249.3,-0.00010528,20.193,-0.00010797,-0.0047073,0.77173
26238,10.541,4.2727,0.1,0.00032124,3210.2,0.00032163,3221.6,-0.00010408,23.03,-0.00010715,-0.0043449,0.7842
26239,10.449,4.3636,0.1,0.00032386,3236.4,0.00032425,3247.9,-0.00010494,23.183,-0.00010802,-0.0044473,0.77228
26240,10.541,4.0909,0.1,0.000321,3207.8,0.00032143,3220.5,-0.0001038,25.461,-0.00010719,-0.0041132,0.78465
26241,10.449,4.1818,0.1,0.0003236,3233.8,0.00032403,3246.6,-0.00010462,25.889,-0.00010807,-0.0041859,0.77276
26242,10.541,3.9091,0.1,0.0003208,3205.8,0.00032126,3219.5,-0.00010356,27.573,-0.00010723,-0.003894,0.78502
26243,10.449,4,0.1,0.00032337,3231.5,0.00032384,3245.5,-0.00010435,28.279,-0.00010811,-0.0039329,0.77317
26244,10.541,3.7273,0.1,0.00032063,3204.1,0.00032112,3218.7,-0.00010335,29.341,-0.00010726,-0.0036977,0.78533
26245,10.449,3.8182,0.1,0.00032318,3229.5,0.00032368,3244.6,-0.00010411,30.323,-0.00010815,-0.0036992,0.77351
26246,10.541,3.5455,0.1,0.0003205,3202.7,0.00032101,3218,-0.00010319,30.742,-0.00010728,-0.0035345,0.78557
26247,10.449,3.6364,0.1,0.00032302,3228,0.00032355,3243.8,-0.00010392,31.993,-0.00010818,-0.0034963,0.77379
26248,10.541,3.3636,0.1,0.0003204,3201.8,0.00032093,3217.5,-0.00010307,31.757,-0.0001073,-0.0034118,0.78574
26249,10.449,3.4545,0.1,0.0003229,3226.8,0.00032345,3243.3,-0.00010377,33.267,-0.0001082,-0.0033361,0.77399
26250,10.541,3.1818,0.1,0.00032034,3201.2,0.00032088,3217.2,-0.000103,32.372,-0.00010731,-0.0033353,0.78584
26251,10.449,3.2727,0.1,0.00032282,3225.9,0.00032338,3242.9,-0.00010367,34.127,-0.00010822,-0.0032235,0.77413
26252,10.541,3,0.1,0.00032032,3201,0.00032086,3217.1,-0.00010298,32.578,-0.00010732,-0.0033092,0.78588
26253,10.449,3.0909,0.1,0.00032278,3225.5,0.00032335,3242.7,-0.00010362,34.56,-0.00010822,-0.0031658,0.7742
26254,10.541,2.8182,0.1,0.00032034,3201.2,0.00032088,3217.2,-0.000103,32.372,-0.00010731,-0.0033351,0.78584
26255,10.449,2.9091,0.1,0.00032278,3225.5,0.00032335,3242.7,-0.00010362,34.56,-0.00010822,-0.0031656,0.7742
26256,10.541,2.6364,0.1,0.0003204,3201.8,0.00032093,3217.5,-0.00010307,31.757,-0.0001073,-0.0034119,0.78574
26257,10.449,2.7273,0.1,0.00032282,3225.9,0.00032338,3242.9,-0.00010367,34.127,-0.00010822,-0.0032239,0.77413
26258,10.541,2.4545,0.1,0.0003205,3202.7,0.00032101,3218,-0.00010319,30.742,-0.00010728,-0.0035346,0.78557
26259,10.449,2.5455,0.1,0.0003229,3226.8,0.00032345,3243.3,-0.00010377,33.267,-0.0001082,-0.0033362,0.77399
26260,10.541,2.2727,0.1,0.00032063,3204.1,0.00032112,3218.7,-0.00010335,29.341,-0.00010726,-0.0036978,0.78533
26261,10.449,2.3636,0.1,0.00032302,3228,0.00032355,3243.8,-0.00010392,31.993,-0.00010818,-0.0034965,0.77379
26262,10.541,2.0909,0.1,0.0003208,3205.8,0.00032126,3219.5,-0.00010356,27.573,-0.00010723,-0.0038944,0.78502
26263,10.449,2.1818,0.1,0.00032318,3229.5,0.00032368,3244.6,-0.00010411,30.323,-0.00010815,-0.0036989,0.77351
26264,10.541,1.9091,0.1,0.000321,3207.8,0.00032143,3220.5,-0.0001038,25.461,-0.00010719,-0.0041138,0.78465
26265,10.449,2,0.1,0.00032337,3231.5,0.00032384,3245.5,-0.00010435,28.279,-0.00010811,-0.0039335,0.77317
26266,10.541,1.7273,0.1,0.00032124,3210.2,0.00032163,3221.6,-0.00010408,23.03,-0.00010715,-0.0043453,0.7842
26267,10.449,1.8182,0.1,0.0003236,3233.8,0.00032403,3246.6,-0.00010462,25.889,-0.00010807,-0.0041864,0.77276
26268,10.541,1.5455,0.1,0.00032151,3212.8,0.00032185,3223,-0.0001044,20.311,-0.0001071,-0.0045802,0.78369
26269,10.449,1.6364,0.1,0.00032386,3236.4,0.00032425,3247.9,-0.00010494,23.183,-0.00010802,-0.0044475,0.77228
26270,10.541,1.3636,0.1,0.0003218,3215.8,0.00032209,3224.4,-0.00010474,17.333,-0.00010705,-0.0048048,0.78311
26271,10.449,1.4545,0.1,0.00032415,3239.3,0.00032449,3249.3,-0.00010528,20.193,-0.00010797,-0.0047081,0.77173
26272,10.541,1.1818,0.1,0.00032212,3219,0.00032236,3226,-0.00010512,14.128,-0.000107,-0.0050204,0.78246
26273,10.449,1.2727,0.1,0.00032447,3242.4,0.00032475,3250.9,-0.00010566,16.953,-0.00010791,-0.0049461,0.77111
26274,10.541,1,0.1,0.00032246,3222.3,0.00032264,3227.7,-0.00010551,10.727,-0.00010694,-0.0051764,0.78174
26275,10.449,1.0909,0.1,0.00032481,3245.8,0.00032504,3252.6,-0.00010606,13.496,-0.00010785,-0.0051848,0.77042
26276,10.541,0.81818,0.1,0.00032282,3225.9,0.00032294,3229.5,-0.00010593,7.1587,-0.00010688,-0.005456,0.78095
26277,10.449,0.90909,0.1,0.00032517,3249.5,0.00032534,3254.4,-0.00010648,9.8545,-0.00010779,-0.0052921,0.76966
26278,10.541,0.63636,0.1,0.0003232,3229.7,0.00032325,3231.4,-0.00010637,3.4499,-0.00010683,-0.0050687,0.78009
26279,10.449,0.72727,0.1,0.00032555,3253.3,0.00032565,3256.3,-0.00010692,6.0589,-0.00010773,-0.0057849,0.76883
26280,10.541,0.45455,0.1,0.00032359,3233.7,0.00032359,3233.5,-0.00010677,-0.0077721,-0.00010682,-0.40854,0.77917
26281,10.449,0.54545,0.1,0.00032595,3257.2,0.00032598,3258.3,-0.00010738,2.1344,-0.00010767,-0.0044587,0.76793
26282,10.541,0.27273,0.1,0.00032409,3238.7,0.00032401,3236.2,-0.00010671,0.0013043,-0.00010736,-4.9317,0.77817
26283,10.449,0.36364,0.1,0.00032637,3261.5,0.00032634,3260.5,-0.00010761,-0.011743,-0.00010787,-1.9616,0.76696
26284,10.449,0.18182,0.1,0.00032697,3267.5,0.00032685,3263.8,-0.00010754,0.014478,-0.00010851,-7.2542,0.76592
26285,10.541,0.090909,0.1,0.00032401,3237.9,0.00032392,3235.1,-0.00010665,0.0022935,-0.00010738,-5.4717,0.7771
26286,10.357,5.7273,0.1,0.00032924,3290.1,0.00032917,3288,-0.00010844,0.0028515,-0.000109,-4.2039,0.75478
26287,10.265,5.8182,0.1,0.00033214,3319.1,0.00033202,3315.8,-0.00010927,0.017456,-0.00011016,-6.6471,0.74264
26288,10.357,5.9091,0.1,0.00032919,3289.7,0.00032911,3287.1,-0.00010838,0.0030371,-0.00010906,-5.1119,0.7537
26289,10.357,5.5455,0.1,0.00032872,3284.9,0.00032873,3285.2,-0.00010843,0.60436,-0.00010851,-0.0092344,0.7558
26290,10.265,5.6364,0.1,0.00033152,3312.9,0.0003315,3312.3,-0.00010935,-0.011178,-0.00010949,-1.0809,0.74369
26291,10.357,5.3636,0.1,0.0003283,3280.7,0.00032838,3283.1,-0.00010794,4.7625,-0.00010858,-0.0052498,0.75674
26292,10.265,5.4545,0.1,0.00033107,3308.4,0.00033113,3310.1,-0.00010898,3.3263,-0.00010942,-0.0048462,0.74468
26293,10.357,5.1818,0.1,0.0003279,3276.7,0.00032805,3281.1,-0.00010747,8.773,-0.00010864,-0.0056559,0.75761
26294,10.265,5.2727,0.1,0.00033065,3304.2,0.00033078,3308,-0.00010848,7.5636,-0.00010949,-0.0061347,0.74559
26295,10.357,5,0.1,0.00032752,3272.9,0.00032773,3279.2,-0.00010702,12.641,-0.00010871,-0.0053219,0.75841
26296,10.265,5.0909,0.1,0.00033025,3300.2,0.00033044,3306,-0.00010801,11.673,-0.00010956,-0.0055232,0.74643
26297,10.357,4.8182,0.1,0.00032716,3269.3,0.00032743,3277.4,-0.00010659,16.338,-0.00010877,-0.0051247,0.75914
26298,10.265,4.9091,0.1,0.00032986,3296.4,0.00033013,3304.1,-0.00010755,15.626,-0.00010963,-0.0053646,0.7472
26299,10.357,4.6364,0.1,0.00032682,3265.9,0.00032715,3275.8,-0.00010619,19.83,-0.00010883,-0.0048584,0.75979
26300,10.265,4.7273,0.1,0.0003295,3292.7,0.00032983,3302.4,-0.00010711,19.389,-0.00010969,-0.0050627,0.7479
26301,10.357,4.4545,0.1,0.0003265,3262.8,0.00032689,3274.3,-0.00010582,23.081,-0.00010889,-0.0045813,0.76038
26302,10.265,4.5455,0.1,0.00032916,3289.4,0.00032955,3300.8,-0.00010671,22.925,-0.00010976,-0.0047645,0.74852
26303,10.357,4.2727,0.1,0.00032622,3259.9,0.00032666,3272.9,-0.00010547,26.057,-0.00010894,-0.0042922,0.7609
26304,10.265,4.3636,0.1,0.00032885,3286.3,0.00032929,3299.3,-0.00010633,26.196,-0.00010982,-0.0044422,0.74908
26305,10.357,4.0909,0.1,0.00032597,3257.4,0.00032645,3271.7,-0.00010517,28.723,-0.00010899,-0.0040076,0.76135
26306,10.265,4.1818,0.1,0.00032857,3283.5,0.00032906,3298,-0.00010599,29.163,-0.00010987,-0.00412,0.74957
26307,10.357,3.9091,0.1,0.00032575,3255.2,0.00032626,3270.6,-0.0001049,31.043,-0.00010903,-0.0037385,0.76173
26308,10.265,4,0.1,0.00032833,3281,0.00032886,3296.8,-0.00010569,31.788,-0.00010992,-0.0038085,0.74999
26309,10.357,3.7273,0.1,0.00032556,3253.4,0.00032611,3269.8,-0.00010468,32.989,-0.00010907,-0.003497,0.76204
26310,10.265,3.8182,0.1,0.00032812,3278.9,0.00032869,3295.8,-0.00010543,34.037,-0.00010996,-0.0035209,0.75033
26311,10.357,3.5455,0.1,0.00032542,3251.9,0.00032599,3269.1,-0.0001045,34.532,-0.00010909,-0.0032962,0.76228
26312,10.265,3.6364,0.1,0.00032795,3277.2,0.00032854,3295,-0.00010522,35.878,-0.00011,-0.0032719,0.75061
26313,10.357,3.3636,0.1,0.00032531,3250.9,0.00032591,3268.6,-0.00010437,35.651,-0.00010912,-0.0031455,0.76246
26314,10.265,3.4545,0.1,0.00032782,3275.9,0.00032844,3294.4,-0.00010506,37.284,-0.00011002,-0.0030752,0.75082
26315,10.357,3.1818,0.1,0.00032525,3250.3,0.00032585,3268.3,-0.00010429,36.329,-0.00010913,-0.0030514,0.76256
26316,10.265,3.2727,0.1,0.00032773,3275,0.00032836,3294,-0.00010495,38.233,-0.00011004,-0.002937,0.75096
26317,10.357,3,0.1,0.00032523,3250.1,0.00032584,3268.2,-0.00010427,36.556,-0.00010913,-0.0030194,0.76259
26318,10.265,3.0909,0.1,0.00032769,3274.6,0.00032833,3293.8,-0.0001049,38.712,-0.00011005,-0.0028659,0.75103
26319,10.357,2.8182,0.1,0.00032525,3250.3,0.00032585,3268.3,-0.00010429,36.329,-0.00010913,-0.0030518,0.76256
26320,10.265,2.9091,0.1,0.00032769,3274.6,0.00032833,3293.8,-0.0001049,38.712,-0.00011005,-0.0028659,0.75103
26321,10.357,2.6364,0.1,0.00032531,3250.9,0.00032591,3268.6,-0.00010437,35.651,-0.00010912,-0.0031459,0.76246
26322,10.265,2.7273,0.1,0.00032773,3275,0.00032836,3294,-0.00010495,38.233,-0.00011004,-0.0029374,0.75096
26323,10.357,2.4545,0.1,0.00032542,3251.9,0.00032599,3269.1,-0.0001045,34.532,-0.00010909,-0.0032965,0.76228
26324,10.265,2.5455,0.1,0.00032782,3275.9,0.00032844,3294.4,-0.00010506,37.284,-0.00011002,-0.0030752,0.75082
26325,10.357,2.2727,0.1,0.00032556,3253.4,0.00032611,3269.8,-0.00010468,32.989,-0.00010907,-0.0034969,0.76204
26326,10.265,2.3636,0.1,0.00032795,3277.2,0.00032854,3295,-0.00010522,35.878,-0.00011,-0.0032721,0.75061
26327,10.357,2.0909,0.1,0.00032575,3255.2,0.00032626,3270.6,-0.0001049,31.043,-0.00010903,-0.0037385,0.76173
26328,10.265,2.1818,0.1,0.00032812,3278.9,0.00032869,3295.8,-0.00010543,34.037,-0.00010996,-0.0035209,0.75033
26329,10.357,1.9091,0.1,0.00032597,3257.4,0.00032645,3271.7,-0.00010517,28.723,-0.00010899,-0.0040082,0.76135
26330,10.265,2,0.1,0.00032833,3281,0.00032886,3296.8,-0.00010569,31.788,-0.00010992,-0.003809,0.74999
26331,10.357,1.7273,0.1,0.00032622,3259.9,0.00032666,3272.9,-0.00010547,26.057,-0.00010894,-0.0042927,0.7609
26332,10.265,1.8182,0.1,0.00032857,3283.5,0.00032906,3298,-0.00010599,29.163,-0.00010987,-0.0041204,0.74957
26333,10.357,1.5455,0.1,0.0003265,3262.8,0.00032689,3274.3,-0.00010582,23.081,-0.00010889,-0.004582,0.76038
26334,10.265,1.6364,0.1,0.00032885,3286.3,0.00032929,3299.3,-0.00010633,26.196,-0.00010982,-0.004443,0.74908
26335,10.357,1.3636,0.1,0.00032682,3265.9,0.00032715,3275.8,-0.00010619,19.83,-0.00010883,-0.0048593,0.75979
26336,10.265,1.4545,0.1,0.00032916,3289.4,0.00032955,3300.8,-0.00010671,22.925,-0.00010976,-0.0047653,0.74852
26337,10.357,1.1818,0.1,0.00032716,3269.3,0.00032743,3277.4,-0.0001066,16.338,-0.00010877,-0.0051252,0.75914
26338,10.265,1.2727,0.1,0.0003295,3292.7,0.00032983,3302.4,-0.00010711,19.389,-0.00010969,-0.0050637,0.7479
26339,10.357,1,0.1,0.00032752,3272.9,0.00032773,3279.2,-0.00010702,12.641,-0.00010871,-0.0053228,0.75841
26340,10.265,1.0909,0.1,0.00032986,3296.4,0.00033013,3304.1,-0.00010755,15.626,-0.00010963,-0.005365,0.7472
26341,10.357,0.81818,0.1,0.0003279,3276.7,0.00032805,3281.1,-0.00010747,8.773,-0.00010864,-0.0056579,0.75761
26342,10.265,0.90909,0.1,0.00033025,3300.2,0.00033044,3306,-0.00010801,11.673,-0.00010956,-0.0055245,0.74643
26343,10.357,0.63636,0.1,0.0003283,3280.7,0.00032838,3283.1,-0.00010794,4.7625,-0.00010858,-0.0052512,0.75674
26344,10.265,0.72727,0.1,0.00033065,3304.2,0.00033078,3308,-0.00010848,7.5636,-0.00010949,-0.0061364,0.74559
26345,10.357,0.45455,0.1,0.00032872,3284.9,0.00032873,3285.2,-0.00010843,0.60437,-0.00010851,-0.0092347,0.7558
26346,10.265,0.54545,0.1,0.00033107,3308.4,0.00033113,3310.1,-0.00010898,3.3263,-0.00010942,-0.0048469,0.74468
26347,10.357,0.27273,0.1,0.00032924,3290.1,0.00032917,3288,-0.00010844,0.002851,-0.000109,-4.2039,0.75478
26348,10.265,0.36364,0.1,0.00033152,3312.9,0.0003315,3312.3,-0.00010935,-0.011178,-0.00010949,-1.0809,0.74369
26349,10.265,0.18182,0.1,0.00033214,3319.1,0.00033202,3315.8,-0.00010927,0.017456,-0.00011016,-6.6471,0.74264
26350,10.357,0.090909,0.1,0.00032919,3289.7,0.00032911,3287.1,-0.00010838,0.0030363,-0.00010906,-5.1119,0.7537
26351,10.173,5.7273,0.1,0.0003344,3341.7,0.00033435,3340,-0.00011018,0.0057665,-0.00011064,-3.4466,0.73162
26352,10.08,5.8182,0.1,0.00033732,3370.9,0.00033722,3367.9,-0.00011102,0.021341,-0.00011182,-6.0191,0.71959
26353,10.173,5.9091,0.1,0.0003344,3341.6,0.00033431,3339.3,-0.00011012,0.0040989,-0.00011075,-4.7398,0.73053
26354,10.173,5.5455,0.1,0.00033387,3336.4,0.00033389,3337.2,-0.00011004,1.6666,-0.00011026,-0.010605,0.73265
26355,10.08,5.6364,0.1,0.00033668,3364.5,0.00033668,3364.4,-0.0001111,0.016892,-0.00011112,-0.18881,0.72065
26356,10.173,5.3636,0.1,0.00033342,3331.9,0.00033353,3335,-0.00010952,6.146,-0.00011033,-0.0056919,0.7336
26357,10.08,5.4545,0.1,0.00033621,3359.8,0.00033629,3362.1,-0.00011057,4.5776,-0.00011118,-0.0054759,0.72165
26358,10.173,5.1818,0.1,0.000333,3327.7,0.00033317,3332.9,-0.00010901,10.482,-0.00011041,-0.0060123,0.73448
26359,10.08,5.2727,0.1,0.00033577,3355.4,0.00033592,3359.9,-0.00011004,9.1506,-0.00011126,-0.0066499,0.72257
26360,10.173,5,0.1,0.00033259,3323.6,0.00033284,3330.9,-0.00010853,14.675,-0.00011048,-0.005576,0.73529
26361,10.08,5.0909,0.1,0.00033534,3351.1,0.00033557,3357.9,-0.00010953,13.599,-0.00011134,-0.0058706,0.72342
26362,10.173,4.8182,0.1,0.00033221,3319.8,0.00033252,3329.1,-0.00010806,18.694,-0.00011055,-0.0053101,0.73603
26363,10.08,4.9091,0.1,0.00033493,3347,0.00033523,3355.9,-0.00010903,17.892,-0.00011141,-0.0056319,0.7242
26364,10.173,4.6364,0.1,0.00033185,3316.2,0.00033222,3327.4,-0.00010763,22.501,-0.00011062,-0.0049739,0.7367
26365,10.08,4.7273,0.1,0.00033455,3343.2,0.00033492,3354.1,-0.00010856,21.99,-0.00011149,-0.005248,0.72491
26366,10.173,4.4545,0.1,0.00033151,3312.8,0.00033195,3325.8,-0.00010722,26.055,-0.00011069,-0.0046284,0.7373
26367,10.08,4.5455,0.1,0.00033419,3339.6,0.00033462,3352.4,-0.00010812,25.852,-0.00011156,-0.0048728,0.72555
26368,10.173,4.2727,0.1,0.00033121,3309.8,0.0003317,3324.3,-0.00010685,29.316,-0.00011075,-0.0042712,0.73782
26369,10.08,4.3636,0.1,0.00033386,3336.2,0.00033435,3350.9,-0.00010771,29.434,-0.00011163,-0.0044736,0.72611
26370,10.173,4.0909,0.1,0.00033094,3307.1,0.00033147,3323.1,-0.00010651,32.243,-0.0001108,-0.0039205,0.73828
26371,10.08,4.1818,0.1,0.00033356,3333.3,0.0003341,3349.5,-0.00010734,32.691,-0.00011169,-0.0040765,0.7266
26372,10.173,3.9091,0.1,0.0003307,3304.7,0.00033128,3322,-0.00010622,34.797,-0.00011085,-0.0035893,0.73866
26373,10.08,4,0.1,0.00033329,3330.6,0.00033388,3348.3,-0.00010701,35.58,-0.00011174,-0.0036937,0.72703
26374,10.173,3.7273,0.1,0.0003305,3302.7,0.00033111,3321.1,-0.00010597,36.941,-0.00011089,-0.0032931,0.73898
26375,10.08,3.8182,0.1,0.00033307,3328.4,0.0003337,3347.2,-0.00010673,38.059,-0.00011179,-0.003341,0.72738
26376,10.173,3.5455,0.1,0.00033035,3301.2,0.00033099,3320.3,-0.00010578,38.644,-0.00011092,-0.0030474,0.73922
26377,10.08,3.6364,0.1,0.00033288,3326.5,0.00033355,3346.4,-0.00010649,40.092,-0.00011183,-0.0030363,0.72766
26378,10.173,3.3636,0.1,0.00033023,3300,0.00033089,3319.8,-0.00010564,39.88,-0.00011095,-0.0028626,0.73939
26379,10.08,3.4545,0.1,0.00033274,3325.1,0.00033343,3345.7,-0.00010632,41.646,-0.00011186,-0.0027952,0.72787
26380,10.173,3.1818,0.1,0.00033016,3299.4,0.00033084,3319.5,-0.00010555,40.629,-0.00011096,-0.0027471,0.7395
26381,10.08,3.2727,0.1,0.00033265,3324.2,0.00033335,3345.3,-0.0001062,42.696,-0.00011188,-0.0026261,0.72801
26382,10.173,3,0.1,0.00033014,3299.1,0.00033082,3319.4,-0.00010552,40.88,-0.00011097,-0.0027078,0.73953
26383,10.08,3.0909,0.1,0.0003326,3323.7,0.00033331,3345.1,-0.00010614,43.226,-0.00011189,-0.0025392,0.72808
26384,10.173,2.8182,0.1,0.00033016,3299.4,0.00033084,3319.5,-0.00010555,40.629,-0.00011096,-0.002747,0.7395
26385,10.08,2.9091,0.1,0.0003326,3323.7,0.00033331,3345.1,-0.00010614,43.226,-0.00011189,-0.0025394,0.72808
26386,10.173,2.6364,0.1,0.00033023,3300,0.00033089,3319.8,-0.00010564,39.88,-0.00011095,-0.0028625,0.73939
26387,10.08,2.7273,0.1,0.00033265,3324.2,0.00033335,3345.3,-0.0001062,42.696,-0.00011188,-0.0026263,0.72801
26388,10.173,2.4545,0.1,0.00033035,3301.2,0.00033099,3320.3,-0.00010578,38.644,-0.00011092,-0.0030473,0.73922
26389,10.08,2.5455,0.1,0.00033274,3325.1,0.00033343,3345.7,-0.00010632,41.646,-0.00011186,-0.0027952,0.72787
26390,10.173,2.2727,0.1,0.0003305,3302.7,0.00033111,3321.1,-0.00010597,36.941,-0.00011089,-0.0032934,0.73898
26391,10.08,2.3636,0.1,0.00033288,3326.5,0.00033355,3346.4,-0.00010649,40.092,-0.00011183,-0.0030366,0.72766
26392,10.173,2.0909,0.1,0.0003307,3304.7,0.00033128,3322,-0.00010622,34.797,-0.00011085,-0.0035898,0.73866
26393,10.08,2.1818,0.1,0.00033307,3328.4,0.0003337,3347.2,-0.00010673,38.06,-0.00011179,-0.0033416,0.72738
26394,10.173,1.9091,0.1,0.00033094,3307.1,0.00033147,3323.1,-0.00010651,32.243,-0.0001108,-0.0039209,0.73828
26395,10.08,2,0.1,0.00033329,3330.6,0.00033388,3348.3,-0.00010701,35.58,-0.00011174,-0.0036939,0.72703
26396,10.173,1.7273,0.1,0.00033121,3309.8,0.0003317,3324.3,-0.00010685,29.316,-0.00011075,-0.004272,0.73782
26397,10.08,1.8182,0.1,0.00033356,3333.3,0.0003341,3349.5,-0.00010734,32.691,-0.00011169,-0.0040768,0.7266
26398,10.173,1.5455,0.1,0.00033151,3312.8,0.00033195,3325.8,-0.00010722,26.055,-0.00011069,-0.0046293,0.7373
26399,10.08,1.6364,0.1,0.00033386,3336.2,0.00033435,3350.9,-0.00010771,29.434,-0.00011163,-0.0044745,0.72611
26400,10.173,1.3636,0.1,0.00033185,3316.2,0.00033222,3327.4,-0.00010763,22.501,-0.00011062,-0.0049748,0.7367
26401,10.08,1.4545,0.1,0.00033419,3339.6,0.00033462,3352.4,-0.00010812,25.852,-0.00011156,-0.0048735,0.72555
26402,10.173,1.1818,0.1,0.00033221,3319.8,0.00033252,3329.1,-0.00010806,18.694,-0.00011055,-0.005311,0.73603
26403,10.08,1.2727,0.1,0.00033455,3343.2,0.00033492,3354.1,-0.00010856,21.99,-0.00011149,-0.0052488,0.72491
26404,10.173,1,0.1,0.00033259,3323.6,0.00033284,3330.9,-0.00010853,14.675,-0.00011048,-0.0055768,0.73529
26405,10.08,1.0909,0.1,0.00033493,3347,0.00033523,3355.9,-0.00010903,17.892,-0.00011141,-0.0056326,0.7242
26406,10.173,0.81818,0.1,0.000333,3327.7,0.00033317,3332.9,-0.00010901,10.482,-0.00011041,-0.0060134,0.73448
26407,10.08,0.90909,0.1,0.00033534,3351.1,0.00033557,3357.9,-0.00010953,13.599,-0.00011134,-0.0058718,0.72342
26408,10.173,0.63636,0.1,0.00033342,3331.9,0.00033353,3335,-0.00010952,6.146,-0.00011033,-0.0056929,0.7336
26409,10.08,0.72727,0.1,0.00033577,3355.4,0.00033592,3359.9,-0.00011004,9.1506,-0.00011126,-0.006651,0.72257
26410,10.173,0.45455,0.1,0.00033387,3336.4,0.00033389,3337.2,-0.00011004,1.6666,-0.00011026,-0.010605,0.73265
26411,10.08,0.54545,0.1,0.00033621,3359.8,0.00033629,3362.1,-0.00011057,4.5776,-0.00011118,-0.0054767,0.72165
26412,10.173,0.27273,0.1,0.0003344,3341.7,0.00033435,3340,-0.00011018,0.0057656,-0.00011064,-3.4466,0.73162
26413,10.08,0.36364,0.1,0.00033668,3364.5,0.00033668,3364.4,-0.0001111,0.01689,-0.00011112,-0.1888,0.72065
26414,10.08,0.18182,0.1,0.00033732,3370.9,0.00033722,3367.9,-0.00011102,0.02134,-0.00011182,-6.0191,0.71959
26415,10.173,0.090909,0.1,0.0003344,3341.6,0.00033431,3339.3,-0.00011012,0.004098,-0.00011075,-4.7398,0.73053
26416,9.9882,5.7273,0.1,0.00033959,3393.6,0.00033955,3392.2,-0.00011193,0.011443,-0.00011229,-2.6624,0.70869
26417,9.896,5.8182,0.1,0.00034253,3422.9,0.00034244,3420.2,-0.00011277,0.0265,-0.00011348,-5.3718,0.69676
26418,9.9882,5.9091,0.1,0.00033962,3393.8,0.00033954,3391.7,-0.00011186,0.0055973,-0.00011244,-4.3557,0.70758
26419,9.9882,5.5455,0.1,0.00033903,3388,0.00033908,3389.3,-0.00011165,2.7775,-0.00011202,-0.012094,0.70973
26420,9.896,5.6364,0.1,0.00034187,3416.3,0.00034188,3416.7,-0.00011275,0.81399,-0.00011286,-0.028701,0.69784
26421,9.9882,5.3636,0.1,0.00033856,3383.3,0.00033869,3387.1,-0.00011109,7.6002,-0.0001121,-0.0062945,0.7107
26422,9.896,5.4545,0.1,0.00034137,3411.4,0.00034147,3414.3,-0.00011216,5.8866,-0.00011295,-0.006263,0.69885
26423,9.9882,5.1818,0.1,0.00033811,3378.8,0.00033832,3384.9,-0.00011055,12.286,-0.00011219,-0.00649,0.71159
26424,9.896,5.2727,0.1,0.0003409,3406.7,0.00034109,3412.1,-0.00011159,10.819,-0.00011303,-0.0073131,0.69979
26425,9.9882,5,0.1,0.00033768,3374.5,0.00033796,3382.9,-0.00011003,16.832,-0.00011227,-0.0059235,0.71241
26426,9.896,5.0909,0.1,0.00034045,3402.1,0.00034071,3409.9,-0.00011104,15.634,-0.00011312,-0.0063391,0.70065
26427,9.9882,4.8182,0.1,0.00033727,3370.4,0.00033763,3380.9,-0.00010953,21.204,-0.00011235,-0.0055695,0.71316
26428,9.896,4.9091,0.1,0.00034002,3397.8,0.00034036,3407.9,-0.00011051,20.297,-0.00011321,-0.0060012,0.70144
26429,9.9882,4.6364,0.1,0.00033689,3366.5,0.00033731,3379.1,-0.00010905,25.357,-0.00011243,-0.0051467,0.71383
26430,9.896,4.7273,0.1,0.0003396,3393.7,0.00034002,3406,-0.00011,24.763,-0.00011329,-0.0055188,0.70215
26431,9.9882,4.4545,0.1,0.00033653,3363,0.00033702,3377.5,-0.00010861,29.246,-0.0001125,-0.004717,0.71443
26432,9.896,4.5455,0.1,0.00033922,3389.9,0.0003397,3404.2,-0.00010952,28.985,-0.00011338,-0.005051,0.70279
26433,9.9882,4.2727,0.1,0.0003362,3359.7,0.00033675,3376,-0.0001082,32.824,-0.00011257,-0.0042769,0.71497
26434,9.896,4.3636,0.1,0.00033886,3386.3,0.00033941,3402.6,-0.00010907,32.913,-0.00011345,-0.0045604,0.70337
26435,9.9882,4.0909,0.1,0.00033591,3356.8,0.00033651,3374.7,-0.00010783,36.042,-0.00011263,-0.0038466,0.71543
26436,9.896,4.1818,0.1,0.00033854,3383.1,0.00033915,3401.2,-0.00010866,36.494,-0.00011352,-0.0040734,0.70386
26437,9.9882,3.9091,0.1,0.00033566,3354.2,0.0003363,3373.5,-0.00010751,38.857,-0.00011269,-0.0034413,0.71582
26438,9.896,4,0.1,0.00033826,3380.2,0.00033892,3399.9,-0.0001083,39.678,-0.00011359,-0.0036055,0.70429
26439,9.9882,3.7273,0.1,0.00033544,3352.1,0.00033613,3372.5,-0.00010725,41.224,-0.00011273,-0.0030791,0.71613
26440,9.896,3.8182,0.1,0.00033801,3377.8,0.00033872,3398.8,-0.00010799,42.416,-0.00011364,-0.0031751,0.70465
26441,9.9882,3.5455,0.1,0.00033527,3350.4,0.00033599,3371.8,-0.00010703,43.107,-0.00011277,-0.0027783,0.71638
26442,9.896,3.6364,0.1,0.00033782,3375.8,0.00033855,3397.9,-0.00010774,44.664,-0.00011368,-0.0028035,0.70493
26443,9.9882,3.3636,0.1,0.00033515,3349.2,0.00033589,3371.2,-0.00010688,44.475,-0.0001128,-0.0025524,0.71656
26444,9.896,3.4545,0.1,0.00033766,3374.3,0.00033843,3397.3,-0.00010755,46.386,-0.00011372,-0.0025086,0.70514
26445,9.9882,3.1818,0.1,0.00033508,3348.5,0.00033583,3370.9,-0.00010678,45.305,-0.00011281,-0.0024116,0.71666
26446,9.896,3.2727,0.1,0.00033756,3373.3,0.00033835,3396.8,-0.00010741,47.55,-0.00011374,-0.0023027,0.70529
26447,9.9882,3,0.1,0.00033505,3348.2,0.00033581,3370.8,-0.00010675,45.584,-0.00011282,-0.002364,0.7167
26448,9.896,3.0909,0.1,0.00033751,3372.8,0.0003383,3396.6,-0.00010735,48.138,-0.00011375,-0.002197,0.70536
26449,9.9882,2.8182,0.1,0.00033508,3348.5,0.00033583,3370.9,-0.00010678,45.305,-0.00011281,-0.002412,0.71666
26450,9.896,2.9091,0.1,0.00033751,3372.8,0.0003383,3396.6,-0.00010735,48.138,-0.00011375,-0.0021971,0.70536
26451,9.9882,2.6364,0.1,0.00033515,3349.2,0.00033589,3371.2,-0.00010688,44.475,-0.0001128,-0.0025526,0.71656
26452,9.896,2.7273,0.1,0.00033756,3373.3,0.00033835,3396.8,-0.00010741,47.55,-0.00011374,-0.0023029,0.70529
26453,9.9882,2.4545,0.1,0.00033527,3350.4,0.00033599,3371.8,-0.00010703,43.107,-0.00011277,-0.0027787,0.71638
26454,9.896,2.5455,0.1,0.00033766,3374.3,0.00033843,3397.3,-0.00010755,46.386,-0.00011372,-0.0025089,0.70514
26455,9.9882,2.2727,0.1,0.00033544,3352.1,0.00033613,3372.5,-0.00010725,41.224,-0.00011273,-0.0030798,0.71613
26456,9.896,2.3636,0.1,0.00033782,3375.8,0.00033855,3397.9,-0.00010774,44.664,-0.00011368,-0.0028037,0.70493
26457,9.9882,2.0909,0.1,0.00033566,3354.2,0.0003363,3373.5,-0.00010751,38.857,-0.00011269,-0.0034416,0.71582
26458,9.896,2.1818,0.1,0.00033801,3377.8,0.00033872,3398.8,-0.00010799,42.416,-0.00011364,-0.0031758,0.70465
26459,9.9882,1.9091,0.1,0.00033591,3356.8,0.00033651,3374.7,-0.00010783,36.042,-0.00011263,-0.0038467,0.71543
26460,9.896,2,0.1,0.00033826,3380.2,0.00033892,3399.9,-0.0001083,39.678,-0.00011359,-0.0036057,0.70429
26461,9.9882,1.7273,0.1,0.0003362,3359.7,0.00033675,3376,-0.0001082,32.824,-0.00011257,-0.0042774,0.71497
26462,9.896,1.8182,0.1,0.00033854,3383.1,0.00033915,3401.2,-0.00010866,36.494,-0.00011352,-0.0040738,0.70386
26463,9.9882,1.5455,0.1,0.00033653,3363,0.00033702,3377.5,-0.00010861,29.246,-0.0001125,-0.0047177,0.71443
26464,9.896,1.6364,0.1,0.00033886,3386.3,0.00033941,3402.6,-0.00010907,32.913,-0.00011345,-0.0045608,0.70337
26465,9.9882,1.3636,0.1,0.00033689,3366.5,0.00033731,3379.1,-0.00010905,25.357,-0.00011243,-0.0051472,0.71383
26466,9.896,1.4545,0.1,0.00033922,3389.9,0.0003397,3404.2,-0.00010952,28.985,-0.00011338,-0.0050516,0.70279
26467,9.9882,1.1818,0.1,0.00033727,3370.4,0.00033763,3380.9,-0.00010953,21.204,-0.00011235,-0.0055702,0.71316
26468,9.896,1.2727,0.1,0.0003396,3393.7,0.00034002,3406,-0.00011,24.763,-0.00011329,-0.0055194,0.70215
26469,9.9882,1,0.1,0.00033768,3374.5,0.00033796,3382.9,-0.00011003,16.833,-0.00011227,-0.0059245,0.71241
26470,9.896,1.0909,0.1,0.00034002,3397.8,0.00034036,3407.9,-0.00011051,20.297,-0.00011321,-0.0060021,0.70144
26471,9.9882,0.81818,0.1,0.00033811,3378.8,0.00033832,3384.9,-0.00011055,12.286,-0.00011219,-0.0064911,0.71159
26472,9.896,0.90909,0.1,0.00034045,3402.1,0.00034071,3409.9,-0.00011104,15.634,-0.00011312,-0.0063405,0.70065
26473,9.9882,0.63636,0.1,0.00033856,3383.3,0.00033869,3387.1,-0.00011109,7.6002,-0.0001121,-0.0062954,0.7107
26474,9.896,0.72727,0.1,0.0003409,3406.7,0.00034109,3412.1,-0.00011159,10.819,-0.00011303,-0.0073141,0.69979
26475,9.9882,0.45455,0.1,0.00033903,3388,0.00033908,3389.3,-0.00011165,2.7776,-0.00011202,-0.012095,0.70973
26476,9.896,0.54545,0.1,0.00034137,3411.4,0.00034147,3414.3,-0.00011216,5.8866,-0.00011295,-0.0062636,0.69885
26477,9.9882,0.27273,0.1,0.00033959,3393.6,0.00033955,3392.2,-0.00011193,0.011442,-0.00011229,-2.6624,0.70869
26478,9.896,0.36364,0.1,0.00034187,3416.3,0.00034188,3416.7,-0.00011275,0.81399,-0.00011286,-0.028702,0.69784
26479,9.896,0.18182,0.1,0.00034253,3422.9,0.00034244,3420.2,-0.00011277,0.026499,-0.00011348,-5.3718,0.69676
26480,9.9882,0.090909,0.1,0.00033962,3393.8,0.00033954,3391.7,-0.00011186,0.0055964,-0.00011244,-4.3557,0.70758
26481,9.8038,5.7273,0.1,0.00034479,3445.6,0.00034476,3444.6,-0.00011369,0.023717,-0.00011394,-1.8569,0.68599
26482,9.7117,5.8182,0.1,0.00034775,3475.1,0.00034767,3472.8,-0.00011452,0.033528,-0.00011515,-4.7077,0.67417
26483,9.8038,5.9091,0.1,0.00034486,3446.2,0.00034479,3444.3,-0.00011361,0.0076523,-0.00011414,-3.9609,0.68486
26484,9.8038,5.5455,0.1,0.00034421,3439.7,0.00034428,3441.7,-0.00011326,3.9347,-0.00011379,-0.013723,0.68704
26485,9.7117,5.6364,0.1,0.00034707,3468.3,0.0003471,3469.2,-0.00011438,1.8038,-0.00011462,-0.027199,0.67526
26486,9.8038,5.3636,0.1,0.00034371,3434.8,0.00034387,3439.3,-0.00011266,9.1231,-0.00011388,-0.007062,0.68802
26487,9.7117,5.4545,0.1,0.00034655,3463.1,0.00034667,3466.7,-0.00011376,7.2502,-0.00011472,-0.007193,0.67628
26488,9.8038,5.1818,0.1,0.00034324,3430,0.00034348,3437.1,-0.00011208,14.185,-0.00011397,-0.0071158,0.68892
26489,9.7117,5.2727,0.1,0.00034605,3458.1,0.00034626,3464.4,-0.00011315,12.567,-0.00011482,-0.0081249,0.67723
26490,9.8038,5,0.1,0.00034278,3425.5,0.0003431,3435,-0.00011152,19.115,-0.00011406,-0.0064,0.68975
26491,9.7117,5.0909,0.1,0.00034557,3453.3,0.00034587,3462.2,-0.00011255,17.778,-0.00011492,-0.0069391,0.6781
26492,9.8038,4.8182,0.1,0.00034235,3421.1,0.00034275,3433,-0.00011098,23.871,-0.00011416,-0.0059419,0.69051
26493,9.7117,4.9091,0.1,0.00034511,3448.7,0.00034549,3460.1,-0.00011198,22.843,-0.00011502,-0.0064883,0.6789
26494,9.8038,4.6364,0.1,0.00034194,3417,0.00034241,3431.1,-0.00011046,28.405,-0.00011424,-0.0054172,0.69119
26495,9.7117,4.7273,0.1,0.00034467,3444.3,0.00034514,3458.1,-0.00011142,27.713,-0.00011511,-0.0058923,0.67962
26496,9.8038,4.4545,0.1,0.00034155,3413.2,0.0003421,3429.4,-0.00010998,32.666,-0.00011433,-0.004889,0.6918
26497,9.7117,4.5455,0.1,0.00034426,3440.2,0.0003448,3456.3,-0.0001109,32.333,-0.0001152,-0.0053175,0.68027
26498,9.8038,4.2727,0.1,0.0003412,3409.7,0.00034181,3427.8,-0.00010953,36.596,-0.00011441,-0.0043511,0.69234
26499,9.7117,4.3636,0.1,0.00034388,3436.4,0.00034449,3454.6,-0.00011041,36.646,-0.00011529,-0.0047193,0.68085
26500,9.8038,4.0909,0.1,0.00034089,3406.5,0.00034155,3426.4,-0.00010913,40.142,-0.00011448,-0.0038259,0.69281
26501,9.7117,4.1818,0.1,0.00034353,3433,0.00034421,3453.1,-0.00010997,40.59,-0.00011537,-0.0041268,0.68136
26502,9.8038,3.9091,0.1,0.00034062,3403.8,0.00034133,3425.2,-0.00010878,43.249,-0.00011454,-0.0033322,0.6932
26503,9.7117,4,0.1,0.00034323,3429.9,0.00034396,3451.8,-0.00010957,44.105,-0.00011544,-0.0035578,0.68179
26504,9.8038,3.7273,0.1,0.00034039,3401.5,0.00034114,3424.2,-0.00010849,45.868,-0.00011459,-0.0028917,0.69352
26505,9.7117,3.8182,0.1,0.00034297,3427.3,0.00034374,3450.6,-0.00010923,47.135,-0.00011551,-0.0030353,0.68215
26506,9.8038,3.5455,0.1,0.0003402,3399.7,0.00034099,3423.4,-0.00010825,47.955,-0.00011463,-0.0025253,0.69377
26507,9.7117,3.6364,0.1,0.00034275,3425.1,0.00034357,3449.7,-0.00010895,49.628,-0.00011556,-0.0025838,0.68244
26508,9.8038,3.3636,0.1,0.00034007,3398.4,0.00034089,3422.8,-0.00010808,49.473,-0.00011467,-0.0022499,0.69395
26509,9.7117,3.4545,0.1,0.00034259,3423.5,0.00034343,3449,-0.00010874,51.539,-0.0001156,-0.0022251,0.68265
26510,9.8038,3.1818,0.1,0.00033999,3397.6,0.00034082,3422.5,-0.00010798,50.394,-0.00011468,-0.0020787,0.69406
26511,9.7117,3.2727,0.1,0.00034248,3422.4,0.00034334,3448.5,-0.00010859,52.834,-0.00011562,-0.0019749,0.68279
26512,9.8038,3,0.1,0.00033996,3397.3,0.0003408,3422.4,-0.00010794,50.704,-0.00011469,-0.0020206,0.69409
26513,9.7117,3.0909,0.1,0.00034242,3421.8,0.0003433,3448.3,-0.00010852,53.487,-0.00011564,-0.0018466,0.68287
26514,9.8038,2.8182,0.1,0.00033999,3397.6,0.00034082,3422.5,-0.00010798,50.394,-0.00011468,-0.0020786,0.69406
26515,9.7117,2.9091,0.1,0.00034242,3421.8,0.0003433,3448.3,-0.00010852,53.487,-0.00011564,-0.0018464,0.68287
26516,9.8038,2.6364,0.1,0.00034007,3398.4,0.00034089,3422.8,-0.00010808,49.473,-0.00011467,-0.0022501,0.69395
26517,9.7117,2.7273,0.1,0.00034248,3422.4,0.00034334,3448.5,-0.00010859,52.834,-0.00011562,-0.0019752,0.68279
26518,9.8038,2.4545,0.1,0.0003402,3399.7,0.00034099,3423.4,-0.00010825,47.955,-0.00011463,-0.0025253,0.69377
26519,9.7117,2.5455,0.1,0.00034259,3423.5,0.00034343,3449,-0.00010874,51.539,-0.0001156,-0.0022255,0.68265
26520,9.8038,2.2727,0.1,0.00034039,3401.5,0.00034114,3424.2,-0.00010849,45.868,-0.00011459,-0.0028918,0.69352
26521,9.7117,2.3636,0.1,0.00034275,3425.1,0.00034357,3449.7,-0.00010895,49.628,-0.00011556,-0.0025839,0.68244
26522,9.8038,2.0909,0.1,0.00034062,3403.8,0.00034133,3425.2,-0.00010878,43.249,-0.00011454,-0.0033327,0.6932
26523,9.7117,2.1818,0.1,0.00034297,3427.3,0.00034374,3450.6,-0.00010923,47.135,-0.00011551,-0.0030357,0.68215
26524,9.8038,1.9091,0.1,0.00034089,3406.5,0.00034155,3426.4,-0.00010913,40.142,-0.00011448,-0.0038264,0.69281
26525,9.7117,2,0.1,0.00034323,3429.9,0.00034396,3451.8,-0.00010957,44.105,-0.00011544,-0.0035581,0.68179
26526,9.8038,1.7273,0.1,0.0003412,3409.7,0.00034181,3427.8,-0.00010953,36.596,-0.00011441,-0.0043515,0.69234
26527,9.7117,1.8182,0.1,0.00034353,3433,0.00034421,3453.1,-0.00010997,40.59,-0.00011537,-0.0041275,0.68136
26528,9.8038,1.5455,0.1,0.00034155,3413.2,0.0003421,3429.4,-0.00010998,32.666,-0.00011433,-0.0048893,0.6918
26529,9.7117,1.6364,0.1,0.00034388,3436.4,0.00034449,3454.6,-0.00011041,36.646,-0.00011529,-0.0047197,0.68085
26530,9.8038,1.3636,0.1,0.00034194,3417,0.00034241,3431.1,-0.00011046,28.405,-0.00011424,-0.0054179,0.69119
26531,9.7117,1.4545,0.1,0.00034426,3440.2,0.0003448,3456.3,-0.0001109,32.333,-0.0001152,-0.0053179,0.68027
26532,9.8038,1.1818,0.1,0.00034235,3421.1,0.00034275,3433,-0.00011098,23.871,-0.00011416,-0.0059429,0.69051
26533,9.7117,1.2727,0.1,0.00034467,3444.3,0.00034514,3458.1,-0.00011142,27.713,-0.00011511,-0.0058929,0.67962
26534,9.8038,1,0.1,0.00034278,3425.5,0.0003431,3435,-0.00011152,19.115,-0.00011406,-0.0064013,0.68975
26535,9.7117,1.0909,0.1,0.00034511,3448.7,0.00034549,3460.1,-0.00011198,22.843,-0.00011502,-0.0064895,0.6789
26536,9.8038,0.81818,0.1,0.00034324,3430,0.00034348,3437.1,-0.00011208,14.185,-0.00011397,-0.007117,0.68892
26537,9.7117,0.90909,0.1,0.00034557,3453.3,0.00034587,3462.2,-0.00011255,17.778,-0.00011492,-0.0069408,0.6781
26538,9.8038,0.63636,0.1,0.00034371,3434.8,0.00034387,3439.3,-0.00011266,9.1232,-0.00011388,-0.0070628,0.68802
26539,9.7117,0.72727,0.1,0.00034605,3458.1,0.00034626,3464.4,-0.00011315,12.567,-0.00011482,-0.008126,0.67723
26540,9.8038,0.45455,0.1,0.00034421,3439.7,0.00034428,3441.7,-0.00011326,3.9348,-0.00011379,-0.013724,0.68704
26541,9.7117,0.54545,0.1,0.00034655,3463.1,0.00034667,3466.7,-0.00011376,7.2503,-0.00011472,-0.0071935,0.67628
26542,9.8038,0.27273,0.1,0.00034479,3445.6,0.00034476,3444.6,-0.00011369,0.023716,-0.00011394,-1.8569,0.68599
26543,9.7117,0.36364,0.1,0.00034707,3468.3,0.0003471,3469.2,-0.00011438,1.8038,-0.00011463,-0.027199,0.67526
26544,9.7117,0.18182,0.1,0.00034775,3475.1,0.00034767,3472.8,-0.00011452,0.033527,-0.00011515,-4.7077,0.67417
26545,9.8038,0.090909,0.1,0.00034486,3446.2,0.00034479,3444.3,-0.00011361,0.0076515,-0.00011414,-3.9609,0.68486
26546,9.6195,5.7273,0.1,0.00035001,3497.7,0.00035,3497.2,-0.00011545,0.058208,-0.0001156,-1.0488,0.66352
26547,9.5273,5.8182,0.1,0.00035299,3527.4,0.00035292,3525.5,-0.00011628,0.043448,-0.00011683,-4.0308,0.65181
26548,9.6195,5.9091,0.1,0.00035012,3498.8,0.00035006,3497,-0.00011536,0.010503,-0.00011584,-3.5567,0.66238
26549,9.6195,5.5455,0.1,0.00034941,3491.7,0.00034949,3494.2,-0.00011487,5.1344,-0.00011556,-0.015478,0.66458
26550,9.5273,5.6364,0.1,0.00035229,3520.5,0.00035234,3521.9,-0.00011602,2.826,-0.0001164,-0.028604,0.65292
26551,9.6195,5.3636,0.1,0.00034888,3486.4,0.00034907,3491.8,-0.00011424,10.711,-0.00011566,-0.0079693,0.66557
26552,9.5273,5.4545,0.1,0.00035174,3515,0.00035189,3519.3,-0.00011535,8.6633,-0.0001165,-0.0082489,0.65395
26553,9.6195,5.1818,0.1,0.00034838,3481.4,0.00034865,3489.5,-0.00011361,16.177,-0.00011577,-0.0078744,0.66649
26554,9.5273,5.2727,0.1,0.00035122,3509.7,0.00035146,3516.9,-0.0001147,14.39,-0.00011661,-0.0090722,0.65491
26555,9.6195,5,0.1,0.0003479,3476.6,0.00034826,3487.3,-0.00011301,21.522,-0.00011587,-0.0069964,0.66733
26556,9.5273,5.0909,0.1,0.00035071,3504.7,0.00035104,3514.6,-0.00011406,20.028,-0.00011672,-0.0076648,0.65579
26557,9.6195,4.8182,0.1,0.00034743,3471.9,0.00034788,3485.2,-0.00011242,26.7,-0.00011597,-0.0064214,0.66809
26558,9.5273,4.9091,0.1,0.00035022,3499.8,0.00035065,3512.5,-0.00011344,25.531,-0.00011683,-0.0070902,0.6566
26559,9.6195,4.6364,0.1,0.000347,3467.6,0.00034752,3483.3,-0.00011186,31.655,-0.00011607,-0.0057804,0.66878
26560,9.5273,4.7273,0.1,0.00034975,3495.1,0.00035027,3510.4,-0.00011284,30.845,-0.00011694,-0.0063671,0.65733
26561,9.6195,4.4545,0.1,0.00034659,3463.5,0.00034719,3481.5,-0.00011133,36.327,-0.00011617,-0.0051374,0.6694
26562,9.5273,4.5455,0.1,0.00034931,3490.7,0.00034991,3508.5,-0.00011227,35.908,-0.00011705,-0.0056694,0.65799
26563,9.6195,4.2727,0.1,0.00034621,3459.7,0.00034688,3479.9,-0.00011085,40.652,-0.00011626,-0.0044851,0.66995
26564,9.5273,4.3636,0.1,0.0003489,3486.6,0.00034958,3506.8,-0.00011174,40.649,-0.00011715,-0.0049467,0.65857
26565,9.6195,4.0909,0.1,0.00034587,3456.3,0.00034661,3478.4,-0.00011041,44.565,-0.00011634,-0.0038486,0.67042
26566,9.5273,4.1818,0.1,0.00034853,3482.9,0.00034928,3505.2,-0.00011125,45,-0.00011724,-0.0042308,0.65908
26567,9.6195,3.9091,0.1,0.00034558,3453.4,0.00034637,3477.1,-0.00011002,48.003,-0.00011641,-0.0032502,0.67081
26568,9.5273,4,0.1,0.0003482,3479.6,0.00034901,3503.8,-0.00011081,48.889,-0.00011732,-0.0035428,0.65952
26569,9.6195,3.7273,0.1,0.00034533,3450.9,0.00034617,3476.1,-0.0001097,50.906,-0.00011647,-0.0027161,0.67114
26570,9.5273,3.8182,0.1,0.00034792,3476.8,0.00034878,3502.6,-0.00011044,52.249,-0.00011739,-0.0029109,0.65988
26571,9.6195,3.5455,0.1,0.00034513,3448.9,0.00034601,3475.3,-0.00010944,53.223,-0.00011652,-0.0022717,0.67139
26572,9.5273,3.6364,0.1,0.00034769,3474.5,0.00034859,3501.7,-0.00011013,55.019,-0.00011745,-0.0023644,0.66017
26573,9.6195,3.3636,0.1,0.00034499,3447.5,0.00034589,3474.6,-0.00010925,54.911,-0.00011656,-0.0019377,0.67157
26574,9.5273,3.4545,0.1,0.00034751,3472.7,0.00034845,3500.9,-0.00010989,57.146,-0.0001175,-0.0019302,0.66039
26575,9.6195,3.1818,0.1,0.0003449,3446.7,0.00034582,3474.3,-0.00010913,55.937,-0.00011658,-0.00173,0.67168
26576,9.5273,3.2727,0.1,0.00034739,3471.5,0.00034835,3500.4,-0.00010973,58.588,-0.00011753,-0.0016269,0.66054
26577,9.6195,3,0.1,0.00034487,3446.4,0.0003458,3474.2,-0.00010909,56.281,-0.00011658,-0.0016596,0.67172
26578,9.5273,3.0909,0.1,0.00034733,3470.9,0.0003483,3500.2,-0.00010965,59.317,-0.00011754,-0.0014714,0.66061
26579,9.6195,2.8182,0.1,0.0003449,3446.7,0.00034582,3474.3,-0.00010913,55.937,-0.00011658,-0.0017302,0.67168
26580,9.5273,2.9091,0.1,0.00034733,3470.9,0.0003483,3500.2,-0.00010965,59.317,-0.00011754,-0.0014713,0.66061
26581,9.6195,2.6364,0.1,0.00034499,3447.5,0.00034589,3474.6,-0.00010925,54.911,-0.00011656,-0.0019382,0.67157
26582,9.5273,2.7273,0.1,0.00034739,3471.5,0.00034835,3500.4,-0.00010973,58.588,-0.00011753,-0.0016273,0.66054
26583,9.6195,2.4545,0.1,0.00034513,3448.9,0.00034601,3475.3,-0.00010944,53.223,-0.00011652,-0.0022723,0.67139
26584,9.5273,2.5455,0.1,0.00034751,3472.7,0.00034845,3500.9,-0.00010989,57.146,-0.0001175,-0.0019302,0.66039
26585,9.6195,2.2727,0.1,0.00034533,3450.9,0.00034617,3476.1,-0.0001097,50.906,-0.00011647,-0.0027165,0.67114
26586,9.5273,2.3636,0.1,0.00034769,3474.5,0.00034859,3501.7,-0.00011013,55.019,-0.00011745,-0.0023648,0.66017
26587,9.6195,2.0909,0.1,0.00034558,3453.4,0.00034637,3477.1,-0.00011002,48.003,-0.00011641,-0.0032504,0.67081
26588,9.5273,2.1818,0.1,0.00034792,3476.8,0.00034878,3502.6,-0.00011044,52.249,-0.00011739,-0.0029111,0.65988
26589,9.6195,1.9091,0.1,0.00034587,3456.3,0.00034661,3478.4,-0.00011041,44.565,-0.00011634,-0.0038491,0.67042
26590,9.5273,2,0.1,0.0003482,3479.6,0.00034901,3503.8,-0.00011081,48.889,-0.00011732,-0.0035435,0.65952
26591,9.6195,1.7273,0.1,0.00034621,3459.7,0.00034688,3479.9,-0.00011085,40.652,-0.00011626,-0.0044858,0.66995
26592,9.5273,1.8182,0.1,0.00034853,3482.9,0.00034928,3505.2,-0.00011125,45,-0.00011724,-0.0042315,0.65908
26593,9.6195,1.5455,0.1,0.00034659,3463.5,0.00034719,3481.5,-0.00011133,36.327,-0.00011617,-0.005138,0.6694
26594,9.5273,1.6364,0.1,0.0003489,3486.6,0.00034958,3506.8,-0.00011174,40.649,-0.00011715,-0.0049471,0.65857
26595,9.6195,1.3636,0.1,0.000347,3467.6,0.00034752,3483.3,-0.00011186,31.655,-0.00011607,-0.0057808,0.66878
26596,9.5273,1.4545,0.1,0.00034931,3490.7,0.00034991,3508.5,-0.00011227,35.908,-0.00011705,-0.0056702,0.65799
26597,9.6195,1.1818,0.1,0.00034743,3471.9,0.00034788,3485.2,-0.00011242,26.7,-0.00011597,-0.0064222,0.66809
26598,9.5273,1.2727,0.1,0.00034975,3495.1,0.00035027,3510.4,-0.00011284,30.845,-0.00011694,-0.0063676,0.65733
26599,9.6195,1,0.1,0.0003479,3476.6,0.00034826,3487.3,-0.00011301,21.522,-0.00011587,-0.0069981,0.66733
26600,9.5273,1.0909,0.1,0.00035022,3499.8,0.00035065,3512.5,-0.00011344,25.531,-0.00011683,-0.007091,0.6566
26601,9.6195,0.81818,0.1,0.00034838,3481.4,0.00034865,3489.5,-0.00011361,16.177,-0.00011577,-0.0078759,0.66649
26602,9.5273,0.90909,0.1,0.00035071,3504.7,0.00035104,3514.6,-0.00011406,20.028,-0.00011672,-0.0076668,0.65579
26603,9.6195,0.63636,0.1,0.00034888,3486.4,0.00034907,3491.8,-0.00011424,10.711,-0.00011566,-0.0079701,0.66557
26604,9.5273,0.72727,0.1,0.00035122,3509.7,0.00035146,3516.9,-0.0001147,14.39,-0.00011661,-0.0090734,0.65491
26605,9.6195,0.45455,0.1,0.00034941,3491.7,0.00034949,3494.2,-0.00011487,5.1345,-0.00011556,-0.015478,0.66458
26606,9.5273,0.54545,0.1,0.00035174,3515,0.00035189,3519.3,-0.00011535,8.6634,-0.0001165,-0.0082492,0.65395
26607,9.6195,0.27273,0.1,0.00035001,3497.7,0.00035,3497.2,-0.00011545,0.058206,-0.0001156,-1.0488,0.66352
26608,9.5273,0.36364,0.1,0.00035229,3520.5,0.00035234,3521.9,-0.00011602,2.826,-0.0001164,-0.028605,0.65292
26609,9.5273,0.18182,0.1,0.00035299,3527.4,0.00035292,3525.5,-0.00011628,0.043447,-0.00011683,-4.0308,0.65181
26610,9.6195,0.090909,0.1,0.00035012,3498.8,0.00035006,3497,-0.00011536,0.010502,-0.00011584,-3.5567,0.66238
26611,9.4351,5.7273,0.1,0.00035525,3550.1,0.00035525,3550,-0.0001172,0.22931,-0.00011727,-0.35697,0.64129
26612,9.3429,5.8182,0.1,0.00035824,3579.9,0.00035819,3578.3,-0.00011805,0.058055,-0.0001185,-3.347,0.62969
26613,9.4351,5.9091,0.1,0.0003554,3551.6,0.00035535,3550,-0.00011713,0.014489,-0.00011755,-3.1455,0.64013
26614,9.4351,5.5455,0.1,0.00035462,3543.7,0.00035473,3546.9,-0.00011649,6.3708,-0.00011734,-0.017351,0.64236
26615,9.3429,5.6364,0.1,0.00035752,3572.7,0.00035759,3574.7,-0.00011766,3.8719,-0.00011818,-0.030775,0.63081
26616,9.4351,5.3636,0.1,0.00035407,3538.3,0.00035428,3544.4,-0.00011581,12.359,-0.00011746,-0.0090059,0.64336
26617,9.3429,5.4545,0.1,0.00035695,3567,0.00035712,3572,-0.00011695,10.118,-0.00011829,-0.0094429,0.63186
26618,9.4351,5.1818,0.1,0.00035354,3532.9,0.00035385,3542,-0.00011514,18.257,-0.00011757,-0.0087617,0.64429
26619,9.3429,5.2727,0.1,0.00035639,3561.5,0.00035667,3569.6,-0.00011625,16.281,-0.00011842,-0.010168,0.63283
26620,9.4351,5,0.1,0.00035303,3527.8,0.00035343,3539.8,-0.00011449,24.052,-0.00011769,-0.007713,0.64514
26621,9.3429,5.0909,0.1,0.00035586,3556.1,0.00035623,3567.2,-0.00011556,22.378,-0.00011854,-0.0085353,0.63372
26622,9.4351,4.8182,0.1,0.00035253,3522.9,0.00035303,3537.6,-0.00011385,29.691,-0.0001178,-0.0070093,0.64591
26623,9.3429,4.9091,0.1,0.00035534,3550.9,0.00035581,3565,-0.00011489,28.36,-0.00011866,-0.0078276,0.63453
26624,9.4351,4.6364,0.1,0.00035207,3518.2,0.00035265,3535.6,-0.00011324,35.111,-0.00011792,-0.0062371,0.64661
26625,9.3429,4.7273,0.1,0.00035484,3546,0.00035541,3562.9,-0.00011424,34.163,-0.00011879,-0.0069649,0.63527
26626,9.4351,4.4545,0.1,0.00035163,3513.8,0.00035229,3533.8,-0.00011267,40.242,-0.00011803,-0.0054628,0.64724
26627,9.3429,4.5455,0.1,0.00035437,3541.3,0.00035503,3561,-0.00011362,39.716,-0.0001189,-0.0061282,0.63594
26628,9.4351,4.2727,0.1,0.00035122,3509.8,0.00035197,3532.1,-0.00011214,45.009,-0.00011813,-0.0046777,0.64779
26629,9.3429,4.3636,0.1,0.00035393,3536.9,0.00035468,3559.2,-0.00011304,44.937,-0.00011902,-0.005262,0.63653
26630,9.4351,4.0909,0.1,0.00035086,3506.2,0.00035167,3530.6,-0.00011165,49.335,-0.00011822,-0.0039105,0.64826
26631,9.3429,4.1818,0.1,0.00035354,3532.9,0.00035436,3557.5,-0.0001125,49.746,-0.00011912,-0.004402,0.63705
26632,9.4351,3.9091,0.1,0.00035054,3503,0.00035142,3529.3,-0.00011123,53.147,-0.0001183,-0.0031886,0.64866
26633,9.3429,4,0.1,0.00035318,3529.4,0.00035407,3556.1,-0.00011202,54.057,-0.00011922,-0.0035743,0.63749
26634,9.4351,3.7273,0.1,0.00035028,3500.3,0.0003512,3528.2,-0.00011087,56.373,-0.00011837,-0.0025437,0.64899
26635,9.3429,3.8182,0.1,0.00035287,3526.3,0.00035382,3554.9,-0.00011161,57.792,-0.0001193,-0.0028124,0.63785
26636,9.4351,3.5455,0.1,0.00035006,3498.2,0.00035103,3527.3,-0.00011058,58.952,-0.00011843,-0.0020068,0.64925
26637,9.3429,3.6364,0.1,0.00035262,3523.8,0.00035362,3553.8,-0.00011127,60.877,-0.00011937,-0.0021533,0.63815
26638,9.4351,3.3636,0.1,0.00034991,3496.7,0.0003509,3526.7,-0.00011037,60.833,-0.00011847,-0.0016029,0.64943
26639,9.3429,3.4545,0.1,0.00035243,3521.9,0.00035346,3553.1,-0.000111,63.25,-0.00011942,-0.0016289,0.63837
26640,9.4351,3.1818,0.1,0.00034981,3495.7,0.00035083,3526.3,-0.00011025,61.978,-0.00011849,-0.0013514,0.64954
26641,9.3429,3.2727,0.1,0.0003523,3520.6,0.00035336,3552.6,-0.00011082,64.861,-0.00011946,-0.0012625,0.63851
26642,9.4351,3,0.1,0.00034978,3495.4,0.0003508,3526.2,-0.0001102,62.362,-0.0001185,-0.0012661,0.64958
26643,9.3429,3.0909,0.1,0.00035223,3519.9,0.00035331,3552.3,-0.00011073,65.676,-0.00011948,-0.0010742,0.63859
26644,9.4351,2.8182,0.1,0.00034981,3495.7,0.00035083,3526.3,-0.00011025,61.978,-0.00011849,-0.0013515,0.64954
26645,9.3429,2.9091,0.1,0.00035223,3519.9,0.00035331,3552.3,-0.00011073,65.676,-0.00011948,-0.0010742,0.63859
26646,9.4351,2.6364,0.1,0.00034991,3496.7,0.0003509,3526.7,-0.00011037,60.833,-0.00011847,-0.0016027,0.64943
26647,9.3429,2.7273,0.1,0.0003523,3520.6,0.00035336,3552.6,-0.00011082,64.861,-0.00011946,-0.0012625,0.63851
26648,9.4351,2.4545,0.1,0.00035006,3498.2,0.00035103,3527.3,-0.00011058,58.952,-0.00011843,-0.0020066,0.64925
26649,9.3429,2.5455,0.1,0.00035243,3521.9,0.00035346,3553.1,-0.000111,63.25,-0.00011942,-0.0016284,0.63837
26650,9.4351,2.2727,0.1,0.00035028,3500.3,0.0003512,3528.2,-0.00011087,56.373,-0.00011837,-0.002544,0.64899
26651,9.3429,2.3636,0.1,0.00035262,3523.8,0.00035362,3553.8,-0.00011127,60.877,-0.00011937,-0.0021536,0.63815
26652,9.4351,2.0909,0.1,0.00035054,3503,0.00035142,3529.3,-0.00011123,53.147,-0.0001183,-0.0031893,0.64866
26653,9.3429,2.1818,0.1,0.00035287,3526.3,0.00035382,3554.9,-0.00011161,57.792,-0.0001193,-0.0028131,0.63785
26654,9.4351,1.9091,0.1,0.00035086,3506.2,0.00035167,3530.6,-0.00011165,49.335,-0.00011822,-0.0039113,0.64826
26655,9.3429,2,0.1,0.00035318,3529.4,0.00035407,3556.1,-0.00011202,54.057,-0.00011922,-0.0035749,0.63749
26656,9.4351,1.7273,0.1,0.00035122,3509.8,0.00035197,3532.1,-0.00011214,45.009,-0.00011813,-0.0046781,0.64779
26657,9.3429,1.8182,0.1,0.00035354,3532.9,0.00035436,3557.5,-0.0001125,49.746,-0.00011912,-0.0044023,0.63705
26658,9.4351,1.5455,0.1,0.00035163,3513.8,0.00035229,3533.8,-0.00011267,40.242,-0.00011803,-0.0054635,0.64724
26659,9.3429,1.6364,0.1,0.00035393,3536.9,0.00035468,3559.2,-0.00011304,44.937,-0.00011902,-0.0052623,0.63653
26660,9.4351,1.3636,0.1,0.00035207,3518.2,0.00035265,3535.6,-0.00011324,35.112,-0.00011792,-0.006238,0.64661
26661,9.3429,1.4545,0.1,0.00035437,3541.3,0.00035503,3561,-0.00011362,39.716,-0.0001189,-0.0061291,0.63594
26662,9.4351,1.1818,0.1,0.00035253,3522.9,0.00035303,3537.6,-0.00011385,29.691,-0.0001178,-0.0070097,0.64591
26663,9.3429,1.2727,0.1,0.00035484,3546,0.00035541,3562.9,-0.00011424,34.163,-0.00011879,-0.0069653,0.63527
26664,9.4351,1,0.1,0.00035303,3527.8,0.00035343,3539.8,-0.00011449,24.052,-0.00011769,-0.0077141,0.64514
26665,9.3429,1.0909,0.1,0.00035534,3550.9,0.00035581,3565,-0.00011489,28.36,-0.00011866,-0.0078283,0.63453
26666,9.4351,0.81818,0.1,0.00035354,3532.9,0.00035385,3542,-0.00011514,18.257,-0.00011757,-0.0087634,0.64429
26667,9.3429,0.90909,0.1,0.00035586,3556.1,0.00035623,3567.2,-0.00011556,22.378,-0.00011854,-0.0085372,0.63372
26668,9.4351,0.63636,0.1,0.00035407,3538.3,0.00035428,3544.4,-0.00011581,12.359,-0.00011746,-0.0090067,0.64336
26669,9.3429,0.72727,0.1,0.00035639,3561.5,0.00035667,3569.6,-0.00011625,16.281,-0.00011842,-0.01017,0.63283
26670,9.4351,0.45455,0.1,0.00035462,3543.7,0.00035473,3546.9,-0.00011649,6.3708,-0.00011734,-0.017351,0.64236
26671,9.3429,0.54545,0.1,0.00035695,3567,0.00035712,3572,-0.00011695,10.118,-0.00011829,-0.0094433,0.63186
26672,9.4351,0.27273,0.1,0.00035525,3550.1,0.00035525,3550,-0.0001172,0.22931,-0.00011727,-0.35697,0.64129
26673,9.3429,0.36364,0.1,0.00035752,3572.7,0.00035759,3574.7,-0.00011766,3.8719,-0.00011818,-0.030776,0.63081
26674,9.3429,0.18182,0.1,0.00035824,3579.9,0.00035819,3578.3,-0.00011805,0.058055,-0.0001185,-3.347,0.62969
26675,9.4351,0.090909,0.1,0.0003554,3551.6,0.00035535,3550,-0.00011713,0.014488,-0.00011755,-3.1455,0.64013
26676,9.2507,5.7273,0.1,0.0003605,3602.5,0.00036051,3602.9,-0.00011889,0.8719,-0.00011902,-0.12244,0.61929
26677,9.1586,5.8182,0.1,0.00036351,3632.6,0.00036346,3631.3,-0.00011982,0.080807,-0.00012018,-2.6653,0.60781
26678,9.2507,5.9091,0.1,0.00036069,3604.4,0.00036065,3603.1,-0.00011889,0.020091,-0.00011926,-2.7304,0.61813
26679,9.2507,5.5455,0.1,0.00035985,3596,0.00035997,3599.8,-0.00011811,7.6353,-0.00011913,-0.019369,0.62038
26680,9.1586,5.6364,0.1,0.00036277,3625.2,0.00036285,3627.6,-0.0001193,4.932,-0.00011996,-0.033337,0.60895
26681,9.2507,5.3636,0.1,0.00035927,3590.2,0.0003595,3597.2,-0.00011738,14.056,-0.00011925,-0.010205,0.6214
26682,9.1586,5.4545,0.1,0.00036216,3619.2,0.00036236,3624.9,-0.00011854,11.604,-0.00012009,-0.010805,0.61001
26683,9.2507,5.1818,0.1,0.00035871,3584.6,0.00035905,3594.8,-0.00011667,20.417,-0.00011938,-0.0098142,0.62233
26684,9.1586,5.2727,0.1,0.00036158,3613.3,0.00036189,3622.4,-0.0001178,18.228,-0.00012023,-0.011445,0.61099
26685,9.2507,5,0.1,0.00035817,3579.2,0.00035861,3592.5,-0.00011596,26.7,-0.00011952,-0.008589,0.62319
26686,9.1586,5.0909,0.1,0.00036102,3607.7,0.00036143,3620,-0.00011706,24.82,-0.00012036,-0.0095867,0.61189
26687,9.2507,4.8182,0.1,0.00035764,3574,0.00035819,3590.3,-0.00011527,32.845,-0.00011965,-0.0077465,0.62397
26688,9.1586,4.9091,0.1,0.00036047,3602.2,0.00036099,3617.7,-0.00011633,31.324,-0.0001205,-0.0087395,0.61271
26689,9.2507,4.6364,0.1,0.00035714,3569,0.00035779,3588.2,-0.00011461,38.78,-0.00011977,-0.0068295,0.62468
26690,9.1586,4.7273,0.1,0.00035994,3596.9,0.00036057,3615.6,-0.00011563,37.666,-0.00012064,-0.0077243,0.61346
26691,9.2507,4.4545,0.1,0.00035668,3564.3,0.00035741,3586.3,-0.00011398,44.423,-0.0001199,-0.0059053,0.62531
26692,9.1586,4.5455,0.1,0.00035944,3591.9,0.00036016,3613.6,-0.00011495,43.764,-0.00012078,-0.0067316,0.61413
26693,9.2507,4.2727,0.1,0.00035624,3560,0.00035706,3584.6,-0.0001134,49.685,-0.00012001,-0.0049661,0.62587
26694,9.1586,4.3636,0.1,0.00035897,3587.2,0.00035979,3611.8,-0.00011431,49.524,-0.00012091,-0.0057002,0.61473
26695,9.2507,4.0909,0.1,0.00035585,3556.1,0.00035675,3583,-0.00011287,54.478,-0.00012012,-0.0040462,0.62635
26696,9.1586,4.1818,0.1,0.00035854,3583,0.00035945,3610.1,-0.00011373,54.849,-0.00012103,-0.0046725,0.61525
26697,9.2507,3.9091,0.1,0.00035551,3552.7,0.00035647,3581.6,-0.0001124,58.713,-0.00012022,-0.0031783,0.62675
26698,9.1586,4,0.1,0.00035816,3579.1,0.00035914,3608.6,-0.0001132,59.639,-0.00012114,-0.00368,0.61569
26699,9.2507,3.7273,0.1,0.00035522,3549.8,0.00035624,3580.5,-0.000112,62.306,-0.0001203,-0.0024016,0.62709
26700,9.1586,3.8182,0.1,0.00035783,3575.9,0.00035887,3607.3,-0.00011274,63.8,-0.00012123,-0.0027647,0.61607
26701,9.2507,3.5455,0.1,0.00035499,3547.5,0.00035605,3579.6,-0.00011169,65.185,-0.00012036,-0.0017543,0.62734
26702,9.1586,3.6364,0.1,0.00035756,3573.1,0.00035866,3606.3,-0.00011236,67.245,-0.00012131,-0.001971,0.61636
26703,9.2507,3.3636,0.1,0.00035482,3545.8,0.00035592,3578.9,-0.00011145,67.287,-0.00012041,-0.001267,0.62753
26704,9.1586,3.4545,0.1,0.00035735,3571,0.00035849,3605.5,-0.00011207,69.9,-0.00012137,-0.0013387,0.61658
26705,9.2507,3.1818,0.1,0.00035472,3544.8,0.00035584,3578.5,-0.00011131,68.568,-0.00012044,-0.00096346,0.62764
26706,9.1586,3.2727,0.1,0.00035721,3569.6,0.00035838,3604.9,-0.00011187,71.704,-0.00012141,-0.00089686,0.61673
26707,9.2507,3,0.1,0.00035469,3544.4,0.00035581,3578.4,-0.00011126,68.998,-0.00012045,-0.00086037,0.62768
26708,9.1586,3.0909,0.1,0.00035714,3568.9,0.00035832,3604.7,-0.00011177,72.617,-0.00012143,-0.00066972,0.61681
26709,9.2507,2.8182,0.1,0.00035472,3544.8,0.00035584,3578.5,-0.00011131,68.568,-0.00012044,-0.00096334,0.62764
26710,9.1586,2.9091,0.1,0.00035714,3568.9,0.00035832,3604.7,-0.00011177,72.617,-0.00012143,-0.00066969,0.61681
26711,9.2507,2.6364,0.1,0.00035482,3545.8,0.00035592,3578.9,-0.00011145,67.287,-0.00012041,-0.0012666,0.62753
26712,9.1586,2.7273,0.1,0.00035721,3569.6,0.00035838,3604.9,-0.00011187,71.704,-0.00012141,-0.00089674,0.61673
26713,9.2507,2.4545,0.1,0.00035499,3547.5,0.00035605,3579.6,-0.00011169,65.185,-0.00012036,-0.0017543,0.62734
26714,9.1586,2.5455,0.1,0.00035735,3571,0.00035849,3605.5,-0.00011207,69.9,-0.00012137,-0.0013385,0.61658
26715,9.2507,2.2727,0.1,0.00035522,3549.8,0.00035624,3580.5,-0.000112,62.306,-0.0001203,-0.0024023,0.62709
26716,9.1586,2.3636,0.1,0.00035756,3573.1,0.00035866,3606.3,-0.00011236,67.245,-0.00012131,-0.0019714,0.61636
26717,9.2507,2.0909,0.1,0.00035551,3552.7,0.00035647,3581.6,-0.0001124,58.713,-0.00012022,-0.0031788,0.62675
26718,9.1586,2.1818,0.1,0.00035783,3575.9,0.00035887,3607.3,-0.00011274,63.8,-0.00012123,-0.0027653,0.61607
26719,9.2507,1.9091,0.1,0.00035585,3556.1,0.00035675,3583,-0.00011287,54.478,-0.00012012,-0.0040462,0.62635
26720,9.1586,2,0.1,0.00035816,3579.1,0.00035914,3608.6,-0.0001132,59.639,-0.00012114,-0.0036804,0.61569
26721,9.2507,1.7273,0.1,0.00035624,3560,0.00035706,3584.6,-0.0001134,49.685,-0.00012001,-0.0049664,0.62587
26722,9.1586,1.8182,0.1,0.00035854,3583,0.00035945,3610.1,-0.00011373,54.849,-0.00012103,-0.0046726,0.61525
26723,9.2507,1.5455,0.1,0.00035668,3564.3,0.00035741,3586.3,-0.00011398,44.423,-0.0001199,-0.005906,0.62531
26724,9.1586,1.6364,0.1,0.00035897,3587.2,0.00035979,3611.8,-0.00011431,49.524,-0.00012091,-0.0057007,0.61473
26725,9.2507,1.3636,0.1,0.00035714,3569,0.00035779,3588.2,-0.00011461,38.78,-0.00011977,-0.0068299,0.62468
26726,9.1586,1.4545,0.1,0.00035944,3591.9,0.00036016,3613.6,-0.00011495,43.764,-0.00012078,-0.0067323,0.61413
26727,9.2507,1.1818,0.1,0.00035764,3574,0.00035819,3590.3,-0.00011527,32.845,-0.00011965,-0.0077472,0.62397
26728,9.1586,1.2727,0.1,0.00035994,3596.9,0.00036057,3615.6,-0.00011563,37.666,-0.00012064,-0.0077249,0.61346
26729,9.2507,1,0.1,0.00035817,3579.2,0.00035861,3592.5,-0.00011596,26.7,-0.00011952,-0.0085906,0.62319
26730,9.1586,1.0909,0.1,0.00036047,3602.2,0.00036099,3617.7,-0.00011633,31.324,-0.0001205,-0.0087403,0.61271
26731,9.2507,0.81818,0.1,0.00035871,3584.6,0.00035905,3594.8,-0.00011667,20.417,-0.00011938,-0.0098157,0.62233
26732,9.1586,0.90909,0.1,0.00036102,3607.7,0.00036143,3620,-0.00011706,24.82,-0.00012036,-0.0095885,0.61189
26733,9.2507,0.63636,0.1,0.00035927,3590.2,0.0003595,3597.2,-0.00011738,14.056,-0.00011925,-0.010206,0.6214
26734,9.1586,0.72727,0.1,0.00036158,3613.3,0.00036189,3622.4,-0.0001178,18.228,-0.00012023,-0.011446,0.61099
26735,9.2507,0.45455,0.1,0.00035985,3596,0.00035997,3599.8,-0.00011811,7.6353,-0.00011913,-0.01937,0.62038
26736,9.1586,0.54545,0.1,0.00036216,3619.2,0.00036236,3624.9,-0.00011854,11.604,-0.00012009,-0.010806,0.61001
26737,9.2507,0.27273,0.1,0.0003605,3602.5,0.00036051,3602.9,-0.00011889,0.87189,-0.00011902,-0.12244,0.61929
26738,9.1586,0.36364,0.1,0.00036277,3625.2,0.00036285,3627.6,-0.0001193,4.932,-0.00011996,-0.033338,0.60895
26739,9.1586,0.18182,0.1,0.00036351,3632.6,0.00036346,3631.3,-0.00011982,0.080806,-0.00012018,-2.6653,0.60781
26740,9.2507,0.090909,0.1,0.00036069,3604.4,0.00036065,3603.1,-0.00011889,0.020091,-0.00011926,-2.7304,0.61813
26741,9.0664,5.7273,0.1,0.00036576,3655.1,0.00036579,3655.9,-0.00012055,1.7117,-0.00012079,-0.079446,0.59755
26742,8.9742,5.8182,0.1,0.00036878,3685.3,0.00036875,3684.3,-0.00012159,0.11912,-0.00012187,-2.0005,0.58618
26743,9.0664,5.9091,0.1,0.00036599,3657.4,0.00036596,3656.3,-0.00012066,0.028099,-0.00012097,-2.3157,0.59636
26744,9.0664,5.5455,0.1,0.00036508,3648.3,0.00036523,3652.8,-0.00011973,8.9165,-0.00012092,-0.021549,0.59865
26745,8.9742,5.6364,0.1,0.00036802,3677.7,0.00036812,3680.7,-0.00012094,5.9942,-0.00012175,-0.036158,0.58733
26746,9.0664,5.3636,0.1,0.00036448,3642.3,0.00036474,3650.1,-0.00011896,15.792,-0.00012106,-0.011592,0.59967
26747,8.9742,5.4545,0.1,0.00036739,3671.4,0.00036761,3677.9,-0.00012014,13.106,-0.00012189,-0.012357,0.5884
26748,9.0664,5.1818,0.1,0.00036389,3636.4,0.00036427,3647.6,-0.00011819,22.646,-0.0001212,-0.011063,0.60062
26749,8.9742,5.2727,0.1,0.00036678,3665.3,0.00036712,3675.4,-0.00011935,20.218,-0.00012204,-0.012926,0.58939
26750,9.0664,5,0.1,0.00036332,3630.7,0.00036381,3645.3,-0.00011743,29.458,-0.00012135,-0.0096604,0.60149
26751,8.9742,5.0909,0.1,0.00036619,3659.4,0.00036665,3672.9,-0.00011855,27.342,-0.00012219,-0.010849,0.5903
26752,9.0664,4.8182,0.1,0.00036276,3625.1,0.00036336,3643.1,-0.00011669,36.158,-0.0001215,-0.0086698,0.60228
26753,8.9742,4.9091,0.1,0.00036561,3653.6,0.00036618,3670.6,-0.00011777,34.414,-0.00012235,-0.0098579,0.59114
26754,9.0664,4.6364,0.1,0.00036223,3619.8,0.00036294,3641,-0.00011597,42.663,-0.00012164,-0.0075916,0.60299
26755,8.9742,4.7273,0.1,0.00036505,3648,0.00036574,3668.5,-0.000117,41.352,-0.00012251,-0.0086782,0.59189
26756,9.0664,4.4545,0.1,0.00036173,3614.8,0.00036254,3639,-0.00011528,48.877,-0.00012179,-0.0064974,0.60363
26757,8.9742,4.5455,0.1,0.00036452,3642.7,0.00036531,3666.4,-0.00011627,48.058,-0.00012266,-0.0075094,0.59257
26758,9.0664,4.2727,0.1,0.00036127,3610.2,0.00036217,3637.3,-0.00011464,54.698,-0.00012192,-0.00538,0.60419
26759,8.9742,4.3636,0.1,0.00036402,3637.7,0.00036491,3664.6,-0.00011557,54.423,-0.00012281,-0.0062884,0.59317
26760,9.0664,4.0909,0.1,0.00036085,3606,0.00036183,3635.7,-0.00011405,60.019,-0.00012204,-0.0042805,0.60468
26761,8.9742,4.1818,0.1,0.00036356,3633.1,0.00036455,3662.9,-0.00011492,60.331,-0.00012295,-0.0050645,0.5937
26762,9.0664,3.9091,0.1,0.00036048,3602.3,0.00036154,3634.3,-0.00011354,64.735,-0.00012215,-0.0032405,0.60509
26763,8.9742,4,0.1,0.00036315,3629,0.00036422,3661.4,-0.00011434,65.665,-0.00012308,-0.0038776,0.59415
26764,9.0664,3.7273,0.1,0.00036017,3599.2,0.00036129,3633.1,-0.00011309,68.748,-0.00012225,-0.0023076,0.60542
26765,8.9742,3.8182,0.1,0.00036279,3625.4,0.00036394,3660.1,-0.00011383,70.313,-0.00012319,-0.0027805,0.59452
26766,9.0664,3.5455,0.1,0.00035992,3596.7,0.00036109,3632.2,-0.00011274,71.969,-0.00012232,-0.0015282,0.60568
26767,8.9742,3.6364,0.1,0.0003625,3622.5,0.0003637,3659,-0.00011341,74.17,-0.00012328,-0.0018264,0.59482
26768,9.0664,3.3636,0.1,0.00035974,3594.9,0.00036094,3631.5,-0.00011248,74.325,-0.00012238,-0.00094085,0.60587
26769,8.9742,3.4545,0.1,0.00036227,3620.2,0.00036352,3658.2,-0.00011308,77.147,-0.00012335,-0.0010649,0.59504
26770,9.0664,3.1818,0.1,0.00035963,3593.8,0.00036085,3631.1,-0.00011233,75.761,-0.00012241,-0.00057504,0.60598
26771,8.9742,3.2727,0.1,0.00036212,3618.7,0.0003634,3657.6,-0.00011286,79.174,-0.0001234,-0.00053263,0.59519
26772,9.0664,3,0.1,0.00035959,3593.4,0.00036082,3630.9,-0.00011227,76.244,-0.00012242,-0.00045081,0.60602
26773,8.9742,3.0909,0.1,0.00036204,3617.9,0.00036334,3657.3,-0.00011275,80.2,-0.00012342,-0.00025912,0.59527
26774,9.0664,2.8182,0.1,0.00035963,3593.8,0.00036085,3631.1,-0.00011233,75.761,-0.00012241,-0.00057501,0.60598
26775,8.9742,2.9091,0.1,0.00036204,3617.9,0.00036334,3657.3,-0.00011275,80.2,-0.00012342,-0.00025903,0.59527
26776,9.0664,2.6364,0.1,0.00035974,3594.9,0.00036094,3631.5,-0.00011248,74.325,-0.00012238,-0.00094088,0.60587
26777,8.9742,2.7273,0.1,0.00036212,3618.7,0.0003634,3657.6,-0.00011286,79.174,-0.0001234,-0.00053278,0.59519
26778,9.0664,2.4545,0.1,0.00035992,3596.7,0.00036109,3632.2,-0.00011274,71.969,-0.00012232,-0.0015285,0.60568
26779,8.9742,2.5455,0.1,0.00036227,3620.2,0.00036352,3658.2,-0.00011308,77.147,-0.00012335,-0.001065,0.59504
26780,9.0664,2.2727,0.1,0.00036017,3599.2,0.00036129,3633.1,-0.00011309,68.748,-0.00012225,-0.0023079,0.60542
26781,8.9742,2.3636,0.1,0.0003625,3622.5,0.0003637,3659,-0.00011341,74.17,-0.00012328,-0.0018268,0.59482
26782,9.0664,2.0909,0.1,0.00036048,3602.3,0.00036154,3634.3,-0.00011354,64.735,-0.00012215,-0.003241,0.60509
26783,8.9742,2.1818,0.1,0.00036279,3625.4,0.00036394,3660.1,-0.00011383,70.313,-0.00012319,-0.0027808,0.59452
26784,9.0664,1.9091,0.1,0.00036085,3606,0.00036183,3635.7,-0.00011405,60.019,-0.00012204,-0.004281,0.60468
26785,8.9742,2,0.1,0.00036315,3629,0.00036422,3661.4,-0.00011434,65.665,-0.00012308,-0.0038783,0.59415
26786,9.0664,1.7273,0.1,0.00036127,3610.2,0.00036217,3637.3,-0.00011464,54.698,-0.00012192,-0.0053804,0.60419
26787,8.9742,1.8182,0.1,0.00036356,3633.1,0.00036455,3662.9,-0.00011492,60.331,-0.00012295,-0.005065,0.5937
26788,9.0664,1.5455,0.1,0.00036173,3614.8,0.00036254,3639,-0.00011528,48.877,-0.00012179,-0.006498,0.60363
26789,8.9742,1.6364,0.1,0.00036402,3637.7,0.00036491,3664.6,-0.00011557,54.423,-0.00012281,-0.0062892,0.59317
26790,9.0664,1.3636,0.1,0.00036223,3619.8,0.00036294,3641,-0.00011597,42.663,-0.00012164,-0.0075924,0.60299
26791,8.9742,1.4545,0.1,0.00036452,3642.7,0.00036531,3666.4,-0.00011627,48.058,-0.00012266,-0.0075101,0.59257
26792,9.0664,1.1818,0.1,0.00036276,3625.1,0.00036336,3643.1,-0.00011669,36.158,-0.0001215,-0.0086704,0.60228
26793,8.9742,1.2727,0.1,0.00036505,3648,0.00036574,3668.5,-0.000117,41.352,-0.00012251,-0.0086789,0.59189
26794,9.0664,1,0.1,0.00036332,3630.7,0.00036381,3645.3,-0.00011743,29.458,-0.00012135,-0.0096615,0.60149
26795,8.9742,1.0909,0.1,0.00036561,3653.6,0.00036618,3670.6,-0.00011777,34.414,-0.00012235,-0.0098586,0.59114
26796,9.0664,0.81818,0.1,0.00036389,3636.4,0.00036427,3647.6,-0.00011819,22.646,-0.0001212,-0.011064,0.60062
26797,8.9742,0.90909,0.1,0.00036619,3659.4,0.00036665,3672.9,-0.00011855,27.342,-0.0001222,-0.010851,0.5903
26798,9.0664,0.63636,0.1,0.00036448,3642.3,0.00036474,3650.1,-0.00011896,15.792,-0.00012106,-0.011593,0.59967
26799,8.9742,0.72727,0.1,0.00036678,3665.3,0.00036712,3675.4,-0.00011935,20.218,-0.00012204,-0.012928,0.58939
26800,9.0664,0.45455,0.1,0.00036508,3648.3,0.00036523,3652.8,-0.00011973,8.9165,-0.00012092,-0.02155,0.59865
26801,8.9742,0.54545,0.1,0.00036739,3671.4,0.00036761,3677.9,-0.00012014,13.106,-0.00012189,-0.012358,0.5884
26802,9.0664,0.27273,0.1,0.00036576,3655.1,0.00036579,3655.9,-0.00012055,1.7117,-0.00012079,-0.079447,0.59755
26803,8.9742,0.36364,0.1,0.00036802,3677.7,0.00036812,3680.7,-0.00012094,5.9942,-0.00012175,-0.036159,0.58733
26804,8.9742,0.18182,0.1,0.00036878,3685.3,0.00036875,3684.3,-0.00012159,0.11912,-0.00012187,-2.0005,0.58618
26805,9.0664,0.090909,0.1,0.00036599,3657.4,0.00036596,3656.3,-0.00012066,0.028098,-0.00012097,-2.3157,0.59636
26806,8.882,5.7273,0.1,0.00037103,3707.8,0.00037107,3709,-0.00012222,2.5757,-0.00012257,-0.065862,0.57605
26807,8.7898,5.8182,0.1,0.00037406,3738,0.00037404,3737.4,-0.00012336,0.19059,-0.00012356,-1.3796,0.5648
26808,8.882,5.9091,0.1,0.0003713,3710.5,0.00037127,3709.5,-0.00012243,0.039849,-0.00012269,-1.9074,0.57485
26809,8.882,5.5455,0.1,0.00037033,3700.7,0.0003705,3705.8,-0.00012135,10.199,-0.00012272,-0.023889,0.57716
26810,8.7898,5.6364,0.1,0.00037328,3730.2,0.0003734,3733.7,-0.00012259,7.0426,-0.00012354,-0.03917,0.56596
26811,8.882,5.3636,0.1,0.0003697,3694.4,0.00036999,3703.2,-0.00012053,17.547,-0.00012287,-0.013185,0.5782
26812,8.7898,5.4545,0.1,0.00037263,3723.7,0.00037288,3731,-0.00012175,14.604,-0.00012369,-0.014123,0.56704
26813,8.882,5.1818,0.1,0.00036908,3688.3,0.0003695,3700.7,-0.00011971,24.928,-0.00012303,-0.01253,0.57915
26814,8.7898,5.2727,0.1,0.00037199,3717.4,0.00037237,3728.4,-0.0001209,22.229,-0.00012386,-0.014639,0.56804
26815,8.882,5,0.1,0.00036848,3682.2,0.00036902,3698.3,-0.00011889,32.311,-0.0001232,-0.010953,0.58003
26816,8.7898,5.0909,0.1,0.00037137,3711.1,0.00037187,3726,-0.00012005,29.923,-0.00012403,-0.012357,0.56897
26817,8.882,4.8182,0.1,0.00036789,3676.4,0.00036855,3696,-0.00011809,39.621,-0.00012336,-0.0098069,0.58083
26818,8.7898,4.9091,0.1,0.00037076,3705,0.00037139,3723.7,-0.0001192,37.617,-0.00012421,-0.01122,0.56981
26819,8.882,4.6364,0.1,0.00036733,3670.8,0.0003681,3693.9,-0.0001173,46.759,-0.00012353,-0.0085518,0.58155
26820,8.7898,4.7273,0.1,0.00037017,3699.1,0.00037092,3721.5,-0.00011837,45.213,-0.00012439,-0.0098633,0.57057
26821,8.882,4.4545,0.1,0.0003668,3665.5,0.00036768,3692,-0.00011655,53.615,-0.00012369,-0.0072632,0.58219
26822,8.7898,4.5455,0.1,0.0003696,3693.5,0.00037047,3719.5,-0.00011756,52.599,-0.00012457,-0.0084971,0.57126
26823,8.882,4.2727,0.1,0.0003663,3660.5,0.00036729,3690.2,-0.00011585,60.066,-0.00012384,-0.0059387,0.58276
26824,8.7898,4.3636,0.1,0.00036907,3688.2,0.00037005,3717.6,-0.0001168,59.645,-0.00012474,-0.0070573,0.57186
26825,8.882,4.0909,0.1,0.00036585,3656,0.00036693,3688.6,-0.0001152,65.986,-0.00012399,-0.0046284,0.58325
26826,8.7898,4.1818,0.1,0.00036858,3683.3,0.00036966,3715.9,-0.00011608,66.215,-0.0001249,-0.0056036,0.57239
26827,8.882,3.9091,0.1,0.00036546,3652,0.00036662,3687.1,-0.00011463,71.251,-0.00012411,-0.0033843,0.58366
26828,8.7898,4,0.1,0.00036814,3678.8,0.00036931,3714.4,-0.00011544,72.169,-0.00012504,-0.0041871,0.57285
26829,8.882,3.7273,0.1,0.00036512,3648.7,0.00036635,3685.9,-0.00011414,75.743,-0.00012422,-0.0022653,0.584
26830,8.7898,3.8182,0.1,0.00036775,3675,0.00036901,3713.1,-0.00011487,77.373,-0.00012517,-0.0028729,0.57322
26831,8.882,3.5455,0.1,0.00036485,3646,0.00036613,3685,-0.00011375,79.356,-0.00012431,-0.0013284,0.58426
26832,8.7898,3.6364,0.1,0.00036744,3671.8,0.00036876,3712,-0.0001144,81.703,-0.00012528,-0.0017275,0.57353
26833,8.882,3.3636,0.1,0.00036465,3644,0.00036598,3684.3,-0.00011346,82.004,-0.00012437,-0.00062132,0.58445
26834,8.7898,3.4545,0.1,0.00036719,3669.4,0.00036856,3711.2,-0.00011404,85.052,-0.00012536,-0.00081099,0.57375
26835,8.882,3.1818,0.1,0.00036453,3642.8,0.00036588,3683.9,-0.00011328,83.619,-0.00012441,-0.00018092,0.58456
26836,8.7898,3.2727,0.1,0.00036703,3667.7,0.00036843,3710.6,-0.0001138,87.334,-0.00012542,-0.00017051,0.5739
26837,8.882,3,0.1,0.00036449,3642.4,0.00036585,3683.7,-0.00011323,84.163,-0.00012443,-3.139e-05,0.5846
26838,8.7898,3.0909,0.1,0.00036694,3666.9,0.00036837,3710.3,-0.00011367,88.49,-0.00012545,0.00015921,0.57398
26839,8.882,2.8182,0.1,0.00036453,3642.8,0.00036588,3683.9,-0.00011328,83.619,-0.00012441,-0.00018101,0.58456
26840,8.7898,2.9091,0.1,0.00036694,3666.9,0.00036837,3710.3,-0.00011367,88.49,-0.00012545,0.00015948,0.57398
26841,8.882,2.6364,0.1,0.00036465,3644,0.00036598,3684.3,-0.00011346,82.004,-0.00012437,-0.00062159,0.58445
26842,8.7898,2.7273,0.1,0.00036703,3667.7,0.00036843,3710.6,-0.0001138,87.334,-0.00012542,-0.00017045,0.5739
26843,8.882,2.4545,0.1,0.00036485,3646,0.00036613,3685,-0.00011375,79.356,-0.00012431,-0.0013287,0.58426
26844,8.7898,2.5455,0.1,0.00036719,3669.4,0.00036856,3711.2,-0.00011404,85.052,-0.00012536,-0.00081146,0.57375
26845,8.882,2.2727,0.1,0.00036512,3648.7,0.00036635,3685.9,-0.00011414,75.743,-0.00012422,-0.0022657,0.584
26846,8.7898,2.3636,0.1,0.00036744,3671.8,0.00036876,3712,-0.0001144,81.703,-0.00012528,-0.0017279,0.57353
26847,8.882,2.0909,0.1,0.00036546,3652,0.00036662,3687.1,-0.00011463,71.251,-0.00012411,-0.0033848,0.58366
26848,8.7898,2.1818,0.1,0.00036775,3675,0.00036901,3713.1,-0.00011487,77.373,-0.00012517,-0.0028733,0.57322
26849,8.882,1.9091,0.1,0.00036585,3656,0.00036693,3688.6,-0.0001152,65.986,-0.00012399,-0.0046291,0.58325
26850,8.7898,2,0.1,0.00036814,3678.8,0.00036931,3714.4,-0.00011544,72.169,-0.00012504,-0.0041875,0.57285
26851,8.882,1.7273,0.1,0.0003663,3660.5,0.00036729,3690.2,-0.00011585,60.066,-0.00012384,-0.0059396,0.58276
26852,8.7898,1.8182,0.1,0.00036858,3683.3,0.00036966,3715.9,-0.00011608,66.215,-0.0001249,-0.0056041,0.57239
26853,8.882,1.5455,0.1,0.0003668,3665.5,0.00036768,3692,-0.00011655,53.615,-0.00012369,-0.0072641,0.58219
26854,8.7898,1.6364,0.1,0.00036907,3688.2,0.00037005,3717.6,-0.0001168,59.645,-0.00012474,-0.0070582,0.57186
26855,8.882,1.3636,0.1,0.00036733,3670.8,0.0003681,3693.9,-0.0001173,46.759,-0.00012353,-0.0085524,0.58155
26856,8.7898,1.4545,0.1,0.0003696,3693.5,0.00037047,3719.5,-0.00011756,52.599,-0.00012457,-0.0084978,0.57126
26857,8.882,1.1818,0.1,0.00036789,3676.4,0.00036855,3696,-0.00011809,39.621,-0.00012336,-0.0098077,0.58083
26858,8.7898,1.2727,0.1,0.00037017,3699.1,0.00037092,3721.5,-0.00011837,45.213,-0.00012439,-0.0098639,0.57057
26859,8.882,1,0.1,0.00036848,3682.2,0.00036902,3698.3,-0.00011889,32.311,-0.0001232,-0.010954,0.58003
26860,8.7898,1.0909,0.1,0.00037076,3705,0.00037139,3723.7,-0.0001192,37.617,-0.00012421,-0.011221,0.56981
26861,8.882,0.81818,0.1,0.00036908,3688.3,0.0003695,3700.7,-0.00011971,24.928,-0.00012303,-0.012531,0.57915
26862,8.7898,0.90909,0.1,0.00037137,3711.1,0.00037187,3726,-0.00012005,29.923,-0.00012403,-0.012359,0.56897
26863,8.882,0.63636,0.1,0.0003697,3694.4,0.00036999,3703.2,-0.00012053,17.547,-0.00012287,-0.013187,0.5782
26864,8.7898,0.72727,0.1,0.00037199,3717.4,0.00037237,3728.4,-0.0001209,22.229,-0.00012386,-0.014641,0.56804
26865,8.882,0.45455,0.1,0.00037033,3700.7,0.0003705,3705.8,-0.00012135,10.199,-0.00012272,-0.02389,0.57716
26866,8.7898,0.54545,0.1,0.00037263,3723.7,0.00037288,3731,-0.00012175,14.604,-0.00012369,-0.014123,0.56704
26867,8.882,0.27273,0.1,0.00037103,3707.8,0.00037107,3709,-0.00012222,2.5757,-0.00012257,-0.065863,0.57605
26868,8.7898,0.36364,0.1,0.00037328,3730.2,0.0003734,3733.7,-0.00012259,7.0426,-0.00012354,-0.039171,0.56596
26869,8.7898,0.18182,0.1,0.00037406,3738,0.00037404,3737.4,-0.00012336,0.19059,-0.00012356,-1.3796,0.5648
26870,8.882,0.090909,0.1,0.0003713,3710.5,0.00037127,3709.5,-0.00012243,0.039848,-0.00012269,-1.9074,0.57485
26871,8.6976,5.7273,0.1,0.0003763,3760.4,0.00037636,3762.1,-0.00012389,3.4285,-0.00012435,-0.060539,0.5548
26872,8.6055,5.8182,0.1,0.00037934,3790.7,0.00037933,3790.5,-0.00012511,0.33723,-0.00012527,-0.85669,0.54368
26873,8.6976,5.9091,0.1,0.00037661,3763.5,0.00037659,3762.8,-0.0001242,0.057674,-0.00012441,-1.5137,0.55359
26874,8.6976,5.5455,0.1,0.00037558,3753.2,0.00037577,3758.9,-0.00012298,11.463,-0.00012451,-0.026399,0.55593
26875,8.6055,5.6364,0.1,0.00037854,3782.8,0.00037868,3786.8,-0.00012424,8.0569,-0.00012532,-0.042341,0.54485
26876,8.6976,5.3636,0.1,0.00037492,3746.7,0.00037525,3756.3,-0.00012211,19.301,-0.00012468,-0.015019,0.55697
26877,8.6055,5.4545,0.1,0.00037787,3776.1,0.00037814,3784.1,-0.00012335,16.074,-0.00012549,-0.01615,0.54594
26878,8.6976,5.1818,0.1,0.00037428,3740.2,0.00037474,3753.8,-0.00012123,27.238,-0.00012486,-0.014255,0.55794
26879,8.6055,5.2727,0.1,0.00037721,3769.5,0.00037762,3781.6,-0.00012245,24.234,-0.00012568,-0.016637,0.54695
26880,8.6976,5,0.1,0.00037365,3733.9,0.00037424,3751.4,-0.00012036,35.242,-0.00012505,-0.012513,0.55882
26881,8.6055,5.0909,0.1,0.00037656,3763,0.0003771,3779.2,-0.00012154,32.54,-0.00012587,-0.014173,0.54788
26882,8.6976,4.8182,0.1,0.00037303,3727.8,0.00037375,3749.2,-0.00011948,43.221,-0.00012524,-0.011204,0.55963
26883,8.6055,4.9091,0.1,0.00037592,3756.6,0.0003766,3776.9,-0.00012063,40.911,-0.00012608,-0.012891,0.54873
26884,8.6976,4.6364,0.1,0.00037244,3721.8,0.00037328,3747.1,-0.00011863,51.064,-0.00012543,-0.0097538,0.56036
26885,8.6055,4.7273,0.1,0.0003753,3750.4,0.00037611,3774.8,-0.00011973,49.238,-0.00012628,-0.011344,0.5495
26886,8.6976,4.4545,0.1,0.00037187,3716.2,0.00037284,3745.1,-0.00011781,58.639,-0.00012561,-0.0082445,0.56101
26887,8.6055,4.5455,0.1,0.0003747,3744.4,0.00037564,3772.8,-0.00011884,57.384,-0.00012648,-0.009755,0.55019
26888,8.6976,4.2727,0.1,0.00037135,3710.9,0.00037242,3743.3,-0.00011703,65.803,-0.00012579,-0.006679,0.56158
26889,8.6055,4.3636,0.1,0.00037413,3738.8,0.0003752,3770.9,-0.000118,65.2,-0.00012668,-0.0080626,0.55081
26890,8.6976,4.0909,0.1,0.00037086,3706.1,0.00037204,3741.7,-0.00011632,72.406,-0.00012595,-0.0051202,0.56207
26891,8.6055,4.1818,0.1,0.00037361,3733.5,0.00037479,3769.2,-0.00011721,72.522,-0.00012687,-0.0063382,0.55134
26892,8.6976,3.9091,0.1,0.00037043,3701.8,0.0003717,3740.3,-0.00011568,78.298,-0.0001261,-0.0036334,0.56249
26893,8.6055,4,0.1,0.00037313,3728.8,0.00037442,3767.7,-0.0001165,79.184,-0.00012704,-0.0046491,0.5518
26894,8.6976,3.7273,0.1,0.00037007,3698.2,0.00037142,3739.1,-0.00011514,83.34,-0.00012623,-0.0022919,0.56283
26895,8.6055,3.8182,0.1,0.00037272,3724.7,0.0003741,3766.4,-0.00011587,85.026,-0.00012719,-0.0030755,0.55218
26896,8.6976,3.5455,0.1,0.00036978,3695.2,0.00037119,3738.2,-0.0001147,87.405,-0.00012633,-0.0011661,0.5631
26897,8.6055,3.6364,0.1,0.00037238,3721.2,0.00037383,3765.4,-0.00011535,89.9,-0.00012731,-0.0017005,0.55248
26898,8.6976,3.3636,0.1,0.00036957,3693.1,0.00037102,3737.5,-0.00011438,90.388,-0.00012641,-0.00031535,0.56328
26899,8.6055,3.4545,0.1,0.00037212,3718.6,0.00037362,3764.5,-0.00011494,93.677,-0.00012741,-0.00059822,0.55271
26900,8.6976,3.1818,0.1,0.00036944,3691.8,0.00037092,3737,-0.00011418,92.211,-0.00012645,0.00021499,0.5634
26901,8.6055,3.2727,0.1,0.00037194,3716.8,0.00037348,3764,-0.00011467,96.254,-0.00012748,0.00017329,0.55286
26902,8.6976,3,0.1,0.00036939,3691.4,0.00037088,3736.9,-0.00011411,92.824,-0.00012647,0.00039565,0.56344
26903,8.6055,3.0909,0.1,0.00037184,3715.9,0.00037341,3763.7,-0.00011452,97.561,-0.00012751,0.00057054,0.55294
26904,8.6976,2.8182,0.1,0.00036944,3691.8,0.00037092,3737,-0.00011418,92.211,-0.00012645,0.00021541,0.5634
26905,8.6055,2.9091,0.1,0.00037184,3715.9,0.00037341,3763.7,-0.00011452,97.561,-0.00012751,0.00057066,0.55294
26906,8.6976,2.6364,0.1,0.00036957,3693.1,0.00037102,3737.5,-0.00011438,90.388,-0.00012641,-0.00031549,0.56328
26907,8.6055,2.7273,0.1,0.00037194,3716.8,0.00037348,3764,-0.00011467,96.254,-0.00012748,0.00017317,0.55286
26908,8.6976,2.4545,0.1,0.00036978,3695.2,0.00037119,3738.2,-0.0001147,87.405,-0.00012633,-0.0011666,0.5631
26909,8.6055,2.5455,0.1,0.00037212,3718.6,0.00037362,3764.5,-0.00011494,93.677,-0.00012741,-0.00059849,0.55271
26910,8.6976,2.2727,0.1,0.00037007,3698.2,0.00037142,3739.1,-0.00011514,83.34,-0.00012623,-0.0022925,0.56283
26911,8.6055,2.3636,0.1,0.00037238,3721.2,0.00037383,3765.4,-0.00011535,89.9,-0.00012731,-0.0017009,0.55248
26912,8.6976,2.0909,0.1,0.00037043,3701.8,0.0003717,3740.3,-0.00011568,78.298,-0.0001261,-0.0036337,0.56249
26913,8.6055,2.1818,0.1,0.00037272,3724.7,0.0003741,3766.4,-0.00011587,85.026,-0.00012719,-0.0030761,0.55218
26914,8.6976,1.9091,0.1,0.00037086,3706.1,0.00037204,3741.7,-0.00011632,72.406,-0.00012595,-0.0051204,0.56207
26915,8.6055,2,0.1,0.00037313,3728.8,0.00037442,3767.7,-0.0001165,79.184,-0.00012704,-0.0046494,0.5518
26916,8.6976,1.7273,0.1,0.00037135,3710.9,0.00037242,3743.3,-0.00011703,65.803,-0.00012579,-0.0066795,0.56158
26917,8.6055,1.8182,0.1,0.00037361,3733.5,0.00037479,3769.2,-0.00011721,72.522,-0.00012687,-0.0063387,0.55134
26918,8.6976,1.5455,0.1,0.00037187,3716.2,0.00037284,3745.1,-0.00011781,58.639,-0.00012561,-0.0082451,0.56101
26919,8.6055,1.6364,0.1,0.00037413,3738.8,0.0003752,3770.9,-0.000118,65.2,-0.00012668,-0.008063,0.55081
26920,8.6976,1.3636,0.1,0.00037244,3721.8,0.00037328,3747.1,-0.00011863,51.064,-0.00012543,-0.0097544,0.56036
26921,8.6055,1.4545,0.1,0.0003747,3744.4,0.00037564,3772.8,-0.00011884,57.384,-0.00012648,-0.0097559,0.55019
26922,8.6976,1.1818,0.1,0.00037303,3727.8,0.00037375,3749.2,-0.00011948,43.221,-0.00012524,-0.011205,0.55963
26923,8.6055,1.2727,0.1,0.0003753,3750.4,0.00037611,3774.8,-0.00011973,49.238,-0.00012628,-0.011345,0.5495
26924,8.6976,1,0.1,0.00037365,3733.9,0.00037424,3751.4,-0.00012036,35.242,-0.00012505,-0.012514,0.55882
26925,8.6055,1.0909,0.1,0.00037592,3756.6,0.0003766,3776.9,-0.00012063,40.912,-0.00012608,-0.012891,0.54873
26926,8.6976,0.81818,0.1,0.00037428,3740.2,0.00037474,3753.8,-0.00012123,27.238,-0.00012486,-0.014257,0.55794
26927,8.6055,0.90909,0.1,0.00037656,3763,0.0003771,3779.2,-0.00012154,32.54,-0.00012587,-0.014174,0.54788
26928,8.6976,0.63636,0.1,0.00037492,3746.7,0.00037525,3756.3,-0.00012211,19.301,-0.00012468,-0.01502,0.55697
26929,8.6055,0.72727,0.1,0.00037721,3769.5,0.00037762,3781.6,-0.00012245,24.234,-0.00012568,-0.016638,0.54695
26930,8.6976,0.45455,0.1,0.00037558,3753.2,0.00037577,3758.9,-0.00012298,11.463,-0.00012451,-0.0264,0.55593
26931,8.6055,0.54545,0.1,0.00037787,3776.1,0.00037814,3784.1,-0.00012335,16.074,-0.00012549,-0.016151,0.54594
26932,8.6976,0.27273,0.1,0.0003763,3760.4,0.00037636,3762.1,-0.00012389,3.4285,-0.00012435,-0.060541,0.5548
26933,8.6055,0.36364,0.1,0.00037854,3782.8,0.00037868,3786.8,-0.00012424,8.0569,-0.00012532,-0.042342,0.54485
26934,8.6055,0.18182,0.1,0.00037934,3790.8,0.00037933,3790.5,-0.00012511,0.33723,-0.00012527,-0.85669,0.54368
26935,8.6976,0.090909,0.1,0.00037661,3763.5,0.00037659,3762.8,-0.0001242,0.057673,-0.00012441,-1.5137,0.55359
26936,8.5133,5.7273,0.1,0.00038157,3813.1,0.00038164,3815.1,-0.00012556,4.2471,-0.00012613,-0.058712,0.53381
26937,8.4211,5.8182,0.1,0.0003846,3843.4,0.0003846,3843.4,-0.00012684,0.62063,-0.00012699,-0.50854,0.52281
26938,8.5133,5.9091,0.1,0.00038191,3816.5,0.00038189,3815.9,-0.00012597,0.085805,-0.00012613,-1.1465,0.53259
26939,8.5133,5.5455,0.1,0.00038083,3805.7,0.00038104,3812,-0.00012461,12.683,-0.0001263,-0.02911,0.53495
26940,8.4211,5.6364,0.1,0.0003838,3835.3,0.00038395,3839.8,-0.0001259,9.0115,-0.0001271,-0.045658,0.52399
26941,8.5133,5.3636,0.1,0.00038015,3798.9,0.00038051,3809.4,-0.00012369,21.022,-0.00012649,-0.017158,0.536
26942,8.4211,5.4545,0.1,0.00038311,3828.4,0.0003834,3837.1,-0.00012496,17.483,-0.00012729,-0.018509,0.5251
26943,8.5133,5.1818,0.1,0.00037949,3792.3,0.00037998,3806.9,-0.00012276,29.55,-0.00012669,-0.016313,0.53698
26944,8.4211,5.2727,0.1,0.00038243,3821.7,0.00038287,3834.7,-0.00012401,26.199,-0.0001275,-0.018995,0.52612
26945,8.5133,5,0.1,0.00037883,3785.7,0.00037946,3804.6,-0.00012181,38.223,-0.0001269,-0.014419,0.53787
26946,8.4211,5.0909,0.1,0.00038176,3814.9,0.00038234,3832.4,-0.00012304,35.16,-0.00012772,-0.016383,0.52705
26947,8.5133,4.8182,0.1,0.00037818,3779.2,0.00037896,3802.5,-0.00012087,46.939,-0.00012712,-0.012943,0.53869
26948,8.4211,4.9091,0.1,0.00038109,3808.3,0.00038182,3830.2,-0.00012205,44.271,-0.00012795,-0.01496,0.52791
26949,8.5133,4.6364,0.1,0.00037756,3773,0.00037847,3800.4,-0.00011994,55.568,-0.00012734,-0.011278,0.53942
26950,8.4211,4.7273,0.1,0.00038044,3801.7,0.00038132,3828.2,-0.00012107,53.406,-0.00012818,-0.01321,0.52869
26951,8.5133,4.4545,0.1,0.00037696,3767,0.00037801,3798.5,-0.00011904,63.954,-0.00012755,-0.0095152,0.54008
26952,8.4211,4.5455,0.1,0.00037981,3795.4,0.00038083,3826.3,-0.00012011,62.407,-0.00012842,-0.011369,0.52939
26953,8.5133,4.2727,0.1,0.0003764,3761.4,0.00037757,3796.8,-0.00011818,71.926,-0.00012776,-0.0076677,0.54065
26954,8.4211,4.3636,0.1,0.00037921,3789.4,0.00038037,3824.5,-0.00011918,71.093,-0.00012864,-0.009382,0.53
26955,8.5133,4.0909,0.1,0.00037588,3756.2,0.00037717,3795.2,-0.00011739,79.307,-0.00012795,-0.0058141,0.54115
26956,8.4211,4.1818,0.1,0.00037865,3783.9,0.00037993,3822.9,-0.00011831,79.272,-0.00012886,-0.0073376,0.53054
26957,8.5133,3.9091,0.1,0.00037542,3751.6,0.00037681,3793.8,-0.00011669,85.918,-0.00012812,-0.0040378,0.54157
26958,8.4211,4,0.1,0.00037814,3778.8,0.00037954,3821.4,-0.00011751,86.745,-0.00012906,-0.0053229,0.531
26959,8.5133,3.7273,0.1,0.00037503,3747.7,0.0003765,3792.7,-0.00011608,91.592,-0.00012827,-0.0024296,0.54191
26960,8.4211,3.8182,0.1,0.0003777,3774.4,0.0003792,3820.2,-0.00011681,93.321,-0.00012924,-0.0034384,0.53139
26961,8.5133,3.5455,0.1,0.00037472,3744.6,0.00037626,3791.7,-0.00011559,96.177,-0.00012839,-0.001077,0.54218
26962,8.4211,3.6364,0.1,0.00037733,3770.7,0.00037892,3819.2,-0.00011623,98.821,-0.00012938,-0.0017871,0.53169
26963,8.5133,3.3636,0.1,0.00037449,3742.3,0.00037608,3791,-0.00011523,99.548,-0.00012848,-5.2907e-05,0.54237
26964,8.4211,3.4545,0.1,0.00037705,3767.9,0.00037869,3818.4,-0.00011578,103.09,-0.0001295,-0.00046062,0.53192
26965,8.5133,3.1818,0.1,0.00037434,3740.9,0.00037597,3790.6,-0.00011501,101.61,-0.00012853,0.00058619,0.54248
26966,8.4211,3.2727,0.1,0.00037685,3765.9,0.00037854,3817.8,-0.00011547,106.01,-0.00012958,0.00046912,0.53207
26967,8.5133,3,0.1,0.0003743,3740.4,0.00037593,3790.5,-0.00011494,102.3,-0.00012855,0.00080314,0.54252
26968,8.4211,3.0909,0.1,0.00037675,3764.9,0.00037847,3817.5,-0.00011531,107.49,-0.00012962,0.00094776,0.53215
26969,8.5133,2.8182,0.1,0.00037434,3740.9,0.00037597,3790.6,-0.00011501,101.61,-0.00012853,0.00058577,0.54248
26970,8.4211,2.9091,0.1,0.00037675,3764.9,0.00037847,3817.5,-0.00011531,107.49,-0.00012962,0.00094761,0.53215
26971,8.5133,2.6364,0.1,0.00037449,3742.3,0.00037608,3791,-0.00011523,99.548,-0.00012848,-5.3143e-05,0.54237
26972,8.4211,2.7273,0.1,0.00037685,3765.9,0.00037854,3817.8,-0.00011547,106.01,-0.00012958,0.0004688,0.53207
26973,8.5133,2.4545,0.1,0.00037472,3744.6,0.00037626,3791.7,-0.00011559,96.177,-0.00012839,-0.0010771,0.54218
26974,8.4211,2.5455,0.1,0.00037705,3767.9,0.00037869,3818.4,-0.00011578,103.09,-0.0001295,-0.00046068,0.53192
26975,8.5133,2.2727,0.1,0.00037503,3747.7,0.0003765,3792.7,-0.00011608,91.592,-0.00012827,-0.00243,0.54191
26976,8.4211,2.3636,0.1,0.00037733,3770.7,0.00037892,3819.2,-0.00011623,98.821,-0.00012938,-0.0017876,0.53169
26977,8.5133,2.0909,0.1,0.00037542,3751.6,0.00037681,3793.8,-0.00011669,85.918,-0.00012812,-0.0040382,0.54157
26978,8.4211,2.1818,0.1,0.0003777,3774.4,0.0003792,3820.2,-0.00011681,93.321,-0.00012924,-0.0034391,0.53139
26979,8.5133,1.9091,0.1,0.00037588,3756.2,0.00037717,3795.2,-0.00011739,79.307,-0.00012795,-0.0058146,0.54115
26980,8.4211,2,0.1,0.00037814,3778.8,0.00037954,3821.4,-0.00011751,86.745,-0.00012906,-0.0053231,0.531
26981,8.5133,1.7273,0.1,0.0003764,3761.4,0.00037757,3796.8,-0.00011818,71.926,-0.00012776,-0.0076681,0.54065
26982,8.4211,1.8182,0.1,0.00037865,3783.9,0.00037993,3822.9,-0.00011831,79.272,-0.00012886,-0.0073382,0.53054
26983,8.5133,1.5455,0.1,0.00037696,3767,0.00037801,3798.5,-0.00011904,63.954,-0.00012755,-0.0095159,0.54008
26984,8.4211,1.6364,0.1,0.00037921,3789.4,0.00038037,3824.5,-0.00011918,71.093,-0.00012864,-0.0093822,0.53
26985,8.5133,1.3636,0.1,0.00037756,3773,0.00037847,3800.4,-0.00011994,55.568,-0.00012734,-0.011279,0.53942
26986,8.4211,1.4545,0.1,0.00037981,3795.4,0.00038083,3826.3,-0.00012011,62.407,-0.00012842,-0.01137,0.52939
26987,8.5133,1.1818,0.1,0.00037818,3779.2,0.00037896,3802.5,-0.00012087,46.94,-0.00012712,-0.012944,0.53869
26988,8.4211,1.2727,0.1,0.00038044,3801.7,0.00038132,3828.2,-0.00012107,53.406,-0.00012818,-0.013211,0.52869
26989,8.5133,1,0.1,0.00037883,3785.7,0.00037946,3804.6,-0.00012181,38.223,-0.0001269,-0.014421,0.53787
26990,8.4211,1.0909,0.1,0.00038109,3808.3,0.00038182,3830.2,-0.00012205,44.271,-0.00012795,-0.01496,0.52791
26991,8.5133,0.81818,0.1,0.00037949,3792.3,0.00037998,3806.9,-0.00012276,29.55,-0.00012669,-0.016314,0.53698
26992,8.4211,0.90909,0.1,0.00038176,3814.9,0.00038234,3832.4,-0.00012304,35.16,-0.00012772,-0.016384,0.52705
26993,8.5133,0.63636,0.1,0.00038015,3798.9,0.00038051,3809.4,-0.00012369,21.022,-0.00012649,-0.017159,0.536
26994,8.4211,0.72727,0.1,0.00038243,3821.7,0.00038287,3834.7,-0.00012401,26.199,-0.0001275,-0.018996,0.52612
26995,8.5133,0.45455,0.1,0.00038083,3805.7,0.00038104,3812,-0.00012461,12.683,-0.0001263,-0.029111,0.53495
26996,8.4211,0.54545,0.1,0.00038311,3828.4,0.0003834,3837.1,-0.00012496,17.483,-0.00012729,-0.01851,0.5251
26997,8.5133,0.27273,0.1,0.00038157,3813.1,0.00038164,3815.1,-0.00012556,4.2471,-0.00012613,-0.058712,0.53381
26998,8.4211,0.36364,0.1,0.0003838,3835.3,0.00038395,3839.8,-0.0001259,9.0115,-0.0001271,-0.045658,0.52399
26999,8.4211,0.18182,0.1,0.0003846,3843.4,0.0003846,3843.4,-0.00012684,0.62063,-0.00012699,-0.50854,0.52281
27000,8.5133,0.090909,0.1,0.00038191,3816.5,0.00038189,3815.9,-0.00012597,0.085803,-0.00012613,-1.1465,0.53259
27001,8.3289,5.7273,0.1,0.00038682,3865.6,0.00038691,3868,-0.00012723,5.0073,-0.0001279,-0.058771,0.51308
27002,8.2367,5.8182,0.1,0.00038985,3895.8,0.00038986,3896.1,-0.00012855,1.0218,-0.00012873,-0.33489,0.5022
27003,8.3289,5.9091,0.1,0.0003872,3869.3,0.00038718,3868.9,-0.00012772,0.13183,-0.00012785,-0.82262,0.51184
27004,8.3289,5.5455,0.1,0.00038607,3858.1,0.00038631,3865,-0.00012625,13.826,-0.00012809,-0.032061,0.51423
27005,8.2367,5.6364,0.1,0.00038904,3887.7,0.00038921,3892.6,-0.00012756,9.8742,-0.00012888,-0.049101,0.5034
27006,8.3289,5.3636,0.1,0.00038538,3851.2,0.00038576,3862.4,-0.00012528,22.674,-0.0001283,-0.019681,0.51529
27007,8.2367,5.4545,0.1,0.00038834,3880.7,0.00038865,3890.1,-0.00012658,18.789,-0.00012908,-0.021277,0.50451
27008,8.3289,5.1818,0.1,0.00038469,3844.3,0.00038523,3860.1,-0.00012429,31.823,-0.00012852,-0.018792,0.51628
27009,8.2367,5.2727,0.1,0.00038764,3873.8,0.00038811,3887.7,-0.00012557,28.08,-0.00012931,-0.021802,0.50554
27010,8.3289,5,0.1,0.00038401,3837.5,0.0003847,3857.9,-0.00012327,41.221,-0.00012876,-0.016771,0.51718
27011,8.2367,5.0909,0.1,0.00038695,3866.9,0.00038758,3885.6,-0.00012454,37.739,-0.00012956,-0.019088,0.50649
27012,8.3289,4.8182,0.1,0.00038334,3830.8,0.00038418,3855.9,-0.00012225,50.749,-0.00012901,-0.015123,0.518
27013,8.2367,4.9091,0.1,0.00038626,3860,0.00038705,3883.6,-0.00012348,47.66,-0.00012982,-0.017532,0.50735
27014,8.3289,4.6364,0.1,0.00038268,3824.2,0.00038367,3854,-0.00012124,60.255,-0.00012926,-0.01322,0.51874
27015,8.2367,4.7273,0.1,0.00038559,3853.2,0.00038653,3881.7,-0.00012241,57.694,-0.00013009,-0.015565,0.50814
27016,8.3289,4.4545,0.1,0.00038205,3817.9,0.00038319,3852.2,-0.00012025,69.555,-0.00012951,-0.011164,0.5194
27017,8.2367,4.5455,0.1,0.00038492,3846.6,0.00038603,3880,-0.00012136,67.654,-0.00013036,-0.013435,0.50884
27018,8.3289,4.2727,0.1,0.00038146,3811.9,0.00038273,3850.6,-0.00011931,78.446,-0.00012975,-0.0089843,0.51998
27019,8.2367,4.3636,0.1,0.00038429,3840.3,0.00038555,3878.3,-0.00012034,77.327,-0.00013063,-0.011102,0.50946
27020,8.3289,4.0909,0.1,0.00038091,3806.5,0.00038231,3849.1,-0.00011843,86.716,-0.00012997,-0.0067798,0.52048
27021,8.2367,4.1818,0.1,0.0003837,3834.4,0.0003851,3876.9,-0.00011937,86.484,-0.00013088,-0.0086771,0.51
27022,8.3289,3.9091,0.1,0.00038042,3801.6,0.00038193,3847.8,-0.00011764,94.153,-0.00013017,-0.0046562,0.52091
27023,8.2367,4,0.1,0.00038316,3829,0.00038469,3875.5,-0.00011849,94.887,-0.00013112,-0.0062718,0.51047
27024,8.3289,3.7273,0.1,0.00038,3797.4,0.00038161,3846.7,-0.00011696,100.56,-0.00013035,-0.0027272,0.52125
27025,8.2367,3.8182,0.1,0.00038269,3824.3,0.00038433,3874.4,-0.00011771,102.31,-0.00013132,-0.0040124,0.51085
27026,8.3289,3.5455,0.1,0.00037966,3794,0.00038135,3845.8,-0.00011642,105.74,-0.00013049,-0.0011005,0.52152
27027,8.2367,3.6364,0.1,0.0003823,3820.3,0.00038403,3873.4,-0.00011705,108.53,-0.0001315,-0.0020273,0.51116
27028,8.3289,3.3636,0.1,0.00037941,3791.5,0.00038116,3845.1,-0.00011601,109.56,-0.00013059,0.00013298,0.52171
27029,8.2367,3.4545,0.1,0.00038199,3817.3,0.00038379,3872.7,-0.00011654,113.38,-0.00013163,-0.00042918,0.51139
27030,8.3289,3.1818,0.1,0.00037926,3790,0.00038104,3844.7,-0.00011577,111.9,-0.00013066,0.0009031,0.52183
27031,8.2367,3.2727,0.1,0.00038178,3815.2,0.00038363,3872.2,-0.00011619,116.69,-0.00013172,0.00069181,0.51155
27032,8.3289,3,0.1,0.00037921,3789.5,0.000381,3844.6,-0.00011568,112.69,-0.00013068,0.0011649,0.52186
27033,8.2367,3.0909,0.1,0.00038168,3814.1,0.00038355,3871.9,-0.00011602,118.38,-0.00013177,0.0012693,0.51162
27034,8.3289,2.8182,0.1,0.00037926,3790,0.00038104,3844.7,-0.00011577,111.9,-0.00013066,0.00090304,0.52183
27035,8.2367,2.9091,0.1,0.00038168,3814.1,0.00038355,3871.9,-0.00011602,118.38,-0.00013177,0.0012693,0.51162
27036,8.3289,2.6364,0.1,0.00037941,3791.5,0.00038116,3845.1,-0.00011601,109.56,-0.00013059,0.00013283,0.52171
27037,8.2367,2.7273,0.1,0.00038178,3815.2,0.00038363,3872.2,-0.00011619,116.69,-0.00013172,0.00069179,0.51155
27038,8.3289,2.4545,0.1,0.00037966,3794,0.00038135,3845.8,-0.00011642,105.74,-0.00013049,-0.0011009,0.52152
27039,8.2367,2.5455,0.1,0.00038199,3817.3,0.00038379,3872.7,-0.00011654,113.38,-0.00013163,-0.00042929,0.51139
27040,8.3289,2.2727,0.1,0.00038,3797.4,0.00038161,3846.7,-0.00011696,100.56,-0.00013035,-0.0027279,0.52125
27041,8.2367,2.3636,0.1,0.0003823,3820.3,0.00038403,3873.4,-0.00011705,108.53,-0.0001315,-0.0020276,0.51116
27042,8.3289,2.0909,0.1,0.00038042,3801.6,0.00038193,3847.8,-0.00011764,94.153,-0.00013017,-0.0046566,0.52091
27043,8.2367,2.1818,0.1,0.00038269,3824.3,0.00038433,3874.4,-0.00011771,102.31,-0.00013132,-0.0040132,0.51085
27044,8.3289,1.9091,0.1,0.00038091,3806.5,0.00038231,3849.1,-0.00011843,86.716,-0.00012997,-0.00678,0.52048
27045,8.2367,2,0.1,0.00038316,3829,0.00038469,3875.5,-0.00011849,94.887,-0.00013112,-0.0062719,0.51047
27046,8.3289,1.7273,0.1,0.00038146,3811.9,0.00038273,3850.6,-0.00011931,78.446,-0.00012975,-0.0089847,0.51998
27047,8.2367,1.8182,0.1,0.0003837,3834.4,0.0003851,3876.9,-0.00011937,86.484,-0.00013088,-0.0086776,0.51
27048,8.3289,1.5455,0.1,0.00038205,3817.9,0.00038319,3852.2,-0.00012025,69.555,-0.00012951,-0.011164,0.5194
27049,8.2367,1.6364,0.1,0.00038429,3840.3,0.00038555,3878.3,-0.00012034,77.327,-0.00013063,-0.011102,0.50946
27050,8.3289,1.3636,0.1,0.00038268,3824.2,0.00038367,3854,-0.00012124,60.255,-0.00012926,-0.01322,0.51874
27051,8.2367,1.4545,0.1,0.00038492,3846.6,0.00038603,3880,-0.00012136,67.654,-0.00013036,-0.013436,0.50884
27052,8.3289,1.1818,0.1,0.00038334,3830.8,0.00038418,3855.9,-0.00012225,50.749,-0.00012901,-0.015124,0.518
27053,8.2367,1.2727,0.1,0.00038559,3853.2,0.00038653,3881.7,-0.00012241,57.694,-0.00013009,-0.015565,0.50814
27054,8.3289,1,0.1,0.00038401,3837.5,0.0003847,3857.9,-0.00012327,41.221,-0.00012876,-0.016772,0.51718
27055,8.2367,1.0909,0.1,0.00038626,3860,0.00038705,3883.6,-0.00012348,47.66,-0.00012982,-0.017533,0.50735
27056,8.3289,0.81818,0.1,0.00038469,3844.3,0.00038523,3860.1,-0.00012429,31.823,-0.00012852,-0.018793,0.51628
27057,8.2367,0.90909,0.1,0.00038695,3866.9,0.00038758,3885.6,-0.00012454,37.739,-0.00012956,-0.01909,0.50649
27058,8.3289,0.63636,0.1,0.00038538,3851.2,0.00038576,3862.4,-0.00012528,22.674,-0.0001283,-0.019682,0.51529
27059,8.2367,0.72727,0.1,0.00038764,3873.8,0.00038811,3887.7,-0.00012557,28.08,-0.00012931,-0.021803,0.50554
27060,8.3289,0.45455,0.1,0.00038607,3858.1,0.00038631,3865,-0.00012625,13.826,-0.00012809,-0.032061,0.51423
27061,8.2367,0.54545,0.1,0.00038834,3880.7,0.00038865,3890.1,-0.00012658,18.789,-0.00012908,-0.021277,0.50451
27062,8.3289,0.27273,0.1,0.00038682,3865.6,0.00038691,3868,-0.00012723,5.0073,-0.0001279,-0.058772,0.51308
27063,8.2367,0.36364,0.1,0.00038904,3887.7,0.00038921,3892.6,-0.00012756,9.8742,-0.00012888,-0.049102,0.5034
27064,8.2367,0.18182,0.1,0.00038985,3895.8,0.00038986,3896.1,-0.00012855,1.0218,-0.00012873,-0.33489,0.5022
27065,8.3289,0.090909,0.1,0.0003872,3869.3,0.00038718,3868.9,-0.00012772,0.13182,-0.00012785,-0.82262,0.51184
27066,8.1445,5.7273,0.1,0.00039206,3917.9,0.00039215,3920.7,-0.0001289,5.6804,-0.00012966,-0.060037,0.49261
27067,8.0524,5.8182,0.1,0.00039506,3947.9,0.00039508,3948.5,-0.00013024,1.4374,-0.00013046,-0.25552,0.48186
27068,8.1445,5.9091,0.1,0.00039245,3921.8,0.00039244,3921.6,-0.00012946,0.20643,-0.00012957,-0.56428,0.49136
27069,8.1445,5.5455,0.1,0.0003913,3910.3,0.00039155,3917.7,-0.00012789,14.852,-0.00012987,-0.035279,0.49377
27070,8.0524,5.6364,0.1,0.00039426,3939.8,0.00039443,3945.1,-0.00012922,10.605,-0.00013063,-0.052662,0.48306
27071,8.1445,5.3636,0.1,0.0003906,3903.3,0.00039101,3915.3,-0.00012687,24.21,-0.0001301,-0.022674,0.49484
27072,8.0524,5.4545,0.1,0.00039355,3932.8,0.00039389,3942.7,-0.0001282,19.944,-0.00013086,-0.024557,0.48419
27073,8.1445,5.1818,0.1,0.0003899,3896.3,0.00039047,3913.2,-0.00012582,34.01,-0.00013035,-0.02179,0.49584
27074,8.0524,5.2727,0.1,0.00039285,3925.8,0.00039335,3940.6,-0.00012714,29.822,-0.00013112,-0.025172,0.48523
27075,8.1445,5,0.1,0.0003892,3889.3,0.00038993,3911.2,-0.00012474,44.191,-0.00013062,-0.019674,0.49675
27076,8.0524,5.0909,0.1,0.00039215,3918.8,0.00039282,3938.7,-0.00012604,40.225,-0.0001314,-0.022422,0.48618
27077,8.1445,4.8182,0.1,0.00038851,3882.4,0.00038941,3909.4,-0.00012363,54.615,-0.0001309,-0.017851,0.49757
27078,8.0524,4.9091,0.1,0.00039144,3911.7,0.00039228,3937,-0.0001249,51.03,-0.0001317,-0.020743,0.48705
27079,8.1445,4.6364,0.1,0.00038782,3875.6,0.00038889,3907.7,-0.00012253,65.101,-0.00013119,-0.015681,0.49832
27080,8.0524,4.7273,0.1,0.00039074,3904.7,0.00039176,3935.4,-0.00012375,62.063,-0.00013201,-0.018539,0.48784
27081,8.1445,4.4545,0.1,0.00038716,3868.9,0.00038839,3906.1,-0.00012144,75.434,-0.00013148,-0.013285,0.49898
27082,8.0524,4.5455,0.1,0.00039006,3897.9,0.00039125,3933.9,-0.00012259,73.104,-0.00013232,-0.016075,0.48855
27083,8.1445,4.2727,0.1,0.00038653,3862.7,0.00038792,3904.7,-0.0001204,85.372,-0.00013176,-0.010711,0.49957
27084,8.0524,4.3636,0.1,0.00038939,3891.3,0.00039075,3932.5,-0.00012147,83.899,-0.00013263,-0.013332,0.48918
27085,8.1445,4.0909,0.1,0.00038595,3856.9,0.00038748,3903.3,-0.00011943,94.661,-0.00013203,-0.0080853,0.50007
27086,8.0524,4.1818,0.1,0.00038877,3885,0.00039029,3931.3,-0.0001204,94.174,-0.00013293,-0.01045,0.48973
27087,8.1445,3.9091,0.1,0.00038543,3851.7,0.00038708,3902.2,-0.00011855,103.05,-0.00013226,-0.005543,0.5005
27088,8.0524,4,0.1,0.0003882,3879.4,0.00038986,3930.1,-0.00011941,103.65,-0.00013321,-0.0075725,0.49019
27089,8.1445,3.7273,0.1,0.00038499,3847.2,0.00038674,3901.2,-0.00011779,110.29,-0.00013247,-0.0032256,0.50085
27090,8.0524,3.8182,0.1,0.0003877,3874.4,0.00038949,3929.2,-0.00011854,112.04,-0.00013345,-0.0048594,0.49058
27091,8.1445,3.5455,0.1,0.00038463,3843.6,0.00038647,3900.4,-0.00011718,116.17,-0.00013264,-0.0012672,0.50112
27092,8.0524,3.6364,0.1,0.00038728,3870.2,0.00038917,3928.3,-0.00011781,119.1,-0.00013366,-0.0024687,0.49089
27093,8.1445,3.3636,0.1,0.00038436,3840.9,0.00038627,3899.8,-0.00011672,120.51,-0.00013276,0.00022004,0.50131
27094,8.0524,3.4545,0.1,0.00038696,3866.9,0.00038893,3927.7,-0.00011723,124.61,-0.00013382,-0.00054088,0.49112
27095,8.1445,3.1818,0.1,0.0003842,3839.3,0.00038614,3899.4,-0.00011644,123.17,-0.00013284,0.0011495,0.50143
27096,8.0524,3.2727,0.1,0.00038673,3864.7,0.00038876,3927.3,-0.00011684,128.39,-0.00013393,0.0008129,0.49128
27097,8.1445,3,0.1,0.00038414,3838.8,0.0003861,3899.3,-0.00011635,124.07,-0.00013286,0.0014655,0.50146
27098,8.0524,3.0909,0.1,0.00038662,3863.5,0.00038867,3927,-0.00011664,130.31,-0.00013398,0.0015104,0.49135
27099,8.1445,2.8182,0.1,0.0003842,3839.3,0.00038614,3899.4,-0.00011644,123.17,-0.00013284,0.0011495,0.50143
27100,8.0524,2.9091,0.1,0.00038662,3863.5,0.00038867,3927,-0.00011664,130.31,-0.00013398,0.0015105,0.49135
27101,8.1445,2.6364,0.1,0.00038436,3840.9,0.00038627,3899.8,-0.00011672,120.51,-0.00013276,0.00022004,0.50131
27102,8.0524,2.7273,0.1,0.00038673,3864.7,0.00038876,3927.3,-0.00011684,128.39,-0.00013393,0.00081281,0.49128
27103,8.1445,2.4545,0.1,0.00038463,3843.6,0.00038647,3900.4,-0.00011718,116.17,-0.00013264,-0.0012672,0.50112
27104,8.0524,2.5455,0.1,0.00038696,3866.9,0.00038893,3927.7,-0.00011723,124.61,-0.00013382,-0.00054085,0.49112
27105,8.1445,2.2727,0.1,0.00038499,3847.2,0.00038674,3901.2,-0.00011779,110.29,-0.00013247,-0.0032261,0.50085
27106,8.0524,2.3636,0.1,0.00038728,3870.2,0.00038917,3928.3,-0.00011781,119.1,-0.00013366,-0.0024689,0.49089
27107,8.1445,2.0909,0.1,0.00038543,3851.7,0.00038708,3902.2,-0.00011855,103.05,-0.00013226,-0.0055435,0.5005
27108,8.0524,2.1818,0.1,0.0003877,3874.4,0.00038949,3929.2,-0.00011854,112.04,-0.00013345,-0.0048598,0.49058
27109,8.1445,1.9091,0.1,0.00038595,3856.9,0.00038748,3903.3,-0.00011943,94.661,-0.00013203,-0.0080857,0.50007
27110,8.0524,2,0.1,0.0003882,3879.4,0.00038986,3930.1,-0.00011941,103.65,-0.00013321,-0.0075729,0.49019
27111,8.1445,1.7273,0.1,0.00038653,3862.7,0.00038792,3904.7,-0.0001204,85.372,-0.00013176,-0.010711,0.49957
27112,8.0524,1.8182,0.1,0.00038877,3885,0.00039029,3931.3,-0.0001204,94.174,-0.00013293,-0.01045,0.48973
27113,8.1445,1.5455,0.1,0.00038716,3868.9,0.00038839,3906.1,-0.00012144,75.434,-0.00013148,-0.013285,0.49898
27114,8.0524,1.6364,0.1,0.00038939,3891.3,0.00039075,3932.5,-0.00012147,83.899,-0.00013263,-0.013332,0.48918
27115,8.1445,1.3636,0.1,0.00038782,3875.6,0.00038889,3907.7,-0.00012253,65.101,-0.00013119,-0.015682,0.49832
27116,8.0524,1.4545,0.1,0.00039006,3897.9,0.00039125,3933.9,-0.00012259,73.104,-0.00013232,-0.016076,0.48855
27117,8.1445,1.1818,0.1,0.00038851,3882.4,0.00038941,3909.4,-0.00012363,54.615,-0.0001309,-0.017852,0.49757
27118,8.0524,1.2727,0.1,0.00039074,3904.7,0.00039176,3935.4,-0.00012375,62.063,-0.00013201,-0.01854,0.48784
27119,8.1445,1,0.1,0.0003892,3889.3,0.00038993,3911.2,-0.00012474,44.191,-0.00013062,-0.019675,0.49675
27120,8.0524,1.0909,0.1,0.00039144,3911.7,0.00039228,3937,-0.0001249,51.03,-0.0001317,-0.020744,0.48705
27121,8.1445,0.81818,0.1,0.0003899,3896.3,0.00039047,3913.2,-0.00012582,34.01,-0.00013035,-0.021792,0.49584
27122,8.0524,0.90909,0.1,0.00039215,3918.8,0.00039282,3938.7,-0.00012604,40.225,-0.0001314,-0.022424,0.48618
27123,8.1445,0.63636,0.1,0.0003906,3903.3,0.00039101,3915.3,-0.00012687,24.21,-0.0001301,-0.022675,0.49484
27124,8.0524,0.72727,0.1,0.00039285,3925.8,0.00039335,3940.6,-0.00012714,29.822,-0.00013112,-0.025173,0.48523
27125,8.1445,0.45455,0.1,0.0003913,3910.3,0.00039155,3917.7,-0.00012789,14.852,-0.00012987,-0.03528,0.49377
27126,8.0524,0.54545,0.1,0.00039355,3932.8,0.00039389,3942.7,-0.0001282,19.944,-0.00013086,-0.024557,0.48419
27127,8.1445,0.27273,0.1,0.00039206,3917.9,0.00039215,3920.7,-0.0001289,5.6804,-0.00012966,-0.060038,0.49261
27128,8.0524,0.36364,0.1,0.00039426,3939.8,0.00039443,3945.1,-0.00012922,10.605,-0.00013063,-0.052664,0.48306
27129,8.0524,0.18182,0.1,0.00039506,3947.9,0.00039508,3948.5,-0.00013024,1.4374,-0.00013046,-0.25552,0.48186
27130,8.1445,0.090909,0.1,0.00039245,3921.8,0.00039244,3921.6,-0.00012946,0.20642,-0.00012957,-0.56428,0.49136
27131,7.9602,5.7273,0.1,0.00039725,3969.8,0.00039736,3972.8,-0.00013057,6.2315,-0.00013141,-0.062219,0.4724
27132,7.868,5.8182,0.1,0.00040022,3999.4,0.00040024,4000.2,-0.00013191,1.7868,-0.00013218,-0.2178,0.46178
27133,7.9602,5.9091,0.1,0.00039766,3973.8,0.00039766,3973.8,-0.00013118,0.31216,-0.00013127,-0.38812,0.47114
27134,7.9602,5.5455,0.1,0.0003965,3962.3,0.00039677,3970.1,-0.00012953,15.712,-0.00013163,-0.038831,0.47357
27135,7.868,5.6364,0.1,0.00039943,3991.6,0.00039962,3997.1,-0.00013088,11.157,-0.00013237,-0.056372,0.463
27136,7.9602,5.3636,0.1,0.0003958,3955.3,0.00039623,3968,-0.00012847,25.571,-0.00013188,-0.026269,0.47466
27137,7.868,5.4545,0.1,0.00039874,3984.6,0.00039909,3995,-0.00012983,20.885,-0.00013262,-0.02852,0.46413
27138,7.9602,5.1818,0.1,0.0003951,3948.2,0.0003957,3966.1,-0.00012736,36.051,-0.00013217,-0.025457,0.47566
27139,7.868,5.2727,0.1,0.00039804,3977.6,0.00039856,3993.2,-0.00012873,31.357,-0.00013291,-0.029289,0.46518
27140,7.9602,5,0.1,0.00039439,3941.1,0.00039517,3964.5,-0.00012621,47.076,-0.00013247,-0.023287,0.47658
27141,7.868,5.0909,0.1,0.00039733,3970.6,0.00039804,3991.7,-0.00012756,42.55,-0.00013322,-0.026583,0.46614
27142,7.9602,4.8182,0.1,0.00039368,3934,0.00039464,3962.9,-0.00012501,58.489,-0.0001328,-0.021285,0.47741
27143,7.868,4.9091,0.1,0.00039662,3963.5,0.00039752,3990.3,-0.00012634,54.322,-0.00013357,-0.024794,0.46702
27144,7.9602,4.6364,0.1,0.00039297,3927,0.00039412,3961.6,-0.00012381,70.075,-0.00013314,-0.018813,0.47816
27145,7.868,4.7273,0.1,0.00039591,3956.3,0.00039699,3989.1,-0.00012508,66.468,-0.00013393,-0.022327,0.46782
27146,7.9602,4.4545,0.1,0.00039229,3920.2,0.00039361,3960.3,-0.00012262,81.576,-0.00013348,-0.016013,0.47883
27147,7.868,4.5455,0.1,0.0003952,3949.3,0.00039648,3988,-0.00012382,78.728,-0.0001343,-0.019469,0.46853
27148,7.9602,4.2727,0.1,0.00039163,3913.6,0.00039313,3959.1,-0.00012146,92.708,-0.0001338,-0.012965,0.47942
27149,7.868,4.3636,0.1,0.00039452,3942.4,0.00039598,3987,-0.00012258,90.799,-0.00013466,-0.016232,0.46916
27150,7.9602,4.0909,0.1,0.00039102,3907.5,0.00039267,3958.1,-0.00012038,103.17,-0.00013411,-0.0098312,0.47993
27151,7.868,4.1818,0.1,0.00039387,3936,0.00039551,3986.1,-0.00012139,102.36,-0.00013501,-0.012796,0.46971
27152,7.9602,3.9091,0.1,0.00039047,3902,0.00039227,3957.1,-0.0001194,112.65,-0.0001344,-0.0067814,0.48036
27153,7.868,4,0.1,0.00039327,3930,0.00039507,3985.3,-0.00012029,113.06,-0.00013534,-0.009344,0.47018
27154,7.9602,3.7273,0.1,0.00039,3897.3,0.00039191,3956.3,-0.00011855,120.86,-0.00013464,-0.0039925,0.48071
27155,7.868,3.8182,0.1,0.00039274,3924.7,0.00039469,3984.6,-0.00011932,122.58,-0.00013563,-0.0060776,0.47057
27156,7.9602,3.5455,0.1,0.00038961,3893.5,0.00039163,3955.7,-0.00011786,127.55,-0.00013484,-0.00163,0.48098
27157,7.868,3.6364,0.1,0.0003923,3920.3,0.00039436,3984,-0.00011849,130.61,-0.00013588,-0.0031925,0.47088
27158,7.9602,3.3636,0.1,0.00038933,3890.6,0.00039142,3955.2,-0.00011735,132.49,-0.00013499,0.00016627,0.48117
27159,7.868,3.4545,0.1,0.00039196,3916.9,0.00039411,3983.5,-0.00011785,136.89,-0.00013607,-0.0008623,0.47112
27160,7.9602,3.1818,0.1,0.00038916,3888.9,0.00039129,3954.9,-0.00011704,135.52,-0.00013508,0.0012894,0.48129
27161,7.868,3.2727,0.1,0.00039172,3914.5,0.00039393,3983.2,-0.00011741,141.2,-0.0001362,0.00077468,0.47127
27162,7.9602,3,0.1,0.0003891,3888.3,0.00039124,3954.8,-0.00011693,136.55,-0.00013511,0.0016714,0.48133
27163,7.868,3.0909,0.1,0.0003916,3913.3,0.00039384,3983,-0.00011718,143.39,-0.00013627,0.0016189,0.47135
27164,7.9602,2.8182,0.1,0.00038916,3888.9,0.00039129,3954.9,-0.00011704,135.52,-0.00013508,0.0012894,0.48129
27165,7.868,2.9091,0.1,0.0003916,3913.3,0.00039384,3983,-0.00011718,143.39,-0.00013627,0.0016189,0.47135
27166,7.9602,2.6364,0.1,0.00038933,3890.6,0.00039142,3955.2,-0.00011735,132.49,-0.00013499,0.00016621,0.48117
27167,7.868,2.7273,0.1,0.00039172,3914.5,0.00039393,3983.2,-0.00011741,141.2,-0.0001362,0.00077462,0.47127
27168,7.9602,2.4545,0.1,0.00038961,3893.5,0.00039163,3955.7,-0.00011786,127.55,-0.00013484,-0.0016302,0.48098
27169,7.868,2.5455,0.1,0.00039196,3916.9,0.00039411,3983.5,-0.00011785,136.89,-0.00013607,-0.00086242,0.47112
27170,7.9602,2.2727,0.1,0.00039,3897.3,0.00039191,3956.3,-0.00011855,120.86,-0.00013464,-0.0039927,0.48071
27171,7.868,2.3636,0.1,0.0003923,3920.3,0.00039436,3984,-0.00011849,130.61,-0.00013588,-0.0031927,0.47088
27172,7.9602,2.0909,0.1,0.00039047,3902,0.00039227,3957.1,-0.0001194,112.65,-0.0001344,-0.0067816,0.48036
27173,7.868,2.1818,0.1,0.00039274,3924.7,0.00039469,3984.6,-0.00011932,122.58,-0.00013563,-0.0060779,0.47057
27174,7.9602,1.9091,0.1,0.00039102,3907.5,0.00039267,3958.1,-0.00012038,103.17,-0.00013411,-0.0098319,0.47993
27175,7.868,2,0.1,0.00039327,3930,0.00039507,3985.3,-0.00012029,113.06,-0.00013534,-0.0093443,0.47018
27176,7.9602,1.7273,0.1,0.00039163,3913.6,0.00039313,3959.1,-0.00012146,92.708,-0.0001338,-0.012966,0.47942
27177,7.868,1.8182,0.1,0.00039387,3936,0.00039551,3986.1,-0.00012139,102.36,-0.00013501,-0.012796,0.46971
27178,7.9602,1.5455,0.1,0.00039229,3920.2,0.00039361,3960.3,-0.00012262,81.576,-0.00013348,-0.016014,0.47883
27179,7.868,1.6364,0.1,0.00039452,3942.4,0.00039598,3987,-0.00012258,90.799,-0.00013466,-0.016233,0.46916
27180,7.9602,1.3636,0.1,0.00039297,3927,0.00039412,3961.6,-0.00012381,70.075,-0.00013314,-0.018814,0.47816
27181,7.868,1.4545,0.1,0.0003952,3949.3,0.00039648,3988,-0.00012382,78.728,-0.0001343,-0.01947,0.46853
27182,7.9602,1.1818,0.1,0.00039368,3934,0.00039464,3963,-0.00012501,58.489,-0.0001328,-0.021286,0.47741
27183,7.868,1.2727,0.1,0.00039591,3956.3,0.00039699,3989.1,-0.00012508,66.468,-0.00013393,-0.022328,0.46782
27184,7.9602,1,0.1,0.00039439,3941.1,0.00039517,3964.5,-0.00012621,47.076,-0.00013247,-0.023288,0.47658
27185,7.868,1.0909,0.1,0.00039662,3963.5,0.00039752,3990.3,-0.00012634,54.322,-0.00013357,-0.024794,0.46702
27186,7.9602,0.81818,0.1,0.0003951,3948.2,0.0003957,3966.1,-0.00012736,36.051,-0.00013217,-0.025459,0.47566
27187,7.868,0.90909,0.1,0.00039733,3970.6,0.00039804,3991.7,-0.00012756,42.55,-0.00013322,-0.026585,0.46614
27188,7.9602,0.63636,0.1,0.0003958,3955.3,0.00039623,3968,-0.00012847,25.571,-0.00013188,-0.02627,0.47466
27189,7.868,0.72727,0.1,0.00039804,3977.6,0.00039856,3993.2,-0.00012873,31.357,-0.00013291,-0.02929,0.46518
27190,7.9602,0.45455,0.1,0.0003965,3962.3,0.00039677,3970.1,-0.00012953,15.712,-0.00013163,-0.038832,0.47357
27191,7.868,0.54545,0.1,0.00039874,3984.6,0.00039909,3995,-0.00012983,20.885,-0.00013262,-0.02852,0.46413
27192,7.9602,0.27273,0.1,0.00039725,3969.8,0.00039736,3972.8,-0.00013057,6.2315,-0.00013141,-0.062221,0.4724
27193,7.868,0.36364,0.1,0.00039943,3991.6,0.00039962,3997.1,-0.00013088,11.157,-0.00013237,-0.056373,0.463
27194,7.868,0.18182,0.1,0.00040022,3999.4,0.00040024,4000.2,-0.00013191,1.7868,-0.00013218,-0.2178,0.46178
27195,7.9602,0.090909,0.1,0.00039766,3973.8,0.00039766,3973.8,-0.00013118,0.31216,-0.00013127,-0.38812,0.47114
27196,7.7758,5.7273,0.1,0.00040239,4021.1,0.0004025,4024.4,-0.00013223,6.6186,-0.00013312,-0.065268,0.45247
27197,7.6836,5.8182,0.1,0.0004053,4050.2,0.00040533,4051.1,-0.00013357,2.0157,-0.00013387,-0.20123,0.44198
27198,7.7758,5.9091,0.1,0.0004028,4025.2,0.0004028,4025.3,-0.00013287,0.42328,-0.00013297,-0.28545,0.4512
27199,7.7758,5.5455,0.1,0.00040166,4013.8,0.00040194,4022,-0.00013118,16.345,-0.00013336,-0.042849,0.45365
27200,7.6836,5.6364,0.1,0.00040455,4042.7,0.00040474,4048.4,-0.00013254,11.47,-0.00013407,-0.060334,0.44321
27201,7.7758,5.3636,0.1,0.00040097,4006.9,0.00040142,4020.2,-0.00013009,26.686,-0.00013364,-0.030684,0.45474
27202,7.6836,5.4545,0.1,0.00040387,4036,0.00040424,4046.7,-0.00013148,21.537,-0.00013435,-0.033426,0.44435
27203,7.7758,5.1818,0.1,0.00040027,4000,0.0004009,4018.8,-0.00012892,37.87,-0.00013396,-0.030025,0.45575
27204,7.6836,5.2727,0.1,0.0004032,4029.2,0.00040374,4045.4,-0.00013033,32.602,-0.00013467,-0.034427,0.44541
27205,7.7758,5,0.1,0.00039957,3992.9,0.00040039,4017.6,-0.00012769,49.808,-0.00013432,-0.027853,0.45668
27206,7.6836,5.0909,0.1,0.0004025,4022.3,0.00040324,4044.4,-0.00012909,44.632,-0.00013503,-0.031864,0.44638
27207,7.7758,4.8182,0.1,0.00039885,3985.7,0.00039987,4016.5,-0.0001264,62.312,-0.0001347,-0.025662,0.45752
27208,7.6836,4.9091,0.1,0.00040179,4015.2,0.00040274,4043.6,-0.00012778,57.462,-0.00013543,-0.02997,0.44726
27209,7.7758,4.6364,0.1,0.00039813,3978.6,0.00039936,4015.6,-0.00012509,75.131,-0.00013509,-0.022837,0.45828
27210,7.6836,4.7273,0.1,0.00040108,4008,0.00040224,4043,-0.00012642,70.849,-0.00013585,-0.027199,0.44806
27211,7.7758,4.4545,0.1,0.00039743,3971.5,0.00039885,4014.8,-0.00012378,87.958,-0.00013549,-0.019552,0.45895
27212,7.6836,4.5455,0.1,0.00040036,4000.9,0.00040173,4042.4,-0.00012504,84.485,-0.00013628,-0.023864,0.44878
27213,7.7758,4.2727,0.1,0.00039675,3964.8,0.00039836,4014,-0.0001225,100.45,-0.00013587,-0.015929,0.45954
27214,7.6836,4.3636,0.1,0.00039966,3993.9,0.00040124,4042,-0.00012367,98.01,-0.00013672,-0.020023,0.44942
27215,7.7758,4.0909,0.1,0.00039612,3958.4,0.00039791,4013.4,-0.0001213,112.25,-0.00013624,-0.012175,0.46005
27216,7.6836,4.1818,0.1,0.000399,3987.2,0.00040077,4041.6,-0.00012235,111.03,-0.00013713,-0.015906,0.44997
27217,7.7758,3.9091,0.1,0.00039554,3952.7,0.00039749,4012.8,-0.0001202,122.99,-0.00013658,-0.0085037,0.46048
27218,7.6836,4,0.1,0.00039838,3981,0.00040033,4041.2,-0.00012113,123.15,-0.00013752,-0.011749,0.45044
27219,7.7758,3.7273,0.1,0.00039505,3947.7,0.00039713,4012.2,-0.00011925,132.33,-0.00013687,-0.005138,0.46084
27220,7.6836,3.8182,0.1,0.00039783,3975.6,0.00039994,4040.8,-0.00012003,133.98,-0.00013787,-0.0078043,0.45083
27221,7.7758,3.5455,0.1,0.00039464,3943.7,0.00039684,4011.8,-0.00011848,139.95,-0.0001371,-0.0022823,0.46111
27222,7.6836,3.6364,0.1,0.00039737,3970.9,0.00039961,4040.6,-0.00011911,143.13,-0.00013816,-0.0043132,0.45115
27223,7.7758,3.3636,0.1,0.00039434,3940.7,0.00039662,4011.5,-0.0001179,145.6,-0.00013728,-0.00010907,0.4613
27224,7.6836,3.4545,0.1,0.00039701,3967.3,0.00039935,4040.3,-0.00011838,150.3,-0.00013839,-0.0014908,0.45138
27225,7.7758,3.1818,0.1,0.00039416,3938.9,0.00039649,4011.3,-0.00011755,149.06,-0.00013739,0.0012505,0.46142
27226,7.6836,3.2727,0.1,0.00039676,3964.8,0.00039917,4040.2,-0.00011788,155.23,-0.00013854,0.00049287,0.45154
27227,7.7758,3,0.1,0.0003941,3938.3,0.00039644,4011.2,-0.00011743,150.23,-0.00013742,0.0017132,0.46146
27228,7.6836,3.0909,0.1,0.00039663,3963.6,0.00039908,4040.1,-0.00011763,157.74,-0.00013862,0.0015162,0.45161
27229,7.7758,2.8182,0.1,0.00039416,3938.9,0.00039649,4011.3,-0.00011755,149.06,-0.00013739,0.0012504,0.46142
27230,7.6836,2.9091,0.1,0.00039663,3963.6,0.00039908,4040.1,-0.00011763,157.74,-0.00013862,0.0015162,0.45161
27231,7.7758,2.6364,0.1,0.00039434,3940.7,0.00039662,4011.5,-0.0001179,145.6,-0.00013728,-0.00010919,0.4613
27232,7.6836,2.7273,0.1,0.00039676,3964.8,0.00039917,4040.2,-0.00011788,155.23,-0.00013854,0.00049257,0.45154
27233,7.7758,2.4545,0.1,0.00039464,3943.7,0.00039684,4011.8,-0.00011848,139.95,-0.0001371,-0.0022824,0.46111
27234,7.6836,2.5455,0.1,0.00039701,3967.3,0.00039935,4040.3,-0.00011838,150.3,-0.00013839,-0.001491,0.45138
27235,7.7758,2.2727,0.1,0.00039505,3947.8,0.00039713,4012.2,-0.00011925,132.33,-0.00013687,-0.0051382,0.46084
27236,7.6836,2.3636,0.1,0.00039737,3970.9,0.00039961,4040.6,-0.00011911,143.13,-0.00013816,-0.0043135,0.45115
27237,7.7758,2.0909,0.1,0.00039554,3952.7,0.00039749,4012.8,-0.0001202,122.99,-0.00013658,-0.008504,0.46048
27238,7.6836,2.1818,0.1,0.00039783,3975.6,0.00039994,4040.8,-0.00012003,133.98,-0.00013787,-0.0078047,0.45083
27239,7.7758,1.9091,0.1,0.00039612,3958.4,0.00039791,4013.4,-0.0001213,112.25,-0.00013624,-0.012175,0.46005
27240,7.6836,2,0.1,0.00039838,3981,0.00040033,4041.2,-0.00012113,123.15,-0.00013752,-0.01175,0.45044
27241,7.7758,1.7273,0.1,0.00039675,3964.8,0.00039836,4014,-0.0001225,100.45,-0.00013587,-0.01593,0.45954
27242,7.6836,1.8182,0.1,0.000399,3987.2,0.00040077,4041.6,-0.00012235,111.03,-0.00013713,-0.015907,0.44997
27243,7.7758,1.5455,0.1,0.00039743,3971.5,0.00039885,4014.8,-0.00012378,87.958,-0.00013549,-0.019553,0.45895
27244,7.6836,1.6364,0.1,0.00039966,3993.9,0.00040124,4042,-0.00012367,98.01,-0.00013672,-0.020024,0.44942
27245,7.7758,1.3636,0.1,0.00039813,3978.6,0.00039936,4015.6,-0.00012509,75.131,-0.00013509,-0.022837,0.45828
27246,7.6836,1.4545,0.1,0.00040036,4000.9,0.00040173,4042.4,-0.00012504,84.485,-0.00013628,-0.023865,0.44878
27247,7.7758,1.1818,0.1,0.00039885,3985.7,0.00039987,4016.5,-0.0001264,62.312,-0.0001347,-0.025663,0.45752
27248,7.6836,1.2727,0.1,0.00040108,4008,0.00040224,4043,-0.00012642,70.849,-0.00013585,-0.0272,0.44806
27249,7.7758,1,0.1,0.00039957,3992.9,0.00040039,4017.6,-0.00012769,49.808,-0.00013432,-0.027855,0.45668
27250,7.6836,1.0909,0.1,0.00040179,4015.2,0.00040274,4043.6,-0.00012778,57.462,-0.00013543,-0.02997,0.44726
27251,7.7758,0.81818,0.1,0.00040027,4000,0.0004009,4018.8,-0.00012892,37.87,-0.00013396,-0.030027,0.45575
27252,7.6836,0.90909,0.1,0.0004025,4022.3,0.00040324,4044.4,-0.00012909,44.632,-0.00013503,-0.031866,0.44638
27253,7.7758,0.63636,0.1,0.00040097,4006.9,0.00040142,4020.2,-0.00013009,26.686,-0.00013364,-0.030684,0.45474
27254,7.6836,0.72727,0.1,0.0004032,4029.2,0.00040374,4045.4,-0.00013033,32.602,-0.00013467,-0.034428,0.44541
27255,7.7758,0.45455,0.1,0.00040166,4013.8,0.00040194,4022,-0.00013118,16.345,-0.00013336,-0.04285,0.45365
27256,7.6836,0.54545,0.1,0.00040387,4036,0.00040424,4046.7,-0.00013148,21.537,-0.00013435,-0.033426,0.44435
27257,7.7758,0.27273,0.1,0.00040239,4021.1,0.0004025,4024.4,-0.00013223,6.6186,-0.00013312,-0.065269,0.45247
27258,7.6836,0.36364,0.1,0.00040455,4042.7,0.00040474,4048.4,-0.00013254,11.47,-0.00013407,-0.060335,0.44321
27259,7.6836,0.18182,0.1,0.0004053,4050.2,0.00040533,4051.1,-0.00013357,2.0157,-0.00013387,-0.20123,0.44198
27260,7.7758,0.090909,0.1,0.0004028,4025.2,0.0004028,4025.3,-0.00013287,0.42328,-0.00013297,-0.28545,0.4512
27261,7.5914,5.7273,0.1,0.00040745,4071.7,0.00040757,4075.1,-0.00013389,6.7913,-0.0001348,-0.069334,0.43281
27262,7.4993,5.8182,0.1,0.00041028,4100,0.00041032,4100.9,-0.00013521,2.0769,-0.00013551,-0.19927,0.42245
27263,7.5914,5.9091,0.1,0.00040784,4075.6,0.00040785,4075.7,-0.00013453,0.49322,-0.00013463,-0.23024,0.43153
27264,7.5914,5.5455,0.1,0.00040676,4064.8,0.00040704,4073.1,-0.00013283,16.677,-0.00013506,-0.047552,0.434
27265,7.4993,5.6364,0.1,0.00040958,4093,0.00040977,4098.6,-0.0001342,11.474,-0.00013573,-0.06477,0.42369
27266,7.5914,5.3636,0.1,0.0004061,4058.2,0.00040656,4071.8,-0.00013171,27.468,-0.00013537,-0.036232,0.4351
27267,7.4993,5.4545,0.1,0.00040895,4086.7,0.00040931,4097.5,-0.00013313,21.81,-0.00013603,-0.039671,0.42484
27268,7.5914,5.1818,0.1,0.00040542,4051.4,0.00040608,4071,-0.00013049,39.378,-0.00013574,-0.035825,0.43612
27269,7.4993,5.2727,0.1,0.00040831,4080.3,0.00040887,4096.9,-0.00013194,33.457,-0.0001364,-0.040986,0.42591
27270,7.5914,5,0.1,0.00040473,4044.5,0.00040559,4070.4,-0.00012918,52.298,-0.00013615,-0.033705,0.43705
27271,7.4993,5.0909,0.1,0.00040764,4073.6,0.00040841,4096.6,-0.00013064,46.37,-0.00013682,-0.03867,0.42688
27272,7.5914,4.8182,0.1,0.00040402,4037.4,0.0004051,4070,-0.0001278,66.009,-0.00013659,-0.031298,0.4379
27273,7.4993,4.9091,0.1,0.00040696,4066.8,0.00040795,4096.6,-0.00012924,60.357,-0.00013728,-0.036658,0.42778
27274,7.5914,4.6364,0.1,0.00040331,4030.3,0.00040461,4069.8,-0.00012637,80.212,-0.00013705,-0.028045,0.43866
27275,7.4993,4.7273,0.1,0.00040625,4059.7,0.00040748,4096.8,-0.00012777,75.129,-0.00013777,-0.033512,0.42858
27276,7.5914,4.4545,0.1,0.0004026,4023.2,0.00040412,4069.6,-0.00012493,94.544,-0.00013751,-0.024164,0.43934
27277,7.4993,4.5455,0.1,0.00040554,4052.6,0.000407,4097,-0.00012626,90.321,-0.00013828,-0.029579,0.4293
27278,7.5914,4.2727,0.1,0.00040191,4016.3,0.00040364,4069.5,-0.00012352,108.6,-0.00013797,-0.019831,0.43993
27279,7.4993,4.3636,0.1,0.00040484,4045.6,0.00040653,4097.3,-0.00012475,105.5,-0.00013879,-0.024984,0.42994
27280,7.5914,4.0909,0.1,0.00040126,4009.8,0.00040319,4069.4,-0.00012218,121.94,-0.00013841,-0.01531,0.44045
27281,7.4993,4.1818,0.1,0.00040417,4038.9,0.00040608,4097.6,-0.00012329,120.21,-0.00013929,-0.02002,0.4305
27282,7.5914,3.9091,0.1,0.00040066,4003.9,0.00040278,4069.3,-0.00012095,134.14,-0.00013881,-0.010876,0.44088
27283,7.4993,4,0.1,0.00040354,4032.6,0.00040565,4097.9,-0.00012192,133.96,-0.00013975,-0.014989,0.43097
27284,7.5914,3.7273,0.1,0.00040015,3998.7,0.00040242,4069.2,-0.00011989,144.78,-0.00013916,-0.0068014,0.44123
27285,7.4993,3.8182,0.1,0.00040298,4027,0.00040527,4098.1,-0.00012069,146.29,-0.00014016,-0.010205,0.43137
27286,7.5914,3.5455,0.1,0.00039973,3994.5,0.00040212,4069.1,-0.00011901,153.48,-0.00013944,-0.0033403,0.44151
27287,7.4993,3.6364,0.1,0.0004025,4022.2,0.00040494,4098.3,-0.00011965,156.75,-0.00014051,-0.0059675,0.43168
27288,7.5914,3.3636,0.1,0.00039942,3991.4,0.0004019,4069,-0.00011836,159.94,-0.00013965,-0.00070487,0.4417
27289,7.4993,3.4545,0.1,0.00040213,4018.5,0.00040468,4098.4,-0.00011883,164.95,-0.00014079,-0.0025403,0.43191
27290,7.5914,3.1818,0.1,0.00039923,3989.5,0.00040176,4068.9,-0.00011797,163.91,-0.00013978,0.0009441,0.44182
27291,7.4993,3.2727,0.1,0.00040187,4015.9,0.0004045,4098.5,-0.00011827,170.6,-0.00014098,-0.00013099,0.43207
27292,7.5914,3,0.1,0.00039916,3988.9,0.00040172,4068.9,-0.00011783,165.25,-0.00013982,0.0015052,0.44186
27293,7.4993,3.0909,0.1,0.00040174,4014.6,0.00040441,4098.5,-0.00011798,173.48,-0.00014107,0.0011116,0.43215
27294,7.5914,2.8182,0.1,0.00039923,3989.5,0.00040176,4068.9,-0.00011797,163.91,-0.00013978,0.00094392,0.44182
27295,7.4993,2.9091,0.1,0.00040174,4014.6,0.00040441,4098.5,-0.00011798,173.48,-0.00014107,0.0011118,0.43215
27296,7.5914,2.6364,0.1,0.00039942,3991.4,0.0004019,4069,-0.00011836,159.94,-0.00013965,-0.00070522,0.4417
27297,7.4993,2.7273,0.1,0.00040187,4015.9,0.0004045,4098.5,-0.00011827,170.6,-0.00014098,-0.0001312,0.43207
27298,7.5914,2.4545,0.1,0.00039973,3994.5,0.00040212,4069.1,-0.00011901,153.48,-0.00013944,-0.0033406,0.44151
27299,7.4993,2.5455,0.1,0.00040213,4018.5,0.00040468,4098.4,-0.00011883,164.95,-0.00014079,-0.0025404,0.43191
27300,7.5914,2.2727,0.1,0.00040015,3998.7,0.00040242,4069.2,-0.00011989,144.78,-0.00013916,-0.0068019,0.44123
27301,7.4993,2.3636,0.1,0.0004025,4022.2,0.00040494,4098.3,-0.00011965,156.75,-0.00014051,-0.0059678,0.43168
27302,7.5914,2.0909,0.1,0.00040066,4003.9,0.00040278,4069.3,-0.00012095,134.14,-0.00013881,-0.010876,0.44088
27303,7.4993,2.1818,0.1,0.00040298,4027,0.00040527,4098.1,-0.00012069,146.29,-0.00014016,-0.010205,0.43137
27304,7.5914,1.9091,0.1,0.00040126,4009.8,0.00040319,4069.4,-0.00012218,121.94,-0.00013841,-0.015311,0.44045
27305,7.4993,2,0.1,0.00040354,4032.6,0.00040565,4097.9,-0.00012192,133.96,-0.00013975,-0.014989,0.43097
27306,7.5914,1.7273,0.1,0.00040191,4016.3,0.00040364,4069.5,-0.00012352,108.6,-0.00013797,-0.019832,0.43993
27307,7.4993,1.8182,0.1,0.00040417,4038.9,0.00040608,4097.6,-0.00012329,120.21,-0.00013929,-0.02002,0.4305
27308,7.5914,1.5455,0.1,0.0004026,4023.2,0.00040412,4069.6,-0.00012493,94.544,-0.00013751,-0.024165,0.43934
27309,7.4993,1.6364,0.1,0.00040484,4045.6,0.00040653,4097.3,-0.00012475,105.5,-0.00013879,-0.024984,0.42994
27310,7.5914,1.3636,0.1,0.00040331,4030.3,0.00040461,4069.8,-0.00012637,80.212,-0.00013705,-0.028046,0.43866
27311,7.4993,1.4545,0.1,0.00040554,4052.6,0.000407,4097,-0.00012626,90.321,-0.00013828,-0.02958,0.4293
27312,7.5914,1.1818,0.1,0.00040402,4037.4,0.0004051,4070,-0.0001278,66.009,-0.00013659,-0.031299,0.4379
27313,7.4993,1.2727,0.1,0.00040625,4059.7,0.00040748,4096.8,-0.00012777,75.129,-0.00013777,-0.033512,0.42858
27314,7.5914,1,0.1,0.00040473,4044.5,0.00040559,4070.4,-0.00012918,52.298,-0.00013615,-0.033706,0.43705
27315,7.4993,1.0909,0.1,0.00040696,4066.8,0.00040795,4096.6,-0.00012924,60.357,-0.00013728,-0.036659,0.42778
27316,7.5914,0.81818,0.1,0.00040542,4051.4,0.00040608,4071,-0.00013049,39.378,-0.00013574,-0.035826,0.43612
27317,7.4993,0.90909,0.1,0.00040764,4073.6,0.00040841,4096.6,-0.00013064,46.37,-0.00013682,-0.038672,0.42688
27318,7.5914,0.63636,0.1,0.0004061,4058.2,0.00040656,4071.8,-0.00013171,27.468,-0.00013537,-0.036233,0.4351
27319,7.4993,0.72727,0.1,0.00040831,4080.3,0.00040887,4096.9,-0.00013194,33.457,-0.0001364,-0.040987,0.42591
27320,7.5914,0.45455,0.1,0.00040676,4064.8,0.00040704,4073.1,-0.00013283,16.677,-0.00013506,-0.047552,0.434
27321,7.4993,0.54545,0.1,0.00040895,4086.7,0.00040931,4097.5,-0.00013313,21.81,-0.00013604,-0.039671,0.42484
27322,7.5914,0.27273,0.1,0.00040745,4071.7,0.00040757,4075.1,-0.00013389,6.7913,-0.0001348,-0.069335,0.43281
27323,7.4993,0.36364,0.1,0.00040958,4093,0.00040977,4098.6,-0.0001342,11.474,-0.00013573,-0.064771,0.42369
27324,7.4993,0.18182,0.1,0.00041028,4100,0.00041032,4100.9,-0.00013521,2.0769,-0.00013551,-0.19927,0.42245
27325,7.5914,0.090909,0.1,0.00040784,4075.6,0.00040785,4075.7,-0.00013453,0.49322,-0.00013463,-0.23024,0.43153
27326,7.4071,5.7273,0.1,0.0004124,4121.2,0.00041251,4124.5,-0.00013553,6.6897,-0.00013643,-0.074871,0.41342
27327,7.3149,5.8182,0.1,0.00041512,4148.4,0.00041515,4149.2,-0.00013682,1.9241,-0.0001371,-0.21348,0.4032
27328,7.4071,5.9091,0.1,0.00041276,4124.7,0.00041276,4124.8,-0.00013616,0.47838,-0.00013625,-0.20321,0.41213
27329,7.4071,5.5455,0.1,0.00041177,4114.8,0.00041204,4123.1,-0.00013449,16.622,-0.00013671,-0.05331,0.41462
27330,7.3149,5.6364,0.1,0.00041449,4142.1,0.00041468,4147.5,-0.00013585,11.087,-0.00013734,-0.070202,0.40445
27331,7.4071,5.3636,0.1,0.00041116,4108.7,0.00041162,4122.5,-0.00013335,27.814,-0.00013706,-0.043386,0.41574
27332,7.3149,5.4545,0.1,0.00041393,4136.4,0.00041429,4147.2,-0.00013479,21.597,-0.00013767,-0.047916,0.40561
27333,7.4071,5.1818,0.1,0.00041053,4102.4,0.0004112,4122.5,-0.00013209,40.464,-0.00013748,-0.043327,0.41676
27334,7.3149,5.2727,0.1,0.00041335,4130.7,0.00041391,4147.4,-0.00013358,33.804,-0.00013808,-0.049596,0.40668
27335,7.4071,5,0.1,0.00040987,4095.9,0.00041077,4122.8,-0.0001307,54.442,-0.00013795,-0.041297,0.4177
27336,7.3149,5.0909,0.1,0.00041274,4124.6,0.00041353,4148.2,-0.00013221,47.646,-0.00013856,-0.047607,0.40767
27337,7.4071,4.8182,0.1,0.00040919,4089.1,0.00041033,4123.3,-0.00012921,69.488,-0.00013846,-0.038615,0.41855
27338,7.3149,4.9091,0.1,0.0004121,4118.2,0.00041313,4149.2,-0.00013072,62.897,-0.0001391,-0.045412,0.40857
27339,7.4071,4.6364,0.1,0.00040849,4082.1,0.00040987,4124,-0.00012766,85.247,-0.00013901,-0.034817,0.41932
27340,7.3149,4.7273,0.1,0.00041143,4111.5,0.00041272,4150.5,-0.00012913,79.216,-0.00013968,-0.041759,0.40938
27341,7.4071,4.4545,0.1,0.00040779,4075.1,0.00040942,4124.8,-0.00012607,101.29,-0.00013956,-0.03018,0.42
27342,7.3149,4.5455,0.1,0.00041075,4104.6,0.0004123,4151.9,-0.00012748,96.166,-0.00014029,-0.037045,0.4101
27343,7.4071,4.2727,0.1,0.0004071,4068.2,0.00040897,4125.5,-0.00012451,117.12,-0.00014011,-0.024954,0.4206
27344,7.3149,4.3636,0.1,0.00041006,4097.8,0.00041187,4153.2,-0.00012582,113.24,-0.00014089,-0.031484,0.41074
27345,7.4071,4.0909,0.1,0.00040645,4061.7,0.00040854,4126.2,-0.00012302,132.24,-0.00014063,-0.019477,0.42111
27346,7.3149,4.1818,0.1,0.0004094,4091.1,0.00041145,4154.5,-0.0001242,129.88,-0.00014149,-0.025448,0.4113
27347,7.4071,3.9091,0.1,0.00040585,4055.7,0.00040814,4126.8,-0.00012166,146.12,-0.0001411,-0.014093,0.42155
27348,7.3149,4,0.1,0.00040877,4084.9,0.00041105,4155.7,-0.00012267,145.51,-0.00014204,-0.019321,0.41178
27349,7.4071,3.7273,0.1,0.00040533,4050.5,0.00040779,4127.3,-0.00012046,158.26,-0.00014152,-0.0091426,0.4219
27350,7.3149,3.8182,0.1,0.00040821,4079.3,0.00041069,4156.7,-0.0001213,159.57,-0.00014254,-0.013493,0.41217
27351,7.4071,3.5455,0.1,0.0004049,4046.2,0.0004075,4127.7,-0.00011947,168.22,-0.00014186,-0.0049356,0.42218
27352,7.3149,3.6364,0.1,0.00040773,4074.5,0.00041037,4157.5,-0.00012013,171.54,-0.00014296,-0.008332,0.41249
27353,7.4071,3.3636,0.1,0.00040458,4043,0.00040728,4127.9,-0.00011874,175.62,-0.00014212,-0.0017319,0.42237
27354,7.3149,3.4545,0.1,0.00040735,4070.7,0.00041013,4158.1,-0.00011921,180.95,-0.00014329,-0.0041583,0.41272
27355,7.4071,3.1818,0.1,0.00040438,4041,0.00040714,4128.1,-0.00011829,180.18,-0.00014227,0.00027258,0.42249
27356,7.3149,3.2727,0.1,0.00040709,4068.1,0.00040995,4158.6,-0.00011857,187.44,-0.00014352,-0.0012257,0.41288
27357,7.4071,3,0.1,0.00040431,4040.4,0.0004071,4128.2,-0.00011814,181.72,-0.00014232,0.00095471,0.42253
27358,7.3149,3.0909,0.1,0.00040695,4066.7,0.00040986,4158.8,-0.00011825,190.75,-0.00014363,0.00028657,0.41296
27359,7.4071,2.8182,0.1,0.00040438,4041,0.00040714,4128.1,-0.00011829,180.18,-0.00014227,0.0002727,0.42249
27360,7.3149,2.9091,0.1,0.00040695,4066.7,0.00040986,4158.8,-0.00011825,190.75,-0.00014363,0.00028666,0.41296
27361,7.4071,2.6364,0.1,0.00040458,4043,0.00040728,4127.9,-0.00011874,175.62,-0.00014212,-0.0017319,0.42237
27362,7.3149,2.7273,0.1,0.00040709,4068.1,0.00040995,4158.6,-0.00011857,187.44,-0.00014352,-0.0012257,0.41288
27363,7.4071,2.4545,0.1,0.0004049,4046.2,0.0004075,4127.7,-0.00011947,168.22,-0.00014186,-0.0049356,0.42218
27364,7.3149,2.5455,0.1,0.00040735,4070.7,0.00041013,4158.1,-0.00011921,180.95,-0.00014329,-0.0041585,0.41272
27365,7.4071,2.2727,0.1,0.00040533,4050.5,0.00040779,4127.3,-0.00012046,158.26,-0.00014152,-0.0091427,0.4219
27366,7.3149,2.3636,0.1,0.00040773,4074.5,0.00041037,4157.5,-0.00012013,171.54,-0.00014296,-0.008332,0.41249
27367,7.4071,2.0909,0.1,0.00040585,4055.7,0.00040814,4126.8,-0.00012166,146.12,-0.0001411,-0.014094,0.42155
27368,7.3149,2.1818,0.1,0.00040821,4079.3,0.00041069,4156.7,-0.0001213,159.57,-0.00014254,-0.013494,0.41217
27369,7.4071,1.9091,0.1,0.00040645,4061.7,0.00040854,4126.2,-0.00012302,132.24,-0.00014063,-0.019478,0.42111
27370,7.3149,2,0.1,0.00040877,4084.9,0.00041105,4155.7,-0.00012267,145.51,-0.00014204,-0.019322,0.41178
27371,7.4071,1.7273,0.1,0.0004071,4068.2,0.00040897,4125.5,-0.00012451,117.12,-0.00014011,-0.024955,0.4206
27372,7.3149,1.8182,0.1,0.0004094,4091.1,0.00041145,4154.5,-0.0001242,129.88,-0.00014149,-0.025449,0.4113
27373,7.4071,1.5455,0.1,0.00040779,4075.1,0.00040942,4124.8,-0.00012607,101.29,-0.00013956,-0.03018,0.42
27374,7.3149,1.6364,0.1,0.00041006,4097.8,0.00041187,4153.2,-0.00012582,113.24,-0.00014089,-0.031484,0.41074
27375,7.4071,1.3636,0.1,0.00040849,4082.1,0.00040987,4124,-0.00012766,85.247,-0.00013901,-0.034818,0.41932
27376,7.3149,1.4545,0.1,0.00041075,4104.6,0.0004123,4151.9,-0.00012748,96.166,-0.00014029,-0.037046,0.4101
27377,7.4071,1.1818,0.1,0.00040919,4089.1,0.00041033,4123.3,-0.00012921,69.488,-0.00013846,-0.038616,0.41855
27378,7.3149,1.2727,0.1,0.00041143,4111.5,0.00041272,4150.5,-0.00012913,79.216,-0.00013968,-0.04176,0.40938
27379,7.4071,1,0.1,0.00040987,4095.9,0.00041077,4122.8,-0.0001307,54.442,-0.00013795,-0.041298,0.4177
27380,7.3149,1.0909,0.1,0.0004121,4118.2,0.00041313,4149.2,-0.00013072,62.897,-0.0001391,-0.045412,0.40857
27381,7.4071,0.81818,0.1,0.00041053,4102.4,0.0004112,4122.5,-0.00013209,40.464,-0.00013748,-0.043328,0.41676
27382,7.3149,0.90909,0.1,0.00041274,4124.6,0.00041353,4148.2,-0.00013221,47.646,-0.00013856,-0.047608,0.40767
27383,7.4071,0.63636,0.1,0.00041116,4108.7,0.00041162,4122.5,-0.00013335,27.814,-0.00013706,-0.043386,0.41574
27384,7.3149,0.72727,0.1,0.00041335,4130.7,0.00041391,4147.4,-0.00013358,33.804,-0.00013808,-0.049597,0.40668
27385,7.4071,0.45455,0.1,0.00041177,4114.8,0.00041204,4123.1,-0.00013449,16.622,-0.00013671,-0.053311,0.41462
27386,7.3149,0.54545,0.1,0.00041393,4136.4,0.00041429,4147.2,-0.00013479,21.597,-0.00013767,-0.047917,0.40561
27387,7.4071,0.27273,0.1,0.0004124,4121.2,0.00041251,4124.5,-0.00013553,6.6897,-0.00013643,-0.074873,0.41342
27388,7.3149,0.36364,0.1,0.00041449,4142.1,0.00041468,4147.6,-0.00013585,11.087,-0.00013734,-0.070203,0.40445
27389,7.3149,0.18182,0.1,0.00041512,4148.4,0.00041515,4149.2,-0.00013682,1.9241,-0.0001371,-0.21348,0.4032
27390,7.4071,0.090909,0.1,0.00041276,4124.7,0.00041276,4124.8,-0.00013616,0.47838,-0.00013625,-0.20321,0.41213
27391,7.2227,5.7273,0.1,0.00041721,4169.2,0.00041731,4172.2,-0.00013715,6.2435,-0.00013799,-0.083048,0.39432
27392,7.1305,5.8182,0.1,0.00041977,4194.9,0.0004198,4195.5,-0.00013839,1.5159,-0.00013862,-0.25922,0.38423
27393,7.2227,5.9091,0.1,0.0004175,4172.1,0.0004175,4172.1,-0.00013773,0.3464,-0.00013781,-0.20083,0.39302
27394,7.2227,5.5455,0.1,0.00041665,4163.6,0.00041692,4171.6,-0.00013615,16.076,-0.0001383,-0.060871,0.39553
27395,7.1305,5.6364,0.1,0.00041925,4189.6,0.00041942,4194.6,-0.00013749,10.211,-0.00013886,-0.077908,0.38549
27396,7.2227,5.3636,0.1,0.00041612,4158.3,0.00041658,4172,-0.00013501,27.602,-0.00013869,-0.05295,0.39665
27397,7.1305,5.4545,0.1,0.00041878,4184.9,0.00041913,4195.3,-0.00013646,20.772,-0.00013923,-0.059384,0.38666
27398,7.2227,5.1818,0.1,0.00041556,4152.8,0.00041625,4173.1,-0.0001337,41.001,-0.00013917,-0.053284,0.39768
27399,7.1305,5.2727,0.1,0.0004183,4180.1,0.00041886,4196.7,-0.00013523,33.502,-0.0001397,-0.061332,0.38774
27400,7.2227,5,0.1,0.00041497,4146.8,0.0004159,4174.6,-0.00013224,56.115,-0.00013971,-0.051324,0.39863
27401,7.1305,5.0909,0.1,0.00041778,4174.9,0.00041858,4198.8,-0.00013382,48.317,-0.00014026,-0.059636,0.38873
27402,7.2227,4.8182,0.1,0.00041434,4140.6,0.00041553,4176.4,-0.00013065,72.637,-0.00014032,-0.048232,0.39948
27403,7.1305,4.9091,0.1,0.00041721,4169.2,0.00041828,4201.3,-0.00013224,64.95,-0.00014089,-0.057069,0.38964
27404,7.2227,4.6364,0.1,0.00041369,4134,0.00041515,4178.3,-0.00012896,90.145,-0.00014096,-0.043692,0.40025
27405,7.1305,4.7273,0.1,0.00041661,4163.2,0.00041796,4204.1,-0.00013052,82.995,-0.00014158,-0.052695,0.39045
27406,7.2227,4.4545,0.1,0.00041302,4127.3,0.00041475,4180.3,-0.00012722,108.13,-0.00014162,-0.038063,0.40094
27407,7.1305,4.5455,0.1,0.00041598,4156.9,0.00041762,4206.9,-0.00012872,101.93,-0.00014229,-0.04688,0.39118
27408,7.2227,4.2727,0.1,0.00041235,4120.7,0.00041435,4182.2,-0.0001255,126,-0.00014227,-0.031692,0.40154
27409,7.1305,4.3636,0.1,0.00041533,4150.5,0.00041726,4209.7,-0.00012689,121.16,-0.00014302,-0.040044,0.39183
27410,7.2227,4.0909,0.1,0.00041172,4114.3,0.00041396,4184,-0.00012384,143.16,-0.0001429,-0.025004,0.40206
27411,7.1305,4.1818,0.1,0.0004147,4144.1,0.0004169,4212.4,-0.00012509,140.02,-0.00014373,-0.032627,0.39239
27412,7.2227,3.9091,0.1,0.00041113,4108.4,0.0004136,4185.6,-0.00012231,158.97,-0.00014347,-0.01843,0.40249
27413,7.1305,4,0.1,0.0004141,4138.1,0.00041656,4214.8,-0.00012339,157.82,-0.0001444,-0.02511,0.39287
27414,7.2227,3.7273,0.1,0.00041061,4103.2,0.00041327,4186.9,-0.00012097,172.85,-0.00014397,-0.012388,0.40285
27415,7.1305,3.8182,0.1,0.00041355,4132.7,0.00041624,4216.9,-0.00012185,173.88,-0.000145,-0.017971,0.39326
27416,7.2227,3.5455,0.1,0.00041018,4099,0.000413,4188,-0.00011986,184.27,-0.00014438,-0.0072569,0.40313
27417,7.1305,3.6364,0.1,0.00041308,4128,0.00041595,4218.6,-0.00012054,187.59,-0.00014551,-0.011659,0.39358
27418,7.2227,3.3636,0.1,0.00040986,4095.8,0.0004128,4188.7,-0.00011903,192.77,-0.00014469,-0.0033523,0.40332
27419,7.1305,3.4545,0.1,0.00041271,4124.3,0.00041573,4219.9,-0.0001195,198.4,-0.00014591,-0.0065615,0.39381
27420,7.2227,3.1818,0.1,0.00040966,4093.8,0.00041267,4189.2,-0.00011853,198,-0.00014488,-0.00091061,0.40344
27421,7.1305,3.2727,0.1,0.00041246,4121.7,0.00041557,4220.8,-0.00011878,205.85,-0.00014618,-0.0029836,0.39397
27422,7.2227,3,0.1,0.0004096,4093.1,0.00041263,4189.4,-0.00011835,199.78,-0.00014494,-7.9966e-05,0.40348
27423,7.1305,3.0909,0.1,0.00041233,4120.4,0.00041549,4221.2,-0.00011842,209.66,-0.00014632,-0.0011399,0.39405
27424,7.2227,2.8182,0.1,0.00040966,4093.8,0.00041267,4189.2,-0.00011853,198,-0.00014488,-0.0009106,0.40344
27425,7.1305,2.9091,0.1,0.00041233,4120.4,0.00041549,4221.2,-0.00011842,209.66,-0.00014632,-0.0011399,0.39405
27426,7.2227,2.6364,0.1,0.00040986,4095.8,0.0004128,4188.7,-0.00011903,192.77,-0.00014469,-0.0033524,0.40332
27427,7.1305,2.7273,0.1,0.00041246,4121.7,0.00041557,4220.8,-0.00011878,205.85,-0.00014618,-0.0029838,0.39397
27428,7.2227,2.4545,0.1,0.00041018,4099,0.000413,4188,-0.00011986,184.27,-0.00014438,-0.0072571,0.40313
27429,7.1305,2.5455,0.1,0.00041271,4124.3,0.00041573,4219.9,-0.0001195,198.4,-0.00014591,-0.0065615,0.39381
27430,7.2227,2.2727,0.1,0.00041061,4103.2,0.00041327,4186.9,-0.00012097,172.85,-0.00014397,-0.012388,0.40285
27431,7.1305,2.3636,0.1,0.00041308,4128,0.00041595,4218.6,-0.00012054,187.59,-0.00014551,-0.011659,0.39358
27432,7.2227,2.0909,0.1,0.00041113,4108.4,0.0004136,4185.6,-0.00012231,158.97,-0.00014347,-0.01843,0.40249
27433,7.1305,2.1818,0.1,0.00041355,4132.7,0.00041624,4216.9,-0.00012185,173.88,-0.000145,-0.017972,0.39326
27434,7.2227,1.9091,0.1,0.00041172,4114.3,0.00041396,4184,-0.00012384,143.16,-0.0001429,-0.025005,0.40206
27435,7.1305,2,0.1,0.0004141,4138.1,0.00041656,4214.8,-0.00012339,157.82,-0.0001444,-0.025111,0.39287
27436,7.2227,1.7273,0.1,0.00041235,4120.7,0.00041435,4182.2,-0.0001255,126,-0.00014227,-0.031693,0.40154
27437,7.1305,1.8182,0.1,0.0004147,4144.1,0.0004169,4212.4,-0.00012509,140.02,-0.00014373,-0.032628,0.39239
27438,7.2227,1.5455,0.1,0.00041302,4127.3,0.00041475,4180.3,-0.00012722,108.13,-0.00014162,-0.038064,0.40094
27439,7.1305,1.6364,0.1,0.00041533,4150.5,0.00041726,4209.7,-0.00012689,121.16,-0.00014302,-0.040044,0.39183
27440,7.2227,1.3636,0.1,0.00041369,4134,0.00041515,4178.3,-0.00012896,90.145,-0.00014096,-0.043693,0.40025
27441,7.1305,1.4545,0.1,0.00041598,4156.9,0.00041762,4206.9,-0.00012872,101.93,-0.00014229,-0.04688,0.39118
27442,7.2227,1.1818,0.1,0.00041434,4140.6,0.00041553,4176.4,-0.00013065,72.637,-0.00014032,-0.048233,0.39948
27443,7.1305,1.2727,0.1,0.00041661,4163.2,0.00041796,4204.1,-0.00013052,82.995,-0.00014158,-0.052695,0.39045
27444,7.2227,1,0.1,0.00041497,4146.8,0.0004159,4174.6,-0.00013224,56.115,-0.00013971,-0.051326,0.39863
27445,7.1305,1.0909,0.1,0.00041721,4169.2,0.00041828,4201.3,-0.00013224,64.95,-0.00014089,-0.057069,0.38964
27446,7.2227,0.81818,0.1,0.00041556,4152.8,0.00041625,4173.1,-0.0001337,41.001,-0.00013917,-0.053283,0.39768
27447,7.1305,0.90909,0.1,0.00041778,4174.9,0.00041858,4198.8,-0.00013382,48.317,-0.00014026,-0.059638,0.38873
27448,7.2227,0.63636,0.1,0.00041612,4158.3,0.00041658,4172,-0.00013501,27.602,-0.00013869,-0.052951,0.39665
27449,7.1305,0.72727,0.1,0.0004183,4180.1,0.00041886,4196.7,-0.00013523,33.502,-0.0001397,-0.061333,0.38774
27450,7.2227,0.45455,0.1,0.00041665,4163.6,0.00041692,4171.6,-0.00013615,16.076,-0.0001383,-0.060872,0.39553
27451,7.1305,0.54545,0.1,0.00041878,4184.9,0.00041913,4195.3,-0.00013646,20.772,-0.00013923,-0.059385,0.38666
27452,7.2227,0.27273,0.1,0.00041721,4169.2,0.00041731,4172.2,-0.00013715,6.2435,-0.00013799,-0.083049,0.39432
27453,7.1305,0.36364,0.1,0.00041925,4189.6,0.00041942,4194.6,-0.00013749,10.211,-0.00013886,-0.077909,0.38549
27454,7.1305,0.18182,0.1,0.00041977,4194.9,0.0004198,4195.5,-0.00013839,1.5159,-0.00013862,-0.25922,0.38423
27455,7.2227,0.090909,0.1,0.0004175,4172.1,0.0004175,4172.1,-0.00013773,0.3464,-0.00013781,-0.20083,0.39302
27456,7.0383,5.7273,0.1,0.00042181,4215.2,0.0004219,4217.8,-0.00013874,5.3724,-0.00013947,-0.097018,0.3755
27457,6.9462,5.8182,0.1,0.00042418,4238.8,0.00042418,4239.1,-0.00013989,0.86365,-0.00014006,-0.41383,0.36555
27458,7.0383,5.9091,0.1,0.000422,4217.1,0.000422,4217.1,-0.00013924,0.10732,-0.00013929,-0.26691,0.37419
27459,7.0383,5.5455,0.1,0.00042137,4210.8,0.00042162,4218.2,-0.0001378,14.921,-0.0001398,-0.071834,0.37672
27460,6.9462,5.6364,0.1,0.00042379,4235,0.00042393,4239.3,-0.00013912,8.7355,-0.00014029,-0.091292,0.36682
27461,7.0383,5.3636,0.1,0.00042096,4206.7,0.0004214,4219.9,-0.00013668,26.688,-0.00014024,-0.066383,0.37785
27462,6.9462,5.4545,0.1,0.00042346,4231.7,0.00042379,4241.2,-0.00013813,19.191,-0.0001407,-0.076523,0.368
27463,7.0383,5.1818,0.1,0.00042051,4202.2,0.00042119,4222.4,-0.00013535,40.834,-0.00014079,-0.066965,0.37889
27464,6.9462,5.2727,0.1,0.00042312,4228.2,0.00042366,4244.3,-0.00013691,32.389,-0.00014124,-0.07811,0.36909
27465,7.0383,5,0.1,0.00042001,4197.2,0.00042096,4225.5,-0.00013382,57.167,-0.00014143,-0.064877,0.37984
27466,6.9462,5.0909,0.1,0.00042272,4224.3,0.00042352,4248.2,-0.00013546,48.218,-0.00014189,-0.076326,0.37008
27467,7.0383,4.8182,0.1,0.00041947,4191.8,0.0004207,4229,-0.00013211,75.32,-0.00014215,-0.061077,0.3807
27468,6.9462,4.9091,0.1,0.00042227,4219.8,0.00042336,4252.6,-0.00013379,66.358,-0.00014263,-0.072912,0.37099
27469,7.0383,4.6364,0.1,0.00041889,4186.1,0.00042043,4232.6,-0.00013029,94.794,-0.00014291,-0.055457,0.38147
27470,6.9462,4.7273,0.1,0.00042177,4214.8,0.00042317,4257.3,-0.00013195,86.328,-0.00014345,-0.067282,0.37181
27471,7.0383,4.4545,0.1,0.00041829,4180,0.00042013,4236.3,-0.00012839,114.98,-0.0001437,-0.048477,0.38216
27472,6.9462,4.5455,0.1,0.00042123,4209.4,0.00042296,4262.1,-0.00012999,107.51,-0.0001443,-0.059952,0.37255
27473,7.0383,4.2727,0.1,0.00041768,4173.9,0.00041981,4239.8,-0.00012648,135.18,-0.00014448,-0.040598,0.38277
27474,6.9462,4.3636,0.1,0.00042067,4203.8,0.00042272,4266.9,-0.00012797,129.2,-0.00014518,-0.051382,0.37319
27475,7.0383,4.0909,0.1,0.00041708,4167.9,0.0004195,4243.1,-0.00012464,154.68,-0.00014523,-0.032352,0.38329
27476,6.9462,4.1818,0.1,0.0004201,4198.1,0.00042246,4271.4,-0.00012598,150.59,-0.00014603,-0.042151,0.37376
27477,7.0383,3.9091,0.1,0.00041652,4162.4,0.00041919,4246,-0.00012293,172.73,-0.00014592,-0.024269,0.38372
27478,6.9462,4,0.1,0.00041956,4192.7,0.0004222,4275.5,-0.00012409,170.88,-0.00014683,-0.032845,0.37423
27479,7.0383,3.7273,0.1,0.00041603,4157.4,0.00041892,4248.5,-0.00012142,188.62,-0.00014653,-0.016859,0.38408
27480,6.9462,3.8182,0.1,0.00041905,4187.6,0.00042195,4279,-0.00012237,189.25,-0.00014756,-0.024047,0.37463
27481,7.0383,3.5455,0.1,0.00041562,4153.3,0.00041868,4250.5,-0.00012018,201.72,-0.00014703,-0.01058,0.38435
27482,6.9462,3.6364,0.1,0.00041862,4183.3,0.00042173,4282,-0.00012089,204.98,-0.00014817,-0.016293,0.37495
27483,7.0383,3.3636,0.1,0.00041531,4150.2,0.0004185,4251.9,-0.00011925,211.48,-0.0001474,-0.005808,0.38455
27484,6.9462,3.4545,0.1,0.00041827,4179.8,0.00042155,4284.3,-0.00011972,217.39,-0.00014866,-0.010048,0.37518
27485,7.0383,3.1818,0.1,0.00041512,4148.3,0.00041839,4252.8,-0.00011867,217.51,-0.00014762,-0.0028277,0.38467
27486,6.9462,3.2727,0.1,0.00041803,4177.4,0.00042142,4285.8,-0.00011892,225.98,-0.00014899,-0.005674,0.37534
27487,7.0383,3,0.1,0.00041506,4147.7,0.00041836,4253.1,-0.00011848,219.55,-0.0001477,-0.0018146,0.38471
27488,6.9462,3.0909,0.1,0.00041791,4176.2,0.00042135,4286.6,-0.0001185,230.36,-0.00014916,-0.0034225,0.37542
27489,7.0383,2.8182,0.1,0.00041512,4148.3,0.00041839,4252.8,-0.00011867,217.51,-0.00014762,-0.0028279,0.38467
27490,6.9462,2.9091,0.1,0.00041791,4176.2,0.00042135,4286.6,-0.0001185,230.36,-0.00014916,-0.0034226,0.37542
27491,7.0383,2.6364,0.1,0.00041531,4150.2,0.0004185,4251.9,-0.00011925,211.48,-0.0001474,-0.0058081,0.38455
27492,6.9462,2.7273,0.1,0.00041803,4177.4,0.00042142,4285.8,-0.00011892,225.98,-0.00014899,-0.0056742,0.37534
27493,7.0383,2.4545,0.1,0.00041562,4153.3,0.00041868,4250.5,-0.00012018,201.72,-0.00014703,-0.01058,0.38435
27494,6.9462,2.5455,0.1,0.00041827,4179.8,0.00042155,4284.3,-0.00011972,217.39,-0.00014866,-0.010049,0.37518
27495,7.0383,2.2727,0.1,0.00041603,4157.4,0.00041892,4248.5,-0.00012142,188.62,-0.00014653,-0.01686,0.38408
27496,6.9462,2.3636,0.1,0.00041862,4183.3,0.00042173,4282,-0.00012089,204.98,-0.00014817,-0.016294,0.37495
27497,7.0383,2.0909,0.1,0.00041652,4162.4,0.00041919,4246,-0.00012293,172.73,-0.00014592,-0.02427,0.38372
27498,6.9462,2.1818,0.1,0.00041905,4187.6,0.00042195,4279,-0.00012237,189.25,-0.00014756,-0.024047,0.37463
27499,7.0383,1.9091,0.1,0.00041708,4167.9,0.0004195,4243.1,-0.00012464,154.68,-0.00014523,-0.032353,0.38329
27500,6.9462,2,0.1,0.00041956,4192.7,0.0004222,4275.5,-0.00012409,170.88,-0.00014683,-0.032846,0.37423
27501,7.0383,1.7273,0.1,0.00041768,4173.9,0.00041981,4239.8,-0.00012648,135.18,-0.00014448,-0.040599,0.38277
27502,6.9462,1.8182,0.1,0.0004201,4198.1,0.00042246,4271.4,-0.00012598,150.59,-0.00014603,-0.042151,0.37376
27503,7.0383,1.5455,0.1,0.00041829,4180,0.00042013,4236.3,-0.00012839,114.98,-0.0001437,-0.048477,0.38216
27504,6.9462,1.6364,0.1,0.00042067,4203.8,0.00042272,4266.9,-0.00012797,129.2,-0.00014518,-0.051383,0.37319
27505,7.0383,1.3636,0.1,0.00041889,4186.1,0.00042043,4232.6,-0.00013029,94.794,-0.00014291,-0.055458,0.38147
27506,6.9462,1.4545,0.1,0.00042123,4209.4,0.00042296,4262.1,-0.00012999,107.51,-0.0001443,-0.059953,0.37255
27507,7.0383,1.1818,0.1,0.00041947,4191.8,0.0004207,4229,-0.00013211,75.32,-0.00014215,-0.061077,0.3807
27508,6.9462,1.2727,0.1,0.00042177,4214.8,0.00042317,4257.3,-0.00013195,86.328,-0.00014345,-0.067283,0.37181
27509,7.0383,1,0.1,0.00042001,4197.2,0.00042096,4225.5,-0.00013382,57.167,-0.00014143,-0.064878,0.37984
27510,6.9462,1.0909,0.1,0.00042227,4219.8,0.00042336,4252.6,-0.00013379,66.358,-0.00014263,-0.072913,0.37099
27511,7.0383,0.81818,0.1,0.00042051,4202.2,0.00042119,4222.4,-0.00013535,40.834,-0.00014079,-0.066967,0.37889
27512,6.9462,0.90909,0.1,0.00042272,4224.3,0.00042352,4248.2,-0.00013546,48.218,-0.00014189,-0.076327,0.37008
27513,7.0383,0.63636,0.1,0.00042096,4206.7,0.0004214,4219.9,-0.00013668,26.688,-0.00014024,-0.066384,0.37785
27514,6.9462,0.72727,0.1,0.00042312,4228.2,0.00042366,4244.3,-0.00013691,32.389,-0.00014124,-0.078111,0.36909
27515,7.0383,0.45455,0.1,0.00042137,4210.8,0.00042162,4218.2,-0.0001378,14.921,-0.0001398,-0.071835,0.37672
27516,6.9462,0.54545,0.1,0.00042346,4231.7,0.00042379,4241.2,-0.00013813,19.191,-0.0001407,-0.076524,0.368
27517,7.0383,0.27273,0.1,0.00042181,4215.2,0.0004219,4217.8,-0.00013874,5.3724,-0.00013947,-0.097019,0.3755
27518,6.9462,0.36364,0.1,0.00042379,4235,0.00042393,4239.3,-0.00013912,8.7355,-0.00014029,-0.091293,0.36682
27519,6.9462,0.18182,0.1,0.00042418,4238.8,0.00042418,4239.1,-0.00013989,0.86365,-0.00014006,-0.41383,0.36555
27520,7.0383,0.090909,0.1,0.000422,4217.1,0.000422,4217.1,-0.00013924,0.10732,-0.00013929,-0.26691,0.37419
27521,6.854,5.7273,0.1,0.00042615,4258.5,0.00042621,4260.5,-0.00014029,3.9901,-0.00014084,-0.12739,0.35696
27522,6.7618,5.8182,0.1,0.00042825,4279.5,0.00042823,4279.1,-0.00014125,0.28233,-0.00014143,-1.0686,0.34715
27523,6.854,5.9091,0.1,0.00042621,4259.2,0.0004262,4258.8,-0.00014062,-0.042207,-0.0001407,-0.63737,0.35564
27524,6.854,5.5455,0.1,0.00042588,4255.8,0.00042609,4262.3,-0.00013945,13.018,-0.00014119,-0.08998,0.35819
27525,6.7618,5.6364,0.1,0.00042805,4277.5,0.00042816,4280.7,-0.0001407,6.5407,-0.00014159,-0.12159,0.34843
27526,6.854,5.3636,0.1,0.00042562,4253.3,0.00042604,4265.6,-0.00013837,24.909,-0.00014169,-0.086499,0.35933
27527,6.7618,5.4545,0.1,0.00042791,4276.2,0.00042819,4284.5,-0.00013981,16.692,-0.00014205,-0.10491,0.34962
27528,6.854,5.1818,0.1,0.00042532,4250.3,0.00042599,4270,-0.00013702,39.79,-0.00014233,-0.086537,0.36038
27529,6.7618,5.2727,0.1,0.00042775,4274.6,0.00042826,4289.6,-0.00013862,30.282,-0.00014266,-0.1036,0.35072
27530,6.854,5,0.1,0.00042498,4246.8,0.00042592,4275.2,-0.00013543,57.425,-0.00014308,-0.083679,0.36133
27531,6.7618,5.0909,0.1,0.00042754,4272.4,0.00042832,4295.8,-0.00013714,47.158,-0.00014343,-0.10033,0.35172
27532,6.854,4.8182,0.1,0.00042457,4242.8,0.00042583,4280.9,-0.00013362,77.379,-0.00014393,-0.078531,0.3622
27533,6.7618,4.9091,0.1,0.00042726,4269.7,0.00042836,4302.7,-0.00013538,66.938,-0.00014431,-0.094942,0.35264
27534,6.854,4.6364,0.1,0.00042411,4238.2,0.00042571,4286.8,-0.00013165,99.059,-0.00014484,-0.07123,0.36298
27535,6.7618,4.7273,0.1,0.00042692,4266.2,0.00042836,4310,-0.00013341,89.053,-0.00014528,-0.087164,0.35346
27536,6.854,4.4545,0.1,0.00042361,4233.2,0.00042555,4292.7,-0.00012957,121.74,-0.00014578,-0.062328,0.36367
27537,6.7618,4.5455,0.1,0.00042652,4262.3,0.00042833,4317.5,-0.00013129,112.77,-0.00014631,-0.077489,0.3542
27538,6.854,4.2727,0.1,0.00042309,4228,0.00042537,4298.4,-0.00012747,144.61,-0.00014673,-0.052417,0.36428
27539,6.7618,4.3636,0.1,0.00042609,4257.9,0.00042826,4324.9,-0.00012908,137.25,-0.00014736,-0.06648,0.35485
27540,6.854,4.0909,0.1,0.00042258,4222.8,0.00042517,4303.7,-0.00012543,166.79,-0.00014763,-0.042133,0.3648
27541,6.7618,4.1818,0.1,0.00042563,4253.4,0.00042815,4331.8,-0.00012688,161.54,-0.00014839,-0.054809,0.35541
27542,6.854,3.9091,0.1,0.00042208,4217.9,0.00042496,4308.5,-0.00012352,187.4,-0.00014847,-0.032117,0.36524
27543,6.7618,4,0.1,0.00042518,4248.9,0.00042802,4338.2,-0.00012478,184.68,-0.00014936,-0.04317,0.35589
27544,6.854,3.7273,0.1,0.00042164,4213.5,0.00042476,4312.5,-0.00012184,205.61,-0.0001492,-0.022979,0.36559
27545,6.7618,3.8182,0.1,0.00042476,4244.7,0.00042789,4343.8,-0.00012286,205.72,-0.00015024,-0.03225,0.35629
27546,6.854,3.5455,0.1,0.00042127,4209.8,0.00042459,4315.8,-0.00012044,220.65,-0.00014981,-0.015264,0.36587
27547,6.7618,3.6364,0.1,0.00042439,4241,0.00042776,4348.4,-0.00012121,223.76,-0.00015099,-0.022682,0.35661
27548,6.854,3.3636,0.1,0.00042099,4207,0.00042446,4318.2,-0.00011939,231.88,-0.00015026,-0.0094188,0.36606
27549,6.7618,3.4545,0.1,0.0004241,4238,0.00042764,4352,-0.0001199,238.04,-0.00015158,-0.015008,0.35684
27550,6.854,3.1818,0.1,0.00042082,4205.3,0.00042437,4319.6,-0.00011875,238.82,-0.00015053,-0.0057749,0.36618
27551,6.7618,3.2727,0.1,0.00042389,4236,0.00042756,4354.5,-0.00011899,247.92,-0.00015198,-0.0096504,0.357
27552,6.854,3,0.1,0.00042076,4204.7,0.00042435,4320.1,-0.00011853,241.17,-0.00015063,-0.0045373,0.36622
27553,6.7618,3.0909,0.1,0.00042378,4234.9,0.00042752,4355.7,-0.00011852,252.97,-0.00015219,-0.0068982,0.35708
27554,6.854,2.8182,0.1,0.00042082,4205.3,0.00042437,4319.6,-0.00011875,238.82,-0.00015053,-0.005775,0.36618
27555,6.7618,2.9091,0.1,0.00042378,4234.9,0.00042752,4355.7,-0.00011852,252.97,-0.00015219,-0.0068982,0.35708
27556,6.854,2.6364,0.1,0.00042099,4207,0.00042446,4318.2,-0.00011939,231.88,-0.00015026,-0.009419,0.36606
27557,6.7618,2.7273,0.1,0.00042389,4236,0.00042756,4354.5,-0.00011899,247.92,-0.00015198,-0.0096504,0.357
27558,6.854,2.4545,0.1,0.00042127,4209.8,0.00042459,4315.8,-0.00012044,220.65,-0.00014981,-0.015265,0.36587
27559,6.7618,2.5455,0.1,0.0004241,4238,0.00042764,4352,-0.0001199,238.04,-0.00015158,-0.015008,0.35684
27560,6.854,2.2727,0.1,0.00042164,4213.5,0.00042476,4312.5,-0.00012184,205.61,-0.0001492,-0.02298,0.36559
27561,6.7618,2.3636,0.1,0.00042439,4241,0.00042776,4348.4,-0.00012121,223.76,-0.00015099,-0.022682,0.35661
27562,6.854,2.0909,0.1,0.00042208,4217.9,0.00042496,4308.5,-0.00012352,187.4,-0.00014847,-0.032117,0.36524
27563,6.7618,2.1818,0.1,0.00042476,4244.7,0.00042789,4343.8,-0.00012286,205.72,-0.00015024,-0.03225,0.35629
27564,6.854,1.9091,0.1,0.00042258,4222.8,0.00042517,4303.7,-0.00012543,166.79,-0.00014763,-0.042133,0.3648
27565,6.7618,2,0.1,0.00042518,4248.9,0.00042802,4338.2,-0.00012478,184.68,-0.00014936,-0.043171,0.35589
27566,6.854,1.7273,0.1,0.00042309,4228,0.00042537,4298.4,-0.00012747,144.61,-0.00014673,-0.052418,0.36428
27567,6.7618,1.8182,0.1,0.00042563,4253.4,0.00042815,4331.8,-0.00012688,161.54,-0.00014839,-0.054809,0.35541
27568,6.854,1.5455,0.1,0.00042361,4233.2,0.00042555,4292.7,-0.00012957,121.74,-0.00014578,-0.062328,0.36367
27569,6.7618,1.6364,0.1,0.00042609,4257.9,0.00042826,4324.9,-0.00012908,137.25,-0.00014736,-0.066481,0.35485
27570,6.854,1.3636,0.1,0.00042411,4238.2,0.00042571,4286.8,-0.00013165,99.059,-0.00014484,-0.071231,0.36298
27571,6.7618,1.4545,0.1,0.00042652,4262.3,0.00042833,4317.5,-0.00013129,112.77,-0.00014631,-0.077489,0.3542
27572,6.854,1.1818,0.1,0.00042457,4242.8,0.00042583,4280.9,-0.00013362,77.379,-0.00014393,-0.078531,0.3622
27573,6.7618,1.2727,0.1,0.00042692,4266.2,0.00042836,4310,-0.00013342,89.053,-0.00014528,-0.087165,0.35346
27574,6.854,1,0.1,0.00042498,4246.8,0.00042592,4275.2,-0.00013543,57.425,-0.00014308,-0.08368,0.36133
27575,6.7618,1.0909,0.1,0.00042726,4269.7,0.00042836,4302.7,-0.00013538,66.938,-0.00014431,-0.094943,0.35264
27576,6.854,0.81818,0.1,0.00042532,4250.3,0.00042599,4270,-0.00013702,39.79,-0.00014233,-0.086539,0.36038
27577,6.7618,0.90909,0.1,0.00042754,4272.4,0.00042832,4295.8,-0.00013714,47.158,-0.00014343,-0.10034,0.35172
27578,6.854,0.63636,0.1,0.00042562,4253.3,0.00042604,4265.6,-0.00013837,24.909,-0.00014169,-0.0865,0.35933
27579,6.7618,0.72727,0.1,0.00042775,4274.6,0.00042826,4289.6,-0.00013862,30.282,-0.00014266,-0.1036,0.35072
27580,6.854,0.45455,0.1,0.00042588,4255.8,0.00042609,4262.3,-0.00013945,13.018,-0.00014119,-0.089981,0.35819
27581,6.7618,0.54545,0.1,0.00042791,4276.2,0.00042819,4284.5,-0.00013981,16.692,-0.00014205,-0.10491,0.34962
27582,6.854,0.27273,0.1,0.00042615,4258.5,0.00042621,4260.5,-0.00014029,3.9901,-0.00014084,-0.12739,0.35696
27583,6.7618,0.36364,0.1,0.00042805,4277.5,0.00042816,4280.7,-0.0001407,6.5407,-0.00014159,-0.12159,0.34843
27584,6.7618,0.18182,0.1,0.00042825,4279.5,0.00042823,4279.1,-0.00014125,0.28233,-0.00014143,-1.0686,0.34715
27585,6.854,0.090909,0.1,0.00042621,4259.2,0.0004262,4258.8,-0.00014062,-0.042208,-0.0001407,-0.63737,0.35564
27586,6.6696,5.7273,0.1,0.00043014,4298.5,0.00043017,4299.4,-0.00014176,2.0476,-0.00014207,-0.23576,0.33872
27587,6.5774,5.8182,0.1,0.0004319,4316,0.00043185,4314.7,-0.00014239,0.085578,-0.00014275,-2.6246,0.32905
27588,6.6696,5.9091,0.1,0.00043002,4297.2,0.00043,4296.5,-0.00014184,-0.069886,-0.00014202,-1.3896,0.33739
27589,6.6696,5.5455,0.1,0.00043008,4297.9,0.00043026,4302.9,-0.00014107,10.222,-0.00014244,-0.12627,0.33996
27590,6.5774,5.6364,0.1,0.00043194,4316.4,0.000432,4318.1,-0.00014223,3.5407,-0.00014273,-0.22996,0.33034
27591,6.6696,5.3636,0.1,0.00043004,4297.5,0.00043041,4308.4,-0.00014006,22.081,-0.00014302,-0.11941,0.3411
27592,6.5774,5.4545,0.1,0.00043206,4317.6,0.00043227,4324,-0.00014148,13.101,-0.00014324,-0.16024,0.33154
27593,6.6696,5.1818,0.1,0.00042996,4296.7,0.00043059,4315.3,-0.00013873,37.667,-0.00014376,-0.11602,0.34216
27594,6.5774,5.2727,0.1,0.00043215,4318.5,0.0004326,4331.8,-0.00014034,26.976,-0.00014395,-0.14568,0.33264
27595,6.6696,5,0.1,0.00042982,4295.2,0.00043075,4323.2,-0.00013709,56.688,-0.00014465,-0.11058,0.34312
27596,6.5774,5.0909,0.1,0.00043218,4318.8,0.00043292,4341,-0.00013885,44.922,-0.00014485,-0.13648,0.33365
27597,6.6696,4.8182,0.1,0.00042961,4293.1,0.00043089,4331.8,-0.00013518,78.626,-0.00014566,-0.1027,0.34399
27598,6.5774,4.9091,0.1,0.00043214,4318.4,0.00043323,4351.2,-0.00013703,66.48,-0.0001459,-0.12642,0.33457
27599,6.6696,4.6364,0.1,0.00042933,4290.3,0.00043098,4340.7,-0.00013306,102.78,-0.00014675,-0.092626,0.34477
27600,6.5774,4.7273,0.1,0.00043203,4317.3,0.0004335,4362,-0.00013494,90.975,-0.00014706,-0.11465,0.3354
27601,6.6696,4.4545,0.1,0.000429,4287,0.00043103,4349.7,-0.0001308,128.29,-0.00014788,-0.080887,0.34547
27602,6.5774,4.5455,0.1,0.00043185,4315.5,0.00043373,4373,-0.00013264,117.55,-0.0001483,-0.10125,0.33614
27603,6.6696,4.2727,0.1,0.00042863,4283.3,0.00043104,4358.3,-0.00012849,154.18,-0.00014902,-0.068152,0.34608
27604,6.5774,4.3636,0.1,0.00043161,4313.1,0.00043389,4383.8,-0.00013023,145.18,-0.00014957,-0.086693,0.33679
27605,6.6696,4.0909,0.1,0.00042824,4279.4,0.00043101,4366.3,-0.00012623,179.43,-0.00015012,-0.05515,0.3466
27606,6.5774,4.1818,0.1,0.00043133,4310.3,0.00043401,4394.1,-0.00012781,172.78,-0.00015082,-0.071668,0.33736
27607,6.6696,3.9091,0.1,0.00042786,4275.7,0.00043095,4373.5,-0.00012411,203,-0.00015113,-0.042626,0.34704
27608,6.5774,4,0.1,0.00043104,4307.4,0.00043408,4403.5,-0.00012548,199.19,-0.000152,-0.056937,0.33784
27609,6.6696,3.7273,0.1,0.00042751,4272.2,0.00043088,4379.7,-0.00012223,223.87,-0.00015203,-0.031291,0.34739
27610,6.5774,3.8182,0.1,0.00043075,4304.5,0.00043411,4411.8,-0.00012334,223.28,-0.00015307,-0.043276,0.33824
27611,6.6696,3.5455,0.1,0.00042722,4269.2,0.00043081,4384.7,-0.00012066,241.15,-0.00015276,-0.021776,0.34767
27612,6.5774,3.6364,0.1,0.00043049,4301.9,0.00043412,4418.7,-0.0001215,243.99,-0.00015398,-0.03141,0.33855
27613,6.6696,3.3636,0.1,0.00042699,4267,0.00043075,4388.3,-0.00011949,254.07,-0.00015331,-0.014599,0.34787
27614,6.5774,3.4545,0.1,0.00043028,4299.8,0.00043411,4424.1,-0.00012004,260.4,-0.0001547,-0.021956,0.33879
27615,6.6696,3.1818,0.1,0.00042685,4265.6,0.0004307,4390.5,-0.00011876,262.06,-0.00015364,-0.010139,0.34798
27616,6.5774,3.2727,0.1,0.00043013,4298.3,0.0004341,4427.7,-0.00011902,271.77,-0.00015519,-0.015386,0.33895
27617,6.6696,3,0.1,0.0004268,4265.1,0.00043069,4391.3,-0.00011852,264.76,-0.00015376,-0.0086262,0.34802
27618,6.5774,3.0909,0.1,0.00043005,4297.5,0.0004341,4429.6,-0.0001185,277.58,-0.00015544,-0.012022,0.33903
27619,6.6696,2.8182,0.1,0.00042685,4265.6,0.0004307,4390.5,-0.00011876,262.06,-0.00015364,-0.010139,0.34798
27620,6.5774,2.9091,0.1,0.00043005,4297.5,0.0004341,4429.6,-0.0001185,277.58,-0.00015544,-0.012022,0.33903
27621,6.6696,2.6364,0.1,0.00042699,4267,0.00043075,4388.3,-0.00011949,254.07,-0.00015331,-0.014599,0.34787
27622,6.5774,2.7273,0.1,0.00043013,4298.3,0.0004341,4427.7,-0.00011902,271.77,-0.00015519,-0.015386,0.33895
27623,6.6696,2.4545,0.1,0.00042722,4269.2,0.00043081,4384.7,-0.00012066,241.15,-0.00015276,-0.021776,0.34767
27624,6.5774,2.5455,0.1,0.00043028,4299.8,0.00043411,4424.1,-0.00012004,260.4,-0.0001547,-0.021956,0.33879
27625,6.6696,2.2727,0.1,0.00042751,4272.2,0.00043088,4379.7,-0.00012223,223.87,-0.00015203,-0.031291,0.34739
27626,6.5774,2.3636,0.1,0.00043049,4301.9,0.00043412,4418.7,-0.0001215,243.99,-0.00015398,-0.03141,0.33855
27627,6.6696,2.0909,0.1,0.00042786,4275.7,0.00043095,4373.5,-0.00012411,203,-0.00015113,-0.042627,0.34704
27628,6.5774,2.1818,0.1,0.00043075,4304.5,0.00043411,4411.8,-0.00012334,223.28,-0.00015307,-0.043277,0.33824
27629,6.6696,1.9091,0.1,0.00042824,4279.4,0.00043101,4366.3,-0.00012623,179.43,-0.00015012,-0.055151,0.3466
27630,6.5774,2,0.1,0.00043104,4307.4,0.00043408,4403.5,-0.00012548,199.19,-0.000152,-0.056938,0.33784
27631,6.6696,1.7273,0.1,0.00042863,4283.3,0.00043104,4358.3,-0.00012849,154.18,-0.00014902,-0.068152,0.34608
27632,6.5774,1.8182,0.1,0.00043133,4310.3,0.00043401,4394.1,-0.00012781,172.78,-0.00015082,-0.071668,0.33736
27633,6.6696,1.5455,0.1,0.000429,4287,0.00043103,4349.7,-0.0001308,128.29,-0.00014788,-0.080888,0.34547
27634,6.5774,1.6364,0.1,0.00043161,4313.1,0.00043389,4383.8,-0.00013023,145.18,-0.00014957,-0.086693,0.33679
27635,6.6696,1.3636,0.1,0.00042933,4290.3,0.00043098,4340.7,-0.00013306,102.78,-0.00014675,-0.092626,0.34477
27636,6.5774,1.4545,0.1,0.00043185,4315.5,0.00043373,4373,-0.00013264,117.55,-0.0001483,-0.10125,0.33614
27637,6.6696,1.1818,0.1,0.00042961,4293.1,0.00043089,4331.8,-0.00013518,78.626,-0.00014566,-0.1027,0.34399
27638,6.5774,1.2727,0.1,0.00043203,4317.3,0.0004335,4362,-0.00013494,90.975,-0.00014706,-0.11466,0.3354
27639,6.6696,1,0.1,0.00042982,4295.2,0.00043075,4323.2,-0.00013709,56.688,-0.00014465,-0.11058,0.34312
27640,6.5774,1.0909,0.1,0.00043214,4318.4,0.00043323,4351.2,-0.00013703,66.48,-0.0001459,-0.12642,0.33457
27641,6.6696,0.81818,0.1,0.00042996,4296.7,0.00043059,4315.3,-0.00013873,37.667,-0.00014376,-0.11602,0.34216
27642,6.5774,0.90909,0.1,0.00043218,4318.8,0.00043292,4341,-0.00013885,44.922,-0.00014485,-0.13649,0.33365
27643,6.6696,0.63636,0.1,0.00043004,4297.5,0.00043041,4308.4,-0.00014006,22.081,-0.00014302,-0.11941,0.3411
27644,6.5774,0.72727,0.1,0.00043215,4318.5,0.0004326,4331.8,-0.00014034,26.976,-0.00014395,-0.14568,0.33264
27645,6.6696,0.45455,0.1,0.00043008,4297.9,0.00043026,4302.9,-0.00014107,10.222,-0.00014244,-0.12627,0.33996
27646,6.5774,0.54545,0.1,0.00043206,4317.6,0.00043227,4324,-0.00014148,13.101,-0.00014324,-0.16024,0.33154
27647,6.6696,0.27273,0.1,0.00043014,4298.5,0.00043017,4299.4,-0.00014176,2.0476,-0.00014207,-0.23576,0.33872
27648,6.5774,0.36364,0.1,0.00043194,4316.4,0.000432,4318.1,-0.00014223,3.5407,-0.00014273,-0.22996,0.33034
27649,6.5774,0.18182,0.1,0.0004319,4316,0.00043185,4314.7,-0.00014239,0.085577,-0.00014275,-2.6246,0.32905
27650,6.6696,0.090909,0.1,0.00043002,4297.2,0.00043,4296.5,-0.00014184,-0.069887,-0.00014202,-1.3896,0.33739
27651,6.4853,5.7273,0.1,0.00043369,4333.9,0.00043367,4333.4,-0.00014302,0.33854,-0.00014325,-1.3401,0.32077
27652,6.3931,5.8182,0.1,0.00043499,4346.9,0.00043491,4344.5,-0.0001433,0.025519,-0.00014396,-4.9325,0.31124
27653,6.4853,5.9091,0.1,0.00043332,4330.2,0.00043328,4329,-0.00014288,-0.072571,-0.0001432,-2.4782,0.31942
27654,6.4853,5.5455,0.1,0.00043391,4336.1,0.00043401,4339.2,-0.00014264,6.4002,-0.00014353,-0.22759,0.32202
27655,6.3931,5.6364,0.1,0.00043535,4350.5,0.00043533,4350.1,-0.00014354,0.61763,-0.00014382,-1.4609,0.31254
27656,6.4853,5.3636,0.1,0.00043415,4338.5,0.00043445,4347.4,-0.00014176,18.008,-0.00014418,-0.18099,0.32317
27657,6.3931,5.4545,0.1,0.00043579,4354.9,0.00043593,4358.9,-0.0001431,8.276,-0.00014425,-0.30747,0.31375
27658,6.4853,5.1818,0.1,0.00043436,4340.6,0.00043493,4357.5,-0.00014047,34.246,-0.00014505,-0.16354,0.32423
27659,6.3931,5.2727,0.1,0.00043622,4359.1,0.00043659,4370.1,-0.00014208,22.255,-0.00014507,-0.2242,0.31486
27660,6.4853,5,0.1,0.0004345,4342,0.0004354,4369,-0.0001388,54.73,-0.0001461,-0.15056,0.3252
27661,6.3931,5.0909,0.1,0.00043658,4362.8,0.00043727,4383.2,-0.00014061,41.271,-0.00014613,-0.19432,0.31588
27662,6.4853,4.8182,0.1,0.00043456,4342.6,0.00043585,4381.4,-0.00013679,78.844,-0.0001473,-0.13695,0.32608
27663,6.3931,4.9091,0.1,0.00043688,4365.8,0.00043794,4397.7,-0.00013874,64.743,-0.00014738,-0.17293,0.3168
27664,6.4853,4.6364,0.1,0.00043454,4342.4,0.00043624,4394.3,-0.00013452,105.76,-0.00014862,-0.12205,0.32686
27665,6.3931,4.7273,0.1,0.00043709,4367.8,0.00043857,4413,-0.00013653,91.869,-0.00014878,-0.15343,0.31763
27666,6.4853,4.4545,0.1,0.00043446,4341.6,0.00043658,4407.2,-0.00013208,134.45,-0.00014999,-0.10595,0.32756
27667,6.3931,4.5455,0.1,0.00043721,4369.1,0.00043915,4428.6,-0.00013407,121.63,-0.00015027,-0.13383,0.31838
27668,6.4853,4.2727,0.1,0.00043431,4340.1,0.00043686,4419.6,-0.00012956,163.79,-0.00015137,-0.089184,0.32817
27669,6.3931,4.3636,0.1,0.00043726,4369.5,0.00043965,4443.9,-0.00013145,152.85,-0.00015181,-0.11395,0.31903
27670,6.4853,4.0909,0.1,0.00043413,4338.3,0.00043708,4431.3,-0.00012706,192.55,-0.0001527,-0.072491,0.32869
27671,6.3931,4.1818,0.1,0.00043724,4369.4,0.00044008,4458.5,-0.0001288,184.21,-0.00015333,-0.094201,0.3196
27672,6.4853,3.9091,0.1,0.00043392,4336.2,0.00043724,4441.8,-0.00012471,219.48,-0.00015393,-0.05667,0.32913
27673,6.3931,4,0.1,0.00043718,4368.8,0.00044043,4472,-0.00012623,214.34,-0.00015476,-0.075303,0.32008
27674,6.4853,3.7273,0.1,0.00043372,4334.2,0.00043735,4450.8,-0.00012262,243.4,-0.00015502,-0.042516,0.32949
27675,6.3931,3.8182,0.1,0.0004371,4368,0.00044071,4483.9,-0.00012386,241.92,-0.00015607,-0.058065,0.32048
27676,6.4853,3.5455,0.1,0.00043355,4332.5,0.00043743,4458.1,-0.00012088,263.24,-0.00015591,-0.030739,0.32977
27677,6.3931,3.6364,0.1,0.00043701,4367.1,0.00044092,4493.9,-0.00012181,265.67,-0.00015718,-0.043274,0.3208
27678,6.4853,3.3636,0.1,0.00043341,4331.1,0.00043747,4463.5,-0.00011957,278.1,-0.00015658,-0.021912,0.32996
27679,6.3931,3.4545,0.1,0.00043693,4366.3,0.00044108,4501.6,-0.00012018,284.52,-0.00015805,-0.031598,0.32103
27680,6.4853,3.1818,0.1,0.00043332,4330.3,0.0004375,4466.7,-0.00011875,287.29,-0.00015699,-0.016451,0.33008
27681,6.3931,3.2727,0.1,0.00043687,4365.7,0.00044117,4506.9,-0.00011905,297.59,-0.00015866,-0.023542,0.32119
27682,6.4853,3,0.1,0.00043329,4330,0.0004375,4467.8,-0.00011848,290.41,-0.00015713,-0.014603,0.33012
27683,6.3931,3.0909,0.1,0.00043684,4365.4,0.00044122,4509.6,-0.00011847,304.28,-0.00015897,-0.019434,0.32127
27684,6.4853,2.8182,0.1,0.00043332,4330.3,0.0004375,4466.7,-0.00011875,287.29,-0.00015699,-0.016451,0.33008
27685,6.3931,2.9091,0.1,0.00043684,4365.4,0.00044122,4509.6,-0.00011847,304.28,-0.00015897,-0.019434,0.32127
27686,6.4853,2.6364,0.1,0.00043341,4331.1,0.00043747,4463.5,-0.00011957,278.1,-0.00015658,-0.021912,0.32996
27687,6.3931,2.7273,0.1,0.00043687,4365.7,0.00044117,4506.9,-0.00011905,297.59,-0.00015866,-0.023542,0.32119
27688,6.4853,2.4545,0.1,0.00043355,4332.5,0.00043743,4458.1,-0.00012088,263.24,-0.00015591,-0.030739,0.32977
27689,6.3931,2.5455,0.1,0.00043693,4366.3,0.00044108,4501.6,-0.00012018,284.52,-0.00015805,-0.031598,0.32103
27690,6.4853,2.2727,0.1,0.00043372,4334.3,0.00043735,4450.8,-0.00012262,243.4,-0.00015502,-0.042517,0.32949
27691,6.3931,2.3636,0.1,0.00043701,4367.1,0.00044092,4493.9,-0.00012181,265.67,-0.00015718,-0.043274,0.3208
27692,6.4853,2.0909,0.1,0.00043392,4336.2,0.00043724,4441.8,-0.00012471,219.48,-0.00015393,-0.056671,0.32913
27693,6.3931,2.1818,0.1,0.0004371,4368,0.00044071,4483.9,-0.00012386,241.92,-0.00015607,-0.058066,0.32048
27694,6.4853,1.9091,0.1,0.00043413,4338.3,0.00043708,4431.3,-0.00012706,192.55,-0.0001527,-0.072491,0.32869
27695,6.3931,2,0.1,0.00043718,4368.8,0.00044043,4472,-0.00012623,214.34,-0.00015476,-0.075304,0.32008
27696,6.4853,1.7273,0.1,0.00043431,4340.1,0.00043686,4419.6,-0.00012956,163.79,-0.00015137,-0.089185,0.32817
27697,6.3931,1.8182,0.1,0.00043724,4369.4,0.00044008,4458.5,-0.0001288,184.21,-0.00015333,-0.094201,0.3196
27698,6.4853,1.5455,0.1,0.00043446,4341.6,0.00043658,4407.2,-0.00013208,134.45,-0.00014999,-0.10595,0.32756
27699,6.3931,1.6364,0.1,0.00043726,4369.5,0.00043965,4443.9,-0.00013145,152.85,-0.00015181,-0.11395,0.31903
27700,6.4853,1.3636,0.1,0.00043454,4342.4,0.00043624,4394.3,-0.00013452,105.76,-0.00014862,-0.12205,0.32686
27701,6.3931,1.4545,0.1,0.00043721,4369.1,0.00043915,4428.6,-0.00013407,121.63,-0.00015027,-0.13383,0.31838
27702,6.4853,1.1818,0.1,0.00043456,4342.6,0.00043585,4381.4,-0.00013679,78.844,-0.0001473,-0.13696,0.32608
27703,6.3931,1.2727,0.1,0.00043709,4367.8,0.00043857,4413,-0.00013653,91.869,-0.00014878,-0.15343,0.31763
27704,6.4853,1,0.1,0.0004345,4342,0.0004354,4369,-0.0001388,54.73,-0.0001461,-0.15056,0.3252
27705,6.3931,1.0909,0.1,0.00043688,4365.8,0.00043794,4397.7,-0.00013874,64.743,-0.00014738,-0.17293,0.3168
27706,6.4853,0.81818,0.1,0.00043436,4340.6,0.00043493,4357.5,-0.00014047,34.246,-0.00014505,-0.16354,0.32423
27707,6.3931,0.90909,0.1,0.00043658,4362.8,0.00043727,4383.2,-0.00014061,41.271,-0.00014613,-0.19432,0.31588
27708,6.4853,0.63636,0.1,0.00043415,4338.5,0.00043445,4347.4,-0.00014176,18.008,-0.00014418,-0.18099,0.32317
27709,6.3931,0.72727,0.1,0.00043622,4359.1,0.00043659,4370.1,-0.00014208,22.255,-0.00014507,-0.2242,0.31486
27710,6.4853,0.45455,0.1,0.00043391,4336.1,0.00043401,4339.2,-0.00014264,6.4002,-0.00014353,-0.22759,0.32202
27711,6.3931,0.54545,0.1,0.00043579,4354.9,0.00043593,4358.9,-0.0001431,8.276,-0.00014425,-0.30746,0.31375
27712,6.4853,0.27273,0.1,0.00043369,4333.9,0.00043367,4333.4,-0.00014302,0.33853,-0.00014325,-1.3401,0.32077
27713,6.3931,0.36364,0.1,0.00043535,4350.5,0.00043533,4350.1,-0.00014354,0.61763,-0.00014382,-1.4609,0.31254
27714,6.3931,0.18182,0.1,0.00043499,4346.9,0.00043491,4344.5,-0.0001433,0.025518,-0.00014396,-4.9325,0.31124
27715,6.4853,0.090909,0.1,0.00043332,4330.2,0.00043328,4329,-0.00014288,-0.072572,-0.0001432,-2.4782,0.31942
27716,6.3009,5.7273,0.1,0.00043665,4363.5,0.00043657,4361.1,-0.00014385,0.0914,-0.0001445,-4.8062,0.30311
27717,6.2087,5.8182,0.1,0.00043738,4370.8,0.00043725,4366.8,-0.00014394,0.00054996,-0.00014501,-8.0003,0.29372
27718,6.3009,5.9091,0.1,0.00043597,4356.7,0.0004359,4354.7,-0.00014368,-0.068403,-0.0001442,-3.9425,0.30176
27719,6.3009,5.5455,0.1,0.00043723,4369.3,0.00043725,4369.8,-0.00014408,1.8801,-0.00014446,-0.9138,0.30437
27720,6.2087,5.6364,0.1,0.00043813,4378.3,0.00043803,4375.2,-0.00014425,0.17836,-0.00014513,-6.3954,0.29504
27721,6.3009,5.3636,0.1,0.00043785,4375.5,0.00043806,4381.6,-0.00014343,12.514,-0.00014514,-0.32678,0.30553
27722,6.2087,5.4545,0.1,0.000439,4386.9,0.00043902,4387.6,-0.00014459,2.6383,-0.0001451,-1.1902,0.29625
27723,6.3009,5.1818,0.1,0.00043844,4381.3,0.00043892,4395.8,-0.00014222,29.289,-0.00014615,-0.24823,0.3066
27724,6.2087,5.2727,0.1,0.00043985,4395.5,0.00044012,4403.2,-0.0001438,15.929,-0.00014597,-0.40459,0.29737
27725,6.3009,5,0.1,0.00043896,4386.5,0.0004398,4411.9,-0.00014055,51.297,-0.00014741,-0.21305,0.30757
27726,6.2087,5.0909,0.1,0.00044067,4403.6,0.00044126,4421.4,-0.0001424,35.952,-0.00014722,-0.29502,0.2984
27727,6.3009,4.8182,0.1,0.0004394,4390.9,0.00044066,4429.2,-0.00013848,77.781,-0.00014885,-0.18687,0.30846
27728,6.2087,4.9091,0.1,0.00044141,4411,0.00044242,4441.3,-0.00014051,61.457,-0.00014872,-0.24465,0.29933
27729,6.3009,4.6364,0.1,0.00043974,4394.4,0.00044148,4447.2,-0.00013607,107.76,-0.00015043,-0.16321,0.30925
27730,6.2087,4.7273,0.1,0.00044206,4417.5,0.00044354,4462.4,-0.0001382,91.469,-0.0001504,-0.20945,0.30016
27731,6.3009,4.4545,0.1,0.00044,4397,0.00044222,4465.3,-0.00013344,140.04,-0.00015209,-0.14014,0.30995
27732,6.2087,4.5455,0.1,0.00044261,4423,0.0004446,4484,-0.00013558,124.79,-0.00015221,-0.17915,0.30091
27733,6.3009,4.2727,0.1,0.00044018,4398.8,0.00044287,4482.8,-0.00013069,173.27,-0.00015377,-0.11747,0.31056
27734,6.2087,4.3636,0.1,0.00044306,4427.6,0.00044557,4505.3,-0.00013276,160.03,-0.00015408,-0.15102,0.30157
27735,6.3009,4.0909,0.1,0.0004403,4399.9,0.00044344,4499.3,-0.00012796,206.01,-0.00015539,-0.095657,0.31108
27736,6.2087,4.1818,0.1,0.00044343,4431.2,0.00044643,4525.7,-0.00012987,195.64,-0.00015593,-0.12446,0.30214
27737,6.3009,3.9091,0.1,0.00044036,4400.6,0.00044391,4514.1,-0.00012537,236.78,-0.0001569,-0.075443,0.31152
27738,6.2087,4,0.1,0.00044371,4434.1,0.00044718,4544.5,-0.00012705,230.01,-0.00015768,-0.099851,0.30262
27739,6.3009,3.7273,0.1,0.00044039,4400.8,0.00044429,4526.9,-0.00012305,264.19,-0.00015822,-0.057644,0.31188
27740,6.2087,3.8182,0.1,0.00044393,4436.3,0.0004478,4561.2,-0.00012445,261.55,-0.00015927,-0.077886,0.30302
27741,6.3009,3.5455,0.1,0.0004404,4400.9,0.00044457,4537.3,-0.00012112,286.95,-0.00015932,-0.043012,0.31216
27742,6.2087,3.6364,0.1,0.0004441,4437.9,0.00044831,4575.2,-0.00012219,288.77,-0.00016063,-0.05935,0.30334
27743,6.3009,3.3636,0.1,0.00044039,4400.9,0.00044478,4545,-0.00011967,304.01,-0.00016013,-0.032147,0.31236
27744,6.2087,3.4545,0.1,0.00044422,4439.1,0.00044868,4586.2,-0.00012039,310.39,-0.0001617,-0.044908,0.30358
27745,6.3009,3.1818,0.1,0.00044039,4400.9,0.0004449,4549.7,-0.00011876,314.58,-0.00016063,-0.025469,0.31247
27746,6.2087,3.2727,0.1,0.0004443,4439.9,0.00044894,4593.7,-0.00011913,325.4,-0.00016244,-0.035042,0.30373
27747,6.3009,3,0.1,0.00044039,4400.9,0.00044494,4551.3,-0.00011846,318.16,-0.00016081,-0.023216,0.31251
27748,6.2087,3.0909,0.1,0.00044434,4440.3,0.00044906,4597.5,-0.00011849,333.08,-0.00016282,-0.030042,0.30381
27749,6.3009,2.8182,0.1,0.00044039,4400.9,0.0004449,4549.7,-0.00011876,314.58,-0.00016063,-0.025469,0.31247
27750,6.2087,2.9091,0.1,0.00044434,4440.3,0.00044906,4597.5,-0.00011849,333.08,-0.00016282,-0.030042,0.30381
27751,6.3009,2.6364,0.1,0.00044039,4400.9,0.00044478,4545,-0.00011967,304.01,-0.00016013,-0.032148,0.31236
27752,6.2087,2.7273,0.1,0.0004443,4439.9,0.00044894,4593.7,-0.00011913,325.4,-0.00016244,-0.035042,0.30373
27753,6.3009,2.4545,0.1,0.0004404,4400.9,0.00044457,4537.3,-0.00012112,286.95,-0.00015932,-0.043012,0.31216
27754,6.2087,2.5455,0.1,0.00044422,4439.1,0.00044868,4586.2,-0.00012039,310.39,-0.0001617,-0.044908,0.30358
27755,6.3009,2.2727,0.1,0.00044039,4400.8,0.00044429,4526.9,-0.00012305,264.19,-0.00015822,-0.057644,0.31188
27756,6.2087,2.3636,0.1,0.0004441,4437.9,0.00044831,4575.2,-0.00012219,288.77,-0.00016063,-0.05935,0.30334
27757,6.3009,2.0909,0.1,0.00044036,4400.6,0.00044391,4514.1,-0.00012537,236.78,-0.0001569,-0.075443,0.31152
27758,6.2087,2.1818,0.1,0.00044393,4436.3,0.0004478,4561.2,-0.00012445,261.55,-0.00015927,-0.077887,0.30302
27759,6.3009,1.9091,0.1,0.0004403,4399.9,0.00044344,4499.3,-0.00012796,206.01,-0.00015539,-0.095657,0.31108
27760,6.2087,2,0.1,0.00044371,4434.1,0.00044718,4544.6,-0.00012705,230.01,-0.00015768,-0.099851,0.30262
27761,6.3009,1.7273,0.1,0.00044018,4398.8,0.00044287,4482.8,-0.00013069,173.27,-0.00015377,-0.11747,0.31056
27762,6.2087,1.8182,0.1,0.00044343,4431.2,0.00044643,4525.7,-0.00012987,195.64,-0.00015593,-0.12446,0.30214
27763,6.3009,1.5455,0.1,0.00044,4397,0.00044222,4465.3,-0.00013344,140.04,-0.00015209,-0.14014,0.30995
27764,6.2087,1.6364,0.1,0.00044306,4427.6,0.00044557,4505.3,-0.00013276,160.03,-0.00015408,-0.15102,0.30157
27765,6.3009,1.3636,0.1,0.00043974,4394.4,0.00044148,4447.2,-0.00013607,107.76,-0.00015043,-0.16321,0.30925
27766,6.2087,1.4545,0.1,0.00044261,4423,0.0004446,4484,-0.00013558,124.79,-0.00015221,-0.17915,0.30091
27767,6.3009,1.1818,0.1,0.0004394,4390.9,0.00044066,4429.2,-0.00013848,77.781,-0.00014885,-0.18687,0.30846
27768,6.2087,1.2727,0.1,0.00044206,4417.5,0.00044354,4462.4,-0.0001382,91.469,-0.0001504,-0.20945,0.30016
27769,6.3009,1,0.1,0.00043896,4386.5,0.0004398,4411.9,-0.00014055,51.297,-0.00014741,-0.21305,0.30757
27770,6.2087,1.0909,0.1,0.00044141,4411,0.00044242,4441.3,-0.00014051,61.457,-0.00014872,-0.24465,0.29933
27771,6.3009,0.81818,0.1,0.00043844,4381.3,0.00043892,4395.8,-0.00014222,29.289,-0.00014615,-0.24823,0.3066
27772,6.2087,0.90909,0.1,0.00044067,4403.6,0.00044126,4421.4,-0.0001424,35.952,-0.00014722,-0.29502,0.2984
27773,6.3009,0.63636,0.1,0.00043785,4375.5,0.00043806,4381.6,-0.00014343,12.514,-0.00014514,-0.32678,0.30553
27774,6.2087,0.72727,0.1,0.00043985,4395.5,0.00044012,4403.2,-0.0001438,15.929,-0.00014597,-0.4046,0.29737
27775,6.3009,0.45455,0.1,0.00043723,4369.3,0.00043725,4369.8,-0.00014408,1.8801,-0.00014446,-0.9138,0.30437
27776,6.2087,0.54545,0.1,0.000439,4386.9,0.00043902,4387.7,-0.00014459,2.6383,-0.0001451,-1.1902,0.29625
27777,6.3009,0.27273,0.1,0.00043665,4363.5,0.00043657,4361.1,-0.00014385,0.091398,-0.0001445,-4.8062,0.30311
27778,6.2087,0.36364,0.1,0.00043813,4378.3,0.00043803,4375.2,-0.00014425,0.17836,-0.00014513,-6.3954,0.29504
27779,6.2087,0.18182,0.1,0.00043738,4370.8,0.00043725,4366.8,-0.00014394,0.00054843,-0.00014501,-8.0003,0.29372
27780,6.3009,0.090909,0.1,0.00043597,4356.7,0.0004359,4354.7,-0.00014368,-0.068404,-0.0001442,-3.9425,0.30176
27781,6.1165,5.7273,0.1,0.00043887,4385.6,0.0004387,4380.9,-0.00014435,0.049236,-0.00014562,-9.5245,0.28575
27782,6.0243,5.8182,0.1,0.00043888,4385.7,0.00043867,4379.8,-0.00014424,-0.012354,-0.00014582,-11.924,0.27651
27783,6.1165,5.9091,0.1,0.00043779,4374.9,0.00043769,4371.9,-0.00014419,-0.061082,-0.00014496,-5.8425,0.28438
27784,6.1165,5.5455,0.1,0.0004399,4396,0.0004398,4393.1,-0.00014484,0.35471,-0.00014569,-6.0823,0.28702
27785,6.0243,5.6364,0.1,0.00044012,4398.1,0.00043989,4391.6,-0.00014458,0.12631,-0.00014634,-13.116,0.27783
27786,6.1165,5.3636,0.1,0.000441,4406.9,0.00044108,4409.3,-0.00014501,5.7116,-0.00014589,-0.91656,0.28819
27787,6.0243,5.4545,0.1,0.00044151,4412,0.00044139,4408.6,-0.00014529,0.53828,-0.00014634,-7.3873,0.27905
27788,6.1165,5.1818,0.1,0.00044208,4417.8,0.00044246,4428.8,-0.00014398,22.576,-0.00014704,-0.42425,0.28927
27789,6.0243,5.2727,0.1,0.00044293,4426.2,0.00044305,4429.7,-0.00014544,8.0944,-0.00014665,-1.0497,0.28018
27790,6.1165,5,0.1,0.00044311,4428.1,0.00044388,4450.8,-0.00014235,46.114,-0.00014853,-0.31744,0.29025
27791,6.0243,5.0909,0.1,0.00044432,4440.2,0.0004448,4454.2,-0.0001442,28.72,-0.00014809,-0.49455,0.28122
27792,6.1165,4.8182,0.1,0.00044406,4437.6,0.00044529,4474.5,-0.00014023,75.15,-0.00015027,-0.26218,0.29113
27793,6.0243,4.9091,0.1,0.00044566,4453.5,0.00044659,4481.2,-0.00014234,56.32,-0.00014988,-0.36157,0.28215
27794,6.1165,4.6364,0.1,0.00044492,4446.1,0.00044666,4499.2,-0.00013771,108.51,-0.00015218,-0.22193,0.29193
27795,6.0243,4.7273,0.1,0.00044691,4466,0.00044836,4509.9,-0.00013997,89.459,-0.00015191,-0.29276,0.283
27796,6.1165,4.4545,0.1,0.00044566,4453.5,0.00044794,4524.1,-0.0001349,144.79,-0.0001542,-0.18735,0.29263
27797,6.0243,4.5455,0.1,0.00044805,4477.4,0.00045006,4539.3,-0.00013721,126.72,-0.00015411,-0.24326,0.28375
27798,6.1165,4.2727,0.1,0.0004463,4459.9,0.00044912,4548.2,-0.00013194,182.41,-0.00015624,-0.15578,0.29325
27799,6.0243,4.3636,0.1,0.00044907,4487.6,0.00045166,4568.4,-0.0001342,166.46,-0.00015638,-0.20194,0.28441
27800,6.1165,4.0909,0.1,0.00044684,4465.3,0.00045017,4571,-0.00012896,219.65,-0.00015821,-0.12672,0.29378
27801,6.0243,4.1818,0.1,0.00044996,4496.5,0.00045312,4596.3,-0.00013108,206.87,-0.00015863,-0.16533,0.28498
27802,6.1165,3.9091,0.1,0.00044728,4469.8,0.00045107,4591.6,-0.00012613,254.78,-0.00016005,-0.10055,0.29422
27803,6.0243,4,0.1,0.00045074,4504.3,0.00045442,4622.2,-0.00012801,246.02,-0.00016078,-0.13272,0.28547
27804,6.1165,3.7273,0.1,0.00044765,4473.4,0.00045182,4609.5,-0.00012358,286.14,-0.00016168,-0.077998,0.29458
27805,6.0243,3.8182,0.1,0.0004514,4510.9,0.00045553,4645.2,-0.00012517,282.04,-0.00016272,-0.10443,0.28587
27806,6.1165,3.5455,0.1,0.00044793,4476.2,0.00045242,4624.1,-0.00012145,312.21,-0.00016302,-0.059759,0.29485
27807,6.0243,3.6364,0.1,0.00045193,4516.2,0.00045644,4664.6,-0.0001227,313.18,-0.00016439,-0.081063,0.28619
27808,6.1165,3.3636,0.1,0.00044813,4478.2,0.00045285,4634.8,-0.00011985,331.78,-0.00016401,-0.046392,0.29505
27809,6.0243,3.4545,0.1,0.00045235,4520.3,0.00045714,4679.8,-0.00012072,337.93,-0.00016571,-0.063189,0.28643
27810,6.1165,3.1818,0.1,0.00044825,4479.4,0.00045311,4641.4,-0.00011886,343.89,-0.00016463,-0.03825,0.29517
27811,6.0243,3.2727,0.1,0.00045263,4523.1,0.00045762,4690.2,-0.00011935,355.1,-0.00016662,-0.05115,0.28658
27812,6.1165,3,0.1,0.00044829,4479.8,0.00045319,4643.6,-0.00011852,348,-0.00016484,-0.035519,0.29521
27813,6.0243,3.0909,0.1,0.00045277,4524.6,0.00045786,4695.5,-0.00011864,363.89,-0.00016708,-0.045107,0.28666
27814,6.1165,2.8182,0.1,0.00044825,4479.4,0.00045311,4641.4,-0.00011886,343.89,-0.00016463,-0.038251,0.29517
27815,6.0243,2.9091,0.1,0.00045277,4524.6,0.00045786,4695.5,-0.00011864,363.89,-0.00016708,-0.045107,0.28666
27816,6.1165,2.6364,0.1,0.00044813,4478.2,0.00045285,4634.8,-0.00011985,331.78,-0.00016401,-0.046392,0.29505
27817,6.0243,2.7273,0.1,0.00045263,4523.1,0.00045762,4690.2,-0.00011935,355.1,-0.00016662,-0.05115,0.28658
27818,6.1165,2.4545,0.1,0.00044793,4476.2,0.00045242,4624.1,-0.00012145,312.21,-0.00016302,-0.059759,0.29485
27819,6.0243,2.5455,0.1,0.00045235,4520.3,0.00045714,4679.8,-0.00012072,337.93,-0.00016571,-0.063189,0.28643
27820,6.1165,2.2727,0.1,0.00044765,4473.4,0.00045182,4609.5,-0.00012358,286.14,-0.00016168,-0.077998,0.29458
27821,6.0243,2.3636,0.1,0.00045193,4516.2,0.00045644,4664.6,-0.0001227,313.18,-0.00016439,-0.081064,0.28619
27822,6.1165,2.0909,0.1,0.00044728,4469.8,0.00045107,4591.7,-0.00012613,254.78,-0.00016005,-0.10055,0.29422
27823,6.0243,2.1818,0.1,0.0004514,4510.9,0.00045553,4645.2,-0.00012517,282.04,-0.00016272,-0.10443,0.28587
27824,6.1165,1.9091,0.1,0.00044684,4465.3,0.00045017,4571,-0.00012896,219.65,-0.00015821,-0.12672,0.29378
27825,6.0243,2,0.1,0.00045074,4504.3,0.00045442,4622.2,-0.00012801,246.02,-0.00016078,-0.13272,0.28547
27826,6.1165,1.7273,0.1,0.0004463,4459.9,0.00044912,4548.2,-0.00013194,182.41,-0.00015624,-0.15578,0.29325
27827,6.0243,1.8182,0.1,0.00044996,4496.5,0.00045312,4596.3,-0.00013108,206.86,-0.00015863,-0.16533,0.28498
27828,6.1165,1.5455,0.1,0.00044566,4453.5,0.00044794,4524.1,-0.0001349,144.79,-0.0001542,-0.18735,0.29263
27829,6.0243,1.6364,0.1,0.00044907,4487.6,0.00045166,4568.4,-0.0001342,166.46,-0.00015638,-0.20194,0.28441
27830,6.1165,1.3636,0.1,0.00044492,4446.1,0.00044666,4499.2,-0.00013771,108.51,-0.00015218,-0.22193,0.29193
27831,6.0243,1.4545,0.1,0.00044805,4477.4,0.00045006,4539.3,-0.00013721,126.72,-0.00015411,-0.24326,0.28375
27832,6.1165,1.1818,0.1,0.00044406,4437.6,0.00044529,4474.5,-0.00014023,75.15,-0.00015027,-0.26218,0.29113
27833,6.0243,1.2727,0.1,0.00044691,4466,0.00044836,4509.9,-0.00013997,89.459,-0.00015191,-0.29276,0.283
27834,6.1165,1,0.1,0.00044311,4428.1,0.00044388,4450.8,-0.00014235,46.114,-0.00014853,-0.31744,0.29025
27835,6.0243,1.0909,0.1,0.00044566,4453.5,0.00044659,4481.2,-0.00014234,56.32,-0.00014988,-0.36157,0.28215
27836,6.1165,0.81818,0.1,0.00044208,4417.8,0.00044246,4428.8,-0.00014398,22.576,-0.00014704,-0.42425,0.28927
27837,6.0243,0.90909,0.1,0.00044432,4440.2,0.0004448,4454.2,-0.0001442,28.72,-0.00014809,-0.49455,0.28122
27838,6.1165,0.63636,0.1,0.000441,4406.9,0.00044108,4409.3,-0.00014501,5.7116,-0.00014589,-0.91656,0.28819
27839,6.0243,0.72727,0.1,0.00044293,4426.2,0.00044305,4429.7,-0.00014544,8.0944,-0.00014665,-1.0497,0.28018
27840,6.1165,0.45455,0.1,0.0004399,4396,0.0004398,4393.1,-0.00014484,0.35471,-0.00014569,-6.0823,0.28702
27841,6.0243,0.54545,0.1,0.00044151,4412,0.00044139,4408.6,-0.00014529,0.53828,-0.00014634,-7.3873,0.27905
27842,6.1165,0.27273,0.1,0.00043887,4385.6,0.0004387,4380.9,-0.00014435,0.049234,-0.00014562,-9.5245,0.28575
27843,6.0243,0.36364,0.1,0.00044012,4398.1,0.00043989,4391.6,-0.00014458,0.12631,-0.00014634,-13.116,0.27783
27844,6.0243,0.18182,0.1,0.00043888,4385.7,0.00043867,4379.8,-0.00014424,-0.012355,-0.00014582,-11.924,0.27651
27845,6.1165,0.090909,0.1,0.00043779,4374.9,0.00043769,4371.9,-0.00014419,-0.061083,-0.00014496,-5.8425,0.28438
27846,5.9322,5.7273,0.1,0.00044013,4398.2,0.00043986,4390.5,-0.00014447,0.037754,-0.00014654,-15.473,0.26868
27847,5.84,5.8182,0.1,0.00043923,4389.3,0.00043894,4380.8,-0.00014411,-0.021142,-0.00014635,-16.82,0.25959
27848,5.9322,5.9091,0.1,0.00043855,4382.5,0.00043841,4378.4,-0.00014432,-0.051695,-0.00014541,-8.245,0.26731
27849,5.9322,5.5455,0.1,0.00044173,4414.2,0.00044148,4407.1,-0.00014504,0.2031,-0.00014698,-14.317,0.26996
27850,5.84,5.6364,0.1,0.00044107,4407.7,0.0004407,4396.9,-0.00014448,0.12296,-0.00014735,-21.455,0.26092
27851,5.9322,5.3636,0.1,0.00044344,4431.3,0.00044336,4429,-0.00014595,1.187,-0.00014688,-5.7889,0.27115
27852,5.84,5.4545,0.1,0.00044312,4428.2,0.00044283,4419.6,-0.00014534,0.29842,-0.0001477,-17.443,0.26216
27853,5.9322,5.1818,0.1,0.00044517,4448.6,0.00044539,4455.1,-0.00014569,14.032,-0.00014768,-0.91438,0.27223
27854,5.84,5.2727,0.1,0.00044526,4449.5,0.0004452,4447.7,-0.00014649,2.0122,-0.00014751,-5.6956,0.2633
27855,5.9322,5,0.1,0.00044687,4465.6,0.00044751,4484.7,-0.00014419,38.897,-0.00014943,-0.50949,0.27322
27856,5.84,5.0909,0.1,0.00044742,4471.1,0.00044773,4480.3,-0.00014597,19.449,-0.00014869,-0.99127,0.26434
27857,5.9322,4.8182,0.1,0.0004485,4481.9,0.00044965,4516.6,-0.00014207,70.618,-0.00015152,-0.38091,0.27412
27858,5.84,4.9091,0.1,0.00044954,4492.3,0.00045034,4516.3,-0.00014422,49.008,-0.00015082,-0.56776,0.26529
27859,5.9322,4.6364,0.1,0.00045003,4497.2,0.00045176,4549.9,-0.00013947,107.66,-0.00015384,-0.30773,0.27492
27860,5.84,4.7273,0.1,0.00045159,4512.8,0.00045297,4554.7,-0.00014184,85.463,-0.00015327,-0.42135,0.26614
27861,5.9322,4.4545,0.1,0.00045145,4511.3,0.00045378,4583.6,-0.00013651,148.38,-0.00015629,-0.25346,0.27563
27862,5.84,4.5455,0.1,0.00045352,4532.1,0.00045554,4594.1,-0.00013899,127.03,-0.00015594,-0.33586,0.26689
27863,5.9322,4.2727,0.1,0.00045272,4524.1,0.00045567,4616.4,-0.00013334,190.91,-0.00015877,-0.20808,0.27624
27864,5.84,4.3636,0.1,0.00045532,4550,0.00045799,4633.3,-0.00013581,171.77,-0.00015871,-0.27276,0.26756
27865,5.9322,4.0909,0.1,0.00045386,4535.5,0.00045737,4647.5,-0.00013013,233.23,-0.00016119,-0.16851,0.27677
27866,5.84,4.1818,0.1,0.00045695,4566.4,0.00046026,4671.1,-0.00013248,217.54,-0.00016146,-0.22089,0.26814
27867,5.9322,3.9091,0.1,0.00045485,4545.3,0.00045888,4675.7,-0.00012706,273.27,-0.00016344,-0.13415,0.27722
27868,5.84,4,0.1,0.00045841,4580.9,0.0004623,4706.3,-0.00012918,262.08,-0.00016409,-0.17684,0.26862
27869,5.9322,3.7273,0.1,0.00045568,4553.7,0.00046015,4700.3,-0.00012428,309.08,-0.00016543,-0.10531,0.27758
27870,5.84,3.8182,0.1,0.00045968,4593.6,0.00046408,4737.6,-0.00012611,303.15,-0.00016647,-0.13993,0.26903
27871,5.9322,3.5455,0.1,0.00045635,4560.4,0.00046117,4720.3,-0.00012196,338.89,-0.00016708,-0.082511,0.27786
27872,5.84,3.6364,0.1,0.00046074,4604.3,0.00046557,4764.2,-0.00012343,338.67,-0.00016852,-0.1103,0.26935
27873,5.9322,3.3636,0.1,0.00045685,4565.3,0.00046192,4735.2,-0.00012022,361.25,-0.0001683,-0.0661,0.27805
27874,5.84,3.4545,0.1,0.00046157,4612.6,0.00046672,4785,-0.0001213,366.9,-0.00017014,-0.088187,0.26958
27875,5.9322,3.1818,0.1,0.00045715,4568.4,0.00046237,4744.3,-0.00011913,375.1,-0.00016906,-0.056241,0.27817
27876,5.84,3.2727,0.1,0.00046215,4618.3,0.00046751,4799.3,-0.00011981,386.49,-0.00017126,-0.0736,0.26974
27877,5.9322,3,0.1,0.00045725,4569.4,0.00046253,4747.4,-0.00011877,379.79,-0.00016932,-0.052957,0.27821
27878,5.84,3.0909,0.1,0.00046244,4621.2,0.00046791,4806.7,-0.00011905,396.51,-0.00017183,-0.06638,0.26982
27879,5.9322,2.8182,0.1,0.00045715,4568.4,0.00046237,4744.3,-0.00011913,375.1,-0.00016906,-0.056241,0.27817
27880,5.84,2.9091,0.1,0.00046244,4621.2,0.00046791,4806.7,-0.00011905,396.51,-0.00017183,-0.06638,0.26982
27881,5.9322,2.6364,0.1,0.00045685,4565.3,0.00046192,4735.2,-0.00012022,361.25,-0.0001683,-0.0661,0.27805
27882,5.84,2.7273,0.1,0.00046215,4618.3,0.00046751,4799.3,-0.00011981,386.49,-0.00017126,-0.0736,0.26974
27883,5.9322,2.4545,0.1,0.00045635,4560.4,0.00046117,4720.3,-0.00012196,338.89,-0.00016708,-0.082511,0.27786
27884,5.84,2.5455,0.1,0.00046157,4612.6,0.00046672,4785,-0.0001213,366.9,-0.00017014,-0.088188,0.26958
27885,5.9322,2.2727,0.1,0.00045568,4553.7,0.00046015,4700.3,-0.00012428,309.08,-0.00016543,-0.10532,0.27758
27886,5.84,2.3636,0.1,0.00046074,4604.3,0.00046557,4764.2,-0.00012343,338.67,-0.00016852,-0.1103,0.26935
27887,5.9322,2.0909,0.1,0.00045485,4545.3,0.00045888,4675.7,-0.00012706,273.27,-0.00016344,-0.13415,0.27722
27888,5.84,2.1818,0.1,0.00045968,4593.6,0.00046408,4737.6,-0.00012611,303.15,-0.00016647,-0.13993,0.26903
27889,5.9322,1.9091,0.1,0.00045386,4535.5,0.00045737,4647.5,-0.00013013,233.23,-0.00016119,-0.16851,0.27677
27890,5.84,2,0.1,0.00045841,4580.9,0.0004623,4706.3,-0.00012918,262.08,-0.00016409,-0.17685,0.26862
27891,5.9322,1.7273,0.1,0.00045272,4524.1,0.00045567,4616.4,-0.00013334,190.91,-0.00015877,-0.20808,0.27624
27892,5.84,1.8182,0.1,0.00045695,4566.4,0.00046026,4671.1,-0.00013248,217.54,-0.00016146,-0.22089,0.26814
27893,5.9322,1.5455,0.1,0.00045145,4511.3,0.00045378,4583.6,-0.00013651,148.38,-0.00015629,-0.25346,0.27563
27894,5.84,1.6364,0.1,0.00045532,4550,0.00045799,4633.3,-0.00013581,171.77,-0.00015871,-0.27276,0.26756
27895,5.9322,1.3636,0.1,0.00045003,4497.2,0.00045176,4549.9,-0.00013947,107.66,-0.00015384,-0.30773,0.27492
27896,5.84,1.4545,0.1,0.00045352,4532.1,0.00045554,4594.1,-0.00013899,127.03,-0.00015594,-0.33586,0.26689
27897,5.9322,1.1818,0.1,0.0004485,4481.9,0.00044965,4516.6,-0.00014207,70.618,-0.00015152,-0.38091,0.27412
27898,5.84,1.2727,0.1,0.00045159,4512.8,0.00045297,4554.7,-0.00014184,85.463,-0.00015327,-0.42135,0.26614
27899,5.9322,1,0.1,0.00044687,4465.6,0.00044751,4484.7,-0.00014419,38.897,-0.00014943,-0.50949,0.27322
27900,5.84,1.0909,0.1,0.00044954,4492.3,0.00045034,4516.3,-0.00014422,49.008,-0.00015082,-0.56777,0.26529
27901,5.9322,0.81818,0.1,0.00044517,4448.6,0.00044539,4455.1,-0.00014569,14.032,-0.00014768,-0.91439,0.27223
27902,5.84,0.90909,0.1,0.00044742,4471.1,0.00044773,4480.3,-0.00014597,19.449,-0.00014869,-0.99127,0.26434
27903,5.9322,0.63636,0.1,0.00044344,4431.3,0.00044336,4429,-0.00014595,1.187,-0.00014688,-5.7889,0.27115
27904,5.84,0.72727,0.1,0.00044526,4449.5,0.0004452,4447.7,-0.00014649,2.0122,-0.00014751,-5.6956,0.2633
27905,5.9322,0.45455,0.1,0.00044173,4414.2,0.00044148,4407.1,-0.00014504,0.2031,-0.00014698,-14.317,0.26996
27906,5.84,0.54545,0.1,0.00044312,4428.2,0.00044283,4419.6,-0.00014534,0.29842,-0.0001477,-17.443,0.26216
27907,5.9322,0.27273,0.1,0.00044013,4398.2,0.00043986,4390.5,-0.00014447,0.037753,-0.00014654,-15.473,0.26868
27908,5.84,0.36364,0.1,0.00044107,4407.7,0.0004407,4396.9,-0.00014448,0.12296,-0.00014735,-21.455,0.26092
27909,5.84,0.18182,0.1,0.00043923,4389.3,0.00043894,4380.8,-0.00014411,-0.021143,-0.00014635,-16.82,0.25959
27910,5.9322,0.090909,0.1,0.00043855,4382.5,0.00043841,4378.4,-0.00014432,-0.051697,-0.00014541,-8.245,0.26731
27911,5.7478,5.7273,0.1,0.00044017,4398.7,0.00043978,4387.3,-0.00014412,0.036673,-0.00014716,-22.778,0.25192
27912,5.6556,5.8182,0.1,0.00043815,4378.5,0.00043776,4367,-0.00014346,-0.030273,-0.00014649,-22.81,0.24296
27913,5.7478,5.9091,0.1,0.00043799,4376.8,0.00043779,4371.2,-0.00014398,-0.040736,-0.00014547,-11.22,0.25053
27914,5.7478,5.5455,0.1,0.00044247,4421.7,0.00044205,4409.4,-0.00014478,0.17004,-0.00014807,-24.554,0.25321
27915,5.6556,5.6364,0.1,0.00044071,4404.1,0.00044017,4388.3,-0.00014386,0.13783,-0.00014807,-31.53,0.24431
27916,5.7478,5.3636,0.1,0.00044495,4446.4,0.00044467,4438.3,-0.00014595,0.5524,-0.00014826,-16.802,0.25441
27917,5.6556,5.4545,0.1,0.00044359,4432.8,0.00044308,4417.9,-0.00014488,0.23703,-0.00014889,-29.869,0.24556
27918,5.7478,5.1818,0.1,0.00044751,4472,0.00044754,4472.8,-0.00014708,5.079,-0.00014822,-3.4464,0.2555
27919,5.6556,5.2727,0.1,0.00044663,4463.2,0.00044634,4454.7,-0.00014643,0.88874,-0.00014892,-17.813,0.24671
27920,5.7478,5,0.1,0.00045009,4497.8,0.00045057,4511.9,-0.00014602,29.41,-0.00015006,-0.92255,0.2565
27921,5.6556,5.0909,0.1,0.00044977,4494.6,0.00044987,4497.5,-0.00014753,8.9632,-0.00014911,-2.9613,0.24777
27922,5.7478,4.8182,0.1,0.00045263,4523.1,0.00045367,4554.4,-0.000144,63.803,-0.00015256,-0.5798,0.2574
27923,5.6556,4.9091,0.1,0.00045292,4526.1,0.00045356,4545.1,-0.00014614,39.201,-0.00015148,-0.97868,0.24872
27924,5.7478,4.6364,0.1,0.00045507,4547.6,0.00045676,4598.9,-0.00014137,104.79,-0.00015537,-0.437,0.25821
27925,5.6556,4.7273,0.1,0.00045604,4557.2,0.00045732,4595.9,-0.00014384,79.017,-0.00015444,-0.63024,0.24958
27926,5.7478,4.4545,0.1,0.00045739,4570.7,0.00045976,4643.9,-0.00013829,150.38,-0.00015836,-0.34768,0.25893
27927,5.6556,4.5455,0.1,0.00045904,4587.2,0.00046103,4648.3,-0.00014096,125.2,-0.00015768,-0.47332,0.25035
27928,5.7478,4.2727,0.1,0.00045954,4592.2,0.00046259,4688,-0.00013495,198.38,-0.00016139,-0.28024,0.25955
27929,5.6556,4.3636,0.1,0.00046188,4615.6,0.00046461,4700.6,-0.00013766,175.45,-0.00016106,-0.37289,0.25102
27930,5.7478,4.0909,0.1,0.0004615,4611.8,0.00046519,4729.9,-0.00013153,246.38,-0.00016435,-0.22504,0.26008
27931,5.6556,4.1818,0.1,0.00046452,4642,0.00046796,4751.3,-0.00013415,227.21,-0.00016443,-0.29715,0.2516
27932,5.7478,3.9091,0.1,0.00046324,4629.2,0.00046751,4768.2,-0.00012824,291.94,-0.00016712,-0.17915,0.26053
27933,5.6556,4,0.1,0.00046692,4666,0.00047102,4798.5,-0.00013066,277.78,-0.00016766,-0.23633,0.25209
27934,5.7478,3.7273,0.1,0.00046474,4644.2,0.0004695,4801.5,-0.00012526,332.73,-0.00016956,-0.14191,0.26089
27935,5.6556,3.8182,0.1,0.00046904,4687.1,0.00047371,4840.8,-0.00012738,324.48,-0.00017059,-0.18743,0.2525
27936,5.7478,3.5455,0.1,0.00046596,4656.4,0.00047111,4828.9,-0.00012277,366.68,-0.00017158,-0.11332,0.26117
27937,5.6556,3.6364,0.1,0.00047083,4705.1,0.00047598,4876.8,-0.00012453,364.88,-0.00017311,-0.14958,0.25282
27938,5.7478,3.3636,0.1,0.00046688,4665.5,0.00047231,4849.2,-0.00012089,392.14,-0.00017309,-0.093261,0.26137
27939,5.6556,3.4545,0.1,0.00047225,4719.3,0.00047775,4905.1,-0.00012226,396.94,-0.0001751,-0.12227,0.25306
27940,5.7478,3.1818,0.1,0.00046744,4671.2,0.00047304,4861.7,-0.00011973,407.89,-0.00017402,-0.081455,0.26149
27941,5.6556,3.2727,0.1,0.00047324,4729.1,0.00047897,4924.7,-0.00012068,419.14,-0.00017648,-0.1048,0.25322
27942,5.7478,3,0.1,0.00046763,4673.1,0.00047328,4865.9,-0.00011933,413.22,-0.00017434,-0.077567,0.26153
27943,5.6556,3.0909,0.1,0.00047375,4734.2,0.0004796,4934.7,-0.00011988,430.48,-0.00017718,-0.096344,0.2533
27944,5.7478,2.8182,0.1,0.00046744,4671.2,0.00047304,4861.7,-0.00011973,407.89,-0.00017402,-0.081455,0.26149
27945,5.6556,2.9091,0.1,0.00047375,4734.2,0.0004796,4934.7,-0.00011988,430.48,-0.00017718,-0.096344,0.2533
27946,5.7478,2.6364,0.1,0.00046688,4665.5,0.00047231,4849.2,-0.00012089,392.14,-0.00017309,-0.093261,0.26137
27947,5.6556,2.7273,0.1,0.00047324,4729.1,0.00047897,4924.7,-0.00012068,419.14,-0.00017648,-0.1048,0.25322
27948,5.7478,2.4545,0.1,0.00046596,4656.4,0.00047111,4828.9,-0.00012277,366.68,-0.00017158,-0.11332,0.26117
27949,5.6556,2.5455,0.1,0.00047225,4719.3,0.00047775,4905.1,-0.00012226,396.94,-0.0001751,-0.12227,0.25306
27950,5.7478,2.2727,0.1,0.00046474,4644.2,0.0004695,4801.5,-0.00012526,332.73,-0.00016956,-0.14191,0.26089
27951,5.6556,2.3636,0.1,0.00047083,4705.1,0.00047598,4876.8,-0.00012453,364.88,-0.00017311,-0.14958,0.25282
27952,5.7478,2.0909,0.1,0.00046324,4629.2,0.00046751,4768.2,-0.00012824,291.94,-0.00016712,-0.17915,0.26053
27953,5.6556,2.1818,0.1,0.00046904,4687.1,0.00047371,4840.9,-0.00012738,324.48,-0.00017059,-0.18743,0.2525
27954,5.7478,1.9091,0.1,0.0004615,4611.8,0.00046519,4729.9,-0.00013153,246.38,-0.00016435,-0.22504,0.26008
27955,5.6556,2,0.1,0.00046692,4666,0.00047102,4798.5,-0.00013066,277.78,-0.00016766,-0.23633,0.25209
27956,5.7478,1.7273,0.1,0.00045954,4592.2,0.00046259,4688,-0.00013495,198.38,-0.00016139,-0.28024,0.25955
27957,5.6556,1.8182,0.1,0.00046452,4642,0.00046796,4751.3,-0.00013415,227.21,-0.00016443,-0.29715,0.2516
27958,5.7478,1.5455,0.1,0.00045739,4570.7,0.00045976,4643.9,-0.00013829,150.38,-0.00015836,-0.34768,0.25893
27959,5.6556,1.6364,0.1,0.00046188,4615.6,0.00046461,4700.6,-0.00013766,175.45,-0.00016106,-0.37289,0.25102
27960,5.7478,1.3636,0.1,0.00045507,4547.6,0.00045676,4598.9,-0.00014137,104.79,-0.00015537,-0.437,0.25821
27961,5.6556,1.4545,0.1,0.00045904,4587.2,0.00046103,4648.3,-0.00014096,125.2,-0.00015768,-0.47332,0.25035
27962,5.7478,1.1818,0.1,0.00045263,4523.1,0.00045367,4554.4,-0.000144,63.803,-0.00015256,-0.5798,0.2574
27963,5.6556,1.2727,0.1,0.00045604,4557.2,0.00045732,4595.9,-0.00014384,79.016,-0.00015444,-0.63024,0.24958
27964,5.7478,1,0.1,0.00045009,4497.8,0.00045057,4511.9,-0.00014602,29.41,-0.00015006,-0.92255,0.2565
27965,5.6556,1.0909,0.1,0.00045292,4526.1,0.00045356,4545.1,-0.00014614,39.201,-0.00015148,-0.97868,0.24872
27966,5.7478,0.81818,0.1,0.00044751,4472,0.00044754,4472.8,-0.00014708,5.079,-0.00014822,-3.4464,0.2555
27967,5.6556,0.90909,0.1,0.00044977,4494.6,0.00044987,4497.5,-0.00014753,8.9632,-0.00014911,-2.9613,0.24777
27968,5.7478,0.63636,0.1,0.00044495,4446.4,0.00044467,4438.3,-0.00014595,0.5524,-0.00014826,-16.802,0.25441
27969,5.6556,0.72727,0.1,0.00044663,4463.2,0.00044634,4454.7,-0.00014643,0.88874,-0.00014892,-17.813,0.24671
27970,5.7478,0.45455,0.1,0.00044247,4421.7,0.00044205,4409.4,-0.00014478,0.17003,-0.00014807,-24.555,0.25321
27971,5.6556,0.54545,0.1,0.00044359,4432.8,0.00044308,4417.9,-0.00014488,0.23703,-0.00014889,-29.869,0.24556
27972,5.7478,0.27273,0.1,0.00044017,4398.7,0.00043978,4387.3,-0.00014412,0.036671,-0.00014716,-22.778,0.25192
27973,5.6556,0.36364,0.1,0.00044071,4404.1,0.00044017,4388.3,-0.00014386,0.13783,-0.00014807,-31.53,0.24431
27974,5.6556,0.18182,0.1,0.00043815,4378.5,0.00043776,4367,-0.00014346,-0.030274,-0.00014649,-22.81,0.24296
27975,5.7478,0.090909,0.1,0.00043799,4376.8,0.00043779,4371.2,-0.00014398,-0.040737,-0.00014547,-11.22,0.25053
27976,5.5634,5.7273,0.1,0.00043869,4383.9,0.00043815,4368,-0.0001432,0.040245,-0.0001474,-31.561,0.23545
27977,5.4712,5.8182,0.1,0.00043527,4349.7,0.00043475,4334.6,-0.00014215,-0.043583,-0.00014614,-30,0.22664
27978,5.5634,5.9091,0.1,0.00043575,4354.5,0.0004355,4347,-0.00014306,-0.02868,-0.00014503,-14.833,0.23405
27979,5.5634,5.5455,0.1,0.00044184,4415.3,0.0004412,4396.9,-0.00014396,0.17006,-0.00014889,-36.863,0.23676
27980,5.4712,5.6364,0.1,0.00043869,4383.9,0.00043794,4362.1,-0.0001426,0.16392,-0.0001484,-43.427,0.228
27981,5.5634,5.3636,0.1,0.00044528,4449.7,0.00044475,4434.4,-0.00014538,0.41971,-0.00014953,-30.787,0.23797
27982,5.4712,5.4545,0.1,0.00044258,4422.7,0.0004418,4400.3,-0.00014381,0.22422,-0.00014979,-44.673,0.22927
27983,5.5634,5.1818,0.1,0.00044889,4485.8,0.00044868,4479.5,-0.00014728,1.6991,-0.00014942,-14.319,0.23908
27984,5.4712,5.2727,0.1,0.00044676,4464.5,0.00044619,4448,-0.00014571,0.66637,-0.00015027,-33.584,0.23043
27985,5.5634,5,0.1,0.00045261,4523,0.00045287,4530.8,-0.00014777,17.783,-0.00015042,-2.1131,0.24009
27986,5.4712,5.0909,0.1,0.00045115,4508.4,0.00045099,4503.6,-0.00014801,2.9675,-0.00015007,-12.492,0.2315
27987,5.5634,4.8182,0.1,0.00045634,4560.2,0.00045722,4586.6,-0.000146,54.265,-0.00015335,-0.94441,0.241
27988,5.4712,4.9091,0.1,0.00045566,4553.5,0.00045607,4565.8,-0.00014803,26.763,-0.00015186,-1.9945,0.23247
27989,5.5634,4.6364,0.1,0.00046,4596.9,0.0004616,4645.4,-0.00014344,99.341,-0.00015675,-0.64017,0.24182
27990,5.4712,4.7273,0.1,0.00046018,4598.6,0.0004613,4632.4,-0.00014598,69.537,-0.00015537,-0.99617,0.23334
27991,5.5634,4.4545,0.1,0.00046353,4632.1,0.00046589,4705.1,-0.00014033,150.2,-0.00016038,-0.48527,0.24254
27992,5.4712,4.5455,0.1,0.0004646,4642.8,0.00046652,4701.5,-0.00014317,120.55,-0.00015931,-0.6854,0.23411
27993,5.5634,4.2727,0.1,0.00046686,4665.4,0.00046999,4763.9,-0.00013687,204.23,-0.0001641,-0.38127,0.24317
27994,5.4712,4.3636,0.1,0.00046884,4685.2,0.00047159,4770.8,-0.00013984,176.79,-0.00016344,-0.51782,0.23479
27995,5.5634,4.0909,0.1,0.00046994,4696.1,0.00047379,4819.9,-0.00013328,258.57,-0.00016773,-0.30214,0.24371
27996,5.4712,4.1818,0.1,0.00047284,4725.1,0.00047639,4838.1,-0.00013622,235.18,-0.00016757,-0.40337,0.23538
27997,5.5634,3.9091,0.1,0.00047271,4723.9,0.00047722,4871.2,-0.0001298,310.29,-0.00017113,-0.23958,0.24416
27998,5.4712,4,0.1,0.00047651,4761.8,0.0004808,4901.1,-0.00013257,292.48,-0.00017154,-0.31715,0.23588
27999,5.5634,3.7273,0.1,0.00047513,4748,0.00048019,4916.2,-0.00012665,356.61,-0.00017414,-0.1909,0.24453
28000,5.4712,3.8182,0.1,0.00047979,4794.6,0.00048473,4957.9,-0.00012914,345.45,-0.00017516,-0.25111,0.23629
28001,5.5634,3.5455,0.1,0.00047712,4767.9,0.00048261,4953.1,-0.00012402,395.12,-0.00017663,-0.15493,0.24481
28002,5.4712,3.6364,0.1,0.0004826,4822.7,0.00048806,5006.3,-0.00012617,391.2,-0.00017826,-0.20226,0.23662
28003,5.5634,3.3636,0.1,0.00047862,4782.9,0.00048442,4980.7,-0.00012205,423.94,-0.00017849,-0.13062,0.24501
28004,5.4712,3.4545,0.1,0.00048484,4845,0.00049069,5044.5,-0.00012381,427.39,-0.00018071,-0.16865,0.23686
28005,5.5634,3.1818,0.1,0.00047955,4792.2,0.00048553,4997.7,-0.00012083,441.74,-0.00017964,-0.11674,0.24513
28006,5.4712,3.2727,0.1,0.0004864,4860.7,0.00049251,5071,-0.00012219,452.35,-0.00018241,-0.14811,0.23702
28007,5.5634,3,0.1,0.00047987,4795.3,0.00048591,5003.5,-0.00012042,447.75,-0.00018003,-0.11225,0.24517
28008,5.4712,3.0909,0.1,0.00048721,4868.7,0.00049345,5084.5,-0.00012136,465.08,-0.00018328,-0.13852,0.2371
28009,5.5634,2.8182,0.1,0.00047955,4792.2,0.00048553,4997.7,-0.00012083,441.74,-0.00017964,-0.11674,0.24513
28010,5.4712,2.9091,0.1,0.00048721,4868.7,0.00049345,5084.5,-0.00012136,465.08,-0.00018328,-0.13852,0.2371
28011,5.5634,2.6364,0.1,0.00047862,4782.9,0.00048442,4980.7,-0.00012205,423.94,-0.00017849,-0.13062,0.24501
28012,5.4712,2.7273,0.1,0.0004864,4860.7,0.00049251,5071,-0.00012219,452.35,-0.00018241,-0.14811,0.23702
28013,5.5634,2.4545,0.1,0.00047712,4767.9,0.00048261,4953.1,-0.00012402,395.12,-0.00017663,-0.15493,0.24481
28014,5.4712,2.5455,0.1,0.00048484,4845,0.00049069,5044.5,-0.00012381,427.39,-0.00018071,-0.16865,0.23686
28015,5.5634,2.2727,0.1,0.00047513,4748,0.00048019,4916.2,-0.00012665,356.61,-0.00017414,-0.1909,0.24453
28016,5.4712,2.3636,0.1,0.0004826,4822.7,0.00048806,5006.3,-0.00012617,391.2,-0.00017826,-0.20226,0.23662
28017,5.5634,2.0909,0.1,0.00047271,4723.9,0.00047722,4871.2,-0.0001298,310.29,-0.00017113,-0.23959,0.24416
28018,5.4712,2.1818,0.1,0.00047979,4794.6,0.00048473,4957.9,-0.00012914,345.45,-0.00017516,-0.25111,0.23629
28019,5.5634,1.9091,0.1,0.00046994,4696.1,0.00047379,4819.9,-0.00013328,258.57,-0.00016773,-0.30214,0.24371
28020,5.4712,2,0.1,0.00047651,4761.8,0.0004808,4901.1,-0.00013257,292.48,-0.00017154,-0.31715,0.23588
28021,5.5634,1.7273,0.1,0.00046686,4665.4,0.00046999,4763.9,-0.00013687,204.23,-0.0001641,-0.38127,0.24317
28022,5.4712,1.8182,0.1,0.00047284,4725.1,0.00047639,4838.1,-0.00013622,235.18,-0.00016757,-0.40337,0.23538
28023,5.5634,1.5455,0.1,0.00046353,4632.1,0.00046589,4705.1,-0.00014033,150.2,-0.00016038,-0.48527,0.24254
28024,5.4712,1.6364,0.1,0.00046884,4685.2,0.00047159,4770.8,-0.00013984,176.79,-0.00016344,-0.51783,0.23479
28025,5.5634,1.3636,0.1,0.00046,4596.9,0.0004616,4645.4,-0.00014344,99.341,-0.00015675,-0.64017,0.24182
28026,5.4712,1.4545,0.1,0.0004646,4642.8,0.00046652,4701.5,-0.00014317,120.55,-0.00015931,-0.6854,0.23411
28027,5.5634,1.1818,0.1,0.00045634,4560.2,0.00045722,4586.6,-0.000146,54.265,-0.00015335,-0.94441,0.241
28028,5.4712,1.2727,0.1,0.00046018,4598.6,0.0004613,4632.4,-0.00014598,69.537,-0.00015537,-0.99617,0.23334
28029,5.5634,1,0.1,0.00045261,4523,0.00045287,4530.8,-0.00014777,17.783,-0.00015042,-2.1131,0.24009
28030,5.4712,1.0909,0.1,0.00045566,4553.5,0.00045607,4565.8,-0.00014803,26.762,-0.00015186,-1.9945,0.23247
28031,5.5634,0.81818,0.1,0.00044889,4485.8,0.00044868,4479.5,-0.00014728,1.6991,-0.00014942,-14.32,0.23908
28032,5.4712,0.90909,0.1,0.00045115,4508.4,0.00045099,4503.6,-0.00014801,2.9674,-0.00015007,-12.492,0.2315
28033,5.5634,0.63636,0.1,0.00044528,4449.7,0.00044475,4434.4,-0.00014538,0.41971,-0.00014953,-30.787,0.23797
28034,5.4712,0.72727,0.1,0.00044676,4464.5,0.00044619,4448,-0.00014571,0.66637,-0.00015027,-33.584,0.23043
28035,5.5634,0.45455,0.1,0.00044184,4415.3,0.0004412,4396.9,-0.00014396,0.17006,-0.00014889,-36.863,0.23676
28036,5.4712,0.54545,0.1,0.00044258,4422.7,0.0004418,4400.3,-0.00014381,0.22422,-0.00014979,-44.673,0.22927
28037,5.5634,0.27273,0.1,0.00043869,4383.9,0.00043815,4368,-0.0001432,0.040243,-0.0001474,-31.561,0.23545
28038,5.4712,0.36364,0.1,0.00043869,4383.9,0.00043794,4362.1,-0.0001426,0.16392,-0.0001484,-43.427,0.228
28039,5.4712,0.18182,0.1,0.00043527,4349.7,0.00043475,4334.6,-0.00014215,-0.043585,-0.00014614,-30,0.22664
28040,5.5634,0.090909,0.1,0.00043575,4354.5,0.0004355,4347,-0.00014306,-0.028681,-0.00014503,-14.833,0.23405
28041,5.3791,5.7273,0.1,0.00043528,4349.8,0.00043456,4328.7,-0.00014156,0.045636,-0.00014714,-41.902,0.21929
28042,5.2869,5.8182,0.1,0.00043016,4298.6,0.00042949,4279.2,-0.00014005,-0.065102,-0.00014516,-38.467,0.21061
28043,5.3791,5.9091,0.1,0.00043144,4311.4,0.00043111,4301.8,-0.00014143,-0.016237,-0.00014397,-19.139,0.21787
28044,5.3791,5.5455,0.1,0.00043945,4391.5,0.00043856,4365.7,-0.00014245,0.18788,-0.00014931,-51.309,0.22061
28045,5.2869,5.6364,0.1,0.00043458,4342.8,0.00043359,4314.1,-0.00014056,0.19891,-0.00014819,-57.138,0.21199
28046,5.3791,5.3636,0.1,0.00044408,4437.7,0.00044326,4414,-0.00014415,0.38982,-0.00015053,-47.513,0.22183
28047,5.2869,5.4545,0.1,0.00043969,4393.9,0.00043861,4362.7,-0.000142,0.23749,-0.00015027,-61.872,0.21327
28048,5.3791,5.1818,0.1,0.00044904,4487.3,0.00044852,4472.2,-0.00014655,1.1084,-0.00015083,-31.07,0.22295
28049,5.2869,5.2727,0.1,0.0004453,4449.9,0.00044439,4423.7,-0.00014429,0.61564,-0.00015136,-52.475,0.21445
28050,5.3791,5,0.1,0.00045422,4539.1,0.00045421,4538.8,-0.00014894,6.975,-0.00015087,-7.5483,0.22398
28051,5.2869,5.0909,0.1,0.0004513,4509.9,0.0004508,4495.5,-0.00014728,1.7332,-0.00015154,-30.29,0.21554
28052,5.3791,4.8182,0.1,0.00045951,4591.9,0.00046017,4611.7,-0.00014808,41.564,-0.00015384,-1.7209,0.22491
28053,5.2869,4.9091,0.1,0.00045756,4572.4,0.00045768,4576.1,-0.00014961,13.1,-0.00015212,-5.7204,0.21652
28054,5.3791,4.6364,0.1,0.00046478,4644.6,0.00046624,4688.7,-0.00014574,90.552,-0.00015792,-0.98004,0.22574
28055,5.2869,4.7273,0.1,0.00046392,4636,0.00046482,4663,-0.00014829,56.301,-0.00015602,-1.7216,0.21741
28056,5.3791,4.4545,0.1,0.00046992,4696,0.00047224,4767.4,-0.0001427,146.99,-0.00016236,-0.69332,0.22647
28057,5.2869,4.5455,0.1,0.00047022,4699,0.00047201,4753.5,-0.00014572,112.07,-0.00016078,-1.0321,0.2182
28058,5.3791,4.2727,0.1,0.00047483,4745,0.00047801,4845.1,-0.00013921,207.63,-0.00016691,-0.52585,0.22711
28059,5.2869,4.3636,0.1,0.00047633,4760.1,0.00047905,4844.6,-0.00014247,174.72,-0.00016583,-0.73487,0.21889
28060,5.3791,4.0909,0.1,0.00047941,4790.8,0.00048341,4919.4,-0.00013552,269.01,-0.00017138,-0.40868,0.22766
28061,5.2869,4.1818,0.1,0.00048213,4818,0.00048576,4933.5,-0.00013884,240.46,-0.00017091,-0.55441,0.21949
28062,5.3791,3.9091,0.1,0.00048359,4832.6,0.00048832,4987.8,-0.00013192,327.58,-0.00017556,-0.32129,0.22812
28063,5.2869,4,0.1,0.00048752,4871.8,0.00049198,5017,-0.00013512,305.26,-0.0001758,-0.42804,0.22
28064,5.3791,3.7273,0.1,0.00048726,4869.3,0.00049261,5048,-0.00012866,379.99,-0.00017927,-0.25654,0.22849
28065,5.2869,3.8182,0.1,0.00049237,4920.3,0.00049756,5092.6,-0.00013162,365.17,-0.00018026,-0.3366,0.22042
28066,5.3791,3.5455,0.1,0.00049032,4899.8,0.00049614,5097.6,-0.00012596,423.44,-0.00018234,-0.21105,0.22878
28067,5.2869,3.6364,0.1,0.00049656,4962.2,0.00050233,5157.3,-0.0001286,416.7,-0.0001841,-0.27275,0.22075
28068,5.3791,3.3636,0.1,0.00049262,4922.8,0.00049878,5134.8,-0.00012395,455.8,-0.00018463,-0.18192,0.22898
28069,5.2869,3.4545,0.1,0.00049993,4995.8,0.00050613,5208.6,-0.00012624,457.21,-0.00018712,-0.23156,0.221
28070,5.3791,3.1818,0.1,0.00049406,4937.2,0.00050043,5157.7,-0.00012271,475.71,-0.00018605,-0.16608,0.2291
28071,5.2869,3.2727,0.1,0.00050229,5019.4,0.00050877,5244.2,-0.00012464,484.97,-0.00018921,-0.2081,0.22116
28072,5.3791,3,0.1,0.00049455,4942.1,0.00050098,5165.5,-0.0001223,482.42,-0.00018653,-0.16112,0.22914
28073,5.2869,3.0909,0.1,0.00050351,5031.7,0.00051014,5262.5,-0.00012384,499.05,-0.00019028,-0.1978,0.22124
28074,5.3791,2.8182,0.1,0.00049406,4937.2,0.00050043,5157.7,-0.00012271,475.71,-0.00018605,-0.16608,0.2291
28075,5.2869,2.9091,0.1,0.00050351,5031.7,0.00051014,5262.5,-0.00012384,499.05,-0.00019028,-0.1978,0.22124
28076,5.3791,2.6364,0.1,0.00049262,4922.8,0.00049878,5134.8,-0.00012395,455.8,-0.00018463,-0.18192,0.22898
28077,5.2869,2.7273,0.1,0.00050229,5019.4,0.00050877,5244.2,-0.00012464,484.97,-0.00018921,-0.2081,0.22116
28078,5.3791,2.4545,0.1,0.00049032,4899.8,0.00049614,5097.6,-0.00012596,423.44,-0.00018234,-0.21105,0.22878
28079,5.2869,2.5455,0.1,0.00049993,4995.8,0.00050613,5208.6,-0.00012624,457.21,-0.00018712,-0.23156,0.221
28080,5.3791,2.2727,0.1,0.00048726,4869.3,0.00049261,5048,-0.00012866,379.99,-0.00017927,-0.25654,0.22849
28081,5.2869,2.3636,0.1,0.00049656,4962.2,0.00050233,5157.3,-0.0001286,416.7,-0.0001841,-0.27275,0.22075
28082,5.3791,2.0909,0.1,0.00048359,4832.6,0.00048832,4987.8,-0.00013192,327.58,-0.00017556,-0.32129,0.22812
28083,5.2869,2.1818,0.1,0.00049237,4920.3,0.00049756,5092.6,-0.00013162,365.17,-0.00018026,-0.3366,0.22042
28084,5.3791,1.9091,0.1,0.00047941,4790.8,0.00048341,4919.4,-0.00013552,269.01,-0.00017138,-0.40868,0.22766
28085,5.2869,2,0.1,0.00048752,4871.8,0.00049198,5017,-0.00013512,305.26,-0.0001758,-0.42804,0.22
28086,5.3791,1.7273,0.1,0.00047483,4745,0.00047801,4845.1,-0.00013921,207.62,-0.00016691,-0.52585,0.22711
28087,5.2869,1.8182,0.1,0.00048214,4818,0.00048576,4933.5,-0.00013884,240.46,-0.00017091,-0.55441,0.21949
28088,5.3791,1.5455,0.1,0.00046992,4696,0.00047224,4767.4,-0.0001427,146.99,-0.00016236,-0.69332,0.22647
28089,5.2869,1.6364,0.1,0.00047633,4760.1,0.00047905,4844.6,-0.00014247,174.72,-0.00016583,-0.73487,0.21889
28090,5.3791,1.3636,0.1,0.00046478,4644.6,0.00046624,4688.7,-0.00014574,90.552,-0.00015792,-0.98005,0.22574
28091,5.2869,1.4545,0.1,0.00047022,4699,0.00047201,4753.5,-0.00014572,112.07,-0.00016078,-1.0321,0.2182
28092,5.3791,1.1818,0.1,0.00045951,4591.9,0.00046017,4611.7,-0.00014808,41.564,-0.00015384,-1.7209,0.22491
28093,5.2869,1.2727,0.1,0.00046392,4636,0.00046482,4663,-0.00014829,56.301,-0.00015602,-1.7216,0.21741
28094,5.3791,1,0.1,0.00045422,4539.1,0.00045421,4538.8,-0.00014894,6.9749,-0.00015087,-7.5483,0.22398
28095,5.2869,1.0909,0.1,0.00045756,4572.4,0.00045768,4576.1,-0.00014961,13.1,-0.00015212,-5.7204,0.21652
28096,5.3791,0.81818,0.1,0.00044904,4487.3,0.00044852,4472.2,-0.00014655,1.1084,-0.00015083,-31.07,0.22295
28097,5.2869,0.90909,0.1,0.0004513,4509.9,0.0004508,4495.5,-0.00014728,1.7332,-0.00015154,-30.29,0.21554
28098,5.3791,0.63636,0.1,0.00044408,4437.7,0.00044326,4414,-0.00014415,0.38982,-0.00015053,-47.513,0.22183
28099,5.2869,0.72727,0.1,0.0004453,4449.9,0.00044439,4423.7,-0.00014429,0.61564,-0.00015136,-52.475,0.21445
28100,5.3791,0.45455,0.1,0.00043945,4391.5,0.00043856,4365.7,-0.00014245,0.18788,-0.00014931,-51.309,0.22061
28101,5.2869,0.54545,0.1,0.00043969,4393.9,0.00043861,4362.7,-0.000142,0.23749,-0.00015027,-61.872,0.21327
28102,5.3791,0.27273,0.1,0.00043528,4349.8,0.00043456,4328.7,-0.00014156,0.045634,-0.00014714,-41.902,0.21929
28103,5.2869,0.36364,0.1,0.00043458,4342.8,0.00043359,4314.1,-0.00014056,0.19891,-0.00014819,-57.138,0.21199
28104,5.2869,0.18182,0.1,0.00043016,4298.6,0.00042949,4279.2,-0.00014005,-0.065103,-0.00014516,-38.467,0.21061
28105,5.3791,0.090909,0.1,0.00043144,4311.4,0.00043111,4301.8,-0.00014143,-0.016238,-0.00014397,-19.139,0.21787
28106,5.1947,5.7273,0.1,0.00042948,4291.8,0.00042854,4264.7,-0.00013905,0.050867,-0.00014622,-53.8,0.20341
28107,5.1025,5.8182,0.1,0.00042229,4220,0.00042145,4195.6,-0.00013697,-0.098951,-0.00014337,-48.224,0.19487
28108,5.1947,5.9091,0.1,0.00042456,4242.7,0.00042415,4230.5,-0.00013891,-0.0045029,-0.00014212,-24.167,0.20198
28109,5.1947,5.5455,0.1,0.00043486,4345.6,0.00043367,4311.3,-0.00014011,0.22016,-0.00014917,-67.854,0.20475
28110,5.1025,5.6364,0.1,0.00042787,4275.7,0.00042659,4239.1,-0.00013757,0.242,-0.00014725,-72.505,0.19627
28111,5.1947,5.3636,0.1,0.00044095,4406.4,0.00043978,4372.7,-0.00014215,0.40656,-0.00015112,-67.006,0.20599
28112,5.1025,5.4545,0.1,0.00043444,4341.4,0.00043301,4300.3,-0.0001393,0.27294,-0.00015016,-81.349,0.19757
28113,5.1947,5.1818,0.1,0.0004476,4472.9,0.00044671,4447.3,-0.00014506,0.95932,-0.00015207,-51.68,0.20714
28114,5.1025,5.2727,0.1,0.00044182,4415.1,0.00044051,4377.7,-0.00014204,0.63692,-0.00015204,-74.52,0.19878
28115,5.1947,5,0.1,0.00045467,4543.6,0.00045431,4533.1,-0.00014859,3.1086,-0.0001522,-24.001,0.20818
28116,5.1025,5.0909,0.1,0.00044986,4495.5,0.00044896,4469.5,-0.0001457,1.4202,-0.00015295,-53.04,0.19988
28117,5.1947,4.8182,0.1,0.000462,4616.8,0.00046236,4627.6,-0.00015011,25.734,-0.00015406,-3.9089,0.20913
28118,5.1025,4.9091,0.1,0.00045839,4580.8,0.00045813,4573.2,-0.00014983,5.2606,-0.00015321,-20.18,0.20089
28119,5.1947,4.6364,0.1,0.00046939,4690.6,0.00047063,4728,-0.00014834,77.38,-0.00015885,-1.6087,0.20997
28120,5.1025,4.7273,0.1,0.00046717,4668.5,0.00046775,4685.9,-0.00015076,38.661,-0.00015637,-3.5308,0.20179
28121,5.1947,4.4545,0.1,0.00047666,4763.3,0.00047886,4831,-0.00014554,139.5,-0.00016424,-1.0249,0.21072
28122,5.1025,4.5455,0.1,0.00047595,4756.3,0.00047752,4803.8,-0.00014874,98.288,-0.00016205,-1.6555,0.2026
28123,5.1947,4.2727,0.1,0.00048366,4833.2,0.00048684,4933.2,-0.00014214,207.31,-0.00016983,-0.73937,0.21138
28124,5.1025,4.3636,0.1,0.00048453,4842,0.00048715,4923.1,-0.00014576,167.63,-0.00016822,-1.0781,0.20331
28125,5.1947,4.0909,0.1,0.00049025,4899.1,0.00049436,5031.2,-0.00013846,276.52,-0.00017533,-0.55843,0.21194
28126,5.1025,4.1818,0.1,0.00049273,4923.9,0.00049638,5039.8,-0.00014224,241.47,-0.00017448,-0.77688,0.20393
28127,5.1947,3.9091,0.1,0.00049631,4959.7,0.00050124,5121.9,-0.00013483,342.71,-0.0001805,-0.43224,0.2124
28128,5.1025,4,0.1,0.00050039,5000.5,0.00050499,5150.1,-0.00013856,314.7,-0.00018052,-0.58375,0.20445
28129,5.1947,3.7273,0.1,0.00050168,5013.3,0.0005073,5201.9,-0.00013157,401.78,-0.00018508,-0.34425,0.21278
28130,5.1025,3.8182,0.1,0.00050736,5070.1,0.00051277,5250.1,-0.0001351,382.28,-0.00018604,-0.45271,0.20488
28131,5.1947,3.5455,0.1,0.00050617,5058.2,0.00051232,5268.2,-0.00012889,450.43,-0.00018887,-0.28645,0.21308
28132,5.1025,3.6364,0.1,0.00051341,5130.6,0.00051947,5336.2,-0.00013218,439.97,-0.00019078,-0.36705,0.20522
28133,5.1947,3.3636,0.1,0.00050959,5092.4,0.00051611,5318,-0.00012693,486.39,-0.0001917,-0.25215,0.21329
28134,5.1025,3.4545,0.1,0.0005183,5179.5,0.00052484,5404.6,-0.00012995,484.82,-0.00019452,-0.31656,0.20548
28135,5.1947,3.1818,0.1,0.00051173,5113.8,0.00051848,5348.9,-0.00012576,508.35,-0.00019345,-0.23496,0.21341
28136,5.1025,3.2727,0.1,0.00052176,5214,0.00052861,5452.3,-0.00012849,515.19,-0.00019709,-0.29094,0.20564
28137,5.1947,3,0.1,0.00051247,5121.1,0.00051928,5359.3,-0.00012536,515.73,-0.00019403,-0.22986,0.21345
28138,5.1025,3.0909,0.1,0.00052356,5232,0.00053055,5476.8,-0.00012777,530.45,-0.00019841,-0.28091,0.20573
28139,5.1947,2.8182,0.1,0.00051173,5113.8,0.00051848,5348.9,-0.00012576,508.35,-0.00019345,-0.23496,0.21341
28140,5.1025,2.9091,0.1,0.00052356,5232,0.00053055,5476.8,-0.00012777,530.45,-0.00019841,-0.28091,0.20573
28141,5.1947,2.6364,0.1,0.00050959,5092.4,0.00051611,5318,-0.00012693,486.39,-0.0001917,-0.25215,0.21329
28142,5.1025,2.7273,0.1,0.00052176,5214,0.00052861,5452.3,-0.00012849,515.19,-0.00019709,-0.29094,0.20564
28143,5.1947,2.4545,0.1,0.00050617,5058.2,0.00051232,5268.2,-0.00012889,450.43,-0.00018887,-0.28645,0.21308
28144,5.1025,2.5455,0.1,0.0005183,5179.5,0.00052484,5404.6,-0.00012995,484.82,-0.00019452,-0.31656,0.20548
28145,5.1947,2.2727,0.1,0.00050168,5013.3,0.0005073,5201.9,-0.00013157,401.78,-0.00018508,-0.34425,0.21278
28146,5.1025,2.3636,0.1,0.00051341,5130.6,0.00051947,5336.2,-0.00013218,439.97,-0.00019078,-0.36706,0.20522
28147,5.1947,2.0909,0.1,0.00049631,4959.7,0.00050124,5121.9,-0.00013483,342.71,-0.0001805,-0.43224,0.2124
28148,5.1025,2.1818,0.1,0.00050736,5070.1,0.00051277,5250.1,-0.0001351,382.28,-0.00018604,-0.45271,0.20488
28149,5.1947,1.9091,0.1,0.00049025,4899.1,0.00049436,5031.2,-0.00013846,276.52,-0.00017533,-0.55843,0.21194
28150,5.1025,2,0.1,0.00050039,5000.5,0.00050499,5150.1,-0.00013856,314.7,-0.00018052,-0.58375,0.20445
28151,5.1947,1.7273,0.1,0.00048366,4833.2,0.00048684,4933.2,-0.00014214,207.31,-0.00016983,-0.73937,0.21138
28152,5.1025,1.8182,0.1,0.00049273,4923.9,0.00049638,5039.8,-0.00014224,241.47,-0.00017448,-0.77688,0.20393
28153,5.1947,1.5455,0.1,0.00047666,4763.3,0.00047886,4831,-0.00014554,139.5,-0.00016424,-1.0249,0.21072
28154,5.1025,1.6364,0.1,0.00048453,4842,0.00048715,4923.1,-0.00014576,167.63,-0.00016822,-1.0781,0.20331
28155,5.1947,1.3636,0.1,0.00046939,4690.6,0.00047063,4728,-0.00014834,77.38,-0.00015885,-1.6087,0.20997
28156,5.1025,1.4545,0.1,0.00047595,4756.3,0.00047752,4803.8,-0.00014874,98.288,-0.00016205,-1.6555,0.2026
28157,5.1947,1.1818,0.1,0.000462,4616.8,0.00046236,4627.6,-0.00015011,25.734,-0.00015406,-3.909,0.20913
28158,5.1025,1.2727,0.1,0.00046717,4668.5,0.00046775,4685.9,-0.00015076,38.661,-0.00015637,-3.5308,0.20179
28159,5.1947,1,0.1,0.00045467,4543.6,0.00045431,4533.1,-0.00014859,3.1086,-0.0001522,-24.001,0.20818
28160,5.1025,1.0909,0.1,0.00045839,4580.8,0.00045813,4573.2,-0.00014983,5.2606,-0.00015321,-20.18,0.20089
28161,5.1947,0.81818,0.1,0.0004476,4472.9,0.00044671,4447.3,-0.00014506,0.95932,-0.00015207,-51.68,0.20714
28162,5.1025,0.90909,0.1,0.00044986,4495.5,0.00044896,4469.5,-0.0001457,1.4202,-0.00015295,-53.04,0.19988
28163,5.1947,0.63636,0.1,0.00044095,4406.4,0.00043978,4372.7,-0.00014215,0.40656,-0.00015112,-67.006,0.20599
28164,5.1025,0.72727,0.1,0.00044182,4415.1,0.00044051,4377.7,-0.00014204,0.63692,-0.00015204,-74.52,0.19878
28165,5.1947,0.45455,0.1,0.00043486,4345.6,0.00043367,4311.3,-0.00014011,0.22016,-0.00014917,-67.854,0.20475
28166,5.1025,0.54545,0.1,0.00043444,4341.4,0.00043301,4300.3,-0.0001393,0.27294,-0.00015016,-81.349,0.19757
28167,5.1947,0.27273,0.1,0.00042948,4291.8,0.00042854,4264.7,-0.00013905,0.050865,-0.00014622,-53.8,0.20341
28168,5.1025,0.36364,0.1,0.00042787,4275.7,0.00042659,4239.1,-0.00013757,0.242,-0.00014725,-72.505,0.19627
28169,5.1025,0.18182,0.1,0.00042229,4220,0.00042145,4195.6,-0.00013697,-0.098952,-0.00014337,-48.224,0.19487
28170,5.1947,0.090909,0.1,0.00042456,4242.7,0.00042415,4230.5,-0.00013891,-0.0045044,-0.00014212,-24.167,0.20198
28171,5.0103,5.7273,0.1,0.00042071,4204.2,0.00041953,4170.3,-0.00013549,0.054615,-0.00014443,-67.119,0.18783
28172,4.9181,5.8182,0.1,0.00041107,4107.9,0.00041003,4077.9,-0.00013272,-0.14795,-0.00014058,-59.177,0.17942
28173,5.0103,5.9091,0.1,0.00041454,4142.6,0.00041403,4127.6,-0.00013532,0.0047546,-0.0001393,-29.897,0.18637
28174,5.0103,5.5455,0.1,0.0004275,4272.1,0.00042597,4228.4,-0.00013676,0.26769,-0.00014828,-86.275,0.18919
28175,4.9181,5.6364,0.1,0.00041792,4176.4,0.00041634,4131.2,-0.00013345,0.29361,-0.00014535,-89.134,0.18084
28176,5.0103,5.3636,0.1,0.00043538,4350.8,0.0004338,4305.7,-0.00013919,0.45856,-0.00015113,-89.217,0.19045
28177,4.9181,5.4545,0.1,0.00042624,4259.5,0.00042441,4207.3,-0.00013551,0.33368,-0.00014923,-102.78,0.18217
28178,5.0103,5.1818,0.1,0.00044416,4438.5,0.00044283,4400.4,-0.0001427,0.95062,-0.00015297,-76.215,0.19162
28179,4.9181,5.2727,0.1,0.0004358,4355,0.00043403,4304.6,-0.00013878,0.70884,-0.00015216,-99.762,0.1834
28180,5.0103,5,0.1,0.00045366,4533.5,0.00045285,4510.2,-0.00014712,2.2095,-0.00015385,-48.394,0.19269
28181,4.9181,5.0909,0.1,0.00044644,4461.3,0.00044503,4421.1,-0.00014319,1.355,-0.00015412,-80.776,0.18453
28182,5.0103,4.8182,0.1,0.00046364,4633.2,0.0004636,4632,-0.00015144,10.908,-0.00015463,-13.075,0.19366
28183,4.9181,4.9091,0.1,0.00045791,4575.9,0.00045714,4553.9,-0.00014851,3.2428,-0.00015518,-46.83,0.18556
28184,5.0103,4.6364,0.1,0.0004738,4734.8,0.00047472,4762.2,-0.00015131,58.464,-0.00015949,-3.0049,0.19453
28185,4.9181,4.7273,0.1,0.00046985,4695.2,0.00046998,4699.2,-0.00015298,18.517,-0.00015684,-10.46,0.1865
28186,5.0103,4.4545,0.1,0.00048389,4835.5,0.00048587,4896.4,-0.00014905,125.83,-0.00016601,-1.6017,0.1953
28187,4.9181,4.5455,0.1,0.0004819,4815.6,0.00048311,4852.2,-0.00015242,77.064,-0.00016308,-2.9887,0.18733
28188,5.0103,4.2727,0.1,0.00049365,4933.1,0.00049675,5030.1,-0.00014593,201.34,-0.00017286,-1.0722,0.19597
28189,4.9181,4.3636,0.1,0.00049373,4933.9,0.00049612,5007.7,-0.00015001,152.98,-0.00017059,-1.6705,0.18806
28190,5.0103,4.0909,0.1,0.00050291,5025.6,0.00050706,5159,-0.00014239,279.3,-0.00017966,-0.77705,0.19655
28191,4.9181,4.1818,0.1,0.00050509,5047.4,0.00050866,5160.6,-0.00014678,235.83,-0.00017832,-1.1212,0.1887
28192,5.0103,3.9091,0.1,0.00051146,5111.1,0.00051655,5278.6,-0.00013887,354.01,-0.00018606,-0.58699,0.19703
28193,4.9181,4,0.1,0.00051576,5154,0.00052042,5305.5,-0.00014329,318.66,-0.00018581,-0.80644,0.18924
28194,5.0103,3.7273,0.1,0.0005191,5187.4,0.00052496,5384.5,-0.00013574,420.32,-0.00019174,-0.46286,0.19743
28195,4.9181,3.8182,0.1,0.00052552,5251.6,0.00053111,5437.5,-0.00014003,394.81,-0.00019266,-0.60979,0.18969
28196,5.0103,3.5455,0.1,0.00052554,5251.8,0.00053199,5472.6,-0.00013325,474.3,-0.00019642,-0.3876,0.19773
28197,4.9181,3.6364,0.1,0.00053407,5337,0.00054038,5551.4,-0.00013738,458.94,-0.00019853,-0.4926,0.19005
28198,5.0103,3.3636,0.1,0.00053047,5301,0.00053733,5538.9,-0.0001315,513.66,-0.00019991,-0.34792,0.19795
28199,4.9181,3.4545,0.1,0.00054102,5406.5,0.00054786,5642.2,-0.00013549,507.82,-0.00020314,-0.4309,0.19031
28200,5.0103,3.1818,0.1,0.00053357,5332,0.00054067,5580.2,-0.00013049,537.39,-0.00020205,-0.33074,0.19807
28201,4.9181,3.2727,0.1,0.00054596,5455.9,0.00055313,5705.6,-0.00013434,540.24,-0.0002063,-0.40463,0.19049
28202,5.0103,3,0.1,0.00053463,5342.6,0.00054181,5594.2,-0.00013016,545.3,-0.00020278,-0.32624,0.19812
28203,4.9181,3.0909,0.1,0.00054853,5481.5,0.00055586,5738.2,-0.00013381,556.27,-0.0002079,-0.39664,0.19058
28204,5.0103,2.8182,0.1,0.00053357,5332,0.00054067,5580.2,-0.00013049,537.39,-0.00020205,-0.33074,0.19807
28205,4.9181,2.9091,0.1,0.00054853,5481.5,0.00055586,5738.2,-0.00013381,556.27,-0.0002079,-0.39664,0.19058
28206,5.0103,2.6364,0.1,0.00053047,5301,0.00053733,5538.9,-0.0001315,513.66,-0.00019991,-0.34792,0.19795
28207,4.9181,2.7273,0.1,0.00054596,5455.9,0.00055313,5705.6,-0.00013434,540.24,-0.0002063,-0.40463,0.19049
28208,5.0103,2.4545,0.1,0.00052554,5251.8,0.00053199,5472.6,-0.00013325,474.3,-0.00019642,-0.3876,0.19773
28209,4.9181,2.5455,0.1,0.00054102,5406.5,0.00054786,5642.2,-0.00013549,507.82,-0.00020314,-0.4309,0.19031
28210,5.0103,2.2727,0.1,0.0005191,5187.4,0.00052496,5384.5,-0.00013574,420.32,-0.00019174,-0.46286,0.19743
28211,4.9181,2.3636,0.1,0.00053407,5337,0.00054038,5551.4,-0.00013738,458.94,-0.00019853,-0.4926,0.19005
28212,5.0103,2.0909,0.1,0.00051146,5111.1,0.00051655,5278.6,-0.00013887,354.01,-0.00018606,-0.58699,0.19703
28213,4.9181,2.1818,0.1,0.00052552,5251.6,0.00053111,5437.5,-0.00014003,394.81,-0.00019266,-0.60979,0.18969
28214,5.0103,1.9091,0.1,0.00050291,5025.6,0.00050706,5159,-0.00014239,279.3,-0.00017967,-0.77705,0.19655
28215,4.9181,2,0.1,0.00051576,5154,0.00052042,5305.5,-0.00014329,318.66,-0.00018581,-0.80644,0.18924
28216,5.0103,1.7273,0.1,0.00049365,4933.1,0.00049675,5030.1,-0.00014593,201.34,-0.00017286,-1.0722,0.19597
28217,4.9181,1.8182,0.1,0.00050509,5047.4,0.00050866,5160.6,-0.00014678,235.83,-0.00017832,-1.1212,0.1887
28218,5.0103,1.5455,0.1,0.00048389,4835.5,0.00048587,4896.4,-0.00014905,125.83,-0.00016601,-1.6017,0.1953
28219,4.9181,1.6364,0.1,0.00049373,4933.9,0.00049612,5007.7,-0.00015001,152.98,-0.00017059,-1.6705,0.18806
28220,5.0103,1.3636,0.1,0.0004738,4734.8,0.00047472,4762.2,-0.00015131,58.464,-0.00015949,-3.0049,0.19453
28221,4.9181,1.4545,0.1,0.0004819,4815.6,0.00048311,4852.2,-0.00015242,77.064,-0.00016308,-2.9887,0.18733
28222,5.0103,1.1818,0.1,0.00046364,4633.2,0.0004636,4632,-0.00015144,10.908,-0.00015463,-13.075,0.19366
28223,4.9181,1.2727,0.1,0.00046985,4695.2,0.00046998,4699.2,-0.00015298,18.517,-0.00015684,-10.46,0.1865
28224,5.0103,1,0.1,0.00045366,4533.5,0.00045285,4510.2,-0.00014712,2.2095,-0.00015385,-48.394,0.19269
28225,4.9181,1.0909,0.1,0.00045791,4575.9,0.00045714,4553.9,-0.00014851,3.2428,-0.00015518,-46.83,0.18556
28226,5.0103,0.81818,0.1,0.00044416,4438.5,0.00044283,4400.4,-0.0001427,0.95062,-0.00015297,-76.215,0.19162
28227,4.9181,0.90909,0.1,0.00044644,4461.3,0.00044503,4421.1,-0.00014319,1.355,-0.00015412,-80.776,0.18453
28228,5.0103,0.63636,0.1,0.00043538,4350.8,0.0004338,4305.7,-0.00013919,0.45856,-0.00015113,-89.217,0.19045
28229,4.9181,0.72727,0.1,0.0004358,4355,0.00043403,4304.6,-0.00013878,0.70884,-0.00015216,-99.762,0.1834
28230,5.0103,0.45455,0.1,0.0004275,4272.1,0.00042597,4228.4,-0.00013676,0.26768,-0.00014828,-86.275,0.18919
28231,4.9181,0.54545,0.1,0.00042624,4259.5,0.00042441,4207.3,-0.00013551,0.33368,-0.00014923,-102.78,0.18217
28232,5.0103,0.27273,0.1,0.00042071,4204.2,0.00041953,4170.3,-0.00013549,0.054613,-0.00014443,-67.119,0.18783
28233,4.9181,0.36364,0.1,0.00041792,4176.4,0.00041634,4131.2,-0.00013345,0.29361,-0.00014535,-89.134,0.18084
28234,4.9181,0.18182,0.1,0.00041107,4107.9,0.00041003,4077.9,-0.00013272,-0.14795,-0.00014058,-59.177,0.17942
28235,5.0103,0.090909,0.1,0.00041454,4142.6,0.00041403,4127.6,-0.00013532,0.0047531,-0.0001393,-29.897,0.18637
28236,4.826,5.7273,0.1,0.00040833,4080.5,0.00040689,4039.2,-0.00013069,0.057677,-0.00014154,-81.521,0.17253
28237,4.7338,5.8182,0.1,0.00039582,3955.4,0.00039456,3919.3,-0.0001271,-0.21024,-0.00013653,-71.061,0.16424
28238,4.826,5.9091,0.1,0.00040073,4004.5,0.0004001,3986.3,-0.00013044,0.0091401,-0.00013526,-36.223,0.17105
28239,4.826,5.5455,0.1,0.00041674,4164.5,0.00041484,4110.6,-0.00013221,0.33462,-0.00014637,-106.1,0.17392
28240,4.7338,5.6364,0.1,0.00040404,4037.6,0.00040213,3983.5,-0.000128,0.35634,-0.0001422,-106.31,0.16569
28241,4.826,5.3636,0.1,0.00042677,4264.8,0.00042472,4206.9,-0.00013511,0.54776,-0.00015035,-113.96,0.17521
28242,4.7338,5.4545,0.1,0.0004144,4141.1,0.00041212,4077.1,-0.00013045,0.42801,-0.00014722,-125.56,0.16705
28243,4.826,5.1818,0.1,0.00043822,4379.1,0.00043635,4326.1,-0.00013929,1.0211,-0.00015341,-105.08,0.17641
28244,4.7338,5.2727,0.1,0.00042663,4263.4,0.00042432,4198.2,-0.00013432,0.83005,-0.0001515,-128.22,0.16831
28245,4.826,5,0.1,0.00045083,4505.2,0.00044946,4465.8,-0.00014464,1.9447,-0.00015552,-79.735,0.17751
28246,4.7338,5.0909,0.1,0.00044057,4402.6,0.00043853,4345,-0.00013956,1.4066,-0.00015498,-114.42,0.16948
28247,4.826,4.8182,0.1,0.00046426,4639.4,0.00046366,4622.1,-0.00015081,5.1647,-0.00015676,-39.538,0.17851
28248,4.7338,4.9091,0.1,0.00045583,4555.1,0.00045439,4514.1,-0.00014605,2.6306,-0.00015751,-83.535,0.17055
28249,4.826,4.6364,0.1,0.00047807,4777.4,0.0004785,4790.2,-0.00015461,33.22,-0.00016003,-7.5232,0.1794
28250,4.7338,4.7273,0.1,0.00047191,4715.8,0.00047138,4700.7,-0.00015325,7.4099,-0.00015922,-37.479,0.17152
28251,4.826,4.4545,0.1,0.00049185,4915.1,0.00049347,4964.4,-0.00015354,103.05,-0.00016762,-2.7739,0.1802
28252,4.7338,4.5455,0.1,0.00048826,4879.2,0.0004889,4898.6,-0.0001569,46.298,-0.000164,-7.1096,0.17238
28253,4.826,4.2727,0.1,0.00050526,5049.1,0.00050814,5138.9,-0.00015097,186.64,-0.00017603,-1.6341,0.1809
28254,4.7338,4.3636,0.1,0.00050437,5040.2,0.00050636,5101,-0.00015566,126.81,-0.00017292,-2.8773,0.17315
28255,4.826,4.0909,0.1,0.00051801,5176.5,0.00052211,5307.7,-0.00014777,274.55,-0.00018445,-1.107,0.18151
28256,4.7338,4.1818,0.1,0.00051988,5195.2,0.00052324,5300.7,-0.000153,219.7,-0.00018247,-1.7103,0.17382
28257,4.826,3.9091,0.1,0.00052986,5295,0.00053504,5464.9,-0.00014452,359,-0.0001924,-0.80137,0.18201
28258,4.7338,4,0.1,0.00053451,5341.4,0.00053913,5490.7,-0.00014988,313.84,-0.0001918,-1.1538,0.17439
28259,4.826,3.7273,0.1,0.00054051,5401.4,0.00054656,5604.6,-0.00014171,433.17,-0.00019945,-0.62019,0.18242
28260,4.7338,3.8182,0.1,0.00054795,5475.8,0.00055364,5664.2,-0.00014701,399.8,-0.00020034,-0.83802,0.17486
28261,4.826,3.5455,0.1,0.00054955,5491.7,0.00055626,5721.1,-0.00013964,492.38,-0.00020524,-0.52218,0.18274
28262,4.7338,3.6364,0.1,0.00055981,5594.2,0.00056631,5814.2,-0.00014489,470.54,-0.00020761,-0.66216,0.17524
28263,4.826,3.3636,0.1,0.0005565,5561.2,0.00056365,5808.8,-0.00013832,534.5,-0.00020952,-0.47774,0.18297
28264,4.7338,3.4545,0.1,0.0005695,5691,0.00057657,5934,-0.00014364,522.62,-0.00021327,-0.58314,0.17552
28265,4.826,3.1818,0.1,0.00056089,5605,0.0005683,5863.5,-0.00013764,559.35,-0.00021215,-0.46292,0.18311
28266,4.7338,3.2727,0.1,0.0005764,5760,0.00058383,6017.5,-0.00014307,555.92,-0.00021713,-0.55882,0.17571
28267,4.826,3,0.1,0.00056239,5620.1,0.00056988,5882,-0.00013743,567.52,-0.00021303,-0.46019,0.18315
28268,4.7338,3.0909,0.1,0.00058,5796,0.00058759,6060.4,-0.00014288,571.91,-0.00021907,-0.55537,0.1758
28269,4.826,2.8182,0.1,0.00056089,5605,0.0005683,5863.5,-0.00013764,559.35,-0.00021215,-0.46292,0.18311
28270,4.7338,2.9091,0.1,0.00058,5796,0.00058759,6060.4,-0.00014288,571.91,-0.00021907,-0.55537,0.1758
28271,4.826,2.6364,0.1,0.0005565,5561.2,0.00056365,5808.8,-0.00013832,534.5,-0.00020952,-0.47774,0.18297
28272,4.7338,2.7273,0.1,0.0005764,5760,0.00058383,6017.5,-0.00014307,555.92,-0.00021713,-0.55882,0.17571
28273,4.826,2.4545,0.1,0.00054955,5491.7,0.00055626,5721.1,-0.00013964,492.38,-0.00020524,-0.52218,0.18274
28274,4.7338,2.5455,0.1,0.0005695,5691,0.00057657,5934,-0.00014364,522.62,-0.00021327,-0.58314,0.17552
28275,4.826,2.2727,0.1,0.00054051,5401.4,0.00054656,5604.6,-0.00014171,433.17,-0.00019945,-0.62019,0.18242
28276,4.7338,2.3636,0.1,0.00055981,5594.2,0.00056631,5814.2,-0.00014489,470.54,-0.00020761,-0.66216,0.17524
28277,4.826,2.0909,0.1,0.00052986,5295,0.00053504,5464.9,-0.00014452,359,-0.0001924,-0.80138,0.18201
28278,4.7338,2.1818,0.1,0.00054795,5475.8,0.00055364,5664.2,-0.00014701,399.8,-0.00020034,-0.83802,0.17486
28279,4.826,1.9091,0.1,0.00051801,5176.5,0.00052211,5307.7,-0.00014777,274.55,-0.00018445,-1.107,0.18151
28280,4.7338,2,0.1,0.00053451,5341.4,0.00053913,5490.7,-0.00014988,313.84,-0.0001918,-1.1538,0.17439
28281,4.826,1.7273,0.1,0.00050526,5049.1,0.00050814,5138.9,-0.00015097,186.64,-0.00017603,-1.6341,0.1809
28282,4.7338,1.8182,0.1,0.00051988,5195.2,0.00052324,5300.7,-0.000153,219.7,-0.00018247,-1.7103,0.17382
28283,4.826,1.5455,0.1,0.00049185,4915.1,0.00049347,4964.4,-0.00015354,103.05,-0.00016762,-2.7739,0.1802
28284,4.7338,1.6364,0.1,0.00050437,5040.2,0.00050636,5101,-0.00015566,126.81,-0.00017292,-2.8773,0.17315
28285,4.826,1.3636,0.1,0.00047807,4777.4,0.0004785,4790.2,-0.00015461,33.219,-0.00016003,-7.5232,0.1794
28286,4.7338,1.4545,0.1,0.00048826,4879.2,0.0004889,4898.6,-0.0001569,46.298,-0.00016401,-7.1096,0.17238
28287,4.826,1.1818,0.1,0.00046426,4639.4,0.00046366,4622.1,-0.00015081,5.1647,-0.00015676,-39.538,0.17851
28288,4.7338,1.2727,0.1,0.00047191,4715.8,0.00047138,4700.7,-0.00015325,7.4099,-0.00015922,-37.479,0.17152
28289,4.826,1,0.1,0.00045083,4505.2,0.00044946,4465.8,-0.00014464,1.9447,-0.00015552,-79.735,0.17751
28290,4.7338,1.0909,0.1,0.00045583,4555.1,0.00045439,4514.1,-0.00014605,2.6306,-0.00015751,-83.535,0.17055
28291,4.826,0.81818,0.1,0.00043822,4379.1,0.00043635,4326.1,-0.00013929,1.0211,-0.00015341,-105.08,0.17641
28292,4.7338,0.90909,0.1,0.00044057,4402.6,0.00043853,4345,-0.00013956,1.4066,-0.00015498,-114.42,0.16948
28293,4.826,0.63636,0.1,0.00042677,4264.8,0.00042472,4206.9,-0.00013511,0.54776,-0.00015035,-113.96,0.17521
28294,4.7338,0.72727,0.1,0.00042663,4263.4,0.00042432,4198.2,-0.00013432,0.83005,-0.0001515,-128.22,0.16831
28295,4.826,0.45455,0.1,0.00041674,4164.5,0.00041484,4110.6,-0.00013221,0.33462,-0.00014637,-106.1,0.17392
28296,4.7338,0.54545,0.1,0.0004144,4141.1,0.00041212,4077.1,-0.00013045,0.42801,-0.00014722,-125.56,0.16705
28297,4.826,0.27273,0.1,0.00040833,4080.5,0.00040689,4039.2,-0.00013069,0.057675,-0.00014154,-81.521,0.17253
28298,4.7338,0.36364,0.1,0.00040404,4037.6,0.00040213,3983.5,-0.000128,0.35634,-0.0001422,-106.31,0.16569
28299,4.7338,0.18182,0.1,0.00039582,3955.4,0.00039456,3919.3,-0.0001271,-0.21024,-0.00013653,-71.061,0.16424
28300,4.826,0.090909,0.1,0.00040073,4004.5,0.0004001,3986.3,-0.00013044,0.0091384,-0.00013526,-36.223,0.17105
28301,4.6416,5.7273,0.1,0.0003916,3913.3,0.00038987,3864.2,-0.00012442,0.065884,-0.00013725,-96.38,0.1575
28302,4.5494,5.8182,0.1,0.00037578,3755.2,0.00037429,3712.7,-0.00011988,-0.26965,-0.00013094,-83.359,0.14934
28303,4.6416,5.9091,0.1,0.00038238,3821.2,0.00038163,3799.5,-0.00012405,0.0047316,-0.00012977,-42.913,0.15599
28304,4.6416,5.5455,0.1,0.00040181,4015.3,0.00039952,3950.8,-0.00012625,0.42933,-0.00014314,-126.52,0.15892
28305,4.5494,5.6364,0.1,0.00038541,3851.5,0.00038318,3788.7,-0.00012101,0.4405,-0.00013743,-122.91,0.15082
28306,4.6416,5.3636,0.1,0.00041443,4141.5,0.00041187,4069.5,-0.00012967,0.68292,-0.00014851,-140.92,0.16025
28307,4.5494,5.4545,0.1,0.00039813,3978.5,0.0003954,3902.3,-0.00012389,0.57279,-0.00014378,-148.8,0.15221
28308,4.6416,5.1818,0.1,0.00042921,4289.1,0.00042669,4218.5,-0.0001346,1.1562,-0.00015325,-138.97,0.16148
28309,4.5494,5.2727,0.1,0.00041364,4133.5,0.0004107,4051.7,-0.00012841,1.0098,-0.00014984,-159.99,0.15351
28310,4.6416,5,0.1,0.00044582,4455.1,0.00044369,4395,-0.00014099,1.9027,-0.00015718,-119.74,0.16262
28311,4.5494,5.0909,0.1,0.00043173,4314.3,0.0004289,4235.1,-0.00013456,1.5408,-0.00015548,-155.63,0.15472
28312,4.6416,4.8182,0.1,0.00046375,4634.3,0.00046235,4594.5,-0.00014865,3.6113,-0.00016005,-82.02,0.16366
28313,4.5494,4.9091,0.1,0.0004519,4515.9,0.00044953,4449.1,-0.00014229,2.4291,-0.00016031,-132.97,0.15584
28314,4.6416,4.6364,0.1,0.00048235,4820.1,0.00048202,4810.8,-0.00015668,11.905,-0.00016229,-30.231,0.1646
28315,4.5494,4.7273,0.1,0.00047341,4730.9,0.0004719,4687.7,-0.0001514,4.5286,-0.0001639,-89.373,0.15685
28316,4.6416,4.4545,0.1,0.00050099,5006.4,0.00050199,5036.7,-0.00015938,67.365,-0.00016916,-6.092,0.16544
28317,4.5494,4.5455,0.1,0.00049543,4950.9,0.00049516,4943.3,-0.00016067,15.622,-0.00016682,-30.576,0.15777
28318,4.6416,4.2727,0.1,0.00051917,5188.1,0.00052163,5264,-0.00015789,158.36,-0.00017934,-2.7553,0.16618
28319,4.5494,4.3636,0.1,0.0005172,5168.4,0.00051845,5206.4,-0.00016336,83.528,-0.00017532,-6.3102,0.15858
28320,4.6416,4.0909,0.1,0.0005365,5361.3,0.00054039,5484.7,-0.00015526,257.88,-0.0001898,-1.6744,0.16682
28321,4.5494,4.1818,0.1,0.00053816,5377.8,0.00054104,5467.4,-0.00016174,187,-0.00018701,-2.8716,0.15929
28322,4.6416,3.9091,0.1,0.00055268,5523,0.00055783,5690.8,-0.00015248,353.87,-0.00019973,-1.1424,0.16735
28323,4.5494,4,0.1,0.00055795,5575.7,0.00056235,5716.5,-0.00015918,295.15,-0.00019869,-1.6964,0.1599
28324,4.6416,3.7273,0.1,0.00056729,5669,0.00057344,5874.3,-0.00015025,436.74,-0.00020849,-0.84896,0.16779
28325,4.5494,3.8182,0.1,0.00057623,5758.3,0.00058188,5944.1,-0.00015694,392.88,-0.00020938,-1.1377,0.16041
28326,4.6416,3.5455,0.1,0.00057975,5793.5,0.00058663,6027.2,-0.00014891,500.7,-0.00021564,-0.70294,0.16813
28327,4.5494,3.6364,0.1,0.0005924,5920,0.00059898,6140.6,-0.00015569,470.25,-0.0002184,-0.88673,0.16081
28328,4.6416,3.3636,0.1,0.00058936,5889.5,0.00059671,6142.4,-0.00014835,544.3,-0.00022088,-0.65116,0.16838
28329,4.5494,3.4545,0.1,0.00060565,6052.3,0.00061284,6296.8,-0.00015548,523.93,-0.00022532,-0.78716,0.16112
28330,4.6416,3.1818,0.1,0.00059544,5950.3,0.00060306,6214,-0.00014824,568.99,-0.00022406,-0.64224,0.16852
28331,4.5494,3.2727,0.1,0.00061508,6146.6,0.00062263,6405.2,-0.00015586,555.99,-0.00022996,-0.76313,0.16132
28332,4.6416,3,0.1,0.00059752,5971.1,0.00060522,6238.2,-0.00014825,576.9,-0.00022512,-0.64282,0.16857
28333,4.5494,3.0909,0.1,0.00061998,6195.6,0.0006277,6460.7,-0.00015623,570.56,-0.00023227,-0.76612,0.16142
28334,4.6416,2.8182,0.1,0.00059544,5950.3,0.00060306,6214,-0.00014824,568.99,-0.00022406,-0.64224,0.16852
28335,4.5494,2.9091,0.1,0.00061998,6195.6,0.0006277,6460.7,-0.00015623,570.56,-0.00023227,-0.76612,0.16142
28336,4.6416,2.6364,0.1,0.00058936,5889.5,0.00059671,6142.4,-0.00014835,544.3,-0.00022088,-0.65116,0.16838
28337,4.5494,2.7273,0.1,0.00061508,6146.6,0.00062263,6405.2,-0.00015586,555.99,-0.00022996,-0.76313,0.16132
28338,4.6416,2.4545,0.1,0.00057975,5793.5,0.00058663,6027.2,-0.00014891,500.7,-0.00021564,-0.70294,0.16813
28339,4.5494,2.5455,0.1,0.00060565,6052.3,0.00061284,6296.8,-0.00015548,523.93,-0.00022532,-0.78716,0.16112
28340,4.6416,2.2727,0.1,0.00056729,5669,0.00057344,5874.3,-0.00015025,436.74,-0.00020849,-0.84896,0.16779
28341,4.5494,2.3636,0.1,0.0005924,5920,0.00059898,6140.6,-0.00015569,470.25,-0.0002184,-0.88673,0.16081
28342,4.6416,2.0909,0.1,0.00055268,5523,0.00055783,5690.8,-0.00015248,353.87,-0.00019973,-1.1424,0.16735
28343,4.5494,2.1818,0.1,0.00057623,5758.3,0.00058188,5944.1,-0.00015694,392.88,-0.00020938,-1.1377,0.16041
28344,4.6416,1.9091,0.1,0.0005365,5361.3,0.00054039,5484.7,-0.00015526,257.88,-0.0001898,-1.6744,0.16682
28345,4.5494,2,0.1,0.00055795,5575.7,0.00056235,5716.5,-0.00015918,295.15,-0.00019869,-1.6964,0.1599
28346,4.6416,1.7273,0.1,0.00051917,5188.1,0.00052163,5264,-0.00015789,158.36,-0.00017934,-2.7553,0.16618
28347,4.5494,1.8182,0.1,0.00053816,5377.8,0.00054104,5467.4,-0.00016174,187,-0.00018701,-2.8716,0.15929
28348,4.6416,1.5455,0.1,0.00050099,5006.4,0.00050199,5036.7,-0.00015938,67.365,-0.00016916,-6.092,0.16544
28349,4.5494,1.6364,0.1,0.0005172,5168.4,0.00051845,5206.4,-0.00016336,83.528,-0.00017532,-6.3102,0.15858
28350,4.6416,1.3636,0.1,0.00048235,4820.1,0.00048202,4810.8,-0.00015668,11.905,-0.00016229,-30.231,0.1646
28351,4.5494,1.4545,0.1,0.00049543,4950.9,0.00049516,4943.3,-0.00016067,15.622,-0.00016682,-30.576,0.15777
28352,4.6416,1.1818,0.1,0.00046375,4634.3,0.00046235,4594.5,-0.00014865,3.6113,-0.00016005,-82.02,0.16366
28353,4.5494,1.2727,0.1,0.00047341,4730.9,0.0004719,4687.7,-0.0001514,4.5286,-0.0001639,-89.374,0.15685
28354,4.6416,1,0.1,0.00044582,4455.1,0.00044369,4395,-0.00014099,1.9027,-0.00015718,-119.74,0.16262
28355,4.5494,1.0909,0.1,0.0004519,4515.9,0.00044953,4449.1,-0.00014229,2.4291,-0.00016031,-132.97,0.15584
28356,4.6416,0.81818,0.1,0.00042921,4289.1,0.00042669,4218.5,-0.0001346,1.1562,-0.00015325,-138.97,0.16148
28357,4.5494,0.90909,0.1,0.00043173,4314.3,0.0004289,4235.1,-0.00013456,1.5408,-0.00015548,-155.63,0.15472
28358,4.6416,0.63636,0.1,0.00041443,4141.5,0.00041187,4069.5,-0.00012967,0.68292,-0.00014851,-140.92,0.16025
28359,4.5494,0.72727,0.1,0.00041364,4133.5,0.0004107,4051.7,-0.00012841,1.0098,-0.00014984,-159.99,0.15351
28360,4.6416,0.45455,0.1,0.00040181,4015.3,0.00039952,3950.8,-0.00012625,0.42933,-0.00014314,-126.52,0.15892
28361,4.5494,0.54545,0.1,0.00039813,3978.5,0.0003954,3902.3,-0.00012389,0.57279,-0.00014378,-148.81,0.15221
28362,4.6416,0.27273,0.1,0.0003916,3913.3,0.00038987,3864.2,-0.00012442,0.065882,-0.00013725,-96.38,0.1575
28363,4.5494,0.36364,0.1,0.00038541,3851.5,0.00038318,3788.7,-0.00012101,0.4405,-0.00013743,-122.91,0.15082
28364,4.5494,0.18182,0.1,0.00037578,3755.2,0.00037429,3712.7,-0.00011988,-0.26965,-0.00013094,-83.359,0.14934
28365,4.6416,0.090909,0.1,0.00038238,3821.2,0.00038163,3799.5,-0.00012405,0.00473,-0.00012977,-42.913,0.15599
28366,4.4572,5.7273,0.1,0.00036971,3694.6,0.0003677,3638,-0.00011647,0.10253,-0.00013122,-110.7,0.14274
28367,4.365,5.8182,0.1,0.0003502,3499.6,0.00034848,3450.9,-0.00011084,-0.28229,-0.00012348,-95.224,0.13468
28368,4.4572,5.9091,0.1,0.00035874,3584.9,0.00035787,3559.9,-0.00011592,-0.0095562,-0.00012251,-49.538,0.1412
28369,4.4572,5.5455,0.1,0.00038191,3816.5,0.00037922,3741.4,-0.00011866,0.57316,-0.00013822,-146.37,0.14419
28370,4.365,5.6364,0.1,0.00036122,3609.7,0.00035869,3539.3,-0.00011228,0.57099,-0.00013064,-137.38,0.1362
28371,4.4572,5.3636,0.1,0.00039762,3973.5,0.00039448,3886.3,-0.00012264,0.88389,-0.00014535,-169.72,0.14557
28372,4.365,5.4545,0.1,0.00037665,3763.9,0.00037345,3675.6,-0.00011564,0.79435,-0.00013856,-171.45,0.13764
28373,4.4572,5.1818,0.1,0.00041655,4162.7,0.00041324,4070.8,-0.00012838,1.3605,-0.0001524,-179.14,0.14685
28374,4.365,5.2727,0.1,0.00039615,3958.8,0.00039248,3857.9,-0.00012082,1.2593,-0.00014701,-195.55,0.13899
28375,4.4572,5,0.1,0.00043828,4379.7,0.00043513,4292.3,-0.00013587,1.9834,-0.000159,-171.78,0.14804
28376,4.365,5.0909,0.1,0.00041947,4191.8,0.00041558,4085.1,-0.00012788,1.743,-0.0001557,-207.28,0.14025
28377,4.4572,4.8182,0.1,0.00046206,4617.4,0.0004595,4545.6,-0.00014507,3.062,-0.00016454,-143.24,0.14913
28378,4.365,4.9091,0.1,0.00044596,4456.5,0.00044223,4353.8,-0.0001369,2.4115,-0.00016395,-200.87,0.14143
28379,4.4572,4.6364,0.1,0.00048696,4866.2,0.00048545,4823.3,-0.00015571,5.8553,-0.00016852,-90.411,0.15013
28380,4.365,4.7273,0.1,0.00047459,4742.6,0.00047154,4657.6,-0.00014787,3.5862,-0.00017084,-169.02,0.1425
28381,4.4572,4.4545,0.1,0.00051203,5116.8,0.00051198,5115.7,-0.00016573,23.637,-0.00017225,-25.366,0.15102
28382,4.365,4.5455,0.1,0.00050414,5038,0.00050235,4987,-0.00016049,6.6793,-0.00017558,-106.67,0.14348
28383,4.4572,4.2727,0.1,0.00053649,5361.2,0.00053816,5412,-0.0001676,109.27,-0.0001829,-5.7559,0.15181
28384,4.365,4.3636,0.1,0.00053343,5330.6,0.00053339,5329.8,-0.00017232,27.406,-0.00017977,-28.606,0.14436
28385,4.4572,4.0909,0.1,0.00055983,5594.4,0.00056323,5700.9,-0.00016592,222.37,-0.00019587,-2.7075,0.15249
28386,4.365,4.1818,0.1,0.00056159,5612,0.00056355,5671.9,-0.00017425,128.4,-0.00019216,-6.1587,0.14512
28387,4.4572,3.9091,0.1,0.00058165,5812.5,0.00058656,5970.9,-0.00016381,332.89,-0.00020833,-1.5994,0.15307
28388,4.365,4,0.1,0.00058816,5877.6,0.00059202,5999.2,-0.00017254,254.51,-0.0002068,-2.893,0.14579
28389,4.4572,3.7273,0.1,0.00060142,6010,0.0006075,6210.9,-0.00016246,425.74,-0.00021927,-1.1221,0.15355
28390,4.365,3.8182,0.1,0.00061272,6123,0.00061811,6297.5,-0.00017113,367.46,-0.00022027,-1.7559,0.14634
28391,4.4572,3.5455,0.1,0.0006183,6178.7,0.00062519,6410.1,-0.00016227,493.47,-0.00022807,-0.94022,0.15392
28392,4.365,3.6364,0.1,0.00063445,6340.1,0.00064089,6553.1,-0.00017118,451.47,-0.00023143,-1.208,0.14679
28393,4.4572,3.3636,0.1,0.00063129,6308.5,0.00063868,6559,-0.00016291,536.22,-0.00023439,-0.88217,0.15419
28394,4.365,3.4545,0.1,0.00065215,6517,0.00065923,6753.7,-0.00017257,503.92,-0.00023977,-1.0422,0.14713
28395,4.4572,3.1818,0.1,0.00063948,6390.4,0.00064713,6650.9,-0.0001637,558.59,-0.00023816,-0.87714,0.15435
28396,4.365,3.2727,0.1,0.00066461,6641.6,0.00067203,6890.7,-0.00017434,531.35,-0.0002452,-1.0256,0.14736
28397,4.4572,3,0.1,0.00064228,6418.4,0.00065001,6681.9,-0.00016405,565.4,-0.00023941,-0.88165,0.15441
28398,4.365,3.0909,0.1,0.00067103,6705.7,0.00067859,6959.8,-0.00017553,542.37,-0.00024785,-1.0269,0.14748
28399,4.4572,2.8182,0.1,0.00063948,6390.4,0.00064713,6650.9,-0.0001637,558.59,-0.00023816,-0.87714,0.15435
28400,4.365,2.9091,0.1,0.00067103,6705.7,0.00067859,6959.8,-0.00017553,542.37,-0.00024785,-1.0269,0.14748
28401,4.4572,2.6364,0.1,0.00063129,6308.5,0.00063868,6559,-0.00016291,536.22,-0.00023439,-0.88217,0.15419
28402,4.365,2.7273,0.1,0.00066461,6641.6,0.00067203,6890.7,-0.00017434,531.35,-0.0002452,-1.0256,0.14736
28403,4.4572,2.4545,0.1,0.0006183,6178.7,0.00062519,6410.1,-0.00016227,493.47,-0.00022807,-0.94022,0.15392
28404,4.365,2.5455,0.1,0.00065215,6517,0.00065923,6753.7,-0.00017257,503.92,-0.00023977,-1.0422,0.14713
28405,4.4572,2.2727,0.1,0.00060142,6010,0.0006075,6210.9,-0.00016246,425.74,-0.00021927,-1.1221,0.15355
28406,4.365,2.3636,0.1,0.00063445,6340.1,0.00064089,6553.1,-0.00017118,451.47,-0.00023143,-1.208,0.14679
28407,4.4572,2.0909,0.1,0.00058165,5812.5,0.00058656,5970.9,-0.00016381,332.89,-0.00020833,-1.5994,0.15307
28408,4.365,2.1818,0.1,0.00061272,6123,0.00061811,6297.5,-0.00017113,367.46,-0.00022027,-1.7559,0.14634
28409,4.4572,1.9091,0.1,0.00055983,5594.4,0.00056323,5700.9,-0.00016592,222.37,-0.00019587,-2.7076,0.15249
28410,4.365,2,0.1,0.00058816,5877.6,0.00059202,5999.2,-0.00017254,254.51,-0.0002068,-2.893,0.14579
28411,4.4572,1.7273,0.1,0.00053649,5361.2,0.00053816,5412,-0.0001676,109.27,-0.0001829,-5.7559,0.15181
28412,4.365,1.8182,0.1,0.00056159,5612,0.00056355,5671.9,-0.00017425,128.4,-0.00019216,-6.1587,0.14512
28413,4.4572,1.5455,0.1,0.00051203,5116.8,0.00051198,5115.7,-0.00016573,23.637,-0.00017225,-25.366,0.15102
28414,4.365,1.6364,0.1,0.00053343,5330.6,0.00053339,5329.8,-0.00017232,27.406,-0.00017977,-28.607,0.14436
28415,4.4572,1.3636,0.1,0.00048696,4866.2,0.00048545,4823.3,-0.00015571,5.8552,-0.00016852,-90.411,0.15013
28416,4.365,1.4545,0.1,0.00050414,5038,0.00050235,4987,-0.00016049,6.6793,-0.00017558,-106.67,0.14348
28417,4.4572,1.1818,0.1,0.00046206,4617.4,0.0004595,4545.6,-0.00014507,3.062,-0.00016454,-143.24,0.14913
28418,4.365,1.2727,0.1,0.00047459,4742.6,0.00047154,4657.6,-0.00014787,3.5862,-0.00017084,-169.02,0.1425
28419,4.4572,1,0.1,0.00043828,4379.7,0.00043513,4292.3,-0.00013587,1.9834,-0.000159,-171.78,0.14804
28420,4.365,1.0909,0.1,0.00044596,4456.5,0.00044223,4353.8,-0.0001369,2.4115,-0.00016395,-200.87,0.14143
28421,4.4572,0.81818,0.1,0.00041655,4162.7,0.00041324,4070.8,-0.00012838,1.3605,-0.0001524,-179.14,0.14685
28422,4.365,0.90909,0.1,0.00041947,4191.8,0.00041558,4085.1,-0.00012788,1.743,-0.0001557,-207.28,0.14025
28423,4.4572,0.63636,0.1,0.00039762,3973.5,0.00039448,3886.3,-0.00012264,0.88389,-0.00014535,-169.72,0.14557
28424,4.365,0.72727,0.1,0.00039615,3958.8,0.00039248,3857.9,-0.00012082,1.2593,-0.00014701,-195.55,0.13899
28425,4.4572,0.45455,0.1,0.00038191,3816.5,0.00037922,3741.4,-0.00011866,0.57316,-0.00013822,-146.37,0.14419
28426,4.365,0.54545,0.1,0.00037665,3763.9,0.00037345,3675.6,-0.00011564,0.79435,-0.00013856,-171.45,0.13764
28427,4.4572,0.27273,0.1,0.00036971,3694.6,0.0003677,3638,-0.00011647,0.10252,-0.00013122,-110.7,0.14274
28428,4.365,0.36364,0.1,0.00036122,3609.7,0.00035869,3539.3,-0.00011228,0.57099,-0.00013064,-137.38,0.1362
28429,4.365,0.18182,0.1,0.0003502,3499.6,0.00034848,3450.9,-0.00011084,-0.28229,-0.00012348,-95.224,0.13468
28430,4.4572,0.090909,0.1,0.00035874,3584.9,0.00035787,3559.9,-0.00011592,-0.0095579,-0.00012251,-49.538,0.1412
28431,4.2729,5.7273,0.1,0.00034188,3416.5,0.00033963,3353.4,-0.00010665,0.21748,-0.00012306,-123.1,0.12822
28432,4.1807,5.8182,0.1,0.00031838,3181.6,0.00031645,3127.5,-9.9811e-05,-0.1179,-0.00011382,-105.4,0.12026
28433,4.2729,5.9091,0.1,0.00032906,3288.3,0.00032808,3260.2,-0.00010584,-0.04342,-0.0001132,-55.411,0.12664
28434,4.2729,5.5455,0.1,0.00035624,3559.9,0.00035317,3475.3,-0.00010926,0.80017,-0.00013123,-164.3,0.12972
28435,4.1807,5.6364,0.1,0.00033072,3304.9,0.00032797,3228.9,-0.00010166,0.83615,-0.00012145,-147.91,0.12182
28436,4.2729,5.3636,0.1,0.00037565,3753.9,0.00037186,3650.3,-0.00011381,1.1699,-0.00014063,-200.35,0.13114
28437,4.1807,5.4545,0.1,0.0003493,3490.6,0.00034563,3390.7,-0.00010549,1.1638,-0.0001313,-192.74,0.12331
28438,4.2729,5.1818,0.1,0.00039975,3994.7,0.0003954,3876.6,-0.00012032,1.6292,-0.00015088,-228,0.13248
28439,4.1807,5.2727,0.1,0.00037367,3734.1,0.00036911,3611,-0.00011127,1.6123,-0.00014296,-236.49,0.12472
28440,4.2729,5,0.1,0.00042798,4276.9,0.00042339,4151.9,-0.00012892,2.1426,-0.00016135,-241.6,0.13374
28441,4.1807,5.0909,0.1,0.00040353,4032.5,0.00039818,3889.2,-0.00011917,2.0289,-0.00015596,-274.42,0.12605
28442,4.2729,4.8182,0.1,0.00045938,4590.6,0.00045502,4471.4,-0.0001397,2.8782,-0.00017099,-232.22,0.1349
28443,4.1807,4.9091,0.1,0.00043806,4377.6,0.00043229,4222.9,-0.0001294,2.5414,-0.00016922,-296.67,0.1273
28444,4.2729,4.6364,0.1,0.00049261,4922.7,0.00048915,4826.7,-0.00015268,4.2229,-0.00017859,-190.47,0.13597
28445,4.1807,4.7273,0.1,0.00047601,4756.8,0.00047046,4606.8,-0.00014223,3.2774,-0.00018124,-289.83,0.12846
28446,4.2729,4.4545,0.1,0.00052624,5258.8,0.00052437,5205.7,-0.0001674,8.0463,-0.00018339,-112.14,0.13693
28447,4.1807,4.5455,0.1,0.00051566,5153,0.00051122,5031,-0.00015774,4.7025,-0.00019031,-240.04,0.12953
28448,4.2729,4.2727,0.1,0.00055905,5586.7,0.00055926,5593.3,-0.00018005,38.398,-0.00018843,-24.542,0.13779
28449,4.1807,4.3636,0.1,0.00055509,5547.1,0.00055269,5479.5,-0.00017541,8.8561,-0.00019535,-141.02,0.13048
28450,4.2729,4.0909,0.1,0.00059029,5898.9,0.0005927,5972.9,-0.00018132,157.21,-0.00020301,-5.7324,0.13854
28451,4.1807,4.1818,0.1,0.00059294,5925.3,0.00059314,5931.8,-0.00019073,42.153,-0.00020012,-28.4,0.13133
28452,4.2729,3.9091,0.1,0.00061948,6190.5,0.0006238,6327.5,-0.00018013,287.09,-0.00021872,-2.8369,0.13919
28453,4.1807,4,0.1,0.00062845,6280.2,0.00063121,6365.3,-0.00019204,179.71,-0.00021667,-5.3877,0.13207
28454,4.2729,3.7273,0.1,0.00064586,6454.2,0.0006516,6640.4,-0.00017997,392.31,-0.00023241,-1.7393,0.13972
28455,4.1807,3.8182,0.1,0.00066118,6607.2,0.00066591,6757.4,-0.00019166,313.9,-0.00023373,-2.2107,0.13269
28456,4.2729,3.5455,0.1,0.00066826,6678,0.00067489,6896.4,-0.00018145,462.18,-0.00024313,-1.2612,0.14014
28457,4.1807,3.6364,0.1,0.00068987,6894,0.00069583,7086.4,-0.00019349,404.42,-0.00024754,-1.6838,0.1332
28458,4.2729,3.3636,0.1,0.0006853,6848.3,0.00069241,7084.1,-0.00018383,500.34,-0.00025058,-1.1648,0.14044
28459,4.1807,3.4545,0.1,0.0007127,7122.1,0.00071927,7336.2,-0.00019707,451.17,-0.0002573,-1.4145,0.13359
28460,4.2729,3.1818,0.1,0.0006959,6954.2,0.00070322,7197.7,-0.0001859,517.13,-0.00025488,-1.1665,0.14062
28461,4.1807,3.2727,0.1,0.00072829,7277.9,0.00073511,7500.5,-0.00020069,469.22,-0.00026331,-1.3174,0.13385
28462,4.2729,3,0.1,0.00069948,6990,0.00070687,7235.5,-0.0001867,521.58,-0.00025628,-1.1662,0.14069
28463,4.1807,3.0909,0.1,0.00073611,7356.1,0.000743,7580.9,-0.00020286,474.06,-0.00026613,-1.3081,0.13399
28464,4.2729,2.8182,0.1,0.0006959,6954.2,0.00070322,7197.7,-0.0001859,517.13,-0.00025488,-1.1665,0.14062
28465,4.1807,2.9091,0.1,0.00073611,7356.1,0.000743,7580.9,-0.00020286,474.06,-0.00026613,-1.3081,0.13399
28466,4.2729,2.6364,0.1,0.0006853,6848.3,0.00069241,7084.1,-0.00018383,500.34,-0.00025058,-1.1648,0.14044
28467,4.1807,2.7273,0.1,0.00072829,7277.9,0.00073511,7500.5,-0.00020069,469.22,-0.00026331,-1.3174,0.13385
28468,4.2729,2.4545,0.1,0.00066826,6678,0.00067489,6896.4,-0.00018145,462.18,-0.00024313,-1.2612,0.14014
28469,4.1807,2.5455,0.1,0.0007127,7122.1,0.00071927,7336.2,-0.00019707,451.17,-0.0002573,-1.4145,0.13359
28470,4.2729,2.2727,0.1,0.00064586,6454.2,0.0006516,6640.4,-0.00017997,392.31,-0.00023241,-1.7393,0.13972
28471,4.1807,2.3636,0.1,0.00068987,6894,0.00069583,7086.4,-0.00019349,404.42,-0.00024754,-1.6838,0.1332
28472,4.2729,2.0909,0.1,0.00061948,6190.5,0.0006238,6327.5,-0.00018013,287.09,-0.00021872,-2.8369,0.13919
28473,4.1807,2.1818,0.1,0.00066118,6607.2,0.00066591,6757.4,-0.00019166,313.9,-0.00023373,-2.2107,0.13269
28474,4.2729,1.9091,0.1,0.00059029,5898.9,0.0005927,5972.9,-0.00018132,157.21,-0.00020301,-5.7324,0.13854
28475,4.1807,2,0.1,0.00062845,6280.2,0.00063121,6365.3,-0.00019204,179.71,-0.00021667,-5.3877,0.13207
28476,4.2729,1.7273,0.1,0.00055905,5586.7,0.00055926,5593.3,-0.00018005,38.398,-0.00018843,-24.542,0.13779
28477,4.1807,1.8182,0.1,0.00059294,5925.3,0.00059314,5931.8,-0.00019073,42.153,-0.00020012,-28.4,0.13133
28478,4.2729,1.5455,0.1,0.00052624,5258.8,0.00052437,5205.7,-0.0001674,8.0463,-0.00018339,-112.14,0.13693
28479,4.1807,1.6364,0.1,0.00055509,5547.1,0.00055269,5479.5,-0.00017541,8.8561,-0.00019535,-141.02,0.13048
28480,4.2729,1.3636,0.1,0.00049261,4922.7,0.00048915,4826.7,-0.00015268,4.2229,-0.00017859,-190.47,0.13597
28481,4.1807,1.4545,0.1,0.00051566,5153,0.00051122,5031,-0.00015774,4.7025,-0.00019031,-240.04,0.12953
28482,4.2729,1.1818,0.1,0.00045938,4590.6,0.00045502,4471.4,-0.0001397,2.8782,-0.00017099,-232.22,0.1349
28483,4.1807,1.2727,0.1,0.00047601,4756.8,0.00047046,4606.8,-0.00014223,3.2774,-0.00018124,-289.83,0.12846
28484,4.2729,1,0.1,0.00042798,4276.9,0.00042339,4151.9,-0.00012892,2.1426,-0.00016135,-241.6,0.13374
28485,4.1807,1.0909,0.1,0.00043806,4377.6,0.00043229,4222.9,-0.0001294,2.5414,-0.00016922,-296.67,0.1273
28486,4.2729,0.81818,0.1,0.00039975,3994.7,0.0003954,3876.6,-0.00012032,1.6292,-0.00015088,-228,0.13248
28487,4.1807,0.90909,0.1,0.00040353,4032.5,0.00039818,3889.2,-0.00011917,2.0289,-0.00015596,-274.42,0.12605
28488,4.2729,0.63636,0.1,0.00037565,3753.9,0.00037186,3650.3,-0.00011381,1.1699,-0.00014063,-200.35,0.13114
28489,4.1807,0.72727,0.1,0.00037367,3734.1,0.00036911,3611,-0.00011127,1.6123,-0.00014296,-236.49,0.12472
28490,4.2729,0.45455,0.1,0.00035624,3559.9,0.00035317,3475.3,-0.00010926,0.80017,-0.00013123,-164.3,0.12972
28491,4.1807,0.54545,0.1,0.0003493,3490.6,0.00034563,3390.7,-0.00010549,1.1638,-0.0001313,-192.74,0.12331
28492,4.2729,0.27273,0.1,0.00034188,3416.5,0.00033963,3353.4,-0.00010665,0.21747,-0.00012306,-123.1,0.12822
28493,4.1807,0.36364,0.1,0.00033072,3304.9,0.00032797,3228.9,-0.00010166,0.83615,-0.00012145,-147.91,0.12182
28494,4.1807,0.18182,0.1,0.00031838,3181.6,0.00031645,3127.5,-9.9811e-05,-0.1179,-0.00011382,-105.4,0.12026
28495,4.2729,0.090909,0.1,0.00032906,3288.3,0.00032808,3260.2,-0.00010584,-0.043422,-0.0001132,-55.411,0.12664
28496,4.0885,5.7273,0.1,0.00030746,3072.5,0.00030501,3004.6,-9.4806e-05,0.59073,-0.00011244,-131.93,0.11393
28497,3.9963,5.8182,0.1,0.00027977,2795.8,0.0002777,2738.2,-8.6668e-05,0.44737,-0.00010167,-112.3,0.10604
28498,4.0885,5.9091,0.1,0.00029269,2924.9,0.00029164,2894.7,-9.363e-05,-0.045777,-0.00010154,-59.501,0.11231
28499,4.0885,5.5455,0.1,0.00032422,3239.9,0.00032081,3147.1,-9.7884e-05,1.2416,-0.00012191,-179.26,0.11548
28500,3.9963,5.6364,0.1,0.00029347,2932.6,0.00029058,2853.7,-8.9043e-05,1.3783,-0.0001096,-153.11,0.10765
28501,4.0885,5.3636,0.1,0.00034812,3478.8,0.00034357,3356.6,-0.00010295,1.623,-0.00013432,-234.04,0.11696
28502,3.9963,5.4545,0.1,0.0003159,3156.9,0.00031175,3045.4,-9.3341e-05,1.7297,-0.000122,-213.6,0.1092
28503,4.0885,5.1818,0.1,0.00037863,3783.7,0.00037288,3631.1,-0.00011012,2.0115,-0.00014903,-290.33,0.11837
28504,3.9963,5.2727,0.1,0.00034632,3460.8,0.00034056,3309.1,-9.9585e-05,2.0269,-0.00013809,-287.27,0.11069
28505,4.0885,5,0.1,0.00041508,4147.9,0.0004083,3969.3,-0.00011965,2.4259,-0.00016504,-338.61,0.11971
28506,3.9963,5.0909,0.1,0.00038423,3839.6,0.00037671,3644.6,-0.00010804,2.312,-0.00015704,-365.86,0.11211
28507,4.0885,4.8182,0.1,0.00045629,4559.7,0.00044903,4368.1,-0.00013193,2.9521,-0.00018078,-364.08,0.12096
28508,3.9963,4.9091,0.1,0.0004288,4285,0.00041977,4052.1,-0.00011918,2.6781,-0.00017742,-434.93,0.11346
28509,4.0885,4.6364,0.1,0.00050056,5002.1,0.00049376,4820.3,-0.00014729,3.795,-0.0001942,-348.71,0.12213
28510,3.9963,4.7273,0.1,0.00047874,4784.1,0.00046894,4530.9,-0.00013364,3.307,-0.00019717,-474.03,0.11472
28511,4.0885,4.4545,0.1,0.00054574,5453.6,0.00054058,5312.5,-0.00016574,5.591,-0.00020331,-276.75,0.12319
28512,3.9963,4.5455,0.1,0.00053202,5316.5,0.0005228,5074.9,-0.00015204,4.3334,-0.00021351,-457.49,0.1159
28513,4.0885,4.2727,0.1,0.00058986,5894.5,0.00058735,5823.9,-0.00018639,10.316,-0.00020751,-148.43,0.12414
28514,3.9963,4.3636,0.1,0.00058582,5854.2,0.0005789,5667.3,-0.0001747,5.1401,-0.0002235,-361.57,0.11697
28515,4.0885,4.0909,0.1,0.00063167,6312.4,0.00063219,6328.3,-0.00020264,55.653,-0.00021313,-23.113,0.12499
28516,3.9963,4.1818,0.1,0.0006371,6366.6,0.00063387,6276,-0.00020005,10.297,-0.0002263,-186.99,0.11793
28517,4.0885,3.9091,0.1,0.00067049,6700.3,0.00067364,6797.6,-0.00020398,203.43,-0.0002316,-4.0767,0.12572
28518,3.9963,4,0.1,0.00068491,6844.4,0.00068546,6861.2,-0.00021971,60.15,-0.00023113,-25.674,0.11877
28519,4.0885,3.7273,0.1,0.0007053,7048.1,0.00071022,7204,-0.0002053,325.11,-0.00024882,-1.9214,0.12632
28520,3.9963,3.8182,0.1,0.00072828,7277.8,0.0007316,7380.4,-0.00022188,216.31,-0.00025146,-6.0065,0.11949
28521,4.0885,3.5455,0.1,0.00073418,7336.7,0.00074005,7525,-0.00020896,394.48,-0.0002617,-1.7563,0.12681
28522,3.9963,3.6364,0.1,0.00076495,7644.3,0.00076978,7795.5,-0.00022591,314.33,-0.00026801,-2.0078,0.12008
28523,4.0885,3.3636,0.1,0.00075534,7548.2,0.00076161,7749.9,-0.00021357,422.72,-0.00027004,-1.5471,0.12716
28524,3.9963,3.4545,0.1,0.00079249,7919.4,0.00079781,8087.2,-0.00023205,349.23,-0.00027878,-1.8613,0.12053
28525,4.0885,3.1818,0.1,0.00076803,7675,0.0007744,7880,-0.00021716,429.82,-0.00027456,-1.4555,0.12737
28526,3.9963,3.2727,0.1,0.00080984,8092.8,0.00081524,8262.8,-0.00023746,353.19,-0.00028468,-1.6152,0.12084
28527,4.0885,3,0.1,0.00077222,7716.8,0.00077861,7922.3,-0.00021849,430.53,-0.00027598,-1.4483,0.12745
28528,3.9963,3.0909,0.1,0.000818,8174.4,0.00082337,8343.1,-0.00024042,350.15,-0.00028722,-1.4932,0.121
28529,4.0885,2.8182,0.1,0.00076803,7675,0.0007744,7880,-0.00021716,429.82,-0.00027456,-1.4555,0.12737
28530,3.9963,2.9091,0.1,0.000818,8174.4,0.00082337,8343.1,-0.00024042,350.15,-0.00028722,-1.4932,0.121
28531,4.0885,2.6364,0.1,0.00075534,7548.2,0.00076161,7749.9,-0.00021357,422.72,-0.00027004,-1.5471,0.12716
28532,3.9963,2.7273,0.1,0.00080984,8092.8,0.00081524,8262.8,-0.00023746,353.19,-0.00028468,-1.6152,0.12084
28533,4.0885,2.4545,0.1,0.00073418,7336.7,0.00074005,7525,-0.00020896,394.48,-0.0002617,-1.7563,0.12681
28534,3.9963,2.5455,0.1,0.00079249,7919.4,0.00079781,8087.2,-0.00023205,349.23,-0.00027878,-1.8613,0.12053
28535,4.0885,2.2727,0.1,0.0007053,7048.1,0.00071022,7204,-0.0002053,325.11,-0.00024882,-1.9214,0.12632
28536,3.9963,2.3636,0.1,0.00076495,7644.3,0.00076978,7795.5,-0.00022591,314.33,-0.00026801,-2.0078,0.12008
28537,4.0885,2.0909,0.1,0.00067049,6700.3,0.00067364,6797.6,-0.00020398,203.43,-0.0002316,-4.0767,0.12572
28538,3.9963,2.1818,0.1,0.00072828,7277.8,0.0007316,7380.4,-0.00022188,216.31,-0.00025146,-6.0065,0.11949
28539,4.0885,1.9091,0.1,0.00063167,6312.4,0.00063219,6328.3,-0.00020264,55.653,-0.00021313,-23.113,0.12499
28540,3.9963,2,0.1,0.00068491,6844.4,0.00068546,6861.2,-0.00021971,60.15,-0.00023113,-25.674,0.11877
28541,4.0885,1.7273,0.1,0.00058986,5894.5,0.00058735,5823.9,-0.00018639,10.315,-0.00020751,-148.43,0.12414
28542,3.9963,1.8182,0.1,0.0006371,6366.6,0.00063387,6276,-0.00020005,10.297,-0.0002263,-186.99,0.11793
28543,4.0885,1.5455,0.1,0.00054574,5453.6,0.00054058,5312.5,-0.00016574,5.591,-0.00020331,-276.75,0.12319
28544,3.9963,1.6364,0.1,0.00058582,5854.2,0.0005789,5667.3,-0.0001747,5.1401,-0.0002235,-361.57,0.11697
28545,4.0885,1.3636,0.1,0.00050056,5002.1,0.00049376,4820.3,-0.00014729,3.795,-0.0001942,-348.71,0.12213
28546,3.9963,1.4545,0.1,0.00053202,5316.5,0.0005228,5074.9,-0.00015204,4.3334,-0.00021351,-457.49,0.1159
28547,4.0885,1.1818,0.1,0.00045629,4559.7,0.00044903,4368.1,-0.00013193,2.9521,-0.00018078,-364.08,0.12096
28548,3.9963,1.2727,0.1,0.00047874,4784.1,0.00046894,4530.9,-0.00013364,3.307,-0.00019717,-474.03,0.11472
28549,4.0885,1,0.1,0.00041508,4147.9,0.0004083,3969.3,-0.00011965,2.4259,-0.00016504,-338.61,0.11971
28550,3.9963,1.0909,0.1,0.0004288,4285,0.00041977,4052.1,-0.00011918,2.6781,-0.00017742,-434.93,0.11346
28551,4.0885,0.81818,0.1,0.00037863,3783.7,0.00037288,3631.1,-0.00011012,2.0115,-0.00014903,-290.33,0.11837
28552,3.9963,0.90909,0.1,0.00038423,3839.6,0.00037671,3644.6,-0.00010804,2.312,-0.00015704,-365.86,0.11211
28553,4.0885,0.63636,0.1,0.00034812,3478.8,0.00034357,3356.6,-0.00010295,1.623,-0.00013432,-234.04,0.11696
28554,3.9963,0.72727,0.1,0.00034632,3460.8,0.00034056,3309.1,-9.9585e-05,2.0269,-0.00013809,-287.27,0.11069
28555,4.0885,0.45455,0.1,0.00032422,3239.9,0.00032081,3147.1,-9.7884e-05,1.2416,-0.00012191,-179.26,0.11548
28556,3.9963,0.54545,0.1,0.0003159,3156.9,0.00031175,3045.4,-9.3341e-05,1.7297,-0.000122,-213.6,0.1092
28557,4.0885,0.27273,0.1,0.00030746,3072.5,0.00030501,3004.6,-9.4806e-05,0.59073,-0.00011244,-131.93,0.11393
28558,3.9963,0.36364,0.1,0.00029347,2932.6,0.00029058,2853.7,-8.9043e-05,1.3783,-0.0001096,-153.11,0.10765
28559,3.9963,0.18182,0.1,0.00027977,2795.8,0.0002777,2738.2,-8.6668e-05,0.44736,-0.00010167,-112.3,0.10604
28560,4.0885,0.090909,0.1,0.00029269,2924.9,0.00029164,2894.7,-9.363e-05,-0.045779,-0.00010154,-59.501,0.11231
28561,3.9041,5.7273,0.1,0.00026613,2659.4,0.00026357,2589.5,-8.0878e-05,1.4418,-9.9166e-05,-135.96,0.099831
28562,3.8119,5.8182,0.1,0.00023415,2339.9,0.00023203,2281.8,-7.1353e-05,2.3052,-8.6845e-05,-114.1,0.092013
28563,3.9041,5.9091,0.1,0.00024926,2490.9,0.00024817,2460,-7.925e-05,-0.10354,-8.7286e-05,-60.483,0.09817
28564,3.9041,5.5455,0.1,0.00028588,2856.8,0.00028215,2756.7,-8.4489e-05,1.952,-0.00011034,-192.27,0.10144
28565,3.8119,5.6364,0.1,0.00024978,2496,0.00024684,2416.8,-7.4439e-05,2.8912,-9.5307e-05,-153.91,0.093675
28566,3.9041,5.3636,0.1,0.00031549,3152.7,0.00030991,3006.7,-8.9972e-05,2.1448,-0.00012695,-275.7,0.103
28567,3.8119,5.4545,0.1,0.00027752,2773.2,0.00027268,2646.7,-7.9192e-05,2.8599,-0.00011151,-239.94,0.095292
28568,3.9041,5.1818,0.1,0.00035396,3537.2,0.00034609,3335.4,-9.7509e-05,2.3152,-0.0001478,-375.56,0.10449
28569,3.8119,5.2727,0.1,0.00031561,3153.9,0.00030799,2960.4,-8.5642e-05,2.7575,-0.00013374,-358.61,0.096864
28570,3.9041,5,0.1,0.00040051,4002.3,0.00039025,3743,-0.00010757,2.5636,-0.0001715,-477.78,0.10593
28571,3.8119,5.0909,0.1,0.00036317,3629.2,0.00035219,3356.5,-9.4167e-05,2.8306,-0.00016061,-496.4,0.098388
28572,3.9041,4.8182,0.1,0.00045406,4537.4,0.00044191,4231.7,-0.00012089,3.063,-0.00019605,-561.68,0.1073
28573,3.8119,4.9091,0.1,0.00041965,4193.6,0.00040521,3840.5,-0.00010549,3.248,-0.00019058,-636.06,0.099856
28574,3.9041,4.6364,0.1,0.00051289,5125.3,0.0005001,4801.3,-0.00013839,3.9091,-0.0002186,-598.76,0.10859
28575,3.8119,4.7273,0.1,0.00048446,4841.3,0.00046727,4422.4,-0.0001208,3.8694,-0.00022147,-752.51,0.10126
28576,3.9041,4.4545,0.1,0.00057427,5738.7,0.00056284,5442.6,-0.000161,3.9392,-0.00023543,-555.3,0.10978
28577,3.8119,4.5455,0.1,0.00055643,5560.5,0.00053826,5113.5,-0.00014169,4.6034,-0.00024996,-808.88,0.10258
28578,3.9041,4.2727,0.1,0.00063451,6340.7,0.00062662,6128.5,-0.00018835,5.1712,-0.0002435,-409.22,0.11087
28579,3.8119,4.3636,0.1,0.00063108,6306.4,0.00061515,5904.4,-0.00016943,9.3154,-0.00026988,-745.44,0.10381
28580,3.9041,4.0909,0.1,0.00069115,6906.8,0.00068787,6814.5,-0.00021793,8.623,-0.00024422,-188.91,0.11184
28581,3.8119,4.1818,0.1,0.00070316,7026.7,0.0006929,6754.4,-0.0002049,8.7582,-0.00027569,-523.18,0.10492
28582,3.9041,3.9091,0.1,0.00074306,7425.5,0.00074375,7446.5,-0.00023871,64.735,-0.00025023,-21.812,0.11269
28583,3.8119,4,0.1,0.00076885,7683.2,0.0007652,7581.1,-0.00024155,16.746,-0.00027248,-215.6,0.10591
28584,3.9041,3.7273,0.1,0.0007879,7873.6,0.00079109,7971.4,-0.00024251,205.34,-0.00027056,-5.4171,0.1134
28585,3.8119,3.8182,0.1,0.00082571,8251.4,0.00082654,8276.1,-0.0002669,60.457,-0.00027636,-10.665,0.10676
28586,3.9041,3.5455,0.1,0.00082283,8222.6,0.00082709,8354.4,-0.00024857,272.32,-0.00028508,-1.9803,0.11397
28587,3.8119,3.6364,0.1,0.0008706,8699.9,0.00087307,8775,-0.00027382,157.67,-0.00029552,-5.3509,0.10747
28588,3.9041,3.3636,0.1,0.00084628,8456.9,0.00085073,8594.8,-0.00025524,285.03,-0.00029343,-1.9435,0.11439
28589,3.8119,3.4545,0.1,0.00089818,8975.6,0.000901,9061,-0.00028158,175.62,-0.00030523,-2.0794,0.10801
28590,3.9041,3.1818,0.1,0.00085899,8584,0.00086338,8719.6,-0.0002599,279.72,-0.00029735,-1.6664,0.11465
28591,3.8119,3.2727,0.1,0.00091216,9115.3,0.00091485,9196.7,-0.00028692,167.06,-0.00030941,-1.9431,0.10839
28592,3.9041,3,0.1,0.00086294,8623.4,0.00086728,8757.4,-0.00026151,276.19,-0.00029847,-1.5385,0.11474
28593,3.8119,3.0909,0.1,0.00091761,9169.8,0.00092018,9247.3,-0.00028945,158.62,-0.00031075,-1.4297,0.10858
28594,3.9041,2.8182,0.1,0.00085899,8584,0.00086338,8719.6,-0.0002599,279.72,-0.00029735,-1.6664,0.11465
28595,3.8119,2.9091,0.1,0.00091761,9169.8,0.00092018,9247.3,-0.00028945,158.62,-0.00031075,-1.4297,0.10858
28596,3.9041,2.6364,0.1,0.00084628,8456.9,0.00085073,8594.8,-0.00025524,285.03,-0.00029343,-1.9435,0.11439
28597,3.8119,2.7273,0.1,0.00091216,9115.3,0.00091485,9196.7,-0.00028692,167.06,-0.00030941,-1.9431,0.10839
28598,3.9041,2.4545,0.1,0.00082283,8222.6,0.00082709,8354.4,-0.00024857,272.32,-0.00028508,-1.9803,0.11397
28599,3.8119,2.5455,0.1,0.00089818,8975.6,0.000901,9061,-0.00028158,175.62,-0.00030523,-2.0794,0.10801
28600,3.9041,2.2727,0.1,0.0007879,7873.6,0.00079109,7971.4,-0.00024251,205.34,-0.00027056,-5.4171,0.1134
28601,3.8119,2.3636,0.1,0.0008706,8699.9,0.00087307,8775,-0.00027382,157.67,-0.00029552,-5.3509,0.10747
28602,3.9041,2.0909,0.1,0.00074306,7425.5,0.00074375,7446.5,-0.00023871,64.735,-0.00025023,-21.812,0.11269
28603,3.8119,2.1818,0.1,0.00082571,8251.4,0.00082654,8276.1,-0.0002669,60.457,-0.00027636,-10.665,0.10676
28604,3.9041,1.9091,0.1,0.00069115,6906.8,0.00068787,6814.5,-0.00021793,8.623,-0.00024422,-188.91,0.11184
28605,3.8119,2,0.1,0.00076885,7683.2,0.0007652,7581.1,-0.00024155,16.746,-0.00027248,-215.6,0.10591
28606,3.9041,1.7273,0.1,0.00063451,6340.7,0.00062662,6128.5,-0.00018835,5.1712,-0.0002435,-409.22,0.11087
28607,3.8119,1.8182,0.1,0.00070316,7026.7,0.0006929,6754.4,-0.0002049,8.7582,-0.00027569,-523.18,0.10492
28608,3.9041,1.5455,0.1,0.00057427,5738.7,0.00056284,5442.6,-0.000161,3.9392,-0.00023543,-555.3,0.10978
28609,3.8119,1.6364,0.1,0.00063108,6306.4,0.00061515,5904.4,-0.00016943,9.3154,-0.00026988,-745.44,0.10381
28610,3.9041,1.3636,0.1,0.00051289,5125.3,0.0005001,4801.3,-0.00013839,3.9091,-0.0002186,-598.76,0.10859
28611,3.8119,1.4545,0.1,0.00055643,5560.5,0.00053826,5113.5,-0.00014169,4.6034,-0.00024996,-808.88,0.10258
28612,3.9041,1.1818,0.1,0.00045406,4537.4,0.00044191,4231.7,-0.00012089,3.063,-0.00019605,-561.68,0.1073
28613,3.8119,1.2727,0.1,0.00048446,4841.3,0.00046727,4422.4,-0.0001208,3.8694,-0.00022147,-752.51,0.10126
28614,3.9041,1,0.1,0.00040051,4002.3,0.00039025,3743,-0.00010757,2.5636,-0.0001715,-477.78,0.10593
28615,3.8119,1.0909,0.1,0.00041965,4193.6,0.00040521,3840.5,-0.00010549,3.248,-0.00019058,-636.06,0.099856
28616,3.9041,0.81818,0.1,0.00035396,3537.2,0.00034609,3335.4,-9.7509e-05,2.3152,-0.0001478,-375.56,0.10449
28617,3.8119,0.90909,0.1,0.00036317,3629.2,0.00035219,3356.5,-9.4167e-05,2.8306,-0.00016061,-496.4,0.098388
28618,3.9041,0.63636,0.1,0.00031549,3152.7,0.00030991,3006.7,-8.9972e-05,2.1448,-0.00012695,-275.7,0.103
28619,3.8119,0.72727,0.1,0.00031561,3153.9,0.00030799,2960.4,-8.5642e-05,2.7575,-0.00013374,-358.61,0.096864
28620,3.9041,0.45455,0.1,0.00028588,2856.8,0.00028215,2756.7,-8.4489e-05,1.952,-0.00011034,-192.27,0.10144
28621,3.8119,0.54545,0.1,0.00027752,2773.2,0.00027268,2646.7,-7.9192e-05,2.8599,-0.00011151,-239.94,0.095292
28622,3.9041,0.27273,0.1,0.00026613,2659.4,0.00026357,2589.5,-8.0878e-05,1.4418,-9.9166e-05,-135.96,0.099831
28623,3.8119,0.36364,0.1,0.00024978,2496,0.00024684,2416.8,-7.4439e-05,2.8912,-9.5307e-05,-153.91,0.093675
28624,3.8119,0.18182,0.1,0.00023415,2339.9,0.00023203,2281.8,-7.1353e-05,2.3052,-8.6845e-05,-114.1,0.092013
28625,3.9041,0.090909,0.1,0.00024926,2490.9,0.00024817,2460,-7.925e-05,-0.10354,-8.7286e-05,-60.483,0.09817
28626,3.7198,5.7273,0.1,0.00021834,2181.9,0.00021576,2112.6,-6.4855e-05,4.1979,-8.3509e-05,-135.96,0.085905
28627,3.6276,5.8182,0.1,0.00018196,1818.3,0.00017988,1762.7,-5.3915e-05,6.0623,-6.9582e-05,-111.65,0.078131
28628,3.7198,5.9091,0.1,0.00019868,1985.4,0.00019766,1956.8,-6.2685e-05,0.68262,-7.03e-05,-56.537,0.084197
28629,3.7198,5.5455,0.1,0.00024278,2426.1,0.00023855,2315.7,-6.9138e-05,3.8274,-9.7657e-05,-210.45,0.087577
28630,3.6276,5.6364,0.1,0.00020204,2019.1,0.00019888,1935.9,-5.8102e-05,5.041,-8.0219e-05,-161.13,0.079849
28631,3.7198,5.3636,0.1,0.00028016,2799.6,0.00027288,2616.3,-7.4875e-05,3.3817,-0.0001204,-338.66,0.089213
28632,3.6276,5.4545,0.1,0.00023822,2380.6,0.00023191,2222.1,-6.3361e-05,3.4892,-0.00010279,-292.79,0.081541
28633,3.7198,5.1818,0.1,0.00032836,3281.3,0.00031697,3003.2,-8.2309e-05,3.2049,-0.00014942,-501.03,0.090815
28634,3.6276,5.2727,0.1,0.0002862,2860,0.00027512,2593,-6.9659e-05,2.4624,-0.00013335,-476.11,0.083211
28635,3.7198,5,0.1,0.00038665,3863.8,0.00037056,3479.7,-9.2094e-05,3.4906,-0.00018311,-680.34,0.092376
28636,3.6276,5.0909,0.1,0.00034467,3444.3,0.00032763,3046.2,-7.7515e-05,2.1309,-0.00016996,-692.47,0.084855
28637,3.7198,4.8182,0.1,0.00045488,4545.7,0.00043428,4059.1,-0.00010541,4.0706,-0.00021971,-854.73,0.093889
28638,3.6276,4.9091,0.1,0.00041408,4138,0.00039041,3595.8,-8.7879e-05,2.159,-0.00021169,-928.11,0.086471
28639,3.7198,4.6364,0.1,0.00053282,5324.5,0.00050904,4761.8,-0.0001241,4.6214,-0.00025645,-989.79,0.095341
28640,3.6276,4.7273,0.1,0.00049613,4957.9,0.00046589,4271.7,-0.00010229,2.6552,-0.00025785,-1166.2,0.088046
28641,3.7198,4.4545,0.1,0.00061725,6168.2,0.00059354,5597.5,-0.00015011,10.066,-0.00028738,-1021.3,0.096713
28642,3.6276,4.5455,0.1,0.00059207,5916.6,0.00055696,5117,-0.0001236,3.5334,-0.00030553,-1363.4,0.089564
28643,3.7198,4.2727,0.1,0.00070207,7015.8,0.00068323,6543.8,-0.00018597,12.92,-0.00030387,-872.92,0.097984
28644,3.6276,4.3636,0.1,0.00070204,7015.6,0.00066642,6186.9,-0.00015621,5.948,-0.00034845,-1438.5,0.091004
28645,3.7198,4.0909,0.1,0.00078184,7813,0.00077108,7527.5,-0.00022847,17.251,-0.00030485,-556.66,0.099132
28646,3.6276,4.1818,0.1,0.00081614,8155.7,0.00078798,7465.6,-0.00020572,-0.70764,-0.00037042,-1238.2,0.092333
28647,3.7198,3.9091,0.1,0.00085159,8510,0.00084807,8411.3,-0.00026866,20.639,-0.00029978,-213.23,0.10014
28648,3.6276,4,0.1,0.00090877,9081.4,0.00089513,8712.2,-0.00026945,-37.936,-0.00035327,-667.71,0.093525
28649,3.7198,3.7273,0.1,0.00090776,9071.4,0.00090788,9074.9,-0.00029783,15.609,-0.00030105,-8.6156,0.101
28650,3.6276,3.8182,0.1,0.00098466,9839.8,0.00098005,9708,-0.00031441,-18.013,-0.00034417,-241.66,0.094561
28651,3.7198,3.5455,0.1,0.00094476,9441.1,0.00094583,9473,-0.00030558,70.355,-0.00031576,-6.1543,0.10169
28652,3.6276,3.6364,0.1,0.0010245,10238,0.0010227,10185,-0.00033247,3.3797,-0.00034719,-107.22,0.095425
28653,3.7198,3.3636,0.1,0.00096276,9621,0.00096385,9653.4,-0.00031184,68.281,-0.00032135,-3.17,0.1022
28654,3.6276,3.4545,0.1,0.0010357,10350,0.0010341,10302,-0.00033677,2.1726,-0.00035002,-97.419,0.096092
28655,3.7198,3.1818,0.1,0.00096953,9688.6,0.00097043,9715.2,-0.00031519,55.563,-0.00032287,-2.1416,0.10251
28656,3.6276,3.2727,0.1,0.0010336,10329,0.001032,10282,-0.00033633,0.75081,-0.00034902,-94.635,0.096545
28657,3.7198,3,0.1,0.00097107,9704,0.00097189,9728.3,-0.00031622,49.928,-0.00032303,-1.2632,0.10262
28658,3.6276,3.0909,0.1,0.0010304,10297,0.0010287,10249,-0.00033535,-0.46247,-0.00034793,-95.006,0.096773
28659,3.7198,2.8182,0.1,0.00096953,9688.6,0.00097043,9715.2,-0.00031519,55.563,-0.00032287,-2.1416,0.10251
28660,3.6276,2.9091,0.1,0.0010304,10297,0.0010287,10249,-0.00033535,-0.46247,-0.00034793,-95.006,0.096773
28661,3.7198,2.6364,0.1,0.00096276,9621,0.00096385,9653.4,-0.00031184,68.281,-0.00032135,-3.17,0.1022
28662,3.6276,2.7273,0.1,0.0010336,10329,0.001032,10282,-0.00033633,0.75081,-0.00034902,-94.635,0.096545
28663,3.7198,2.4545,0.1,0.00094476,9441.1,0.00094583,9473,-0.00030558,70.355,-0.00031576,-6.1543,0.10169
28664,3.6276,2.5455,0.1,0.0010357,10350,0.0010341,10302,-0.00033677,2.1726,-0.00035002,-97.419,0.096092
28665,3.7198,2.2727,0.1,0.00090776,9071.4,0.00090788,9074.9,-0.00029783,15.609,-0.00030105,-8.6156,0.101
28666,3.6276,2.3636,0.1,0.0010245,10238,0.0010227,10185,-0.00033247,3.3797,-0.00034719,-107.22,0.095425
28667,3.7198,2.0909,0.1,0.00085159,8510,0.00084807,8411.3,-0.00026866,20.639,-0.00029978,-213.23,0.10014
28668,3.6276,2.1818,0.1,0.00098466,9839.8,0.00098005,9708,-0.00031441,-18.013,-0.00034417,-241.66,0.094561
28669,3.7198,1.9091,0.1,0.00078184,7813,0.00077108,7527.5,-0.00022847,17.251,-0.00030485,-556.66,0.099132
28670,3.6276,2,0.1,0.00090877,9081.4,0.00089513,8712.2,-0.00026945,-37.936,-0.00035327,-667.71,0.093525
28671,3.7198,1.7273,0.1,0.00070207,7015.8,0.00068323,6543.8,-0.00018597,12.92,-0.00030387,-872.92,0.097984
28672,3.6276,1.8182,0.1,0.00081614,8155.7,0.00078798,7465.6,-0.00020572,-0.70763,-0.00037042,-1238.2,0.092333
28673,3.7198,1.5455,0.1,0.00061725,6168.2,0.00059354,5597.5,-0.00015011,10.066,-0.00028738,-1021.3,0.096713
28674,3.6276,1.6364,0.1,0.00070204,7015.6,0.00066642,6186.9,-0.00015621,5.948,-0.00034845,-1438.5,0.091004
28675,3.7198,1.3636,0.1,0.00053282,5324.5,0.00050904,4761.8,-0.0001241,4.6214,-0.00025645,-989.79,0.095341
28676,3.6276,1.4545,0.1,0.00059207,5916.6,0.00055696,5117,-0.0001236,3.5334,-0.00030553,-1363.4,0.089564
28677,3.7198,1.1818,0.1,0.00045488,4545.7,0.00043428,4059.1,-0.00010541,4.0706,-0.00021971,-854.73,0.093889
28678,3.6276,1.2727,0.1,0.00049613,4957.9,0.00046589,4271.7,-0.00010229,2.6552,-0.00025785,-1166.2,0.088046
28679,3.7198,1,0.1,0.00038665,3863.8,0.00037056,3479.7,-9.2094e-05,3.4906,-0.00018311,-680.34,0.092376
28680,3.6276,1.0909,0.1,0.00041408,4138,0.00039041,3595.8,-8.7879e-05,2.159,-0.00021169,-928.11,0.086471
28681,3.7198,0.81818,0.1,0.00032836,3281.3,0.00031697,3003.2,-8.2309e-05,3.2049,-0.00014942,-501.03,0.090815
28682,3.6276,0.90909,0.1,0.00034467,3444.3,0.00032763,3046.2,-7.7515e-05,2.1309,-0.00016996,-692.47,0.084855
28683,3.7198,0.63636,0.1,0.00028016,2799.6,0.00027288,2616.3,-7.4875e-05,3.3817,-0.0001204,-338.66,0.089213
28684,3.6276,0.72727,0.1,0.0002862,2860,0.00027512,2593,-6.9659e-05,2.4624,-0.00013335,-476.11,0.083211
28685,3.7198,0.45455,0.1,0.00024278,2426.1,0.00023855,2315.7,-6.9138e-05,3.8274,-9.7657e-05,-210.45,0.087577
28686,3.6276,0.54545,0.1,0.00023822,2380.6,0.00023191,2222.1,-6.3361e-05,3.4892,-0.00010279,-292.79,0.081541
28687,3.7198,0.27273,0.1,0.00021834,2181.9,0.00021576,2112.6,-6.4855e-05,4.1979,-8.3509e-05,-135.96,0.085905
28688,3.6276,0.36364,0.1,0.00020204,2019.1,0.00019888,1935.9,-5.8102e-05,5.041,-8.0219e-05,-161.13,0.079849
28689,3.6276,0.18182,0.1,0.00018196,1818.3,0.00017988,1762.7,-5.3915e-05,6.0623,-6.9582e-05,-111.65,0.078131
28690,3.7198,0.090909,0.1,0.00019868,1985.4,0.00019766,1956.8,-6.2685e-05,0.68262,-7.03e-05,-56.537,0.084197
28691,3.5354,5.7273,0.1,0.00016686,1667.4,0.000164,1593.5,-4.7088e-05,7.4647,-6.7369e-05,-144.92,0.072109
28692,3.4432,5.8182,0.1,0.00012659,1265,0.00012424,1207.9,-3.3765e-05,20.699,-5.2851e-05,-122.71,0.064361
28693,3.5354,5.9091,0.1,0.00014155,1414.6,0.00014067,1389.8,-4.4167e-05,1.0386,-5.0853e-05,-49.191,0.070354
28694,3.5354,5.5455,0.1,0.00020059,2004.6,0.00019486,1862,-5.2416e-05,4.0209,-8.789e-05,-262.52,0.073848
28695,3.4432,5.6364,0.1,0.00016099,1608.8,0.00015588,1485.3,-4.0279e-05,11.437,-7.2533e-05,-230.91,0.066134
28696,3.5354,5.3636,0.1,0.00024902,2488.5,0.00023802,2227.9,-5.8199e-05,2.1684,-0.00011956,-458.91,0.075574
28697,3.4432,5.4545,0.1,0.00021205,2119,0.00020087,1862.3,-4.5962e-05,7.6814,-0.0001065,-447.21,0.067906
28698,3.5354,5.1818,0.1,0.00030842,3082,0.00029041,2670.8,-6.489e-05,1.2017,-0.0001585,-702.13,0.077291
28699,3.4432,5.2727,0.1,0.000273,2728.1,0.00025354,2298.4,-5.1548e-05,6.0631,-0.00014805,-719.02,0.069683
28700,3.5354,5,0.1,0.000379,3787.4,0.00035271,3201.6,-7.3311e-05,0.71529,-0.00020376,-979.46,0.078997
28701,3.4432,5.0909,0.1,0.00034392,3436.9,0.00031439,2802.1,-5.7794e-05,5.6654,-0.00019627,-1034.8,0.071465
28702,3.5354,4.8182,0.1,0.00046323,4629.1,0.00042784,3852.2,-8.4762e-05,0.71766,-0.00025565,-1283.3,0.080685
28703,3.4432,4.9091,0.1,0.00042752,4272.3,0.00038623,3401.1,-6.5541e-05,6.6689,-0.00025225,-1396.2,0.07325
28704,3.5354,4.6364,0.1,0.00056413,5637.4,0.0005201,4674.2,-0.00010179,1.5707,-0.00031322,-1587.1,0.082343
28705,3.4432,4.7273,0.1,0.00052908,5287.1,0.00047434,4144,-7.6423e-05,5.7766,-0.00031839,-1812.2,0.075034
28706,3.5354,4.4545,0.1,0.00068476,6842.9,0.00063532,5747.5,-0.0001297,-0.57054,-0.00037208,-1821.7,0.083952
28707,3.4432,4.5455,0.1,0.00065629,6558.3,0.00058724,5124.8,-9.241e-05,18.15,-0.00039713,-2271.4,0.076802
28708,3.5354,4.2727,0.1,0.0008214,8208.3,0.00077481,7136,-0.00017609,-8.7162,-0.00041849,-1830,0.085479
28709,3.4432,4.3636,0.1,0.00082417,8236,0.00074055,6476.5,-0.00012275,-10.044,-0.00049271,-2789.8,0.078529
28710,3.5354,4.0909,0.1,0.00094266,9420.1,0.00091207,8650.6,-0.00024672,-56.066,-0.00041884,-1349.4,0.086882
28711,3.4432,4.1818,0.1,0.0010572,10565,0.00097452,8790.3,-0.00018291,93.761,-0.00059029,-2967.1,0.080172
28712,3.5354,3.9091,0.1,0.0010401,10394,0.0010258,9999.1,-0.0003149,-74.364,-0.00039664,-688.49,0.088128
28713,3.4432,4,0.1,0.0012442,12434,0.0012037,11528,-0.00028531,339.7,-0.00057787,-1858.5,0.08167
28714,3.5354,3.7273,0.1,0.0010985,10977,0.0010922,10799,-0.00034763,-19.559,-0.0003891,-331.16,0.08919
28715,3.4432,3.8182,0.1,0.0012754,12745,0.001261,12349,-0.00038675,-31.076,-0.00048002,-731.91,0.082972
28716,3.5354,3.5455,0.1,0.0011129,11121,0.0011085,10996,-0.00035417,6.4932,-0.0003885,-251.39,0.090043
28717,3.4432,3.6364,0.1,0.0012487,12479,0.0012389,12208,-0.00038352,18.174,-0.00045776,-539.65,0.084046
28718,3.5354,3.3636,0.1,0.0011047,11039,0.0011004,10917,-0.00035249,0.50086,-0.00038465,-241.19,0.090662
28719,3.4432,3.4545,0.1,0.0011971,11963,0.001189,11736,-0.00037331,-2.5268,-0.00043144,-439.3,0.084858
28720,3.5354,3.1818,0.1,0.001093,10922,0.0010888,10804,-0.00034909,0.26685,-0.00038005,-232.38,0.091036
28721,3.4432,3.2727,0.1,0.0011604,11596,0.0011534,11398,-0.00036327,2.4305,-0.00041547,-389.8,0.0854
28722,3.5354,3,0.1,0.0010883,10876,0.0010842,10759,-0.00034771,-0.057018,-0.00037829,-229.78,0.091161
28723,3.4432,3.0909,0.1,0.0011417,11409,0.0011351,11222,-0.00035851,0.28426,-0.00040716,-365.27,0.085669
28724,3.5354,2.8182,0.1,0.001093,10922,0.0010888,10804,-0.00034909,0.26685,-0.00038005,-232.38,0.091036
28725,3.4432,2.9091,0.1,0.0011417,11409,0.0011351,11222,-0.00035851,0.28426,-0.00040716,-365.27,0.085669
28726,3.5354,2.6364,0.1,0.0011047,11039,0.0011004,10917,-0.00035249,0.50086,-0.00038465,-241.19,0.090662
28727,3.4432,2.7273,0.1,0.0011604,11596,0.0011534,11398,-0.00036327,2.4305,-0.00041547,-389.8,0.0854
28728,3.5354,2.4545,0.1,0.0011129,11121,0.0011085,10996,-0.00035417,6.4932,-0.0003885,-251.39,0.090043
28729,3.4432,2.5455,0.1,0.0011971,11963,0.001189,11736,-0.00037331,-2.5268,-0.00043144,-439.3,0.084858
28730,3.5354,2.2727,0.1,0.0010985,10978,0.0010922,10799,-0.00034763,-19.559,-0.0003891,-331.16,0.08919
28731,3.4432,2.3636,0.1,0.0012487,12479,0.0012389,12208,-0.00038352,18.174,-0.00045776,-539.64,0.084046
28732,3.5354,2.0909,0.1,0.0010401,10394,0.0010258,9999.1,-0.0003149,-74.364,-0.00039664,-688.49,0.088128
28733,3.4432,2.1818,0.1,0.0012754,12745,0.001261,12349,-0.00038675,-31.076,-0.00048002,-731.91,0.082972
28734,3.5354,1.9091,0.1,0.00094266,9420.1,0.00091207,8650.6,-0.00024672,-56.066,-0.00041884,-1349.4,0.086882
28735,3.4432,2,0.1,0.0012442,12434,0.0012037,11528,-0.00028531,339.7,-0.00057787,-1858.5,0.08167
28736,3.5354,1.7273,0.1,0.0008214,8208.3,0.00077481,7136,-0.00017609,-8.7162,-0.00041849,-1830,0.085479
28737,3.4432,1.8182,0.1,0.0010572,10565,0.00097452,8790.3,-0.00018291,93.761,-0.00059029,-2967.1,0.080172
28738,3.5354,1.5455,0.1,0.00068476,6842.9,0.00063532,5747.5,-0.0001297,-0.57055,-0.00037208,-1821.7,0.083952
28739,3.4432,1.6364,0.1,0.00082417,8236.1,0.00074055,6476.5,-0.00012275,-10.044,-0.00049271,-2789.8,0.078529
28740,3.5354,1.3636,0.1,0.00056413,5637.4,0.0005201,4674.2,-0.00010179,1.5707,-0.00031322,-1587.1,0.082343
28741,3.4432,1.4545,0.1,0.00065629,6558.3,0.00058724,5124.8,-9.241e-05,18.15,-0.00039713,-2271.4,0.076802
28742,3.5354,1.1818,0.1,0.00046323,4629.1,0.00042784,3852.2,-8.4762e-05,0.71765,-0.00025565,-1283.3,0.080685
28743,3.4432,1.2727,0.1,0.00052908,5287.1,0.00047434,4144,-7.6423e-05,5.7766,-0.00031839,-1812.2,0.075034
28744,3.5354,1,0.1,0.000379,3787.4,0.00035271,3201.6,-7.3311e-05,0.71529,-0.00020376,-979.46,0.078997
28745,3.4432,1.0909,0.1,0.00042752,4272.3,0.00038623,3401.1,-6.5541e-05,6.6689,-0.00025225,-1396.2,0.07325
28746,3.5354,0.81818,0.1,0.00030842,3082,0.00029041,2670.8,-6.489e-05,1.2017,-0.0001585,-702.13,0.077291
28747,3.4432,0.90909,0.1,0.00034392,3436.9,0.00031439,2802.1,-5.7794e-05,5.6654,-0.00019627,-1034.8,0.071465
28748,3.5354,0.63636,0.1,0.00024902,2488.5,0.00023802,2227.9,-5.8199e-05,2.1684,-0.00011956,-458.91,0.075574
28749,3.4432,0.72727,0.1,0.000273,2728.1,0.00025354,2298.4,-5.1548e-05,6.0631,-0.00014805,-719.02,0.069683
28750,3.5354,0.45455,0.1,0.00020059,2004.6,0.00019486,1862,-5.2416e-05,4.0209,-8.789e-05,-262.52,0.073848
28751,3.4432,0.54545,0.1,0.00021205,2119,0.00020087,1862.3,-4.5962e-05,7.6814,-0.0001065,-447.21,0.067906
28752,3.5354,0.27273,0.1,0.00016686,1667.4,0.000164,1593.5,-4.7088e-05,7.4647,-6.7369e-05,-144.92,0.072109
28753,3.4432,0.36364,0.1,0.00016099,1608.8,0.00015588,1485.3,-4.0279e-05,11.437,-7.2533e-05,-230.91,0.066134
28754,3.4432,0.18182,0.1,0.00012659,1265,0.00012424,1207.9,-3.3765e-05,20.699,-5.2851e-05,-122.71,0.064361
28755,3.5354,0.090909,0.1,0.00014155,1414.6,0.00014067,1389.8,-4.4167e-05,1.0386,-5.0853e-05,-49.191,0.070354
28756,3.351,5.7273,0.1,0.00012603,1259.5,0.00012038,1131.7,-2.7509e-05,20.51,-6.1712e-05,-236.48,0.058404
28757,3.2588,5.8182,0.1,7.1738e-05,716.89,7.0237e-05,677.95,-2.0065e-05,-0.53914,-2.9573e-05,-71.976,0.050662
28758,3.351,5.9091,0.1,8.0804e-05,807.48,7.9805e-05,783.61,-2.2107e-05,17.882,-3.247e-05,-59.984,0.056606
28759,3.351,5.5455,0.1,0.00018047,1803.4,0.00016816,1532.7,-3.4228e-05,12.073,-9.7012e-05,-459.66,0.06021
28760,3.2588,5.6364,0.1,0.00011804,1179.6,0.00011225,1042.6,-2.7059e-05,-4.0945,-5.787e-05,-235.6,0.052488
28761,3.351,5.3636,0.1,0.00024468,2445.2,0.00022287,1981.5,-3.9494e-05,10.204,-0.00014129,-754.62,0.062031
28762,3.2588,5.4545,0.1,0.00016903,1689.1,0.00015655,1412.7,-3.1811e-05,-2.5831,-9.2317e-05,-457.2,0.054341
28763,3.351,5.1818,0.1,0.00031767,3174.5,0.00028417,2479.7,-4.4561e-05,9.706,-0.00019237,-1100.9,0.063874
28764,3.2588,5.2727,0.1,0.0002247,2245.5,0.00020378,1799.1,-3.6004e-05,-2.5238,-0.00013103,-716.52,0.056228
28765,3.351,5,0.1,0.00040265,4023.7,0.00035517,3056.1,-5.0102e-05,11.031,-0.00025194,-1505.5,0.06574
28766,3.2588,5.0909,0.1,0.00028762,2874.2,0.00025642,2225.1,-4.0119e-05,-2.9637,-0.00017537,-1019.2,0.058157
28767,3.351,4.8182,0.1,0.00050562,5052.7,0.00044132,3757.4,-5.7259e-05,11.304,-0.00032351,-1989.2,0.067629
28768,3.2588,4.9091,0.1,0.00036173,3614.8,0.00031792,2721.2,-4.4378e-05,-0.92471,-0.00022794,-1380.2,0.060129
28769,3.351,4.6364,0.1,0.00063693,6364.9,0.00055229,4675.8,-6.7096e-05,21.965,-0.00041305,-2577.4,0.069535
28770,3.2588,4.7273,0.1,0.00045356,4532.5,0.00039413,3333.5,-5.0611e-05,-8.1921,-0.0002925,-1825.7,0.062148
28771,3.351,4.4545,0.1,0.00081899,8184.2,0.00070828,5972.5,-8.5494e-05,8.4433,-0.00053354,-3358,0.071446
28772,3.2588,4.5455,0.1,0.00057614,5757.4,0.00049521,4158.4,-5.5272e-05,22.281,-0.00037994,-2417.1,0.06421
28773,3.351,4.2727,0.1,0.0010807,10799,0.00095323,8228.2,-0.00012965,91.867,-0.0006774,-4023.7,0.073334
28774,3.2588,4.3636,0.1,0.00074191,7414,0.00063993,5339.2,-8.2885e-05,-91.815,-0.00048424,-3107.4,0.06631
28775,3.351,4.0909,0.1,0.0013558,13548,0.0012619,11635,-0.00022143,490.13,-0.00074514,-3444.8,0.07514
28776,3.2588,4.1818,0.1,0.0010732,10725,0.00089631,7494.4,-4.6218e-05,412.62,-0.00074589,-4844.4,0.068428
28777,3.351,3.9091,0.1,0.001461,14600,0.0014257,13778,-0.00036398,331.68,-0.00064119,-1751.2,0.07674
28778,3.2588,4,0.1,0.0021912,21896,0.002128,20468,-0.00051875,581.12,-0.00099507,-2997.7,0.07045
28779,3.351,3.7273,0.1,0.001418,14170,0.0014009,13708,-0.0004224,8.4201,-0.0005421,-890.95,0.078088
28780,3.2588,3.8182,0.1,0.0017224,17212,0.0016981,16552,-0.00051406,-69.524,-0.00066395,-1195.7,0.072155
28781,3.351,3.5455,0.1,0.0013303,13294,0.0013169,12929,-0.00040262,9.4211,-0.0004982,-708.74,0.079129
28782,3.2588,3.6364,0.1,0.0014832,14822,0.0014649,14332,-0.00043755,37.798,-0.00057131,-967.18,0.073471
28783,3.351,3.3636,0.1,0.0012516,12508,0.0012408,12208,-0.00038412,-0.77627,-0.00046099,-578.4,0.079861
28784,3.2588,3.4545,0.1,0.00134,13391,0.0013259,13005,-0.00040536,-3.011,-0.0005033,-738.91,0.07442
28785,3.351,3.1818,0.1,0.0012082,12073,0.0011986,11809,-0.00037271,2.3276,-0.00044159,-515.28,0.080295
28786,3.2588,3.2727,0.1,0.0012615,12606,0.0012499,12288,-0.00038481,5.0519,-0.00046791,-619.33,0.075035
28787,3.351,3,0.1,0.0011941,11933,0.001185,11679,-0.00036933,0.42206,-0.00043507,-493.54,0.080438
28788,3.2588,3.0909,0.1,0.0012263,12255,0.0012158,11966,-0.00037645,1.7324,-0.0004513,-560.63,0.075336
28789,3.351,2.8182,0.1,0.0012082,12073,0.0011986,11809,-0.00037271,2.3276,-0.00044159,-515.28,0.080295
28790,3.2588,2.9091,0.1,0.0012263,12255,0.0012158,11966,-0.00037645,1.7324,-0.0004513,-560.62,0.075336
28791,3.351,2.6364,0.1,0.0012516,12508,0.0012408,12208,-0.00038412,-0.77626,-0.00046099,-578.39,0.079861
28792,3.2588,2.7273,0.1,0.0012615,12606,0.0012499,12288,-0.00038481,5.0519,-0.00046791,-619.33,0.075035
28793,3.351,2.4545,0.1,0.0013303,13294,0.0013169,12929,-0.00040262,9.4211,-0.0004982,-708.73,0.079129
28794,3.2588,2.5455,0.1,0.00134,13391,0.0013259,13005,-0.00040536,-3.011,-0.0005033,-738.91,0.07442
28795,3.351,2.2727,0.1,0.001418,14170,0.0014009,13708,-0.0004224,8.4201,-0.0005421,-890.95,0.078088
28796,3.2588,2.3636,0.1,0.0014832,14822,0.0014649,14332,-0.00043755,37.798,-0.00057131,-967.17,0.073471
28797,3.351,2.0909,0.1,0.001461,14600,0.0014257,13778,-0.00036398,331.68,-0.00064119,-1751.2,0.07674
28798,3.2588,2.1818,0.1,0.0017224,17212,0.0016981,16552,-0.00051406,-69.524,-0.00066395,-1195.7,0.072155
28799,3.351,1.9091,0.1,0.0013558,13548,0.0012619,11635,-0.00022143,490.13,-0.00074514,-3444.8,0.07514
28800,3.2588,2,0.1,0.0021912,21896,0.002128,20468,-0.00051875,581.12,-0.00099507,-2997.7,0.07045
28801,3.351,1.7273,0.1,0.0010807,10799,0.00095323,8228.2,-0.00012965,91.867,-0.0006774,-4023.7,0.073334
28802,3.2588,1.8182,0.1,0.0010732,10725,0.00089631,7494.4,-4.6218e-05,412.62,-0.00074589,-4844.4,0.068428
28803,3.351,1.5455,0.1,0.00081899,8184.2,0.00070828,5972.5,-8.5494e-05,8.4433,-0.00053354,-3358,0.071446
28804,3.2588,1.6364,0.1,0.00074191,7414,0.00063993,5339.2,-8.2885e-05,-91.815,-0.00048424,-3107.4,0.06631
28805,3.351,1.3636,0.1,0.00063693,6364.9,0.00055229,4675.8,-6.7096e-05,21.965,-0.00041305,-2577.4,0.069535
28806,3.2588,1.4545,0.1,0.00057614,5757.4,0.00049521,4158.4,-5.5272e-05,22.281,-0.00037994,-2417.1,0.06421
28807,3.351,1.1818,0.1,0.00050562,5052.7,0.00044132,3757.4,-5.7259e-05,11.304,-0.00032351,-1989.2,0.067629
28808,3.2588,1.2727,0.1,0.00045356,4532.5,0.00039413,3333.5,-5.0611e-05,-8.1921,-0.0002925,-1825.7,0.062148
28809,3.351,1,0.1,0.00040265,4023.7,0.00035517,3056.1,-5.0102e-05,11.031,-0.00025194,-1505.5,0.06574
28810,3.2588,1.0909,0.1,0.00036173,3614.8,0.00031792,2721.2,-4.4378e-05,-0.92471,-0.00022794,-1380.2,0.060129
28811,3.351,0.81818,0.1,0.00031767,3174.5,0.00028417,2479.7,-4.4561e-05,9.706,-0.00019237,-1100.9,0.063874
28812,3.2588,0.90909,0.1,0.00028762,2874.2,0.00025642,2225.1,-4.0119e-05,-2.9637,-0.00017537,-1019.2,0.058157
28813,3.351,0.63636,0.1,0.00024468,2445.2,0.00022287,1981.5,-3.9494e-05,10.204,-0.00014129,-754.62,0.062031
28814,3.2588,0.72727,0.1,0.0002247,2245.5,0.00020378,1799.1,-3.6004e-05,-2.5238,-0.00013103,-716.52,0.056228
28815,3.351,0.45455,0.1,0.00018047,1803.4,0.00016816,1532.7,-3.4228e-05,12.073,-9.7012e-05,-459.66,0.06021
28816,3.2588,0.54545,0.1,0.00016903,1689.1,0.00015655,1412.7,-3.1811e-05,-2.5831,-9.2317e-05,-457.2,0.054341
28817,3.351,0.27273,0.1,0.00012603,1259.5,0.00012038,1131.7,-2.7509e-05,20.51,-6.1712e-05,-236.48,0.058404
28818,3.2588,0.36364,0.1,0.00011804,1179.6,0.00011225,1042.6,-2.7059e-05,-4.0945,-5.787e-05,-235.6,0.052488
28819,3.2588,0.18182,0.1,7.1738e-05,716.89,7.0237e-05,677.95,-2.0065e-05,-0.53915,-2.9573e-05,-71.976,0.050662
28820,3.351,0.090909,0.1,8.0804e-05,807.48,7.9805e-05,783.61,-2.2107e-05,17.882,-3.247e-05,-59.984,0.056606
28821,0.17647,0.27273,0.1,0.00042217,4218.8,0.00041451,4137.4,-7.6674e-05,446.81,-0.00019757,-461.57,0.00011087
28822,0.26471,0.18182,0.1,0.00044281,4425.1,0.00044008,4350.6,-0.00013593,22.679,-0.00016098,-165.54,0.00019364
28823,0.088235,0.18182,0.1,0.00027,2698.2,0.00028714,3212.1,-5.8216e-05,617.22,-8.4303e-05,421.22,2.5618e-05
28824,0.17647,0.090909,0.1,0.00037724,3769.8,0.00037197,3617.4,-0.00012213,-95.098,-0.00013705,-207.17,5.0562e-05
28825,0.17647,0.45455,0.1,0.00048788,4875.4,0.00047012,4823.8,-2.9861e-05,1067.2,-0.00026315,-685.67,0.00014638
28826,0.26471,0.36364,0.1,0.00045725,4569.3,0.0004578,4748.3,-7.2224e-05,765.91,-0.00020614,-240.25,0.00028092
28827,0.088235,0.36364,0.1,0.00034228,3420.4,0.00037751,4577.3,-1.9367e-05,1595.3,-0.00011943,843.49,4.1667e-05
28828,0.17647,0.63636,0.1,0.00054932,5489.4,0.00052579,5453.8,-1.4119e-05,1397.1,-0.00030554,-792.53,0.00016795
28829,0.26471,0.54545,0.1,0.00049627,4959.3,0.00049457,5264.1,-3.8657e-05,1257.6,-0.00024363,-282.51,0.00033568
28830,0.088235,0.54545,0.1,0.00040092,4006.4,0.00044373,5457.1,-8.2574e-06,2061,-0.00014435,1038.4,5.0495e-05
28831,0.17647,0.81818,0.1,0.00059585,5954.3,0.00056897,5928.1,-7.6021e-06,1596,-0.00033469,-861.66,0.00018229
28832,0.26471,0.72727,0.1,0.00053454,5341.7,0.00053049,5713.1,-2.207e-05,1561.4,-0.00027157,-313.25,0.00037202
28833,0.088235,0.72727,0.1,0.00044282,4425.2,0.00049018,6049.9,-4.1981e-06,2335.3,-0.00016143,1153.9,5.605e-05
28834,0.17647,1,0.1,0.00063075,6303.1,0.00060188,6285.3,-4.6531e-06,1728,-0.00035548,-907.92,0.00019241
28835,0.26471,0.90909,0.1,0.00056691,5665.2,0.00056139,6081,-1.3701e-05,1760,-0.00029224,-332.82,0.00039755
28836,0.088235,0.90909,0.1,0.00047297,4726.5,0.00052346,6467.8,-2.5016e-06,2515.9,-0.00017338,1232,5.9802e-05
28837,0.17647,1.1818,0.1,0.0006572,6567.5,0.00062701,6556.6,-3.0804e-06,1822.4,-0.00037087,-941.03,0.00019977
28838,0.26471,1.0909,0.1,0.00059321,5928,0.00058677,6375.7,-9.0963e-06,1898.6,-0.00030796,-346.96,0.00041615
28839,0.088235,1.0909,0.1,0.00049525,4949.1,0.00054796,6772.9,-1.6242e-06,2643.5,-0.00018217,1287,6.2468e-05
28840,0.17647,1.3636,0.1,0.00067746,6769.9,0.00064636,6765.3,-2.1578e-06,1892.6,-0.00038246,-964.91,0.00020521
28841,0.26471,1.2727,0.1,0.00061435,6139.2,0.00060734,6611.5,-6.3653e-06,2000.3,-0.00032012,-357.09,0.00042997
28842,0.088235,1.2727,0.1,0.00051197,5116.1,0.00056631,7000.2,-1.1284e-06,2736.7,-0.00018875,1327,6.4408e-05
28843,0.17647,1.5455,0.1,0.00069306,6925.8,0.00066132,6926.7,-1.5644e-06,1946,-0.00039129,-982.23,0.00020924
28844,0.26471,1.4545,0.1,0.0006313,6308.6,0.00062391,6800.1,-4.6236e-06,2077.6,-0.00032964,-364.47,0.00044034
28845,0.088235,1.4545,0.1,0.00052462,5242.6,0.00058016,7171.1,-8.1563e-07,2805.9,-0.00019375,1356.2,6.5831e-05
28846,0.17647,1.7273,0.1,0.00070506,7045.8,0.00067288,7051.7,-1.156e-06,1987.3,-0.00039803,-994.69,0.00021223
28847,0.26471,1.6364,0.1,0.00064486,6444.1,0.00063722,6951.1,-3.4425e-06,2137.4,-0.00033713,-369.8,0.00044813
28848,0.088235,1.6364,0.1,0.0005342,5338.3,0.00059063,7299.8,-6.0332e-07,2857.5,-0.00019757,1377.6,6.6872e-05
28849,0.17647,1.9091,0.1,0.00071426,7137.6,0.00068177,7148.1,-8.6054e-07,2019.1,-0.00040315,-1003.5,0.00021442
28850,0.26471,1.8182,0.1,0.00065565,6552,0.00064784,7071.5,-2.6012e-06,2184.3,-0.00034304,-373.61,0.00045395
28851,0.088235,1.8182,0.1,0.00054143,5410.6,0.0005985,7396.2,-4.5025e-07,2895.9,-0.00020048,1393,6.7628e-05
28852,0.17647,2.0909,0.1,0.00072123,7207.3,0.00068852,7221.7,-6.4143e-07,2043.6,-0.000407,-1009.6,0.00021599
28853,0.26471,2,0.1,0.00066416,6637,0.00065624,7166.6,-1.9835e-06,2221,-0.00034766,-376.27,0.00045826
28854,0.088235,2,0.1,0.00054684,5464.6,0.00060436,7467.8,-3.36e-07,2924.3,-0.00020268,1404,6.8167e-05
28855,0.17647,2.2727,0.1,0.00072641,7259.1,0.00069357,7276.8,-4.7927e-07,2062,-0.00040984,-1013.8,0.00021711
28856,0.26471,2.1818,0.1,0.00067077,6703,0.00066277,7240.7,-1.5267e-06,2249.4,-0.00035122,-378.09,0.00046139
28857,0.088235,2.1818,0.1,0.00055081,5504.3,0.00060866,7520.1,-2.5006e-07,2945,-0.00020432,1411.6,6.8544e-05
28858,0.17647,2.4545,0.1,0.00073013,7296.3,0.0006972,7316.7,-3.6296e-07,2075.4,-0.00041187,-1016.5,0.00021787
28859,0.26471,2.3636,0.1,0.00067576,6752.9,0.00066771,7296.7,-1.195e-06,2270.8,-0.0003539,-379.3,0.00046362
28860,0.088235,2.3636,0.1,0.00055367,5532.9,0.00061173,7557.3,-1.867e-07,2959.6,-0.00020552,1416.8,6.8801e-05
28861,0.17647,2.6364,0.1,0.00073263,7321.3,0.00069965,7343.6,-2.852e-07,2084.6,-0.00041323,-1018.1,0.00021836
28862,0.26471,2.5455,0.1,0.00067933,6788.7,0.00067126,7337,-9.656e-07,2286.1,-0.00035581,-380.06,0.00046514
28863,0.088235,2.5455,0.1,0.00055563,5552.5,0.00061384,7582.8,-1.4237e-07,2969.5,-0.00020635,1420.2,6.8969e-05
28864,0.17647,2.8182,0.1,0.00073408,7335.7,0.00070106,7359.2,-2.4078e-07,2089.8,-0.000414,-1019,0.00021863
28865,0.26471,2.7273,0.1,0.00068165,6811.8,0.00067355,7363,-8.2231e-07,2296,-0.00035704,-380.5,0.00046607
28866,0.088235,2.7273,0.1,0.00055685,5564.7,0.00061515,7598.5,-1.1444e-07,2975.7,-0.00020688,1422.2,6.9069e-05
28867,0.17647,3,0.1,0.00073455,7340.4,0.00070152,7364.3,-2.2637e-07,2091.6,-0.00041426,-1019.3,0.00021872
28868,0.26471,2.9091,0.1,0.00068278,6823.1,0.00067468,7375.8,-7.5373e-07,2300.9,-0.00035765,-380.71,0.00046652
28869,0.088235,2.9091,0.1,0.00055744,5570.6,0.00061578,7606.1,-1.0101e-07,2978.6,-0.00020713,1423.1,6.9115e-05
28870,0.17647,3.1818,0.1,0.00073408,7335.7,0.00070106,7359.2,-2.4078e-07,2089.8,-0.000414,-1019,0.00021863
28871,0.26471,3.0909,0.1,0.00068278,6823.1,0.00067468,7375.8,-7.5373e-07,2300.9,-0.00035765,-380.71,0.00046652
28872,0.088235,3.0909,0.1,0.00055744,5570.6,0.00061578,7606.1,-1.0101e-07,2978.6,-0.00020713,1423.1,6.9115e-05
28873,0.17647,3.3636,0.1,0.00073263,7321.3,0.00069965,7343.6,-2.8519e-07,2084.6,-0.00041323,-1018.1,0.00021836
28874,0.26471,3.2727,0.1,0.00068165,6811.8,0.00067355,7363,-8.2231e-07,2296,-0.00035704,-380.5,0.00046607
28875,0.088235,3.2727,0.1,0.00055685,5564.7,0.00061515,7598.5,-1.1444e-07,2975.7,-0.00020688,1422.2,6.9069e-05
28876,0.17647,3.5455,0.1,0.00073013,7296.3,0.0006972,7316.7,-3.6295e-07,2075.4,-0.00041187,-1016.5,0.00021787
28877,0.26471,3.4545,0.1,0.00067933,6788.7,0.00067126,7337,-9.6559e-07,2286.1,-0.00035581,-380.06,0.00046514
28878,0.088235,3.4545,0.1,0.00055563,5552.5,0.00061384,7582.8,-1.4236e-07,2969.5,-0.00020635,1420.2,6.8969e-05
28879,0.17647,3.7273,0.1,0.00072641,7259.1,0.00069357,7276.8,-4.7927e-07,2062,-0.00040984,-1013.8,0.00021711
28880,0.26471,3.6364,0.1,0.00067576,6752.9,0.00066771,7296.7,-1.195e-06,2270.8,-0.0003539,-379.3,0.00046362
28881,0.088235,3.6364,0.1,0.00055367,5532.9,0.00061173,7557.3,-1.867e-07,2959.6,-0.00020552,1416.8,6.8801e-05
28882,0.17647,3.9091,0.1,0.00072123,7207.3,0.00068852,7221.7,-6.4142e-07,2043.6,-0.000407,-1009.6,0.00021599
28883,0.26471,3.8182,0.1,0.00067077,6703,0.00066277,7240.7,-1.5267e-06,2249.4,-0.00035122,-378.09,0.00046139
28884,0.088235,3.8182,0.1,0.00055081,5504.3,0.00060866,7520.1,-2.5005e-07,2945,-0.00020432,1411.6,6.8544e-05
28885,0.17647,4.0909,0.1,0.00071426,7137.6,0.00068177,7148.1,-8.6053e-07,2019.1,-0.00040315,-1003.5,0.00021442
28886,0.26471,4,0.1,0.00066416,6637,0.00065624,7166.6,-1.9835e-06,2221,-0.00034766,-376.27,0.00045826
28887,0.088235,4,0.1,0.00054684,5464.6,0.00060436,7467.8,-3.36e-07,2924.3,-0.00020268,1404,6.8167e-05
28888,0.17647,4.2727,0.1,0.00070506,7045.8,0.00067288,7051.7,-1.156e-06,1987.3,-0.00039803,-994.69,0.00021223
28889,0.26471,4.1818,0.1,0.00065565,6552,0.00064784,7071.5,-2.6012e-06,2184.3,-0.00034304,-373.61,0.00045395
28890,0.088235,4.1818,0.1,0.00054143,5410.6,0.0005985,7396.2,-4.5024e-07,2895.9,-0.00020048,1393,6.7628e-05
28891,0.17647,4.4545,0.1,0.00069306,6925.8,0.00066132,6926.7,-1.5644e-06,1946,-0.00039129,-982.23,0.00020924
28892,0.26471,4.3636,0.1,0.00064486,6444.1,0.00063722,6951.1,-3.4425e-06,2137.4,-0.00033713,-369.8,0.00044813
28893,0.088235,4.3636,0.1,0.0005342,5338.3,0.00059063,7299.8,-6.0332e-07,2857.5,-0.00019757,1377.6,6.6872e-05
28894,0.17647,4.6364,0.1,0.00067746,6769.9,0.00064636,6765.3,-2.1578e-06,1892.6,-0.00038246,-964.91,0.00020521
28895,0.26471,4.5455,0.1,0.0006313,6308.6,0.00062391,6800.1,-4.6236e-06,2077.6,-0.00032964,-364.47,0.00044034
28896,0.088235,4.5455,0.1,0.00052462,5242.6,0.00058016,7171.1,-8.1563e-07,2805.9,-0.00019375,1356.2,6.5831e-05
28897,0.17647,4.8182,0.1,0.0006572,6567.5,0.00062701,6556.6,-3.0804e-06,1822.4,-0.00037087,-941.03,0.00019977
28898,0.26471,4.7273,0.1,0.00061435,6139.2,0.00060734,6611.5,-6.3653e-06,2000.3,-0.00032012,-357.09,0.00042997
28899,0.088235,4.7273,0.1,0.00051197,5116.1,0.00056631,7000.2,-1.1284e-06,2736.7,-0.00018875,1327,6.4408e-05
28900,0.17647,5,0.1,0.00063075,6303.1,0.00060188,6285.3,-4.6531e-06,1728,-0.00035548,-907.92,0.00019241
28901,0.26471,4.9091,0.1,0.00059321,5928,0.00058677,6375.7,-9.0963e-06,1898.6,-0.00030796,-346.96,0.00041615
28902,0.088235,4.9091,0.1,0.00049525,4949.1,0.00054796,6772.9,-1.6241e-06,2643.5,-0.00018217,1287,6.2468e-05
28903,0.17647,5.1818,0.1,0.00059585,5954.3,0.00056897,5928.1,-7.6021e-06,1596,-0.00033469,-861.66,0.00018229
28904,0.26471,5.0909,0.1,0.00056691,5665.2,0.00056139,6081,-1.3701e-05,1760,-0.00029224,-332.82,0.00039755
28905,0.088235,5.0909,0.1,0.00047297,4726.5,0.00052346,6467.8,-2.5016e-06,2515.9,-0.00017338,1232,5.9802e-05
28906,0.17647,5.3636,0.1,0.00054932,5489.4,0.00052579,5453.8,-1.4119e-05,1397.1,-0.00030554,-792.53,0.00016795
28907,0.26471,5.2727,0.1,0.00053454,5341.7,0.00053049,5713.1,-2.207e-05,1561.4,-0.00027157,-313.25,0.00037202
28908,0.088235,5.2727,0.1,0.00044282,4425.2,0.00049018,6049.9,-4.1981e-06,2335.3,-0.00016143,1153.9,5.605e-05
28909,0.17647,5.5455,0.1,0.00048788,4875.4,0.00047012,4823.8,-2.9861e-05,1067.2,-0.00026315,-685.67,0.00014638
28910,0.26471,5.4545,0.1,0.00049627,4959.3,0.00049457,5264.1,-3.8657e-05,1257.6,-0.00024363,-282.51,0.00033568
28911,0.088235,5.4545,0.1,0.00040092,4006.4,0.00044373,5457.1,-8.2574e-06,2061,-0.00014435,1038.4,5.0495e-05
28912,0.17647,5.7273,0.1,0.00042217,4218.8,0.00041451,4137.4,-7.6674e-05,446.81,-0.00019757,-461.57,0.00011087
28913,0.26471,5.6364,0.1,0.00045725,4569.3,0.0004578,4748.3,-7.2224e-05,765.9,-0.00020614,-240.25,0.00028092
28914,0.088235,5.6364,0.1,0.00034228,3420.4,0.00037751,4577.3,-1.9367e-05,1595.3,-0.00011943,843.49,4.1667e-05
28915,0.26471,5.8182,0.1,0.00044281,4425.1,0.00044008,4350.6,-0.00013593,22.679,-0.00016098,-165.54,0.00019364
28916,0.088235,5.8182,0.1,0.00027,2698.2,0.00028714,3212.1,-5.8216e-05,617.22,-8.4303e-05,421.22,2.5618e-05
28917,0.17647,5.9091,0.1,0.00037724,3769.8,0.00037197,3617.4,-0.00012213,-95.098,-0.00013705,-207.17,5.0562e-05
28918,0.35294,0.27273,0.1,0.0004748,4744.7,0.0004814,4946.8,-0.00013443,319.66,-0.00016464,92.624,0.00043655
28919,0.44118,0.18182,0.1,0.00051058,5102.3,0.00050943,5071.6,-0.00015952,45.428,-0.00017934,-103.5,0.00059807
28920,0.35294,0.090909,0.1,0.00047596,4756.3,0.00047414,4706.3,-0.00014853,27.85,-0.00016877,-124.24,0.00027236
28921,0.35294,0.45455,0.1,0.0004685,4681.7,0.00048247,5190.2,-8.1326e-05,954.02,-0.00018653,163.53,0.00054594
28922,0.44118,0.36364,0.1,0.00048955,4892.1,0.00049767,5165.9,-0.00011871,534.74,-0.00018334,49.133,0.00078226
28923,0.35294,0.63636,0.1,0.0004846,4842.7,0.00050039,5531.8,-4.7727e-05,1413.5,-0.00020966,196.78,0.0006199
28924,0.44118,0.54545,0.1,0.0004927,4923.6,0.00050427,5403.3,-7.7024e-05,1035.6,-0.00020588,67.487,0.00091127
28925,0.35294,0.81818,0.1,0.00050795,5076,0.00052387,5873.2,-2.9126e-05,1718.2,-0.00022912,215.53,0.00067196
28926,0.44118,0.72727,0.1,0.0005079,5075.5,0.0005199,5683,-5.0005e-05,1401,-0.00022626,76.654,0.0010034
28927,0.35294,1,0.1,0.00053108,5307.2,0.00054694,6176.4,-1.8795e-05,1925.7,-0.00024473,228.1,0.00070992
28928,0.44118,0.90909,0.1,0.00052717,5268,0.00053877,5959.1,-3.3379e-05,1660.2,-0.00024335,82.503,0.0010709
28929,0.35294,1.1818,0.1,0.00055167,5512.9,0.00056752,6433.7,-1.2796e-05,2073.4,-0.00025722,236.96,0.00073826
28930,0.44118,1.0909,0.1,0.00054653,5461.5,0.00055769,6211.1,-2.3135e-05,1847,-0.00025744,86.531,0.0011216
28931,0.35294,1.3636,0.1,0.00056926,5688.7,0.00058515,6648.3,-9.0909e-06,2183.4,-0.0002673,243.33,0.00075969
28932,0.44118,1.2727,0.1,0.00056434,5639.5,0.00057518,6432.8,-1.6612e-05,1986.3,-0.00026908,89.406,0.0011602
28933,0.35294,1.5455,0.1,0.00058402,5836.2,0.00059997,6825.8,-6.6627e-06,2267.7,-0.00027548,247.94,0.00077597
28934,0.44118,1.4545,0.1,0.00058008,5796.8,0.0005907,6623.9,-1.2281e-05,2093.4,-0.00027871,91.491,0.0011898
28935,0.35294,1.7273,0.1,0.00059627,5958.6,0.00061228,6971.6,-4.9864e-06,2333.7,-0.00028214,251.26,0.00078834
28936,0.44118,1.6364,0.1,0.00059368,5932.7,0.00060415,6786.6,-9.2786e-06,2177.6,-0.00028672,93.002,0.0012126
28937,0.35294,1.9091,0.1,0.00060631,6058.9,0.00062237,7090.4,-3.7836e-06,2385.7,-0.00028755,253.62,0.00079766
28938,0.44118,1.8182,0.1,0.00060523,6048.1,0.0006156,6923.6,-7.1227e-06,2244.7,-0.00029335,94.088,0.00123
28939,0.35294,2.0909,0.1,0.00061442,6140,0.00063052,7185.8,-2.9035e-06,2426.5,-0.00029188,255.26,0.0008046
28940,0.44118,2,0.1,0.00061487,6144.4,0.00062518,7037.2,-5.5406e-06,2298.2,-0.00029879,94.854,0.0012433
28941,0.35294,2.2727,0.1,0.0006208,6203.8,0.00063693,7260.7,-2.2615e-06,2458,-0.00029528,256.38,0.00080968
28942,0.44118,2.1818,0.1,0.00062273,6223,0.00063299,7129.4,-4.3771e-06,2340.4,-0.00030318,95.382,0.0012532
28943,0.35294,2.4545,0.1,0.00062563,6252,0.00064178,7317.1,-1.8069e-06,2481.4,-0.00029784,257.11,0.00081328
28944,0.44118,2.3636,0.1,0.00062892,6284.9,0.00063915,7201.7,-3.539e-06,2372.8,-0.0003066,95.735,0.0012605
28945,0.35294,2.6364,0.1,0.000629,6285.7,0.00064517,7356.4,-1.506e-06,2497.6,-0.00029963,257.56,0.00081566
28946,0.44118,2.5455,0.1,0.00063351,6330.7,0.00064372,7255.2,-2.9642e-06,2396.3,-0.00030912,95.96,0.0012655
28947,0.35294,2.8182,0.1,0.000631,6305.7,0.00064717,7379.7,-1.3354e-06,2507,-0.00030069,257.8,0.00081702
28948,0.44118,2.7273,0.1,0.00063655,6361.1,0.00064675,7290.6,-2.6079e-06,2411.5,-0.00031078,96.092,0.0012687
28949,0.35294,3,0.1,0.00063166,6312.3,0.00064784,7387.4,-1.2802e-06,2510.1,-0.00030104,257.88,0.00081746
28950,0.44118,2.9091,0.1,0.00063807,6376.3,0.00064827,7308.2,-2.4383e-06,2419.1,-0.0003116,96.153,0.0012703
28951,0.35294,3.1818,0.1,0.000631,6305.7,0.00064717,7379.7,-1.3354e-06,2507,-0.00030069,257.8,0.00081702
28952,0.44118,3.0909,0.1,0.00063807,6376.3,0.00064827,7308.2,-2.4383e-06,2419.1,-0.0003116,96.153,0.0012703
28953,0.35294,3.3636,0.1,0.000629,6285.7,0.00064517,7356.4,-1.506e-06,2497.6,-0.00029963,257.56,0.00081566
28954,0.44118,3.2727,0.1,0.00063655,6361.1,0.00064675,7290.6,-2.6079e-06,2411.5,-0.00031078,96.092,0.0012687
28955,0.35294,3.5455,0.1,0.00062563,6252,0.00064178,7317.1,-1.8068e-06,2481.4,-0.00029784,257.11,0.00081328
28956,0.44118,3.4545,0.1,0.00063351,6330.7,0.00064372,7255.2,-2.9642e-06,2396.3,-0.00030912,95.96,0.0012655
28957,0.35294,3.7273,0.1,0.0006208,6203.8,0.00063693,7260.7,-2.2615e-06,2458,-0.00029528,256.38,0.00080968
28958,0.44118,3.6364,0.1,0.00062892,6284.8,0.00063915,7201.7,-3.5389e-06,2372.8,-0.0003066,95.735,0.0012605
28959,0.35294,3.9091,0.1,0.00061442,6140,0.00063052,7185.8,-2.9035e-06,2426.5,-0.00029188,255.26,0.0008046
28960,0.44118,3.8182,0.1,0.00062273,6223,0.00063299,7129.4,-4.3771e-06,2340.4,-0.00030318,95.382,0.0012532
28961,0.35294,4.0909,0.1,0.00060631,6058.9,0.00062237,7090.4,-3.7836e-06,2385.7,-0.00028755,253.62,0.00079766
28962,0.44118,4,0.1,0.00061487,6144.4,0.00062518,7037.2,-5.5406e-06,2298.2,-0.00029879,94.854,0.0012433
28963,0.35294,4.2727,0.1,0.00059627,5958.6,0.00061228,6971.6,-4.9864e-06,2333.7,-0.00028214,251.26,0.00078834
28964,0.44118,4.1818,0.1,0.00060523,6048.1,0.0006156,6923.6,-7.1227e-06,2244.7,-0.00029335,94.088,0.00123
28965,0.35294,4.4545,0.1,0.00058402,5836.2,0.00059997,6825.8,-6.6627e-06,2267.7,-0.00027548,247.94,0.00077597
28966,0.44118,4.3636,0.1,0.00059368,5932.7,0.00060415,6786.6,-9.2785e-06,2177.6,-0.00028672,93.002,0.0012126
28967,0.35294,4.6364,0.1,0.00056926,5688.7,0.00058515,6648.3,-9.0909e-06,2183.4,-0.0002673,243.33,0.00075969
28968,0.44118,4.5455,0.1,0.00058008,5796.8,0.0005907,6623.9,-1.228e-05,2093.4,-0.00027871,91.491,0.0011898
28969,0.35294,4.8182,0.1,0.00055167,5512.9,0.00056752,6433.7,-1.2796e-05,2073.4,-0.00025722,236.96,0.00073826
28970,0.44118,4.7273,0.1,0.00056434,5639.5,0.00057518,6432.8,-1.6612e-05,1986.3,-0.00026908,89.406,0.0011602
28971,0.35294,5,0.1,0.00053108,5307.2,0.00054694,6176.4,-1.8795e-05,1925.7,-0.00024473,228.1,0.00070992
28972,0.44118,4.9091,0.1,0.00054653,5461.5,0.00055769,6211.1,-2.3135e-05,1847,-0.00025744,86.531,0.0011216
28973,0.35294,5.1818,0.1,0.00050795,5076,0.00052387,5873.2,-2.9126e-05,1718.2,-0.00022912,215.53,0.00067196
28974,0.44118,5.0909,0.1,0.00052717,5268,0.00053877,5959.1,-3.3379e-05,1660.2,-0.00024335,82.503,0.0010709
28975,0.35294,5.3636,0.1,0.0004846,4842.7,0.00050039,5531.8,-4.7727e-05,1413.5,-0.00020966,196.78,0.0006199
28976,0.44118,5.2727,0.1,0.0005079,5075.5,0.0005199,5683,-5.0005e-05,1401,-0.00022626,76.654,0.0010034
28977,0.35294,5.5455,0.1,0.0004685,4681.7,0.00048247,5190.2,-8.1326e-05,954.02,-0.00018653,163.53,0.00054594
28978,0.44118,5.4545,0.1,0.0004927,4923.6,0.00050427,5403.3,-7.7024e-05,1035.6,-0.00020588,67.487,0.00091127
28979,0.35294,5.7273,0.1,0.0004748,4744.7,0.0004814,4946.8,-0.00013443,319.66,-0.00016464,92.624,0.00043655
28980,0.44118,5.6364,0.1,0.00048955,4892.1,0.00049767,5165.9,-0.00011871,534.74,-0.00018334,49.133,0.00078226
28981,0.44118,5.8182,0.1,0.00051058,5102.3,0.00050943,5071.6,-0.00015952,45.428,-0.00017934,-103.5,0.00059807
28982,0.35294,5.9091,0.1,0.00047596,4756.3,0.00047414,4706.3,-0.00014853,27.85,-0.00016877,-124.24,0.00027236
28983,0.52941,0.27273,0.1,0.00052365,5232.9,0.00052537,5288.3,-0.00015814,152.72,-0.00018335,-36.713,0.0010314
28984,0.61765,0.18182,0.1,0.00054285,5424.7,0.00054092,5370,-0.00017272,8.0404,-0.00018914,-115.37,0.0012859
28985,0.52941,0.090909,0.1,0.0005221,5217.4,0.00051987,5153.3,-0.0001674,-10.574,-0.00018144,-116.08,0.00075696
28986,0.52941,0.45455,0.1,0.00051242,5120.7,0.00051893,5374.9,-0.00011402,619.21,-0.00020251,-45.675,0.0012321
28987,0.61765,0.36364,0.1,0.00052295,5225.9,0.00052752,5378.2,-0.0001428,341.64,-0.00019074,-18.514,0.0015719
28988,0.52941,0.63636,0.1,0.00051541,5150.6,0.00052343,5551.9,-7.8985e-05,1025.5,-0.00022244,-52.38,0.0013789
28989,0.61765,0.54545,0.1,0.00051752,5171.7,0.00052562,5493.2,-0.00010577,749.22,-0.00020814,-19.981,0.0017874
28990,0.52941,0.81818,0.1,0.00052701,5266.5,0.00053476,5768.6,-5.4227e-05,1343.2,-0.00024048,-56.291,0.0014878
28991,0.61765,0.72727,0.1,0.0005217,5213.4,0.00053092,5660.7,-7.6419e-05,1097.3,-0.0002253,-21.282,0.0019504
28992,0.52941,1,0.1,0.00054269,5423.1,0.00054964,5994.7,-3.7838e-05,1580.7,-0.00025607,-59.041,0.0015703
28993,0.61765,0.90909,0.1,0.00053225,5318.8,0.00054131,5855.1,-5.522e-05,1373,-0.00024092,-22.23,0.0020751
28994,0.52941,1.1818,0.1,0.00055931,5589.3,0.0005655,6211.4,-2.7104e-05,1758.8,-0.0002693,-61.009,0.0016335
28995,0.61765,1.0909,0.1,0.00054594,5455.6,0.00055442,6056.4,-4.0468e-05,1586.6,-0.00025469,-22.959,0.0021717
28996,0.52941,1.3636,0.1,0.00057527,5748.7,0.00058086,6409.4,-1.9939e-05,1895.3,-0.00028049,-62.425,0.0016825
28997,0.61765,1.2727,0.1,0.0005606,5602.1,0.00056847,6251.5,-3.0235e-05,1753.1,-0.00026669,-23.486,0.0022472
28998,0.52941,1.5455,0.1,0.00058983,5894.2,0.00059498,6585.6,-1.5004e-05,2002.4,-0.00028995,-63.444,0.0017206
28999,0.61765,1.4545,0.1,0.00057496,5745.7,0.00058231,6433.3,-2.3023e-05,1885,-0.00027708,-23.866,0.0023065
29000,0.52941,1.7273,0.1,0.00060271,6023,0.00060756,6739.2,-1.1494e-05,2087.9,-0.00029792,-64.17,0.0017502
29001,0.61765,1.6364,0.1,0.00058835,5879.5,0.0005953,6598,-1.7823e-05,1991.3,-0.00028606,-24.133,0.0023531
29002,0.52941,1.9091,0.1,0.00061385,6134.2,0.00061847,6870.8,-8.9339e-06,2156.7,-0.00030459,-64.68,0.001773
29003,0.61765,1.8182,0.1,0.00060042,6000.1,0.00060705,6743.9,-1.3995e-05,2077.6,-0.00029375,-24.318,0.0023896
29004,0.52941,2.0909,0.1,0.00062323,6228,0.00062769,6981,-7.0491e-06,2211.8,-0.00031008,-65.029,0.0017905
29005,0.61765,2,0.1,0.00061098,6105.6,0.00061738,6870.2,-1.1148e-05,2147.7,-0.00030024,-24.443,0.0024179
29006,0.52941,2.2727,0.1,0.00063088,6304.5,0.00063523,7070.6,-5.6747e-06,2255,-0.00031449,-65.264,0.0018035
29007,0.61765,2.1818,0.1,0.00061993,6195,0.00062616,6976.4,-9.0439e-06,2203.8,-0.00030561,-24.526,0.0024396
29008,0.52941,2.4545,0.1,0.00063683,6363.9,0.00064111,7140,-4.7054e-06,2287.6,-0.00031787,-65.416,0.001813
29009,0.61765,2.3636,0.1,0.0006272,6267.6,0.00063331,7062.1,-7.5309e-06,2247.1,-0.00030988,-24.58,0.0024558
29010,0.52941,2.6364,0.1,0.00064109,6406.4,0.00064531,7189.4,-4.0677e-06,2310.3,-0.00032026,-65.509,0.0018194
29011,0.61765,2.5455,0.1,0.00063271,6322.8,0.00063875,7126.9,-6.4993e-06,2278.8,-0.00031307,-24.615,0.0024673
29012,0.52941,2.8182,0.1,0.00064364,6432,0.00064784,7219.1,-3.7079e-06,2323.6,-0.00032169,-65.559,0.0018231
29013,0.61765,2.7273,0.1,0.00063643,6359.9,0.00064242,7170.5,-5.8644e-06,2299.5,-0.00031519,-24.636,0.0024747
29014,0.52941,3,0.1,0.00064449,6440.5,0.00064869,7229,-3.592e-06,2328,-0.00032216,-65.575,0.0018243
29015,0.61765,2.9091,0.1,0.0006383,6378.6,0.00064427,7192.3,-5.564e-06,2309.7,-0.00031625,-24.645,0.0024782
29016,0.52941,3.1818,0.1,0.00064364,6432,0.00064784,7219.1,-3.7079e-06,2323.6,-0.00032169,-65.559,0.0018231
29017,0.61765,3.0909,0.1,0.0006383,6378.6,0.00064427,7192.3,-5.564e-06,2309.7,-0.00031625,-24.645,0.0024782
29018,0.52941,3.3636,0.1,0.00064109,6406.4,0.00064531,7189.4,-4.0676e-06,2310.3,-0.00032026,-65.509,0.0018194
29019,0.61765,3.2727,0.1,0.00063643,6359.9,0.00064242,7170.5,-5.8644e-06,2299.5,-0.00031519,-24.636,0.0024747
29020,0.52941,3.5455,0.1,0.00063683,6363.9,0.00064111,7140,-4.7054e-06,2287.6,-0.00031787,-65.416,0.001813
29021,0.61765,3.4545,0.1,0.00063271,6322.8,0.00063875,7126.9,-6.4993e-06,2278.8,-0.00031307,-24.615,0.0024673
29022,0.52941,3.7273,0.1,0.00063088,6304.5,0.00063523,7070.6,-5.6746e-06,2255,-0.00031449,-65.264,0.0018035
29023,0.61765,3.6364,0.1,0.0006272,6267.6,0.00063331,7062.1,-7.5309e-06,2247.1,-0.00030988,-24.58,0.0024558
29024,0.52941,3.9091,0.1,0.00062323,6228,0.00062769,6981,-7.0491e-06,2211.8,-0.00031008,-65.029,0.0017905
29025,0.61765,3.8182,0.1,0.00061993,6195,0.00062616,6976.4,-9.0439e-06,2203.8,-0.00030561,-24.526,0.0024396
29026,0.52941,4.0909,0.1,0.00061385,6134.2,0.00061847,6870.8,-8.9339e-06,2156.7,-0.00030459,-64.68,0.001773
29027,0.61765,4,0.1,0.00061098,6105.6,0.00061738,6870.2,-1.1148e-05,2147.7,-0.00030024,-24.443,0.0024179
29028,0.52941,4.2727,0.1,0.00060271,6023,0.00060756,6739.2,-1.1494e-05,2087.9,-0.00029792,-64.17,0.0017502
29029,0.61765,4.1818,0.1,0.00060042,6000.1,0.00060705,6743.9,-1.3995e-05,2077.6,-0.00029375,-24.318,0.0023896
29030,0.52941,4.4545,0.1,0.00058983,5894.2,0.00059498,6585.6,-1.5004e-05,2002.4,-0.00028995,-63.444,0.0017206
29031,0.61765,4.3636,0.1,0.00058835,5879.5,0.0005953,6598,-1.7823e-05,1991.3,-0.00028606,-24.133,0.0023531
29032,0.52941,4.6364,0.1,0.00057527,5748.7,0.00058086,6409.4,-1.9939e-05,1895.3,-0.00028049,-62.425,0.0016825
29033,0.61765,4.5455,0.1,0.00057496,5745.7,0.00058231,6433.3,-2.3023e-05,1885,-0.00027708,-23.866,0.0023065
29034,0.52941,4.8182,0.1,0.00055931,5589.3,0.0005655,6211.4,-2.7103e-05,1758.8,-0.0002693,-61.009,0.0016335
29035,0.61765,4.7273,0.1,0.0005606,5602.1,0.00056847,6251.5,-3.0235e-05,1753.1,-0.00026669,-23.486,0.0022472
29036,0.52941,5,0.1,0.00054269,5423.1,0.00054964,5994.7,-3.7838e-05,1580.7,-0.00025607,-59.041,0.0015703
29037,0.61765,4.9091,0.1,0.00054594,5455.6,0.00055442,6056.4,-4.0468e-05,1586.6,-0.00025469,-22.959,0.0021717
29038,0.52941,5.1818,0.1,0.00052701,5266.5,0.00053476,5768.6,-5.4227e-05,1343.2,-0.00024048,-56.291,0.0014878
29039,0.61765,5.0909,0.1,0.00053225,5318.8,0.00054131,5855.1,-5.522e-05,1373,-0.00024092,-22.23,0.0020751
29040,0.52941,5.3636,0.1,0.00051541,5150.6,0.00052343,5551.9,-7.8985e-05,1025.5,-0.00022244,-52.38,0.0013789
29041,0.61765,5.2727,0.1,0.0005217,5213.4,0.00053092,5660.7,-7.6419e-05,1097.3,-0.0002253,-21.282,0.0019504
29042,0.52941,5.5455,0.1,0.00051242,5120.7,0.00051893,5374.9,-0.00011402,619.21,-0.00020251,-45.675,0.0012321
29043,0.61765,5.4545,0.1,0.00051752,5171.7,0.00052562,5493.2,-0.00010577,749.22,-0.00020814,-19.981,0.0017874
29044,0.52941,5.7273,0.1,0.00052365,5232.9,0.00052537,5288.3,-0.00015814,152.72,-0.00018335,-36.713,0.0010314
29045,0.61765,5.6364,0.1,0.00052295,5225.9,0.00052752,5378.2,-0.0001428,341.64,-0.00019074,-18.514,0.0015719
29046,0.61765,5.8182,0.1,0.00054285,5424.7,0.00054092,5370,-0.00017272,8.0404,-0.00018914,-115.37,0.0012859
29047,0.52941,5.9091,0.1,0.0005221,5217.4,0.00051987,5153.3,-0.0001674,-10.574,-0.00018144,-116.08,0.00075696
29048,0.70588,0.27273,0.1,0.00054137,5410,0.00054299,5459.3,-0.00016954,105.59,-0.00018429,-5.2162,0.0019231
29049,0.79412,0.18182,0.1,0.00055375,5533.7,0.000552,5484.2,-0.00017627,12.233,-0.00019243,-109.2,0.0022812
29050,0.70588,0.090909,0.1,0.00054101,5406.4,0.00053936,5359.2,-0.00017377,0.98989,-0.00018642,-94.009,0.0015417
29051,0.70588,0.45455,0.1,0.00052742,5270.6,0.00053405,5495.2,-0.00013449,472.05,-0.00019626,7.9911,0.0022194
29052,0.79412,0.36364,0.1,0.00053566,5352.9,0.00053942,5471.6,-0.00015595,246.92,-0.00018893,-0.88443,0.0026675
29053,0.70588,0.63636,0.1,0.00052343,5230.7,0.00053288,5600.3,-0.00010299,822.6,-0.00021097,11.294,0.0024485
29054,0.79412,0.54545,0.1,0.00052768,5273.2,0.0005352,5540.1,-0.00012518,578.24,-0.00020177,2.7641,0.0029735
29055,0.70588,0.81818,0.1,0.00052686,5264.9,0.00053732,5746.1,-7.7271e-05,1128.3,-0.00022573,12.84,0.0026265
29056,0.79412,0.72727,0.1,0.00052659,5262.3,0.00053616,5652.7,-9.778e-05,889.53,-0.00021566,3.8096,0.0032155
29057,0.70588,1,0.1,0.0005356,5352.3,0.00054606,5916.6,-5.7824e-05,1379.2,-0.00023954,13.874,0.002766
29058,0.79412,0.90909,0.1,0.00053143,5310.7,0.00054172,5797.7,-7.554e-05,1159.8,-0.00022931,4.4939,0.0034077
29059,0.70588,1.1818,0.1,0.00054739,5470.2,0.00055744,6097,-4.3652e-05,1580.6,-0.00025208,14.572,0.0028761
29060,0.79412,1.0909,0.1,0.00054049,5401.2,0.00055074,5962.4,-5.8417e-05,1385.4,-0.00024215,4.9034,0.003561
29061,0.70588,1.3636,0.1,0.00056047,5600.8,0.00057,6276,-3.3405e-05,1742.3,-0.00026328,15.076,0.0029634
29062,0.79412,1.2727,0.1,0.00055202,5516.4,0.00056189,6135.3,-4.5531e-05,1571.4,-0.00025398,5.1909,0.003684
29063,0.70588,1.5455,0.1,0.00057364,5732.4,0.00058271,6446.4,-2.593e-05,1873.3,-0.00027319,15.446,0.0030329
29064,0.79412,1.4545,0.1,0.00056462,5642.4,0.00057404,6307.4,-3.5863e-05,1724.9,-0.00026471,5.3984,0.0037829
29065,0.70588,1.7273,0.1,0.00058618,5857.8,0.00059487,6603.3,-2.04e-05,1980.4,-0.00028189,15.72,0.003088
29066,0.79412,1.6364,0.1,0.00057734,5769.4,0.00058632,6472.3,-2.856e-05,1852.3,-0.00027434,5.5543,0.0038623
29067,0.70588,1.9091,0.1,0.00059765,5972.4,0.00060603,6743.8,-1.6266e-05,2068.2,-0.0002894,15.919,0.0031314
29068,0.79412,1.8182,0.1,0.0005895,5891,0.00059811,6625,-2.3007e-05,1958.2,-0.00028287,5.6713,0.0039257
29069,0.70588,2.0909,0.1,0.00060775,6073.3,0.00061589,6866,-1.3181e-05,2139.3,-0.00029577,16.061,0.0031652
29070,0.79412,2,0.1,0.00060065,6002.4,0.00060894,6762.2,-1.8794e-05,2045.6,-0.00029028,5.7573,0.003976
29071,0.70588,2.2727,0.1,0.00061629,6158.6,0.00062426,6968.1,-1.0922e-05,2195.7,-0.000301,16.158,0.0031911
29072,0.79412,2.1818,0.1,0.00061044,6100.2,0.0006185,6881,-1.5652e-05,2116.2,-0.00029653,5.8174,0.0040151
29073,0.70588,2.4545,0.1,0.0006231,6226.7,0.00063095,7049.2,-9.3323e-06,2238.3,-0.00030508,16.221,0.0032102
29074,0.79412,2.3636,0.1,0.00061862,6182,0.00062651,6979.2,-1.3391e-05,2171.3,-0.00030159,5.8564,0.0040449
29075,0.70588,2.6364,0.1,0.00062807,6276.4,0.00063585,7107.9,-8.2927e-06,2268.1,-0.000308,16.259,0.0032232
29076,0.79412,2.5455,0.1,0.00062498,6245.5,0.00063275,7054.9,-1.186e-05,2211.5,-0.00030541,5.8791,0.0040663
29077,0.70588,2.8182,0.1,0.0006311,6306.6,0.00063883,7143.6,-7.7103e-06,2285.7,-0.00030975,16.279,0.0032309
29078,0.79412,2.7273,0.1,0.00062932,6288.9,0.00063703,7106.3,-1.0927e-05,2237.8,-0.00030798,5.8905,0.0040802
29079,0.70588,3,0.1,0.00063212,6316.8,0.00063984,7155.5,-7.5234e-06,2291.5,-0.00031034,16.285,0.0032334
29080,0.79412,2.9091,0.1,0.00063153,6310.9,0.00063921,7132.4,-1.049e-05,2250.8,-0.00030927,5.895,0.004087
29081,0.70588,3.1818,0.1,0.0006311,6306.6,0.00063883,7143.6,-7.7103e-06,2285.7,-0.00030975,16.279,0.0032309
29082,0.79412,3.0909,0.1,0.00063153,6310.9,0.00063921,7132.4,-1.049e-05,2250.8,-0.00030927,5.895,0.004087
29083,0.70588,3.3636,0.1,0.00062807,6276.4,0.00063585,7107.9,-8.2926e-06,2268.1,-0.000308,16.259,0.0032232
29084,0.79412,3.2727,0.1,0.00062932,6288.9,0.00063703,7106.3,-1.0927e-05,2237.8,-0.00030798,5.8905,0.0040802
29085,0.70588,3.5455,0.1,0.0006231,6226.7,0.00063095,7049.2,-9.3323e-06,2238.3,-0.00030508,16.221,0.0032102
29086,0.79412,3.4545,0.1,0.00062498,6245.5,0.00063275,7054.9,-1.186e-05,2211.5,-0.00030541,5.8791,0.0040663
29087,0.70588,3.7273,0.1,0.00061629,6158.6,0.00062426,6968.1,-1.0922e-05,2195.7,-0.000301,16.158,0.0031911
29088,0.79412,3.6364,0.1,0.00061862,6182,0.00062651,6979.2,-1.3391e-05,2171.3,-0.00030159,5.8564,0.0040449
29089,0.70588,3.9091,0.1,0.00060775,6073.3,0.00061589,6866,-1.3181e-05,2139.3,-0.00029577,16.061,0.0031652
29090,0.79412,3.8182,0.1,0.00061044,6100.2,0.0006185,6881,-1.5652e-05,2116.2,-0.00029653,5.8174,0.0040151
29091,0.70588,4.0909,0.1,0.00059765,5972.4,0.00060603,6743.8,-1.6266e-05,2068.2,-0.0002894,15.919,0.0031314
29092,0.79412,4,0.1,0.00060065,6002.4,0.00060894,6762.2,-1.8794e-05,2045.6,-0.00029028,5.7573,0.003976
29093,0.70588,4.2727,0.1,0.00058618,5857.8,0.00059487,6603.3,-2.04e-05,1980.4,-0.00028189,15.72,0.003088
29094,0.79412,4.1818,0.1,0.0005895,5891,0.00059811,6625,-2.3007e-05,1958.2,-0.00028287,5.6713,0.0039257
29095,0.70588,4.4545,0.1,0.00057364,5732.4,0.00058271,6446.4,-2.593e-05,1873.3,-0.00027319,15.446,0.0030329
29096,0.79412,4.3636,0.1,0.00057734,5769.4,0.00058632,6472.3,-2.856e-05,1852.3,-0.00027434,5.5543,0.0038623
29097,0.70588,4.6364,0.1,0.00056047,5600.8,0.00057,6276,-3.3405e-05,1742.3,-0.00026328,15.076,0.0029634
29098,0.79412,4.5455,0.1,0.00056462,5642.4,0.00057404,6307.4,-3.5863e-05,1724.9,-0.00026471,5.3984,0.0037829
29099,0.70588,4.8182,0.1,0.00054739,5470.2,0.00055744,6096.9,-4.3652e-05,1580.6,-0.00025208,14.572,0.0028761
29100,0.79412,4.7273,0.1,0.00055202,5516.4,0.00056189,6135.3,-4.5531e-05,1571.4,-0.00025398,5.1909,0.003684
29101,0.70588,5,0.1,0.0005356,5352.3,0.00054606,5916.6,-5.7824e-05,1379.2,-0.00023954,13.874,0.002766
29102,0.79412,4.9091,0.1,0.00054049,5401.2,0.00055074,5962.4,-5.8417e-05,1385.4,-0.00024215,4.9034,0.003561
29103,0.70588,5.1818,0.1,0.00052686,5264.9,0.00053732,5746.1,-7.7271e-05,1128.3,-0.00022573,12.84,0.0026265
29104,0.79412,5.0909,0.1,0.00053143,5310.7,0.00054172,5797.7,-7.554e-05,1159.8,-0.00022931,4.4939,0.0034077
29105,0.70588,5.3636,0.1,0.00052343,5230.7,0.00053288,5600.3,-0.00010299,822.6,-0.00021097,11.294,0.0024485
29106,0.79412,5.2727,0.1,0.00052659,5262.3,0.00053616,5652.7,-9.778e-05,889.53,-0.00021566,3.8096,0.0032155
29107,0.70588,5.5455,0.1,0.00052742,5270.6,0.00053405,5495.2,-0.00013449,472.05,-0.00019626,7.9911,0.0022194
29108,0.79412,5.4545,0.1,0.00052768,5273.2,0.0005352,5540.1,-0.00012518,578.24,-0.00020177,2.7641,0.0029735
29109,0.70588,5.7273,0.1,0.00054137,5410,0.00054299,5459.3,-0.00016954,105.59,-0.00018429,-5.2162,0.0019231
29110,0.79412,5.6364,0.1,0.00053566,5352.9,0.00053942,5471.6,-0.00015595,246.92,-0.00018893,-0.88443,0.0026675
29111,0.79412,5.8182,0.1,0.00055375,5533.7,0.000552,5484.2,-0.00017627,12.233,-0.00019243,-109.2,0.0022812
29112,0.70588,5.9091,0.1,0.00054101,5406.4,0.00053936,5359.2,-0.00017377,0.98989,-0.00018642,-94.009,0.0015417
29113,0.88235,0.27273,0.1,0.00054762,5472.4,0.00054841,5496.4,-0.00017458,64.165,-0.00018517,-15.385,0.0031269
29114,0.97059,0.18182,0.1,0.00055326,5528.8,0.00055144,5477.1,-0.00017646,7.9671,-0.00019209,-109.48,0.0035946
29115,0.88235,0.090909,0.1,0.00054589,5455.2,0.00054436,5411,-0.00017608,-2.0638,-0.00018715,-85.269,0.0026438
29116,0.88235,0.45455,0.1,0.00053553,5351.6,0.00054054,5516.2,-0.00014672,352.44,-0.00019432,-5.214,0.0035184
29117,0.97059,0.36364,0.1,0.00053853,5381.6,0.00054119,5464.1,-0.00016274,175.07,-0.00018676,-5.4253,0.004078
29118,0.88235,0.63636,0.1,0.00053048,5301.1,0.00053838,5591.7,-0.00011988,645.79,-0.00020643,-4.5497,0.003834
29119,0.97059,0.54545,0.1,0.00053151,5311.5,0.0005376,5517.9,-0.00013769,444.06,-0.00019717,-2.8825,0.0044751
29120,0.88235,0.81818,0.1,0.00053094,5305.7,0.00054044,5703.4,-9.594e-05,921.92,-0.00021924,-4.4752,0.0040883
29121,0.97059,0.72727,0.1,0.00052939,5290.2,0.00053783,5609.2,-0.00011377,713.29,-0.00020903,-2.4462,0.0048003
29122,0.88235,1,0.1,0.00053624,5358.7,0.00054632,5842.9,-7.6062e-05,1166.6,-0.00023192,-4.4509,0.0042939
29123,0.97059,0.90909,0.1,0.00053209,5317.2,0.00054182,5731.9,-9.2738e-05,964.06,-0.00022134,-2.2003,0.0050667
29124,0.88235,1.1818,0.1,0.00054513,5447.5,0.00055517,6000.6,-6.0281e-05,1376.3,-0.00024405,-4.4663,0.0044606
29125,0.97059,1.0909,0.1,0.00053889,5385.2,0.0005491,5878.4,-7.5226e-05,1187.4,-0.00023354,-2.0939,0.0052854
29126,0.88235,1.3636,0.1,0.00055624,5558.5,0.00056595,6166.9,-4.8017e-05,1553.8,-0.00025541,-4.4817,0.0045961
29127,0.97059,1.2727,0.1,0.00054867,5482.9,0.00055887,6040.3,-6.1091e-05,1382.1,-0.00024531,-2.0306,0.0054651
29128,0.88235,1.5455,0.1,0.00056841,5680.1,0.0005777,6333.7,-3.8541e-05,1703.5,-0.00026586,-4.491,0.0047061
29129,0.97059,1.4545,0.1,0.00056027,5598.9,0.00057022,6209.2,-4.9836e-05,1550.4,-0.00025644,-1.9897,0.0056128
29130,0.88235,1.7273,0.1,0.00058074,5803.4,0.00058961,6494.4,-3.122e-05,1829.7,-0.00027533,-4.4925,0.0047952
29131,0.97059,1.6364,0.1,0.00057271,5723.1,0.0005823,6377.8,-4.0913e-05,1695.2,-0.00026679,-1.9569,0.0057338
29132,0.88235,1.9091,0.1,0.00059257,5921.6,0.00060107,6643.7,-2.5579e-05,1935.3,-0.00028375,-4.4894,0.0048668
29133,0.97059,1.8182,0.1,0.00058517,5847.7,0.0005944,6539.5,-3.3877e-05,1818.9,-0.00027621,-1.9293,0.0058324
29134,0.88235,2.0909,0.1,0.00060339,6029.7,0.00061158,6777.5,-2.1295e-05,2022.3,-0.00029104,-4.4854,0.0049237
29135,0.97059,2,0.1,0.00059703,5966.2,0.00060594,6689.1,-2.8409e-05,1922.9,-0.00028458,-1.9075,0.005912
29136,0.88235,2.2727,0.1,0.00061281,6123.9,0.00062077,6892.2,-1.8135e-05,2091.7,-0.00029712,-4.4837,0.0049679
29137,0.97059,2.1818,0.1,0.00060778,6073.6,0.00061641,6821.8,-2.4285e-05,2007.9,-0.00029177,-1.8935,0.0059751
29138,0.88235,2.4545,0.1,0.00062051,6200.8,0.00062831,6984.9,-1.5917e-05,2144.5,-0.00030193,-4.4853,0.0050009
29139,0.97059,2.3636,0.1,0.00061697,6165.4,0.0006254,6933.7,-2.1321e-05,2074.4,-0.00029766,-1.8883,0.0060237
29140,0.88235,2.6364,0.1,0.00062622,6257.9,0.00063392,7053.2,-1.4478e-05,2181.4,-0.0003054,-4.4893,0.0050238
29141,0.97059,2.5455,0.1,0.00062424,6238.1,0.00063254,7021,-1.9335e-05,2123.1,-0.00030215,-1.89,0.0060591
29142,0.88235,2.8182,0.1,0.00062974,6293,0.00063738,7094.9,-1.3681e-05,2203.1,-0.0003075,-4.4932,0.0050373
29143,0.97059,2.7273,0.1,0.00062928,6288.4,0.0006375,7081.1,-1.8144e-05,2154.8,-0.00030519,-1.8949,0.0060823
29144,0.88235,3,0.1,0.00063093,6304.9,0.00063855,7109,-1.3427e-05,2210.3,-0.0003082,-4.4948,0.0050418
29145,0.97059,2.9091,0.1,0.00063186,6314.2,0.00064005,7111.7,-1.7595e-05,2170.4,-0.00030671,-1.8988,0.0060938
29146,0.88235,3.1818,0.1,0.00062974,6293,0.00063738,7094.9,-1.3681e-05,2203.1,-0.0003075,-4.4932,0.0050373
29147,0.97059,3.0909,0.1,0.00063186,6314.2,0.00064005,7111.7,-1.7595e-05,2170.4,-0.00030671,-1.8988,0.0060938
29148,0.88235,3.3636,0.1,0.00062622,6257.9,0.00063392,7053.2,-1.4478e-05,2181.4,-0.0003054,-4.4893,0.0050238
29149,0.97059,3.2727,0.1,0.00062928,6288.4,0.0006375,7081.1,-1.8144e-05,2154.8,-0.00030519,-1.8949,0.0060823
29150,0.88235,3.5455,0.1,0.00062051,6200.8,0.00062831,6984.9,-1.5917e-05,2144.5,-0.00030193,-4.4853,0.0050009
29151,0.97059,3.4545,0.1,0.00062424,6238.1,0.00063254,7021,-1.9335e-05,2123.1,-0.00030215,-1.89,0.0060591
29152,0.88235,3.7273,0.1,0.00061281,6123.9,0.00062077,6892.2,-1.8135e-05,2091.7,-0.00029712,-4.4837,0.0049679
29153,0.97059,3.6364,0.1,0.00061697,6165.4,0.0006254,6933.7,-2.1321e-05,2074.4,-0.00029766,-1.8883,0.0060237
29154,0.88235,3.9091,0.1,0.00060339,6029.7,0.00061158,6777.5,-2.1295e-05,2022.3,-0.00029104,-4.4854,0.0049237
29155,0.97059,3.8182,0.1,0.00060778,6073.6,0.00061641,6821.8,-2.4285e-05,2007.9,-0.00029177,-1.8935,0.0059751
29156,0.88235,4.0909,0.1,0.00059257,5921.6,0.00060107,6643.7,-2.5579e-05,1935.3,-0.00028375,-4.4894,0.0048668
29157,0.97059,4,0.1,0.00059703,5966.2,0.00060594,6689.1,-2.8409e-05,1922.9,-0.00028458,-1.9075,0.005912
29158,0.88235,4.2727,0.1,0.00058074,5803.4,0.00058961,6494.4,-3.122e-05,1829.7,-0.00027533,-4.4925,0.0047952
29159,0.97059,4.1818,0.1,0.00058517,5847.7,0.0005944,6539.5,-3.3877e-05,1818.9,-0.00027621,-1.9293,0.0058324
29160,0.88235,4.4545,0.1,0.00056841,5680.1,0.0005777,6333.7,-3.8541e-05,1703.5,-0.00026586,-4.491,0.0047061
29161,0.97059,4.3636,0.1,0.00057271,5723.1,0.0005823,6377.8,-4.0913e-05,1695.2,-0.00026679,-1.9569,0.0057338
29162,0.88235,4.6364,0.1,0.00055624,5558.5,0.00056595,6166.9,-4.8017e-05,1553.8,-0.00025541,-4.4817,0.0045961
29163,0.97059,4.5455,0.1,0.00056027,5598.9,0.00057022,6209.2,-4.9836e-05,1550.4,-0.00025644,-1.9897,0.0056128
29164,0.88235,4.8182,0.1,0.00054513,5447.5,0.00055517,6000.6,-6.0281e-05,1376.3,-0.00024405,-4.4663,0.0044606
29165,0.97059,4.7273,0.1,0.00054867,5482.9,0.00055887,6040.3,-6.1091e-05,1382.1,-0.00024531,-2.0306,0.0054651
29166,0.88235,5,0.1,0.00053624,5358.7,0.00054632,5842.9,-7.6062e-05,1166.6,-0.00023192,-4.4509,0.0042939
29167,0.97059,4.9091,0.1,0.00053889,5385.2,0.0005491,5878.4,-7.5226e-05,1187.4,-0.00023354,-2.0939,0.0052854
29168,0.88235,5.1818,0.1,0.00053094,5305.7,0.00054044,5703.4,-9.594e-05,921.92,-0.00021924,-4.4752,0.0040883
29169,0.97059,5.0909,0.1,0.00053209,5317.2,0.00054182,5731.9,-9.2737e-05,964.06,-0.00022134,-2.2003,0.0050667
29170,0.88235,5.3636,0.1,0.00053048,5301.1,0.00053838,5591.7,-0.00011988,645.79,-0.00020643,-4.5497,0.003834
29171,0.97059,5.2727,0.1,0.00052939,5290.2,0.00053783,5609.2,-0.00011377,713.29,-0.00020903,-2.4462,0.0048003
29172,0.88235,5.5455,0.1,0.00053553,5351.6,0.00054054,5516.2,-0.00014672,352.44,-0.00019432,-5.214,0.0035184
29173,0.97059,5.4545,0.1,0.00053151,5311.5,0.0005376,5517.9,-0.00013769,444.06,-0.00019717,-2.8825,0.0044751
29174,0.88235,5.7273,0.1,0.00054762,5472.4,0.00054841,5496.4,-0.00017458,64.165,-0.00018517,-15.385,0.0031269
29175,0.97059,5.6364,0.1,0.00053853,5381.6,0.00054119,5464.1,-0.00016274,175.07,-0.00018676,-5.4253,0.004078
29176,0.97059,5.8182,0.1,0.00055326,5528.8,0.00055144,5477.1,-0.00017646,7.9671,-0.00019209,-109.48,0.0035946
29177,0.88235,5.9091,0.1,0.00054589,5455.2,0.00054436,5411,-0.00017608,-2.0638,-0.00018715,-85.269,0.0026438
29178,1.0588,0.27273,0.1,0.00054391,5435.3,0.00054421,5444.8,-0.00017533,38.429,-0.00018297,-19.02,0.0046487
29179,1.1471,0.18182,0.1,0.00054421,5438.4,0.00054231,5384.4,-0.0001734,6.8159,-0.00018932,-112.75,0.0052286
29180,1.0588,0.090909,0.1,0.0005407,5403.3,0.00053928,5362.3,-0.00017454,-1.0905,-0.00018505,-80.062,0.0040691
29181,1.0588,0.45455,0.1,0.00053427,5339,0.00053825,5465.8,-0.00015384,265.71,-0.00018948,-2.0964,0.0051336
29182,1.1471,0.36364,0.1,0.00053278,5324.1,0.00053462,5380.4,-0.00016547,120.19,-0.00018218,-5.3112,0.0058055
29183,1.0588,0.63636,0.1,0.00053019,5298.2,0.00053702,5535.2,-0.00013156,511.66,-0.00019974,-0.62093,0.0055371
29184,1.1471,0.54545,0.1,0.00052791,5275.5,0.00053283,5436.3,-0.00014544,340,-0.00019092,-1.7271,0.0062932
29185,1.0588,0.81818,0.1,0.00053037,5300,0.00053916,5637.3,-0.00011053,755.75,-0.00021113,-0.11892,0.0058724
29186,1.1471,0.72727,0.1,0.00052688,5265.2,0.00053424,5526.5,-0.00012541,570.25,-0.00020143,-0.99239,0.0067042
29187,1.0588,1,0.1,0.00053466,5342.9,0.00054456,5767,-9.1863e-05,985.18,-0.00022296,0.17835,0.006151
29188,1.1471,0.90909,0.1,0.00052981,5294.5,0.00053883,5647.1,-0.00010678,796.24,-0.00021284,-0.58987,0.0070501
29189,1.0588,1.1818,0.1,0.00054243,5420.6,0.00055279,5918,-7.6025e-05,1193.3,-0.0002348,0.35151,0.0063826
29190,1.1471,1.0909,0.1,0.00053642,5360.5,0.0005464,5793,-9.0338e-05,1008.8,-0.00022465,-0.37757,0.0073413
29191,1.0588,1.3636,0.1,0.00055275,5523.7,0.00056316,6082.8,-6.2927e-05,1378.6,-0.00024635,0.4661,0.0065752
29192,1.1471,1.2727,0.1,0.00054603,5456.5,0.00055644,5957.8,-7.626e-05,1203.9,-0.00023652,-0.24453,0.0075861
29193,1.0588,1.5455,0.1,0.00056465,5642.6,0.00057486,6253.6,-5.2243e-05,1541.8,-0.00025737,0.54696,0.0067349
29194,1.1471,1.4545,0.1,0.00055774,5573.6,0.00056824,6134,-6.4412e-05,1380.5,-0.00024816,-0.15748,0.0077917
29195,1.0588,1.7273,0.1,0.00057722,5768.2,0.00058714,6423.3,-4.3612e-05,1684.1,-0.00026767,0.60803,0.0068668
29196,1.1471,1.6364,0.1,0.00057067,5702.8,0.00058104,6314.1,-5.455e-05,1538.5,-0.00025932,-0.094116,0.0079635
29197,1.0588,1.9091,0.1,0.00058971,5893,0.00059931,6585.2,-3.6743e-05,1806.2,-0.00027704,0.65409,0.0069747
29198,1.1471,1.8182,0.1,0.00058399,5835.9,0.00059414,6491,-4.6462e-05,1677.7,-0.00026976,-0.0458,0.0081061
29199,1.0588,2.0909,0.1,0.00060147,6010.6,0.00061078,6733.6,-3.1422e-05,1908.3,-0.00028531,0.68584,0.0070619
29200,1.1471,2,0.1,0.00059699,5965.8,0.00060689,6657.8,-4.001e-05,1797.2,-0.00027921,-0.010841,0.0082231
29201,1.0588,2.2727,0.1,0.00061197,6115.5,0.00062104,6863.3,-2.7474e-05,1990.6,-0.00029231,0.7032,0.0071307
29202,1.1471,2.1818,0.1,0.00060903,6086.1,0.0006187,6808.4,-3.5094e-05,1896.1,-0.00028745,0.0094118,0.0083174
29203,1.0588,2.4545,0.1,0.00062071,6202.8,0.00062962,6969.6,-2.472e-05,2053.2,-0.00029789,0.70815,0.0071828
29204,1.1471,2.3636,0.1,0.00061951,6190.9,0.00062901,6937.1,-3.1582e-05,1973.6,-0.00029426,0.01471,0.0083911
29205,1.0588,2.6364,0.1,0.00062729,6268.5,0.00063609,7048.7,-2.2963e-05,2096.8,-0.00030194,0.70525,0.0072194
29206,1.1471,2.5455,0.1,0.00062793,6275,0.00063732,7038.7,-2.9279e-05,2030.2,-0.00029948,0.0083776,0.0084454
29207,1.0588,2.8182,0.1,0.00063138,6309.4,0.00064013,7097.5,-2.2007e-05,2122.5,-0.0003044,0.70025,0.0072411
29208,1.1471,2.7273,0.1,0.00063382,6333.9,0.00064315,7109.1,-2.7942e-05,2066.8,-0.00030301,-0.00246,0.0084813
29209,1.0588,3,0.1,0.00063276,6323.3,0.0006415,7114,-2.1706e-05,2130.9,-0.00030522,0.69796,0.0072484
29210,1.1471,2.9091,0.1,0.00063686,6364.2,0.00064616,7145.1,-2.7342e-05,2084.6,-0.00030479,-0.010229,0.0084992
29211,1.0588,3.1818,0.1,0.00063138,6309.4,0.00064013,7097.5,-2.2007e-05,2122.5,-0.0003044,0.70025,0.0072411
29212,1.1471,3.0909,0.1,0.00063686,6364.2,0.00064616,7145.1,-2.7342e-05,2084.6,-0.00030479,-0.010229,0.0084992
29213,1.0588,3.3636,0.1,0.00062729,6268.5,0.00063609,7048.7,-2.2963e-05,2096.8,-0.00030194,0.70525,0.0072194
29214,1.1471,3.2727,0.1,0.00063382,6333.9,0.00064315,7109.1,-2.7942e-05,2066.8,-0.00030301,-0.0024598,0.0084813
29215,1.0588,3.5455,0.1,0.00062071,6202.8,0.00062962,6969.6,-2.472e-05,2053.2,-0.00029789,0.70816,0.0071828
29216,1.1471,3.4545,0.1,0.00062793,6275,0.00063732,7038.7,-2.9279e-05,2030.2,-0.00029948,0.0083779,0.0084454
29217,1.0588,3.7273,0.1,0.00061197,6115.5,0.00062104,6863.3,-2.7474e-05,1990.6,-0.00029231,0.7032,0.0071307
29218,1.1471,3.6364,0.1,0.00061951,6190.9,0.00062901,6937.1,-3.1582e-05,1973.6,-0.00029426,0.01471,0.0083911
29219,1.0588,3.9091,0.1,0.00060147,6010.6,0.00061078,6733.6,-3.1422e-05,1908.3,-0.00028531,0.68584,0.0070619
29220,1.1471,3.8182,0.1,0.00060903,6086.1,0.0006187,6808.4,-3.5094e-05,1896.1,-0.00028745,0.0094122,0.0083174
29221,1.0588,4.0909,0.1,0.00058971,5893,0.00059931,6585.2,-3.6743e-05,1806.2,-0.00027704,0.65409,0.0069747
29222,1.1471,4,0.1,0.00059699,5965.8,0.00060689,6657.8,-4.001e-05,1797.2,-0.00027921,-0.010841,0.0082231
29223,1.0588,4.2727,0.1,0.00057722,5768.2,0.00058714,6423.3,-4.3612e-05,1684.1,-0.00026767,0.60803,0.0068668
29224,1.1471,4.1818,0.1,0.00058399,5835.9,0.00059414,6491,-4.6462e-05,1677.7,-0.00026976,-0.0458,0.0081061
29225,1.0588,4.4545,0.1,0.00056465,5642.6,0.00057486,6253.6,-5.2243e-05,1541.8,-0.00025737,0.54696,0.0067349
29226,1.1471,4.3636,0.1,0.00057067,5702.8,0.00058104,6314.1,-5.455e-05,1538.5,-0.00025932,-0.094115,0.0079635
29227,1.0588,4.6364,0.1,0.00055275,5523.7,0.00056316,6082.8,-6.2927e-05,1378.6,-0.00024635,0.4661,0.0065752
29228,1.1471,4.5455,0.1,0.00055774,5573.6,0.00056824,6134,-6.4412e-05,1380.5,-0.00024816,-0.15748,0.0077917
29229,1.0588,4.8182,0.1,0.00054243,5420.6,0.00055279,5918,-7.6025e-05,1193.3,-0.0002348,0.35151,0.0063826
29230,1.1471,4.7273,0.1,0.00054603,5456.5,0.00055644,5957.8,-7.626e-05,1203.9,-0.00023652,-0.24453,0.0075861
29231,1.0588,5,0.1,0.00053466,5342.9,0.00054456,5767,-9.1863e-05,985.18,-0.00022296,0.17835,0.006151
29232,1.1471,4.9091,0.1,0.00053642,5360.5,0.0005464,5793,-9.0338e-05,1008.8,-0.00022465,-0.37756,0.0073413
29233,1.0588,5.1818,0.1,0.00053037,5300,0.00053916,5637.3,-0.00011053,755.75,-0.00021113,-0.11892,0.0058724
29234,1.1471,5.0909,0.1,0.00052981,5294.5,0.00053883,5647.1,-0.00010678,796.24,-0.00021284,-0.58987,0.0070501
29235,1.0588,5.3636,0.1,0.00053019,5298.2,0.00053702,5535.2,-0.00013156,511.66,-0.00019974,-0.62093,0.0055371
29236,1.1471,5.2727,0.1,0.00052688,5265.2,0.00053424,5526.5,-0.00012541,570.25,-0.00020143,-0.99239,0.0067042
29237,1.0588,5.5455,0.1,0.00053427,5339,0.00053825,5465.8,-0.00015384,265.71,-0.00018948,-2.0964,0.0051336
29238,1.1471,5.4545,0.1,0.00052791,5275.5,0.00053283,5436.3,-0.00014544,340,-0.00019092,-1.7271,0.0062932
29239,1.0588,5.7273,0.1,0.00054391,5435.3,0.00054421,5444.8,-0.00017533,38.429,-0.00018297,-19.02,0.0046487
29240,1.1471,5.6364,0.1,0.00053278,5324.1,0.00053462,5380.4,-0.00016547,120.19,-0.00018218,-5.3112,0.0058055
29241,1.1471,5.8182,0.1,0.00054421,5438.4,0.00054231,5384.4,-0.0001734,6.8159,-0.00018932,-112.75,0.0052286
29242,1.0588,5.9091,0.1,0.0005407,5403.3,0.00053928,5362.3,-0.00017454,-1.0905,-0.00018505,-80.062,0.0040691
29243,1.2353,0.27273,0.1,0.00053291,5325.4,0.00053271,5320,-0.00017258,20.7,-0.00017948,-31.094,0.006488
29244,1.3235,0.18182,0.1,0.00052824,5278.7,0.00052618,5220.4,-0.00016788,5.494,-0.00018457,-119.9,0.0071796
29245,1.2353,0.090909,0.1,0.0005278,5274.3,0.00052639,5233.7,-0.00017033,-1.2016,-0.00018072,-79.249,0.0058165
29246,1.2353,0.45455,0.1,0.00052626,5258.9,0.0005292,5350.9,-0.00015726,193.09,-0.00018343,-3.5493,0.0070642
29247,1.3235,0.36364,0.1,0.0005201,5197.4,0.00052118,5230.1,-0.00016501,74.278,-0.00017597,-8.0661,0.0078469
29248,1.2353,0.63636,0.1,0.00052446,5240.9,0.00053005,5427.7,-0.00013931,398.41,-0.00019259,-1.9254,0.0075565
29249,1.3235,0.54545,0.1,0.00051812,5177.6,0.0005219,5297.7,-0.0001496,252.36,-0.00018355,-2.6755,0.0084247
29250,1.2353,0.81818,0.1,0.00052622,5258.6,0.00053391,5536.4,-0.00012167,610.67,-0.00020314,-1.4135,0.0079763
29251,1.3235,0.72727,0.1,0.00051958,5192.2,0.0005257,5400.2,-0.00013356,446.84,-0.00019326,-1.7159,0.0089236
29252,1.2353,1,0.1,0.00053153,5311.7,0.00054068,5673.2,-0.00010527,819.79,-0.00021453,-1.1274,0.0083339
29253,1.3235,0.90909,0.1,0.00052454,5241.7,0.00053249,5533.9,-0.00011809,645.7,-0.00020419,-1.2402,0.0093539
29254,1.2353,1.1818,0.1,0.00054003,5396.6,0.00055007,5832.9,-9.0598e-05,1019.2,-0.00022637,-0.96605,0.0086383
29255,1.3235,1.0909,0.1,0.00053282,5324.6,0.0005421,5694.6,-0.0001038,841.59,-0.00021594,-0.98755,0.0097245
29256,1.2353,1.3636,0.1,0.00055107,5506.9,0.00056156,6009.2,-7.7783e-05,1205.5,-0.00023834,-0.86443,0.0088968
29257,1.3235,1.2727,0.1,0.00054394,5435.7,0.00055406,5876.5,-9.0932e-05,1030.3,-0.00022817,-0.83256,0.010043
29258,1.2353,1.5455,0.1,0.00056384,5634.5,0.00057447,6194.8,-6.6765e-05,1376.8,-0.00025012,-0.79603,0.0091156
29259,1.3235,1.4545,0.1,0.00055718,5567.9,0.00056778,6072.7,-7.9492e-05,1209.4,-0.00024055,-0.73392,0.010316
29260,1.2353,1.7273,0.1,0.00057753,5771.3,0.00058809,6382.1,-5.7444e-05,1531.8,-0.00026142,-0.74552,0.0092996
29261,1.3235,1.6364,0.1,0.00057173,5713.4,0.00058254,6275.5,-6.9451e-05,1376.7,-0.00025276,-0.66389,0.010548
29262,1.2353,1.9091,0.1,0.00059135,5909.4,0.00060176,6563.8,-4.9763e-05,1668.5,-0.00027193,-0.70815,0.0094529
29263,1.3235,1.8182,0.1,0.00058683,5864.2,0.00059766,6476.9,-6.0844e-05,1529.2,-0.00026444,-0.61051,0.010745
29264,1.2353,2.0909,0.1,0.0006046,6041.8,0.00061482,6732.7,-4.3696e-05,1784.9,-0.00028134,-0.68463,0.0095787
29265,1.3235,2,0.1,0.00060171,6012.9,0.00061246,6669,-5.3782e-05,1663.1,-0.00027521,-0.57211,0.010909
29266,1.2353,2.2727,0.1,0.00061661,6161.8,0.00062665,6882.1,-3.9189e-05,1879.3,-0.00028939,-0.67668,0.0096794
29267,1.3235,2.1818,0.1,0.00061565,6152.2,0.00062629,6844.2,-4.8365e-05,1775.1,-0.00028469,-0.55373,0.011043
29268,1.2353,2.4545,0.1,0.00062674,6263.1,0.00063667,7005.9,-3.6097e-05,1951,-0.00029585,-0.68315,0.0097567
29269,1.3235,2.3636,0.1,0.00062794,6275,0.0006385,6995.1,-4.4568e-05,1862.8,-0.00029257,-0.5572,0.011149
29270,1.2353,2.6364,0.1,0.00063445,6340.1,0.0006443,7098.6,-3.4186e-05,2000.7,-0.00030055,-0.69798,0.0098115
29271,1.3235,2.5455,0.1,0.00063789,6374.5,0.00064841,7115.1,-4.2188e-05,1926.2,-0.00029862,-0.57551,0.011228
29272,1.2353,2.8182,0.1,0.00063927,6388.3,0.00064909,7156,-3.3185e-05,2029.6,-0.00030341,-0.71202,0.0098442
29273,1.3235,2.7273,0.1,0.00064491,6444.7,0.00065541,7198.4,-4.0894e-05,1966.6,-0.00030271,-0.59769,0.011281
29274,1.2353,3,0.1,0.00064091,6404.7,0.00065073,7175.5,-3.2878e-05,2039.1,-0.00030436,-0.71766,0.0098551
29275,1.3235,2.9091,0.1,0.00064854,6480.9,0.00065904,7241.1,-4.0351e-05,1986.1,-0.00030477,-0.61233,0.011307
29276,1.2353,3.1818,0.1,0.00063927,6388.3,0.00064909,7156,-3.3185e-05,2029.6,-0.00030341,-0.71202,0.0098442
29277,1.3235,3.0909,0.1,0.00064854,6480.9,0.00065904,7241.1,-4.0351e-05,1986.1,-0.00030477,-0.61233,0.011307
29278,1.2353,3.3636,0.1,0.00063445,6340.1,0.0006443,7098.6,-3.4186e-05,2000.7,-0.00030055,-0.69798,0.0098115
29279,1.3235,3.2727,0.1,0.00064491,6444.7,0.00065541,7198.4,-4.0894e-05,1966.6,-0.00030271,-0.59769,0.011281
29280,1.2353,3.5455,0.1,0.00062674,6263.1,0.00063667,7005.9,-3.6097e-05,1951,-0.00029585,-0.68315,0.0097567
29281,1.3235,3.4545,0.1,0.00063789,6374.5,0.00064841,7115.1,-4.2188e-05,1926.2,-0.00029862,-0.57551,0.011228
29282,1.2353,3.7273,0.1,0.00061661,6161.8,0.00062665,6882.1,-3.9189e-05,1879.3,-0.00028939,-0.67668,0.0096794
29283,1.3235,3.6364,0.1,0.00062794,6275,0.0006385,6995.1,-4.4568e-05,1862.8,-0.00029257,-0.5572,0.011149
29284,1.2353,3.9091,0.1,0.0006046,6041.8,0.00061482,6732.7,-4.3696e-05,1784.9,-0.00028134,-0.68463,0.0095787
29285,1.3235,3.8182,0.1,0.00061565,6152.2,0.00062629,6844.2,-4.8365e-05,1775.1,-0.00028469,-0.55373,0.011043
29286,1.2353,4.0909,0.1,0.00059135,5909.4,0.00060176,6563.8,-4.9763e-05,1668.5,-0.00027193,-0.70815,0.0094529
29287,1.3235,4,0.1,0.00060171,6012.9,0.00061246,6669,-5.3782e-05,1663.1,-0.00027521,-0.57211,0.010909
29288,1.2353,4.2727,0.1,0.00057753,5771.3,0.00058809,6382.1,-5.7444e-05,1531.8,-0.00026142,-0.74552,0.0092996
29289,1.3235,4.1818,0.1,0.00058683,5864.2,0.00059766,6476.9,-6.0844e-05,1529.2,-0.00026444,-0.61051,0.010745
29290,1.2353,4.4545,0.1,0.00056384,5634.5,0.00057447,6194.8,-6.6765e-05,1376.8,-0.00025012,-0.79603,0.0091156
29291,1.3235,4.3636,0.1,0.00057173,5713.4,0.00058254,6275.5,-6.9451e-05,1376.7,-0.00025276,-0.66389,0.010548
29292,1.2353,4.6364,0.1,0.00055107,5506.9,0.00056156,6009.2,-7.7783e-05,1205.5,-0.00023834,-0.86443,0.0088968
29293,1.3235,4.5455,0.1,0.00055718,5567.9,0.00056778,6072.7,-7.9492e-05,1209.4,-0.00024055,-0.73392,0.010316
29294,1.2353,4.8182,0.1,0.00054003,5396.6,0.00055007,5832.9,-9.0598e-05,1019.2,-0.00022637,-0.96605,0.0086383
29295,1.3235,4.7273,0.1,0.00054394,5435.7,0.00055406,5876.5,-9.0931e-05,1030.3,-0.00022817,-0.83256,0.010043
29296,1.2353,5,0.1,0.00053153,5311.7,0.00054068,5673.2,-0.00010527,819.79,-0.00021453,-1.1274,0.0083339
29297,1.3235,4.9091,0.1,0.00053282,5324.6,0.0005421,5694.6,-0.0001038,841.59,-0.00021594,-0.98755,0.0097245
29298,1.2353,5.1818,0.1,0.00052622,5258.6,0.00053391,5536.4,-0.00012167,610.67,-0.00020314,-1.4135,0.0079763
29299,1.3235,5.0909,0.1,0.00052454,5241.7,0.00053249,5533.9,-0.00011809,645.7,-0.00020419,-1.2402,0.0093539
29300,1.2353,5.3636,0.1,0.00052446,5240.9,0.00053005,5427.7,-0.00013931,398.41,-0.00019259,-1.9254,0.0075565
29301,1.3235,5.2727,0.1,0.00051958,5192.2,0.0005257,5400.2,-0.00013356,446.84,-0.00019326,-1.7159,0.0089236
29302,1.2353,5.5455,0.1,0.00052626,5258.9,0.0005292,5350.9,-0.00015726,193.09,-0.00018343,-3.5493,0.0070642
29303,1.3235,5.4545,0.1,0.00051812,5177.6,0.0005219,5297.7,-0.0001496,252.36,-0.00018355,-2.6755,0.0084247
29304,1.2353,5.7273,0.1,0.00053291,5325.4,0.00053271,5320,-0.00017258,20.7,-0.00017948,-31.093,0.006488
29305,1.3235,5.6364,0.1,0.0005201,5197.4,0.00052118,5230.1,-0.00016501,74.278,-0.00017597,-8.0661,0.0078469
29306,1.3235,5.8182,0.1,0.00052824,5278.7,0.00052618,5220.4,-0.00016788,5.494,-0.00018457,-119.9,0.0071796
29307,1.2353,5.9091,0.1,0.0005278,5274.3,0.00052639,5233.7,-0.00017033,-1.2016,-0.00018072,-79.249,0.0058165
29308,1.4118,0.27273,0.1,0.00051531,5149.6,0.00051464,5130.4,-0.00016657,12.084,-0.00017481,-49.841,0.0086388
29309,1.5,0.18182,0.1,0.00050585,5055,0.00050359,4991.2,-0.00016006,4.757,-0.00017797,-129.77,0.0094386
29310,1.4118,0.090909,0.1,0.00050806,5077.1,0.00050661,5035.5,-0.00016371,-1.0068,-0.00017437,-81.12,0.0078791
29311,1.4118,0.45455,0.1,0.00051186,5115.1,0.00051387,5176.9,-0.00015768,131.1,-0.00017576,-4.7552,0.0093048
29312,1.5,0.36364,0.1,0.00050093,5005.8,0.0005013,5017.3,-0.00016134,38.483,-0.00016847,-15.084,0.010194
29313,1.4118,0.63636,0.1,0.00051317,5128.2,0.00051757,5270.5,-0.00014392,300.36,-0.00018419,-2.2587,0.009887
29314,1.5,0.54545,0.1,0.00050232,5019.7,0.00050502,5103.7,-0.00015074,176.59,-0.00017475,-3.837,0.010862
29315,1.4118,0.81818,0.1,0.00051787,5175.1,0.00052434,5398.2,-0.00013004,481.4,-0.00019431,-1.4991,0.010395
29316,1.5,0.72727,0.1,0.00050731,5069.6,0.00051215,5228.5,-0.00013886,337.03,-0.00018401,-2.26,0.011452
29317,1.4118,1,0.1,0.00052586,5255,0.00053399,5555.9,-0.0001167,666.91,-0.0002056,-1.0907,0.010838
29318,1.5,0.90909,0.1,0.00051577,5154.1,0.00052248,5387.9,-0.00012717,506.62,-0.00019481,-1.5631,0.011972
29319,1.4118,1.1818,0.1,0.00053681,5364.4,0.00054618,5738.9,-0.00010423,852.03,-0.00021774,-0.85306,0.011223
29320,1.5,1.0909,0.1,0.00052745,5270.9,0.00053569,5577.4,-0.00011602,680.75,-0.00020678,-1.1875,0.012429
29321,1.4118,1.3636,0.1,0.00055016,5497.8,0.00056038,5940.8,-9.2732e-05,1033.5,-0.00023038,-0.70229,0.011557
29322,1.5,1.2727,0.1,0.00054182,5414.5,0.00055126,5791.3,-0.00010546,856.97,-0.00021964,-0.95721,0.012831
29323,1.4118,1.5455,0.1,0.00056519,5648,0.00057594,6154.1,-8.2263e-05,1208.6,-0.0002432,-0.60084,0.011845
29324,1.5,1.4545,0.1,0.00055819,5578.1,0.00056852,6022,-9.5436e-05,1033.3,-0.00023306,-0.81067,0.013182
29325,1.4118,1.7273,0.1,0.00058115,5807.5,0.00059218,6370.8,-7.292e-05,1373.5,-0.00025579,-0.52624,0.012092
29326,1.5,1.6364,0.1,0.0005758,5754,0.00058673,6261.1,-8.6014e-05,1206.4,-0.00024667,-0.70896,0.013487
29327,1.4118,1.9091,0.1,0.00059728,5968.7,0.0006084,6582.4,-6.4908e-05,1523.4,-0.00026772,-0.4705,0.012301
29328,1.5,1.8182,0.1,0.00059387,5934.6,0.00060517,6499.6,-7.7454e-05,1370.7,-0.00025996,-0.63173,0.013749
29329,1.4118,2.0909,0.1,0.00061282,6124,0.00062395,6780.6,-5.8461e-05,1653.2,-0.00027855,-0.43669,0.012475
29330,1.5,2,0.1,0.00061166,6112.4,0.00062315,6728.2,-7.0188e-05,1518.7,-0.00027239,-0.57786,0.01397
29331,1.4118,2.2727,0.1,0.00062701,6265.8,0.00063811,6957,-5.3711e-05,1758.9,-0.00028787,-0.43009,0.012617
29332,1.5,2.1818,0.1,0.00062839,6279.5,0.00063997,6937.4,-6.4621e-05,1643.4,-0.00028342,-0.55052,0.014154
29333,1.4118,2.4545,0.1,0.00063908,6386.4,0.00065016,7103.7,-5.0579e-05,1838.6,-0.00029535,-0.44639,0.012726
29334,1.5,2.3636,0.1,0.0006432,6427.6,0.00065485,7118.1,-6.0892e-05,1740.3,-0.00029259,-0.55217,0.014302
29335,1.4118,2.6364,0.1,0.00064831,6478.6,0.0006594,7214,-4.8771e-05,1893.1,-0.00030079,-0.47322,0.012805
29336,1.5,2.5455,0.1,0.00065525,6548,0.00066697,7261.8,-5.878e-05,1808.8,-0.0002996,-0.58044,0.014413
29337,1.4118,2.8182,0.1,0.00065411,6536.6,0.00066521,7282.3,-4.7903e-05,1924.3,-0.00030408,-0.49688,0.012852
29338,1.5,2.7273,0.1,0.00066375,6633,0.00067554,7361.5,-5.7808e-05,1851.4,-0.0003043,-0.61492,0.014488
29339,1.4118,3,0.1,0.00065608,6556.3,0.00066719,7305.5,-4.7655e-05,1934.4,-0.00030518,-0.5062,0.012868
29340,1.5,2.9091,0.1,0.00066815,6676.9,0.00067998,7412.5,-5.7478e-05,1871.6,-0.00030665,-0.6368,0.014525
29341,1.4118,3.1818,0.1,0.00065411,6536.6,0.00066521,7282.3,-4.7903e-05,1924.3,-0.00030408,-0.49688,0.012852
29342,1.5,3.0909,0.1,0.00066815,6676.9,0.00067998,7412.5,-5.7478e-05,1871.6,-0.00030665,-0.6368,0.014525
29343,1.4118,3.3636,0.1,0.00064831,6478.6,0.0006594,7214,-4.8771e-05,1893.1,-0.00030079,-0.47322,0.012805
29344,1.5,3.2727,0.1,0.00066375,6633,0.00067554,7361.5,-5.7808e-05,1851.4,-0.0003043,-0.61492,0.014488
29345,1.4118,3.5455,0.1,0.00063908,6386.4,0.00065016,7103.7,-5.0579e-05,1838.6,-0.00029535,-0.44639,0.012726
29346,1.5,3.4545,0.1,0.00065525,6548,0.00066697,7261.8,-5.878e-05,1808.8,-0.0002996,-0.58043,0.014413
29347,1.4118,3.7273,0.1,0.00062701,6265.8,0.00063811,6957,-5.3711e-05,1758.9,-0.00028787,-0.43009,0.012617
29348,1.5,3.6364,0.1,0.0006432,6427.6,0.00065485,7118.1,-6.0892e-05,1740.3,-0.00029259,-0.55217,0.014302
29349,1.4118,3.9091,0.1,0.00061282,6124,0.00062395,6780.6,-5.8461e-05,1653.2,-0.00027855,-0.43669,0.012475
29350,1.5,3.8182,0.1,0.00062839,6279.5,0.00063997,6937.4,-6.4621e-05,1643.4,-0.00028342,-0.55052,0.014154
29351,1.4118,4.0909,0.1,0.00059728,5968.7,0.0006084,6582.4,-6.4908e-05,1523.4,-0.00026772,-0.4705,0.012301
29352,1.5,4,0.1,0.00061166,6112.4,0.00062315,6728.2,-7.0188e-05,1518.7,-0.00027239,-0.57786,0.01397
29353,1.4118,4.2727,0.1,0.00058115,5807.5,0.00059218,6370.8,-7.292e-05,1373.5,-0.00025579,-0.52624,0.012092
29354,1.5,4.1818,0.1,0.00059387,5934.6,0.00060517,6499.6,-7.7454e-05,1370.7,-0.00025996,-0.63173,0.013749
29355,1.4118,4.4545,0.1,0.00056519,5648,0.00057594,6154.1,-8.2263e-05,1208.6,-0.0002432,-0.60084,0.011845
29356,1.5,4.3636,0.1,0.0005758,5754,0.00058673,6261.1,-8.6014e-05,1206.4,-0.00024667,-0.70896,0.013487
29357,1.4118,4.6364,0.1,0.00055016,5497.8,0.00056038,5940.8,-9.2732e-05,1033.5,-0.00023038,-0.70229,0.011557
29358,1.5,4.5455,0.1,0.00055819,5578.1,0.00056852,6022,-9.5436e-05,1033.3,-0.00023306,-0.81067,0.013182
29359,1.4118,4.8182,0.1,0.00053681,5364.4,0.00054618,5738.9,-0.00010423,852.03,-0.00021774,-0.85306,0.011223
29360,1.5,4.7273,0.1,0.00054182,5414.5,0.00055126,5791.3,-0.00010546,856.97,-0.00021964,-0.95721,0.012831
29361,1.4118,5,0.1,0.00052586,5255,0.00053399,5555.9,-0.0001167,666.91,-0.0002056,-1.0907,0.010838
29362,1.5,4.9091,0.1,0.00052745,5270.9,0.00053569,5577.4,-0.00011602,680.75,-0.00020678,-1.1875,0.012429
29363,1.4118,5.1818,0.1,0.00051787,5175.1,0.00052434,5398.2,-0.00013004,481.4,-0.00019431,-1.4991,0.010395
29364,1.5,5.0909,0.1,0.00051577,5154.1,0.00052248,5387.9,-0.00012717,506.62,-0.00019481,-1.5631,0.011972
29365,1.4118,5.3636,0.1,0.00051317,5128.2,0.00051757,5270.5,-0.00014392,300.36,-0.00018419,-2.2587,0.009887
29366,1.5,5.2727,0.1,0.00050731,5069.6,0.00051215,5228.5,-0.00013886,337.03,-0.00018401,-2.26,0.011452
29367,1.4118,5.5455,0.1,0.00051186,5115.1,0.00051387,5176.9,-0.00015768,131.1,-0.00017576,-4.7552,0.0093048
29368,1.5,5.4545,0.1,0.00050232,5019.7,0.00050502,5103.7,-0.00015074,176.59,-0.00017475,-3.837,0.010862
29369,1.4118,5.7273,0.1,0.00051531,5149.6,0.00051464,5130.4,-0.00016657,12.084,-0.00017481,-49.841,0.0086388
29370,1.5,5.6364,0.1,0.00050093,5005.8,0.0005013,5017.3,-0.00016134,38.483,-0.00016847,-15.084,0.010194
29371,1.5,5.8182,0.1,0.00050585,5055,0.00050359,4991.2,-0.00016006,4.757,-0.00017797,-129.77,0.0094386
29372,1.4118,5.9091,0.1,0.00050806,5077.1,0.00050661,5035.5,-0.00016371,-1.0068,-0.00017437,-81.12,0.0078791
29373,1.5882,0.27273,0.1,0.00049139,4910.5,0.00049025,4878.1,-0.00015787,8.3412,-0.00016859,-72.22,0.01109
29374,1.6765,0.18182,0.1,0.0004771,4767.7,0.00047461,4697.7,-0.00015003,4.3913,-0.00016939,-141.09,0.011992
29375,1.5882,0.090909,0.1,0.00048176,4814.3,0.00048025,4770.9,-0.00015484,-0.89192,-0.000166,-84.749,0.010245
29376,1.5882,0.45455,0.1,0.00049133,4909.9,0.00049246,4944.2,-0.00015518,78.112,-0.00016669,-8.3977,0.011845
29377,1.6765,0.36364,0.1,0.0004753,4749.7,0.00047503,4742.2,-0.00015364,18.606,-0.00016053,-33.148,0.012834
29378,1.5882,0.63636,0.1,0.00049647,4961.3,0.00049967,5062.2,-0.00014579,212.43,-0.00017454,-3.5588,0.012519
29379,1.6765,0.54545,0.1,0.00048053,4802,0.00048219,4852.9,-0.00014895,110.76,-0.0001646,-6.8357,0.013594
29380,1.5882,0.81818,0.1,0.0005053,5049.5,0.00051043,5219.2,-0.00013613,361.21,-0.00018451,-2.3042,0.01312
29381,1.6765,0.72727,0.1,0.00049002,4896.8,0.00049353,5008.6,-0.00014166,236.05,-0.00017356,-3.6752,0.014278
29382,1.5882,1,0.1,0.00051753,5171.7,0.00052436,5410.7,-0.00012667,519.13,-0.00019599,-1.6765,0.013655
29383,1.6765,0.90909,0.1,0.00050341,5030.6,0.00050865,5205.1,-0.00013454,372.44,-0.00018444,-2.4856,0.014894
29384,1.5882,1.1818,0.1,0.00053267,5323,0.00054096,5631.3,-0.00011745,684.23,-0.00020869,-1.3101,0.014131
29385,1.6765,1.0909,0.1,0.00052022,5198.6,0.00052705,5437.4,-0.00012761,518.46,-0.00019686,-1.854,0.015448
29386,1.5882,1.3636,0.1,0.00055008,5497,0.00055958,5873.9,-0.00010835,855.31,-0.00022232,-1.078,0.014551
29387,1.6765,1.2727,0.1,0.00053974,5393.7,0.00054801,5698.6,-0.00012057,675.14,-0.00021063,-1.464,0.015945
29388,1.5882,1.5455,0.1,0.00056901,5686.2,0.00057946,6130.1,-9.9346e-05,1029.9,-0.00023654,-0.92361,0.014921
29389,1.6765,1.4545,0.1,0.00056112,5607.3,0.00057065,5980.3,-0.0001131,842.92,-0.00022544,-1.2111,0.016387
29390,1.5882,1.7273,0.1,0.0005887,5882.9,0.00059983,6390.8,-9.0666e-05,1202.7,-0.00025084,-0.81273,0.015244
29391,1.6765,1.6364,0.1,0.00058351,5831,0.00059409,6272.7,-0.00010515,1018.9,-0.00024089,-1.0333,0.016778
29392,1.5882,1.9091,0.1,0.00060839,6079.7,0.00061998,6645.9,-8.2804e-05,1365.4,-0.00026463,-0.73295,0.015521
29393,1.6765,1.8182,0.1,0.0006061,6056.8,0.00061749,6564.6,-9.7189e-05,1194.8,-0.00025633,-0.89977,0.017119
29394,1.5882,2.0909,0.1,0.00062732,6268.9,0.00063918,6885.1,-7.6359e-05,1508.8,-0.00027726,-0.68374,0.015755
29395,1.6765,2,0.1,0.00062815,6277.1,0.0006401,6844.5,-9.009e-05,1358.1,-0.00027095,-0.79173,0.017412
29396,1.5882,2.2727,0.1,0.00064461,6441.7,0.00065666,7098.2,-7.1744e-05,1625.2,-0.00028814,-0.66526,0.015948
29397,1.6765,2.1818,0.1,0.00064881,6483.6,0.00066115,7100.4,-8.473e-05,1496.2,-0.00028396,-0.74087,0.017659
29398,1.5882,2.4545,0.1,0.00065934,6588.8,0.00067153,7275.2,-6.896e-05,1711.5,-0.00029683,-0.681,0.0161
29399,1.6765,2.3636,0.1,0.00066709,6666.3,0.00067971,7320.5,-8.1496e-05,1601.1,-0.00029469,-0.7619,0.017859
29400,1.5882,2.6364,0.1,0.0006706,6701.4,0.00068291,7407.8,-6.7612e-05,1768.7,-0.00030311,-0.71929,0.016209
29401,1.6765,2.5455,0.1,0.0006819,6814.3,0.00069474,7494.2,-8.01e-05,1672.4,-0.00030279,-0.80367,0.018011
29402,1.5882,2.8182,0.1,0.00067767,6772,0.00069006,7489.8,-6.7127e-05,1800.6,-0.00030687,-0.75364,0.016275
29403,1.6765,2.7273,0.1,0.0006923,6918.2,0.0007053,7613.7,-7.9819e-05,1714.6,-0.00030813,-0.84441,0.018114
29404,1.5882,3,0.1,0.00068008,6796.1,0.0006925,7517.5,-6.7026e-05,1810.7,-0.00030812,-0.76677,0.016297
29405,1.6765,2.9091,0.1,0.00069765,6971.7,0.00071074,7674.3,-7.9902e-05,1733.8,-0.00031077,-0.8698,0.018167
29406,1.5882,3.1818,0.1,0.00067767,6772,0.00069006,7489.8,-6.7127e-05,1800.6,-0.00030687,-0.75364,0.016275
29407,1.6765,3.0909,0.1,0.00069765,6971.7,0.00071074,7674.3,-7.9902e-05,1733.8,-0.00031077,-0.8698,0.018167
29408,1.5882,3.3636,0.1,0.0006706,6701.4,0.00068291,7407.8,-6.7612e-05,1768.7,-0.00030311,-0.71929,0.016209
29409,1.6765,3.2727,0.1,0.0006923,6918.2,0.0007053,7613.7,-7.9819e-05,1714.6,-0.00030813,-0.84441,0.018114
29410,1.5882,3.5455,0.1,0.00065934,6588.8,0.00067153,7275.2,-6.8959e-05,1711.5,-0.00029683,-0.681,0.0161
29411,1.6765,3.4545,0.1,0.0006819,6814.3,0.00069474,7494.2,-8.01e-05,1672.4,-0.00030279,-0.80367,0.018011
29412,1.5882,3.7273,0.1,0.00064461,6441.7,0.00065666,7098.2,-7.1743e-05,1625.2,-0.00028814,-0.66526,0.015948
29413,1.6765,3.6364,0.1,0.00066709,6666.3,0.00067971,7320.5,-8.1495e-05,1601.1,-0.00029469,-0.7619,0.017859
29414,1.5882,3.9091,0.1,0.00062732,6268.9,0.00063918,6885.1,-7.6359e-05,1508.8,-0.00027726,-0.68374,0.015755
29415,1.6765,3.8182,0.1,0.00064881,6483.6,0.00066115,7100.4,-8.473e-05,1496.2,-0.00028396,-0.74087,0.017659
29416,1.5882,4.0909,0.1,0.00060839,6079.7,0.00061998,6645.9,-8.2804e-05,1365.4,-0.00026463,-0.73295,0.015521
29417,1.6765,4,0.1,0.00062815,6277.1,0.0006401,6844.5,-9.009e-05,1358.1,-0.00027095,-0.79173,0.017412
29418,1.5882,4.2727,0.1,0.0005887,5882.9,0.00059983,6390.8,-9.0666e-05,1202.7,-0.00025084,-0.81273,0.015244
29419,1.6765,4.1818,0.1,0.0006061,6056.8,0.00061749,6564.6,-9.7189e-05,1194.8,-0.00025633,-0.89977,0.017119
29420,1.5882,4.4545,0.1,0.00056901,5686.2,0.00057946,6130.1,-9.9346e-05,1029.9,-0.00023654,-0.92361,0.014921
29421,1.6765,4.3636,0.1,0.00058351,5831,0.00059409,6272.7,-0.00010515,1018.9,-0.00024089,-1.0333,0.016778
29422,1.5882,4.6364,0.1,0.00055008,5497,0.00055958,5873.9,-0.00010835,855.31,-0.00022232,-1.078,0.014551
29423,1.6765,4.5455,0.1,0.00056112,5607.3,0.00057065,5980.3,-0.0001131,842.92,-0.00022544,-1.2111,0.016387
29424,1.5882,4.8182,0.1,0.00053267,5323,0.00054096,5631.3,-0.00011745,684.23,-0.00020869,-1.3101,0.014131
29425,1.6765,4.7273,0.1,0.00053974,5393.7,0.00054801,5698.6,-0.00012057,675.14,-0.00021062,-1.464,0.015945
29426,1.5882,5,0.1,0.00051753,5171.7,0.00052436,5410.7,-0.00012667,519.13,-0.00019599,-1.6765,0.013655
29427,1.6765,4.9091,0.1,0.00052022,5198.6,0.00052705,5437.4,-0.00012761,518.46,-0.00019686,-1.854,0.015448
29428,1.5882,5.1818,0.1,0.0005053,5049.5,0.00051043,5219.2,-0.00013613,361.21,-0.00018451,-2.3042,0.01312
29429,1.6765,5.0909,0.1,0.00050341,5030.6,0.00050865,5205.1,-0.00013454,372.44,-0.00018444,-2.4856,0.014894
29430,1.5882,5.3636,0.1,0.00049647,4961.3,0.00049967,5062.2,-0.00014579,212.43,-0.00017454,-3.5588,0.012519
29431,1.6765,5.2727,0.1,0.00049002,4896.8,0.00049353,5008.6,-0.00014166,236.05,-0.00017356,-3.6752,0.014278
29432,1.5882,5.5455,0.1,0.00049133,4909.9,0.00049246,4944.2,-0.00015518,78.112,-0.00016669,-8.3977,0.011845
29433,1.6765,5.4545,0.1,0.00048053,4802,0.00048219,4852.9,-0.00014895,110.76,-0.0001646,-6.8357,0.013594
29434,1.5882,5.7273,0.1,0.00049139,4910.5,0.00049025,4878.1,-0.00015787,8.3412,-0.00016859,-72.22,0.01109
29435,1.6765,5.6364,0.1,0.0004753,4749.7,0.00047503,4742.2,-0.00015364,18.606,-0.00016053,-33.148,0.012834
29436,1.6765,5.8182,0.1,0.0004771,4767.7,0.00047461,4697.7,-0.00015003,4.3913,-0.00016939,-141.09,0.011992
29437,1.5882,5.9091,0.1,0.00048176,4814.3,0.00048025,4770.9,-0.00015484,-0.89192,-0.000166,-84.749,0.010245
29438,1.7647,0.27273,0.1,0.00046097,4606.6,0.0004594,4562,-0.00014684,6.939,-0.00016033,-94.445,0.013827
29439,1.8529,0.18182,0.1,0.00044172,4414.2,0.000439,4338.3,-0.00013779,4.4884,-0.00015863,-152.09,0.014822
29440,1.7647,0.090909,0.1,0.0004488,4484.9,0.00044721,4439.4,-0.00014374,-0.76575,-0.00015547,-88.9,0.012899
29441,1.7647,0.45455,0.1,0.0004645,4641.8,0.0004648,4651.2,-0.00014911,38.533,-0.00015679,-19.158,0.014671
29442,1.8529,0.36364,0.1,0.00044297,4426.6,0.00044213,4402.9,-0.00014224,12.125,-0.00015167,-58.738,0.01575
29443,1.7647,0.63636,0.1,0.00047422,4738.9,0.00047621,4800.5,-0.00014501,132.85,-0.00016357,-6.5804,0.01544
29444,1.8529,0.54545,0.1,0.00045257,4522.6,0.00045324,4543.2,-0.00014374,57.703,-0.0001535,-15.598,0.016603
29445,1.7647,0.81818,0.1,0.00048841,4880.7,0.00049203,4996.6,-0.00014032,245.36,-0.0001735,-3.9703,0.016139
29446,1.8529,0.72727,0.1,0.00046761,4672.9,0.00046971,4738.1,-0.00014207,141.46,-0.00016188,-7.3796,0.017386
29447,1.7647,1,0.1,0.0005065,5061.5,0.0005117,5234.4,-0.00013581,369.26,-0.00018533,-2.7909,0.016776
29448,1.8529,0.90909,0.1,0.00048746,4871.2,0.00049096,4982.9,-0.00014066,237.17,-0.00017286,-4.7873,0.018107
29449,1.7647,1.1818,0.1,0.00052774,5273.7,0.00053447,5507.5,-0.00013111,506.61,-0.00019881,-2.1032,0.017353
29450,1.8529,1.0909,0.1,0.00051132,5109.6,0.00051624,5271.7,-0.0001394,345.5,-0.00018584,-3.4531,0.018769
29451,1.7647,1.3636,0.1,0.00055122,5508.4,0.00055943,5807.7,-0.00012567,660.17,-0.00021375,-1.6563,0.017874
29452,1.8529,1.2727,0.1,0.00053816,5377.8,0.00054457,5597.1,-0.00013745,472.61,-0.0002007,-2.6056,0.019375
29453,1.7647,1.5455,0.1,0.00057599,5756,0.00058557,6125,-0.00011918,829.8,-0.0002298,-1.3488,0.018341
29454,1.8529,1.4545,0.1,0.00056681,5664.2,0.00057479,5949.2,-0.00013394,624.06,-0.00021727,-2.0501,0.019925
29455,1.7647,1.7273,0.1,0.0006012,6007.9,0.00061194,6448,-0.00011187,1009.5,-0.00024638,-1.1252,0.018755
29456,1.8529,1.6364,0.1,0.00059616,5957.5,0.00060567,6315.9,-0.00012848,799.74,-0.00023515,-1.6864,0.020419
29457,1.7647,1.9091,0.1,0.00062606,6256.3,0.00063772,6764,-0.00010459,1186.7,-0.00026265,-0.94918,0.019116
29458,1.8529,1.8182,0.1,0.00062523,6248,0.00063612,6682.8,-0.00012164,989.25,-0.00025349,-1.4046,0.020858
29459,1.7647,2.0909,0.1,0.00064976,6493.2,0.00066208,7059.9,-9.8476e-05,1345.4,-0.00027765,-0.83392,0.019426
29460,1.8529,2,0.1,0.00065327,6528.2,0.00066522,7034,-0.00011495,1172.1,-0.00027112,-1.2526,0.02124
29461,1.7647,2.2727,0.1,0.00067132,6708.6,0.0006841,7322,-9.4385e-05,1472.8,-0.00029051,-0.82397,0.019684
29462,1.8529,2.1818,0.1,0.00067933,6788.7,0.00069207,7353.1,-0.00011007,1326.2,-0.00028673,-1.1543,0.021566
29463,1.7647,2.4545,0.1,0.00068957,6891,0.0007027,7537.9,-9.2418e-05,1563.7,-0.00030064,-0.87593,0.019888
29464,1.8529,2.3636,0.1,0.00070217,7016.9,0.00071545,7623.9,-0.0001078,1438.3,-0.00029936,-1.0488,0.021833
29465,1.7647,2.6364,0.1,0.00070342,7029.4,0.00071679,7697.5,-9.1976e-05,1620.8,-0.00030781,-0.92497,0.020038
29466,1.8529,2.5455,0.1,0.0007204,7199.1,0.00073407,7833.2,-0.00010765,1508.8,-0.00030861,-1.0597,0.022039
29467,1.7647,2.8182,0.1,0.00071204,7115.5,0.00072557,7795.1,-9.2184e-05,1650.9,-0.00031203,-0.95964,0.020129
29468,1.8529,2.7273,0.1,0.00073297,7324.7,0.00074689,7973.9,-0.00010847,1547.1,-0.00031452,-1.0949,0.022179
29469,1.7647,3,0.1,0.00071496,7144.6,0.00072854,7827.9,-9.234e-05,1660.1,-0.00031342,-0.97279,0.020159
29470,1.8529,2.9091,0.1,0.00073934,7388.3,0.00075338,8044.1,-0.00010918,1563.2,-0.00031737,-1.1035,0.022251
29471,1.7647,3.1818,0.1,0.00071204,7115.5,0.00072557,7795.1,-9.2184e-05,1650.9,-0.00031203,-0.95964,0.020129
29472,1.8529,3.0909,0.1,0.00073934,7388.3,0.00075338,8044.1,-0.00010918,1563.2,-0.00031737,-1.1035,0.022251
29473,1.7647,3.3636,0.1,0.00070342,7029.4,0.00071679,7697.5,-9.1976e-05,1620.8,-0.00030781,-0.92497,0.020038
29474,1.8529,3.2727,0.1,0.00073297,7324.7,0.00074689,7973.9,-0.00010847,1547.1,-0.00031452,-1.0949,0.022179
29475,1.7647,3.5455,0.1,0.00068957,6891,0.0007027,7537.8,-9.2418e-05,1563.7,-0.00030064,-0.87593,0.019888
29476,1.8529,3.4545,0.1,0.0007204,7199.1,0.00073407,7833.2,-0.00010765,1508.8,-0.00030861,-1.0597,0.022039
29477,1.7647,3.7273,0.1,0.00067132,6708.6,0.0006841,7322,-9.4385e-05,1472.8,-0.00029051,-0.82396,0.019684
29478,1.8529,3.6364,0.1,0.00070217,7016.9,0.00071545,7623.9,-0.0001078,1438.3,-0.00029936,-1.0488,0.021833
29479,1.7647,3.9091,0.1,0.00064976,6493.2,0.00066208,7059.9,-9.8476e-05,1345.4,-0.00027765,-0.83392,0.019426
29480,1.8529,3.8182,0.1,0.00067933,6788.7,0.00069207,7353.1,-0.00011007,1326.2,-0.00028673,-1.1543,0.021566
29481,1.7647,4.0909,0.1,0.00062606,6256.3,0.00063772,6764,-0.00010459,1186.7,-0.00026265,-0.94918,0.019116
29482,1.8529,4,0.1,0.00065327,6528.2,0.00066522,7034,-0.00011495,1172.1,-0.00027112,-1.2526,0.02124
29483,1.7647,4.2727,0.1,0.0006012,6007.9,0.00061194,6448,-0.00011187,1009.5,-0.00024638,-1.1252,0.018755
29484,1.8529,4.1818,0.1,0.00062523,6248,0.00063612,6682.8,-0.00012164,989.25,-0.00025349,-1.4046,0.020858
29485,1.7647,4.4545,0.1,0.00057599,5756,0.00058557,6125,-0.00011918,829.8,-0.0002298,-1.3488,0.018341
29486,1.8529,4.3636,0.1,0.00059616,5957.5,0.00060567,6315.9,-0.00012848,799.74,-0.00023515,-1.6864,0.020419
29487,1.7647,4.6364,0.1,0.00055122,5508.4,0.00055943,5807.7,-0.00012567,660.17,-0.00021375,-1.6563,0.017874
29488,1.8529,4.5455,0.1,0.00056681,5664.2,0.00057479,5949.2,-0.00013394,624.06,-0.00021727,-2.0501,0.019925
29489,1.7647,4.8182,0.1,0.00052774,5273.7,0.00053447,5507.5,-0.00013111,506.61,-0.00019881,-2.1032,0.017353
29490,1.8529,4.7273,0.1,0.00053816,5377.8,0.00054457,5597.1,-0.00013745,472.61,-0.0002007,-2.6056,0.019375
29491,1.7647,5,0.1,0.0005065,5061.5,0.0005117,5234.4,-0.00013581,369.26,-0.00018533,-2.7909,0.016776
29492,1.8529,4.9091,0.1,0.00051132,5109.6,0.00051624,5271.7,-0.0001394,345.5,-0.00018584,-3.4531,0.018769
29493,1.7647,5.1818,0.1,0.00048841,4880.7,0.00049203,4996.6,-0.00014032,245.36,-0.0001735,-3.9703,0.016139
29494,1.8529,5.0909,0.1,0.00048746,4871.2,0.00049096,4982.9,-0.00014066,237.17,-0.00017286,-4.7873,0.018107
29495,1.7647,5.3636,0.1,0.00047422,4738.9,0.00047621,4800.5,-0.00014501,132.85,-0.00016357,-6.5804,0.01544
29496,1.8529,5.2727,0.1,0.00046761,4672.9,0.00046971,4738.1,-0.00014207,141.46,-0.00016188,-7.3796,0.017386
29497,1.7647,5.5455,0.1,0.0004645,4641.8,0.0004648,4651.2,-0.00014911,38.533,-0.00015679,-19.158,0.014671
29498,1.8529,5.4545,0.1,0.00045257,4522.6,0.00045324,4543.2,-0.00014374,57.703,-0.0001535,-15.598,0.016603
29499,1.7647,5.7273,0.1,0.00046097,4606.6,0.0004594,4562,-0.00014684,6.939,-0.00016033,-94.445,0.013827
29500,1.8529,5.6364,0.1,0.00044297,4426.6,0.00044213,4402.9,-0.00014224,12.125,-0.00015167,-58.738,0.01575
29501,1.8529,5.8182,0.1,0.00044172,4414.2,0.000439,4338.3,-0.00013779,4.4884,-0.00015863,-152.09,0.014822
29502,1.7647,5.9091,0.1,0.0004488,4484.9,0.00044721,4439.4,-0.00014374,-0.76575,-0.00015547,-88.9,0.012899
29503,1.9412,0.27273,0.1,0.00042373,4234.3,0.00042178,4179.5,-0.00013358,6.8127,-0.00014964,-113.83,0.016829
29504,2.0294,0.18182,0.1,0.00039934,3990.7,0.00039644,3910.4,-0.00012331,5.2003,-0.00014537,-160.59,0.017906
29505,1.9412,0.090909,0.1,0.00040888,4086,0.00040723,4038.8,-0.0001304,-0.6676,-0.00014257,-92.162,0.015819
29506,1.9412,0.45455,0.1,0.00043112,4308.3,0.00043067,4295.6,-0.00013837,20.066,-0.00014698,-44.657,0.017763
29507,2.0294,0.36364,0.1,0.00040366,4033.8,0.00040236,3997.3,-0.0001282,10.841,-0.00014059,-82.204,0.018919
29508,1.9412,0.63636,0.1,0.0004463,4459.9,0.00044705,4483.1,-0.00014104,64.45,-0.00015186,-16.814,0.01863
29509,2.0294,0.54545,0.1,0.00041834,4180.5,0.00041807,4173.2,-0.00013369,27.55,-0.00014286,-41.396,0.019868
29510,1.9412,0.81818,0.1,0.00046725,4669.2,0.00046915,4728.3,-0.00014276,130.62,-0.0001614,-9.4,0.019436
29511,2.0294,0.72727,0.1,0.00044021,4399,0.00044075,4416.1,-0.00013925,58.129,-0.00015005,-22.99,0.020757
29512,1.9412,1,0.1,0.00049305,4927.1,0.00049615,5025.1,-0.00014478,209.36,-0.00017349,-6.3298,0.020185
29513,2.0294,0.90909,0.1,0.00046826,4679.3,0.00046957,4720.1,-0.00014551,98.593,-0.00016064,-15.088,0.021593
29514,1.9412,1.1818,0.1,0.00052259,5222.3,0.00052704,5366.5,-0.00014636,306.82,-0.0001878,-4.5241,0.020879
29515,2.0294,1.0909,0.1,0.00050134,5010,0.00050356,5079.2,-0.00015208,152.93,-0.00017383,-10.467,0.022378
29516,1.9412,1.3636,0.1,0.00055456,5541.8,0.00056057,5743.3,-0.00014631,432.07,-0.00020426,-3.3237,0.021518
29517,2.0294,1.2727,0.1,0.0005381,5377.2,0.00054154,5486.4,-0.00015756,233.66,-0.00018961,-7.2138,0.023111
29518,1.9412,1.5455,0.1,0.00058764,5872.4,0.00059539,6143.8,-0.00014372,590.44,-0.00022264,-2.5388,0.022101
29519,2.0294,1.4545,0.1,0.00057692,5765.2,0.00058204,5931.9,-0.00016019,355.12,-0.0002081,-4.8861,0.02379
29520,1.9412,1.7273,0.1,0.00062067,6202.4,0.00063017,6553.2,-0.00013858,777.07,-0.00024227,-2.009,0.022627
29521,2.0294,1.6364,0.1,0.0006161,6156.7,0.00062327,6400.7,-0.0001587,525.24,-0.00022904,-3.2262,0.024411
29522,1.9412,1.9091,0.1,0.00065275,6523,0.00066379,6954,-0.00013217,973.46,-0.00026196,-1.6951,0.023092
29523,2.0294,1.8182,0.1,0.0006543,6538.5,0.00066362,6872.7,-0.00015352,733.09,-0.0002514,-2.3618,0.02497
29524,1.9412,2.0909,0.1,0.000683,6825.3,0.00069522,7327.3,-0.00012655,1152.8,-0.00028019,-1.5415,0.023496
29525,2.0294,2,0.1,0.00069057,6900.9,0.00070173,7324,-0.00014717,945.69,-0.00027325,-1.5976,0.025464
29526,1.9412,2.2727,0.1,0.00071018,7096.9,0.00072324,7653.7,-0.00012332,1293,-0.00029558,-1.352,0.023837
29527,2.0294,2.1818,0.1,0.00072387,7233.7,0.00073636,7728.6,-0.00014284,1122.6,-0.00029241,-1.2451,0.025891
29528,1.9412,2.4545,0.1,0.00073283,7323.2,0.00074646,7916.5,-0.00012267,1386.2,-0.00030732,-1.2183,0.024111
29529,2.0294,2.3636,0.1,0.00075242,7519.1,0.00076577,8061.5,-0.00014194,1241.3,-0.00030736,-1.5262,0.026244
29530,1.9412,2.6364,0.1,0.00074964,7491.2,0.00076363,8105.6,-0.00012361,1439.2,-0.00031532,-1.2254,0.024312
29531,2.0294,2.5455,0.1,0.00077435,7738.2,0.00078821,8307.4,-0.00014354,1306.6,-0.00031763,-1.4816,0.026519
29532,1.9412,2.8182,0.1,0.00075986,7593.3,0.00077406,8218,-0.00012482,1464.2,-0.00031986,-1.239,0.024435
29533,2.0294,2.7273,0.1,0.0007888,7882.5,0.00080294,8464.4,-0.00014575,1336.3,-0.00032379,-1.3794,0.026707
29534,1.9412,3,0.1,0.00076327,7627.4,0.00077754,8255.1,-0.00012533,1471.3,-0.00032132,-1.2354,0.024477
29535,2.0294,2.9091,0.1,0.00079585,7953,0.00081011,8539.6,-0.00014716,1347.1,-0.00032662,-1.3385,0.026803
29536,1.9412,3.1818,0.1,0.00075986,7593.3,0.00077406,8218,-0.00012482,1464.2,-0.00031986,-1.239,0.024435
29537,2.0294,3.0909,0.1,0.00079585,7953,0.00081011,8539.6,-0.00014716,1347.1,-0.00032662,-1.3385,0.026803
29538,1.9412,3.3636,0.1,0.00074964,7491.2,0.00076363,8105.6,-0.00012361,1439.2,-0.00031532,-1.2254,0.024312
29539,2.0294,3.2727,0.1,0.0007888,7882.5,0.00080294,8464.4,-0.00014575,1336.3,-0.00032379,-1.3794,0.026707
29540,1.9412,3.5455,0.1,0.00073283,7323.2,0.00074646,7916.5,-0.00012267,1386.2,-0.00030732,-1.2183,0.024111
29541,2.0294,3.4545,0.1,0.00077435,7738.2,0.00078821,8307.4,-0.00014354,1306.6,-0.00031763,-1.4816,0.026519
29542,1.9412,3.7273,0.1,0.00071018,7096.9,0.00072324,7653.7,-0.00012332,1293,-0.00029558,-1.352,0.023837
29543,2.0294,3.6364,0.1,0.00075242,7519,0.00076577,8061.5,-0.00014194,1241.3,-0.00030736,-1.5262,0.026244
29544,1.9412,3.9091,0.1,0.000683,6825.3,0.00069522,7327.3,-0.00012655,1152.8,-0.00028019,-1.5415,0.023496
29545,2.0294,3.8182,0.1,0.00072387,7233.7,0.00073636,7728.6,-0.00014284,1122.6,-0.00029241,-1.2451,0.025891
29546,1.9412,4.0909,0.1,0.00065275,6523,0.00066379,6954,-0.00013217,973.46,-0.00026196,-1.6951,0.023092
29547,2.0294,4,0.1,0.00069057,6900.9,0.00070173,7324,-0.00014717,945.69,-0.00027325,-1.5976,0.025464
29548,1.9412,4.2727,0.1,0.00062067,6202.4,0.00063017,6553.2,-0.00013858,777.07,-0.00024227,-2.009,0.022627
29549,2.0294,4.1818,0.1,0.0006543,6538.5,0.00066362,6872.7,-0.00015352,733.09,-0.0002514,-2.3618,0.02497
29550,1.9412,4.4545,0.1,0.00058764,5872.4,0.00059539,6143.8,-0.00014372,590.44,-0.00022264,-2.5388,0.022101
29551,2.0294,4.3636,0.1,0.0006161,6156.7,0.00062327,6400.7,-0.0001587,525.24,-0.00022904,-3.2262,0.024411
29552,1.9412,4.6364,0.1,0.00055456,5541.8,0.00056057,5743.3,-0.00014631,432.07,-0.00020426,-3.3237,0.021518
29553,2.0294,4.5455,0.1,0.00057692,5765.2,0.00058204,5931.9,-0.00016019,355.12,-0.0002081,-4.8861,0.02379
29554,1.9412,4.8182,0.1,0.00052259,5222.3,0.00052704,5366.5,-0.00014636,306.82,-0.0001878,-4.5241,0.020879
29555,2.0294,4.7273,0.1,0.0005381,5377.2,0.00054154,5486.4,-0.00015756,233.66,-0.00018961,-7.2138,0.023111
29556,1.9412,5,0.1,0.00049305,4927.1,0.00049615,5025.1,-0.00014478,209.36,-0.00017349,-6.3298,0.020185
29557,2.0294,4.9091,0.1,0.00050134,5010,0.00050356,5079.2,-0.00015208,152.93,-0.00017383,-10.467,0.022378
29558,1.9412,5.1818,0.1,0.00046725,4669.2,0.00046915,4728.3,-0.00014276,130.62,-0.0001614,-9.4,0.019436
29559,2.0294,5.0909,0.1,0.00046826,4679.3,0.00046957,4720.1,-0.00014551,98.593,-0.00016064,-15.088,0.021593
29560,1.9412,5.3636,0.1,0.0004463,4459.9,0.00044705,4483.1,-0.00014104,64.45,-0.00015186,-16.814,0.01863
29561,2.0294,5.2727,0.1,0.00044021,4399,0.00044075,4416.1,-0.00013925,58.129,-0.00015005,-22.99,0.020757
29562,1.9412,5.5455,0.1,0.00043112,4308.3,0.00043067,4295.6,-0.00013837,20.066,-0.00014698,-44.657,0.017763
29563,2.0294,5.4545,0.1,0.00041834,4180.5,0.00041807,4173.2,-0.00013369,27.55,-0.00014286,-41.396,0.019868
29564,1.9412,5.7273,0.1,0.00042373,4234.3,0.00042178,4179.5,-0.00013358,6.8127,-0.00014964,-113.83,0.016829
29565,2.0294,5.6364,0.1,0.00040366,4033.8,0.00040236,3997.3,-0.0001282,10.841,-0.00014059,-82.204,0.018919
29566,2.0294,5.8182,0.1,0.00039934,3990.7,0.00039644,3910.4,-0.00012331,5.2003,-0.00014537,-160.59,0.017906
29567,1.9412,5.9091,0.1,0.00040888,4086,0.00040723,4038.8,-0.0001304,-0.6676,-0.00014257,-92.162,0.015819
29568,2.1176,0.27273,0.1,0.00037932,3790.6,0.00037709,3728.6,-0.00011811,7.8621,-0.00013621,-128.07,0.02007
29569,2.2059,0.18182,0.1,0.00034962,3493.8,0.00034663,3412,-0.00010657,6.8657,-0.00012932,-164.12,0.021215
29570,2.1176,0.090909,0.1,0.00036168,3614.3,0.00036,3566.8,-0.00011477,-0.5259,-0.00012705,-92.763,0.018982
29571,2.1176,0.45455,0.1,0.0003911,3908.3,0.00038996,3876.4,-0.00012395,15.107,-0.00013624,-77.24,0.021096
29572,2.2059,0.36364,0.1,0.00035733,3570.8,0.0003557,3525.6,-0.00011192,12.02,-0.00012682,-99.871,0.022314
29573,2.1176,0.63636,0.1,0.00041293,4126.5,0.00041235,4110.5,-0.00013135,25.363,-0.00014219,-56.078,0.022066
29574,2.2059,0.54545,0.1,0.0003783,3780.3,0.00037705,3745.7,-0.00011909,17.962,-0.0001328,-85.064,0.023361
29575,2.1176,0.81818,0.1,0.00044234,4420.4,0.00044212,4415,-0.0001407,35.905,-0.00015154,-45.607,0.022988
29576,2.2059,0.72727,0.1,0.00040867,4083.9,0.00040732,4046.5,-0.00012864,19.544,-0.00014347,-91.95,0.024364
29577,2.1176,1,0.1,0.00047799,4776.6,0.00047817,4783,-0.00015172,50.251,-0.00016323,-36.222,0.023863
29578,2.2059,0.90909,0.1,0.0004469,4465.9,0.00044524,4419.9,-0.00014048,18.999,-0.00015743,-108.38,0.025327
29579,2.1176,1.1818,0.1,0.00051842,5180.6,0.00051931,5208.4,-0.00016305,81.475,-0.00017711,-24.172,0.024692
29580,2.2059,1.0909,0.1,0.0004916,4912.6,0.00048974,4860.9,-0.00015462,19.371,-0.00017315,-119.84,0.026252
29581,2.1176,1.3636,0.1,0.00056191,5615.3,0.0005641,5683.2,-0.00017191,153.16,-0.00019408,-13.477,0.025472
29582,2.2059,1.2727,0.1,0.0005413,5409.3,0.00053977,5366.6,-0.00017128,24.059,-0.00018872,-107.03,0.027136
29583,2.1176,1.5455,0.1,0.00060653,6061.1,0.00061074,6194.9,-0.00017579,285.31,-0.00021471,-7.1105,0.026197
29584,2.2059,1.4545,0.1,0.00059412,5937.1,0.00059389,5931.7,-0.00018916,48.138,-0.00020323,-57.577,0.027971
29585,2.1176,1.7273,0.1,0.0006505,6500.5,0.00065722,6724,-0.00017409,477.89,-0.00023822,-3.9566,0.026861
29586,2.2059,1.6364,0.1,0.00064755,6471,0.00064983,6541.6,-0.00019914,162.77,-0.00022319,-17.903,0.028749
29587,2.1176,1.9091,0.1,0.00069255,6920.7,0.00070177,7244.4,-0.00016873,703.72,-0.00026269,-2.2679,0.027458
29588,2.2059,1.8182,0.1,0.00069876,6982.8,0.00070443,7165.9,-0.00019737,390.14,-0.00025022,-7.0182,0.029461
29589,2.1176,2.0909,0.1,0.0007316,7310.9,0.00074282,7724.9,-0.00016342,915.74,-0.00028546,-1.2222,0.027982
29590,2.2059,2,0.1,0.00074662,7461.1,0.00075546,7763.1,-0.00019085,652.95,-0.00027844,-5.1933,0.030098
29591,2.1176,2.2727,0.1,0.00076599,7654.6,0.00077854,8133.9,-0.00016114,1073.4,-0.00030419,-1.3588,0.028429
29592,2.2059,2.1818,0.1,0.00078943,7888.8,0.00080049,8284.3,-0.00018658,867.86,-0.00030267,-4.3914,0.030654
29593,2.1176,2.4545,0.1,0.00079356,7930.2,0.00080689,8447.7,-0.00016219,1166.4,-0.00031766,-1.7675,0.028792
29594,2.2059,2.3636,0.1,0.00082413,8235.6,0.00083648,8686.6,-0.00018723,994.91,-0.00031992,-2.0947,0.031119
29595,2.1176,2.6364,0.1,0.00081292,8123.6,0.00082667,8659.8,-0.00016482,1210.2,-0.0003261,-1.6344,0.02906
29596,2.2059,2.5455,0.1,0.00084858,8479.9,0.00086149,8954.6,-0.00019062,1049.5,-0.00033056,-2.0035,0.031482
29597,2.1176,2.8182,0.1,0.00082407,8235.1,0.00083801,8778.6,-0.0001671,1226.6,-0.00033055,-1.4818,0.029225
29598,2.2059,2.7273,0.1,0.00086295,8623.6,0.0008761,9106.6,-0.00019386,1067.4,-0.00033614,-1.6374,0.031733
29599,2.1176,3,0.1,0.00082767,8271,0.00084167,8816.4,-0.00016797,1230.4,-0.00033192,-1.4442,0.02928
29600,2.2059,2.9091,0.1,0.00086936,8687.6,0.00088258,9172.9,-0.00019562,1071.8,-0.00033845,-1.4198,0.03186
29601,2.1176,3.1818,0.1,0.00082407,8235.1,0.00083801,8778.6,-0.0001671,1226.6,-0.00033055,-1.4818,0.029225
29602,2.2059,3.0909,0.1,0.00086936,8687.6,0.00088258,9172.9,-0.00019562,1071.8,-0.00033845,-1.4198,0.03186
29603,2.1176,3.3636,0.1,0.00081292,8123.6,0.00082667,8659.8,-0.00016482,1210.2,-0.0003261,-1.6344,0.02906
29604,2.2059,3.2727,0.1,0.00086295,8623.6,0.0008761,9106.6,-0.00019386,1067.4,-0.00033614,-1.6374,0.031733
29605,2.1176,3.5455,0.1,0.00079356,7930.2,0.00080689,8447.7,-0.00016219,1166.4,-0.00031766,-1.7675,0.028792
29606,2.2059,3.4545,0.1,0.00084858,8479.9,0.00086149,8954.6,-0.00019062,1049.5,-0.00033056,-2.0035,0.031482
29607,2.1176,3.7273,0.1,0.00076599,7654.6,0.00077854,8133.9,-0.00016114,1073.4,-0.00030419,-1.3588,0.028429
29608,2.2059,3.6364,0.1,0.00082413,8235.6,0.00083648,8686.6,-0.00018723,994.91,-0.00031992,-2.0947,0.031119
29609,2.1176,3.9091,0.1,0.0007316,7310.9,0.00074282,7724.9,-0.00016342,915.74,-0.00028546,-1.2222,0.027982
29610,2.2059,3.8182,0.1,0.00078942,7888.8,0.00080049,8284.3,-0.00018658,867.86,-0.00030267,-4.3914,0.030654
29611,2.1176,4.0909,0.1,0.00069255,6920.7,0.00070177,7244.4,-0.00016873,703.72,-0.00026269,-2.2679,0.027458
29612,2.2059,4,0.1,0.00074662,7461.1,0.00075546,7763.1,-0.00019085,652.95,-0.00027844,-5.1933,0.030098
29613,2.1176,4.2727,0.1,0.0006505,6500.5,0.00065722,6724,-0.00017409,477.89,-0.00023822,-3.9566,0.026861
29614,2.2059,4.1818,0.1,0.00069876,6982.8,0.00070443,7165.9,-0.00019737,390.14,-0.00025022,-7.0182,0.029461
29615,2.1176,4.4545,0.1,0.00060653,6061.1,0.00061074,6194.9,-0.00017579,285.31,-0.00021471,-7.1105,0.026197
29616,2.2059,4.3636,0.1,0.00064755,6471,0.00064983,6541.6,-0.00019914,162.77,-0.00022319,-17.903,0.028749
29617,2.1176,4.6364,0.1,0.00056191,5615.3,0.0005641,5683.2,-0.00017191,153.16,-0.00019408,-13.477,0.025472
29618,2.2059,4.5455,0.1,0.00059412,5937.1,0.00059389,5931.7,-0.00018916,48.138,-0.00020323,-57.577,0.027971
29619,2.1176,4.8182,0.1,0.00051842,5180.6,0.00051931,5208.4,-0.00016305,81.475,-0.00017711,-24.172,0.024692
29620,2.2059,4.7273,0.1,0.0005413,5409.3,0.00053977,5366.6,-0.00017128,24.059,-0.00018872,-107.03,0.027136
29621,2.1176,5,0.1,0.00047799,4776.6,0.00047817,4783,-0.00015172,50.251,-0.00016323,-36.222,0.023863
29622,2.2059,4.9091,0.1,0.0004916,4912.6,0.00048974,4860.9,-0.00015462,19.371,-0.00017315,-119.84,0.026252
29623,2.1176,5.1818,0.1,0.00044234,4420.4,0.00044212,4415,-0.0001407,35.905,-0.00015154,-45.607,0.022988
29624,2.2059,5.0909,0.1,0.0004469,4465.9,0.00044524,4419.9,-0.00014048,18.999,-0.00015743,-108.38,0.025327
29625,2.1176,5.3636,0.1,0.00041293,4126.5,0.00041235,4110.5,-0.00013135,25.363,-0.00014219,-56.078,0.022066
29626,2.2059,5.2727,0.1,0.00040867,4083.9,0.00040732,4046.5,-0.00012864,19.544,-0.00014347,-91.95,0.024364
29627,2.1176,5.5455,0.1,0.0003911,3908.3,0.00038996,3876.4,-0.00012395,15.107,-0.00013624,-77.24,0.021096
29628,2.2059,5.4545,0.1,0.0003783,3780.3,0.00037705,3745.7,-0.00011909,17.962,-0.0001328,-85.064,0.023361
29629,2.1176,5.7273,0.1,0.00037932,3790.6,0.00037709,3728.6,-0.00011811,7.8621,-0.00013621,-128.07,0.02007
29630,2.2059,5.6364,0.1,0.00035733,3570.8,0.0003557,3525.6,-0.00011192,12.02,-0.00012682,-99.871,0.022314
29631,2.2059,5.8182,0.1,0.00034962,3493.8,0.00034663,3412,-0.00010657,6.8657,-0.00012932,-164.12,0.021215
29632,2.1176,5.9091,0.1,0.00036168,3614.3,0.00036,3566.8,-0.00011477,-0.5259,-0.00012705,-92.763,0.018982
29633,2.2941,0.27273,0.1,0.00032771,3274.8,0.00032533,3209.6,-0.00010046,10.38,-0.00011993,-135.9,0.023521
29634,2.3824,0.18182,0.1,0.0002924,2922,0.00028948,2843.4,-8.7538e-05,10.666,-0.00011029,-160.25,0.024718
29635,2.2941,0.090909,0.1,0.00030696,3067.5,0.00030535,3022,-9.6907e-05,-0.40277,-0.00010865,-88.661,0.022355
29636,2.2941,0.45455,0.1,0.00034503,3447.9,0.00034323,3398.2,-0.00010711,14.539,-0.00012377,-110.63,0.024639
29637,2.3824,0.36364,0.1,0.00030481,3046,0.00030294,2995,-9.3597e-05,15.547,-0.00011078,-113.54,0.0259
29638,2.2941,0.63636,0.1,0.00037535,3750.9,0.00037314,3690.2,-0.00011603,14.758,-0.00013555,-131.95,0.025718
29639,2.3824,0.54545,0.1,0.00033432,3340.9,0.00033188,3274.6,-0.00010191,15.244,-0.00012289,-142.36,0.027049
29640,2.2941,0.81818,0.1,0.00041528,4150,0.00041215,4064.3,-0.00012707,12.768,-0.00015241,-177.66,0.026765
29641,2.3824,0.72727,0.1,0.00037547,3752.1,0.00037149,3645.1,-0.00011209,11.769,-0.00014231,-215.29,0.028173
29642,2.2941,1,0.1,0.00046307,4627.6,0.00045887,4513.1,-0.00014028,11.38,-0.0001725,-230.7,0.027783
29643,2.3824,0.90909,0.1,0.0004259,4256.1,0.00041979,4094.5,-0.00012389,9.5213,-0.00016696,-314.15,0.029278
29644,2.2941,1.1818,0.1,0.00051725,5168.9,0.00051232,5035,-0.00015628,11.338,-0.00019346,-267.98,0.028769
29645,2.3824,1.0909,0.1,0.00048442,4840.8,0.00047604,4622,-0.00013796,8.6905,-0.00019476,-418.08,0.030363
29646,2.2941,1.3636,0.1,0.00057609,5756.9,0.00057142,5629,-0.00017597,13.41,-0.0002123,-259.49,0.029719
29647,2.3824,1.2727,0.1,0.00055027,5498.9,0.00054015,5235.7,-0.00015549,8.977,-0.00022322,-499.88,0.031425
29648,2.2941,1.5455,0.1,0.00063713,6366.9,0.00063431,6288.3,-0.0001999,20.386,-0.00022566,-173.16,0.03062
29649,2.3824,1.4545,0.1,0.00062246,6220.3,0.00061208,5948.1,-0.00017824,9.9457,-0.00024884,-520.49,0.032453
29650,2.2941,1.7273,0.1,0.00069701,6965.2,0.00069775,6988.8,-0.00022072,87.748,-0.00023759,-38.989,0.031459
29651,2.3824,1.6364,0.1,0.00069696,6964.8,0.00068912,6754.2,-0.00020757,16.782,-0.00026539,-417.68,0.03343
29652,2.2941,1.9091,0.1,0.00075333,7528.1,0.0007583,7686,-0.00021959,338.58,-0.00026605,-10.515,0.032223
29653,2.3824,1.8182,0.1,0.00076856,7680.3,0.00076626,7616.1,-0.00024322,31.284,-0.00026817,-156.18,0.034338
29654,2.2941,2.0909,0.1,0.00080443,8038.8,0.00081285,8320.5,-0.00021378,606.78,-0.00029561,-8.0471,0.032903
29655,2.3824,2,0.1,0.0008336,8330.2,0.00083748,8450.2,-0.0002537,251.46,-0.00028791,-5.5164,0.03516
29656,2.2941,2.2727,0.1,0.0008471,8465.2,0.0008577,8831.6,-0.00021197,794.58,-0.00031838,-4.9788,0.033488
29657,2.3824,2.1818,0.1,0.00088808,8874.7,0.00089602,9131.9,-0.00024762,539.05,-0.00031937,-0.051132,0.035884
29658,2.2941,2.4545,0.1,0.00087829,8776.9,0.00088995,9185.1,-0.00021454,886.44,-0.00033282,-2.312,0.033965
29659,2.3824,2.3636,0.1,0.0009279,9272.6,0.00093742,9588.8,-0.00024882,675.89,-0.00033956,-5.8598,0.036493
29660,2.2941,2.6364,0.1,0.00089755,8969.3,0.00090957,9391.3,-0.00021831,916.84,-0.00034061,-2.024,0.034319
29661,2.3824,2.5455,0.1,0.00094884,9481.9,0.00095896,9819,-0.00025239,717.44,-0.00034816,-2.1412,0.036971
29662,2.2941,2.8182,0.1,0.00090711,9064.8,0.00091924,9490.2,-0.00022095,923.25,-0.00034404,-1.5832,0.034536
29663,2.3824,2.7273,0.1,0.00095739,9567.3,0.00096765,9909.3,-0.00025439,727.33,-0.00035142,-1.6861,0.037299
29664,2.2941,3,0.1,0.00090991,9092.8,0.00092206,9518.6,-0.00022184,923.86,-0.00034498,-1.3965,0.03461
29665,2.3824,2.9091,0.1,0.00095993,9592.6,0.00097022,9935.7,-0.00025512,728.95,-0.00035229,-1.1276,0.037466
29666,2.2941,3.1818,0.1,0.00090711,9064.8,0.00091924,9490.2,-0.00022095,923.25,-0.00034404,-1.5832,0.034536
29667,2.3824,3.0909,0.1,0.00095993,9592.6,0.00097022,9935.7,-0.00025512,728.95,-0.00035229,-1.1276,0.037466
29668,2.2941,3.3636,0.1,0.00089755,8969.3,0.00090957,9391.3,-0.00021831,916.84,-0.00034061,-2.024,0.034319
29669,2.3824,3.2727,0.1,0.00095739,9567.3,0.00096765,9909.3,-0.00025439,727.33,-0.00035142,-1.6861,0.037299
29670,2.2941,3.5455,0.1,0.00087829,8776.9,0.00088995,9185.1,-0.00021454,886.44,-0.00033282,-2.312,0.033965
29671,2.3824,3.4545,0.1,0.00094884,9481.9,0.00095896,9819,-0.00025239,717.44,-0.00034816,-2.1412,0.036971
29672,2.2941,3.7273,0.1,0.0008471,8465.2,0.0008577,8831.6,-0.00021197,794.58,-0.00031838,-4.9788,0.033488
29673,2.3824,3.6364,0.1,0.0009279,9272.6,0.00093742,9588.8,-0.00024882,675.89,-0.00033956,-5.8598,0.036493
29674,2.2941,3.9091,0.1,0.00080443,8038.8,0.00081285,8320.5,-0.00021378,606.78,-0.00029561,-8.0471,0.032903
29675,2.3824,3.8182,0.1,0.00088808,8874.7,0.00089602,9131.9,-0.00024762,539.05,-0.00031937,-0.05113,0.035884
29676,2.2941,4.0909,0.1,0.00075333,7528.1,0.0007583,7686,-0.00021959,338.58,-0.00026605,-10.515,0.032223
29677,2.3824,4,0.1,0.0008336,8330.2,0.00083748,8450.2,-0.0002537,251.46,-0.00028791,-5.5164,0.03516
29678,2.2941,4.2727,0.1,0.00069701,6965.2,0.00069775,6988.8,-0.00022072,87.748,-0.00023759,-38.988,0.031459
29679,2.3824,4.1818,0.1,0.00076856,7680.3,0.00076626,7616.1,-0.00024322,31.284,-0.00026817,-156.18,0.034338
29680,2.2941,4.4545,0.1,0.00063713,6366.9,0.00063431,6288.3,-0.0001999,20.386,-0.00022566,-173.16,0.03062
29681,2.3824,4.3636,0.1,0.00069696,6964.8,0.00068912,6754.2,-0.00020757,16.782,-0.00026539,-417.68,0.03343
29682,2.2941,4.6364,0.1,0.00057609,5756.9,0.00057142,5629,-0.00017597,13.41,-0.0002123,-259.49,0.029719
29683,2.3824,4.5455,0.1,0.00062246,6220.3,0.00061208,5948.1,-0.00017824,9.9457,-0.00024884,-520.49,0.032453
29684,2.2941,4.8182,0.1,0.00051725,5168.9,0.00051232,5035,-0.00015628,11.338,-0.00019346,-267.98,0.028769
29685,2.3824,4.7273,0.1,0.00055027,5498.9,0.00054015,5235.7,-0.00015549,8.977,-0.00022322,-499.88,0.031425
29686,2.2941,5,0.1,0.00046307,4627.6,0.00045887,4513.1,-0.00014028,11.38,-0.0001725,-230.7,0.027783
29687,2.3824,4.9091,0.1,0.00048442,4840.8,0.00047604,4622,-0.00013796,8.6905,-0.00019476,-418.08,0.030363
29688,2.2941,5.1818,0.1,0.00041528,4150,0.00041215,4064.3,-0.00012707,12.768,-0.00015241,-177.66,0.026765
29689,2.3824,5.0909,0.1,0.0004259,4256.1,0.00041979,4094.5,-0.00012389,9.5213,-0.00016696,-314.15,0.029278
29690,2.2941,5.3636,0.1,0.00037535,3750.9,0.00037314,3690.2,-0.00011603,14.758,-0.00013555,-131.95,0.025718
29691,2.3824,5.2727,0.1,0.00037547,3752.1,0.00037149,3645.1,-0.00011209,11.769,-0.00014231,-215.29,0.028173
29692,2.2941,5.5455,0.1,0.00034503,3447.9,0.00034323,3398.2,-0.00010711,14.539,-0.00012377,-110.63,0.024639
29693,2.3824,5.4545,0.1,0.00033432,3340.9,0.00033188,3274.6,-0.00010191,15.244,-0.00012289,-142.36,0.027049
29694,2.2941,5.7273,0.1,0.00032771,3274.8,0.00032533,3209.6,-0.00010046,10.38,-0.00011993,-135.9,0.023521
29695,2.3824,5.6364,0.1,0.00030481,3046,0.00030294,2995,-9.3597e-05,15.547,-0.00011078,-113.54,0.0259
29696,2.3824,5.8182,0.1,0.0002924,2922,0.00028948,2843.4,-8.7538e-05,10.666,-0.00011029,-160.25,0.024718
29697,2.2941,5.9091,0.1,0.00030696,3067.5,0.00030535,3022,-9.6907e-05,-0.40277,-0.00010865,-88.661,0.022355
29698,2.4706,0.27273,0.1,0.00026967,2694.8,0.00026724,2629.9,-8.0653e-05,15.98,-0.00010129,-139.11,0.027145
29699,2.5588,0.18182,0.1,0.00022822,2280.6,0.00022549,2209.4,-6.6211e-05,17.698,-8.8629e-05,-150.74,0.028376
29700,2.4706,0.090909,0.1,0.00024464,2444.7,0.00024325,2405.5,-7.6794e-05,0.862,-8.7213e-05,-77.428,0.025906
29701,2.4706,0.45455,0.1,0.00029531,2951.1,0.00029263,2879.1,-8.8454e-05,15.824,-0.00011087,-152.58,0.028356
29702,2.5588,0.36364,0.1,0.0002495,2493.3,0.00024711,2430.3,-7.3773e-05,19.271,-9.4685e-05,-137.85,0.029639
29703,2.4706,0.63636,0.1,0.00033701,3367.7,0.00033238,3245.8,-9.8026e-05,11.834,-0.00013174,-241.48,0.029548
29704,2.5588,0.54545,0.1,0.00029184,2916.4,0.00028724,2796.7,-8.3276e-05,12.771,-0.00011641,-236.21,0.030891
29705,2.4706,0.81818,0.1,0.00038969,3894.2,0.00038206,3697.4,-0.00010884,9.0151,-0.00015985,-374.27,0.030732
29706,2.5588,0.72727,0.1,0.00034641,3461.7,0.00033796,3248.2,-9.3272e-05,8.1456,-0.00014747,-399.05,0.032143
29707,2.4706,1,0.1,0.00045155,4512.3,0.00044031,4228.5,-0.00012142,7.9342,-0.00019271,-527.75,0.03191
29708,2.5588,0.90909,0.1,0.00041047,4101.9,0.00039701,3771.6,-0.00010413,6.1841,-0.00018474,-599.44,0.033403
29709,2.4706,1.1818,0.1,0.00052209,5217.3,0.00050731,4848.7,-0.00013695,7.9841,-0.00022817,-677.48,0.03308
29710,2.5588,1.0909,0.1,0.00048403,4836.9,0.00046484,4376.1,-0.00011686,5.5004,-0.00022682,-820.69,0.034672
29711,2.4706,1.3636,0.1,0.00060114,6007.2,0.00058392,5578.2,-0.00015738,8.3486,-0.00026325,-787.1,0.034233
29712,2.5588,1.2727,0.1,0.00056875,5683.6,0.00054372,5090.3,-0.00013299,5.7164,-0.00027292,-1045.6,0.035944
29713,2.4706,1.5455,0.1,0.00068586,6853.9,0.00066913,6430.8,-0.00018489,13.985,-0.00029182,-789.43,0.035354
29714,2.5588,1.4545,0.1,0.00066621,6657.5,0.00063668,5958.4,-0.0001554,6.9899,-0.00032021,-1231.4,0.037209
29715,2.4706,1.7273,0.1,0.00077029,7697.6,0.00075853,7388.3,-0.00022229,18.735,-0.00030464,-600.03,0.03642
29716,2.5588,1.6364,0.1,0.00077629,7757.6,0.0007464,7037.7,-0.00018884,10.721,-0.00036153,-1286.8,0.038441
29717,2.4706,1.9091,0.1,0.00084912,8485.4,0.00084531,8379.3,-0.00026617,28.071,-0.00030106,-234.1,0.037405
29718,2.5588,1.8182,0.1,0.00089214,8915.2,0.0008694,8339.4,-0.00024002,3.73,-0.00038158,-1059.9,0.03961
29719,2.4706,2.0909,0.1,0.0009166,9159.6,0.00091974,9254.8,-0.00028674,189.77,-0.00031156,3.2904,0.038289
29720,2.5588,2,0.1,0.00098143,9807.6,0.00097335,9580.3,-0.00030648,-35.846,-0.00035603,-408.17,0.040679
29721,2.4706,2.2727,0.1,0.00096746,9667.9,0.00097408,9876.6,-0.0002829,432.15,-0.00034045,-0.28784,0.039053
29722,2.5588,2.1818,0.1,0.0010521,10514,0.001053,10540,-0.00033975,75.087,-0.0003529,-23.775,0.041625
29723,2.4706,2.4545,0.1,0.00099664,9959.5,0.0010044,10207,-0.00028459,522.55,-0.00035492,-5.901,0.039677
29724,2.5588,2.3636,0.1,0.0010795,10788,0.0010835,10910,-0.00033475,253.55,-0.00036911,-4.607,0.042422
29725,2.4706,2.6364,0.1,0.0010069,10062,0.001015,10322,-0.00028645,543.13,-0.00035899,-1.9303,0.040139
29726,2.5588,2.5455,0.1,0.001079,10783,0.0010837,10926,-0.00033094,296.8,-0.00037104,-4.4832,0.043042
29727,2.4706,2.8182,0.1,0.0010086,10079,0.0010168,10341,-0.0002867,547,-0.00035967,-1.249,0.040421
29728,2.5588,2.7273,0.1,0.0010691,10683,0.0010741,10839,-0.00032591,319.61,-0.00036862,-1.3142,0.043464
29729,2.4706,3,0.1,0.0010084,10077,0.0010166,10339,-0.00028662,547.5,-0.0003596,-0.84212,0.040516
29730,2.5588,2.9091,0.1,0.0010621,10614,0.0010674,10775,-0.00032287,329.18,-0.00036671,-0.213,0.043676
29731,2.4706,3.1818,0.1,0.0010086,10079,0.0010168,10341,-0.0002867,547,-0.00035967,-1.249,0.040421
29732,2.5588,3.0909,0.1,0.0010621,10614,0.0010674,10775,-0.00032287,329.18,-0.00036671,-0.213,0.043676
29733,2.4706,3.3636,0.1,0.0010069,10062,0.001015,10322,-0.00028645,543.13,-0.00035899,-1.9303,0.040139
29734,2.5588,3.2727,0.1,0.0010691,10683,0.0010741,10839,-0.00032591,319.61,-0.00036862,-1.3142,0.043464
29735,2.4706,3.5455,0.1,0.00099664,9959.5,0.0010044,10207,-0.00028459,522.55,-0.00035492,-5.901,0.039677
29736,2.5588,3.4545,0.1,0.001079,10783,0.0010837,10926,-0.00033094,296.8,-0.00037104,-4.4832,0.043042
29737,2.4706,3.7273,0.1,0.00096746,9667.9,0.00097408,9876.6,-0.0002829,432.15,-0.00034045,-0.28784,0.039053
29738,2.5588,3.6364,0.1,0.0010795,10788,0.0010835,10910,-0.00033475,253.55,-0.00036911,-4.607,0.042422
29739,2.4706,3.9091,0.1,0.0009166,9159.6,0.00091974,9254.8,-0.00028674,189.77,-0.00031156,3.2904,0.038289
29740,2.5588,3.8182,0.1,0.0010521,10514,0.001053,10540,-0.00033975,75.087,-0.0003529,-23.775,0.041625
29741,2.4706,4.0909,0.1,0.00084912,8485.4,0.00084531,8379.3,-0.00026617,28.071,-0.00030106,-234.1,0.037405
29742,2.5588,4,0.1,0.00098143,9807.6,0.00097335,9580.3,-0.00030648,-35.846,-0.00035603,-408.17,0.040679
29743,2.4706,4.2727,0.1,0.00077029,7697.6,0.00075853,7388.3,-0.00022229,18.735,-0.00030464,-600.03,0.03642
29744,2.5588,4.1818,0.1,0.00089214,8915.2,0.0008694,8339.4,-0.00024002,3.73,-0.00038158,-1059.9,0.03961
29745,2.4706,4.4545,0.1,0.00068586,6853.9,0.00066913,6430.8,-0.00018489,13.985,-0.00029182,-789.43,0.035354
29746,2.5588,4.3636,0.1,0.00077629,7757.6,0.0007464,7037.7,-0.00018884,10.721,-0.00036153,-1286.8,0.038441
29747,2.4706,4.6364,0.1,0.00060114,6007.2,0.00058392,5578.2,-0.00015738,8.3486,-0.00026325,-787.1,0.034233
29748,2.5588,4.5455,0.1,0.00066621,6657.5,0.00063668,5958.4,-0.0001554,6.9899,-0.00032021,-1231.4,0.037209
29749,2.4706,4.8182,0.1,0.00052209,5217.3,0.00050731,4848.7,-0.00013695,7.9841,-0.00022817,-677.48,0.03308
29750,2.5588,4.7273,0.1,0.00056875,5683.6,0.00054372,5090.3,-0.00013299,5.7164,-0.00027292,-1045.6,0.035944
29751,2.4706,5,0.1,0.00045154,4512.3,0.00044031,4228.5,-0.00012142,7.9342,-0.00019271,-527.75,0.03191
29752,2.5588,4.9091,0.1,0.00048403,4836.9,0.00046484,4376.1,-0.00011686,5.5004,-0.00022682,-820.69,0.034672
29753,2.4706,5.1818,0.1,0.00038969,3894.2,0.00038206,3697.4,-0.00010884,9.0151,-0.00015985,-374.27,0.030732
29754,2.5588,5.0909,0.1,0.00041047,4101.9,0.00039701,3771.6,-0.00010413,6.1841,-0.00018474,-599.44,0.033403
29755,2.4706,5.3636,0.1,0.00033701,3367.7,0.00033238,3245.8,-9.8026e-05,11.834,-0.00013174,-241.49,0.029548
29756,2.5588,5.2727,0.1,0.00034641,3461.7,0.00033796,3248.2,-9.3272e-05,8.1456,-0.00014747,-399.05,0.032143
29757,2.4706,5.5455,0.1,0.00029531,2951.1,0.00029263,2879.1,-8.8454e-05,15.824,-0.00011087,-152.58,0.028356
29758,2.5588,5.4545,0.1,0.00029184,2916.4,0.00028724,2796.7,-8.3276e-05,12.771,-0.00011641,-236.21,0.030891
29759,2.4706,5.7273,0.1,0.00026967,2694.8,0.00026724,2629.9,-8.0653e-05,15.98,-0.00010129,-139.11,0.027145
29760,2.5588,5.6364,0.1,0.0002495,2493.3,0.00024711,2430.3,-7.3773e-05,19.271,-9.4685e-05,-137.85,0.029639
29761,2.5588,5.8182,0.1,0.00022822,2280.6,0.00022549,2209.4,-6.6211e-05,17.698,-8.8629e-05,-150.74,0.028376
29762,2.4706,5.9091,0.1,0.00024464,2444.7,0.00024325,2405.5,-7.6794e-05,0.862,-8.7213e-05,-77.428,0.025906
29763,2.6471,0.27273,0.1,0.00020879,2086.4,0.00020596,2014.3,-5.9201e-05,21.969,-8.2752e-05,-154.98,0.030901
29764,2.7353,0.18182,0.1,0.00016178,1616.6,0.00015873,1545,-4.1961e-05,37.106,-6.8449e-05,-161.92,0.032145
29765,2.6471,0.090909,0.1,0.00017524,1751.2,0.00017414,1720.6,-5.4513e-05,2.6231,-6.3101e-05,-61.911,0.029593
29766,2.6471,0.45455,0.1,0.00024921,2490.4,0.00024441,2368,-6.8951e-05,13.55,-0.00010256,-239.01,0.032202
29767,2.7353,0.36364,0.1,0.00020529,2051.5,0.0002002,1927.4,-5.3336e-05,22.354,-8.8851e-05,-244.49,0.033484
29768,2.6471,0.63636,0.1,0.00030615,3059.4,0.00029682,2829.2,-7.8703e-05,7.7321,-0.00013596,-422.51,0.033512
29769,2.7353,0.54545,0.1,0.00026771,2675.2,0.00025701,2421.7,-6.3449e-05,13.901,-0.00012628,-458.18,0.034839
29770,2.6471,0.81818,0.1,0.00037306,3728,0.00035749,3356.8,-8.8623e-05,4.9133,-0.00017689,-658.27,0.034841
29771,2.7353,0.72727,0.1,0.0003387,3384.7,0.00032025,2962,-7.2633e-05,10.02,-0.00017141,-732.16,0.036225
29772,2.6471,1,0.1,0.00044955,4492.4,0.00042647,3956.3,-9.9586e-05,3.6928,-0.00022377,-929.38,0.036196
29773,2.7353,0.90909,0.1,0.00041792,4176.3,0.00038998,3553.2,-8.1772e-05,8.6409,-0.00022277,-1050.8,0.037651
29774,2.6471,1.1818,0.1,0.00053799,5376.2,0.00050647,4657,-0.00011289,3.3647,-0.0002768,-1228.2,0.037576
29775,2.7353,1.0909,0.1,0.00050812,5077.7,0.00046893,4221.6,-9.1706e-05,9.2274,-0.00028147,-1416.6,0.039123
29776,2.6471,1.3636,0.1,0.00064172,6412.8,0.00060183,5510.6,-0.00013098,4.6357,-0.00033527,-1530.3,0.038974
29777,2.7353,1.2727,0.1,0.00061487,6144.5,0.00056243,5015.3,-0.00010402,7.9216,-0.00035015,-1841.5,0.040639
29778,2.6471,1.5455,0.1,0.00076345,7629.2,0.0007181,6596.5,-0.00015929,4.1651,-0.00039412,-1760.3,0.040373
29779,2.7353,1.4545,0.1,0.00074608,7455.6,0.00067903,6028.5,-0.00012045,21.573,-0.00043152,-2315.7,0.042189
29780,2.6471,1.7273,0.1,0.000902,9013.8,0.00085907,8002.4,-0.00020664,-4.8473,-0.0004402,-1759.7,0.041739
29781,2.7353,1.6364,0.1,0.00091843,9178,0.00083557,7402.1,-0.00015062,-7.8032,-0.00053083,-2864.5,0.043752
29782,2.6471,1.9091,0.1,0.0010223,10216,0.00099554,9526.2,-0.00027976,-55.941,-0.00043522,-1224,0.043025
29783,2.7353,1.8182,0.1,0.0011561,11553,0.0010728,9744.8,-0.00021012,105.8,-0.00063164,-3061.3,0.045279
29784,2.6471,2.0909,0.1,0.0011136,11129,0.0011035,10842,-0.00035017,-80.581,-0.0004036,-481.97,0.044186
29785,2.7353,2,0.1,0.0013477,13467,0.0013082,12575,-0.00031814,355.46,-0.00061355,-1864.2,0.046701
29786,2.6471,2.2727,0.1,0.0011601,11593,0.0011583,11542,-0.00037933,-11.321,-0.00038972,-89.428,0.045188
29787,2.7353,2.1818,0.1,0.0013459,13450,0.0013346,13133,-0.00041617,-20.81,-0.00049246,-594.07,0.047952
29788,2.6471,2.4545,0.1,0.0011586,11578,0.0011594,11603,-0.00037542,70.506,-0.00038755,-20.6,0.045997
29789,2.7353,2.3636,0.1,0.0012944,12935,0.0012887,12775,-0.00040809,26.227,-0.00045659,-338.21,0.048988
29790,2.6471,2.6364,0.1,0.0011389,11381,0.0011403,11424,-0.00036738,95.984,-0.00038125,-8.1855,0.046584
29791,2.7353,2.5455,0.1,0.0012282,12273,0.0012248,12176,-0.00039519,4.0811,-0.00042185,-196.25,0.049771
29792,2.6471,2.8182,0.1,0.0011208,11200,0.0011227,11258,-0.00036002,117.16,-0.00037573,-0.83608,0.046938
29793,2.7353,2.7273,0.1,0.0011836,11828,0.0011816,11771,-0.0003842,5.6898,-0.00040079,-118.9,0.050291
29794,2.6471,3,0.1,0.0011142,11135,0.0011163,11197,-0.0003573,124.5,-0.0003738,0.53463,0.047056
29795,2.7353,2.9091,0.1,0.0011615,11607,0.0011602,11567,-0.00037914,1.5545,-0.00039018,-81.406,0.050551
29796,2.6471,3.1818,0.1,0.0011208,11200,0.0011227,11258,-0.00036002,117.16,-0.00037573,-0.83608,0.046938
29797,2.7353,3.0909,0.1,0.0011615,11607,0.0011602,11567,-0.00037914,1.5545,-0.00039018,-81.407,0.050551
29798,2.6471,3.3636,0.1,0.0011389,11381,0.0011403,11424,-0.00036738,95.984,-0.00038125,-8.1856,0.046584
29799,2.7353,3.2727,0.1,0.0011836,11828,0.0011816,11771,-0.0003842,5.6898,-0.00040079,-118.9,0.050291
29800,2.6471,3.5455,0.1,0.0011586,11578,0.0011594,11603,-0.00037542,70.505,-0.00038755,-20.6,0.045997
29801,2.7353,3.4545,0.1,0.0012282,12273,0.0012248,12176,-0.00039519,4.0811,-0.00042185,-196.25,0.049771
29802,2.6471,3.7273,0.1,0.0011601,11593,0.0011583,11542,-0.00037933,-11.322,-0.00038972,-89.428,0.045188
29803,2.7353,3.6364,0.1,0.0012944,12935,0.0012887,12775,-0.00040809,26.227,-0.00045659,-338.21,0.048988
29804,2.6471,3.9091,0.1,0.0011136,11129,0.0011035,10842,-0.00035017,-80.581,-0.0004036,-481.97,0.044186
29805,2.7353,3.8182,0.1,0.0013459,13450,0.0013346,13133,-0.00041617,-20.81,-0.00049246,-594.07,0.047952
29806,2.6471,4.0909,0.1,0.0010223,10216,0.00099554,9526.2,-0.00027976,-55.941,-0.00043522,-1224,0.043025
29807,2.7353,4,0.1,0.0013477,13467,0.0013082,12575,-0.00031814,355.46,-0.00061355,-1864.2,0.046701
29808,2.6471,4.2727,0.1,0.000902,9013.8,0.00085907,8002.4,-0.00020664,-4.8473,-0.0004402,-1759.7,0.041739
29809,2.7353,4.1818,0.1,0.0011561,11553,0.0010728,9744.8,-0.00021012,105.8,-0.00063164,-3061.3,0.045279
29810,2.6471,4.4545,0.1,0.00076345,7629.2,0.0007181,6596.5,-0.00015929,4.1651,-0.00039412,-1760.3,0.040373
29811,2.7353,4.3636,0.1,0.00091843,9178,0.00083557,7402.1,-0.00015062,-7.8032,-0.00053083,-2864.5,0.043752
29812,2.6471,4.6364,0.1,0.00064172,6412.8,0.00060183,5510.6,-0.00013098,4.6357,-0.00033527,-1530.3,0.038974
29813,2.7353,4.5455,0.1,0.00074608,7455.6,0.00067903,6028.5,-0.00012045,21.573,-0.00043152,-2315.7,0.042189
29814,2.6471,4.8182,0.1,0.00053799,5376.2,0.00050647,4657,-0.00011289,3.3647,-0.0002768,-1228.2,0.037576
29815,2.7353,4.7273,0.1,0.00061487,6144.5,0.00056243,5015.3,-0.00010402,7.9216,-0.00035015,-1841.5,0.040639
29816,2.6471,5,0.1,0.00044955,4492.4,0.00042647,3956.2,-9.9586e-05,3.6928,-0.00022377,-929.38,0.036196
29817,2.7353,4.9091,0.1,0.00050812,5077.7,0.00046893,4221.6,-9.1706e-05,9.2274,-0.00028147,-1416.6,0.039123
29818,2.6471,5.1818,0.1,0.00037306,3728,0.00035749,3356.8,-8.8623e-05,4.9133,-0.00017689,-658.27,0.034841
29819,2.7353,5.0909,0.1,0.00041792,4176.3,0.00038998,3553.2,-8.1772e-05,8.6409,-0.00022277,-1050.8,0.037651
29820,2.6471,5.3636,0.1,0.00030615,3059.4,0.00029682,2829.2,-7.8703e-05,7.7321,-0.00013596,-422.51,0.033512
29821,2.7353,5.2727,0.1,0.0003387,3384.7,0.00032025,2962,-7.2633e-05,10.02,-0.00017141,-732.16,0.036225
29822,2.6471,5.5455,0.1,0.00024921,2490.4,0.00024441,2368,-6.8951e-05,13.55,-0.00010256,-239.01,0.032202
29823,2.7353,5.4545,0.1,0.00026771,2675.2,0.00025701,2421.7,-6.3449e-05,13.901,-0.00012628,-458.18,0.034839
29824,2.6471,5.7273,0.1,0.00020879,2086.4,0.00020596,2014.3,-5.9201e-05,21.969,-8.2752e-05,-154.98,0.030901
29825,2.7353,5.6364,0.1,0.00020529,2051.5,0.0002002,1927.4,-5.3336e-05,22.354,-8.8851e-05,-244.49,0.033484
29826,2.7353,5.8182,0.1,0.00016178,1616.6,0.00015873,1545,-4.1961e-05,37.106,-6.8449e-05,-161.92,0.032145
29827,2.6471,5.9091,0.1,0.00017524,1751.2,0.00017414,1720.6,-5.4513e-05,2.6231,-6.3101e-05,-61.911,0.029593
29828,2.8235,0.27273,0.1,0.00016358,1634.7,0.00015718,1489.7,-3.6788e-05,32.283,-7.8065e-05,-277.86,0.034741
29829,2.9118,0.18182,0.1,9.4924e-05,948.59,9.3213e-05,904.13,-2.6841e-05,2.0926,-3.8432e-05,-84.996,0.035977
29830,2.8235,0.090909,0.1,0.0001024,1023.2,0.00010118,994.86,-2.7744e-05,26.18,-4.1261e-05,-75.379,0.033374
29831,2.8235,0.45455,0.1,0.00023194,2317.8,0.00021914,2028.6,-4.8503e-05,17.681,-0.00011824,-506.3,0.036129
29832,2.9118,0.36364,0.1,0.00015572,1556.1,0.00015,1415.3,-3.9246e-05,-6.6623,-7.1233e-05,-247,0.037385
29833,2.8235,0.63636,0.1,0.00030861,3083.9,0.00028662,2600.8,-5.7691e-05,13.844,-0.00016759,-811.88,0.037557
29834,2.9118,0.54545,0.1,0.00021883,2186.8,0.00020696,1911.2,-4.7991e-05,-4.464,-0.00011014,-471.42,0.038841
29835,2.8235,0.81818,0.1,0.00039201,3917.4,0.00035875,3203.5,-6.5979e-05,12.267,-0.00022311,-1168.4,0.039039
29836,2.9118,0.72727,0.1,0.00028425,2840.5,0.00026468,2402.3,-5.5645e-05,-4.459,-0.00015232,-730.81,0.040362
29837,2.8235,1,0.1,0.00048559,4852.5,0.00043872,3865.7,-7.4042e-05,13.045,-0.0002866,-1584,0.040584
29838,2.9118,0.90909,0.1,0.00035478,3545.4,0.00032578,2913.2,-6.2601e-05,-4.9339,-0.00019935,-1032.4,0.041961
29839,2.8235,1.1818,0.1,0.00059566,5952.5,0.00053208,4634,-8.2955e-05,12.853,-0.00036189,-2083,0.042196
29840,2.9118,1.0909,0.1,0.00043464,4343.4,0.00039382,3474.4,-6.9002e-05,-3.015,-0.00025414,-1394,0.043649
29841,2.8235,1.3636,0.1,0.00073267,7321.7,0.00064844,5599.4,-9.3599e-05,24.03,-0.00045511,-2692.2,0.043876
29842,2.9118,1.2727,0.1,0.00053054,5301.7,0.00047462,4130.7,-7.6586e-05,-10.883,-0.00032062,-1844.5,0.045431
29843,2.8235,1.5455,0.1,0.00092103,9204,0.00080928,6930.1,-0.00011188,8.8801,-0.00058091,-3515.2,0.045614
29844,2.9118,1.4545,0.1,0.00065589,6554.4,0.00057852,4978.8,-8.1352e-05,20.774,-0.0004105,-2452.3,0.04731
29845,2.8235,1.7273,0.1,0.0011897,11889,0.0010585,9213.6,-0.00015419,102.21,-0.00073139,-4234.7,0.047382
29846,2.9118,1.6364,0.1,0.00082297,8224,0.00072361,6153.2,-0.0001093,-104.94,-0.00051609,-3161.4,0.04928
29847,2.8235,1.9091,0.1,0.0014722,14711,0.0013749,12715,-0.00024843,517.71,-0.00079954,-3623.1,0.049118
29848,2.9118,1.8182,0.1,0.0011576,11568,0.00097948,8280.3,-6.4528e-05,436.04,-0.00078868,-5005,0.051324
29849,2.8235,2.0909,0.1,0.0015568,15557,0.0015216,14734,-0.00039302,348.46,-0.00067586,-1776.7,0.050679
29850,2.9118,2,0.1,0.0022989,22973,0.0022368,21565,-0.00055096,619.54,-0.0010332,-3003.8,0.053325
29851,2.8235,2.2727,0.1,0.0014721,14710,0.0014573,14309,-0.00044458,19.342,-0.00055203,-788.02,0.052
29852,2.9118,2.1818,0.1,0.0017676,17664,0.001745,17048,-0.00053055,-49.291,-0.00067459,-1131.5,0.055016
29853,2.8235,2.4545,0.1,0.0013611,13602,0.0013512,13327,-0.00042049,15.108,-0.00049538,-547.6,0.053016
29854,2.9118,2.3636,0.1,0.0015084,15074,0.0014922,14638,-0.00045033,42.699,-0.00057207,-872.06,0.056315
29855,2.8235,2.6364,0.1,0.0012714,12705,0.0012645,12510,-0.00040023,2.231,-0.00045155,-383.34,0.053729
29856,2.9118,2.5455,0.1,0.0013549,13539,0.0013434,13221,-0.00041637,-0.727,-0.0004981,-614.83,0.057249
29857,2.8235,2.8182,0.1,0.001223,12222,0.0012177,12069,-0.00038815,4.0591,-0.00042905,-303.25,0.054151
29858,2.9118,2.7273,0.1,0.0012718,12710,0.0012631,12465,-0.00039511,6.4583,-0.00045999,-481.05,0.057852
29859,2.8235,3,0.1,0.0012076,12068,0.0012027,11928,-0.00038458,1.7514,-0.00042162,-276.55,0.05429
29860,2.9118,2.9091,0.1,0.0012348,12340,0.0012273,12128,-0.00038648,2.7117,-0.00044222,-416.06,0.058148
29861,2.8235,3.1818,0.1,0.001223,12222,0.0012177,12069,-0.00038815,4.0591,-0.00042905,-303.25,0.054151
29862,2.9118,3.0909,0.1,0.0012348,12340,0.0012273,12128,-0.00038648,2.7117,-0.00044222,-416.06,0.058148
29863,2.8235,3.3636,0.1,0.0012714,12705,0.0012645,12510,-0.00040023,2.231,-0.00045155,-383.34,0.053729
29864,2.9118,3.2727,0.1,0.0012718,12710,0.0012631,12465,-0.00039511,6.4583,-0.00045999,-481.05,0.057852
29865,2.8235,3.5455,0.1,0.0013611,13602,0.0013512,13327,-0.00042049,15.108,-0.00049538,-547.6,0.053016
29866,2.9118,3.4545,0.1,0.0013549,13539,0.0013434,13221,-0.00041637,-0.727,-0.0004981,-614.83,0.057249
29867,2.8235,3.7273,0.1,0.0014721,14710,0.0014573,14309,-0.00044458,19.342,-0.00055203,-788.02,0.052
29868,2.9118,3.6364,0.1,0.0015084,15074,0.0014922,14638,-0.00045033,42.699,-0.00057207,-872.06,0.056315
29869,2.8235,3.9091,0.1,0.0015568,15557,0.0015216,14734,-0.00039302,348.46,-0.00067586,-1776.7,0.050679
29870,2.9118,3.8182,0.1,0.0017676,17664,0.001745,17048,-0.00053055,-49.291,-0.00067459,-1131.6,0.055016
29871,2.8235,4.0909,0.1,0.0014722,14711,0.0013749,12715,-0.00024843,517.71,-0.00079954,-3623.1,0.049118
29872,2.9118,4,0.1,0.0022989,22973,0.0022368,21565,-0.00055096,619.54,-0.0010332,-3003.8,0.053325
29873,2.8235,4.2727,0.1,0.0011897,11889,0.0010585,9213.6,-0.00015419,102.21,-0.00073139,-4234.7,0.047382
29874,2.9118,4.1818,0.1,0.0011576,11568,0.00097948,8280.3,-6.4528e-05,436.04,-0.00078868,-5005,0.051324
29875,2.8235,4.4545,0.1,0.00092103,9204,0.00080928,6930.1,-0.00011188,8.8801,-0.00058091,-3515.2,0.045614
29876,2.9118,4.3636,0.1,0.00082297,8224,0.00072361,6153.2,-0.0001093,-104.94,-0.00051609,-3161.4,0.04928
29877,2.8235,4.6364,0.1,0.00073267,7321.7,0.00064844,5599.4,-9.3599e-05,24.03,-0.00045511,-2692.2,0.043876
29878,2.9118,4.5455,0.1,0.00065589,6554.4,0.00057852,4978.8,-8.1352e-05,20.774,-0.0004105,-2452.3,0.04731
29879,2.8235,4.8182,0.1,0.00059566,5952.5,0.00053208,4634,-8.2955e-05,12.853,-0.00036189,-2083,0.042196
29880,2.9118,4.7273,0.1,0.00053054,5301.7,0.00047462,4130.7,-7.6586e-05,-10.883,-0.00032062,-1844.5,0.045431
29881,2.8235,5,0.1,0.00048559,4852.5,0.00043872,3865.7,-7.4042e-05,13.045,-0.0002866,-1584,0.040584
29882,2.9118,4.9091,0.1,0.00043464,4343.4,0.00039382,3474.4,-6.9002e-05,-3.015,-0.00025414,-1394,0.043649
29883,2.8235,5.1818,0.1,0.00039201,3917.4,0.00035875,3203.5,-6.5979e-05,12.267,-0.00022311,-1168.4,0.039039
29884,2.9118,5.0909,0.1,0.00035478,3545.4,0.00032578,2913.2,-6.2601e-05,-4.9339,-0.00019935,-1032.4,0.041961
29885,2.8235,5.3636,0.1,0.00030861,3083.9,0.00028662,2600.8,-5.7691e-05,13.844,-0.00016759,-811.88,0.037557
29886,2.9118,5.2727,0.1,0.00028425,2840.5,0.00026468,2402.3,-5.5645e-05,-4.459,-0.00015232,-730.81,0.040362
29887,2.8235,5.5455,0.1,0.00023194,2317.8,0.00021914,2028.6,-4.8503e-05,17.681,-0.00011824,-506.3,0.036129
29888,2.9118,5.4545,0.1,0.00021883,2186.8,0.00020696,1911.2,-4.7991e-05,-4.464,-0.00011014,-471.42,0.038841
29889,2.8235,5.7273,0.1,0.00016358,1634.7,0.00015718,1489.7,-3.6788e-05,32.283,-7.8065e-05,-277.86,0.034741
29890,2.9118,5.6364,0.1,0.00015572,1556.1,0.00015,1415.3,-3.9246e-05,-6.6623,-7.1233e-05,-247,0.037385
29891,2.9118,5.8182,0.1,9.4924e-05,948.59,9.3213e-05,904.13,-2.6841e-05,2.0926,-3.8432e-05,-84.996,0.035977
29892,2.8235,5.9091,0.1,0.0001024,1023.2,0.00010118,994.86,-2.7744e-05,26.18,-4.1261e-05,-75.379,0.033374
29893,3.1667,3.7273,0.1,0.0018051,18038,0.0017771,17289,-0.00053021,-47.65,-0.00070718,-1377.3,0.067899
29894,3.0833,3.8182,0.1,0.001999,19976,0.0019707,19199,-0.00060193,-130.58,-0.00076646,-1366.8,0.062884
29895,3.1667,3.9091,0.1,0.0024186,24169,0.0023658,22981,-0.00059557,730.35,-0.0010565,-2732.7,0.066246
29896,3.1667,3.5455,0.1,0.0014983,14973,0.0014784,14441,-0.00044033,25.083,-0.00058094,-1031.4,0.069086
29897,3.0833,3.6364,0.1,0.0015924,15913,0.0015712,15353,-0.00046511,52.955,-0.00061964,-1108.1,0.064318
29898,3.1667,3.3636,0.1,0.0013515,13506,0.0013364,13095,-0.00040605,2.7856,-0.0005116,-790.25,0.069893
29899,3.0833,3.4545,0.1,0.0014027,14017,0.0013868,13585,-0.0004212,0.67659,-0.0005315,-828.08,0.065318
29900,3.1667,3.1818,0.1,0.0012797,12789,0.0012672,12445,-0.00038858,4.2898,-0.00047766,-665.04,0.070362
29901,3.0833,3.2727,0.1,0.0013028,13019,0.0012903,12677,-0.00039602,6.2238,-0.00048541,-665.43,0.065956
29902,3.1667,3,0.1,0.0012582,12574,0.0012465,12251,-0.0003836,2.8714,-0.00046724,-625.56,0.070516
29903,3.0833,3.0909,0.1,0.0012599,12591,0.0012489,12287,-0.000386,3.2471,-0.00046479,-588.74,0.066268
29904,3.1667,2.8182,0.1,0.0012797,12789,0.0012672,12445,-0.00038858,4.2898,-0.00047766,-665.04,0.070362
29905,3.0833,2.9091,0.1,0.0012599,12591,0.0012489,12287,-0.000386,3.2471,-0.00046479,-588.74,0.066268
29906,3.1667,2.6364,0.1,0.0013515,13506,0.0013364,13095,-0.00040605,2.7856,-0.0005116,-790.25,0.069893
29907,3.0833,2.7273,0.1,0.0013028,13019,0.0012903,12677,-0.00039602,6.2238,-0.00048541,-665.43,0.065956
29908,3.1667,2.4545,0.1,0.0014983,14973,0.0014784,14441,-0.00044033,25.083,-0.00058094,-1031.4,0.069086
29909,3.0833,2.5455,0.1,0.0014027,14017,0.0013868,13585,-0.0004212,0.67658,-0.0005315,-828.07,0.065318
29910,3.1667,2.2727,0.1,0.0018051,18038,0.0017771,17289,-0.00053021,-47.65,-0.00070718,-1377.3,0.067899
29911,3.0833,2.3636,0.1,0.0015924,15913,0.0015712,15353,-0.00046511,52.955,-0.00061964,-1108.1,0.064318
29912,3.0833,2.1818,0.1,0.001999,19976,0.0019707,19199,-0.00060194,-130.58,-0.00076646,-1366.8,0.062884
29913,3.1667,2.0909,0.1,0.0024186,24169,0.0023658,22981,-0.00059557,730.35,-0.0010565,-2732.7,0.066246
29914,3,3.7273,0.1,0.0018228,18215,0.0017962,17499,-0.00053754,-35.286,-0.00070963,-1328.3,0.059674
29915,3,3.9091,0.1,0.0024811,24794,0.0024292,23647,-0.00060596,841.91,-0.0010834,-2745.7,0.058031
29916,3,3.5455,0.1,0.0015074,15064,0.0014889,14566,-0.00044613,27.45,-0.0005793,-973.15,0.060853
29917,3,3.3636,0.1,0.0013568,13558,0.0013431,13185,-0.00041118,3.9801,-0.00050773,-721.49,0.061652
29918,3,3.1818,0.1,0.0012836,12827,0.0012725,12522,-0.00039346,5.0084,-0.00047299,-592.54,0.062117
29919,3,3,0.1,0.0012616,12608,0.0012514,12324,-0.00038841,3.4677,-0.00046231,-551.76,0.06227
29920,3,2.8182,0.1,0.0012836,12827,0.0012725,12522,-0.00039346,5.0084,-0.00047299,-592.54,0.062117
29921,3,2.6364,0.1,0.0013568,13558,0.0013431,13185,-0.00041118,3.9801,-0.00050773,-721.49,0.061652
29922,3,2.4545,0.1,0.0015074,15064,0.0014889,14566,-0.00044613,27.45,-0.0005793,-973.15,0.060853
29923,3,2.2727,0.1,0.0018228,18216,0.0017962,17499,-0.00053754,-35.286,-0.00070963,-1328.3,0.059674
29924,3,2.0909,0.1,0.0024811,24794,0.0024292,23647,-0.00060596,841.91,-0.0010834,-2745.7,0.058031
29925,3.1667,5.7273,0.1,7.9961e-05,799.06,7.5408e-05,688.82,-1.8656e-05,-17.941,-3.999e-05,-178.23,0.044748
29926,3.1667,5.9091,0.1,2.889e-05,288.7,2.8252e-05,271.95,-8.1653e-06,-1.6782,-1.1904e-05,-29.77,0.042915
29927,3.1667,5.8182,0.05,2.0837e-05,208.23,1.6e-05,120.22,-2.565e-13,-2.55e-14,-1.6e-05,-120.22,0.043666
29928,3.1667,5.5455,0.1,0.0001259,1258.2,0.00011634,1040.6,-2.487e-05,-20.456,-6.8653e-05,-349.43,0.046617
29929,3.1667,5.6364,0.05,4.4393e-05,443.62,3.4088e-05,256.12,-3.8567e-13,3.3114e-07,-3.4088e-05,-256.12,0.045523
29930,3.1667,5.3636,0.1,0.00017206,1719.4,0.00015604,1369.9,-2.9182e-05,-21.781,-9.9777e-05,-552.2,0.048533
29931,3.1667,5.4545,0.05,6.775e-05,677.03,5.2024e-05,390.88,-8.6195e-13,3.1906e-07,-5.2024e-05,-390.88,0.047422
29932,3.1667,5.1818,0.1,0.00022251,2223.6,0.00019839,1712.6,-3.2846e-05,-24.841,-0.00013511,-793.24,0.050505
29933,3.1667,5.2727,0.05,9.302e-05,929.56,7.1428e-05,536.68,-1.7689e-12,4.2005e-07,-7.1428e-05,-536.68,0.049374
29934,3.1667,5,0.1,0.00028076,2805.6,0.00024645,2095.2,-3.6185e-05,-28.367,-0.00017687,-1085.4,0.05254
29935,3.1667,5.0909,0.05,0.00012154,1214.5,9.3325e-05,701.2,-1.7798e-12,4.1061e-07,-9.3325e-05,-701.2,0.051384
29936,3.1667,4.8182,0.1,0.00035188,3516.4,0.00030444,2550.5,-3.9948e-05,-37.081,-0.00022841,-1453.1,0.054643
29937,3.1667,4.9091,0.05,0.00015525,1551.4,0.00011921,895.7,-1.7747e-12,2.9741e-07,-0.00011921,-895.7,0.05346
29938,3.1667,4.6364,0.1,0.00044643,4461.2,0.00038042,3141.8,-4.33e-05,-41.785,-0.00029823,-1957.3,0.056821
29939,3.1667,4.7273,0.05,0.00019751,1973.7,0.00015166,1139.5,-2.68e-12,2.9589e-07,-0.00015166,-1139.5,0.055609
29940,3.1667,4.4545,0.1,0.00057055,5701.6,0.00048338,3949.6,-5.5362e-05,-98.251,-0.00038445,-2570.9,0.059081
29941,3.1667,4.5455,0.05,0.00025401,2538.3,0.00019505,1465.5,-1.1169e-12,4.0184e-05,-0.00019505,-1465.5,0.057836
29942,3.1667,4.2727,0.1,0.00087717,8765.6,0.00070797,5544.2,-4.0925e-05,-82.675,-0.00063622,-4555.5,0.061428
29943,3.1667,4.3636,0.05,0.0003445,3442.6,0.00026453,1987.6,-6.6499e-12,-7.3297e-05,-0.00026453,-1987.6,0.06015
29944,3.1667,4.0909,0.1,0.0017547,17535,0.0016251,15295,-0.00019657,1607.9,-0.0010055,-4470.2,0.06392
29945,3.1667,4.1818,0.05,0.00057168,5712.8,0.00043898,3298.3,5.9893e-11,0.00050326,-0.00043898,-3298.3,0.062554
29946,3.0833,4,0.1,0.002528,25263,0.0024787,24832,-0.00042029,3050.2,-0.0012072,-2862.2,0.060884
29947,3.1667,4,0.05,0.00049378,4934.4,0.00037916,2848.9,-3.0605e-10,-0.0033982,-0.00037916,-2848.9,0.065116
29948,3,4.0909,0.1,0.0018147,18134,0.0016842,15950,-0.00019442,1835,-0.0010378,-4502.1,0.055688
29949,3,4,0.05,0.00054042,5400.5,0.00041498,3118,-3.2912e-10,-0.0033735,-0.00041498,-3118,0.056915
29950,3,4.2727,0.1,0.00094657,9459.2,0.00078145,6248,-6.4484e-05,-108.06,-0.00066535,-4622.7,0.053222
29951,3,4.1818,0.05,0.0006314,6309.6,0.00048483,3642.9,5.6367e-11,0.0005646,-0.00048483,-3642.9,0.054376
29952,3,4.4545,0.1,0.0006415,6410.6,0.00055922,4700.6,-8.1583e-05,-114.17,-0.00040923,-2576,0.050962
29953,3,4.3636,0.05,0.00038936,3890.9,0.00029898,2246.4,-6.4936e-12,-8.5974e-05,-0.00029898,-2246.4,0.052046
29954,3,4.6364,0.1,0.00051799,5176.3,0.00045663,3900.2,-6.8959e-05,-48.85,-0.00032332,-1960,0.048842
29955,3,4.5455,0.05,0.00029373,2935.3,0.00022555,1694.7,2.7169e-12,4.4762e-05,-0.00022555,-1694.7,0.049858
29956,3,4.8182,0.1,0.00042108,4207.9,0.00037767,3281.5,-6.4835e-05,-43.295,-0.00025197,-1449.4,0.046859
29957,3,4.7273,0.05,0.00023172,2315.6,0.00017793,1336.9,-1.7996e-12,2.1715e-07,-0.00017793,-1336.9,0.04781
29958,3,5,0.1,0.00034604,3458.1,0.00031482,2776.9,-5.9273e-05,-33.853,-0.00019912,-1084.6,0.045002
29959,3,4.9091,0.05,0.00018478,1846.6,0.00014189,1066.1,1.2865e-14,2.1583e-07,-0.00014189,-1066.1,0.045893
29960,3,5.1818,0.1,0.00028191,2817.2,0.00025986,2323.5,-5.3383e-05,-30.045,-0.00015559,-798.01,0.043262
29961,3,5.0909,0.05,0.00014657,1464.7,0.00011255,845.64,-1.7974e-12,2.42e-07,-0.00011255,-845.64,0.044098
29962,3,5.3636,0.1,0.00022347,2233.2,0.00020855,1889.4,-4.6493e-05,-26.885,-0.00011785,-563.01,0.041627
29963,3,5.2727,0.05,0.00011357,1135,8.721e-05,655.26,-2.3123e-12,3.1517e-07,-8.721e-05,-655.26,0.042412
29964,3,5.5455,0.1,0.00016694,1668.2,0.0001577,1447.1,-3.835e-05,-25.919,-8.3394e-05,-364.36,0.040082
29965,3,5.4545,0.05,8.3652e-05,835.94,6.4235e-05,482.63,-1.1833e-12,-2.4809e-06,-6.4234e-05,-482.63,0.040825
29966,3,5.7273,0.1,0.0001074,1073.3,0.0001027,954.96,-2.7439e-05,-22.877,-5.0132e-05,-193.38,0.038613
29967,3,5.6364,0.05,5.5325e-05,552.87,4.2483e-05,319.2,-8.6174e-13,2.6706e-07,-4.2483e-05,-319.2,0.039321
29968,3,5.9091,0.1,3.8764e-05,387.38,3.8036e-05,368.54,-1.0879e-05,1.0094,-1.5809e-05,-36.027,0.037198
29969,3,5.8182,0.05,2.5764e-05,257.46,1.9783e-05,148.64,6.6992e-14,-3.153e-14,-1.9783e-05,-148.64,0.037882
29970,3.1667,0.27273,0.1,7.9961e-05,799.06,7.5408e-05,688.82,-1.8656e-05,-17.941,-3.999e-05,-178.23,0.044748
29971,3.1667,0.090909,0.1,2.889e-05,288.7,2.8252e-05,271.95,-8.1653e-06,-1.6782,-1.1904e-05,-29.77,0.042915
29972,3.1667,0.18182,0.05,2.0837e-05,208.23,1.6e-05,120.22,3.358e-13,-2.55e-14,-1.6e-05,-120.22,0.043666
29973,3.1667,0.45455,0.1,0.0001259,1258.2,0.00011634,1040.6,-2.487e-05,-20.456,-6.8653e-05,-349.43,0.046617
29974,3.1667,0.36364,0.05,4.4393e-05,443.62,3.4088e-05,256.12,4.054e-13,-5.4328e-14,-3.4088e-05,-256.12,0.045523
29975,3.1667,0.63636,0.1,0.00017206,1719.4,0.00015604,1369.9,-2.9182e-05,-21.781,-9.9777e-05,-552.2,0.048533
29976,3.1667,0.54545,0.05,6.775e-05,677.03,5.2024e-05,390.88,1.7619e-12,-3.1906e-07,-5.2024e-05,-390.88,0.047422
29977,3.1667,0.81818,0.1,0.00022251,2223.6,0.00019839,1712.6,-3.2846e-05,-24.841,-0.00013511,-793.24,0.050505
29978,3.1667,0.72727,0.05,9.302e-05,929.56,7.1428e-05,536.68,1.7814e-12,-2.1003e-07,-7.1428e-05,-536.68,0.049374
29979,3.1667,1,0.1,0.00028076,2805.6,0.00024645,2095.2,-3.6185e-05,-28.367,-0.00017687,-1085.4,0.05254
29980,3.1667,0.90909,0.05,0.00012154,1214.5,9.3325e-05,701.2,1.7798e-12,-3.2849e-07,-9.3325e-05,-701.2,0.051384
29981,3.1667,1.1818,0.1,0.00035188,3516.4,0.00030444,2550.5,-3.9948e-05,-37.081,-0.00022841,-1453.1,0.054643
29982,3.1667,1.0909,0.05,0.00015525,1551.4,0.00011921,895.7,1.3399e-12,-2.9741e-07,-0.00011921,-895.7,0.05346
29983,3.1667,1.3636,0.1,0.00044643,4461.2,0.00038042,3141.8,-4.33e-05,-41.785,-0.00029823,-1957.3,0.056821
29984,3.1667,1.2727,0.05,0.00019751,1973.7,0.00015166,1139.5,1.7925e-12,-2.959e-07,-0.00015166,-1139.5,0.055609
29985,3.1667,1.5455,0.1,0.00057055,5701.6,0.00048338,3949.6,-5.5361e-05,-98.251,-0.00038445,-2570.9,0.059081
29986,3.1667,1.4545,0.05,0.00025401,2538.3,0.00019505,1465.5,1.1169e-12,-3.9048e-05,-0.00019505,-1465.5,0.057836
29987,3.1667,1.7273,0.1,0.00087717,8765.6,0.00070797,5544.2,-4.0925e-05,-82.675,-0.00063622,-4555.5,0.061428
29988,3.1667,1.6364,0.05,0.0003445,3442.6,0.00026453,1987.6,6.0203e-12,7.3297e-05,-0.00026453,-1987.6,0.06015
29989,3.1667,1.9091,0.1,0.0017547,17535,0.0016251,15295,-0.00019657,1607.9,-0.0010055,-4470.2,0.06392
29990,3.1667,1.8182,0.05,0.00057168,5712.8,0.00043898,3298.3,-5.6305e-11,-0.00048822,-0.00043898,-3298.3,0.062554
29991,3.0833,2,0.1,0.002528,25263,0.0024787,24832,-0.00042029,3050.2,-0.0012072,-2862.2,0.060884
29992,3.1667,2,0.05,0.00049378,4934.4,0.00037916,2848.9,2.9272e-10,0.0034669,-0.00037916,-2848.9,0.065116
29993,3,1.9091,0.1,0.0018147,18134,0.0016842,15950,-0.00019442,1835,-0.0010378,-4502.1,0.055688
29994,3,2,0.05,0.00054042,5400.5,0.00041498,3118,3.131e-10,0.0033721,-0.00041498,-3118,0.056915
29995,3,1.7273,0.1,0.00094657,9459.2,0.00078145,6248,-6.4484e-05,-108.06,-0.00066535,-4622.7,0.053222
29996,3,1.8182,0.05,0.0006314,6309.6,0.00048483,3642.9,-5.6392e-11,-0.00051785,-0.00048483,-3642.9,0.054376
29997,3,1.5455,0.1,0.0006415,6410.6,0.00055922,4700.6,-8.1583e-05,-114.17,-0.00040923,-2576,0.050962
29998,3,1.6364,0.05,0.00038936,3890.9,0.00029898,2246.4,3.4131e-12,7.8427e-05,-0.00029898,-2246.4,0.052046
29999,3,1.3636,0.1,0.00051799,5176.3,0.00045663,3900.2,-6.8959e-05,-48.85,-0.00032332,-1960,0.048842
30000,3,1.4545,0.05,0.00029373,2935.3,0.00022555,1694.7,-3.607e-12,-4.1913e-05,-0.00022555,-1694.7,0.049858
30001,3,1.1818,0.1,0.00042108,4207.9,0.00037767,3281.5,-6.4835e-05,-43.295,-0.00025197,-1449.4,0.046859
30002,3,1.2727,0.05,0.00023172,2315.6,0.00017793,1336.9,-1.2944e-14,-1.0858e-07,-0.00017793,-1336.9,0.04781
30003,3,1,0.1,0.00034604,3458.1,0.00031482,2776.9,-5.9273e-05,-33.853,-0.00019912,-1084.6,0.045002
30004,3,1.0909,0.05,0.00018478,1846.6,0.00014189,1066.1,-1.2865e-14,-2.1583e-07,-0.00014189,-1066.1,0.045893
30005,3,0.81818,0.1,0.00028191,2817.2,0.00025986,2323.5,-5.3383e-05,-30.045,-0.00015559,-798.01,0.043262
30006,3,0.90909,0.05,0.00014657,1464.7,0.00011255,845.64,1.7974e-12,-1.21e-07,-0.00011255,-845.64,0.044098
30007,3,0.63636,0.1,0.00022347,2233.2,0.00020855,1889.4,-4.6493e-05,-26.885,-0.00011785,-563.01,0.041627
30008,3,0.72727,0.05,0.00011357,1135,8.721e-05,655.26,1.7908e-12,-1.5759e-07,-8.721e-05,-655.26,0.042412
30009,3,0.45455,0.1,0.00016694,1668.2,0.0001577,1447.1,-3.835e-05,-25.919,-8.3394e-05,-364.36,0.040082
30010,3,0.54545,0.05,8.3652e-05,835.94,6.4234e-05,482.63,1.1979e-12,2.7265e-06,-6.4235e-05,-482.63,0.040825
30011,3,0.27273,0.1,0.0001074,1073.3,0.0001027,954.96,-2.7439e-05,-22.877,-5.0132e-05,-193.38,0.038613
30012,3,0.36364,0.05,5.5325e-05,552.87,4.2483e-05,319.2,8.6174e-13,-2.6706e-07,-4.2483e-05,-319.2,0.039321
30013,3,0.090909,0.1,3.8764e-05,387.38,3.8036e-05,368.54,-1.0879e-05,1.0094,-1.5809e-05,-36.027,0.037198
30014,3,0.18182,0.05,2.5764e-05,257.46,1.9783e-05,148.64,4.0815e-13,-3.153e-14,-1.9783e-05,-148.64,0.037882
30015,3.2588,6,0.1,3.5396e-05,353.71,3.5564e-05,360.64,-9.3017e-06,23.544,-1.345e-05,-7.6228,0.04885
30016,3.1667,6,0.05,6.444e-06,64.396,4.9482e-06,37.179,-1.5343e-13,-2.7409e-06,-4.9482e-06,-37.179,0.041837
30017,3.4432,6,0.1,0.0001013,1012.3,0.00010089,1000.5,-3.2278e-05,-0.040511,-3.536e-05,-23.194,0.062577
30018,3.351,6,0.05,4.507e-06,45.039,3.4608e-06,26.003,-1.0762e-12,2.8115e-06,-3.4608e-06,-26.003,0.055577
30019,3.6276,6,0.1,0.00016309,1629.8,0.00016258,1615,-5.2651e-05,-2.1867,-5.5981e-05,-27.211,0.076383
30020,3.5354,6,0.05,1.19e-05,118.92,9.1375e-06,68.656,3.681e-14,-4.3468e-14,-9.1375e-06,-68.656,0.069364
30021,3.8119,6,0.1,0.00021746,2173.1,0.00021696,2158.8,-7.0386e-05,-0.25702,-7.409e-05,-28.082,0.090305
30022,3.7198,6,0.05,1.5389e-05,153.78,1.1817e-05,88.786,-1.8394e-12,9.7013e-07,-1.1817e-05,-88.786,0.083239
30023,3.9963,6,0.1,0.00026491,2647.2,0.00026445,2634.2,-8.606e-05,0.54275,-8.9652e-05,-26.441,0.10438
30024,3.9041,6,0.05,1.6974e-05,169.62,1.3034e-05,97.932,3.0563e-16,1.485e-06,-1.3034e-05,-97.932,0.097242
30025,4.1807,6,0.1,0.00030536,3051.5,0.00030497,3040.2,-9.9501e-05,1.1924,-0.00010279,-23.523,0.11863
30026,4.0885,6,0.05,1.722e-05,172.08,1.3223e-05,99.349,-2.8047e-21,1.3175e-06,-1.3223e-05,-99.349,0.11141
30027,4.365,6,0.1,0.00033902,3387.9,0.0003387,3378.5,-0.00011075,1.4986,-0.00011364,-20.225,0.13308
30028,4.2729,6,0.05,1.6649e-05,166.37,1.2784e-05,96.054,-2.7117e-21,1.4289e-06,-1.2784e-05,-96.054,0.12576
30029,4.5494,6,0.1,0.00036636,3661,0.00036609,3653.3,-0.00011992,1.5913,-0.00012239,-16.986,0.14777
30030,4.4572,6,0.05,1.5622e-05,156.11,1.1996e-05,90.13,-2.5444e-21,6.4912e-07,-1.1996e-05,-90.13,0.14034
30031,4.7338,6,0.1,0.00038801,3877.4,0.0003878,3871.2,-0.00012722,1.5288,-0.00012929,-14.039,0.16271
30032,4.6416,6,0.05,1.4401e-05,143.91,1.1058e-05,83.088,-1.3083e-14,-1.7624e-14,-1.1058e-05,-83.088,0.15515
30033,4.9181,6,0.1,0.00040471,4044.3,0.00040454,4039.2,-0.00013287,1.3756,-0.00013458,-11.475,0.17791
30034,4.826,6,0.05,1.3163e-05,131.54,1.0107e-05,75.944,7.1978e-12,-2.2081e-07,-1.0107e-05,-75.944,0.17022
30035,5.1025,6,0.1,0.00041718,4168.9,0.00041704,4164.8,-0.00013711,1.1765,-0.00013851,-9.3104,0.19338
30036,5.0103,6,0.05,1.2016e-05,120.08,9.2268e-06,69.326,7.24e-12,-3.0184e-07,-9.2268e-06,-69.327,0.18556
30037,5.2869,6,0.1,0.00042611,4258.2,0.000426,4254.9,-0.00014016,0.96306,-0.00014129,-7.5194,0.20914
30038,5.1947,6,0.05,1.102e-05,110.13,8.4623e-06,63.582,3.5794e-12,-2.6204e-08,-8.4623e-06,-63.583,0.20117
30039,5.4712,6,0.1,0.00043212,4318.2,0.00043203,4315.6,-0.00014224,0.755,-0.00014314,-6.0609,0.22518
30040,5.3791,6,0.05,1.0202e-05,101.95,7.8339e-06,58.86,7.2533e-12,-1.2683e-07,-7.8339e-06,-58.861,0.21708
30041,5.6556,6,0.1,0.00043575,4354.4,0.00043567,4352.3,-0.00014351,0.56388,-0.00014423,-4.8896,0.24152
30042,5.5634,6,0.05,9.5641e-06,95.575,7.344e-06,55.18,7.2552e-12,-2.7563e-07,-7.3441e-06,-55.18,0.23327
30043,5.84,6,0.1,0.00043744,4371.3,0.00043738,4369.6,-0.00014412,0.39538,-0.0001447,-3.9625,0.25816
30044,5.7478,6,0.05,9.0966e-06,90.903,6.9851e-06,52.483,7.257e-12,1.6351e-06,-6.9851e-06,-52.483,0.24976
30045,6.0243,6,0.1,0.00043758,4372.7,0.00043752,4371.2,-0.00014422,0.25145,-0.00014468,-3.2411,0.27509
30046,5.9322,6,0.05,8.7819e-06,87.759,6.7434e-06,50.667,7.2624e-12,6.2739e-07,-6.7434e-06,-50.667,0.26654
30047,6.2087,6,0.1,0.00043648,4361.7,0.00043643,4360.5,-0.00014389,0.13168,-0.00014427,-2.6922,0.29232
30048,6.1165,6,0.05,8.5992e-06,85.933,6.6031e-06,49.613,7.2723e-12,-6.8635e-07,-6.6031e-06,-49.613,0.28362
30049,6.3931,6,0.1,0.00043439,4340.9,0.00043435,4339.8,-0.00014323,0.034355,-0.00014354,-2.2879,0.30984
30050,6.3009,6,0.05,8.527e-06,85.211,6.5477e-06,49.196,1.0913e-11,8.4804e-07,-6.5477e-06,-49.197,0.301
30051,6.5774,6,0.1,0.00043153,4312.4,0.0004315,4311.3,-0.00014231,-0.042887,-0.00014257,-2.0043,0.32767
30052,6.4853,6,0.05,8.5448e-06,85.389,6.5613e-06,49.299,7.2767e-12,8.1083e-07,-6.5613e-06,-49.299,0.31868
30053,6.7618,6,0.1,0.00042807,4277.7,0.00042803,4276.8,-0.00014118,-0.10262,-0.00014141,-1.8215,0.34578
30054,6.6696,6,0.05,8.6339e-06,86.279,6.6297e-06,49.813,1.0914e-11,9.5736e-07,-6.6297e-06,-49.813,0.33665
30055,6.9462,6,0.1,0.00042413,4238.3,0.00042409,4237.4,-0.00013989,-0.14739,-0.0001401,-1.7224,0.36419
30056,6.854,6,0.05,8.7778e-06,87.717,6.7402e-06,50.643,7.2742e-12,8.916e-07,-6.7403e-06,-50.644,0.35491
30057,7.1305,6,0.1,0.00041982,4195.3,0.00041978,4194.3,-0.00013847,-0.17961,-0.00013867,-1.6926,0.38288
30058,7.0383,6,0.05,8.9624e-06,89.562,6.882e-06,51.708,7.2752e-12,1.0854e-06,-6.882e-06,-51.709,0.37346
30059,7.3149,6,0.1,0.00041522,4149.4,0.00041519,4148.4,-0.00013695,-0.20145,-0.00013716,-1.7198,0.40186
30060,7.2227,6,0.05,9.1757e-06,91.694,7.0458e-06,52.939,7.2748e-12,1.065e-06,-7.0458e-06,-52.939,0.3923
30061,7.4993,6,0.1,0.00041041,4101.3,0.00041038,4100.3,-0.00013537,-0.21483,-0.00013558,-1.7933,0.42112
30062,7.4071,6,0.05,9.4078e-06,94.013,7.224e-06,54.278,1.0913e-11,1.1777e-06,-7.2241e-06,-54.279,0.41142
30063,7.6836,6,0.1,0.00040544,4051.6,0.0004054,4050.6,-0.00013372,-0.22145,-0.00013394,-1.9041,0.44066
30064,7.5914,6,0.05,9.6508e-06,96.441,7.4106e-06,55.68,1.0913e-11,1.3854e-06,-7.4106e-06,-55.68,0.43082
30065,7.868,6,0.1,0.00040035,4000.7,0.00040031,3999.6,-0.00013203,-0.22277,-0.00013227,-2.0443,0.46047
30066,7.7758,6,0.05,9.898e-06,98.912,7.6004e-06,57.107,7.2747e-12,1.3575e-06,-7.6004e-06,-57.107,0.4505
30067,8.0524,6,0.1,0.00039517,3949,0.00039513,3947.7,-0.00013031,-0.21999,-0.00013058,-2.2075,0.48056
30068,7.9602,6,0.05,1.0144e-05,101.37,7.7897e-06,58.529,7.2774e-12,1.6237e-06,-7.7897e-06,-58.529,0.47045
30069,8.2367,6,0.1,0.00038993,3896.6,0.00038988,3895.3,-0.00012858,-0.21412,-0.00012886,-2.3879,0.50092
30070,8.1445,6,0.05,1.0386e-05,103.79,7.9753e-06,59.923,7.278e-12,1.564e-06,-7.9753e-06,-59.923,0.49067
30071,8.4211,6,0.1,0.00038464,3843.8,0.0003846,3842.4,-0.00012682,-0.20595,-0.00012714,-2.581,0.52154
30072,8.3289,6,0.05,1.062e-05,106.13,8.155e-06,61.273,7.2747e-12,1.6005e-06,-8.155e-06,-61.274,0.51116
30073,8.6055,6,0.1,0.00037933,3790.7,0.00037928,3789.2,-0.00012506,-0.19616,-0.0001254,-2.7828,0.54242
30074,8.5133,6,0.05,1.0844e-05,108.37,8.3271e-06,62.566,1.0913e-11,1.7207e-06,-8.3271e-06,-62.567,0.53191
30075,8.7898,6,0.1,0.00037401,3737.5,0.00037395,3735.9,-0.00012329,-0.18528,-0.00012366,-2.9901,0.56356
30076,8.6976,6,0.05,1.1057e-05,110.49,8.4904e-06,63.794,7.275e-12,1.7813e-06,-8.4904e-06,-63.794,0.55292
30077,8.9742,6,0.1,0.00036868,3684.2,0.00036862,3682.6,-0.00012152,-0.17372,-0.00012192,-3.2003,0.58495
30078,8.882,6,0.05,1.1257e-05,112.49,8.6442e-06,64.949,7.2732e-12,1.7227e-06,-8.6442e-06,-64.949,0.57419
30079,9.1586,6,0.1,0.00036335,3631,0.00036329,3629.2,-0.00011975,-0.1618,-0.00012018,-3.4112,0.6066
30080,9.0664,6,0.05,1.1444e-05,114.36,8.7879e-06,66.028,7.2733e-12,1.8428e-06,-8.7879e-06,-66.029,0.59571
30081,9.3429,6,0.1,0.00035803,3577.9,0.00035797,3576,-0.00011798,-0.14979,-0.00011845,-3.6213,0.62849
30082,9.2507,6,0.05,1.1618e-05,116.1,8.9213e-06,67.031,7.2753e-12,2.1426e-06,-8.9213e-06,-67.031,0.61748
30083,9.5273,6,0.1,0.00035273,3524.8,0.00035266,3522.9,-0.00011622,-0.13789,-0.00011671,-3.8291,0.65062
30084,9.4351,6,0.05,1.1779e-05,117.7,9.0445e-06,67.956,7.2754e-12,2.1875e-06,-9.0445e-06,-67.957,0.63949
30085,9.7117,6,0.1,0.00034744,3472,0.00034737,3469.9,-0.00011446,-0.12623,-0.00011498,-4.0337,0.67299
30086,9.6195,6,0.05,1.1926e-05,119.18,9.1575e-06,68.806,7.2773e-12,2.3944e-06,-9.1575e-06,-68.806,0.66175
30087,9.896,6,0.1,0.00034216,3419.3,0.00034209,3417.1,-0.00011271,-0.11491,-0.00011326,-4.2343,0.6956
30088,9.8038,6,0.05,1.206e-05,120.52,9.2606e-06,69.58,7.2743e-12,2.2632e-06,-9.2606e-06,-69.581,0.68424
30089,10.08,6,0.1,0.00033691,3366.8,0.00033683,3364.5,-0.00011097,-0.10402,-0.00011155,-4.4305,0.71844
30090,9.9882,6,0.05,1.2182e-05,121.73,9.3541e-06,70.283,7.2745e-12,2.1443e-06,-9.3541e-06,-70.283,0.70696
30091,10.265,6,0.1,0.00033168,3314.5,0.0003316,3312.1,-0.00010923,-0.093615,-0.00010983,-4.6218,0.74151
30092,10.173,6,0.05,1.2292e-05,122.83,9.4384e-06,70.916,7.2746e-12,2.383e-06,-9.4384e-06,-70.917,0.72992
30093,10.449,6,0.1,0.00032646,3262.4,0.00032638,3259.9,-0.0001075,-0.083702,-0.00010813,-4.8082,0.76481
30094,10.357,6,0.05,1.239e-05,123.81,9.5139e-06,71.484,7.2758e-12,2.2129e-06,-9.5139e-06,-71.484,0.7531
30095,10.633,6,0.1,0.00032127,3210.5,0.00032119,3208,-0.00010578,-0.074308,-0.00010643,-4.9896,0.78832
30096,10.541,6,0.05,1.2477e-05,124.69,9.581e-06,71.988,7.2759e-12,2.6888e-06,-9.581e-06,-71.988,0.77651
30097,10.818,6,0.1,0.00031611,3158.9,0.00031602,3156.3,-0.00010406,-0.065438,-0.00010474,-5.1659,0.81206
30098,10.726,6,0.05,1.2554e-05,125.46,9.6402e-06,72.433,7.2759e-12,2.7411e-06,-9.6402e-06,-72.433,0.80014
30099,11.002,6,0.1,0.00031096,3107.5,0.00031087,3104.8,-0.00010236,-0.057079,-0.00010306,-5.3374,0.83601
30100,10.91,6,0.05,1.2622e-05,126.13,9.6919e-06,72.821,7.2759e-12,2.8068e-06,-9.6919e-06,-72.822,0.82398
30101,11.187,6,0.1,0.00030584,3056.3,0.00030575,3053.5,-0.00010066,-0.04922,-0.00010138,-5.5041,0.86017
30102,11.094,6,0.05,1.268e-05,126.71,9.7366e-06,73.157,7.2759e-12,2.4434e-06,-9.7366e-06,-73.157,0.84803
30103,11.371,6,0.1,0.00030074,3005.3,0.00030064,3002.5,-9.8967e-05,-0.041862,-9.9716e-05,-5.6663,0.88453
30104,11.279,6,0.05,1.2729e-05,127.21,9.7747e-06,73.443,7.2769e-12,2.3286e-06,-9.7747e-06,-73.443,0.8723
30105,11.555,6,0.1,0.00029567,2954.6,0.00029556,2951.7,-9.7284e-05,-0.034969,-9.8054e-05,-5.8243,0.9091
30106,11.463,6,0.05,1.2771e-05,127.62,9.8065e-06,73.682,7.2764e-12,3.5165e-06,-9.8065e-06,-73.682,0.89677
30107,11.74,6,0.1,0.00029061,2904.1,0.00029051,2901.1,-9.5608e-05,-0.0285,-9.64e-05,-5.9783,0.93387
30108,11.647,6,0.05,1.2805e-05,127.96,9.8325e-06,73.878,7.2759e-12,2.5062e-06,-9.8326e-06,-73.878,0.92144
30109,11.924,6,0.1,0.00028558,2853.8,0.00028548,2850.8,-9.394e-05,-0.02245,-9.4753e-05,-6.1286,0.95884
30110,11.832,6,0.05,1.2832e-05,128.23,9.8531e-06,74.033,7.2759e-12,7.7485e-06,-9.8532e-06,-74.033,0.94631
30111,12.108,6,0.1,0.00028057,2803.8,0.00028047,2800.6,-9.2279e-05,-0.016797,-9.3112e-05,-6.2756,0.984
30112,12.016,6,0.05,1.2852e-05,128.43,9.8686e-06,74.149,7.276e-12,3.3956e-06,-9.8686e-06,-74.149,0.97137
30113,12.293,6,0.1,0.00027559,2754,0.00027548,2750.8,-9.0627e-05,-0.011508,-9.1479e-05,-6.4195,1.0094
30114,12.201,6,0.05,1.2866e-05,128.57,9.8794e-06,74.23,5.4571e-12,-1.6093e-06,-9.8794e-06,-74.23,0.99663
30115,12.477,6,0.1,0.00027062,2704.4,0.00027051,2701.1,-8.8981e-05,-0.0065556,-8.9854e-05,-6.5606,1.0349
30116,12.385,6,0.05,1.2874e-05,128.65,9.8857e-06,74.277,7.276e-12,4.9472e-06,-9.8857e-06,-74.277,1.0221
30117,12.662,6,0.1,0.00026568,2655,0.00026557,2651.6,-8.7343e-05,-0.0019161,-8.8235e-05,-6.6994,1.0606
30118,12.569,6,0.05,1.2877e-05,128.68,9.8878e-06,74.293,3.6379e-12,3.695e-06,-9.8878e-06,-74.293,1.0477
30119,12.846,6,0.1,0.00026076,2605.8,0.00026065,2602.4,-8.5713e-05,0.0024181,-8.6623e-05,-6.836,1.0865
30120,12.754,6,0.05,1.2874e-05,128.66,9.886e-06,74.279,5.457e-12,2.6226e-06,-9.886e-06,-74.28,1.0735
30121,13.03,6,0.1,0.00025587,2556.9,0.00025575,2553.4,-8.409e-05,0.0064844,-8.5018e-05,-6.9709,1.1126
30122,12.938,6,0.05,1.2867e-05,128.59,9.8806e-06,74.239,7.2759e-12,4.1723e-06,-9.8806e-06,-74.239,1.0995
30123,13.215,6,0.1,0.00025099,2508.2,0.00025087,2504.6,-8.2474e-05,0.010321,-8.3421e-05,-7.1043,1.1388
30124,13.122,6,0.05,1.2856e-05,128.47,9.8717e-06,74.172,7.276e-12,3.6962e-06,-9.8717e-06,-74.172,1.1257
30125,13.399,6,0.1,0.00024614,2459.7,0.00024601,2456,-8.0865e-05,0.013932,-8.183e-05,-7.2365,1.1653
30126,13.307,6,0.05,1.284e-05,128.31,9.8596e-06,74.081,3.638e-12,3.6359e-06,-9.8596e-06,-74.081,1.152
30127,13.583,6,0.1,0.0002413,2411.4,0.00024118,2407.7,-7.9263e-05,0.017339,-8.0246e-05,-7.3677,1.1919
30128,13.491,6,0.05,1.282e-05,128.12,9.8445e-06,73.967,7.276e-12,3.2782e-06,-9.8445e-06,-73.967,1.1785
30129,13.768,6,0.1,0.00023649,2363.3,0.00023636,2359.5,-7.7669e-05,0.020566,-7.867e-05,-7.4984,1.2186
30130,13.676,6,0.05,1.2797e-05,127.88,9.8264e-06,73.832,5.4572e-12,4.4107e-06,-9.8265e-06,-73.832,1.2052
30131,13.952,6,0.1,0.0002317,2315.4,0.00023157,2311.6,-7.6081e-05,0.023627,-7.71e-05,-7.6288,1.2455
30132,13.86,6,0.05,1.277e-05,127.61,9.8057e-06,73.676,5.4572e-12,4.4703e-06,-9.8057e-06,-73.677,1.232
30133,14.136,6,0.1,0.00022693,2267.8,0.0002268,2263.9,-7.4501e-05,0.026543,-7.5537e-05,-7.7591,1.2726
30134,14.044,6,0.05,1.274e-05,127.31,9.7824e-06,73.501,3.638e-12,3.8124e-06,-9.7824e-06,-73.501,1.259
30135,14.321,6,0.1,0.00022218,2220.3,0.00022205,2216.4,-7.2927e-05,0.029346,-7.3981e-05,-7.8896,1.2998
30136,14.229,6,0.05,1.2706e-05,126.97,9.7567e-06,73.308,5.457e-12,4.1723e-06,-9.7567e-06,-73.308,1.2862
30137,14.505,6,0.1,0.00021746,2173.1,0.00021732,2169.1,-7.136e-05,0.032043,-7.2432e-05,-8.0205,1.3272
30138,14.413,6,0.05,1.2669e-05,126.61,9.7285e-06,73.096,3.6376e-12,3.8146e-06,-9.7286e-06,-73.097,1.3134
30139,14.69,6,0.1,0.00021275,2126,0.00021261,2122,-6.98e-05,0.034635,-7.089e-05,-8.1522,1.3547
30140,14.597,6,0.05,1.263e-05,126.21,9.6982e-06,72.868,3.638e-12,4.6491e-06,-9.6982e-06,-72.868,1.3409
30141,14.874,6,0.1,0.00020806,2079.2,0.00020792,2075.1,-6.8247e-05,0.037156,-6.9355e-05,-8.2847,1.3824
30142,14.782,6,0.05,1.2587e-05,125.79,9.6656e-06,72.623,5.4566e-12,4.2318e-06,-9.6656e-06,-72.624,1.3685
30143,15.058,6,0.1,0.0002034,2032.6,0.00020325,2028.4,-6.6701e-05,0.039621,-6.7827e-05,-8.4185,1.4102
30144,14.966,6,0.05,1.2542e-05,125.34,9.6309e-06,72.363,3.638e-12,4.4106e-06,-9.6309e-06,-72.363,1.3962
30145,15.243,6,0.1,0.00019875,1986.2,0.00019861,1981.9,-6.5161e-05,0.042044,-6.6305e-05,-8.5537,1.4381
30146,15.15,6,0.05,1.2494e-05,124.86,9.5941e-06,72.087,3.6375e-12,6.0161e-06,-9.5941e-06,-72.087,1.4241
30147,15.427,6,0.1,0.00019413,1940,0.00019398,1935.6,-6.3628e-05,0.044436,-6.4791e-05,-8.6905,1.4662
30148,15.335,6,0.05,1.2444e-05,124.35,9.5553e-06,71.795,3.638e-12,4.2277e-06,-9.5553e-06,-71.795,1.4521
30149,15.611,6,0.1,0.00018953,1893.9,0.00018937,1889.5,-6.2102e-05,0.046814,-6.3283e-05,-8.8291,1.4944
30150,15.519,6,0.05,1.2391e-05,123.82,9.5145e-06,71.488,7.2754e-12,4.7682e-06,-9.5145e-06,-71.488,1.4802
30151,15.796,6,0.1,0.00018494,1848.1,0.00018479,1843.7,-6.0582e-05,0.049206,-6.1782e-05,-8.9697,1.5227
30152,15.704,6,0.05,1.2335e-05,123.26,9.4717e-06,71.166,5.4569e-12,4.5848e-06,-9.4717e-06,-71.166,1.5085
30153,15.98,6,0.1,0.00018038,1802.5,0.00018022,1798,-5.9068e-05,0.051616,-6.0288e-05,-9.1126,1.5512
30154,15.888,6,0.05,1.2276e-05,122.68,9.4268e-06,70.829,4.5469e-12,5.5382e-06,-9.4268e-06,-70.83,1.5369
30155,16.164,6,0.1,0.00017583,1757.1,0.00017568,1752.5,-5.7561e-05,0.054049,-5.8801e-05,-9.2579,1.5798
30156,16.072,6,0.05,1.2215e-05,122.07,9.3799e-06,70.477,4.5462e-12,5.836e-06,-9.38e-06,-70.477,1.5654
30157,16.349,6,0.1,0.00017131,1711.9,0.00017115,1707.2,-5.6061e-05,0.056533,-5.732e-05,-9.4057,1.6085
30158,16.257,6,0.05,1.2152e-05,121.43,9.331e-06,70.11,4.5468e-12,5.2992e-06,-9.331e-06,-70.11,1.5941
30159,16.533,6,0.1,0.00016681,1666.9,0.00016664,1662.1,-5.4567e-05,0.059086,-5.5847e-05,-9.5564,1.6373
30160,16.441,6,0.05,1.2085e-05,120.77,9.28e-06,69.726,3.6386e-12,6.0142e-06,-9.28e-06,-69.727,1.6228
30161,16.718,6,0.1,0.00016232,1622.1,0.00016215,1617.2,-5.3079e-05,0.06172,-5.438e-05,-9.71,1.6662
30162,16.625,6,0.05,1.2016e-05,120.08,9.2269e-06,69.327,4.5481e-12,4.3508e-06,-9.2269e-06,-69.327,1.6517
30163,16.902,6,0.1,0.00015786,1577.5,0.00015769,1572.5,-5.1598e-05,0.064451,-5.2919e-05,-9.8666,1.6952
30164,16.81,6,0.05,1.1944e-05,119.36,9.1715e-06,68.911,4.5459e-12,5.8944e-06,-9.1715e-06,-68.911,1.6807
30165,17.086,6,0.1,0.00015341,1533,0.00015324,1528,-5.0122e-05,0.067295,-5.1466e-05,-10.027,1.7244
30166,16.994,6,0.05,1.1869e-05,118.61,9.1138e-06,68.477,4.5482e-12,5.3706e-06,-9.1138e-06,-68.478,1.7098
30167,17.271,6,0.1,0.00014898,1488.8,0.00014881,1483.7,-4.8653e-05,0.070282,-5.0019e-05,-10.19,1.7536
30168,17.178,6,0.05,1.1791e-05,117.82,9.0537e-06,68.026,3.6396e-12,5.4305e-06,-9.0537e-06,-68.026,1.739
30169,17.455,6,0.1,0.00014458,1444.8,0.0001444,1439.6,-4.7191e-05,0.073423,-4.8579e-05,-10.356,1.783
30170,17.363,6,0.05,1.1709e-05,117.01,8.9911e-06,67.556,4.5457e-12,5.4833e-06,-8.9911e-06,-67.556,1.7683
30171,17.639,6,0.1,0.00014019,1400.9,0.00014001,1395.7,-4.5734e-05,0.076729,-4.7145e-05,-10.527,1.8124
30172,17.547,6,0.05,1.1624e-05,116.16,8.9259e-06,67.066,4.5492e-12,7.0926e-06,-8.9259e-06,-67.066,1.7977
30173,17.824,6,0.1,0.00013582,1357.3,0.00013564,1351.9,-4.4283e-05,0.080231,-4.5718e-05,-10.7,1.8419
30174,17.732,6,0.05,1.1536e-05,115.28,8.8579e-06,66.555,4.5493e-12,5.4235e-06,-8.8579e-06,-66.555,1.8271
30175,18.008,6,0.1,0.00013147,1313.8,0.00013128,1308.4,-4.2839e-05,0.083952,-4.4297e-05,-10.878,1.8716
30176,17.916,6,0.05,1.1443e-05,114.35,8.7869e-06,66.021,3.6359e-12,5.1766e-06,-8.7869e-06,-66.022,1.8567
30177,18.192,6,0.1,0.00012714,1270.5,0.00012695,1265,-4.14e-05,0.087915,-4.2883e-05,-11.059,1.9013
30178,18.1,6,0.05,1.1347e-05,113.39,8.7128e-06,65.465,3.6358e-12,6.6067e-06,-8.7128e-06,-65.465,1.8864
30179,18.377,6,0.1,0.00012283,1227.4,0.00012263,1221.8,-3.9967e-05,0.092142,-4.1476e-05,-11.244,1.9311
30180,18.285,6,0.05,1.1246e-05,112.38,8.6354e-06,64.883,3.6368e-12,6.3175e-06,-8.6354e-06,-64.883,1.9162
30181,18.561,6,0.1,0.00011853,1184.5,0.00011834,1178.8,-3.854e-05,0.096659,-4.0074e-05,-11.432,1.961
30182,18.469,6,0.05,1.114e-05,111.33,8.5544e-06,64.274,2.7284e-12,7.3901e-06,-8.5544e-06,-64.275,1.946
30183,18.746,6,0.1,0.00011426,1141.8,0.00011405,1136,-3.7119e-05,0.10151,-3.8679e-05,-11.624,1.9909
30184,18.653,6,0.05,1.103e-05,110.22,8.4696e-06,63.637,3.6379e-12,5.5427e-06,-8.4696e-06,-63.637,1.9759
30185,18.93,6,0.1,0.00011,1099.2,0.00010979,1093.3,-3.5703e-05,0.10671,-3.729e-05,-11.819,2.021
30186,18.838,6,0.05,1.0914e-05,109.07,8.3807e-06,62.97,3.6365e-12,6.3175e-06,-8.3807e-06,-62.97,2.0059
30187,19.114,6,0.1,0.00010576,1056.8,0.00010555,1050.8,-3.4293e-05,0.11229,-3.5907e-05,-12.018,2.0511
30188,19.022,6,0.05,1.0793e-05,107.85,8.2875e-06,62.269,3.6393e-12,7.7473e-06,-8.2875e-06,-62.269,2.036
30189,19.299,6,0.1,0.00010153,1014.6,0.00010132,1008.5,-3.2888e-05,0.1183,-3.453e-05,-12.219,2.0813
30190,19.206,6,0.05,1.0665e-05,106.58,8.1895e-06,61.533,3.6363e-12,5.4824e-06,-8.1895e-06,-61.533,2.0662
30191,19.483,6,0.1,9.7324e-05,972.57,9.7109e-05,966.36,-3.1489e-05,0.12478,-3.3159e-05,-12.424,2.1115
30192,19.391,6,0.05,1.0531e-05,105.24,8.0865e-06,60.759,2.7235e-12,7.3628e-06,-8.0865e-06,-60.759,2.0964
30193,19.667,6,0.1,9.3134e-05,930.7,9.2915e-05,924.39,-3.0096e-05,0.13176,-3.1794e-05,-12.63,2.1418
30194,19.575,6,0.05,1.039e-05,103.83,7.9781e-06,59.944,2.7283e-12,7.5543e-06,-7.9781e-06,-59.944,2.1267
30195,19.852,6,0.1,8.8961e-05,889,8.8738e-05,882.58,-2.8707e-05,0.1393,-3.0434e-05,-12.839,2.1722
30196,19.76,6,0.05,1.0241e-05,102.34,7.8637e-06,59.085,2.7302e-12,7.926e-06,-7.8637e-06,-59.085,2.157
30197,20.036,6,0.1,8.4804e-05,847.45,8.4577e-05,840.93,-2.7324e-05,0.14744,-2.908e-05,-13.048,2.2027
30198,19.944,6,0.05,1.0084e-05,100.77,7.743e-06,58.178,2.7303e-12,6.8532e-06,-7.743e-06,-58.178,2.1874
30199,20.221,6,0.1,8.0663e-05,806.07,8.0432e-05,799.44,-2.5946e-05,0.15626,-2.7732e-05,-13.258,2.2332
30200,20.128,6,0.05,9.9176e-06,99.108,7.6155e-06,57.22,2.7326e-12,7.9439e-06,-7.6155e-06,-57.22,2.2179
30201,20.405,6,0.1,7.6538e-05,764.85,7.6302e-05,758.11,-2.4573e-05,0.16581,-2.6388e-05,-13.468,2.2637
30202,20.313,6,0.05,9.7418e-06,97.351,7.4805e-06,56.206,2.7305e-12,6.2063e-06,-7.4805e-06,-56.206,2.2484
30203,20.589,6,0.1,7.2428e-05,723.78,7.2188e-05,716.93,-2.3206e-05,0.17616,-2.505e-05,-13.677,2.2943
30204,20.497,6,0.05,9.5556e-06,95.49,7.3375e-06,55.131,2.7232e-12,6.035e-06,-7.3375e-06,-55.131,2.279
30205,20.774,6,0.1,6.8334e-05,682.87,6.809e-05,675.91,-2.1843e-05,0.18741,-2.3716e-05,-13.884,2.3249
30206,20.681,6,0.05,9.3579e-06,93.515,7.1857e-06,53.991,2.7227e-12,7.4183e-06,-7.1857e-06,-53.991,2.3096
30207,20.958,6,0.1,6.4255e-05,642.1,6.4007e-05,635.04,-2.0486e-05,0.19964,-2.2387e-05,-14.086,2.3556
30208,20.866,6,0.05,9.1479e-06,91.416,7.0245e-06,52.779,2.7252e-12,8.4013e-06,-7.0245e-06,-52.779,2.3403
30209,21.142,6,0.1,6.0191e-05,601.49,5.9938e-05,594.33,-1.9133e-05,0.21298,-2.1063e-05,-14.283,2.3864
30210,21.05,6,0.05,8.9245e-06,89.184,6.8529e-06,51.49,1.8219e-12,7.5611e-06,-6.8529e-06,-51.49,2.371
30211,21.327,6,0.1,5.6142e-05,561.03,5.5885e-05,553.77,-1.7786e-05,0.22756,-1.9743e-05,-14.473,2.4171
30212,21.235,6,0.05,8.6864e-06,86.804,6.6701e-06,50.116,1.8257e-12,7.4483e-06,-6.6701e-06,-50.116,2.4017
30213,21.511,6,0.1,5.2109e-05,520.73,5.1847e-05,513.36,-1.6444e-05,0.24353,-1.8427e-05,-14.653,2.448
30214,21.419,6,0.05,8.4323e-06,84.265,6.4749e-06,48.65,1.8147e-12,8.7888e-06,-6.4749e-06,-48.65,2.4325
30215,21.695,6,0.1,4.8091e-05,480.58,4.7825e-05,473.12,-1.5108e-05,0.2611,-1.7115e-05,-14.821,2.4788
30216,21.603,6,0.05,8.1605e-06,81.549,6.2663e-06,47.082,1.3552e-12,7.3155e-06,-6.2663e-06,-47.082,2.4634
30217,21.88,6,0.1,4.4089e-05,440.59,4.3819e-05,433.04,-1.3778e-05,0.28051,-1.5808e-05,-14.972,2.5097
30218,21.788,6,0.05,7.8694e-06,78.639,6.0427e-06,45.403,1.5863e-12,8.5391e-06,-6.0427e-06,-45.403,2.4942
30219,22.064,6,0.1,4.0104e-05,400.77,3.983e-05,393.14,-1.2454e-05,0.30207,-1.4504e-05,-15.104,2.5406
30220,21.972,6,0.05,7.5568e-06,75.516,5.8027e-06,43.599,1.6018e-12,6.1198e-06,-5.8027e-06,-43.599,2.5251
30221,22.249,6,0.1,3.6138e-05,361.13,3.586e-05,353.44,-1.1137e-05,0.32619,-1.3204e-05,-15.21,2.5715
30222,22.156,6,0.05,7.2203e-06,72.153,5.5443e-06,41.657,1.8122e-12,1.1209e-05,-5.5443e-06,-41.657,2.556
30223,22.433,6,0.1,3.2193e-05,321.7,3.191e-05,313.95,-9.8275e-06,0.35339,-1.1909e-05,-15.284,2.6025
30224,22.341,6,0.05,6.857e-06,68.522,5.2653e-06,39.561,1.3568e-12,1.1858e-05,-5.2653e-06,-39.561,2.587
30225,22.617,6,0.1,2.827e-05,282.51,2.7983e-05,274.71,-8.5276e-06,0.38445,-1.0617e-05,-15.316,2.6334
30226,22.525,6,0.05,6.4633e-06,64.588,4.963e-06,37.29,1.8177e-12,5.83e-06,-4.963e-06,-37.29,2.6179
30227,22.802,6,0.1,2.4376e-05,243.59,2.4084e-05,235.77,-7.2387e-06,0.42032,-9.3301e-06,-15.294,2.6644
30228,22.709,6,0.05,6.0347e-06,60.305,4.6339e-06,34.817,1.7938e-12,9.6317e-06,-4.6339e-06,-34.817,2.6489
30229,22.986,6,0.1,2.0515e-05,205.01,2.0219e-05,197.19,-5.9635e-06,0.46292,-8.0481e-06,-15.199,2.6954
30230,22.894,6,0.05,5.5654e-06,55.615,4.2735e-06,32.11,1.3397e-12,6.5021e-06,-4.2735e-06,-32.11,2.6799
30231,23.17,6,0.1,1.6698e-05,166.87,1.6398e-05,159.08,-4.7065e-06,0.51317,-6.7716e-06,-15.004,2.7264
30232,23.078,6,0.05,5.0474e-06,50.439,3.8758e-06,29.121,1.7812e-12,1.0297e-05,-3.8758e-06,-29.121,2.7109
30233,23.355,6,0.1,1.2941e-05,129.32,1.2634e-05,121.61,-3.4741e-06,0.58249,-5.5006e-06,-14.644,2.7575
30234,23.263,6,0.05,4.4691e-06,44.66,3.4317e-06,25.784,1.2206e-12,7.1444e-06,-3.4317e-06,-25.784,2.7419
30235,23.539,6,0.1,9.2737e-06,92.673,8.9575e-06,85.09,-2.2791e-06,0.6627,-4.2392e-06,-14.065,2.7885
30236,23.447,6,0.05,3.8123e-06,38.097,2.9274e-06,21.995,1.3341e-12,9.8764e-06,-2.9274e-06,-21.995,2.773
30237,23.723,6,0.1,5.7248e-06,57.208,5.4066e-06,50.178,-1.1543e-06,0.88196,-2.9422e-06,-12.552,2.8195
30238,23.631,6,0.05,3.0425e-06,30.404,2.3363e-06,17.554,1.0329e-12,5.1362e-06,-2.3363e-06,-17.554,2.804
30239,23.908,6,0.1,2.3987e-06,23.971,2.125e-06,18.611,-2.6439e-07,0.65831,-1.4979e-06,-8.6099,2.8506
30240,23.816,6,0.05,2.0504e-06,20.49,1.5744e-06,11.83,9.1663e-13,1.1136e-05,-1.5744e-06,-11.83,2.8351
30241,24,5.9091,0.1,2.3234e-06,23.218,1.3386e-06,5.8822,2.3966e-07,-2.3747,-2.1508e-06,-20.336,2.8662
30242,24,6,0.05,7.8639e-07,7.8585,6.0385e-07,4.5371,4.1313e-12,4.4016e-05,-6.0385e-07,-4.5371,2.8661
30243,24,5.7273,0.1,5.3347e-06,53.31,2.428e-06,6.9279,1.2157e-06,-2.1809,-5.1952e-06,-50.349,2.8663
30244,24,5.8182,0.05,7.0003e-07,6.9955,5.3754e-07,4.0389,1.7739e-12,2.3026e-05,-5.3754e-07,-4.0389,2.8662
30245,24,5.5455,0.1,7.7644e-06,77.59,3.2609e-06,7.1848,2.0021e-06,-2.2736,-7.6374e-06,-74.701,2.8665
30246,24,5.6364,0.05,8.0214e-07,8.0159,6.1595e-07,4.628,1.1574e-12,1.8082e-05,-6.1595e-07,-4.628,2.8664
30247,24,5.3636,0.1,9.6983e-06,96.916,3.9141e-06,7.2677,2.6288e-06,-2.3901,-9.5791e-06,-94.115,2.8666
30248,24,5.4545,0.05,8.9081e-07,8.902,6.8403e-07,5.1396,1.1129e-12,1.6001e-05,-6.8403e-07,-5.1396,2.8665
30249,24,5.1818,0.1,1.1326e-05,113.18,4.4555e-06,7.2777,3.1642e-06,-2.4249,-1.1212e-05,-110.44,2.8668
30250,24,5.2727,0.05,9.3887e-07,9.3822,7.2093e-07,5.4168,1.0422e-12,1.7129e-05,-7.2093e-07,-5.4168,2.8667
30251,24,5,0.1,1.2722e-05,127.13,4.9161e-06,7.2477,3.6248e-06,-2.4546,-1.2612e-05,-124.45,2.8669
30252,24,5.0909,0.05,9.6072e-07,9.6006,7.3772e-07,5.5429,7.4182e-13,1.4776e-05,-7.3772e-07,-5.5429,2.8668
30253,24,4.8182,0.1,1.3928e-05,139.18,5.3123e-06,7.2029,4.0243e-06,-2.4742,-1.3822e-05,-136.57,2.867
30254,24,4.9091,0.05,9.6447e-07,9.638,7.4059e-07,5.5645,8.284e-13,1.5679e-05,-7.4059e-07,-5.5645,2.8669
30255,24,4.6364,0.1,1.4973e-05,149.62,5.6541e-06,7.1517,4.371e-06,-2.4895,-1.487e-05,-147.06,2.8671
30256,24,4.7273,0.05,9.5555e-07,9.5489,7.3375e-07,5.5131,1.2557e-12,1.9007e-05,-7.3375e-07,-5.5131,2.867
30257,24,4.4545,0.1,1.5875e-05,158.64,5.9485e-06,7.1,4.6707e-06,-2.5012,-1.5774e-05,-156.12,2.8672
30258,24,4.5455,0.05,9.3799e-07,9.3734,7.2026e-07,5.4117,1.2502e-12,1.6498e-05,-7.2026e-07,-5.4117,2.8671
30259,24,4.2727,0.1,1.6647e-05,166.36,6.2003e-06,7.0507,4.9278e-06,-2.5104,-1.655e-05,-163.88,2.8673
30260,24,4.3636,0.05,9.1487e-07,9.1423,7.025e-07,5.2783,1.0629e-12,2.005e-05,-7.025e-07,-5.2783,2.8672
30261,24,4.0909,0.1,1.7301e-05,172.9,6.4131e-06,7.0058,5.1456e-06,-2.5176,-1.7205e-05,-170.45,2.8674
30262,24,4.1818,0.05,8.8873e-07,8.8812,6.8244e-07,5.1276,1.1423e-12,1.7747e-05,-6.8244e-07,-5.1276,2.8673
30263,24,3.9091,0.1,1.7844e-05,178.32,6.5894e-06,6.9666,5.3264e-06,-2.5232,-1.775e-05,-175.91,2.8674
30264,24,4,0.05,8.6177e-07,8.6117,6.6173e-07,4.972,1.1337e-12,1.775e-05,-6.6173e-07,-4.972,2.8674
30265,24,3.7273,0.1,1.8281e-05,182.69,6.7314e-06,6.9338,5.4721e-06,-2.5275,-1.8188e-05,-180.3,2.8675
30266,24,3.8182,0.05,8.3589e-07,8.3531,6.4186e-07,4.8227,1.3696e-12,1.946e-05,-6.4186e-07,-4.8227,2.8675
30267,24,3.5455,0.1,1.8617e-05,186.05,6.8404e-06,6.9079,5.5842e-06,-2.5307,-1.8525e-05,-183.68,2.8675
30268,24,3.6364,0.05,8.1282e-07,8.1226,6.2414e-07,4.6896,1.0974e-12,1.3595e-05,-6.2414e-07,-4.6895,2.8675
30269,24,3.3636,0.1,1.8855e-05,188.42,6.9175e-06,6.8892,5.6635e-06,-2.5329,-1.8764e-05,-186.07,2.8676
30270,24,3.4545,0.05,7.9403e-07,7.9349,6.0972e-07,4.5812,1.1549e-12,1.7417e-05,-6.0972e-07,-4.5812,2.8675
30271,24,3.1818,0.1,1.8997e-05,189.84,6.9635e-06,6.8779,5.7109e-06,-2.5342,-1.8906e-05,-187.49,2.8676
30272,24,3.2727,0.05,7.8077e-07,7.8023,5.9954e-07,4.5047,8.0719e-13,1.4469e-05,-5.9954e-07,-4.5047,2.8676
30273,24,3,0.1,1.9044e-05,190.31,6.9788e-06,6.8741,5.7266e-06,-2.5346,-1.8953e-05,-187.97,2.8676
30274,24,3.0909,0.05,7.7391e-07,7.7337,5.9427e-07,4.4651,8.7535e-13,1.5e-05,-5.9427e-07,-4.4651,2.8676
30275,24,2.8182,0.1,1.8997e-05,189.84,6.9635e-06,6.8779,5.7109e-06,-2.5342,-1.8906e-05,-187.49,2.8676
30276,24,2.9091,0.05,7.7391e-07,7.7337,5.9427e-07,4.4651,9.4456e-13,1.5518e-05,-5.9427e-07,-4.4651,2.8676
30277,24,2.6364,0.1,1.8855e-05,188.42,6.9175e-06,6.8892,5.6635e-06,-2.5329,-1.8764e-05,-186.07,2.8676
30278,24,2.7273,0.05,7.8077e-07,7.8023,5.9954e-07,4.5047,5.7095e-13,8.5384e-06,-5.9954e-07,-4.5047,2.8676
30279,24,2.4545,0.1,1.8617e-05,186.05,6.8404e-06,6.9079,5.5842e-06,-2.5307,-1.8525e-05,-183.68,2.8675
30280,24,2.5455,0.05,7.9403e-07,7.9349,6.0972e-07,4.5812,1.1111e-12,9.3836e-06,-6.0972e-07,-4.5812,2.8675
30281,24,2.2727,0.1,1.8281e-05,182.69,6.7314e-06,6.9338,5.4721e-06,-2.5275,-1.8188e-05,-180.3,2.8675
30282,24,2.3636,0.05,8.1282e-07,8.1226,6.2414e-07,4.6896,7.192e-13,9.7228e-06,-6.2414e-07,-4.6896,2.8675
30283,24,2.0909,0.1,1.7844e-05,178.32,6.5894e-06,6.9666,5.3264e-06,-2.5232,-1.775e-05,-175.91,2.8674
30284,24,2.1818,0.05,8.3589e-07,8.3532,6.4186e-07,4.8227,7.6537e-13,1.0211e-05,-6.4186e-07,-4.8227,2.8675
30285,24,1.9091,0.1,1.7301e-05,172.9,6.4131e-06,7.0058,5.1456e-06,-2.5176,-1.7205e-05,-170.45,2.8674
30286,24,2,0.05,8.6177e-07,8.6117,6.6173e-07,4.972,1.0525e-13,7.3611e-06,-6.6173e-07,-4.972,2.8674
30287,24,1.7273,0.1,1.6647e-05,166.36,6.2003e-06,7.0507,4.9278e-06,-2.5104,-1.655e-05,-163.88,2.8673
30288,24,1.8182,0.05,8.8873e-07,8.8812,6.8244e-07,5.1276,2.7523e-13,8.7555e-06,-6.8244e-07,-5.1276,2.8673
30289,24,1.5455,0.1,1.5874e-05,158.64,5.9485e-06,7.1,4.6707e-06,-2.5012,-1.5774e-05,-156.12,2.8672
30290,24,1.6364,0.05,9.1487e-07,9.1423,7.025e-07,5.2783,7.4046e-13,9.3805e-06,-7.025e-07,-5.2783,2.8672
30291,24,1.3636,0.1,1.4973e-05,149.62,5.6541e-06,7.1517,4.371e-06,-2.4895,-1.487e-05,-147.06,2.8671
30292,24,1.4545,0.05,9.3799e-07,9.3734,7.2026e-07,5.4117,7.2993e-13,9.4329e-06,-7.2026e-07,-5.4117,2.8671
30293,24,1.1818,0.1,1.3928e-05,139.18,5.3123e-06,7.2029,4.0243e-06,-2.4742,-1.3822e-05,-136.57,2.867
30294,24,1.2727,0.05,9.5555e-07,9.5489,7.3375e-07,5.5131,4.9415e-13,7.4483e-06,-7.3375e-07,-5.5131,2.867
30295,24,1,0.1,1.2722e-05,127.13,4.9161e-06,7.2477,3.6248e-06,-2.4546,-1.2612e-05,-124.45,2.8669
30296,24,1.0909,0.05,9.6447e-07,9.638,7.4059e-07,5.5645,5.1222e-13,7.3294e-06,-7.4059e-07,-5.5645,2.8669
30297,24,0.81818,0.1,1.1326e-05,113.18,4.4555e-06,7.2777,3.1642e-06,-2.4249,-1.1212e-05,-110.44,2.8668
30298,24,0.90909,0.05,9.6072e-07,9.6006,7.3772e-07,5.5429,6.0252e-13,6.9109e-06,-7.3772e-07,-5.5429,2.8668
30299,24,0.63636,0.1,9.6983e-06,96.916,3.9141e-06,7.2677,2.6288e-06,-2.3901,-9.5791e-06,-94.115,2.8666
30300,24,0.72727,0.05,9.3887e-07,9.3822,7.2094e-07,5.4168,3.1707e-13,7.1857e-06,-7.2094e-07,-5.4168,2.8667
30301,24,0.45455,0.1,7.7644e-06,77.59,3.2609e-06,7.1848,2.0021e-06,-2.2736,-7.6374e-06,-74.701,2.8665
30302,24,0.54545,0.05,8.9081e-07,8.902,6.8403e-07,5.1396,7.7948e-13,9.8717e-06,-6.8403e-07,-5.1396,2.8665
30303,24,0.27273,0.1,5.3347e-06,53.31,2.428e-06,6.9279,1.2157e-06,-2.1809,-5.1952e-06,-50.349,2.8663
30304,24,0.36364,0.05,8.0214e-07,8.0159,6.1595e-07,4.628,5.7425e-13,9.5007e-06,-6.1595e-07,-4.628,2.8664
30305,24,0.090909,0.1,2.3234e-06,23.218,1.3386e-06,5.8822,2.3966e-07,-2.3747,-2.1508e-06,-20.336,2.8662
30306,24,0.18182,0.05,7.0003e-07,6.9955,5.3754e-07,4.0389,6.5762e-13,5.9829e-06,-5.3754e-07,-4.0389,2.8662
30307,2.3842e-15,0.27273,0.1,0.0001875,1873.7,0.00024709,3629.1,4.6392e-06,1807.4,-8.6665e-06,1707.5,0
30308,7.9472e-16,0.090909,0.1,0.00013876,1386.6,0.00013868,1509.5,-5.1943e-06,428.43,-6.9389e-05,-53.897,0
30309,1.6109e-15,0.18182,0.05,1.3884e-05,138.74,1.0661e-05,80.105,4.393e-12,0.00020874,-1.0661e-05,-80.104,0
30310,3.9736e-15,0.45455,0.1,0.00026566,2654.8,0.0003531,5225.4,3.1905e-06,2596.3,-3.5595e-06,2545.6,0
30311,3.2219e-15,0.36364,0.05,1.0022e-05,100.15,7.6953e-06,57.819,1.659e-11,0.00022136,-7.6953e-06,-57.819,0
30312,5.563e-15,0.63636,0.1,0.00030755,3073.3,0.0004092,6061.2,2.219e-06,3003.3,-1.869e-06,2972.6,0
30313,4.8328e-15,0.54545,0.05,9.4267e-06,94.202,7.2385e-06,54.388,7.462e-12,0.00017987,-7.2385e-06,-54.387,0
30314,7.1525e-15,0.81818,0.1,0.00033466,3344.3,0.00044521,6593.6,1.4171e-06,3259.1,-1.1795e-06,3239.6,0
30315,6.4438e-15,0.72727,0.05,8.5244e-06,85.185,6.5457e-06,49.182,4.5208e-12,9.9118e-05,-6.5457e-06,-49.181,0
30316,8.7419e-15,1,0.1,0.00035319,3529.5,0.00046983,6957.6,9.7184e-07,3434.8,-8.045e-07,3421.4,0
30317,8.0547e-15,0.90909,0.05,7.4082e-06,74.031,5.6886e-06,42.742,3.1063e-12,0.00014583,-5.6886e-06,-42.742,0
30318,1.0331e-14,1.1818,0.1,0.00036643,3661.8,0.00048741,7217.6,6.9177e-07,3560.6,-5.6782e-07,3551.1,0
30319,9.6657e-15,1.0909,0.05,6.3544e-06,63.5,4.8794e-06,36.662,2.1856e-12,0.0001387,-4.8794e-06,-36.662,0
30320,1.1921e-14,1.3636,0.1,0.00037605,3757.9,0.00050019,7406.6,5.0002e-07,3652.1,-4.0495e-07,3645.3,0
30321,1.1277e-14,1.2727,0.05,5.3834e-06,53.797,4.1338e-06,31.06,1.451e-12,0.00013308,-4.1338e-06,-31.06,0
30322,1.351e-14,1.5455,0.1,0.00038306,3828,0.00050951,7544.5,3.6337e-07,3719,-2.8748e-07,3714.1,0
30323,1.2888e-14,1.4545,0.05,4.4789e-06,44.758,3.4393e-06,25.841,6.8758e-13,6.8332e-05,-3.4393e-06,-25.841,0
30324,1.51e-14,1.7273,0.1,0.00038815,3878.8,0.00051627,7644.4,2.6314e-07,3767.4,-2.0107e-07,3763.9,0
30325,1.4498e-14,1.6364,0.05,3.6376e-06,36.351,2.7932e-06,20.987,1.8666e-13,0.00012373,-2.7932e-06,-20.987,0
30326,1.6689e-14,1.9091,0.1,0.00039179,3915.2,0.0005211,7716,1.8888e-07,3802,-1.3739e-07,3799.6,0
30327,1.6109e-14,1.8182,0.05,2.8633e-06,28.613,2.1987e-06,16.52,-1.1745e-13,0.00011982,-2.1986e-06,-16.52,0
30328,1.8279e-14,2.0909,0.1,0.00039435,3940.7,0.0005245,7766.2,1.3398e-07,3826.3,-9.0936e-08,3824.6,0
30329,1.772e-14,2,0.05,2.166e-06,21.645,1.6632e-06,12.497,-5.6544e-13,0.00011887,-1.6632e-06,-12.496,0
30330,1.9868e-14,2.2727,0.1,0.0003961,3958.3,0.00052683,7800.6,9.382e-08,3842.9,-5.7538e-08,3841.8,0
30331,1.9331e-14,2.1818,0.05,1.5586e-06,15.575,1.1968e-06,8.9926,-7.7969e-13,5.5875e-05,-1.1968e-06,-8.9923,0
30332,2.1457e-14,2.4545,0.1,0.00039726,3969.9,0.00052837,7823.4,6.4863e-08,3853.9,-3.3811e-08,3853.2,0
30333,2.0942e-14,2.3636,0.05,1.0547e-06,10.54,8.0992e-07,6.0855,-1.0321e-12,-6.8124e-06,-8.099e-07,-6.0852,0
30334,2.3047e-14,2.6364,0.1,0.00039799,3977.1,0.00052934,7837.7,4.4307e-08,3860.8,-1.699e-08,3860.3,0
30335,2.2553e-14,2.5455,0.05,6.662e-07,6.6574,5.1156e-07,3.8438,-1.2906e-12,5.2416e-05,-5.1156e-07,-3.8435,0
30336,2.4636e-14,2.8182,0.1,0.00039838,3981.1,0.00052986,7845.4,3.036e-08,3864.5,-5.2844e-09,3864.2,0
30337,2.4164e-14,2.7273,0.05,4.0204e-07,4.0176,3.0872e-07,2.3196,-1.277e-12,-9.4754e-06,-3.0872e-07,-2.3195,0
30338,2.6226e-14,3,0.1,0.00039851,3982.3,0.00053003,7847.9,2.4408e-08,3865.7,-7.9985e-11,3865.5,0
30339,2.5775e-14,2.9091,0.05,2.6826e-07,2.6807,2.0599e-07,1.5477,-6.2724e-13,-4.6828e-06,-2.0599e-07,-1.5477,0
30340,2.7815e-14,3.1818,0.1,0.00039838,3981.1,0.00052986,7845.4,3.0359e-08,3864.5,-5.2844e-09,3864.2,0
30341,2.7386e-14,3.0909,0.05,2.6826e-07,2.6807,2.0599e-07,1.5476,6.2259e-13,4.5042e-06,-2.0599e-07,-1.5478,0
30342,2.9405e-14,3.3636,0.1,0.00039799,3977.1,0.00052934,7837.7,4.4307e-08,3860.8,-1.699e-08,3860.3,0
30343,2.8997e-14,3.2727,0.05,4.0204e-07,4.0176,3.0872e-07,2.3195,1.2194e-12,8.5372e-06,-3.0872e-07,-2.3197,0
30344,3.0994e-14,3.5455,0.1,0.00039726,3969.9,0.00052837,7823.4,6.4863e-08,3853.9,-3.3811e-08,3853.2,0
30345,3.0608e-14,3.4545,0.05,6.662e-07,6.6574,5.1156e-07,3.8435,1.1797e-12,-5.3283e-05,-5.1156e-07,-3.8438,0
30346,3.2583e-14,3.7273,0.1,0.0003961,3958.3,0.00052683,7800.6,9.382e-08,3842.9,-5.7537e-08,3841.8,0
30347,3.2219e-14,3.6364,0.05,1.0547e-06,10.54,8.0991e-07,6.0852,8.7594e-13,-5.5125e-05,-8.0992e-07,-6.0855,0
30348,3.4173e-14,3.9091,0.1,0.00039435,3940.7,0.0005245,7766.2,1.3398e-07,3826.3,-9.0936e-08,3824.6,0
30349,3.383e-14,3.8182,0.05,1.5586e-06,15.575,1.1968e-06,8.9923,5.7635e-13,-0.00011813,-1.1968e-06,-8.9926,0
30350,3.5762e-14,4.0909,0.1,0.00039179,3915.2,0.0005211,7716,1.8888e-07,3802,-1.3739e-07,3799.6,0
30351,3.5441e-14,4,0.05,2.166e-06,21.645,1.6632e-06,12.496,1.3543e-13,-0.0001208,-1.6632e-06,-12.497,0
30352,3.7352e-14,4.2727,0.1,0.00038815,3878.8,0.00051627,7644.4,2.6314e-07,3767.4,-2.0107e-07,3763.9,0
30353,3.7052e-14,4.1818,0.05,2.8633e-06,28.613,2.1986e-06,16.52,-2.9936e-13,-0.00012392,-2.1987e-06,-16.52,0
30354,3.8941e-14,4.4545,0.1,0.00038306,3828,0.00050951,7544.5,3.6337e-07,3719,-2.8748e-07,3714.1,0
30355,3.8663e-14,4.3636,0.05,3.6376e-06,36.351,2.7932e-06,20.987,-5.6089e-13,-0.00012762,-2.7932e-06,-20.987,0
30356,4.0531e-14,4.6364,0.1,0.00037605,3757.9,0.00050019,7406.6,5.0002e-07,3652.1,-4.0495e-07,3645.3,0
30357,4.0274e-14,4.5455,0.05,4.4789e-06,44.758,3.4393e-06,25.841,-1.1339e-12,-0.00013201,-3.4393e-06,-25.841,0
30358,4.212e-14,4.8182,0.1,0.00036643,3661.8,0.00048741,7217.6,6.9177e-07,3560.6,-5.6782e-07,3551.1,0
30359,4.1885e-14,4.7273,0.05,5.3834e-06,53.797,4.1338e-06,31.06,-1.984e-12,-0.00013726,-4.1338e-06,-31.06,0
30360,4.371e-14,5,0.1,0.00035319,3529.5,0.00046983,6957.6,9.7184e-07,3434.8,-8.045e-07,3421.4,0
30361,4.3495e-14,4.9091,0.05,6.3544e-06,63.5,4.8794e-06,36.662,-2.8185e-12,-0.00014347,-4.8794e-06,-36.662,0
30362,4.5299e-14,5.1818,0.1,0.00033466,3344.3,0.00044521,6593.6,1.4171e-06,3259.1,-1.1795e-06,3239.6,0
30363,4.5106e-14,5.0909,0.05,7.4082e-06,74.031,5.6886e-06,42.742,-3.8891e-12,-0.00015174,-5.6886e-06,-42.742,0
30364,4.6888e-14,5.3636,0.1,0.00030755,3073.3,0.0004092,6061.2,2.219e-06,3003.3,-1.869e-06,2972.6,0
30365,4.6717e-14,5.2727,0.05,8.5244e-06,85.185,6.5457e-06,49.181,-5.5169e-12,-0.00016417,-6.5457e-06,-49.182,0
30366,4.8478e-14,5.5455,0.1,0.00026566,2654.8,0.0003531,5225.4,3.1905e-06,2596.3,-3.5595e-06,2545.6,0
30367,4.8328e-14,5.4545,0.05,9.4267e-06,94.202,7.2385e-06,54.387,-8.8068e-12,-0.00018937,-7.2385e-06,-54.388,0
30368,5.0067e-14,5.7273,0.1,0.0001875,1873.7,0.00024709,3629.1,4.6393e-06,1807.4,-8.6665e-06,1707.5,0
30369,4.9939e-14,5.6364,0.05,1.0022e-05,100.15,7.6953e-06,57.819,-1.8624e-11,-0.00023311,-7.6953e-06,-57.819,0
30370,5.1657e-14,5.9091,0.1,0.00013876,1386.6,0.00013868,1509.5,-5.1943e-06,428.43,-6.9389e-05,-53.897,0
30371,5.155e-14,5.8182,0.05,1.3884e-05,138.74,1.0661e-05,80.104,-5.1619e-12,-0.00020161,-1.0661e-05,-80.105,0
30372,23.908,0,0.1,2.3987e-06,23.971,2.125e-06,18.611,-2.6439e-07,0.6583,-1.4979e-06,-8.6099,2.8506
30373,24,0,0.05,7.8639e-07,7.8585,6.0385e-07,4.5371,2.9319e-12,2.9568e-05,-6.0385e-07,-4.5371,2.8661
30374,23.723,0,0.1,5.7248e-06,57.208,5.4066e-06,50.178,-1.1543e-06,0.88197,-2.9422e-06,-12.552,2.8195
30375,23.816,0,0.05,2.0504e-06,20.49,1.5744e-06,11.83,8.0566e-13,5.7126e-06,-1.5744e-06,-11.83,2.8351
30376,23.539,0,0.1,9.2737e-06,92.673,8.9575e-06,85.09,-2.2791e-06,0.66271,-4.2392e-06,-14.065,2.7885
30377,23.631,0,0.05,3.0425e-06,30.404,2.3363e-06,17.554,7.3578e-13,1.2811e-05,-2.3363e-06,-17.554,2.804
30378,23.355,0,0.1,1.2941e-05,129.32,1.2634e-05,121.61,-3.4741e-06,0.5825,-5.5006e-06,-14.644,2.7575
30379,23.447,0,0.05,3.8123e-06,38.097,2.9274e-06,21.995,9.1403e-13,5.8321e-06,-2.9274e-06,-21.995,2.773
30380,23.17,0,0.1,1.6698e-05,166.87,1.6398e-05,159.08,-4.7065e-06,0.51317,-6.7716e-06,-15.004,2.7264
30381,23.263,0,0.05,4.4691e-06,44.66,3.4317e-06,25.784,1.3781e-12,1.2387e-05,-3.4317e-06,-25.784,2.7419
30382,22.986,0,0.1,2.0515e-05,205.01,2.0219e-05,197.19,-5.9635e-06,0.46292,-8.0481e-06,-15.199,2.6954
30383,23.078,0,0.05,5.0474e-06,50.439,3.8758e-06,29.121,9.2814e-13,9.8173e-06,-3.8758e-06,-29.121,2.7109
30384,22.802,0,0.1,2.4376e-05,243.59,2.4084e-05,235.77,-7.2387e-06,0.42032,-9.3301e-06,-15.294,2.6644
30385,22.894,0,0.05,5.5654e-06,55.615,4.2735e-06,32.11,1.1575e-12,7.4465e-06,-4.2735e-06,-32.11,2.6799
30386,22.617,0,0.1,2.827e-05,282.51,2.7983e-05,274.71,-8.5276e-06,0.38445,-1.0617e-05,-15.316,2.6334
30387,22.709,0,0.05,6.0347e-06,60.305,4.6339e-06,34.817,1.3815e-12,9.6529e-06,-4.6339e-06,-34.817,2.6489
30388,22.433,0,0.1,3.2193e-05,321.7,3.191e-05,313.95,-9.8275e-06,0.35339,-1.1909e-05,-15.284,2.6025
30389,22.525,0,0.05,6.4633e-06,64.588,4.963e-06,37.29,1.3873e-12,8.1473e-06,-4.963e-06,-37.29,2.6179
30390,22.249,0,0.1,3.6138e-05,361.13,3.586e-05,353.44,-1.1137e-05,0.32619,-1.3204e-05,-15.21,2.5715
30391,22.341,0,0.05,6.857e-06,68.522,5.2653e-06,39.561,1.1329e-12,1.0993e-05,-5.2653e-06,-39.561,2.587
30392,22.064,0,0.1,4.0104e-05,400.77,3.983e-05,393.14,-1.2454e-05,0.30207,-1.4504e-05,-15.104,2.5406
30393,22.156,0,0.05,7.2203e-06,72.153,5.5443e-06,41.657,1.5665e-12,8.3914e-06,-5.5443e-06,-41.657,2.556
30394,21.88,0,0.1,4.4089e-05,440.59,4.3819e-05,433.04,-1.3778e-05,0.28051,-1.5808e-05,-14.972,2.5097
30395,21.972,0,0.05,7.5568e-06,75.516,5.8027e-06,43.599,1.1259e-12,6.8061e-06,-5.8027e-06,-43.599,2.5251
30396,21.695,0,0.1,4.8091e-05,480.58,4.7825e-05,473.12,-1.5108e-05,0.2611,-1.7115e-05,-14.821,2.4788
30397,21.788,0,0.05,7.8694e-06,78.639,6.0427e-06,45.403,6.8204e-13,7.0326e-06,-6.0427e-06,-45.403,2.4942
30398,21.511,0,0.1,5.2109e-05,520.73,5.1847e-05,513.36,-1.6444e-05,0.24353,-1.8427e-05,-14.653,2.448
30399,21.603,0,0.05,8.1605e-06,81.549,6.2663e-06,47.082,1.3597e-12,9.7968e-06,-6.2663e-06,-47.082,2.4634
30400,21.327,0,0.1,5.6142e-05,561.03,5.5885e-05,553.77,-1.7786e-05,0.22756,-1.9743e-05,-14.473,2.4171
30401,21.419,0,0.05,8.4323e-06,84.264,6.4749e-06,48.65,1.8187e-12,7.8948e-06,-6.4749e-06,-48.65,2.4325
30402,21.142,0,0.1,6.0191e-05,601.49,5.9938e-05,594.33,-1.9133e-05,0.21298,-2.1063e-05,-14.283,2.3864
30403,21.235,0,0.05,8.6864e-06,86.804,6.6701e-06,50.116,4.5116e-13,6.705e-06,-6.6701e-06,-50.116,2.4017
30404,20.958,0,0.1,6.4255e-05,642.1,6.4007e-05,635.04,-2.0486e-05,0.19964,-2.2387e-05,-14.086,2.3556
30405,21.05,0,0.05,8.9245e-06,89.184,6.8529e-06,51.49,4.5472e-13,6.3748e-06,-6.8529e-06,-51.49,2.371
30406,20.774,0,0.1,6.8334e-05,682.87,6.809e-05,675.91,-2.1843e-05,0.18741,-2.3716e-05,-13.884,2.3249
30407,20.866,0,0.05,9.1479e-06,91.416,7.0245e-06,52.779,5.9374e-15,8.4835e-06,-7.0245e-06,-52.779,2.3403
30408,20.589,0,0.1,7.2428e-05,723.78,7.2188e-05,716.93,-2.3206e-05,0.17616,-2.505e-05,-13.677,2.2943
30409,20.681,0,0.05,9.3579e-06,93.515,7.1857e-06,53.991,2.7263e-15,6.3711e-06,-7.1857e-06,-53.991,2.3096
30410,20.405,0,0.1,7.6538e-05,764.85,7.6302e-05,758.11,-2.4573e-05,0.16581,-2.6388e-05,-13.468,2.2637
30411,20.497,0,0.05,9.5556e-06,95.49,7.3375e-06,55.131,2.6223e-15,7.719e-06,-7.3375e-06,-55.131,2.279
30412,20.221,0,0.1,8.0663e-05,806.07,8.0432e-05,799.44,-2.5946e-05,0.15626,-2.7732e-05,-13.258,2.2332
30413,20.313,0,0.05,9.7418e-06,97.351,7.4805e-06,56.206,-2.2726e-15,9.2198e-06,-7.4805e-06,-56.206,2.2484
30414,20.036,0,0.1,8.4804e-05,847.45,8.4577e-05,840.93,-2.7324e-05,0.14744,-2.908e-05,-13.048,2.2027
30415,20.128,0,0.05,9.9176e-06,99.108,7.6155e-06,57.22,8.1234e-17,7.8503e-06,-7.6155e-06,-57.22,2.2179
30416,19.852,0,0.1,8.8961e-05,889,8.8738e-05,882.58,-2.8707e-05,0.1393,-3.0434e-05,-12.839,2.1722
30417,19.944,0,0.05,1.0084e-05,100.77,7.743e-06,58.178,-1.9252e-15,7.868e-06,-7.743e-06,-58.178,2.1874
30418,19.667,0,0.1,9.3134e-05,930.7,9.2915e-05,924.39,-3.0096e-05,0.13176,-3.1794e-05,-12.63,2.1418
30419,19.76,0,0.05,1.0241e-05,102.34,7.8637e-06,59.085,-1.668e-21,8.3445e-06,-7.8637e-06,-59.085,2.157
30420,19.483,0,0.1,9.7324e-05,972.57,9.7109e-05,966.36,-3.1489e-05,0.12478,-3.3159e-05,-12.424,2.1115
30421,19.575,0,0.05,1.039e-05,103.83,7.9781e-06,59.944,2.6385e-17,7.7342e-06,-7.9781e-06,-59.944,2.1267
30422,19.299,0,0.1,0.00010153,1014.6,0.00010132,1008.5,-3.2888e-05,0.1183,-3.453e-05,-12.219,2.0813
30423,19.391,0,0.05,1.0531e-05,105.24,8.0865e-06,60.759,-1.5728e-15,7.7489e-06,-8.0865e-06,-60.759,2.0964
30424,19.114,0,0.1,0.00010576,1056.8,0.00010555,1050.8,-3.4293e-05,0.11229,-3.5907e-05,-12.018,2.0511
30425,19.206,0,0.05,1.0665e-05,106.58,8.1895e-06,61.533,1.5566e-15,7.1655e-06,-8.1895e-06,-61.533,2.0662
30426,18.93,0,0.1,0.00011,1099.2,0.00010979,1093.3,-3.5703e-05,0.10671,-3.729e-05,-11.819,2.021
30427,19.022,0,0.05,1.0793e-05,107.85,8.2875e-06,62.269,-9.066e-13,6.7478e-06,-8.2875e-06,-62.269,2.036
30428,18.746,0,0.1,0.00011426,1141.8,0.00011405,1136,-3.7119e-05,0.10151,-3.8679e-05,-11.624,1.9909
30429,18.838,0,0.05,1.0914e-05,109.07,8.3807e-06,62.97,-9.0812e-13,4.8509e-06,-8.3807e-06,-62.97,2.0059
30430,18.561,0,0.1,0.00011853,1184.5,0.00011834,1178.8,-3.854e-05,0.09666,-4.0074e-05,-11.432,1.961
30431,18.653,0,0.05,1.103e-05,110.22,8.4696e-06,63.637,4.1821e-17,8.047e-06,-8.4696e-06,-63.637,1.9759
30432,18.377,0,0.1,0.00012283,1227.4,0.00012263,1221.8,-3.9967e-05,0.092142,-4.1476e-05,-11.244,1.9311
30433,18.469,0,0.05,1.114e-05,111.33,8.5544e-06,64.274,-9.1065e-13,7.0929e-06,-8.5544e-06,-64.274,1.946
30434,18.192,0,0.1,0.00012714,1270.5,0.00012695,1265,-4.14e-05,0.087916,-4.2883e-05,-11.059,1.9013
30435,18.285,0,0.05,1.1246e-05,112.38,8.6354e-06,64.883,-1.8178e-12,7.6297e-06,-8.6354e-06,-64.883,1.9162
30436,18.008,0,0.1,0.00013147,1313.8,0.00013128,1308.4,-4.2839e-05,0.083954,-4.4297e-05,-10.878,1.8716
30437,18.1,0,0.05,1.1347e-05,113.39,8.7128e-06,65.465,-9.0841e-13,4.6075e-06,-8.7128e-06,-65.465,1.8864
30438,17.824,0,0.1,0.00013582,1357.3,0.00013564,1351.9,-4.4283e-05,0.080233,-4.5718e-05,-10.7,1.8419
30439,17.916,0,0.05,1.1443e-05,114.35,8.7869e-06,66.022,-9.1046e-13,8.8729e-06,-8.7869e-06,-66.022,1.8567
30440,17.639,0,0.1,0.00014019,1400.9,0.00014001,1395.7,-4.5734e-05,0.076729,-4.7145e-05,-10.527,1.8124
30441,17.732,0,0.05,1.1536e-05,115.28,8.8579e-06,66.555,-9.0946e-13,4.7606e-06,-8.8579e-06,-66.555,1.8271
30442,17.455,0,0.1,0.00014458,1444.8,0.0001444,1439.6,-4.7191e-05,0.073423,-4.8579e-05,-10.356,1.783
30443,17.547,0,0.05,1.1624e-05,116.16,8.9259e-06,67.066,-1.8181e-12,6.8547e-06,-8.9259e-06,-67.066,1.7977
30444,17.271,0,0.1,0.00014898,1488.8,0.00014881,1483.7,-4.8653e-05,0.070282,-5.0019e-05,-10.19,1.7536
30445,17.363,0,0.05,1.1709e-05,117.01,8.9911e-06,67.556,-1.819e-12,5.8415e-06,-8.9911e-06,-67.556,1.7683
30446,17.086,0,0.1,0.00015341,1533,0.00015324,1528,-5.0122e-05,0.067295,-5.1466e-05,-10.027,1.7244
30447,17.178,0,0.05,1.1791e-05,117.82,9.0537e-06,68.026,-1.8181e-12,5.7887e-06,-9.0537e-06,-68.026,1.739
30448,16.902,0,0.1,0.00015786,1577.5,0.00015769,1572.5,-5.1598e-05,0.06445,-5.2919e-05,-9.8666,1.6952
30449,16.994,0,0.05,1.1869e-05,118.61,9.1138e-06,68.478,-9.0871e-13,6.3183e-06,-9.1138e-06,-68.478,1.7098
30450,16.718,0,0.1,0.00016232,1622.1,0.00016215,1617.2,-5.3079e-05,0.06172,-5.438e-05,-9.71,1.6662
30451,16.81,0,0.05,1.1944e-05,119.36,9.1715e-06,68.911,-9.0948e-13,5.9072e-06,-9.1715e-06,-68.911,1.6807
30452,16.533,0,0.1,0.00016681,1666.9,0.00016664,1662.1,-5.4567e-05,0.059086,-5.5847e-05,-9.5564,1.6373
30453,16.625,0,0.05,1.2016e-05,120.08,9.2269e-06,69.327,-1.8204e-12,5.5972e-06,-9.2269e-06,-69.327,1.6517
30454,16.349,0,0.1,0.00017131,1711.9,0.00017115,1707.2,-5.6061e-05,0.056533,-5.732e-05,-9.4057,1.6085
30455,16.441,0,0.05,1.2085e-05,120.77,9.28e-06,69.727,-1.8183e-12,3.9285e-06,-9.28e-06,-69.726,1.6228
30456,16.164,0,0.1,0.00017583,1757.1,0.00017568,1752.5,-5.7561e-05,0.054049,-5.8801e-05,-9.2579,1.5798
30457,16.257,0,0.05,1.2152e-05,121.43,9.331e-06,70.11,-1.819e-12,5.3593e-06,-9.331e-06,-70.11,1.5941
30458,15.98,0,0.1,0.00018038,1802.5,0.00018022,1798,-5.9068e-05,0.051616,-6.0288e-05,-9.1126,1.5512
30459,16.072,0,0.05,1.2215e-05,122.07,9.38e-06,70.477,-2.7291e-12,4.0482e-06,-9.38e-06,-70.477,1.5654
30460,15.796,0,0.1,0.00018494,1848.1,0.00018479,1843.7,-6.0582e-05,0.049207,-6.1782e-05,-8.9697,1.5227
30461,15.888,0,0.05,1.2276e-05,122.68,9.4268e-06,70.83,-1.8195e-12,5.5433e-06,-9.4268e-06,-70.829,1.5369
30462,15.611,0,0.1,0.00018953,1893.9,0.00018937,1889.5,-6.2102e-05,0.046815,-6.3283e-05,-8.8291,1.4944
30463,15.704,0,0.05,1.2335e-05,123.26,9.4717e-06,71.166,-1.8195e-12,5.1261e-06,-9.4717e-06,-71.166,1.5085
30464,15.427,0,0.1,0.00019413,1940,0.00019398,1935.6,-6.3628e-05,0.044436,-6.4791e-05,-8.6905,1.4662
30465,15.519,0,0.05,1.2391e-05,123.82,9.5145e-06,71.488,-1.8185e-12,3.2784e-06,-9.5145e-06,-71.488,1.4802
30466,15.243,0,0.1,0.00019875,1986.2,0.00019861,1981.9,-6.5161e-05,0.042044,-6.6305e-05,-8.5537,1.4381
30467,15.335,0,0.05,1.2444e-05,124.35,9.5553e-06,71.795,-1.819e-12,6.0202e-06,-9.5553e-06,-71.795,1.4521
30468,15.058,0,0.1,0.0002034,2032.6,0.00020325,2028.4,-6.6701e-05,0.039621,-6.7827e-05,-8.4185,1.4102
30469,15.15,0,0.05,1.2494e-05,124.86,9.5941e-06,72.087,-3.6384e-12,4.5858e-06,-9.5941e-06,-72.087,1.4241
30470,14.874,0,0.1,0.00020806,2079.2,0.00020792,2075.1,-6.8247e-05,0.037157,-6.9355e-05,-8.2847,1.3824
30471,14.966,0,0.05,1.2542e-05,125.34,9.6309e-06,72.363,-3.6384e-12,4.7648e-06,-9.6309e-06,-72.363,1.3962
30472,14.69,0,0.1,0.00021275,2126,0.00021261,2122,-6.98e-05,0.034636,-7.089e-05,-8.1522,1.3547
30473,14.782,0,0.05,1.2587e-05,125.79,9.6656e-06,72.624,-3.6384e-12,3.636e-06,-9.6656e-06,-72.623,1.3685
30474,14.505,0,0.1,0.00021746,2173.1,0.00021732,2169.1,-7.136e-05,0.032043,-7.2432e-05,-8.0205,1.3272
30475,14.597,0,0.05,1.263e-05,126.21,9.6982e-06,72.868,-3.6376e-12,3.4602e-06,-9.6982e-06,-72.868,1.3409
30476,14.321,0,0.1,0.00022218,2220.3,0.00022205,2216.4,-7.2927e-05,0.029347,-7.3981e-05,-7.8896,1.2998
30477,14.413,0,0.05,1.2669e-05,126.61,9.7286e-06,73.097,-3.6376e-12,4.9501e-06,-9.7286e-06,-73.096,1.3134
30478,14.136,0,0.1,0.00022693,2267.8,0.0002268,2263.9,-7.4501e-05,0.026544,-7.5537e-05,-7.7591,1.2726
30479,14.229,0,0.05,1.2706e-05,126.97,9.7567e-06,73.308,-1.8193e-12,4.5896e-06,-9.7567e-06,-73.308,1.2862
30480,13.952,0,0.1,0.0002317,2315.4,0.00023157,2311.6,-7.6081e-05,0.023627,-7.71e-05,-7.6288,1.2455
30481,14.044,0,0.05,1.274e-05,127.31,9.7824e-06,73.501,-3.6382e-12,4.7639e-06,-9.7824e-06,-73.501,1.259
30482,13.768,0,0.1,0.00023649,2363.3,0.00023636,2359.5,-7.7669e-05,0.020565,-7.867e-05,-7.4984,1.2186
30483,13.86,0,0.05,1.277e-05,127.61,9.8057e-06,73.676,-3.6377e-12,3.5167e-06,-9.8057e-06,-73.676,1.232
30484,13.583,0,0.1,0.0002413,2411.4,0.00024118,2407.7,-7.9263e-05,0.017339,-8.0246e-05,-7.3678,1.1919
30485,13.676,0,0.05,1.2797e-05,127.88,9.8265e-06,73.832,-3.6378e-12,2.9819e-06,-9.8264e-06,-73.832,1.2052
30486,13.399,0,0.1,0.00024614,2459.7,0.00024601,2456,-8.0865e-05,0.013934,-8.183e-05,-7.2365,1.1653
30487,13.491,0,0.05,1.282e-05,128.12,9.8445e-06,73.967,-3.6378e-12,5.3062e-06,-9.8445e-06,-73.967,1.1785
30488,13.215,0,0.1,0.00025099,2508.2,0.00025087,2504.6,-8.2474e-05,0.010322,-8.3421e-05,-7.1043,1.1388
30489,13.307,0,0.05,1.284e-05,128.31,9.8596e-06,74.081,-3.638e-12,3.456e-06,-9.8596e-06,-74.081,1.152
30490,13.03,0,0.1,0.00025587,2556.9,0.00025575,2553.4,-8.409e-05,0.0064842,-8.5018e-05,-6.9709,1.1126
30491,13.122,0,0.05,1.2856e-05,128.47,9.8717e-06,74.172,-5.4569e-12,5.0664e-06,-9.8717e-06,-74.172,1.1257
30492,12.846,0,0.1,0.00026076,2605.8,0.00026065,2602.4,-8.5713e-05,0.0024171,-8.6623e-05,-6.836,1.0865
30493,12.938,0,0.05,1.2867e-05,128.59,9.8806e-06,74.239,-3.638e-12,3.3379e-06,-9.8806e-06,-74.239,1.0995
30494,12.662,0,0.1,0.00026568,2655,0.00026557,2651.6,-8.7343e-05,-0.0019166,-8.8235e-05,-6.6994,1.0606
30495,12.754,0,0.05,1.2874e-05,128.66,9.886e-06,74.28,-5.457e-12,3.5763e-06,-9.886e-06,-74.279,1.0735
30496,12.477,0,0.1,0.00027062,2704.4,0.00027051,2701.1,-8.8981e-05,-0.0065559,-8.9854e-05,-6.5606,1.0349
30497,12.569,0,0.05,1.2877e-05,128.68,9.8878e-06,74.293,-3.638e-12,2.9206e-06,-9.8878e-06,-74.293,1.0477
30498,12.293,0,0.1,0.00027559,2754,0.00027548,2750.8,-9.0627e-05,-0.011508,-9.1479e-05,-6.4195,1.0094
30499,12.385,0,0.05,1.2874e-05,128.65,9.8857e-06,74.277,-3.6379e-12,3.756e-06,-9.8857e-06,-74.277,1.0221
30500,12.108,0,0.1,0.00028057,2803.8,0.00028047,2800.6,-9.2279e-05,-0.016795,-9.3112e-05,-6.2756,0.984
30501,12.201,0,0.05,1.2866e-05,128.57,9.8794e-06,74.23,-5.457e-12,3.4571e-06,-9.8794e-06,-74.23,0.99663
30502,11.924,0,0.1,0.00028558,2853.8,0.00028548,2850.8,-9.394e-05,-0.022449,-9.4753e-05,-6.1286,0.95884
30503,12.016,0,0.05,1.2852e-05,128.43,9.8687e-06,74.149,-5.457e-12,3.6955e-06,-9.8686e-06,-74.149,0.97137
30504,11.74,0,0.1,0.00029061,2904.1,0.00029051,2901.1,-9.5608e-05,-0.028501,-9.64e-05,-5.9783,0.93387
30505,11.832,0,0.05,1.2832e-05,128.23,9.8532e-06,74.033,-3.638e-12,-2.1457e-06,-9.8531e-06,-74.033,0.94631
30506,11.555,0,0.1,0.00029567,2954.6,0.00029556,2951.7,-9.7284e-05,-0.034969,-9.8054e-05,-5.8243,0.9091
30507,11.647,0,0.05,1.2805e-05,127.96,9.8326e-06,73.878,-3.6383e-12,8.166e-06,-9.8326e-06,-73.878,0.92144
30508,11.371,0,0.1,0.00030074,3005.3,0.00030064,3002.5,-9.8967e-05,-0.041861,-9.9716e-05,-5.6663,0.88453
30509,11.463,0,0.05,1.2771e-05,127.62,9.8065e-06,73.682,-5.4569e-12,2.2651e-06,-9.8065e-06,-73.682,0.89677
30510,11.187,0,0.1,0.00030584,3056.3,0.00030575,3053.5,-0.00010066,-0.049219,-0.00010138,-5.5041,0.86017
30511,11.279,0,0.05,1.2729e-05,127.21,9.7747e-06,73.443,-7.2759e-12,2.742e-06,-9.7747e-06,-73.443,0.8723
30512,11.002,0,0.1,0.00031096,3107.5,0.00031087,3104.8,-0.00010236,-0.05708,-0.00010306,-5.3374,0.83601
30513,11.094,0,0.05,1.268e-05,126.71,9.7366e-06,73.157,-7.2765e-12,2.2056e-06,-9.7366e-06,-73.157,0.84803
30514,10.818,0,0.1,0.00031611,3158.9,0.00031602,3156.3,-0.00010406,-0.065439,-0.00010474,-5.1659,0.81206
30515,10.91,0,0.05,1.2622e-05,126.13,9.6919e-06,72.822,-5.4569e-12,3.0999e-06,-9.6919e-06,-72.821,0.82398
30516,10.633,0,0.1,0.00032127,3210.5,0.00032119,3208,-0.00010578,-0.074308,-0.00010643,-4.9896,0.78832
30517,10.726,0,0.05,1.2554e-05,125.46,9.6402e-06,72.433,-7.2751e-12,2.7422e-06,-9.6402e-06,-72.433,0.80014
30518,10.449,0,0.1,0.00032646,3262.4,0.00032638,3259.9,-0.0001075,-0.083702,-0.00010813,-4.8082,0.76481
30519,10.541,0,0.05,1.2477e-05,124.69,9.581e-06,71.988,-7.275e-12,2.6827e-06,-9.581e-06,-71.988,0.77651
30520,10.265,0,0.1,0.00033168,3314.5,0.0003316,3312.1,-0.00010923,-0.093615,-0.00010983,-4.6218,0.74151
30521,10.357,0,0.05,1.239e-05,123.81,9.5139e-06,71.484,-5.4568e-12,2.3933e-06,-9.5139e-06,-71.484,0.7531
30522,10.08,0,0.1,0.00033691,3366.8,0.00033683,3364.5,-0.00011097,-0.10402,-0.00011155,-4.4305,0.71844
30523,10.173,0,0.05,1.2292e-05,122.83,9.4384e-06,70.917,-7.2758e-12,2.3257e-06,-9.4384e-06,-70.916,0.72992
30524,9.896,0,0.1,0.00034216,3419.3,0.00034209,3417.1,-0.00011271,-0.11491,-0.00011326,-4.2343,0.6956
30525,9.9882,0,0.05,1.2182e-05,121.73,9.3541e-06,70.283,-7.2758e-12,1.9684e-06,-9.3541e-06,-70.283,0.70696
30526,9.7117,0,0.1,0.00034744,3472,0.00034737,3469.9,-0.00011446,-0.12623,-0.00011498,-4.0337,0.67299
30527,9.8038,0,0.05,1.206e-05,120.52,9.2606e-06,69.581,-5.4581e-12,2.2661e-06,-9.2606e-06,-69.58,0.68424
30528,9.5273,0,0.1,0.00035273,3524.8,0.00035266,3522.9,-0.00011622,-0.13789,-0.00011671,-3.8291,0.65062
30529,9.6195,0,0.05,1.1926e-05,119.18,9.1575e-06,68.806,-5.4552e-12,2.1021e-06,-9.1575e-06,-68.806,0.66175
30530,9.3429,0,0.1,0.00035803,3577.9,0.00035797,3576,-0.00011798,-0.14979,-0.00011845,-3.6213,0.62849
30531,9.4351,0,0.05,1.1779e-05,117.7,9.0445e-06,67.957,-7.2774e-12,2.03e-06,-9.0445e-06,-67.956,0.63949
30532,9.1586,0,0.1,0.00036335,3631,0.00036329,3629.2,-0.00011975,-0.1618,-0.00012018,-3.4112,0.6066
30533,9.2507,0,0.05,1.1618e-05,116.1,8.9213e-06,67.031,-7.2773e-12,1.9104e-06,-8.9213e-06,-67.031,0.61748
30534,8.9742,0,0.1,0.00036868,3684.2,0.00036862,3682.6,-0.00012152,-0.17372,-0.00012192,-3.2003,0.58495
30535,9.0664,0,0.05,1.1444e-05,114.36,8.7879e-06,66.029,-7.2755e-12,2.0302e-06,-8.7879e-06,-66.028,0.59571
30536,8.7898,0,0.1,0.00037401,3737.5,0.00037395,3735.9,-0.00012329,-0.18528,-0.00012366,-2.9901,0.56356
30537,8.882,0,0.05,1.1257e-05,112.49,8.6442e-06,64.949,-7.2754e-12,1.9317e-06,-8.6442e-06,-64.949,0.57419
30538,8.6055,0,0.1,0.00037933,3790.7,0.00037928,3789.2,-0.00012506,-0.19616,-0.0001254,-2.7828,0.54242
30539,8.6976,0,0.05,1.1057e-05,110.49,8.4904e-06,63.794,-7.2773e-12,1.8728e-06,-8.4904e-06,-63.794,0.55292
30540,8.4211,0,0.1,0.00038464,3843.8,0.0003846,3842.4,-0.00012682,-0.20595,-0.00012714,-2.581,0.52154
30541,8.5133,0,0.05,1.0844e-05,108.37,8.3271e-06,62.567,-7.2727e-12,1.8154e-06,-8.3271e-06,-62.567,0.53191
30542,8.2367,0,0.1,0.00038993,3896.6,0.00038988,3895.3,-0.00012858,-0.21412,-0.00012886,-2.3879,0.50092
30543,8.3289,0,0.05,1.062e-05,106.13,8.155e-06,61.274,-7.2747e-12,1.4392e-06,-8.155e-06,-61.273,0.51116
30544,8.0524,0,0.1,0.00039517,3949,0.00039513,3947.7,-0.00013031,-0.22,-0.00013058,-2.2075,0.48056
30545,8.1445,0,0.05,1.0386e-05,103.79,7.9753e-06,59.923,-7.2722e-12,1.9408e-06,-7.9753e-06,-59.923,0.49067
30546,7.868,0,0.1,0.00040035,4000.7,0.00040031,3999.6,-0.00013203,-0.22277,-0.00013227,-2.0443,0.46047
30547,7.9602,0,0.05,1.0144e-05,101.37,7.7897e-06,58.529,-7.2747e-12,1.5847e-06,-7.7897e-06,-58.529,0.47045
30548,7.6836,0,0.1,0.00040544,4051.6,0.0004054,4050.6,-0.00013372,-0.22146,-0.00013394,-1.9041,0.44066
30549,7.7758,0,0.05,9.898e-06,98.912,7.6004e-06,57.107,-7.2717e-12,1.702e-06,-7.6004e-06,-57.107,0.4505
30550,7.4993,0,0.1,0.00041041,4101.3,0.00041038,4100.3,-0.00013537,-0.21483,-0.00013558,-1.7933,0.42112
30551,7.5914,0,0.05,9.6508e-06,96.441,7.4106e-06,55.68,-7.2747e-12,1.4409e-06,-7.4106e-06,-55.68,0.43082
30552,7.3149,0,0.1,0.00041522,4149.4,0.00041519,4148.4,-0.00013695,-0.20145,-0.00013716,-1.7198,0.40186
30553,7.4071,0,0.05,9.4078e-06,94.013,7.2241e-06,54.279,-7.2748e-12,1.3756e-06,-7.224e-06,-54.279,0.41142
30554,7.1305,0,0.1,0.00041982,4195.3,0.00041978,4194.3,-0.00013847,-0.17961,-0.00013867,-1.6926,0.38288
30555,7.2227,0,0.05,9.1757e-06,91.694,7.0458e-06,52.939,-7.2776e-12,1.4167e-06,-7.0458e-06,-52.939,0.3923
30556,6.9462,0,0.1,0.00042413,4238.3,0.00042409,4237.4,-0.00013989,-0.14739,-0.0001401,-1.7224,0.36419
30557,7.0383,0,0.05,8.9624e-06,89.562,6.882e-06,51.709,-7.2753e-12,1.3166e-06,-6.882e-06,-51.708,0.37346
30558,6.7618,0,0.1,0.00042807,4277.7,0.00042803,4276.8,-0.00014118,-0.10262,-0.00014141,-1.8215,0.34578
30559,6.854,0,0.05,8.7778e-06,87.717,6.7403e-06,50.644,-7.2757e-12,1.3612e-06,-6.7402e-06,-50.643,0.35491
30560,6.5774,0,0.1,0.00043153,4312.4,0.0004315,4311.3,-0.00014231,-0.042887,-0.00014257,-2.0043,0.32767
30561,6.6696,0,0.05,8.6339e-06,86.279,6.6297e-06,49.813,-7.2759e-12,1.1884e-06,-6.6297e-06,-49.813,0.33665
30562,6.3931,0,0.1,0.00043439,4340.9,0.00043435,4339.8,-0.00014323,0.034354,-0.00014354,-2.2879,0.30984
30563,6.4853,0,0.05,8.5448e-06,85.389,6.5613e-06,49.299,-7.2759e-12,1.2227e-06,-6.5613e-06,-49.299,0.31868
30564,6.2087,0,0.1,0.00043648,4361.7,0.00043643,4360.5,-0.00014389,0.13168,-0.00014427,-2.6922,0.29232
30565,6.3009,0,0.05,8.527e-06,85.211,6.5477e-06,49.197,-3.6372e-12,1.4616e-06,-6.5477e-06,-49.196,0.301
30566,6.0243,0,0.1,0.00043758,4372.7,0.00043752,4371.2,-0.00014422,0.25145,-0.00014468,-3.2411,0.27509
30567,6.1165,0,0.05,8.5992e-06,85.933,6.6031e-06,49.613,-7.2685e-12,1.2171e-08,-6.6031e-06,-49.613,0.28362
30568,5.84,0,0.1,0.00043744,4371.3,0.00043738,4369.6,-0.00014412,0.39538,-0.0001447,-3.9625,0.25816
30569,5.9322,0,0.05,8.7819e-06,87.759,6.7434e-06,50.667,-7.2693e-12,2.8587e-06,-6.7434e-06,-50.667,0.26654
30570,5.6556,0,0.1,0.00043575,4354.4,0.00043567,4352.3,-0.00014351,0.56388,-0.00014423,-4.8896,0.24152
30571,5.7478,0,0.05,9.0966e-06,90.903,6.9851e-06,52.483,-7.257e-12,9.3188e-07,-6.9851e-06,-52.483,0.24976
30572,5.4712,0,0.1,0.00043212,4318.2,0.00043203,4315.6,-0.00014224,0.755,-0.00014314,-6.0609,0.22518
30573,5.5634,0,0.05,9.5641e-06,95.575,7.3441e-06,55.18,-7.2552e-12,1.3465e-06,-7.344e-06,-55.18,0.23327
30574,5.2869,0,0.1,0.00042611,4258.2,0.000426,4254.9,-0.00014016,0.96305,-0.00014129,-7.5194,0.20914
30575,5.3791,0,0.05,1.0202e-05,101.95,7.8339e-06,58.861,-7.2533e-12,1.1242e-06,-7.8339e-06,-58.86,0.21708
30576,5.1025,0,0.1,0.00041718,4168.9,0.00041704,4164.8,-0.00013711,1.1765,-0.00013851,-9.3104,0.19338
30577,5.1947,0,0.05,1.102e-05,110.13,8.4623e-06,63.583,-3.613e-12,1.2609e-06,-8.4623e-06,-63.582,0.20117
30578,4.9181,0,0.1,0.00040471,4044.3,0.00040454,4039.2,-0.00013287,1.3756,-0.00013458,-11.475,0.17791
30579,5.0103,0,0.05,1.2016e-05,120.08,9.2268e-06,69.327,-7.2151e-12,1.2539e-06,-9.2268e-06,-69.326,0.18556
30580,4.7338,0,0.1,0.00038801,3877.4,0.0003878,3871.2,-0.00012722,1.5288,-0.00012929,-14.039,0.16271
30581,4.826,0,0.05,1.3163e-05,131.54,1.0107e-05,75.944,-3.6051e-12,1.1041e-07,-1.0107e-05,-75.944,0.17022
30582,4.5494,0,0.1,0.00036636,3661,0.00036609,3653.3,-0.00011992,1.5913,-0.00012239,-16.986,0.14777
30583,4.6416,0,0.05,1.4401e-05,143.91,1.1058e-05,83.088,1.3083e-14,-1.7624e-14,-1.1058e-05,-83.088,0.15515
30584,4.365,0,0.1,0.00033902,3387.9,0.0003387,3378.5,-0.00011075,1.4986,-0.00011364,-20.225,0.13308
30585,4.4572,0,0.05,1.5622e-05,156.11,1.1996e-05,90.13,-1.78e-12,-1.9118e-14,-1.1996e-05,-90.13,0.14034
30586,4.1807,0,0.1,0.00030536,3051.5,0.00030497,3040.2,-9.9501e-05,1.1924,-0.00010279,-23.523,0.11863
30587,4.2729,0,0.05,1.6649e-05,166.37,1.2784e-05,96.054,-2.7117e-21,2.5849e-07,-1.2784e-05,-96.054,0.12576
30588,3.9963,0,0.1,0.00026491,2647.2,0.00026445,2634.2,-8.606e-05,0.54275,-8.9652e-05,-26.441,0.10438
30589,4.0885,0,0.05,1.722e-05,172.08,1.3223e-05,99.349,-2.1565e-14,-3.4333e-08,-1.3223e-05,-99.349,0.11141
30590,3.8119,0,0.1,0.00021746,2173.1,0.00021696,2158.8,-7.0386e-05,-0.25702,-7.409e-05,-28.082,0.090305
30591,3.9041,0,0.05,1.6974e-05,169.62,1.3034e-05,97.932,-1.2095e-14,-5.1276e-09,-1.3034e-05,-97.932,0.097242
30592,3.6276,0,0.1,0.00016309,1629.8,0.00016258,1615,-5.2651e-05,-2.1867,-5.5981e-05,-27.211,0.076383
30593,3.7198,0,0.05,1.5389e-05,153.78,1.1817e-05,88.786,1.818e-12,-9.7013e-07,-1.1817e-05,-88.786,0.083239
30594,3.4432,0,0.1,0.0001013,1012.3,0.00010089,1000.5,-3.2278e-05,-0.040514,-3.536e-05,-23.194,0.062577
30595,3.5354,0,0.05,1.19e-05,118.92,9.1375e-06,68.656,-3.681e-14,-1.4563e-14,-9.1375e-06,-68.656,0.069364
30596,3.2588,0,0.1,3.5396e-05,353.71,3.5564e-05,360.64,-9.3017e-06,23.544,-1.345e-05,-7.6228,0.04885
30597,3.351,0,0.05,4.507e-06,45.039,3.4608e-06,26.003,3.7096e-13,3.8898e-07,-3.4608e-06,-26.003,0.055577
30598,3.1667,0,0.05,6.444e-06,64.396,4.9482e-06,37.179,7.8909e-14,2.3241e-06,-4.9482e-06,-37.179,0.041837
30599,2.9118,6.4763e-31,0.1,4.357e-05,435.4,4.3674e-05,441.78,-1.1089e-05,30.309,-1.7004e-05,-14.133,0.034593
30600,3,6.6725e-31,0.05,8.2765e-06,82.708,6.3554e-06,47.752,1.8069e-13,3.6279e-06,-6.3554e-06,-47.752,0.036485
30601,2.7353,6.0838e-31,0.1,0.00012543,1253.4,0.00012463,1230.9,-3.9553e-05,-2.7197,-4.4704e-05,-41.42,0.030802
30602,2.8235,0,0.05,8.8679e-06,88.617,6.8094e-06,51.163,3.8219e-13,-1.0852e-14,-6.8094e-06,-51.163,0.03267
30603,2.5588,5.6913e-31,0.1,0.00020078,2006.4,0.00019969,1975.3,-6.3992e-05,-5.9236,-7.058e-05,-55.423,0.027086
30604,2.6471,0,0.05,2.1747e-05,217.32,1.6699e-05,125.47,-5.659e-14,-2.6614e-14,-1.6699e-05,-125.47,0.028908
30605,2.3824,5.2988e-31,0.1,0.00026726,2670.7,0.00026605,2636.2,-8.5328e-05,-3.9378,-9.3347e-05,-64.187,0.023491
30606,2.4706,0,0.05,3.0051e-05,300.3,2.3075e-05,173.38,-1.2576e-14,-3.6776e-14,-2.3075e-05,-173.38,0.025246
30607,2.2059,4.9063e-31,0.1,0.00032624,3260.1,0.00032497,3223.7,-0.00010451,-3.2486,-0.00011323,-68.761,0.020057
30608,2.2941,0,0.05,3.634e-05,363.15,2.7905e-05,209.67,-2.6046e-20,-4.4473e-14,-2.7905e-05,-209.67,0.021724
30609,2.0294,4.5138e-31,0.1,0.00037781,3775.5,0.00037651,3738.2,-0.00012137,-2.7207,-0.00013046,-71.028,0.016819
30610,2.1176,0,0.05,4.1281e-05,412.53,3.1699e-05,238.17,1.818e-12,-5.052e-14,-3.1699e-05,-238.17,0.018382
30611,1.8529,4.1213e-31,0.1,0.00042212,4218.3,0.0004208,4180.3,-0.00013591,-2.6121,-0.00014522,-72.611,0.013811
30612,1.9412,0,0.05,4.5501e-05,454.69,3.4939e-05,262.52,-7.4111e-21,-5.5684e-14,-3.4939e-05,-262.52,0.015255
30613,1.6765,3.7288e-31,0.1,0.00045937,4590.6,0.00045801,4551.4,-0.00014812,-2.7975,-0.00015767,-74.608,0.011059
30614,1.7647,0,0.05,4.945e-05,494.16,3.7972e-05,285.3,-8.0544e-21,-6.0517e-14,-3.7972e-05,-285.3,0.01237
30615,1.5,3.3363e-31,0.1,0.00048981,4894.7,0.00048838,4853.7,-0.00015803,-3.2261,-0.00016797,-77.926,0.0085871
30616,1.5882,0,0.05,5.3493e-05,534.56,4.1076e-05,308.63,-3.635e-12,-6.5465e-14,-4.1076e-05,-308.63,0.0097543
30617,1.3235,2.9438e-31,0.1,0.00051356,5132.1,0.00051203,5088,-0.00016565,-3.8629,-0.00017624,-83.433,0.0064129
30618,1.4118,0,0.05,5.7924e-05,578.84,4.4478e-05,334.19,-3.2084e-20,3.914e-08,-4.4478e-05,-334.19,0.0074279
30619,1.1471,2.5513e-31,0.1,0.00053051,5301.4,0.00052881,5252.6,-0.00017087,-4.6122,-0.00018252,-92.076,0.0045512
30620,1.2353,0,0.05,6.2994e-05,629.5,4.8371e-05,363.44,5.6503e-15,9.4795e-08,-4.8371e-05,-363.44,0.0054075
30621,0.97059,2.1588e-31,0.1,0.00054002,5396.4,0.00053806,5340.2,-0.00017344,-5.6697,-0.00018671,-105.38,0.0030117
30622,1.0588,0,0.05,6.8954e-05,689.06,5.2948e-05,397.83,-3.6295e-12,5.665e-08,-5.2948e-05,-397.83,0.0037052
30623,0.79412,1.7663e-31,0.1,0.0005405,5401.2,0.00053816,5334.4,-0.00017266,-6.4085,-0.00018848,-125.3,0.0017994
30624,0.88235,0,0.05,7.6075e-05,760.22,5.8416e-05,438.91,-7.2643e-12,1.3069e-07,-5.8416e-05,-438.91,0.0023283
30625,0.61765,1.3738e-31,0.1,0.0005284,5280.4,0.00052543,5195.9,-0.00016722,-8.3459,-0.00018706,-157.41,0.00091324
30626,0.70588,0,0.05,8.4822e-05,847.63,6.5132e-05,489.38,-7.2547e-12,1.4247e-07,-6.5132e-05,-489.38,0.0012787
30627,0.44118,9.8125e-32,0.1,0.00049637,4960.3,0.00049228,4845.9,-0.00015418,-11.376,-0.00018081,-211.45,0.00034461
30628,0.52941,0,0.05,9.58e-05,957.34,7.3562e-05,552.72,-7.2541e-12,1.467e-07,-7.3562e-05,-552.72,0.00055113
30629,0.26471,5.8875e-32,0.1,0.00042021,4199.2,0.00041381,4031.5,-0.00012082,14.537,-0.00016651,-328.75,7.9022e-05
30630,0.35294,0,0.05,0.0001111,1110.2,8.5309e-05,640.98,-7.2526e-12,1.5673e-07,-8.5309e-05,-640.98,0.00012915
30631,0.088235,1.9625e-32,0.1,0.00025249,2523.1,0.00022792,1947.9,-5.0711e-05,-145.65,-0.00014493,-853.61,2.703e-05
30632,0.17647,0,0.05,0.00014208,1419.8,0.0001091,819.75,-1.4552e-11,-3.2373e-05,-0.0001091,-819.75,2.4262e-05
30633,0,0,0.05,0.00018963,1895,0.00014561,1094.1,-1.058e-12,0.00028254,-0.00014561,-1094.1,0
30634,0.088235,6,0.1,0.00025249,2523.1,0.00022792,1947.9,-5.0711e-05,-145.65,-0.00014493,-853.61,2.703e-05
30635,5.2451e-14,6,0.05,0.00018963,1895,0.00014561,1094.1,1.0535e-12,-0.00031158,-0.00014561,-1094.1,0
30636,0.26471,6,0.1,0.0004202,4199.2,0.00041381,4031.5,-0.00012082,14.537,-0.00016651,-328.75,7.9022e-05
30637,0.17647,6,0.05,0.00014208,1419.8,0.0001091,819.75,1.6371e-11,3.6188e-05,-0.0001091,-819.75,2.4262e-05
30638,0.44118,6,0.1,0.00049637,4960.3,0.00049228,4845.9,-0.00015418,-11.376,-0.00018081,-211.45,0.00034461
30639,0.35294,6,0.05,0.0001111,1110.2,8.5309e-05,640.98,7.2526e-12,-1.5673e-07,-8.5309e-05,-640.98,0.00012915
30640,0.61765,6,0.1,0.0005284,5280.4,0.00052543,5195.9,-0.00016722,-8.3459,-0.00018706,-157.41,0.00091324
30641,0.52941,6,0.05,9.58e-05,957.34,7.3562e-05,552.72,1.089e-11,-1.4671e-07,-7.3562e-05,-552.72,0.00055113
30642,0.79412,6,0.1,0.0005405,5401.2,0.00053816,5334.4,-0.00017266,-6.4085,-0.00018848,-125.3,0.0017994
30643,0.70588,6,0.05,8.4822e-05,847.63,6.5132e-05,489.38,7.2547e-12,-1.4247e-07,-6.5132e-05,-489.38,0.0012787
30644,0.97059,6,0.1,0.00054002,5396.4,0.00053806,5340.2,-0.00017344,-5.6697,-0.00018671,-105.38,0.0030117
30645,0.88235,6,0.05,7.6075e-05,760.22,5.8416e-05,438.91,7.2643e-12,-1.3069e-07,-5.8416e-05,-438.91,0.0023283
30646,1.1471,6,0.1,0.00053051,5301.4,0.00052881,5252.6,-0.00017087,-4.6122,-0.00018252,-92.076,0.0045512
30647,1.0588,6,0.05,6.8954e-05,689.06,5.2948e-05,397.83,3.6295e-12,-5.6651e-08,-5.2948e-05,-397.83,0.0037052
30648,1.3235,6,0.1,0.00051356,5132.1,0.00051203,5088,-0.00016565,-3.8629,-0.00017624,-83.433,0.0064129
30649,1.2353,6,0.05,6.2994e-05,629.5,4.8371e-05,363.44,-5.6503e-15,-4.7398e-08,-4.8371e-05,-363.44,0.0054075
30650,1.5,6,0.1,0.00048981,4894.7,0.00048838,4853.7,-0.00015803,-3.2261,-0.00016797,-77.926,0.0085871
30651,1.4118,6,0.05,5.7924e-05,578.84,4.4478e-05,334.19,-3.2401e-20,-3.9141e-08,-4.4478e-05,-334.19,0.0074279
30652,1.6765,6,0.1,0.00045937,4590.6,0.00045801,4551.4,-0.00014812,-2.7975,-0.00015767,-74.608,0.011059
30653,1.5882,6,0.05,5.3493e-05,534.56,4.1076e-05,308.63,3.635e-12,-6.5465e-14,-4.1076e-05,-308.63,0.0097543
30654,1.8529,6,0.1,0.00042212,4218.3,0.0004208,4180.3,-0.00013591,-2.6121,-0.00014522,-72.611,0.013811
30655,1.7647,6,0.05,4.945e-05,494.16,3.7972e-05,285.3,-8.0544e-21,-6.0517e-14,-3.7972e-05,-285.3,0.01237
30656,2.0294,6,0.1,0.00037781,3775.5,0.00037651,3738.2,-0.00012137,-2.7207,-0.00013046,-71.028,0.016819
30657,1.9412,6,0.05,4.5501e-05,454.69,3.4939e-05,262.52,-7.4111e-21,-5.5684e-14,-3.4939e-05,-262.52,0.015255
30658,2.2059,6,0.1,0.00032624,3260.1,0.00032497,3223.7,-0.00010451,-3.2486,-0.00011323,-68.761,0.020057
30659,2.1176,6,0.05,4.1281e-05,412.53,3.1699e-05,238.17,-1.818e-12,3.2593e-08,-3.1699e-05,-238.17,0.018382
30660,2.3824,6,0.1,0.00026726,2670.7,0.00026605,2636.2,-8.5328e-05,-3.9378,-9.3347e-05,-64.187,0.023491
30661,2.2941,6,0.05,3.634e-05,363.15,2.7905e-05,209.67,-1.4432e-20,-4.4473e-14,-2.7905e-05,-209.67,0.021724
30662,2.5588,6,0.1,0.00020078,2006.4,0.00019969,1975.3,-6.3992e-05,-5.9236,-7.058e-05,-55.423,0.027086
30663,2.4706,6,0.05,3.0051e-05,300.3,2.3075e-05,173.38,1.2576e-14,-3.6776e-14,-2.3075e-05,-173.38,0.025246
30664,2.7353,6,0.1,0.00012543,1253.4,0.00012463,1230.9,-3.9553e-05,-2.7197,-4.4704e-05,-41.42,0.030802
30665,2.6471,6,0.05,2.1747e-05,217.32,1.6699e-05,125.47,5.659e-14,-1.8882e-06,-1.6699e-05,-125.47,0.028908
30666,2.9118,6,0.1,4.357e-05,435.4,4.3674e-05,441.78,-1.1089e-05,30.309,-1.7004e-05,-14.133,0.034593
30667,2.8235,6,0.05,8.8679e-06,88.617,6.8094e-06,51.163,-3.8219e-13,-1.0852e-14,-6.8094e-06,-51.163,0.03267
30668,3,6,0.05,8.2765e-06,82.708,6.3554e-06,47.752,-2.343e-13,-2.9191e-06,-6.3554e-06,-47.752,0.036485
30669,2.7353,6,0,0.00012543,1253.4,4.4704e-05,41.42,3.9553e-05,2.7197,-0.00012463,-1230.9,0.030802
30670,2.9118,6,0,4.357e-05,435.4,1.7004e-05,14.133,1.1089e-05,-30.309,-4.3674e-05,-441.78,0.034593
30671,2.5588,6,0,0.00020078,2006.4,7.058e-05,55.423,6.3992e-05,5.9236,-0.00019969,-1975.3,0.027086
30672,2.3824,6,0,0.00026726,2670.7,9.3347e-05,64.187,8.5328e-05,3.9378,-0.00026605,-2636.2,0.023491
30673,2.2059,6,0,0.00032624,3260.1,0.00011323,68.761,0.00010451,3.2486,-0.00032497,-3223.7,0.020057
30674,2.0294,6,0,0.00037781,3775.5,0.00013046,71.028,0.00012137,2.7207,-0.00037651,-3738.2,0.016819
30675,1.8529,6,0,0.00042212,4218.3,0.00014522,72.611,0.00013591,2.6121,-0.0004208,-4180.3,0.013811
30676,1.6765,6,0,0.00045937,4590.6,0.00015767,74.608,0.00014812,2.7975,-0.00045801,-4551.4,0.011059
30677,1.5,6,0,0.00048981,4894.7,0.00016797,77.926,0.00015803,3.2261,-0.00048838,-4853.7,0.0085871
30678,1.3235,6,0,0.00051356,5132.1,0.00017624,83.433,0.00016565,3.8629,-0.00051203,-5088,0.0064129
30679,1.1471,6,0,0.00053051,5301.4,0.00018252,92.076,0.00017087,4.6122,-0.00052881,-5252.6,0.0045512
30680,0.97059,6,0,0.00054002,5396.4,0.00018671,105.38,0.00017344,5.6697,-0.00053806,-5340.2,0.0030117
30681,0.79412,6,0,0.0005405,5401.2,0.00018848,125.3,0.00017266,6.4085,-0.00053816,-5334.4,0.0017994
30682,0.61765,6,0,0.0005284,5280.4,0.00018706,157.41,0.00016722,8.3459,-0.00052543,-5195.9,0.00091324
30683,0.44118,6,0,0.00049637,4960.3,0.00018081,211.45,0.00015418,11.376,-0.00049228,-4845.9,0.00034461
30684,0.26471,6,0,0.00042021,4199.2,0.00016651,328.75,0.00012082,-14.537,-0.00041381,-4031.5,7.9022e-05
30685,0.088235,6,0,0.00025249,2523.1,0.00014493,853.61,5.0711e-05,145.65,-0.00022792,-1947.9,2.703e-05
30686,3,5.9091,0,3.8764e-05,387.38,1.5809e-05,36.027,1.0879e-05,-1.0094,-3.8036e-05,-368.54,0.037198
30687,5.1657e-14,5.9091,0,0.00013876,1386.6,6.9389e-05,53.897,5.1943e-06,-428.43,-0.00013868,-1509.5,0
30688,0.26471,5.8875e-32,0,0.0004202,4199.2,0.00016651,328.75,0.00012082,-14.537,-0.00041381,-4031.5,7.9022e-05
30689,0.088235,1.9625e-32,0,0.00025249,2523.1,0.00014493,853.61,5.0711e-05,145.65,-0.00022792,-1947.9,2.703e-05
30690,0.44118,9.8125e-32,0,0.00049637,4960.3,0.00018081,211.45,0.00015418,11.376,-0.00049228,-4845.9,0.00034461
30691,0.61765,1.3738e-31,0,0.0005284,5280.4,0.00018706,157.41,0.00016722,8.3459,-0.00052543,-5195.9,0.00091324
30692,0.79412,1.7663e-31,0,0.0005405,5401.2,0.00018848,125.3,0.00017266,6.4085,-0.00053816,-5334.4,0.0017994
30693,0.97059,2.1588e-31,0,0.00054002,5396.4,0.00018671,105.38,0.00017344,5.6697,-0.00053806,-5340.2,0.0030117
30694,1.1471,2.5513e-31,0,0.00053051,5301.4,0.00018252,92.076,0.00017087,4.6122,-0.00052881,-5252.6,0.0045512
30695,1.3235,2.9438e-31,0,0.00051356,5132.1,0.00017624,83.433,0.00016565,3.8629,-0.00051203,-5088,0.0064129
30696,1.5,3.3363e-31,0,0.00048981,4894.7,0.00016797,77.926,0.00015803,3.2261,-0.00048838,-4853.7,0.0085871
30697,1.6765,3.7288e-31,0,0.00045937,4590.6,0.00015767,74.608,0.00014812,2.7975,-0.00045801,-4551.4,0.011059
30698,1.8529,4.1213e-31,0,0.00042212,4218.3,0.00014522,72.611,0.00013591,2.6121,-0.0004208,-4180.3,0.013811
30699,2.0294,4.5138e-31,0,0.00037781,3775.5,0.00013046,71.028,0.00012137,2.7207,-0.00037651,-3738.2,0.016819
30700,2.2059,4.9063e-31,0,0.00032624,3260.1,0.00011323,68.761,0.00010451,3.2486,-0.00032497,-3223.7,0.020057
30701,2.3824,5.2988e-31,0,0.00026726,2670.7,9.3347e-05,64.187,8.5328e-05,3.9378,-0.00026605,-2636.2,0.023491
30702,2.5588,5.6913e-31,0,0.00020078,2006.4,7.058e-05,55.423,6.3992e-05,5.9236,-0.00019969,-1975.3,0.027086
30703,2.7353,6.0838e-31,0,0.00012543,1253.4,4.4704e-05,41.42,3.9553e-05,2.7197,-0.00012463,-1230.9,0.030802
30704,2.9118,6.4763e-31,0,4.357e-05,435.4,1.7004e-05,14.133,1.1089e-05,-30.309,-4.3674e-05,-441.78,0.034593
30705,3,0.090909,0,3.8764e-05,387.38,1.5809e-05,36.027,1.0879e-05,-1.0094,-3.8036e-05,-368.54,0.037198
30706,7.9472e-16,0.090909,0,0.00013876,1386.6,6.9389e-05,53.897,5.1943e-06,-428.43,-0.00013868,-1509.5,0
30707,3.4432,0,0,0.0001013,1012.3,3.536e-05,23.194,3.2278e-05,0.040514,-0.00010089,-1000.5,0.062577
30708,3.2588,0,0,3.5396e-05,353.71,1.345e-05,7.6228,9.3017e-06,-23.544,-3.5564e-05,-360.64,0.04885
30709,3.6276,0,0,0.00016309,1629.8,5.5981e-05,27.211,5.2651e-05,2.1867,-0.00016258,-1615,0.076383
30710,3.8119,0,0,0.00021746,2173.1,7.409e-05,28.082,7.0386e-05,0.25702,-0.00021696,-2158.8,0.090305
30711,3.9963,0,0,0.00026491,2647.2,8.9652e-05,26.441,8.606e-05,-0.54275,-0.00026445,-2634.2,0.10438
30712,4.1807,0,0,0.00030536,3051.5,0.00010279,23.523,9.9501e-05,-1.1924,-0.00030497,-3040.2,0.11863
30713,4.365,0,0,0.00033902,3387.9,0.00011364,20.225,0.00011075,-1.4986,-0.0003387,-3378.5,0.13308
30714,4.5494,0,0,0.00036636,3661,0.00012239,16.986,0.00011992,-1.5913,-0.00036609,-3653.3,0.14777
30715,4.7338,0,0,0.00038801,3877.4,0.00012929,14.039,0.00012722,-1.5288,-0.0003878,-3871.2,0.16271
30716,4.9181,0,0,0.00040471,4044.3,0.00013458,11.475,0.00013287,-1.3756,-0.00040454,-4039.2,0.17791
30717,5.1025,0,0,0.00041718,4168.9,0.00013851,9.3104,0.00013711,-1.1765,-0.00041704,-4164.8,0.19338
30718,5.2869,0,0,0.00042611,4258.2,0.00014129,7.5194,0.00014016,-0.96305,-0.000426,-4254.9,0.20914
30719,5.4712,0,0,0.00043212,4318.2,0.00014314,6.0609,0.00014224,-0.755,-0.00043203,-4315.6,0.22518
30720,5.6556,0,0,0.00043575,4354.4,0.00014423,4.8896,0.00014351,-0.56388,-0.00043567,-4352.3,0.24152
30721,5.84,0,0,0.00043744,4371.3,0.0001447,3.9625,0.00014412,-0.39538,-0.00043738,-4369.6,0.25816
30722,6.0243,0,0,0.00043758,4372.7,0.00014468,3.2411,0.00014422,-0.25145,-0.00043752,-4371.2,0.27509
30723,6.2087,0,0,0.00043648,4361.7,0.00014427,2.6922,0.00014389,-0.13168,-0.00043643,-4360.5,0.29232
30724,6.3931,0,0,0.00043439,4340.9,0.00014354,2.2879,0.00014323,-0.034354,-0.00043435,-4339.8,0.30984
30725,6.5774,0,0,0.00043153,4312.4,0.00014257,2.0043,0.00014231,0.042888,-0.0004315,-4311.3,0.32767
30726,6.7618,0,0,0.00042807,4277.7,0.00014141,1.8215,0.00014118,0.10262,-0.00042803,-4276.8,0.34578
30727,6.9462,0,0,0.00042413,4238.3,0.0001401,1.7224,0.00013989,0.14739,-0.00042409,-4237.4,0.36419
30728,7.1305,0,0,0.00041982,4195.3,0.00013867,1.6926,0.00013847,0.17961,-0.00041978,-4194.3,0.38288
30729,7.3149,0,0,0.00041522,4149.4,0.00013716,1.7198,0.00013695,0.20145,-0.00041519,-4148.4,0.40186
30730,7.4993,0,0,0.00041041,4101.3,0.00013558,1.7933,0.00013537,0.21483,-0.00041038,-4100.3,0.42112
30731,7.6836,0,0,0.00040544,4051.6,0.00013394,1.9041,0.00013372,0.22146,-0.0004054,-4050.6,0.44066
30732,7.868,0,0,0.00040035,4000.7,0.00013227,2.0443,0.00013203,0.22277,-0.00040031,-3999.6,0.46047
30733,8.0524,0,0,0.00039517,3949,0.00013058,2.2075,0.00013031,0.22,-0.00039513,-3947.7,0.48056
30734,8.2367,0,0,0.00038993,3896.6,0.00012886,2.3879,0.00012858,0.21412,-0.00038988,-3895.3,0.50092
30735,8.4211,0,0,0.00038464,3843.8,0.00012714,2.581,0.00012682,0.20595,-0.0003846,-3842.4,0.52154
30736,8.6055,0,0,0.00037933,3790.7,0.0001254,2.7828,0.00012506,0.19616,-0.00037928,-3789.2,0.54242
30737,8.7898,0,0,0.00037401,3737.5,0.00012366,2.9901,0.00012329,0.18528,-0.00037395,-3735.9,0.56356
30738,8.9742,0,0,0.00036868,3684.2,0.00012192,3.2003,0.00012152,0.17372,-0.00036862,-3682.6,0.58495
30739,9.1586,0,0,0.00036335,3631,0.00012018,3.4112,0.00011975,0.1618,-0.00036329,-3629.2,0.6066
30740,9.3429,0,0,0.00035803,3577.9,0.00011845,3.6213,0.00011798,0.14979,-0.00035797,-3576,0.62849
30741,9.5273,0,0,0.00035273,3524.8,0.00011671,3.8291,0.00011622,0.13789,-0.00035266,-3522.9,0.65062
30742,9.7117,0,0,0.00034744,3472,0.00011498,4.0337,0.00011446,0.12623,-0.00034737,-3469.9,0.67299
30743,9.896,0,0,0.00034216,3419.3,0.00011326,4.2343,0.00011271,0.11491,-0.00034209,-3417.1,0.6956
30744,10.08,0,0,0.00033691,3366.8,0.00011155,4.4305,0.00011097,0.10402,-0.00033683,-3364.5,0.71844
30745,10.265,0,0,0.00033168,3314.5,0.00010983,4.6218,0.00010923,0.093616,-0.0003316,-3312.1,0.74151
30746,10.449,0,0,0.00032646,3262.4,0.00010813,4.8082,0.0001075,0.083703,-0.00032638,-3259.9,0.76481
30747,10.633,0,0,0.00032127,3210.5,0.00010643,4.9896,0.00010578,0.074309,-0.00032119,-3208,0.78832
30748,10.818,0,0,0.00031611,3158.9,0.00010474,5.1659,0.00010406,0.065439,-0.00031602,-3156.3,0.81206
30749,11.002,0,0,0.00031096,3107.5,0.00010306,5.3374,0.00010236,0.05708,-0.00031087,-3104.8,0.83601
30750,11.187,0,0,0.00030584,3056.3,0.00010138,5.5041,0.00010066,0.04922,-0.00030575,-3053.5,0.86017
30751,11.371,0,0,0.00030074,3005.3,9.9716e-05,5.6663,9.8967e-05,0.041862,-0.00030064,-3002.5,0.88453
30752,11.555,0,0,0.00029567,2954.6,9.8054e-05,5.8243,9.7284e-05,0.03497,-0.00029556,-2951.7,0.9091
30753,11.74,0,0,0.00029061,2904.1,9.64e-05,5.9783,9.5608e-05,0.028501,-0.00029051,-2901.1,0.93387
30754,11.924,0,0,0.00028558,2853.8,9.4753e-05,6.1286,9.394e-05,0.022449,-0.00028548,-2850.8,0.95884
30755,12.108,0,0,0.00028057,2803.8,9.3112e-05,6.2756,9.2279e-05,0.016795,-0.00028047,-2800.6,0.984
30756,12.293,0,0,0.00027559,2754,9.1479e-05,6.4195,9.0627e-05,0.011508,-0.00027548,-2750.8,1.0094
30757,12.477,0,0,0.00027062,2704.4,8.9854e-05,6.5606,8.8981e-05,0.0065566,-0.00027051,-2701.1,1.0349
30758,12.662,0,0,0.00026568,2655,8.8235e-05,6.6994,8.7343e-05,0.0019159,-0.00026557,-2651.6,1.0606
30759,12.846,0,0,0.00026076,2605.8,8.6623e-05,6.836,8.5713e-05,-0.0024176,-0.00026065,-2602.4,1.0865
30760,13.03,0,0,0.00025587,2556.9,8.5018e-05,6.9709,8.409e-05,-0.0064831,-0.00025575,-2553.4,1.1126
30761,13.215,0,0,0.00025099,2508.2,8.3421e-05,7.1043,8.2474e-05,-0.010321,-0.00025087,-2504.6,1.1388
30762,13.399,0,0,0.00024614,2459.7,8.183e-05,7.2365,8.0865e-05,-0.013932,-0.00024601,-2456,1.1653
30763,13.583,0,0,0.0002413,2411.4,8.0246e-05,7.3678,7.9263e-05,-0.017338,-0.00024118,-2407.7,1.1919
30764,13.768,0,0,0.00023649,2363.3,7.867e-05,7.4984,7.7669e-05,-0.020565,-0.00023636,-2359.5,1.2186
30765,13.952,0,0,0.0002317,2315.4,7.71e-05,7.6288,7.6081e-05,-0.023627,-0.00023157,-2311.6,1.2455
30766,14.136,0,0,0.00022693,2267.8,7.5537e-05,7.7591,7.4501e-05,-0.026543,-0.0002268,-2263.9,1.2726
30767,14.321,0,0,0.00022218,2220.3,7.3981e-05,7.8896,7.2927e-05,-0.029347,-0.00022205,-2216.4,1.2998
30768,14.505,0,0,0.00021746,2173.1,7.2432e-05,8.0205,7.136e-05,-0.032043,-0.00021732,-2169.1,1.3272
30769,14.69,0,0,0.00021275,2126,7.089e-05,8.1522,6.98e-05,-0.034637,-0.00021261,-2122,1.3547
30770,14.874,0,0,0.00020806,2079.2,6.9355e-05,8.2848,6.8247e-05,-0.037157,-0.00020792,-2075.1,1.3824
30771,15.058,0,0,0.0002034,2032.6,6.7827e-05,8.4185,6.6701e-05,-0.039621,-0.00020325,-2028.4,1.4102
30772,15.243,0,0,0.00019875,1986.2,6.6305e-05,8.5537,6.5161e-05,-0.042043,-0.00019861,-1981.9,1.4381
30773,15.427,0,0,0.00019413,1940,6.4791e-05,8.6905,6.3628e-05,-0.044436,-0.00019398,-1935.6,1.4662
30774,15.611,0,0,0.00018953,1893.9,6.3283e-05,8.8291,6.2102e-05,-0.046815,-0.00018937,-1889.5,1.4944
30775,15.796,0,0,0.00018494,1848.1,6.1782e-05,8.9697,6.0582e-05,-0.049206,-0.00018479,-1843.7,1.5227
30776,15.98,0,0,0.00018038,1802.5,6.0288e-05,9.1126,5.9068e-05,-0.051615,-0.00018022,-1798,1.5512
30777,16.164,0,0,0.00017583,1757.1,5.8801e-05,9.2579,5.7561e-05,-0.054049,-0.00017568,-1752.5,1.5798
30778,16.349,0,0,0.00017131,1711.9,5.732e-05,9.4058,5.6061e-05,-0.056533,-0.00017115,-1707.2,1.6085
30779,16.533,0,0,0.00016681,1666.9,5.5847e-05,9.5564,5.4567e-05,-0.059086,-0.00016664,-1662.1,1.6373
30780,16.718,0,0,0.00016232,1622.1,5.438e-05,9.71,5.3079e-05,-0.06172,-0.00016215,-1617.2,1.6662
30781,16.902,0,0,0.00015786,1577.5,5.2919e-05,9.8666,5.1598e-05,-0.064449,-0.00015769,-1572.5,1.6952
30782,17.086,0,0,0.00015341,1533,5.1466e-05,10.027,5.0122e-05,-0.067293,-0.00015324,-1528,1.7244
30783,17.271,0,0,0.00014898,1488.8,5.0019e-05,10.19,4.8653e-05,-0.070282,-0.00014881,-1483.7,1.7536
30784,17.455,0,0,0.00014458,1444.8,4.8579e-05,10.356,4.7191e-05,-0.073423,-0.0001444,-1439.6,1.783
30785,17.639,0,0,0.00014019,1400.9,4.7145e-05,10.527,4.5734e-05,-0.07673,-0.00014001,-1395.7,1.8124
30786,17.824,0,0,0.00013582,1357.3,4.5718e-05,10.7,4.4283e-05,-0.080231,-0.00013564,-1351.9,1.8419
30787,18.008,0,0,0.00013147,1313.8,4.4297e-05,10.878,4.2839e-05,-0.083952,-0.00013128,-1308.4,1.8716
30788,18.192,0,0,0.00012714,1270.5,4.2883e-05,11.059,4.14e-05,-0.087915,-0.00012695,-1265,1.9013
30789,18.377,0,0,0.00012283,1227.4,4.1476e-05,11.244,3.9967e-05,-0.092141,-0.00012263,-1221.8,1.9311
30790,18.561,0,0,0.00011853,1184.5,4.0074e-05,11.432,3.854e-05,-0.096659,-0.00011834,-1178.8,1.961
30791,18.746,0,0,0.00011426,1141.8,3.8679e-05,11.624,3.7119e-05,-0.10151,-0.00011405,-1136,1.9909
30792,18.93,0,0,0.00011,1099.2,3.729e-05,11.819,3.5703e-05,-0.10671,-0.00010979,-1093.3,2.021
30793,19.114,0,0,0.00010576,1056.8,3.5907e-05,12.018,3.4293e-05,-0.11229,-0.00010555,-1050.8,2.0511
30794,19.299,0,0,0.00010153,1014.6,3.453e-05,12.219,3.2888e-05,-0.1183,-0.00010132,-1008.5,2.0813
30795,19.483,0,0,9.7324e-05,972.57,3.3159e-05,12.424,3.1489e-05,-0.12477,-9.7109e-05,-966.36,2.1115
30796,19.667,0,0,9.3134e-05,930.7,3.1794e-05,12.63,3.0096e-05,-0.13176,-9.2915e-05,-924.39,2.1418
30797,19.852,0,0,8.8961e-05,889,3.0434e-05,12.839,2.8707e-05,-0.13929,-8.8738e-05,-882.58,2.1722
30798,20.036,0,0,8.4804e-05,847.45,2.908e-05,13.048,2.7324e-05,-0.14744,-8.4577e-05,-840.93,2.2027
30799,20.221,0,0,8.0663e-05,806.07,2.7732e-05,13.259,2.5946e-05,-0.15626,-8.0432e-05,-799.44,2.2332
30800,20.405,0,0,7.6538e-05,764.85,2.6388e-05,13.468,2.4573e-05,-0.16581,-7.6302e-05,-758.11,2.2637
30801,20.589,0,0,7.2428e-05,723.78,2.505e-05,13.677,2.3206e-05,-0.17616,-7.2188e-05,-716.93,2.2943
30802,20.774,0,0,6.8334e-05,682.87,2.3716e-05,13.884,2.1843e-05,-0.18741,-6.809e-05,-675.91,2.3249
30803,20.958,0,0,6.4255e-05,642.1,2.2387e-05,14.086,2.0486e-05,-0.19964,-6.4007e-05,-635.04,2.3556
30804,21.142,0,0,6.0191e-05,601.49,2.1063e-05,14.283,1.9133e-05,-0.21298,-5.9938e-05,-594.33,2.3864
30805,21.327,0,0,5.6142e-05,561.03,1.9743e-05,14.473,1.7786e-05,-0.22755,-5.5885e-05,-553.77,2.4171
30806,21.511,0,0,5.2109e-05,520.73,1.8427e-05,14.653,1.6444e-05,-0.24353,-5.1847e-05,-513.36,2.448
30807,21.695,0,0,4.8091e-05,480.58,1.7115e-05,14.821,1.5108e-05,-0.2611,-4.7825e-05,-473.12,2.4788
30808,21.88,0,0,4.4089e-05,440.59,1.5808e-05,14.972,1.3778e-05,-0.28051,-4.3819e-05,-433.04,2.5097
30809,22.064,0,0,4.0104e-05,400.77,1.4504e-05,15.104,1.2454e-05,-0.30207,-3.983e-05,-393.14,2.5406
30810,22.249,0,0,3.6138e-05,361.13,1.3204e-05,15.21,1.1137e-05,-0.32618,-3.586e-05,-353.44,2.5715
30811,22.433,0,0,3.2193e-05,321.7,1.1909e-05,15.284,9.8275e-06,-0.35339,-3.191e-05,-313.95,2.6025
30812,22.617,0,0,2.827e-05,282.51,1.0617e-05,15.316,8.5276e-06,-0.38445,-2.7983e-05,-274.71,2.6334
30813,22.802,0,0,2.4376e-05,243.59,9.3301e-06,15.294,7.2387e-06,-0.42032,-2.4084e-05,-235.77,2.6644
30814,22.986,0,0,2.0515e-05,205.01,8.0481e-06,15.199,5.9635e-06,-0.46292,-2.0219e-05,-197.19,2.6954
30815,23.17,0,0,1.6698e-05,166.87,6.7716e-06,15.004,4.7065e-06,-0.51317,-1.6398e-05,-159.08,2.7264
30816,23.355,0,0,1.2941e-05,129.32,5.5006e-06,14.644,3.4741e-06,-0.58249,-1.2634e-05,-121.61,2.7575
30817,23.539,0,0,9.2737e-06,92.673,4.2392e-06,14.065,2.2791e-06,-0.6627,-8.9575e-06,-85.09,2.7885
30818,23.723,0,0,5.7248e-06,57.208,2.9422e-06,12.552,1.1543e-06,-0.88196,-5.4066e-06,-50.178,2.8195
30819,23.908,0,0,2.3987e-06,23.971,1.4979e-06,8.61,2.6439e-07,-0.6583,-2.125e-06,-18.611,2.8506
30820,3.1667,0.090909,0,2.889e-05,288.7,1.1904e-05,29.77,8.1653e-06,1.6782,-2.8252e-05,-271.95,0.042915
30821,24,0.090909,0,2.3234e-06,23.218,2.1508e-06,20.336,-2.3966e-07,2.3747,-1.3386e-06,-5.8822,2.8662
30822,5.0067e-14,5.7273,0,0.0001875,1873.7,8.6665e-06,-1707.5,-4.6392e-06,-1807.4,-0.00024709,-3629.1,0
30823,4.8478e-14,5.5455,0,0.00026566,2654.8,3.5595e-06,-2545.6,-3.1905e-06,-2596.3,-0.0003531,-5225.4,0
30824,4.6888e-14,5.3636,0,0.00030755,3073.3,1.869e-06,-2972.6,-2.219e-06,-3003.3,-0.0004092,-6061.2,0
30825,4.5299e-14,5.1818,0,0.00033466,3344.3,1.1795e-06,-3239.6,-1.4171e-06,-3259.1,-0.00044521,-6593.6,0
30826,4.371e-14,5,0,0.00035319,3529.5,8.045e-07,-3421.4,-9.7184e-07,-3434.8,-0.00046983,-6957.6,0
30827,4.212e-14,4.8182,0,0.00036643,3661.8,5.6782e-07,-3551.1,-6.9177e-07,-3560.6,-0.00048741,-7217.6,0
30828,4.0531e-14,4.6364,0,0.00037605,3757.9,4.0495e-07,-3645.3,-5.0002e-07,-3652.1,-0.00050019,-7406.6,0
30829,3.8941e-14,4.4545,0,0.00038306,3828,2.8748e-07,-3714.1,-3.6337e-07,-3719,-0.00050951,-7544.5,0
30830,3.7352e-14,4.2727,0,0.00038815,3878.8,2.0107e-07,-3763.9,-2.6314e-07,-3767.4,-0.00051627,-7644.4,0
30831,3.5762e-14,4.0909,0,0.00039179,3915.2,1.3739e-07,-3799.6,-1.8888e-07,-3802,-0.0005211,-7716,0
30832,3.4173e-14,3.9091,0,0.00039435,3940.7,9.0936e-08,-3824.6,-1.3398e-07,-3826.3,-0.0005245,-7766.2,0
30833,3.2583e-14,3.7273,0,0.0003961,3958.3,5.7538e-08,-3841.8,-9.382e-08,-3842.9,-0.00052683,-7800.6,0
30834,3.0994e-14,3.5455,0,0.00039726,3969.9,3.3811e-08,-3853.2,-6.4863e-08,-3853.9,-0.00052837,-7823.4,0
30835,2.9405e-14,3.3636,0,0.00039799,3977.1,1.699e-08,-3860.3,-4.4307e-08,-3860.8,-0.00052934,-7837.7,0
30836,2.7815e-14,3.1818,0,0.00039838,3981.1,5.2844e-09,-3864.2,-3.036e-08,-3864.5,-0.00052986,-7845.4,0
30837,2.6226e-14,3,0,0.00039851,3982.3,7.9985e-11,-3865.5,-2.4408e-08,-3865.7,-0.00053003,-7847.9,0
30838,2.4636e-14,2.8182,0,0.00039838,3981.1,5.2844e-09,-3864.2,-3.0359e-08,-3864.5,-0.00052986,-7845.4,0
30839,2.3047e-14,2.6364,0,0.00039799,3977.1,1.699e-08,-3860.3,-4.4307e-08,-3860.8,-0.00052934,-7837.7,0
30840,2.1457e-14,2.4545,0,0.00039726,3969.9,3.3811e-08,-3853.2,-6.4863e-08,-3853.9,-0.00052837,-7823.4,0
30841,1.9868e-14,2.2727,0,0.0003961,3958.3,5.7537e-08,-3841.8,-9.382e-08,-3842.9,-0.00052683,-7800.6,0
30842,1.8279e-14,2.0909,0,0.00039435,3940.7,9.0936e-08,-3824.6,-1.3398e-07,-3826.3,-0.0005245,-7766.2,0
30843,1.6689e-14,1.9091,0,0.00039179,3915.2,1.3739e-07,-3799.6,-1.8888e-07,-3802,-0.0005211,-7716,0
30844,1.51e-14,1.7273,0,0.00038815,3878.8,2.0107e-07,-3763.9,-2.6314e-07,-3767.4,-0.00051627,-7644.4,0
30845,1.351e-14,1.5455,0,0.00038306,3828,2.8748e-07,-3714.1,-3.6337e-07,-3719,-0.00050951,-7544.5,0
30846,1.1921e-14,1.3636,0,0.00037605,3757.9,4.0495e-07,-3645.3,-5.0002e-07,-3652.1,-0.00050019,-7406.6,0
30847,1.0331e-14,1.1818,0,0.00036643,3661.8,5.6782e-07,-3551.1,-6.9177e-07,-3560.6,-0.00048741,-7217.6,0
30848,8.7419e-15,1,0,0.00035319,3529.5,8.045e-07,-3421.4,-9.7184e-07,-3434.8,-0.00046983,-6957.6,0
30849,7.1525e-15,0.81818,0,0.00033466,3344.3,1.1795e-06,-3239.6,-1.4171e-06,-3259.1,-0.00044521,-6593.6,0
30850,5.563e-15,0.63636,0,0.00030755,3073.3,1.869e-06,-2972.6,-2.219e-06,-3003.3,-0.0004092,-6061.2,0
30851,3.9736e-15,0.45455,0,0.00026566,2654.8,3.5595e-06,-2545.6,-3.1905e-06,-2596.3,-0.0003531,-5225.4,0
30852,2.3842e-15,0.27273,0,0.0001875,1873.7,8.6665e-06,-1707.5,-4.6393e-06,-1807.4,-0.00024709,-3629.1,0
30853,24,0.27273,0,5.3347e-06,53.31,5.1952e-06,50.349,-1.2157e-06,2.1809,-2.428e-06,-6.9279,2.8663
30854,24,0.45455,0,7.7644e-06,77.59,7.6374e-06,74.701,-2.0021e-06,2.2736,-3.2609e-06,-7.1848,2.8665
30855,24,0.63636,0,9.6983e-06,96.916,9.5791e-06,94.115,-2.6288e-06,2.3901,-3.9141e-06,-7.2677,2.8666
30856,24,0.81818,0,1.1326e-05,113.18,1.1212e-05,110.44,-3.1642e-06,2.4249,-4.4555e-06,-7.2777,2.8668
30857,24,1,0,1.2722e-05,127.13,1.2612e-05,124.45,-3.6248e-06,2.4546,-4.9161e-06,-7.2477,2.8669
30858,24,1.1818,0,1.3928e-05,139.18,1.3822e-05,136.57,-4.0243e-06,2.4743,-5.3123e-06,-7.2029,2.867
30859,24,1.3636,0,1.4973e-05,149.62,1.487e-05,147.06,-4.371e-06,2.4895,-5.6541e-06,-7.1517,2.8671
30860,24,1.5455,0,1.5874e-05,158.64,1.5774e-05,156.12,-4.6707e-06,2.5012,-5.9485e-06,-7.0999,2.8672
30861,24,1.7273,0,1.6647e-05,166.36,1.655e-05,163.88,-4.9278e-06,2.5104,-6.2003e-06,-7.0507,2.8673
30862,24,1.9091,0,1.7301e-05,172.9,1.7205e-05,170.45,-5.1456e-06,2.5176,-6.4131e-06,-7.0058,2.8674
30863,24,2.0909,0,1.7844e-05,178.32,1.775e-05,175.91,-5.3264e-06,2.5232,-6.5894e-06,-6.9666,2.8674
30864,24,2.2727,0,1.8281e-05,182.69,1.8188e-05,180.3,-5.4721e-06,2.5275,-6.7314e-06,-6.9338,2.8675
30865,24,2.4545,0,1.8617e-05,186.05,1.8525e-05,183.68,-5.5842e-06,2.5307,-6.8404e-06,-6.9078,2.8675
30866,24,2.6364,0,1.8855e-05,188.42,1.8764e-05,186.07,-5.6635e-06,2.5329,-6.9175e-06,-6.8891,2.8676
30867,24,2.8182,0,1.8997e-05,189.84,1.8906e-05,187.49,-5.7109e-06,2.5342,-6.9635e-06,-6.8779,2.8676
30868,24,3,0,1.9044e-05,190.31,1.8953e-05,187.97,-5.7266e-06,2.5346,-6.9788e-06,-6.8741,2.8676
30869,24,3.1818,0,1.8997e-05,189.84,1.8906e-05,187.49,-5.7109e-06,2.5342,-6.9635e-06,-6.8779,2.8676
30870,24,3.3636,0,1.8855e-05,188.42,1.8764e-05,186.07,-5.6635e-06,2.5329,-6.9175e-06,-6.8891,2.8676
30871,24,3.5455,0,1.8617e-05,186.05,1.8525e-05,183.68,-5.5842e-06,2.5307,-6.8404e-06,-6.9078,2.8675
30872,24,3.7273,0,1.8281e-05,182.69,1.8188e-05,180.3,-5.4722e-06,2.5275,-6.7314e-06,-6.9338,2.8675
30873,24,3.9091,0,1.7844e-05,178.32,1.775e-05,175.91,-5.3264e-06,2.5232,-6.5894e-06,-6.9666,2.8674
30874,24,4.0909,0,1.7301e-05,172.9,1.7205e-05,170.45,-5.1456e-06,2.5176,-6.4131e-06,-7.0058,2.8674
30875,24,4.2727,0,1.6647e-05,166.36,1.655e-05,163.88,-4.9278e-06,2.5104,-6.2003e-06,-7.0507,2.8673
30876,24,4.4545,0,1.5875e-05,158.64,1.5774e-05,156.12,-4.6707e-06,2.5012,-5.9485e-06,-7.0999,2.8672
30877,24,4.6364,0,1.4973e-05,149.62,1.487e-05,147.06,-4.371e-06,2.4895,-5.6541e-06,-7.1517,2.8671
30878,24,4.8182,0,1.3928e-05,139.18,1.3822e-05,136.57,-4.0243e-06,2.4743,-5.3123e-06,-7.2029,2.867
30879,24,5,0,1.2722e-05,127.13,1.2612e-05,124.45,-3.6248e-06,2.4546,-4.9161e-06,-7.2477,2.8669
30880,24,5.1818,0,1.1326e-05,113.18,1.1212e-05,110.44,-3.1642e-06,2.4249,-4.4555e-06,-7.2777,2.8668
30881,24,5.3636,0,9.6983e-06,96.916,9.5791e-06,94.115,-2.6288e-06,2.3901,-3.9141e-06,-7.2677,2.8666
30882,24,5.5455,0,7.7644e-06,77.59,7.6374e-06,74.701,-2.0021e-06,2.2736,-3.2609e-06,-7.1848,2.8665
30883,24,5.7273,0,5.3347e-06,53.31,5.1952e-06,50.349,-1.2157e-06,2.1809,-2.428e-06,-6.9279,2.8663
30884,24,5.9091,0,2.3234e-06,23.218,2.1508e-06,20.336,-2.3966e-07,2.3747,-1.3386e-06,-5.8821,2.8662
30885,23.908,6,0,2.3987e-06,23.971,1.4979e-06,8.61,2.6439e-07,-0.6583,-2.125e-06,-18.611,2.8506
30886,23.723,6,0,5.7248e-06,57.208,2.9422e-06,12.552,1.1543e-06,-0.88196,-5.4066e-06,-50.178,2.8195
30887,23.539,6,0,9.2737e-06,92.673,4.2392e-06,14.065,2.2791e-06,-0.6627,-8.9575e-06,-85.09,2.7885
30888,23.355,6,0,1.2941e-05,129.32,5.5006e-06,14.644,3.4741e-06,-0.58249,-1.2634e-05,-121.61,2.7575
30889,23.17,6,0,1.6698e-05,166.87,6.7716e-06,15.004,4.7065e-06,-0.51317,-1.6398e-05,-159.08,2.7264
30890,22.986,6,0,2.0515e-05,205.01,8.0481e-06,15.199,5.9635e-06,-0.46292,-2.0219e-05,-197.19,2.6954
30891,22.802,6,0,2.4376e-05,243.59,9.3301e-06,15.294,7.2387e-06,-0.42032,-2.4084e-05,-235.77,2.6644
30892,22.617,6,0,2.827e-05,282.51,1.0617e-05,15.316,8.5276e-06,-0.38445,-2.7983e-05,-274.71,2.6334
30893,22.433,6,0,3.2193e-05,321.7,1.1909e-05,15.284,9.8275e-06,-0.35339,-3.191e-05,-313.95,2.6025
30894,22.249,6,0,3.6138e-05,361.13,1.3204e-05,15.21,1.1137e-05,-0.32619,-3.586e-05,-353.44,2.5715
30895,22.064,6,0,4.0104e-05,400.77,1.4504e-05,15.104,1.2454e-05,-0.30207,-3.983e-05,-393.14,2.5406
30896,21.88,6,0,4.4089e-05,440.59,1.5808e-05,14.972,1.3778e-05,-0.28051,-4.3819e-05,-433.04,2.5097
30897,21.695,6,0,4.8091e-05,480.58,1.7115e-05,14.821,1.5108e-05,-0.2611,-4.7825e-05,-473.12,2.4788
30898,21.511,6,0,5.2109e-05,520.73,1.8427e-05,14.653,1.6444e-05,-0.24353,-5.1847e-05,-513.36,2.448
30899,21.327,6,0,5.6142e-05,561.03,1.9743e-05,14.473,1.7786e-05,-0.22755,-5.5885e-05,-553.77,2.4171
30900,21.142,6,0,6.0191e-05,601.49,2.1063e-05,14.283,1.9133e-05,-0.21298,-5.9938e-05,-594.33,2.3864
30901,20.958,6,0,6.4255e-05,642.1,2.2387e-05,14.086,2.0486e-05,-0.19964,-6.4007e-05,-635.04,2.3556
30902,20.774,6,0,6.8334e-05,682.87,2.3716e-05,13.884,2.1843e-05,-0.1874,-6.809e-05,-675.91,2.3249
30903,20.589,6,0,7.2428e-05,723.78,2.505e-05,13.677,2.3206e-05,-0.17616,-7.2188e-05,-716.93,2.2943
30904,20.405,6,0,7.6538e-05,764.85,2.6388e-05,13.468,2.4573e-05,-0.16581,-7.6302e-05,-758.11,2.2637
30905,20.221,6,0,8.0663e-05,806.07,2.7732e-05,13.258,2.5946e-05,-0.15626,-8.0432e-05,-799.44,2.2332
30906,20.036,6,0,8.4804e-05,847.45,2.908e-05,13.048,2.7324e-05,-0.14744,-8.4577e-05,-840.93,2.2027
30907,19.852,6,0,8.8961e-05,889,3.0434e-05,12.839,2.8707e-05,-0.13929,-8.8738e-05,-882.58,2.1722
30908,19.667,6,0,9.3134e-05,930.7,3.1794e-05,12.63,3.0096e-05,-0.13176,-9.2915e-05,-924.39,2.1418
30909,19.483,6,0,9.7324e-05,972.57,3.3159e-05,12.424,3.1489e-05,-0.12477,-9.7109e-05,-966.36,2.1115
30910,19.299,6,0,0.00010153,1014.6,3.453e-05,12.219,3.2888e-05,-0.1183,-0.00010132,-1008.5,2.0813
30911,19.114,6,0,0.00010576,1056.8,3.5907e-05,12.018,3.4293e-05,-0.11229,-0.00010555,-1050.8,2.0511
30912,18.93,6,0,0.00011,1099.2,3.729e-05,11.819,3.5703e-05,-0.10671,-0.00010979,-1093.3,2.021
30913,18.746,6,0,0.00011426,1141.8,3.8679e-05,11.624,3.7119e-05,-0.10151,-0.00011405,-1136,1.9909
30914,18.561,6,0,0.00011853,1184.5,4.0074e-05,11.432,3.854e-05,-0.096659,-0.00011834,-1178.8,1.961
30915,18.377,6,0,0.00012283,1227.4,4.1476e-05,11.244,3.9967e-05,-0.09214,-0.00012263,-1221.8,1.9311
30916,18.192,6,0,0.00012714,1270.5,4.2883e-05,11.059,4.14e-05,-0.087914,-0.00012695,-1265,1.9013
30917,18.008,6,0,0.00013147,1313.8,4.4297e-05,10.878,4.2839e-05,-0.083951,-0.00013128,-1308.4,1.8716
30918,17.824,6,0,0.00013582,1357.3,4.5718e-05,10.7,4.4283e-05,-0.080231,-0.00013564,-1351.9,1.8419
30919,17.639,6,0,0.00014019,1400.9,4.7145e-05,10.527,4.5734e-05,-0.076728,-0.00014001,-1395.7,1.8124
30920,17.455,6,0,0.00014458,1444.8,4.8579e-05,10.356,4.7191e-05,-0.073422,-0.0001444,-1439.6,1.783
30921,17.271,6,0,0.00014898,1488.8,5.0019e-05,10.19,4.8653e-05,-0.070281,-0.00014881,-1483.7,1.7536
30922,17.086,6,0,0.00015341,1533,5.1466e-05,10.027,5.0122e-05,-0.067294,-0.00015324,-1528,1.7244
30923,16.902,6,0,0.00015786,1577.5,5.2919e-05,9.8666,5.1598e-05,-0.064449,-0.00015769,-1572.5,1.6952
30924,16.718,6,0,0.00016232,1622.1,5.438e-05,9.71,5.3079e-05,-0.061719,-0.00016215,-1617.2,1.6662
30925,16.533,6,0,0.00016681,1666.9,5.5847e-05,9.5564,5.4567e-05,-0.059085,-0.00016664,-1662.1,1.6373
30926,16.349,6,0,0.00017131,1711.9,5.732e-05,9.4058,5.6061e-05,-0.056532,-0.00017115,-1707.2,1.6085
30927,16.164,6,0,0.00017583,1757.1,5.8801e-05,9.2579,5.7561e-05,-0.054047,-0.00017568,-1752.5,1.5798
30928,15.98,6,0,0.00018038,1802.5,6.0288e-05,9.1126,5.9068e-05,-0.051615,-0.00018022,-1798,1.5512
30929,15.796,6,0,0.00018494,1848.1,6.1782e-05,8.9697,6.0582e-05,-0.049205,-0.00018479,-1843.7,1.5227
30930,15.611,6,0,0.00018953,1893.9,6.3283e-05,8.8291,6.2102e-05,-0.046814,-0.00018937,-1889.5,1.4944
30931,15.427,6,0,0.00019413,1940,6.4791e-05,8.6905,6.3628e-05,-0.044436,-0.00019398,-1935.6,1.4662
30932,15.243,6,0,0.00019875,1986.2,6.6305e-05,8.5537,6.5161e-05,-0.042043,-0.00019861,-1981.9,1.4381
30933,15.058,6,0,0.0002034,2032.6,6.7827e-05,8.4185,6.6701e-05,-0.039621,-0.00020325,-2028.4,1.4102
30934,14.874,6,0,0.00020806,2079.2,6.9355e-05,8.2848,6.8247e-05,-0.037155,-0.00020792,-2075.1,1.3824
30935,14.69,6,0,0.00021275,2126,7.089e-05,8.1522,6.98e-05,-0.034635,-0.00021261,-2122,1.3547
30936,14.505,6,0,0.00021746,2173.1,7.2432e-05,8.0205,7.136e-05,-0.032042,-0.00021732,-2169.1,1.3272
30937,14.321,6,0,0.00022218,2220.3,7.3981e-05,7.8896,7.2927e-05,-0.029346,-0.00022205,-2216.4,1.2998
30938,14.136,6,0,0.00022693,2267.8,7.5537e-05,7.7591,7.4501e-05,-0.026542,-0.0002268,-2263.9,1.2726
30939,13.952,6,0,0.0002317,2315.4,7.71e-05,7.6288,7.6081e-05,-0.023626,-0.00023157,-2311.6,1.2455
30940,13.768,6,0,0.00023649,2363.3,7.867e-05,7.4984,7.7669e-05,-0.020565,-0.00023636,-2359.5,1.2186
30941,13.583,6,0,0.0002413,2411.4,8.0246e-05,7.3678,7.9263e-05,-0.017339,-0.00024118,-2407.7,1.1919
30942,13.399,6,0,0.00024614,2459.7,8.183e-05,7.2365,8.0865e-05,-0.013932,-0.00024601,-2456,1.1653
30943,13.215,6,0,0.00025099,2508.2,8.3421e-05,7.1043,8.2474e-05,-0.01032,-0.00025087,-2504.6,1.1388
30944,13.03,6,0,0.00025587,2556.9,8.5018e-05,6.9709,8.409e-05,-0.0064835,-0.00025575,-2553.4,1.1126
30945,12.846,6,0,0.00026076,2605.8,8.6623e-05,6.836,8.5713e-05,-0.002417,-0.00026065,-2602.4,1.0865
30946,12.662,6,0,0.00026568,2655,8.8235e-05,6.6994,8.7343e-05,0.0019172,-0.00026557,-2651.6,1.0606
30947,12.477,6,0,0.00027062,2704.4,8.9854e-05,6.5606,8.8981e-05,0.0065566,-0.00027051,-2701.1,1.0349
30948,12.293,6,0,0.00027559,2754,9.1479e-05,6.4195,9.0627e-05,0.011508,-0.00027548,-2750.8,1.0094
30949,12.108,6,0,0.00028057,2803.8,9.3112e-05,6.2756,9.2279e-05,0.016796,-0.00028047,-2800.6,0.984
30950,11.924,6,0,0.00028558,2853.8,9.4753e-05,6.1286,9.394e-05,0.022451,-0.00028548,-2850.8,0.95884
30951,11.74,6,0,0.00029061,2904.1,9.64e-05,5.9783,9.5608e-05,0.0285,-0.00029051,-2901.1,0.93387
30952,11.555,6,0,0.00029567,2954.6,9.8054e-05,5.8243,9.7284e-05,0.034969,-0.00029556,-2951.7,0.9091
30953,11.371,6,0,0.00030074,3005.3,9.9716e-05,5.6663,9.8967e-05,0.041862,-0.00030064,-3002.5,0.88453
30954,11.187,6,0,0.00030584,3056.3,0.00010138,5.5041,0.00010066,0.04922,-0.00030575,-3053.5,0.86017
30955,11.002,6,0,0.00031096,3107.5,0.00010306,5.3374,0.00010236,0.057079,-0.00031087,-3104.8,0.83601
30956,10.818,6,0,0.00031611,3158.9,0.00010474,5.1659,0.00010406,0.065439,-0.00031602,-3156.3,0.81206
30957,10.633,6,0,0.00032127,3210.5,0.00010643,4.9896,0.00010578,0.074308,-0.00032119,-3208,0.78832
30958,10.449,6,0,0.00032646,3262.4,0.00010813,4.8082,0.0001075,0.083702,-0.00032638,-3259.9,0.76481
30959,10.265,6,0,0.00033168,3314.5,0.00010983,4.6218,0.00010923,0.093615,-0.0003316,-3312.1,0.74151
30960,10.08,6,0,0.00033691,3366.8,0.00011155,4.4305,0.00011097,0.10402,-0.00033683,-3364.5,0.71844
30961,9.896,6,0,0.00034216,3419.3,0.00011326,4.2343,0.00011271,0.11491,-0.00034209,-3417.1,0.6956
30962,9.7117,6,0,0.00034744,3472,0.00011498,4.0337,0.00011446,0.12623,-0.00034737,-3469.9,0.67299
30963,9.5273,6,0,0.00035273,3524.8,0.00011671,3.8291,0.00011622,0.13789,-0.00035266,-3522.9,0.65062
30964,9.3429,6,0,0.00035803,3577.9,0.00011845,3.6213,0.00011798,0.14979,-0.00035797,-3576,0.62849
30965,9.1586,6,0,0.00036335,3631,0.00012018,3.4112,0.00011975,0.1618,-0.00036329,-3629.2,0.6066
30966,8.9742,6,0,0.00036868,3684.2,0.00012192,3.2003,0.00012152,0.17372,-0.00036862,-3682.6,0.58495
30967,8.7898,6,0,0.00037401,3737.5,0.00012366,2.9901,0.00012329,0.18528,-0.00037395,-3735.9,0.56356
30968,8.6055,6,0,0.00037933,3790.7,0.0001254,2.7828,0.00012506,0.19616,-0.00037928,-3789.2,0.54242
30969,8.4211,6,0,0.00038464,3843.8,0.00012714,2.581,0.00012682,0.20595,-0.0003846,-3842.4,0.52154
30970,8.2367,6,0,0.00038993,3896.6,0.00012886,2.3879,0.00012858,0.21412,-0.00038988,-3895.3,0.50092
30971,8.0524,6,0,0.00039517,3949,0.00013058,2.2075,0.00013031,0.21999,-0.00039513,-3947.7,0.48056
30972,7.868,6,0,0.00040035,4000.7,0.00013227,2.0443,0.00013203,0.22277,-0.00040031,-3999.6,0.46047
30973,7.6836,6,0,0.00040544,4051.6,0.00013394,1.9041,0.00013372,0.22145,-0.0004054,-4050.6,0.44066
30974,7.4993,6,0,0.00041041,4101.3,0.00013558,1.7933,0.00013537,0.21483,-0.00041038,-4100.3,0.42112
30975,7.3149,6,0,0.00041522,4149.4,0.00013716,1.7198,0.00013695,0.20145,-0.00041519,-4148.4,0.40186
30976,7.1305,6,0,0.00041982,4195.3,0.00013867,1.6926,0.00013847,0.17961,-0.00041978,-4194.3,0.38288
30977,6.9462,6,0,0.00042413,4238.3,0.0001401,1.7224,0.00013989,0.14739,-0.00042409,-4237.4,0.36419
30978,6.7618,6,0,0.00042807,4277.7,0.00014141,1.8215,0.00014118,0.10262,-0.00042803,-4276.8,0.34578
30979,6.5774,6,0,0.00043153,4312.4,0.00014257,2.0043,0.00014231,0.042887,-0.0004315,-4311.3,0.32767
30980,6.3931,6,0,0.00043439,4340.9,0.00014354,2.2879,0.00014323,-0.034355,-0.00043435,-4339.8,0.30984
30981,6.2087,6,0,0.00043648,4361.7,0.00014427,2.6922,0.00014389,-0.13168,-0.00043643,-4360.5,0.29232
30982,6.0243,6,0,0.00043758,4372.7,0.00014468,3.2411,0.00014422,-0.25145,-0.00043752,-4371.2,0.27509
30983,5.84,6,0,0.00043744,4371.3,0.0001447,3.9625,0.00014412,-0.39538,-0.00043738,-4369.6,0.25816
30984,5.6556,6,0,0.00043575,4354.4,0.00014423,4.8896,0.00014351,-0.56388,-0.00043567,-4352.3,0.24152
30985,5.4712,6,0,0.00043212,4318.2,0.00014314,6.0609,0.00014224,-0.755,-0.00043203,-4315.6,0.22518
30986,5.2869,6,0,0.00042611,4258.2,0.00014129,7.5194,0.00014016,-0.96306,-0.000426,-4254.9,0.20914
30987,5.1025,6,0,0.00041718,4168.9,0.00013851,9.3104,0.00013711,-1.1765,-0.00041704,-4164.8,0.19338
30988,4.9181,6,0,0.00040471,4044.3,0.00013458,11.475,0.00013287,-1.3756,-0.00040454,-4039.2,0.17791
30989,4.7338,6,0,0.00038801,3877.4,0.00012929,14.039,0.00012722,-1.5288,-0.0003878,-3871.2,0.16271
30990,4.5494,6,0,0.00036636,3661,0.00012239,16.986,0.00011992,-1.5913,-0.00036609,-3653.3,0.14777
30991,4.365,6,0,0.00033902,3387.9,0.00011364,20.225,0.00011075,-1.4986,-0.0003387,-3378.5,0.13308
30992,4.1807,6,0,0.00030536,3051.5,0.00010279,23.523,9.9501e-05,-1.1924,-0.00030497,-3040.2,0.11863
30993,3.9963,6,0,0.00026491,2647.2,8.9652e-05,26.441,8.606e-05,-0.54275,-0.00026445,-2634.2,0.10438
30994,3.8119,6,0,0.00021746,2173.1,7.409e-05,28.082,7.0386e-05,0.25702,-0.00021696,-2158.8,0.090305
30995,3.6276,6,0,0.00016309,1629.8,5.5981e-05,27.211,5.2651e-05,2.1867,-0.00016258,-1615,0.076383
30996,3.4432,6,0,0.0001013,1012.3,3.536e-05,23.194,3.2278e-05,0.040512,-0.00010089,-1000.5,0.062577
30997,3.2588,6,0,3.5396e-05,353.71,1.345e-05,7.6228,9.3017e-06,-23.544,-3.5564e-05,-360.64,0.04885
30998,3.1667,5.9091,0,2.889e-05,288.7,1.1904e-05,29.77,8.1653e-06,1.6782,-2.8252e-05,-271.95,0.042915
30999,3,1.7273,0,0.00094657,9459.2,0.00066535,4622.7,6.4484e-05,108.06,-0.00078145,-6248,0.053222
31000,3,1.9091,0,0.0018147,18134,0.0010378,4502.1,0.00019442,-1835,-0.0016842,-15950,0.055688
31001,3,1.5455,0,0.0006415,6410.6,0.00040923,2576,8.1583e-05,114.17,-0.00055922,-4700.6,0.050962
31002,3,1.3636,0,0.00051799,5176.3,0.00032332,1960,6.8959e-05,48.85,-0.00045663,-3900.2,0.048842
31003,3,1.1818,0,0.00042108,4207.9,0.00025197,1449.4,6.4835e-05,43.295,-0.00037767,-3281.5,0.046859
31004,3,1,0,0.00034604,3458.1,0.00019912,1084.6,5.9273e-05,33.853,-0.00031482,-2776.9,0.045002
31005,3,0.81818,0,0.00028191,2817.2,0.00015559,798.01,5.3383e-05,30.045,-0.00025986,-2323.5,0.043262
31006,3,0.63636,0,0.00022347,2233.2,0.00011785,563.01,4.6493e-05,26.885,-0.00020855,-1889.4,0.041627
31007,3,0.45455,0,0.00016694,1668.2,8.3394e-05,364.36,3.835e-05,25.919,-0.0001577,-1447.1,0.040082
31008,3,0.27273,0,0.0001074,1073.3,5.0132e-05,193.38,2.7439e-05,22.877,-0.0001027,-954.96,0.038613
31009,3.0833,2,0,0.002528,25263,0.0012072,2862.2,0.00042029,-3050.2,-0.0024787,-24832,0.060884
31010,3.1667,0.27273,0,7.9961e-05,799.06,3.999e-05,178.23,1.8656e-05,17.941,-7.5408e-05,-688.82,0.044748
31011,3.1667,0.45455,0,0.0001259,1258.2,6.8653e-05,349.43,2.487e-05,20.456,-0.00011634,-1040.6,0.046617
31012,3.1667,0.63636,0,0.00017206,1719.4,9.9777e-05,552.2,2.9182e-05,21.781,-0.00015604,-1369.9,0.048533
31013,3.1667,0.81818,0,0.00022251,2223.6,0.00013511,793.24,3.2846e-05,24.841,-0.00019839,-1712.6,0.050505
31014,3.1667,1,0,0.00028076,2805.6,0.00017687,1085.4,3.6185e-05,28.367,-0.00024645,-2095.2,0.05254
31015,3.1667,1.1818,0,0.00035188,3516.4,0.00022841,1453.1,3.9948e-05,37.081,-0.00030444,-2550.5,0.054643
31016,3.1667,1.3636,0,0.00044643,4461.2,0.00029823,1957.3,4.33e-05,41.785,-0.00038042,-3141.8,0.056821
31017,3.1667,1.5455,0,0.00057055,5701.6,0.00038445,2570.9,5.5362e-05,98.251,-0.00048338,-3949.6,0.059081
31018,3.1667,1.7273,0,0.00087717,8765.6,0.00063622,4555.5,4.0925e-05,82.675,-0.00070797,-5544.2,0.061428
31019,3.1667,1.9091,0,0.0017547,17535,0.0010055,4470.2,0.00019657,-1607.9,-0.0016251,-15295,0.06392
31020,3,4.2727,0,0.00094657,9459.2,0.00066535,4622.7,6.4484e-05,108.06,-0.00078145,-6248,0.053222
31021,3,4.0909,0,0.0018147,18134,0.0010378,4502.1,0.00019442,-1835,-0.0016842,-15950,0.055688
31022,3,4.4545,0,0.0006415,6410.6,0.00040923,2576,8.1583e-05,114.17,-0.00055922,-4700.6,0.050962
31023,3,4.6364,0,0.00051799,5176.3,0.00032332,1960,6.8959e-05,48.85,-0.00045663,-3900.2,0.048842
31024,3,4.8182,0,0.00042108,4207.9,0.00025197,1449.4,6.4835e-05,43.295,-0.00037767,-3281.5,0.046859
31025,3,5,0,0.00034604,3458.1,0.00019912,1084.6,5.9273e-05,33.853,-0.00031482,-2776.9,0.045002
31026,3,5.1818,0,0.00028191,2817.2,0.00015559,798.01,5.3383e-05,30.045,-0.00025986,-2323.5,0.043262
31027,3,5.3636,0,0.00022347,2233.2,0.00011785,563.01,4.6493e-05,26.885,-0.00020855,-1889.4,0.041627
31028,3,5.5455,0,0.00016694,1668.2,8.3394e-05,364.36,3.835e-05,25.919,-0.0001577,-1447.1,0.040082
31029,3,5.7273,0,0.0001074,1073.3,5.0132e-05,193.38,2.7439e-05,22.877,-0.0001027,-954.96,0.038613
31030,3.0833,4,0,0.002528,25263,0.0012072,2862.2,0.00042029,-3050.2,-0.0024787,-24832,0.060884
31031,3.1667,5.7273,0,7.9961e-05,799.06,3.999e-05,178.23,1.8656e-05,17.941,-7.5408e-05,-688.82,0.044748
31032,3.1667,5.5455,0,0.0001259,1258.2,6.8653e-05,349.43,2.487e-05,20.456,-0.00011634,-1040.6,0.046617
31033,3.1667,5.3636,0,0.00017206,1719.4,9.9777e-05,552.2,2.9182e-05,21.781,-0.00015604,-1369.9,0.048533
31034,3.1667,5.1818,0,0.00022251,2223.6,0.00013511,793.24,3.2846e-05,24.841,-0.00019839,-1712.6,0.050505
31035,3.1667,5,0,0.00028076,2805.6,0.00017687,1085.4,3.6185e-05,28.367,-0.00024645,-2095.2,0.05254
31036,3.1667,4.8182,0,0.00035188,3516.4,0.00022841,1453.1,3.9948e-05,37.081,-0.00030444,-2550.5,0.054643
31037,3.1667,4.6364,0,0.00044643,4461.2,0.00029823,1957.3,4.33e-05,41.785,-0.00038042,-3141.8,0.056821
31038,3.1667,4.4545,0,0.00057055,5701.6,0.00038445,2570.9,5.5361e-05,98.251,-0.00048338,-3949.6,0.059081
31039,3.1667,4.2727,0,0.00087717,8765.6,0.00063622,4555.5,4.0925e-05,82.675,-0.00070797,-5544.2,0.061428
31040,3.1667,4.0909,0,0.0017547,17535,0.0010055,4470.2,0.00019657,-1607.9,-0.0016251,-15295,0.06392
