Node Number	X Location (in)	Y Location (in)	Z Location (in)	Middle Principal Stress (psi)
1	4.4418	2.5408	0.	217.09
2	5.135	3.2958	0.	185.76
3	5.8115	1.3594	0.	-3.4607
4	3.5926	0.49315	0.	44.858
5	3.5817	1.657	0.	37.341
6	5.6928	0.52987	0.	-6.413
7	3.6052	4.858	0.	25.333
8	2.7801	4.0677	0.	-179.99
9	5.7263	4.649	0.	-25.904
10	5.3875	5.0498	0.	-1.4935
11	3.34	5.3162	0.	-27.587
12	7.5611	3.5014	0.	-83.746
13	6.2244	3.3626	0.	-169.5
14	2.5884	1.3235	0.	-129.3
15	5.5785	5.4612	0.	13.463
16	2.288	5.0404	0.	-74.392
17	1.3465	3.7249	0.	-276.81
18	1.3681	1.3387	0.	-212.38
19	6.6316	0.73736	0.	4.2235
20	7.5029	1.2082	0.	-52.167
21	8.9336	1.1955	0.	-18.202
22	10.196	1.2009	0.	-7.7331
23	11.403	1.1959	0.	-1.1535
24	12.588	1.1873	0.	-0.80736
25	13.753	1.1804	0.	-0.64486
26	14.896	1.1766	0.	-0.74759
27	16.035	1.176	0.	-0.61583
28	17.169	1.1778	0.	-0.62742
29	18.305	1.1813	0.	-0.58033
30	19.438	1.1867	0.	-0.60949
31	20.575	1.1902	0.	-0.58096
32	21.713	1.1902	0.	-0.60889
33	22.859	1.1956	0.	-0.61999
34	1.4355	2.583	0.	-303.17
35	22.851	2.394	0.	-1.2696
36	22.851	3.6009	0.	-1.2334
37	22.854	4.8082	0.	-0.64176
38	21.713	4.794	0.	-0.59718
39	20.571	4.7933	0.	-0.64514
40	19.433	4.7522	0.	-0.56644
41	18.297	4.7176	0.	-0.50984
42	17.164	4.6992	0.	-0.51564
43	16.032	4.6923	0.	-0.50003
44	14.904	4.6928	0.	-0.64586
45	13.773	4.6946	0.	-0.58183
46	12.603	4.7584	0.	-0.9875
47	11.404	4.7546	0.	-0.30339
48	10.183	4.7539	0.	-8.0229
49	8.9005	4.75	0.	-25.783
50	7.4007	4.6721	0.	-54.516
51	6.594	5.2402	0.	-33.712
52	7.554	2.39	0.	-73.196
53	8.8306	2.3545	0.	-25.396
54	10.107	2.3794	0.	-15.974
55	11.357	2.3747	0.	-3.8468
56	12.572	2.3581	0.	-1.331
57	13.744	2.3518	0.	-1.22
58	14.897	2.36	0.	-1.1678
59	16.032	2.36	0.	-1.1712
60	17.167	2.3628	0.	-1.1569
61	18.303	2.368	0.	-1.203
62	19.437	2.3737	0.	-1.2435
63	20.573	2.3808	0.	-1.2148
64	21.71	2.3893	0.	-1.1887
65	21.7	3.5937	0.	-1.267
66	20.57	3.5827	0.	-1.2381
67	19.43	3.5572	0.	-1.2571
68	18.297	3.5426	0.	-1.2493
69	17.164	3.5319	0.	-1.2466
70	16.03	3.5258	0.	-1.21
71	14.9	3.5252	0.	-1.2054
72	13.759	3.5205	0.	-1.147
73	12.563	3.5503	0.	-1.662
74	11.341	3.5608	0.	-4.4318
75	10.09	3.5609	0.	-16.558
76	8.824	3.5632	0.	-25.67
77	6.1073	4.1286	0.	-190.44
78	3.912	0.99901	0.	92.257
79	3.7164	2.4098	0.	-314.75
80	1.1846	4.8495	0.	-196.35
81	2.9161	2.883	0.	-237.74
82	4.6853	2.5246	0.	11.5
83	5.423	0.95113	0.	-3.5534
84	6.1276	1.8238	0.	-145.98
85	6.2673	2.5149	0.	-196.
86	4.264	2.8226	0.	-46.8
87	4.264	2.8226	0.1	46.8
88	6.2673	2.5149	0.1	196.
89	6.1276	1.8238	0.1	145.98
90	5.423	0.95113	0.1	3.5534
91	4.6853	2.5246	0.1	-11.5
92	2.9161	2.883	0.1	237.74
93	1.1846	4.8495	0.1	196.35
94	3.7164	2.4098	0.1	314.75
95	3.912	0.99901	0.1	-92.257
96	6.1073	4.1286	0.1	190.44
97	8.824	3.5632	0.1	25.67
98	10.09	3.5609	0.1	16.558
99	11.341	3.5608	0.1	4.4318
100	12.563	3.5503	0.1	1.662
101	13.759	3.5205	0.1	1.147
102	14.9	3.5252	0.1	1.2054
103	16.03	3.5258	0.1	1.21
104	17.164	3.5319	0.1	1.2466
105	18.297	3.5426	0.1	1.2493
106	19.43	3.5572	0.1	1.2571
107	20.57	3.5827	0.1	1.2381
108	21.7	3.5937	0.1	1.267
109	21.71	2.3893	0.1	1.1887
110	20.573	2.3808	0.1	1.2148
111	19.437	2.3737	0.1	1.2435
112	18.303	2.368	0.1	1.203
113	17.167	2.3628	0.1	1.1569
114	16.032	2.36	0.1	1.1712
115	14.897	2.36	0.1	1.1678
116	13.744	2.3518	0.1	1.22
117	12.572	2.3581	0.1	1.331
118	11.357	2.3747	0.1	3.8468
119	10.107	2.3794	0.1	15.974
120	8.8306	2.3545	0.1	25.396
121	7.554	2.39	0.1	73.196
122	6.594	5.2402	0.1	33.712
123	7.4007	4.6721	0.1	54.516
124	8.9005	4.75	0.1	25.783
125	10.183	4.7539	0.1	8.0229
126	11.404	4.7546	0.1	0.30339
127	12.603	4.7584	0.1	0.9875
128	13.773	4.6946	0.1	0.58183
129	14.904	4.6928	0.1	0.64586
130	16.032	4.6923	0.1	0.50003
131	17.164	4.6992	0.1	0.51564
132	18.297	4.7176	0.1	0.50984
133	19.433	4.7522	0.1	0.56644
134	20.571	4.7933	0.1	0.64514
135	21.713	4.794	0.1	0.59718
136	22.854	4.8082	0.1	0.64176
137	22.851	3.6009	0.1	1.2334
138	22.851	2.394	0.1	1.2696
139	1.4355	2.583	0.1	303.17
140	22.859	1.1956	0.1	0.61999
141	21.713	1.1902	0.1	0.60889
142	20.575	1.1902	0.1	0.58096
143	19.438	1.1867	0.1	0.60949
144	18.305	1.1813	0.1	0.58033
145	17.169	1.1778	0.1	0.62742
146	16.035	1.176	0.1	0.61583
147	14.896	1.1766	0.1	0.74759
148	13.753	1.1804	0.1	0.64486
149	12.588	1.1873	0.1	0.80736
150	11.403	1.1959	0.1	1.1535
151	10.196	1.2009	0.1	7.7331
152	8.9336	1.1955	0.1	18.202
153	7.5029	1.2082	0.1	52.167
154	6.6316	0.73736	0.1	-4.2235
155	1.3681	1.3387	0.1	212.38
156	1.3465	3.7249	0.1	276.81
157	2.288	5.0404	0.1	74.392
158	5.5785	5.4612	0.1	-13.463
159	2.5884	1.3235	0.1	129.3
160	6.2244	3.3626	0.1	169.5
161	7.5611	3.5014	0.1	83.746
162	3.34	5.3162	0.1	27.587
163	5.3875	5.0498	0.1	1.4935
164	5.7263	4.649	0.1	25.904
165	2.7801	4.0677	0.1	179.99
166	3.6052	4.858	0.1	-25.333
167	5.6928	0.52987	0.1	6.413
168	3.5817	1.657	0.1	-37.341
169	3.5926	0.49315	0.1	-44.858
170	5.8115	1.3594	0.1	3.4607
171	5.135	3.2958	0.1	-185.76
172	4.4418	2.5408	0.1	-217.09
173	4.6867	5.5	0.1	193.95
174	4.6867	5.	0.1	69.039
175	4.6867	4.5	0.1	-9.1966
176	4.6867	4.	0.1	377.78
177	4.52	4.	0.1	450.69
178	4.52	4.5	0.1	154.21
179	4.52	5.	0.1	74.812
180	4.52	5.5	0.1	231.31
181	4.6867	0.5	0.1	181.55
182	4.6867	1.	0.1	61.952
183	4.6867	1.5	0.1	-64.363
184	4.6867	2.	0.1	727.61
185	4.52	2.	0.1	439.6
186	4.52	1.5	0.1	163.97
187	4.52	1.	0.1	131.59
188	4.52	0.5	0.1	227.66
189	4.6867	6.	0.1	142.61
190	5.8227	6.	0.1	27.216
191	6.9588	6.	0.1	-2.3853
192	8.0949	6.	0.1	-5.6632
193	9.231	6.	0.1	8.5857
194	10.367	6.	0.1	2.251
195	11.503	6.	0.1	0.79679
196	12.639	6.	0.1	0.16588
197	13.775	6.	0.1	9.114e-002
198	14.911	6.	0.1	-6.6706e-003
199	16.047	6.	0.1	-0.19392
200	17.184	6.	0.1	-0.29492
201	18.32	6.	0.1	-0.29165
202	19.456	6.	0.1	-0.30117
203	20.592	6.	0.1	-0.382
204	21.728	6.	0.1	-0.30357
205	22.864	6.	0.1	-0.27465
206	24.	6.	0.1	-0.75163
207	24.	4.8	0.1	0.62288
208	24.	3.6	0.1	1.3441
209	24.	2.4	0.1	1.3156
210	24.	1.2	0.1	0.61422
211	1.049e-014	1.2	0.1	991.84
212	2.0981e-014	2.4	0.1	1034.9
213	3.1471e-014	3.6	0.1	1024.3
214	4.1961e-014	4.8	0.1	962.59
215	24.	0.	0.1	-0.72384
216	22.864	0.	0.1	-0.28762
217	21.728	0.	0.1	-0.27336
218	20.592	0.	0.1	-0.32608
219	19.456	0.	0.1	-0.33681
220	18.32	0.	0.1	-0.32007
221	17.184	0.	0.1	-0.26352
222	16.047	0.	0.1	-0.25041
223	14.911	0.	0.1	-6.764e-002
224	13.775	0.	0.1	0.11312
225	12.639	0.	0.1	6.8623e-002
226	11.503	0.	0.1	0.26191
227	10.367	0.	0.1	2.9827
228	9.231	0.	0.1	-1.1131
229	8.0949	0.	0.1	3.6496
230	6.9588	0.	0.1	-6.6504
231	5.8227	0.	0.1	-1.4461
232	4.6867	0.	0.1	155.
233	4.52	0.	0.1	161.36
234	3.39	-2.0927e-030	0.1	47.775
235	2.26	-1.3952e-030	0.1	61.502
236	1.13	-6.9758e-031	0.1	10.229
237	0.	0.	0.1	698.45
238	3.937e-014	6.	0.1	642.23
239	1.13	6.	0.1	53.03
240	2.26	6.	0.1	31.676
241	3.39	6.	0.1	-30.352
242	4.52	6.	0.1	231.92
243	3.39	6.	0.	30.352
244	2.26	6.	0.	-31.676
245	1.13	6.	0.	-53.03
246	4.52	6.	0.	-231.92
247	3.937e-014	6.	0.	-642.23
248	1.13	-6.9758e-031	0.	-10.229
249	2.26	-1.3952e-030	0.	-61.502
250	3.39	-2.0927e-030	0.	-47.775
251	4.52	0.	0.	-161.36
252	0.	0.	0.	-698.45
253	5.8227	0.	0.	1.4461
254	6.9588	0.	0.	6.6504
255	8.0949	0.	0.	-3.6496
256	9.231	0.	0.	1.1132
257	10.367	0.	0.	-2.9827
258	11.503	0.	0.	-0.26191
259	12.639	0.	0.	-6.8624e-002
260	13.775	0.	0.	-0.11312
261	14.911	0.	0.	6.7639e-002
262	16.047	0.	0.	0.25041
263	17.184	0.	0.	0.26352
264	18.32	0.	0.	0.32007
265	19.456	0.	0.	0.33681
266	20.592	0.	0.	0.32608
267	21.728	0.	0.	0.27336
268	22.864	0.	0.	0.28762
269	4.6867	0.	0.	-155.
270	24.	0.	0.	0.72385
271	4.1961e-014	4.8	0.	-962.59
272	3.1471e-014	3.6	0.	-1024.3
273	2.0981e-014	2.4	0.	-1034.9
274	1.049e-014	1.2	0.	-991.84
275	24.	1.2	0.	-0.61422
276	24.	2.4	0.	-1.3156
277	24.	3.6	0.	-1.3441
278	24.	4.8	0.	-0.62288
279	24.	6.	0.	0.75165
280	22.864	6.	0.	0.27465
281	21.728	6.	0.	0.30357
282	20.592	6.	0.	0.382
283	19.456	6.	0.	0.30117
284	18.32	6.	0.	0.29165
285	17.184	6.	0.	0.29492
286	16.047	6.	0.	0.19392
287	14.911	6.	0.	6.6706e-003
288	13.775	6.	0.	-9.114e-002
289	12.639	6.	0.	-0.16588
290	11.503	6.	0.	-0.79679
291	10.367	6.	0.	-2.251
292	9.231	6.	0.	-8.5857
293	8.0949	6.	0.	5.6632
294	6.9588	6.	0.	2.3853
295	5.8227	6.	0.	-27.216
296	4.6867	6.	0.	-142.61
297	4.52	1.5	0.	-163.97
298	4.52	1.	0.	-131.59
299	4.52	0.5	0.	-227.66
300	4.52	2.	0.	-439.6
301	4.6867	0.5	0.	-181.55
302	4.6867	1.	0.	-61.952
303	4.6867	1.5	0.	64.363
304	4.6867	2.	0.	-727.61
305	4.52	4.5	0.	-154.21
306	4.52	5.	0.	-74.812
307	4.52	5.5	0.	-231.31
308	4.52	4.	0.	-450.69
309	4.6867	5.5	0.	-193.95
310	4.6867	5.	0.	-69.039
311	4.6867	4.5	0.	9.1966
312	4.6867	4.	0.	-377.78
313	4.5635	2.5327	0.	134.76
314	4.3529	2.6817	0.	138.32
315	4.4418	2.5408	5.e-002	4.7666e-006
316	4.4809	2.2704	0.	-112.44
317	5.6797	3.3292	0.	82.478
318	4.9102	2.9102	0.	95.67
319	4.6995	3.0592	0.	68.612
320	5.135	3.2958	5.e-002	-1.2387e-006
321	4.9108	3.6479	0.	-96.261
322	6.2216	1.0484	0.	9.5235
323	5.6173	1.1553	0.	5.8452
324	5.9696	1.5916	0.	-66.821
325	5.8115	1.3594	5.e-002	3.7824e-006
326	5.2491	1.4297	0.	41.859
327	3.0905	0.90833	0.	24.184
328	3.7523	0.74608	0.	68.918
329	3.5926	0.49315	5.e-002	4.5695e-007
330	3.4913	0.24657	0.	-1.6188
331	4.0563	0.49657	0.	-38.875
332	3.0851	1.4903	0.	4.9768
333	3.7469	1.328	0.	63.271
334	3.649	2.0334	0.	-71.082
335	3.5817	1.657	5.e-002	1.5812e-005
336	4.0509	1.5785	0.	-59.647
337	6.1622	0.63362	0.	2.3828
338	5.5579	0.7405	0.	-5.2662
339	5.6928	0.52987	5.e-002	-5.8137e-015
340	5.7578	0.26494	0.	-2.6528
341	5.1897	0.51494	0.	-74.188
342	3.1926	4.4628	0.	-66.973
343	3.4726	5.0871	0.	4.8203
344	3.6052	4.858	5.e-002	1.046e-006
345	4.0626	4.929	0.	-36.952
346	2.5341	4.554	0.	-123.05
347	2.0633	3.8963	0.	-220.69
348	2.8481	3.4753	0.	-212.62
349	2.7801	4.0677	5.e-002	5.6435e-007
350	3.65	4.2838	0.	-177.79
351	5.5569	4.8494	0.	2.7224
352	6.1602	4.9446	0.	-18.674
353	5.9168	4.3888	0.	-95.401
354	5.7263	4.649	5.e-002	-7.2481e-006
355	5.2065	4.5745	0.	19.353
356	5.483	5.2555	0.	5.5853
357	5.3875	5.0498	5.e-002	-5.6631e-007
358	5.0371	5.0249	0.	-39.47
359	2.814	5.1783	0.	-21.609
360	3.34	5.3162	5.e-002	-7.5356e-015
361	3.365	5.6581	0.	1.513
362	3.93	5.4081	0.	-116.29
363	6.8927	3.432	0.	-126.55
364	7.4809	4.0868	0.	-68.995
365	7.5575	2.9457	0.	-77.069
366	8.1925	3.5323	0.	-54.654
367	7.5611	3.5014	5.e-002	-7.7588e-007
368	6.1658	3.7456	0.	-178.88
369	6.2458	2.9387	0.	-183.31
370	6.2244	3.3626	5.e-002	-1.6008e-006
371	1.9783	1.3311	0.	-170.17
372	2.7523	2.1032	0.	-180.63
373	2.5884	1.3235	5.e-002	1.5691e-006
374	2.4242	0.66175	0.	-51.032
375	6.0863	5.3507	0.	5.4241
376	5.5785	5.4612	5.e-002	-3.8148e-014
377	5.7006	5.7306	0.	-5.9693
378	5.1326	5.4806	0.	-51.168
379	1.7363	4.9449	0.	-135.43
380	2.288	5.0404	5.e-002	-3.5032e-015
381	2.274	5.5202	0.	-52.9
382	1.391	3.154	0.	-292.33
383	1.2655	4.2872	0.	-238.22
384	1.3465	3.7249	5.e-002	1.316e-006
385	0.67324	3.6625	0.	-649.96
386	1.4018	1.9608	0.	-258.83
387	1.3681	1.3387	5.e-002	-4.3424e-015
388	1.2491	0.66934	0.	-116.81
389	0.68407	1.2693	0.	-603.24
390	7.0672	0.97279	0.	-19.422
391	6.6316	0.73736	5.e-002	-1.8227e-006
392	6.7952	0.36868	0.	5.7549
393	8.2183	1.2019	0.	-34.999
394	7.5285	1.7991	0.	-62.634
395	6.8153	1.516	0.	-97.996
396	7.5029	1.2082	5.e-002	5.3705e-006
397	7.7989	0.6041	0.	-7.6131
398	9.5646	1.1982	0.	-12.979
399	8.8821	1.775	0.	-21.856
400	8.9336	1.1955	5.e-002	9.8335e-007
401	9.0823	0.59776	0.	-8.5926
402	10.799	1.1984	0.	-4.0953
403	10.151	1.7901	0.	-11.965
404	10.196	1.2009	5.e-002	2.3652e-007
405	10.281	0.60044	0.	-3.0908
406	11.995	1.1916	0.	-0.85702
407	11.38	1.7853	0.	-2.3593
408	11.403	1.1959	5.e-002	9.4237e-007
409	11.453	0.59795	0.	-0.55796
410	13.171	1.1839	0.	-0.72336
411	12.58	1.7727	0.	-1.0645
412	12.588	1.1873	5.e-002	1.204e-006
413	12.614	0.59367	0.	-0.43978
414	14.325	1.1785	0.	-0.69613
415	13.749	1.7661	0.	-0.92834
416	13.753	1.1804	5.e-002	1.5558e-006
417	13.764	0.59021	0.	-0.37853
418	15.465	1.1763	0.	-0.68172
419	14.897	1.7683	0.	-0.95542
420	14.896	1.1766	5.e-002	1.5864e-006
421	14.904	0.58832	0.	-0.33899
422	16.602	1.1769	0.	-0.62165
423	16.033	1.768	0.	-0.89089
424	16.035	1.176	5.e-002	1.9252e-006
425	16.041	0.588	0.	-0.18221
426	17.737	1.1796	0.	-0.60392
427	17.168	1.7703	0.	-0.88982
428	17.169	1.1778	5.e-002	2.2016e-006
429	17.176	0.5889	0.	-0.18043
430	18.871	1.184	0.	-0.59501
431	18.304	1.7746	0.	-0.88949
432	18.305	1.1813	5.e-002	2.3606e-006
433	18.312	0.59065	0.	-0.12887
434	20.006	1.1885	0.	-0.59534
435	19.438	1.7802	0.	-0.92418
436	19.438	1.1867	5.e-002	2.3425e-006
437	19.447	0.59337	0.	-0.13502
438	21.144	1.1902	0.	-0.59516
439	20.574	1.7855	0.	-0.8952
440	20.575	1.1902	5.e-002	2.6758e-006
441	20.583	0.59508	0.	-0.12597
442	22.286	1.1929	0.	-0.61546
443	21.711	1.7898	0.	-0.89613
444	21.713	1.1902	5.e-002	2.8103e-006
445	21.72	0.59511	0.	-0.1663
446	22.855	1.7948	0.	-0.9419
447	22.859	1.1956	5.e-002	3.0707e-006
448	22.862	0.59778	0.	-0.16408
449	23.43	1.1978	0.	-0.62363
450	2.1758	2.733	0.	-266.75
451	1.4355	2.583	5.e-002	7.9154e-008
452	0.71776	2.4915	0.	-669.2
453	22.851	2.9974	0.	-1.2486
454	22.28	2.3916	0.	-1.2314
455	22.851	2.394	5.e-002	2.6316e-006
456	23.426	2.397	0.	-1.3003
457	22.852	4.2045	0.	-0.93452
458	22.276	3.5973	0.	-1.2523
459	22.851	3.6009	5.e-002	2.9858e-006
460	23.426	3.6004	0.	-1.2975
461	22.283	4.8011	0.	-0.62045
462	22.854	4.8082	5.e-002	3.1568e-006
463	23.427	4.8041	0.	-0.63924
464	22.859	5.4041	0.	-0.18114
465	21.142	4.7937	0.	-0.62143
466	21.706	4.1939	0.	-0.92943
467	21.713	4.794	5.e-002	2.9307e-006
468	21.72	5.397	0.	-0.14517
469	20.002	4.7728	0.	-0.60592
470	20.571	4.188	0.	-0.93877
471	20.571	4.7933	5.e-002	2.8044e-006
472	20.581	5.3967	0.	-0.13089
473	18.865	4.7349	0.	-0.53823
474	19.431	4.1547	0.	-0.90903
475	19.433	4.7522	5.e-002	2.2834e-006
476	19.444	5.3761	0.	-0.13246
477	17.731	4.7084	0.	-0.51281
478	18.297	4.1301	0.	-0.87711
479	18.297	4.7176	5.e-002	2.2461e-006
480	18.308	5.3588	0.	-0.10903
481	16.598	4.6958	0.	-0.50789
482	17.164	4.1156	0.	-0.87872
483	17.164	4.6992	5.e-002	1.8236e-006
484	17.174	5.3496	0.	-0.11011
485	15.468	4.6926	0.	-0.57297
486	16.031	4.109	0.	-0.85308
487	16.032	4.6923	5.e-002	1.8953e-006
488	16.04	5.3461	0.	-0.15198
489	14.338	4.6937	0.	-0.61386
490	14.902	4.109	0.	-0.92402
491	14.904	4.6928	5.e-002	1.6321e-006
492	14.907	5.3464	0.	-0.31788
493	13.188	4.7265	0.	-0.78439
494	13.766	4.1075	0.	-0.86286
495	13.773	4.6946	5.e-002	1.0718e-006
496	13.774	5.3473	0.	-0.33167
497	12.004	4.7565	0.	-0.56711
498	12.583	4.1543	0.	-1.3245
499	12.603	4.7584	5.e-002	1.925e-006
500	12.621	5.3792	0.	-0.57385
501	10.793	4.7542	0.	-3.7801
502	11.373	4.1577	0.	-2.244
503	11.404	4.7546	5.e-002	9.6291e-007
504	11.453	5.3773	0.	-0.48433
505	9.5418	4.7519	0.	-16.835
506	10.136	4.1574	0.	-12.357
507	10.183	4.7539	5.e-002	5.7981e-007
508	10.275	5.3769	0.	-3.7345
509	8.1506	4.711	0.	-39.322
510	8.8622	4.1566	0.	-25.685
511	8.9005	4.75	5.e-002	1.428e-006
512	9.0657	5.375	0.	-17.126
513	6.9974	4.9561	0.	-42.814
514	6.754	4.4003	0.	-123.14
515	7.4007	4.6721	5.e-002	-1.6911e-007
516	7.7478	5.336	0.	-2.8116
517	6.594	5.2402	5.e-002	9.2469e-008
518	6.7764	5.6201	0.	-6.4353
519	8.1923	2.3722	0.	-48.606
520	6.9107	2.4524	0.	-133.43
521	7.554	2.39	5.e-002	1.3411e-005
522	9.4687	2.367	0.	-20.652
523	8.8273	2.9589	0.	-25.642
524	8.8306	2.3545	5.e-002	2.8005e-007
525	10.732	2.3771	0.	-9.8894
526	10.098	2.9701	0.	-16.308
527	10.107	2.3794	5.e-002	3.2891e-007
528	11.965	2.3664	0.	-1.093
529	11.349	2.9678	0.	-4.2317
530	11.357	2.3747	5.e-002	6.9076e-007
531	13.158	2.3549	0.	-1.2751
532	12.568	2.9542	0.	-1.4915
533	12.572	2.3581	5.e-002	1.1917e-006
534	14.321	2.3559	0.	-1.1938
535	13.751	2.9361	0.	-1.1816
536	13.744	2.3518	5.e-002	1.4318e-006
537	15.464	2.36	0.	-1.1696
538	14.898	2.9426	0.	-1.1824
539	14.897	2.36	5.e-002	1.6533e-006
540	16.6	2.3614	0.	-1.1642
541	16.031	2.9429	0.	-1.1866
542	16.032	2.36	5.e-002	1.7089e-006
543	17.735	2.3654	0.	-1.1802
544	17.166	2.9474	0.	-1.1975
545	17.167	2.3628	5.e-002	1.8927e-006
546	18.87	2.3708	0.	-1.2236
547	18.3	2.9553	0.	-1.2216
548	18.303	2.368	5.e-002	1.9355e-006
549	20.005	2.3772	0.	-1.2295
550	19.434	2.9654	0.	-1.2458
551	19.437	2.3737	5.e-002	1.9898e-006
552	21.141	2.385	0.	-1.2024
553	20.572	2.9817	0.	-1.2229
554	20.573	2.3808	5.e-002	2.5022e-006
555	21.705	2.9915	0.	-1.2249
556	21.71	2.3893	5.e-002	2.5289e-006
557	21.135	3.5882	0.	-1.2534
558	21.7	3.5937	5.e-002	2.4477e-006
559	20.	3.5699	0.	-1.2479
560	20.57	3.5827	5.e-002	2.4012e-006
561	18.864	3.5499	0.	-1.2534
562	19.43	3.5572	5.e-002	2.1018e-006
563	17.731	3.5372	0.	-1.2482
564	18.297	3.5426	5.e-002	2.005e-006
565	16.597	3.5288	0.	-1.2285
566	17.164	3.5319	5.e-002	1.9267e-006
567	15.465	3.5255	0.	-1.2078
568	16.03	3.5258	5.e-002	1.8724e-006
569	14.329	3.5228	0.	-1.1763
570	14.9	3.5252	5.e-002	1.5623e-006
571	13.161	3.5354	0.	-1.4042
572	13.759	3.5205	5.e-002	1.1958e-006
573	11.952	3.5556	0.	-1.4295
574	12.563	3.5503	5.e-002	4.8946e-007
575	10.716	3.5609	0.	-10.478
576	11.341	3.5608	5.e-002	7.1977e-007
577	9.4569	3.5621	0.	-21.116
578	10.09	3.5609	5.e-002	1.2502e-006
579	8.824	3.5632	5.e-002	-9.0001e-008
580	6.1073	4.1286	5.e-002	1.2067e-007
581	5.397	4.0643	0.	-219.48
582	3.912	0.99901	5.e-002	2.5634e-007
583	4.216	0.99951	0.	-8.331
584	3.3163	2.6464	0.	-270.95
585	3.9902	2.6162	0.	-93.967
586	3.7164	2.4098	5.e-002	1.5045e-005
587	4.1182	2.2049	0.	-266.05
588	1.1846	4.8495	5.e-002	-2.8724e-015
589	1.1573	5.4248	0.	-128.41
590	0.59231	4.8248	0.	-583.47
591	2.9161	2.883	5.e-002	2.3775e-005
592	3.7181	3.4415	0.	-368.35
593	5.4763	2.5197	0.	1.9898
594	4.6853	2.5246	5.e-002	1.6484e-007
595	4.686	2.2623	0.	-365.54
596	5.423	0.95113	5.e-002	6.8211e-006
597	5.0548	0.97557	0.	-36.107
598	6.1975	2.1693	0.	-161.06
599	6.1276	1.8238	5.e-002	7.2081e-006
600	5.4071	1.9119	0.	-364.89
601	6.2673	2.5149	5.e-002	3.5892e-007
602	4.264	2.8226	5.e-002	1.299e-005
603	4.392	3.4113	0.	-245.42
604	3.9902	2.6162	0.1	93.967
605	4.6995	3.0592	0.1	-68.612
606	4.3529	2.6817	0.1	-138.32
607	4.392	3.4113	0.1	245.42
608	6.1975	2.1693	0.1	161.06
609	5.4763	2.5197	0.1	-1.9898
610	6.9107	2.4524	0.1	133.43
611	6.2458	2.9387	0.1	183.31
612	6.8153	1.516	0.1	97.996
613	5.9696	1.5916	0.1	66.821
614	5.4071	1.9119	0.1	364.89
615	5.5579	0.7405	0.1	5.2662
616	5.6173	1.1553	0.1	-5.8452
617	5.0548	0.97557	0.1	36.107
618	4.9102	2.9102	0.1	-95.67
619	4.5635	2.5327	0.1	-134.76
620	4.686	2.2623	0.1	365.54
621	3.3163	2.6464	0.1	270.95
622	2.1758	2.733	0.1	266.75
623	2.7523	2.1032	0.1	180.63
624	2.8481	3.4753	0.1	212.62
625	3.7181	3.4415	0.1	368.35
626	1.2655	4.2872	0.1	238.22
627	1.7363	4.9449	0.1	135.43
628	0.59231	4.8248	0.1	583.47
629	1.1573	5.4248	0.1	128.41
630	3.649	2.0334	0.1	71.082
631	4.1182	2.2049	0.1	266.05
632	3.7469	1.328	0.1	-63.271
633	3.7523	0.74608	0.1	-68.918
634	4.216	0.99951	0.1	8.331
635	6.754	4.4003	0.1	123.14
636	6.1658	3.7456	0.1	178.88
637	5.9168	4.3888	0.1	95.401
638	5.397	4.0643	0.1	219.48
639	9.4569	3.5621	0.1	21.116
640	8.8273	2.9589	0.1	25.642
641	8.8622	4.1566	0.1	25.685
642	8.1925	3.5323	0.1	54.654
643	10.716	3.5609	0.1	10.478
644	10.098	2.9701	0.1	16.308
645	10.136	4.1574	0.1	12.357
646	11.952	3.5556	0.1	1.4295
647	11.349	2.9678	0.1	4.2317
648	11.373	4.1577	0.1	2.244
649	13.161	3.5354	0.1	1.4042
650	12.568	2.9542	0.1	1.4915
651	12.583	4.1543	0.1	1.3245
652	14.329	3.5228	0.1	1.1763
653	13.751	2.9361	0.1	1.1816
654	13.766	4.1075	0.1	0.86286
655	15.465	3.5255	0.1	1.2078
656	14.898	2.9426	0.1	1.1824
657	14.902	4.109	0.1	0.92402
658	16.597	3.5288	0.1	1.2285
659	16.031	2.9429	0.1	1.1866
660	16.031	4.109	0.1	0.85308
661	17.731	3.5372	0.1	1.2482
662	17.166	2.9474	0.1	1.1975
663	17.164	4.1156	0.1	0.87872
664	18.864	3.5499	0.1	1.2534
665	18.3	2.9553	0.1	1.2216
666	18.297	4.1301	0.1	0.87711
667	20.	3.5699	0.1	1.2479
668	19.434	2.9654	0.1	1.2458
669	19.431	4.1547	0.1	0.90903
670	21.135	3.5882	0.1	1.2534
671	20.572	2.9817	0.1	1.2229
672	20.571	4.188	0.1	0.93877
673	21.705	2.9915	0.1	1.2249
674	21.706	4.1939	0.1	0.92943
675	22.276	3.5973	0.1	1.2523
676	21.141	2.385	0.1	1.2024
677	22.28	2.3916	0.1	1.2314
678	21.711	1.7898	0.1	0.89613
679	20.005	2.3772	0.1	1.2295
680	20.574	1.7855	0.1	0.89521
681	18.87	2.3708	0.1	1.2236
682	19.438	1.7802	0.1	0.92418
683	17.735	2.3654	0.1	1.1802
684	18.304	1.7746	0.1	0.8895
685	16.6	2.3614	0.1	1.1642
686	17.168	1.7703	0.1	0.88982
687	15.464	2.36	0.1	1.1696
688	16.033	1.768	0.1	0.89089
689	14.321	2.3559	0.1	1.1938
690	14.897	1.7683	0.1	0.95542
691	13.158	2.3549	0.1	1.2751
692	13.749	1.7661	0.1	0.92834
693	11.965	2.3664	0.1	1.093
694	12.58	1.7727	0.1	1.0645
695	10.732	2.3771	0.1	9.8894
696	11.38	1.7853	0.1	2.3593
697	9.4687	2.367	0.1	20.652
698	10.151	1.7901	0.1	11.965
699	8.1923	2.3722	0.1	48.606
700	8.8821	1.775	0.1	21.856
701	7.5285	1.7991	0.1	62.634
702	7.5575	2.9457	0.1	77.069
703	6.9974	4.9561	0.1	42.814
704	6.0863	5.3507	0.1	-5.4241
705	6.1602	4.9446	0.1	18.674
706	6.7764	5.6201	0.1	6.4353
707	8.1506	4.711	0.1	39.322
708	7.4809	4.0868	0.1	68.995
709	7.7478	5.336	0.1	2.8116
710	9.5418	4.7519	0.1	16.835
711	9.0657	5.375	0.1	17.126
712	10.793	4.7542	0.1	3.7801
713	10.275	5.3769	0.1	3.7345
714	12.004	4.7565	0.1	0.56711
715	11.453	5.3773	0.1	0.48433
716	13.188	4.7265	0.1	0.78439
717	12.621	5.3792	0.1	0.57385
718	14.338	4.6937	0.1	0.61386
719	13.774	5.3473	0.1	0.33167
720	15.468	4.6926	0.1	0.57297
721	14.907	5.3464	0.1	0.31788
722	16.598	4.6958	0.1	0.50789
723	16.04	5.3461	0.1	0.15198
724	17.731	4.7084	0.1	0.51281
725	17.174	5.3496	0.1	0.11011
726	18.865	4.7349	0.1	0.53823
727	18.308	5.3588	0.1	0.10903
728	20.002	4.7728	0.1	0.60592
729	19.444	5.3761	0.1	0.13246
730	21.142	4.7937	0.1	0.62143
731	20.581	5.3967	0.1	0.13089
732	22.283	4.8011	0.1	0.62045
733	21.72	5.397	0.1	0.14517
734	22.852	4.2045	0.1	0.93452
735	22.859	5.4041	0.1	0.18114
736	23.427	4.8041	0.1	0.63924
737	22.851	2.9974	0.1	1.2486
738	23.426	3.6004	0.1	1.2975
739	22.855	1.7948	0.1	0.9419
740	23.426	2.397	0.1	1.3003
741	1.4018	1.9608	0.1	258.83
742	1.391	3.154	0.1	292.33
743	0.71776	2.4915	0.1	669.2
744	22.286	1.1929	0.1	0.61547
745	23.43	1.1978	0.1	0.62363
746	22.862	0.59778	0.1	0.16408
747	21.144	1.1902	0.1	0.59516
748	21.72	0.59511	0.1	0.1663
749	20.006	1.1885	0.1	0.59534
750	20.583	0.59508	0.1	0.12597
751	18.871	1.184	0.1	0.59501
752	19.447	0.59337	0.1	0.13502
753	17.737	1.1796	0.1	0.60392
754	18.312	0.59065	0.1	0.12887
755	16.602	1.1769	0.1	0.62165
756	17.176	0.5889	0.1	0.18043
757	15.465	1.1763	0.1	0.68172
758	16.041	0.588	0.1	0.18221
759	14.325	1.1785	0.1	0.69613
760	14.904	0.58832	0.1	0.33899
761	13.171	1.1839	0.1	0.72336
762	13.764	0.59021	0.1	0.37853
763	11.995	1.1916	0.1	0.85703
764	12.614	0.59367	0.1	0.43978
765	10.799	1.1984	0.1	4.0953
766	11.453	0.59795	0.1	0.55796
767	9.5646	1.1982	0.1	12.979
768	10.281	0.60044	0.1	3.0908
769	8.2183	1.2019	0.1	34.999
770	9.0823	0.59776	0.1	8.5926
771	7.0672	0.97279	0.1	19.422
772	7.7989	0.6041	0.1	7.6131
773	6.1622	0.63362	0.1	-2.3828
774	6.2216	1.0484	0.1	-9.5235
775	6.7952	0.36868	0.1	-5.7549
776	1.9783	1.3311	0.1	170.17
777	0.68407	1.2693	0.1	603.24
778	1.2491	0.66934	0.1	116.81
779	2.0633	3.8963	0.1	220.69
780	0.67324	3.6625	0.1	649.96
781	2.814	5.1783	0.1	21.609
782	2.5341	4.554	0.1	123.05
783	2.274	5.5202	0.1	52.9
784	5.483	5.2555	0.1	-5.5853
785	5.1326	5.4806	0.1	51.168
786	5.7006	5.7306	0.1	5.9693
787	3.0851	1.4903	0.1	-4.9768
788	3.0905	0.90833	0.1	-24.184
789	2.4242	0.66175	0.1	51.032
790	6.8927	3.432	0.1	126.55
791	5.6797	3.3292	0.1	-82.478
792	3.4726	5.0871	0.1	-4.8203
793	3.93	5.4081	0.1	116.29
794	3.365	5.6581	0.1	-1.513
795	5.5569	4.8494	0.1	-2.7224
796	5.0371	5.0249	0.1	39.47
797	5.2065	4.5745	0.1	-19.353
798	3.1926	4.4628	0.1	66.973
799	3.65	4.2838	0.1	177.79
800	4.0626	4.929	0.1	36.952
801	5.1897	0.51494	0.1	74.188
802	5.7578	0.26494	0.1	2.6528
803	4.0509	1.5785	0.1	59.647
804	4.0563	0.49657	0.1	38.875
805	3.4913	0.24657	0.1	1.6188
806	5.2491	1.4297	0.1	-41.859
807	4.9108	3.6479	0.1	96.261
808	4.4809	2.2704	0.1	112.44
809	4.6867	5.25	0.1	86.664
810	4.6867	5.75	0.1	181.66
811	4.6867	5.5	5.e-002	2.6728e-006
812	4.6867	4.75	0.1	19.744
813	4.6867	5.	5.e-002	1.4264e-007
814	4.6867	4.25	0.1	184.91
815	4.6867	4.5	5.e-002	-1.511e-014
816	4.6033	4.	0.1	545.03
817	4.6867	4.	5.e-002	-1.7263e-005
818	4.52	4.25	0.1	308.63
819	4.52	4.	5.e-002	-4.794e-006
820	4.52	4.75	0.1	16.892
821	4.52	4.5	5.e-002	-3.1023e-014
822	4.52	5.25	0.1	113.34
823	4.52	5.	5.e-002	-4.2792e-014
824	4.52	5.75	0.1	237.06
825	4.52	5.5	5.e-002	-1.7599e-014
826	4.6867	0.75	0.1	80.204
827	4.6867	0.25	0.1	180.31
828	4.6867	0.5	5.e-002	-7.3063e-015
829	4.6867	1.25	0.1	-10.221
830	4.6867	1.	5.e-002	-3.1575e-014
831	4.6867	1.75	0.1	342.35
832	4.6867	1.5	5.e-002	1.0497e-006
833	4.6033	2.	0.1	587.6
834	4.6867	2.	5.e-002	2.963e-006
835	4.52	1.75	0.1	301.28
836	4.52	2.	5.e-002	3.8318e-005
837	4.52	1.25	0.1	136.23
838	4.52	1.5	5.e-002	2.8285e-006
839	4.52	0.75	0.1	135.22
840	4.52	1.	5.e-002	-2.9308e-014
841	4.52	0.25	0.1	204.74
842	4.52	0.5	5.e-002	-8.4822e-015
843	5.2547	6.	0.1	82.294
844	4.6867	6.	5.e-002	-6.4429e-015
845	6.3908	6.	0.1	12.594
846	5.8227	6.	5.e-002	4.7413e-007
847	7.5269	6.	0.1	-4.3027
848	6.9588	6.	5.e-002	-2.5222e-007
849	8.6629	6.	0.1	-2.1911
850	8.0949	6.	5.e-002	4.3694e-007
851	9.799	6.	0.1	1.9983
852	9.231	6.	5.e-002	1.3897e-007
853	10.935	6.	0.1	1.5167
854	10.367	6.	5.e-002	1.4263e-006
855	12.071	6.	0.1	0.48122
856	11.503	6.	5.e-002	9.4576e-007
857	13.207	6.	0.1	0.12815
858	12.639	6.	5.e-002	1.9147e-006
859	14.343	6.	0.1	4.1487e-002
860	13.775	6.	5.e-002	1.4296e-006
861	15.479	6.	0.1	-0.10023
862	14.911	6.	5.e-002	1.9062e-006
863	16.615	6.	0.1	-0.2443
864	16.047	6.	5.e-002	1.9087e-006
865	17.752	6.	0.1	-0.29306
866	17.184	6.	5.e-002	2.1442e-006
867	18.888	6.	0.1	-0.29599
868	18.32	6.	5.e-002	2.6218e-006
869	20.024	6.	0.1	-0.34089
870	19.456	6.	5.e-002	2.5791e-006
871	21.16	6.	0.1	-0.34201
872	20.592	6.	5.e-002	2.8351e-006
873	22.296	6.	0.1	-0.28519
874	21.728	6.	5.e-002	2.9056e-006
875	23.432	6.	0.1	-0.32012
876	22.864	6.	5.e-002	4.133e-006
877	24.	5.4	0.1	0.11095
878	24.	6.	5.e-002	7.7603e-006
879	24.	4.2	0.1	0.9816
880	24.	4.8	5.e-002	3.3989e-006
881	24.	3.	0.1	1.3282
882	24.	3.6	5.e-002	2.8766e-006
883	24.	1.8	0.1	0.9631
884	24.	2.4	5.e-002	3.1256e-006
885	24.	0.6	0.1	0.11943
886	24.	1.2	5.e-002	3.1009e-006
887	1.5735e-014	1.8	0.1	1012.1
888	5.2451e-015	0.6	0.1	846.07
889	1.0632e-014	1.2	5.e-002	-2.8223e-007
890	2.6226e-014	3.	0.1	1029.5
891	2.1264e-014	2.4	5.e-002	-3.5353e-015
892	3.6716e-014	4.2	0.1	993.5
893	3.1897e-014	3.6	5.e-002	2.7885e-007
894	4.7206e-014	5.4	0.1	802.52
895	4.2529e-014	4.8	5.e-002	-8.9832e-008
896	23.432	0.	0.1	-0.3139
897	24.	0.	5.e-002	7.7381e-006
898	22.296	0.	0.1	-0.27641
899	22.864	0.	5.e-002	3.9705e-006
900	21.16	0.	0.1	-0.29888
901	21.728	0.	5.e-002	2.8765e-006
902	20.024	0.	0.1	-0.33107
903	20.592	0.	5.e-002	2.8665e-006
904	18.888	0.	0.1	-0.32823
905	19.456	0.	5.e-002	2.6918e-006
906	17.752	0.	0.1	-0.29168
907	18.32	0.	5.e-002	2.2678e-006
908	16.615	0.	0.1	-0.25688
909	17.184	0.	5.e-002	2.186e-006
910	15.479	0.	0.1	-0.159
911	16.047	0.	5.e-002	1.8646e-006
912	14.343	0.	0.1	2.2747e-002
913	14.911	0.	5.e-002	1.9062e-006
914	13.207	0.	0.1	9.0323e-002
915	13.775	0.	5.e-002	1.9097e-006
916	12.071	0.	0.1	0.16543
917	12.639	0.	5.e-002	1.4369e-006
918	10.935	0.	0.1	1.616
919	11.503	0.	5.e-002	1.4387e-006
920	9.799	0.	0.1	-0.80109
921	10.367	0.	5.e-002	1.0468e-006
922	8.6629	0.	0.1	-0.45385
923	9.231	0.	5.e-002	1.8892e-006
924	7.5269	0.	0.1	-2.268
925	8.0949	0.	5.e-002	1.3317e-006
926	6.3908	0.	0.1	-4.7529
927	6.9588	0.	5.e-002	-7.4267e-007
928	5.2547	0.	0.1	72.416
929	5.8227	0.	5.e-002	1.1323e-007
930	4.6867	0.	5.e-002	-5.9768e-015
931	3.955	-2.4415e-030	0.1	102.6
932	4.52	-2.7903e-030	5.e-002	-8.7676e-015
933	2.825	-1.744e-030	0.1	54.707
934	3.39	0.	5.e-002	-2.9515e-015
935	1.695	-1.0464e-030	0.1	-8.423
936	2.26	0.	5.e-002	-3.3693e-015
937	0.565	-3.4879e-031	0.1	358.54
938	1.13	0.	5.e-002	1.5642e-005
939	0.	0.	5.e-002	-6.1329e-007
940	0.565	6.	0.1	352.76
941	5.2451e-014	6.	5.e-002	-4.3493e-014
942	1.695	6.	0.1	43.174
943	1.13	6.	5.e-002	-3.3698e-015
944	2.825	6.	0.1	-11.644
945	2.26	6.	5.e-002	-5.8959e-015
946	3.955	6.	0.1	77.843
947	3.39	6.	5.e-002	-8.0716e-017
948	4.52	6.	5.e-002	-9.2538e-015
949	2.825	6.	0.	11.644
950	3.955	6.	0.	-77.843
951	1.695	6.	0.	-43.174
952	0.565	6.	0.	-352.76
953	4.52	5.75	0.	-237.06
954	4.7206e-014	5.4	0.	-802.52
955	1.695	-1.0464e-030	0.	8.423
956	0.565	-3.4879e-031	0.	-358.54
957	2.825	-1.744e-030	0.	-54.707
958	3.955	-2.4415e-030	0.	-102.6
959	4.52	0.25	0.	-204.74
960	5.2451e-015	0.6	0.	-846.07
961	6.3908	0.	0.	4.7529
962	5.2547	0.	0.	-72.416
963	7.5269	0.	0.	2.268
964	8.6629	0.	0.	0.45385
965	9.799	0.	0.	0.80109
966	10.935	0.	0.	-1.616
967	12.071	0.	0.	-0.16543
968	13.207	0.	0.	-9.0323e-002
969	14.343	0.	0.	-2.2748e-002
970	15.479	0.	0.	0.159
971	16.615	0.	0.	0.25688
972	17.752	0.	0.	0.29168
973	18.888	0.	0.	0.32823
974	20.024	0.	0.	0.33107
975	21.16	0.	0.	0.29888
976	22.296	0.	0.	0.27641
977	23.432	0.	0.	0.3139
978	4.6867	0.25	0.	-180.31
979	24.	0.6	0.	-0.11943
980	3.6716e-014	4.2	0.	-993.5
981	2.6226e-014	3.	0.	-1029.5
982	1.5735e-014	1.8	0.	-1012.1
983	24.	1.8	0.	-0.9631
984	24.	3.	0.	-1.3282
985	24.	4.2	0.	-0.9816
986	24.	5.4	0.	-0.11095
987	23.432	6.	0.	0.32012
988	22.296	6.	0.	0.28519
989	21.16	6.	0.	0.34201
990	20.024	6.	0.	0.34089
991	18.888	6.	0.	0.29599
992	17.752	6.	0.	0.29306
993	16.615	6.	0.	0.2443
994	15.479	6.	0.	0.10023
995	14.343	6.	0.	-4.1487e-002
996	13.207	6.	0.	-0.12815
997	12.071	6.	0.	-0.48122
998	10.935	6.	0.	-1.5167
999	9.799	6.	0.	-1.9983
1000	8.6629	6.	0.	2.1911
1001	7.5269	6.	0.	4.3027
1002	6.3908	6.	0.	-12.594
1003	5.2547	6.	0.	-82.294
1004	4.6867	5.75	0.	-181.66
1005	4.52	1.25	0.	-136.23
1006	4.52	1.75	0.	-301.28
1007	4.52	0.75	0.	-135.22
1008	4.6033	2.	0.	-587.6
1009	4.6867	0.75	0.	-80.204
1010	4.6867	1.25	0.	10.221
1011	4.6867	1.75	0.	-342.35
1012	4.52	4.75	0.	-16.892
1013	4.52	4.25	0.	-308.63
1014	4.52	5.25	0.	-113.34
1015	4.6033	4.	0.	-545.03
1016	4.6867	5.25	0.	-86.664
1017	4.6867	4.75	0.	-19.744
1018	4.6867	4.25	0.	-184.91
