Node Number	X Location (in)	Y Location (in)	Z Location (in)	Middle Principal Stress (psi)
1	4.7744	3.0251	0.	102.03
2	6.0099	2.2987	0.	-75.749
3	3.9103	2.4114	0.	-162.6
4	8.3276	3.1632	0.	-53.175
5	5.4724	3.0377	0.	95.708
6	3.4098	5.064	0.	-32.042
7	1.7438	4.5125	0.	-238.59
8	1.4168	2.8589	0.	-264.17
9	1.5223	1.38	0.	-218.6
10	3.1511	1.2356	0.	-97.373
11	6.7667	5.4138	0.	11.887
12	6.351	4.8663	0.	-9.4173
13	5.9687	4.3899	0.	-20.33
14	22.571	4.5255	0.	-1.2575
15	21.136	4.5524	0.	-0.86463
16	19.687	4.59	0.	-1.0586
17	18.236	4.6012	0.	-1.3529
18	16.795	4.6012	0.	-1.1599
19	15.354	4.6012	0.	-1.062
20	13.913	4.6012	0.	-0.84659
21	12.472	4.6012	0.	-1.1675
22	11.016	4.5672	0.	-8.2531
23	9.5668	4.5816	0.	-22.28
24	7.9516	5.0338	0.	-32.312
25	7.0314	4.1407	0.	-37.888
26	22.547	1.5266	0.	-1.1147
27	22.576	3.0039	0.	-2.0886
28	6.6357	0.67449	0.	6.505
29	7.9616	1.4322	0.	-35.007
30	9.5625	1.5532	0.	-33.13
31	11.026	1.5002	0.	-10.213
32	12.472	1.3988	0.	-0.89997
33	13.913	1.3988	0.	-1.7447
34	15.354	1.3988	0.	-1.5015
35	16.795	1.3988	0.	-1.3907
36	18.236	1.3988	0.	-1.2993
37	19.677	1.3988	0.	-1.5465
38	21.112	1.4883	0.	-1.4526
39	6.1217	1.2009	0.	50.945
40	5.7964	1.6263	0.	12.814
41	3.712	4.3019	0.	-227.39
42	4.2442	3.7858	0.	-215.
43	4.0907	1.6392	0.	127.8
44	6.1226	3.0576	0.	-143.25
45	2.6952	2.6559	0.	-275.48
46	3.9782	3.1549	0.	-175.91
47	6.1856	3.8143	0.	-80.062
48	21.114	3.1129	0.	-2.3388
49	7.2546	3.1344	0.	-102.12
50	19.677	3.2024	0.	-2.2378
51	18.235	3.2024	0.	-1.9876
52	16.795	3.2024	0.	-1.9951
53	15.354	3.2024	0.	-1.9113
54	13.913	3.2024	0.	-2.0127
55	12.472	3.2024	0.	-0.12695
56	11.034	3.1245	0.	-14.83
57	9.5581	3.0979	0.	-34.027
58	6.9781	2.0871	0.	-63.984
59	3.0095	3.5838	0.	-286.96
60	3.0095	3.5838	0.1	286.96
61	6.9781	2.0871	0.1	63.984
62	9.5581	3.0979	0.1	34.027
63	11.034	3.1245	0.1	14.83
64	12.472	3.2024	0.1	0.12695
65	13.913	3.2024	0.1	2.0127
66	15.354	3.2024	0.1	1.9113
67	16.795	3.2024	0.1	1.9951
68	18.235	3.2024	0.1	1.9876
69	19.677	3.2024	0.1	2.2378
70	7.2546	3.1344	0.1	102.12
71	21.114	3.1129	0.1	2.3388
72	6.1856	3.8143	0.1	80.062
73	3.9782	3.1549	0.1	175.91
74	2.6952	2.6559	0.1	275.48
75	6.1226	3.0576	0.1	143.25
76	4.0907	1.6392	0.1	-127.8
77	4.2442	3.7858	0.1	215.
78	3.712	4.3019	0.1	227.39
79	5.7964	1.6263	0.1	-12.814
80	6.1217	1.2009	0.1	-50.945
81	21.112	1.4883	0.1	1.4526
82	19.677	1.3988	0.1	1.5465
83	18.236	1.3988	0.1	1.2993
84	16.795	1.3988	0.1	1.3907
85	15.354	1.3988	0.1	1.5015
86	13.913	1.3988	0.1	1.7447
87	12.472	1.3988	0.1	0.89997
88	11.026	1.5002	0.1	10.213
89	9.5625	1.5532	0.1	33.13
90	7.9616	1.4322	0.1	35.007
91	6.6357	0.67449	0.1	-6.505
92	22.576	3.0039	0.1	2.0886
93	22.547	1.5266	0.1	1.1147
94	7.0314	4.1407	0.1	37.888
95	7.9516	5.0338	0.1	32.312
96	9.5668	4.5816	0.1	22.28
97	11.016	4.5672	0.1	8.2531
98	12.472	4.6012	0.1	1.1675
99	13.913	4.6012	0.1	0.84659
100	15.354	4.6012	0.1	1.062
101	16.795	4.6012	0.1	1.1599
102	18.236	4.6012	0.1	1.3529
103	19.687	4.59	0.1	1.0586
104	21.136	4.5524	0.1	0.86463
105	22.571	4.5255	0.1	1.2575
106	5.9687	4.3899	0.1	20.33
107	6.351	4.8663	0.1	9.4173
108	6.7667	5.4138	0.1	-11.887
109	3.1511	1.2356	0.1	97.373
110	1.5223	1.38	0.1	218.6
111	1.4168	2.8589	0.1	264.17
112	1.7438	4.5125	0.1	238.59
113	3.4098	5.064	0.1	32.042
114	5.4724	3.0377	0.1	-95.708
115	8.3276	3.1632	0.1	53.175
116	3.9103	2.4114	0.1	162.6
117	6.0099	2.2987	0.1	75.749
118	4.7744	3.0251	0.1	-102.03
119	5.2667	5.5	0.1	159.45
120	5.2667	5.	0.1	174.65
121	5.2667	4.5	0.1	20.62
122	5.2667	4.	0.1	215.73
123	5.1	4.	0.1	265.12
124	5.1	4.5	0.1	196.03
125	5.1	5.	0.1	199.13
126	5.1	5.5	0.1	184.2
127	5.2667	0.5	0.1	155.04
128	5.2667	1.	0.1	224.93
129	5.2667	1.5	0.1	54.745
130	5.2667	2.	0.1	322.33
131	5.1	2.	0.1	298.9
132	5.1	1.5	0.1	75.139
133	5.1	1.	0.1	409.6
134	5.1	0.5	0.1	157.06
135	5.2667	6.	0.1	107.79
136	6.7077	6.	0.1	-2.0609
137	8.1487	6.	0.1	-13.214
138	9.5897	6.	0.1	9.9375
139	11.031	6.	0.1	3.6001
140	12.472	6.	0.1	2.0854
141	13.913	6.	0.1	1.0118
142	15.354	6.	0.1	0.54188
143	16.795	6.	0.1	0.25194
144	18.236	6.	0.1	8.7976e-002
145	19.677	6.	0.1	0.20496
146	21.118	6.	0.1	0.39373
147	22.559	6.	0.1	0.11046
148	24.	6.	0.1	-0.28595
149	24.	4.5	0.1	1.4214
150	24.	3.	0.1	2.2751
151	24.	1.5	0.1	1.0052
152	1.3113e-014	1.5	0.1	957.82
153	2.6226e-014	3.	0.1	990.92
154	3.9339e-014	4.5	0.1	982.23
155	24.	0.	0.1	0.3166
156	22.559	0.	0.1	0.21521
157	21.118	0.	0.1	-0.45361
158	19.677	0.	0.1	-0.35116
159	18.236	0.	0.1	0.18144
160	16.795	0.	0.1	4.2749e-002
161	15.354	0.	0.1	5.3378e-002
162	13.913	0.	0.1	-9.3757e-002
163	12.472	0.	0.1	2.0707
164	11.031	0.	0.1	6.4346
165	9.5897	0.	0.1	13.932
166	8.1487	0.	0.1	-4.1336
167	6.7077	0.	0.1	-5.7951
168	5.2667	0.	0.1	145.77
169	5.1	0.	0.1	227.84
170	3.4	1.4558e-030	0.1	90.073
171	1.7	7.2791e-031	0.1	127.47
172	0.	0.	0.1	754.53
173	3.937e-014	6.	0.1	812.64
174	1.7	6.	0.1	51.601
175	3.4	6.	0.1	129.97
176	5.1	6.	0.1	222.14
177	3.4	6.	0.	-129.97
178	1.7	6.	0.	-51.601
179	5.1	6.	0.	-222.14
180	3.937e-014	6.	0.	-812.64
181	1.7	7.2791e-031	0.	-127.47
182	3.4	1.4558e-030	0.	-90.073
183	5.1	0.	0.	-227.84
184	0.	0.	0.	-754.53
185	6.7077	0.	0.	5.7951
186	8.1487	0.	0.	4.1336
187	9.5897	0.	0.	-13.932
188	11.031	0.	0.	-6.4346
189	12.472	0.	0.	-2.0707
190	13.913	0.	0.	9.3757e-002
191	15.354	0.	0.	-5.3378e-002
192	16.795	0.	0.	-4.275e-002
193	18.236	0.	0.	-0.18144
194	19.677	0.	0.	0.35116
195	21.118	0.	0.	0.45361
196	22.559	0.	0.	-0.21521
197	5.2667	0.	0.	-145.77
198	24.	0.	0.	-0.31659
199	3.9339e-014	4.5	0.	-982.23
200	2.6226e-014	3.	0.	-990.92
201	1.3113e-014	1.5	0.	-957.82
202	24.	1.5	0.	-1.0052
203	24.	3.	0.	-2.2751
204	24.	4.5	0.	-1.4214
205	24.	6.	0.	0.28595
206	22.559	6.	0.	-0.11046
207	21.118	6.	0.	-0.39373
208	19.677	6.	0.	-0.20496
209	18.236	6.	0.	-8.7976e-002
210	16.795	6.	0.	-0.25194
211	15.354	6.	0.	-0.54188
212	13.913	6.	0.	-1.0118
213	12.472	6.	0.	-2.0854
214	11.031	6.	0.	-3.6001
215	9.5897	6.	0.	-9.9375
216	8.1487	6.	0.	13.214
217	6.7077	6.	0.	2.0609
218	5.2667	6.	0.	-107.79
219	5.1	1.5	0.	-75.139
220	5.1	1.	0.	-409.6
221	5.1	0.5	0.	-157.06
222	5.1	2.	0.	-298.9
223	5.2667	0.5	0.	-155.04
224	5.2667	1.	0.	-224.93
225	5.2667	1.5	0.	-54.745
226	5.2667	2.	0.	-322.33
227	5.1	4.5	0.	-196.03
228	5.1	5.	0.	-199.13
229	5.1	5.5	0.	-184.2
230	5.1	4.	0.	-265.12
231	5.2667	5.5	0.	-159.45
232	5.2667	5.	0.	-174.65
233	5.2667	4.5	0.	-20.62
234	5.2667	4.	0.	-215.73
235	5.1234	3.0314	0.	97.35
236	4.3763	3.09	0.	42.015
237	4.7744	3.0251	5.e-002	2.951e-006
238	4.9372	2.5125	0.	-98.49
239	4.9372	3.5125	0.	-79.78
240	5.9032	1.9625	0.	-29.954
241	6.0663	2.6782	0.	-98.5
242	6.494	2.1929	0.	-52.531
243	6.0099	2.2987	5.e-002	8.2456e-007
244	5.6383	2.1494	0.	-136.56
245	4.0005	2.0253	0.	58.103
246	3.3028	2.5336	0.	-219.03
247	3.9443	2.7831	0.	-164.56
248	3.9103	2.4114	5.e-002	2.9639e-005
249	4.5051	2.2057	0.	-193.15
250	8.1396	4.0985	0.	-43.072
251	8.1446	2.2977	0.	-44.509
252	7.7911	3.1488	0.	-77.634
253	8.9428	3.1305	0.	-43.615
254	8.3276	3.1632	5.e-002	-1.3348e-007
255	5.7975	3.0476	0.	12.275
256	5.4724	3.0377	5.e-002	3.7955e-006
257	5.3695	2.5188	0.	-40.62
258	5.3695	3.5188	0.	-54.051
259	2.5768	4.7882	0.	-44.413
260	3.5609	4.6829	0.	-37.128
261	3.4098	5.064	5.e-002	-1.0777e-006
262	3.4049	5.532	0.	-80.658
263	4.2549	5.032	0.	-101.84
264	4.2549	5.282	0.	-48.691
265	1.5803	3.6857	0.	-253.25
266	2.3766	4.0481	0.	-261.14
267	1.7438	4.5125	5.e-002	-8.0353e-015
268	1.7219	5.2563	0.	-147.7
269	0.87188	4.5063	0.	-607.99
270	1.4696	2.1194	0.	-242.7
271	2.056	2.7574	0.	-269.95
272	1.4168	2.8589	5.e-002	3.7432e-006
273	0.7084	2.9294	0.	-626.37
274	2.3367	1.3078	0.	-157.77
275	1.5223	1.38	5.e-002	1.7291e-006
276	1.6112	0.68999	0.	-175.91
277	0.76117	1.44	0.	-587.05
278	3.6209	1.4374	0.	41.424
279	2.9232	1.9457	0.	-190.31
280	3.1511	1.2356	5.e-002	7.8059e-007
281	3.2756	0.61781	0.	-63.865
282	4.1256	0.86781	0.	-131.
283	6.5588	5.14	0.	1.2563
284	7.3592	5.2238	0.	10.178
285	6.7667	5.4138	5.e-002	3.0298e-007
286	6.7372	5.7069	0.	7.5744
287	6.0167	5.4569	0.	-63.83
288	6.1598	4.6281	0.	-5.455
289	6.6912	4.5035	0.	-0.81847
290	6.351	4.8663	5.e-002	5.1246e-007
291	5.8088	4.9331	0.	-77.467
292	6.0771	4.1021	0.	-47.638
293	5.9687	4.3899	5.e-002	-1.0152e-006
294	5.6177	4.4449	0.	-6.7033
295	21.854	4.5389	0.	-1.062
296	22.574	3.7647	0.	-1.6702
297	22.571	4.5255	5.e-002	3.e-006
298	23.286	4.5128	0.	-1.3482
299	22.565	5.2628	0.	-0.68175
300	20.411	4.5712	0.	-0.962
301	21.125	3.8326	0.	-1.6005
302	21.136	4.5524	5.e-002	2.6801e-006
303	21.127	5.2762	0.	-0.62011
304	18.961	4.5956	0.	-1.2056
305	19.682	3.8962	0.	-1.6473
306	19.687	4.59	5.e-002	2.3888e-006
307	19.682	5.295	0.	-0.62198
308	17.515	4.6012	0.	-1.2566
309	18.236	3.9018	0.	-1.6679
310	18.236	4.6012	5.e-002	2.2045e-006
311	18.236	5.3006	0.	-0.71615
312	16.074	4.6012	0.	-1.1109
313	16.795	3.9018	0.	-1.5753
314	16.795	4.6012	5.e-002	1.9024e-006
315	16.795	5.3006	0.	-0.70339
316	14.633	4.6012	0.	-0.95425
317	15.354	3.9018	0.	-1.4848
318	15.354	4.6012	5.e-002	1.4332e-006
319	15.354	5.3006	0.	-0.80027
320	13.192	4.6012	0.	-0.88691
321	13.913	3.9018	0.	-1.4287
322	13.913	4.6012	5.e-002	1.6717e-006
323	13.913	5.3006	0.	-0.92856
324	11.744	4.5842	0.	-4.3595
325	12.472	3.9018	0.	-0.72186
326	12.472	4.6012	5.e-002	1.4185e-006
327	12.472	5.3006	0.	-1.4949
328	10.292	4.5744	0.	-15.322
329	11.025	3.8458	0.	-11.678
330	11.016	4.5672	5.e-002	7.2437e-007
331	11.024	5.2836	0.	-6.1428
332	8.7592	4.8077	0.	-27.432
333	9.5624	3.8397	0.	-28.21
334	9.5668	4.5816	5.e-002	9.1374e-007
335	9.5783	5.2908	0.	-16.181
336	7.4915	4.5872	0.	-34.182
337	7.9516	5.0338	5.e-002	8.3368e-007
338	8.0502	5.5169	0.	-3.8711
339	6.6085	3.9775	0.	-62.604
340	7.143	3.6376	0.	-67.579
341	7.0314	4.1407	5.e-002	7.6394e-006
342	22.562	2.2652	0.	-1.5989
343	21.83	1.5074	0.	-1.2878
344	22.547	1.5266	5.e-002	2.9582e-006
345	22.553	0.76328	0.	-0.66372
346	23.274	1.5133	0.	-1.0698
347	21.845	3.0584	0.	-2.2186
348	22.576	3.0039	5.e-002	2.949e-006
349	23.288	3.002	0.	-2.1997
350	7.2986	1.0534	0.	4.844
351	6.3787	0.93769	0.	28.749
352	6.6357	0.67449	5.e-002	2.0518e-006
353	6.6717	0.33724	0.	6.0868
354	5.9512	0.58724	0.	-62.458
355	8.7621	1.4927	0.	-34.312
356	7.4699	1.7597	0.	-49.639
357	7.9616	1.4322	5.e-002	3.6371e-006
358	8.0552	0.71612	0.	0.45425
359	10.294	1.5267	0.	-21.747
360	9.5603	2.3255	0.	-33.577
361	9.5625	1.5532	5.e-002	4.1985e-007
362	9.5761	0.77658	0.	-23.686
363	11.749	1.4495	0.	-4.9314
364	11.03	2.3123	0.	-12.638
365	11.026	1.5002	5.e-002	1.3875e-006
366	11.028	0.75009	0.	-8.4554
367	13.192	1.3988	0.	-1.2601
368	12.472	2.3006	0.	-0.45119
369	12.472	1.3988	5.e-002	1.5774e-006
370	12.472	0.6994	0.	-1.4457
371	14.633	1.3988	0.	-1.6232
372	13.913	2.3006	0.	-1.869
373	13.913	1.3988	5.e-002	9.8162e-007
374	13.913	0.6994	0.	-0.82717
375	16.074	1.3988	0.	-1.446
376	15.354	2.3006	0.	-1.6979
377	15.354	1.3988	5.e-002	1.7743e-006
378	15.354	0.6994	0.	-0.77896
379	17.515	1.3988	0.	-1.3451
380	16.795	2.3006	0.	-1.6876
381	16.795	1.3988	5.e-002	1.5521e-006
382	16.795	0.6994	0.	-0.71872
383	18.956	1.3988	0.	-1.4231
384	18.236	2.3006	0.	-1.6391
385	18.236	1.3988	5.e-002	2.1978e-006
386	18.236	0.6994	0.	-0.74196
387	20.394	1.4436	0.	-1.5011
388	19.677	2.3006	0.	-1.8887
389	19.677	1.3988	5.e-002	2.46e-006
390	19.677	0.6994	0.	-0.60023
391	21.113	2.3006	0.	-1.8937
392	21.112	1.4883	5.e-002	2.7594e-006
393	21.115	0.74417	0.	-0.50145
394	5.959	1.4136	0.	49.431
395	6.5499	1.644	0.	28.938
396	6.1217	1.2009	5.e-002	-4.9164e-007
397	5.6942	1.1004	0.	-53.29
398	5.7964	1.6263	5.e-002	-4.6225e-008
399	5.5315	1.5632	0.	11.795
400	3.9781	4.0439	0.	-206.95
401	3.3607	3.9428	0.	-257.6
402	3.712	4.3019	5.e-002	-9.2507e-007
403	4.406	4.401	0.	-91.165
404	4.1112	3.4703	0.	-195.82
405	4.2442	3.7858	5.e-002	-1.7454e-014
406	4.6721	3.8929	0.	-195.23
407	4.0907	1.6392	5.e-002	5.1582e-007
408	4.5954	1.5696	0.	27.322
409	4.5954	1.3196	0.	-16.362
410	6.1541	3.4359	0.	-106.48
411	6.6886	3.096	0.	-122.13
412	6.1226	3.0576	5.e-002	2.3174e-006
413	2.8524	3.1198	0.	-281.2
414	2.6952	2.6559	5.e-002	-2.9993e-006
415	3.4939	3.3693	0.	-231.81
416	3.9782	3.1549	5.e-002	-1.2411e-014
417	6.1856	3.8143	5.e-002	-4.3581e-014
418	5.7261	3.9071	0.	-112.88
419	20.396	3.1576	0.	-2.2901
420	21.114	3.1129	5.e-002	2.4583e-006
421	7.1164	2.6108	0.	-85.396
422	7.2546	3.1344	5.e-002	1.1285e-007
423	18.956	3.2024	0.	-2.1133
424	19.677	3.2024	5.e-002	2.2349e-006
425	17.515	3.2024	0.	-1.9916
426	18.235	3.2024	5.e-002	1.9083e-006
427	16.074	3.2024	0.	-1.9534
428	16.795	3.2024	5.e-002	1.4315e-006
429	14.633	3.2024	0.	-1.9622
430	15.354	3.2024	5.e-002	1.4345e-006
431	13.192	3.2024	0.	-1.025
432	13.913	3.2024	5.e-002	1.4288e-006
433	11.753	3.1634	0.	-7.3876
434	12.472	3.2024	5.e-002	9.652e-007
435	10.296	3.1112	0.	-24.427
436	11.034	3.1245	5.e-002	7.5061e-007
437	9.5581	3.0979	5.e-002	3.2234e-009
438	6.9781	2.0871	5.e-002	-7.4928e-007
439	3.0095	3.5838	5.e-002	-5.072e-007
440	3.4939	3.3693	0.1	231.81
441	2.8524	3.1198	0.1	281.2
442	3.3607	3.9428	0.1	257.6
443	2.3766	4.0481	0.1	261.14
444	7.1164	2.6108	0.1	85.396
445	6.5499	1.644	0.1	-28.938
446	7.4699	1.7597	0.1	49.639
447	6.494	2.1929	0.1	52.531
448	10.296	3.1112	0.1	24.427
449	9.5603	2.3255	0.1	33.577
450	9.5624	3.8397	0.1	28.21
451	8.9428	3.1305	0.1	43.615
452	11.753	3.1634	0.1	7.3876
453	11.03	2.3123	0.1	12.638
454	11.025	3.8458	0.1	11.678
455	13.192	3.2024	0.1	1.025
456	12.472	2.3006	0.1	0.45119
457	12.472	3.9018	0.1	0.72186
458	14.633	3.2024	0.1	1.9622
459	13.913	2.3006	0.1	1.869
460	13.913	3.9018	0.1	1.4287
461	16.074	3.2024	0.1	1.9534
462	15.354	2.3006	0.1	1.6979
463	15.354	3.9018	0.1	1.4848
464	17.515	3.2024	0.1	1.9916
465	16.795	2.3006	0.1	1.6876
466	16.795	3.9018	0.1	1.5753
467	18.956	3.2024	0.1	2.1133
468	18.236	2.3006	0.1	1.6391
469	18.236	3.9018	0.1	1.6679
470	20.396	3.1576	0.1	2.2901
471	19.677	2.3006	0.1	1.8887
472	19.682	3.8962	0.1	1.6473
473	6.6886	3.096	0.1	122.13
474	7.143	3.6376	0.1	67.579
475	7.7911	3.1488	0.1	77.634
476	21.113	2.3006	0.1	1.8937
477	21.845	3.0584	0.1	2.2186
478	21.125	3.8326	0.1	1.6005
479	6.1541	3.4359	0.1	106.48
480	6.6085	3.9775	0.1	62.604
481	6.0771	4.1021	0.1	47.638
482	5.7261	3.9071	0.1	112.88
483	4.1112	3.4703	0.1	195.82
484	3.9443	2.7831	0.1	164.56
485	4.3763	3.09	0.1	-42.015
486	2.9232	1.9457	0.1	190.31
487	2.056	2.7574	0.1	269.95
488	3.3028	2.5336	0.1	219.03
489	5.7975	3.0476	0.1	-12.275
490	6.0663	2.6782	0.1	98.5
491	3.6209	1.4374	0.1	-41.424
492	4.0005	2.0253	0.1	-58.103
493	4.5954	1.5696	0.1	-27.322
494	4.5954	1.3196	0.1	16.362
495	3.9781	4.0439	0.1	206.95
496	4.6721	3.8929	0.1	195.23
497	3.5609	4.6829	0.1	37.128
498	4.406	4.401	0.1	91.165
499	5.959	1.4136	0.1	-49.431
500	5.9032	1.9625	0.1	29.954
501	5.5315	1.5632	0.1	-11.795
502	6.3787	0.93769	0.1	-28.749
503	5.6942	1.1004	0.1	53.29
504	20.394	1.4436	0.1	1.5011
505	21.83	1.5074	0.1	1.2878
506	21.115	0.74417	0.1	0.50145
507	18.956	1.3988	0.1	1.4231
508	19.677	0.6994	0.1	0.60023
509	17.515	1.3988	0.1	1.3451
510	18.236	0.6994	0.1	0.74196
511	16.074	1.3988	0.1	1.446
512	16.795	0.6994	0.1	0.71872
513	14.633	1.3988	0.1	1.6232
514	15.354	0.6994	0.1	0.77896
515	13.192	1.3988	0.1	1.2601
516	13.913	0.6994	0.1	0.82717
517	11.749	1.4495	0.1	4.9314
518	12.472	0.6994	0.1	1.4457
519	10.294	1.5267	0.1	21.747
520	11.028	0.75009	0.1	8.4554
521	8.7621	1.4927	0.1	34.312
522	9.5761	0.77658	0.1	23.686
523	7.2986	1.0534	0.1	-4.844
524	8.1446	2.2977	0.1	44.509
525	8.0552	0.71612	0.1	-0.45425
526	5.9512	0.58724	0.1	62.458
527	6.6717	0.33724	0.1	-6.0868
528	22.562	2.2652	0.1	1.5989
529	22.574	3.7647	0.1	1.6702
530	23.288	3.002	0.1	2.1997
531	23.274	1.5133	0.1	1.0698
532	22.553	0.76328	0.1	0.66372
533	7.4915	4.5872	0.1	34.182
534	6.6912	4.5035	0.1	0.81847
535	8.7592	4.8077	0.1	27.432
536	7.3592	5.2238	0.1	-10.178
537	8.1396	4.0985	0.1	43.072
538	8.0502	5.5169	0.1	3.8711
539	10.292	4.5744	0.1	15.322
540	9.5783	5.2908	0.1	16.181
541	11.744	4.5842	0.1	4.3595
542	11.024	5.2836	0.1	6.1428
543	13.192	4.6012	0.1	0.88691
544	12.472	5.3006	0.1	1.4949
545	14.633	4.6012	0.1	0.95425
546	13.913	5.3006	0.1	0.92856
547	16.074	4.6012	0.1	1.1109
548	15.354	5.3006	0.1	0.80027
549	17.515	4.6012	0.1	1.2566
550	16.795	5.3006	0.1	0.70339
551	18.961	4.5956	0.1	1.2056
552	18.236	5.3006	0.1	0.71615
553	20.411	4.5712	0.1	0.962
554	19.682	5.295	0.1	0.62198
555	21.854	4.5389	0.1	1.062
556	21.127	5.2762	0.1	0.62011
557	22.565	5.2628	0.1	0.68175
558	23.286	4.5128	0.1	1.3482
559	6.1598	4.6281	0.1	5.455
560	5.6177	4.4449	0.1	6.7033
561	6.5588	5.14	0.1	-1.2563
562	5.8088	4.9331	0.1	77.467
563	6.0167	5.4569	0.1	63.83
564	6.7372	5.7069	0.1	-7.5744
565	2.3367	1.3078	0.1	157.77
566	4.1256	0.86781	0.1	131.
567	3.2756	0.61781	0.1	63.865
568	1.4696	2.1194	0.1	242.7
569	0.76117	1.44	0.1	587.05
570	1.6112	0.68999	0.1	175.91
571	1.5803	3.6857	0.1	253.25
572	0.7084	2.9294	0.1	626.37
573	2.5768	4.7882	0.1	44.413
574	0.87188	4.5063	0.1	607.99
575	1.7219	5.2563	0.1	147.7
576	4.2549	5.032	0.1	101.84
577	4.2549	5.282	0.1	48.691
578	3.4049	5.532	0.1	80.658
579	5.1234	3.0314	0.1	-97.35
580	5.3695	3.5188	0.1	54.051
581	5.3695	2.5188	0.1	40.62
582	4.5051	2.2057	0.1	193.15
583	5.6383	2.1494	0.1	136.56
584	4.9372	3.5125	0.1	79.78
585	4.9372	2.5125	0.1	98.49
586	5.2667	5.25	0.1	167.06
587	5.2667	5.75	0.1	135.38
588	5.2667	5.5	5.e-002	-6.0046e-015
589	5.2667	4.75	0.1	67.486
590	5.2667	5.	5.e-002	-1.0562e-014
591	5.2667	4.25	0.1	123.94
592	5.2667	4.5	5.e-002	-3.5207e-014
593	5.1833	4.	0.1	305.72
594	5.2667	4.	5.e-002	-6.936e-006
595	5.1	4.25	0.1	227.11
596	5.1	4.	5.e-002	-1.7458e-014
597	5.1	4.75	0.1	162.02
598	5.1	4.5	5.e-002	-1.4656e-014
599	5.1	5.25	0.1	183.3
600	5.1	5.	5.e-002	-1.1922e-014
601	5.1	5.75	0.1	248.49
602	5.1	5.5	5.e-002	-8.2799e-015
603	5.2667	0.75	0.1	193.11
604	5.2667	0.25	0.1	151.84
605	5.2667	0.5	5.e-002	-7.5507e-015
606	5.2667	1.25	0.1	101.2
607	5.2667	1.	5.e-002	-9.4267e-015
608	5.2667	1.75	0.1	140.9
609	5.2667	1.5	5.e-002	-3.7638e-014
610	5.1833	2.	0.1	415.59
611	5.2667	2.	5.e-002	4.033e-007
612	5.1	1.75	0.1	193.13
613	5.1	2.	5.e-002	2.0863e-005
614	5.1	1.25	0.1	85.785
615	5.1	1.5	5.e-002	-3.4684e-014
616	5.1	0.75	0.1	274.47
617	5.1	1.	5.e-002	-8.5345e-015
618	5.1	0.25	0.1	174.81
619	5.1	0.5	5.e-002	-1.9628e-014
620	5.9872	6.	0.1	29.781
621	5.2667	6.	5.e-002	-1.0997e-005
622	7.4282	6.	0.1	-7.6548
623	6.7077	6.	5.e-002	-2.6306e-015
624	8.8692	6.	0.1	-5.7818
625	8.1487	6.	5.e-002	3.53e-007
626	10.31	6.	0.1	6.8782
627	9.5897	6.	5.e-002	1.2772e-006
628	11.751	6.	0.1	1.1549
629	11.031	6.	5.e-002	1.5571e-006
630	13.192	6.	0.1	1.5435
631	12.472	6.	5.e-002	9.4727e-007
632	14.633	6.	0.1	0.77698
633	13.913	6.	5.e-002	1.9084e-006
634	16.074	6.	0.1	0.39706
635	15.354	6.	5.e-002	1.9073e-006
636	17.515	6.	0.1	0.17019
637	16.795	6.	5.e-002	2.1457e-006
638	18.956	6.	0.1	0.14666
639	18.236	6.	5.e-002	2.1456e-006
640	20.397	6.	0.1	0.3
641	19.677	6.	5.e-002	2.7912e-006
642	21.838	6.	0.1	0.25753
643	21.118	6.	5.e-002	2.5649e-006
644	23.279	6.	0.1	-6.9014e-002
645	22.559	6.	5.e-002	4.2634e-006
646	24.	5.25	0.1	0.57638
647	24.	6.	5.e-002	-1.3223e-006
648	24.	3.75	0.1	1.8464
649	24.	4.5	5.e-002	3.3257e-006
650	24.	2.25	0.1	1.6396
651	24.	3.	5.e-002	2.8541e-006
652	24.	0.75	0.1	0.69232
653	24.	1.5	5.e-002	3.0767e-006
654	1.9669e-014	2.25	0.1	970.45
655	6.5564e-015	0.75	0.1	857.24
656	1.329e-014	1.5	5.e-002	-2.0221e-007
657	3.2782e-014	3.75	0.1	986.9
658	2.6581e-014	3.	5.e-002	-5.996e-015
659	4.5895e-014	5.25	0.1	895.38
660	3.9871e-014	4.5	5.e-002	-1.1918e-014
661	23.279	0.	0.1	0.30802
662	24.	0.	5.e-002	-3.9136e-007
663	21.838	0.	0.1	-0.11536
664	22.559	0.	5.e-002	4.1014e-006
665	20.397	0.	0.1	-0.4022
666	21.118	0.	5.e-002	2.9375e-006
667	18.956	0.	0.1	-8.4469e-002
668	19.677	0.	5.e-002	2.7973e-006
669	17.515	0.	0.1	0.11259
670	18.236	0.	5.e-002	2.1457e-006
671	16.074	0.	0.1	4.789e-002
672	16.795	0.	5.e-002	2.3831e-006
673	14.633	0.	0.1	-2.0638e-002
674	15.354	0.	5.e-002	1.9388e-006
675	13.192	0.	0.1	0.98799
676	13.913	0.	5.e-002	9.6182e-007
677	11.751	0.	0.1	2.3876
678	12.472	0.	5.e-002	1.3831e-006
679	10.31	0.	0.1	10.248
680	11.031	0.	5.e-002	4.7409e-007
681	8.8692	0.	0.1	0.50809
682	9.5897	0.	5.e-002	6.741e-007
683	7.4282	0.	0.1	-4.952
684	8.1487	0.	5.e-002	1.2479e-006
685	5.9872	0.	0.1	49.861
686	6.7077	0.	5.e-002	4.0622e-007
687	5.2667	0.	5.e-002	-6.3026e-015
688	4.25	1.8198e-030	0.1	140.19
689	5.1	2.1837e-030	5.e-002	-9.1277e-015
690	2.55	1.0919e-030	0.1	48.985
691	3.4	0.	5.e-002	-2.6436e-015
692	0.85	3.6396e-031	0.1	442.32
693	1.7	0.	5.e-002	-6.4958e-015
694	0.	0.	5.e-002	1.95e-007
695	0.85	6.	0.1	435.02
696	5.2451e-014	6.	5.e-002	-4.5228e-014
697	2.55	6.	0.1	3.3424
698	1.7	6.	5.e-002	-7.0964e-015
699	4.25	6.	0.1	104.3
700	3.4	6.	5.e-002	-1.1254e-014
701	5.1	6.	5.e-002	-1.6768e-006
702	2.55	6.	0.	-3.3424
703	4.25	6.	0.	-104.3
704	0.85	6.	0.	-435.02
705	5.1	5.75	0.	-248.49
706	4.5895e-014	5.25	0.	-895.38
707	2.55	1.0919e-030	0.	-48.985
708	0.85	3.6396e-031	0.	-442.32
709	4.25	1.8198e-030	0.	-140.19
710	5.1	0.25	0.	-174.81
711	6.5564e-015	0.75	0.	-857.24
712	7.4282	0.	0.	4.952
713	5.9872	0.	0.	-49.861
714	8.8692	0.	0.	-0.50809
715	10.31	0.	0.	-10.248
716	11.751	0.	0.	-2.3876
717	13.192	0.	0.	-0.98799
718	14.633	0.	0.	2.0638e-002
719	16.074	0.	0.	-4.789e-002
720	17.515	0.	0.	-0.1126
721	18.956	0.	0.	8.4469e-002
722	20.397	0.	0.	0.4022
723	21.838	0.	0.	0.11535
724	23.279	0.	0.	-0.30802
725	5.2667	0.25	0.	-151.84
726	24.	0.75	0.	-0.69232
727	3.2782e-014	3.75	0.	-986.9
728	1.9669e-014	2.25	0.	-970.45
729	24.	2.25	0.	-1.6396
730	24.	3.75	0.	-1.8464
731	24.	5.25	0.	-0.57638
732	23.279	6.	0.	6.9014e-002
733	21.838	6.	0.	-0.25753
734	20.397	6.	0.	-0.3
735	18.956	6.	0.	-0.14666
736	17.515	6.	0.	-0.17019
737	16.074	6.	0.	-0.39706
738	14.633	6.	0.	-0.77698
739	13.192	6.	0.	-1.5435
740	11.751	6.	0.	-1.1549
741	10.31	6.	0.	-6.8782
742	8.8692	6.	0.	5.7818
743	7.4282	6.	0.	7.6548
744	5.9872	6.	0.	-29.781
745	5.2667	5.75	0.	-135.38
746	5.1	1.25	0.	-85.785
747	5.1	1.75	0.	-193.13
748	5.1	0.75	0.	-274.47
749	5.1833	2.	0.	-415.59
750	5.2667	0.75	0.	-193.11
751	5.2667	1.25	0.	-101.2
752	5.2667	1.75	0.	-140.9
753	5.1	4.75	0.	-162.02
754	5.1	4.25	0.	-227.11
755	5.1	5.25	0.	-183.3
756	5.1833	4.	0.	-305.72
757	5.2667	5.25	0.	-167.06
758	5.2667	4.75	0.	-67.486
759	5.2667	4.25	0.	-123.94
