Node Number	X Location (in)	Y Location (in)	Z Location (in)	Middle Principal Stress (psi)
1	5.5181	2.4912	0.	83.339
2	6.6507	1.9623	0.	-143.69
3	4.4408	2.8198	0.	90.355
4	5.9427	4.7126	0.	-1.8405
5	3.6522	0.59176	0.	11.275
6	5.9368	0.53691	0.	15.993
7	4.0167	3.8728	0.	-81.41
8	5.8548	5.4814	0.	23.925
9	6.5111	4.2372	0.	-115.25
10	3.4944	5.1672	0.	4.9774
11	3.6384	1.6136	0.	-4.4587
12	2.6243	3.7391	0.	-331.51
13	3.5851	3.1404	0.	-178.13
14	5.6847	2.9385	0.	167.75
15	2.3437	4.9129	0.	-149.62
16	2.6902	1.1434	0.	-146.57
17	6.7353	1.0249	0.	-8.7449
18	8.0877	1.1452	0.	-26.643
19	9.295	1.2048	0.	-13.56
20	10.479	1.2166	0.	-5.1257
21	11.634	1.2008	0.	-1.497
22	12.782	1.1969	0.	-0.75444
23	13.918	1.2013	0.	-0.69506
24	15.037	1.2119	0.	-0.55873
25	16.149	1.2174	0.	-0.66915
26	17.269	1.1894	0.	-0.46553
27	18.368	1.1886	0.	-0.74891
28	19.496	1.2149	0.	-0.56167
29	20.618	1.2091	0.	-0.54912
30	21.744	1.2055	0.	-0.5739
31	22.873	1.1952	0.	-0.60686
32	1.2547	3.6164	0.	-329.57
33	1.3048	2.3986	0.	-308.41
34	1.2702	1.1999	0.	-211.76
35	22.862	2.3933	0.	-1.2518
36	22.866	3.6028	0.	-1.2319
37	22.866	4.8104	0.	-0.61767
38	21.741	4.8176	0.	-0.57443
39	20.619	4.8292	0.	-0.58607
40	19.503	4.8226	0.	-0.62732
41	18.383	4.8231	0.	-0.52168
42	17.259	4.8231	0.	-0.61561
43	16.153	4.8216	0.	-0.61903
44	15.036	4.8404	0.	-0.57941
45	13.904	4.8231	0.	-0.77378
46	12.779	4.7947	0.	-0.79764
47	11.624	4.7768	0.	-1.7449
48	10.455	4.7733	0.	-10.54
49	9.2287	4.7793	0.	-24.921
50	7.8757	4.7422	0.	-39.494
51	6.8952	5.2618	0.	-59.805
52	2.3826	2.4132	0.	-303.93
53	7.9648	3.5466	0.	-60.865
54	7.9228	2.331	0.	-114.81
55	9.1997	2.3816	0.	-26.374
56	10.426	2.4128	0.	-15.268
57	11.617	2.3961	0.	-3.4063
58	12.799	2.3706	0.	-1.1066
59	13.944	2.4044	0.	-0.81826
60	15.04	2.4396	0.	-1.1119
61	16.14	2.4342	0.	-1.1415
62	17.264	2.4228	0.	-1.0754
63	18.383	2.4487	0.	-1.179
64	19.483	2.4239	0.	-1.3209
65	20.608	2.4191	0.	-1.1942
66	21.738	2.4095	0.	-1.1873
67	21.734	3.6148	0.	-1.1763
68	20.608	3.6265	0.	-1.2802
69	19.498	3.6273	0.	-1.0634
70	18.379	3.6311	0.	-1.2134
71	17.264	3.6309	0.	-1.1728
72	16.143	3.6204	0.	-1.169
73	15.04	3.6343	0.	-0.90043
74	13.918	3.6136	0.	-1.3883
75	12.812	3.5839	0.	-0.59513
76	11.615	3.5842	0.	-4.0607
77	10.405	3.5852	0.	-17.409
78	9.1742	3.572	0.	-34.311
79	5.6457	5.0731	0.	-2.6657
80	3.9754	1.0639	0.	21.228
81	3.49	2.341	0.	-162.72
82	1.207	4.8053	0.	-217.45
83	3.6432	4.4486	0.	13.085
84	4.5344	3.4037	0.	-14.789
85	5.5876	1.0014	0.	-15.123
86	5.9137	1.2741	0.	1.543
87	5.7743	1.6868	0.	-237.88
88	5.1397	3.643	0.	66.103
89	5.0247	3.5124	0.	-8.3239
90	5.0237	3.1589	0.	-162.4
91	6.6897	2.912	0.	-144.31
92	5.361	1.4036	0.	-55.549
93	6.7305	3.6264	0.	-145.41
94	6.7305	3.6264	0.1	145.41
95	5.361	1.4036	0.1	55.549
96	6.6897	2.912	0.1	144.31
97	5.0237	3.1589	0.1	162.4
98	5.0247	3.5124	0.1	8.3239
99	5.1397	3.643	0.1	-66.103
100	5.7743	1.6868	0.1	237.88
101	5.9137	1.2741	0.1	-1.543
102	5.5876	1.0014	0.1	15.123
103	4.5344	3.4037	0.1	14.789
104	3.6432	4.4486	0.1	-13.085
105	1.207	4.8053	0.1	217.45
106	3.49	2.341	0.1	162.72
107	3.9754	1.0639	0.1	-21.228
108	5.6457	5.0731	0.1	2.6657
109	9.1742	3.572	0.1	34.311
110	10.405	3.5852	0.1	17.409
111	11.615	3.5842	0.1	4.0607
112	12.812	3.5839	0.1	0.59513
113	13.918	3.6136	0.1	1.3883
114	15.04	3.6343	0.1	0.90043
115	16.143	3.6204	0.1	1.169
116	17.264	3.6309	0.1	1.1728
117	18.379	3.6311	0.1	1.2134
118	19.498	3.6273	0.1	1.0634
119	20.608	3.6265	0.1	1.2802
120	21.734	3.6148	0.1	1.1763
121	21.738	2.4095	0.1	1.1873
122	20.608	2.4191	0.1	1.1942
123	19.483	2.4239	0.1	1.3209
124	18.383	2.4487	0.1	1.179
125	17.264	2.4228	0.1	1.0754
126	16.14	2.4342	0.1	1.1415
127	15.04	2.4396	0.1	1.1119
128	13.944	2.4044	0.1	0.81826
129	12.799	2.3706	0.1	1.1066
130	11.617	2.3961	0.1	3.4063
131	10.426	2.4128	0.1	15.268
132	9.1997	2.3816	0.1	26.374
133	7.9228	2.331	0.1	114.81
134	7.9648	3.5466	0.1	60.865
135	2.3826	2.4132	0.1	303.93
136	6.8952	5.2618	0.1	59.805
137	7.8757	4.7422	0.1	39.494
138	9.2287	4.7793	0.1	24.921
139	10.455	4.7733	0.1	10.54
140	11.624	4.7768	0.1	1.7449
141	12.779	4.7947	0.1	0.79764
142	13.904	4.8231	0.1	0.77378
143	15.036	4.8404	0.1	0.57941
144	16.153	4.8216	0.1	0.61903
145	17.259	4.8231	0.1	0.61561
146	18.383	4.8231	0.1	0.52168
147	19.503	4.8226	0.1	0.62732
148	20.619	4.8292	0.1	0.58607
149	21.741	4.8176	0.1	0.57443
150	22.866	4.8104	0.1	0.61767
151	22.866	3.6028	0.1	1.2319
152	22.862	2.3933	0.1	1.2518
153	1.2702	1.1999	0.1	211.76
154	1.3048	2.3986	0.1	308.41
155	1.2547	3.6164	0.1	329.57
156	22.873	1.1952	0.1	0.60686
157	21.744	1.2055	0.1	0.5739
158	20.618	1.2091	0.1	0.54912
159	19.496	1.2149	0.1	0.56167
160	18.368	1.1886	0.1	0.74891
161	17.269	1.1894	0.1	0.46553
162	16.149	1.2174	0.1	0.66915
163	15.037	1.2119	0.1	0.55873
164	13.918	1.2013	0.1	0.69506
165	12.782	1.1969	0.1	0.75444
166	11.634	1.2008	0.1	1.497
167	10.479	1.2166	0.1	5.1257
168	9.295	1.2048	0.1	13.56
169	8.0877	1.1452	0.1	26.643
170	6.7353	1.0249	0.1	8.7449
171	2.6902	1.1434	0.1	146.57
172	2.3437	4.9129	0.1	149.62
173	5.6847	2.9385	0.1	-167.75
174	3.5851	3.1404	0.1	178.13
175	2.6243	3.7391	0.1	331.51
176	3.6384	1.6136	0.1	4.4587
177	3.4944	5.1672	0.1	-4.9774
178	6.5111	4.2372	0.1	115.25
179	5.8548	5.4814	0.1	-23.925
180	4.0167	3.8728	0.1	81.41
181	5.9368	0.53691	0.1	-15.993
182	3.6522	0.59176	0.1	-11.275
183	5.9427	4.7126	0.1	1.8405
184	4.4408	2.8198	0.1	-90.355
185	6.6507	1.9623	0.1	143.69
186	5.5181	2.4912	0.1	-83.339
187	4.9467	5.5	0.1	181.76
188	4.9467	5.	0.1	105.15
189	4.9467	4.5	0.1	-54.46
190	4.9467	4.	0.1	905.66
191	4.78	4.	0.1	965.74
192	4.78	4.5	0.1	170.82
193	4.78	5.	0.1	197.51
194	4.78	5.5	0.1	230.15
195	4.9467	0.5	0.1	139.04
196	4.9467	1.	0.1	67.257
197	4.9467	1.5	0.1	21.207
198	4.9467	2.	0.1	282.92
199	4.78	2.	0.1	339.28
200	4.78	1.5	0.1	32.082
201	4.78	1.	0.1	117.22
202	4.78	0.5	0.1	236.76
203	4.9467	6.	0.1	129.59
204	6.0675	6.	0.1	42.762
205	7.1882	6.	0.1	4.9722
206	8.309	6.	0.1	-13.382
207	9.4298	6.	0.1	8.7113
208	10.551	6.	0.1	1.8003
209	11.671	6.	0.1	1.3433
210	12.792	6.	0.1	0.65252
211	13.913	6.	0.1	0.12911
212	15.034	6.	0.1	-7.4181e-003
213	16.155	6.	0.1	-0.17447
214	17.275	6.	0.1	-0.32519
215	18.396	6.	0.1	-0.32472
216	19.517	6.	0.1	-0.32284
217	20.638	6.	0.1	-0.37637
218	21.758	6.	0.1	-0.29665
219	22.879	6.	0.1	-0.31423
220	24.	6.	0.1	-0.79399
221	24.	4.8	0.1	0.5887
222	24.	3.6	0.1	1.3038
223	24.	2.4	0.1	1.2958
224	24.	1.2	0.1	0.59433
225	1.049e-014	1.2	0.1	979.13
226	2.0981e-014	2.4	0.1	1017.
227	3.1471e-014	3.6	0.1	1013.2
228	4.1961e-014	4.8	0.1	979.48
229	24.	0.	0.1	-0.77502
230	22.879	0.	0.1	-0.29704
231	21.758	0.	0.1	-0.30153
232	20.638	0.	0.1	-0.29082
233	19.517	0.	0.1	-0.55482
234	18.396	0.	0.1	-0.47342
235	17.275	0.	0.1	-9.1614e-002
236	16.155	0.	0.1	-0.27533
237	15.034	0.	0.1	-4.913e-002
238	13.913	0.	0.1	0.46899
239	12.792	0.	0.1	0.2885
240	11.671	0.	0.1	0.49193
241	10.551	0.	0.1	0.23467
242	9.4298	0.	0.1	3.119
243	8.309	0.	0.1	3.3199
244	7.1882	0.	0.1	-15.619
245	6.0675	0.	0.1	16.894
246	4.9467	0.	0.1	150.85
247	4.78	0.	0.1	237.85
248	3.585	2.7297e-031	0.1	23.071
249	2.39	1.8198e-031	0.1	57.154
250	1.195	9.0989e-032	0.1	49.955
251	0.	0.	0.1	686.1
252	3.937e-014	6.	0.1	688.61
253	1.195	6.	0.1	85.946
254	2.39	6.	0.1	64.785
255	3.585	6.	0.1	-0.1042
256	4.78	6.	0.1	228.23
257	3.585	6.	0.	0.1042
258	2.39	6.	0.	-64.785
259	1.195	6.	0.	-85.946
260	4.78	6.	0.	-228.23
261	3.937e-014	6.	0.	-688.61
262	1.195	9.0989e-032	0.	-49.955
263	2.39	1.8198e-031	0.	-57.154
264	3.585	2.7297e-031	0.	-23.071
265	4.78	0.	0.	-237.85
266	0.	0.	0.	-686.1
267	6.0675	0.	0.	-16.894
268	7.1882	0.	0.	15.619
269	8.309	0.	0.	-3.3199
270	9.4298	0.	0.	-3.119
271	10.551	0.	0.	-0.23467
272	11.671	0.	0.	-0.49193
273	12.792	0.	0.	-0.28851
274	13.913	0.	0.	-0.46899
275	15.034	0.	0.	4.913e-002
276	16.155	0.	0.	0.27532
277	17.275	0.	0.	9.1614e-002
278	18.396	0.	0.	0.47342
279	19.517	0.	0.	0.55482
280	20.638	0.	0.	0.29082
281	21.758	0.	0.	0.30153
282	22.879	0.	0.	0.29704
283	4.9467	0.	0.	-150.85
284	24.	0.	0.	0.77503
285	4.1961e-014	4.8	0.	-979.48
286	3.1471e-014	3.6	0.	-1013.2
287	2.0981e-014	2.4	0.	-1017.
288	1.049e-014	1.2	0.	-979.13
289	24.	1.2	0.	-0.59433
290	24.	2.4	0.	-1.2958
291	24.	3.6	0.	-1.3038
292	24.	4.8	0.	-0.5887
293	24.	6.	0.	0.794
294	22.879	6.	0.	0.31423
295	21.758	6.	0.	0.29665
296	20.638	6.	0.	0.37637
297	19.517	6.	0.	0.32284
298	18.396	6.	0.	0.32472
299	17.275	6.	0.	0.32519
300	16.155	6.	0.	0.17447
301	15.034	6.	0.	7.4181e-003
302	13.913	6.	0.	-0.12911
303	12.792	6.	0.	-0.65252
304	11.671	6.	0.	-1.3433
305	10.551	6.	0.	-1.8003
306	9.4298	6.	0.	-8.7113
307	8.309	6.	0.	13.382
308	7.1882	6.	0.	-4.9722
309	6.0675	6.	0.	-42.762
310	4.9467	6.	0.	-129.59
311	4.78	1.5	0.	-32.082
312	4.78	1.	0.	-117.22
313	4.78	0.5	0.	-236.76
314	4.78	2.	0.	-339.28
315	4.9467	0.5	0.	-139.04
316	4.9467	1.	0.	-67.257
317	4.9467	1.5	0.	-21.207
318	4.9467	2.	0.	-282.92
319	4.78	4.5	0.	-170.82
320	4.78	5.	0.	-197.51
321	4.78	5.5	0.	-230.15
322	4.78	4.	0.	-965.74
323	4.9467	5.5	0.	-181.76
324	4.9467	5.	0.	-105.15
325	4.9467	4.5	0.	54.46
326	4.9467	4.	0.	-905.66
327	6.0844	2.2267	0.	31.285
328	4.9794	2.6555	0.	87.284
329	5.6014	2.7148	0.	132.19
330	5.2709	2.825	0.	-20.707
331	5.5181	2.4912	5.e-002	-2.0541e-014
332	5.2324	2.2456	0.	-100.07
333	6.693	1.4936	0.	-69.777
334	7.2868	2.1466	0.	-129.77
335	6.2125	1.8245	0.	-207.18
336	6.6702	2.4371	0.	-144.56
337	6.6507	1.9623	5.e-002	-7.6186e-007
338	4.0129	2.9801	0.	52.484
339	4.4876	3.1118	0.	42.257
340	4.4408	2.8198	5.e-002	4.397e-006
341	4.6104	2.4099	0.	-125.43
342	6.2269	4.4749	0.	-52.298
343	6.4189	4.9872	0.	-16.403
344	5.7942	4.8929	0.	12.965
345	5.9427	4.7126	5.e-002	-1.6006e-014
346	5.4447	4.6063	0.	53.553
347	3.1712	0.86756	0.	-2.87
348	3.8138	0.82783	0.	16.486
349	3.6522	0.59176	5.e-002	-1.6994e-006
350	3.6186	0.29588	0.	-4.2969
351	4.2161	0.54588	0.	-73.216
352	6.336	0.7809	0.	8.9494
353	5.7622	0.76915	0.	2.8465e-002
354	5.9368	0.53691	5.e-002	4.5938e-007
355	6.0021	0.26846	0.	2.1208
356	5.4417	0.51846	0.	-36.645
357	3.8009	3.5066	0.	-134.69
358	3.83	4.1607	0.	-19.373
359	4.2756	3.6383	0.	5.1708
360	4.0167	3.8728	5.e-002	9.0158e-007
361	4.3984	4.1864	0.	-84.181
362	6.375	5.3716	0.	8.5416
363	5.7502	5.2772	0.	10.269
364	5.8548	5.4814	5.e-002	-7.7631e-015
365	5.9611	5.7407	0.	-9.4123
366	5.4007	5.4907	0.	-39.784
367	7.1934	4.4897	0.	-77.794
368	6.6208	3.9318	0.	-124.65
369	6.5111	4.2372	5.e-002	1.3311e-007
370	5.7289	4.1186	0.	-470.33
371	2.919	5.04	0.	-26.663
372	3.5688	4.8079	0.	9.1119
373	3.4944	5.1672	5.e-002	2.7209e-006
374	3.5397	5.5836	0.	2.3749
375	4.1372	5.3336	0.	-76.052
376	3.1643	1.3785	0.	-47.223
377	3.8069	1.3388	0.	15.715
378	3.5642	1.9773	0.	-64.842
379	3.6384	1.6136	5.e-002	7.2555e-006
380	4.2092	1.5568	0.	-8.4946
381	3.1047	3.4397	0.	-253.92
382	2.484	4.326	0.	-241.44
383	1.9395	3.6777	0.	-330.58
384	2.5034	3.0761	0.	-318.74
385	3.1337	4.0938	0.	-135.
386	2.6243	3.7391	5.e-002	5.7179e-007
387	3.5375	2.7407	0.	-169.52
388	3.5851	3.1404	5.e-002	9.35e-007
389	5.4122	3.2907	0.	117.43
390	5.3542	3.0487	0.	4.2296
391	6.1872	2.9252	0.	100.05
392	5.6847	2.9385	5.e-002	-9.0019e-008
393	1.7753	4.8591	0.	-183.52
394	2.3437	4.9129	5.e-002	5.1047e-007
395	2.3669	5.4564	0.	-106.01
396	1.9802	1.1716	0.	-179.39
397	2.5364	1.7783	0.	-229.48
398	2.6902	1.1434	5.e-002	-7.007e-007
399	2.5401	0.57168	0.	-85.126
400	7.4115	1.085	0.	-14.347
401	6.3245	1.1495	0.	-0.44882
402	6.7353	1.0249	5.e-002	5.8811e-006
403	6.9618	0.51244	0.	14.836
404	8.6914	1.175	0.	-20.056
405	8.0052	1.7381	0.	-70.722
406	8.0877	1.1452	5.e-002	1.3776e-006
407	8.1984	0.5726	0.	-14.484
408	9.8871	1.2107	0.	-9.361
409	9.2474	1.7932	0.	-20.003
410	9.295	1.2048	5.e-002	8.4814e-007
411	9.3624	0.60242	0.	-4.6541
412	11.056	1.2087	0.	-3.0587
413	10.452	1.8147	0.	-10.317
414	10.479	1.2166	5.e-002	4.7902e-007
415	10.515	0.60829	0.	-0.96058
416	12.208	1.1988	0.	-1.0387
417	11.625	1.7984	0.	-2.3868
418	11.634	1.2008	5.e-002	9.7555e-007
419	11.653	0.60038	0.	-0.90656
420	13.35	1.1991	0.	-0.72461
421	12.791	1.7838	0.	-0.93147
422	12.782	1.1969	5.e-002	9.6476e-007
423	12.787	0.59844	0.	-0.52341
424	14.478	1.2066	0.	-0.62644
425	13.931	1.8029	0.	-0.75345
426	13.918	1.2013	5.e-002	1.4256e-006
427	13.916	0.60067	0.	-0.58252
428	15.593	1.2147	0.	-0.61396
429	15.039	1.8258	0.	-0.83167
430	15.037	1.2119	5.e-002	1.678e-006
431	15.036	0.60595	0.	-0.25275
432	16.709	1.2034	0.	-0.56731
433	16.145	1.8258	0.	-0.90303
434	16.149	1.2174	5.e-002	1.5907e-006
435	16.152	0.6087	0.	-0.19399
436	17.819	1.189	0.	-0.60724
437	17.267	1.8061	0.	-0.76724
438	17.269	1.1894	5.e-002	2.1993e-006
439	17.272	0.59469	0.	-0.18584
440	18.932	1.2018	0.	-0.65539
441	18.375	1.8186	0.	-0.96106
442	18.368	1.1886	5.e-002	2.3038e-006
443	18.382	0.59428	0.	-0.13783
444	20.057	1.212	0.	-0.55564
445	19.49	1.8194	0.	-0.9392
446	19.496	1.2149	5.e-002	2.4118e-006
447	19.507	0.60747	0.	-2.4595e-003
448	21.181	1.2073	0.	-0.56173
449	20.613	1.8141	0.	-0.86904
450	20.618	1.2091	5.e-002	2.5876e-006
451	20.628	0.60455	0.	-0.12617
452	22.308	1.2003	0.	-0.59141
453	21.741	1.8075	0.	-0.87821
454	21.744	1.2055	5.e-002	3.0387e-006
455	21.751	0.60275	0.	-0.13483
456	22.868	1.7942	0.	-0.92647
457	22.873	1.1952	5.e-002	3.107e-006
458	22.876	0.59758	0.	-0.15253
459	23.436	1.1976	0.	-0.60765
460	1.2798	3.0075	0.	-319.77
461	1.2308	4.2109	0.	-275.23
462	1.2547	3.6164	5.e-002	-2.5839e-015
463	0.62736	3.6082	0.	-671.
464	1.2875	1.7992	0.	-262.13
465	1.8437	2.4059	0.	-306.03
466	1.3048	2.3986	5.e-002	-2.9677e-015
467	0.65241	2.3993	0.	-662.23
468	1.2702	1.1999	5.e-002	1.9029e-006
469	1.2326	0.59994	0.	-134.6
470	0.63512	1.1999	0.	-597.16
471	22.864	2.9981	0.	-1.2388
472	22.3	2.4014	0.	-1.2218
473	22.862	2.3933	5.e-002	2.8667e-006
474	23.431	2.3966	0.	-1.2813
475	22.866	4.2066	0.	-0.92194
476	22.3	3.6088	0.	-1.2065
477	22.866	3.6028	5.e-002	2.7516e-006
478	23.433	3.6014	0.	-1.2761
479	22.303	4.814	0.	-0.59692
480	22.866	4.8104	5.e-002	3.1564e-006
481	23.433	4.8052	0.	-0.6096
482	22.873	5.4052	0.	-0.14986
483	21.18	4.8234	0.	-0.58046
484	21.737	4.2162	0.	-0.87276
485	21.741	4.8176	5.e-002	2.8788e-006
486	21.75	5.4088	0.	-0.13697
487	20.061	4.8259	0.	-0.60681
488	20.614	4.2278	0.	-0.9301
489	20.619	4.8292	5.e-002	2.7912e-006
490	20.628	5.4146	0.	-0.1032
491	18.943	4.8228	0.	-0.57456
492	19.5	4.225	0.	-0.84185
493	19.503	4.8226	5.e-002	2.3945e-006
494	19.51	5.4113	0.	-0.15094
495	17.821	4.8231	0.	-0.56871
496	18.381	4.2271	0.	-0.86501
497	18.383	4.8231	5.e-002	2.2621e-006
498	18.389	5.4115	0.	-9.7084e-002
499	16.706	4.8224	0.	-0.61726
500	17.261	4.227	0.	-0.89262
501	17.259	4.8231	5.e-002	2.0439e-006
502	17.267	5.4116	0.	-0.14387
503	15.594	4.831	0.	-0.59917
504	16.148	4.221	0.	-0.89028
505	16.153	4.8216	5.e-002	1.8426e-006
506	16.154	5.4108	0.	-0.21969
507	14.47	4.8317	0.	-0.67646
508	15.038	4.2373	0.	-0.73812
509	15.036	4.8404	5.e-002	1.7179e-006
510	15.035	5.4202	0.	-0.2817
511	13.342	4.8089	0.	-0.78196
512	13.911	4.2183	0.	-1.0809
513	13.904	4.8231	5.e-002	1.2149e-006
514	13.908	5.4115	0.	-0.45354
515	12.202	4.7858	0.	-0.72145
516	12.795	4.1893	0.	-0.69765
517	12.779	4.7947	5.e-002	1.1977e-006
518	12.786	5.3974	0.	-0.72504
519	11.04	4.7751	0.	-6.1062
520	11.62	4.1805	0.	-3.0253
521	11.624	4.7768	5.e-002	1.4603e-006
522	11.648	5.3884	0.	-0.94161
523	9.8416	4.7763	0.	-17.755
524	10.43	4.1793	0.	-14.084
525	10.455	4.7733	5.e-002	9.8527e-007
526	10.503	5.3867	0.	-5.7671
527	8.5522	4.7608	0.	-31.661
528	9.2015	4.1757	0.	-29.669
529	9.2287	4.7793	5.e-002	1.0673e-006
530	9.3292	5.3897	0.	-16.885
531	7.3854	5.002	0.	-49.519
532	7.9203	4.1444	0.	-50.247
533	7.8757	4.7422	5.e-002	5.7646e-006
534	8.0924	5.3711	0.	-1.7683
535	6.8952	5.2618	5.e-002	2.3741e-007
536	7.0417	5.6309	0.	-18.636
537	2.9363	2.3771	0.	-234.05
538	2.3826	2.4132	5.e-002	4.8422e-008
539	7.9438	2.9388	0.	-87.466
540	8.5695	3.5593	0.	-47.438
541	7.3476	3.5865	0.	-103.48
542	7.9648	3.5466	5.e-002	-2.9439e-007
543	8.5612	2.3563	0.	-70.611
544	7.3063	2.6215	0.	-129.38
545	7.9228	2.331	5.e-002	-3.8146e-007
546	9.8126	2.3972	0.	-20.818
547	9.187	2.9768	0.	-30.36
548	9.1997	2.3816	5.e-002	-1.4061e-015
549	11.021	2.4044	0.	-9.3228
550	10.415	2.999	0.	-16.38
551	10.426	2.4128	5.e-002	5.9413e-007
552	12.208	2.3834	0.	-1.1444
553	11.616	2.9901	0.	-3.8075
554	11.617	2.3961	5.e-002	9.4911e-007
555	13.372	2.3875	0.	-0.95863
556	12.805	2.9772	0.	-0.82949
557	12.799	2.3706	5.e-002	1.1699e-006
558	14.492	2.422	0.	-0.96489
559	13.931	3.009	0.	-1.0965
560	13.944	2.4044	5.e-002	1.1941e-006
561	15.59	2.4369	0.	-1.1267
562	15.04	3.0369	0.	-1.0045
563	15.04	2.4396	5.e-002	1.4299e-006
564	16.702	2.4285	0.	-1.1085
565	16.142	3.0273	0.	-1.1527
566	16.14	2.4342	5.e-002	1.843e-006
567	17.823	2.4357	0.	-1.1274
568	17.264	3.0268	0.	-1.1199
569	17.264	2.4228	5.e-002	1.5873e-006
570	18.933	2.4363	0.	-1.2504
571	18.381	3.0399	0.	-1.1929
572	18.383	2.4487	5.e-002	1.9565e-006
573	20.046	2.4215	0.	-1.2579
574	19.491	3.0256	0.	-1.1887
575	19.483	2.4239	5.e-002	2.0407e-006
576	21.173	2.4143	0.	-1.1915
577	20.608	3.0228	0.	-1.234
578	20.608	2.4191	5.e-002	2.3311e-006
579	21.736	3.0122	0.	-1.1787
580	21.738	2.4095	5.e-002	2.6327e-006
581	21.171	3.6206	0.	-1.229
582	21.734	3.6148	5.e-002	2.6002e-006
583	20.053	3.6269	0.	-1.1721
584	20.608	3.6265	5.e-002	2.4783e-006
585	18.938	3.6292	0.	-1.1387
586	19.498	3.6273	5.e-002	2.3033e-006
587	17.821	3.631	0.	-1.1933
588	18.379	3.6311	5.e-002	1.9614e-006
589	16.703	3.6256	0.	-1.1708
590	17.264	3.6309	5.e-002	1.6243e-006
591	15.591	3.6273	0.	-1.0349
592	16.143	3.6204	5.e-002	1.4923e-006
593	14.479	3.6239	0.	-1.1435
594	15.04	3.6343	5.e-002	1.4339e-006
595	13.365	3.5987	0.	-0.98947
596	13.918	3.6136	5.e-002	1.0757e-006
597	12.214	3.584	0.	-1.1406
598	12.812	3.5839	5.e-002	9.6803e-007
599	11.01	3.5847	0.	-10.716
600	11.615	3.5842	5.e-002	9.9861e-007
601	9.7896	3.5786	0.	-25.849
602	10.405	3.5852	5.e-002	1.9488e-007
603	9.1742	3.572	5.e-002	7.6816e-007
604	5.6457	5.0731	5.e-002	2.4686e-006
605	5.2962	5.0366	0.	-56.825
606	3.9754	1.0639	5.e-002	7.2398e-008
607	4.3777	1.0319	0.	-47.812
608	3.49	2.341	5.e-002	1.5188e-005
609	4.135	2.1705	0.	-191.68
610	1.207	4.8053	5.e-002	2.9435e-006
611	1.201	5.4026	0.	-155.25
612	0.60348	4.8026	0.	-600.52
613	3.6432	4.4486	5.e-002	-5.4756e-015
614	4.2116	4.7243	0.	-96.721
615	4.7791	3.2813	0.	-88.722
616	4.5344	3.4037	5.e-002	9.6928e-006
617	4.6572	3.7019	0.	-375.9
618	5.7507	1.1377	0.	-6.3425
619	5.4743	1.2025	0.	-29.808
620	5.5876	1.0014	5.e-002	1.0932e-006
621	5.2671	1.0007	0.	-25.289
622	5.844	1.4804	0.	-81.778
623	5.9137	1.2741	5.e-002	1.8152e-007
624	5.5677	1.5452	0.	-113.25
625	5.7743	1.6868	5.e-002	7.6237e-006
626	5.3605	1.8434	0.	-163.81
627	5.0822	3.5777	0.	27.663
628	5.9351	3.6347	0.	17.257
629	5.1397	3.643	5.e-002	-1.7208e-014
630	5.0432	3.8215	0.	-420.36
631	5.0242	3.3357	0.	-84.746
632	5.0247	3.5124	5.e-002	-8.2767e-015
633	4.9024	3.7562	0.	-399.07
634	5.0237	3.1589	5.e-002	4.508e-007
635	6.7101	3.2692	0.	-145.15
636	6.6897	2.912	5.e-002	-7.7154e-007
637	5.361	1.4036	5.e-002	1.9476e-007
638	5.1539	1.4518	0.	-8.4358
639	6.7305	3.6264	5.e-002	-1.0307e-007
640	6.7101	3.2692	0.1	145.15
641	5.9351	3.6347	0.1	-17.257
642	7.3476	3.5865	0.1	103.48
643	6.6208	3.9318	0.1	124.65
644	5.5677	1.5452	0.1	113.25
645	5.4743	1.2025	0.1	29.808
646	5.1539	1.4518	0.1	8.4358
647	7.3063	2.6215	0.1	129.38
648	6.1872	2.9252	0.1	-100.05
649	6.6702	2.4371	0.1	144.56
650	5.0242	3.3357	0.1	84.746
651	4.7791	3.2813	0.1	88.722
652	5.3542	3.0487	0.1	-4.2296
653	5.2709	2.825	0.1	20.707
654	5.0822	3.5777	0.1	-27.663
655	4.9024	3.7562	0.1	399.07
656	5.4122	3.2907	0.1	-117.43
657	5.0432	3.8215	0.1	420.36
658	5.844	1.4804	0.1	81.778
659	6.2125	1.8245	0.1	207.18
660	5.3605	1.8434	0.1	163.81
661	5.7507	1.1377	0.1	6.3425
662	6.3245	1.1495	0.1	0.44882
663	5.7622	0.76915	0.1	-2.8465e-002
664	5.2671	1.0007	0.1	25.289
665	4.2756	3.6383	0.1	-5.1708
666	4.4876	3.1118	0.1	-42.257
667	4.6572	3.7019	0.1	375.9
668	3.1337	4.0938	0.1	135.
669	3.5688	4.8079	0.1	-9.1119
670	3.83	4.1607	0.1	19.373
671	4.2116	4.7243	0.1	96.721
672	1.2308	4.2109	0.1	275.23
673	1.7753	4.8591	0.1	183.52
674	0.60348	4.8026	0.1	600.52
675	1.201	5.4026	0.1	155.25
676	2.9363	2.3771	0.1	234.05
677	3.5375	2.7407	0.1	169.52
678	3.5642	1.9773	0.1	64.842
679	4.135	2.1705	0.1	191.68
680	3.8069	1.3388	0.1	-15.715
681	3.8138	0.82783	0.1	-16.486
682	4.3777	1.0319	0.1	47.812
683	5.7502	5.2772	0.1	-10.269
684	5.7942	4.8929	0.1	-12.965
685	5.2962	5.0366	0.1	56.825
686	9.7896	3.5786	0.1	25.849
687	9.187	2.9768	0.1	30.36
688	8.5695	3.5593	0.1	47.438
689	9.2015	4.1757	0.1	29.669
690	11.01	3.5847	0.1	10.716
691	10.415	2.999	0.1	16.38
692	10.43	4.1793	0.1	14.084
693	12.214	3.584	0.1	1.1406
694	11.616	2.9901	0.1	3.8075
695	11.62	4.1805	0.1	3.0253
696	13.365	3.5987	0.1	0.98947
697	12.805	2.9772	0.1	0.82949
698	12.795	4.1893	0.1	0.69765
699	14.479	3.6239	0.1	1.1435
700	13.931	3.009	0.1	1.0965
701	13.911	4.2183	0.1	1.0809
702	15.591	3.6273	0.1	1.0349
703	15.04	3.0369	0.1	1.0045
704	15.038	4.2373	0.1	0.73812
705	16.703	3.6256	0.1	1.1708
706	16.142	3.0273	0.1	1.1527
707	16.148	4.221	0.1	0.89028
708	17.821	3.631	0.1	1.1933
709	17.264	3.0268	0.1	1.1199
710	17.261	4.227	0.1	0.89262
711	18.938	3.6292	0.1	1.1387
712	18.381	3.0399	0.1	1.1929
713	18.381	4.2271	0.1	0.86502
714	20.053	3.6269	0.1	1.1721
715	19.491	3.0256	0.1	1.1887
716	19.5	4.225	0.1	0.84185
717	21.171	3.6206	0.1	1.229
718	20.608	3.0228	0.1	1.234
719	20.614	4.2278	0.1	0.9301
720	21.736	3.0122	0.1	1.1787
721	21.737	4.2162	0.1	0.87276
722	22.3	3.6088	0.1	1.2065
723	21.173	2.4143	0.1	1.1915
724	22.3	2.4014	0.1	1.2218
725	21.741	1.8075	0.1	0.87821
726	20.046	2.4215	0.1	1.2579
727	20.613	1.8141	0.1	0.86904
728	18.933	2.4363	0.1	1.2504
729	19.49	1.8194	0.1	0.9392
730	17.823	2.4357	0.1	1.1274
731	18.375	1.8186	0.1	0.96106
732	16.702	2.4285	0.1	1.1085
733	17.267	1.8061	0.1	0.76724
734	15.59	2.4369	0.1	1.1267
735	16.145	1.8258	0.1	0.90303
736	14.492	2.422	0.1	0.96489
737	15.039	1.8258	0.1	0.83167
738	13.372	2.3875	0.1	0.95863
739	13.931	1.8029	0.1	0.75345
740	12.208	2.3834	0.1	1.1444
741	12.791	1.7838	0.1	0.93147
742	11.021	2.4044	0.1	9.3228
743	11.625	1.7984	0.1	2.3868
744	9.8126	2.3972	0.1	20.818
745	10.452	1.8147	0.1	10.317
746	8.5612	2.3563	0.1	70.611
747	9.2474	1.7932	0.1	20.003
748	7.9438	2.9388	0.1	87.466
749	8.0052	1.7381	0.1	70.722
750	7.2868	2.1466	0.1	129.77
751	7.9203	4.1444	0.1	50.247
752	1.8437	2.4059	0.1	306.03
753	2.5364	1.7783	0.1	229.48
754	2.5034	3.0761	0.1	318.74
755	7.3854	5.002	0.1	49.519
756	6.375	5.3716	0.1	-8.5416
757	6.4189	4.9872	0.1	16.403
758	7.0417	5.6309	0.1	18.636
759	8.5522	4.7608	0.1	31.661
760	7.1934	4.4897	0.1	77.794
761	8.0924	5.3711	0.1	1.7683
762	9.8416	4.7763	0.1	17.755
763	9.3292	5.3897	0.1	16.886
764	11.04	4.7751	0.1	6.1062
765	10.503	5.3867	0.1	5.7671
766	12.202	4.7858	0.1	0.72145
767	11.648	5.3884	0.1	0.94161
768	13.342	4.8089	0.1	0.78196
769	12.786	5.3974	0.1	0.72504
770	14.47	4.8317	0.1	0.67646
771	13.908	5.4115	0.1	0.45354
772	15.594	4.831	0.1	0.59917
773	15.035	5.4202	0.1	0.2817
774	16.706	4.8224	0.1	0.61726
775	16.154	5.4108	0.1	0.21969
776	17.821	4.8231	0.1	0.56871
777	17.267	5.4116	0.1	0.14387
778	18.943	4.8228	0.1	0.57456
779	18.389	5.4115	0.1	9.7084e-002
780	20.061	4.8259	0.1	0.60681
781	19.51	5.4113	0.1	0.15094
782	21.18	4.8234	0.1	0.58046
783	20.628	5.4146	0.1	0.1032
784	22.303	4.814	0.1	0.59692
785	21.75	5.4088	0.1	0.13697
786	22.866	4.2066	0.1	0.92194
787	22.873	5.4052	0.1	0.14986
788	23.433	4.8052	0.1	0.6096
789	22.864	2.9981	0.1	1.2388
790	23.433	3.6014	0.1	1.2761
791	22.868	1.7942	0.1	0.92647
792	23.431	2.3966	0.1	1.2813
793	1.2875	1.7992	0.1	262.13
794	1.9802	1.1716	0.1	179.39
795	0.63512	1.1999	0.1	597.16
796	1.2326	0.59994	0.1	134.6
797	1.2798	3.0075	0.1	319.77
798	0.65241	2.3993	0.1	662.23
799	1.9395	3.6777	0.1	330.58
800	0.62736	3.6082	0.1	671.
801	22.308	1.2003	0.1	0.59141
802	23.436	1.1976	0.1	0.60765
803	22.876	0.59758	0.1	0.15253
804	21.181	1.2073	0.1	0.56173
805	21.751	0.60275	0.1	0.13483
806	20.057	1.212	0.1	0.55564
807	20.628	0.60455	0.1	0.12617
808	18.932	1.2018	0.1	0.65539
809	19.507	0.60747	0.1	2.4597e-003
810	17.819	1.189	0.1	0.60724
811	18.382	0.59428	0.1	0.13783
812	16.709	1.2034	0.1	0.56731
813	17.272	0.59469	0.1	0.18584
814	15.593	1.2147	0.1	0.61396
815	16.152	0.6087	0.1	0.19398
816	14.478	1.2066	0.1	0.62644
817	15.036	0.60595	0.1	0.25275
818	13.35	1.1991	0.1	0.72461
819	13.916	0.60067	0.1	0.58252
820	12.208	1.1988	0.1	1.0387
821	12.787	0.59844	0.1	0.52341
822	11.056	1.2087	0.1	3.0587
823	11.653	0.60038	0.1	0.90656
824	9.8871	1.2107	0.1	9.361
825	10.515	0.60829	0.1	0.96058
826	8.6914	1.175	0.1	20.056
827	9.3624	0.60242	0.1	4.6541
828	7.4115	1.085	0.1	14.347
829	8.1984	0.5726	0.1	14.484
830	6.336	0.7809	0.1	-8.9494
831	6.693	1.4936	0.1	69.777
832	6.9618	0.51244	0.1	-14.836
833	3.1643	1.3785	0.1	47.223
834	3.1712	0.86756	0.1	2.87
835	2.5401	0.57168	0.1	85.126
836	2.484	4.326	0.1	241.44
837	2.919	5.04	0.1	26.663
838	2.3669	5.4564	0.1	106.01
839	5.6014	2.7148	0.1	-132.19
840	3.1047	3.4397	0.1	253.92
841	3.8009	3.5066	0.1	134.69
842	4.0129	2.9801	0.1	-52.484
843	4.2092	1.5568	0.1	8.4946
844	4.1372	5.3336	0.1	76.052
845	3.5397	5.5836	0.1	-2.3749
846	6.2269	4.4749	0.1	52.298
847	5.7289	4.1186	0.1	470.33
848	5.4007	5.4907	0.1	39.784
849	5.9611	5.7407	0.1	9.4123
850	4.3984	4.1864	0.1	84.181
851	5.4417	0.51846	0.1	36.645
852	6.0021	0.26846	0.1	-2.1208
853	4.2161	0.54588	0.1	73.216
854	3.6186	0.29588	0.1	4.2969
855	5.4447	4.6063	0.1	-53.553
856	4.9794	2.6555	0.1	-87.284
857	4.6104	2.4099	0.1	125.43
858	6.0844	2.2267	0.1	-31.285
859	5.2324	2.2456	0.1	100.07
860	4.9467	5.25	0.1	99.276
861	4.9467	5.75	0.1	167.9
862	4.9467	5.5	5.e-002	-4.7136e-015
863	4.9467	4.75	0.1	21.268
864	4.9467	5.	5.e-002	-2.7611e-014
865	4.9467	4.25	0.1	429.3
866	4.9467	4.5	5.e-002	-7.5046e-014
867	4.8633	4.	0.1	984.16
868	4.9467	4.	5.e-002	2.5316e-006
869	4.78	4.25	0.1	573.81
870	4.78	4.	5.e-002	-8.5615e-014
871	4.78	4.75	0.1	174.96
872	4.78	4.5	5.e-002	-5.2099e-006
873	4.78	5.25	0.1	199.37
874	4.78	5.	5.e-002	-1.9072e-014
875	4.78	5.75	0.1	247.14
876	4.78	5.5	5.e-002	-1.0621e-014
877	4.9467	0.75	0.1	103.88
878	4.9467	0.25	0.1	153.25
879	4.9467	0.5	5.e-002	-6.0686e-015
880	4.9467	1.25	0.1	34.915
881	4.9467	1.	5.e-002	-1.3671e-014
882	4.9467	1.75	0.1	174.64
883	4.9467	1.5	5.e-002	-6.3793e-014
884	4.8633	2.	0.1	371.76
885	4.9467	2.	5.e-002	1.7264e-005
886	4.78	1.75	0.1	186.72
887	4.78	2.	5.e-002	4.1466e-006
888	4.78	1.25	0.1	57.848
889	4.78	1.5	5.e-002	1.9072e-006
890	4.78	0.75	0.1	133.23
891	4.78	1.	5.e-002	-3.0964e-014
892	4.78	0.25	0.1	257.24
893	4.78	0.5	5.e-002	-9.9149e-015
894	5.5071	6.	0.1	74.097
895	4.9467	6.	5.e-002	-7.3095e-015
896	6.6278	6.	0.1	24.317
897	6.0675	6.	5.e-002	-2.1103e-015
898	7.7486	6.	0.1	-4.4602
899	7.1882	6.	5.e-002	-4.475e-008
900	8.8694	6.	0.1	-6.7651
901	8.309	6.	5.e-002	2.0524e-006
902	9.9902	6.	0.1	4.8583
903	9.4298	6.	5.e-002	4.4473e-007
904	11.111	6.	0.1	1.4325
905	10.551	6.	5.e-002	4.0855e-007
906	12.232	6.	0.1	0.99673
907	11.671	6.	5.e-002	1.4305e-006
908	13.353	6.	0.1	0.38992
909	12.792	6.	5.e-002	1.9049e-006
910	14.473	6.	0.1	5.9851e-002
911	13.913	6.	5.e-002	1.4308e-006
912	15.594	6.	0.1	-9.1065e-002
913	15.034	6.	5.e-002	1.9068e-006
914	16.715	6.	0.1	-0.25001
915	16.155	6.	5.e-002	1.9093e-006
916	17.836	6.	0.1	-0.3248
917	17.275	6.	5.e-002	2.6197e-006
918	18.956	6.	0.1	-0.32357
919	18.396	6.	5.e-002	2.5852e-006
920	20.077	6.	0.1	-0.34916
921	19.517	6.	5.e-002	2.5012e-006
922	21.198	6.	0.1	-0.33575
923	20.638	6.	5.e-002	2.9007e-006
924	22.319	6.	0.1	-0.30158
925	21.758	6.	5.e-002	2.8969e-006
926	23.44	6.	0.1	-0.3465
927	22.879	6.	5.e-002	4.0686e-006
928	24.	5.4	0.1	8.9896e-002
929	24.	6.	5.e-002	7.6891e-006
930	24.	4.2	0.1	0.9445
931	24.	4.8	5.e-002	3.2225e-006
932	24.	3.	0.1	1.2982
933	24.	3.6	5.e-002	2.6597e-006
934	24.	1.8	0.1	0.94312
935	24.	2.4	5.e-002	2.6207e-006
936	24.	0.6	0.1	9.1317e-002
937	24.	1.2	5.e-002	3.1708e-006
938	1.5735e-014	1.8	0.1	995.96
939	5.2451e-015	0.6	0.1	831.89
940	1.0632e-014	1.2	5.e-002	-1.8782e-007
941	2.6226e-014	3.	0.1	1013.8
942	2.1264e-014	2.4	5.e-002	-7.5935e-008
943	3.6716e-014	4.2	0.1	994.65
944	3.1897e-014	3.6	5.e-002	-9.009e-008
945	4.7206e-014	5.4	0.1	833.8
946	4.2529e-014	4.8	5.e-002	-1.0159e-007
947	23.44	0.	0.1	-0.33223
948	24.	0.	5.e-002	7.6594e-006
949	22.319	0.	0.1	-0.29497
950	22.879	0.	5.e-002	4.0265e-006
951	21.198	0.	0.1	-0.29541
952	21.758	0.	5.e-002	2.8764e-006
953	20.077	0.	0.1	-0.42252
954	20.638	0.	5.e-002	2.8567e-006
955	18.956	0.	0.1	-0.51404
956	19.517	0.	5.e-002	2.7e-006
957	17.836	0.	0.1	-0.28252
958	18.396	0.	5.e-002	2.6218e-006
959	16.715	0.	0.1	-0.18317
960	17.275	0.	5.e-002	2.1454e-006
961	15.594	0.	0.1	-0.16218
962	16.155	0.	5.e-002	1.8807e-006
963	14.473	0.	0.1	0.20992
964	15.034	0.	5.e-002	1.4301e-006
965	13.353	0.	0.1	0.37872
966	13.913	0.	5.e-002	1.9072e-006
967	12.232	0.	0.1	0.3901
968	12.792	0.	5.e-002	1.4566e-006
969	11.111	0.	0.1	0.36005
970	11.671	0.	5.e-002	1.855e-006
971	9.9902	0.	0.1	1.6753
972	10.551	0.	5.e-002	9.5367e-007
973	8.8694	0.	0.1	0.93105
974	9.4298	0.	5.e-002	-2.0257e-007
975	7.7486	0.	0.1	-8.1258
976	8.309	0.	5.e-002	1.4421e-005
977	6.6278	0.	0.1	0.70018
978	7.1882	0.	5.e-002	-3.4458e-015
979	5.5071	0.	0.1	66.57
980	6.0675	0.	5.e-002	5.4731e-008
981	4.9467	0.	5.e-002	-6.5299e-015
982	4.1825	3.1846e-031	0.1	93.426
983	4.78	3.6396e-031	5.e-002	-1.2189e-014
984	2.9875	2.2747e-031	0.1	39.293
985	3.585	0.	5.e-002	-5.5207e-015
986	1.7925	1.3648e-031	0.1	36.463
987	2.39	0.	5.e-002	6.7414e-008
988	0.5975	4.5494e-032	0.1	371.62
989	1.195	0.	5.e-002	3.001e-005
990	0.	0.	5.e-002	-2.2619e-013
991	0.5975	6.	0.1	388.92
992	5.2451e-014	6.	5.e-002	-1.1123e-013
993	1.7925	6.	0.1	74.948
994	1.195	6.	5.e-002	-5.5731e-015
995	2.9875	6.	0.1	13.634
996	2.39	6.	5.e-002	-3.603e-015
997	4.1825	6.	0.1	87.671
998	3.585	6.	5.e-002	-2.1454e-015
999	4.78	6.	5.e-002	-9.5161e-007
1000	2.9875	6.	0.	-13.634
1001	4.1825	6.	0.	-87.671
1002	1.7925	6.	0.	-74.948
1003	0.5975	6.	0.	-388.92
1004	4.78	5.75	0.	-247.14
1005	4.7206e-014	5.4	0.	-833.8
1006	1.7925	1.3648e-031	0.	-36.463
1007	0.5975	4.5494e-032	0.	-371.62
1008	2.9875	2.2747e-031	0.	-39.293
1009	4.1825	3.1846e-031	0.	-93.426
1010	4.78	0.25	0.	-257.24
1011	5.2451e-015	0.6	0.	-831.89
1012	6.6278	0.	0.	-0.70018
1013	5.5071	0.	0.	-66.57
1014	7.7486	0.	0.	8.1258
1015	8.8694	0.	0.	-0.93105
1016	9.9902	0.	0.	-1.6753
1017	11.111	0.	0.	-0.36005
1018	12.232	0.	0.	-0.3901
1019	13.353	0.	0.	-0.37872
1020	14.473	0.	0.	-0.20992
1021	15.594	0.	0.	0.16218
1022	16.715	0.	0.	0.18317
1023	17.836	0.	0.	0.28252
1024	18.956	0.	0.	0.51404
1025	20.077	0.	0.	0.42252
1026	21.198	0.	0.	0.29541
1027	22.319	0.	0.	0.29497
1028	23.44	0.	0.	0.33223
1029	4.9467	0.25	0.	-153.25
1030	24.	0.6	0.	-9.1317e-002
1031	3.6716e-014	4.2	0.	-994.65
1032	2.6226e-014	3.	0.	-1013.8
1033	1.5735e-014	1.8	0.	-995.96
1034	24.	1.8	0.	-0.94312
1035	24.	3.	0.	-1.2982
1036	24.	4.2	0.	-0.9445
1037	24.	5.4	0.	-8.9896e-002
1038	23.44	6.	0.	0.3465
1039	22.319	6.	0.	0.30158
1040	21.198	6.	0.	0.33575
1041	20.077	6.	0.	0.34916
1042	18.956	6.	0.	0.32357
1043	17.836	6.	0.	0.3248
1044	16.715	6.	0.	0.25001
1045	15.594	6.	0.	9.1065e-002
1046	14.473	6.	0.	-5.9851e-002
1047	13.353	6.	0.	-0.38992
1048	12.232	6.	0.	-0.99673
1049	11.111	6.	0.	-1.4325
1050	9.9902	6.	0.	-4.8583
1051	8.8694	6.	0.	6.7651
1052	7.7486	6.	0.	4.4602
1053	6.6278	6.	0.	-24.317
1054	5.5071	6.	0.	-74.097
1055	4.9467	5.75	0.	-167.9
1056	4.78	1.25	0.	-57.848
1057	4.78	1.75	0.	-186.72
1058	4.78	0.75	0.	-133.23
1059	4.8633	2.	0.	-371.76
1060	4.9467	0.75	0.	-103.88
1061	4.9467	1.25	0.	-34.915
1062	4.9467	1.75	0.	-174.64
1063	4.78	4.75	0.	-174.96
1064	4.78	4.25	0.	-573.81
1065	4.78	5.25	0.	-199.37
1066	4.8633	4.	0.	-984.16
1067	4.9467	5.25	0.	-99.276
1068	4.9467	4.75	0.	-21.268
1069	4.9467	4.25	0.	-429.3
