Node Number	X Location (in)	Y Location (in)	Z Location (in)	Maximum Principal Stress (psi)
1	8.	2.1	0.	1657.3
2	8.	2.2	0.	1610.
3	8.	2.3	0.	1423.9
4	8.	2.4	0.	1277.7
5	8.	2.5	0.	1162.1
6	8.	2.6	0.	1076.8
7	8.	2.7	0.	1015.9
8	8.	2.8	0.	975.16
9	8.	2.9	0.	951.77
10	8.	3.	0.	944.14
11	8.	3.1	0.	951.77
12	8.	3.2	0.	975.16
13	8.	3.3	0.	1015.9
14	8.	3.4	0.	1076.8
15	8.	3.5	0.	1162.1
16	8.	3.6	0.	1277.7
17	8.	3.7	0.	1423.9
18	8.	3.8	0.	1610.
19	8.	3.9	0.	1657.3
20	8.1667	2.1	0.	997.57
21	8.1667	2.2	0.	1408.6
22	8.1667	2.3	0.	1309.5
23	8.1667	2.4	0.	1201.1
24	8.1667	2.5	0.	1105.1
25	8.1667	2.6	0.	1031.1
26	8.1667	2.7	0.	977.01
27	8.1667	2.8	0.	940.39
28	8.1667	2.9	0.	919.21
29	8.1667	3.	0.	912.28
30	8.1667	3.1	0.	919.21
31	8.1667	3.2	0.	940.39
32	8.1667	3.3	0.	977.01
33	8.1667	3.4	0.	1031.1
34	8.1667	3.5	0.	1105.1
35	8.1667	3.6	0.	1201.1
36	8.1667	3.7	0.	1309.5
37	8.1667	3.8	0.	1408.6
38	8.1667	3.9	0.	997.56
39	7.9	5.9	0.	105.42
40	7.9	5.8	0.	176.13
41	7.9	5.7	0.	287.2
42	7.9	5.6	0.	416.16
43	7.9	5.5	0.	558.07
44	7.9	5.4	0.	712.29
45	7.9	5.3	0.	879.42
46	7.9	5.2	0.	1060.9
47	7.9	5.1	0.	1258.9
48	7.9	5.	0.	1476.6
49	7.9	4.9	0.	1718.2
50	7.9	4.8	0.	1989.7
51	7.9	4.7	0.	2299.6
52	7.9	4.6	0.	2660.
53	7.9	4.5	0.	3088.9
54	7.9	4.4	0.	3616.2
55	7.9	4.3	0.	4273.9
56	7.9	4.2	0.	5163.6
57	7.9	4.1	0.	5853.8
58	7.9	4.	0.	5483.8
59	7.9	3.9	0.	2445.8
60	7.9	3.8	0.	1605.6
61	7.9	3.7	0.	1322.5
62	7.9	3.6	0.	1180.3
63	7.9	3.5	0.	1081.9
64	7.9	3.4	0.	1010.6
65	7.9	3.3	0.	959.78
66	7.9	3.2	0.	925.52
67	7.9	3.1	0.	905.72
68	7.9	3.	0.	899.24
69	7.9	2.9	0.	905.72
70	7.9	2.8	0.	925.52
71	7.9	2.7	0.	959.78
72	7.9	2.6	0.	1010.7
73	7.9	2.5	0.	1081.9
74	7.9	2.4	0.	1180.3
75	7.9	2.3	0.	1322.5
76	7.9	2.2	0.	1605.6
77	7.9	2.1	0.	2445.8
78	7.9	2.	0.	5483.8
79	7.9	1.9	0.	5853.8
80	7.9	1.8	0.	5163.6
81	7.9	1.7	0.	4273.9
82	7.9	1.6	0.	3616.2
83	7.9	1.5	0.	3088.9
84	7.9	1.4	0.	2660.
85	7.9	1.3	0.	2299.6
86	7.9	1.2	0.	1989.7
87	7.9	1.1	0.	1718.2
88	7.9	1.	0.	1476.6
89	7.9	0.9	0.	1258.9
90	7.9	0.8	0.	1060.9
91	7.9	0.7	0.	879.42
92	7.9	0.6	0.	712.29
93	7.9	0.5	0.	558.07
94	7.9	0.4	0.	416.16
95	7.9	0.3	0.	287.2
96	7.9	0.2	0.	176.13
97	7.9	0.1	0.	105.42
98	7.8	5.9	0.	82.81
99	7.8	5.8	0.	101.82
100	7.8	5.7	0.	175.06
101	7.8	5.6	0.	277.5
102	7.8	5.5	0.	398.03
103	7.8	5.4	0.	532.39
104	7.8	5.3	0.	679.21
105	7.8	5.2	0.	838.55
106	7.8	5.1	0.	1011.4
107	7.8	5.	0.	1199.3
108	7.8	4.9	0.	1404.6
109	7.8	4.8	0.	1630.4
110	7.8	4.7	0.	1880.2
111	7.8	4.6	0.	2158.
112	7.8	4.5	0.	2466.4
113	7.8	4.4	0.	2803.6
114	7.8	4.3	0.	3138.8
115	7.8	4.2	0.	3376.6
116	7.8	4.1	0.	3388.9
117	7.8	4.	0.	2611.2
118	7.8	3.9	0.	1845.2
119	7.8	3.8	0.	1330.9
120	7.8	3.7	0.	1123.1
121	7.8	3.6	0.	1011.4
122	7.8	3.5	0.	942.23
123	7.8	3.4	0.	893.05
124	7.8	3.3	0.	857.74
125	7.8	3.2	0.	833.65
126	7.8	3.1	0.	819.58
127	7.8	3.	0.	814.95
128	7.8	2.9	0.	819.58
129	7.8	2.8	0.	833.65
130	7.8	2.7	0.	857.74
131	7.8	2.6	0.	893.05
132	7.8	2.5	0.	942.23
133	7.8	2.4	0.	1011.5
134	7.8	2.3	0.	1123.1
135	7.8	2.2	0.	1330.9
136	7.8	2.1	0.	1845.2
137	7.8	2.	0.	2611.2
138	7.8	1.9	0.	3388.9
139	7.8	1.8	0.	3376.6
140	7.8	1.7	0.	3138.8
141	7.8	1.6	0.	2803.6
142	7.8	1.5	0.	2466.4
143	7.8	1.4	0.	2158.
144	7.8	1.3	0.	1880.2
145	7.8	1.2	0.	1630.4
146	7.8	1.1	0.	1404.6
147	7.8	1.	0.	1199.3
148	7.8	0.9	0.	1011.4
149	7.8	0.8	0.	838.55
150	7.8	0.7	0.	679.21
151	7.8	0.6	0.	532.39
152	7.8	0.5	0.	398.03
153	7.8	0.4	0.	277.5
154	7.8	0.3	0.	175.06
155	7.8	0.2	0.	101.82
156	7.8	0.1	0.	82.81
157	7.7	5.9	0.	80.874
158	7.7	5.8	0.	87.706
159	7.7	5.7	0.	137.44
160	7.7	5.6	0.	217.04
161	7.7	5.5	0.	318.06
162	7.7	5.4	0.	435.14
163	7.7	5.3	0.	565.36
164	7.7	5.2	0.	707.42
165	7.7	5.1	0.	860.95
166	7.7	5.	0.	1026.1
167	7.7	4.9	0.	1203.4
168	7.7	4.8	0.	1393.
169	7.7	4.7	0.	1594.7
170	7.7	4.6	0.	1806.1
171	7.7	4.5	0.	2020.
172	7.7	4.4	0.	2218.1
173	7.7	4.3	0.	2362.4
174	7.7	4.2	0.	2376.3
175	7.7	4.1	0.	2166.8
176	7.7	4.	0.	1764.7
177	7.7	3.9	0.	1324.1
178	7.7	3.8	0.	1042.2
179	7.7	3.7	0.	896.22
180	7.7	3.6	0.	821.47
181	7.7	3.5	0.	777.89
182	7.7	3.4	0.	749.09
183	7.7	3.3	0.	728.84
184	7.7	3.2	0.	715.02
185	7.7	3.1	0.	706.88
186	7.7	3.	0.	704.19
187	7.7	2.9	0.	706.88
188	7.7	2.8	0.	715.02
189	7.7	2.7	0.	728.84
190	7.7	2.6	0.	749.09
191	7.7	2.5	0.	777.89
192	7.7	2.4	0.	821.47
193	7.7	2.3	0.	896.22
194	7.7	2.2	0.	1042.2
195	7.7	2.1	0.	1324.1
196	7.7	2.	0.	1764.7
197	7.7	1.9	0.	2166.8
198	7.7	1.8	0.	2376.3
199	7.7	1.7	0.	2362.4
200	7.7	1.6	0.	2218.1
201	7.7	1.5	0.	2020.
202	7.7	1.4	0.	1806.1
203	7.7	1.3	0.	1594.7
204	7.7	1.2	0.	1393.
205	7.7	1.1	0.	1203.4
206	7.7	1.	0.	1026.1
207	7.7	0.9	0.	860.95
208	7.7	0.8	0.	707.42
209	7.7	0.7	0.	565.36
210	7.7	0.6	0.	435.14
211	7.7	0.5	0.	318.06
212	7.7	0.4	0.	217.04
213	7.7	0.3	0.	137.44
214	7.7	0.2	0.	87.706
215	7.7	0.1	0.	80.874
216	7.6	5.9	0.	80.537
217	7.6	5.8	0.	87.483
218	7.6	5.7	0.	125.73
219	7.6	5.6	0.	188.26
220	7.6	5.5	0.	271.
221	7.6	5.4	0.	369.97
222	7.6	5.3	0.	482.1
223	7.6	5.2	0.	605.32
224	7.6	5.1	0.	738.23
225	7.6	5.	0.	879.75
226	7.6	4.9	0.	1028.7
227	7.6	4.8	0.	1183.4
228	7.6	4.7	0.	1340.7
229	7.6	4.6	0.	1494.7
230	7.6	4.5	0.	1634.5
231	7.6	4.4	0.	1740.7
232	7.6	4.3	0.	1783.2
233	7.6	4.2	0.	1723.4
234	7.6	4.1	0.	1538.4
235	7.6	4.	0.	1265.6
236	7.6	3.9	0.	998.5
237	7.6	3.8	0.	806.45
238	7.6	3.7	0.	698.57
239	7.6	3.6	0.	643.68
240	7.6	3.5	0.	615.69
241	7.6	3.4	0.	600.17
242	7.6	3.3	0.	590.7
243	7.6	3.2	0.	584.71
244	7.6	3.1	0.	581.29
245	7.6	3.	0.	580.17
246	7.6	2.9	0.	581.29
247	7.6	2.8	0.	584.71
248	7.6	2.7	0.	590.7
249	7.6	2.6	0.	600.17
250	7.6	2.5	0.	615.69
251	7.6	2.4	0.	643.68
252	7.6	2.3	0.	698.57
253	7.6	2.2	0.	806.45
254	7.6	2.1	0.	998.5
255	7.6	2.	0.	1265.6
256	7.6	1.9	0.	1538.4
257	7.6	1.8	0.	1723.4
258	7.6	1.7	0.	1783.2
259	7.6	1.6	0.	1740.7
260	7.6	1.5	0.	1634.5
261	7.6	1.4	0.	1494.7
262	7.6	1.3	0.	1340.7
263	7.6	1.2	0.	1183.4
264	7.6	1.1	0.	1028.7
265	7.6	1.	0.	879.75
266	7.6	0.9	0.	738.23
267	7.6	0.8	0.	605.32
268	7.6	0.7	0.	482.1
269	7.6	0.6	0.	369.97
270	7.6	0.5	0.	271.
271	7.6	0.4	0.	188.26
272	7.6	0.3	0.	125.73
273	7.6	0.2	0.	87.483
274	7.6	0.1	0.	80.537
275	7.5	5.9	0.	78.879
276	7.5	5.8	0.	90.181
277	7.5	5.7	0.	123.74
278	7.5	5.6	0.	175.25
279	7.5	5.5	0.	243.37
280	7.5	5.4	0.	325.88
281	7.5	5.3	0.	420.38
282	7.5	5.2	0.	524.69
283	7.5	5.1	0.	636.86
284	7.5	5.	0.	754.99
285	7.5	4.9	0.	876.86
286	7.5	4.8	0.	999.45
287	7.5	4.7	0.	1118.2
288	7.5	4.6	0.	1226.3
289	7.5	4.5	0.	1312.9
290	7.5	4.4	0.	1362.9
291	7.5	4.3	0.	1357.6
292	7.5	4.2	0.	1280.7
293	7.5	4.1	0.	1132.9
294	7.5	4.	0.	943.58
295	7.5	3.9	0.	760.94
296	7.5	3.8	0.	622.76
297	7.5	3.7	0.	537.03
298	7.5	3.6	0.	491.58
299	7.5	3.5	0.	469.97
300	7.5	3.4	0.	460.51
301	7.5	3.3	0.	456.62
302	7.5	3.2	0.	455.11
303	7.5	3.1	0.	454.56
304	7.5	3.	0.	454.42
305	7.5	2.9	0.	454.56
306	7.5	2.8	0.	455.11
307	7.5	2.7	0.	456.62
308	7.5	2.6	0.	460.51
309	7.5	2.5	0.	469.97
310	7.5	2.4	0.	491.58
311	7.5	2.3	0.	537.03
312	7.5	2.2	0.	622.76
313	7.5	2.1	0.	760.94
314	7.5	2.	0.	943.58
315	7.5	1.9	0.	1132.9
316	7.5	1.8	0.	1280.7
317	7.5	1.7	0.	1357.6
318	7.5	1.6	0.	1362.9
319	7.5	1.5	0.	1312.9
320	7.5	1.4	0.	1226.3
321	7.5	1.3	0.	1118.2
322	7.5	1.2	0.	999.45
323	7.5	1.1	0.	876.86
324	7.5	1.	0.	754.99
325	7.5	0.9	0.	636.86
326	7.5	0.8	0.	524.69
327	7.5	0.7	0.	420.38
328	7.5	0.6	0.	325.88
329	7.5	0.5	0.	243.37
330	7.5	0.4	0.	175.25
331	7.5	0.3	0.	123.74
332	7.5	0.2	0.	90.181
333	7.5	0.1	0.	78.879
334	7.4	5.9	0.	76.
335	7.4	5.8	0.	92.652
336	7.4	5.7	0.	124.8
337	7.4	5.6	0.	169.45
338	7.4	5.5	0.	226.65
339	7.4	5.4	0.	295.42
340	7.4	5.3	0.	374.12
341	7.4	5.2	0.	460.83
342	7.4	5.1	0.	553.5
343	7.4	5.	0.	649.82
344	7.4	4.9	0.	747.05
345	7.4	4.8	0.	841.64
346	7.4	4.7	0.	928.78
347	7.4	4.6	0.	1001.9
348	7.4	4.5	0.	1052.4
349	7.4	4.4	0.	1069.8
350	7.4	4.3	0.	1044.
351	7.4	4.2	0.	969.83
352	7.4	4.1	0.	853.5
353	7.4	4.	0.	715.18
354	7.4	3.9	0.	582.38
355	7.4	3.8	0.	476.8
356	7.4	3.7	0.	406.
357	7.4	3.6	0.	365.24
358	7.4	3.5	0.	345.05
359	7.4	3.4	0.	336.75
360	7.4	3.3	0.	334.36
361	7.4	3.2	0.	334.38
362	7.4	3.1	0.	334.94
363	7.4	3.	0.	335.22
364	7.4	2.9	0.	334.94
365	7.4	2.8	0.	334.38
366	7.4	2.7	0.	334.36
367	7.4	2.6	0.	336.75
368	7.4	2.5	0.	345.06
369	7.4	2.4	0.	365.24
370	7.4	2.3	0.	406.
371	7.4	2.2	0.	476.8
372	7.4	2.1	0.	582.38
373	7.4	2.	0.	715.18
374	7.4	1.9	0.	853.5
375	7.4	1.8	0.	969.83
376	7.4	1.7	0.	1044.
377	7.4	1.6	0.	1069.8
378	7.4	1.5	0.	1052.4
379	7.4	1.4	0.	1001.9
380	7.4	1.3	0.	928.78
381	7.4	1.2	0.	841.64
382	7.4	1.1	0.	747.05
383	7.4	1.	0.	649.82
384	7.4	0.9	0.	553.5
385	7.4	0.8	0.	460.83
386	7.4	0.7	0.	374.12
387	7.4	0.6	0.	295.42
388	7.4	0.5	0.	226.65
389	7.4	0.4	0.	169.45
390	7.4	0.3	0.	124.8
391	7.4	0.2	0.	92.652
392	7.4	0.1	0.	76.
393	7.3	5.9	0.	72.198
394	7.3	5.8	0.	93.892
395	7.3	5.7	0.	125.98
396	7.3	5.6	0.	166.25
397	7.3	5.5	0.	215.36
398	7.3	5.4	0.	273.03
399	7.3	5.3	0.	338.22
400	7.3	5.2	0.	409.39
401	7.3	5.1	0.	484.6
402	7.3	5.	0.	561.5
403	7.3	4.9	0.	637.27
404	7.3	4.8	0.	708.37
405	7.3	4.7	0.	770.36
406	7.3	4.6	0.	817.74
407	7.3	4.5	0.	844.14
408	7.3	4.4	0.	843.01
409	7.3	4.3	0.	809.44
410	7.3	4.2	0.	742.93
411	7.3	4.1	0.	650.04
412	7.3	4.	0.	544.47
413	7.3	3.9	0.	443.01
414	7.3	3.8	0.	359.17
415	7.3	3.7	0.	298.91
416	7.3	3.6	0.	261.01
417	7.3	3.5	0.	240.24
418	7.3	3.4	0.	230.62
419	7.3	3.3	0.	227.26
420	7.3	3.2	0.	226.8
421	7.3	3.1	0.	227.21
422	7.3	3.	0.	227.46
423	7.3	2.9	0.	227.21
424	7.3	2.8	0.	226.8
425	7.3	2.7	0.	227.26
426	7.3	2.6	0.	230.62
427	7.3	2.5	0.	240.24
428	7.3	2.4	0.	261.01
429	7.3	2.3	0.	298.91
430	7.3	2.2	0.	359.17
431	7.3	2.1	0.	443.01
432	7.3	2.	0.	544.47
433	7.3	1.9	0.	650.03
434	7.3	1.8	0.	742.93
435	7.3	1.7	0.	809.44
436	7.3	1.6	0.	843.01
437	7.3	1.5	0.	844.14
438	7.3	1.4	0.	817.74
439	7.3	1.3	0.	770.36
440	7.3	1.2	0.	708.37
441	7.3	1.1	0.	637.27
442	7.3	1.	0.	561.5
443	7.3	0.9	0.	484.6
444	7.3	0.8	0.	409.39
445	7.3	0.7	0.	338.22
446	7.3	0.6	0.	273.03
447	7.3	0.5	0.	215.36
448	7.3	0.4	0.	166.25
449	7.3	0.3	0.	125.98
450	7.3	0.2	0.	93.892
451	7.3	0.1	0.	72.198
452	7.2	5.9	0.	67.788
453	7.2	5.8	0.	93.68
454	7.2	5.7	0.	126.07
455	7.2	5.6	0.	163.31
456	7.2	5.5	0.	206.25
457	7.2	5.4	0.	255.
458	7.2	5.3	0.	308.93
459	7.2	5.2	0.	366.79
460	7.2	5.1	0.	426.91
461	7.2	5.	0.	487.11
462	7.2	4.9	0.	544.78
463	7.2	4.8	0.	596.72
464	7.2	4.7	0.	639.16
465	7.2	4.6	0.	667.84
466	7.2	4.5	0.	678.3
467	7.2	4.4	0.	666.69
468	7.2	4.3	0.	630.93
469	7.2	4.2	0.	572.31
470	7.2	4.1	0.	496.43
471	7.2	4.	0.	412.73
472	7.2	3.9	0.	332.01
473	7.2	3.8	0.	263.12
474	7.2	3.7	0.	210.68
475	7.2	3.6	0.	174.9
476	7.2	3.5	0.	153.05
477	7.2	3.4	0.	141.25
478	7.2	3.3	0.	135.8
479	7.2	3.2	0.	133.81
480	7.2	3.1	0.	133.33
481	7.2	3.	0.	133.29
482	7.2	2.9	0.	133.33
483	7.2	2.8	0.	133.81
484	7.2	2.7	0.	135.8
485	7.2	2.6	0.	141.25
486	7.2	2.5	0.	153.05
487	7.2	2.4	0.	174.9
488	7.2	2.3	0.	210.68
489	7.2	2.2	0.	263.12
490	7.2	2.1	0.	332.01
491	7.2	2.	0.	412.73
492	7.2	1.9	0.	496.43
493	7.2	1.8	0.	572.31
494	7.2	1.7	0.	630.93
495	7.2	1.6	0.	666.68
496	7.2	1.5	0.	678.3
497	7.2	1.4	0.	667.84
498	7.2	1.3	0.	639.16
499	7.2	1.2	0.	596.72
500	7.2	1.1	0.	544.78
501	7.2	1.	0.	487.11
502	7.2	0.9	0.	426.91
503	7.2	0.8	0.	366.79
504	7.2	0.7	0.	308.93
505	7.2	0.6	0.	255.
506	7.2	0.5	0.	206.25
507	7.2	0.4	0.	163.31
508	7.2	0.3	0.	126.07
509	7.2	0.2	0.	93.68
510	7.2	0.1	0.	67.788
511	7.1	5.9	0.	63.032
512	7.1	5.8	0.	92.084
513	7.1	5.7	0.	124.66
514	7.1	5.6	0.	159.53
515	7.1	5.5	0.	197.59
516	7.1	5.4	0.	239.09
517	7.1	5.3	0.	283.67
518	7.1	5.2	0.	330.36
519	7.1	5.1	0.	377.75
520	7.1	5.	0.	423.97
521	7.1	4.9	0.	466.72
522	7.1	4.8	0.	503.34
523	7.1	4.7	0.	530.8
524	7.1	4.6	0.	545.94
525	7.1	4.5	0.	545.8
526	7.1	4.4	0.	528.21
527	7.1	4.3	0.	492.6
528	7.1	4.2	0.	440.78
529	7.1	4.1	0.	377.24
530	7.1	4.	0.	308.61
531	7.1	3.9	0.	242.16
532	7.1	3.8	0.	183.98
533	7.1	3.7	0.	137.58
534	7.1	3.6	0.	103.68
535	7.1	3.5	0.	80.931
536	7.1	3.4	0.	66.91
537	7.1	3.3	0.	59.043
538	7.1	3.2	0.	55.09
539	7.1	3.1	0.	53.387
540	7.1	3.	0.	52.93
541	7.1	2.9	0.	53.387
542	7.1	2.8	0.	55.09
543	7.1	2.7	0.	59.043
544	7.1	2.6	0.	66.91
545	7.1	2.5	0.	80.931
546	7.1	2.4	0.	103.68
547	7.1	2.3	0.	137.58
548	7.1	2.2	0.	183.98
549	7.1	2.1	0.	242.16
550	7.1	2.	0.	308.61
551	7.1	1.9	0.	377.24
552	7.1	1.8	0.	440.78
553	7.1	1.7	0.	492.6
554	7.1	1.6	0.	528.21
555	7.1	1.5	0.	545.8
556	7.1	1.4	0.	545.94
557	7.1	1.3	0.	530.8
558	7.1	1.2	0.	503.34
559	7.1	1.1	0.	466.72
560	7.1	1.	0.	423.97
561	7.1	0.9	0.	377.75
562	7.1	0.8	0.	330.36
563	7.1	0.7	0.	283.67
564	7.1	0.6	0.	239.09
565	7.1	0.5	0.	197.59
566	7.1	0.4	0.	159.53
567	7.1	0.3	0.	124.66
568	7.1	0.2	0.	92.084
569	7.1	0.1	0.	63.032
570	7.	5.9	0.	58.128
571	7.	5.8	0.	89.285
572	7.	5.7	0.	121.71
573	7.	5.6	0.	154.48
574	7.	5.5	0.	188.47
575	7.	5.4	0.	224.
576	7.	5.3	0.	260.82
577	7.	5.2	0.	298.23
578	7.	5.1	0.	335.05
579	7.	5.	0.	369.75
580	7.	4.9	0.	400.44
581	7.	4.8	0.	424.98
582	7.	4.7	0.	441.05
583	7.	4.6	0.	446.4
584	7.	4.5	0.	439.13
585	7.	4.4	0.	418.13
586	7.	4.3	0.	383.57
587	7.	4.2	0.	337.26
588	7.	4.1	0.	282.75
589	7.	4.	0.	224.83
590	7.	3.9	0.	168.6
591	7.	3.8	0.	118.42
592	7.	3.7	0.	77.092
593	7.	3.6	0.	45.613
594	7.	3.5	0.	23.609
595	7.	3.4	0.	10.126
596	7.	3.3	0.	3.8659
597	7.	3.2	0.	1.705
598	7.	3.1	0.	0.97159
599	7.	3.	0.	0.78541
600	7.	2.9	0.	0.97159
601	7.	2.8	0.	1.705
602	7.	2.7	0.	3.8658
603	7.	2.6	0.	10.126
604	7.	2.5	0.	23.609
605	7.	2.4	0.	45.613
606	7.	2.3	0.	77.092
607	7.	2.2	0.	118.42
608	7.	2.1	0.	168.6
609	7.	2.	0.	224.83
610	7.	1.9	0.	282.75
611	7.	1.8	0.	337.26
612	7.	1.7	0.	383.56
613	7.	1.6	0.	418.13
614	7.	1.5	0.	439.13
615	7.	1.4	0.	446.4
616	7.	1.3	0.	441.05
617	7.	1.2	0.	424.98
618	7.	1.1	0.	400.44
619	7.	1.	0.	369.75
620	7.	0.9	0.	335.05
621	7.	0.8	0.	298.23
622	7.	0.7	0.	260.82
623	7.	0.6	0.	224.
624	7.	0.5	0.	188.47
625	7.	0.4	0.	154.48
626	7.	0.3	0.	121.71
627	7.	0.2	0.	89.285
628	7.	0.1	0.	58.128
629	6.9	5.9	0.	53.224
630	6.9	5.8	0.	85.494
631	6.9	5.7	0.	117.33
632	6.9	5.6	0.	148.09
633	6.9	5.5	0.	178.56
634	6.9	5.4	0.	209.03
635	6.9	5.3	0.	239.4
636	6.9	5.2	0.	269.11
637	6.9	5.1	0.	297.26
638	6.9	5.	0.	322.6
639	6.9	4.9	0.	343.65
640	6.9	4.8	0.	358.75
641	6.9	4.7	0.	366.21
642	6.9	4.6	0.	364.47
643	6.9	4.5	0.	352.37
644	6.9	4.4	0.	329.44
645	6.9	4.3	0.	296.19
646	6.9	4.2	0.	254.29
647	6.9	4.1	0.	206.52
648	6.9	4.	0.	156.46
649	6.9	3.9	0.	107.92
650	6.9	3.8	0.	64.403
651	6.9	3.7	0.	29.438
652	6.9	3.6	0.	9.2492
653	6.9	3.5	0.	3.4428
654	6.9	3.4	0.	1.8025
655	6.9	3.3	0.	1.159
656	6.9	3.2	0.	0.86403
657	6.9	3.1	0.	0.72965
658	6.9	3.	0.	0.69046
659	6.9	2.9	0.	0.72965
660	6.9	2.8	0.	0.86403
661	6.9	2.7	0.	1.159
662	6.9	2.6	0.	1.8025
663	6.9	2.5	0.	3.4427
664	6.9	2.4	0.	9.2491
665	6.9	2.3	0.	29.438
666	6.9	2.2	0.	64.402
667	6.9	2.1	0.	107.92
668	6.9	2.	0.	156.46
669	6.9	1.9	0.	206.52
670	6.9	1.8	0.	254.29
671	6.9	1.7	0.	296.19
672	6.9	1.6	0.	329.44
673	6.9	1.5	0.	352.37
674	6.9	1.4	0.	364.47
675	6.9	1.3	0.	366.21
676	6.9	1.2	0.	358.75
677	6.9	1.1	0.	343.65
678	6.9	1.	0.	322.6
679	6.9	0.9	0.	297.26
680	6.9	0.8	0.	269.11
681	6.9	0.7	0.	239.4
682	6.9	0.6	0.	209.03
683	6.9	0.5	0.	178.56
684	6.9	0.4	0.	148.09
685	6.9	0.3	0.	117.33
686	6.9	0.2	0.	85.494
687	6.9	0.1	0.	53.224
688	6.8	5.9	0.	48.422
689	6.8	5.8	0.	80.924
690	6.8	5.7	0.	111.76
691	6.8	5.6	0.	140.47
692	6.8	5.5	0.	167.75
693	6.8	5.4	0.	193.9
694	6.8	5.3	0.	218.85
695	6.8	5.2	0.	242.19
696	6.8	5.1	0.	263.24
697	6.8	5.	0.	281.03
698	6.8	4.9	0.	294.44
699	6.8	4.8	0.	302.23
700	6.8	4.7	0.	303.2
701	6.8	4.6	0.	296.32
702	6.8	4.5	0.	280.93
703	6.8	4.4	0.	256.96
704	6.8	4.3	0.	225.05
705	6.8	4.2	0.	186.68
706	6.8	4.1	0.	144.1
707	6.8	4.	0.	100.14
708	6.8	3.9	0.	58.125
709	6.8	3.8	0.	23.385
710	6.8	3.7	0.	6.8769
711	6.8	3.6	0.	2.9273
712	6.8	3.5	0.	1.6601
713	6.8	3.4	0.	1.1063
714	6.8	3.3	0.	0.82912
715	6.8	3.2	0.	0.68487
716	6.8	3.1	0.	0.61474
717	6.8	3.	0.	0.59371
718	6.8	2.9	0.	0.61474
719	6.8	2.8	0.	0.68487
720	6.8	2.7	0.	0.82911
721	6.8	2.6	0.	1.1063
722	6.8	2.5	0.	1.6601
723	6.8	2.4	0.	2.9273
724	6.8	2.3	0.	6.8768
725	6.8	2.2	0.	23.384
726	6.8	2.1	0.	58.125
727	6.8	2.	0.	100.14
728	6.8	1.9	0.	144.1
729	6.8	1.8	0.	186.68
730	6.8	1.7	0.	225.05
731	6.8	1.6	0.	256.96
732	6.8	1.5	0.	280.93
733	6.8	1.4	0.	296.32
734	6.8	1.3	0.	303.2
735	6.8	1.2	0.	302.23
736	6.8	1.1	0.	294.44
737	6.8	1.	0.	281.03
738	6.8	0.9	0.	263.24
739	6.8	0.8	0.	242.19
740	6.8	0.7	0.	218.85
741	6.8	0.6	0.	193.9
742	6.8	0.5	0.	167.75
743	6.8	0.4	0.	140.47
744	6.8	0.3	0.	111.76
745	6.8	0.2	0.	80.924
746	6.8	0.1	0.	48.422
747	6.7	5.9	0.	43.793
748	6.7	5.8	0.	75.772
749	6.7	5.7	0.	105.21
750	6.7	5.6	0.	131.8
751	6.7	5.5	0.	156.15
752	6.7	5.4	0.	178.51
753	6.7	5.3	0.	198.86
754	6.7	5.2	0.	216.92
755	6.7	5.1	0.	232.17
756	6.7	5.	0.	243.9
757	6.7	4.9	0.	251.28
758	6.7	4.8	0.	253.42
759	6.7	4.7	0.	249.52
760	6.7	4.6	0.	238.92
761	6.7	4.5	0.	221.32
762	6.7	4.4	0.	196.85
763	6.7	4.3	0.	166.24
764	6.7	4.2	0.	130.78
765	6.7	4.1	0.	92.426
766	6.7	4.	0.	53.9
767	6.7	3.9	0.	20.981
768	6.7	3.8	0.	6.2661
769	6.7	3.7	0.	2.8129
770	6.7	3.6	0.	1.6366
771	6.7	3.5	0.	1.0935
772	6.7	3.4	0.	0.80708
773	6.7	3.3	0.	0.6481
774	6.7	3.2	0.	0.56031
775	6.7	3.1	0.	0.51622
776	6.7	3.	0.	0.50282
777	6.7	2.9	0.	0.51622
778	6.7	2.8	0.	0.56031
779	6.7	2.7	0.	0.6481
780	6.7	2.6	0.	0.80707
781	6.7	2.5	0.	1.0935
782	6.7	2.4	0.	1.6366
783	6.7	2.3	0.	2.8129
784	6.7	2.2	0.	6.266
785	6.7	2.1	0.	20.981
786	6.7	2.	0.	53.899
787	6.7	1.9	0.	92.425
788	6.7	1.8	0.	130.78
789	6.7	1.7	0.	166.24
790	6.7	1.6	0.	196.85
791	6.7	1.5	0.	221.32
792	6.7	1.4	0.	238.92
793	6.7	1.3	0.	249.52
794	6.7	1.2	0.	253.42
795	6.7	1.1	0.	251.28
796	6.7	1.	0.	243.9
797	6.7	0.9	0.	232.17
798	6.7	0.8	0.	216.92
799	6.7	0.7	0.	198.86
800	6.7	0.6	0.	178.51
801	6.7	0.5	0.	156.15
802	6.7	0.4	0.	131.8
803	6.7	0.3	0.	105.21
804	6.7	0.2	0.	75.772
805	6.7	0.1	0.	43.793
806	6.6	5.9	0.	39.378
807	6.6	5.8	0.	70.213
808	6.6	5.7	0.	97.926
809	6.6	5.6	0.	122.32
810	6.6	5.5	0.	143.9
811	6.6	5.4	0.	162.89
812	6.6	5.3	0.	179.3
813	6.6	5.2	0.	192.95
814	6.6	5.1	0.	203.46
815	6.6	5.	0.	210.33
816	6.6	4.9	0.	212.96
817	6.6	4.8	0.	210.76
818	6.6	4.7	0.	203.2
819	6.6	4.6	0.	189.92
820	6.6	4.5	0.	170.85
821	6.6	4.4	0.	146.27
822	6.6	4.3	0.	116.91
823	6.6	4.2	0.	84.042
824	6.6	4.1	0.	49.757
825	6.6	4.	0.	19.479
826	6.6	3.9	0.	5.9501
827	6.6	3.8	0.	2.7508
828	6.6	3.7	0.	1.6279
829	6.6	3.6	0.	1.0902
830	6.6	3.5	0.	0.79414
831	6.6	3.4	0.	0.6214
832	6.6	3.3	0.	0.51934
833	6.6	3.2	0.	0.46072
834	6.6	3.1	0.	0.4306
835	6.6	3.	0.	0.42135
836	6.6	2.9	0.	0.4306
837	6.6	2.8	0.	0.46072
838	6.6	2.7	0.	0.51934
839	6.6	2.6	0.	0.6214
840	6.6	2.5	0.	0.79414
841	6.6	2.4	0.	1.0902
842	6.6	2.3	0.	1.6279
843	6.6	2.2	0.	2.7508
844	6.6	2.1	0.	5.95
845	6.6	2.	0.	19.478
846	6.6	1.9	0.	49.756
847	6.6	1.8	0.	84.042
848	6.6	1.7	0.	116.91
849	6.6	1.6	0.	146.27
850	6.6	1.5	0.	170.85
851	6.6	1.4	0.	189.92
852	6.6	1.3	0.	203.2
853	6.6	1.2	0.	210.76
854	6.6	1.1	0.	212.96
855	6.6	1.	0.	210.33
856	6.6	0.9	0.	203.46
857	6.6	0.8	0.	192.95
858	6.6	0.7	0.	179.3
859	6.6	0.6	0.	162.89
860	6.6	0.5	0.	143.9
861	6.6	0.4	0.	122.32
862	6.6	0.3	0.	97.926
863	6.6	0.2	0.	70.212
864	6.6	0.1	0.	39.378
865	6.5	5.9	0.	35.201
866	6.5	5.8	0.	64.394
867	6.5	5.7	0.	90.114
868	6.5	5.6	0.	112.23
869	6.5	5.5	0.	131.17
870	6.5	5.4	0.	147.13
871	6.5	5.3	0.	160.14
872	6.5	5.2	0.	170.07
873	6.5	5.1	0.	176.69
874	6.5	5.	0.	179.65
875	6.5	4.9	0.	178.54
876	6.5	4.8	0.	173.
877	6.5	4.7	0.	162.7
878	6.5	4.6	0.	147.52
879	6.5	4.5	0.	127.52
880	6.5	4.4	0.	103.11
881	6.5	4.3	0.	75.09
882	6.5	4.2	0.	45.053
883	6.5	4.1	0.	17.855
884	6.5	4.	0.	5.5952
885	6.5	3.9	0.	2.6536
886	6.5	3.8	0.	1.599
887	6.5	3.7	0.	1.08
888	6.5	3.6	0.	0.78352
889	6.5	3.5	0.	0.60263
890	6.5	3.4	0.	0.48984
891	6.5	3.3	0.	0.4201
892	6.5	3.2	0.	0.37878
893	6.5	3.1	0.	0.35712
894	6.5	3.	0.	0.3504
895	6.5	2.9	0.	0.35712
896	6.5	2.8	0.	0.37878
897	6.5	2.7	0.	0.4201
898	6.5	2.6	0.	0.48984
899	6.5	2.5	0.	0.60263
900	6.5	2.4	0.	0.78352
901	6.5	2.3	0.	1.08
902	6.5	2.2	0.	1.599
903	6.5	2.1	0.	2.6535
904	6.5	2.	0.	5.5951
905	6.5	1.9	0.	17.855
906	6.5	1.8	0.	45.053
907	6.5	1.7	0.	75.09
908	6.5	1.6	0.	103.11
909	6.5	1.5	0.	127.52
910	6.5	1.4	0.	147.52
911	6.5	1.3	0.	162.7
912	6.5	1.2	0.	173.
913	6.5	1.1	0.	178.54
914	6.5	1.	0.	179.65
915	6.5	0.9	0.	176.69
916	6.5	0.8	0.	170.07
917	6.5	0.7	0.	160.14
918	6.5	0.6	0.	147.13
919	6.5	0.5	0.	131.17
920	6.5	0.4	0.	112.23
921	6.5	0.3	0.	90.114
922	6.5	0.2	0.	64.394
923	6.5	0.1	0.	35.201
924	6.4	5.9	0.	31.271
925	6.4	5.8	0.	58.438
926	6.4	5.7	0.	81.959
927	6.4	5.6	0.	101.75
928	6.4	5.5	0.	118.16
929	6.4	5.4	0.	131.35
930	6.4	5.3	0.	141.36
931	6.4	5.2	0.	148.15
932	6.4	5.1	0.	151.55
933	6.4	5.	0.	151.34
934	6.4	4.9	0.	147.28
935	6.4	4.8	0.	139.16
936	6.4	4.7	0.	126.85
937	6.4	4.6	0.	110.33
938	6.4	4.5	0.	89.84
939	6.4	4.4	0.	65.903
940	6.4	4.3	0.	39.755
941	6.4	4.2	0.	15.797
942	6.4	4.1	0.	5.1016
943	6.4	4.	0.	2.4927
944	6.4	3.9	0.	1.535
945	6.4	3.8	0.	1.052
946	6.4	3.7	0.	0.76726
947	6.4	3.6	0.	0.5865
948	6.4	3.5	0.	0.46828
949	6.4	3.4	0.	0.39085
950	6.4	3.3	0.	0.34119
951	6.4	3.2	0.	0.31094
952	6.4	3.1	0.	0.2948
953	6.4	3.	0.	0.28974
954	6.4	2.9	0.	0.2948
955	6.4	2.8	0.	0.31094
956	6.4	2.7	0.	0.34119
957	6.4	2.6	0.	0.39085
958	6.4	2.5	0.	0.46828
959	6.4	2.4	0.	0.58649
960	6.4	2.3	0.	0.76726
961	6.4	2.2	0.	1.052
962	6.4	2.1	0.	1.535
963	6.4	2.	0.	2.4927
964	6.4	1.9	0.	5.1015
965	6.4	1.8	0.	15.796
966	6.4	1.7	0.	39.755
967	6.4	1.6	0.	65.903
968	6.4	1.5	0.	89.84
969	6.4	1.4	0.	110.33
970	6.4	1.3	0.	126.85
971	6.4	1.2	0.	139.16
972	6.4	1.1	0.	147.28
973	6.4	1.	0.	151.34
974	6.4	0.9	0.	151.55
975	6.4	0.8	0.	148.15
976	6.4	0.7	0.	141.36
977	6.4	0.6	0.	131.34
978	6.4	0.5	0.	118.16
979	6.4	0.4	0.	101.75
980	6.4	0.3	0.	81.959
981	6.4	0.2	0.	58.438
982	6.4	0.1	0.	31.271
983	6.3	5.9	0.	27.588
984	6.3	5.8	0.	52.446
985	6.3	5.7	0.	73.62
986	6.3	5.6	0.	91.045
987	6.3	5.5	0.	105.01
988	6.3	5.4	0.	115.65
989	6.3	5.3	0.	123.01
990	6.3	5.2	0.	127.09
991	6.3	5.1	0.	127.8
992	6.3	5.	0.	125.01
993	6.3	4.9	0.	118.62
994	6.3	4.8	0.	108.52
995	6.3	4.7	0.	94.716
996	6.3	4.6	0.	77.339
997	6.3	4.5	0.	56.774
998	6.3	4.4	0.	34.038
999	6.3	4.3	0.	13.316
1000	6.3	4.2	0.	4.4673
1001	6.3	4.1	0.	2.2678
1002	6.3	4.	0.	1.4333
1003	6.3	3.9	0.	1.0014
1004	6.3	3.8	0.	0.73951
1005	6.3	3.7	0.	0.56735
1006	6.3	3.6	0.	0.4499
1007	6.3	3.5	0.	0.36905
1008	6.3	3.4	0.	0.31396
1009	6.3	3.3	0.	0.27751
1010	6.3	3.2	0.	0.25475
1011	6.3	3.1	0.	0.24239
1012	6.3	3.	0.	0.23848
1013	6.3	2.9	0.	0.24239
1014	6.3	2.8	0.	0.25475
1015	6.3	2.7	0.	0.27751
1016	6.3	2.6	0.	0.31396
1017	6.3	2.5	0.	0.36905
1018	6.3	2.4	0.	0.4499
1019	6.3	2.3	0.	0.56735
1020	6.3	2.2	0.	0.73951
1021	6.3	2.1	0.	1.0014
1022	6.3	2.	0.	1.4333
1023	6.3	1.9	0.	2.2678
1024	6.3	1.8	0.	4.4673
1025	6.3	1.7	0.	13.316
1026	6.3	1.6	0.	34.038
1027	6.3	1.5	0.	56.773
1028	6.3	1.4	0.	77.339
1029	6.3	1.3	0.	94.716
1030	6.3	1.2	0.	108.52
1031	6.3	1.1	0.	118.62
1032	6.3	1.	0.	125.01
1033	6.3	0.9	0.	127.8
1034	6.3	0.8	0.	127.09
1035	6.3	0.7	0.	123.01
1036	6.3	0.6	0.	115.65
1037	6.3	0.5	0.	105.01
1038	6.3	0.4	0.	91.045
1039	6.3	0.3	0.	73.62
1040	6.3	0.2	0.	52.446
1041	6.3	0.1	0.	27.588
1042	6.2	5.9	0.	24.143
1043	6.2	5.8	0.	46.496
1044	6.2	5.7	0.	65.223
1045	6.2	5.6	0.	80.273
1046	6.2	5.5	0.	91.874
1047	6.2	5.4	0.	100.14
1048	6.2	5.3	0.	105.12
1049	6.2	5.2	0.	106.84
1050	6.2	5.1	0.	105.27
1051	6.2	5.	0.	100.37
1052	6.2	4.9	0.	92.109
1053	6.2	4.8	0.	80.498
1054	6.2	4.7	0.	65.65
1055	6.2	4.6	0.	47.876
1056	6.2	4.5	0.	28.101
1057	6.2	4.4	0.	10.587
1058	6.2	4.3	0.	3.7441
1059	6.2	4.2	0.	1.9945
1060	6.2	4.1	0.	1.2996
1061	6.2	4.	0.	0.92903
1062	6.2	3.9	0.	0.69804
1063	6.2	3.8	0.	0.54134
1064	6.2	3.7	0.	0.4304
1065	6.2	3.6	0.	0.35061
1066	6.2	3.5	0.	0.2934
1067	6.2	3.4	0.	0.25312
1068	6.2	3.3	0.	0.22572
1069	6.2	3.2	0.	0.20822
1070	6.2	3.1	0.	0.19856
1071	6.2	3.	0.	0.19548
1072	6.2	2.9	0.	0.19856
1073	6.2	2.8	0.	0.20822
1074	6.2	2.7	0.	0.22572
1075	6.2	2.6	0.	0.25312
1076	6.2	2.5	0.	0.2934
1077	6.2	2.4	0.	0.35061
1078	6.2	2.3	0.	0.4304
1079	6.2	2.2	0.	0.54134
1080	6.2	2.1	0.	0.69803
1081	6.2	2.	0.	0.92903
1082	6.2	1.9	0.	1.2996
1083	6.2	1.8	0.	1.9945
1084	6.2	1.7	0.	3.7441
1085	6.2	1.6	0.	10.587
1086	6.2	1.5	0.	28.101
1087	6.2	1.4	0.	47.875
1088	6.2	1.3	0.	65.65
1089	6.2	1.2	0.	80.498
1090	6.2	1.1	0.	92.108
1091	6.2	1.	0.	100.37
1092	6.2	0.9	0.	105.27
1093	6.2	0.8	0.	106.84
1094	6.2	0.7	0.	105.12
1095	6.2	0.6	0.	100.14
1096	6.2	0.5	0.	91.874
1097	6.2	0.4	0.	80.273
1098	6.2	0.3	0.	65.223
1099	6.2	0.2	0.	46.496
1100	6.2	0.1	0.	24.143
1101	6.1	5.9	0.	20.926
1102	6.1	5.8	0.	40.645
1103	6.1	5.7	0.	56.872
1104	6.1	5.6	0.	69.551
1105	6.1	5.5	0.	78.865
1106	6.1	5.4	0.	84.901
1107	6.1	5.3	0.	87.722
1108	6.1	5.2	0.	87.364
1109	6.1	5.1	0.	83.847
1110	6.1	5.	0.	77.19
1111	6.1	4.9	0.	67.437
1112	6.1	4.8	0.	54.704
1113	6.1	4.7	0.	39.28
1114	6.1	4.6	0.	22.112
1115	6.1	4.5	0.	7.8658
1116	6.1	4.4	0.	3.0053
1117	6.1	4.3	0.	1.6965
1118	6.1	4.2	0.	1.1447
1119	6.1	4.1	0.	0.83962
1120	6.1	4.	0.	0.64388
1121	6.1	3.9	0.	0.50714
1122	6.1	3.8	0.	0.40704
1123	6.1	3.7	0.	0.33221
1124	6.1	3.6	0.	0.27611
1125	6.1	3.5	0.	0.23452
1126	6.1	3.4	0.	0.20439
1127	6.1	3.3	0.	0.18338
1128	6.1	3.2	0.	0.16969
1129	6.1	3.1	0.	0.16202
1130	6.1	3.	0.	0.15955
1131	6.1	2.9	0.	0.16202
1132	6.1	2.8	0.	0.16969
1133	6.1	2.7	0.	0.18338
1134	6.1	2.6	0.	0.20439
1135	6.1	2.5	0.	0.23452
1136	6.1	2.4	0.	0.27611
1137	6.1	2.3	0.	0.3322
1138	6.1	2.2	0.	0.40704
1139	6.1	2.1	0.	0.50714
1140	6.1	2.	0.	0.64388
1141	6.1	1.9	0.	0.83962
1142	6.1	1.8	0.	1.1447
1143	6.1	1.7	0.	1.6965
1144	6.1	1.6	0.	3.0053
1145	6.1	1.5	0.	7.8657
1146	6.1	1.4	0.	22.112
1147	6.1	1.3	0.	39.28
1148	6.1	1.2	0.	54.704
1149	6.1	1.1	0.	67.437
1150	6.1	1.	0.	77.189
1151	6.1	0.9	0.	83.847
1152	6.1	0.8	0.	87.364
1153	6.1	0.7	0.	87.722
1154	6.1	0.6	0.	84.901
1155	6.1	0.5	0.	78.865
1156	6.1	0.4	0.	69.551
1157	6.1	0.3	0.	56.872
1158	6.1	0.2	0.	40.645
1159	6.1	0.1	0.	20.926
1160	6.	5.9	0.	17.923
1161	6.	5.8	0.	34.939
1162	6.	5.7	0.	48.644
1163	6.	5.6	0.	58.976
1164	6.	5.5	0.	66.074
1165	6.	5.4	0.	70.008
1166	6.	5.3	0.	70.843
1167	6.	5.2	0.	68.631
1168	6.	5.1	0.	63.428
1169	6.	5.	0.	55.306
1170	6.	4.9	0.	44.397
1171	6.	4.8	0.	31.005
1172	6.	4.7	0.	16.235
1173	6.	4.6	0.	5.4412
1174	6.	4.5	0.	2.3192
1175	6.	4.4	0.	1.3983
1176	6.	4.3	0.	0.9808
1177	6.	4.2	0.	0.73988
1178	6.	4.1	0.	0.58033
1179	6.	4.	0.	0.46556
1180	6.	3.9	0.	0.37889
1181	6.	3.8	0.	0.31181
1182	6.	3.7	0.	0.2595
1183	6.	3.6	0.	0.21894
1184	6.	3.5	0.	0.188
1185	6.	3.4	0.	0.16502
1186	6.	3.3	0.	0.14864
1187	6.	3.2	0.	0.13777
1188	6.	3.1	0.	0.13159
1189	6.	3.	0.	0.12959
1190	6.	2.9	0.	0.13159
1191	6.	2.8	0.	0.13777
1192	6.	2.7	0.	0.14864
1193	6.	2.6	0.	0.16502
1194	6.	2.5	0.	0.188
1195	6.	2.4	0.	0.21894
1196	6.	2.3	0.	0.2595
1197	6.	2.2	0.	0.31181
1198	6.	2.1	0.	0.37889
1199	6.	2.	0.	0.46555
1200	6.	1.9	0.	0.58033
1201	6.	1.8	0.	0.73988
1202	6.	1.7	0.	0.9808
1203	6.	1.6	0.	1.3983
1204	6.	1.5	0.	2.3192
1205	6.	1.4	0.	5.4411
1206	6.	1.3	0.	16.235
1207	6.	1.2	0.	31.005
1208	6.	1.1	0.	44.397
1209	6.	1.	0.	55.306
1210	6.	0.9	0.	63.427
1211	6.	0.8	0.	68.631
1212	6.	0.7	0.	70.842
1213	6.	0.6	0.	70.008
1214	6.	0.5	0.	66.074
1215	6.	0.4	0.	58.976
1216	6.	0.3	0.	48.644
1217	6.	0.2	0.	34.939
1218	6.	0.1	0.	17.923
1219	5.9	5.9	0.	15.119
1220	5.9	5.8	0.	29.409
1221	5.9	5.7	0.	40.6
1222	5.9	5.6	0.	48.62
1223	5.9	5.5	0.	53.572
1224	5.9	5.4	0.	55.513
1225	5.9	5.3	0.	54.507
1226	5.9	5.2	0.	50.626
1227	5.9	5.1	0.	43.959
1228	5.9	5.	0.	34.658
1229	5.9	4.9	0.	23.077
1230	5.9	4.8	0.	10.717
1231	5.9	4.7	0.	3.5428
1232	5.9	4.6	0.	1.7314
1233	5.9	4.5	0.	1.1204
1234	5.9	4.4	0.	0.81935
1235	5.9	4.3	0.	0.63687
1236	5.9	4.2	0.	0.51166
1237	5.9	4.1	0.	0.4188
1238	5.9	4.	0.	0.34653
1239	5.9	3.9	0.	0.28875
1240	5.9	3.8	0.	0.24206
1241	5.9	3.7	0.	0.20439
1242	5.9	3.6	0.	0.17434
1243	5.9	3.5	0.	0.15084
1244	5.9	3.4	0.	0.133
1245	5.9	3.3	0.	0.12004
1246	5.9	3.2	0.	0.1113
1247	5.9	3.1	0.	0.10627
1248	5.9	3.	0.	0.10463
1249	5.9	2.9	0.	0.10627
1250	5.9	2.8	0.	0.1113
1251	5.9	2.7	0.	0.12004
1252	5.9	2.6	0.	0.133
1253	5.9	2.5	0.	0.15084
1254	5.9	2.4	0.	0.17434
1255	5.9	2.3	0.	0.20439
1256	5.9	2.2	0.	0.24206
1257	5.9	2.1	0.	0.28875
1258	5.9	2.	0.	0.34653
1259	5.9	1.9	0.	0.4188
1260	5.9	1.8	0.	0.51166
1261	5.9	1.7	0.	0.63687
1262	5.9	1.6	0.	0.81935
1263	5.9	1.5	0.	1.1203
1264	5.9	1.4	0.	1.7314
1265	5.9	1.3	0.	3.5427
1266	5.9	1.2	0.	10.717
1267	5.9	1.1	0.	23.077
1268	5.9	1.	0.	34.658
1269	5.9	0.9	0.	43.959
1270	5.9	0.8	0.	50.625
1271	5.9	0.7	0.	54.507
1272	5.9	0.6	0.	55.513
1273	5.9	0.5	0.	53.572
1274	5.9	0.4	0.	48.62
1275	5.9	0.3	0.	40.6
1276	5.9	0.2	0.	29.409
1277	5.9	0.1	0.	15.119
1278	5.8	5.9	0.	12.501
1279	5.8	5.8	0.	24.074
1280	5.8	5.7	0.	32.781
1281	5.8	5.6	0.	38.536
1282	5.8	5.5	0.	41.412
1283	5.8	5.4	0.	41.457
1284	5.8	5.3	0.	38.742
1285	5.8	5.2	0.	33.362
1286	5.8	5.1	0.	25.489
1287	5.8	5.	0.	15.594
1288	5.8	4.9	0.	6.064
1289	5.8	4.8	0.	2.2285
1290	5.8	4.7	0.	1.2603
1291	5.8	4.6	0.	0.87635
1292	5.8	4.5	0.	0.66941
1293	5.8	4.4	0.	0.53683
1294	5.8	4.3	0.	0.44219
1295	5.8	4.2	0.	0.36964
1296	5.8	4.1	0.	0.31142
1297	5.8	4.	0.	0.2634
1298	5.8	3.9	0.	0.22328
1299	5.8	3.8	0.	0.18972
1300	5.8	3.7	0.	0.16186
1301	5.8	3.6	0.	0.1391
1302	5.8	3.5	0.	0.12091
1303	5.8	3.4	0.	0.10683
1304	5.8	3.3	0.	9.6423e-002
1305	5.8	3.2	0.	8.9306e-002
1306	5.8	3.1	0.	8.5169e-002
1307	5.8	3.	0.	8.3814e-002
1308	5.8	2.9	0.	8.5169e-002
1309	5.8	2.8	0.	8.9306e-002
1310	5.8	2.7	0.	9.6423e-002
1311	5.8	2.6	0.	0.10683
1312	5.8	2.5	0.	0.12091
1313	5.8	2.4	0.	0.1391
1314	5.8	2.3	0.	0.16186
1315	5.8	2.2	0.	0.18972
1316	5.8	2.1	0.	0.22328
1317	5.8	2.	0.	0.2634
1318	5.8	1.9	0.	0.31142
1319	5.8	1.8	0.	0.36964
1320	5.8	1.7	0.	0.44219
1321	5.8	1.6	0.	0.53683
1322	5.8	1.5	0.	0.66941
1323	5.8	1.4	0.	0.87635
1324	5.8	1.3	0.	1.2603
1325	5.8	1.2	0.	2.2285
1326	5.8	1.1	0.	6.0639
1327	5.8	1.	0.	15.594
1328	5.8	0.9	0.	25.489
1329	5.8	0.8	0.	33.361
1330	5.8	0.7	0.	38.741
1331	5.8	0.6	0.	41.457
1332	5.8	0.5	0.	41.412
1333	5.8	0.4	0.	38.536
1334	5.8	0.3	0.	32.781
1335	5.8	0.2	0.	24.074
1336	5.8	0.1	0.	12.501
1337	5.7	5.9	0.	10.055
1338	5.7	5.8	0.	18.949
1339	5.7	5.7	0.	25.218
1340	5.7	5.6	0.	28.763
1341	5.7	5.5	0.	29.635
1342	5.7	5.4	0.	27.884
1343	5.7	5.3	0.	23.604
1344	5.7	5.2	0.	17.001
1345	5.7	5.1	0.	8.8558
1346	5.7	5.	0.	2.9852
1347	5.7	4.9	0.	1.392
1348	5.7	4.8	0.	0.90218
1349	5.7	4.7	0.	0.6727
1350	5.7	4.6	0.	0.53692
1351	5.7	4.5	0.	0.44453
1352	5.7	4.4	0.	0.37559
1353	5.7	4.3	0.	0.3208
1354	5.7	4.2	0.	0.27538
1355	5.7	4.1	0.	0.23672
1356	5.7	4.	0.	0.20336
1357	5.7	3.9	0.	0.17451
1358	5.7	3.8	0.	0.14967
1359	5.7	3.7	0.	0.12857
1360	5.7	3.6	0.	0.11095
1361	5.7	3.5	0.	9.6615e-002
1362	5.7	3.4	0.	8.5329e-002
1363	5.7	3.3	0.	7.6864e-002
1364	5.7	3.2	0.	7.1002e-002
1365	5.7	3.1	0.	6.7565e-002
1366	5.7	3.	0.	6.6433e-002
1367	5.7	2.9	0.	6.7565e-002
1368	5.7	2.8	0.	7.1002e-002
1369	5.7	2.7	0.	7.6864e-002
1370	5.7	2.6	0.	8.5329e-002
1371	5.7	2.5	0.	9.6615e-002
1372	5.7	2.4	0.	0.11095
1373	5.7	2.3	0.	0.12857
1374	5.7	2.2	0.	0.14967
1375	5.7	2.1	0.	0.17451
1376	5.7	2.	0.	0.20336
1377	5.7	1.9	0.	0.23672
1378	5.7	1.8	0.	0.27538
1379	5.7	1.7	0.	0.3208
1380	5.7	1.6	0.	0.37559
1381	5.7	1.5	0.	0.44453
1382	5.7	1.4	0.	0.53692
1383	5.7	1.3	0.	0.6727
1384	5.7	1.2	0.	0.90218
1385	5.7	1.1	0.	1.3919
1386	5.7	1.	0.	2.9851
1387	5.7	0.9	0.	8.8557
1388	5.7	0.8	0.	17.001
1389	5.7	0.7	0.	23.604
1390	5.7	0.6	0.	27.884
1391	5.7	0.5	0.	29.635
1392	5.7	0.4	0.	28.763
1393	5.7	0.3	0.	25.218
1394	5.7	0.2	0.	18.949
1395	5.7	0.1	0.	10.055
1396	5.6	5.9	0.	7.7704
1397	5.6	5.8	0.	14.041
1398	5.6	5.7	0.	17.933
1399	5.6	5.6	0.	19.336
1400	5.6	5.5	0.	18.296
1401	5.6	5.4	0.	14.902
1402	5.6	5.3	0.	9.4714
1403	5.6	5.2	0.	3.744
1404	5.6	5.1	0.	1.4661
1405	5.6	5.	0.	0.87926
1406	5.6	4.9	0.	0.64064
1407	5.6	4.8	0.	0.50984
1408	5.6	4.7	0.	0.42478
1409	5.6	4.6	0.	0.36302
1410	5.6	4.5	0.	0.31462
1411	5.6	4.4	0.	0.27456
1412	5.6	4.3	0.	0.24016
1413	5.6	4.2	0.	0.20991
1414	5.6	4.1	0.	0.18296
1415	5.6	4.	0.	0.15888
1416	5.6	3.9	0.	0.13744
1417	5.6	3.8	0.	0.11856
1418	5.6	3.7	0.	0.10219
1419	5.6	3.6	0.	8.8282e-002
1420	5.6	3.5	0.	7.6779e-002
1421	5.6	3.4	0.	6.7592e-002
1422	5.6	3.3	0.	6.0613e-002
1423	5.6	3.2	0.	5.5731e-002
1424	5.6	3.1	0.	5.2846e-002
1425	5.6	3.	0.	5.1893e-002
1426	5.6	2.9	0.	5.2846e-002
1427	5.6	2.8	0.	5.5731e-002
1428	5.6	2.7	0.	6.0613e-002
1429	5.6	2.6	0.	6.7592e-002
1430	5.6	2.5	0.	7.6779e-002
1431	5.6	2.4	0.	8.8282e-002
1432	5.6	2.3	0.	0.10219
1433	5.6	2.2	0.	0.11856
1434	5.6	2.1	0.	0.13744
1435	5.6	2.	0.	0.15888
1436	5.6	1.9	0.	0.18296
1437	5.6	1.8	0.	0.20991
1438	5.6	1.7	0.	0.24016
1439	5.6	1.6	0.	0.27456
1440	5.6	1.5	0.	0.31462
1441	5.6	1.4	0.	0.36302
1442	5.6	1.3	0.	0.42478
1443	5.6	1.2	0.	0.50984
1444	5.6	1.1	0.	0.64063
1445	5.6	1.	0.	0.87926
1446	5.6	0.9	0.	1.4661
1447	5.6	0.8	0.	3.7439
1448	5.6	0.7	0.	9.4713
1449	5.6	0.6	0.	14.902
1450	5.6	0.5	0.	18.296
1451	5.6	0.4	0.	19.336
1452	5.6	0.3	0.	17.933
1453	5.6	0.2	0.	14.041
1454	5.6	0.1	0.	7.7704
1455	5.5	5.9	0.	5.6407
1456	5.5	5.8	0.	9.3605
1457	5.5	5.7	0.	10.956
1458	5.5	5.6	0.	10.327
1459	5.5	5.5	0.	7.6146
1460	5.5	5.4	0.	3.6339
1461	5.5	5.3	0.	1.3668
1462	5.5	5.2	0.	0.78329
1463	5.5	5.1	0.	0.56763
1464	5.5	5.	0.	0.45527
1465	5.5	4.9	0.	0.38419
1466	5.5	4.8	0.	0.33335
1467	5.5	4.7	0.	0.29375
1468	5.5	4.6	0.	0.26095
1469	5.5	4.5	0.	0.23256
1470	5.5	4.4	0.	0.20721
1471	5.5	4.3	0.	0.18411
1472	5.5	4.2	0.	0.16286
1473	5.5	4.1	0.	0.14324
1474	5.5	4.	0.	0.12522
1475	5.5	3.9	0.	0.10881
1476	5.5	3.8	0.	9.4074e-002
1477	5.5	3.7	0.	8.1083e-002
1478	5.5	3.6	0.	6.9882e-002
1479	5.5	3.5	0.	6.0491e-002
1480	5.5	3.4	0.	5.2898e-002
1481	5.5	3.3	0.	4.7069e-002
1482	5.5	3.2	0.	4.2955e-002
1483	5.5	3.1	0.	4.051e-002
1484	5.5	3.	0.	3.9699e-002
1485	5.5	2.9	0.	4.051e-002
1486	5.5	2.8	0.	4.2955e-002
1487	5.5	2.7	0.	4.7069e-002
1488	5.5	2.6	0.	5.2898e-002
1489	5.5	2.5	0.	6.0491e-002
1490	5.5	2.4	0.	6.9882e-002
1491	5.5	2.3	0.	8.1083e-002
1492	5.5	2.2	0.	9.4074e-002
1493	5.5	2.1	0.	0.10881
1494	5.5	2.	0.	0.12522
1495	5.5	1.9	0.	0.14324
1496	5.5	1.8	0.	0.16286
1497	5.5	1.7	0.	0.18411
1498	5.5	1.6	0.	0.20721
1499	5.5	1.5	0.	0.23256
1500	5.5	1.4	0.	0.26095
1501	5.5	1.3	0.	0.29375
1502	5.5	1.2	0.	0.33334
1503	5.5	1.1	0.	0.38419
1504	5.5	1.	0.	0.45527
1505	5.5	0.9	0.	0.56763
1506	5.5	0.8	0.	0.78328
1507	5.5	0.7	0.	1.3668
1508	5.5	0.6	0.	3.6338
1509	5.5	0.5	0.	7.6145
1510	5.5	0.4	0.	10.327
1511	5.5	0.3	0.	10.956
1512	5.5	0.2	0.	9.3604
1513	5.5	0.1	0.	5.6407
1514	5.4	5.9	0.	3.6704
1515	5.4	5.8	0.	4.9422
1516	5.4	5.7	0.	4.4279
1517	5.4	5.6	0.	2.4585
1518	5.4	5.5	0.	1.0178
1519	5.4	5.4	0.	0.60906
1520	5.4	5.3	0.	0.45698
1521	5.4	5.2	0.	0.37749
1522	5.4	5.1	0.	0.32681
1523	5.4	5.	0.	0.29014
1524	5.4	4.9	0.	0.26119
1525	5.4	4.8	0.	0.23683
1526	5.4	4.7	0.	0.21536
1527	5.4	4.6	0.	0.19578
1528	5.4	4.5	0.	0.17753
1529	5.4	4.4	0.	0.16025
1530	5.4	4.3	0.	0.1438
1531	5.4	4.2	0.	0.12813
1532	5.4	4.1	0.	0.11327
1533	5.4	4.	0.	9.9309e-002
1534	5.4	3.9	0.	8.6374e-002
1535	5.4	3.8	0.	7.4581e-002
1536	5.4	3.7	0.	6.4042e-002
1537	5.4	3.6	0.	5.4843e-002
1538	5.4	3.5	0.	4.7044e-002
1539	5.4	3.4	0.	4.0675e-002
1540	5.4	3.3	0.	3.5741e-002
1541	5.4	3.2	0.	3.2235e-002
1542	5.4	3.1	0.	3.0141e-002
1543	5.4	3.	0.	2.9444e-002
1544	5.4	2.9	0.	3.0141e-002
1545	5.4	2.8	0.	3.2235e-002
1546	5.4	2.7	0.	3.5742e-002
1547	5.4	2.6	0.	4.0675e-002
1548	5.4	2.5	0.	4.7044e-002
1549	5.4	2.4	0.	5.4843e-002
1550	5.4	2.3	0.	6.4042e-002
1551	5.4	2.2	0.	7.4581e-002
1552	5.4	2.1	0.	8.6374e-002
1553	5.4	2.	0.	9.931e-002
1554	5.4	1.9	0.	0.11327
1555	5.4	1.8	0.	0.12813
1556	5.4	1.7	0.	0.1438
1557	5.4	1.6	0.	0.16025
1558	5.4	1.5	0.	0.17753
1559	5.4	1.4	0.	0.19578
1560	5.4	1.3	0.	0.21536
1561	5.4	1.2	0.	0.23683
1562	5.4	1.1	0.	0.26119
1563	5.4	1.	0.	0.29014
1564	5.4	0.9	0.	0.32681
1565	5.4	0.8	0.	0.37749
1566	5.4	0.7	0.	0.45698
1567	5.4	0.6	0.	0.60905
1568	5.4	0.5	0.	1.0178
1569	5.4	0.4	0.	2.4585
1570	5.4	0.3	0.	4.4278
1571	5.4	0.2	0.	4.9422
1572	5.4	0.1	0.	3.6704
1573	5.3	5.9	0.	1.9154
1574	5.3	5.8	0.	1.2211
1575	5.3	5.7	0.	0.60175
1576	5.3	5.6	0.	0.40858
1577	5.3	5.5	0.	0.33161
1578	5.3	5.4	0.	0.28926
1579	5.3	5.3	0.	0.26094
1580	5.3	5.2	0.	0.23942
1581	5.3	5.1	0.	0.2216
1582	5.3	5.	0.	0.2059
1583	5.3	4.9	0.	0.19148
1584	5.3	4.8	0.	0.17783
1585	5.3	4.7	0.	0.16463
1586	5.3	4.6	0.	0.1517
1587	5.3	4.5	0.	0.13896
1588	5.3	4.4	0.	0.12638
1589	5.3	4.3	0.	0.11401
1590	5.3	4.2	0.	0.10191
1591	5.3	4.1	0.	9.0221e-002
1592	5.3	4.	0.	7.9062e-002
1593	5.3	3.9	0.	6.8578e-002
1594	5.3	3.8	0.	5.8906e-002
1595	5.3	3.7	0.	5.0171e-002
1596	5.3	3.6	0.	4.2472e-002
1597	5.3	3.5	0.	3.5886e-002
1598	5.3	3.4	0.	3.0463e-002
1599	5.3	3.3	0.	2.6234e-002
1600	5.3	3.2	0.	2.3211e-002
1601	5.3	3.1	0.	2.1398e-002
1602	5.3	3.	0.	2.0794e-002
1603	5.3	2.9	0.	2.1398e-002
1604	5.3	2.8	0.	2.3211e-002
1605	5.3	2.7	0.	2.6234e-002
1606	5.3	2.6	0.	3.0463e-002
1607	5.3	2.5	0.	3.5886e-002
1608	5.3	2.4	0.	4.2472e-002
1609	5.3	2.3	0.	5.0171e-002
1610	5.3	2.2	0.	5.8906e-002
1611	5.3	2.1	0.	6.8578e-002
1612	5.3	2.	0.	7.9062e-002
1613	5.3	1.9	0.	9.0221e-002
1614	5.3	1.8	0.	0.10191
1615	5.3	1.7	0.	0.11401
1616	5.3	1.6	0.	0.12638
1617	5.3	1.5	0.	0.13896
1618	5.3	1.4	0.	0.1517
1619	5.3	1.3	0.	0.16463
1620	5.3	1.2	0.	0.17783
1621	5.3	1.1	0.	0.19148
1622	5.3	1.	0.	0.2059
1623	5.3	0.9	0.	0.2216
1624	5.3	0.8	0.	0.23942
1625	5.3	0.7	0.	0.26094
1626	5.3	0.6	0.	0.28926
1627	5.3	0.5	0.	0.33161
1628	5.3	0.4	0.	0.40858
1629	5.3	0.3	0.	0.60175
1630	5.3	0.2	0.	1.2211
1631	5.3	0.1	0.	1.9154
1632	5.2	5.9	0.	0.74042
1633	5.2	5.8	0.	0.2947
1634	5.2	5.7	0.	0.23419
1635	5.2	5.6	0.	0.21259
1636	5.2	5.5	0.	0.19964
1637	5.2	5.4	0.	0.18984
1638	5.2	5.3	0.	0.1812
1639	5.2	5.2	0.	0.17295
1640	5.2	5.1	0.	0.16475
1641	5.2	5.	0.	0.15642
1642	5.2	4.9	0.	0.14786
1643	5.2	4.8	0.	0.13904
1644	5.2	4.7	0.	0.12994
1645	5.2	4.6	0.	0.12057
1646	5.2	4.5	0.	0.11099
1647	5.2	4.4	0.	0.10126
1648	5.2	4.3	0.	9.1478e-002
1649	5.2	4.2	0.	8.1755e-002
1650	5.2	4.1	0.	7.2224e-002
1651	5.2	4.	0.	6.3026e-002
1652	5.2	3.9	0.	5.4302e-002
1653	5.2	3.8	0.	4.6184e-002
1654	5.2	3.7	0.	3.8793e-002
1655	5.2	3.6	0.	3.2231e-002
1656	5.2	3.5	0.	2.6579e-002
1657	5.2	3.4	0.	2.1896e-002
1658	5.2	3.3	0.	1.8224e-002
1659	5.2	3.2	0.	1.5588e-002
1660	5.2	3.1	0.	1.4001e-002
1661	5.2	3.	0.	1.3472e-002
1662	5.2	2.9	0.	1.4001e-002
1663	5.2	2.8	0.	1.5587e-002
1664	5.2	2.7	0.	1.8224e-002
1665	5.2	2.6	0.	2.1896e-002
1666	5.2	2.5	0.	2.6579e-002
1667	5.2	2.4	0.	3.2231e-002
1668	5.2	2.3	0.	3.8793e-002
1669	5.2	2.2	0.	4.6184e-002
1670	5.2	2.1	0.	5.4302e-002
1671	5.2	2.	0.	6.3027e-002
1672	5.2	1.9	0.	7.2225e-002
1673	5.2	1.8	0.	8.1755e-002
1674	5.2	1.7	0.	9.1478e-002
1675	5.2	1.6	0.	0.10126
1676	5.2	1.5	0.	0.11099
1677	5.2	1.4	0.	0.12058
1678	5.2	1.3	0.	0.12994
1679	5.2	1.2	0.	0.13904
1680	5.2	1.1	0.	0.14786
1681	5.2	1.	0.	0.15642
1682	5.2	0.9	0.	0.16475
1683	5.2	0.8	0.	0.17295
1684	5.2	0.7	0.	0.1812
1685	5.2	0.6	0.	0.18984
1686	5.2	0.5	0.	0.19965
1687	5.2	0.4	0.	0.21259
1688	5.2	0.3	0.	0.2342
1689	5.2	0.2	0.	0.2947
1690	5.2	0.1	0.	0.74041
1691	5.1	5.9	0.	0.44385
1692	5.1	5.8	0.	0.19929
1693	5.1	5.7	0.	0.16282
1694	5.1	5.6	0.	0.15353
1695	5.1	5.5	0.	0.148
1696	5.1	5.4	0.	0.14378
1697	5.1	5.3	0.	0.13962
1698	5.1	5.2	0.	0.13513
1699	5.1	5.1	0.	0.13017
1700	5.1	5.	0.	0.12469
1701	5.1	4.9	0.	0.11869
1702	5.1	4.8	0.	0.11218
1703	5.1	4.7	0.	0.10522
1704	5.1	4.6	0.	9.785e-002
1705	5.1	4.5	0.	9.0149e-002
1706	5.1	4.4	0.	8.2202e-002
1707	5.1	4.3	0.	7.411e-002
1708	5.1	4.2	0.	6.5991e-002
1709	5.1	4.1	0.	5.7968e-002
1710	5.1	4.	0.	5.0171e-002
1711	5.1	3.9	0.	4.273e-002
1712	5.1	3.8	0.	3.5766e-002
1713	5.1	3.7	0.	2.9392e-002
1714	5.1	3.6	0.	2.3702e-002
1715	5.1	3.5	0.	1.8776e-002
1716	5.1	3.4	0.	1.4676e-002
1717	5.1	3.3	0.	1.1448e-002
1718	5.1	3.2	0.	9.1231e-003
1719	5.1	3.1	0.	7.7209e-003
1720	5.1	3.	0.	7.2524e-003
1721	5.1	2.9	0.	7.721e-003
1722	5.1	2.8	0.	9.1231e-003
1723	5.1	2.7	0.	1.1448e-002
1724	5.1	2.6	0.	1.4676e-002
1725	5.1	2.5	0.	1.8776e-002
1726	5.1	2.4	0.	2.3702e-002
1727	5.1	2.3	0.	2.9392e-002
1728	5.1	2.2	0.	3.5767e-002
1729	5.1	2.1	0.	4.273e-002
1730	5.1	2.	0.	5.0172e-002
1731	5.1	1.9	0.	5.7968e-002
1732	5.1	1.8	0.	6.5991e-002
1733	5.1	1.7	0.	7.4111e-002
1734	5.1	1.6	0.	8.2202e-002
1735	5.1	1.5	0.	9.015e-002
1736	5.1	1.4	0.	9.7851e-002
1737	5.1	1.3	0.	0.10522
1738	5.1	1.2	0.	0.11218
1739	5.1	1.1	0.	0.11869
1740	5.1	1.	0.	0.12469
1741	5.1	0.9	0.	0.13017
1742	5.1	0.8	0.	0.13513
1743	5.1	0.7	0.	0.13962
1744	5.1	0.6	0.	0.14379
1745	5.1	0.5	0.	0.148
1746	5.1	0.4	0.	0.15353
1747	5.1	0.3	0.	0.16282
1748	5.1	0.2	0.	0.1993
1749	5.1	0.1	0.	0.44385
1750	5.	5.9	0.	0.40272
1751	5.	5.8	0.	0.17801
1752	5.	5.7	0.	0.13656
1753	5.	5.6	0.	0.12733
1754	5.	5.5	0.	0.12192
1755	5.	5.4	0.	0.11829
1756	5.	5.3	0.	0.11493
1757	5.	5.2	0.	0.1114
1758	5.	5.1	0.	0.10748
1759	5.	5.	0.	0.10309
1760	5.	4.9	0.	9.8204e-002
1761	5.	4.8	0.	9.2834e-002
1762	5.	4.7	0.	8.7014e-002
1763	5.	4.6	0.	8.0795e-002
1764	5.	4.5	0.	7.4245e-002
1765	5.	4.4	0.	6.7445e-002
1766	5.	4.3	0.	6.0488e-002
1767	5.	4.2	0.	5.3478e-002
1768	5.	4.1	0.	4.6527e-002
1769	5.	4.	0.	3.9749e-002
1770	5.	3.9	0.	3.3259e-002
1771	5.	3.8	0.	2.7165e-002
1772	5.	3.7	0.	2.1568e-002
1773	5.	3.6	0.	1.6554e-002
1774	5.	3.5	0.	1.2233e-002
1775	5.	3.4	0.	8.5637e-003
1776	5.	3.3	0.	5.6925e-003
1777	5.	3.2	0.	3.6197e-003
1778	5.	3.1	0.	2.3678e-003
1779	5.	3.	0.	1.9489e-003
1780	5.	2.9	0.	2.3677e-003
1781	5.	2.8	0.	3.6198e-003
1782	5.	2.7	0.	5.6927e-003
1783	5.	2.6	0.	8.5638e-003
1784	5.	2.5	0.	1.2233e-002
1785	5.	2.4	0.	1.6554e-002
1786	5.	2.3	0.	2.1568e-002
1787	5.	2.2	0.	2.7165e-002
1788	5.	2.1	0.	3.3259e-002
1789	5.	2.	0.	3.9749e-002
1790	5.	1.9	0.	4.6527e-002
1791	5.	1.8	0.	5.3478e-002
1792	5.	1.7	0.	6.0488e-002
1793	5.	1.6	0.	6.7445e-002
1794	5.	1.5	0.	7.4246e-002
1795	5.	1.4	0.	8.0796e-002
1796	5.	1.3	0.	8.7014e-002
1797	5.	1.2	0.	9.2835e-002
1798	5.	1.1	0.	9.8205e-002
1799	5.	1.	0.	0.10309
1800	5.	0.9	0.	0.10748
1801	5.	0.8	0.	0.1114
1802	5.	0.7	0.	0.11493
1803	5.	0.6	0.	0.11829
1804	5.	0.5	0.	0.12192
1805	5.	0.4	0.	0.12733
1806	5.	0.3	0.	0.13656
1807	5.	0.2	0.	0.17801
1808	5.	0.1	0.	0.40272
1809	4.9	5.9	0.	0.41467
1810	4.9	5.8	0.	0.17553
1811	4.9	5.7	0.	0.12509
1812	4.9	5.6	0.	0.11387
1813	4.9	5.5	0.	0.10706
1814	4.9	5.4	0.	0.10274
1815	4.9	5.3	0.	9.9066e-002
1816	4.9	5.2	0.	9.5517e-002
1817	4.9	5.1	0.	9.1779e-002
1818	4.9	5.	0.	8.7721e-002
1819	4.9	4.9	0.	8.3282e-002
1820	4.9	4.8	0.	7.845e-002
1821	4.9	4.7	0.	7.3242e-002
1822	4.9	4.6	0.	6.7695e-002
1823	4.9	4.5	0.	6.1863e-002
1824	4.9	4.4	0.	5.5817e-002
1825	4.9	4.3	0.	4.9635e-002
1826	4.9	4.2	0.	4.3408e-002
1827	4.9	4.1	0.	3.7232e-002
1828	4.9	4.	0.	3.1208e-002
1829	4.9	3.9	0.	2.5434e-002
1830	4.9	3.8	0.	2.0005e-002
1831	4.9	3.7	0.	1.501e-002
1832	4.9	3.6	0.	1.0528e-002
1833	4.9	3.5	0.	6.6275e-003
1834	4.9	3.4	0.	3.3638e-003
1835	4.9	3.3	0.	7.8203e-004
1836	4.9	3.2	0.	-1.0847e-003
1837	4.9	3.1	0.	-2.2135e-003
1838	4.9	3.	0.	-2.5912e-003
1839	4.9	2.9	0.	-2.2135e-003
1840	4.9	2.8	0.	-1.0847e-003
1841	4.9	2.7	0.	7.8213e-004
1842	4.9	2.6	0.	3.364e-003
1843	4.9	2.5	0.	6.6276e-003
1844	4.9	2.4	0.	1.0529e-002
1845	4.9	2.3	0.	1.5011e-002
1846	4.9	2.2	0.	2.0005e-002
1847	4.9	2.1	0.	2.5434e-002
1848	4.9	2.	0.	3.1208e-002
1849	4.9	1.9	0.	3.7233e-002
1850	4.9	1.8	0.	4.3408e-002
1851	4.9	1.7	0.	4.9635e-002
1852	4.9	1.6	0.	5.5817e-002
1853	4.9	1.5	0.	6.1864e-002
1854	4.9	1.4	0.	6.7696e-002
1855	4.9	1.3	0.	7.3243e-002
1856	4.9	1.2	0.	7.8451e-002
1857	4.9	1.1	0.	8.3283e-002
1858	4.9	1.	0.	8.7722e-002
1859	4.9	0.9	0.	9.178e-002
1860	4.9	0.8	0.	9.5518e-002
1861	4.9	0.7	0.	9.9067e-002
1862	4.9	0.6	0.	0.10274
1863	4.9	0.5	0.	0.10707
1864	4.9	0.4	0.	0.11388
1865	4.9	0.3	0.	0.12509
1866	4.9	0.2	0.	0.17553
1867	4.9	0.1	0.	0.41467
1868	4.8	5.9	0.	0.44503
1869	4.8	5.8	0.	0.18058
1870	4.8	5.7	0.	0.12029
1871	4.8	5.6	0.	0.10665
1872	4.8	5.5	0.	9.8088e-002
1873	4.8	5.4	0.	9.2708e-002
1874	4.8	5.3	0.	8.8352e-002
1875	4.8	5.2	0.	8.4409e-002
1876	4.8	5.1	0.	8.0488e-002
1877	4.8	5.	0.	7.6412e-002
1878	4.8	4.9	0.	7.2088e-002
1879	4.8	4.8	0.	6.748e-002
1880	4.8	4.7	0.	6.2586e-002
1881	4.8	4.6	0.	5.7429e-002
1882	4.8	4.5	0.	5.2051e-002
1883	4.8	4.4	0.	4.6507e-002
1884	4.8	4.3	0.	4.0865e-002
1885	4.8	4.2	0.	3.52e-002
1886	4.8	4.1	0.	2.9596e-002
1887	4.8	4.	0.	2.4138e-002
1888	4.8	3.9	0.	1.8911e-002
1889	4.8	3.8	0.	1.3998e-002
1890	4.8	3.7	0.	9.4766e-003
1891	4.8	3.6	0.	5.4171e-003
1892	4.8	3.5	0.	1.8807e-003
1893	4.8	3.4	0.	-1.0809e-003
1894	4.8	3.3	0.	-3.426e-003
1895	4.8	3.2	0.	-5.1231e-003
1896	4.8	3.1	0.	-6.1501e-003
1897	4.8	3.	0.	-6.494e-003
1898	4.8	2.9	0.	-6.1501e-003
1899	4.8	2.8	0.	-5.1231e-003
1900	4.8	2.7	0.	-3.4259e-003
1901	4.8	2.6	0.	-1.0807e-003
1902	4.8	2.5	0.	1.8809e-003
1903	4.8	2.4	0.	5.4172e-003
1904	4.8	2.3	0.	9.4768e-003
1905	4.8	2.2	0.	1.3998e-002
1906	4.8	2.1	0.	1.8911e-002
1907	4.8	2.	0.	2.4138e-002
1908	4.8	1.9	0.	2.9597e-002
1909	4.8	1.8	0.	3.5201e-002
1910	4.8	1.7	0.	4.0865e-002
1911	4.8	1.6	0.	4.6508e-002
1912	4.8	1.5	0.	5.2051e-002
1913	4.8	1.4	0.	5.743e-002
1914	4.8	1.3	0.	6.2586e-002
1915	4.8	1.2	0.	6.748e-002
1916	4.8	1.1	0.	7.2089e-002
1917	4.8	1.	0.	7.6413e-002
1918	4.8	0.9	0.	8.0489e-002
1919	4.8	0.8	0.	8.4409e-002
1920	4.8	0.7	0.	8.8353e-002
1921	4.8	0.6	0.	9.2709e-002
1922	4.8	0.5	0.	9.8089e-002
1923	4.8	0.4	0.	0.10665
1924	4.8	0.3	0.	0.12029
1925	4.8	0.2	0.	0.18059
1926	4.8	0.1	0.	0.44503
1927	4.7	5.9	0.	0.48461
1928	4.7	5.8	0.	0.18947
1929	4.7	5.7	0.	0.11911
1930	4.7	5.6	0.	0.10296
1931	4.7	5.5	0.	9.2576e-002
1932	4.7	5.4	0.	8.6042e-002
1933	4.7	5.3	0.	8.088e-002
1934	4.7	5.2	0.	7.6397e-002
1935	4.7	5.1	0.	7.2134e-002
1936	4.7	5.	0.	6.7872e-002
1937	4.7	4.9	0.	6.349e-002
1938	4.7	4.8	0.	5.8932e-002
1939	4.7	4.7	0.	5.418e-002
1940	4.7	4.6	0.	4.9243e-002
1941	4.7	4.5	0.	4.415e-002
1942	4.7	4.4	0.	3.8946e-002
1943	4.7	4.3	0.	3.3685e-002
1944	4.7	4.2	0.	2.8432e-002
1945	4.7	4.1	0.	2.3255e-002
1946	4.7	4.	0.	1.8229e-002
1947	4.7	3.9	0.	1.3427e-002
1948	4.7	3.8	0.	8.9193e-003
1949	4.7	3.7	0.	4.775e-003
1950	4.7	3.6	0.	1.0555e-003
1951	4.7	3.5	0.	-2.1845e-003
1952	4.7	3.4	0.	-4.8984e-003
1953	4.7	3.3	0.	-7.0481e-003
1954	4.7	3.2	0.	-8.6044e-003
1955	4.7	3.1	0.	-9.5464e-003
1956	4.7	3.	0.	-9.8617e-003
1957	4.7	2.9	0.	-9.5463e-003
1958	4.7	2.8	0.	-8.6044e-003
1959	4.7	2.7	0.	-7.048e-003
1960	4.7	2.6	0.	-4.8983e-003
1961	4.7	2.5	0.	-2.1843e-003
1962	4.7	2.4	0.	1.0557e-003
1963	4.7	2.3	0.	4.7752e-003
1964	4.7	2.2	0.	8.9195e-003
1965	4.7	2.1	0.	1.3427e-002
1966	4.7	2.	0.	1.8229e-002
1967	4.7	1.9	0.	2.3256e-002
1968	4.7	1.8	0.	2.8432e-002
1969	4.7	1.7	0.	3.3686e-002
1970	4.7	1.6	0.	3.8947e-002
1971	4.7	1.5	0.	4.4151e-002
1972	4.7	1.4	0.	4.9244e-002
1973	4.7	1.3	0.	5.4181e-002
1974	4.7	1.2	0.	5.8933e-002
1975	4.7	1.1	0.	6.3491e-002
1976	4.7	1.	0.	6.7873e-002
1977	4.7	0.9	0.	7.2135e-002
1978	4.7	0.8	0.	7.6398e-002
1979	4.7	0.7	0.	8.0881e-002
1980	4.7	0.6	0.	8.6043e-002
1981	4.7	0.5	0.	9.2577e-002
1982	4.7	0.4	0.	0.10296
1983	4.7	0.3	0.	0.11911
1984	4.7	0.2	0.	0.18948
1985	4.7	0.1	0.	0.48461
1986	4.6	5.9	0.	0.53028
1987	4.6	5.8	0.	0.20067
1988	4.6	5.7	0.	0.12017
1989	4.6	5.6	0.	0.10149
1990	4.6	5.5	0.	8.929e-002
1991	4.6	5.4	0.	8.1586e-002
1992	4.6	5.3	0.	7.5583e-002
1993	4.6	5.2	0.	7.0504e-002
1994	4.6	5.1	0.	6.5825e-002
1995	4.6	5.	0.	6.1293e-002
1996	4.6	4.9	0.	5.6761e-002
1997	4.6	4.8	0.	5.2154e-002
1998	4.6	4.7	0.	4.744e-002
1999	4.6	4.6	0.	4.2616e-002
2000	4.6	4.5	0.	3.77e-002
2001	4.6	4.4	0.	3.2725e-002
2002	4.6	4.3	0.	2.7737e-002
2003	4.6	4.2	0.	2.2788e-002
2004	4.6	4.1	0.	1.7936e-002
2005	4.6	4.	0.	1.3245e-002
2006	4.6	3.9	0.	8.7774e-003
2007	4.6	3.8	0.	4.594e-003
2008	4.6	3.7	0.	7.5431e-004
2009	4.6	3.6	0.	-2.6879e-003
2010	4.6	3.5	0.	-5.6838e-003
2011	4.6	3.4	0.	-8.1924e-003
2012	4.6	3.3	0.	-1.0179e-002
2013	4.6	3.2	0.	-1.1617e-002
2014	4.6	3.1	0.	-1.2487e-002
2015	4.6	3.	0.	-1.2779e-002
2016	4.6	2.9	0.	-1.2487e-002
2017	4.6	2.8	0.	-1.1617e-002
2018	4.6	2.7	0.	-1.0179e-002
2019	4.6	2.6	0.	-8.1922e-003
2020	4.6	2.5	0.	-5.6837e-003
2021	4.6	2.4	0.	-2.6876e-003
2022	4.6	2.3	0.	7.5437e-004
2023	4.6	2.2	0.	4.5943e-003
2024	4.6	2.1	0.	8.7776e-003
2025	4.6	2.	0.	1.3246e-002
2026	4.6	1.9	0.	1.7937e-002
2027	4.6	1.8	0.	2.2788e-002
2028	4.6	1.7	0.	2.7737e-002
2029	4.6	1.6	0.	3.2726e-002
2030	4.6	1.5	0.	3.77e-002
2031	4.6	1.4	0.	4.2616e-002
2032	4.6	1.3	0.	4.744e-002
2033	4.6	1.2	0.	5.2155e-002
2034	4.6	1.1	0.	5.6762e-002
2035	4.6	1.	0.	6.1294e-002
2036	4.6	0.9	0.	6.5826e-002
2037	4.6	0.8	0.	7.0505e-002
2038	4.6	0.7	0.	7.5583e-002
2039	4.6	0.6	0.	8.1587e-002
2040	4.6	0.5	0.	8.9291e-002
2041	4.6	0.4	0.	0.10149
2042	4.6	0.3	0.	0.12017
2043	4.6	0.2	0.	0.20068
2044	4.6	0.1	0.	0.53028
2045	4.5	5.9	0.	0.58097
2046	4.5	5.8	0.	0.21347
2047	4.5	5.7	0.	0.12276
2048	4.5	5.6	0.	0.10153
2049	4.5	5.5	0.	8.7538e-002
2050	4.5	5.4	0.	7.8671e-002
2051	4.5	5.3	0.	7.1819e-002
2052	4.5	5.2	0.	6.6125e-002
2053	4.5	5.1	0.	6.0998e-002
2054	4.5	5.	0.	5.6152e-002
2055	4.5	4.9	0.	5.1417e-002
2056	4.5	4.8	0.	4.6702e-002
2057	4.5	4.7	0.	4.196e-002
2058	4.5	4.6	0.	3.7179e-002
2059	4.5	4.5	0.	3.2366e-002
2060	4.5	4.4	0.	2.7546e-002
2061	4.5	4.3	0.	2.2754e-002
2062	4.5	4.2	0.	1.8033e-002
2063	4.5	4.1	0.	1.3433e-002
2064	4.5	4.	0.	9.0058e-003
2065	4.5	3.9	0.	4.8054e-003
2066	4.5	3.8	0.	8.8468e-004
2067	4.5	3.7	0.	-2.7054e-003
2068	4.5	3.6	0.	-5.9181e-003
2069	4.5	3.5	0.	-8.7107e-003
2070	4.5	3.4	0.	-1.1047e-002
2071	4.5	3.3	0.	-1.2895e-002
2072	4.5	3.2	0.	-1.4233e-002
2073	4.5	3.1	0.	-1.5043e-002
2074	4.5	3.	0.	-1.5314e-002
2075	4.5	2.9	0.	-1.5043e-002
2076	4.5	2.8	0.	-1.4233e-002
2077	4.5	2.7	0.	-1.2895e-002
2078	4.5	2.6	0.	-1.1047e-002
2079	4.5	2.5	0.	-8.7104e-003
2080	4.5	2.4	0.	-5.9181e-003
2081	4.5	2.3	0.	-2.705e-003
2082	4.5	2.2	0.	8.849e-004
2083	4.5	2.1	0.	4.8059e-003
2084	4.5	2.	0.	9.0063e-003
2085	4.5	1.9	0.	1.3434e-002
2086	4.5	1.8	0.	1.8034e-002
2087	4.5	1.7	0.	2.2755e-002
2088	4.5	1.6	0.	2.7547e-002
2089	4.5	1.5	0.	3.2367e-002
2090	4.5	1.4	0.	3.7179e-002
2091	4.5	1.3	0.	4.1961e-002
2092	4.5	1.2	0.	4.6703e-002
2093	4.5	1.1	0.	5.1418e-002
2094	4.5	1.	0.	5.6153e-002
2095	4.5	0.9	0.	6.0999e-002
2096	4.5	0.8	0.	6.6125e-002
2097	4.5	0.7	0.	7.182e-002
2098	4.5	0.6	0.	7.8672e-002
2099	4.5	0.5	0.	8.7539e-002
2100	4.5	0.4	0.	0.10153
2101	4.5	0.3	0.	0.12276
2102	4.5	0.2	0.	0.21348
2103	4.5	0.1	0.	0.58097
2104	4.4	5.9	0.	0.63652
2105	4.4	5.8	0.	0.22752
2106	4.4	5.7	0.	0.12649
2107	4.4	5.6	0.	0.10269
2108	4.4	5.5	0.	8.6909e-002
2109	4.4	5.4	0.	7.6888e-002
2110	4.4	5.3	0.	6.919e-002
2111	4.4	5.2	0.	6.2871e-002
2112	4.4	5.1	0.	5.728e-002
2113	4.4	5.	0.	5.2097e-002
2114	4.4	4.9	0.	4.7127e-002
2115	4.4	4.8	0.	4.2265e-002
2116	4.4	4.7	0.	3.7454e-002
2117	4.4	4.6	0.	3.2668e-002
2118	4.4	4.5	0.	2.7908e-002
2119	4.4	4.4	0.	2.319e-002
2120	4.4	4.3	0.	1.8539e-002
2121	4.4	4.2	0.	1.3991e-002
2122	4.4	4.1	0.	9.5874e-003
2123	4.4	4.	0.	5.3712e-003
2124	4.4	3.9	0.	1.3883e-003
2125	4.4	3.8	0.	-2.3164e-003
2126	4.4	3.7	0.	-5.6989e-003
2127	4.4	3.6	0.	-8.7188e-003
2128	4.4	3.5	0.	-1.1339e-002
2129	4.4	3.4	0.	-1.3528e-002
2130	4.4	3.3	0.	-1.5259e-002
2131	4.4	3.2	0.	-1.6511e-002
2132	4.4	3.1	0.	-1.7268e-002
2133	4.4	3.	0.	-1.7521e-002
2134	4.4	2.9	0.	-1.7268e-002
2135	4.4	2.8	0.	-1.6511e-002
2136	4.4	2.7	0.	-1.5259e-002
2137	4.4	2.6	0.	-1.3528e-002
2138	4.4	2.5	0.	-1.1339e-002
2139	4.4	2.4	0.	-8.7186e-003
2140	4.4	2.3	0.	-5.6986e-003
2141	4.4	2.2	0.	-2.3161e-003
2142	4.4	2.1	0.	1.3885e-003
2143	4.4	2.	0.	5.3717e-003
2144	4.4	1.9	0.	9.5878e-003
2145	4.4	1.8	0.	1.3992e-002
2146	4.4	1.7	0.	1.854e-002
2147	4.4	1.6	0.	2.319e-002
2148	4.4	1.5	0.	2.7909e-002
2149	4.4	1.4	0.	3.2669e-002
2150	4.4	1.3	0.	3.7454e-002
2151	4.4	1.2	0.	4.2266e-002
2152	4.4	1.1	0.	4.7128e-002
2153	4.4	1.	0.	5.2098e-002
2154	4.4	0.9	0.	5.7281e-002
2155	4.4	0.8	0.	6.2872e-002
2156	4.4	0.7	0.	6.9191e-002
2157	4.4	0.6	0.	7.6889e-002
2158	4.4	0.5	0.	8.691e-002
2159	4.4	0.4	0.	0.10269
2160	4.4	0.3	0.	0.12649
2161	4.4	0.2	0.	0.22753
2162	4.4	0.1	0.	0.63652
2163	4.3	5.9	0.	0.69729
2164	4.3	5.8	0.	0.24266
2165	4.3	5.7	0.	0.13113
2166	4.3	5.6	0.	0.10472
2167	4.3	5.5	0.	8.715e-002
2168	4.3	5.4	0.	7.5978e-002
2169	4.3	5.3	0.	6.7433e-002
2170	4.3	5.2	0.	6.0486e-002
2171	4.3	5.1	0.	5.442e-002
2172	4.3	5.	0.	4.8883e-002
2173	4.3	4.9	0.	4.3659e-002
2174	4.3	4.8	0.	3.8625e-002
2175	4.3	4.7	0.	3.3713e-002
2176	4.3	4.6	0.	2.889e-002
2177	4.3	4.5	0.	2.4147e-002
2178	4.3	4.4	0.	1.9491e-002
2179	4.3	4.3	0.	1.4942e-002
2180	4.3	4.2	0.	1.0526e-002
2181	4.3	4.1	0.	6.2779e-003
2182	4.3	4.	0.	2.2331e-003
2183	4.3	3.9	0.	-1.5702e-003
2184	4.3	3.8	0.	-5.0939e-003
2185	4.3	3.7	0.	-8.3008e-003
2186	4.3	3.6	0.	-1.1156e-002
2187	4.3	3.5	0.	-1.3629e-002
2188	4.3	3.4	0.	-1.5691e-002
2189	4.3	3.3	0.	-1.732e-002
2190	4.3	3.2	0.	-1.8496e-002
2191	4.3	3.1	0.	-1.9207e-002
2192	4.3	3.	0.	-1.9445e-002
2193	4.3	2.9	0.	-1.9207e-002
2194	4.3	2.8	0.	-1.8496e-002
2195	4.3	2.7	0.	-1.7319e-002
2196	4.3	2.6	0.	-1.5691e-002
2197	4.3	2.5	0.	-1.3629e-002
2198	4.3	2.4	0.	-1.1156e-002
2199	4.3	2.3	0.	-8.3005e-003
2200	4.3	2.2	0.	-5.0936e-003
2201	4.3	2.1	0.	-1.5698e-003
2202	4.3	2.	0.	2.2334e-003
2203	4.3	1.9	0.	6.2784e-003
2204	4.3	1.8	0.	1.0527e-002
2205	4.3	1.7	0.	1.4942e-002
2206	4.3	1.6	0.	1.9492e-002
2207	4.3	1.5	0.	2.4148e-002
2208	4.3	1.4	0.	2.8891e-002
2209	4.3	1.3	0.	3.3714e-002
2210	4.3	1.2	0.	3.8626e-002
2211	4.3	1.1	0.	4.366e-002
2212	4.3	1.	0.	4.8884e-002
2213	4.3	0.9	0.	5.4421e-002
2214	4.3	0.8	0.	6.0487e-002
2215	4.3	0.7	0.	6.7435e-002
2216	4.3	0.6	0.	7.5979e-002
2217	4.3	0.5	0.	8.7151e-002
2218	4.3	0.4	0.	0.10472
2219	4.3	0.3	0.	0.13113
2220	4.3	0.2	0.	0.24266
2221	4.3	0.1	0.	0.69729
2222	4.2	5.9	0.	0.764
2223	4.2	5.8	0.	0.25883
2224	4.2	5.7	0.	0.13657
2225	4.2	5.6	0.	0.10747
2226	4.2	5.5	0.	8.8097e-002
2227	4.2	5.4	0.	7.5768e-002
2228	4.2	5.3	0.	6.6374e-002
2229	4.2	5.2	0.	5.8793e-002
2230	4.2	5.1	0.	5.2244e-002
2231	4.2	5.	0.	4.6341e-002
2232	4.2	4.9	0.	4.0846e-002
2233	4.2	4.8	0.	3.5621e-002
2234	4.2	4.7	0.	3.0587e-002
2235	4.2	4.6	0.	2.5701e-002
2236	4.2	4.5	0.	2.0948e-002
2237	4.2	4.4	0.	1.6326e-002
2238	4.2	4.3	0.	1.1848e-002
2239	4.2	4.2	0.	7.534e-003
2240	4.2	4.1	0.	3.4106e-003
2241	4.2	4.	0.	-4.9264e-004
2242	4.2	3.9	0.	-4.1449e-003
2243	4.2	3.8	0.	-7.5142e-003
2244	4.2	3.7	0.	-1.057e-002
2245	4.2	3.6	0.	-1.3283e-002
2246	4.2	3.5	0.	-1.5626e-002
2247	4.2	3.4	0.	-1.7577e-002
2248	4.2	3.3	0.	-1.9115e-002
2249	4.2	3.2	0.	-2.0225e-002
2250	4.2	3.1	0.	-2.0895e-002
2251	4.2	3.	0.	-2.112e-002
2252	4.2	2.9	0.	-2.0895e-002
2253	4.2	2.8	0.	-2.0225e-002
2254	4.2	2.7	0.	-1.9115e-002
2255	4.2	2.6	0.	-1.7576e-002
2256	4.2	2.5	0.	-1.5626e-002
2257	4.2	2.4	0.	-1.3283e-002
2258	4.2	2.3	0.	-1.057e-002
2259	4.2	2.2	0.	-7.514e-003
2260	4.2	2.1	0.	-4.1445e-003
2261	4.2	2.	0.	-4.9229e-004
2262	4.2	1.9	0.	3.4111e-003
2263	4.2	1.8	0.	7.5344e-003
2264	4.2	1.7	0.	1.1848e-002
2265	4.2	1.6	0.	1.6326e-002
2266	4.2	1.5	0.	2.0948e-002
2267	4.2	1.4	0.	2.5702e-002
2268	4.2	1.3	0.	3.0588e-002
2269	4.2	1.2	0.	3.5622e-002
2270	4.2	1.1	0.	4.0846e-002
2271	4.2	1.	0.	4.6342e-002
2272	4.2	0.9	0.	5.2245e-002
2273	4.2	0.8	0.	5.8794e-002
2274	4.2	0.7	0.	6.6375e-002
2275	4.2	0.6	0.	7.5769e-002
2276	4.2	0.5	0.	8.8098e-002
2277	4.2	0.4	0.	0.10747
2278	4.2	0.3	0.	0.13657
2279	4.2	0.2	0.	0.25883
2280	4.2	0.1	0.	0.764
2281	4.1	5.9	0.	0.83769
2282	4.1	5.8	0.	0.27605
2283	4.1	5.7	0.	0.14272
2284	4.1	5.6	0.	0.11086
2285	4.1	5.5	0.	8.9644e-002
2286	4.1	5.4	0.	7.6143e-002
2287	4.1	5.3	0.	6.5891e-002
2288	4.1	5.2	0.	5.7667e-002
2289	4.1	5.1	0.	5.0626e-002
2290	4.1	5.	0.	4.4345e-002
2291	4.1	4.9	0.	3.8566e-002
2292	4.1	4.8	0.	3.3134e-002
2293	4.1	4.7	0.	2.7961e-002
2294	4.1	4.6	0.	2.2993e-002
2295	4.1	4.5	0.	1.8208e-002
2296	4.1	4.4	0.	1.3598e-002
2297	4.1	4.3	0.	9.1689e-003
2298	4.1	4.2	0.	4.934e-003
2299	4.1	4.1	0.	9.1278e-004
2300	4.1	4.	0.	-2.8715e-003
2301	4.1	3.9	0.	-6.394e-003
2302	4.1	3.8	0.	-9.6292e-003
2303	4.1	3.7	0.	-1.2552e-002
2304	4.1	3.6	0.	-1.5138e-002
2305	4.1	3.5	0.	-1.7366e-002
2306	4.1	3.4	0.	-1.9217e-002
2307	4.1	3.3	0.	-2.0674e-002
2308	4.1	3.2	0.	-2.1724e-002
2309	4.1	3.1	0.	-2.2358e-002
2310	4.1	3.	0.	-2.257e-002
2311	4.1	2.9	0.	-2.2358e-002
2312	4.1	2.8	0.	-2.1724e-002
2313	4.1	2.7	0.	-2.0674e-002
2314	4.1	2.6	0.	-1.9217e-002
2315	4.1	2.5	0.	-1.7366e-002
2316	4.1	2.4	0.	-1.5138e-002
2317	4.1	2.3	0.	-1.2552e-002
2318	4.1	2.2	0.	-9.6289e-003
2319	4.1	2.1	0.	-6.3936e-003
2320	4.1	2.	0.	-2.8711e-003
2321	4.1	1.9	0.	9.1331e-004
2322	4.1	1.8	0.	4.9344e-003
2323	4.1	1.7	0.	9.1694e-003
2324	4.1	1.6	0.	1.3599e-002
2325	4.1	1.5	0.	1.8209e-002
2326	4.1	1.4	0.	2.2994e-002
2327	4.1	1.3	0.	2.7961e-002
2328	4.1	1.2	0.	3.3135e-002
2329	4.1	1.1	0.	3.8566e-002
2330	4.1	1.	0.	4.4346e-002
2331	4.1	0.9	0.	5.0627e-002
2332	4.1	0.8	0.	5.7668e-002
2333	4.1	0.7	0.	6.5892e-002
2334	4.1	0.6	0.	7.6144e-002
2335	4.1	0.5	0.	8.9645e-002
2336	4.1	0.4	0.	0.11086
2337	4.1	0.3	0.	0.14273
2338	4.1	0.2	0.	0.27605
2339	4.1	0.1	0.	0.83769
2340	4.	5.9	0.	0.91978
2341	4.	5.8	0.	0.29435
2342	4.	5.7	0.	0.14957
2343	4.	5.6	0.	0.11481
2344	4.	5.5	0.	9.1721e-002
2345	4.	5.4	0.	7.7027e-002
2346	4.	5.3	0.	6.5901e-002
2347	4.	5.2	0.	5.7022e-002
2348	4.	5.1	0.	4.9476e-002
2349	4.	5.	0.	4.2806e-002
2350	4.	4.9	0.	3.6729e-002
2351	4.	4.8	0.	3.1077e-002
2352	4.	4.7	0.	2.5748e-002
2353	4.	4.6	0.	2.0684e-002
2354	4.	4.5	0.	1.5851e-002
2355	4.	4.4	0.	1.1236e-002
2356	4.	4.3	0.	6.8377e-003
2357	4.	4.2	0.	2.664e-003
2358	4.	4.1	0.	-1.2721e-003
2359	4.	4.	0.	-4.9539e-003
2360	4.	3.9	0.	-8.3625e-003
2361	4.	3.8	0.	-1.1478e-002
2362	4.	3.7	0.	-1.4281e-002
2363	4.	3.6	0.	-1.6753e-002
2364	4.	3.5	0.	-1.8876e-002
2365	4.	3.4	0.	-2.0636e-002
2366	4.	3.3	0.	-2.2018e-002
2367	4.	3.2	0.	-2.3013e-002
2368	4.	3.1	0.	-2.3613e-002
2369	4.	3.	0.	-2.3813e-002
2370	4.	2.9	0.	-2.3613e-002
2371	4.	2.8	0.	-2.3013e-002
2372	4.	2.7	0.	-2.2018e-002
2373	4.	2.6	0.	-2.0635e-002
2374	4.	2.5	0.	-1.8876e-002
2375	4.	2.4	0.	-1.6753e-002
2376	4.	2.3	0.	-1.4281e-002
2377	4.	2.2	0.	-1.1478e-002
2378	4.	2.1	0.	-8.3621e-003
2379	4.	2.	0.	-4.9535e-003
2380	4.	1.9	0.	-1.2717e-003
2381	4.	1.8	0.	2.6644e-003
2382	4.	1.7	0.	6.8382e-003
2383	4.	1.6	0.	1.1236e-002
2384	4.	1.5	0.	1.5851e-002
2385	4.	1.4	0.	2.0684e-002
2386	4.	1.3	0.	2.5749e-002
2387	4.	1.2	0.	3.1078e-002
2388	4.	1.1	0.	3.6729e-002
2389	4.	1.	0.	4.2807e-002
2390	4.	0.9	0.	4.9477e-002
2391	4.	0.8	0.	5.7023e-002
2392	4.	0.7	0.	6.5902e-002
2393	4.	0.6	0.	7.7028e-002
2394	4.	0.5	0.	9.1722e-002
2395	4.	0.4	0.	0.11481
2396	4.	0.3	0.	0.14957
2397	4.	0.2	0.	0.29436
2398	4.	0.1	0.	0.91978
2399	3.9	5.9	0.	1.0121
2400	3.9	5.8	0.	0.31385
2401	3.9	5.7	0.	0.1571
2402	3.9	5.6	0.	0.11931
2403	3.9	5.5	0.	9.4283e-002
2404	3.9	5.4	0.	7.8363e-002
2405	3.9	5.3	0.	6.6342e-002
2406	3.9	5.2	0.	5.6793e-002
2407	3.9	5.1	0.	4.8727e-002
2408	3.9	5.	0.	4.1654e-002
2409	3.9	4.9	0.	3.5266e-002
2410	3.9	4.8	0.	2.938e-002
2411	3.9	4.7	0.	2.3884e-002
2412	3.9	4.6	0.	1.8708e-002
2413	3.9	4.5	0.	1.3814e-002
2414	3.9	4.4	0.	9.1806e-003
2415	3.9	4.3	0.	4.801e-003
2416	3.9	4.2	0.	6.7588e-004
2417	3.9	4.1	0.	-3.1876e-003
2418	3.9	4.	0.	-6.7787e-003
2419	3.9	3.9	0.	-1.0084e-002
2420	3.9	3.8	0.	-1.3091e-002
2421	3.9	3.7	0.	-1.5784e-002
2422	3.9	3.6	0.	-1.8149e-002
2423	3.9	3.5	0.	-2.0175e-002
2424	3.9	3.4	0.	-2.1848e-002
2425	3.9	3.3	0.	-2.316e-002
2426	3.9	3.2	0.	-2.4103e-002
2427	3.9	3.1	0.	-2.4672e-002
2428	3.9	3.	0.	-2.4861e-002
2429	3.9	2.9	0.	-2.4672e-002
2430	3.9	2.8	0.	-2.4103e-002
2431	3.9	2.7	0.	-2.316e-002
2432	3.9	2.6	0.	-2.1848e-002
2433	3.9	2.5	0.	-2.0174e-002
2434	3.9	2.4	0.	-1.8149e-002
2435	3.9	2.3	0.	-1.5784e-002
2436	3.9	2.2	0.	-1.3091e-002
2437	3.9	2.1	0.	-1.0084e-002
2438	3.9	2.	0.	-6.7783e-003
2439	3.9	1.9	0.	-3.1872e-003
2440	3.9	1.8	0.	6.7635e-004
2441	3.9	1.7	0.	4.8014e-003
2442	3.9	1.6	0.	9.1812e-003
2443	3.9	1.5	0.	1.3814e-002
2444	3.9	1.4	0.	1.8709e-002
2445	3.9	1.3	0.	2.3885e-002
2446	3.9	1.2	0.	2.9381e-002
2447	3.9	1.1	0.	3.5267e-002
2448	3.9	1.	0.	4.1655e-002
2449	3.9	0.9	0.	4.8728e-002
2450	3.9	0.8	0.	5.6794e-002
2451	3.9	0.7	0.	6.6343e-002
2452	3.9	0.6	0.	7.8364e-002
2453	3.9	0.5	0.	9.4284e-002
2454	3.9	0.4	0.	0.11932
2455	3.9	0.3	0.	0.1571
2456	3.9	0.2	0.	0.31385
2457	3.9	0.1	0.	1.0121
2458	3.8	5.9	0.	1.1171
2459	3.8	5.8	0.	0.33466
2460	3.8	5.7	0.	0.16533
2461	3.8	5.6	0.	0.12435
2462	3.8	5.5	0.	9.7303e-002
2463	3.8	5.4	0.	8.0116e-002
2464	3.8	5.3	0.	6.7173e-002
2465	3.8	5.2	0.	5.6931e-002
2466	3.8	5.1	0.	4.8329e-002
2467	3.8	5.	0.	4.0838e-002
2468	3.8	4.9	0.	3.4124e-002
2469	3.8	4.8	0.	2.7992e-002
2470	3.8	4.7	0.	2.2315e-002
2471	3.8	4.6	0.	1.7017e-002
2472	3.8	4.5	0.	1.205e-002
2473	3.8	4.4	0.	7.3889e-003
2474	3.8	4.3	0.	3.0178e-003
2475	3.8	4.2	0.	-1.0677e-003
2476	3.8	4.1	0.	-4.8669e-003
2477	3.8	4.	0.	-8.3749e-003
2478	3.8	3.9	0.	-1.1585e-002
2479	3.8	3.8	0.	-1.4489e-002
2480	3.8	3.7	0.	-1.7077e-002
2481	3.8	3.6	0.	-1.9341e-002
2482	3.8	3.5	0.	-2.1272e-002
2483	3.8	3.4	0.	-2.2864e-002
2484	3.8	3.3	0.	-2.4109e-002
2485	3.8	3.2	0.	-2.5002e-002
2486	3.8	3.1	0.	-2.5539e-002
2487	3.8	3.	0.	-2.5718e-002
2488	3.8	2.9	0.	-2.5539e-002
2489	3.8	2.8	0.	-2.5002e-002
2490	3.8	2.7	0.	-2.4109e-002
2491	3.8	2.6	0.	-2.2864e-002
2492	3.8	2.5	0.	-2.1272e-002
2493	3.8	2.4	0.	-1.9341e-002
2494	3.8	2.3	0.	-1.7076e-002
2495	3.8	2.2	0.	-1.4488e-002
2496	3.8	2.1	0.	-1.1585e-002
2497	3.8	2.	0.	-8.3745e-003
2498	3.8	1.9	0.	-4.8664e-003
2499	3.8	1.8	0.	-1.0673e-003
2500	3.8	1.7	0.	3.0183e-003
2501	3.8	1.6	0.	7.3893e-003
2502	3.8	1.5	0.	1.2051e-002
2503	3.8	1.4	0.	1.7017e-002
2504	3.8	1.3	0.	2.2316e-002
2505	3.8	1.2	0.	2.7992e-002
2506	3.8	1.1	0.	3.4125e-002
2507	3.8	1.	0.	4.0838e-002
2508	3.8	0.9	0.	4.833e-002
2509	3.8	0.8	0.	5.6932e-002
2510	3.8	0.7	0.	6.7174e-002
2511	3.8	0.6	0.	8.0117e-002
2512	3.8	0.5	0.	9.7304e-002
2513	3.8	0.4	0.	0.12435
2514	3.8	0.3	0.	0.16533
2515	3.8	0.2	0.	0.33466
2516	3.8	0.1	0.	1.1171
2517	3.7	5.9	0.	1.2378
2518	3.7	5.8	0.	0.35693
2519	3.7	5.7	0.	0.17428
2520	3.7	5.6	0.	0.12991
2521	3.7	5.5	0.	0.10076
2522	3.7	5.4	0.	8.226e-002
2523	3.7	5.3	0.	6.8362e-002
2524	3.7	5.2	0.	5.7403e-002
2525	3.7	5.1	0.	4.8244e-002
2526	3.7	5.	0.	4.0316e-002
2527	3.7	4.9	0.	3.3262e-002
2528	3.7	4.8	0.	2.6869e-002
2529	3.7	4.7	0.	2.1e-002
2530	3.7	4.6	0.	1.557e-002
2531	3.7	4.5	0.	1.0523e-002
2532	3.7	4.4	0.	5.8249e-003
2533	3.7	4.3	0.	1.4561e-003
2534	3.7	4.2	0.	-2.5952e-003
2535	3.7	4.1	0.	-6.3347e-003
2536	3.7	4.	0.	-9.7638e-003
2537	3.7	3.9	0.	-1.2881e-002
2538	3.7	3.8	0.	-1.5685e-002
2539	3.7	3.7	0.	-1.8171e-002
2540	3.7	3.6	0.	-2.0336e-002
2541	3.7	3.5	0.	-2.2175e-002
2542	3.7	3.4	0.	-2.3685e-002
2543	3.7	3.3	0.	-2.4864e-002
2544	3.7	3.2	0.	-2.5707e-002
2545	3.7	3.1	0.	-2.6214e-002
2546	3.7	3.	0.	-2.6383e-002
2547	3.7	2.9	0.	-2.6214e-002
2548	3.7	2.8	0.	-2.5707e-002
2549	3.7	2.7	0.	-2.4864e-002
2550	3.7	2.6	0.	-2.3685e-002
2551	3.7	2.5	0.	-2.2175e-002
2552	3.7	2.4	0.	-2.0335e-002
2553	3.7	2.3	0.	-1.8171e-002
2554	3.7	2.2	0.	-1.5685e-002
2555	3.7	2.1	0.	-1.2881e-002
2556	3.7	2.	0.	-9.7634e-003
2557	3.7	1.9	0.	-6.3344e-003
2558	3.7	1.8	0.	-2.5948e-003
2559	3.7	1.7	0.	1.4566e-003
2560	3.7	1.6	0.	5.8255e-003
2561	3.7	1.5	0.	1.0523e-002
2562	3.7	1.4	0.	1.557e-002
2563	3.7	1.3	0.	2.1001e-002
2564	3.7	1.2	0.	2.687e-002
2565	3.7	1.1	0.	3.3263e-002
2566	3.7	1.	0.	4.0316e-002
2567	3.7	0.9	0.	4.8245e-002
2568	3.7	0.8	0.	5.7404e-002
2569	3.7	0.7	0.	6.8363e-002
2570	3.7	0.6	0.	8.2261e-002
2571	3.7	0.5	0.	0.10076
2572	3.7	0.4	0.	0.12991
2573	3.7	0.3	0.	0.17428
2574	3.7	0.2	0.	0.35693
2575	3.7	0.1	0.	1.2378
2576	3.6	5.9	0.	1.3783
2577	3.6	5.8	0.	0.38083
2578	3.6	5.7	0.	0.184
2579	3.6	5.6	0.	0.13601
2580	3.6	5.5	0.	0.10466
2581	3.6	5.4	0.	8.4781e-002
2582	3.6	5.3	0.	6.9887e-002
2583	3.6	5.2	0.	5.818e-002
2584	3.6	5.1	0.	4.844e-002
2585	3.6	5.	0.	4.0055e-002
2586	3.6	4.9	0.	3.2645e-002
2587	3.6	4.8	0.	2.5979e-002
2588	3.6	4.7	0.	1.9907e-002
2589	3.6	4.6	0.	1.4335e-002
2590	3.6	4.5	0.	9.2003e-003
2591	3.6	4.4	0.	4.4616e-003
2592	3.6	4.3	0.	9.1609e-005
2593	3.6	4.2	0.	-3.9279e-003
2594	3.6	4.1	0.	-7.609e-003
2595	3.6	4.	0.	-1.0959e-002
2596	3.6	3.9	0.	-1.3984e-002
2597	3.6	3.8	0.	-1.6687e-002
2598	3.6	3.7	0.	-1.907e-002
2599	3.6	3.6	0.	-2.1135e-002
2600	3.6	3.5	0.	-2.2881e-002
2601	3.6	3.4	0.	-2.431e-002
2602	3.6	3.3	0.	-2.5421e-002
2603	3.6	3.2	0.	-2.6215e-002
2604	3.6	3.1	0.	-2.6691e-002
2605	3.6	3.	0.	-2.685e-002
2606	3.6	2.9	0.	-2.6691e-002
2607	3.6	2.8	0.	-2.6215e-002
2608	3.6	2.7	0.	-2.5421e-002
2609	3.6	2.6	0.	-2.431e-002
2610	3.6	2.5	0.	-2.2881e-002
2611	3.6	2.4	0.	-2.1135e-002
2612	3.6	2.3	0.	-1.907e-002
2613	3.6	2.2	0.	-1.6687e-002
2614	3.6	2.1	0.	-1.3984e-002
2615	3.6	2.	0.	-1.0959e-002
2616	3.6	1.9	0.	-7.6086e-003
2617	3.6	1.8	0.	-3.9275e-003
2618	3.6	1.7	0.	9.2045e-005
2619	3.6	1.6	0.	4.4621e-003
2620	3.6	1.5	0.	9.2009e-003
2621	3.6	1.4	0.	1.4336e-002
2622	3.6	1.3	0.	1.9908e-002
2623	3.6	1.2	0.	2.5979e-002
2624	3.6	1.1	0.	3.2646e-002
2625	3.6	1.	0.	4.0056e-002
2626	3.6	0.9	0.	4.8441e-002
2627	3.6	0.8	0.	5.8181e-002
2628	3.6	0.7	0.	6.9888e-002
2629	3.6	0.6	0.	8.4782e-002
2630	3.6	0.5	0.	0.10466
2631	3.6	0.4	0.	0.13601
2632	3.6	0.3	0.	0.184
2633	3.6	0.2	0.	0.38083
2634	3.6	0.1	0.	1.3783
2635	3.5	5.9	0.	1.5442
2636	3.5	5.8	0.	0.40658
2637	3.5	5.7	0.	0.19454
2638	3.5	5.6	0.	0.14266
2639	3.5	5.5	0.	0.10899
2640	3.5	5.4	0.	8.767e-002
2641	3.5	5.3	0.	7.1733e-002
2642	3.5	5.2	0.	5.9243e-002
2643	3.5	5.1	0.	4.8894e-002
2644	3.5	5.	0.	4.0031e-002
2645	3.5	4.9	0.	3.2247e-002
2646	3.5	4.8	0.	2.5292e-002
2647	3.5	4.7	0.	1.9007e-002
2648	3.5	4.6	0.	1.3287e-002
2649	3.5	4.5	0.	8.0597e-003
2650	3.5	4.4	0.	3.2776e-003
2651	3.5	4.3	0.	-1.0942e-003
2652	3.5	4.2	0.	-5.0808e-003
2653	3.5	4.1	0.	-8.7012e-003
2654	3.5	4.	0.	-1.197e-002
2655	3.5	3.9	0.	-1.4899e-002
2656	3.5	3.8	0.	-1.7498e-002
2657	3.5	3.7	0.	-1.9774e-002
2658	3.5	3.6	0.	-2.1734e-002
2659	3.5	3.5	0.	-2.3384e-002
2660	3.5	3.4	0.	-2.4729e-002
2661	3.5	3.3	0.	-2.577e-002
2662	3.5	3.2	0.	-2.6513e-002
2663	3.5	3.1	0.	-2.6957e-002
2664	3.5	3.	0.	-2.7105e-002
2665	3.5	2.9	0.	-2.6957e-002
2666	3.5	2.8	0.	-2.6512e-002
2667	3.5	2.7	0.	-2.577e-002
2668	3.5	2.6	0.	-2.4728e-002
2669	3.5	2.5	0.	-2.3384e-002
2670	3.5	2.4	0.	-2.1734e-002
2671	3.5	2.3	0.	-1.9774e-002
2672	3.5	2.2	0.	-1.7497e-002
2673	3.5	2.1	0.	-1.4899e-002
2674	3.5	2.	0.	-1.197e-002
2675	3.5	1.9	0.	-8.7008e-003
2676	3.5	1.8	0.	-5.0804e-003
2677	3.5	1.7	0.	-1.0937e-003
2678	3.5	1.6	0.	3.2781e-003
2679	3.5	1.5	0.	8.0602e-003
2680	3.5	1.4	0.	1.3287e-002
2681	3.5	1.3	0.	1.9008e-002
2682	3.5	1.2	0.	2.5293e-002
2683	3.5	1.1	0.	3.2248e-002
2684	3.5	1.	0.	4.0032e-002
2685	3.5	0.9	0.	4.8894e-002
2686	3.5	0.8	0.	5.9244e-002
2687	3.5	0.7	0.	7.1734e-002
2688	3.5	0.6	0.	8.767e-002
2689	3.5	0.5	0.	0.10899
2690	3.5	0.4	0.	0.14266
2691	3.5	0.3	0.	0.19455
2692	3.5	0.2	0.	0.40658
2693	3.5	0.1	0.	1.5442
2694	3.4	5.9	0.	1.743
2695	3.4	5.8	0.	0.43442
2696	3.4	5.7	0.	0.20597
2697	3.4	5.6	0.	0.1499
2698	3.4	5.5	0.	0.11377
2699	3.4	5.4	0.	9.0922e-002
2700	3.4	5.3	0.	7.3888e-002
2701	3.4	5.2	0.	6.0575e-002
2702	3.4	5.1	0.	4.9585e-002
2703	3.4	5.	0.	4.022e-002
2704	3.4	4.9	0.	3.2043e-002
2705	3.4	4.8	0.	2.4787e-002
2706	3.4	4.7	0.	1.8279e-002
2707	3.4	4.6	0.	1.2404e-002
2708	3.4	4.5	0.	7.0818e-003
2709	3.4	4.4	0.	2.2567e-003
2710	3.4	4.3	0.	-2.1142e-003
2711	3.4	4.2	0.	-6.0634e-003
2712	3.4	4.1	0.	-9.6176e-003
2713	3.4	4.	0.	-1.2798e-002
2714	3.4	3.9	0.	-1.5624e-002
2715	3.4	3.8	0.	-1.8112e-002
2716	3.4	3.7	0.	-2.0274e-002
2717	3.4	3.6	0.	-2.2125e-002
2718	3.4	3.5	0.	-2.3673e-002
2719	3.4	3.4	0.	-2.4928e-002
2720	3.4	3.3	0.	-2.5896e-002
2721	3.4	3.2	0.	-2.6584e-002
2722	3.4	3.1	0.	-2.6995e-002
2723	3.4	3.	0.	-2.7132e-002
2724	3.4	2.9	0.	-2.6995e-002
2725	3.4	2.8	0.	-2.6584e-002
2726	3.4	2.7	0.	-2.5896e-002
2727	3.4	2.6	0.	-2.4927e-002
2728	3.4	2.5	0.	-2.3673e-002
2729	3.4	2.4	0.	-2.2124e-002
2730	3.4	2.3	0.	-2.0274e-002
2731	3.4	2.2	0.	-1.8111e-002
2732	3.4	2.1	0.	-1.5624e-002
2733	3.4	2.	0.	-1.2798e-002
2734	3.4	1.9	0.	-9.6171e-003
2735	3.4	1.8	0.	-6.0631e-003
2736	3.4	1.7	0.	-2.1137e-003
2737	3.4	1.6	0.	2.2571e-003
2738	3.4	1.5	0.	7.0822e-003
2739	3.4	1.4	0.	1.2404e-002
2740	3.4	1.3	0.	1.8279e-002
2741	3.4	1.2	0.	2.4787e-002
2742	3.4	1.1	0.	3.2044e-002
2743	3.4	1.	0.	4.0221e-002
2744	3.4	0.9	0.	4.9586e-002
2745	3.4	0.8	0.	6.0576e-002
2746	3.4	0.7	0.	7.3889e-002
2747	3.4	0.6	0.	9.0923e-002
2748	3.4	0.5	0.	0.11377
2749	3.4	0.4	0.	0.1499
2750	3.4	0.3	0.	0.20597
2751	3.4	0.2	0.	0.43442
2752	3.4	0.1	0.	1.743
2753	3.3	5.9	0.	1.9852
2754	3.3	5.8	0.	0.46464
2755	3.3	5.7	0.	0.21836
2756	3.3	5.6	0.	0.15776
2757	3.3	5.5	0.	0.11901
2758	3.3	5.4	0.	9.454e-002
2759	3.3	5.3	0.	7.6346e-002
2760	3.3	5.2	0.	6.2164e-002
2761	3.3	5.1	0.	5.0499e-002
2762	3.3	5.	0.	4.0604e-002
2763	3.3	4.9	0.	3.2014e-002
2764	3.3	4.8	0.	2.4442e-002
2765	3.3	4.7	0.	1.7702e-002
2766	3.3	4.6	0.	1.1668e-002
2767	3.3	4.5	0.	6.2518e-003
2768	3.3	4.4	0.	1.387e-003
2769	3.3	4.3	0.	-2.9768e-003
2770	3.3	4.2	0.	-6.8807e-003
2771	3.3	4.1	0.	-1.0359e-002
2772	3.3	4.	0.	-1.3441e-002
2773	3.3	3.9	0.	-1.6154e-002
2774	3.3	3.8	0.	-1.8519e-002
2775	3.3	3.7	0.	-2.0559e-002
2776	3.3	3.6	0.	-2.229e-002
2777	3.3	3.5	0.	-2.3729e-002
2778	3.3	3.4	0.	-2.4888e-002
2779	3.3	3.3	0.	-2.5778e-002
2780	3.3	3.2	0.	-2.6408e-002
2781	3.3	3.1	0.	-2.6784e-002
2782	3.3	3.	0.	-2.6909e-002
2783	3.3	2.9	0.	-2.6784e-002
2784	3.3	2.8	0.	-2.6408e-002
2785	3.3	2.7	0.	-2.5778e-002
2786	3.3	2.6	0.	-2.4888e-002
2787	3.3	2.5	0.	-2.3729e-002
2788	3.3	2.4	0.	-2.229e-002
2789	3.3	2.3	0.	-2.0559e-002
2790	3.3	2.2	0.	-1.8519e-002
2791	3.3	2.1	0.	-1.6153e-002
2792	3.3	2.	0.	-1.3441e-002
2793	3.3	1.9	0.	-1.0359e-002
2794	3.3	1.8	0.	-6.8802e-003
2795	3.3	1.7	0.	-2.9764e-003
2796	3.3	1.6	0.	1.3874e-003
2797	3.3	1.5	0.	6.2523e-003
2798	3.3	1.4	0.	1.1669e-002
2799	3.3	1.3	0.	1.7702e-002
2800	3.3	1.2	0.	2.4442e-002
2801	3.3	1.1	0.	3.2014e-002
2802	3.3	1.	0.	4.0605e-002
2803	3.3	0.9	0.	5.05e-002
2804	3.3	0.8	0.	6.2165e-002
2805	3.3	0.7	0.	7.6347e-002
2806	3.3	0.6	0.	9.4541e-002
2807	3.3	0.5	0.	0.11901
2808	3.3	0.4	0.	0.15776
2809	3.3	0.3	0.	0.21836
2810	3.3	0.2	0.	0.46464
2811	3.3	0.1	0.	1.9852
2812	3.2	5.9	0.	2.2856
2813	3.2	5.8	0.	0.49758
2814	3.2	5.7	0.	0.2318
2815	3.2	5.6	0.	0.16627
2816	3.2	5.5	0.	0.12472
2817	3.2	5.4	0.	9.8529e-002
2818	3.2	5.3	0.	7.9103e-002
2819	3.2	5.2	0.	6.4e-002
2820	3.2	5.1	0.	5.162e-002
2821	3.2	5.	0.	4.1167e-002
2822	3.2	4.9	0.	3.2141e-002
2823	3.2	4.8	0.	2.424e-002
2824	3.2	4.7	0.	1.7261e-002
2825	3.2	4.6	0.	1.1067e-002
2826	3.2	4.5	0.	5.5585e-003
2827	3.2	4.4	0.	6.61e-004
2828	3.2	4.3	0.	-3.6859e-003
2829	3.2	4.2	0.	-7.5321e-003
2830	3.2	4.1	0.	-1.0921e-002
2831	3.2	4.	0.	-1.3891e-002
2832	3.2	3.9	0.	-1.6476e-002
2833	3.2	3.8	0.	-1.8706e-002
2834	3.2	3.7	0.	-2.061e-002
2835	3.2	3.6	0.	-2.2211e-002
2836	3.2	3.5	0.	-2.353e-002
2837	3.2	3.4	0.	-2.4585e-002
2838	3.2	3.3	0.	-2.539e-002
2839	3.2	3.2	0.	-2.5957e-002
2840	3.2	3.1	0.	-2.6295e-002
2841	3.2	3.	0.	-2.6406e-002
2842	3.2	2.9	0.	-2.6295e-002
2843	3.2	2.8	0.	-2.5957e-002
2844	3.2	2.7	0.	-2.539e-002
2845	3.2	2.6	0.	-2.4585e-002
2846	3.2	2.5	0.	-2.353e-002
2847	3.2	2.4	0.	-2.2211e-002
2848	3.2	2.3	0.	-2.061e-002
2849	3.2	2.2	0.	-1.8706e-002
2850	3.2	2.1	0.	-1.6475e-002
2851	3.2	2.	0.	-1.3891e-002
2852	3.2	1.9	0.	-1.0921e-002
2853	3.2	1.8	0.	-7.5318e-003
2854	3.2	1.7	0.	-3.6853e-003
2855	3.2	1.6	0.	6.6147e-004
2856	3.2	1.5	0.	5.5591e-003
2857	3.2	1.4	0.	1.1067e-002
2858	3.2	1.3	0.	1.7261e-002
2859	3.2	1.2	0.	2.4241e-002
2860	3.2	1.1	0.	3.2142e-002
2861	3.2	1.	0.	4.1167e-002
2862	3.2	0.9	0.	5.1621e-002
2863	3.2	0.8	0.	6.4001e-002
2864	3.2	0.7	0.	7.9104e-002
2865	3.2	0.6	0.	9.853e-002
2866	3.2	0.5	0.	0.12472
2867	3.2	0.4	0.	0.16627
2868	3.2	0.3	0.	0.23181
2869	3.2	0.2	0.	0.49758
2870	3.2	0.1	0.	2.2856
2871	3.1	5.9	0.	2.6652
2872	3.1	5.8	0.	0.53364
2873	3.1	5.7	0.	0.24641
2874	3.1	5.6	0.	0.17549
2875	3.1	5.5	0.	0.13093
2876	3.1	5.4	0.	0.1029
2877	3.1	5.3	0.	8.2159e-002
2878	3.1	5.2	0.	6.6075e-002
2879	3.1	5.1	0.	5.2937e-002
2880	3.1	5.	0.	4.1892e-002
2881	3.1	4.9	0.	3.2411e-002
2882	3.1	4.8	0.	2.4166e-002
2883	3.1	4.7	0.	1.6942e-002
2884	3.1	4.6	0.	1.0588e-002
2885	3.1	4.5	0.	4.9947e-003
2886	3.1	4.4	0.	7.5265e-005
2887	3.1	4.3	0.	-4.2405e-003
2888	3.1	4.2	0.	-8.0128e-003
2889	3.1	4.1	0.	-1.1295e-002
2890	3.1	4.	0.	-1.4134e-002
2891	3.1	3.9	0.	-1.6573e-002
2892	3.1	3.8	0.	-1.8652e-002
2893	3.1	3.7	0.	-2.0404e-002
2894	3.1	3.6	0.	-2.186e-002
2895	3.1	3.5	0.	-2.3048e-002
2896	3.1	3.4	0.	-2.3989e-002
2897	3.1	3.3	0.	-2.4701e-002
2898	3.1	3.2	0.	-2.52e-002
2899	3.1	3.1	0.	-2.5496e-002
2900	3.1	3.	0.	-2.5593e-002
2901	3.1	2.9	0.	-2.5496e-002
2902	3.1	2.8	0.	-2.52e-002
2903	3.1	2.7	0.	-2.4701e-002
2904	3.1	2.6	0.	-2.3989e-002
2905	3.1	2.5	0.	-2.3048e-002
2906	3.1	2.4	0.	-2.186e-002
2907	3.1	2.3	0.	-2.0404e-002
2908	3.1	2.2	0.	-1.8651e-002
2909	3.1	2.1	0.	-1.6573e-002
2910	3.1	2.	0.	-1.4134e-002
2911	3.1	1.9	0.	-1.1294e-002
2912	3.1	1.8	0.	-8.0124e-003
2913	3.1	1.7	0.	-4.2401e-003
2914	3.1	1.6	0.	7.5712e-005
2915	3.1	1.5	0.	4.9951e-003
2916	3.1	1.4	0.	1.0589e-002
2917	3.1	1.3	0.	1.6942e-002
2918	3.1	1.2	0.	2.4166e-002
2919	3.1	1.1	0.	3.2411e-002
2920	3.1	1.	0.	4.1893e-002
2921	3.1	0.9	0.	5.2938e-002
2922	3.1	0.8	0.	6.6076e-002
2923	3.1	0.7	0.	8.216e-002
2924	3.1	0.6	0.	0.1029
2925	3.1	0.5	0.	0.13093
2926	3.1	0.4	0.	0.17549
2927	3.1	0.3	0.	0.24641
2928	3.1	0.2	0.	0.53364
2929	3.1	0.1	0.	2.6652
2930	3.	5.9	0.	3.1548
2931	3.	5.8	0.	0.57328
2932	3.	5.7	0.	0.26229
2933	3.	5.6	0.	0.18547
2934	3.	5.5	0.	0.13766
2935	3.	5.4	0.	0.10765
2936	3.	5.3	0.	8.5514e-002
2937	3.	5.2	0.	6.8384e-002
2938	3.	5.1	0.	5.4439e-002
2939	3.	5.	0.	4.2768e-002
2940	3.	4.9	0.	3.2806e-002
2941	3.	4.8	0.	2.4206e-002
2942	3.	4.7	0.	1.6733e-002
2943	3.	4.6	0.	1.0224e-002
2944	3.	4.5	0.	4.5562e-003
2945	3.	4.4	0.	-3.6957e-004
2946	3.	4.3	0.	-4.6351e-003
2947	3.	4.2	0.	-8.3122e-003
2948	3.	4.1	0.	-1.1465e-002
2949	3.	4.	0.	-1.4151e-002
2950	3.	3.9	0.	-1.6423e-002
2951	3.	3.8	0.	-1.8329e-002
2952	3.	3.7	0.	-1.9911e-002
2953	3.	3.6	0.	-2.1207e-002
2954	3.	3.5	0.	-2.2249e-002
2955	3.	3.4	0.	-2.3065e-002
2956	3.	3.3	0.	-2.3676e-002
2957	3.	3.2	0.	-2.41e-002
2958	3.	3.1	0.	-2.435e-002
2959	3.	3.	0.	-2.4432e-002
2960	3.	2.9	0.	-2.435e-002
2961	3.	2.8	0.	-2.41e-002
2962	3.	2.7	0.	-2.3676e-002
2963	3.	2.6	0.	-2.3064e-002
2964	3.	2.5	0.	-2.2249e-002
2965	3.	2.4	0.	-2.1207e-002
2966	3.	2.3	0.	-1.9911e-002
2967	3.	2.2	0.	-1.8329e-002
2968	3.	2.1	0.	-1.6423e-002
2969	3.	2.	0.	-1.4151e-002
2970	3.	1.9	0.	-1.1464e-002
2971	3.	1.8	0.	-8.3118e-003
2972	3.	1.7	0.	-4.6347e-003
2973	3.	1.6	0.	-3.6913e-004
2974	3.	1.5	0.	4.5567e-003
2975	3.	1.4	0.	1.0225e-002
2976	3.	1.3	0.	1.6734e-002
2977	3.	1.2	0.	2.4206e-002
2978	3.	1.1	0.	3.2807e-002
2979	3.	1.	0.	4.2768e-002
2980	3.	0.9	0.	5.4439e-002
2981	3.	0.8	0.	6.8385e-002
2982	3.	0.7	0.	8.5514e-002
2983	3.	0.6	0.	0.10766
2984	3.	0.5	0.	0.13766
2985	3.	0.4	0.	0.18547
2986	3.	0.3	0.	0.26229
2987	3.	0.2	0.	0.57328
2988	3.	0.1	0.	3.1548
2989	2.9	5.9	0.	3.7983
2990	2.9	5.8	0.	0.61708
2991	2.9	5.7	0.	0.2796
2992	2.9	5.6	0.	0.19627
2993	2.9	5.5	0.	0.14495
2994	2.9	5.4	0.	0.11282
2995	2.9	5.3	0.	8.9171e-002
2996	2.9	5.2	0.	7.0921e-002
2997	2.9	5.1	0.	5.6114e-002
2998	2.9	5.	0.	4.378e-002
2999	2.9	4.9	0.	3.3315e-002
3000	2.9	4.8	0.	2.4348e-002
3001	2.9	4.7	0.	1.6627e-002
3002	2.9	4.6	0.	9.9709e-003
3003	2.9	4.5	0.	4.2435e-003
3004	2.9	4.4	0.	-6.6785e-004
3005	2.9	4.3	0.	-4.8588e-003
3006	2.9	4.2	0.	-8.4142e-003
3007	2.9	4.1	0.	-1.141e-002
3008	2.9	4.	0.	-1.3917e-002
3009	2.9	3.9	0.	-1.5996e-002
3010	2.9	3.8	0.	-1.7706e-002
3011	2.9	3.7	0.	-1.9097e-002
3012	2.9	3.6	0.	-2.0214e-002
3013	2.9	3.5	0.	-2.1095e-002
3014	2.9	3.4	0.	-2.1772e-002
3015	2.9	3.3	0.	-2.2272e-002
3016	2.9	3.2	0.	-2.2615e-002
3017	2.9	3.1	0.	-2.2815e-002
3018	2.9	3.	0.	-2.288e-002
3019	2.9	2.9	0.	-2.2815e-002
3020	2.9	2.8	0.	-2.2615e-002
3021	2.9	2.7	0.	-2.2272e-002
3022	2.9	2.6	0.	-2.1772e-002
3023	2.9	2.5	0.	-2.1095e-002
3024	2.9	2.4	0.	-2.0214e-002
3025	2.9	2.3	0.	-1.9097e-002
3026	2.9	2.2	0.	-1.7706e-002
3027	2.9	2.1	0.	-1.5996e-002
3028	2.9	2.	0.	-1.3916e-002
3029	2.9	1.9	0.	-1.141e-002
3030	2.9	1.8	0.	-8.4137e-003
3031	2.9	1.7	0.	-4.8584e-003
3032	2.9	1.6	0.	-6.674e-004
3033	2.9	1.5	0.	4.2439e-003
3034	2.9	1.4	0.	9.9714e-003
3035	2.9	1.3	0.	1.6627e-002
3036	2.9	1.2	0.	2.4349e-002
3037	2.9	1.1	0.	3.3316e-002
3038	2.9	1.	0.	4.378e-002
3039	2.9	0.9	0.	5.6115e-002
3040	2.9	0.8	0.	7.0921e-002
3041	2.9	0.7	0.	8.9171e-002
3042	2.9	0.6	0.	0.11282
3043	2.9	0.5	0.	0.14495
3044	2.9	0.4	0.	0.19627
3045	2.9	0.3	0.	0.2796
3046	2.9	0.2	0.	0.61708
3047	2.9	0.1	0.	3.7983
3048	2.8	5.9	0.	4.6577
3049	2.8	5.8	0.	0.66571
3050	2.8	5.7	0.	0.29849
3051	2.8	5.6	0.	0.20798
3052	2.8	5.5	0.	0.15284
3053	2.8	5.4	0.	0.11841
3054	2.8	5.3	0.	9.3134e-002
3055	2.8	5.2	0.	7.3681e-002
3056	2.8	5.1	0.	5.7954e-002
3057	2.8	5.	0.	4.4916e-002
3058	2.8	4.9	0.	3.3925e-002
3059	2.8	4.8	0.	2.4583e-002
3060	2.8	4.7	0.	1.6616e-002
3061	2.8	4.6	0.	9.8269e-003
3062	2.8	4.5	0.	4.0616e-003
3063	2.8	4.4	0.	-8.0828e-004
3064	2.8	4.3	0.	-4.8941e-003
3065	2.8	4.2	0.	-8.2954e-003
3066	2.8	4.1	0.	-1.1103e-002
3067	2.8	4.	0.	-1.3398e-002
3068	2.8	3.9	0.	-1.5256e-002
3069	2.8	3.8	0.	-1.6743e-002
3070	2.8	3.7	0.	-1.792e-002
3071	2.8	3.6	0.	-1.8837e-002
3072	2.8	3.5	0.	-1.954e-002
3073	2.8	3.4	0.	-2.0066e-002
3074	2.8	3.3	0.	-2.0444e-002
3075	2.8	3.2	0.	-2.0698e-002
3076	2.8	3.1	0.	-2.0844e-002
3077	2.8	3.	0.	-2.0892e-002
3078	2.8	2.9	0.	-2.0844e-002
3079	2.8	2.8	0.	-2.0698e-002
3080	2.8	2.7	0.	-2.0444e-002
3081	2.8	2.6	0.	-2.0066e-002
3082	2.8	2.5	0.	-1.954e-002
3083	2.8	2.4	0.	-1.8837e-002
3084	2.8	2.3	0.	-1.7919e-002
3085	2.8	2.2	0.	-1.6743e-002
3086	2.8	2.1	0.	-1.5255e-002
3087	2.8	2.	0.	-1.3398e-002
3088	2.8	1.9	0.	-1.1102e-002
3089	2.8	1.8	0.	-8.2951e-003
3090	2.8	1.7	0.	-4.8937e-003
3091	2.8	1.6	0.	-8.0783e-004
3092	2.8	1.5	0.	4.062e-003
3093	2.8	1.4	0.	9.8274e-003
3094	2.8	1.3	0.	1.6616e-002
3095	2.8	1.2	0.	2.4583e-002
3096	2.8	1.1	0.	3.3926e-002
3097	2.8	1.	0.	4.4917e-002
3098	2.8	0.9	0.	5.7955e-002
3099	2.8	0.8	0.	7.3682e-002
3100	2.8	0.7	0.	9.3135e-002
3101	2.8	0.6	0.	0.11841
3102	2.8	0.5	0.	0.15284
3103	2.8	0.4	0.	0.20798
3104	2.8	0.3	0.	0.29849
3105	2.8	0.2	0.	0.66571
3106	2.8	0.1	0.	4.6577
3107	2.7	5.9	0.	5.8145
3108	2.7	5.8	0.	0.72
3109	2.7	5.7	0.	0.31915
3110	2.7	5.6	0.	0.22066
3111	2.7	5.5	0.	0.16137
3112	2.7	5.4	0.	0.12444
3113	2.7	5.3	0.	9.7412e-002
3114	2.7	5.2	0.	7.6661e-002
3115	2.7	5.1	0.	5.9948e-002
3116	2.7	5.	0.	4.6165e-002
3117	2.7	4.9	0.	3.4626e-002
3118	2.7	4.8	0.	2.4902e-002
3119	2.7	4.7	0.	1.6698e-002
3120	2.7	4.6	0.	9.7963e-003
3121	2.7	4.5	0.	4.0217e-003
3122	2.7	4.4	0.	-7.7262e-004
3123	2.7	4.3	0.	-4.7159e-003
3124	2.7	4.2	0.	-7.9249e-003
3125	2.7	4.1	0.	-1.0506e-002
3126	2.7	4.	0.	-1.2554e-002
3127	2.7	3.9	0.	-1.4158e-002
3128	2.7	3.8	0.	-1.5393e-002
3129	2.7	3.7	0.	-1.633e-002
3130	2.7	3.6	0.	-1.7028e-002
3131	2.7	3.5	0.	-1.7536e-002
3132	2.7	3.4	0.	-1.7896e-002
3133	2.7	3.3	0.	-1.8142e-002
3134	2.7	3.2	0.	-1.83e-002
3135	2.7	3.1	0.	-1.8388e-002
3136	2.7	3.	0.	-1.8416e-002
3137	2.7	2.9	0.	-1.8388e-002
3138	2.7	2.8	0.	-1.83e-002
3139	2.7	2.7	0.	-1.8142e-002
3140	2.7	2.6	0.	-1.7896e-002
3141	2.7	2.5	0.	-1.7535e-002
3142	2.7	2.4	0.	-1.7028e-002
3143	2.7	2.3	0.	-1.633e-002
3144	2.7	2.2	0.	-1.5393e-002
3145	2.7	2.1	0.	-1.4157e-002
3146	2.7	2.	0.	-1.2554e-002
3147	2.7	1.9	0.	-1.0505e-002
3148	2.7	1.8	0.	-7.9246e-003
3149	2.7	1.7	0.	-4.7156e-003
3150	2.7	1.6	0.	-7.7218e-004
3151	2.7	1.5	0.	4.0222e-003
3152	2.7	1.4	0.	9.7968e-003
3153	2.7	1.3	0.	1.6699e-002
3154	2.7	1.2	0.	2.4903e-002
3155	2.7	1.1	0.	3.4626e-002
3156	2.7	1.	0.	4.6166e-002
3157	2.7	0.9	0.	5.9949e-002
3158	2.7	0.8	0.	7.6662e-002
3159	2.7	0.7	0.	9.7412e-002
3160	2.7	0.6	0.	0.12444
3161	2.7	0.5	0.	0.16137
3162	2.7	0.4	0.	0.22066
3163	2.7	0.3	0.	0.31916
3164	2.7	0.2	0.	0.72
3165	2.7	0.1	0.	5.8145
3166	2.6	5.9	0.	7.365
3167	2.6	5.8	0.	0.78097
3168	2.6	5.7	0.	0.34181
3169	2.6	5.6	0.	0.23443
3170	2.6	5.5	0.	0.17059
3171	2.6	5.4	0.	0.13094
3172	2.6	5.3	0.	0.10201
3173	2.6	5.2	0.	7.9858e-002
3174	2.6	5.1	0.	6.2089e-002
3175	2.6	5.	0.	4.7517e-002
3176	2.6	4.9	0.	3.5408e-002
3177	2.6	4.8	0.	2.5302e-002
3178	2.6	4.7	0.	1.6877e-002
3179	2.6	4.6	0.	9.8899e-003
3180	2.6	4.5	0.	4.1427e-003
3181	2.6	4.4	0.	-5.3378e-004
3182	2.6	4.3	0.	-4.29e-003
3183	2.6	4.2	0.	-7.2619e-003
3184	2.6	4.1	0.	-9.5732e-003
3185	2.6	4.	0.	-1.1336e-002
3186	2.6	3.9	0.	-1.2649e-002
3187	2.6	3.8	0.	-1.3603e-002
3188	2.6	3.7	0.	-1.4274e-002
3189	2.6	3.6	0.	-1.473e-002
3190	2.6	3.5	0.	-1.5025e-002
3191	2.6	3.4	0.	-1.5207e-002
3192	2.6	3.3	0.	-1.5311e-002
3193	2.6	3.2	0.	-1.5367e-002
3194	2.6	3.1	0.	-1.5392e-002
3195	2.6	3.	0.	-1.5399e-002
3196	2.6	2.9	0.	-1.5392e-002
3197	2.6	2.8	0.	-1.5367e-002
3198	2.6	2.7	0.	-1.5311e-002
3199	2.6	2.6	0.	-1.5207e-002
3200	2.6	2.5	0.	-1.5025e-002
3201	2.6	2.4	0.	-1.4729e-002
3202	2.6	2.3	0.	-1.4274e-002
3203	2.6	2.2	0.	-1.3603e-002
3204	2.6	2.1	0.	-1.2649e-002
3205	2.6	2.	0.	-1.1335e-002
3206	2.6	1.9	0.	-9.5729e-003
3207	2.6	1.8	0.	-7.2616e-003
3208	2.6	1.7	0.	-4.2896e-003
3209	2.6	1.6	0.	-5.3338e-004
3210	2.6	1.5	0.	4.1431e-003
3211	2.6	1.4	0.	9.8904e-003
3212	2.6	1.3	0.	1.6878e-002
3213	2.6	1.2	0.	2.5303e-002
3214	2.6	1.1	0.	3.5408e-002
3215	2.6	1.	0.	4.7517e-002
3216	2.6	0.9	0.	6.209e-002
3217	2.6	0.8	0.	7.9859e-002
3218	2.6	0.7	0.	0.10201
3219	2.6	0.6	0.	0.13094
3220	2.6	0.5	0.	0.17059
3221	2.6	0.4	0.	0.23443
3222	2.6	0.3	0.	0.34181
3223	2.6	0.2	0.	0.78097
3224	2.6	0.1	0.	7.365
3225	2.5	5.9	0.	9.4049
3226	2.5	5.8	0.	0.84988
3227	2.5	5.7	0.	0.36672
3228	2.5	5.6	0.	0.2494
3229	2.5	5.5	0.	0.18057
3230	2.5	5.4	0.	0.13794
3231	2.5	5.3	0.	0.10694
3232	2.5	5.2	0.	8.327e-002
3233	2.5	5.1	0.	6.4367e-002
3234	2.5	5.	0.	4.8961e-002
3235	2.5	4.9	0.	3.6266e-002
3236	2.5	4.8	0.	2.5784e-002
3237	2.5	4.7	0.	1.7162e-002
3238	2.5	4.6	0.	1.0127e-002
3239	2.5	4.5	0.	4.4535e-003
3240	2.5	4.4	0.	-5.3848e-005
3241	2.5	4.3	0.	-3.5702e-003
3242	2.5	4.2	0.	-6.254e-003
3243	2.5	4.1	0.	-8.2483e-003
3244	2.5	4.	0.	-9.6817e-003
3245	2.5	3.9	0.	-1.0668e-002
3246	2.5	3.8	0.	-1.1308e-002
3247	2.5	3.7	0.	-1.1688e-002
3248	2.5	3.6	0.	-1.1881e-002
3249	2.5	3.5	0.	-1.1949e-002
3250	2.5	3.4	0.	-1.194e-002
3251	2.5	3.3	0.	-1.1894e-002
3252	2.5	3.2	0.	-1.1841e-002
3253	2.5	3.1	0.	-1.1801e-002
3254	2.5	3.	0.	-1.1786e-002
3255	2.5	2.9	0.	-1.1801e-002
3256	2.5	2.8	0.	-1.1841e-002
3257	2.5	2.7	0.	-1.1894e-002
3258	2.5	2.6	0.	-1.194e-002
3259	2.5	2.5	0.	-1.1948e-002
3260	2.5	2.4	0.	-1.1881e-002
3261	2.5	2.3	0.	-1.1688e-002
3262	2.5	2.2	0.	-1.1308e-002
3263	2.5	2.1	0.	-1.0668e-002
3264	2.5	2.	0.	-9.6814e-003
3265	2.5	1.9	0.	-8.248e-003
3266	2.5	1.8	0.	-6.2537e-003
3267	2.5	1.7	0.	-3.5699e-003
3268	2.5	1.6	0.	-5.3456e-005
3269	2.5	1.5	0.	4.4539e-003
3270	2.5	1.4	0.	1.0127e-002
3271	2.5	1.3	0.	1.7163e-002
3272	2.5	1.2	0.	2.5785e-002
3273	2.5	1.1	0.	3.6266e-002
3274	2.5	1.	0.	4.8961e-002
3275	2.5	0.9	0.	6.4368e-002
3276	2.5	0.8	0.	8.3271e-002
3277	2.5	0.7	0.	0.10694
3278	2.5	0.6	0.	0.13794
3279	2.5	0.5	0.	0.18057
3280	2.5	0.4	0.	0.2494
3281	2.5	0.3	0.	0.36672
3282	2.5	0.2	0.	0.84988
3283	2.5	0.1	0.	9.4049
3284	2.4	5.9	0.	12.01
3285	2.4	5.8	0.	0.92829
3286	2.4	5.7	0.	0.39418
3287	2.4	5.6	0.	0.2657
3288	2.4	5.5	0.	0.19137
3289	2.4	5.4	0.	0.14548
3290	2.4	5.3	0.	0.11221
3291	2.4	5.2	0.	8.6895e-002
3292	2.4	5.1	0.	6.6776e-002
3293	2.4	5.	0.	5.0491e-002
3294	2.4	4.9	0.	3.7198e-002
3295	2.4	4.8	0.	2.6356e-002
3296	2.4	4.7	0.	1.7572e-002
3297	2.4	4.6	0.	1.0538e-002
3298	2.4	4.5	0.	4.9963e-003
3299	2.4	4.4	0.	7.1945e-004
3300	2.4	4.3	0.	-2.4964e-003
3301	2.4	4.2	0.	-4.8347e-003
3302	2.4	4.1	0.	-6.4605e-003
3303	2.4	4.	0.	-7.5202e-003
3304	2.4	3.9	0.	-8.1424e-003
3305	2.4	3.8	0.	-8.4384e-003
3306	2.4	3.7	0.	-8.5029e-003
3307	2.4	3.6	0.	-8.4154e-003
3308	2.4	3.5	0.	-8.241e-003
3309	2.4	3.4	0.	-8.0321e-003
3310	2.4	3.3	0.	-7.8297e-003
3311	2.4	3.2	0.	-7.6642e-003
3312	2.4	3.1	0.	-7.5567e-003
3313	2.4	3.	0.	-7.5194e-003
3314	2.4	2.9	0.	-7.5567e-003
3315	2.4	2.8	0.	-7.6641e-003
3316	2.4	2.7	0.	-7.8296e-003
3317	2.4	2.6	0.	-8.032e-003
3318	2.4	2.5	0.	-8.2408e-003
3319	2.4	2.4	0.	-8.4152e-003
3320	2.4	2.3	0.	-8.5028e-003
3321	2.4	2.2	0.	-8.4382e-003
3322	2.4	2.1	0.	-8.1422e-003
3323	2.4	2.	0.	-7.5199e-003
3324	2.4	1.9	0.	-6.4602e-003
3325	2.4	1.8	0.	-4.8344e-003
3326	2.4	1.7	0.	-2.496e-003
3327	2.4	1.6	0.	7.198e-004
3328	2.4	1.5	0.	4.9968e-003
3329	2.4	1.4	0.	1.0538e-002
3330	2.4	1.3	0.	1.7572e-002
3331	2.4	1.2	0.	2.6356e-002
3332	2.4	1.1	0.	3.7199e-002
3333	2.4	1.	0.	5.0492e-002
3334	2.4	0.9	0.	6.6776e-002
3335	2.4	0.8	0.	8.6896e-002
3336	2.4	0.7	0.	0.11221
3337	2.4	0.6	0.	0.14548
3338	2.4	0.5	0.	0.19137
3339	2.4	0.4	0.	0.2657
3340	2.4	0.3	0.	0.39418
3341	2.4	0.2	0.	0.9283
3342	2.4	0.1	0.	12.01
3343	2.3	5.9	0.	15.23
3344	2.3	5.8	0.	1.0182
3345	2.3	5.7	0.	0.42454
3346	2.3	5.6	0.	0.28348
3347	2.3	5.5	0.	0.20307
3348	2.3	5.4	0.	0.15359
3349	2.3	5.3	0.	0.11784
3350	2.3	5.2	0.	9.0734e-002
3351	2.3	5.1	0.	6.931e-002
3352	2.3	5.	0.	5.2106e-002
3353	2.3	4.9	0.	3.8212e-002
3354	2.3	4.8	0.	2.7036e-002
3355	2.3	4.7	0.	1.8139e-002
3356	2.3	4.6	0.	1.117e-002
3357	2.3	4.5	0.	5.8309e-003
3358	2.3	4.4	0.	1.8564e-003
3359	2.3	4.3	0.	-9.9011e-004
3360	2.3	4.2	0.	-2.9208e-003
3361	2.3	4.1	0.	-4.1239e-003
3362	2.3	4.	0.	-4.7651e-003
3363	2.3	3.9	0.	-4.987e-003
3364	2.3	3.8	0.	-4.9116e-003
3365	2.3	3.7	0.	-4.641e-003
3366	2.3	3.6	0.	-4.2591e-003
3367	2.3	3.5	0.	-3.8342e-003
3368	2.3	3.4	0.	-3.4201e-003
3369	2.3	3.3	0.	-3.0581e-003
3370	2.3	3.2	0.	-2.7789e-003
3371	2.3	3.1	0.	-2.6032e-003
3372	2.3	3.	0.	-2.5434e-003
3373	2.3	2.9	0.	-2.6032e-003
3374	2.3	2.8	0.	-2.7788e-003
3375	2.3	2.7	0.	-3.058e-003
3376	2.3	2.6	0.	-3.42e-003
3377	2.3	2.5	0.	-3.8341e-003
3378	2.3	2.4	0.	-4.259e-003
3379	2.3	2.3	0.	-4.6408e-003
3380	2.3	2.2	0.	-4.9114e-003
3381	2.3	2.1	0.	-4.9868e-003
3382	2.3	2.	0.	-4.7648e-003
3383	2.3	1.9	0.	-4.1237e-003
3384	2.3	1.8	0.	-2.9205e-003
3385	2.3	1.7	0.	-9.8977e-004
3386	2.3	1.6	0.	1.8568e-003
3387	2.3	1.5	0.	5.8313e-003
3388	2.3	1.4	0.	1.1171e-002
3389	2.3	1.3	0.	1.8139e-002
3390	2.3	1.2	0.	2.7036e-002
3391	2.3	1.1	0.	3.8213e-002
3392	2.3	1.	0.	5.2107e-002
3393	2.3	0.9	0.	6.9311e-002
3394	2.3	0.8	0.	9.0735e-002
3395	2.3	0.7	0.	0.11784
3396	2.3	0.6	0.	0.15359
3397	2.3	0.5	0.	0.20307
3398	2.3	0.4	0.	0.28348
3399	2.3	0.3	0.	0.42454
3400	2.3	0.2	0.	1.0182
3401	2.3	0.1	0.	15.23
3402	2.2	5.9	0.	19.094
3403	2.2	5.8	0.	1.1222
3404	2.2	5.7	0.	0.45822
3405	2.2	5.6	0.	0.30293
3406	2.2	5.5	0.	0.21576
3407	2.2	5.4	0.	0.16232
3408	2.2	5.3	0.	0.12384
3409	2.2	5.2	0.	9.479e-002
3410	2.2	5.1	0.	7.1971e-002
3411	2.2	5.	0.	5.3812e-002
3412	2.2	4.9	0.	3.9326e-002
3413	2.2	4.8	0.	2.7859e-002
3414	2.2	4.7	0.	1.8916e-002
3415	2.2	4.6	0.	1.2092e-002
3416	2.2	4.5	0.	7.0396e-003
3417	2.2	4.4	0.	3.4503e-003
3418	2.2	4.3	0.	1.0489e-003
3419	2.2	4.2	0.	-4.0839e-004
3420	2.2	4.1	0.	-1.135e-003
3421	2.2	4.	0.	-1.3152e-003
3422	2.2	3.9	0.	-1.1059e-003
3423	2.2	3.8	0.	-6.3786e-004
3424	2.2	3.7	0.	-1.8884e-005
3425	2.2	3.6	0.	6.6407e-004
3426	2.2	3.5	0.	1.3418e-003
3427	2.2	3.4	0.	1.9608e-003
3428	2.2	3.3	0.	2.4804e-003
3429	2.2	3.2	0.	2.8712e-003
3430	2.2	3.1	0.	3.1133e-003
3431	2.2	3.	0.	3.1952e-003
3432	2.2	2.9	0.	3.1133e-003
3433	2.2	2.8	0.	2.8712e-003
3434	2.2	2.7	0.	2.4805e-003
3435	2.2	2.6	0.	1.9609e-003
3436	2.2	2.5	0.	1.342e-003
3437	2.2	2.4	0.	6.6417e-004
3438	2.2	2.3	0.	-1.8695e-005
3439	2.2	2.2	0.	-6.3772e-004
3440	2.2	2.1	0.	-1.1057e-003
3441	2.2	2.	0.	-1.315e-003
3442	2.2	1.9	0.	-1.1347e-003
3443	2.2	1.8	0.	-4.0812e-004
3444	2.2	1.7	0.	1.0492e-003
3445	2.2	1.6	0.	3.4506e-003
3446	2.2	1.5	0.	7.04e-003
3447	2.2	1.4	0.	1.2092e-002
3448	2.2	1.3	0.	1.8916e-002
3449	2.2	1.2	0.	2.786e-002
3450	2.2	1.1	0.	3.9327e-002
3451	2.2	1.	0.	5.3813e-002
3452	2.2	0.9	0.	7.1972e-002
3453	2.2	0.8	0.	9.4791e-002
3454	2.2	0.7	0.	0.12384
3455	2.2	0.6	0.	0.16232
3456	2.2	0.5	0.	0.21576
3457	2.2	0.4	0.	0.30293
3458	2.2	0.3	0.	0.45823
3459	2.2	0.2	0.	1.1222
3460	2.2	0.1	0.	19.094
3461	2.1	5.9	0.	23.627
3462	2.1	5.8	0.	1.2436
3463	2.1	5.7	0.	0.49574
3464	2.1	5.6	0.	0.32426
3465	2.1	5.5	0.	0.22957
3466	2.1	5.4	0.	0.17172
3467	2.1	5.3	0.	0.13025
3468	2.1	5.2	0.	9.9073e-002
3469	2.1	5.1	0.	7.4767e-002
3470	2.1	5.	0.	5.5628e-002
3471	2.1	4.9	0.	4.0576e-002
3472	2.1	4.8	0.	2.8882e-002
3473	2.1	4.7	0.	1.998e-002
3474	2.1	4.6	0.	1.34e-002
3475	2.1	4.5	0.	8.735e-003
3476	2.1	4.4	0.	5.6234e-003
3477	2.1	4.3	0.	3.7478e-003
3478	2.1	4.2	0.	2.83e-003
3479	2.1	4.1	0.	2.6305e-003
3480	2.1	4.	0.	2.9467e-003
3481	2.1	3.9	0.	3.6098e-003
3482	2.1	3.8	0.	4.482e-003
3483	2.1	3.7	0.	5.4523e-003
3484	2.1	3.6	0.	6.4334e-003
3485	2.1	3.5	0.	7.3573e-003
3486	2.1	3.4	0.	8.1728e-003
3487	2.1	3.3	0.	8.8418e-003
3488	2.1	3.2	0.	9.3372e-003
3489	2.1	3.1	0.	9.6413e-003
3490	2.1	3.	0.	9.7437e-003
3491	2.1	2.9	0.	9.6413e-003
3492	2.1	2.8	0.	9.3372e-003
3493	2.1	2.7	0.	8.8418e-003
3494	2.1	2.6	0.	8.1729e-003
3495	2.1	2.5	0.	7.3575e-003
3496	2.1	2.4	0.	6.4335e-003
3497	2.1	2.3	0.	5.4525e-003
3498	2.1	2.2	0.	4.4821e-003
3499	2.1	2.1	0.	3.61e-003
3500	2.1	2.	0.	2.9469e-003
3501	2.1	1.9	0.	2.6307e-003
3502	2.1	1.8	0.	2.8302e-003
3503	2.1	1.7	0.	3.7481e-003
3504	2.1	1.6	0.	5.6238e-003
3505	2.1	1.5	0.	8.7353e-003
3506	2.1	1.4	0.	1.3401e-002
3507	2.1	1.3	0.	1.9981e-002
3508	2.1	1.2	0.	2.8883e-002
3509	2.1	1.1	0.	4.0577e-002
3510	2.1	1.	0.	5.5628e-002
3511	2.1	0.9	0.	7.4768e-002
3512	2.1	0.8	0.	9.9073e-002
3513	2.1	0.7	0.	0.13025
3514	2.1	0.6	0.	0.17172
3515	2.1	0.5	0.	0.22957
3516	2.1	0.4	0.	0.32427
3517	2.1	0.3	0.	0.49574
3518	2.1	0.2	0.	1.2436
3519	2.1	0.1	0.	23.627
3520	2.	5.9	0.	28.858
3521	2.	5.8	0.	1.3866
3522	2.	5.7	0.	0.53768
3523	2.	5.6	0.	0.34774
3524	2.	5.5	0.	0.24462
3525	2.	5.4	0.	0.18187
3526	2.	5.3	0.	0.13708
3527	2.	5.2	0.	0.1036
3528	2.	5.1	0.	7.772e-002
3529	2.	5.	0.	5.7591e-002
3530	2.	4.9	0.	4.2026e-002
3531	2.	4.8	0.	3.0196e-002
3532	2.	4.7	0.	2.1449e-002
3533	2.	4.6	0.	1.5232e-002
3534	2.	4.5	0.	1.1068e-002
3535	2.	4.4	0.	8.5346e-003
3536	2.	4.3	0.	7.2666e-003
3537	2.	4.2	0.	6.9497e-003
3538	2.	4.1	0.	7.319e-003
3539	2.	4.	0.	8.1554e-003
3540	2.	3.9	0.	9.2811e-003
3541	2.	3.8	0.	1.0555e-002
3542	2.	3.7	0.	1.1865e-002
3543	2.	3.6	0.	1.3128e-002
3544	2.	3.5	0.	1.428e-002
3545	2.	3.4	0.	1.5273e-002
3546	2.	3.3	0.	1.6075e-002
3547	2.	3.2	0.	1.6663e-002
3548	2.	3.1	0.	1.7021e-002
3549	2.	3.	0.	1.7141e-002
3550	2.	2.9	0.	1.7021e-002
3551	2.	2.8	0.	1.6663e-002
3552	2.	2.7	0.	1.6075e-002
3553	2.	2.6	0.	1.5273e-002
3554	2.	2.5	0.	1.428e-002
3555	2.	2.4	0.	1.3128e-002
3556	2.	2.3	0.	1.1865e-002
3557	2.	2.2	0.	1.0555e-002
3558	2.	2.1	0.	9.2813e-003
3559	2.	2.	0.	8.1556e-003
3560	2.	1.9	0.	7.3192e-003
3561	2.	1.8	0.	6.9499e-003
3562	2.	1.7	0.	7.2669e-003
3563	2.	1.6	0.	8.5349e-003
3564	2.	1.5	0.	1.1068e-002
3565	2.	1.4	0.	1.5233e-002
3566	2.	1.3	0.	2.1449e-002
3567	2.	1.2	0.	3.0197e-002
3568	2.	1.1	0.	4.2026e-002
3569	2.	1.	0.	5.7592e-002
3570	2.	0.9	0.	7.772e-002
3571	2.	0.8	0.	0.1036
3572	2.	0.7	0.	0.13708
3573	2.	0.6	0.	0.18187
3574	2.	0.5	0.	0.24462
3575	2.	0.4	0.	0.34774
3576	2.	0.3	0.	0.53768
3577	2.	0.2	0.	1.3866
3578	2.	0.1	0.	28.858
3579	1.9	5.9	0.	34.831
3580	1.9	5.8	0.	1.5573
3581	1.9	5.7	0.	0.58478
3582	1.9	5.6	0.	0.37365
3583	1.9	5.5	0.	0.26107
3584	1.9	5.4	0.	0.19285
3585	1.9	5.3	0.	0.14439
3586	1.9	5.2	0.	0.10841
3587	1.9	5.1	0.	8.0874e-002
3588	1.9	5.	0.	5.9774e-002
3589	1.9	4.9	0.	4.3779e-002
3590	1.9	4.8	0.	3.1939e-002
3591	1.9	4.7	0.	2.3488e-002
3592	1.9	4.6	0.	1.7776e-002
3593	1.9	4.5	0.	1.4239e-002
3594	1.9	4.4	0.	1.2387e-002
3595	1.9	4.3	0.	1.1803e-002
3596	1.9	4.2	0.	1.2138e-002
3597	1.9	4.1	0.	1.3101e-002
3598	1.9	4.	0.	1.4463e-002
3599	1.9	3.9	0.	1.604e-002
3600	1.9	3.8	0.	1.7692e-002
3601	1.9	3.7	0.	1.9312e-002
3602	1.9	3.6	0.	2.0824e-002
3603	1.9	3.5	0.	2.2169e-002
3604	1.9	3.4	0.	2.331e-002
3605	1.9	3.3	0.	2.4219e-002
3606	1.9	3.2	0.	2.4879e-002
3607	1.9	3.1	0.	2.5278e-002
3608	1.9	3.	0.	2.5412e-002
3609	1.9	2.9	0.	2.5279e-002
3610	1.9	2.8	0.	2.4879e-002
3611	1.9	2.7	0.	2.4219e-002
3612	1.9	2.6	0.	2.331e-002
3613	1.9	2.5	0.	2.2169e-002
3614	1.9	2.4	0.	2.0824e-002
3615	1.9	2.3	0.	1.9313e-002
3616	1.9	2.2	0.	1.7692e-002
3617	1.9	2.1	0.	1.604e-002
3618	1.9	2.	0.	1.4463e-002
3619	1.9	1.9	0.	1.3102e-002
3620	1.9	1.8	0.	1.2138e-002
3621	1.9	1.7	0.	1.1804e-002
3622	1.9	1.6	0.	1.2387e-002
3623	1.9	1.5	0.	1.4239e-002
3624	1.9	1.4	0.	1.7776e-002
3625	1.9	1.3	0.	2.3488e-002
3626	1.9	1.2	0.	3.1939e-002
3627	1.9	1.1	0.	4.3779e-002
3628	1.9	1.	0.	5.9774e-002
3629	1.9	0.9	0.	8.0875e-002
3630	1.9	0.8	0.	0.10841
3631	1.9	0.7	0.	0.14439
3632	1.9	0.6	0.	0.19285
3633	1.9	0.5	0.	0.26107
3634	1.9	0.4	0.	0.37366
3635	1.9	0.3	0.	0.58478
3636	1.9	0.2	0.	1.5573
3637	1.9	0.1	0.	34.831
3638	1.8	5.9	0.	41.6
3639	1.8	5.8	0.	1.7635
3640	1.8	5.7	0.	0.63792
3641	1.8	5.6	0.	0.4024
3642	1.8	5.5	0.	0.27914
3643	1.8	5.4	0.	0.20478
3644	1.8	5.3	0.	0.15225
3645	1.8	5.2	0.	0.11355
3646	1.8	5.1	0.	8.4315e-002
3647	1.8	5.	0.	6.2297e-002
3648	1.8	4.9	0.	4.5999e-002
3649	1.8	4.8	0.	3.4314e-002
3650	1.8	4.7	0.	2.6334e-002
3651	1.8	4.6	0.	2.1287e-002
3652	1.8	4.5	0.	1.851e-002
3653	1.8	4.4	0.	1.7438e-002
3654	1.8	4.3	0.	1.7601e-002
3655	1.8	4.2	0.	1.8615e-002
3656	1.8	4.1	0.	2.0173e-002
3657	1.8	4.	0.	2.2037e-002
3658	1.8	3.9	0.	2.4026e-002
3659	1.8	3.8	0.	2.6007e-002
3660	1.8	3.7	0.	2.7884e-002
3661	1.8	3.6	0.	2.9588e-002
3662	1.8	3.5	0.	3.1076e-002
3663	1.8	3.4	0.	3.2319e-002
3664	1.8	3.3	0.	3.3297e-002
3665	1.8	3.2	0.	3.4001e-002
3666	1.8	3.1	0.	3.4426e-002
3667	1.8	3.	0.	3.4567e-002
3668	1.8	2.9	0.	3.4426e-002
3669	1.8	2.8	0.	3.4001e-002
3670	1.8	2.7	0.	3.3297e-002
3671	1.8	2.6	0.	3.2319e-002
3672	1.8	2.5	0.	3.1077e-002
3673	1.8	2.4	0.	2.9588e-002
3674	1.8	2.3	0.	2.7884e-002
3675	1.8	2.2	0.	2.6007e-002
3676	1.8	2.1	0.	2.4027e-002
3677	1.8	2.	0.	2.2037e-002
3678	1.8	1.9	0.	2.0173e-002
3679	1.8	1.8	0.	1.8615e-002
3680	1.8	1.7	0.	1.7601e-002
3681	1.8	1.6	0.	1.7438e-002
3682	1.8	1.5	0.	1.851e-002
3683	1.8	1.4	0.	2.1288e-002
3684	1.8	1.3	0.	2.6335e-002
3685	1.8	1.2	0.	3.4315e-002
3686	1.8	1.1	0.	4.5999e-002
3687	1.8	1.	0.	6.2297e-002
3688	1.8	0.9	0.	8.4315e-002
3689	1.8	0.8	0.	0.11355
3690	1.8	0.7	0.	0.15225
3691	1.8	0.6	0.	0.20478
3692	1.8	0.5	0.	0.27914
3693	1.8	0.4	0.	0.4024
3694	1.8	0.3	0.	0.63793
3695	1.8	0.2	0.	1.7635
3696	1.8	0.1	0.	41.6
3697	1.7	5.9	0.	49.235
3698	1.7	5.8	0.	2.0162
3699	1.7	5.7	0.	0.69819
3700	1.7	5.6	0.	0.43444
3701	1.7	5.5	0.	0.29906
3702	1.7	5.4	0.	0.21779
3703	1.7	5.3	0.	0.16076
3704	1.7	5.2	0.	0.11915
3705	1.7	5.1	0.	8.8185e-002
3706	1.7	5.	0.	6.5359e-002
3707	1.7	4.9	0.	4.8941e-002
3708	1.7	4.8	0.	3.7623e-002
3709	1.7	4.7	0.	3.0318e-002
3710	1.7	4.6	0.	2.6109e-002
3711	1.7	4.5	0.	2.422e-002
3712	1.7	4.4	0.	2.4008e-002
3713	1.7	4.3	0.	2.4951e-002
3714	1.7	4.2	0.	2.6638e-002
3715	1.7	4.1	0.	2.8752e-002
3716	1.7	4.	0.	3.1058e-002
3717	1.7	3.9	0.	3.3384e-002
3718	1.7	3.8	0.	3.5611e-002
3719	1.7	3.7	0.	3.7659e-002
3720	1.7	3.6	0.	3.9477e-002
3721	1.7	3.5	0.	4.1035e-002
3722	1.7	3.4	0.	4.2316e-002
3723	1.7	3.3	0.	4.3314e-002
3724	1.7	3.2	0.	4.4025e-002
3725	1.7	3.1	0.	4.4452e-002
3726	1.7	3.	0.	4.4594e-002
3727	1.7	2.9	0.	4.4452e-002
3728	1.7	2.8	0.	4.4025e-002
3729	1.7	2.7	0.	4.3314e-002
3730	1.7	2.6	0.	4.2316e-002
3731	1.7	2.5	0.	4.1035e-002
3732	1.7	2.4	0.	3.9477e-002
3733	1.7	2.3	0.	3.7659e-002
3734	1.7	2.2	0.	3.5611e-002
3735	1.7	2.1	0.	3.3384e-002
3736	1.7	2.	0.	3.1058e-002
3737	1.7	1.9	0.	2.8752e-002
3738	1.7	1.8	0.	2.6638e-002
3739	1.7	1.7	0.	2.4952e-002
3740	1.7	1.6	0.	2.4008e-002
3741	1.7	1.5	0.	2.4221e-002
3742	1.7	1.4	0.	2.611e-002
3743	1.7	1.3	0.	3.0319e-002
3744	1.7	1.2	0.	3.7623e-002
3745	1.7	1.1	0.	4.8942e-002
3746	1.7	1.	0.	6.5359e-002
3747	1.7	0.9	0.	8.8186e-002
3748	1.7	0.8	0.	0.11915
3749	1.7	0.7	0.	0.16076
3750	1.7	0.6	0.	0.21779
3751	1.7	0.5	0.	0.29906
3752	1.7	0.4	0.	0.43444
3753	1.7	0.3	0.	0.69819
3754	1.7	0.2	0.	2.0162
3755	1.7	0.1	0.	49.235
3756	1.6	5.9	0.	57.822
3757	1.6	5.8	0.	2.3307
3758	1.6	5.7	0.	0.76694
3759	1.6	5.6	0.	0.47035
3760	1.6	5.5	0.	0.32118
3761	1.6	5.4	0.	0.23209
3762	1.6	5.3	0.	0.17008
3763	1.6	5.2	0.	0.12538
3764	1.6	5.1	0.	9.2728e-002
3765	1.6	5.	0.	6.9273e-002
3766	1.6	4.9	0.	5.2986e-002
3767	1.6	4.8	0.	4.2294e-002
3768	1.6	4.7	0.	3.5893e-002
3769	1.6	4.6	0.	3.2693e-002
3770	1.6	4.5	0.	3.1799e-002
3771	1.6	4.4	0.	3.2487e-002
3772	1.6	4.3	0.	3.4195e-002
3773	1.6	4.2	0.	3.6495e-002
3774	1.6	4.1	0.	3.9074e-002
3775	1.6	4.	0.	4.1708e-002
3776	1.6	3.9	0.	4.4249e-002
3777	1.6	3.8	0.	4.6598e-002
3778	1.6	3.7	0.	4.8699e-002
3779	1.6	3.6	0.	5.0521e-002
3780	1.6	3.5	0.	5.2052e-002
3781	1.6	3.4	0.	5.3292e-002
3782	1.6	3.3	0.	5.4244e-002
3783	1.6	3.2	0.	5.4917e-002
3784	1.6	3.1	0.	5.5318e-002
3785	1.6	3.	0.	5.5451e-002
3786	1.6	2.9	0.	5.5318e-002
3787	1.6	2.8	0.	5.4917e-002
3788	1.6	2.7	0.	5.4244e-002
3789	1.6	2.6	0.	5.3292e-002
3790	1.6	2.5	0.	5.2052e-002
3791	1.6	2.4	0.	5.0521e-002
3792	1.6	2.3	0.	4.8699e-002
3793	1.6	2.2	0.	4.6598e-002
3794	1.6	2.1	0.	4.4249e-002
3795	1.6	2.	0.	4.1708e-002
3796	1.6	1.9	0.	3.9074e-002
3797	1.6	1.8	0.	3.6496e-002
3798	1.6	1.7	0.	3.4196e-002
3799	1.6	1.6	0.	3.2488e-002
3800	1.6	1.5	0.	3.1799e-002
3801	1.6	1.4	0.	3.2694e-002
3802	1.6	1.3	0.	3.5893e-002
3803	1.6	1.2	0.	4.2294e-002
3804	1.6	1.1	0.	5.2986e-002
3805	1.6	1.	0.	6.9273e-002
3806	1.6	0.9	0.	9.2728e-002
3807	1.6	0.8	0.	0.12538
3808	1.6	0.7	0.	0.17008
3809	1.6	0.6	0.	0.23209
3810	1.6	0.5	0.	0.32118
3811	1.6	0.4	0.	0.47035
3812	1.6	0.3	0.	0.76694
3813	1.6	0.2	0.	2.3307
3814	1.6	0.1	0.	57.822
3815	1.5	5.9	0.	67.464
3816	1.5	5.8	0.	2.7293
3817	1.5	5.7	0.	0.84586
3818	1.5	5.6	0.	0.51091
3819	1.5	5.5	0.	0.34593
3820	1.5	5.4	0.	0.24799
3821	1.5	5.3	0.	0.18048
3822	1.5	5.2	0.	0.13256
3823	1.5	5.1	0.	9.8347e-002
3824	1.5	5.	0.	7.4539e-002
3825	1.5	4.9	0.	5.8708e-002
3826	1.5	4.8	0.	4.8944e-002
3827	1.5	4.7	0.	4.3679e-002
3828	1.5	4.6	0.	4.1633e-002
3829	1.5	4.5	0.	4.1785e-002
3830	1.5	4.4	0.	4.3348e-002
3831	1.5	4.3	0.	4.5731e-002
3832	1.5	4.2	0.	4.8509e-002
3833	1.5	4.1	0.	5.1388e-002
3834	1.5	4.	0.	5.4175e-002
3835	1.5	3.9	0.	5.6751e-002
3836	1.5	3.8	0.	5.9052e-002
3837	1.5	3.7	0.	6.1047e-002
3838	1.5	3.6	0.	6.2732e-002
3839	1.5	3.5	0.	6.4115e-002
3840	1.5	3.4	0.	6.5212e-002
3841	1.5	3.3	0.	6.6042e-002
3842	1.5	3.2	0.	6.6621e-002
3843	1.5	3.1	0.	6.6963e-002
3844	1.5	3.	0.	6.7075e-002
3845	1.5	2.9	0.	6.6963e-002
3846	1.5	2.8	0.	6.6621e-002
3847	1.5	2.7	0.	6.6042e-002
3848	1.5	2.6	0.	6.5212e-002
3849	1.5	2.5	0.	6.4115e-002
3850	1.5	2.4	0.	6.2732e-002
3851	1.5	2.3	0.	6.1047e-002
3852	1.5	2.2	0.	5.9052e-002
3853	1.5	2.1	0.	5.6752e-002
3854	1.5	2.	0.	5.4175e-002
3855	1.5	1.9	0.	5.1388e-002
3856	1.5	1.8	0.	4.8509e-002
3857	1.5	1.7	0.	4.5731e-002
3858	1.5	1.6	0.	4.3348e-002
3859	1.5	1.5	0.	4.1786e-002
3860	1.5	1.4	0.	4.1633e-002
3861	1.5	1.3	0.	4.3679e-002
3862	1.5	1.2	0.	4.8944e-002
3863	1.5	1.1	0.	5.8708e-002
3864	1.5	1.	0.	7.4539e-002
3865	1.5	0.9	0.	9.8347e-002
3866	1.5	0.8	0.	0.13256
3867	1.5	0.7	0.	0.18048
3868	1.5	0.6	0.	0.24799
3869	1.5	0.5	0.	0.34593
3870	1.5	0.4	0.	0.51091
3871	1.5	0.3	0.	0.84586
3872	1.5	0.2	0.	2.7293
3873	1.5	0.1	0.	67.464
3874	1.4	5.9	0.	78.288
3875	1.4	5.8	0.	3.244
3876	1.4	5.7	0.	0.93709
3877	1.4	5.6	0.	0.55708
3878	1.4	5.5	0.	0.37389
3879	1.4	5.4	0.	0.26589
3880	1.4	5.3	0.	0.19237
3881	1.4	5.2	0.	0.14118
3882	1.4	5.1	0.	0.10567
3883	1.4	5.	0.	8.1894e-002
3884	1.4	4.9	0.	6.6913e-002
3885	1.4	4.8	0.	5.8395e-002
3886	1.4	4.7	0.	5.4465e-002
3887	1.4	4.6	0.	5.3644e-002
3888	1.4	4.5	0.	5.48e-002
3889	1.4	4.4	0.	5.7102e-002
3890	1.4	4.3	0.	5.9961e-002
3891	1.4	4.2	0.	6.2979e-002
3892	1.4	4.1	0.	6.5904e-002
3893	1.4	4.	0.	6.8588e-002
3894	1.4	3.9	0.	7.0956e-002
3895	1.4	3.8	0.	7.2983e-002
3896	1.4	3.7	0.	7.4672e-002
3897	1.4	3.6	0.	7.6046e-002
3898	1.4	3.5	0.	7.7135e-002
3899	1.4	3.4	0.	7.7972e-002
3900	1.4	3.3	0.	7.8588e-002
3901	1.4	3.2	0.	7.9008e-002
3902	1.4	3.1	0.	7.9252e-002
3903	1.4	3.	0.	7.9332e-002
3904	1.4	2.9	0.	7.9252e-002
3905	1.4	2.8	0.	7.9008e-002
3906	1.4	2.7	0.	7.8588e-002
3907	1.4	2.6	0.	7.7972e-002
3908	1.4	2.5	0.	7.7135e-002
3909	1.4	2.4	0.	7.6046e-002
3910	1.4	2.3	0.	7.4672e-002
3911	1.4	2.2	0.	7.2983e-002
3912	1.4	2.1	0.	7.0956e-002
3913	1.4	2.	0.	6.8588e-002
3914	1.4	1.9	0.	6.5904e-002
3915	1.4	1.8	0.	6.2979e-002
3916	1.4	1.7	0.	5.9961e-002
3917	1.4	1.6	0.	5.7102e-002
3918	1.4	1.5	0.	5.48e-002
3919	1.4	1.4	0.	5.3644e-002
3920	1.4	1.3	0.	5.4465e-002
3921	1.4	1.2	0.	5.8395e-002
3922	1.4	1.1	0.	6.6913e-002
3923	1.4	1.	0.	8.1894e-002
3924	1.4	0.9	0.	0.10567
3925	1.4	0.8	0.	0.14118
3926	1.4	0.7	0.	0.19237
3927	1.4	0.6	0.	0.2659
3928	1.4	0.5	0.	0.37389
3929	1.4	0.4	0.	0.55708
3930	1.4	0.3	0.	0.93709
3931	1.4	0.2	0.	3.244
3932	1.4	0.1	0.	78.288
3933	1.3	5.9	0.	90.444
3934	1.3	5.8	0.	3.922
3935	1.3	5.7	0.	1.0435
3936	1.3	5.6	0.	0.61028
3937	1.3	5.5	0.	0.40601
3938	1.3	5.4	0.	0.28659
3939	1.3	5.3	0.	0.20657
3940	1.3	5.2	0.	0.15222
3941	1.3	5.1	0.	0.11581
3942	1.3	5.	0.	9.2584e-002
3943	1.3	4.9	0.	7.8891e-002
3944	1.3	4.8	0.	7.1902e-002
3945	1.3	4.7	0.	6.9407e-002
3946	1.3	4.6	0.	6.9742e-002
3947	1.3	4.5	0.	7.1701e-002
3948	1.3	4.4	0.	7.4448e-002
3949	1.3	4.3	0.	7.7435e-002
3950	1.3	4.2	0.	8.0326e-002
3951	1.3	4.1	0.	8.2932e-002
3952	1.3	4.	0.	8.5168e-002
3953	1.3	3.9	0.	8.7013e-002
3954	1.3	3.8	0.	8.8487e-002
3955	1.3	3.7	0.	8.9628e-002
3956	1.3	3.6	0.	9.0487e-002
3957	1.3	3.5	0.	9.1114e-002
3958	1.3	3.4	0.	9.1557e-002
3959	1.3	3.3	0.	9.1858e-002
3960	1.3	3.2	0.	9.2048e-002
3961	1.3	3.1	0.	9.2153e-002
3962	1.3	3.	0.	9.2186e-002
3963	1.3	2.9	0.	9.2153e-002
3964	1.3	2.8	0.	9.2048e-002
3965	1.3	2.7	0.	9.1858e-002
3966	1.3	2.6	0.	9.1557e-002
3967	1.3	2.5	0.	9.1114e-002
3968	1.3	2.4	0.	9.0487e-002
3969	1.3	2.3	0.	8.9628e-002
3970	1.3	2.2	0.	8.8487e-002
3971	1.3	2.1	0.	8.7014e-002
3972	1.3	2.	0.	8.5168e-002
3973	1.3	1.9	0.	8.2932e-002
3974	1.3	1.8	0.	8.0326e-002
3975	1.3	1.7	0.	7.7435e-002
3976	1.3	1.6	0.	7.4448e-002
3977	1.3	1.5	0.	7.1701e-002
3978	1.3	1.4	0.	6.9742e-002
3979	1.3	1.3	0.	6.9407e-002
3980	1.3	1.2	0.	7.1902e-002
3981	1.3	1.1	0.	7.8891e-002
3982	1.3	1.	0.	9.2584e-002
3983	1.3	0.9	0.	0.11582
3984	1.3	0.8	0.	0.15222
3985	1.3	0.7	0.	0.20657
3986	1.3	0.6	0.	0.28659
3987	1.3	0.5	0.	0.40601
3988	1.3	0.4	0.	0.61028
3989	1.3	0.3	0.	1.0435
3990	1.3	0.2	0.	3.922
3991	1.3	0.1	0.	90.444
3992	1.2	5.9	0.	104.12
3993	1.2	5.8	0.	4.832
3994	1.2	5.7	0.	1.1684
3995	1.2	5.6	0.	0.67214
3996	1.2	5.5	0.	0.44327
3997	1.2	5.4	0.	0.31088
3998	1.2	5.3	0.	0.22396
3999	1.2	5.2	0.	0.16675
4000	1.2	5.1	0.	0.13005
4001	1.2	5.	0.	0.10794
4002	1.2	4.9	0.	9.5923e-002
4003	1.2	4.8	0.	9.0593e-002
4004	1.2	4.7	0.	8.9416e-002
4005	1.2	4.6	0.	9.0592e-002
4006	1.2	4.5	0.	9.2904e-002
4007	1.2	4.4	0.	9.5575e-002
4008	1.2	4.3	0.	9.8149e-002
4009	1.2	4.2	0.	0.10038
4010	1.2	4.1	0.	0.10218
4011	1.2	4.	0.	0.10352
4012	1.2	3.9	0.	0.10445
4013	1.2	3.8	0.	0.10504
4014	1.2	3.7	0.	0.10535
4015	1.2	3.6	0.	0.10547
4016	1.2	3.5	0.	0.10545
4017	1.2	3.4	0.	0.10535
4018	1.2	3.3	0.	0.10523
4019	1.2	3.2	0.	0.10511
4020	1.2	3.1	0.	0.10503
4021	1.2	3.	0.	0.105
4022	1.2	2.9	0.	0.10503
4023	1.2	2.8	0.	0.10511
4024	1.2	2.7	0.	0.10523
4025	1.2	2.6	0.	0.10535
4026	1.2	2.5	0.	0.10545
4027	1.2	2.4	0.	0.10547
4028	1.2	2.3	0.	0.10535
4029	1.2	2.2	0.	0.10504
4030	1.2	2.1	0.	0.10445
4031	1.2	2.	0.	0.10352
4032	1.2	1.9	0.	0.10218
4033	1.2	1.8	0.	0.10038
4034	1.2	1.7	0.	9.8149e-002
4035	1.2	1.6	0.	9.5576e-002
4036	1.2	1.5	0.	9.2904e-002
4037	1.2	1.4	0.	9.0592e-002
4038	1.2	1.3	0.	8.9416e-002
4039	1.2	1.2	0.	9.0593e-002
4040	1.2	1.1	0.	9.5923e-002
4041	1.2	1.	0.	0.10794
4042	1.2	0.9	0.	0.13005
4043	1.2	0.8	0.	0.16675
4044	1.2	0.7	0.	0.22396
4045	1.2	0.6	0.	0.31088
4046	1.2	0.5	0.	0.44327
4047	1.2	0.4	0.	0.67214
4048	1.2	0.3	0.	1.1684
4049	1.2	0.2	0.	4.8321
4050	1.2	0.1	0.	104.12
4051	1.1	5.9	0.	119.53
4052	1.1	5.8	0.	6.0726
4053	1.1	5.7	0.	1.3178
4054	1.1	5.6	0.	0.74649
4055	1.1	5.5	0.	0.48891
4056	1.1	5.4	0.	0.34197
4057	1.1	5.3	0.	0.24805
4058	1.1	5.2	0.	0.18861
4059	1.1	5.1	0.	0.1524
4060	1.1	5.	0.	0.132
4061	1.1	4.9	0.	0.12187
4062	1.1	4.8	0.	0.11804
4063	1.1	4.7	0.	0.1177
4064	1.1	4.6	0.	0.11905
4065	1.1	4.5	0.	0.12094
4066	1.1	4.4	0.	0.12275
4067	1.1	4.3	0.	0.12414
4068	1.1	4.2	0.	0.12502
4069	1.1	4.1	0.	0.12539
4070	1.1	4.	0.	0.12531
4071	1.1	3.9	0.	0.12489
4072	1.1	3.8	0.	0.12422
4073	1.1	3.7	0.	0.1234
4074	1.1	3.6	0.	0.12253
4075	1.1	3.5	0.	0.12167
4076	1.1	3.4	0.	0.12089
4077	1.1	3.3	0.	0.12023
4078	1.1	3.2	0.	0.11974
4079	1.1	3.1	0.	0.11944
4080	1.1	3.	0.	0.11933
4081	1.1	2.9	0.	0.11944
4082	1.1	2.8	0.	0.11974
4083	1.1	2.7	0.	0.12023
4084	1.1	2.6	0.	0.12089
4085	1.1	2.5	0.	0.12167
4086	1.1	2.4	0.	0.12253
4087	1.1	2.3	0.	0.1234
4088	1.1	2.2	0.	0.12422
4089	1.1	2.1	0.	0.12489
4090	1.1	2.	0.	0.12531
4091	1.1	1.9	0.	0.12539
4092	1.1	1.8	0.	0.12502
4093	1.1	1.7	0.	0.12414
4094	1.1	1.6	0.	0.12275
4095	1.1	1.5	0.	0.12094
4096	1.1	1.4	0.	0.11905
4097	1.1	1.3	0.	0.1177
4098	1.1	1.2	0.	0.11804
4099	1.1	1.1	0.	0.12187
4100	1.1	1.	0.	0.132
4101	1.1	0.9	0.	0.1524
4102	1.1	0.8	0.	0.18861
4103	1.1	0.7	0.	0.24805
4104	1.1	0.6	0.	0.34197
4105	1.1	0.5	0.	0.48891
4106	1.1	0.4	0.	0.74649
4107	1.1	0.3	0.	1.3178
4108	1.1	0.2	0.	6.0726
4109	1.1	0.1	0.	119.53
4110	1.	5.9	0.	136.96
4111	1.	5.8	0.	7.7698
4112	1.	5.7	0.	1.4952
4113	1.	5.6	0.	0.83333
4114	1.	5.5	0.	0.54145
4115	1.	5.4	0.	0.37793
4116	1.	5.3	0.	0.27688
4117	1.	5.2	0.	0.21583
4118	1.	5.1	0.	0.18068
4119	1.	5.	0.	0.16208
4120	1.	4.9	0.	0.1534
4121	1.	4.8	0.	0.15014
4122	1.	4.7	0.	0.14947
4123	1.	4.6	0.	0.14968
4124	1.	4.5	0.	0.14986
4125	1.	4.4	0.	0.14959
4126	1.	4.3	0.	0.14874
4127	1.	4.2	0.	0.14734
4128	1.	4.1	0.	0.1455
4129	1.	4.	0.	0.14336
4130	1.	3.9	0.	0.14105
4131	1.	3.8	0.	0.1387
4132	1.	3.7	0.	0.13642
4133	1.	3.6	0.	0.1343
4134	1.	3.5	0.	0.1324
4135	1.	3.4	0.	0.13078
4136	1.	3.3	0.	0.12949
4137	1.	3.2	0.	0.12854
4138	1.	3.1	0.	0.12796
4139	1.	3.	0.	0.12777
4140	1.	2.9	0.	0.12796
4141	1.	2.8	0.	0.12854
4142	1.	2.7	0.	0.12949
4143	1.	2.6	0.	0.13078
4144	1.	2.5	0.	0.1324
4145	1.	2.4	0.	0.1343
4146	1.	2.3	0.	0.13642
4147	1.	2.2	0.	0.1387
4148	1.	2.1	0.	0.14105
4149	1.	2.	0.	0.14336
4150	1.	1.9	0.	0.1455
4151	1.	1.8	0.	0.14734
4152	1.	1.7	0.	0.14874
4153	1.	1.6	0.	0.14959
4154	1.	1.5	0.	0.14986
4155	1.	1.4	0.	0.14968
4156	1.	1.3	0.	0.14947
4157	1.	1.2	0.	0.15015
4158	1.	1.1	0.	0.1534
4159	1.	1.	0.	0.16208
4160	1.	0.9	0.	0.18068
4161	1.	0.8	0.	0.21583
4162	1.	0.7	0.	0.27688
4163	1.	0.6	0.	0.37793
4164	1.	0.5	0.	0.54146
4165	1.	0.4	0.	0.83333
4166	1.	0.3	0.	1.4952
4167	1.	0.2	0.	7.7698
4168	1.	0.1	0.	136.96
4169	0.9	5.9	0.	156.75
4170	0.9	5.8	0.	10.066
4171	0.9	5.7	0.	1.7245
4172	0.9	5.6	0.	0.95663
4173	0.9	5.5	0.	0.62615
4174	0.9	5.4	0.	0.44573
4175	0.9	5.3	0.	0.33902
4176	0.9	5.2	0.	0.27797
4177	0.9	5.1	0.	0.24474
4178	0.9	5.	0.	0.22782
4179	0.9	4.9	0.	0.21961
4180	0.9	4.8	0.	0.21548
4181	0.9	4.7	0.	0.21279
4182	0.9	4.6	0.	0.21019
4183	0.9	4.5	0.	0.20712
4184	0.9	4.4	0.	0.20345
4185	0.9	4.3	0.	0.19925
4186	0.9	4.2	0.	0.19468
4187	0.9	4.1	0.	0.18994
4188	0.9	4.	0.	0.18519
4189	0.9	3.9	0.	0.18059
4190	0.9	3.8	0.	0.17626
4191	0.9	3.7	0.	0.1723
4192	0.9	3.6	0.	0.16876
4193	0.9	3.5	0.	0.1657
4194	0.9	3.4	0.	0.16316
4195	0.9	3.3	0.	0.16116
4196	0.9	3.2	0.	0.15973
4197	0.9	3.1	0.	0.15886
4198	0.9	3.	0.	0.15857
4199	0.9	2.9	0.	0.15886
4200	0.9	2.8	0.	0.15973
4201	0.9	2.7	0.	0.16116
4202	0.9	2.6	0.	0.16316
4203	0.9	2.5	0.	0.1657
4204	0.9	2.4	0.	0.16876
4205	0.9	2.3	0.	0.1723
4206	0.9	2.2	0.	0.17626
4207	0.9	2.1	0.	0.18059
4208	0.9	2.	0.	0.18519
4209	0.9	1.9	0.	0.18994
4210	0.9	1.8	0.	0.19468
4211	0.9	1.7	0.	0.19925
4212	0.9	1.6	0.	0.20345
4213	0.9	1.5	0.	0.20712
4214	0.9	1.4	0.	0.21019
4215	0.9	1.3	0.	0.21279
4216	0.9	1.2	0.	0.21548
4217	0.9	1.1	0.	0.21961
4218	0.9	1.	0.	0.22782
4219	0.9	0.9	0.	0.24474
4220	0.9	0.8	0.	0.27797
4221	0.9	0.7	0.	0.33902
4222	0.9	0.6	0.	0.44574
4223	0.9	0.5	0.	0.62615
4224	0.9	0.4	0.	0.95663
4225	0.9	0.3	0.	1.7245
4226	0.9	0.2	0.	10.066
4227	0.9	0.1	0.	156.75
4228	0.8	5.9	0.	179.32
4229	0.8	5.8	0.	13.007
4230	0.8	5.7	0.	1.9676
4231	0.8	5.6	0.	1.0599
4232	0.8	5.5	0.	0.67575
4233	0.8	5.4	0.	0.47138
4234	0.8	5.3	0.	0.35519
4235	0.8	5.2	0.	0.2908
4236	0.8	5.1	0.	0.25547
4237	0.8	5.	0.	0.23549
4238	0.8	4.9	0.	0.22272
4239	0.8	4.8	0.	0.21279
4240	0.8	4.7	0.	0.20358
4241	0.8	4.6	0.	0.19427
4242	0.8	4.5	0.	0.18467
4243	0.8	4.4	0.	0.17489
4244	0.8	4.3	0.	0.16514
4245	0.8	4.2	0.	0.15565
4246	0.8	4.1	0.	0.1466
4247	0.8	4.	0.	0.13814
4248	0.8	3.9	0.	0.13036
4249	0.8	3.8	0.	0.12335
4250	0.8	3.7	0.	0.11713
4251	0.8	3.6	0.	0.11175
4252	0.8	3.5	0.	0.10719
4253	0.8	3.4	0.	0.10348
4254	0.8	3.3	0.	0.10059
4255	0.8	3.2	0.	9.8537e-002
4256	0.8	3.1	0.	9.7307e-002
4257	0.8	3.	0.	9.6897e-002
4258	0.8	2.9	0.	9.7307e-002
4259	0.8	2.8	0.	9.8537e-002
4260	0.8	2.7	0.	0.10059
4261	0.8	2.6	0.	0.10348
4262	0.8	2.5	0.	0.10719
4263	0.8	2.4	0.	0.11175
4264	0.8	2.3	0.	0.11713
4265	0.8	2.2	0.	0.12335
4266	0.8	2.1	0.	0.13036
4267	0.8	2.	0.	0.13814
4268	0.8	1.9	0.	0.1466
4269	0.8	1.8	0.	0.15565
4270	0.8	1.7	0.	0.16514
4271	0.8	1.6	0.	0.17489
4272	0.8	1.5	0.	0.18467
4273	0.8	1.4	0.	0.19427
4274	0.8	1.3	0.	0.20358
4275	0.8	1.2	0.	0.21279
4276	0.8	1.1	0.	0.22272
4277	0.8	1.	0.	0.23549
4278	0.8	0.9	0.	0.25547
4279	0.8	0.8	0.	0.2908
4280	0.8	0.7	0.	0.35519
4281	0.8	0.6	0.	0.47138
4282	0.8	0.5	0.	0.67575
4283	0.8	0.4	0.	1.0599
4284	0.8	0.3	0.	1.9676
4285	0.8	0.2	0.	13.007
4286	0.8	0.1	0.	179.32
4287	0.7	5.9	0.	205.23
4288	0.7	5.8	0.	16.572
4289	0.7	5.7	0.	2.4713
4290	0.7	5.6	0.	1.4405
4291	0.7	5.5	0.	1.0229
4292	0.7	5.4	0.	0.81335
4293	0.7	5.3	0.	0.70232
4294	0.7	5.2	0.	0.64413
4295	0.7	5.1	0.	0.612
4296	0.7	5.	0.	0.5915
4297	0.7	4.9	0.	0.5753
4298	0.7	4.8	0.	0.56022
4299	0.7	4.7	0.	0.54514
4300	0.7	4.6	0.	0.52995
4301	0.7	4.5	0.	0.51488
4302	0.7	4.4	0.	0.50025
4303	0.7	4.3	0.	0.48633
4304	0.7	4.2	0.	0.47332
4305	0.7	4.1	0.	0.46136
4306	0.7	4.	0.	0.45051
4307	0.7	3.9	0.	0.44081
4308	0.7	3.8	0.	0.43225
4309	0.7	3.7	0.	0.42481
4310	0.7	3.6	0.	0.41846
4311	0.7	3.5	0.	0.41316
4312	0.7	3.4	0.	0.40887
4313	0.7	3.3	0.	0.40558
4314	0.7	3.2	0.	0.40325
4315	0.7	3.1	0.	0.40185
4316	0.7	3.	0.	0.40139
4317	0.7	2.9	0.	0.40185
4318	0.7	2.8	0.	0.40325
4319	0.7	2.7	0.	0.40558
4320	0.7	2.6	0.	0.40887
4321	0.7	2.5	0.	0.41316
4322	0.7	2.4	0.	0.41846
4323	0.7	2.3	0.	0.42481
4324	0.7	2.2	0.	0.43225
4325	0.7	2.1	0.	0.44081
4326	0.7	2.	0.	0.45051
4327	0.7	1.9	0.	0.46136
4328	0.7	1.8	0.	0.47332
4329	0.7	1.7	0.	0.48633
4330	0.7	1.6	0.	0.50025
4331	0.7	1.5	0.	0.51488
4332	0.7	1.4	0.	0.52995
4333	0.7	1.3	0.	0.54514
4334	0.7	1.2	0.	0.56022
4335	0.7	1.1	0.	0.5753
4336	0.7	1.	0.	0.5915
4337	0.7	0.9	0.	0.612
4338	0.7	0.8	0.	0.64413
4339	0.7	0.7	0.	0.70232
4340	0.7	0.6	0.	0.81335
4341	0.7	0.5	0.	1.0229
4342	0.7	0.4	0.	1.4405
4343	0.7	0.3	0.	2.4713
4344	0.7	0.2	0.	16.572
4345	0.7	0.1	0.	205.23
4346	0.6	5.9	0.	235.1
4347	0.6	5.8	0.	19.924
4348	0.6	5.7	0.	2.4068
4349	0.6	5.6	0.	1.0369
4350	0.6	5.5	0.	0.45211
4351	0.6	5.4	0.	0.14355
4352	0.6	5.3	0.	-3.6408e-002
4353	0.6	5.2	0.	-0.15113
4354	0.6	5.1	0.	-0.23398
4355	0.6	5.	0.	-0.30089
4356	0.6	4.9	0.	-0.35904
4357	0.6	4.8	0.	-0.41132
4358	0.6	4.7	0.	-0.4588
4359	0.6	4.6	0.	-0.50187
4360	0.6	4.5	0.	-0.54074
4361	0.6	4.4	0.	-0.57559
4362	0.6	4.3	0.	-0.60663
4363	0.6	4.2	0.	-0.63412
4364	0.6	4.1	0.	-0.65831
4365	0.6	4.	0.	-0.67947
4366	0.6	3.9	0.	-0.69786
4367	0.6	3.8	0.	-0.7137
4368	0.6	3.7	0.	-0.7272
4369	0.6	3.6	0.	-0.73855
4370	0.6	3.5	0.	-0.7479
4371	0.6	3.4	0.	-0.75538
4372	0.6	3.3	0.	-0.76109
4373	0.6	3.2	0.	-0.76511
4374	0.6	3.1	0.	-0.7675
4375	0.6	3.	0.	-0.7683
4376	0.6	2.9	0.	-0.7675
4377	0.6	2.8	0.	-0.76511
4378	0.6	2.7	0.	-0.76109
4379	0.6	2.6	0.	-0.75538
4380	0.6	2.5	0.	-0.7479
4381	0.6	2.4	0.	-0.73855
4382	0.6	2.3	0.	-0.7272
4383	0.6	2.2	0.	-0.7137
4384	0.6	2.1	0.	-0.69786
4385	0.6	2.	0.	-0.67947
4386	0.6	1.9	0.	-0.65831
4387	0.6	1.8	0.	-0.63412
4388	0.6	1.7	0.	-0.60663
4389	0.6	1.6	0.	-0.57559
4390	0.6	1.5	0.	-0.54074
4391	0.6	1.4	0.	-0.50187
4392	0.6	1.3	0.	-0.4588
4393	0.6	1.2	0.	-0.41132
4394	0.6	1.1	0.	-0.35904
4395	0.6	1.	0.	-0.30089
4396	0.6	0.9	0.	-0.23398
4397	0.6	0.8	0.	-0.15113
4398	0.6	0.7	0.	-3.6408e-002
4399	0.6	0.6	0.	0.14355
4400	0.6	0.5	0.	0.45211
4401	0.6	0.4	0.	1.0369
4402	0.6	0.3	0.	2.4068
4403	0.6	0.2	0.	19.924
4404	0.6	0.1	0.	235.1
4405	0.5	5.9	0.	269.81
4406	0.5	5.8	0.	23.8
4407	0.5	5.7	0.	5.4431
4408	0.5	5.6	0.	4.3843
4409	0.5	5.5	0.	4.0715
4410	0.5	5.4	0.	3.9782
4411	0.5	5.3	0.	3.9619
4412	0.5	5.2	0.	3.9694
4413	0.5	5.1	0.	3.9793
4414	0.5	5.	0.	3.9855
4415	0.5	4.9	0.	3.9873
4416	0.5	4.8	0.	3.9861
4417	0.5	4.7	0.	3.9833
4418	0.5	4.6	0.	3.9798
4419	0.5	4.5	0.	3.9763
4420	0.5	4.4	0.	3.9731
4421	0.5	4.3	0.	3.9704
4422	0.5	4.2	0.	3.9683
4423	0.5	4.1	0.	3.9666
4424	0.5	4.	0.	3.9654
4425	0.5	3.9	0.	3.9645
4426	0.5	3.8	0.	3.9639
4427	0.5	3.7	0.	3.9636
4428	0.5	3.6	0.	3.9634
4429	0.5	3.5	0.	3.9633
4430	0.5	3.4	0.	3.9633
4431	0.5	3.3	0.	3.9633
4432	0.5	3.2	0.	3.9633
4433	0.5	3.1	0.	3.9634
4434	0.5	3.	0.	3.9634
4435	0.5	2.9	0.	3.9634
4436	0.5	2.8	0.	3.9633
4437	0.5	2.7	0.	3.9633
4438	0.5	2.6	0.	3.9633
4439	0.5	2.5	0.	3.9633
4440	0.5	2.4	0.	3.9634
4441	0.5	2.3	0.	3.9636
4442	0.5	2.2	0.	3.9639
4443	0.5	2.1	0.	3.9645
4444	0.5	2.	0.	3.9654
4445	0.5	1.9	0.	3.9666
4446	0.5	1.8	0.	3.9683
4447	0.5	1.7	0.	3.9704
4448	0.5	1.6	0.	3.9731
4449	0.5	1.5	0.	3.9763
4450	0.5	1.4	0.	3.9798
4451	0.5	1.3	0.	3.9833
4452	0.5	1.2	0.	3.9861
4453	0.5	1.1	0.	3.9873
4454	0.5	1.	0.	3.9855
4455	0.5	0.9	0.	3.9793
4456	0.5	0.8	0.	3.9694
4457	0.5	0.7	0.	3.9619
4458	0.5	0.6	0.	3.9782
4459	0.5	0.5	0.	4.0715
4460	0.5	0.4	0.	4.3843
4461	0.5	0.3	0.	5.4431
4462	0.5	0.2	0.	23.8
4463	0.5	0.1	0.	269.81
4464	0.4	5.9	0.	309.44
4465	0.4	5.8	0.	20.97
4466	0.4	5.7	0.	-2.4751
4467	0.4	5.6	0.	-6.166
4468	0.4	5.5	0.	-8.1926
4469	0.4	5.4	0.	-9.5162
4470	0.4	5.3	0.	-10.477
4471	0.4	5.2	0.	-11.222
4472	0.4	5.1	0.	-11.822
4473	0.4	5.	0.	-12.318
4474	0.4	4.9	0.	-12.732
4475	0.4	4.8	0.	-13.082
4476	0.4	4.7	0.	-13.378
4477	0.4	4.6	0.	-13.631
4478	0.4	4.5	0.	-13.848
4479	0.4	4.4	0.	-14.034
4480	0.4	4.3	0.	-14.194
4481	0.4	4.2	0.	-14.332
4482	0.4	4.1	0.	-14.451
4483	0.4	4.	0.	-14.553
4484	0.4	3.9	0.	-14.641
4485	0.4	3.8	0.	-14.716
4486	0.4	3.7	0.	-14.78
4487	0.4	3.6	0.	-14.833
4488	0.4	3.5	0.	-14.877
4489	0.4	3.4	0.	-14.911
4490	0.4	3.3	0.	-14.938
4491	0.4	3.2	0.	-14.957
4492	0.4	3.1	0.	-14.968
4493	0.4	3.	0.	-14.971
4494	0.4	2.9	0.	-14.968
4495	0.4	2.8	0.	-14.957
4496	0.4	2.7	0.	-14.938
4497	0.4	2.6	0.	-14.911
4498	0.4	2.5	0.	-14.877
4499	0.4	2.4	0.	-14.833
4500	0.4	2.3	0.	-14.78
4501	0.4	2.2	0.	-14.716
4502	0.4	2.1	0.	-14.641
4503	0.4	2.	0.	-14.553
4504	0.4	1.9	0.	-14.451
4505	0.4	1.8	0.	-14.332
4506	0.4	1.7	0.	-14.194
4507	0.4	1.6	0.	-14.034
4508	0.4	1.5	0.	-13.848
4509	0.4	1.4	0.	-13.631
4510	0.4	1.3	0.	-13.378
4511	0.4	1.2	0.	-13.082
4512	0.4	1.1	0.	-12.732
4513	0.4	1.	0.	-12.318
4514	0.4	0.9	0.	-11.822
4515	0.4	0.8	0.	-11.222
4516	0.4	0.7	0.	-10.477
4517	0.4	0.6	0.	-9.5162
4518	0.4	0.5	0.	-8.1926
4519	0.4	0.4	0.	-6.166
4520	0.4	0.3	0.	-2.4751
4521	0.4	0.2	0.	20.97
4522	0.4	0.1	0.	309.44
4523	0.3	5.9	0.	354.5
4524	0.3	5.8	0.	41.041
4525	0.3	5.7	0.	37.157
4526	0.3	5.6	0.	41.479
4527	0.3	5.5	0.	44.932
4528	0.3	5.4	0.	47.617
4529	0.3	5.3	0.	49.743
4530	0.3	5.2	0.	51.459
4531	0.3	5.1	0.	52.873
4532	0.3	5.	0.	54.057
4533	0.3	4.9	0.	55.061
4534	0.3	4.8	0.	55.921
4535	0.3	4.7	0.	56.663
4536	0.3	4.6	0.	57.306
4537	0.3	4.5	0.	57.866
4538	0.3	4.4	0.	58.355
4539	0.3	4.3	0.	58.781
4540	0.3	4.2	0.	59.154
4541	0.3	4.1	0.	59.48
4542	0.3	4.	0.	59.764
4543	0.3	3.9	0.	60.009
4544	0.3	3.8	0.	60.221
4545	0.3	3.7	0.	60.401
4546	0.3	3.6	0.	60.553
4547	0.3	3.5	0.	60.678
4548	0.3	3.4	0.	60.779
4549	0.3	3.3	0.	60.856
4550	0.3	3.2	0.	60.91
4551	0.3	3.1	0.	60.942
4552	0.3	3.	0.	60.953
4553	0.3	2.9	0.	60.942
4554	0.3	2.8	0.	60.91
4555	0.3	2.7	0.	60.856
4556	0.3	2.6	0.	60.779
4557	0.3	2.5	0.	60.678
4558	0.3	2.4	0.	60.553
4559	0.3	2.3	0.	60.401
4560	0.3	2.2	0.	60.221
4561	0.3	2.1	0.	60.009
4562	0.3	2.	0.	59.764
4563	0.3	1.9	0.	59.48
4564	0.3	1.8	0.	59.154
4565	0.3	1.7	0.	58.781
4566	0.3	1.6	0.	58.355
4567	0.3	1.5	0.	57.866
4568	0.3	1.4	0.	57.306
4569	0.3	1.3	0.	56.663
4570	0.3	1.2	0.	55.921
4571	0.3	1.1	0.	55.061
4572	0.3	1.	0.	54.057
4573	0.3	0.9	0.	52.873
4574	0.3	0.8	0.	51.459
4575	0.3	0.7	0.	49.743
4576	0.3	0.6	0.	47.617
4577	0.3	0.5	0.	44.932
4578	0.3	0.4	0.	41.479
4579	0.3	0.3	0.	37.157
4580	0.3	0.2	0.	41.041
4581	0.3	0.1	0.	354.5
4582	0.2	5.9	0.	393.11
4583	0.2	5.8	0.	-37.768
4584	0.2	5.7	0.	-107.
4585	0.2	5.6	0.	-140.45
4586	0.2	5.5	0.	-162.02
4587	0.2	5.4	0.	-177.34
4588	0.2	5.3	0.	-188.86
4589	0.2	5.2	0.	-197.88
4590	0.2	5.1	0.	-205.13
4591	0.2	5.	0.	-211.08
4592	0.2	4.9	0.	-216.04
4593	0.2	4.8	0.	-220.22
4594	0.2	4.7	0.	-223.77
4595	0.2	4.6	0.	-226.81
4596	0.2	4.5	0.	-229.43
4597	0.2	4.4	0.	-231.69
4598	0.2	4.3	0.	-233.65
4599	0.2	4.2	0.	-235.35
4600	0.2	4.1	0.	-236.82
4601	0.2	4.	0.	-238.1
4602	0.2	3.9	0.	-239.2
4603	0.2	3.8	0.	-240.15
4604	0.2	3.7	0.	-240.95
4605	0.2	3.6	0.	-241.63
4606	0.2	3.5	0.	-242.18
4607	0.2	3.4	0.	-242.62
4608	0.2	3.3	0.	-242.96
4609	0.2	3.2	0.	-243.2
4610	0.2	3.1	0.	-243.34
4611	0.2	3.	0.	-243.39
4612	0.2	2.9	0.	-243.34
4613	0.2	2.8	0.	-243.2
4614	0.2	2.7	0.	-242.96
4615	0.2	2.6	0.	-242.62
4616	0.2	2.5	0.	-242.18
4617	0.2	2.4	0.	-241.63
4618	0.2	2.3	0.	-240.95
4619	0.2	2.2	0.	-240.15
4620	0.2	2.1	0.	-239.2
4621	0.2	2.	0.	-238.1
4622	0.2	1.9	0.	-236.82
4623	0.2	1.8	0.	-235.35
4624	0.2	1.7	0.	-233.65
4625	0.2	1.6	0.	-231.69
4626	0.2	1.5	0.	-229.43
4627	0.2	1.4	0.	-226.81
4628	0.2	1.3	0.	-223.77
4629	0.2	1.2	0.	-220.22
4630	0.2	1.1	0.	-216.04
4631	0.2	1.	0.	-211.08
4632	0.2	0.9	0.	-205.13
4633	0.2	0.8	0.	-197.88
4634	0.2	0.7	0.	-188.86
4635	0.2	0.6	0.	-177.34
4636	0.2	0.5	0.	-162.02
4637	0.2	0.4	0.	-140.45
4638	0.2	0.3	0.	-107.
4639	0.2	0.2	0.	-37.768
4640	0.2	0.1	0.	393.11
4641	0.1	5.9	0.	346.52
4642	0.1	5.8	0.	357.52
4643	0.1	5.7	0.	504.19
4644	0.1	5.6	0.	605.66
4645	0.1	5.5	0.	676.81
4646	0.1	5.4	0.	729.87
4647	0.1	5.3	0.	770.92
4648	0.1	5.2	0.	803.7
4649	0.1	5.1	0.	830.45
4650	0.1	5.	0.	852.64
4651	0.1	4.9	0.	871.3
4652	0.1	4.8	0.	887.12
4653	0.1	4.7	0.	900.66
4654	0.1	4.6	0.	912.31
4655	0.1	4.5	0.	922.37
4656	0.1	4.4	0.	931.1
4657	0.1	4.3	0.	938.68
4658	0.1	4.2	0.	945.27
4659	0.1	4.1	0.	951.
4660	0.1	4.	0.	955.97
4661	0.1	3.9	0.	960.26
4662	0.1	3.8	0.	963.95
4663	0.1	3.7	0.	967.08
4664	0.1	3.6	0.	969.72
4665	0.1	3.5	0.	971.89
4666	0.1	3.4	0.	973.63
4667	0.1	3.3	0.	974.95
4668	0.1	3.2	0.	975.89
4669	0.1	3.1	0.	976.44
4670	0.1	3.	0.	976.63
4671	0.1	2.9	0.	976.44
4672	0.1	2.8	0.	975.89
4673	0.1	2.7	0.	974.95
4674	0.1	2.6	0.	973.63
4675	0.1	2.5	0.	971.89
4676	0.1	2.4	0.	969.72
4677	0.1	2.3	0.	967.08
4678	0.1	2.2	0.	963.95
4679	0.1	2.1	0.	960.26
4680	0.1	2.	0.	955.97
4681	0.1	1.9	0.	951.
4682	0.1	1.8	0.	945.27
4683	0.1	1.7	0.	938.68
4684	0.1	1.6	0.	931.1
4685	0.1	1.5	0.	922.37
4686	0.1	1.4	0.	912.31
4687	0.1	1.3	0.	900.66
4688	0.1	1.2	0.	887.12
4689	0.1	1.1	0.	871.3
4690	0.1	1.	0.	852.64
4691	0.1	0.9	0.	830.45
4692	0.1	0.8	0.	803.7
4693	0.1	0.7	0.	770.92
4694	0.1	0.6	0.	729.87
4695	0.1	0.5	0.	676.81
4696	0.1	0.4	0.	605.66
4697	0.1	0.3	0.	504.19
4698	0.1	0.2	0.	357.52
4699	0.1	0.1	0.	346.52
4700	8.0833	2.1	0.	925.86
4701	8.0833	2.2	0.	1471.8
4702	8.0833	2.3	0.	1406.2
4703	8.0833	2.4	0.	1275.1
4704	8.0833	2.5	0.	1163.1
4705	8.0833	2.6	0.	1078.2
4706	8.0833	2.7	0.	1017.1
4707	8.0833	2.8	0.	976.07
4708	8.0833	2.9	0.	952.51
4709	8.0833	3.	0.	944.82
4710	8.0833	3.1	0.	952.51
4711	8.0833	3.2	0.	976.07
4712	8.0833	3.3	0.	1017.1
4713	8.0833	3.4	0.	1078.2
4714	8.0833	3.5	0.	1163.1
4715	8.0833	3.6	0.	1275.
4716	8.0833	3.7	0.	1406.2
4717	8.0833	3.8	0.	1471.8
4718	8.0833	3.9	0.	925.85
4719	8.2662	5.9	0.	91.256
4720	8.3658	5.9	0.	74.165
4721	8.4654	5.9	0.	74.675
4722	8.565	5.9	0.	76.283
4723	8.6646	5.9	0.	76.363
4724	8.7642	5.9	0.	74.983
4725	8.8637	5.9	0.	72.433
4726	8.9633	5.9	0.	69.035
4727	9.0629	5.9	0.	65.073
4728	9.1625	5.9	0.	60.779
4729	9.2621	5.9	0.	56.337
4730	9.3616	5.9	0.	51.886
4731	9.4612	5.9	0.	47.53
4732	9.5608	5.9	0.	43.341
4733	9.6604	5.9	0.	39.368
4734	9.76	5.9	0.	35.643
4735	9.8595	5.9	0.	32.181
4736	9.9591	5.9	0.	28.989
4737	10.059	5.9	0.	26.064
4738	10.158	5.9	0.	23.399
4739	10.258	5.9	0.	20.983
4740	10.357	5.9	0.	18.804
4741	10.457	5.9	0.	16.846
4742	10.557	5.9	0.	15.095
4743	10.656	5.9	0.	13.537
4744	10.756	5.9	0.	12.156
4745	10.855	5.9	0.	10.939
4746	10.955	5.9	0.	9.8736
4747	11.055	5.9	0.	8.9463
4748	11.154	5.9	0.	8.1459
4749	11.254	5.9	0.	7.4615
4750	11.353	5.9	0.	6.883
4751	11.453	5.9	0.	6.4011
4752	11.552	5.9	0.	6.0069
4753	11.652	5.9	0.	5.6925
4754	11.752	5.9	0.	5.4503
4755	11.851	5.9	0.	5.2735
4756	11.951	5.9	0.	5.1556
4757	12.05	5.9	0.	5.0907
4758	12.15	5.9	0.	5.0737
4759	12.249	5.9	0.	5.0994
4760	12.349	5.9	0.	5.1634
4761	12.449	5.9	0.	5.2617
4762	12.548	5.9	0.	5.3904
4763	12.648	5.9	0.	5.5462
4764	12.747	5.9	0.	5.7259
4765	12.847	5.9	0.	5.9267
4766	12.947	5.9	0.	6.146
4767	13.046	5.9	0.	6.3814
4768	13.146	5.9	0.	6.6307
4769	13.245	5.9	0.	6.892
4770	13.345	5.9	0.	7.1635
4771	13.444	5.9	0.	7.4437
4772	13.544	5.9	0.	7.731
4773	13.644	5.9	0.	8.0243
4774	13.743	5.9	0.	8.3223
4775	13.843	5.9	0.	8.624
4776	13.942	5.9	0.	8.9285
4777	14.042	5.9	0.	9.235
4778	14.142	5.9	0.	9.5427
4779	14.241	5.9	0.	9.8512
4780	14.341	5.9	0.	10.16
4781	14.44	5.9	0.	10.468
4782	14.54	5.9	0.	10.775
4783	14.639	5.9	0.	11.082
4784	14.739	5.9	0.	11.387
4785	14.839	5.9	0.	11.69
4786	14.938	5.9	0.	11.991
4787	15.038	5.9	0.	12.291
4788	15.137	5.9	0.	12.589
4789	15.237	5.9	0.	12.884
4790	15.336	5.9	0.	13.177
4791	15.436	5.9	0.	13.468
4792	15.536	5.9	0.	13.757
4793	15.635	5.9	0.	14.043
4794	15.735	5.9	0.	14.327
4795	15.834	5.9	0.	14.61
4796	15.934	5.9	0.	14.89
4797	16.034	5.9	0.	15.168
4798	16.133	5.9	0.	15.444
4799	16.233	5.9	0.	15.718
4800	16.332	5.9	0.	15.99
4801	16.432	5.9	0.	16.261
4802	16.531	5.9	0.	16.53
4803	16.631	5.9	0.	16.798
4804	16.731	5.9	0.	17.065
4805	16.83	5.9	0.	17.33
4806	16.93	5.9	0.	17.594
4807	17.029	5.9	0.	17.857
4808	17.129	5.9	0.	18.119
4809	17.229	5.9	0.	18.381
4810	17.328	5.9	0.	18.641
4811	17.428	5.9	0.	18.901
4812	17.527	5.9	0.	19.161
4813	17.627	5.9	0.	19.42
4814	17.726	5.9	0.	19.678
4815	17.826	5.9	0.	19.937
4816	17.926	5.9	0.	20.195
4817	18.025	5.9	0.	20.453
4818	18.125	5.9	0.	20.711
4819	18.224	5.9	0.	20.969
4820	18.324	5.9	0.	21.227
4821	18.423	5.9	0.	21.485
4822	18.523	5.9	0.	21.743
4823	18.623	5.9	0.	22.001
4824	18.722	5.9	0.	22.26
4825	18.822	5.9	0.	22.518
4826	18.921	5.9	0.	22.777
4827	19.021	5.9	0.	23.035
4828	19.121	5.9	0.	23.294
4829	19.22	5.9	0.	23.552
4830	19.32	5.9	0.	23.81
4831	19.419	5.9	0.	24.068
4832	19.519	5.9	0.	24.325
4833	19.618	5.9	0.	24.582
4834	19.718	5.9	0.	24.839
4835	19.818	5.9	0.	25.094
4836	19.917	5.9	0.	25.348
4837	20.017	5.9	0.	25.601
4838	20.116	5.9	0.	25.853
4839	20.216	5.9	0.	26.102
4840	20.316	5.9	0.	26.349
4841	20.415	5.9	0.	26.594
4842	20.515	5.9	0.	26.836
4843	20.614	5.9	0.	27.074
4844	20.714	5.9	0.	27.308
4845	20.813	5.9	0.	27.538
4846	20.913	5.9	0.	27.763
4847	21.013	5.9	0.	27.981
4848	21.112	5.9	0.	28.194
4849	21.212	5.9	0.	28.399
4850	21.311	5.9	0.	28.596
4851	21.411	5.9	0.	28.784
4852	21.51	5.9	0.	28.961
4853	21.61	5.9	0.	29.127
4854	21.71	5.9	0.	29.28
4855	21.809	5.9	0.	29.419
4856	21.909	5.9	0.	29.542
4857	22.008	5.9	0.	29.647
4858	22.108	5.9	0.	29.732
4859	22.208	5.9	0.	29.794
4860	22.307	5.9	0.	29.832
4861	22.407	5.9	0.	29.841
4862	22.506	5.9	0.	29.818
4863	22.606	5.9	0.	29.759
4864	22.705	5.9	0.	29.659
4865	22.805	5.9	0.	29.513
4866	22.905	5.9	0.	29.312
4867	23.004	5.9	0.	29.048
4868	23.104	5.9	0.	28.712
4869	23.203	5.9	0.	28.29
4870	23.303	5.9	0.	27.765
4871	23.403	5.9	0.	27.117
4872	23.502	5.9	0.	26.318
4873	23.602	5.9	0.	25.337
4874	23.701	5.9	0.	24.146
4875	23.801	5.9	0.	22.78
4876	23.9	5.9	0.	22.048
4877	8.2662	5.8	0.	144.6
4878	8.3658	5.8	0.	81.733
4879	8.4654	5.8	0.	69.946
4880	8.565	5.8	0.	70.228
4881	8.6646	5.8	0.	73.186
4882	8.7642	5.8	0.	75.997
4883	8.8637	5.8	0.	77.713
4884	8.9633	5.8	0.	78.11
4885	9.0629	5.8	0.	77.246
4886	9.1625	5.8	0.	75.293
4887	9.2621	5.8	0.	72.457
4888	9.3616	5.8	0.	68.946
4889	9.4612	5.8	0.	64.953
4890	9.5608	5.8	0.	60.648
4891	9.6604	5.8	0.	56.176
4892	9.76	5.8	0.	51.655
4893	9.8595	5.8	0.	47.18
4894	9.9591	5.8	0.	42.825
4895	10.059	5.8	0.	38.643
4896	10.158	5.8	0.	34.674
4897	10.258	5.8	0.	30.944
4898	10.357	5.8	0.	27.469
4899	10.457	5.8	0.	24.255
4900	10.557	5.8	0.	21.305
4901	10.656	5.8	0.	18.613
4902	10.756	5.8	0.	16.173
4903	10.855	5.8	0.	13.974
4904	10.955	5.8	0.	12.006
4905	11.055	5.8	0.	10.255
4906	11.154	5.8	0.	8.7076
4907	11.254	5.8	0.	7.3506
4908	11.353	5.8	0.	6.1703
4909	11.453	5.8	0.	5.1533
4910	11.552	5.8	0.	4.2867
4911	11.652	5.8	0.	3.5582
4912	11.752	5.8	0.	2.9558
4913	11.851	5.8	0.	2.4682
4914	11.951	5.8	0.	2.0846
4915	12.05	5.8	0.	1.7947
4916	12.15	5.8	0.	1.5889
4917	12.249	5.8	0.	1.4579
4918	12.349	5.8	0.	1.3936
4919	12.449	5.8	0.	1.3889
4920	12.548	5.8	0.	1.4373
4921	12.648	5.8	0.	1.5333
4922	12.747	5.8	0.	1.6719
4923	12.847	5.8	0.	1.8481
4924	12.947	5.8	0.	2.0574
4925	13.046	5.8	0.	2.2956
4926	13.146	5.8	0.	2.5587
4927	13.245	5.8	0.	2.8432
4928	13.345	5.8	0.	3.1459
4929	13.444	5.8	0.	3.4638
4930	13.544	5.8	0.	3.7944
4931	13.644	5.8	0.	4.1354
4932	13.743	5.8	0.	4.4847
4933	13.843	5.8	0.	4.8404
4934	13.942	5.8	0.	5.2011
4935	14.042	5.8	0.	5.5652
4936	14.142	5.8	0.	5.9316
4937	14.241	5.8	0.	6.2991
4938	14.341	5.8	0.	6.6669
4939	14.44	5.8	0.	7.0342
4940	14.54	5.8	0.	7.4002
4941	14.639	5.8	0.	7.7644
4942	14.739	5.8	0.	8.1264
4943	14.839	5.8	0.	8.4856
4944	14.938	5.8	0.	8.8419
4945	15.038	5.8	0.	9.1949
4946	15.137	5.8	0.	9.5444
4947	15.237	5.8	0.	9.8904
4948	15.336	5.8	0.	10.233
4949	15.436	5.8	0.	10.571
4950	15.536	5.8	0.	10.906
4951	15.635	5.8	0.	11.237
4952	15.735	5.8	0.	11.564
4953	15.834	5.8	0.	11.888
4954	15.934	5.8	0.	12.208
4955	16.034	5.8	0.	12.525
4956	16.133	5.8	0.	12.839
4957	16.233	5.8	0.	13.149
4958	16.332	5.8	0.	13.456
4959	16.432	5.8	0.	13.761
4960	16.531	5.8	0.	14.063
4961	16.631	5.8	0.	14.362
4962	16.731	5.8	0.	14.659
4963	16.83	5.8	0.	14.954
4964	16.93	5.8	0.	15.247
4965	17.029	5.8	0.	15.538
4966	17.129	5.8	0.	15.827
4967	17.229	5.8	0.	16.115
4968	17.328	5.8	0.	16.402
4969	17.428	5.8	0.	16.688
4970	17.527	5.8	0.	16.973
4971	17.627	5.8	0.	17.257
4972	17.726	5.8	0.	17.541
4973	17.826	5.8	0.	17.824
4974	17.926	5.8	0.	18.107
4975	18.025	5.8	0.	18.39
4976	18.125	5.8	0.	18.673
4977	18.224	5.8	0.	18.956
4978	18.324	5.8	0.	19.24
4979	18.423	5.8	0.	19.524
4980	18.523	5.8	0.	19.809
4981	18.623	5.8	0.	20.095
4982	18.722	5.8	0.	20.381
4983	18.822	5.8	0.	20.668
4984	18.921	5.8	0.	20.957
4985	19.021	5.8	0.	21.247
4986	19.121	5.8	0.	21.537
4987	19.22	5.8	0.	21.829
4988	19.32	5.8	0.	22.123
4989	19.419	5.8	0.	22.417
4990	19.519	5.8	0.	22.713
4991	19.618	5.8	0.	23.011
4992	19.718	5.8	0.	23.31
4993	19.818	5.8	0.	23.61
4994	19.917	5.8	0.	23.911
4995	20.017	5.8	0.	24.213
4996	20.116	5.8	0.	24.517
4997	20.216	5.8	0.	24.822
4998	20.316	5.8	0.	25.127
4999	20.415	5.8	0.	25.433
5000	20.515	5.8	0.	25.74
5001	20.614	5.8	0.	26.047
5002	20.714	5.8	0.	26.355
5003	20.813	5.8	0.	26.662
5004	20.913	5.8	0.	26.968
5005	21.013	5.8	0.	27.274
5006	21.112	5.8	0.	27.579
5007	21.212	5.8	0.	27.882
5008	21.311	5.8	0.	28.183
5009	21.411	5.8	0.	28.481
5010	21.51	5.8	0.	28.777
5011	21.61	5.8	0.	29.069
5012	21.71	5.8	0.	29.356
5013	21.809	5.8	0.	29.638
5014	21.909	5.8	0.	29.914
5015	22.008	5.8	0.	30.184
5016	22.108	5.8	0.	30.445
5017	22.208	5.8	0.	30.698
5018	22.307	5.8	0.	30.941
5019	22.407	5.8	0.	31.173
5020	22.506	5.8	0.	31.392
5021	22.606	5.8	0.	31.598
5022	22.705	5.8	0.	31.788
5023	22.805	5.8	0.	31.963
5024	22.905	5.8	0.	32.121
5025	23.004	5.8	0.	32.261
5026	23.104	5.8	0.	32.384
5027	23.203	5.8	0.	32.494
5028	23.303	5.8	0.	32.598
5029	23.403	5.8	0.	32.712
5030	23.502	5.8	0.	32.871
5031	23.602	5.8	0.	33.152
5032	23.701	5.8	0.	33.725
5033	23.801	5.8	0.	35.002
5034	23.9	5.8	0.	38.003
5035	8.2662	5.7	0.	230.66
5036	8.3658	5.7	0.	134.52
5037	8.4654	5.7	0.	101.53
5038	8.565	5.7	0.	91.063
5039	8.6646	5.7	0.	89.353
5040	8.7642	5.7	0.	90.61
5041	8.8637	5.7	0.	92.219
5042	8.9633	5.7	0.	93.058
5043	9.0629	5.7	0.	92.719
5044	9.1625	5.7	0.	91.141
5045	9.2621	5.7	0.	88.433
5046	9.3616	5.7	0.	84.775
5047	9.4612	5.7	0.	80.375
5048	9.5608	5.7	0.	75.438
5049	9.6604	5.7	0.	70.148
5050	9.76	5.7	0.	64.669
5051	9.8595	5.7	0.	59.136
5052	9.9591	5.7	0.	53.662
5053	10.059	5.7	0.	48.331
5054	10.158	5.7	0.	43.21
5055	10.258	5.7	0.	38.347
5056	10.357	5.7	0.	33.774
5057	10.457	5.7	0.	29.511
5058	10.557	5.7	0.	25.568
5059	10.656	5.7	0.	21.947
5060	10.756	5.7	0.	18.646
5061	10.855	5.7	0.	15.656
5062	10.955	5.7	0.	12.965
5063	11.055	5.7	0.	10.56
5064	11.154	5.7	0.	8.4251
5065	11.254	5.7	0.	6.5451
5066	11.353	5.7	0.	4.9038
5067	11.453	5.7	0.	3.4864
5068	11.552	5.7	0.	2.2809
5069	11.652	5.7	0.	1.2864
5070	11.752	5.7	0.	0.55105
5071	11.851	5.7	0.	0.20401
5072	11.951	5.7	0.	0.10515
5073	12.05	5.7	0.	6.9815e-002
5074	12.15	5.7	0.	5.2811e-002
5075	12.249	5.7	0.	4.3055e-002
5076	12.349	5.7	0.	3.6843e-002
5077	12.449	5.7	0.	3.2607e-002
5078	12.548	5.7	0.	2.9557e-002
5079	12.648	5.7	0.	2.7345e-002
5080	12.747	5.7	0.	2.5775e-002
5081	12.847	5.7	0.	2.4747e-002
5082	12.947	5.7	0.	2.4303e-002
5083	13.046	5.7	0.	2.4649e-002
5084	13.146	5.7	0.	2.6473e-002
5085	13.245	5.7	0.	3.2466e-002
5086	13.345	5.7	0.	6.2749e-002
5087	13.444	5.7	0.	0.29155
5088	13.544	5.7	0.	0.67705
5089	13.644	5.7	0.	1.0902
5090	13.743	5.7	0.	1.5167
5091	13.843	5.7	0.	1.9525
5092	13.942	5.7	0.	2.3947
5093	14.042	5.7	0.	2.8412
5094	14.142	5.7	0.	3.2903
5095	14.241	5.7	0.	3.7405
5096	14.341	5.7	0.	4.1905
5097	14.44	5.7	0.	4.6392
5098	14.54	5.7	0.	5.0858
5099	14.639	5.7	0.	5.5294
5100	14.739	5.7	0.	5.9694
5101	14.839	5.7	0.	6.4054
5102	14.938	5.7	0.	6.8368
5103	15.038	5.7	0.	7.2633
5104	15.137	5.7	0.	7.6848
5105	15.237	5.7	0.	8.1009
5106	15.336	5.7	0.	8.5118
5107	15.436	5.7	0.	8.9171
5108	15.536	5.7	0.	9.317
5109	15.635	5.7	0.	9.7115
5110	15.735	5.7	0.	10.101
5111	15.834	5.7	0.	10.485
5112	15.934	5.7	0.	10.863
5113	16.034	5.7	0.	11.237
5114	16.133	5.7	0.	11.606
5115	16.233	5.7	0.	11.971
5116	16.332	5.7	0.	12.331
5117	16.432	5.7	0.	12.688
5118	16.531	5.7	0.	13.04
5119	16.631	5.7	0.	13.389
5120	16.731	5.7	0.	13.734
5121	16.83	5.7	0.	14.076
5122	16.93	5.7	0.	14.416
5123	17.029	5.7	0.	14.752
5124	17.129	5.7	0.	15.087
5125	17.229	5.7	0.	15.419
5126	17.328	5.7	0.	15.75
5127	17.428	5.7	0.	16.079
5128	17.527	5.7	0.	16.407
5129	17.627	5.7	0.	16.734
5130	17.726	5.7	0.	17.06
5131	17.826	5.7	0.	17.385
5132	17.926	5.7	0.	17.711
5133	18.025	5.7	0.	18.036
5134	18.125	5.7	0.	18.362
5135	18.224	5.7	0.	18.688
5136	18.324	5.7	0.	19.015
5137	18.423	5.7	0.	19.343
5138	18.523	5.7	0.	19.672
5139	18.623	5.7	0.	20.002
5140	18.722	5.7	0.	20.334
5141	18.822	5.7	0.	20.668
5142	18.921	5.7	0.	21.004
5143	19.021	5.7	0.	21.342
5144	19.121	5.7	0.	21.682
5145	19.22	5.7	0.	22.025
5146	19.32	5.7	0.	22.37
5147	19.419	5.7	0.	22.718
5148	19.519	5.7	0.	23.07
5149	19.618	5.7	0.	23.424
5150	19.718	5.7	0.	23.782
5151	19.818	5.7	0.	24.143
5152	19.917	5.7	0.	24.507
5153	20.017	5.7	0.	24.875
5154	20.116	5.7	0.	25.246
5155	20.216	5.7	0.	25.621
5156	20.316	5.7	0.	26.
5157	20.415	5.7	0.	26.383
5158	20.515	5.7	0.	26.769
5159	20.614	5.7	0.	27.159
5160	20.714	5.7	0.	27.553
5161	20.813	5.7	0.	27.95
5162	20.913	5.7	0.	28.351
5163	21.013	5.7	0.	28.756
5164	21.112	5.7	0.	29.164
5165	21.212	5.7	0.	29.576
5166	21.311	5.7	0.	29.992
5167	21.411	5.7	0.	30.41
5168	21.51	5.7	0.	30.832
5169	21.61	5.7	0.	31.257
5170	21.71	5.7	0.	31.686
5171	21.809	5.7	0.	32.117
5172	21.909	5.7	0.	32.552
5173	22.008	5.7	0.	32.99
5174	22.108	5.7	0.	33.431
5175	22.208	5.7	0.	33.877
5176	22.307	5.7	0.	34.326
5177	22.407	5.7	0.	34.781
5178	22.506	5.7	0.	35.241
5179	22.606	5.7	0.	35.71
5180	22.705	5.7	0.	36.189
5181	22.805	5.7	0.	36.683
5182	22.905	5.7	0.	37.197
5183	23.004	5.7	0.	37.738
5184	23.104	5.7	0.	38.32
5185	23.203	5.7	0.	38.961
5186	23.303	5.7	0.	39.692
5187	23.403	5.7	0.	40.56
5188	23.502	5.7	0.	41.645
5189	23.602	5.7	0.	43.081
5190	23.701	5.7	0.	45.087
5191	23.801	5.7	0.	48.025
5192	23.9	5.7	0.	52.458
5193	8.2662	5.6	0.	330.46
5194	8.3658	5.6	0.	210.83
5195	8.4654	5.6	0.	157.25
5196	8.565	5.6	0.	131.32
5197	8.6646	5.6	0.	119.58
5198	8.7642	5.6	0.	114.65
5199	8.8637	5.6	0.	112.45
5200	8.9633	5.6	0.	110.86
5201	9.0629	5.6	0.	108.87
5202	9.1625	5.6	0.	106.04
5203	9.2621	5.6	0.	102.28
5204	9.3616	5.6	0.	97.644
5205	9.4612	5.6	0.	92.284
5206	9.5608	5.6	0.	86.377
5207	9.6604	5.6	0.	80.103
5208	9.76	5.6	0.	73.629
5209	9.8595	5.6	0.	67.098
5210	9.9591	5.6	0.	60.632
5211	10.059	5.6	0.	54.329
5212	10.158	5.6	0.	48.265
5213	10.258	5.6	0.	42.495
5214	10.357	5.6	0.	37.059
5215	10.457	5.6	0.	31.983
5216	10.557	5.6	0.	27.281
5217	10.656	5.6	0.	22.957
5218	10.756	5.6	0.	19.01
5219	10.855	5.6	0.	15.431
5220	10.955	5.6	0.	12.209
5221	11.055	5.6	0.	9.33
5222	11.154	5.6	0.	6.7785
5223	11.254	5.6	0.	4.5425
5224	11.353	5.6	0.	2.6228
5225	11.453	5.6	0.	1.0984
5226	11.552	5.6	0.	0.32815
5227	11.652	5.6	0.	0.1434
5228	11.752	5.6	0.	8.6259e-002
5229	11.851	5.6	0.	6.0466e-002
5230	11.951	5.6	0.	4.6209e-002
5231	12.05	5.6	0.	3.7305e-002
5232	12.15	5.6	0.	3.1277e-002
5233	12.249	5.6	0.	2.695e-002
5234	12.349	5.6	0.	2.3712e-002
5235	12.449	5.6	0.	2.1198e-002
5236	12.548	5.6	0.	1.9146e-002
5237	12.648	5.6	0.	1.7457e-002
5238	12.747	5.6	0.	1.6043e-002
5239	12.847	5.6	0.	1.4822e-002
5240	12.947	5.6	0.	1.3761e-002
5241	13.046	5.6	0.	1.2813e-002
5242	13.146	5.6	0.	1.1953e-002
5243	13.245	5.6	0.	1.1187e-002
5244	13.345	5.6	0.	1.0501e-002
5245	13.444	5.6	0.	9.8645e-003
5246	13.544	5.6	0.	9.273e-003
5247	13.644	5.6	0.	8.7302e-003
5248	13.743	5.6	0.	8.2322e-003
5249	13.843	5.6	0.	7.8104e-003
5250	13.942	5.6	0.	7.5966e-003
5251	14.042	5.6	0.	0.1615
5252	14.142	5.6	0.	0.69856
5253	14.241	5.6	0.	1.2365
5254	14.341	5.6	0.	1.7732
5255	14.44	5.6	0.	2.3073
5256	14.54	5.6	0.	2.8379
5257	14.639	5.6	0.	3.3639
5258	14.739	5.6	0.	3.8848
5259	14.839	5.6	0.	4.3997
5260	14.938	5.6	0.	4.9084
5261	15.038	5.6	0.	5.4104
5262	15.137	5.6	0.	5.9054
5263	15.237	5.6	0.	6.3933
5264	15.336	5.6	0.	6.8739
5265	15.436	5.6	0.	7.3473
5266	15.536	5.6	0.	7.8134
5267	15.635	5.6	0.	8.2723
5268	15.735	5.6	0.	8.7242
5269	15.834	5.6	0.	9.1692
5270	15.934	5.6	0.	9.6075
5271	16.034	5.6	0.	10.039
5272	16.133	5.6	0.	10.465
5273	16.233	5.6	0.	10.884
5274	16.332	5.6	0.	11.298
5275	16.432	5.6	0.	11.707
5276	16.531	5.6	0.	12.11
5277	16.631	5.6	0.	12.509
5278	16.731	5.6	0.	12.904
5279	16.83	5.6	0.	13.294
5280	16.93	5.6	0.	13.68
5281	17.029	5.6	0.	14.064
5282	17.129	5.6	0.	14.444
5283	17.229	5.6	0.	14.821
5284	17.328	5.6	0.	15.197
5285	17.428	5.6	0.	15.57
5286	17.527	5.6	0.	15.941
5287	17.627	5.6	0.	16.312
5288	17.726	5.6	0.	16.681
5289	17.826	5.6	0.	17.05
5290	17.926	5.6	0.	17.419
5291	18.025	5.6	0.	17.788
5292	18.125	5.6	0.	18.157
5293	18.224	5.6	0.	18.527
5294	18.324	5.6	0.	18.898
5295	18.423	5.6	0.	19.271
5296	18.523	5.6	0.	19.645
5297	18.623	5.6	0.	20.022
5298	18.722	5.6	0.	20.4
5299	18.822	5.6	0.	20.782
5300	18.921	5.6	0.	21.166
5301	19.021	5.6	0.	21.554
5302	19.121	5.6	0.	21.945
5303	19.22	5.6	0.	22.34
5304	19.32	5.6	0.	22.74
5305	19.419	5.6	0.	23.143
5306	19.519	5.6	0.	23.552
5307	19.618	5.6	0.	23.965
5308	19.718	5.6	0.	24.384
5309	19.818	5.6	0.	24.807
5310	19.917	5.6	0.	25.237
5311	20.017	5.6	0.	25.673
5312	20.116	5.6	0.	26.114
5313	20.216	5.6	0.	26.563
5314	20.316	5.6	0.	27.017
5315	20.415	5.6	0.	27.479
5316	20.515	5.6	0.	27.948
5317	20.614	5.6	0.	28.424
5318	20.714	5.6	0.	28.908
5319	20.813	5.6	0.	29.399
5320	20.913	5.6	0.	29.899
5321	21.013	5.6	0.	30.407
5322	21.112	5.6	0.	30.924
5323	21.212	5.6	0.	31.449
5324	21.311	5.6	0.	31.984
5325	21.411	5.6	0.	32.529
5326	21.51	5.6	0.	33.084
5327	21.61	5.6	0.	33.649
5328	21.71	5.6	0.	34.226
5329	21.809	5.6	0.	34.815
5330	21.909	5.6	0.	35.417
5331	22.008	5.6	0.	36.034
5332	22.108	5.6	0.	36.666
5333	22.208	5.6	0.	37.315
5334	22.307	5.6	0.	37.984
5335	22.407	5.6	0.	38.676
5336	22.506	5.6	0.	39.394
5337	22.606	5.6	0.	40.143
5338	22.705	5.6	0.	40.931
5339	22.805	5.6	0.	41.764
5340	22.905	5.6	0.	42.655
5341	23.004	5.6	0.	43.621
5342	23.104	5.6	0.	44.682
5343	23.203	5.6	0.	45.87
5344	23.303	5.6	0.	47.231
5345	23.403	5.6	0.	48.829
5346	23.502	5.6	0.	50.758
5347	23.602	5.6	0.	53.152
5348	23.701	5.6	0.	56.186
5349	23.801	5.6	0.	60.085
5350	23.9	5.6	0.	65.156
5351	8.2662	5.5	0.	439.91
5352	8.3658	5.5	0.	301.15
5353	8.4654	5.5	0.	229.91
5354	8.565	5.5	0.	187.46
5355	8.6646	5.5	0.	162.58
5356	8.7642	5.5	0.	147.96
5357	8.8637	5.5	0.	138.77
5358	8.9633	5.5	0.	132.11
5359	9.0629	5.5	0.	126.35
5360	9.1625	5.5	0.	120.64
5361	9.2621	5.5	0.	114.59
5362	9.3616	5.5	0.	108.09
5363	9.4612	5.5	0.	101.15
5364	9.5608	5.5	0.	93.879
5365	9.6604	5.5	0.	86.397
5366	9.76	5.5	0.	78.836
5367	9.8595	5.5	0.	71.316
5368	9.9591	5.5	0.	63.944
5369	10.059	5.5	0.	56.807
5370	10.158	5.5	0.	49.973
5371	10.258	5.5	0.	43.494
5372	10.357	5.5	0.	37.406
5373	10.457	5.5	0.	31.733
5374	10.557	5.5	0.	26.487
5375	10.656	5.5	0.	21.672
5376	10.756	5.5	0.	17.283
5377	10.855	5.5	0.	13.314
5378	10.955	5.5	0.	9.7531
5379	11.055	5.5	0.	6.594
5380	11.154	5.5	0.	3.8488
5381	11.254	5.5	0.	1.6457
5382	11.353	5.5	0.	0.5059
5383	11.453	5.5	0.	0.21698
5384	11.552	5.5	0.	0.12615
5385	11.652	5.5	0.	8.5207e-002
5386	11.752	5.5	0.	6.2707e-002
5387	11.851	5.5	0.	4.8822e-002
5388	11.951	5.5	0.	3.9571e-002
5389	12.05	5.5	0.	3.3035e-002
5390	12.15	5.5	0.	2.8218e-002
5391	12.249	5.5	0.	2.4539e-002
5392	12.349	5.5	0.	2.1665e-002
5393	12.449	5.5	0.	1.9361e-002
5394	12.548	5.5	0.	1.744e-002
5395	12.648	5.5	0.	1.5849e-002
5396	12.747	5.5	0.	1.4484e-002
5397	12.847	5.5	0.	1.3315e-002
5398	12.947	5.5	0.	1.23e-002
5399	13.046	5.5	0.	1.14e-002
5400	13.146	5.5	0.	1.059e-002
5401	13.245	5.5	0.	9.878e-003
5402	13.345	5.5	0.	9.2497e-003
5403	13.444	5.5	0.	8.6753e-003
5404	13.544	5.5	0.	8.1534e-003
5405	13.644	5.5	0.	7.6794e-003
5406	13.743	5.5	0.	7.2536e-003
5407	13.843	5.5	0.	6.8868e-003
5408	13.942	5.5	0.	6.5806e-003
5409	14.042	5.5	0.	6.3146e-003
5410	14.142	5.5	0.	6.1623e-003
5411	14.241	5.5	0.	6.2501e-003
5412	14.341	5.5	0.	7.1727e-003
5413	14.44	5.5	0.	3.7878e-002
5414	14.54	5.5	0.	0.61012
5415	14.639	5.5	0.	1.2197
5416	14.739	5.5	0.	1.8229
5417	14.839	5.5	0.	2.4184
5418	14.938	5.5	0.	3.0057
5419	15.038	5.5	0.	3.5842
5420	15.137	5.5	0.	4.1537
5421	15.237	5.5	0.	4.7141
5422	15.336	5.5	0.	5.2653
5423	15.436	5.5	0.	5.8071
5424	15.536	5.5	0.	6.3399
5425	15.635	5.5	0.	6.8635
5426	15.735	5.5	0.	7.3784
5427	15.834	5.5	0.	7.8846
5428	15.934	5.5	0.	8.3824
5429	16.034	5.5	0.	8.8721
5430	16.133	5.5	0.	9.3541
5431	16.233	5.5	0.	9.8287
5432	16.332	5.5	0.	10.296
5433	16.432	5.5	0.	10.757
5434	16.531	5.5	0.	11.212
5435	16.631	5.5	0.	11.66
5436	16.731	5.5	0.	12.104
5437	16.83	5.5	0.	12.542
5438	16.93	5.5	0.	12.976
5439	17.029	5.5	0.	13.406
5440	17.129	5.5	0.	13.831
5441	17.229	5.5	0.	14.254
5442	17.328	5.5	0.	14.674
5443	17.428	5.5	0.	15.091
5444	17.527	5.5	0.	15.507
5445	17.627	5.5	0.	15.921
5446	17.726	5.5	0.	16.334
5447	17.826	5.5	0.	16.746
5448	17.926	5.5	0.	17.159
5449	18.025	5.5	0.	17.571
5450	18.125	5.5	0.	17.984
5451	18.224	5.5	0.	18.398
5452	18.324	5.5	0.	18.814
5453	18.423	5.5	0.	19.232
5454	18.523	5.5	0.	19.652
5455	18.623	5.5	0.	20.075
5456	18.722	5.5	0.	20.501
5457	18.822	5.5	0.	20.931
5458	18.921	5.5	0.	21.364
5459	19.021	5.5	0.	21.803
5460	19.121	5.5	0.	22.246
5461	19.22	5.5	0.	22.694
5462	19.32	5.5	0.	23.148
5463	19.419	5.5	0.	23.608
5464	19.519	5.5	0.	24.075
5465	19.618	5.5	0.	24.548
5466	19.718	5.5	0.	25.029
5467	19.818	5.5	0.	25.517
5468	19.917	5.5	0.	26.013
5469	20.017	5.5	0.	26.518
5470	20.116	5.5	0.	27.032
5471	20.216	5.5	0.	27.555
5472	20.316	5.5	0.	28.088
5473	20.415	5.5	0.	28.631
5474	20.515	5.5	0.	29.185
5475	20.614	5.5	0.	29.75
5476	20.714	5.5	0.	30.326
5477	20.813	5.5	0.	30.915
5478	20.913	5.5	0.	31.516
5479	21.013	5.5	0.	32.131
5480	21.112	5.5	0.	32.759
5481	21.212	5.5	0.	33.403
5482	21.311	5.5	0.	34.062
5483	21.411	5.5	0.	34.737
5484	21.51	5.5	0.	35.43
5485	21.61	5.5	0.	36.141
5486	21.71	5.5	0.	36.873
5487	21.809	5.5	0.	37.626
5488	21.909	5.5	0.	38.402
5489	22.008	5.5	0.	39.204
5490	22.108	5.5	0.	40.035
5491	22.208	5.5	0.	40.897
5492	22.307	5.5	0.	41.795
5493	22.407	5.5	0.	42.733
5494	22.506	5.5	0.	43.718
5495	22.606	5.5	0.	44.758
5496	22.705	5.5	0.	45.862
5497	22.805	5.5	0.	47.043
5498	22.905	5.5	0.	48.318
5499	23.004	5.5	0.	49.708
5500	23.104	5.5	0.	51.241
5501	23.203	5.5	0.	52.956
5502	23.303	5.5	0.	54.903
5503	23.403	5.5	0.	57.148
5504	23.502	5.5	0.	59.779
5505	23.602	5.5	0.	62.903
5506	23.701	5.5	0.	66.636
5507	23.801	5.5	0.	71.108
5508	23.9	5.5	0.	76.504
5509	8.2662	5.4	0.	558.63
5510	8.3658	5.4	0.	401.81
5511	8.4654	5.4	0.	314.77
5512	8.565	5.4	0.	255.96
5513	8.6646	5.4	0.	216.36
5514	8.7642	5.4	0.	189.62
5515	8.8637	5.4	0.	170.89
5516	8.9633	5.4	0.	156.83
5517	9.0629	5.4	0.	145.35
5518	9.1625	5.4	0.	135.19
5519	9.2621	5.4	0.	125.66
5520	9.3616	5.4	0.	116.39
5521	9.4612	5.4	0.	107.25
5522	9.5608	5.4	0.	98.201
5523	9.6604	5.4	0.	89.265
5524	9.76	5.4	0.	80.502
5525	9.8595	5.4	0.	71.981
5526	9.9591	5.4	0.	63.765
5527	10.059	5.4	0.	55.91
5528	10.158	5.4	0.	48.462
5529	10.258	5.4	0.	41.454
5530	10.357	5.4	0.	34.911
5531	10.457	5.4	0.	28.844
5532	10.557	5.4	0.	23.262
5533	10.656	5.4	0.	18.162
5534	10.756	5.4	0.	13.541
5535	10.855	5.4	0.	9.3981
5536	10.955	5.4	0.	5.7548
5537	11.055	5.4	0.	2.7453
5538	11.154	5.4	0.	0.93555
5539	11.254	5.4	0.	0.38064
5540	11.353	5.4	0.	0.20961
5541	11.453	5.4	0.	0.13552
5542	11.552	5.4	0.	9.5999e-002
5543	11.652	5.4	0.	7.2156e-002
5544	11.752	5.4	0.	5.656e-002
5545	11.851	5.4	0.	4.578e-002
5546	11.951	5.4	0.	3.8009e-002
5547	12.05	5.4	0.	3.2197e-002
5548	12.15	5.4	0.	2.7727e-002
5549	12.249	5.4	0.	2.421e-002
5550	12.349	5.4	0.	2.1398e-002
5551	12.449	5.4	0.	1.911e-002
5552	12.548	5.4	0.	1.7181e-002
5553	12.648	5.4	0.	1.5563e-002
5554	12.747	5.4	0.	1.4198e-002
5555	12.847	5.4	0.	1.302e-002
5556	12.947	5.4	0.	1.2002e-002
5557	13.046	5.4	0.	1.1108e-002
5558	13.146	5.4	0.	1.031e-002
5559	13.245	5.4	0.	9.6176e-003
5560	13.345	5.4	0.	9.0163e-003
5561	13.444	5.4	0.	8.4755e-003
5562	13.544	5.4	0.	7.9925e-003
5563	13.644	5.4	0.	7.5639e-003
5564	13.743	5.4	0.	7.1872e-003
5565	13.843	5.4	0.	6.8724e-003
5566	13.942	5.4	0.	6.6158e-003
5567	14.042	5.4	0.	6.3893e-003
5568	14.142	5.4	0.	6.2334e-003
5569	14.241	5.4	0.	6.18e-003
5570	14.341	5.4	0.	6.2568e-003
5571	14.44	5.4	0.	6.566e-003
5572	14.54	5.4	0.	7.3774e-003
5573	14.639	5.4	0.	9.7703e-003
5574	14.739	5.4	0.	2.6246e-002
5575	14.839	5.4	0.	0.4708
5576	14.938	5.4	0.	1.1313
5577	15.038	5.4	0.	1.7858
5578	15.137	5.4	0.	2.4301
5579	15.237	5.4	0.	3.0633
5580	15.336	5.4	0.	3.6853
5581	15.436	5.4	0.	4.296
5582	15.536	5.4	0.	4.8955
5583	15.635	5.4	0.	5.4841
5584	15.735	5.4	0.	6.0619
5585	15.834	5.4	0.	6.6293
5586	15.934	5.4	0.	7.1866
5587	16.034	5.4	0.	7.7341
5588	16.133	5.4	0.	8.2724
5589	16.233	5.4	0.	8.8018
5590	16.332	5.4	0.	9.3227
5591	16.432	5.4	0.	9.8357
5592	16.531	5.4	0.	10.341
5593	16.631	5.4	0.	10.84
5594	16.731	5.4	0.	11.332
5595	16.83	5.4	0.	11.818
5596	16.93	5.4	0.	12.299
5597	17.029	5.4	0.	12.775
5598	17.129	5.4	0.	13.246
5599	17.229	5.4	0.	13.714
5600	17.328	5.4	0.	14.178
5601	17.428	5.4	0.	14.639
5602	17.527	5.4	0.	15.099
5603	17.627	5.4	0.	15.556
5604	17.726	5.4	0.	16.013
5605	17.826	5.4	0.	16.468
5606	17.926	5.4	0.	16.924
5607	18.025	5.4	0.	17.38
5608	18.125	5.4	0.	17.837
5609	18.224	5.4	0.	18.296
5610	18.324	5.4	0.	18.756
5611	18.423	5.4	0.	19.219
5612	18.523	5.4	0.	19.685
5613	18.623	5.4	0.	20.155
5614	18.722	5.4	0.	20.629
5615	18.822	5.4	0.	21.107
5616	18.921	5.4	0.	21.59
5617	19.021	5.4	0.	22.079
5618	19.121	5.4	0.	22.575
5619	19.22	5.4	0.	23.077
5620	19.32	5.4	0.	23.586
5621	19.419	5.4	0.	24.103
5622	19.519	5.4	0.	24.628
5623	19.618	5.4	0.	25.163
5624	19.718	5.4	0.	25.706
5625	19.818	5.4	0.	26.26
5626	19.917	5.4	0.	26.824
5627	20.017	5.4	0.	27.399
5628	20.116	5.4	0.	27.986
5629	20.216	5.4	0.	28.586
5630	20.316	5.4	0.	29.198
5631	20.415	5.4	0.	29.824
5632	20.515	5.4	0.	30.464
5633	20.614	5.4	0.	31.119
5634	20.714	5.4	0.	31.791
5635	20.813	5.4	0.	32.478
5636	20.913	5.4	0.	33.184
5637	21.013	5.4	0.	33.908
5638	21.112	5.4	0.	34.651
5639	21.212	5.4	0.	35.415
5640	21.311	5.4	0.	36.201
5641	21.411	5.4	0.	37.01
5642	21.51	5.4	0.	37.844
5643	21.61	5.4	0.	38.705
5644	21.71	5.4	0.	39.594
5645	21.809	5.4	0.	40.515
5646	21.909	5.4	0.	41.47
5647	22.008	5.4	0.	42.462
5648	22.108	5.4	0.	43.495
5649	22.208	5.4	0.	44.574
5650	22.307	5.4	0.	45.704
5651	22.407	5.4	0.	46.892
5652	22.506	5.4	0.	48.147
5653	22.606	5.4	0.	49.477
5654	22.705	5.4	0.	50.897
5655	22.805	5.4	0.	52.421
5656	22.905	5.4	0.	54.069
5657	23.004	5.4	0.	55.865
5658	23.104	5.4	0.	57.841
5659	23.203	5.4	0.	60.036
5660	23.303	5.4	0.	62.499
5661	23.403	5.4	0.	65.289
5662	23.502	5.4	0.	68.478
5663	23.602	5.4	0.	72.141
5664	23.701	5.4	0.	76.349
5665	23.801	5.4	0.	81.178
5666	23.9	5.4	0.	86.756
5667	8.2662	5.3	0.	687.23
5668	8.3658	5.3	0.	511.65
5669	8.4654	5.3	0.	409.25
5670	8.565	5.3	0.	334.05
5671	8.6646	5.3	0.	278.71
5672	8.7642	5.3	0.	238.13
5673	8.8637	5.3	0.	207.84
5674	8.9633	5.3	0.	184.44
5675	9.0629	5.3	0.	165.53
5676	9.1625	5.3	0.	149.52
5677	9.2621	5.3	0.	135.41
5678	9.3616	5.3	0.	122.58
5679	9.4612	5.3	0.	110.66
5680	9.5608	5.3	0.	99.441
5681	9.6604	5.3	0.	88.827
5682	9.76	5.3	0.	78.765
5683	9.8595	5.3	0.	69.236
5684	9.9591	5.3	0.	60.24
5685	10.059	5.3	0.	51.783
5686	10.158	5.3	0.	43.871
5687	10.258	5.3	0.	36.511
5688	10.357	5.3	0.	29.704
5689	10.457	5.3	0.	23.45
5690	10.557	5.3	0.	17.747
5691	10.656	5.3	0.	12.598
5692	10.756	5.3	0.	8.0343
5693	10.855	5.3	0.	4.1969
5694	10.955	5.3	0.	1.6371
5695	11.055	5.3	0.	0.66605
5696	11.154	5.3	0.	0.35325
5697	11.254	5.3	0.	0.22082
5698	11.353	5.3	0.	0.15177
5699	11.453	5.3	0.	0.1109
5700	11.552	5.3	0.	8.4629e-002
5701	11.652	5.3	0.	6.673e-002
5702	11.752	5.3	0.	5.399e-002
5703	11.851	5.3	0.	4.463e-002
5704	11.951	5.3	0.	3.7569e-002
5705	12.05	5.3	0.	3.2099e-002
5706	12.15	5.3	0.	2.778e-002
5707	12.249	5.3	0.	2.4312e-002
5708	12.349	5.3	0.	2.15e-002
5709	12.449	5.3	0.	1.9185e-002
5710	12.548	5.3	0.	1.7223e-002
5711	12.648	5.3	0.	1.557e-002
5712	12.747	5.3	0.	1.4175e-002
5713	12.847	5.3	0.	1.2971e-002
5714	12.947	5.3	0.	1.1936e-002
5715	13.046	5.3	0.	1.1029e-002
5716	13.146	5.3	0.	1.0229e-002
5717	13.245	5.3	0.	9.537e-003
5718	13.345	5.3	0.	8.9432e-003
5719	13.444	5.3	0.	8.4137e-003
5720	13.544	5.3	0.	7.9449e-003
5721	13.644	5.3	0.	7.5367e-003
5722	13.743	5.3	0.	7.1779e-003
5723	13.843	5.3	0.	6.8847e-003
5724	13.942	5.3	0.	6.6445e-003
5725	14.042	5.3	0.	6.4266e-003
5726	14.142	5.3	0.	6.2677e-003
5727	14.241	5.3	0.	6.1809e-003
5728	14.341	5.3	0.	6.1654e-003
5729	14.44	5.3	0.	6.2508e-003
5730	14.54	5.3	0.	6.4781e-003
5731	14.639	5.3	0.	6.9321e-003
5732	14.739	5.3	0.	7.8585e-003
5733	14.839	5.3	0.	9.9139e-003
5734	14.938	5.3	0.	1.631e-002
5735	15.038	5.3	0.	0.10504
5736	15.137	5.3	0.	0.74426
5737	15.237	5.3	0.	1.4455
5738	15.336	5.3	0.	2.1371
5739	15.436	5.3	0.	2.8162
5740	15.536	5.3	0.	3.4823
5741	15.635	5.3	0.	4.1356
5742	15.735	5.3	0.	4.7762
5743	15.834	5.3	0.	5.4046
5744	15.934	5.3	0.	6.0211
5745	16.034	5.3	0.	6.6262
5746	16.133	5.3	0.	7.2205
5747	16.233	5.3	0.	7.8043
5748	16.332	5.3	0.	8.3784
5749	16.432	5.3	0.	8.9431
5750	16.531	5.3	0.	9.4992
5751	16.631	5.3	0.	10.047
5752	16.731	5.3	0.	10.588
5753	16.83	5.3	0.	11.121
5754	16.93	5.3	0.	11.648
5755	17.029	5.3	0.	12.17
5756	17.129	5.3	0.	12.687
5757	17.229	5.3	0.	13.199
5758	17.328	5.3	0.	13.707
5759	17.428	5.3	0.	14.213
5760	17.527	5.3	0.	14.715
5761	17.627	5.3	0.	15.216
5762	17.726	5.3	0.	15.716
5763	17.826	5.3	0.	16.215
5764	17.926	5.3	0.	16.714
5765	18.025	5.3	0.	17.213
5766	18.125	5.3	0.	17.714
5767	18.224	5.3	0.	18.217
5768	18.324	5.3	0.	18.722
5769	18.423	5.3	0.	19.23
5770	18.523	5.3	0.	19.742
5771	18.623	5.3	0.	20.259
5772	18.722	5.3	0.	20.78
5773	18.822	5.3	0.	21.307
5774	18.921	5.3	0.	21.84
5775	19.021	5.3	0.	22.38
5776	19.121	5.3	0.	22.928
5777	19.22	5.3	0.	23.484
5778	19.32	5.3	0.	24.049
5779	19.419	5.3	0.	24.623
5780	19.519	5.3	0.	25.208
5781	19.618	5.3	0.	25.803
5782	19.718	5.3	0.	26.41
5783	19.818	5.3	0.	27.03
5784	19.917	5.3	0.	27.662
5785	20.017	5.3	0.	28.308
5786	20.116	5.3	0.	28.969
5787	20.216	5.3	0.	29.646
5788	20.316	5.3	0.	30.338
5789	20.415	5.3	0.	31.048
5790	20.515	5.3	0.	31.776
5791	20.614	5.3	0.	32.523
5792	20.714	5.3	0.	33.29
5793	20.813	5.3	0.	34.078
5794	20.913	5.3	0.	34.889
5795	21.013	5.3	0.	35.723
5796	21.112	5.3	0.	36.582
5797	21.212	5.3	0.	37.469
5798	21.311	5.3	0.	38.383
5799	21.411	5.3	0.	39.328
5800	21.51	5.3	0.	40.305
5801	21.61	5.3	0.	41.317
5802	21.71	5.3	0.	42.366
5803	21.809	5.3	0.	43.456
5804	21.909	5.3	0.	44.591
5805	22.008	5.3	0.	45.774
5806	22.108	5.3	0.	47.01
5807	22.208	5.3	0.	48.305
5808	22.307	5.3	0.	49.667
5809	22.407	5.3	0.	51.103
5810	22.506	5.3	0.	52.622
5811	22.606	5.3	0.	54.237
5812	22.705	5.3	0.	55.962
5813	22.805	5.3	0.	57.814
5814	22.905	5.3	0.	59.814
5815	23.004	5.3	0.	61.988
5816	23.104	5.3	0.	64.365
5817	23.203	5.3	0.	66.984
5818	23.303	5.3	0.	69.886
5819	23.403	5.3	0.	73.123
5820	23.502	5.3	0.	76.745
5821	23.602	5.3	0.	80.806
5822	23.701	5.3	0.	85.345
5823	23.801	5.3	0.	90.409
5824	23.9	5.3	0.	96.094
5825	8.2662	5.2	0.	827.02
5826	8.3658	5.2	0.	630.71
5827	8.4654	5.2	0.	512.12
5828	8.565	5.2	0.	419.8
5829	8.6646	5.2	0.	347.63
5830	8.7642	5.2	0.	291.71
5831	8.8637	5.2	0.	248.22
5832	8.9633	5.2	0.	213.86
5833	9.0629	5.2	0.	186.09
5834	9.1625	5.2	0.	163.06
5835	9.2621	5.2	0.	143.46
5836	9.3616	5.2	0.	126.38
5837	9.4612	5.2	0.	111.22
5838	9.5608	5.2	0.	97.55
5839	9.6604	5.2	0.	85.104
5840	9.76	5.2	0.	73.691
5841	9.8595	5.2	0.	63.186
5842	9.9591	5.2	0.	53.501
5843	10.059	5.2	0.	44.577
5844	10.158	5.2	0.	36.37
5845	10.258	5.2	0.	28.852
5846	10.357	5.2	0.	22.001
5847	10.457	5.2	0.	15.815
5848	10.557	5.2	0.	10.327
5849	10.656	5.2	0.	5.7024
5850	10.756	5.2	0.	2.4912
5851	10.855	5.2	0.	1.0757
5852	10.955	5.2	0.	0.56985
5853	11.055	5.2	0.	0.35137
5854	11.154	5.2	0.	0.23749
5855	11.254	5.2	0.	0.17044
5856	11.353	5.2	0.	0.12766
5857	11.453	5.2	0.	9.8747e-002
5858	11.552	5.2	0.	7.8373e-002
5859	11.652	5.2	0.	6.3529e-002
5860	11.752	5.2	0.	5.2414e-002
5861	11.851	5.2	0.	4.3926e-002
5862	11.951	5.2	0.	3.7323e-002
5863	12.05	5.2	0.	3.2085e-002
5864	12.15	5.2	0.	2.7871e-002
5865	12.249	5.2	0.	2.4436e-002
5866	12.349	5.2	0.	2.1621e-002
5867	12.449	5.2	0.	1.9286e-002
5868	12.548	5.2	0.	1.7295e-002
5869	12.648	5.2	0.	1.5613e-002
5870	12.747	5.2	0.	1.4191e-002
5871	12.847	5.2	0.	1.2966e-002
5872	12.947	5.2	0.	1.1914e-002
5873	13.046	5.2	0.	1.0996e-002
5874	13.146	5.2	0.	1.0187e-002
5875	13.245	5.2	0.	9.4952e-003
5876	13.345	5.2	0.	8.9018e-003
5877	13.444	5.2	0.	8.3785e-003
5878	13.544	5.2	0.	7.9176e-003
5879	13.644	5.2	0.	7.5169e-003
5880	13.743	5.2	0.	7.1691e-003
5881	13.843	5.2	0.	6.8842e-003
5882	13.942	5.2	0.	6.6519e-003
5883	14.042	5.2	0.	6.4385e-003
5884	14.142	5.2	0.	6.2609e-003
5885	14.241	5.2	0.	6.1731e-003
5886	14.341	5.2	0.	6.136e-003
5887	14.44	5.2	0.	6.1593e-003
5888	14.54	5.2	0.	6.2355e-003
5889	14.639	5.2	0.	6.431e-003
5890	14.739	5.2	0.	6.7966e-003
5891	14.839	5.2	0.	7.4559e-003
5892	14.938	5.2	0.	8.5761e-003
5893	15.038	5.2	0.	1.0843e-002
5894	15.137	5.2	0.	1.7009e-002
5895	15.237	5.2	0.	6.4018e-002
5896	15.336	5.2	0.	0.63443
5897	15.436	5.2	0.	1.3727
5898	15.536	5.2	0.	2.1033
5899	15.635	5.2	0.	2.8203
5900	15.735	5.2	0.	3.5232
5901	15.834	5.2	0.	4.2121
5902	15.934	5.2	0.	4.8874
5903	16.034	5.2	0.	5.5497
5904	16.133	5.2	0.	6.1994
5905	16.233	5.2	0.	6.8373
5906	16.332	5.2	0.	7.4639
5907	16.432	5.2	0.	8.0799
5908	16.531	5.2	0.	8.686
5909	16.631	5.2	0.	9.2828
5910	16.731	5.2	0.	9.8712
5911	16.83	5.2	0.	10.452
5912	16.93	5.2	0.	11.025
5913	17.029	5.2	0.	11.592
5914	17.129	5.2	0.	12.153
5915	17.229	5.2	0.	12.71
5916	17.328	5.2	0.	13.262
5917	17.428	5.2	0.	13.811
5918	17.527	5.2	0.	14.356
5919	17.627	5.2	0.	14.9
5920	17.726	5.2	0.	15.443
5921	17.826	5.2	0.	15.984
5922	17.926	5.2	0.	16.526
5923	18.025	5.2	0.	17.069
5924	18.125	5.2	0.	17.613
5925	18.224	5.2	0.	18.16
5926	18.324	5.2	0.	18.709
5927	18.423	5.2	0.	19.262
5928	18.523	5.2	0.	19.82
5929	18.623	5.2	0.	20.383
5930	18.722	5.2	0.	20.952
5931	18.822	5.2	0.	21.527
5932	18.921	5.2	0.	22.11
5933	19.021	5.2	0.	22.701
5934	19.121	5.2	0.	23.301
5935	19.22	5.2	0.	23.911
5936	19.32	5.2	0.	24.531
5937	19.419	5.2	0.	25.163
5938	19.519	5.2	0.	25.807
5939	19.618	5.2	0.	26.464
5940	19.718	5.2	0.	27.134
5941	19.818	5.2	0.	27.82
5942	19.917	5.2	0.	28.521
5943	20.017	5.2	0.	29.238
5944	20.116	5.2	0.	29.973
5945	20.216	5.2	0.	30.727
5946	20.316	5.2	0.	31.5
5947	20.415	5.2	0.	32.294
5948	20.515	5.2	0.	33.11
5949	20.614	5.2	0.	33.949
5950	20.714	5.2	0.	34.812
5951	20.813	5.2	0.	35.701
5952	20.913	5.2	0.	36.618
5953	21.013	5.2	0.	37.563
5954	21.112	5.2	0.	38.539
5955	21.212	5.2	0.	39.548
5956	21.311	5.2	0.	40.591
5957	21.411	5.2	0.	41.671
5958	21.51	5.2	0.	42.792
5959	21.61	5.2	0.	43.954
5960	21.71	5.2	0.	45.163
5961	21.809	5.2	0.	46.422
5962	21.909	5.2	0.	47.735
5963	22.008	5.2	0.	49.107
5964	22.108	5.2	0.	50.544
5965	22.208	5.2	0.	52.053
5966	22.307	5.2	0.	53.641
5967	22.407	5.2	0.	55.318
5968	22.506	5.2	0.	57.093
5969	22.606	5.2	0.	58.981
5970	22.705	5.2	0.	60.996
5971	22.805	5.2	0.	63.155
5972	22.905	5.2	0.	65.479
5973	23.004	5.2	0.	67.994
5974	23.104	5.2	0.	70.727
5975	23.203	5.2	0.	73.711
5976	23.303	5.2	0.	76.982
5977	23.403	5.2	0.	80.579
5978	23.502	5.2	0.	84.538
5979	23.602	5.2	0.	88.895
5980	23.701	5.2	0.	93.671
5981	23.801	5.2	0.	98.897
5982	23.9	5.2	0.	104.65
5983	8.2662	5.1	0.	979.92
5984	8.3658	5.1	0.	759.73
5985	8.4654	5.1	0.	622.94
5986	8.565	5.1	0.	511.83
5987	8.6646	5.1	0.	421.27
5988	8.7642	5.1	0.	348.47
5989	8.8637	5.1	0.	290.27
5990	8.9633	5.1	0.	243.6
5991	9.0629	5.1	0.	205.84
5992	9.1625	5.1	0.	174.88
5993	9.2621	5.1	0.	149.12
5994	9.3616	5.1	0.	127.33
5995	9.4612	5.1	0.	108.63
5996	9.5608	5.1	0.	92.363
5997	9.6604	5.1	0.	78.041
5998	9.76	5.1	0.	65.316
5999	9.8595	5.1	0.	53.934
6000	9.9591	5.1	0.	43.709
6001	10.059	5.1	0.	34.508
6002	10.158	5.1	0.	26.239
6003	10.258	5.1	0.	18.857
6004	10.357	5.1	0.	12.382
6005	10.457	5.1	0.	7.0136
6006	10.557	5.1	0.	3.319
6007	10.656	5.1	0.	1.5608
6008	10.756	5.1	0.	0.85491
6009	10.855	5.1	0.	0.53156
6010	10.955	5.1	0.	0.35877
6011	11.055	5.1	0.	0.25587
6012	11.154	5.1	0.	0.18984
6013	11.254	5.1	0.	0.14517
6014	11.353	5.1	0.	0.11375
6015	11.453	5.1	0.	9.0936e-002
6016	11.552	5.1	0.	7.3956e-002
6017	11.652	5.1	0.	6.1043e-002
6018	11.752	5.1	0.	5.1042e-002
6019	11.851	5.1	0.	4.3194e-002
6020	11.951	5.1	0.	3.6955e-002
6021	12.05	5.1	0.	3.1917e-002
6022	12.15	5.1	0.	2.7807e-002
6023	12.249	5.1	0.	2.4419e-002
6024	12.349	5.1	0.	2.1618e-002
6025	12.449	5.1	0.	1.9281e-002
6026	12.548	5.1	0.	1.7278e-002
6027	12.648	5.1	0.	1.5583e-002
6028	12.747	5.1	0.	1.4147e-002
6029	12.847	5.1	0.	1.2911e-002
6030	12.947	5.1	0.	1.185e-002
6031	13.046	5.1	0.	1.0926e-002
6032	13.146	5.1	0.	1.0115e-002
6033	13.245	5.1	0.	9.4226e-003
6034	13.345	5.1	0.	8.8338e-003
6035	13.444	5.1	0.	8.3146e-003
6036	13.544	5.1	0.	7.8604e-003
6037	13.644	5.1	0.	7.4684e-003
6038	13.743	5.1	0.	7.1093e-003
6039	13.843	5.1	0.	6.8611e-003
6040	13.942	5.1	0.	6.6265e-003
6041	14.042	5.1	0.	6.418e-003
6042	14.142	5.1	0.	6.2564e-003
6043	14.241	5.1	0.	6.1489e-003
6044	14.341	5.1	0.	6.0846e-003
6045	14.44	5.1	0.	6.0702e-003
6046	14.54	5.1	0.	6.1105e-003
6047	14.639	5.1	0.	6.2085e-003
6048	14.739	5.1	0.	6.4088e-003
6049	14.839	5.1	0.	6.7455e-003
6050	14.938	5.1	0.	7.263e-003
6051	15.038	5.1	0.	8.099e-003
6052	15.137	5.1	0.	9.5523e-003
6053	15.237	5.1	0.	1.2507e-002
6054	15.336	5.1	0.	2.0951e-002
6055	15.436	5.1	0.	0.10418
6056	15.536	5.1	0.	0.76962
6057	15.635	5.1	0.	1.5426
6058	15.735	5.1	0.	2.3055
6059	15.834	5.1	0.	3.0538
6060	15.934	5.1	0.	3.7871
6061	16.034	5.1	0.	4.5057
6062	16.133	5.1	0.	5.2103
6063	16.233	5.1	0.	5.9016
6064	16.332	5.1	0.	6.5801
6065	16.432	5.1	0.	7.2467
6066	16.531	5.1	0.	7.9022
6067	16.631	5.1	0.	8.5473
6068	16.731	5.1	0.	9.1828
6069	16.83	5.1	0.	9.8097
6070	16.93	5.1	0.	10.428
6071	17.029	5.1	0.	11.04
6072	17.129	5.1	0.	11.646
6073	17.229	5.1	0.	12.246
6074	17.328	5.1	0.	12.841
6075	17.428	5.1	0.	13.432
6076	17.527	5.1	0.	14.02
6077	17.627	5.1	0.	14.606
6078	17.726	5.1	0.	15.191
6079	17.826	5.1	0.	15.775
6080	17.926	5.1	0.	16.36
6081	18.025	5.1	0.	16.945
6082	18.125	5.1	0.	17.532
6083	18.224	5.1	0.	18.122
6084	18.324	5.1	0.	18.715
6085	18.423	5.1	0.	19.313
6086	18.523	5.1	0.	19.916
6087	18.623	5.1	0.	20.525
6088	18.722	5.1	0.	21.141
6089	18.822	5.1	0.	21.765
6090	18.921	5.1	0.	22.397
6091	19.021	5.1	0.	23.038
6092	19.121	5.1	0.	23.691
6093	19.22	5.1	0.	24.354
6094	19.32	5.1	0.	25.029
6095	19.419	5.1	0.	25.718
6096	19.519	5.1	0.	26.421
6097	19.618	5.1	0.	27.139
6098	19.718	5.1	0.	27.873
6099	19.818	5.1	0.	28.624
6100	19.917	5.1	0.	29.393
6101	20.017	5.1	0.	30.182
6102	20.116	5.1	0.	30.991
6103	20.216	5.1	0.	31.822
6104	20.316	5.1	0.	32.675
6105	20.415	5.1	0.	33.553
6106	20.515	5.1	0.	34.457
6107	20.614	5.1	0.	35.387
6108	20.714	5.1	0.	36.347
6109	20.813	5.1	0.	37.336
6110	20.913	5.1	0.	38.358
6111	21.013	5.1	0.	39.414
6112	21.112	5.1	0.	40.506
6113	21.212	5.1	0.	41.636
6114	21.311	5.1	0.	42.808
6115	21.411	5.1	0.	44.023
6116	21.51	5.1	0.	45.285
6117	21.61	5.1	0.	46.597
6118	21.71	5.1	0.	47.964
6119	21.809	5.1	0.	49.389
6120	21.909	5.1	0.	50.877
6121	22.008	5.1	0.	52.434
6122	22.108	5.1	0.	54.067
6123	22.208	5.1	0.	55.782
6124	22.307	5.1	0.	57.589
6125	22.407	5.1	0.	59.496
6126	22.506	5.1	0.	61.515
6127	22.606	5.1	0.	63.66
6128	22.705	5.1	0.	65.944
6129	22.805	5.1	0.	68.386
6130	22.905	5.1	0.	71.005
6131	23.004	5.1	0.	73.824
6132	23.104	5.1	0.	76.867
6133	23.203	5.1	0.	80.163
6134	23.303	5.1	0.	83.74
6135	23.403	5.1	0.	87.626
6136	23.502	5.1	0.	91.849
6137	23.602	5.1	0.	96.431
6138	23.701	5.1	0.	101.38
6139	23.801	5.1	0.	106.72
6140	23.9	5.1	0.	112.52
6141	8.2662	5.	0.	1148.6
6142	8.3658	5.	0.	899.99
6143	8.4654	5.	0.	741.66
6144	8.565	5.	0.	609.01
6145	8.6646	5.	0.	497.8
6146	8.7642	5.	0.	406.31
6147	8.8637	5.	0.	331.94
6148	8.9633	5.	0.	271.83
6149	9.0629	5.	0.	223.23
6150	9.1625	5.	0.	183.77
6151	9.2621	5.	0.	151.48
6152	9.3616	5.	0.	124.79
6153	9.4612	5.	0.	102.5
6154	9.5608	5.	0.	83.655
6155	9.6604	5.	0.	67.566
6156	9.76	5.	0.	53.698
6157	9.8595	5.	0.	41.661
6158	9.9591	5.	0.	31.179
6159	10.059	5.	0.	22.08
6160	10.158	5.	0.	14.327
6161	10.258	5.	0.	8.1417
6162	10.357	5.	0.	4.0682
6163	10.457	5.	0.	2.0745
6164	10.557	5.	0.	1.1927
6165	10.656	5.	0.	0.75909
6166	10.756	5.	0.	0.51772
6167	10.855	5.	0.	0.37047
6168	10.955	5.	0.	0.27461
6169	11.055	5.	0.	0.20918
6170	11.154	5.	0.	0.16285
6171	11.254	5.	0.	0.12912
6172	11.353	5.	0.	0.10401
6173	11.453	5.	0.	8.4948e-002
6174	11.552	5.	0.	7.0239e-002
6175	11.652	5.	0.	5.872e-002
6176	11.752	5.	0.	4.9577e-002
6177	11.851	5.	0.	4.226e-002
6178	11.951	5.	0.	3.6349e-002
6179	12.05	5.	0.	3.1511e-002
6180	12.15	5.	0.	2.7518e-002
6181	12.249	5.	0.	2.4199e-002
6182	12.349	5.	0.	2.1437e-002
6183	12.449	5.	0.	1.9119e-002
6184	12.548	5.	0.	1.7128e-002
6185	12.648	5.	0.	1.5436e-002
6186	12.747	5.	0.	1.4002e-002
6187	12.847	5.	0.	1.2768e-002
6188	12.947	5.	0.	1.171e-002
6189	13.046	5.	0.	1.079e-002
6190	13.146	5.	0.	9.9853e-003
6191	13.245	5.	0.	9.299e-003
6192	13.345	5.	0.	8.7172e-003
6193	13.444	5.	0.	8.2073e-003
6194	13.544	5.	0.	7.777e-003
6195	13.644	5.	0.	7.3801e-003
6196	13.743	5.	0.	7.0513e-003
6197	13.843	5.	0.	6.7825e-003
6198	13.942	5.	0.	6.5669e-003
6199	14.042	5.	0.	6.3636e-003
6200	14.142	5.	0.	6.2064e-003
6201	14.241	5.	0.	6.098e-003
6202	14.341	5.	0.	6.0284e-003
6203	14.44	5.	0.	5.9996e-003
6204	14.54	5.	0.	6.0111e-003
6205	14.639	5.	0.	6.0664e-003
6206	14.739	5.	0.	6.192e-003
6207	14.839	5.	0.	6.4059e-003
6208	14.938	5.	0.	6.7165e-003
6209	15.038	5.	0.	7.1779e-003
6210	15.137	5.	0.	7.8805e-003
6211	15.237	5.	0.	9.024e-003
6212	15.336	5.	0.	1.1079e-002
6213	15.436	5.	0.	1.5595e-002
6214	15.536	5.	0.	3.2805e-002
6215	15.635	5.	0.	0.33761
6216	15.735	5.	0.	1.1291
6217	15.834	5.	0.	1.9325
6218	15.934	5.	0.	2.7221
6219	16.034	5.	0.	3.496
6220	16.133	5.	0.	4.2545
6221	16.233	5.	0.	4.9982
6222	16.332	5.	0.	5.7278
6223	16.432	5.	0.	6.4442
6224	16.531	5.	0.	7.1483
6225	16.631	5.	0.	7.8408
6226	16.731	5.	0.	8.5228
6227	16.83	5.	0.	9.1951
6228	16.93	5.	0.	9.8586
6229	17.029	5.	0.	10.514
6230	17.129	5.	0.	11.163
6231	17.229	5.	0.	11.806
6232	17.328	5.	0.	12.443
6233	17.428	5.	0.	13.076
6234	17.527	5.	0.	13.707
6235	17.627	5.	0.	14.334
6236	17.726	5.	0.	14.96
6237	17.826	5.	0.	15.586
6238	17.926	5.	0.	16.212
6239	18.025	5.	0.	16.839
6240	18.125	5.	0.	17.469
6241	18.224	5.	0.	18.102
6242	18.324	5.	0.	18.738
6243	18.423	5.	0.	19.38
6244	18.523	5.	0.	20.028
6245	18.623	5.	0.	20.682
6246	18.722	5.	0.	21.344
6247	18.822	5.	0.	22.015
6248	18.921	5.	0.	22.696
6249	19.021	5.	0.	23.388
6250	19.121	5.	0.	24.092
6251	19.22	5.	0.	24.808
6252	19.32	5.	0.	25.538
6253	19.419	5.	0.	26.283
6254	19.519	5.	0.	27.044
6255	19.618	5.	0.	27.823
6256	19.718	5.	0.	28.62
6257	19.818	5.	0.	29.436
6258	19.917	5.	0.	30.273
6259	20.017	5.	0.	31.132
6260	20.116	5.	0.	32.014
6261	20.216	5.	0.	32.921
6262	20.316	5.	0.	33.855
6263	20.415	5.	0.	34.816
6264	20.515	5.	0.	35.806
6265	20.614	5.	0.	36.828
6266	20.714	5.	0.	37.882
6267	20.813	5.	0.	38.971
6268	20.913	5.	0.	40.097
6269	21.013	5.	0.	41.262
6270	21.112	5.	0.	42.469
6271	21.212	5.	0.	43.719
6272	21.311	5.	0.	45.017
6273	21.411	5.	0.	46.365
6274	21.51	5.	0.	47.766
6275	21.61	5.	0.	49.225
6276	21.71	5.	0.	50.745
6277	21.809	5.	0.	52.332
6278	21.909	5.	0.	53.991
6279	22.008	5.	0.	55.727
6280	22.108	5.	0.	57.548
6281	22.208	5.	0.	59.462
6282	22.307	5.	0.	61.477
6283	22.407	5.	0.	63.602
6284	22.506	5.	0.	65.85
6285	22.606	5.	0.	68.233
6286	22.705	5.	0.	70.766
6287	22.805	5.	0.	73.465
6288	22.905	5.	0.	76.347
6289	23.004	5.	0.	79.434
6290	23.104	5.	0.	82.746
6291	23.203	5.	0.	86.305
6292	23.303	5.	0.	90.135
6293	23.403	5.	0.	94.257
6294	23.502	5.	0.	98.688
6295	23.602	5.	0.	103.44
6296	23.701	5.	0.	108.52
6297	23.801	5.	0.	113.95
6298	23.9	5.	0.	119.77
6299	8.2662	4.9	0.	1336.8
6300	8.3658	4.9	0.	1053.2
6301	8.4654	4.9	0.	868.34
6302	8.565	4.9	0.	710.04
6303	8.6646	4.9	0.	575.08
6304	8.7642	4.9	0.	462.71
6305	8.8637	4.9	0.	370.76
6306	8.9633	4.9	0.	296.35
6307	9.0629	4.9	0.	236.46
6308	9.1625	4.9	0.	188.31
6309	9.2621	4.9	0.	149.5
6310	9.3616	4.9	0.	118.04
6311	9.4612	4.9	0.	92.359
6312	9.5608	4.9	0.	71.223
6313	9.6604	4.9	0.	53.695
6314	9.76	4.9	0.	39.086
6315	9.8595	4.9	0.	26.93
6316	9.9591	4.9	0.	17.023
6317	10.059	4.9	0.	9.5443
6318	10.158	4.9	0.	4.9091
6319	10.258	4.9	0.	2.6452
6320	10.357	4.9	0.	1.5844
6321	10.457	4.9	0.	1.0338
6322	10.557	4.9	0.	0.71567
6323	10.656	4.9	0.	0.51661
6324	10.756	4.9	0.	0.38464
6325	10.855	4.9	0.	0.29334
6326	10.955	4.9	0.	0.22812
6327	11.055	4.9	0.	0.18032
6328	11.154	4.9	0.	0.14455
6329	11.254	4.9	0.	0.11729
6330	11.353	4.9	0.	9.6249e-002
6331	11.453	4.9	0.	7.9785e-002
6332	11.552	4.9	0.	6.6756e-002
6333	11.652	4.9	0.	5.6333e-002
6334	11.752	4.9	0.	4.791e-002
6335	11.851	4.9	0.	4.1068e-002
6336	11.951	4.9	0.	3.547e-002
6337	12.05	4.9	0.	3.0839e-002
6338	12.15	4.9	0.	2.6985e-002
6339	12.249	4.9	0.	2.3759e-002
6340	12.349	4.9	0.	2.1059e-002
6341	12.449	4.9	0.	1.8786e-002
6342	12.548	4.9	0.	1.6825e-002
6343	12.648	4.9	0.	1.5158e-002
6344	12.747	4.9	0.	1.3742e-002
6345	12.847	4.9	0.	1.2524e-002
6346	12.947	4.9	0.	1.148e-002
6347	13.046	4.9	0.	1.0575e-002
6348	13.146	4.9	0.	9.7833e-003
6349	13.245	4.9	0.	9.0955e-003
6350	13.345	4.9	0.	8.5445e-003
6351	13.444	4.9	0.	8.049e-003
6352	13.544	4.9	0.	7.6181e-003
6353	13.644	4.9	0.	7.2499e-003
6354	13.743	4.9	0.	6.9337e-003
6355	13.843	4.9	0.	6.6773e-003
6356	13.942	4.9	0.	6.472e-003
6357	14.042	4.9	0.	6.2785e-003
6358	14.142	4.9	0.	6.1275e-003
6359	14.241	4.9	0.	6.0252e-003
6360	14.341	4.9	0.	5.9542e-003
6361	14.44	4.9	0.	5.9197e-003
6362	14.54	4.9	0.	5.9195e-003
6363	14.639	4.9	0.	5.9496e-003
6364	14.739	4.9	0.	6.0388e-003
6365	14.839	4.9	0.	6.1911e-003
6366	14.938	4.9	0.	6.4048e-003
6367	15.038	4.9	0.	6.7068e-003
6368	15.137	4.9	0.	7.139e-003
6369	15.237	4.9	0.	7.7825e-003
6370	15.336	4.9	0.	8.7777e-003
6371	15.436	4.9	0.	1.0422e-002
6372	15.536	4.9	0.	1.3718e-002
6373	15.635	4.9	0.	2.3171e-002
6374	15.735	4.9	0.	0.12192
6375	15.834	4.9	0.	0.85681
6376	15.934	4.9	0.	1.6954
6377	16.034	4.9	0.	2.5223
6378	16.133	4.9	0.	3.3334
6379	16.233	4.9	0.	4.1284
6380	16.332	4.9	0.	4.9081
6381	16.432	4.9	0.	5.6733
6382	16.531	4.9	0.	6.4249
6383	16.631	4.9	0.	7.1639
6384	16.731	4.9	0.	7.8913
6385	16.83	4.9	0.	8.6082
6386	16.93	4.9	0.	9.3153
6387	17.029	4.9	0.	10.014
6388	17.129	4.9	0.	10.705
6389	17.229	4.9	0.	11.39
6390	17.328	4.9	0.	12.069
6391	17.428	4.9	0.	12.743
6392	17.527	4.9	0.	13.414
6393	17.627	4.9	0.	14.082
6394	17.726	4.9	0.	14.749
6395	17.826	4.9	0.	15.416
6396	17.926	4.9	0.	16.082
6397	18.025	4.9	0.	16.751
6398	18.125	4.9	0.	17.422
6399	18.224	4.9	0.	18.096
6400	18.324	4.9	0.	18.776
6401	18.423	4.9	0.	19.46
6402	18.523	4.9	0.	20.152
6403	18.623	4.9	0.	20.851
6404	18.722	4.9	0.	21.559
6405	18.822	4.9	0.	22.277
6406	18.921	4.9	0.	23.006
6407	19.021	4.9	0.	23.746
6408	19.121	4.9	0.	24.501
6409	19.22	4.9	0.	25.269
6410	19.32	4.9	0.	26.053
6411	19.419	4.9	0.	26.854
6412	19.519	4.9	0.	27.672
6413	19.618	4.9	0.	28.51
6414	19.718	4.9	0.	29.369
6415	19.818	4.9	0.	30.249
6416	19.917	4.9	0.	31.153
6417	20.017	4.9	0.	32.081
6418	20.116	4.9	0.	33.036
6419	20.216	4.9	0.	34.018
6420	20.316	4.9	0.	35.03
6421	20.415	4.9	0.	36.073
6422	20.515	4.9	0.	37.149
6423	20.614	4.9	0.	38.26
6424	20.714	4.9	0.	39.408
6425	20.813	4.9	0.	40.595
6426	20.913	4.9	0.	41.823
6427	21.013	4.9	0.	43.096
6428	21.112	4.9	0.	44.414
6429	21.212	4.9	0.	45.783
6430	21.311	4.9	0.	47.204
6431	21.411	4.9	0.	48.681
6432	21.51	4.9	0.	50.218
6433	21.61	4.9	0.	51.819
6434	21.71	4.9	0.	53.488
6435	21.809	4.9	0.	55.231
6436	21.909	4.9	0.	57.054
6437	22.008	4.9	0.	58.962
6438	22.108	4.9	0.	60.963
6439	22.208	4.9	0.	63.065
6440	22.307	4.9	0.	65.276
6441	22.407	4.9	0.	67.606
6442	22.506	4.9	0.	70.066
6443	22.606	4.9	0.	72.669
6444	22.705	4.9	0.	75.428
6445	22.805	4.9	0.	78.357
6446	22.905	4.9	0.	81.474
6447	23.004	4.9	0.	84.795
6448	23.104	4.9	0.	88.337
6449	23.203	4.9	0.	92.12
6450	23.303	4.9	0.	96.16
6451	23.403	4.9	0.	100.47
6452	23.502	4.9	0.	105.07
6453	23.602	4.9	0.	109.96
6454	23.701	4.9	0.	115.14
6455	23.801	4.9	0.	120.64
6456	23.9	4.9	0.	126.47
6457	8.2662	4.8	0.	1549.5
6458	8.3658	4.8	0.	1221.7
6459	8.4654	4.8	0.	1002.8
6460	8.565	4.8	0.	813.04
6461	8.6646	4.8	0.	650.26
6462	8.7642	4.8	0.	514.54
6463	8.8637	4.8	0.	403.74
6464	8.9633	4.8	0.	314.58
6465	9.0629	4.8	0.	243.46
6466	9.1625	4.8	0.	186.95
6467	9.2621	4.8	0.	142.08
6468	9.3616	4.8	0.	106.38
6469	9.4612	4.8	0.	77.869
6470	9.5608	4.8	0.	55.051
6471	9.6604	4.8	0.	36.836
6472	9.76	4.8	0.	22.6
6473	9.8595	4.8	0.	12.33
6474	9.9591	4.8	0.	6.2782
6475	10.059	4.8	0.	3.4173
6476	10.158	4.8	0.	2.0775
6477	10.258	4.8	0.	1.3733
6478	10.357	4.8	0.	0.96069
6479	10.457	4.8	0.	0.69898
6480	10.557	4.8	0.	0.52335
6481	10.656	4.8	0.	0.40055
6482	10.756	4.8	0.	0.31201
6483	10.855	4.8	0.	0.24662
6484	10.955	4.8	0.	0.1974
6485	11.055	4.8	0.	0.15976
6486	11.154	4.8	0.	0.13055
6487	11.254	4.8	0.	0.10764
6488	11.353	4.8	0.	8.9503e-002
6489	11.453	4.8	0.	7.4995e-002
6490	11.552	4.8	0.	6.3299e-002
6491	11.652	4.8	0.	5.3793e-002
6492	11.752	4.8	0.	4.6005e-002
6493	11.851	4.8	0.	3.9604e-002
6494	11.951	4.8	0.	3.4318e-002
6495	12.05	4.8	0.	2.9906e-002
6496	12.15	4.8	0.	2.6212e-002
6497	12.249	4.8	0.	2.3101e-002
6498	12.349	4.8	0.	2.0487e-002
6499	12.449	4.8	0.	1.8278e-002
6500	12.548	4.8	0.	1.6368e-002
6501	12.648	4.8	0.	1.4743e-002
6502	12.747	4.8	0.	1.3363e-002
6503	12.847	4.8	0.	1.2176e-002
6504	12.947	4.8	0.	1.1158e-002
6505	13.046	4.8	0.	1.0265e-002
6506	13.146	4.8	0.	9.5095e-003
6507	13.245	4.8	0.	8.8603e-003
6508	13.345	4.8	0.	8.3131e-003
6509	13.444	4.8	0.	7.8378e-003
6510	13.544	4.8	0.	7.4267e-003
6511	13.644	4.8	0.	7.0757e-003
6512	13.743	4.8	0.	6.7759e-003
6513	13.843	4.8	0.	6.5356e-003
6514	13.942	4.8	0.	6.3451e-003
6515	14.042	4.8	0.	6.1631e-003
6516	14.142	4.8	0.	6.0222e-003
6517	14.241	4.8	0.	5.9258e-003
6518	14.341	4.8	0.	5.8609e-003
6519	14.44	4.8	0.	5.8264e-003
6520	14.54	4.8	0.	5.8228e-003
6521	14.639	4.8	0.	5.8421e-003
6522	14.739	4.8	0.	5.909e-003
6523	14.839	4.8	0.	6.0293e-003
6524	14.938	4.8	0.	6.1898e-003
6525	15.038	4.8	0.	6.4103e-003
6526	15.137	4.8	0.	6.7121e-003
6527	15.237	4.8	0.	7.1409e-003
6528	15.336	4.8	0.	7.7544e-003
6529	15.436	4.8	0.	8.6437e-003
6530	15.536	4.8	0.	1.011e-002
6531	15.635	4.8	0.	1.2901e-002
6532	15.735	4.8	0.	2.0092e-002
6533	15.834	4.8	0.	6.9726e-002
6534	15.934	4.8	0.	0.71726
6535	16.034	4.8	0.	1.5875
6536	16.133	4.8	0.	2.4485
6537	16.233	4.8	0.	3.2934
6538	16.332	4.8	0.	4.1218
6539	16.432	4.8	0.	4.9346
6540	16.531	4.8	0.	5.7326
6541	16.631	4.8	0.	6.517
6542	16.731	4.8	0.	7.2887
6543	16.83	4.8	0.	8.049
6544	16.93	4.8	0.	8.7988
6545	17.029	4.8	0.	9.5394
6546	17.129	4.8	0.	10.272
6547	17.229	4.8	0.	10.997
6548	17.328	4.8	0.	11.716
6549	17.428	4.8	0.	12.431
6550	17.527	4.8	0.	13.142
6551	17.627	4.8	0.	13.85
6552	17.726	4.8	0.	14.556
6553	17.826	4.8	0.	15.262
6554	17.926	4.8	0.	15.969
6555	18.025	4.8	0.	16.678
6556	18.125	4.8	0.	17.389
6557	18.224	4.8	0.	18.105
6558	18.324	4.8	0.	18.825
6559	18.423	4.8	0.	19.552
6560	18.523	4.8	0.	20.286
6561	18.623	4.8	0.	21.029
6562	18.722	4.8	0.	21.782
6563	18.822	4.8	0.	22.545
6564	18.921	4.8	0.	23.321
6565	19.021	4.8	0.	24.11
6566	19.121	4.8	0.	24.914
6567	19.22	4.8	0.	25.733
6568	19.32	4.8	0.	26.57
6569	19.419	4.8	0.	27.425
6570	19.519	4.8	0.	28.3
6571	19.618	4.8	0.	29.196
6572	19.718	4.8	0.	30.115
6573	19.818	4.8	0.	31.058
6574	19.917	4.8	0.	32.027
6575	20.017	4.8	0.	33.024
6576	20.116	4.8	0.	34.049
6577	20.216	4.8	0.	35.105
6578	20.316	4.8	0.	36.194
6579	20.415	4.8	0.	37.317
6580	20.515	4.8	0.	38.477
6581	20.614	4.8	0.	39.675
6582	20.714	4.8	0.	40.915
6583	20.813	4.8	0.	42.197
6584	20.913	4.8	0.	43.525
6585	21.013	4.8	0.	44.902
6586	21.112	4.8	0.	46.33
6587	21.212	4.8	0.	47.813
6588	21.311	4.8	0.	49.353
6589	21.411	4.8	0.	50.955
6590	21.51	4.8	0.	52.623
6591	21.61	4.8	0.	54.361
6592	21.71	4.8	0.	56.174
6593	21.809	4.8	0.	58.067
6594	21.909	4.8	0.	60.046
6595	22.008	4.8	0.	62.118
6596	22.108	4.8	0.	64.289
6597	22.208	4.8	0.	66.567
6598	22.307	4.8	0.	68.962
6599	22.407	4.8	0.	71.481
6600	22.506	4.8	0.	74.137
6601	22.606	4.8	0.	76.94
6602	22.705	4.8	0.	79.903
6603	22.805	4.8	0.	83.039
6604	22.905	4.8	0.	86.362
6605	23.004	4.8	0.	89.887
6606	23.104	4.8	0.	93.628
6607	23.203	4.8	0.	97.599
6608	23.303	4.8	0.	101.81
6609	23.403	4.8	0.	106.28
6610	23.502	4.8	0.	111.01
6611	23.602	4.8	0.	116.01
6612	23.701	4.8	0.	121.28
6613	23.801	4.8	0.	126.82
6614	23.9	4.8	0.	132.67
6615	8.2662	4.7	0.	1793.8
6616	8.3658	4.7	0.	1407.9
6617	8.4654	4.7	0.	1144.1
6618	8.565	4.7	0.	914.79
6619	8.6646	4.7	0.	719.21
6620	8.7642	4.7	0.	557.67
6621	8.8637	4.7	0.	427.27
6622	8.9633	4.7	0.	323.64
6623	9.0629	4.7	0.	242.05
6624	9.1625	4.7	0.	178.16
6625	9.2621	4.7	0.	128.25
6626	9.3616	4.7	0.	89.294
6627	9.4612	4.7	0.	59.008
6628	9.5608	4.7	0.	35.824
6629	9.6604	4.7	0.	19.14
6630	9.76	4.7	0.	9.2291
6631	9.8595	4.7	0.	4.749
6632	9.9591	4.7	0.	2.8047
6633	10.059	4.7	0.	1.8332
6634	10.158	4.7	0.	1.2785
6635	10.258	4.7	0.	0.93073
6636	10.357	4.7	0.	0.69821
6637	10.457	4.7	0.	0.53555
6638	10.557	4.7	0.	0.41792
6639	10.656	4.7	0.	0.33069
6640	10.756	4.7	0.	0.26473
6641	10.855	4.7	0.	0.21406
6642	10.955	4.7	0.	0.17465
6643	11.055	4.7	0.	0.14365
6644	11.154	4.7	0.	0.11898
6645	11.254	4.7	0.	9.9235e-002
6646	11.353	4.7	0.	8.3308e-002
6647	11.453	4.7	0.	7.0364e-002
6648	11.552	4.7	0.	5.9782e-002
6649	11.652	4.7	0.	5.1074e-002
6650	11.752	4.7	0.	4.3865e-002
6651	11.851	4.7	0.	3.7886e-002
6652	11.951	4.7	0.	3.2911e-002
6653	12.05	4.7	0.	2.8733e-002
6654	12.15	4.7	0.	2.5213e-002
6655	12.249	4.7	0.	2.2239e-002
6656	12.349	4.7	0.	1.973e-002
6657	12.449	4.7	0.	1.7606e-002
6658	12.548	4.7	0.	1.5767e-002
6659	12.648	4.7	0.	1.4199e-002
6660	12.747	4.7	0.	1.2868e-002
6661	12.847	4.7	0.	1.1725e-002
6662	12.947	4.7	0.	1.0747e-002
6663	13.046	4.7	0.	9.9008e-003
6664	13.146	4.7	0.	9.1652e-003
6665	13.245	4.7	0.	8.545e-003
6666	13.345	4.7	0.	8.0265e-003
6667	13.444	4.7	0.	7.5758e-003
6668	13.544	4.7	0.	7.1883e-003
6669	13.644	4.7	0.	6.8598e-003
6670	13.743	4.7	0.	6.5806e-003
6671	13.843	4.7	0.	6.3603e-003
6672	13.942	4.7	0.	6.1844e-003
6673	14.042	4.7	0.	6.0194e-003
6674	14.142	4.7	0.	5.8923e-003
6675	14.241	4.7	0.	5.8078e-003
6676	14.341	4.7	0.	5.7497e-003
6677	14.44	4.7	0.	5.7208e-003
6678	14.54	4.7	0.	5.7182e-003
6679	14.639	4.7	0.	5.7341e-003
6680	14.739	4.7	0.	5.7916e-003
6681	14.839	4.7	0.	5.8916e-003
6682	14.938	4.7	0.	6.023e-003
6683	15.038	4.7	0.	6.1962e-003
6684	15.137	4.7	0.	6.4256e-003
6685	15.237	4.7	0.	6.7417e-003
6686	15.336	4.7	0.	7.1715e-003
6687	15.436	4.7	0.	7.7437e-003
6688	15.536	4.7	0.	8.6011e-003
6689	15.635	4.7	0.	9.9908e-003
6690	15.735	4.7	0.	1.2585e-002
6691	15.834	4.7	0.	1.9113e-002
6692	15.934	4.7	0.	6.1058e-002
6693	16.034	4.7	0.	0.70106
6694	16.133	4.7	0.	1.6024
6695	16.233	4.7	0.	2.4945
6696	16.332	4.7	0.	3.3701
6697	16.432	4.7	0.	4.2291
6698	16.531	4.7	0.	5.0722
6699	16.631	4.7	0.	5.9006
6700	16.731	4.7	0.	6.7154
6701	16.83	4.7	0.	7.5178
6702	16.93	4.7	0.	8.309
6703	17.029	4.7	0.	9.0902
6704	17.129	4.7	0.	9.8627
6705	17.229	4.7	0.	10.628
6706	17.328	4.7	0.	11.386
6707	17.428	4.7	0.	12.139
6708	17.527	4.7	0.	12.889
6709	17.627	4.7	0.	13.635
6710	17.726	4.7	0.	14.38
6711	17.826	4.7	0.	15.125
6712	17.926	4.7	0.	15.871
6713	18.025	4.7	0.	16.618
6714	18.125	4.7	0.	17.369
6715	18.224	4.7	0.	18.124
6716	18.324	4.7	0.	18.885
6717	18.423	4.7	0.	19.653
6718	18.523	4.7	0.	20.429
6719	18.623	4.7	0.	21.214
6720	18.722	4.7	0.	22.01
6721	18.822	4.7	0.	22.818
6722	18.921	4.7	0.	23.639
6723	19.021	4.7	0.	24.475
6724	19.121	4.7	0.	25.327
6725	19.22	4.7	0.	26.196
6726	19.32	4.7	0.	27.084
6727	19.419	4.7	0.	27.992
6728	19.519	4.7	0.	28.922
6729	19.618	4.7	0.	29.875
6730	19.718	4.7	0.	30.853
6731	19.818	4.7	0.	31.858
6732	19.917	4.7	0.	32.89
6733	20.017	4.7	0.	33.953
6734	20.116	4.7	0.	35.047
6735	20.216	4.7	0.	36.175
6736	20.316	4.7	0.	37.339
6737	20.415	4.7	0.	38.54
6738	20.515	4.7	0.	39.781
6739	20.614	4.7	0.	41.064
6740	20.714	4.7	0.	42.392
6741	20.813	4.7	0.	43.767
6742	20.913	4.7	0.	45.192
6743	21.013	4.7	0.	46.67
6744	21.112	4.7	0.	48.203
6745	21.212	4.7	0.	49.796
6746	21.311	4.7	0.	51.452
6747	21.411	4.7	0.	53.175
6748	21.51	4.7	0.	54.968
6749	21.61	4.7	0.	56.838
6750	21.71	4.7	0.	58.787
6751	21.809	4.7	0.	60.822
6752	21.909	4.7	0.	62.95
6753	22.008	4.7	0.	65.175
6754	22.108	4.7	0.	67.505
6755	22.208	4.7	0.	69.949
6756	22.307	4.7	0.	72.513
6757	22.407	4.7	0.	75.207
6758	22.506	4.7	0.	78.042
6759	22.606	4.7	0.	81.027
6760	22.705	4.7	0.	84.173
6761	22.805	4.7	0.	87.492
6762	22.905	4.7	0.	90.997
6763	23.004	4.7	0.	94.698
6764	23.104	4.7	0.	98.609
6765	23.203	4.7	0.	102.74
6766	23.303	4.7	0.	107.1
6767	23.403	4.7	0.	111.7
6768	23.502	4.7	0.	116.54
6769	23.602	4.7	0.	121.63
6770	23.701	4.7	0.	126.95
6771	23.801	4.7	0.	132.54
6772	23.9	4.7	0.	138.39
6773	8.2662	4.6	0.	2079.9
6774	8.3658	4.6	0.	1614.2
6775	8.4654	4.6	0.	1289.2
6776	8.565	4.6	0.	1009.6
6777	8.6646	4.6	0.	775.78
6778	8.7642	4.6	0.	586.68
6779	8.8637	4.6	0.	437.11
6780	8.9633	4.6	0.	320.44
6781	9.0629	4.6	0.	230.17
6782	9.1625	4.6	0.	160.67
6783	9.2621	4.6	0.	107.37
6784	9.3616	4.6	0.	66.817
6785	9.4612	4.6	0.	36.85
6786	9.5608	4.6	0.	17.159
6787	9.6604	4.6	0.	7.7153
6788	9.76	4.6	0.	4.1125
6789	9.8595	4.6	0.	2.5489
6790	9.9591	4.6	0.	1.7306
6791	10.059	4.6	0.	1.2428
6792	10.158	4.6	0.	0.92602
6793	10.258	4.6	0.	0.70809
6794	10.357	4.6	0.	0.55191
6795	10.457	4.6	0.	0.4366
6796	10.557	4.6	0.	0.34949
6797	10.656	4.6	0.	0.28253
6798	10.756	4.6	0.	0.23034
6799	10.855	4.6	0.	0.18919
6800	10.955	4.6	0.	0.15644
6801	11.055	4.6	0.	0.13017
6802	11.154	4.6	0.	0.10889
6803	11.254	4.6	0.	9.1583e-002
6804	11.353	4.6	0.	7.7435e-002
6805	11.453	4.6	0.	6.5795e-002
6806	11.552	4.6	0.	5.6176e-002
6807	11.652	4.6	0.	4.8186e-002
6808	11.752	4.6	0.	4.1515e-002
6809	11.851	4.6	0.	3.5946e-002
6810	11.951	4.6	0.	3.1283e-002
6811	12.05	4.6	0.	2.7347e-002
6812	12.15	4.6	0.	2.4018e-002
6813	12.249	4.6	0.	2.1195e-002
6814	12.349	4.6	0.	1.881e-002
6815	12.449	4.6	0.	1.6788e-002
6816	12.548	4.6	0.	1.5033e-002
6817	12.648	4.6	0.	1.3545e-002
6818	12.747	4.6	0.	1.2271e-002
6819	12.847	4.6	0.	1.1182e-002
6820	12.947	4.6	0.	1.0253e-002
6821	13.046	4.6	0.	9.4517e-003
6822	13.146	4.6	0.	8.7561e-003
6823	13.245	4.6	0.	8.172e-003
6824	13.345	4.6	0.	7.687e-003
6825	13.444	4.6	0.	7.2675e-003
6826	13.544	4.6	0.	6.9092e-003
6827	13.644	4.6	0.	6.6065e-003
6828	13.743	4.6	0.	6.3522e-003
6829	13.843	4.6	0.	6.1526e-003
6830	13.942	4.6	0.	5.9992e-003
6831	14.042	4.6	0.	5.8513e-003
6832	14.142	4.6	0.	5.7404e-003
6833	14.241	4.6	0.	5.6692e-003
6834	14.341	4.6	0.	5.6231e-003
6835	14.44	4.6	0.	5.6023e-003
6836	14.54	4.6	0.	5.6043e-003
6837	14.639	4.6	0.	5.6216e-003
6838	14.739	4.6	0.	5.6757e-003
6839	14.839	4.6	0.	5.7666e-003
6840	14.938	4.6	0.	5.8808e-003
6841	15.038	4.6	0.	6.0272e-003
6842	15.137	4.6	0.	6.2136e-003
6843	15.237	4.6	0.	6.4635e-003
6844	15.336	4.6	0.	6.7922e-003
6845	15.436	4.6	0.	7.1995e-003
6846	15.536	4.6	0.	7.7742e-003
6847	15.635	4.6	0.	8.6303e-003
6848	15.735	4.6	0.	1.0004e-002
6849	15.834	4.6	0.	1.2603e-002
6850	15.934	4.6	0.	1.9389e-002
6851	16.034	4.6	0.	7.2726e-002
6852	16.133	4.6	0.	0.80145
6853	16.233	4.6	0.	1.7337
6854	16.332	4.6	0.	2.6541
6855	16.432	4.6	0.	3.5575
6856	16.531	4.6	0.	4.4442
6857	16.631	4.6	0.	5.3152
6858	16.731	4.6	0.	6.1716
6859	16.83	4.6	0.	7.0148
6860	16.93	4.6	0.	7.846
6861	17.029	4.6	0.	8.6665
6862	17.129	4.6	0.	9.4777
6863	17.229	4.6	0.	10.281
6864	17.328	4.6	0.	11.077
6865	17.428	4.6	0.	11.868
6866	17.527	4.6	0.	12.655
6867	17.627	4.6	0.	13.438
6868	17.726	4.6	0.	14.221
6869	17.826	4.6	0.	15.003
6870	17.926	4.6	0.	15.785
6871	18.025	4.6	0.	16.571
6872	18.125	4.6	0.	17.359
6873	18.224	4.6	0.	18.153
6874	18.324	4.6	0.	18.953
6875	18.423	4.6	0.	19.76
6876	18.523	4.6	0.	20.576
6877	18.623	4.6	0.	21.403
6878	18.722	4.6	0.	22.241
6879	18.822	4.6	0.	23.092
6880	18.921	4.6	0.	23.957
6881	19.021	4.6	0.	24.838
6882	19.121	4.6	0.	25.737
6883	19.22	4.6	0.	26.654
6884	19.32	4.6	0.	27.592
6885	19.419	4.6	0.	28.551
6886	19.519	4.6	0.	29.534
6887	19.618	4.6	0.	30.543
6888	19.718	4.6	0.	31.578
6889	19.818	4.6	0.	32.642
6890	19.917	4.6	0.	33.736
6891	20.017	4.6	0.	34.862
6892	20.116	4.6	0.	36.023
6893	20.216	4.6	0.	37.221
6894	20.316	4.6	0.	38.457
6895	20.415	4.6	0.	39.733
6896	20.515	4.6	0.	41.053
6897	20.614	4.6	0.	42.418
6898	20.714	4.6	0.	43.831
6899	20.813	4.6	0.	45.296
6900	20.913	4.6	0.	46.814
6901	21.013	4.6	0.	48.389
6902	21.112	4.6	0.	50.024
6903	21.212	4.6	0.	51.722
6904	21.311	4.6	0.	53.488
6905	21.411	4.6	0.	55.326
6906	21.51	4.6	0.	57.239
6907	21.61	4.6	0.	59.233
6908	21.71	4.6	0.	61.312
6909	21.809	4.6	0.	63.481
6910	21.909	4.6	0.	65.748
6911	22.008	4.6	0.	68.117
6912	22.108	4.6	0.	70.596
6913	22.208	4.6	0.	73.192
6914	22.307	4.6	0.	75.913
6915	22.407	4.6	0.	78.767
6916	22.506	4.6	0.	81.764
6917	22.606	4.6	0.	84.912
6918	22.705	4.6	0.	88.222
6919	22.805	4.6	0.	91.704
6920	22.905	4.6	0.	95.367
6921	23.004	4.6	0.	99.222
6922	23.104	4.6	0.	103.28
6923	23.203	4.6	0.	107.55
6924	23.303	4.6	0.	112.03
6925	23.403	4.6	0.	116.73
6926	23.502	4.6	0.	121.66
6927	23.602	4.6	0.	126.82
6928	23.701	4.6	0.	132.2
6929	23.801	4.6	0.	137.82
6930	23.9	4.6	0.	143.67
6931	8.2662	4.5	0.	2422.7
6932	8.3658	4.5	0.	1841.3
6933	8.4654	4.5	0.	1430.6
6934	8.565	4.5	0.	1087.6
6935	8.6646	4.5	0.	811.06
6936	8.7642	4.5	0.	594.85
6937	8.8637	4.5	0.	428.7
6938	8.9633	4.5	0.	302.16
6939	9.0629	4.5	0.	206.24
6940	9.1625	4.5	0.	133.81
6941	9.2621	4.5	0.	79.605
6942	9.3616	4.5	0.	40.51
6943	9.4612	4.5	0.	16.697
6944	9.5608	4.5	0.	7.1636
6945	9.6604	4.5	0.	3.8858
6946	9.76	4.5	0.	2.462
6947	9.8595	4.5	0.	1.7026
6948	9.9591	4.5	0.	1.2417
6949	10.059	4.5	0.	0.93766
6950	10.158	4.5	0.	0.72554
6951	10.258	4.5	0.	0.57152
6952	10.357	4.5	0.	0.4564
6953	10.457	4.5	0.	0.36845
6954	10.557	4.5	0.	0.3001
6955	10.656	4.5	0.	0.24625
6956	10.756	4.5	0.	0.20338
6957	10.855	4.5	0.	0.16894
6958	10.955	4.5	0.	0.14107
6959	11.055	4.5	0.	0.11839
6960	11.154	4.5	0.	9.9764e-002
6961	11.254	4.5	0.	8.4435e-002
6962	11.353	4.5	0.	7.1772e-002
6963	11.453	4.5	0.	6.1254e-002
6964	11.552	4.5	0.	5.2489e-002
6965	11.652	4.5	0.	4.5154e-002
6966	11.752	4.5	0.	3.8991e-002
6967	11.851	4.5	0.	3.3818e-002
6968	11.951	4.5	0.	2.9468e-002
6969	12.05	4.5	0.	2.5782e-002
6970	12.15	4.5	0.	2.2656e-002
6971	12.249	4.5	0.	1.9997e-002
6972	12.349	4.5	0.	1.775e-002
6973	12.449	4.5	0.	1.5843e-002
6974	12.548	4.5	0.	1.4185e-002
6975	12.648	4.5	0.	1.2775e-002
6976	12.747	4.5	0.	1.1581e-002
6977	12.847	4.5	0.	1.0558e-002
6978	12.947	4.5	0.	9.6857e-003
6979	13.046	4.5	0.	8.9386e-003
6980	13.146	4.5	0.	8.2879e-003
6981	13.245	4.5	0.	7.748e-003
6982	13.345	4.5	0.	7.3022e-003
6983	13.444	4.5	0.	6.918e-003
6984	13.544	4.5	0.	6.5913e-003
6985	13.644	4.5	0.	6.3198e-003
6986	13.743	4.5	0.	6.0931e-003
6987	13.843	4.5	0.	5.9194e-003
6988	13.942	4.5	0.	5.7883e-003
6989	14.042	4.5	0.	5.6617e-003
6990	14.142	4.5	0.	5.568e-003
6991	14.241	4.5	0.	5.5133e-003
6992	14.341	4.5	0.	5.4795e-003
6993	14.44	4.5	0.	5.4727e-003
6994	14.54	4.5	0.	5.4813e-003
6995	14.639	4.5	0.	5.505e-003
6996	14.739	4.5	0.	5.5597e-003
6997	14.839	4.5	0.	5.6491e-003
6998	14.938	4.5	0.	5.7521e-003
6999	15.038	4.5	0.	5.8829e-003
7000	15.137	4.5	0.	6.0427e-003
7001	15.237	4.5	0.	6.2521e-003
7002	15.336	4.5	0.	6.5185e-003
7003	15.436	4.5	0.	6.8292e-003
7004	15.536	4.5	0.	7.2529e-003
7005	15.635	4.5	0.	7.8416e-003
7006	15.735	4.5	0.	8.7108e-003
7007	15.834	4.5	0.	1.0135e-002
7008	15.934	4.5	0.	1.2925e-002
7009	16.034	4.5	0.	2.1055e-002
7010	16.133	4.5	0.	0.13506
7011	16.233	4.5	0.	1.0144
7012	16.332	4.5	0.	1.9751
7013	16.432	4.5	0.	2.9209
7014	16.531	4.5	0.	3.8495
7015	16.631	4.5	0.	4.7614
7016	16.731	4.5	0.	5.6579
7017	16.83	4.5	0.	6.5402
7018	16.93	4.5	0.	7.4099
7019	17.029	4.5	0.	8.2682
7020	17.129	4.5	0.	9.1165
7021	17.229	4.5	0.	9.9564
7022	17.328	4.5	0.	10.789
7023	17.428	4.5	0.	11.616
7024	17.527	4.5	0.	12.438
7025	17.627	4.5	0.	13.258
7026	17.726	4.5	0.	14.076
7027	17.826	4.5	0.	14.894
7028	17.926	4.5	0.	15.712
7029	18.025	4.5	0.	16.534
7030	18.125	4.5	0.	17.359
7031	18.224	4.5	0.	18.19
7032	18.324	4.5	0.	19.027
7033	18.423	4.5	0.	19.872
7034	18.523	4.5	0.	20.727
7035	18.623	4.5	0.	21.593
7036	18.722	4.5	0.	22.472
7037	18.822	4.5	0.	23.364
7038	18.921	4.5	0.	24.272
7039	19.021	4.5	0.	25.197
7040	19.121	4.5	0.	26.14
7041	19.22	4.5	0.	27.104
7042	19.32	4.5	0.	28.089
7043	19.419	4.5	0.	29.098
7044	19.519	4.5	0.	30.132
7045	19.618	4.5	0.	31.194
7046	19.718	4.5	0.	32.284
7047	19.818	4.5	0.	33.405
7048	19.917	4.5	0.	34.558
7049	20.017	4.5	0.	35.746
7050	20.116	4.5	0.	36.972
7051	20.216	4.5	0.	38.236
7052	20.316	4.5	0.	39.541
7053	20.415	4.5	0.	40.89
7054	20.515	4.5	0.	42.285
7055	20.614	4.5	0.	43.729
7056	20.714	4.5	0.	45.224
7057	20.813	4.5	0.	46.774
7058	20.913	4.5	0.	48.381
7059	21.013	4.5	0.	50.049
7060	21.112	4.5	0.	51.78
7061	21.212	4.5	0.	53.58
7062	21.311	4.5	0.	55.45
7063	21.411	4.5	0.	57.397
7064	21.51	4.5	0.	59.423
7065	21.61	4.5	0.	61.534
7066	21.71	4.5	0.	63.734
7067	21.809	4.5	0.	66.03
7068	21.909	4.5	0.	68.426
7069	22.008	4.5	0.	70.929
7070	22.108	4.5	0.	73.545
7071	22.208	4.5	0.	76.282
7072	22.307	4.5	0.	79.146
7073	22.407	4.5	0.	82.146
7074	22.506	4.5	0.	85.289
7075	22.606	4.5	0.	88.584
7076	22.705	4.5	0.	92.04
7077	22.805	4.5	0.	95.665
7078	22.905	4.5	0.	99.468
7079	23.004	4.5	0.	103.46
7080	23.104	4.5	0.	107.64
7081	23.203	4.5	0.	112.02
7082	23.303	4.5	0.	116.61
7083	23.403	4.5	0.	121.4
7084	23.502	4.5	0.	126.41
7085	23.602	4.5	0.	131.62
7086	23.701	4.5	0.	137.05
7087	23.801	4.5	0.	142.69
7088	23.9	4.5	0.	148.54
7089	8.2662	4.4	0.	2847.2
7090	8.3658	4.4	0.	2084.8
7091	8.4654	4.4	0.	1550.7
7092	8.565	4.4	0.	1132.2
7093	8.6646	4.4	0.	813.15
7094	8.7642	4.4	0.	574.87
7095	8.8637	4.4	0.	398.09
7096	8.9633	4.4	0.	267.01
7097	9.0629	4.4	0.	169.81
7098	9.1625	4.4	0.	98.145
7099	9.2621	4.4	0.	47.188
7100	9.3616	4.4	0.	17.531
7101	9.4612	4.4	0.	7.1524
7102	9.5608	4.4	0.	3.8723
7103	9.6604	4.4	0.	2.4678
7104	9.76	4.4	0.	1.7185
7105	9.8595	4.4	0.	1.2623
7106	9.9591	4.4	0.	0.96019
7107	10.059	4.4	0.	0.74828
7108	10.158	4.4	0.	0.59353
7109	10.258	4.4	0.	0.47709
7110	10.357	4.4	0.	0.38753
7111	10.457	4.4	0.	0.31744
7112	10.557	4.4	0.	0.26183
7113	10.656	4.4	0.	0.21723
7114	10.756	4.4	0.	0.18115
7115	10.855	4.4	0.	0.15174
7116	10.955	4.4	0.	0.12765
7117	11.055	4.4	0.	0.1078
7118	11.154	4.4	0.	9.1341e-002
7119	11.254	4.4	0.	7.7667e-002
7120	11.353	4.4	0.	6.6275e-002
7121	11.453	4.4	0.	5.6743e-002
7122	11.552	4.4	0.	4.8749e-002
7123	11.652	4.4	0.	4.2019e-002
7124	11.752	4.4	0.	3.6336e-002
7125	11.851	4.4	0.	3.1548e-002
7126	11.951	4.4	0.	2.7508e-002
7127	12.05	4.4	0.	2.4076e-002
7128	12.15	4.4	0.	2.1159e-002
7129	12.249	4.4	0.	1.8675e-002
7130	12.349	4.4	0.	1.6574e-002
7131	12.449	4.4	0.	1.4793e-002
7132	12.548	4.4	0.	1.3244e-002
7133	12.648	4.4	0.	1.1928e-002
7134	12.747	4.4	0.	1.0817e-002
7135	12.847	4.4	0.	9.8656e-003
7136	12.947	4.4	0.	9.0609e-003
7137	13.046	4.4	0.	8.3696e-003
7138	13.146	4.4	0.	7.7741e-003
7139	13.245	4.4	0.	7.282e-003
7140	13.345	4.4	0.	6.878e-003
7141	13.444	4.4	0.	6.5355e-003
7142	13.544	4.4	0.	6.2448e-003
7143	13.644	4.4	0.	6.0071e-003
7144	13.743	4.4	0.	5.8102e-003
7145	13.843	4.4	0.	5.6637e-003
7146	13.942	4.4	0.	5.5576e-003
7147	14.042	4.4	0.	5.453e-003
7148	14.142	4.4	0.	5.3808e-003
7149	14.241	4.4	0.	5.3436e-003
7150	14.341	4.4	0.	5.3275e-003
7151	14.44	4.4	0.	5.3309e-003
7152	14.54	4.4	0.	5.3523e-003
7153	14.639	4.4	0.	5.3818e-003
7154	14.739	4.4	0.	5.4429e-003
7155	14.839	4.4	0.	5.5315e-003
7156	14.938	4.4	0.	5.6336e-003
7157	15.038	4.4	0.	5.7542e-003
7158	15.137	4.4	0.	5.8986e-003
7159	15.237	4.4	0.	6.0816e-003
7160	15.336	4.4	0.	6.3099e-003
7161	15.436	4.4	0.	6.5602e-003
7162	15.536	4.4	0.	6.8903e-003
7163	15.635	4.4	0.	7.3291e-003
7164	15.735	4.4	0.	7.938e-003
7165	15.834	4.4	0.	8.8484e-003
7166	15.934	4.4	0.	1.0386e-002
7167	16.034	4.4	0.	1.3642e-002
7168	16.133	4.4	0.	2.5628e-002
7169	16.233	4.4	0.	0.35545
7170	16.332	4.4	0.	1.3349
7171	16.432	4.4	0.	2.3203
7172	16.531	4.4	0.	3.2887
7173	16.631	4.4	0.	4.2397
7174	16.731	4.4	0.	5.1745
7175	16.83	4.4	0.	6.0944
7176	16.93	4.4	0.	7.0007
7177	17.029	4.4	0.	7.8951
7178	17.129	4.4	0.	8.7791
7179	17.229	4.4	0.	9.654
7180	17.328	4.4	0.	10.521
7181	17.428	4.4	0.	11.383
7182	17.527	4.4	0.	12.24
7183	17.627	4.4	0.	13.093
7184	17.726	4.4	0.	13.945
7185	17.826	4.4	0.	14.797
7186	17.926	4.4	0.	15.65
7187	18.025	4.4	0.	16.506
7188	18.125	4.4	0.	17.366
7189	18.224	4.4	0.	18.232
7190	18.324	4.4	0.	19.105
7191	18.423	4.4	0.	19.987
7192	18.523	4.4	0.	20.879
7193	18.623	4.4	0.	21.783
7194	18.722	4.4	0.	22.7
7195	18.822	4.4	0.	23.632
7196	18.921	4.4	0.	24.58
7197	19.021	4.4	0.	25.547
7198	19.121	4.4	0.	26.533
7199	19.22	4.4	0.	27.541
7200	19.32	4.4	0.	28.573
7201	19.419	4.4	0.	29.629
7202	19.519	4.4	0.	30.712
7203	19.618	4.4	0.	31.824
7204	19.718	4.4	0.	32.967
7205	19.818	4.4	0.	34.142
7206	19.917	4.4	0.	35.352
7207	20.017	4.4	0.	36.6
7208	20.116	4.4	0.	37.886
7209	20.216	4.4	0.	39.214
7210	20.316	4.4	0.	40.586
7211	20.415	4.4	0.	42.004
7212	20.515	4.4	0.	43.471
7213	20.614	4.4	0.	44.989
7214	20.714	4.4	0.	46.563
7215	20.813	4.4	0.	48.194
7216	20.913	4.4	0.	49.885
7217	21.013	4.4	0.	51.641
7218	21.112	4.4	0.	53.464
7219	21.212	4.4	0.	55.358
7220	21.311	4.4	0.	57.328
7221	21.411	4.4	0.	59.377
7222	21.51	4.4	0.	61.509
7223	21.61	4.4	0.	63.73
7224	21.71	4.4	0.	66.044
7225	21.809	4.4	0.	68.457
7226	21.909	4.4	0.	70.973
7227	22.008	4.4	0.	73.6
7228	22.108	4.4	0.	76.342
7229	22.208	4.4	0.	79.208
7230	22.307	4.4	0.	82.202
7231	22.407	4.4	0.	85.334
7232	22.506	4.4	0.	88.609
7233	22.606	4.4	0.	92.035
7234	22.705	4.4	0.	95.62
7235	22.805	4.4	0.	99.371
7236	22.905	4.4	0.	103.3
7237	23.004	4.4	0.	107.4
7238	23.104	4.4	0.	111.69
7239	23.203	4.4	0.	116.17
7240	23.303	4.4	0.	120.84
7241	23.403	4.4	0.	125.71
7242	23.502	4.4	0.	130.78
7243	23.602	4.4	0.	136.05
7244	23.701	4.4	0.	141.5
7245	23.801	4.4	0.	147.17
7246	23.9	4.4	0.	153.02
7247	8.2662	4.3	0.	3376.
7248	8.3658	4.3	0.	2313.1
7249	8.4654	4.3	0.	1615.8
7250	8.565	4.3	0.	1119.2
7251	8.6646	4.3	0.	768.97
7252	8.7642	4.3	0.	521.09
7253	8.8637	4.3	0.	343.66
7254	8.9633	4.3	0.	215.4
7255	9.0629	4.3	0.	122.44
7256	9.1625	4.3	0.	56.944
7257	9.2621	4.3	0.	19.426
7258	9.3616	4.3	0.	7.4611
7259	9.4612	4.3	0.	3.9783
7260	9.5608	4.3	0.	2.5264
7261	9.6604	4.3	0.	1.7601
7262	9.76	4.3	0.	1.2959
7263	9.8595	4.3	0.	0.98923
7264	9.9591	4.3	0.	0.7742
7265	10.059	4.3	0.	0.61692
7266	10.158	4.3	0.	0.49826
7267	10.258	4.3	0.	0.40661
7268	10.357	4.3	0.	0.33455
7269	10.457	4.3	0.	0.27711
7270	10.557	4.3	0.	0.23078
7271	10.656	4.3	0.	0.19308
7272	10.756	4.3	0.	0.1622
7273	10.855	4.3	0.	0.13674
7274	10.955	4.3	0.	0.11566
7275	11.055	4.3	0.	9.8149e-002
7276	11.154	4.3	0.	8.3492e-002
7277	11.254	4.3	0.	7.1227e-002
7278	11.353	4.3	0.	6.0944e-002
7279	11.453	4.3	0.	5.229e-002
7280	11.552	4.3	0.	4.4995e-002
7281	11.652	4.3	0.	3.8827e-002
7282	11.752	4.3	0.	3.3599e-002
7283	11.851	4.3	0.	2.918e-002
7284	11.951	4.3	0.	2.5447e-002
7285	12.05	4.3	0.	2.2269e-002
7286	12.15	4.3	0.	1.9564e-002
7287	12.249	4.3	0.	1.7261e-002
7288	12.349	4.3	0.	1.5314e-002
7289	12.449	4.3	0.	1.3665e-002
7290	12.548	4.3	0.	1.2232e-002
7291	12.648	4.3	0.	1.1017e-002
7292	12.747	4.3	0.	9.9946e-003
7293	12.847	4.3	0.	9.1242e-003
7294	12.947	4.3	0.	8.3883e-003
7295	13.046	4.3	0.	7.7624e-003
7296	13.146	4.3	0.	7.223e-003
7297	13.245	4.3	0.	6.7825e-003
7298	13.345	4.3	0.	6.4269e-003
7299	13.444	4.3	0.	6.126e-003
7300	13.544	4.3	0.	5.8749e-003
7301	13.644	4.3	0.	5.6722e-003
7302	13.743	4.3	0.	5.5083e-003
7303	13.843	4.3	0.	5.3918e-003
7304	13.942	4.3	0.	5.312e-003
7305	14.042	4.3	0.	5.2321e-003
7306	14.142	4.3	0.	5.1822e-003
7307	14.241	4.3	0.	5.1642e-003
7308	14.341	4.3	0.	5.1641e-003
7309	14.44	4.3	0.	5.1838e-003
7310	14.54	4.3	0.	5.2163e-003
7311	14.639	4.3	0.	5.2566e-003
7312	14.739	4.3	0.	5.324e-003
7313	14.839	4.3	0.	5.4176e-003
7314	14.938	4.3	0.	5.5191e-003
7315	15.038	4.3	0.	5.6363e-003
7316	15.137	4.3	0.	5.7714e-003
7317	15.237	4.3	0.	5.9384e-003
7318	15.336	4.3	0.	6.141e-003
7319	15.436	4.3	0.	6.3526e-003
7320	15.536	4.3	0.	6.6222e-003
7321	15.635	4.3	0.	6.9694e-003
7322	15.735	4.3	0.	7.4246e-003
7323	15.834	4.3	0.	8.0652e-003
7324	15.934	4.3	0.	9.0464e-003
7325	16.034	4.3	0.	1.0803e-002
7326	16.133	4.3	0.	1.5105e-002
7327	16.233	4.3	0.	4.2296e-002
7328	16.332	4.3	0.	0.73771
7329	16.432	4.3	0.	1.7566
7330	16.531	4.3	0.	2.7625
7331	16.631	4.3	0.	3.7508
7332	16.731	4.3	0.	4.7219
7333	16.83	4.3	0.	5.6775
7334	16.93	4.3	0.	6.6187
7335	17.029	4.3	0.	7.5475
7336	17.129	4.3	0.	8.4652
7337	17.229	4.3	0.	9.3734
7338	17.328	4.3	0.	10.274
7339	17.428	4.3	0.	11.168
7340	17.527	4.3	0.	12.057
7341	17.627	4.3	0.	12.943
7342	17.726	4.3	0.	13.828
7343	17.826	4.3	0.	14.712
7344	17.926	4.3	0.	15.598
7345	18.025	4.3	0.	16.486
7346	18.125	4.3	0.	17.38
7347	18.224	4.3	0.	18.279
7348	18.324	4.3	0.	19.186
7349	18.423	4.3	0.	20.102
7350	18.523	4.3	0.	21.03
7351	18.623	4.3	0.	21.969
7352	18.722	4.3	0.	22.923
7353	18.822	4.3	0.	23.893
7354	18.921	4.3	0.	24.88
7355	19.021	4.3	0.	25.886
7356	19.121	4.3	0.	26.913
7357	19.22	4.3	0.	27.964
7358	19.32	4.3	0.	29.038
7359	19.419	4.3	0.	30.14
7360	19.519	4.3	0.	31.269
7361	19.618	4.3	0.	32.429
7362	19.718	4.3	0.	33.622
7363	19.818	4.3	0.	34.849
7364	19.917	4.3	0.	36.114
7365	20.017	4.3	0.	37.417
7366	20.116	4.3	0.	38.761
7367	20.216	4.3	0.	40.15
7368	20.316	4.3	0.	41.584
7369	20.415	4.3	0.	43.068
7370	20.515	4.3	0.	44.603
7371	20.614	4.3	0.	46.192
7372	20.714	4.3	0.	47.839
7373	20.813	4.3	0.	49.547
7374	20.913	4.3	0.	51.318
7375	21.013	4.3	0.	53.157
7376	21.112	4.3	0.	55.066
7377	21.212	4.3	0.	57.049
7378	21.311	4.3	0.	59.111
7379	21.411	4.3	0.	61.256
7380	21.51	4.3	0.	63.488
7381	21.61	4.3	0.	65.811
7382	21.71	4.3	0.	68.23
7383	21.809	4.3	0.	70.751
7384	21.909	4.3	0.	73.378
7385	22.008	4.3	0.	76.118
7386	22.108	4.3	0.	78.976
7387	22.208	4.3	0.	81.958
7388	22.307	4.3	0.	85.071
7389	22.407	4.3	0.	88.321
7390	22.506	4.3	0.	91.714
7391	22.606	4.3	0.	95.257
7392	22.705	4.3	0.	98.956
7393	22.805	4.3	0.	102.82
7394	22.905	4.3	0.	106.85
7395	23.004	4.3	0.	111.05
7396	23.104	4.3	0.	115.43
7397	23.203	4.3	0.	120.
7398	23.303	4.3	0.	124.75
7399	23.403	4.3	0.	129.68
7400	23.502	4.3	0.	134.8
7401	23.602	4.3	0.	140.11
7402	23.701	4.3	0.	145.6
7403	23.801	4.3	0.	151.28
7404	23.9	4.3	0.	157.13
7405	8.2662	4.2	0.	4101.5
7406	8.3658	4.2	0.	2432.3
7407	8.4654	4.2	0.	1563.4
7408	8.565	4.2	0.	1023.
7409	8.6646	4.2	0.	671.03
7410	8.7642	4.2	0.	433.85
7411	8.8637	4.2	0.	268.52
7412	8.9633	4.2	0.	151.25
7413	9.0629	4.2	0.	69.288
7414	9.1625	4.2	0.	22.128
7415	9.2621	4.2	0.	7.9378
7416	9.3616	4.2	0.	4.1387
7417	9.4612	4.2	0.	2.6073
7418	9.5608	4.2	0.	1.8118
7419	9.6604	4.2	0.	1.3343
7420	9.76	4.2	0.	1.0205
7421	9.8595	4.2	0.	0.80099
7422	9.9591	4.2	0.	0.64054
7423	10.059	4.2	0.	0.51934
7424	10.158	4.2	0.	0.42549
7425	10.258	4.2	0.	0.35142
7426	10.357	4.2	0.	0.29213
7427	10.457	4.2	0.	0.24411
7428	10.557	4.2	0.	0.20485
7429	10.656	4.2	0.	0.17252
7430	10.756	4.2	0.	0.14574
7431	10.855	4.2	0.	0.12346
7432	10.955	4.2	0.	0.10486
7433	11.055	4.2	0.	8.9282e-002
7434	11.154	4.2	0.	7.6158e-002
7435	11.254	4.2	0.	6.511e-002
7436	11.353	4.2	0.	5.5803e-002
7437	11.453	4.2	0.	4.7932e-002
7438	11.552	4.2	0.	4.1275e-002
7439	11.652	4.2	0.	3.5626e-002
7440	11.752	4.2	0.	3.0827e-002
7441	11.851	4.2	0.	2.6764e-002
7442	11.951	4.2	0.	2.3328e-002
7443	12.05	4.2	0.	2.04e-002
7444	12.15	4.2	0.	1.7908e-002
7445	12.249	4.2	0.	1.5787e-002
7446	12.349	4.2	0.	1.3997e-002
7447	12.449	4.2	0.	1.2486e-002
7448	12.548	4.2	0.	1.1172e-002
7449	12.648	4.2	0.	1.0062e-002
7450	12.747	4.2	0.	9.1333e-003
7451	12.847	4.2	0.	8.3461e-003
7452	12.947	4.2	0.	7.6848e-003
7453	13.046	4.2	0.	7.1252e-003
7454	13.146	4.2	0.	6.6472e-003
7455	13.245	4.2	0.	6.2611e-003
7456	13.345	4.2	0.	5.9553e-003
7457	13.444	4.2	0.	5.6992e-003
7458	13.544	4.2	0.	5.4902e-003
7459	13.644	4.2	0.	5.324e-003
7460	13.743	4.2	0.	5.1938e-003
7461	13.843	4.2	0.	5.1077e-003
7462	13.942	4.2	0.	5.056e-003
7463	14.042	4.2	0.	5.0018e-003
7464	14.142	4.2	0.	4.9748e-003
7465	14.241	4.2	0.	4.9773e-003
7466	14.341	4.2	0.	4.9962e-003
7467	14.44	4.2	0.	5.0309e-003
7468	14.54	4.2	0.	5.0776e-003
7469	14.639	4.2	0.	5.1292e-003
7470	14.739	4.2	0.	5.2057e-003
7471	14.839	4.2	0.	5.3041e-003
7472	14.938	4.2	0.	5.4094e-003
7473	15.038	4.2	0.	5.5268e-003
7474	15.137	4.2	0.	5.6557e-003
7475	15.237	4.2	0.	5.8143e-003
7476	15.336	4.2	0.	5.9988e-003
7477	15.436	4.2	0.	6.186e-003
7478	15.536	4.2	0.	6.4153e-003
7479	15.635	4.2	0.	6.7003e-003
7480	15.735	4.2	0.	7.062e-003
7481	15.834	4.2	0.	7.541e-003
7482	15.934	4.2	0.	8.2244e-003
7483	16.034	4.2	0.	9.3227e-003
7484	16.133	4.2	0.	1.1527e-002
7485	16.233	4.2	0.	1.8531e-002
7486	16.332	4.2	0.	0.2131
7487	16.432	4.2	0.	1.2312
7488	16.531	4.2	0.	2.2719
7489	16.631	4.2	0.	3.2951
7490	16.731	4.2	0.	4.3007
7491	16.83	4.2	0.	5.2898
7492	16.93	4.2	0.	6.2641
7493	17.029	4.2	0.	7.2252
7494	17.129	4.2	0.	8.1747
7495	17.229	4.2	0.	9.1144
7496	17.328	4.2	0.	10.046
7497	17.428	4.2	0.	10.971
7498	17.527	4.2	0.	11.891
7499	17.627	4.2	0.	12.807
7500	17.726	4.2	0.	13.722
7501	17.826	4.2	0.	14.637
7502	17.926	4.2	0.	15.554
7503	18.025	4.2	0.	16.473
7504	18.125	4.2	0.	17.398
7505	18.224	4.2	0.	18.329
7506	18.324	4.2	0.	19.268
7507	18.423	4.2	0.	20.217
7508	18.523	4.2	0.	21.177
7509	18.623	4.2	0.	22.151
7510	18.722	4.2	0.	23.139
7511	18.822	4.2	0.	24.144
7512	18.921	4.2	0.	25.168
7513	19.021	4.2	0.	26.212
7514	19.121	4.2	0.	27.277
7515	19.22	4.2	0.	28.367
7516	19.32	4.2	0.	29.483
7517	19.419	4.2	0.	30.627
7518	19.519	4.2	0.	31.8
7519	19.618	4.2	0.	33.006
7520	19.718	4.2	0.	34.246
7521	19.818	4.2	0.	35.522
7522	19.917	4.2	0.	36.837
7523	20.017	4.2	0.	38.193
7524	20.116	4.2	0.	39.592
7525	20.216	4.2	0.	41.037
7526	20.316	4.2	0.	42.531
7527	20.415	4.2	0.	44.076
7528	20.515	4.2	0.	45.675
7529	20.614	4.2	0.	47.331
7530	20.714	4.2	0.	49.047
7531	20.813	4.2	0.	50.827
7532	20.913	4.2	0.	52.673
7533	21.013	4.2	0.	54.588
7534	21.112	4.2	0.	56.578
7535	21.212	4.2	0.	58.645
7536	21.311	4.2	0.	60.793
7537	21.411	4.2	0.	63.026
7538	21.51	4.2	0.	65.349
7539	21.61	4.2	0.	67.767
7540	21.71	4.2	0.	70.283
7541	21.809	4.2	0.	72.903
7542	21.909	4.2	0.	75.632
7543	22.008	4.2	0.	78.475
7544	22.108	4.2	0.	81.438
7545	22.208	4.2	0.	84.526
7546	22.307	4.2	0.	87.745
7547	22.407	4.2	0.	91.101
7548	22.506	4.2	0.	94.599
7549	22.606	4.2	0.	98.245
7550	22.705	4.2	0.	102.05
7551	22.805	4.2	0.	106.
7552	22.905	4.2	0.	110.13
7553	23.004	4.2	0.	114.42
7554	23.104	4.2	0.	118.88
7555	23.203	4.2	0.	123.52
7556	23.303	4.2	0.	128.33
7557	23.403	4.2	0.	133.32
7558	23.502	4.2	0.	138.48
7559	23.602	4.2	0.	143.83
7560	23.701	4.2	0.	149.34
7561	23.801	4.2	0.	155.03
7562	23.9	4.2	0.	160.88
7563	8.2662	4.1	0.	4570.3
7564	8.3658	4.1	0.	2361.3
7565	8.4654	4.1	0.	1336.
7566	8.565	4.1	0.	839.27
7567	8.6646	4.1	0.	529.44
7568	8.7642	4.1	0.	324.32
7569	8.8637	4.1	0.	182.13
7570	8.9633	4.1	0.	83.309
7571	9.0629	4.1	0.	25.338
7572	9.1625	4.1	0.	8.4288
7573	9.2621	4.1	0.	4.2873
7574	9.3616	4.1	0.	2.6792
7575	9.4612	4.1	0.	1.8576
7576	9.5608	4.1	0.	1.369
7577	9.6604	4.1	0.	1.0493
7578	9.76	4.1	0.	0.82624
7579	9.8595	4.1	0.	0.66318
7580	9.9591	4.1	0.	0.53982
7581	10.059	4.1	0.	0.44402
7582	10.158	4.1	0.	0.36814
7583	10.258	4.1	0.	0.3071
7584	10.357	4.1	0.	0.25743
7585	10.457	4.1	0.	0.21665
7586	10.557	4.1	0.	0.1829
7587	10.656	4.1	0.	0.15481
7588	10.756	4.1	0.	0.13134
7589	10.855	4.1	0.	0.11165
7590	10.955	4.1	0.	9.5093e-002
7591	11.055	4.1	0.	8.1147e-002
7592	11.154	4.1	0.	6.933e-002
7593	11.254	4.1	0.	5.9338e-002
7594	11.353	4.1	0.	5.0887e-002
7595	11.453	4.1	0.	4.3719e-002
7596	11.552	4.1	0.	3.7638e-002
7597	11.652	4.1	0.	3.2471e-002
7598	11.752	4.1	0.	2.8071e-002
7599	11.851	4.1	0.	2.4346e-002
7600	11.951	4.1	0.	2.1194e-002
7601	12.05	4.1	0.	1.851e-002
7602	12.15	4.1	0.	1.6227e-002
7603	12.249	4.1	0.	1.4287e-002
7604	12.349	4.1	0.	1.2655e-002
7605	12.449	4.1	0.	1.128e-002
7606	12.548	4.1	0.	1.0088e-002
7607	12.648	4.1	0.	9.0859e-003
7608	12.747	4.1	0.	8.2521e-003
7609	12.847	4.1	0.	7.5491e-003
7610	12.947	4.1	0.	6.966e-003
7611	13.046	4.1	0.	6.4754e-003
7612	13.146	4.1	0.	6.059e-003
7613	13.245	4.1	0.	5.7291e-003
7614	13.345	4.1	0.	5.4736e-003
7615	13.444	4.1	0.	5.2643e-003
7616	13.544	4.1	0.	5.0972e-003
7617	13.644	4.1	0.	4.9688e-003
7618	13.743	4.1	0.	4.8732e-003
7619	13.843	4.1	0.	4.8187e-003
7620	13.942	4.1	0.	4.7968e-003
7621	14.042	4.1	0.	4.7684e-003
7622	14.142	4.1	0.	4.7638e-003
7623	14.241	4.1	0.	4.7868e-003
7624	14.341	4.1	0.	4.8245e-003
7625	14.44	4.1	0.	4.876e-003
7626	14.54	4.1	0.	4.9368e-003
7627	14.639	4.1	0.	5.0001e-003
7628	14.739	4.1	0.	5.0868e-003
7629	14.839	4.1	0.	5.1937e-003
7630	14.938	4.1	0.	5.3027e-003
7631	15.038	4.1	0.	5.4231e-003
7632	15.137	4.1	0.	5.5514e-003
7633	15.237	4.1	0.	5.7039e-003
7634	15.336	4.1	0.	5.8782e-003
7635	15.436	4.1	0.	6.0471e-003
7636	15.536	4.1	0.	6.2482e-003
7637	15.635	4.1	0.	6.4939e-003
7638	15.735	4.1	0.	6.7908e-003
7639	15.834	4.1	0.	7.1679e-003
7640	15.934	4.1	0.	7.6758e-003
7641	16.034	4.1	0.	8.4247e-003
7642	16.133	4.1	0.	9.756e-003
7643	16.233	4.1	0.	1.292e-002
7644	16.332	4.1	0.	3.2484e-002
7645	16.432	4.1	0.	0.74653
7646	16.531	4.1	0.	1.8174
7647	16.631	4.1	0.	2.8733
7648	16.731	4.1	0.	3.911
7649	16.83	4.1	0.	4.9317
7650	16.93	4.1	0.	5.9369
7651	17.029	4.1	0.	6.9283
7652	17.129	4.1	0.	7.9077
7653	17.229	4.1	0.	8.8768
7654	17.328	4.1	0.	9.8373
7655	17.428	4.1	0.	10.791
7656	17.527	4.1	0.	11.74
7657	17.627	4.1	0.	12.685
7658	17.726	4.1	0.	13.628
7659	17.826	4.1	0.	14.572
7660	17.926	4.1	0.	15.517
7661	18.025	4.1	0.	16.466
7662	18.125	4.1	0.	17.42
7663	18.224	4.1	0.	18.38
7664	18.324	4.1	0.	19.349
7665	18.423	4.1	0.	20.328
7666	18.523	4.1	0.	21.32
7667	18.623	4.1	0.	22.325
7668	18.722	4.1	0.	23.346
7669	18.822	4.1	0.	24.384
7670	18.921	4.1	0.	25.442
7671	19.021	4.1	0.	26.521
7672	19.121	4.1	0.	27.623
7673	19.22	4.1	0.	28.75
7674	19.32	4.1	0.	29.904
7675	19.419	4.1	0.	31.087
7676	19.519	4.1	0.	32.302
7677	19.618	4.1	0.	33.55
7678	19.718	4.1	0.	34.834
7679	19.818	4.1	0.	36.156
7680	19.917	4.1	0.	37.518
7681	20.017	4.1	0.	38.923
7682	20.116	4.1	0.	40.374
7683	20.216	4.1	0.	41.872
7684	20.316	4.1	0.	43.421
7685	20.415	4.1	0.	45.023
7686	20.515	4.1	0.	46.682
7687	20.614	4.1	0.	48.4
7688	20.714	4.1	0.	50.181
7689	20.813	4.1	0.	52.027
7690	20.913	4.1	0.	53.942
7691	21.013	4.1	0.	55.929
7692	21.112	4.1	0.	57.993
7693	21.212	4.1	0.	60.137
7694	21.311	4.1	0.	62.364
7695	21.411	4.1	0.	64.679
7696	21.51	4.1	0.	67.087
7697	21.61	4.1	0.	69.59
7698	21.71	4.1	0.	72.195
7699	21.809	4.1	0.	74.906
7700	21.909	4.1	0.	77.727
7701	22.008	4.1	0.	80.664
7702	22.108	4.1	0.	83.721
7703	22.208	4.1	0.	86.905
7704	22.307	4.1	0.	90.219
7705	22.407	4.1	0.	93.669
7706	22.506	4.1	0.	97.26
7707	22.606	4.1	0.	101.
7708	22.705	4.1	0.	104.89
7709	22.805	4.1	0.	108.93
7710	22.905	4.1	0.	113.13
7711	23.004	4.1	0.	117.5
7712	23.104	4.1	0.	122.03
7713	23.203	4.1	0.	126.73
7714	23.303	4.1	0.	131.6
7715	23.403	4.1	0.	136.63
7716	23.502	4.1	0.	141.83
7717	23.602	4.1	0.	147.21
7718	23.701	4.1	0.	152.74
7719	23.801	4.1	0.	158.45
7720	23.9	4.1	0.	164.3
7721	8.2662	4.	0.	4050.9
7722	8.3658	4.	0.	1669.3
7723	8.4654	4.	0.	1002.9
7724	8.565	4.	0.	618.02
7725	8.6646	4.	0.	377.8
7726	8.7642	4.	0.	214.02
7727	8.8637	4.	0.	99.418
7728	8.9633	4.	0.	29.246
7729	9.0629	4.	0.	8.7801
7730	9.1625	4.	0.	4.3511
7731	9.2621	4.	0.	2.7074
7732	9.3616	4.	0.	1.8806
7733	9.4612	4.	0.	1.3913
7734	9.5608	4.	0.	1.0715
7735	9.6604	4.	0.	0.848
7736	9.76	4.	0.	0.68412
7737	9.8595	4.	0.	0.55961
7738	9.9591	4.	0.	0.46245
7739	10.059	4.	0.	0.38506
7740	10.158	4.	0.	0.32246
7741	10.258	4.	0.	0.27121
7742	10.357	4.	0.	0.22889
7743	10.457	4.	0.	0.19371
7744	10.557	4.	0.	0.16428
7745	10.656	4.	0.	0.13956
7746	10.756	4.	0.	0.11875
7747	10.855	4.	0.	0.10116
7748	10.955	4.	0.	8.6304e-002
7749	11.055	4.	0.	7.3727e-002
7750	11.154	4.	0.	6.3022e-002
7751	11.254	4.	0.	5.3941e-002
7752	11.353	4.	0.	4.6243e-002
7753	11.453	4.	0.	3.9698e-002
7754	11.552	4.	0.	3.4139e-002
7755	11.652	4.	0.	2.9409e-002
7756	11.752	4.	0.	2.538e-002
7757	11.851	4.	0.	2.1969e-002
7758	11.951	4.	0.	1.909e-002
7759	12.05	4.	0.	1.6638e-002
7760	12.15	4.	0.	1.4558e-002
7761	12.249	4.	0.	1.2792e-002
7762	12.349	4.	0.	1.1315e-002
7763	12.449	4.	0.	1.0077e-002
7764	12.548	4.	0.	9.0046e-003
7765	12.648	4.	0.	8.1082e-003
7766	12.747	4.	0.	7.3709e-003
7767	12.847	4.	0.	6.7539e-003
7768	12.947	4.	0.	6.2458e-003
7769	13.046	4.	0.	5.8243e-003
7770	13.146	4.	0.	5.4703e-003
7771	13.245	4.	0.	5.1963e-003
7772	13.345	4.	0.	4.9927e-003
7773	13.444	4.	0.	4.8295e-003
7774	13.544	4.	0.	4.7031e-003
7775	13.644	4.	0.	4.6142e-003
7776	13.743	4.	0.	4.5549e-003
7777	13.843	4.	0.	4.5306e-003
7778	13.942	4.	0.	4.537e-003
7779	14.042	4.	0.	4.5342e-003
7780	14.142	4.	0.	4.5533e-003
7781	14.241	4.	0.	4.5988e-003
7782	14.341	4.	0.	4.6539e-003
7783	14.44	4.	0.	4.7227e-003
7784	14.54	4.	0.	4.7975e-003
7785	14.639	4.	0.	4.8745e-003
7786	14.739	4.	0.	4.9712e-003
7787	14.839	4.	0.	5.0855e-003
7788	14.938	4.	0.	5.2026e-003
7789	15.038	4.	0.	5.3241e-003
7790	15.137	4.	0.	5.4547e-003
7791	15.237	4.	0.	5.6041e-003
7792	15.336	4.	0.	5.7725e-003
7793	15.436	4.	0.	5.9295e-003
7794	15.536	4.	0.	6.1143e-003
7795	15.635	4.	0.	6.3303e-003
7796	15.735	4.	0.	6.5814e-003
7797	15.834	4.	0.	6.8902e-003
7798	15.934	4.	0.	7.2848e-003
7799	16.034	4.	0.	7.8283e-003
7800	16.133	4.	0.	8.7105e-003
7801	16.233	4.	0.	1.0488e-002
7802	16.332	4.	0.	1.657e-002
7803	16.432	4.	0.	0.312
7804	16.531	4.	0.	1.3999
7805	16.631	4.	0.	2.4859
7806	16.731	4.	0.	3.5535
7807	16.83	4.	0.	4.6035
7808	16.93	4.	0.	5.6373
7809	17.029	4.	0.	6.6568
7810	17.129	4.	0.	7.6639
7811	17.229	4.	0.	8.6603
7812	17.328	4.	0.	9.6478
7813	17.428	4.	0.	10.628
7814	17.527	4.	0.	11.603
7815	17.627	4.	0.	12.575
7816	17.726	4.	0.	13.545
7817	17.826	4.	0.	14.515
7818	17.926	4.	0.	15.487
7819	18.025	4.	0.	16.463
7820	18.125	4.	0.	17.443
7821	18.224	4.	0.	18.431
7822	18.324	4.	0.	19.428
7823	18.423	4.	0.	20.436
7824	18.523	4.	0.	21.456
7825	18.623	4.	0.	22.491
7826	18.722	4.	0.	23.541
7827	18.822	4.	0.	24.611
7828	18.921	4.	0.	25.7
7829	19.021	4.	0.	26.811
7830	19.121	4.	0.	27.947
7831	19.22	4.	0.	29.108
7832	19.32	4.	0.	30.298
7833	19.419	4.	0.	31.518
7834	19.519	4.	0.	32.771
7835	19.618	4.	0.	34.058
7836	19.718	4.	0.	35.383
7837	19.818	4.	0.	36.747
7838	19.917	4.	0.	38.154
7839	20.017	4.	0.	39.604
7840	20.116	4.	0.	41.102
7841	20.216	4.	0.	42.65
7842	20.316	4.	0.	44.25
7843	20.415	4.	0.	45.905
7844	20.515	4.	0.	47.619
7845	20.614	4.	0.	49.394
7846	20.714	4.	0.	51.233
7847	20.813	4.	0.	53.141
7848	20.913	4.	0.	55.12
7849	21.013	4.	0.	57.173
7850	21.112	4.	0.	59.305
7851	21.212	4.	0.	61.519
7852	21.311	4.	0.	63.819
7853	21.411	4.	0.	66.209
7854	21.51	4.	0.	68.693
7855	21.61	4.	0.	71.275
7856	21.71	4.	0.	73.96
7857	21.809	4.	0.	76.753
7858	21.909	4.	0.	79.657
7859	22.008	4.	0.	82.678
7860	22.108	4.	0.	85.82
7861	22.208	4.	0.	89.088
7862	22.307	4.	0.	92.487
7863	22.407	4.	0.	96.021
7864	22.506	4.	0.	99.694
7865	22.606	4.	0.	103.51
7866	22.705	4.	0.	107.48
7867	22.805	4.	0.	111.6
7868	22.905	4.	0.	115.87
7869	23.004	4.	0.	120.3
7870	23.104	4.	0.	124.89
7871	23.203	4.	0.	129.64
7872	23.303	4.	0.	134.55
7873	23.403	4.	0.	139.63
7874	23.502	4.	0.	144.86
7875	23.602	4.	0.	150.26
7876	23.701	4.	0.	155.81
7877	23.801	4.	0.	161.53
7878	23.9	4.	0.	167.38
7879	8.2662	3.9	0.	1638.4
7880	8.3658	3.9	0.	1143.6
7881	8.4654	3.9	0.	707.65
7882	8.565	3.9	0.	442.68
7883	8.6646	3.9	0.	257.46
7884	8.7642	3.9	0.	125.84
7885	8.8637	3.9	0.	37.553
7886	8.9633	3.9	0.	9.0179
7887	9.0629	3.9	0.	4.2685
7888	9.1625	3.9	0.	2.6647
7889	9.2621	3.9	0.	1.8684
7890	9.3616	3.9	0.	1.3964
7891	9.4612	3.9	0.	1.0855
7892	9.5608	3.9	0.	0.86632
7893	9.6604	3.9	0.	0.70414
7894	9.76	3.9	0.	0.5798
7895	9.8595	3.9	0.	0.48192
7896	9.9591	3.9	0.	0.40331
7897	10.059	3.9	0.	0.3392
7898	10.158	3.9	0.	0.28634
7899	10.258	3.9	0.	0.24237
7900	10.357	3.9	0.	0.20559
7901	10.457	3.9	0.	0.17468
7902	10.557	3.9	0.	0.14859
7903	10.656	3.9	0.	0.12652
7904	10.756	3.9	0.	0.10782
7905	10.855	3.9	0.	9.1943e-002
7906	10.955	3.9	0.	7.847e-002
7907	11.055	3.9	0.	6.703e-002
7908	11.154	3.9	0.	5.7263e-002
7909	11.254	3.9	0.	4.8962e-002
7910	11.353	3.9	0.	4.1916e-002
7911	11.453	3.9	0.	3.592e-002
7912	11.552	3.9	0.	3.0825e-002
7913	11.652	3.9	0.	2.6491e-002
7914	11.752	3.9	0.	2.2801e-002
7915	11.851	3.9	0.	1.9695e-002
7916	11.951	3.9	0.	1.7053e-002
7917	12.05	3.9	0.	1.4821e-002
7918	12.15	3.9	0.	1.2932e-002
7919	12.249	3.9	0.	1.1337e-002
7920	12.349	3.9	0.	1.0006e-002
7921	12.449	3.9	0.	8.8998e-003
7922	12.548	3.9	0.	7.9445e-003
7923	12.648	3.9	0.	7.1514e-003
7924	12.747	3.9	0.	6.5071e-003
7925	12.847	3.9	0.	5.9739e-003
7926	12.947	3.9	0.	5.5408e-003
7927	13.046	3.9	0.	5.1869e-003
7928	13.146	3.9	0.	4.8935e-003
7929	13.245	3.9	0.	4.6756e-003
7930	13.345	3.9	0.	4.5212e-003
7931	13.444	3.9	0.	4.4042e-003
7932	13.544	3.9	0.	4.3191e-003
7933	13.644	3.9	0.	4.2682e-003
7934	13.743	3.9	0.	4.2404e-003
7935	13.843	3.9	0.	4.2486e-003
7936	13.942	3.9	0.	4.283e-003
7937	14.042	3.9	0.	4.3058e-003
7938	14.142	3.9	0.	4.347e-003
7939	14.241	3.9	0.	4.4129e-003
7940	14.341	3.9	0.	4.4877e-003
7941	14.44	3.9	0.	4.572e-003
7942	14.54	3.9	0.	4.6624e-003
7943	14.639	3.9	0.	4.7509e-003
7944	14.739	3.9	0.	4.8588e-003
7945	14.839	3.9	0.	4.983e-003
7946	14.938	3.9	0.	5.106e-003
7947	15.038	3.9	0.	5.2329e-003
7948	15.137	3.9	0.	5.3646e-003
7949	15.237	3.9	0.	5.515e-003
7950	15.336	3.9	0.	5.6788e-003
7951	15.436	3.9	0.	5.828e-003
7952	15.536	3.9	0.	5.9994e-003
7953	15.635	3.9	0.	6.1949e-003
7954	15.735	3.9	0.	6.4173e-003
7955	15.834	3.9	0.	6.6787e-003
7956	15.934	3.9	0.	6.9959e-003
7957	16.034	3.9	0.	7.4087e-003
7958	16.133	3.9	0.	8.0339e-003
7959	16.233	3.9	0.	9.1518e-003
7960	16.332	3.9	0.	1.2031e-002
7961	16.432	3.9	0.	4.9142e-002
7962	16.531	3.9	0.	1.0201
7963	16.631	3.9	0.	2.1335
7964	16.731	3.9	0.	3.2286
7965	16.83	3.9	0.	4.3054
7966	16.93	3.9	0.	5.3655
7967	17.029	3.9	0.	6.4109
7968	17.129	3.9	0.	7.4433
7969	17.229	3.9	0.	8.4648
7970	17.328	3.9	0.	9.4771
7971	17.428	3.9	0.	10.482
7972	17.527	3.9	0.	11.482
7973	17.627	3.9	0.	12.478
7974	17.726	3.9	0.	13.472
7975	17.826	3.9	0.	14.466
7976	17.926	3.9	0.	15.463
7977	18.025	3.9	0.	16.463
7978	18.125	3.9	0.	17.468
7979	18.224	3.9	0.	18.481
7980	18.324	3.9	0.	19.504
7981	18.423	3.9	0.	20.537
7982	18.523	3.9	0.	21.584
7983	18.623	3.9	0.	22.645
7984	18.722	3.9	0.	23.724
7985	18.822	3.9	0.	24.821
7986	18.921	3.9	0.	25.94
7987	19.021	3.9	0.	27.081
7988	19.121	3.9	0.	28.247
7989	19.22	3.9	0.	29.44
7990	19.32	3.9	0.	30.662
7991	19.419	3.9	0.	31.916
7992	19.519	3.9	0.	33.204
7993	19.618	3.9	0.	34.528
7994	19.718	3.9	0.	35.89
7995	19.818	3.9	0.	37.293
7996	19.917	3.9	0.	38.739
7997	20.017	3.9	0.	40.232
7998	20.116	3.9	0.	41.773
7999	20.216	3.9	0.	43.365
8000	20.316	3.9	0.	45.012
8001	20.415	3.9	0.	46.716
8002	20.515	3.9	0.	48.48
8003	20.614	3.9	0.	50.307
8004	20.714	3.9	0.	52.201
8005	20.813	3.9	0.	54.164
8006	20.913	3.9	0.	56.201
8007	21.013	3.9	0.	58.314
8008	21.112	3.9	0.	60.508
8009	21.212	3.9	0.	62.785
8010	21.311	3.9	0.	65.151
8011	21.411	3.9	0.	67.608
8012	21.51	3.9	0.	70.162
8013	21.61	3.9	0.	72.815
8014	21.71	3.9	0.	75.572
8015	21.809	3.9	0.	78.438
8016	21.909	3.9	0.	81.416
8017	22.008	3.9	0.	84.512
8018	22.108	3.9	0.	87.729
8019	22.208	3.9	0.	91.073
8020	22.307	3.9	0.	94.546
8021	22.407	3.9	0.	98.153
8022	22.506	3.9	0.	101.9
8023	22.606	3.9	0.	105.79
8024	22.705	3.9	0.	109.82
8025	22.805	3.9	0.	114.
8026	22.905	3.9	0.	118.33
8027	23.004	3.9	0.	122.82
8028	23.104	3.9	0.	127.46
8029	23.203	3.9	0.	132.26
8030	23.303	3.9	0.	137.21
8031	23.403	3.9	0.	142.32
8032	23.502	3.9	0.	147.58
8033	23.602	3.9	0.	153.
8034	23.701	3.9	0.	158.56
8035	23.801	3.9	0.	164.29
8036	23.9	3.9	0.	170.14
8037	8.2662	3.8	0.	1217.
8038	8.3658	3.8	0.	880.23
8039	8.4654	3.8	0.	580.13
8040	8.565	3.8	0.	355.01
8041	8.6646	3.8	0.	191.59
8042	8.7642	3.8	0.	72.186
8043	8.8637	3.8	0.	10.509
8044	8.9633	3.8	0.	4.0699
8045	9.0629	3.8	0.	2.552
8046	9.1625	3.8	0.	1.8263
8047	9.2621	3.8	0.	1.3897
8048	9.3616	3.8	0.	1.0965
8049	9.4612	3.8	0.	0.8858
8050	9.5608	3.8	0.	0.72721
8051	9.6604	3.8	0.	0.60376
8052	9.76	3.8	0.	0.50524
8053	9.8595	3.8	0.	0.4252
8054	9.9591	3.8	0.	0.35926
8055	10.059	3.8	0.	0.30439
8056	10.158	3.8	0.	0.2584
8057	10.258	3.8	0.	0.21965
8058	10.357	3.8	0.	0.1869
8059	10.457	3.8	0.	0.15915
8060	10.557	3.8	0.	0.13558
8061	10.656	3.8	0.	0.11553
8062	10.756	3.8	0.	9.8467e-002
8063	10.855	3.8	0.	8.3937e-002
8064	10.955	3.8	0.	7.158e-002
8065	11.055	3.8	0.	6.1068e-002
8066	11.154	3.8	0.	5.2081e-002
8067	11.254	3.8	0.	4.4438e-002
8068	11.353	3.8	0.	3.795e-002
8069	11.453	3.8	0.	3.2431e-002
8070	11.552	3.8	0.	2.7744e-002
8071	11.652	3.8	0.	2.3762e-002
8072	11.752	3.8	0.	2.0376e-002
8073	11.851	3.8	0.	1.7523e-002
8074	11.951	3.8	0.	1.5125e-002
8075	12.05	3.8	0.	1.3097e-002
8076	12.15	3.8	0.	1.1385e-002
8077	12.249	3.8	0.	9.9467e-003
8078	12.349	3.8	0.	8.7574e-003
8079	12.449	3.8	0.	7.7733e-003
8080	12.548	3.8	0.	6.9288e-003
8081	12.648	3.8	0.	6.2362e-003
8082	12.747	3.8	0.	5.6813e-003
8083	12.847	3.8	0.	5.2244e-003
8084	12.947	3.8	0.	4.8662e-003
8085	13.046	3.8	0.	4.576e-003
8086	13.146	3.8	0.	4.3417e-003
8087	13.245	3.8	0.	4.1764e-003
8088	13.345	3.8	0.	4.0703e-003
8089	13.444	3.8	0.	3.9966e-003
8090	13.544	3.8	0.	3.9507e-003
8091	13.644	3.8	0.	3.9354e-003
8092	13.743	3.8	0.	3.9414e-003
8093	13.843	3.8	0.	3.979e-003
8094	13.942	3.8	0.	4.0388e-003
8095	14.042	3.8	0.	4.0865e-003
8096	14.142	3.8	0.	4.1514e-003
8097	14.241	3.8	0.	4.2371e-003
8098	14.341	3.8	0.	4.3286e-003
8099	14.44	3.8	0.	4.429e-003
8100	14.54	3.8	0.	4.5335e-003
8101	14.639	3.8	0.	4.6352e-003
8102	14.739	3.8	0.	4.7527e-003
8103	14.839	3.8	0.	4.8853e-003
8104	14.938	3.8	0.	5.0156e-003
8105	15.038	3.8	0.	5.1483e-003
8106	15.137	3.8	0.	5.2841e-003
8107	15.237	3.8	0.	5.4347e-003
8108	15.336	3.8	0.	5.5972e-003
8109	15.436	3.8	0.	5.741e-003
8110	15.536	3.8	0.	5.9045e-003
8111	15.635	3.8	0.	6.085e-003
8112	15.735	3.8	0.	6.2842e-003
8113	15.834	3.8	0.	6.513e-003
8114	15.934	3.8	0.	6.7784e-003
8115	16.034	3.8	0.	7.1026e-003
8116	16.133	3.8	0.	7.5675e-003
8117	16.233	3.8	0.	8.3211e-003
8118	16.332	3.8	0.	9.9466e-003
8119	16.432	3.8	0.	1.8327e-002
8120	16.531	3.8	0.	0.67927
8121	16.631	3.8	0.	1.8165
8122	16.731	3.8	0.	2.9365
8123	16.83	3.8	0.	4.0378
8124	16.93	3.8	0.	5.1218
8125	17.029	3.8	0.	6.1906
8126	17.129	3.8	0.	7.246
8127	17.229	3.8	0.	8.2902
8128	17.328	3.8	0.	9.3249
8129	17.428	3.8	0.	10.352
8130	17.527	3.8	0.	11.374
8131	17.627	3.8	0.	12.392
8132	17.726	3.8	0.	13.408
8133	17.826	3.8	0.	14.424
8134	17.926	3.8	0.	15.443
8135	18.025	3.8	0.	16.465
8136	18.125	3.8	0.	17.493
8137	18.224	3.8	0.	18.529
8138	18.324	3.8	0.	19.575
8139	18.423	3.8	0.	20.632
8140	18.523	3.8	0.	21.702
8141	18.623	3.8	0.	22.788
8142	18.722	3.8	0.	23.892
8143	18.822	3.8	0.	25.015
8144	18.921	3.8	0.	26.159
8145	19.021	3.8	0.	27.327
8146	19.121	3.8	0.	28.521
8147	19.22	3.8	0.	29.743
8148	19.32	3.8	0.	30.995
8149	19.419	3.8	0.	32.28
8150	19.519	3.8	0.	33.599
8151	19.618	3.8	0.	34.955
8152	19.718	3.8	0.	36.351
8153	19.818	3.8	0.	37.789
8154	19.917	3.8	0.	39.272
8155	20.017	3.8	0.	40.802
8156	20.116	3.8	0.	42.383
8157	20.216	3.8	0.	44.016
8158	20.316	3.8	0.	45.705
8159	20.415	3.8	0.	47.452
8160	20.515	3.8	0.	49.261
8161	20.614	3.8	0.	51.136
8162	20.714	3.8	0.	53.078
8163	20.813	3.8	0.	55.092
8164	20.913	3.8	0.	57.181
8165	21.013	3.8	0.	59.348
8166	21.112	3.8	0.	61.597
8167	21.212	3.8	0.	63.932
8168	21.311	3.8	0.	66.356
8169	21.411	3.8	0.	68.873
8170	21.51	3.8	0.	71.488
8171	21.61	3.8	0.	74.204
8172	21.71	3.8	0.	77.026
8173	21.809	3.8	0.	79.956
8174	21.909	3.8	0.	83.001
8175	22.008	3.8	0.	86.162
8176	22.108	3.8	0.	89.446
8177	22.208	3.8	0.	92.855
8178	22.307	3.8	0.	96.393
8179	22.407	3.8	0.	100.06
8180	22.506	3.8	0.	103.87
8181	22.606	3.8	0.	107.82
8182	22.705	3.8	0.	111.91
8183	22.805	3.8	0.	116.15
8184	22.905	3.8	0.	120.53
8185	23.004	3.8	0.	125.07
8186	23.104	3.8	0.	129.75
8187	23.203	3.8	0.	134.59
8188	23.303	3.8	0.	139.57
8189	23.403	3.8	0.	144.71
8190	23.502	3.8	0.	150.
8191	23.602	3.8	0.	155.43
8192	23.701	3.8	0.	161.01
8193	23.801	3.8	0.	166.74
8194	23.9	3.8	0.	172.58
8195	8.2662	3.7	0.	1095.5
8196	8.3658	3.7	0.	820.17
8197	8.4654	3.7	0.	553.42
8198	8.565	3.7	0.	338.7
8199	8.6646	3.7	0.	175.
8200	8.7642	3.7	0.	52.209
8201	8.8637	3.7	0.	4.1025
8202	8.9633	3.7	0.	2.4263
8203	9.0629	3.7	0.	1.7869
8204	9.1625	3.7	0.	1.394
8205	9.2621	3.7	0.	1.1207
8206	9.3616	3.7	0.	0.91827
8207	9.4612	3.7	0.	0.76216
8208	9.5608	3.7	0.	0.63823
8209	9.6604	3.7	0.	0.5377
8210	9.76	3.7	0.	0.45488
8211	9.8595	3.7	0.	0.3859
8212	9.9591	3.7	0.	0.32797
8213	10.059	3.7	0.	0.27904
8214	10.158	3.7	0.	0.23756
8215	10.258	3.7	0.	0.2023
8216	10.357	3.7	0.	0.17231
8217	10.457	3.7	0.	0.14678
8218	10.557	3.7	0.	0.125
8219	10.656	3.7	0.	0.10644
8220	10.756	3.7	0.	9.0606e-002
8221	10.855	3.7	0.	7.7109e-002
8222	10.955	3.7	0.	6.5625e-002
8223	11.055	3.7	0.	5.5855e-002
8224	11.154	3.7	0.	4.7502e-002
8225	11.254	3.7	0.	4.0403e-002
8226	11.353	3.7	0.	3.4383e-002
8227	11.453	3.7	0.	2.9271e-002
8228	11.552	3.7	0.	2.4938e-002
8229	11.652	3.7	0.	2.1264e-002
8230	11.752	3.7	0.	1.8146e-002
8231	11.851	3.7	0.	1.5529e-002
8232	11.951	3.7	0.	1.334e-002
8233	12.05	3.7	0.	1.1495e-002
8234	12.15	3.7	0.	9.9464e-003
8235	12.249	3.7	0.	8.6522e-003
8236	12.349	3.7	0.	7.5897e-003
8237	12.449	3.7	0.	6.7228e-003
8238	12.548	3.7	0.	5.9803e-003
8239	12.648	3.7	0.	5.38e-003
8240	12.747	3.7	0.	4.906e-003
8241	12.847	3.7	0.	4.5266e-003
8242	12.947	3.7	0.	4.2337e-003
8243	13.046	3.7	0.	4.0046e-003
8244	13.146	3.7	0.	3.826e-003
8245	13.245	3.7	0.	3.7095e-003
8246	13.345	3.7	0.	3.6487e-003
8247	13.444	3.7	0.	3.6152e-003
8248	13.544	3.7	0.	3.6069e-003
8249	13.644	3.7	0.	3.6251e-003
8250	13.743	3.7	0.	3.6616e-003
8251	13.843	3.7	0.	3.7268e-003
8252	13.942	3.7	0.	3.8132e-003
8253	14.042	3.7	0.	3.8824e-003
8254	14.142	3.7	0.	3.9672e-003
8255	14.241	3.7	0.	4.0711e-003
8256	14.341	3.7	0.	4.1802e-003
8257	14.44	3.7	0.	4.2964e-003
8258	14.54	3.7	0.	4.4131e-003
8259	14.639	3.7	0.	4.5257e-003
8260	14.739	3.7	0.	4.6545e-003
8261	14.839	3.7	0.	4.7961e-003
8262	14.938	3.7	0.	4.9322e-003
8263	15.038	3.7	0.	5.0709e-003
8264	15.137	3.7	0.	5.2099e-003
8265	15.237	3.7	0.	5.3624e-003
8266	15.336	3.7	0.	5.526e-003
8267	15.436	3.7	0.	5.6673e-003
8268	15.536	3.7	0.	5.824e-003
8269	15.635	3.7	0.	5.9946e-003
8270	15.735	3.7	0.	6.1785e-003
8271	15.834	3.7	0.	6.3814e-003
8272	15.934	3.7	0.	6.6091e-003
8273	16.034	3.7	0.	6.8735e-003
8274	16.133	3.7	0.	7.2293e-003
8275	16.233	3.7	0.	7.7694e-003
8276	16.332	3.7	0.	8.7756e-003
8277	16.432	3.7	0.	1.2269e-002
8278	16.531	3.7	0.	0.37924
8279	16.631	3.7	0.	1.5355
8280	16.731	3.7	0.	2.6778
8281	16.83	3.7	0.	3.8009
8282	16.93	3.7	0.	4.9062
8283	17.029	3.7	0.	5.9959
8284	17.129	3.7	0.	7.0719
8285	17.229	3.7	0.	8.1363
8286	17.328	3.7	0.	9.191
8287	17.428	3.7	0.	10.238
8288	17.527	3.7	0.	11.279
8289	17.627	3.7	0.	12.317
8290	17.726	3.7	0.	13.353
8291	17.826	3.7	0.	14.389
8292	17.926	3.7	0.	15.427
8293	18.025	3.7	0.	16.469
8294	18.125	3.7	0.	17.518
8295	18.224	3.7	0.	18.574
8296	18.324	3.7	0.	19.64
8297	18.423	3.7	0.	20.718
8298	18.523	3.7	0.	21.81
8299	18.623	3.7	0.	22.918
8300	18.722	3.7	0.	24.043
8301	18.822	3.7	0.	25.189
8302	18.921	3.7	0.	26.357
8303	19.021	3.7	0.	27.549
8304	19.121	3.7	0.	28.768
8305	19.22	3.7	0.	30.015
8306	19.32	3.7	0.	31.294
8307	19.419	3.7	0.	32.605
8308	19.519	3.7	0.	33.953
8309	19.618	3.7	0.	35.338
8310	19.718	3.7	0.	36.765
8311	19.818	3.7	0.	38.234
8312	19.917	3.7	0.	39.749
8313	20.017	3.7	0.	41.313
8314	20.116	3.7	0.	42.928
8315	20.216	3.7	0.	44.598
8316	20.316	3.7	0.	46.324
8317	20.415	3.7	0.	48.11
8318	20.515	3.7	0.	49.96
8319	20.614	3.7	0.	51.876
8320	20.714	3.7	0.	53.861
8321	20.813	3.7	0.	55.92
8322	20.913	3.7	0.	58.055
8323	21.013	3.7	0.	60.269
8324	21.112	3.7	0.	62.567
8325	21.212	3.7	0.	64.953
8326	21.311	3.7	0.	67.429
8327	21.411	3.7	0.	69.999
8328	21.51	3.7	0.	72.668
8329	21.61	3.7	0.	75.439
8330	21.71	3.7	0.	78.317
8331	21.809	3.7	0.	81.304
8332	21.909	3.7	0.	84.406
8333	22.008	3.7	0.	87.625
8334	22.108	3.7	0.	90.966
8335	22.208	3.7	0.	94.432
8336	22.307	3.7	0.	98.027
8337	22.407	3.7	0.	101.75
8338	22.506	3.7	0.	105.62
8339	22.606	3.7	0.	109.62
8340	22.705	3.7	0.	113.76
8341	22.805	3.7	0.	118.04
8342	22.905	3.7	0.	122.47
8343	23.004	3.7	0.	127.04
8344	23.104	3.7	0.	131.76
8345	23.203	3.7	0.	136.63
8346	23.303	3.7	0.	141.64
8347	23.403	3.7	0.	146.8
8348	23.502	3.7	0.	152.11
8349	23.602	3.7	0.	157.56
8350	23.701	3.7	0.	163.15
8351	23.801	3.7	0.	168.89
8352	23.9	3.7	0.	174.73
8353	8.2662	3.6	0.	1022.
8354	8.3658	3.6	0.	790.92
8355	8.4654	3.6	0.	557.58
8356	8.565	3.6	0.	353.07
8357	8.6646	3.6	0.	187.38
8358	8.7642	3.6	0.	57.518
8359	8.8637	3.6	0.	2.3792
8360	8.9633	3.6	0.	1.7905
8361	9.0629	3.6	0.	1.4403
8362	9.1625	3.6	0.	1.1813
8363	9.2621	3.6	0.	0.98116
8364	9.3616	3.6	0.	0.82224
8365	9.4612	3.6	0.	0.69335
8366	9.5608	3.6	0.	0.58711
8367	9.6604	3.6	0.	0.49848
8368	9.76	3.6	0.	0.42392
8369	9.8595	3.6	0.	0.36084
8370	9.9591	3.6	0.	0.30728
8371	10.059	3.6	0.	0.26167
8372	10.158	3.6	0.	0.22278
8373	10.258	3.6	0.	0.18961
8374	10.357	3.6	0.	0.16133
8375	10.457	3.6	0.	0.13721
8376	10.557	3.6	0.	0.11664
8377	10.656	3.6	0.	9.9095e-002
8378	10.756	3.6	0.	8.4147e-002
8379	10.855	3.6	0.	7.1411e-002
8380	10.955	3.6	0.	6.0586e-002
8381	11.055	3.6	0.	5.1391e-002
8382	11.154	3.6	0.	4.3542e-002
8383	11.254	3.6	0.	3.6883e-002
8384	11.353	3.6	0.	3.1249e-002
8385	11.453	3.6	0.	2.6476e-002
8386	11.552	3.6	0.	2.2441e-002
8387	11.652	3.6	0.	1.903e-002
8388	11.752	3.6	0.	1.6122e-002
8389	11.851	3.6	0.	1.3735e-002
8390	11.951	3.6	0.	1.1728e-002
8391	12.05	3.6	0.	1.0045e-002
8392	12.15	3.6	0.	8.6412e-003
8393	12.249	3.6	0.	7.4769e-003
8394	12.349	3.6	0.	6.5307e-003
8395	12.449	3.6	0.	5.7662e-003
8396	12.548	3.6	0.	5.1165e-003
8397	12.648	3.6	0.	4.5991e-003
8398	12.747	3.6	0.	4.2011e-003
8399	12.847	3.6	0.	3.8894e-003
8400	12.947	3.6	0.	3.6571e-003
8401	13.046	3.6	0.	3.4835e-003
8402	13.146	3.6	0.	3.3543e-003
8403	13.245	3.6	0.	3.2839e-003
8404	13.345	3.6	0.	3.2643e-003
8405	13.444	3.6	0.	3.2677e-003
8406	13.544	3.6	0.	3.2936e-003
8407	13.644	3.6	0.	3.3419e-003
8408	13.743	3.6	0.	3.4064e-003
8409	13.843	3.6	0.	3.4965e-003
8410	13.942	3.6	0.	3.6051e-003
8411	14.042	3.6	0.	3.696e-003
8412	14.142	3.6	0.	3.7993e-003
8413	14.241	3.6	0.	3.9202e-003
8414	14.341	3.6	0.	4.0446e-003
8415	14.44	3.6	0.	4.1733e-003
8416	14.54	3.6	0.	4.3031e-003
8417	14.639	3.6	0.	4.427e-003
8418	14.739	3.6	0.	4.5645e-003
8419	14.839	3.6	0.	4.7147e-003
8420	14.938	3.6	0.	4.8572e-003
8421	15.038	3.6	0.	5.002e-003
8422	15.137	3.6	0.	5.1449e-003
8423	15.237	3.6	0.	5.2995e-003
8424	15.336	3.6	0.	5.4629e-003
8425	15.436	3.6	0.	5.6034e-003
8426	15.536	3.6	0.	5.7546e-003
8427	15.635	3.6	0.	5.9199e-003
8428	15.735	3.6	0.	6.0906e-003
8429	15.834	3.6	0.	6.2779e-003
8430	15.934	3.6	0.	6.4778e-003
8431	16.034	3.6	0.	6.6988e-003
8432	16.133	3.6	0.	6.9842e-003
8433	16.233	3.6	0.	7.3826e-003
8434	16.332	3.6	0.	8.0427e-003
8435	16.432	3.6	0.	9.8381e-003
8436	16.531	3.6	0.	0.13068
8437	16.631	3.6	0.	1.2908
8438	16.731	3.6	0.	2.4527
8439	16.83	3.6	0.	3.595
8440	16.93	3.6	0.	4.719
8441	17.029	3.6	0.	5.827
8442	17.129	3.6	0.	6.921
8443	17.229	3.6	0.	8.0031
8444	17.328	3.6	0.	9.0754
8445	17.428	3.6	0.	10.14
8446	17.527	3.6	0.	11.198
8447	17.627	3.6	0.	12.253
8448	17.726	3.6	0.	13.306
8449	17.826	3.6	0.	14.36
8450	17.926	3.6	0.	15.415
8451	18.025	3.6	0.	16.475
8452	18.125	3.6	0.	17.54
8453	18.224	3.6	0.	18.614
8454	18.324	3.6	0.	19.698
8455	18.423	3.6	0.	20.795
8456	18.523	3.6	0.	21.905
8457	18.623	3.6	0.	23.032
8458	18.722	3.6	0.	24.177
8459	18.822	3.6	0.	25.343
8460	18.921	3.6	0.	26.531
8461	19.021	3.6	0.	27.745
8462	19.121	3.6	0.	28.985
8463	19.22	3.6	0.	30.255
8464	19.32	3.6	0.	31.556
8465	19.419	3.6	0.	32.892
8466	19.519	3.6	0.	34.264
8467	19.618	3.6	0.	35.675
8468	19.718	3.6	0.	37.128
8469	19.818	3.6	0.	38.624
8470	19.917	3.6	0.	40.168
8471	20.017	3.6	0.	41.761
8472	20.116	3.6	0.	43.407
8473	20.216	3.6	0.	45.108
8474	20.316	3.6	0.	46.867
8475	20.415	3.6	0.	48.687
8476	20.515	3.6	0.	50.572
8477	20.614	3.6	0.	52.524
8478	20.714	3.6	0.	54.547
8479	20.813	3.6	0.	56.644
8480	20.913	3.6	0.	58.819
8481	21.013	3.6	0.	61.075
8482	21.112	3.6	0.	63.416
8483	21.212	3.6	0.	65.845
8484	21.311	3.6	0.	68.366
8485	21.411	3.6	0.	70.982
8486	21.51	3.6	0.	73.698
8487	21.61	3.6	0.	76.517
8488	21.71	3.6	0.	79.442
8489	21.809	3.6	0.	82.478
8490	21.909	3.6	0.	85.629
8491	22.008	3.6	0.	88.897
8492	22.108	3.6	0.	92.287
8493	22.208	3.6	0.	95.802
8494	22.307	3.6	0.	99.445
8495	22.407	3.6	0.	103.22
8496	22.506	3.6	0.	107.13
8497	22.606	3.6	0.	111.17
8498	22.705	3.6	0.	115.35
8499	22.805	3.6	0.	119.68
8500	22.905	3.6	0.	124.14
8501	23.004	3.6	0.	128.75
8502	23.104	3.6	0.	133.5
8503	23.203	3.6	0.	138.39
8504	23.303	3.6	0.	143.43
8505	23.403	3.6	0.	148.61
8506	23.502	3.6	0.	153.93
8507	23.602	3.6	0.	159.39
8508	23.701	3.6	0.	164.99
8509	23.801	3.6	0.	170.74
8510	23.9	3.6	0.	176.57
8511	8.2662	3.5	0.	961.84
8512	8.3658	3.5	0.	769.91
8513	8.4654	3.5	0.	565.2
8514	8.565	3.5	0.	374.21
8515	8.6646	3.5	0.	210.11
8516	8.7642	3.5	0.	75.668
8517	8.8637	3.5	0.	1.802
8518	8.9633	3.5	0.	1.5247
8519	9.0629	3.5	0.	1.2861
8520	9.1625	3.5	0.	1.0856
8521	9.2621	3.5	0.	0.91866
8522	9.3616	3.5	0.	0.77921
8523	9.4612	3.5	0.	0.66205
8524	9.5608	3.5	0.	0.56309
8525	9.6604	3.5	0.	0.47914
8526	9.76	3.5	0.	0.40771
8527	9.8595	3.5	0.	0.34687
8528	9.9591	3.5	0.	0.29499
8529	10.059	3.5	0.	0.25074
8530	10.158	3.5	0.	0.21299
8531	10.258	3.5	0.	0.18081
8532	10.357	3.5	0.	0.15341
8533	10.457	3.5	0.	0.13009
8534	10.557	3.5	0.	0.11024
8535	10.656	3.5	0.	9.3343e-002
8536	10.756	3.5	0.	7.8983e-002
8537	10.855	3.5	0.	6.678e-002
8538	10.955	3.5	0.	5.6436e-002
8539	11.055	3.5	0.	4.7672e-002
8540	11.154	3.5	0.	4.0208e-002
8541	11.254	3.5	0.	3.3895e-002
8542	11.353	3.5	0.	2.857e-002
8543	11.453	3.5	0.	2.4073e-002
8544	11.552	3.5	0.	2.0284e-002
8545	11.652	3.5	0.	1.7093e-002
8546	11.752	3.5	0.	1.4404e-002
8547	11.851	3.5	0.	1.2169e-002
8548	11.951	3.5	0.	1.0319e-002
8549	12.05	3.5	0.	8.7756e-003
8550	12.15	3.5	0.	7.496e-003
8551	12.249	3.5	0.	6.4443e-003
8552	12.349	3.5	0.	5.5985e-003
8553	12.449	3.5	0.	4.9243e-003
8554	12.548	3.5	0.	4.3556e-003
8555	12.648	3.5	0.	3.9118e-003
8556	12.747	3.5	0.	3.5795e-003
8557	12.847	3.5	0.	3.3273e-003
8558	12.947	3.5	0.	3.1492e-003
8559	13.046	3.5	0.	3.024e-003
8560	13.146	3.5	0.	2.9387e-003
8561	13.245	3.5	0.	2.9083e-003
8562	13.345	3.5	0.	2.9246e-003
8563	13.444	3.5	0.	2.961e-003
8564	13.544	3.5	0.	3.0179e-003
8565	13.644	3.5	0.	3.0922e-003
8566	13.743	3.5	0.	3.1806e-003
8567	13.843	3.5	0.	3.2937e-003
8568	13.942	3.5	0.	3.4238e-003
8569	14.042	3.5	0.	3.5315e-003
8570	14.142	3.5	0.	3.6511e-003
8571	14.241	3.5	0.	3.7879e-003
8572	14.341	3.5	0.	3.9257e-003
8573	14.44	3.5	0.	4.0668e-003
8574	14.54	3.5	0.	4.2063e-003
8575	14.639	3.5	0.	4.3399e-003
8576	14.739	3.5	0.	4.4861e-003
8577	14.839	3.5	0.	4.6424e-003
8578	14.938	3.5	0.	4.7925e-003
8579	15.038	3.5	0.	4.9412e-003
8580	15.137	3.5	0.	5.0886e-003
8581	15.237	3.5	0.	5.2447e-003
8582	15.336	3.5	0.	5.4101e-003
8583	15.436	3.5	0.	5.549e-003
8584	15.536	3.5	0.	5.6993e-003
8585	15.635	3.5	0.	5.8577e-003
8586	15.735	3.5	0.	6.0227e-003
8587	15.834	3.5	0.	6.1949e-003
8588	15.934	3.5	0.	6.376e-003
8589	16.034	3.5	0.	6.5665e-003
8590	16.133	3.5	0.	6.8009e-003
8591	16.233	3.5	0.	7.1067e-003
8592	16.332	3.5	0.	7.5604e-003
8593	16.432	3.5	0.	8.575e-003
8594	16.531	3.5	0.	2.3901e-002
8595	16.631	3.5	0.	1.0829
8596	16.731	3.5	0.	2.2617
8597	16.83	3.5	0.	3.4203
8598	16.93	3.5	0.	4.5603
8599	17.029	3.5	0.	5.684
8600	17.129	3.5	0.	6.7933
8601	17.229	3.5	0.	7.8906
8602	17.328	3.5	0.	8.9778
8603	17.428	3.5	0.	10.057
8604	17.527	3.5	0.	11.13
8605	17.627	3.5	0.	12.2
8606	17.726	3.5	0.	13.268
8607	17.826	3.5	0.	14.335
8608	17.926	3.5	0.	15.406
8609	18.025	3.5	0.	16.48
8610	18.125	3.5	0.	17.561
8611	18.224	3.5	0.	18.65
8612	18.324	3.5	0.	19.749
8613	18.423	3.5	0.	20.861
8614	18.523	3.5	0.	21.988
8615	18.623	3.5	0.	23.131
8616	18.722	3.5	0.	24.293
8617	18.822	3.5	0.	25.475
8618	18.921	3.5	0.	26.681
8619	19.021	3.5	0.	27.913
8620	19.121	3.5	0.	29.171
8621	19.22	3.5	0.	30.46
8622	19.32	3.5	0.	31.781
8623	19.419	3.5	0.	33.137
8624	19.519	3.5	0.	34.53
8625	19.618	3.5	0.	35.963
8626	19.718	3.5	0.	37.438
8627	19.818	3.5	0.	38.958
8628	19.917	3.5	0.	40.526
8629	20.017	3.5	0.	42.144
8630	20.116	3.5	0.	43.816
8631	20.216	3.5	0.	45.543
8632	20.316	3.5	0.	47.33
8633	20.415	3.5	0.	49.179
8634	20.515	3.5	0.	51.094
8635	20.614	3.5	0.	53.077
8636	20.714	3.5	0.	55.132
8637	20.813	3.5	0.	57.262
8638	20.913	3.5	0.	59.471
8639	21.013	3.5	0.	61.762
8640	21.112	3.5	0.	64.139
8641	21.212	3.5	0.	66.605
8642	21.311	3.5	0.	69.164
8643	21.411	3.5	0.	71.819
8644	21.51	3.5	0.	74.574
8645	21.61	3.5	0.	77.433
8646	21.71	3.5	0.	80.399
8647	21.809	3.5	0.	83.476
8648	21.909	3.5	0.	86.668
8649	22.008	3.5	0.	89.977
8650	22.108	3.5	0.	93.408
8651	22.208	3.5	0.	96.963
8652	22.307	3.5	0.	100.65
8653	22.407	3.5	0.	104.46
8654	22.506	3.5	0.	108.4
8655	22.606	3.5	0.	112.48
8656	22.705	3.5	0.	116.7
8657	22.805	3.5	0.	121.06
8658	22.905	3.5	0.	125.55
8659	23.004	3.5	0.	130.19
8660	23.104	3.5	0.	134.96
8661	23.203	3.5	0.	139.88
8662	23.303	3.5	0.	144.94
8663	23.403	3.5	0.	150.13
8664	23.502	3.5	0.	155.47
8665	23.602	3.5	0.	160.94
8666	23.701	3.5	0.	166.54
8667	23.801	3.5	0.	172.29
8668	23.9	3.5	0.	178.13
8669	8.2662	3.4	0.	913.28
8670	8.3658	3.4	0.	750.84
8671	8.4654	3.4	0.	570.06
8672	8.565	3.4	0.	392.81
8673	8.6646	3.4	0.	233.07
8674	8.7642	3.4	0.	96.832
8675	8.8637	3.4	0.	1.5843
8676	8.9633	3.4	0.	1.3909
8677	9.0629	3.4	0.	1.2129
8678	9.1625	3.4	0.	1.0463
8679	9.2621	3.4	0.	0.89733
8680	9.3616	3.4	0.	0.76687
8681	9.4612	3.4	0.	0.65388
8682	9.5608	3.4	0.	0.5566
8683	9.6604	3.4	0.	0.47316
8684	9.76	3.4	0.	0.40176
8685	9.8595	3.4	0.	0.34082
8686	9.9591	3.4	0.	0.28888
8687	10.059	3.4	0.	0.24466
8688	10.158	3.4	0.	0.20705
8689	10.258	3.4	0.	0.1751
8690	10.357	3.4	0.	0.14799
8691	10.457	3.4	0.	0.12501
8692	10.557	3.4	0.	0.10552
8693	10.656	3.4	0.	8.8992e-002
8694	10.756	3.4	0.	7.4997e-002
8695	10.855	3.4	0.	6.3146e-002
8696	10.955	3.4	0.	5.3132e-002
8697	11.055	3.4	0.	4.4679e-002
8698	11.154	3.4	0.	3.7501e-002
8699	11.254	3.4	0.	3.145e-002
8700	11.353	3.4	0.	2.6365e-002
8701	11.453	3.4	0.	2.2084e-002
8702	11.552	3.4	0.	1.8492e-002
8703	11.652	3.4	0.	1.5476e-002
8704	11.752	3.4	0.	1.2948e-002
8705	11.851	3.4	0.	1.0855e-002
8706	11.951	3.4	0.	9.1333e-003
8707	12.05	3.4	0.	7.7058e-003
8708	12.15	3.4	0.	6.5313e-003
8709	12.249	3.4	0.	5.5725e-003
8710	12.349	3.4	0.	4.8106e-003
8711	12.449	3.4	0.	4.2135e-003
8712	12.548	3.4	0.	3.7129e-003
8713	12.648	3.4	0.	3.3304e-003
8714	12.747	3.4	0.	3.0537e-003
8715	12.847	3.4	0.	2.8518e-003
8716	12.947	3.4	0.	2.7191e-003
8717	13.046	3.4	0.	2.6349e-003
8718	13.146	3.4	0.	2.5867e-003
8719	13.245	3.4	0.	2.5904e-003
8720	13.345	3.4	0.	2.6378e-003
8721	13.444	3.4	0.	2.7018e-003
8722	13.544	3.4	0.	2.7829e-003
8723	13.644	3.4	0.	2.8814e-003
8724	13.743	3.4	0.	2.9904e-003
8725	13.843	3.4	0.	3.1232e-003
8726	13.942	3.4	0.	3.2685e-003
8727	14.042	3.4	0.	3.3928e-003
8728	14.142	3.4	0.	3.5269e-003
8729	14.241	3.4	0.	3.6752e-003
8730	14.341	3.4	0.	3.8239e-003
8731	14.44	3.4	0.	3.9763e-003
8732	14.54	3.4	0.	4.1253e-003
8733	14.639	3.4	0.	4.2675e-003
8734	14.739	3.4	0.	4.4204e-003
8735	14.839	3.4	0.	4.5834e-003
8736	14.938	3.4	0.	4.7381e-003
8737	15.038	3.4	0.	4.8906e-003
8738	15.137	3.4	0.	5.0414e-003
8739	15.237	3.4	0.	5.2009e-003
8740	15.336	3.4	0.	5.3658e-003
8741	15.436	3.4	0.	5.5061e-003
8742	15.536	3.4	0.	5.6534e-003
8743	15.635	3.4	0.	5.8096e-003
8744	15.735	3.4	0.	5.9673e-003
8745	15.834	3.4	0.	6.1313e-003
8746	15.934	3.4	0.	6.2973e-003
8747	16.034	3.4	0.	6.4668e-003
8748	16.133	3.4	0.	6.6649e-003
8749	16.233	3.4	0.	6.9097e-003
8750	16.332	3.4	0.	7.2322e-003
8751	16.432	3.4	0.	7.8335e-003
8752	16.531	3.4	0.	1.1993e-002
8753	16.631	3.4	0.	0.9122
8754	16.731	3.4	0.	2.1049
8755	16.83	3.4	0.	3.277
8756	16.93	3.4	0.	4.4303
8757	17.029	3.4	0.	5.5668
8758	17.129	3.4	0.	6.6888
8759	17.229	3.4	0.	7.7985
8760	17.328	3.4	0.	8.898
8761	17.428	3.4	0.	9.9895
8762	17.527	3.4	0.	11.075
8763	17.627	3.4	0.	12.157
8764	17.726	3.4	0.	13.236
8765	17.826	3.4	0.	14.316
8766	17.926	3.4	0.	15.399
8767	18.025	3.4	0.	16.485
8768	18.125	3.4	0.	17.578
8769	18.224	3.4	0.	18.68
8770	18.324	3.4	0.	19.792
8771	18.423	3.4	0.	20.917
8772	18.523	3.4	0.	22.056
8773	18.623	3.4	0.	23.213
8774	18.722	3.4	0.	24.388
8775	18.822	3.4	0.	25.585
8776	18.921	3.4	0.	26.805
8777	19.021	3.4	0.	28.052
8778	19.121	3.4	0.	29.326
8779	19.22	3.4	0.	30.63
8780	19.32	3.4	0.	31.968
8781	19.419	3.4	0.	33.34
8782	19.519	3.4	0.	34.751
8783	19.618	3.4	0.	36.201
8784	19.718	3.4	0.	37.695
8785	19.818	3.4	0.	39.234
8786	19.917	3.4	0.	40.822
8787	20.017	3.4	0.	42.46
8788	20.116	3.4	0.	44.153
8789	20.216	3.4	0.	45.903
8790	20.316	3.4	0.	47.713
8791	20.415	3.4	0.	49.586
8792	20.515	3.4	0.	51.525
8793	20.614	3.4	0.	53.533
8794	20.714	3.4	0.	55.614
8795	20.813	3.4	0.	57.772
8796	20.913	3.4	0.	60.008
8797	21.013	3.4	0.	62.328
8798	21.112	3.4	0.	64.734
8799	21.212	3.4	0.	67.23
8800	21.311	3.4	0.	69.82
8801	21.411	3.4	0.	72.507
8802	21.51	3.4	0.	75.294
8803	21.61	3.4	0.	78.185
8804	21.71	3.4	0.	81.185
8805	21.809	3.4	0.	84.295
8806	21.909	3.4	0.	87.52
8807	22.008	3.4	0.	90.863
8808	22.108	3.4	0.	94.327
8809	22.208	3.4	0.	97.915
8810	22.307	3.4	0.	101.63
8811	22.407	3.4	0.	105.47
8812	22.506	3.4	0.	109.45
8813	22.606	3.4	0.	113.56
8814	22.705	3.4	0.	117.8
8815	22.805	3.4	0.	122.18
8816	22.905	3.4	0.	126.7
8817	23.004	3.4	0.	131.36
8818	23.104	3.4	0.	136.16
8819	23.203	3.4	0.	141.09
8820	23.303	3.4	0.	146.16
8821	23.403	3.4	0.	151.37
8822	23.502	3.4	0.	156.72
8823	23.602	3.4	0.	162.2
8824	23.701	3.4	0.	167.81
8825	23.801	3.4	0.	173.56
8826	23.9	3.4	0.	179.39
8827	8.2662	3.3	0.	876.4
8828	8.3658	3.3	0.	734.64
8829	8.4654	3.3	0.	571.92
8830	8.565	3.3	0.	406.55
8831	8.6646	3.3	0.	252.
8832	8.7642	3.3	0.	115.85
8833	8.8637	3.3	0.	2.2757
8834	8.9633	3.3	0.	1.3003
8835	9.0629	3.3	0.	1.1697
8836	9.1625	3.3	0.	1.0301
8837	9.2621	3.3	0.	0.89439
8838	9.3616	3.3	0.	0.76932
8839	9.4612	3.3	0.	0.65757
8840	9.5608	3.3	0.	0.5596
8841	9.6604	3.3	0.	0.47477
8842	9.76	3.3	0.	0.4019
8843	9.8595	3.3	0.	0.33969
8844	9.9591	3.3	0.	0.28678
8845	10.059	3.3	0.	0.24187
8846	10.158	3.3	0.	0.20384
8847	10.258	3.3	0.	0.17167
8848	10.357	3.3	0.	0.1445
8849	10.457	3.3	0.	0.12158
8850	10.557	3.3	0.	0.10221
8851	10.656	3.3	0.	8.5858e-002
8852	10.756	3.3	0.	7.2065e-002
8853	10.855	3.3	0.	6.0426e-002
8854	10.955	3.3	0.	5.063e-002
8855	11.055	3.3	0.	4.2387e-002
8856	11.154	3.3	0.	3.5412e-002
8857	11.254	3.3	0.	2.9551e-002
8858	11.353	3.3	0.	2.4642e-002
8859	11.453	3.3	0.	2.0524e-002
8860	11.552	3.3	0.	1.708e-002
8861	11.652	3.3	0.	1.4201e-002
8862	11.752	3.3	0.	1.1795e-002
8863	11.851	3.3	0.	9.8127e-003
8864	11.951	3.3	0.	8.1918e-003
8865	12.05	3.3	0.	6.8554e-003
8866	12.15	3.3	0.	5.7623e-003
8867	12.249	3.3	0.	4.8774e-003
8868	12.349	3.3	0.	4.1833e-003
8869	12.449	3.3	0.	3.644e-003
8870	12.548	3.3	0.	3.199e-003
8871	12.648	3.3	0.	2.8655e-003
8872	12.747	3.3	0.	2.6336e-003
8873	12.847	3.3	0.	2.4709e-003
8874	12.947	3.3	0.	2.3748e-003
8875	13.046	3.3	0.	2.3244e-003
8876	13.146	3.3	0.	2.3062e-003
8877	13.245	3.3	0.	2.3355e-003
8878	13.345	3.3	0.	2.4075e-003
8879	13.444	3.3	0.	2.4945e-003
8880	13.544	3.3	0.	2.5956e-003
8881	13.644	3.3	0.	2.7122e-003
8882	13.743	3.3	0.	2.8378e-003
8883	13.843	3.3	0.	2.9847e-003
8884	13.942	3.3	0.	3.1451e-003
8885	14.042	3.3	0.	3.2814e-003
8886	14.142	3.3	0.	3.426e-003
8887	14.241	3.3	0.	3.5857e-003
8888	14.341	3.3	0.	3.7453e-003
8889	14.44	3.3	0.	3.903e-003
8890	14.54	3.3	0.	4.0609e-003
8891	14.639	3.3	0.	4.2088e-003
8892	14.739	3.3	0.	4.3666e-003
8893	14.839	3.3	0.	4.5354e-003
8894	14.938	3.3	0.	4.695e-003
8895	15.038	3.3	0.	4.8511e-003
8896	15.137	3.3	0.	5.0042e-003
8897	15.237	3.3	0.	5.1654e-003
8898	15.336	3.3	0.	5.332e-003
8899	15.436	3.3	0.	5.4724e-003
8900	15.536	3.3	0.	5.619e-003
8901	15.635	3.3	0.	5.7723e-003
8902	15.735	3.3	0.	5.9268e-003
8903	15.834	3.3	0.	6.0835e-003
8904	15.934	3.3	0.	6.2406e-003
8905	16.034	3.3	0.	6.3939e-003
8906	16.133	3.3	0.	6.5691e-003
8907	16.233	3.3	0.	6.7695e-003
8908	16.332	3.3	0.	7.0087e-003
8909	16.432	3.3	0.	7.3782e-003
8910	16.531	3.3	0.	8.9752e-003
8911	16.631	3.3	0.	0.7789
8912	16.731	3.3	0.	1.9827
8913	16.83	3.3	0.	3.1654
8914	16.93	3.3	0.	4.329
8915	17.029	3.3	0.	5.4756
8916	17.129	3.3	0.	6.6076
8917	17.229	3.3	0.	7.727
8918	17.328	3.3	0.	8.8361
8919	17.428	3.3	0.	9.9371
8920	17.527	3.3	0.	11.032
8921	17.627	3.3	0.	12.123
8922	17.726	3.3	0.	13.212
8923	17.826	3.3	0.	14.302
8924	17.926	3.3	0.	15.393
8925	18.025	3.3	0.	16.49
8926	18.125	3.3	0.	17.592
8927	18.224	3.3	0.	18.704
8928	18.324	3.3	0.	19.826
8929	18.423	3.3	0.	20.961
8930	18.523	3.3	0.	22.11
8931	18.623	3.3	0.	23.277
8932	18.722	3.3	0.	24.464
8933	18.822	3.3	0.	25.671
8934	18.921	3.3	0.	26.903
8935	19.021	3.3	0.	28.161
8936	19.121	3.3	0.	29.447
8937	19.22	3.3	0.	30.763
8938	19.32	3.3	0.	32.114
8939	19.419	3.3	0.	33.499
8940	19.519	3.3	0.	34.923
8941	19.618	3.3	0.	36.388
8942	19.718	3.3	0.	37.896
8943	19.818	3.3	0.	39.45
8944	19.917	3.3	0.	41.053
8945	20.017	3.3	0.	42.708
8946	20.116	3.3	0.	44.417
8947	20.216	3.3	0.	46.184
8948	20.316	3.3	0.	48.012
8949	20.415	3.3	0.	49.903
8950	20.515	3.3	0.	51.862
8951	20.614	3.3	0.	53.89
8952	20.714	3.3	0.	55.991
8953	20.813	3.3	0.	58.17
8954	20.913	3.3	0.	60.428
8955	21.013	3.3	0.	62.77
8956	21.112	3.3	0.	65.199
8957	21.212	3.3	0.	67.719
8958	21.311	3.3	0.	70.333
8959	21.411	3.3	0.	73.044
8960	21.51	3.3	0.	75.856
8961	21.61	3.3	0.	78.773
8962	21.71	3.3	0.	81.798
8963	21.809	3.3	0.	84.934
8964	21.909	3.3	0.	88.185
8965	22.008	3.3	0.	91.553
8966	22.108	3.3	0.	95.043
8967	22.208	3.3	0.	98.656
8968	22.307	3.3	0.	102.4
8969	22.407	3.3	0.	106.26
8970	22.506	3.3	0.	110.26
8971	22.606	3.3	0.	114.39
8972	22.705	3.3	0.	118.66
8973	22.805	3.3	0.	123.06
8974	22.905	3.3	0.	127.6
8975	23.004	3.3	0.	132.27
8976	23.104	3.3	0.	137.08
8977	23.203	3.3	0.	142.03
8978	23.303	3.3	0.	147.11
8979	23.403	3.3	0.	152.33
8980	23.502	3.3	0.	157.69
8981	23.602	3.3	0.	163.17
8982	23.701	3.3	0.	168.79
8983	23.801	3.3	0.	174.54
8984	23.9	3.3	0.	180.38
8985	8.2662	3.2	0.	850.63
8986	8.3658	3.2	0.	722.38
8987	8.4654	3.2	0.	572.07
8988	8.565	3.2	0.	415.55
8989	8.6646	3.2	0.	265.56
8990	8.7642	3.2	0.	130.31
8991	8.8637	3.2	0.	13.902
8992	8.9633	3.2	0.	1.2292
8993	9.0629	3.2	0.	1.1387
8994	9.1625	3.2	0.	1.0219
8995	9.2621	3.2	0.	0.89727
8996	9.3616	3.2	0.	0.77637
8997	9.4612	3.2	0.	0.6651
8998	9.5608	3.2	0.	0.56592
8999	9.6604	3.2	0.	0.47929
9000	9.76	3.2	0.	0.40464
9001	9.8595	3.2	0.	0.3409
9002	9.9591	3.2	0.	0.28679
9003	10.059	3.2	0.	0.241
9004	10.158	3.2	0.	0.20237
9005	10.258	3.2	0.	0.16982
9006	10.357	3.2	0.	0.14244
9007	10.457	3.2	0.	0.11942
9008	10.557	3.2	0.	0.10006
9009	10.656	3.2	0.	8.3764e-002
9010	10.756	3.2	0.	7.0068e-002
9011	10.855	3.2	0.	5.8549e-002
9012	10.955	3.2	0.	4.8883e-002
9013	11.055	3.2	0.	4.0775e-002
9014	11.154	3.2	0.	3.3931e-002
9015	11.254	3.2	0.	2.8197e-002
9016	11.353	3.2	0.	2.3409e-002
9017	11.453	3.2	0.	1.9403e-002
9018	11.552	3.2	0.	1.6063e-002
9019	11.652	3.2	0.	1.328e-002
9020	11.752	3.2	0.	1.096e-002
9021	11.851	3.2	0.	9.0574e-003
9022	11.951	3.2	0.	7.5095e-003
9023	12.05	3.2	0.	6.2376e-003
9024	12.15	3.2	0.	5.2043e-003
9025	12.249	3.2	0.	4.3723e-003
9026	12.349	3.2	0.	3.7257e-003
9027	12.449	3.2	0.	3.2312e-003
9028	12.548	3.2	0.	2.8257e-003
9029	12.648	3.2	0.	2.5269e-003
9030	12.747	3.2	0.	2.3276e-003
9031	12.847	3.2	0.	2.1939e-003
9032	12.947	3.2	0.	2.1246e-003
9033	13.046	3.2	0.	2.0981e-003
9034	13.146	3.2	0.	2.101e-003
9035	13.245	3.2	0.	2.1521e-003
9036	13.345	3.2	0.	2.2405e-003
9037	13.444	3.2	0.	2.3434e-003
9038	13.544	3.2	0.	2.4582e-003
9039	13.644	3.2	0.	2.5898e-003
9040	13.743	3.2	0.	2.7272e-003
9041	13.843	3.2	0.	2.885e-003
9042	13.942	3.2	0.	3.0555e-003
9043	14.042	3.2	0.	3.2005e-003
9044	14.142	3.2	0.	3.3544e-003
9045	14.241	3.2	0.	3.52e-003
9046	14.341	3.2	0.	3.6847e-003
9047	14.44	3.2	0.	3.8507e-003
9048	14.54	3.2	0.	4.0123e-003
9049	14.639	3.2	0.	4.1662e-003
9050	14.739	3.2	0.	4.329e-003
9051	14.839	3.2	0.	4.5006e-003
9052	14.938	3.2	0.	4.6628e-003
9053	15.038	3.2	0.	4.8217e-003
9054	15.137	3.2	0.	4.9761e-003
9055	15.237	3.2	0.	5.1402e-003
9056	15.336	3.2	0.	5.3073e-003
9057	15.436	3.2	0.	5.4477e-003
9058	15.536	3.2	0.	5.5939e-003
9059	15.635	3.2	0.	5.7466e-003
9060	15.735	3.2	0.	5.8972e-003
9061	15.834	3.2	0.	6.0505e-003
9062	15.934	3.2	0.	6.2012e-003
9063	16.034	3.2	0.	6.3437e-003
9064	16.133	3.2	0.	6.5027e-003
9065	16.233	3.2	0.	6.6786e-003
9066	16.332	3.2	0.	6.8647e-003
9067	16.432	3.2	0.	7.0995e-003
9068	16.531	3.2	0.	7.7488e-003
9069	16.631	3.2	0.	0.68336
9070	16.731	3.2	0.	1.8952
9071	16.83	3.2	0.	3.0856
9072	16.93	3.2	0.	4.2565
9073	17.029	3.2	0.	5.4104
9074	17.129	3.2	0.	6.5495
9075	17.229	3.2	0.	7.6759
9076	17.328	3.2	0.	8.792
9077	17.428	3.2	0.	9.8998
9078	17.527	3.2	0.	11.002
9079	17.627	3.2	0.	12.099
9080	17.726	3.2	0.	13.195
9081	17.826	3.2	0.	14.291
9082	17.926	3.2	0.	15.39
9083	18.025	3.2	0.	16.493
9084	18.125	3.2	0.	17.603
9085	18.224	3.2	0.	18.721
9086	18.324	3.2	0.	19.85
9087	18.423	3.2	0.	20.992
9088	18.523	3.2	0.	22.149
9089	18.623	3.2	0.	23.324
9090	18.722	3.2	0.	24.518
9091	18.822	3.2	0.	25.733
9092	18.921	3.2	0.	26.973
9093	19.021	3.2	0.	28.239
9094	19.121	3.2	0.	29.534
9095	19.22	3.2	0.	30.859
9096	19.32	3.2	0.	32.218
9097	19.419	3.2	0.	33.613
9098	19.519	3.2	0.	35.047
9099	19.618	3.2	0.	36.522
9100	19.718	3.2	0.	38.04
9101	19.818	3.2	0.	39.605
9102	19.917	3.2	0.	41.219
9103	20.017	3.2	0.	42.886
9104	20.116	3.2	0.	44.607
9105	20.216	3.2	0.	46.386
9106	20.316	3.2	0.	48.227
9107	20.415	3.2	0.	50.131
9108	20.515	3.2	0.	52.103
9109	20.614	3.2	0.	54.146
9110	20.714	3.2	0.	56.262
9111	20.813	3.2	0.	58.455
9112	20.913	3.2	0.	60.729
9113	21.013	3.2	0.	63.087
9114	21.112	3.2	0.	65.533
9115	21.212	3.2	0.	68.069
9116	21.311	3.2	0.	70.7
9117	21.411	3.2	0.	73.428
9118	21.51	3.2	0.	76.259
9119	21.61	3.2	0.	79.193
9120	21.71	3.2	0.	82.236
9121	21.809	3.2	0.	85.391
9122	21.909	3.2	0.	88.66
9123	22.008	3.2	0.	92.047
9124	22.108	3.2	0.	95.555
9125	22.208	3.2	0.	99.186
9126	22.307	3.2	0.	102.94
9127	22.407	3.2	0.	106.83
9128	22.506	3.2	0.	110.84
9129	22.606	3.2	0.	114.99
9130	22.705	3.2	0.	119.27
9131	22.805	3.2	0.	123.69
9132	22.905	3.2	0.	128.24
9133	23.004	3.2	0.	132.92
9134	23.104	3.2	0.	137.74
9135	23.203	3.2	0.	142.7
9136	23.303	3.2	0.	147.79
9137	23.403	3.2	0.	153.02
9138	23.502	3.2	0.	158.38
9139	23.602	3.2	0.	163.87
9140	23.701	3.2	0.	169.48
9141	23.801	3.2	0.	175.24
9142	23.9	3.2	0.	181.07
9143	8.2662	3.1	0.	835.44
9144	8.3658	3.1	0.	714.78
9145	8.4654	3.1	0.	571.68
9146	8.565	3.1	0.	420.55
9147	8.6646	3.1	0.	273.59
9148	8.7642	3.1	0.	139.21
9149	8.8637	3.1	0.	22.061
9150	8.9633	3.1	0.	1.18
9151	9.0629	3.1	0.	1.118
9152	9.1625	3.1	0.	1.017
9153	9.2621	3.1	0.	0.90026
9154	9.3616	3.1	0.	0.78234
9155	9.4612	3.1	0.	0.6714
9156	9.5608	3.1	0.	0.57131
9157	9.6604	3.1	0.	0.48335
9158	9.76	3.1	0.	0.40736
9159	9.8595	3.1	0.	0.34246
9160	9.9591	3.1	0.	0.28742
9161	10.059	3.1	0.	0.24095
9162	10.158	3.1	0.	0.20183
9163	10.258	3.1	0.	0.16896
9164	10.357	3.1	0.	0.14138
9165	10.457	3.1	0.	0.11826
9166	10.557	3.1	0.	9.8854e-002
9167	10.656	3.1	0.	8.257e-002
9168	10.756	3.1	0.	6.8912e-002
9169	10.855	3.1	0.	5.745e-002
9170	10.955	3.1	0.	4.7853e-002
9171	11.055	3.1	0.	3.9817e-002
9172	11.154	3.1	0.	3.3048e-002
9173	11.254	3.1	0.	2.7387e-002
9174	11.353	3.1	0.	2.2668e-002
9175	11.453	3.1	0.	1.8729e-002
9176	11.552	3.1	0.	1.5449e-002
9177	11.652	3.1	0.	1.2723e-002
9178	11.752	3.1	0.	1.0456e-002
9179	11.851	3.1	0.	8.6012e-003
9180	11.951	3.1	0.	7.0941e-003
9181	12.05	3.1	0.	5.8632e-003
9182	12.15	3.1	0.	4.8646e-003
9183	12.249	3.1	0.	4.0655e-003
9184	12.349	3.1	0.	3.4487e-003
9185	12.449	3.1	0.	2.9799e-003
9186	12.548	3.1	0.	2.598e-003
9187	12.648	3.1	0.	2.3215e-003
9188	12.747	3.1	0.	2.1414e-003
9189	12.847	3.1	0.	2.0257e-003
9190	12.947	3.1	0.	1.9727e-003
9191	13.046	3.1	0.	1.9599e-003
9192	13.146	3.1	0.	1.9766e-003
9193	13.245	3.1	0.	2.0386e-003
9194	13.345	3.1	0.	2.1384e-003
9195	13.444	3.1	0.	2.2519e-003
9196	13.544	3.1	0.	2.3757e-003
9197	13.644	3.1	0.	2.5144e-003
9198	13.743	3.1	0.	2.6603e-003
9199	13.843	3.1	0.	2.8246e-003
9200	13.942	3.1	0.	2.9998e-003
9201	14.042	3.1	0.	3.1517e-003
9202	14.142	3.1	0.	3.3098e-003
9203	14.241	3.1	0.	3.4801e-003
9204	14.341	3.1	0.	3.6495e-003
9205	14.44	3.1	0.	3.8188e-003
9206	14.54	3.1	0.	3.9845e-003
9207	14.639	3.1	0.	4.1399e-003
9208	14.739	3.1	0.	4.3055e-003
9209	14.839	3.1	0.	4.4792e-003
9210	14.938	3.1	0.	4.6442e-003
9211	15.038	3.1	0.	4.8042e-003
9212	15.137	3.1	0.	4.9608e-003
9213	15.237	3.1	0.	5.125e-003
9214	15.336	3.1	0.	5.2929e-003
9215	15.436	3.1	0.	5.4328e-003
9216	15.536	3.1	0.	5.5795e-003
9217	15.635	3.1	0.	5.7299e-003
9218	15.735	3.1	0.	5.8808e-003
9219	15.834	3.1	0.	6.0298e-003
9220	15.934	3.1	0.	6.1778e-003
9221	16.034	3.1	0.	6.3151e-003
9222	16.133	3.1	0.	6.4654e-003
9223	16.233	3.1	0.	6.6251e-003
9224	16.332	3.1	0.	6.7837e-003
9225	16.432	3.1	0.	6.9497e-003
9226	16.531	3.1	0.	7.207e-003
9227	16.631	3.1	0.	0.62588
9228	16.731	3.1	0.	1.8427
9229	16.83	3.1	0.	3.0377
9230	16.93	3.1	0.	4.2131
9231	17.029	3.1	0.	5.3713
9232	17.129	3.1	0.	6.5146
9233	17.229	3.1	0.	7.6453
9234	17.328	3.1	0.	8.7655
9235	17.428	3.1	0.	9.8774
9236	17.527	3.1	0.	10.983
9237	17.627	3.1	0.	12.085
9238	17.726	3.1	0.	13.185
9239	17.826	3.1	0.	14.285
9240	17.926	3.1	0.	15.388
9241	18.025	3.1	0.	16.495
9242	18.125	3.1	0.	17.609
9243	18.224	3.1	0.	18.732
9244	18.324	3.1	0.	19.865
9245	18.423	3.1	0.	21.011
9246	18.523	3.1	0.	22.173
9247	18.623	3.1	0.	23.352
9248	18.722	3.1	0.	24.551
9249	18.822	3.1	0.	25.771
9250	18.921	3.1	0.	27.015
9251	19.021	3.1	0.	28.286
9252	19.121	3.1	0.	29.586
9253	19.22	3.1	0.	30.917
9254	19.32	3.1	0.	32.282
9255	19.419	3.1	0.	33.682
9256	19.519	3.1	0.	35.122
9257	19.618	3.1	0.	36.602
9258	19.718	3.1	0.	38.127
9259	19.818	3.1	0.	39.699
9260	19.917	3.1	0.	41.319
9261	20.017	3.1	0.	42.993
9262	20.116	3.1	0.	44.721
9263	20.216	3.1	0.	46.508
9264	20.316	3.1	0.	48.356
9265	20.415	3.1	0.	50.269
9266	20.515	3.1	0.	52.249
9267	20.614	3.1	0.	54.3
9268	20.714	3.1	0.	56.425
9269	20.813	3.1	0.	58.627
9270	20.913	3.1	0.	60.91
9271	21.013	3.1	0.	63.278
9272	21.112	3.1	0.	65.733
9273	21.212	3.1	0.	68.28
9274	21.311	3.1	0.	70.921
9275	21.411	3.1	0.	73.66
9276	21.51	3.1	0.	76.5
9277	21.61	3.1	0.	79.446
9278	21.71	3.1	0.	82.5
9279	21.809	3.1	0.	85.666
9280	21.909	3.1	0.	88.946
9281	22.008	3.1	0.	92.344
9282	22.108	3.1	0.	95.862
9283	22.208	3.1	0.	99.504
9284	22.307	3.1	0.	103.27
9285	22.407	3.1	0.	107.17
9286	22.506	3.1	0.	111.19
9287	22.606	3.1	0.	115.35
9288	22.705	3.1	0.	119.64
9289	22.805	3.1	0.	124.06
9290	22.905	3.1	0.	128.62
9291	23.004	3.1	0.	133.31
9292	23.104	3.1	0.	138.14
9293	23.203	3.1	0.	143.1
9294	23.303	3.1	0.	148.2
9295	23.403	3.1	0.	153.43
9296	23.502	3.1	0.	158.79
9297	23.602	3.1	0.	164.28
9298	23.701	3.1	0.	169.9
9299	23.801	3.1	0.	175.66
9300	23.9	3.1	0.	181.49
9301	8.2662	3.	0.	830.42
9302	8.3658	3.	0.	712.21
9303	8.4654	3.	0.	571.47
9304	8.565	3.	0.	422.15
9305	8.6646	3.	0.	276.24
9306	8.7642	3.	0.	142.2
9307	8.8637	3.	0.	24.856
9308	8.9633	3.	0.	1.1621
9309	9.0629	3.	0.	1.1106
9310	9.1625	3.	0.	1.0153
9311	9.2621	3.	0.	0.90139
9312	9.3616	3.	0.	0.78458
9313	9.4612	3.	0.	0.67377
9314	9.5608	3.	0.	0.57337
9315	9.6604	3.	0.	0.48493
9316	9.76	3.	0.	0.40845
9317	9.8595	3.	0.	0.34312
9318	9.9591	3.	0.	0.28774
9319	10.059	3.	0.	0.24101
9320	10.158	3.	0.	0.20171
9321	10.258	3.	0.	0.16871
9322	10.357	3.	0.	0.14106
9323	10.457	3.	0.	0.11789
9324	10.557	3.	0.	9.8469e-002
9325	10.656	3.	0.	8.2183e-002
9326	10.756	3.	0.	6.8534e-002
9327	10.855	3.	0.	5.7089e-002
9328	10.955	3.	0.	4.7512e-002
9329	11.055	3.	0.	3.95e-002
9330	11.154	3.	0.	3.2754e-002
9331	11.254	3.	0.	2.7118e-002
9332	11.353	3.	0.	2.2422e-002
9333	11.453	3.	0.	1.8503e-002
9334	11.552	3.	0.	1.5246e-002
9335	11.652	3.	0.	1.2536e-002
9336	11.752	3.	0.	1.0287e-002
9337	11.851	3.	0.	8.4478e-003
9338	11.951	3.	0.	6.9564e-003
9339	12.05	3.	0.	5.7374e-003
9340	12.15	3.	0.	4.7514e-003
9341	12.249	3.	0.	3.9628e-003
9342	12.349	3.	0.	3.3549e-003
9343	12.449	3.	0.	2.8957e-003
9344	12.548	3.	0.	2.5218e-003
9345	12.648	3.	0.	2.2526e-003
9346	12.747	3.	0.	2.0787e-003
9347	12.847	3.	0.	1.9703e-003
9348	12.947	3.	0.	1.9207e-003
9349	13.046	3.	0.	1.9144e-003
9350	13.146	3.	0.	1.934e-003
9351	13.245	3.	0.	2.0014e-003
9352	13.345	3.	0.	2.105e-003
9353	13.444	3.	0.	2.2203e-003
9354	13.544	3.	0.	2.3498e-003
9355	13.644	3.	0.	2.4879e-003
9356	13.743	3.	0.	2.6367e-003
9357	13.843	3.	0.	2.8042e-003
9358	13.942	3.	0.	2.9807e-003
9359	14.042	3.	0.	3.1363e-003
9360	14.142	3.	0.	3.2938e-003
9361	14.241	3.	0.	3.4676e-003
9362	14.341	3.	0.	3.6382e-003
9363	14.44	3.	0.	3.8062e-003
9364	14.54	3.	0.	3.9728e-003
9365	14.639	3.	0.	4.1325e-003
9366	14.739	3.	0.	4.2959e-003
9367	14.839	3.	0.	4.4728e-003
9368	14.938	3.	0.	4.6387e-003
9369	15.038	3.	0.	4.7983e-003
9370	15.137	3.	0.	4.9558e-003
9371	15.237	3.	0.	5.1196e-003
9372	15.336	3.	0.	5.2888e-003
9373	15.436	3.	0.	5.4272e-003
9374	15.536	3.	0.	5.5746e-003
9375	15.635	3.	0.	5.7254e-003
9376	15.735	3.	0.	5.8743e-003
9377	15.834	3.	0.	6.0255e-003
9378	15.934	3.	0.	6.1702e-003
9379	16.034	3.	0.	6.3052e-003
9380	16.133	3.	0.	6.4543e-003
9381	16.233	3.	0.	6.6075e-003
9382	16.332	3.	0.	6.7569e-003
9383	16.432	3.	0.	6.9014e-003
9384	16.531	3.	0.	7.0488e-003
9385	16.631	3.	0.	0.60669
9386	16.731	3.	0.	1.8251
9387	16.83	3.	0.	3.0217
9388	16.93	3.	0.	4.1986
9389	17.029	3.	0.	5.3583
9390	17.129	3.	0.	6.503
9391	17.229	3.	0.	7.6351
9392	17.328	3.	0.	8.7567
9393	17.428	3.	0.	9.87
9394	17.527	3.	0.	10.977
9395	17.627	3.	0.	12.08
9396	17.726	3.	0.	13.182
9397	17.826	3.	0.	14.283
9398	17.926	3.	0.	15.387
9399	18.025	3.	0.	16.496
9400	18.125	3.	0.	17.611
9401	18.224	3.	0.	18.735
9402	18.324	3.	0.	19.87
9403	18.423	3.	0.	21.018
9404	18.523	3.	0.	22.181
9405	18.623	3.	0.	23.361
9406	18.722	3.	0.	24.561
9407	18.822	3.	0.	25.783
9408	18.921	3.	0.	27.03
9409	19.021	3.	0.	28.302
9410	19.121	3.	0.	29.604
9411	19.22	3.	0.	30.936
9412	19.32	3.	0.	32.303
9413	19.419	3.	0.	33.705
9414	19.519	3.	0.	35.147
9415	19.618	3.	0.	36.629
9416	19.718	3.	0.	38.156
9417	19.818	3.	0.	39.73
9418	19.917	3.	0.	41.353
9419	20.017	3.	0.	43.028
9420	20.116	3.	0.	44.759
9421	20.216	3.	0.	46.549
9422	20.316	3.	0.	48.399
9423	20.415	3.	0.	50.314
9424	20.515	3.	0.	52.297
9425	20.614	3.	0.	54.351
9426	20.714	3.	0.	56.479
9427	20.813	3.	0.	58.684
9428	20.913	3.	0.	60.971
9429	21.013	3.	0.	63.342
9430	21.112	3.	0.	65.8
9431	21.212	3.	0.	68.35
9432	21.311	3.	0.	70.994
9433	21.411	3.	0.	73.737
9434	21.51	3.	0.	76.581
9435	21.61	3.	0.	79.53
9436	21.71	3.	0.	82.588
9437	21.809	3.	0.	85.757
9438	21.909	3.	0.	89.041
9439	22.008	3.	0.	92.442
9440	22.108	3.	0.	95.964
9441	22.208	3.	0.	99.61
9442	22.307	3.	0.	103.38
9443	22.407	3.	0.	107.28
9444	22.506	3.	0.	111.31
9445	22.606	3.	0.	115.47
9446	22.705	3.	0.	119.76
9447	22.805	3.	0.	124.19
9448	22.905	3.	0.	128.75
9449	23.004	3.	0.	133.44
9450	23.104	3.	0.	138.27
9451	23.203	3.	0.	143.24
9452	23.303	3.	0.	148.34
9453	23.403	3.	0.	153.57
9454	23.502	3.	0.	158.93
9455	23.602	3.	0.	164.42
9456	23.701	3.	0.	170.04
9457	23.801	3.	0.	175.8
9458	23.9	3.	0.	181.63
9459	8.2662	2.9	0.	835.44
9460	8.3658	2.9	0.	714.78
9461	8.4654	2.9	0.	571.68
9462	8.565	2.9	0.	420.55
9463	8.6646	2.9	0.	273.59
9464	8.7642	2.9	0.	139.21
9465	8.8637	2.9	0.	22.061
9466	8.9633	2.9	0.	1.18
9467	9.0629	2.9	0.	1.118
9468	9.1625	2.9	0.	1.017
9469	9.2621	2.9	0.	0.90026
9470	9.3616	2.9	0.	0.78234
9471	9.4612	2.9	0.	0.6714
9472	9.5608	2.9	0.	0.57131
9473	9.6604	2.9	0.	0.48335
9474	9.76	2.9	0.	0.40736
9475	9.8595	2.9	0.	0.34246
9476	9.9591	2.9	0.	0.28742
9477	10.059	2.9	0.	0.24095
9478	10.158	2.9	0.	0.20183
9479	10.258	2.9	0.	0.16896
9480	10.357	2.9	0.	0.14138
9481	10.457	2.9	0.	0.11826
9482	10.557	2.9	0.	9.8854e-002
9483	10.656	2.9	0.	8.257e-002
9484	10.756	2.9	0.	6.8913e-002
9485	10.855	2.9	0.	5.745e-002
9486	10.955	2.9	0.	4.7853e-002
9487	11.055	2.9	0.	3.9817e-002
9488	11.154	2.9	0.	3.3048e-002
9489	11.254	2.9	0.	2.7387e-002
9490	11.353	2.9	0.	2.2669e-002
9491	11.453	2.9	0.	1.8728e-002
9492	11.552	2.9	0.	1.545e-002
9493	11.652	2.9	0.	1.2723e-002
9494	11.752	2.9	0.	1.0456e-002
9495	11.851	2.9	0.	8.6005e-003
9496	11.951	2.9	0.	7.0959e-003
9497	12.05	2.9	0.	5.8632e-003
9498	12.15	2.9	0.	4.8648e-003
9499	12.249	2.9	0.	4.0659e-003
9500	12.349	2.9	0.	3.4486e-003
9501	12.449	2.9	0.	2.9807e-003
9502	12.548	2.9	0.	2.5978e-003
9503	12.648	2.9	0.	2.3219e-003
9504	12.747	2.9	0.	2.1413e-003
9505	12.847	2.9	0.	2.0265e-003
9506	12.947	2.9	0.	1.9723e-003
9507	13.046	2.9	0.	1.9604e-003
9508	13.146	2.9	0.	1.9772e-003
9509	13.245	2.9	0.	2.0389e-003
9510	13.345	2.9	0.	2.139e-003
9511	13.444	2.9	0.	2.2518e-003
9512	13.544	2.9	0.	2.3771e-003
9513	13.644	2.9	0.	2.5147e-003
9514	13.743	2.9	0.	2.6603e-003
9515	13.843	2.9	0.	2.8245e-003
9516	13.942	2.9	0.	3.0001e-003
9517	14.042	2.9	0.	3.1513e-003
9518	14.142	2.9	0.	3.3099e-003
9519	14.241	2.9	0.	3.4805e-003
9520	14.341	2.9	0.	3.6492e-003
9521	14.44	2.9	0.	3.8193e-003
9522	14.54	2.9	0.	3.9849e-003
9523	14.639	2.9	0.	4.1396e-003
9524	14.739	2.9	0.	4.306e-003
9525	14.839	2.9	0.	4.4794e-003
9526	14.938	2.9	0.	4.6439e-003
9527	15.038	2.9	0.	4.8047e-003
9528	15.137	2.9	0.	4.9617e-003
9529	15.237	2.9	0.	5.1249e-003
9530	15.336	2.9	0.	5.2933e-003
9531	15.436	2.9	0.	5.4331e-003
9532	15.536	2.9	0.	5.5796e-003
9533	15.635	2.9	0.	5.7298e-003
9534	15.735	2.9	0.	5.8807e-003
9535	15.834	2.9	0.	6.0304e-003
9536	15.934	2.9	0.	6.178e-003
9537	16.034	2.9	0.	6.3152e-003
9538	16.133	2.9	0.	6.4647e-003
9539	16.233	2.9	0.	6.626e-003
9540	16.332	2.9	0.	6.783e-003
9541	16.432	2.9	0.	6.9495e-003
9542	16.531	2.9	0.	7.2061e-003
9543	16.631	2.9	0.	0.62588
9544	16.731	2.9	0.	1.8427
9545	16.83	2.9	0.	3.0377
9546	16.93	2.9	0.	4.2131
9547	17.029	2.9	0.	5.3713
9548	17.129	2.9	0.	6.5146
9549	17.229	2.9	0.	7.6453
9550	17.328	2.9	0.	8.7655
9551	17.428	2.9	0.	9.8774
9552	17.527	2.9	0.	10.983
9553	17.627	2.9	0.	12.085
9554	17.726	2.9	0.	13.185
9555	17.826	2.9	0.	14.285
9556	17.926	2.9	0.	15.388
9557	18.025	2.9	0.	16.495
9558	18.125	2.9	0.	17.609
9559	18.224	2.9	0.	18.732
9560	18.324	2.9	0.	19.865
9561	18.423	2.9	0.	21.011
9562	18.523	2.9	0.	22.173
9563	18.623	2.9	0.	23.352
9564	18.722	2.9	0.	24.551
9565	18.822	2.9	0.	25.771
9566	18.921	2.9	0.	27.015
9567	19.021	2.9	0.	28.286
9568	19.121	2.9	0.	29.586
9569	19.22	2.9	0.	30.917
9570	19.32	2.9	0.	32.282
9571	19.419	2.9	0.	33.682
9572	19.519	2.9	0.	35.122
9573	19.618	2.9	0.	36.602
9574	19.718	2.9	0.	38.127
9575	19.818	2.9	0.	39.699
9576	19.917	2.9	0.	41.319
9577	20.017	2.9	0.	42.993
9578	20.116	2.9	0.	44.721
9579	20.216	2.9	0.	46.508
9580	20.316	2.9	0.	48.356
9581	20.415	2.9	0.	50.269
9582	20.515	2.9	0.	52.249
9583	20.614	2.9	0.	54.3
9584	20.714	2.9	0.	56.425
9585	20.813	2.9	0.	58.627
9586	20.913	2.9	0.	60.91
9587	21.013	2.9	0.	63.278
9588	21.112	2.9	0.	65.733
9589	21.212	2.9	0.	68.28
9590	21.311	2.9	0.	70.921
9591	21.411	2.9	0.	73.66
9592	21.51	2.9	0.	76.5
9593	21.61	2.9	0.	79.446
9594	21.71	2.9	0.	82.5
9595	21.809	2.9	0.	85.666
9596	21.909	2.9	0.	88.946
9597	22.008	2.9	0.	92.344
9598	22.108	2.9	0.	95.862
9599	22.208	2.9	0.	99.504
9600	22.307	2.9	0.	103.27
9601	22.407	2.9	0.	107.17
9602	22.506	2.9	0.	111.19
9603	22.606	2.9	0.	115.35
9604	22.705	2.9	0.	119.64
9605	22.805	2.9	0.	124.06
9606	22.905	2.9	0.	128.62
9607	23.004	2.9	0.	133.31
9608	23.104	2.9	0.	138.14
9609	23.203	2.9	0.	143.1
9610	23.303	2.9	0.	148.2
9611	23.403	2.9	0.	153.43
9612	23.502	2.9	0.	158.79
9613	23.602	2.9	0.	164.28
9614	23.701	2.9	0.	169.9
9615	23.801	2.9	0.	175.66
9616	23.9	2.9	0.	181.49
9617	8.2662	2.8	0.	850.63
9618	8.3658	2.8	0.	722.38
9619	8.4654	2.8	0.	572.08
9620	8.565	2.8	0.	415.55
9621	8.6646	2.8	0.	265.56
9622	8.7642	2.8	0.	130.31
9623	8.8637	2.8	0.	13.902
9624	8.9633	2.8	0.	1.2292
9625	9.0629	2.8	0.	1.1387
9626	9.1625	2.8	0.	1.0219
9627	9.2621	2.8	0.	0.89727
9628	9.3616	2.8	0.	0.77637
9629	9.4612	2.8	0.	0.6651
9630	9.5608	2.8	0.	0.56592
9631	9.6604	2.8	0.	0.47929
9632	9.76	2.8	0.	0.40464
9633	9.8595	2.8	0.	0.3409
9634	9.9591	2.8	0.	0.28679
9635	10.059	2.8	0.	0.241
9636	10.158	2.8	0.	0.20237
9637	10.258	2.8	0.	0.16982
9638	10.357	2.8	0.	0.14244
9639	10.457	2.8	0.	0.11942
9640	10.557	2.8	0.	0.10006
9641	10.656	2.8	0.	8.3764e-002
9642	10.756	2.8	0.	7.0068e-002
9643	10.855	2.8	0.	5.8549e-002
9644	10.955	2.8	0.	4.8883e-002
9645	11.055	2.8	0.	4.0774e-002
9646	11.154	2.8	0.	3.3932e-002
9647	11.254	2.8	0.	2.8197e-002
9648	11.353	2.8	0.	2.341e-002
9649	11.453	2.8	0.	1.9403e-002
9650	11.552	2.8	0.	1.6063e-002
9651	11.652	2.8	0.	1.328e-002
9652	11.752	2.8	0.	1.096e-002
9653	11.851	2.8	0.	9.0577e-003
9654	11.951	2.8	0.	7.509e-003
9655	12.05	2.8	0.	6.2379e-003
9656	12.15	2.8	0.	5.2037e-003
9657	12.249	2.8	0.	4.3723e-003
9658	12.349	2.8	0.	3.7259e-003
9659	12.449	2.8	0.	3.2306e-003
9660	12.548	2.8	0.	2.8251e-003
9661	12.648	2.8	0.	2.5272e-003
9662	12.747	2.8	0.	2.3279e-003
9663	12.847	2.8	0.	2.1948e-003
9664	12.947	2.8	0.	2.1248e-003
9665	13.046	2.8	0.	2.0978e-003
9666	13.146	2.8	0.	2.1006e-003
9667	13.245	2.8	0.	2.1508e-003
9668	13.345	2.8	0.	2.241e-003
9669	13.444	2.8	0.	2.3431e-003
9670	13.544	2.8	0.	2.4584e-003
9671	13.644	2.8	0.	2.5893e-003
9672	13.743	2.8	0.	2.7277e-003
9673	13.843	2.8	0.	2.885e-003
9674	13.942	2.8	0.	3.0548e-003
9675	14.042	2.8	0.	3.2011e-003
9676	14.142	2.8	0.	3.3536e-003
9677	14.241	2.8	0.	3.5207e-003
9678	14.341	2.8	0.	3.685e-003
9679	14.44	2.8	0.	3.851e-003
9680	14.54	2.8	0.	4.0123e-003
9681	14.639	2.8	0.	4.1657e-003
9682	14.739	2.8	0.	4.3287e-003
9683	14.839	2.8	0.	4.5006e-003
9684	14.938	2.8	0.	4.6634e-003
9685	15.038	2.8	0.	4.8221e-003
9686	15.137	2.8	0.	4.9771e-003
9687	15.237	2.8	0.	5.1405e-003
9688	15.336	2.8	0.	5.3077e-003
9689	15.436	2.8	0.	5.4475e-003
9690	15.536	2.8	0.	5.5948e-003
9691	15.635	2.8	0.	5.7464e-003
9692	15.735	2.8	0.	5.8978e-003
9693	15.834	2.8	0.	6.0506e-003
9694	15.934	2.8	0.	6.2008e-003
9695	16.034	2.8	0.	6.3437e-003
9696	16.133	2.8	0.	6.5036e-003
9697	16.233	2.8	0.	6.6778e-003
9698	16.332	2.8	0.	6.8647e-003
9699	16.432	2.8	0.	7.1005e-003
9700	16.531	2.8	0.	7.75e-003
9701	16.631	2.8	0.	0.68336
9702	16.731	2.8	0.	1.8952
9703	16.83	2.8	0.	3.0856
9704	16.93	2.8	0.	4.2565
9705	17.029	2.8	0.	5.4104
9706	17.129	2.8	0.	6.5495
9707	17.229	2.8	0.	7.6759
9708	17.328	2.8	0.	8.792
9709	17.428	2.8	0.	9.8998
9710	17.527	2.8	0.	11.002
9711	17.627	2.8	0.	12.099
9712	17.726	2.8	0.	13.195
9713	17.826	2.8	0.	14.291
9714	17.926	2.8	0.	15.39
9715	18.025	2.8	0.	16.493
9716	18.125	2.8	0.	17.603
9717	18.224	2.8	0.	18.721
9718	18.324	2.8	0.	19.85
9719	18.423	2.8	0.	20.992
9720	18.523	2.8	0.	22.149
9721	18.623	2.8	0.	23.324
9722	18.722	2.8	0.	24.518
9723	18.822	2.8	0.	25.733
9724	18.921	2.8	0.	26.973
9725	19.021	2.8	0.	28.239
9726	19.121	2.8	0.	29.534
9727	19.22	2.8	0.	30.859
9728	19.32	2.8	0.	32.218
9729	19.419	2.8	0.	33.613
9730	19.519	2.8	0.	35.047
9731	19.618	2.8	0.	36.522
9732	19.718	2.8	0.	38.04
9733	19.818	2.8	0.	39.605
9734	19.917	2.8	0.	41.219
9735	20.017	2.8	0.	42.886
9736	20.116	2.8	0.	44.607
9737	20.216	2.8	0.	46.386
9738	20.316	2.8	0.	48.227
9739	20.415	2.8	0.	50.131
9740	20.515	2.8	0.	52.103
9741	20.614	2.8	0.	54.146
9742	20.714	2.8	0.	56.262
9743	20.813	2.8	0.	58.455
9744	20.913	2.8	0.	60.729
9745	21.013	2.8	0.	63.087
9746	21.112	2.8	0.	65.533
9747	21.212	2.8	0.	68.069
9748	21.311	2.8	0.	70.7
9749	21.411	2.8	0.	73.428
9750	21.51	2.8	0.	76.259
9751	21.61	2.8	0.	79.193
9752	21.71	2.8	0.	82.236
9753	21.809	2.8	0.	85.391
9754	21.909	2.8	0.	88.66
9755	22.008	2.8	0.	92.047
9756	22.108	2.8	0.	95.555
9757	22.208	2.8	0.	99.186
9758	22.307	2.8	0.	102.94
9759	22.407	2.8	0.	106.83
9760	22.506	2.8	0.	110.84
9761	22.606	2.8	0.	114.99
9762	22.705	2.8	0.	119.27
9763	22.805	2.8	0.	123.69
9764	22.905	2.8	0.	128.24
9765	23.004	2.8	0.	132.92
9766	23.104	2.8	0.	137.74
9767	23.203	2.8	0.	142.7
9768	23.303	2.8	0.	147.79
9769	23.403	2.8	0.	153.02
9770	23.502	2.8	0.	158.38
9771	23.602	2.8	0.	163.87
9772	23.701	2.8	0.	169.48
9773	23.801	2.8	0.	175.24
9774	23.9	2.8	0.	181.07
9775	8.2662	2.7	0.	876.4
9776	8.3658	2.7	0.	734.64
9777	8.4654	2.7	0.	571.92
9778	8.565	2.7	0.	406.55
9779	8.6646	2.7	0.	252.
9780	8.7642	2.7	0.	115.85
9781	8.8637	2.7	0.	2.2758
9782	8.9633	2.7	0.	1.3003
9783	9.0629	2.7	0.	1.1697
9784	9.1625	2.7	0.	1.0301
9785	9.2621	2.7	0.	0.89439
9786	9.3616	2.7	0.	0.76932
9787	9.4612	2.7	0.	0.65757
9788	9.5608	2.7	0.	0.5596
9789	9.6604	2.7	0.	0.47477
9790	9.76	2.7	0.	0.4019
9791	9.8595	2.7	0.	0.33969
9792	9.9591	2.7	0.	0.28678
9793	10.059	2.7	0.	0.24187
9794	10.158	2.7	0.	0.20384
9795	10.258	2.7	0.	0.17167
9796	10.357	2.7	0.	0.1445
9797	10.457	2.7	0.	0.12158
9798	10.557	2.7	0.	0.10221
9799	10.656	2.7	0.	8.5858e-002
9800	10.756	2.7	0.	7.2064e-002
9801	10.855	2.7	0.	6.0427e-002
9802	10.955	2.7	0.	5.063e-002
9803	11.055	2.7	0.	4.2388e-002
9804	11.154	2.7	0.	3.5412e-002
9805	11.254	2.7	0.	2.9551e-002
9806	11.353	2.7	0.	2.4643e-002
9807	11.453	2.7	0.	2.0524e-002
9808	11.552	2.7	0.	1.708e-002
9809	11.652	2.7	0.	1.4201e-002
9810	11.752	2.7	0.	1.1795e-002
9811	11.851	2.7	0.	9.8132e-003
9812	11.951	2.7	0.	8.1933e-003
9813	12.05	2.7	0.	6.8548e-003
9814	12.15	2.7	0.	5.7627e-003
9815	12.249	2.7	0.	4.8778e-003
9816	12.349	2.7	0.	4.1829e-003
9817	12.449	2.7	0.	3.6441e-003
9818	12.548	2.7	0.	3.1997e-003
9819	12.648	2.7	0.	2.8655e-003
9820	12.747	2.7	0.	2.6342e-003
9821	12.847	2.7	0.	2.4713e-003
9822	12.947	2.7	0.	2.3757e-003
9823	13.046	2.7	0.	2.3244e-003
9824	13.146	2.7	0.	2.3057e-003
9825	13.245	2.7	0.	2.3365e-003
9826	13.345	2.7	0.	2.4079e-003
9827	13.444	2.7	0.	2.4939e-003
9828	13.544	2.7	0.	2.5959e-003
9829	13.644	2.7	0.	2.7124e-003
9830	13.743	2.7	0.	2.838e-003
9831	13.843	2.7	0.	2.9846e-003
9832	13.942	2.7	0.	3.145e-003
9833	14.042	2.7	0.	3.2818e-003
9834	14.142	2.7	0.	3.4266e-003
9835	14.241	2.7	0.	3.586e-003
9836	14.341	2.7	0.	3.7438e-003
9837	14.44	2.7	0.	3.9033e-003
9838	14.54	2.7	0.	4.0608e-003
9839	14.639	2.7	0.	4.2085e-003
9840	14.739	2.7	0.	4.367e-003
9841	14.839	2.7	0.	4.5357e-003
9842	14.938	2.7	0.	4.6946e-003
9843	15.038	2.7	0.	4.8509e-003
9844	15.137	2.7	0.	5.0043e-003
9845	15.237	2.7	0.	5.1661e-003
9846	15.336	2.7	0.	5.3331e-003
9847	15.436	2.7	0.	5.4722e-003
9848	15.536	2.7	0.	5.6189e-003
9849	15.635	2.7	0.	5.7721e-003
9850	15.735	2.7	0.	5.9262e-003
9851	15.834	2.7	0.	6.0838e-003
9852	15.934	2.7	0.	6.2406e-003
9853	16.034	2.7	0.	6.3938e-003
9854	16.133	2.7	0.	6.568e-003
9855	16.233	2.7	0.	6.7709e-003
9856	16.332	2.7	0.	7.009e-003
9857	16.432	2.7	0.	7.3779e-003
9858	16.531	2.7	0.	8.9745e-003
9859	16.631	2.7	0.	0.77889
9860	16.731	2.7	0.	1.9827
9861	16.83	2.7	0.	3.1654
9862	16.93	2.7	0.	4.329
9863	17.029	2.7	0.	5.4756
9864	17.129	2.7	0.	6.6075
9865	17.229	2.7	0.	7.727
9866	17.328	2.7	0.	8.8361
9867	17.428	2.7	0.	9.9371
9868	17.527	2.7	0.	11.032
9869	17.627	2.7	0.	12.123
9870	17.726	2.7	0.	13.212
9871	17.826	2.7	0.	14.302
9872	17.926	2.7	0.	15.393
9873	18.025	2.7	0.	16.49
9874	18.125	2.7	0.	17.592
9875	18.224	2.7	0.	18.704
9876	18.324	2.7	0.	19.826
9877	18.423	2.7	0.	20.961
9878	18.523	2.7	0.	22.11
9879	18.623	2.7	0.	23.277
9880	18.722	2.7	0.	24.464
9881	18.822	2.7	0.	25.671
9882	18.921	2.7	0.	26.903
9883	19.021	2.7	0.	28.161
9884	19.121	2.7	0.	29.447
9885	19.22	2.7	0.	30.763
9886	19.32	2.7	0.	32.114
9887	19.419	2.7	0.	33.499
9888	19.519	2.7	0.	34.923
9889	19.618	2.7	0.	36.388
9890	19.718	2.7	0.	37.896
9891	19.818	2.7	0.	39.45
9892	19.917	2.7	0.	41.053
9893	20.017	2.7	0.	42.708
9894	20.116	2.7	0.	44.417
9895	20.216	2.7	0.	46.184
9896	20.316	2.7	0.	48.012
9897	20.415	2.7	0.	49.903
9898	20.515	2.7	0.	51.862
9899	20.614	2.7	0.	53.89
9900	20.714	2.7	0.	55.991
9901	20.813	2.7	0.	58.17
9902	20.913	2.7	0.	60.428
9903	21.013	2.7	0.	62.77
9904	21.112	2.7	0.	65.199
9905	21.212	2.7	0.	67.719
9906	21.311	2.7	0.	70.333
9907	21.411	2.7	0.	73.044
9908	21.51	2.7	0.	75.856
9909	21.61	2.7	0.	78.773
9910	21.71	2.7	0.	81.798
9911	21.809	2.7	0.	84.934
9912	21.909	2.7	0.	88.185
9913	22.008	2.7	0.	91.553
9914	22.108	2.7	0.	95.043
9915	22.208	2.7	0.	98.656
9916	22.307	2.7	0.	102.4
9917	22.407	2.7	0.	106.26
9918	22.506	2.7	0.	110.26
9919	22.606	2.7	0.	114.39
9920	22.705	2.7	0.	118.66
9921	22.805	2.7	0.	123.06
9922	22.905	2.7	0.	127.6
9923	23.004	2.7	0.	132.27
9924	23.104	2.7	0.	137.08
9925	23.203	2.7	0.	142.03
9926	23.303	2.7	0.	147.11
9927	23.403	2.7	0.	152.33
9928	23.502	2.7	0.	157.69
9929	23.602	2.7	0.	163.17
9930	23.701	2.7	0.	168.79
9931	23.801	2.7	0.	174.54
9932	23.9	2.7	0.	180.38
9933	8.2662	2.6	0.	913.28
9934	8.3658	2.6	0.	750.84
9935	8.4654	2.6	0.	570.06
9936	8.565	2.6	0.	392.81
9937	8.6646	2.6	0.	233.07
9938	8.7642	2.6	0.	96.832
9939	8.8637	2.6	0.	1.5843
9940	8.9633	2.6	0.	1.3909
9941	9.0629	2.6	0.	1.2129
9942	9.1625	2.6	0.	1.0463
9943	9.2621	2.6	0.	0.89733
9944	9.3616	2.6	0.	0.76687
9945	9.4612	2.6	0.	0.65388
9946	9.5608	2.6	0.	0.5566
9947	9.6604	2.6	0.	0.47316
9948	9.76	2.6	0.	0.40176
9949	9.8595	2.6	0.	0.34082
9950	9.9591	2.6	0.	0.28888
9951	10.059	2.6	0.	0.24466
9952	10.158	2.6	0.	0.20705
9953	10.258	2.6	0.	0.1751
9954	10.357	2.6	0.	0.14799
9955	10.457	2.6	0.	0.12501
9956	10.557	2.6	0.	0.10552
9957	10.656	2.6	0.	8.8992e-002
9958	10.756	2.6	0.	7.4997e-002
9959	10.855	2.6	0.	6.3145e-002
9960	10.955	2.6	0.	5.3133e-002
9961	11.055	2.6	0.	4.4677e-002
9962	11.154	2.6	0.	3.7501e-002
9963	11.254	2.6	0.	3.145e-002
9964	11.353	2.6	0.	2.6365e-002
9965	11.453	2.6	0.	2.2084e-002
9966	11.552	2.6	0.	1.8491e-002
9967	11.652	2.6	0.	1.5477e-002
9968	11.752	2.6	0.	1.2948e-002
9969	11.851	2.6	0.	1.0854e-002
9970	11.951	2.6	0.	9.1333e-003
9971	12.05	2.6	0.	7.7062e-003
9972	12.15	2.6	0.	6.5312e-003
9973	12.249	2.6	0.	5.5729e-003
9974	12.349	2.6	0.	4.8109e-003
9975	12.449	2.6	0.	4.2129e-003
9976	12.548	2.6	0.	3.7127e-003
9977	12.648	2.6	0.	3.3299e-003
9978	12.747	2.6	0.	3.0549e-003
9979	12.847	2.6	0.	2.8516e-003
9980	12.947	2.6	0.	2.7191e-003
9981	13.046	2.6	0.	2.635e-003
9982	13.146	2.6	0.	2.5869e-003
9983	13.245	2.6	0.	2.5909e-003
9984	13.345	2.6	0.	2.6376e-003
9985	13.444	2.6	0.	2.7025e-003
9986	13.544	2.6	0.	2.7823e-003
9987	13.644	2.6	0.	2.8814e-003
9988	13.743	2.6	0.	2.9907e-003
9989	13.843	2.6	0.	3.1224e-003
9990	13.942	2.6	0.	3.2685e-003
9991	14.042	2.6	0.	3.3933e-003
9992	14.142	2.6	0.	3.5269e-003
9993	14.241	2.6	0.	3.675e-003
9994	14.341	2.6	0.	3.8244e-003
9995	14.44	2.6	0.	3.9763e-003
9996	14.54	2.6	0.	4.1258e-003
9997	14.639	2.6	0.	4.2667e-003
9998	14.739	2.6	0.	4.4206e-003
9999	14.839	2.6	0.	4.5835e-003
10000	14.938	2.6	0.	4.7384e-003
10001	15.038	2.6	0.	4.8912e-003
10002	15.137	2.6	0.	5.0408e-003
10003	15.237	2.6	0.	5.2011e-003
10004	15.336	2.6	0.	5.3665e-003
10005	15.436	2.6	0.	5.5056e-003
10006	15.536	2.6	0.	5.6538e-003
10007	15.635	2.6	0.	5.8101e-003
10008	15.735	2.6	0.	5.9672e-003
10009	15.834	2.6	0.	6.1318e-003
10010	15.934	2.6	0.	6.2977e-003
10011	16.034	2.6	0.	6.4669e-003
10012	16.133	2.6	0.	6.6655e-003
10013	16.233	2.6	0.	6.9108e-003
10014	16.332	2.6	0.	7.2318e-003
10015	16.432	2.6	0.	7.8346e-003
10016	16.531	2.6	0.	1.1993e-002
10017	16.631	2.6	0.	0.91219
10018	16.731	2.6	0.	2.1049
10019	16.83	2.6	0.	3.277
10020	16.93	2.6	0.	4.4302
10021	17.029	2.6	0.	5.5668
10022	17.129	2.6	0.	6.6888
10023	17.229	2.6	0.	7.7985
10024	17.328	2.6	0.	8.898
10025	17.428	2.6	0.	9.9895
10026	17.527	2.6	0.	11.075
10027	17.627	2.6	0.	12.156
10028	17.726	2.6	0.	13.236
10029	17.826	2.6	0.	14.316
10030	17.926	2.6	0.	15.399
10031	18.025	2.6	0.	16.485
10032	18.125	2.6	0.	17.578
10033	18.224	2.6	0.	18.68
10034	18.324	2.6	0.	19.792
10035	18.423	2.6	0.	20.917
10036	18.523	2.6	0.	22.056
10037	18.623	2.6	0.	23.213
10038	18.722	2.6	0.	24.388
10039	18.822	2.6	0.	25.585
10040	18.921	2.6	0.	26.805
10041	19.021	2.6	0.	28.052
10042	19.121	2.6	0.	29.326
10043	19.22	2.6	0.	30.63
10044	19.32	2.6	0.	31.968
10045	19.419	2.6	0.	33.34
10046	19.519	2.6	0.	34.751
10047	19.618	2.6	0.	36.201
10048	19.718	2.6	0.	37.695
10049	19.818	2.6	0.	39.234
10050	19.917	2.6	0.	40.822
10051	20.017	2.6	0.	42.46
10052	20.116	2.6	0.	44.153
10053	20.216	2.6	0.	45.903
10054	20.316	2.6	0.	47.713
10055	20.415	2.6	0.	49.586
10056	20.515	2.6	0.	51.525
10057	20.614	2.6	0.	53.533
10058	20.714	2.6	0.	55.614
10059	20.813	2.6	0.	57.772
10060	20.913	2.6	0.	60.008
10061	21.013	2.6	0.	62.328
10062	21.112	2.6	0.	64.734
10063	21.212	2.6	0.	67.23
10064	21.311	2.6	0.	69.82
10065	21.411	2.6	0.	72.507
10066	21.51	2.6	0.	75.294
10067	21.61	2.6	0.	78.185
10068	21.71	2.6	0.	81.185
10069	21.809	2.6	0.	84.295
10070	21.909	2.6	0.	87.52
10071	22.008	2.6	0.	90.863
10072	22.108	2.6	0.	94.327
10073	22.208	2.6	0.	97.915
10074	22.307	2.6	0.	101.63
10075	22.407	2.6	0.	105.47
10076	22.506	2.6	0.	109.45
10077	22.606	2.6	0.	113.56
10078	22.705	2.6	0.	117.8
10079	22.805	2.6	0.	122.18
10080	22.905	2.6	0.	126.7
10081	23.004	2.6	0.	131.36
10082	23.104	2.6	0.	136.16
10083	23.203	2.6	0.	141.09
10084	23.303	2.6	0.	146.16
10085	23.403	2.6	0.	151.37
10086	23.502	2.6	0.	156.72
10087	23.602	2.6	0.	162.2
10088	23.701	2.6	0.	167.81
10089	23.801	2.6	0.	173.56
10090	23.9	2.6	0.	179.39
10091	8.2662	2.5	0.	961.84
10092	8.3658	2.5	0.	769.91
10093	8.4654	2.5	0.	565.21
10094	8.565	2.5	0.	374.21
10095	8.6646	2.5	0.	210.11
10096	8.7642	2.5	0.	75.668
10097	8.8637	2.5	0.	1.802
10098	8.9633	2.5	0.	1.5247
10099	9.0629	2.5	0.	1.2861
10100	9.1625	2.5	0.	1.0856
10101	9.2621	2.5	0.	0.91866
10102	9.3616	2.5	0.	0.77921
10103	9.4612	2.5	0.	0.66205
10104	9.5608	2.5	0.	0.56309
10105	9.6604	2.5	0.	0.47914
10106	9.76	2.5	0.	0.40771
10107	9.8595	2.5	0.	0.34687
10108	9.9591	2.5	0.	0.29499
10109	10.059	2.5	0.	0.25074
10110	10.158	2.5	0.	0.21299
10111	10.258	2.5	0.	0.18081
10112	10.357	2.5	0.	0.15341
10113	10.457	2.5	0.	0.13009
10114	10.557	2.5	0.	0.11024
10115	10.656	2.5	0.	9.3342e-002
10116	10.756	2.5	0.	7.8983e-002
10117	10.855	2.5	0.	6.678e-002
10118	10.955	2.5	0.	5.6436e-002
10119	11.055	2.5	0.	4.7673e-002
10120	11.154	2.5	0.	4.0209e-002
10121	11.254	2.5	0.	3.3895e-002
10122	11.353	2.5	0.	2.8571e-002
10123	11.453	2.5	0.	2.4073e-002
10124	11.552	2.5	0.	2.0284e-002
10125	11.652	2.5	0.	1.7093e-002
10126	11.752	2.5	0.	1.4405e-002
10127	11.851	2.5	0.	1.2169e-002
10128	11.951	2.5	0.	1.0319e-002
10129	12.05	2.5	0.	8.7755e-003
10130	12.15	2.5	0.	7.4969e-003
10131	12.249	2.5	0.	6.444e-003
10132	12.349	2.5	0.	5.5994e-003
10133	12.449	2.5	0.	4.9246e-003
10134	12.548	2.5	0.	4.357e-003
10135	12.648	2.5	0.	3.912e-003
10136	12.747	2.5	0.	3.5802e-003
10137	12.847	2.5	0.	3.3269e-003
10138	12.947	2.5	0.	3.1492e-003
10139	13.046	2.5	0.	3.0247e-003
10140	13.146	2.5	0.	2.9392e-003
10141	13.245	2.5	0.	2.9088e-003
10142	13.345	2.5	0.	2.925e-003
10143	13.444	2.5	0.	2.9609e-003
10144	13.544	2.5	0.	3.0175e-003
10145	13.644	2.5	0.	3.0924e-003
10146	13.743	2.5	0.	3.1808e-003
10147	13.843	2.5	0.	3.2939e-003
10148	13.942	2.5	0.	3.4235e-003
10149	14.042	2.5	0.	3.5318e-003
10150	14.142	2.5	0.	3.6517e-003
10151	14.241	2.5	0.	3.7883e-003
10152	14.341	2.5	0.	3.926e-003
10153	14.44	2.5	0.	4.0671e-003
10154	14.54	2.5	0.	4.2068e-003
10155	14.639	2.5	0.	4.3405e-003
10156	14.739	2.5	0.	4.486e-003
10157	14.839	2.5	0.	4.6431e-003
10158	14.938	2.5	0.	4.7929e-003
10159	15.038	2.5	0.	4.9411e-003
10160	15.137	2.5	0.	5.0891e-003
10161	15.237	2.5	0.	5.2461e-003
10162	15.336	2.5	0.	5.4103e-003
10163	15.436	2.5	0.	5.5494e-003
10164	15.536	2.5	0.	5.6992e-003
10165	15.635	2.5	0.	5.8586e-003
10166	15.735	2.5	0.	6.0226e-003
10167	15.834	2.5	0.	6.1951e-003
10168	15.934	2.5	0.	6.3757e-003
10169	16.034	2.5	0.	6.5675e-003
10170	16.133	2.5	0.	6.8004e-003
10171	16.233	2.5	0.	7.1072e-003
10172	16.332	2.5	0.	7.5597e-003
10173	16.432	2.5	0.	8.5754e-003
10174	16.531	2.5	0.	2.3901e-002
10175	16.631	2.5	0.	1.0829
10176	16.731	2.5	0.	2.2616
10177	16.83	2.5	0.	3.4203
10178	16.93	2.5	0.	4.5603
10179	17.029	2.5	0.	5.6839
10180	17.129	2.5	0.	6.7933
10181	17.229	2.5	0.	7.8906
10182	17.328	2.5	0.	8.9777
10183	17.428	2.5	0.	10.057
10184	17.527	2.5	0.	11.13
10185	17.627	2.5	0.	12.2
10186	17.726	2.5	0.	13.268
10187	17.826	2.5	0.	14.335
10188	17.926	2.5	0.	15.406
10189	18.025	2.5	0.	16.48
10190	18.125	2.5	0.	17.561
10191	18.224	2.5	0.	18.65
10192	18.324	2.5	0.	19.749
10193	18.423	2.5	0.	20.861
10194	18.523	2.5	0.	21.988
10195	18.623	2.5	0.	23.131
10196	18.722	2.5	0.	24.293
10197	18.822	2.5	0.	25.475
10198	18.921	2.5	0.	26.681
10199	19.021	2.5	0.	27.913
10200	19.121	2.5	0.	29.171
10201	19.22	2.5	0.	30.46
10202	19.32	2.5	0.	31.781
10203	19.419	2.5	0.	33.137
10204	19.519	2.5	0.	34.53
10205	19.618	2.5	0.	35.963
10206	19.718	2.5	0.	37.438
10207	19.818	2.5	0.	38.958
10208	19.917	2.5	0.	40.526
10209	20.017	2.5	0.	42.144
10210	20.116	2.5	0.	43.816
10211	20.216	2.5	0.	45.543
10212	20.316	2.5	0.	47.33
10213	20.415	2.5	0.	49.179
10214	20.515	2.5	0.	51.094
10215	20.614	2.5	0.	53.077
10216	20.714	2.5	0.	55.132
10217	20.813	2.5	0.	57.262
10218	20.913	2.5	0.	59.471
10219	21.013	2.5	0.	61.762
10220	21.112	2.5	0.	64.139
10221	21.212	2.5	0.	66.605
10222	21.311	2.5	0.	69.163
10223	21.411	2.5	0.	71.819
10224	21.51	2.5	0.	74.574
10225	21.61	2.5	0.	77.433
10226	21.71	2.5	0.	80.399
10227	21.809	2.5	0.	83.476
10228	21.909	2.5	0.	86.668
10229	22.008	2.5	0.	89.977
10230	22.108	2.5	0.	93.408
10231	22.208	2.5	0.	96.963
10232	22.307	2.5	0.	100.65
10233	22.407	2.5	0.	104.46
10234	22.506	2.5	0.	108.4
10235	22.606	2.5	0.	112.48
10236	22.705	2.5	0.	116.7
10237	22.805	2.5	0.	121.06
10238	22.905	2.5	0.	125.55
10239	23.004	2.5	0.	130.19
10240	23.104	2.5	0.	134.96
10241	23.203	2.5	0.	139.88
10242	23.303	2.5	0.	144.94
10243	23.403	2.5	0.	150.13
10244	23.502	2.5	0.	155.47
10245	23.602	2.5	0.	160.94
10246	23.701	2.5	0.	166.54
10247	23.801	2.5	0.	172.29
10248	23.9	2.5	0.	178.13
10249	8.2662	2.4	0.	1022.
10250	8.3658	2.4	0.	790.92
10251	8.4654	2.4	0.	557.58
10252	8.565	2.4	0.	353.07
10253	8.6646	2.4	0.	187.38
10254	8.7642	2.4	0.	57.518
10255	8.8637	2.4	0.	2.3792
10256	8.9633	2.4	0.	1.7905
10257	9.0629	2.4	0.	1.4403
10258	9.1625	2.4	0.	1.1812
10259	9.2621	2.4	0.	0.98116
10260	9.3616	2.4	0.	0.82224
10261	9.4612	2.4	0.	0.69335
10262	9.5608	2.4	0.	0.58711
10263	9.6604	2.4	0.	0.49848
10264	9.76	2.4	0.	0.42392
10265	9.8595	2.4	0.	0.36084
10266	9.9591	2.4	0.	0.30728
10267	10.059	2.4	0.	0.26167
10268	10.158	2.4	0.	0.22278
10269	10.258	2.4	0.	0.18961
10270	10.357	2.4	0.	0.16133
10271	10.457	2.4	0.	0.13721
10272	10.557	2.4	0.	0.11664
10273	10.656	2.4	0.	9.9095e-002
10274	10.756	2.4	0.	8.4147e-002
10275	10.855	2.4	0.	7.1411e-002
10276	10.955	2.4	0.	6.0587e-002
10277	11.055	2.4	0.	5.1392e-002
10278	11.154	2.4	0.	4.3541e-002
10279	11.254	2.4	0.	3.6883e-002
10280	11.353	2.4	0.	3.1249e-002
10281	11.453	2.4	0.	2.6476e-002
10282	11.552	2.4	0.	2.2441e-002
10283	11.652	2.4	0.	1.903e-002
10284	11.752	2.4	0.	1.6122e-002
10285	11.851	2.4	0.	1.3735e-002
10286	11.951	2.4	0.	1.1728e-002
10287	12.05	2.4	0.	1.0046e-002
10288	12.15	2.4	0.	8.6416e-003
10289	12.249	2.4	0.	7.4777e-003
10290	12.349	2.4	0.	6.5307e-003
10291	12.449	2.4	0.	5.7666e-003
10292	12.548	2.4	0.	5.1169e-003
10293	12.648	2.4	0.	4.6001e-003
10294	12.747	2.4	0.	4.2005e-003
10295	12.847	2.4	0.	3.8896e-003
10296	12.947	2.4	0.	3.657e-003
10297	13.046	2.4	0.	3.4841e-003
10298	13.146	2.4	0.	3.3538e-003
10299	13.245	2.4	0.	3.2839e-003
10300	13.345	2.4	0.	3.2638e-003
10301	13.444	2.4	0.	3.268e-003
10302	13.544	2.4	0.	3.2945e-003
10303	13.644	2.4	0.	3.3422e-003
10304	13.743	2.4	0.	3.4061e-003
10305	13.843	2.4	0.	3.4967e-003
10306	13.942	2.4	0.	3.6056e-003
10307	14.042	2.4	0.	3.6968e-003
10308	14.142	2.4	0.	3.7992e-003
10309	14.241	2.4	0.	3.9214e-003
10310	14.341	2.4	0.	4.0448e-003
10311	14.44	2.4	0.	4.1745e-003
10312	14.54	2.4	0.	4.3038e-003
10313	14.639	2.4	0.	4.4266e-003
10314	14.739	2.4	0.	4.5653e-003
10315	14.839	2.4	0.	4.7143e-003
10316	14.938	2.4	0.	4.8577e-003
10317	15.038	2.4	0.	5.0017e-003
10318	15.137	2.4	0.	5.1451e-003
10319	15.237	2.4	0.	5.2999e-003
10320	15.336	2.4	0.	5.4633e-003
10321	15.436	2.4	0.	5.6033e-003
10322	15.536	2.4	0.	5.7558e-003
10323	15.635	2.4	0.	5.9193e-003
10324	15.735	2.4	0.	6.0923e-003
10325	15.834	2.4	0.	6.2778e-003
10326	15.934	2.4	0.	6.478e-003
10327	16.034	2.4	0.	6.6992e-003
10328	16.133	2.4	0.	6.9846e-003
10329	16.233	2.4	0.	7.3819e-003
10330	16.332	2.4	0.	8.0437e-003
10331	16.432	2.4	0.	9.8387e-003
10332	16.531	2.4	0.	0.13066
10333	16.631	2.4	0.	1.2908
10334	16.731	2.4	0.	2.4527
10335	16.83	2.4	0.	3.5949
10336	16.93	2.4	0.	4.719
10337	17.029	2.4	0.	5.827
10338	17.129	2.4	0.	6.921
10339	17.229	2.4	0.	8.0031
10340	17.328	2.4	0.	9.0754
10341	17.428	2.4	0.	10.14
10342	17.527	2.4	0.	11.198
10343	17.627	2.4	0.	12.253
10344	17.726	2.4	0.	13.306
10345	17.826	2.4	0.	14.36
10346	17.926	2.4	0.	15.415
10347	18.025	2.4	0.	16.475
10348	18.125	2.4	0.	17.54
10349	18.224	2.4	0.	18.614
10350	18.324	2.4	0.	19.698
10351	18.423	2.4	0.	20.795
10352	18.523	2.4	0.	21.905
10353	18.623	2.4	0.	23.032
10354	18.722	2.4	0.	24.177
10355	18.822	2.4	0.	25.343
10356	18.921	2.4	0.	26.531
10357	19.021	2.4	0.	27.745
10358	19.121	2.4	0.	28.985
10359	19.22	2.4	0.	30.255
10360	19.32	2.4	0.	31.556
10361	19.419	2.4	0.	32.892
10362	19.519	2.4	0.	34.264
10363	19.618	2.4	0.	35.675
10364	19.718	2.4	0.	37.128
10365	19.818	2.4	0.	38.624
10366	19.917	2.4	0.	40.168
10367	20.017	2.4	0.	41.761
10368	20.116	2.4	0.	43.407
10369	20.216	2.4	0.	45.108
10370	20.316	2.4	0.	46.867
10371	20.415	2.4	0.	48.687
10372	20.515	2.4	0.	50.572
10373	20.614	2.4	0.	52.524
10374	20.714	2.4	0.	54.547
10375	20.813	2.4	0.	56.644
10376	20.913	2.4	0.	58.819
10377	21.013	2.4	0.	61.075
10378	21.112	2.4	0.	63.416
10379	21.212	2.4	0.	65.845
10380	21.311	2.4	0.	68.365
10381	21.411	2.4	0.	70.982
10382	21.51	2.4	0.	73.698
10383	21.61	2.4	0.	76.517
10384	21.71	2.4	0.	79.442
10385	21.809	2.4	0.	82.478
10386	21.909	2.4	0.	85.629
10387	22.008	2.4	0.	88.897
10388	22.108	2.4	0.	92.287
10389	22.208	2.4	0.	95.802
10390	22.307	2.4	0.	99.444
10391	22.407	2.4	0.	103.22
10392	22.506	2.4	0.	107.13
10393	22.606	2.4	0.	111.17
10394	22.705	2.4	0.	115.35
10395	22.805	2.4	0.	119.68
10396	22.905	2.4	0.	124.14
10397	23.004	2.4	0.	128.75
10398	23.104	2.4	0.	133.5
10399	23.203	2.4	0.	138.39
10400	23.303	2.4	0.	143.43
10401	23.403	2.4	0.	148.61
10402	23.502	2.4	0.	153.93
10403	23.602	2.4	0.	159.39
10404	23.701	2.4	0.	164.99
10405	23.801	2.4	0.	170.74
10406	23.9	2.4	0.	176.57
10407	8.2662	2.3	0.	1095.5
10408	8.3658	2.3	0.	820.17
10409	8.4654	2.3	0.	553.42
10410	8.565	2.3	0.	338.7
10411	8.6646	2.3	0.	175.
10412	8.7642	2.3	0.	52.209
10413	8.8637	2.3	0.	4.1025
10414	8.9633	2.3	0.	2.4263
10415	9.0629	2.3	0.	1.7869
10416	9.1625	2.3	0.	1.394
10417	9.2621	2.3	0.	1.1207
10418	9.3616	2.3	0.	0.91826
10419	9.4612	2.3	0.	0.76216
10420	9.5608	2.3	0.	0.63823
10421	9.6604	2.3	0.	0.5377
10422	9.76	2.3	0.	0.45488
10423	9.8595	2.3	0.	0.3859
10424	9.9591	2.3	0.	0.32797
10425	10.059	2.3	0.	0.27904
10426	10.158	2.3	0.	0.23756
10427	10.258	2.3	0.	0.2023
10428	10.357	2.3	0.	0.17231
10429	10.457	2.3	0.	0.14678
10430	10.557	2.3	0.	0.125
10431	10.656	2.3	0.	0.10643
10432	10.756	2.3	0.	9.0606e-002
10433	10.855	2.3	0.	7.7109e-002
10434	10.955	2.3	0.	6.5624e-002
10435	11.055	2.3	0.	5.5854e-002
10436	11.154	2.3	0.	4.7502e-002
10437	11.254	2.3	0.	4.0403e-002
10438	11.353	2.3	0.	3.4384e-002
10439	11.453	2.3	0.	2.927e-002
10440	11.552	2.3	0.	2.4938e-002
10441	11.652	2.3	0.	2.1263e-002
10442	11.752	2.3	0.	1.8147e-002
10443	11.851	2.3	0.	1.553e-002
10444	11.951	2.3	0.	1.334e-002
10445	12.05	2.3	0.	1.1495e-002
10446	12.15	2.3	0.	9.9462e-003
10447	12.249	2.3	0.	8.6528e-003
10448	12.349	2.3	0.	7.5908e-003
10449	12.449	2.3	0.	6.7222e-003
10450	12.548	2.3	0.	5.9809e-003
10451	12.648	2.3	0.	5.3799e-003
10452	12.747	2.3	0.	4.9066e-003
10453	12.847	2.3	0.	4.5264e-003
10454	12.947	2.3	0.	4.2337e-003
10455	13.046	2.3	0.	4.0051e-003
10456	13.146	2.3	0.	3.8252e-003
10457	13.245	2.3	0.	3.7095e-003
10458	13.345	2.3	0.	3.6495e-003
10459	13.444	2.3	0.	3.615e-003
10460	13.544	2.3	0.	3.607e-003
10461	13.644	2.3	0.	3.6252e-003
10462	13.743	2.3	0.	3.6613e-003
10463	13.843	2.3	0.	3.727e-003
10464	13.942	2.3	0.	3.8128e-003
10465	14.042	2.3	0.	3.8823e-003
10466	14.142	2.3	0.	3.9675e-003
10467	14.241	2.3	0.	4.0713e-003
10468	14.341	2.3	0.	4.1802e-003
10469	14.44	2.3	0.	4.2951e-003
10470	14.54	2.3	0.	4.4124e-003
10471	14.639	2.3	0.	4.5258e-003
10472	14.739	2.3	0.	4.6545e-003
10473	14.839	2.3	0.	4.7966e-003
10474	14.938	2.3	0.	4.9329e-003
10475	15.038	2.3	0.	5.0713e-003
10476	15.137	2.3	0.	5.2102e-003
10477	15.237	2.3	0.	5.3632e-003
10478	15.336	2.3	0.	5.5254e-003
10479	15.436	2.3	0.	5.6665e-003
10480	15.536	2.3	0.	5.8238e-003
10481	15.635	2.3	0.	5.9945e-003
10482	15.735	2.3	0.	6.1777e-003
10483	15.834	2.3	0.	6.3815e-003
10484	15.934	2.3	0.	6.6098e-003
10485	16.034	2.3	0.	6.8729e-003
10486	16.133	2.3	0.	7.2306e-003
10487	16.233	2.3	0.	7.7688e-003
10488	16.332	2.3	0.	8.7741e-003
10489	16.432	2.3	0.	1.227e-002
10490	16.531	2.3	0.	0.37921
10491	16.631	2.3	0.	1.5354
10492	16.731	2.3	0.	2.6778
10493	16.83	2.3	0.	3.8008
10494	16.93	2.3	0.	4.9062
10495	17.029	2.3	0.	5.9959
10496	17.129	2.3	0.	7.0719
10497	17.229	2.3	0.	8.1363
10498	17.328	2.3	0.	9.191
10499	17.428	2.3	0.	10.238
10500	17.527	2.3	0.	11.279
10501	17.627	2.3	0.	12.317
10502	17.726	2.3	0.	13.353
10503	17.826	2.3	0.	14.389
10504	17.926	2.3	0.	15.427
10505	18.025	2.3	0.	16.469
10506	18.125	2.3	0.	17.518
10507	18.224	2.3	0.	18.574
10508	18.324	2.3	0.	19.64
10509	18.423	2.3	0.	20.718
10510	18.523	2.3	0.	21.81
10511	18.623	2.3	0.	22.917
10512	18.722	2.3	0.	24.043
10513	18.822	2.3	0.	25.189
10514	18.921	2.3	0.	26.357
10515	19.021	2.3	0.	27.549
10516	19.121	2.3	0.	28.768
10517	19.22	2.3	0.	30.015
10518	19.32	2.3	0.	31.294
10519	19.419	2.3	0.	32.605
10520	19.519	2.3	0.	33.953
10521	19.618	2.3	0.	35.338
10522	19.718	2.3	0.	36.765
10523	19.818	2.3	0.	38.234
10524	19.917	2.3	0.	39.749
10525	20.017	2.3	0.	41.313
10526	20.116	2.3	0.	42.928
10527	20.216	2.3	0.	44.597
10528	20.316	2.3	0.	46.324
10529	20.415	2.3	0.	48.11
10530	20.515	2.3	0.	49.96
10531	20.614	2.3	0.	51.876
10532	20.714	2.3	0.	53.861
10533	20.813	2.3	0.	55.92
10534	20.913	2.3	0.	58.055
10535	21.013	2.3	0.	60.269
10536	21.112	2.3	0.	62.567
10537	21.212	2.3	0.	64.953
10538	21.311	2.3	0.	67.429
10539	21.411	2.3	0.	69.999
10540	21.51	2.3	0.	72.668
10541	21.61	2.3	0.	75.439
10542	21.71	2.3	0.	78.317
10543	21.809	2.3	0.	81.304
10544	21.909	2.3	0.	84.406
10545	22.008	2.3	0.	87.625
10546	22.108	2.3	0.	90.966
10547	22.208	2.3	0.	94.432
10548	22.307	2.3	0.	98.027
10549	22.407	2.3	0.	101.75
10550	22.506	2.3	0.	105.62
10551	22.606	2.3	0.	109.62
10552	22.705	2.3	0.	113.76
10553	22.805	2.3	0.	118.04
10554	22.905	2.3	0.	122.47
10555	23.004	2.3	0.	127.04
10556	23.104	2.3	0.	131.76
10557	23.203	2.3	0.	136.63
10558	23.303	2.3	0.	141.64
10559	23.403	2.3	0.	146.8
10560	23.502	2.3	0.	152.11
10561	23.602	2.3	0.	157.56
10562	23.701	2.3	0.	163.15
10563	23.801	2.3	0.	168.89
10564	23.9	2.3	0.	174.73
10565	8.2662	2.2	0.	1217.
10566	8.3658	2.2	0.	880.24
10567	8.4654	2.2	0.	580.13
10568	8.565	2.2	0.	355.01
10569	8.6646	2.2	0.	191.59
10570	8.7642	2.2	0.	72.186
10571	8.8637	2.2	0.	10.509
10572	8.9633	2.2	0.	4.0699
10573	9.0629	2.2	0.	2.552
10574	9.1625	2.2	0.	1.8263
10575	9.2621	2.2	0.	1.3897
10576	9.3616	2.2	0.	1.0965
10577	9.4612	2.2	0.	0.8858
10578	9.5608	2.2	0.	0.72721
10579	9.6604	2.2	0.	0.60376
10580	9.76	2.2	0.	0.50524
10581	9.8595	2.2	0.	0.4252
10582	9.9591	2.2	0.	0.35926
10583	10.059	2.2	0.	0.30439
10584	10.158	2.2	0.	0.2584
10585	10.258	2.2	0.	0.21965
10586	10.357	2.2	0.	0.1869
10587	10.457	2.2	0.	0.15915
10588	10.557	2.2	0.	0.13558
10589	10.656	2.2	0.	0.11553
10590	10.756	2.2	0.	9.8467e-002
10591	10.855	2.2	0.	8.3938e-002
10592	10.955	2.2	0.	7.158e-002
10593	11.055	2.2	0.	6.1068e-002
10594	11.154	2.2	0.	5.2081e-002
10595	11.254	2.2	0.	4.4438e-002
10596	11.353	2.2	0.	3.795e-002
10597	11.453	2.2	0.	3.243e-002
10598	11.552	2.2	0.	2.7745e-002
10599	11.652	2.2	0.	2.3762e-002
10600	11.752	2.2	0.	2.0376e-002
10601	11.851	2.2	0.	1.7523e-002
10602	11.951	2.2	0.	1.5126e-002
10603	12.05	2.2	0.	1.3096e-002
10604	12.15	2.2	0.	1.1385e-002
10605	12.249	2.2	0.	9.9468e-003
10606	12.349	2.2	0.	8.7573e-003
10607	12.449	2.2	0.	7.774e-003
10608	12.548	2.2	0.	6.9287e-003
10609	12.648	2.2	0.	6.2363e-003
10610	12.747	2.2	0.	5.6794e-003
10611	12.847	2.2	0.	5.2259e-003
10612	12.947	2.2	0.	4.8648e-003
10613	13.046	2.2	0.	4.5762e-003
10614	13.146	2.2	0.	4.3417e-003
10615	13.245	2.2	0.	4.1762e-003
10616	13.345	2.2	0.	4.0708e-003
10617	13.444	2.2	0.	3.9968e-003
10618	13.544	2.2	0.	3.9523e-003
10619	13.644	2.2	0.	3.9355e-003
10620	13.743	2.2	0.	3.9418e-003
10621	13.843	2.2	0.	3.9787e-003
10622	13.942	2.2	0.	4.0403e-003
10623	14.042	2.2	0.	4.0872e-003
10624	14.142	2.2	0.	4.15e-003
10625	14.241	2.2	0.	4.2369e-003
10626	14.341	2.2	0.	4.3287e-003
10627	14.44	2.2	0.	4.4299e-003
10628	14.54	2.2	0.	4.5329e-003
10629	14.639	2.2	0.	4.6351e-003
10630	14.739	2.2	0.	4.7522e-003
10631	14.839	2.2	0.	4.8856e-003
10632	14.938	2.2	0.	5.0153e-003
10633	15.038	2.2	0.	5.1484e-003
10634	15.137	2.2	0.	5.2835e-003
10635	15.237	2.2	0.	5.4344e-003
10636	15.336	2.2	0.	5.5972e-003
10637	15.436	2.2	0.	5.7409e-003
10638	15.536	2.2	0.	5.9041e-003
10639	15.635	2.2	0.	6.0847e-003
10640	15.735	2.2	0.	6.2841e-003
10641	15.834	2.2	0.	6.513e-003
10642	15.934	2.2	0.	6.7778e-003
10643	16.034	2.2	0.	7.1027e-003
10644	16.133	2.2	0.	7.5662e-003
10645	16.233	2.2	0.	8.323e-003
10646	16.332	2.2	0.	9.9463e-003
10647	16.432	2.2	0.	1.8328e-002
10648	16.531	2.2	0.	0.67924
10649	16.631	2.2	0.	1.8165
10650	16.731	2.2	0.	2.9365
10651	16.83	2.2	0.	4.0377
10652	16.93	2.2	0.	5.1218
10653	17.029	2.2	0.	6.1905
10654	17.129	2.2	0.	7.246
10655	17.229	2.2	0.	8.2901
10656	17.328	2.2	0.	9.3248
10657	17.428	2.2	0.	10.352
10658	17.527	2.2	0.	11.374
10659	17.627	2.2	0.	12.392
10660	17.726	2.2	0.	13.408
10661	17.826	2.2	0.	14.424
10662	17.926	2.2	0.	15.443
10663	18.025	2.2	0.	16.465
10664	18.125	2.2	0.	17.493
10665	18.224	2.2	0.	18.529
10666	18.324	2.2	0.	19.575
10667	18.423	2.2	0.	20.632
10668	18.523	2.2	0.	21.702
10669	18.623	2.2	0.	22.788
10670	18.722	2.2	0.	23.892
10671	18.822	2.2	0.	25.015
10672	18.921	2.2	0.	26.159
10673	19.021	2.2	0.	27.327
10674	19.121	2.2	0.	28.521
10675	19.22	2.2	0.	29.743
10676	19.32	2.2	0.	30.995
10677	19.419	2.2	0.	32.28
10678	19.519	2.2	0.	33.599
10679	19.618	2.2	0.	34.955
10680	19.718	2.2	0.	36.351
10681	19.818	2.2	0.	37.789
10682	19.917	2.2	0.	39.272
10683	20.017	2.2	0.	40.802
10684	20.116	2.2	0.	42.383
10685	20.216	2.2	0.	44.016
10686	20.316	2.2	0.	45.705
10687	20.415	2.2	0.	47.452
10688	20.515	2.2	0.	49.261
10689	20.614	2.2	0.	51.136
10690	20.714	2.2	0.	53.078
10691	20.813	2.2	0.	55.092
10692	20.913	2.2	0.	57.181
10693	21.013	2.2	0.	59.348
10694	21.112	2.2	0.	61.597
10695	21.212	2.2	0.	63.931
10696	21.311	2.2	0.	66.356
10697	21.411	2.2	0.	68.873
10698	21.51	2.2	0.	71.488
10699	21.61	2.2	0.	74.204
10700	21.71	2.2	0.	77.026
10701	21.809	2.2	0.	79.956
10702	21.909	2.2	0.	83.
10703	22.008	2.2	0.	86.162
10704	22.108	2.2	0.	89.446
10705	22.208	2.2	0.	92.855
10706	22.307	2.2	0.	96.393
10707	22.407	2.2	0.	100.06
10708	22.506	2.2	0.	103.87
10709	22.606	2.2	0.	107.82
10710	22.705	2.2	0.	111.91
10711	22.805	2.2	0.	116.15
10712	22.905	2.2	0.	120.53
10713	23.004	2.2	0.	125.07
10714	23.104	2.2	0.	129.75
10715	23.203	2.2	0.	134.59
10716	23.303	2.2	0.	139.57
10717	23.403	2.2	0.	144.71
10718	23.502	2.2	0.	149.99
10719	23.602	2.2	0.	155.43
10720	23.701	2.2	0.	161.01
10721	23.801	2.2	0.	166.74
10722	23.9	2.2	0.	172.58
10723	8.2662	2.1	0.	1638.4
10724	8.3658	2.1	0.	1143.6
10725	8.4654	2.1	0.	707.65
10726	8.565	2.1	0.	442.68
10727	8.6646	2.1	0.	257.46
10728	8.7642	2.1	0.	125.84
10729	8.8637	2.1	0.	37.553
10730	8.9633	2.1	0.	9.0178
10731	9.0629	2.1	0.	4.2685
10732	9.1625	2.1	0.	2.6647
10733	9.2621	2.1	0.	1.8684
10734	9.3616	2.1	0.	1.3964
10735	9.4612	2.1	0.	1.0855
10736	9.5608	2.1	0.	0.86631
10737	9.6604	2.1	0.	0.70414
10738	9.76	2.1	0.	0.5798
10739	9.8595	2.1	0.	0.48192
10740	9.9591	2.1	0.	0.40331
10741	10.059	2.1	0.	0.3392
10742	10.158	2.1	0.	0.28634
10743	10.258	2.1	0.	0.24237
10744	10.357	2.1	0.	0.20559
10745	10.457	2.1	0.	0.17468
10746	10.557	2.1	0.	0.1486
10747	10.656	2.1	0.	0.12652
10748	10.756	2.1	0.	0.10782
10749	10.855	2.1	0.	9.1942e-002
10750	10.955	2.1	0.	7.847e-002
10751	11.055	2.1	0.	6.7029e-002
10752	11.154	2.1	0.	5.7263e-002
10753	11.254	2.1	0.	4.8962e-002
10754	11.353	2.1	0.	4.1916e-002
10755	11.453	2.1	0.	3.5919e-002
10756	11.552	2.1	0.	3.0825e-002
10757	11.652	2.1	0.	2.6491e-002
10758	11.752	2.1	0.	2.2801e-002
10759	11.851	2.1	0.	1.9695e-002
10760	11.951	2.1	0.	1.7054e-002
10761	12.05	2.1	0.	1.4822e-002
10762	12.15	2.1	0.	1.2932e-002
10763	12.249	2.1	0.	1.1337e-002
10764	12.349	2.1	0.	1.0007e-002
10765	12.449	2.1	0.	8.8996e-003
10766	12.548	2.1	0.	7.9449e-003
10767	12.648	2.1	0.	7.1519e-003
10768	12.747	2.1	0.	6.5077e-003
10769	12.847	2.1	0.	5.9733e-003
10770	12.947	2.1	0.	5.5419e-003
10771	13.046	2.1	0.	5.1868e-003
10772	13.146	2.1	0.	4.8948e-003
10773	13.245	2.1	0.	4.6762e-003
10774	13.345	2.1	0.	4.5222e-003
10775	13.444	2.1	0.	4.4037e-003
10776	13.544	2.1	0.	4.3192e-003
10777	13.644	2.1	0.	4.2679e-003
10778	13.743	2.1	0.	4.2409e-003
10779	13.843	2.1	0.	4.2491e-003
10780	13.942	2.1	0.	4.2833e-003
10781	14.042	2.1	0.	4.3054e-003
10782	14.142	2.1	0.	4.3475e-003
10783	14.241	2.1	0.	4.4134e-003
10784	14.341	2.1	0.	4.4877e-003
10785	14.44	2.1	0.	4.572e-003
10786	14.54	2.1	0.	4.6622e-003
10787	14.639	2.1	0.	4.7522e-003
10788	14.739	2.1	0.	4.8589e-003
10789	14.839	2.1	0.	4.9829e-003
10790	14.938	2.1	0.	5.1064e-003
10791	15.038	2.1	0.	5.2334e-003
10792	15.137	2.1	0.	5.3653e-003
10793	15.237	2.1	0.	5.5156e-003
10794	15.336	2.1	0.	5.6793e-003
10795	15.436	2.1	0.	5.8293e-003
10796	15.536	2.1	0.	6.0006e-003
10797	15.635	2.1	0.	6.1951e-003
10798	15.735	2.1	0.	6.4191e-003
10799	15.834	2.1	0.	6.678e-003
10800	15.934	2.1	0.	6.997e-003
10801	16.034	2.1	0.	7.4093e-003
10802	16.133	2.1	0.	8.0347e-003
10803	16.233	2.1	0.	9.1516e-003
10804	16.332	2.1	0.	1.2032e-002
10805	16.432	2.1	0.	4.9138e-002
10806	16.531	2.1	0.	1.0201
10807	16.631	2.1	0.	2.1334
10808	16.731	2.1	0.	3.2285
10809	16.83	2.1	0.	4.3054
10810	16.93	2.1	0.	5.3655
10811	17.029	2.1	0.	6.4109
10812	17.129	2.1	0.	7.4433
10813	17.229	2.1	0.	8.4647
10814	17.328	2.1	0.	9.477
10815	17.428	2.1	0.	10.482
10816	17.527	2.1	0.	11.482
10817	17.627	2.1	0.	12.478
10818	17.726	2.1	0.	13.472
10819	17.826	2.1	0.	14.466
10820	17.926	2.1	0.	15.463
10821	18.025	2.1	0.	16.463
10822	18.125	2.1	0.	17.468
10823	18.224	2.1	0.	18.481
10824	18.324	2.1	0.	19.504
10825	18.423	2.1	0.	20.537
10826	18.523	2.1	0.	21.584
10827	18.623	2.1	0.	22.645
10828	18.722	2.1	0.	23.724
10829	18.822	2.1	0.	24.821
10830	18.921	2.1	0.	25.94
10831	19.021	2.1	0.	27.081
10832	19.121	2.1	0.	28.247
10833	19.22	2.1	0.	29.44
10834	19.32	2.1	0.	30.662
10835	19.419	2.1	0.	31.916
10836	19.519	2.1	0.	33.204
10837	19.618	2.1	0.	34.528
10838	19.718	2.1	0.	35.89
10839	19.818	2.1	0.	37.293
10840	19.917	2.1	0.	38.739
10841	20.017	2.1	0.	40.232
10842	20.116	2.1	0.	41.773
10843	20.216	2.1	0.	43.365
10844	20.316	2.1	0.	45.012
10845	20.415	2.1	0.	46.716
10846	20.515	2.1	0.	48.48
10847	20.614	2.1	0.	50.307
10848	20.714	2.1	0.	52.201
10849	20.813	2.1	0.	54.164
10850	20.913	2.1	0.	56.201
10851	21.013	2.1	0.	58.314
10852	21.112	2.1	0.	60.508
10853	21.212	2.1	0.	62.785
10854	21.311	2.1	0.	65.151
10855	21.411	2.1	0.	67.608
10856	21.51	2.1	0.	70.161
10857	21.61	2.1	0.	72.815
10858	21.71	2.1	0.	75.572
10859	21.809	2.1	0.	78.438
10860	21.909	2.1	0.	81.416
10861	22.008	2.1	0.	84.512
10862	22.108	2.1	0.	87.729
10863	22.208	2.1	0.	91.073
10864	22.307	2.1	0.	94.546
10865	22.407	2.1	0.	98.153
10866	22.506	2.1	0.	101.9
10867	22.606	2.1	0.	105.79
10868	22.705	2.1	0.	109.82
10869	22.805	2.1	0.	114.
10870	22.905	2.1	0.	118.33
10871	23.004	2.1	0.	122.82
10872	23.104	2.1	0.	127.46
10873	23.203	2.1	0.	132.26
10874	23.303	2.1	0.	137.21
10875	23.403	2.1	0.	142.32
10876	23.502	2.1	0.	147.58
10877	23.602	2.1	0.	153.
10878	23.701	2.1	0.	158.56
10879	23.801	2.1	0.	164.29
10880	23.9	2.1	0.	170.14
10881	8.2662	2.	0.	4050.9
10882	8.3658	2.	0.	1669.3
10883	8.4654	2.	0.	1002.9
10884	8.565	2.	0.	618.02
10885	8.6646	2.	0.	377.8
10886	8.7642	2.	0.	214.02
10887	8.8637	2.	0.	99.418
10888	8.9633	2.	0.	29.246
10889	9.0629	2.	0.	8.78
10890	9.1625	2.	0.	4.3511
10891	9.2621	2.	0.	2.7074
10892	9.3616	2.	0.	1.8806
10893	9.4612	2.	0.	1.3913
10894	9.5608	2.	0.	1.0715
10895	9.6604	2.	0.	0.848
10896	9.76	2.	0.	0.68412
10897	9.8595	2.	0.	0.55961
10898	9.9591	2.	0.	0.46245
10899	10.059	2.	0.	0.38506
10900	10.158	2.	0.	0.32246
10901	10.258	2.	0.	0.27121
10902	10.357	2.	0.	0.22889
10903	10.457	2.	0.	0.19371
10904	10.557	2.	0.	0.16428
10905	10.656	2.	0.	0.13956
10906	10.756	2.	0.	0.11875
10907	10.855	2.	0.	0.10116
10908	10.955	2.	0.	8.6305e-002
10909	11.055	2.	0.	7.3726e-002
10910	11.154	2.	0.	6.3022e-002
10911	11.254	2.	0.	5.3942e-002
10912	11.353	2.	0.	4.6243e-002
10913	11.453	2.	0.	3.9698e-002
10914	11.552	2.	0.	3.4139e-002
10915	11.652	2.	0.	2.9409e-002
10916	11.752	2.	0.	2.538e-002
10917	11.851	2.	0.	2.197e-002
10918	11.951	2.	0.	1.909e-002
10919	12.05	2.	0.	1.6638e-002
10920	12.15	2.	0.	1.4557e-002
10921	12.249	2.	0.	1.2793e-002
10922	12.349	2.	0.	1.1315e-002
10923	12.449	2.	0.	1.0078e-002
10924	12.548	2.	0.	9.0043e-003
10925	12.648	2.	0.	8.1092e-003
10926	12.747	2.	0.	7.3705e-003
10927	12.847	2.	0.	6.7539e-003
10928	12.947	2.	0.	6.246e-003
10929	13.046	2.	0.	5.8243e-003
10930	13.146	2.	0.	5.4704e-003
10931	13.245	2.	0.	5.1973e-003
10932	13.345	2.	0.	4.9928e-003
10933	13.444	2.	0.	4.8296e-003
10934	13.544	2.	0.	4.7048e-003
10935	13.644	2.	0.	4.6152e-003
10936	13.743	2.	0.	4.5541e-003
10937	13.843	2.	0.	4.5307e-003
10938	13.942	2.	0.	4.5369e-003
10939	14.042	2.	0.	4.5348e-003
10940	14.142	2.	0.	4.5535e-003
10941	14.241	2.	0.	4.5979e-003
10942	14.341	2.	0.	4.654e-003
10943	14.44	2.	0.	4.7229e-003
10944	14.54	2.	0.	4.7979e-003
10945	14.639	2.	0.	4.8744e-003
10946	14.739	2.	0.	4.9705e-003
10947	14.839	2.	0.	5.0868e-003
10948	14.938	2.	0.	5.2022e-003
10949	15.038	2.	0.	5.3253e-003
10950	15.137	2.	0.	5.4547e-003
10951	15.237	2.	0.	5.6037e-003
10952	15.336	2.	0.	5.7728e-003
10953	15.436	2.	0.	5.9292e-003
10954	15.536	2.	0.	6.1129e-003
10955	15.635	2.	0.	6.3297e-003
10956	15.735	2.	0.	6.582e-003
10957	15.834	2.	0.	6.8916e-003
10958	15.934	2.	0.	7.2849e-003
10959	16.034	2.	0.	7.8288e-003
10960	16.133	2.	0.	8.7123e-003
10961	16.233	2.	0.	1.0488e-002
10962	16.332	2.	0.	1.6569e-002
10963	16.432	2.	0.	0.31197
10964	16.531	2.	0.	1.3998
10965	16.631	2.	0.	2.4859
10966	16.731	2.	0.	3.5535
10967	16.83	2.	0.	4.6034
10968	16.93	2.	0.	5.6372
10969	17.029	2.	0.	6.6568
10970	17.129	2.	0.	7.6638
10971	17.229	2.	0.	8.6602
10972	17.328	2.	0.	9.6478
10973	17.428	2.	0.	10.628
10974	17.527	2.	0.	11.603
10975	17.627	2.	0.	12.575
10976	17.726	2.	0.	13.545
10977	17.826	2.	0.	14.515
10978	17.926	2.	0.	15.487
10979	18.025	2.	0.	16.463
10980	18.125	2.	0.	17.443
10981	18.224	2.	0.	18.431
10982	18.324	2.	0.	19.428
10983	18.423	2.	0.	20.436
10984	18.523	2.	0.	21.456
10985	18.623	2.	0.	22.491
10986	18.722	2.	0.	23.541
10987	18.822	2.	0.	24.611
10988	18.921	2.	0.	25.7
10989	19.021	2.	0.	26.811
10990	19.121	2.	0.	27.947
10991	19.22	2.	0.	29.108
10992	19.32	2.	0.	30.298
10993	19.419	2.	0.	31.518
10994	19.519	2.	0.	32.771
10995	19.618	2.	0.	34.058
10996	19.718	2.	0.	35.383
10997	19.818	2.	0.	36.747
10998	19.917	2.	0.	38.154
10999	20.017	2.	0.	39.604
11000	20.116	2.	0.	41.102
11001	20.216	2.	0.	42.65
11002	20.316	2.	0.	44.25
11003	20.415	2.	0.	45.905
11004	20.515	2.	0.	47.619
11005	20.614	2.	0.	49.394
11006	20.714	2.	0.	51.233
11007	20.813	2.	0.	53.141
11008	20.913	2.	0.	55.12
11009	21.013	2.	0.	57.173
11010	21.112	2.	0.	59.305
11011	21.212	2.	0.	61.519
11012	21.311	2.	0.	63.819
11013	21.411	2.	0.	66.209
11014	21.51	2.	0.	68.693
11015	21.61	2.	0.	71.275
11016	21.71	2.	0.	73.96
11017	21.809	2.	0.	76.753
11018	21.909	2.	0.	79.657
11019	22.008	2.	0.	82.678
11020	22.108	2.	0.	85.82
11021	22.208	2.	0.	89.088
11022	22.307	2.	0.	92.487
11023	22.407	2.	0.	96.021
11024	22.506	2.	0.	99.694
11025	22.606	2.	0.	103.51
11026	22.705	2.	0.	107.48
11027	22.805	2.	0.	111.6
11028	22.905	2.	0.	115.87
11029	23.004	2.	0.	120.3
11030	23.104	2.	0.	124.89
11031	23.203	2.	0.	129.64
11032	23.303	2.	0.	134.55
11033	23.403	2.	0.	139.63
11034	23.502	2.	0.	144.86
11035	23.602	2.	0.	150.26
11036	23.701	2.	0.	155.81
11037	23.801	2.	0.	161.53
11038	23.9	2.	0.	167.38
11039	8.2662	1.9	0.	4570.3
11040	8.3658	1.9	0.	2361.3
11041	8.4654	1.9	0.	1336.
11042	8.565	1.9	0.	839.27
11043	8.6646	1.9	0.	529.44
11044	8.7642	1.9	0.	324.32
11045	8.8637	1.9	0.	182.13
11046	8.9633	1.9	0.	83.308
11047	9.0629	1.9	0.	25.338
11048	9.1625	1.9	0.	8.4287
11049	9.2621	1.9	0.	4.2873
11050	9.3616	1.9	0.	2.6792
11051	9.4612	1.9	0.	1.8576
11052	9.5608	1.9	0.	1.369
11053	9.6604	1.9	0.	1.0493
11054	9.76	1.9	0.	0.82624
11055	9.8595	1.9	0.	0.66318
11056	9.9591	1.9	0.	0.53982
11057	10.059	1.9	0.	0.44402
11058	10.158	1.9	0.	0.36814
11059	10.258	1.9	0.	0.3071
11060	10.357	1.9	0.	0.25743
11061	10.457	1.9	0.	0.21665
11062	10.557	1.9	0.	0.1829
11063	10.656	1.9	0.	0.15481
11064	10.756	1.9	0.	0.13134
11065	10.855	1.9	0.	0.11165
11066	10.955	1.9	0.	9.5093e-002
11067	11.055	1.9	0.	8.1147e-002
11068	11.154	1.9	0.	6.933e-002
11069	11.254	1.9	0.	5.9337e-002
11070	11.353	1.9	0.	5.0887e-002
11071	11.453	1.9	0.	4.3719e-002
11072	11.552	1.9	0.	3.7638e-002
11073	11.652	1.9	0.	3.2471e-002
11074	11.752	1.9	0.	2.8071e-002
11075	11.851	1.9	0.	2.4345e-002
11076	11.951	1.9	0.	2.1195e-002
11077	12.05	1.9	0.	1.851e-002
11078	12.15	1.9	0.	1.6227e-002
11079	12.249	1.9	0.	1.4287e-002
11080	12.349	1.9	0.	1.2655e-002
11081	12.449	1.9	0.	1.1281e-002
11082	12.548	1.9	0.	1.0089e-002
11083	12.648	1.9	0.	9.0859e-003
11084	12.747	1.9	0.	8.2528e-003
11085	12.847	1.9	0.	7.5497e-003
11086	12.947	1.9	0.	6.9673e-003
11087	13.046	1.9	0.	6.4752e-003
11088	13.146	1.9	0.	6.0596e-003
11089	13.245	1.9	0.	5.7296e-003
11090	13.345	1.9	0.	5.4742e-003
11091	13.444	1.9	0.	5.2646e-003
11092	13.544	1.9	0.	5.0974e-003
11093	13.644	1.9	0.	4.9687e-003
11094	13.743	1.9	0.	4.8736e-003
11095	13.843	1.9	0.	4.8194e-003
11096	13.942	1.9	0.	4.7965e-003
11097	14.042	1.9	0.	4.768e-003
11098	14.142	1.9	0.	4.7639e-003
11099	14.241	1.9	0.	4.7875e-003
11100	14.341	1.9	0.	4.8252e-003
11101	14.44	1.9	0.	4.8763e-003
11102	14.54	1.9	0.	4.9371e-003
11103	14.639	1.9	0.	5.002e-003
11104	14.739	1.9	0.	5.0872e-003
11105	14.839	1.9	0.	5.1942e-003
11106	14.938	1.9	0.	5.3038e-003
11107	15.038	1.9	0.	5.4224e-003
11108	15.137	1.9	0.	5.5521e-003
11109	15.237	1.9	0.	5.7047e-003
11110	15.336	1.9	0.	5.8781e-003
11111	15.436	1.9	0.	6.0465e-003
11112	15.536	1.9	0.	6.2496e-003
11113	15.635	1.9	0.	6.494e-003
11114	15.735	1.9	0.	6.7903e-003
11115	15.834	1.9	0.	7.1679e-003
11116	15.934	1.9	0.	7.6744e-003
11117	16.034	1.9	0.	8.4251e-003
11118	16.133	1.9	0.	9.7548e-003
11119	16.233	1.9	0.	1.2921e-002
11120	16.332	1.9	0.	3.2482e-002
11121	16.432	1.9	0.	0.74649
11122	16.531	1.9	0.	1.8173
11123	16.631	1.9	0.	2.8733
11124	16.731	1.9	0.	3.911
11125	16.83	1.9	0.	4.9317
11126	16.93	1.9	0.	5.9368
11127	17.029	1.9	0.	6.9282
11128	17.129	1.9	0.	7.9076
11129	17.229	1.9	0.	8.8767
11130	17.328	1.9	0.	9.8373
11131	17.428	1.9	0.	10.791
11132	17.527	1.9	0.	11.74
11133	17.627	1.9	0.	12.685
11134	17.726	1.9	0.	13.628
11135	17.826	1.9	0.	14.572
11136	17.926	1.9	0.	15.517
11137	18.025	1.9	0.	16.466
11138	18.125	1.9	0.	17.419
11139	18.224	1.9	0.	18.38
11140	18.324	1.9	0.	19.349
11141	18.423	1.9	0.	20.328
11142	18.523	1.9	0.	21.32
11143	18.623	1.9	0.	22.325
11144	18.722	1.9	0.	23.346
11145	18.822	1.9	0.	24.384
11146	18.921	1.9	0.	25.442
11147	19.021	1.9	0.	26.521
11148	19.121	1.9	0.	27.623
11149	19.22	1.9	0.	28.75
11150	19.32	1.9	0.	29.904
11151	19.419	1.9	0.	31.087
11152	19.519	1.9	0.	32.302
11153	19.618	1.9	0.	33.55
11154	19.718	1.9	0.	34.834
11155	19.818	1.9	0.	36.156
11156	19.917	1.9	0.	37.518
11157	20.017	1.9	0.	38.923
11158	20.116	1.9	0.	40.374
11159	20.216	1.9	0.	41.872
11160	20.316	1.9	0.	43.421
11161	20.415	1.9	0.	45.023
11162	20.515	1.9	0.	46.682
11163	20.614	1.9	0.	48.4
11164	20.714	1.9	0.	50.181
11165	20.813	1.9	0.	52.027
11166	20.913	1.9	0.	53.942
11167	21.013	1.9	0.	55.929
11168	21.112	1.9	0.	57.993
11169	21.212	1.9	0.	60.137
11170	21.311	1.9	0.	62.364
11171	21.411	1.9	0.	64.679
11172	21.51	1.9	0.	67.086
11173	21.61	1.9	0.	69.59
11174	21.71	1.9	0.	72.195
11175	21.809	1.9	0.	74.906
11176	21.909	1.9	0.	77.727
11177	22.008	1.9	0.	80.664
11178	22.108	1.9	0.	83.721
11179	22.208	1.9	0.	86.905
11180	22.307	1.9	0.	90.219
11181	22.407	1.9	0.	93.669
11182	22.506	1.9	0.	97.26
11183	22.606	1.9	0.	101.
11184	22.705	1.9	0.	104.89
11185	22.805	1.9	0.	108.93
11186	22.905	1.9	0.	113.13
11187	23.004	1.9	0.	117.5
11188	23.104	1.9	0.	122.03
11189	23.203	1.9	0.	126.73
11190	23.303	1.9	0.	131.6
11191	23.403	1.9	0.	136.63
11192	23.502	1.9	0.	141.83
11193	23.602	1.9	0.	147.21
11194	23.701	1.9	0.	152.74
11195	23.801	1.9	0.	158.45
11196	23.9	1.9	0.	164.3
11197	8.2662	1.8	0.	4101.5
11198	8.3658	1.8	0.	2432.3
11199	8.4654	1.8	0.	1563.4
11200	8.565	1.8	0.	1023.
11201	8.6646	1.8	0.	671.03
11202	8.7642	1.8	0.	433.85
11203	8.8637	1.8	0.	268.51
11204	8.9633	1.8	0.	151.25
11205	9.0629	1.8	0.	69.287
11206	9.1625	1.8	0.	22.128
11207	9.2621	1.8	0.	7.9378
11208	9.3616	1.8	0.	4.1387
11209	9.4612	1.8	0.	2.6073
11210	9.5608	1.8	0.	1.8118
11211	9.6604	1.8	0.	1.3343
11212	9.76	1.8	0.	1.0205
11213	9.8595	1.8	0.	0.80098
11214	9.9591	1.8	0.	0.64054
11215	10.059	1.8	0.	0.51934
11216	10.158	1.8	0.	0.42549
11217	10.258	1.8	0.	0.35142
11218	10.357	1.8	0.	0.29213
11219	10.457	1.8	0.	0.24411
11220	10.557	1.8	0.	0.20485
11221	10.656	1.8	0.	0.17252
11222	10.756	1.8	0.	0.14574
11223	10.855	1.8	0.	0.12346
11224	10.955	1.8	0.	0.10486
11225	11.055	1.8	0.	8.9283e-002
11226	11.154	1.8	0.	7.6158e-002
11227	11.254	1.8	0.	6.5111e-002
11228	11.353	1.8	0.	5.5804e-002
11229	11.453	1.8	0.	4.7932e-002
11230	11.552	1.8	0.	4.1275e-002
11231	11.652	1.8	0.	3.5627e-002
11232	11.752	1.8	0.	3.0827e-002
11233	11.851	1.8	0.	2.6764e-002
11234	11.951	1.8	0.	2.3328e-002
11235	12.05	1.8	0.	2.04e-002
11236	12.15	1.8	0.	1.7908e-002
11237	12.249	1.8	0.	1.5788e-002
11238	12.349	1.8	0.	1.3997e-002
11239	12.449	1.8	0.	1.2487e-002
11240	12.548	1.8	0.	1.1172e-002
11241	12.648	1.8	0.	1.0062e-002
11242	12.747	1.8	0.	9.1332e-003
11243	12.847	1.8	0.	8.346e-003
11244	12.947	1.8	0.	7.6851e-003
11245	13.046	1.8	0.	7.1263e-003
11246	13.146	1.8	0.	6.647e-003
11247	13.245	1.8	0.	6.2617e-003
11248	13.345	1.8	0.	5.9558e-003
11249	13.444	1.8	0.	5.6998e-003
11250	13.544	1.8	0.	5.4904e-003
11251	13.644	1.8	0.	5.3245e-003
11252	13.743	1.8	0.	5.195e-003
11253	13.843	1.8	0.	5.108e-003
11254	13.942	1.8	0.	5.0567e-003
11255	14.042	1.8	0.	5.0023e-003
11256	14.142	1.8	0.	4.9743e-003
11257	14.241	1.8	0.	4.9785e-003
11258	14.341	1.8	0.	4.9956e-003
11259	14.44	1.8	0.	5.0309e-003
11260	14.54	1.8	0.	5.0784e-003
11261	14.639	1.8	0.	5.1287e-003
11262	14.739	1.8	0.	5.2047e-003
11263	14.839	1.8	0.	5.3053e-003
11264	14.938	1.8	0.	5.4094e-003
11265	15.038	1.8	0.	5.5263e-003
11266	15.137	1.8	0.	5.657e-003
11267	15.237	1.8	0.	5.8138e-003
11268	15.336	1.8	0.	5.9994e-003
11269	15.436	1.8	0.	6.1851e-003
11270	15.536	1.8	0.	6.4155e-003
11271	15.635	1.8	0.	6.7019e-003
11272	15.735	1.8	0.	7.0609e-003
11273	15.834	1.8	0.	7.5428e-003
11274	15.934	1.8	0.	8.225e-003
11275	16.034	1.8	0.	9.3239e-003
11276	16.133	1.8	0.	1.1527e-002
11277	16.233	1.8	0.	1.853e-002
11278	16.332	1.8	0.	0.21307
11279	16.432	1.8	0.	1.2312
11280	16.531	1.8	0.	2.2718
11281	16.631	1.8	0.	3.2951
11282	16.731	1.8	0.	4.3006
11283	16.83	1.8	0.	5.2898
11284	16.93	1.8	0.	6.264
11285	17.029	1.8	0.	7.2251
11286	17.129	1.8	0.	8.1747
11287	17.229	1.8	0.	9.1144
11288	17.328	1.8	0.	10.046
11289	17.428	1.8	0.	10.971
11290	17.527	1.8	0.	11.891
11291	17.627	1.8	0.	12.807
11292	17.726	1.8	0.	13.722
11293	17.826	1.8	0.	14.637
11294	17.926	1.8	0.	15.554
11295	18.025	1.8	0.	16.473
11296	18.125	1.8	0.	17.398
11297	18.224	1.8	0.	18.329
11298	18.324	1.8	0.	19.268
11299	18.423	1.8	0.	20.217
11300	18.523	1.8	0.	21.177
11301	18.623	1.8	0.	22.151
11302	18.722	1.8	0.	23.139
11303	18.822	1.8	0.	24.144
11304	18.921	1.8	0.	25.168
11305	19.021	1.8	0.	26.211
11306	19.121	1.8	0.	27.277
11307	19.22	1.8	0.	28.367
11308	19.32	1.8	0.	29.483
11309	19.419	1.8	0.	30.627
11310	19.519	1.8	0.	31.8
11311	19.618	1.8	0.	33.006
11312	19.718	1.8	0.	34.246
11313	19.818	1.8	0.	35.522
11314	19.917	1.8	0.	36.837
11315	20.017	1.8	0.	38.193
11316	20.116	1.8	0.	39.592
11317	20.216	1.8	0.	41.037
11318	20.316	1.8	0.	42.531
11319	20.415	1.8	0.	44.076
11320	20.515	1.8	0.	45.675
11321	20.614	1.8	0.	47.331
11322	20.714	1.8	0.	49.047
11323	20.813	1.8	0.	50.827
11324	20.913	1.8	0.	52.673
11325	21.013	1.8	0.	54.588
11326	21.112	1.8	0.	56.578
11327	21.212	1.8	0.	58.645
11328	21.311	1.8	0.	60.793
11329	21.411	1.8	0.	63.026
11330	21.51	1.8	0.	65.349
11331	21.61	1.8	0.	67.767
11332	21.71	1.8	0.	70.283
11333	21.809	1.8	0.	72.903
11334	21.909	1.8	0.	75.632
11335	22.008	1.8	0.	78.475
11336	22.108	1.8	0.	81.438
11337	22.208	1.8	0.	84.526
11338	22.307	1.8	0.	87.745
11339	22.407	1.8	0.	91.101
11340	22.506	1.8	0.	94.599
11341	22.606	1.8	0.	98.245
11342	22.705	1.8	0.	102.05
11343	22.805	1.8	0.	106.
11344	22.905	1.8	0.	110.13
11345	23.004	1.8	0.	114.42
11346	23.104	1.8	0.	118.88
11347	23.203	1.8	0.	123.52
11348	23.303	1.8	0.	128.33
11349	23.403	1.8	0.	133.32
11350	23.502	1.8	0.	138.48
11351	23.602	1.8	0.	143.83
11352	23.701	1.8	0.	149.34
11353	23.801	1.8	0.	155.03
11354	23.9	1.8	0.	160.88
11355	8.2662	1.7	0.	3376.
11356	8.3658	1.7	0.	2313.1
11357	8.4654	1.7	0.	1615.8
11358	8.565	1.7	0.	1119.2
11359	8.6646	1.7	0.	768.97
11360	8.7642	1.7	0.	521.09
11361	8.8637	1.7	0.	343.66
11362	8.9633	1.7	0.	215.4
11363	9.0629	1.7	0.	122.44
11364	9.1625	1.7	0.	56.944
11365	9.2621	1.7	0.	19.426
11366	9.3616	1.7	0.	7.461
11367	9.4612	1.7	0.	3.9783
11368	9.5608	1.7	0.	2.5264
11369	9.6604	1.7	0.	1.7601
11370	9.76	1.7	0.	1.2959
11371	9.8595	1.7	0.	0.98923
11372	9.9591	1.7	0.	0.7742
11373	10.059	1.7	0.	0.61692
11374	10.158	1.7	0.	0.49826
11375	10.258	1.7	0.	0.40661
11376	10.357	1.7	0.	0.33455
11377	10.457	1.7	0.	0.27711
11378	10.557	1.7	0.	0.23078
11379	10.656	1.7	0.	0.19308
11380	10.756	1.7	0.	0.1622
11381	10.855	1.7	0.	0.13674
11382	10.955	1.7	0.	0.11566
11383	11.055	1.7	0.	9.8149e-002
11384	11.154	1.7	0.	8.3493e-002
11385	11.254	1.7	0.	7.1227e-002
11386	11.353	1.7	0.	6.0945e-002
11387	11.453	1.7	0.	5.229e-002
11388	11.552	1.7	0.	4.4995e-002
11389	11.652	1.7	0.	3.8828e-002
11390	11.752	1.7	0.	3.3599e-002
11391	11.851	1.7	0.	2.9181e-002
11392	11.951	1.7	0.	2.5447e-002
11393	12.05	1.7	0.	2.2269e-002
11394	12.15	1.7	0.	1.9564e-002
11395	12.249	1.7	0.	1.7261e-002
11396	12.349	1.7	0.	1.5314e-002
11397	12.449	1.7	0.	1.3666e-002
11398	12.548	1.7	0.	1.2232e-002
11399	12.648	1.7	0.	1.1017e-002
11400	12.747	1.7	0.	9.9958e-003
11401	12.847	1.7	0.	9.1235e-003
11402	12.947	1.7	0.	8.3888e-003
11403	13.046	1.7	0.	7.7617e-003
11404	13.146	1.7	0.	7.224e-003
11405	13.245	1.7	0.	6.7825e-003
11406	13.345	1.7	0.	6.4273e-003
11407	13.444	1.7	0.	6.1261e-003
11408	13.544	1.7	0.	5.8767e-003
11409	13.644	1.7	0.	5.6725e-003
11410	13.743	1.7	0.	5.509e-003
11411	13.843	1.7	0.	5.3918e-003
11412	13.942	1.7	0.	5.3126e-003
11413	14.042	1.7	0.	5.2333e-003
11414	14.142	1.7	0.	5.1818e-003
11415	14.241	1.7	0.	5.1634e-003
11416	14.341	1.7	0.	5.165e-003
11417	14.44	1.7	0.	5.1843e-003
11418	14.54	1.7	0.	5.2174e-003
11419	14.639	1.7	0.	5.2572e-003
11420	14.739	1.7	0.	5.3248e-003
11421	14.839	1.7	0.	5.4172e-003
11422	14.938	1.7	0.	5.5199e-003
11423	15.038	1.7	0.	5.6369e-003
11424	15.137	1.7	0.	5.7713e-003
11425	15.237	1.7	0.	5.9391e-003
11426	15.336	1.7	0.	6.1409e-003
11427	15.436	1.7	0.	6.354e-003
11428	15.536	1.7	0.	6.6224e-003
11429	15.635	1.7	0.	6.9688e-003
11430	15.735	1.7	0.	7.4246e-003
11431	15.834	1.7	0.	8.0657e-003
11432	15.934	1.7	0.	9.0458e-003
11433	16.034	1.7	0.	1.0803e-002
11434	16.133	1.7	0.	1.5105e-002
11435	16.233	1.7	0.	4.2296e-002
11436	16.332	1.7	0.	0.73767
11437	16.432	1.7	0.	1.7565
11438	16.531	1.7	0.	2.7625
11439	16.631	1.7	0.	3.7507
11440	16.731	1.7	0.	4.7219
11441	16.83	1.7	0.	5.6774
11442	16.93	1.7	0.	6.6187
11443	17.029	1.7	0.	7.5474
11444	17.129	1.7	0.	8.4651
11445	17.229	1.7	0.	9.3734
11446	17.328	1.7	0.	10.274
11447	17.428	1.7	0.	11.168
11448	17.527	1.7	0.	12.057
11449	17.627	1.7	0.	12.943
11450	17.726	1.7	0.	13.828
11451	17.826	1.7	0.	14.712
11452	17.926	1.7	0.	15.598
11453	18.025	1.7	0.	16.486
11454	18.125	1.7	0.	17.38
11455	18.224	1.7	0.	18.279
11456	18.324	1.7	0.	19.186
11457	18.423	1.7	0.	20.102
11458	18.523	1.7	0.	21.03
11459	18.623	1.7	0.	21.969
11460	18.722	1.7	0.	22.923
11461	18.822	1.7	0.	23.893
11462	18.921	1.7	0.	24.88
11463	19.021	1.7	0.	25.886
11464	19.121	1.7	0.	26.913
11465	19.22	1.7	0.	27.963
11466	19.32	1.7	0.	29.038
11467	19.419	1.7	0.	30.14
11468	19.519	1.7	0.	31.269
11469	19.618	1.7	0.	32.429
11470	19.718	1.7	0.	33.622
11471	19.818	1.7	0.	34.849
11472	19.917	1.7	0.	36.114
11473	20.017	1.7	0.	37.417
11474	20.116	1.7	0.	38.761
11475	20.216	1.7	0.	40.149
11476	20.316	1.7	0.	41.584
11477	20.415	1.7	0.	43.068
11478	20.515	1.7	0.	44.603
11479	20.614	1.7	0.	46.192
11480	20.714	1.7	0.	47.839
11481	20.813	1.7	0.	49.547
11482	20.913	1.7	0.	51.318
11483	21.013	1.7	0.	53.157
11484	21.112	1.7	0.	55.066
11485	21.212	1.7	0.	57.049
11486	21.311	1.7	0.	59.111
11487	21.411	1.7	0.	61.256
11488	21.51	1.7	0.	63.487
11489	21.61	1.7	0.	65.81
11490	21.71	1.7	0.	68.23
11491	21.809	1.7	0.	70.751
11492	21.909	1.7	0.	73.378
11493	22.008	1.7	0.	76.118
11494	22.108	1.7	0.	78.976
11495	22.208	1.7	0.	81.958
11496	22.307	1.7	0.	85.071
11497	22.407	1.7	0.	88.321
11498	22.506	1.7	0.	91.714
11499	22.606	1.7	0.	95.257
11500	22.705	1.7	0.	98.956
11501	22.805	1.7	0.	102.82
11502	22.905	1.7	0.	106.85
11503	23.004	1.7	0.	111.05
11504	23.104	1.7	0.	115.43
11505	23.203	1.7	0.	120.
11506	23.303	1.7	0.	124.75
11507	23.403	1.7	0.	129.68
11508	23.502	1.7	0.	134.8
11509	23.602	1.7	0.	140.11
11510	23.701	1.7	0.	145.6
11511	23.801	1.7	0.	151.28
11512	23.9	1.7	0.	157.13
11513	8.2662	1.6	0.	2847.2
11514	8.3658	1.6	0.	2084.8
11515	8.4654	1.6	0.	1550.7
11516	8.565	1.6	0.	1132.2
11517	8.6646	1.6	0.	813.15
11518	8.7642	1.6	0.	574.87
11519	8.8637	1.6	0.	398.09
11520	8.9633	1.6	0.	267.01
11521	9.0629	1.6	0.	169.81
11522	9.1625	1.6	0.	98.144
11523	9.2621	1.6	0.	47.188
11524	9.3616	1.6	0.	17.53
11525	9.4612	1.6	0.	7.1524
11526	9.5608	1.6	0.	3.8723
11527	9.6604	1.6	0.	2.4678
11528	9.76	1.6	0.	1.7185
11529	9.8595	1.6	0.	1.2623
11530	9.9591	1.6	0.	0.96019
11531	10.059	1.6	0.	0.74828
11532	10.158	1.6	0.	0.59352
11533	10.258	1.6	0.	0.47709
11534	10.357	1.6	0.	0.38753
11535	10.457	1.6	0.	0.31744
11536	10.557	1.6	0.	0.26183
11537	10.656	1.6	0.	0.21723
11538	10.756	1.6	0.	0.18115
11539	10.855	1.6	0.	0.15174
11540	10.955	1.6	0.	0.12765
11541	11.055	1.6	0.	0.1078
11542	11.154	1.6	0.	9.1343e-002
11543	11.254	1.6	0.	7.7667e-002
11544	11.353	1.6	0.	6.6276e-002
11545	11.453	1.6	0.	5.6743e-002
11546	11.552	1.6	0.	4.875e-002
11547	11.652	1.6	0.	4.202e-002
11548	11.752	1.6	0.	3.6337e-002
11549	11.851	1.6	0.	3.1548e-002
11550	11.951	1.6	0.	2.7509e-002
11551	12.05	1.6	0.	2.4077e-002
11552	12.15	1.6	0.	2.1159e-002
11553	12.249	1.6	0.	1.8676e-002
11554	12.349	1.6	0.	1.6575e-002
11555	12.449	1.6	0.	1.4794e-002
11556	12.548	1.6	0.	1.3245e-002
11557	12.648	1.6	0.	1.1928e-002
11558	12.747	1.6	0.	1.0817e-002
11559	12.847	1.6	0.	9.8665e-003
11560	12.947	1.6	0.	9.0611e-003
11561	13.046	1.6	0.	8.3713e-003
11562	13.146	1.6	0.	7.7749e-003
11563	13.245	1.6	0.	7.2815e-003
11564	13.345	1.6	0.	6.8791e-003
11565	13.444	1.6	0.	6.5356e-003
11566	13.544	1.6	0.	6.2458e-003
11567	13.644	1.6	0.	6.0069e-003
11568	13.743	1.6	0.	5.8109e-003
11569	13.843	1.6	0.	5.6643e-003
11570	13.942	1.6	0.	5.5576e-003
11571	14.042	1.6	0.	5.4537e-003
11572	14.142	1.6	0.	5.3817e-003
11573	14.241	1.6	0.	5.3453e-003
11574	14.341	1.6	0.	5.3274e-003
11575	14.44	1.6	0.	5.3319e-003
11576	14.54	1.6	0.	5.3522e-003
11577	14.639	1.6	0.	5.3826e-003
11578	14.739	1.6	0.	5.4429e-003
11579	14.839	1.6	0.	5.5331e-003
11580	14.938	1.6	0.	5.6334e-003
11581	15.038	1.6	0.	5.7551e-003
11582	15.137	1.6	0.	5.8993e-003
11583	15.237	1.6	0.	6.0819e-003
11584	15.336	1.6	0.	6.31e-003
11585	15.436	1.6	0.	6.561e-003
11586	15.536	1.6	0.	6.8905e-003
11587	15.635	1.6	0.	7.3301e-003
11588	15.735	1.6	0.	7.9382e-003
11589	15.834	1.6	0.	8.8489e-003
11590	15.934	1.6	0.	1.0388e-002
11591	16.034	1.6	0.	1.3643e-002
11592	16.133	1.6	0.	2.5628e-002
11593	16.233	1.6	0.	0.35541
11594	16.332	1.6	0.	1.3349
11595	16.432	1.6	0.	2.3202
11596	16.531	1.6	0.	3.2886
11597	16.631	1.6	0.	4.2397
11598	16.731	1.6	0.	5.1744
11599	16.83	1.6	0.	6.0943
11600	16.93	1.6	0.	7.0007
11601	17.029	1.6	0.	7.8951
11602	17.129	1.6	0.	8.779
11603	17.229	1.6	0.	9.6539
11604	17.328	1.6	0.	10.521
11605	17.428	1.6	0.	11.383
11606	17.527	1.6	0.	12.239
11607	17.627	1.6	0.	13.093
11608	17.726	1.6	0.	13.945
11609	17.826	1.6	0.	14.797
11610	17.926	1.6	0.	15.65
11611	18.025	1.6	0.	16.506
11612	18.125	1.6	0.	17.366
11613	18.224	1.6	0.	18.232
11614	18.324	1.6	0.	19.105
11615	18.423	1.6	0.	19.987
11616	18.523	1.6	0.	20.879
11617	18.623	1.6	0.	21.783
11618	18.722	1.6	0.	22.7
11619	18.822	1.6	0.	23.632
11620	18.921	1.6	0.	24.58
11621	19.021	1.6	0.	25.547
11622	19.121	1.6	0.	26.533
11623	19.22	1.6	0.	27.541
11624	19.32	1.6	0.	28.572
11625	19.419	1.6	0.	29.629
11626	19.519	1.6	0.	30.712
11627	19.618	1.6	0.	31.824
11628	19.718	1.6	0.	32.967
11629	19.818	1.6	0.	34.142
11630	19.917	1.6	0.	35.352
11631	20.017	1.6	0.	36.6
11632	20.116	1.6	0.	37.886
11633	20.216	1.6	0.	39.214
11634	20.316	1.6	0.	40.586
11635	20.415	1.6	0.	42.004
11636	20.515	1.6	0.	43.471
11637	20.614	1.6	0.	44.989
11638	20.714	1.6	0.	46.563
11639	20.813	1.6	0.	48.194
11640	20.913	1.6	0.	49.885
11641	21.013	1.6	0.	51.641
11642	21.112	1.6	0.	53.464
11643	21.212	1.6	0.	55.358
11644	21.311	1.6	0.	57.328
11645	21.411	1.6	0.	59.377
11646	21.51	1.6	0.	61.509
11647	21.61	1.6	0.	63.73
11648	21.71	1.6	0.	66.044
11649	21.809	1.6	0.	68.457
11650	21.909	1.6	0.	70.973
11651	22.008	1.6	0.	73.6
11652	22.108	1.6	0.	76.342
11653	22.208	1.6	0.	79.208
11654	22.307	1.6	0.	82.202
11655	22.407	1.6	0.	85.333
11656	22.506	1.6	0.	88.609
11657	22.606	1.6	0.	92.035
11658	22.705	1.6	0.	95.62
11659	22.805	1.6	0.	99.371
11660	22.905	1.6	0.	103.29
11661	23.004	1.6	0.	107.4
11662	23.104	1.6	0.	111.69
11663	23.203	1.6	0.	116.17
11664	23.303	1.6	0.	120.84
11665	23.403	1.6	0.	125.71
11666	23.502	1.6	0.	130.78
11667	23.602	1.6	0.	136.05
11668	23.701	1.6	0.	141.5
11669	23.801	1.6	0.	147.17
11670	23.9	1.6	0.	153.02
11671	8.2662	1.5	0.	2422.7
11672	8.3658	1.5	0.	1841.3
11673	8.4654	1.5	0.	1430.6
11674	8.565	1.5	0.	1087.6
11675	8.6646	1.5	0.	811.06
11676	8.7642	1.5	0.	594.85
11677	8.8637	1.5	0.	428.7
11678	8.9633	1.5	0.	302.16
11679	9.0629	1.5	0.	206.24
11680	9.1625	1.5	0.	133.81
11681	9.2621	1.5	0.	79.605
11682	9.3616	1.5	0.	40.509
11683	9.4612	1.5	0.	16.697
11684	9.5608	1.5	0.	7.1635
11685	9.6604	1.5	0.	3.8858
11686	9.76	1.5	0.	2.462
11687	9.8595	1.5	0.	1.7026
11688	9.9591	1.5	0.	1.2417
11689	10.059	1.5	0.	0.93766
11690	10.158	1.5	0.	0.72554
11691	10.258	1.5	0.	0.57152
11692	10.357	1.5	0.	0.4564
11693	10.457	1.5	0.	0.36845
11694	10.557	1.5	0.	0.3001
11695	10.656	1.5	0.	0.24625
11696	10.756	1.5	0.	0.20338
11697	10.855	1.5	0.	0.16894
11698	10.955	1.5	0.	0.14107
11699	11.055	1.5	0.	0.11839
11700	11.154	1.5	0.	9.9763e-002
11701	11.254	1.5	0.	8.4435e-002
11702	11.353	1.5	0.	7.1773e-002
11703	11.453	1.5	0.	6.1254e-002
11704	11.552	1.5	0.	5.249e-002
11705	11.652	1.5	0.	4.5155e-002
11706	11.752	1.5	0.	3.8991e-002
11707	11.851	1.5	0.	3.3818e-002
11708	11.951	1.5	0.	2.9469e-002
11709	12.05	1.5	0.	2.5783e-002
11710	12.15	1.5	0.	2.2655e-002
11711	12.249	1.5	0.	1.9998e-002
11712	12.349	1.5	0.	1.7749e-002
11713	12.449	1.5	0.	1.5843e-002
11714	12.548	1.5	0.	1.4186e-002
11715	12.648	1.5	0.	1.2775e-002
11716	12.747	1.5	0.	1.1582e-002
11717	12.847	1.5	0.	1.0558e-002
11718	12.947	1.5	0.	9.6868e-003
11719	13.046	1.5	0.	8.9388e-003
11720	13.146	1.5	0.	8.2883e-003
11721	13.245	1.5	0.	7.749e-003
11722	13.345	1.5	0.	7.3017e-003
11723	13.444	1.5	0.	6.9188e-003
11724	13.544	1.5	0.	6.5928e-003
11725	13.644	1.5	0.	6.3206e-003
11726	13.743	1.5	0.	6.0938e-003
11727	13.843	1.5	0.	5.9194e-003
11728	13.942	1.5	0.	5.7891e-003
11729	14.042	1.5	0.	5.662e-003
11730	14.142	1.5	0.	5.5695e-003
11731	14.241	1.5	0.	5.5147e-003
11732	14.341	1.5	0.	5.4815e-003
11733	14.44	1.5	0.	5.4722e-003
11734	14.54	1.5	0.	5.4819e-003
11735	14.639	1.5	0.	5.5051e-003
11736	14.739	1.5	0.	5.5613e-003
11737	14.839	1.5	0.	5.6484e-003
11738	14.938	1.5	0.	5.7539e-003
11739	15.038	1.5	0.	5.8829e-003
11740	15.137	1.5	0.	6.0423e-003
11741	15.237	1.5	0.	6.2534e-003
11742	15.336	1.5	0.	6.5191e-003
11743	15.436	1.5	0.	6.8295e-003
11744	15.536	1.5	0.	7.2527e-003
11745	15.635	1.5	0.	7.8422e-003
11746	15.735	1.5	0.	8.7111e-003
11747	15.834	1.5	0.	1.0135e-002
11748	15.934	1.5	0.	1.2925e-002
11749	16.034	1.5	0.	2.1053e-002
11750	16.133	1.5	0.	0.13503
11751	16.233	1.5	0.	1.0143
11752	16.332	1.5	0.	1.975
11753	16.432	1.5	0.	2.9209
11754	16.531	1.5	0.	3.8494
11755	16.631	1.5	0.	4.7613
11756	16.731	1.5	0.	5.6578
11757	16.83	1.5	0.	6.5402
11758	16.93	1.5	0.	7.4098
11759	17.029	1.5	0.	8.2681
11760	17.129	1.5	0.	9.1165
11761	17.229	1.5	0.	9.9563
11762	17.328	1.5	0.	10.789
11763	17.428	1.5	0.	11.616
11764	17.527	1.5	0.	12.438
11765	17.627	1.5	0.	13.258
11766	17.726	1.5	0.	14.076
11767	17.826	1.5	0.	14.894
11768	17.926	1.5	0.	15.712
11769	18.025	1.5	0.	16.534
11770	18.125	1.5	0.	17.359
11771	18.224	1.5	0.	18.19
11772	18.324	1.5	0.	19.027
11773	18.423	1.5	0.	19.872
11774	18.523	1.5	0.	20.727
11775	18.623	1.5	0.	21.593
11776	18.722	1.5	0.	22.471
11777	18.822	1.5	0.	23.364
11778	18.921	1.5	0.	24.272
11779	19.021	1.5	0.	25.197
11780	19.121	1.5	0.	26.14
11781	19.22	1.5	0.	27.104
11782	19.32	1.5	0.	28.089
11783	19.419	1.5	0.	29.098
11784	19.519	1.5	0.	30.132
11785	19.618	1.5	0.	31.194
11786	19.718	1.5	0.	32.284
11787	19.818	1.5	0.	33.405
11788	19.917	1.5	0.	34.558
11789	20.017	1.5	0.	35.746
11790	20.116	1.5	0.	36.972
11791	20.216	1.5	0.	38.236
11792	20.316	1.5	0.	39.541
11793	20.415	1.5	0.	40.89
11794	20.515	1.5	0.	42.285
11795	20.614	1.5	0.	43.729
11796	20.714	1.5	0.	45.224
11797	20.813	1.5	0.	46.774
11798	20.913	1.5	0.	48.381
11799	21.013	1.5	0.	50.049
11800	21.112	1.5	0.	51.78
11801	21.212	1.5	0.	53.58
11802	21.311	1.5	0.	55.45
11803	21.411	1.5	0.	57.397
11804	21.51	1.5	0.	59.423
11805	21.61	1.5	0.	61.534
11806	21.71	1.5	0.	63.734
11807	21.809	1.5	0.	66.03
11808	21.909	1.5	0.	68.426
11809	22.008	1.5	0.	70.929
11810	22.108	1.5	0.	73.545
11811	22.208	1.5	0.	76.282
11812	22.307	1.5	0.	79.146
11813	22.407	1.5	0.	82.146
11814	22.506	1.5	0.	85.289
11815	22.606	1.5	0.	88.584
11816	22.705	1.5	0.	92.04
11817	22.805	1.5	0.	95.665
11818	22.905	1.5	0.	99.468
11819	23.004	1.5	0.	103.46
11820	23.104	1.5	0.	107.64
11821	23.203	1.5	0.	112.02
11822	23.303	1.5	0.	116.61
11823	23.403	1.5	0.	121.4
11824	23.502	1.5	0.	126.41
11825	23.602	1.5	0.	131.62
11826	23.701	1.5	0.	137.05
11827	23.801	1.5	0.	142.69
11828	23.9	1.5	0.	148.54
11829	8.2662	1.4	0.	2079.9
11830	8.3658	1.4	0.	1614.2
11831	8.4654	1.4	0.	1289.2
11832	8.565	1.4	0.	1009.6
11833	8.6646	1.4	0.	775.78
11834	8.7642	1.4	0.	586.68
11835	8.8637	1.4	0.	437.11
11836	8.9633	1.4	0.	320.44
11837	9.0629	1.4	0.	230.17
11838	9.1625	1.4	0.	160.67
11839	9.2621	1.4	0.	107.36
11840	9.3616	1.4	0.	66.817
11841	9.4612	1.4	0.	36.85
11842	9.5608	1.4	0.	17.159
11843	9.6604	1.4	0.	7.7152
11844	9.76	1.4	0.	4.1125
11845	9.8595	1.4	0.	2.5489
11846	9.9591	1.4	0.	1.7306
11847	10.059	1.4	0.	1.2428
11848	10.158	1.4	0.	0.92602
11849	10.258	1.4	0.	0.70809
11850	10.357	1.4	0.	0.55191
11851	10.457	1.4	0.	0.4366
11852	10.557	1.4	0.	0.34949
11853	10.656	1.4	0.	0.28253
11854	10.756	1.4	0.	0.23034
11855	10.855	1.4	0.	0.18919
11856	10.955	1.4	0.	0.15644
11857	11.055	1.4	0.	0.13017
11858	11.154	1.4	0.	0.10889
11859	11.254	1.4	0.	9.1583e-002
11860	11.353	1.4	0.	7.7436e-002
11861	11.453	1.4	0.	6.5795e-002
11862	11.552	1.4	0.	5.6176e-002
11863	11.652	1.4	0.	4.8186e-002
11864	11.752	1.4	0.	4.1515e-002
11865	11.851	1.4	0.	3.5945e-002
11866	11.951	1.4	0.	3.1283e-002
11867	12.05	1.4	0.	2.7347e-002
11868	12.15	1.4	0.	2.4018e-002
11869	12.249	1.4	0.	2.1196e-002
11870	12.349	1.4	0.	1.881e-002
11871	12.449	1.4	0.	1.6789e-002
11872	12.548	1.4	0.	1.5034e-002
11873	12.648	1.4	0.	1.3545e-002
11874	12.747	1.4	0.	1.2271e-002
11875	12.847	1.4	0.	1.1182e-002
11876	12.947	1.4	0.	1.0253e-002
11877	13.046	1.4	0.	9.4517e-003
11878	13.146	1.4	0.	8.7559e-003
11879	13.245	1.4	0.	8.1726e-003
11880	13.345	1.4	0.	7.687e-003
11881	13.444	1.4	0.	7.2675e-003
11882	13.544	1.4	0.	6.9102e-003
11883	13.644	1.4	0.	6.6072e-003
11884	13.743	1.4	0.	6.3525e-003
11885	13.843	1.4	0.	6.1534e-003
11886	13.942	1.4	0.	5.9986e-003
11887	14.042	1.4	0.	5.8512e-003
11888	14.142	1.4	0.	5.7403e-003
11889	14.241	1.4	0.	5.6694e-003
11890	14.341	1.4	0.	5.6232e-003
11891	14.44	1.4	0.	5.6033e-003
11892	14.54	1.4	0.	5.6046e-003
11893	14.639	1.4	0.	5.6222e-003
11894	14.739	1.4	0.	5.6762e-003
11895	14.839	1.4	0.	5.768e-003
11896	14.938	1.4	0.	5.881e-003
11897	15.038	1.4	0.	6.0274e-003
11898	15.137	1.4	0.	6.2137e-003
11899	15.237	1.4	0.	6.4636e-003
11900	15.336	1.4	0.	6.7923e-003
11901	15.436	1.4	0.	7.1999e-003
11902	15.536	1.4	0.	7.775e-003
11903	15.635	1.4	0.	8.6292e-003
11904	15.735	1.4	0.	1.0004e-002
11905	15.834	1.4	0.	1.2604e-002
11906	15.934	1.4	0.	1.9389e-002
11907	16.034	1.4	0.	7.2719e-002
11908	16.133	1.4	0.	0.8014
11909	16.233	1.4	0.	1.7336
11910	16.332	1.4	0.	2.654
11911	16.432	1.4	0.	3.5575
11912	16.531	1.4	0.	4.4442
11913	16.631	1.4	0.	5.3151
11914	16.731	1.4	0.	6.1716
11915	16.83	1.4	0.	7.0148
11916	16.93	1.4	0.	7.8459
11917	17.029	1.4	0.	8.6665
11918	17.129	1.4	0.	9.4776
11919	17.229	1.4	0.	10.281
11920	17.328	1.4	0.	11.077
11921	17.428	1.4	0.	11.868
11922	17.527	1.4	0.	12.655
11923	17.627	1.4	0.	13.438
11924	17.726	1.4	0.	14.221
11925	17.826	1.4	0.	15.003
11926	17.926	1.4	0.	15.785
11927	18.025	1.4	0.	16.571
11928	18.125	1.4	0.	17.359
11929	18.224	1.4	0.	18.153
11930	18.324	1.4	0.	18.953
11931	18.423	1.4	0.	19.76
11932	18.523	1.4	0.	20.576
11933	18.623	1.4	0.	21.403
11934	18.722	1.4	0.	22.241
11935	18.822	1.4	0.	23.092
11936	18.921	1.4	0.	23.957
11937	19.021	1.4	0.	24.838
11938	19.121	1.4	0.	25.737
11939	19.22	1.4	0.	26.654
11940	19.32	1.4	0.	27.592
11941	19.419	1.4	0.	28.551
11942	19.519	1.4	0.	29.534
11943	19.618	1.4	0.	30.543
11944	19.718	1.4	0.	31.578
11945	19.818	1.4	0.	32.641
11946	19.917	1.4	0.	33.736
11947	20.017	1.4	0.	34.862
11948	20.116	1.4	0.	36.023
11949	20.216	1.4	0.	37.221
11950	20.316	1.4	0.	38.456
11951	20.415	1.4	0.	39.733
11952	20.515	1.4	0.	41.053
11953	20.614	1.4	0.	42.418
11954	20.714	1.4	0.	43.831
11955	20.813	1.4	0.	45.296
11956	20.913	1.4	0.	46.814
11957	21.013	1.4	0.	48.389
11958	21.112	1.4	0.	50.024
11959	21.212	1.4	0.	51.722
11960	21.311	1.4	0.	53.488
11961	21.411	1.4	0.	55.326
11962	21.51	1.4	0.	57.239
11963	21.61	1.4	0.	59.233
11964	21.71	1.4	0.	61.312
11965	21.809	1.4	0.	63.481
11966	21.909	1.4	0.	65.747
11967	22.008	1.4	0.	68.117
11968	22.108	1.4	0.	70.596
11969	22.208	1.4	0.	73.192
11970	22.307	1.4	0.	75.913
11971	22.407	1.4	0.	78.767
11972	22.506	1.4	0.	81.764
11973	22.606	1.4	0.	84.912
11974	22.705	1.4	0.	88.222
11975	22.805	1.4	0.	91.704
11976	22.905	1.4	0.	95.367
11977	23.004	1.4	0.	99.222
11978	23.104	1.4	0.	103.28
11979	23.203	1.4	0.	107.55
11980	23.303	1.4	0.	112.03
11981	23.403	1.4	0.	116.73
11982	23.502	1.4	0.	121.66
11983	23.602	1.4	0.	126.82
11984	23.701	1.4	0.	132.2
11985	23.801	1.4	0.	137.82
11986	23.9	1.4	0.	143.67
11987	8.2662	1.3	0.	1793.8
11988	8.3658	1.3	0.	1407.9
11989	8.4654	1.3	0.	1144.1
11990	8.565	1.3	0.	914.79
11991	8.6646	1.3	0.	719.21
11992	8.7642	1.3	0.	557.67
11993	8.8637	1.3	0.	427.27
11994	8.9633	1.3	0.	323.64
11995	9.0629	1.3	0.	242.05
11996	9.1625	1.3	0.	178.16
11997	9.2621	1.3	0.	128.25
11998	9.3616	1.3	0.	89.294
11999	9.4612	1.3	0.	59.008
12000	9.5608	1.3	0.	35.824
12001	9.6604	1.3	0.	19.14
12002	9.76	1.3	0.	9.229
12003	9.8595	1.3	0.	4.749
12004	9.9591	1.3	0.	2.8047
12005	10.059	1.3	0.	1.8332
12006	10.158	1.3	0.	1.2785
12007	10.258	1.3	0.	0.93072
12008	10.357	1.3	0.	0.6982
12009	10.457	1.3	0.	0.53555
12010	10.557	1.3	0.	0.41792
12011	10.656	1.3	0.	0.33069
12012	10.756	1.3	0.	0.26473
12013	10.855	1.3	0.	0.21406
12014	10.955	1.3	0.	0.17465
12015	11.055	1.3	0.	0.14365
12016	11.154	1.3	0.	0.11898
12017	11.254	1.3	0.	9.9235e-002
12018	11.353	1.3	0.	8.3309e-002
12019	11.453	1.3	0.	7.0364e-002
12020	11.552	1.3	0.	5.9783e-002
12021	11.652	1.3	0.	5.1075e-002
12022	11.752	1.3	0.	4.3865e-002
12023	11.851	1.3	0.	3.7887e-002
12024	11.951	1.3	0.	3.2912e-002
12025	12.05	1.3	0.	2.8734e-002
12026	12.15	1.3	0.	2.5214e-002
12027	12.249	1.3	0.	2.2239e-002
12028	12.349	1.3	0.	1.9731e-002
12029	12.449	1.3	0.	1.7608e-002
12030	12.548	1.3	0.	1.5768e-002
12031	12.648	1.3	0.	1.4199e-002
12032	12.747	1.3	0.	1.287e-002
12033	12.847	1.3	0.	1.1725e-002
12034	12.947	1.3	0.	1.0747e-002
12035	13.046	1.3	0.	9.9023e-003
12036	13.146	1.3	0.	9.1661e-003
12037	13.245	1.3	0.	8.5462e-003
12038	13.345	1.3	0.	8.0266e-003
12039	13.444	1.3	0.	7.5766e-003
12040	13.544	1.3	0.	7.1893e-003
12041	13.644	1.3	0.	6.8603e-003
12042	13.743	1.3	0.	6.5816e-003
12043	13.843	1.3	0.	6.3597e-003
12044	13.942	1.3	0.	6.1862e-003
12045	14.042	1.3	0.	6.0198e-003
12046	14.142	1.3	0.	5.8927e-003
12047	14.241	1.3	0.	5.808e-003
12048	14.341	1.3	0.	5.7503e-003
12049	14.44	1.3	0.	5.7216e-003
12050	14.54	1.3	0.	5.7182e-003
12051	14.639	1.3	0.	5.7344e-003
12052	14.739	1.3	0.	5.7914e-003
12053	14.839	1.3	0.	5.8925e-003
12054	14.938	1.3	0.	6.0242e-003
12055	15.038	1.3	0.	6.1972e-003
12056	15.137	1.3	0.	6.4268e-003
12057	15.237	1.3	0.	6.7418e-003
12058	15.336	1.3	0.	7.1729e-003
12059	15.436	1.3	0.	7.7447e-003
12060	15.536	1.3	0.	8.6012e-003
12061	15.635	1.3	0.	9.9918e-003
12062	15.735	1.3	0.	1.2585e-002
12063	15.834	1.3	0.	1.9114e-002
12064	15.934	1.3	0.	6.1052e-002
12065	16.034	1.3	0.	0.70102
12066	16.133	1.3	0.	1.6023
12067	16.233	1.3	0.	2.4945
12068	16.332	1.3	0.	3.3701
12069	16.432	1.3	0.	4.229
12070	16.531	1.3	0.	5.0721
12071	16.631	1.3	0.	5.9005
12072	16.731	1.3	0.	6.7153
12073	16.83	1.3	0.	7.5178
12074	16.93	1.3	0.	8.3089
12075	17.029	1.3	0.	9.0902
12076	17.129	1.3	0.	9.8626
12077	17.229	1.3	0.	10.627
12078	17.328	1.3	0.	11.386
12079	17.428	1.3	0.	12.139
12080	17.527	1.3	0.	12.889
12081	17.627	1.3	0.	13.635
12082	17.726	1.3	0.	14.38
12083	17.826	1.3	0.	15.125
12084	17.926	1.3	0.	15.871
12085	18.025	1.3	0.	16.618
12086	18.125	1.3	0.	17.369
12087	18.224	1.3	0.	18.124
12088	18.324	1.3	0.	18.885
12089	18.423	1.3	0.	19.653
12090	18.523	1.3	0.	20.429
12091	18.623	1.3	0.	21.214
12092	18.722	1.3	0.	22.01
12093	18.822	1.3	0.	22.818
12094	18.921	1.3	0.	23.639
12095	19.021	1.3	0.	24.475
12096	19.121	1.3	0.	25.327
12097	19.22	1.3	0.	26.196
12098	19.32	1.3	0.	27.084
12099	19.419	1.3	0.	27.992
12100	19.519	1.3	0.	28.922
12101	19.618	1.3	0.	29.875
12102	19.718	1.3	0.	30.853
12103	19.818	1.3	0.	31.858
12104	19.917	1.3	0.	32.89
12105	20.017	1.3	0.	33.953
12106	20.116	1.3	0.	35.047
12107	20.216	1.3	0.	36.175
12108	20.316	1.3	0.	37.339
12109	20.415	1.3	0.	38.54
12110	20.515	1.3	0.	39.781
12111	20.614	1.3	0.	41.064
12112	20.714	1.3	0.	42.392
12113	20.813	1.3	0.	43.767
12114	20.913	1.3	0.	45.192
12115	21.013	1.3	0.	46.67
12116	21.112	1.3	0.	48.203
12117	21.212	1.3	0.	49.796
12118	21.311	1.3	0.	51.452
12119	21.411	1.3	0.	53.175
12120	21.51	1.3	0.	54.968
12121	21.61	1.3	0.	56.837
12122	21.71	1.3	0.	58.787
12123	21.809	1.3	0.	60.822
12124	21.909	1.3	0.	62.95
12125	22.008	1.3	0.	65.175
12126	22.108	1.3	0.	67.505
12127	22.208	1.3	0.	69.949
12128	22.307	1.3	0.	72.513
12129	22.407	1.3	0.	75.207
12130	22.506	1.3	0.	78.042
12131	22.606	1.3	0.	81.027
12132	22.705	1.3	0.	84.173
12133	22.805	1.3	0.	87.492
12134	22.905	1.3	0.	90.997
12135	23.004	1.3	0.	94.698
12136	23.104	1.3	0.	98.609
12137	23.203	1.3	0.	102.74
12138	23.303	1.3	0.	107.1
12139	23.403	1.3	0.	111.7
12140	23.502	1.3	0.	116.54
12141	23.602	1.3	0.	121.63
12142	23.701	1.3	0.	126.95
12143	23.801	1.3	0.	132.54
12144	23.9	1.3	0.	138.39
12145	8.2662	1.2	0.	1549.5
12146	8.3658	1.2	0.	1221.7
12147	8.4654	1.2	0.	1002.8
12148	8.565	1.2	0.	813.04
12149	8.6646	1.2	0.	650.26
12150	8.7642	1.2	0.	514.54
12151	8.8637	1.2	0.	403.74
12152	8.9633	1.2	0.	314.58
12153	9.0629	1.2	0.	243.46
12154	9.1625	1.2	0.	186.95
12155	9.2621	1.2	0.	142.08
12156	9.3616	1.2	0.	106.38
12157	9.4612	1.2	0.	77.869
12158	9.5608	1.2	0.	55.051
12159	9.6604	1.2	0.	36.835
12160	9.76	1.2	0.	22.6
12161	9.8595	1.2	0.	12.33
12162	9.9591	1.2	0.	6.2782
12163	10.059	1.2	0.	3.4173
12164	10.158	1.2	0.	2.0775
12165	10.258	1.2	0.	1.3733
12166	10.357	1.2	0.	0.96069
12167	10.457	1.2	0.	0.69898
12168	10.557	1.2	0.	0.52334
12169	10.656	1.2	0.	0.40055
12170	10.756	1.2	0.	0.31201
12171	10.855	1.2	0.	0.24662
12172	10.955	1.2	0.	0.1974
12173	11.055	1.2	0.	0.15976
12174	11.154	1.2	0.	0.13055
12175	11.254	1.2	0.	0.10764
12176	11.353	1.2	0.	8.9503e-002
12177	11.453	1.2	0.	7.4995e-002
12178	11.552	1.2	0.	6.3301e-002
12179	11.652	1.2	0.	5.3793e-002
12180	11.752	1.2	0.	4.6005e-002
12181	11.851	1.2	0.	3.9605e-002
12182	11.951	1.2	0.	3.4318e-002
12183	12.05	1.2	0.	2.9907e-002
12184	12.15	1.2	0.	2.6212e-002
12185	12.249	1.2	0.	2.3102e-002
12186	12.349	1.2	0.	2.0487e-002
12187	12.449	1.2	0.	1.8278e-002
12188	12.548	1.2	0.	1.6369e-002
12189	12.648	1.2	0.	1.4742e-002
12190	12.747	1.2	0.	1.3363e-002
12191	12.847	1.2	0.	1.2176e-002
12192	12.947	1.2	0.	1.1159e-002
12193	13.046	1.2	0.	1.0265e-002
12194	13.146	1.2	0.	9.5098e-003
12195	13.245	1.2	0.	8.8605e-003
12196	13.345	1.2	0.	8.3142e-003
12197	13.444	1.2	0.	7.8378e-003
12198	13.544	1.2	0.	7.4269e-003
12199	13.644	1.2	0.	7.0763e-003
12200	13.743	1.2	0.	6.7763e-003
12201	13.843	1.2	0.	6.5365e-003
12202	13.942	1.2	0.	6.3454e-003
12203	14.042	1.2	0.	6.1632e-003
12204	14.142	1.2	0.	6.0229e-003
12205	14.241	1.2	0.	5.9269e-003
12206	14.341	1.2	0.	5.8625e-003
12207	14.44	1.2	0.	5.8273e-003
12208	14.54	1.2	0.	5.8221e-003
12209	14.639	1.2	0.	5.8427e-003
12210	14.739	1.2	0.	5.9102e-003
12211	14.839	1.2	0.	6.0291e-003
12212	14.938	1.2	0.	6.1892e-003
12213	15.038	1.2	0.	6.4115e-003
12214	15.137	1.2	0.	6.7123e-003
12215	15.237	1.2	0.	7.1409e-003
12216	15.336	1.2	0.	7.7547e-003
12217	15.436	1.2	0.	8.6429e-003
12218	15.536	1.2	0.	1.011e-002
12219	15.635	1.2	0.	1.29e-002
12220	15.735	1.2	0.	2.0091e-002
12221	15.834	1.2	0.	6.972e-002
12222	15.934	1.2	0.	0.71721
12223	16.034	1.2	0.	1.5874
12224	16.133	1.2	0.	2.4485
12225	16.233	1.2	0.	3.2933
12226	16.332	1.2	0.	4.1218
12227	16.432	1.2	0.	4.9346
12228	16.531	1.2	0.	5.7326
12229	16.631	1.2	0.	6.5169
12230	16.731	1.2	0.	7.2887
12231	16.83	1.2	0.	8.0489
12232	16.93	1.2	0.	8.7988
12233	17.029	1.2	0.	9.5393
12234	17.129	1.2	0.	10.272
12235	17.229	1.2	0.	10.997
12236	17.328	1.2	0.	11.716
12237	17.428	1.2	0.	12.431
12238	17.527	1.2	0.	13.142
12239	17.627	1.2	0.	13.85
12240	17.726	1.2	0.	14.556
12241	17.826	1.2	0.	15.262
12242	17.926	1.2	0.	15.969
12243	18.025	1.2	0.	16.678
12244	18.125	1.2	0.	17.389
12245	18.224	1.2	0.	18.105
12246	18.324	1.2	0.	18.825
12247	18.423	1.2	0.	19.552
12248	18.523	1.2	0.	20.286
12249	18.623	1.2	0.	21.029
12250	18.722	1.2	0.	21.782
12251	18.822	1.2	0.	22.545
12252	18.921	1.2	0.	23.321
12253	19.021	1.2	0.	24.11
12254	19.121	1.2	0.	24.913
12255	19.22	1.2	0.	25.733
12256	19.32	1.2	0.	26.57
12257	19.419	1.2	0.	27.425
12258	19.519	1.2	0.	28.3
12259	19.618	1.2	0.	29.196
12260	19.718	1.2	0.	30.115
12261	19.818	1.2	0.	31.058
12262	19.917	1.2	0.	32.027
12263	20.017	1.2	0.	33.024
12264	20.116	1.2	0.	34.049
12265	20.216	1.2	0.	35.105
12266	20.316	1.2	0.	36.194
12267	20.415	1.2	0.	37.317
12268	20.515	1.2	0.	38.477
12269	20.614	1.2	0.	39.675
12270	20.714	1.2	0.	40.914
12271	20.813	1.2	0.	42.197
12272	20.913	1.2	0.	43.525
12273	21.013	1.2	0.	44.902
12274	21.112	1.2	0.	46.33
12275	21.212	1.2	0.	47.813
12276	21.311	1.2	0.	49.353
12277	21.411	1.2	0.	50.955
12278	21.51	1.2	0.	52.623
12279	21.61	1.2	0.	54.361
12280	21.71	1.2	0.	56.174
12281	21.809	1.2	0.	58.067
12282	21.909	1.2	0.	60.046
12283	22.008	1.2	0.	62.118
12284	22.108	1.2	0.	64.289
12285	22.208	1.2	0.	66.567
12286	22.307	1.2	0.	68.962
12287	22.407	1.2	0.	71.481
12288	22.506	1.2	0.	74.137
12289	22.606	1.2	0.	76.94
12290	22.705	1.2	0.	79.903
12291	22.805	1.2	0.	83.039
12292	22.905	1.2	0.	86.362
12293	23.004	1.2	0.	89.887
12294	23.104	1.2	0.	93.627
12295	23.203	1.2	0.	97.599
12296	23.303	1.2	0.	101.81
12297	23.403	1.2	0.	106.28
12298	23.502	1.2	0.	111.01
12299	23.602	1.2	0.	116.01
12300	23.701	1.2	0.	121.28
12301	23.801	1.2	0.	126.82
12302	23.9	1.2	0.	132.67
12303	8.2662	1.1	0.	1336.8
12304	8.3658	1.1	0.	1053.2
12305	8.4654	1.1	0.	868.34
12306	8.565	1.1	0.	710.04
12307	8.6646	1.1	0.	575.08
12308	8.7642	1.1	0.	462.71
12309	8.8637	1.1	0.	370.76
12310	8.9633	1.1	0.	296.35
12311	9.0629	1.1	0.	236.46
12312	9.1625	1.1	0.	188.31
12313	9.2621	1.1	0.	149.5
12314	9.3616	1.1	0.	118.04
12315	9.4612	1.1	0.	92.359
12316	9.5608	1.1	0.	71.222
12317	9.6604	1.1	0.	53.695
12318	9.76	1.1	0.	39.086
12319	9.8595	1.1	0.	26.93
12320	9.9591	1.1	0.	17.023
12321	10.059	1.1	0.	9.5442
12322	10.158	1.1	0.	4.9091
12323	10.258	1.1	0.	2.6452
12324	10.357	1.1	0.	1.5844
12325	10.457	1.1	0.	1.0337
12326	10.557	1.1	0.	0.71567
12327	10.656	1.1	0.	0.51661
12328	10.756	1.1	0.	0.38464
12329	10.855	1.1	0.	0.29334
12330	10.955	1.1	0.	0.22812
12331	11.055	1.1	0.	0.18032
12332	11.154	1.1	0.	0.14455
12333	11.254	1.1	0.	0.11729
12334	11.353	1.1	0.	9.625e-002
12335	11.453	1.1	0.	7.9785e-002
12336	11.552	1.1	0.	6.6756e-002
12337	11.652	1.1	0.	5.6333e-002
12338	11.752	1.1	0.	4.7911e-002
12339	11.851	1.1	0.	4.1068e-002
12340	11.951	1.1	0.	3.547e-002
12341	12.05	1.1	0.	3.084e-002
12342	12.15	1.1	0.	2.6985e-002
12343	12.249	1.1	0.	2.376e-002
12344	12.349	1.1	0.	2.106e-002
12345	12.449	1.1	0.	1.8787e-002
12346	12.548	1.1	0.	1.6825e-002
12347	12.648	1.1	0.	1.5158e-002
12348	12.747	1.1	0.	1.3743e-002
12349	12.847	1.1	0.	1.2524e-002
12350	12.947	1.1	0.	1.1481e-002
12351	13.046	1.1	0.	1.0577e-002
12352	13.146	1.1	0.	9.7834e-003
12353	13.245	1.1	0.	9.0955e-003
12354	13.345	1.1	0.	8.5455e-003
12355	13.444	1.1	0.	8.0493e-003
12356	13.544	1.1	0.	7.6192e-003
12357	13.644	1.1	0.	7.2504e-003
12358	13.743	1.1	0.	6.934e-003
12359	13.843	1.1	0.	6.6776e-003
12360	13.942	1.1	0.	6.4726e-003
12361	14.042	1.1	0.	6.2795e-003
12362	14.142	1.1	0.	6.1285e-003
12363	14.241	1.1	0.	6.0247e-003
12364	14.341	1.1	0.	5.9548e-003
12365	14.44	1.1	0.	5.9204e-003
12366	14.54	1.1	0.	5.9197e-003
12367	14.639	1.1	0.	5.951e-003
12368	14.739	1.1	0.	6.0385e-003
12369	14.839	1.1	0.	6.1911e-003
12370	14.938	1.1	0.	6.4046e-003
12371	15.038	1.1	0.	6.707e-003
12372	15.137	1.1	0.	7.1389e-003
12373	15.237	1.1	0.	7.7829e-003
12374	15.336	1.1	0.	8.7782e-003
12375	15.436	1.1	0.	1.0422e-002
12376	15.536	1.1	0.	1.3717e-002
12377	15.635	1.1	0.	2.317e-002
12378	15.735	1.1	0.	0.12189
12379	15.834	1.1	0.	0.85676
12380	15.934	1.1	0.	1.6953
12381	16.034	1.1	0.	2.5222
12382	16.133	1.1	0.	3.3333
12383	16.233	1.1	0.	4.1284
12384	16.332	1.1	0.	4.908
12385	16.432	1.1	0.	5.6732
12386	16.531	1.1	0.	6.4248
12387	16.631	1.1	0.	7.1638
12388	16.731	1.1	0.	7.8913
12389	16.83	1.1	0.	8.6081
12390	16.93	1.1	0.	9.3153
12391	17.029	1.1	0.	10.014
12392	17.129	1.1	0.	10.705
12393	17.229	1.1	0.	11.39
12394	17.328	1.1	0.	12.068
12395	17.428	1.1	0.	12.743
12396	17.527	1.1	0.	13.414
12397	17.627	1.1	0.	14.082
12398	17.726	1.1	0.	14.749
12399	17.826	1.1	0.	15.415
12400	17.926	1.1	0.	16.082
12401	18.025	1.1	0.	16.751
12402	18.125	1.1	0.	17.422
12403	18.224	1.1	0.	18.096
12404	18.324	1.1	0.	18.775
12405	18.423	1.1	0.	19.46
12406	18.523	1.1	0.	20.152
12407	18.623	1.1	0.	20.851
12408	18.722	1.1	0.	21.559
12409	18.822	1.1	0.	22.277
12410	18.921	1.1	0.	23.005
12411	19.021	1.1	0.	23.746
12412	19.121	1.1	0.	24.5
12413	19.22	1.1	0.	25.269
12414	19.32	1.1	0.	26.053
12415	19.419	1.1	0.	26.854
12416	19.519	1.1	0.	27.672
12417	19.618	1.1	0.	28.51
12418	19.718	1.1	0.	29.369
12419	19.818	1.1	0.	30.249
12420	19.917	1.1	0.	31.153
12421	20.017	1.1	0.	32.081
12422	20.116	1.1	0.	33.036
12423	20.216	1.1	0.	34.018
12424	20.316	1.1	0.	35.03
12425	20.415	1.1	0.	36.073
12426	20.515	1.1	0.	37.149
12427	20.614	1.1	0.	38.26
12428	20.714	1.1	0.	39.408
12429	20.813	1.1	0.	40.595
12430	20.913	1.1	0.	41.823
12431	21.013	1.1	0.	43.095
12432	21.112	1.1	0.	44.414
12433	21.212	1.1	0.	45.783
12434	21.311	1.1	0.	47.204
12435	21.411	1.1	0.	48.681
12436	21.51	1.1	0.	50.218
12437	21.61	1.1	0.	51.819
12438	21.71	1.1	0.	53.488
12439	21.809	1.1	0.	55.231
12440	21.909	1.1	0.	57.054
12441	22.008	1.1	0.	58.962
12442	22.108	1.1	0.	60.963
12443	22.208	1.1	0.	63.065
12444	22.307	1.1	0.	65.276
12445	22.407	1.1	0.	67.606
12446	22.506	1.1	0.	70.066
12447	22.606	1.1	0.	72.669
12448	22.705	1.1	0.	75.428
12449	22.805	1.1	0.	78.357
12450	22.905	1.1	0.	81.474
12451	23.004	1.1	0.	84.795
12452	23.104	1.1	0.	88.337
12453	23.203	1.1	0.	92.12
12454	23.303	1.1	0.	96.16
12455	23.403	1.1	0.	100.47
12456	23.502	1.1	0.	105.07
12457	23.602	1.1	0.	109.96
12458	23.701	1.1	0.	115.14
12459	23.801	1.1	0.	120.64
12460	23.9	1.1	0.	126.47
12461	8.2662	1.	0.	1148.6
12462	8.3658	1.	0.	899.99
12463	8.4654	1.	0.	741.66
12464	8.565	1.	0.	609.01
12465	8.6646	1.	0.	497.8
12466	8.7642	1.	0.	406.31
12467	8.8637	1.	0.	331.94
12468	8.9633	1.	0.	271.83
12469	9.0629	1.	0.	223.23
12470	9.1625	1.	0.	183.77
12471	9.2621	1.	0.	151.48
12472	9.3616	1.	0.	124.79
12473	9.4612	1.	0.	102.5
12474	9.5608	1.	0.	83.655
12475	9.6604	1.	0.	67.565
12476	9.76	1.	0.	53.698
12477	9.8595	1.	0.	41.661
12478	9.9591	1.	0.	31.179
12479	10.059	1.	0.	22.08
12480	10.158	1.	0.	14.327
12481	10.258	1.	0.	8.1416
12482	10.357	1.	0.	4.0681
12483	10.457	1.	0.	2.0744
12484	10.557	1.	0.	1.1927
12485	10.656	1.	0.	0.75908
12486	10.756	1.	0.	0.51772
12487	10.855	1.	0.	0.37047
12488	10.955	1.	0.	0.27461
12489	11.055	1.	0.	0.20918
12490	11.154	1.	0.	0.16285
12491	11.254	1.	0.	0.12912
12492	11.353	1.	0.	0.10401
12493	11.453	1.	0.	8.4948e-002
12494	11.552	1.	0.	7.0239e-002
12495	11.652	1.	0.	5.8719e-002
12496	11.752	1.	0.	4.9578e-002
12497	11.851	1.	0.	4.2261e-002
12498	11.951	1.	0.	3.635e-002
12499	12.05	1.	0.	3.1511e-002
12500	12.15	1.	0.	2.7518e-002
12501	12.249	1.	0.	2.42e-002
12502	12.349	1.	0.	2.1437e-002
12503	12.449	1.	0.	1.9119e-002
12504	12.548	1.	0.	1.7128e-002
12505	12.648	1.	0.	1.5437e-002
12506	12.747	1.	0.	1.4002e-002
12507	12.847	1.	0.	1.2769e-002
12508	12.947	1.	0.	1.171e-002
12509	13.046	1.	0.	1.079e-002
12510	13.146	1.	0.	9.9854e-003
12511	13.245	1.	0.	9.299e-003
12512	13.345	1.	0.	8.7174e-003
12513	13.444	1.	0.	8.2072e-003
12514	13.544	1.	0.	7.7769e-003
12515	13.644	1.	0.	7.381e-003
12516	13.743	1.	0.	7.0518e-003
12517	13.843	1.	0.	6.7838e-003
12518	13.942	1.	0.	6.5676e-003
12519	14.042	1.	0.	6.365e-003
12520	14.142	1.	0.	6.2071e-003
12521	14.241	1.	0.	6.099e-003
12522	14.341	1.	0.	6.0284e-003
12523	14.44	1.	0.	5.9993e-003
12524	14.54	1.	0.	6.0123e-003
12525	14.639	1.	0.	6.0657e-003
12526	14.739	1.	0.	6.192e-003
12527	14.839	1.	0.	6.4067e-003
12528	14.938	1.	0.	6.7165e-003
12529	15.038	1.	0.	7.1781e-003
12530	15.137	1.	0.	7.8805e-003
12531	15.237	1.	0.	9.025e-003
12532	15.336	1.	0.	1.1079e-002
12533	15.436	1.	0.	1.5595e-002
12534	15.536	1.	0.	3.2801e-002
12535	15.635	1.	0.	0.33756
12536	15.735	1.	0.	1.1291
12537	15.834	1.	0.	1.9325
12538	15.934	1.	0.	2.722
12539	16.034	1.	0.	3.4959
12540	16.133	1.	0.	4.2545
12541	16.233	1.	0.	4.9982
12542	16.332	1.	0.	5.7278
12543	16.432	1.	0.	6.4442
12544	16.531	1.	0.	7.1482
12545	16.631	1.	0.	7.8408
12546	16.731	1.	0.	8.5227
12547	16.83	1.	0.	9.195
12548	16.93	1.	0.	9.8585
12549	17.029	1.	0.	10.514
12550	17.129	1.	0.	11.163
12551	17.229	1.	0.	11.806
12552	17.328	1.	0.	12.443
12553	17.428	1.	0.	13.076
12554	17.527	1.	0.	13.706
12555	17.627	1.	0.	14.334
12556	17.726	1.	0.	14.96
12557	17.826	1.	0.	15.586
12558	17.926	1.	0.	16.212
12559	18.025	1.	0.	16.839
12560	18.125	1.	0.	17.469
12561	18.224	1.	0.	18.102
12562	18.324	1.	0.	18.738
12563	18.423	1.	0.	19.38
12564	18.523	1.	0.	20.027
12565	18.623	1.	0.	20.682
12566	18.722	1.	0.	21.344
12567	18.822	1.	0.	22.015
12568	18.921	1.	0.	22.696
12569	19.021	1.	0.	23.388
12570	19.121	1.	0.	24.092
12571	19.22	1.	0.	24.808
12572	19.32	1.	0.	25.538
12573	19.419	1.	0.	26.283
12574	19.519	1.	0.	27.044
12575	19.618	1.	0.	27.823
12576	19.718	1.	0.	28.619
12577	19.818	1.	0.	29.436
12578	19.917	1.	0.	30.273
12579	20.017	1.	0.	31.132
12580	20.116	1.	0.	32.014
12581	20.216	1.	0.	32.921
12582	20.316	1.	0.	33.855
12583	20.415	1.	0.	34.816
12584	20.515	1.	0.	35.806
12585	20.614	1.	0.	36.828
12586	20.714	1.	0.	37.882
12587	20.813	1.	0.	38.971
12588	20.913	1.	0.	40.097
12589	21.013	1.	0.	41.262
12590	21.112	1.	0.	42.469
12591	21.212	1.	0.	43.719
12592	21.311	1.	0.	45.017
12593	21.411	1.	0.	46.365
12594	21.51	1.	0.	47.766
12595	21.61	1.	0.	49.225
12596	21.71	1.	0.	50.745
12597	21.809	1.	0.	52.332
12598	21.909	1.	0.	53.991
12599	22.008	1.	0.	55.727
12600	22.108	1.	0.	57.548
12601	22.208	1.	0.	59.462
12602	22.307	1.	0.	61.477
12603	22.407	1.	0.	63.602
12604	22.506	1.	0.	65.85
12605	22.606	1.	0.	68.233
12606	22.705	1.	0.	70.766
12607	22.805	1.	0.	73.465
12608	22.905	1.	0.	76.347
12609	23.004	1.	0.	79.434
12610	23.104	1.	0.	82.746
12611	23.203	1.	0.	86.305
12612	23.303	1.	0.	90.135
12613	23.403	1.	0.	94.257
12614	23.502	1.	0.	98.688
12615	23.602	1.	0.	103.44
12616	23.701	1.	0.	108.52
12617	23.801	1.	0.	113.95
12618	23.9	1.	0.	119.77
12619	8.2662	0.9	0.	979.92
12620	8.3658	0.9	0.	759.73
12621	8.4654	0.9	0.	622.94
12622	8.565	0.9	0.	511.83
12623	8.6646	0.9	0.	421.27
12624	8.7642	0.9	0.	348.47
12625	8.8637	0.9	0.	290.27
12626	8.9633	0.9	0.	243.6
12627	9.0629	0.9	0.	205.84
12628	9.1625	0.9	0.	174.88
12629	9.2621	0.9	0.	149.12
12630	9.3616	0.9	0.	127.33
12631	9.4612	0.9	0.	108.63
12632	9.5608	0.9	0.	92.363
12633	9.6604	0.9	0.	78.041
12634	9.76	0.9	0.	65.316
12635	9.8595	0.9	0.	53.934
12636	9.9591	0.9	0.	43.709
12637	10.059	0.9	0.	34.507
12638	10.158	0.9	0.	26.239
12639	10.258	0.9	0.	18.856
12640	10.357	0.9	0.	12.382
12641	10.457	0.9	0.	7.0135
12642	10.557	0.9	0.	3.319
12643	10.656	0.9	0.	1.5608
12644	10.756	0.9	0.	0.8549
12645	10.855	0.9	0.	0.53155
12646	10.955	0.9	0.	0.35877
12647	11.055	0.9	0.	0.25587
12648	11.154	0.9	0.	0.18984
12649	11.254	0.9	0.	0.14517
12650	11.353	0.9	0.	0.11375
12651	11.453	0.9	0.	9.0936e-002
12652	11.552	0.9	0.	7.3956e-002
12653	11.652	0.9	0.	6.1044e-002
12654	11.752	0.9	0.	5.1042e-002
12655	11.851	0.9	0.	4.3194e-002
12656	11.951	0.9	0.	3.6956e-002
12657	12.05	0.9	0.	3.1917e-002
12658	12.15	0.9	0.	2.7807e-002
12659	12.249	0.9	0.	2.442e-002
12660	12.349	0.9	0.	2.1618e-002
12661	12.449	0.9	0.	1.9281e-002
12662	12.548	0.9	0.	1.7279e-002
12663	12.648	0.9	0.	1.5583e-002
12664	12.747	0.9	0.	1.4146e-002
12665	12.847	0.9	0.	1.2911e-002
12666	12.947	0.9	0.	1.185e-002
12667	13.046	0.9	0.	1.0926e-002
12668	13.146	0.9	0.	1.0115e-002
12669	13.245	0.9	0.	9.4232e-003
12670	13.345	0.9	0.	8.8339e-003
12671	13.444	0.9	0.	8.3145e-003
12672	13.544	0.9	0.	7.8608e-003
12673	13.644	0.9	0.	7.4688e-003
12674	13.743	0.9	0.	7.1092e-003
12675	13.843	0.9	0.	6.8612e-003
12676	13.942	0.9	0.	6.6265e-003
12677	14.042	0.9	0.	6.4172e-003
12678	14.142	0.9	0.	6.2559e-003
12679	14.241	0.9	0.	6.1493e-003
12680	14.341	0.9	0.	6.0845e-003
12681	14.44	0.9	0.	6.0707e-003
12682	14.54	0.9	0.	6.1093e-003
12683	14.639	0.9	0.	6.2089e-003
12684	14.739	0.9	0.	6.4094e-003
12685	14.839	0.9	0.	6.7445e-003
12686	14.938	0.9	0.	7.2631e-003
12687	15.038	0.9	0.	8.0988e-003
12688	15.137	0.9	0.	9.5521e-003
12689	15.237	0.9	0.	1.2507e-002
12690	15.336	0.9	0.	2.095e-002
12691	15.436	0.9	0.	0.10416
12692	15.536	0.9	0.	0.76956
12693	15.635	0.9	0.	1.5425
12694	15.735	0.9	0.	2.3054
12695	15.834	0.9	0.	3.0537
12696	15.934	0.9	0.	3.787
12697	16.034	0.9	0.	4.5057
12698	16.133	0.9	0.	5.2103
12699	16.233	0.9	0.	5.9015
12700	16.332	0.9	0.	6.58
12701	16.432	0.9	0.	7.2466
12702	16.531	0.9	0.	7.9021
12703	16.631	0.9	0.	8.5472
12704	16.731	0.9	0.	9.1828
12705	16.83	0.9	0.	9.8096
12706	16.93	0.9	0.	10.428
12707	17.029	0.9	0.	11.04
12708	17.129	0.9	0.	11.646
12709	17.229	0.9	0.	12.245
12710	17.328	0.9	0.	12.841
12711	17.428	0.9	0.	13.432
12712	17.527	0.9	0.	14.02
12713	17.627	0.9	0.	14.606
12714	17.726	0.9	0.	15.191
12715	17.826	0.9	0.	15.775
12716	17.926	0.9	0.	16.359
12717	18.025	0.9	0.	16.945
12718	18.125	0.9	0.	17.532
12719	18.224	0.9	0.	18.122
12720	18.324	0.9	0.	18.715
12721	18.423	0.9	0.	19.313
12722	18.523	0.9	0.	19.916
12723	18.623	0.9	0.	20.525
12724	18.722	0.9	0.	21.141
12725	18.822	0.9	0.	21.764
12726	18.921	0.9	0.	22.397
12727	19.021	0.9	0.	23.038
12728	19.121	0.9	0.	23.69
12729	19.22	0.9	0.	24.354
12730	19.32	0.9	0.	25.029
12731	19.419	0.9	0.	25.718
12732	19.519	0.9	0.	26.421
12733	19.618	0.9	0.	27.139
12734	19.718	0.9	0.	27.873
12735	19.818	0.9	0.	28.624
12736	19.917	0.9	0.	29.393
12737	20.017	0.9	0.	30.182
12738	20.116	0.9	0.	30.991
12739	20.216	0.9	0.	31.822
12740	20.316	0.9	0.	32.675
12741	20.415	0.9	0.	33.553
12742	20.515	0.9	0.	34.457
12743	20.614	0.9	0.	35.387
12744	20.714	0.9	0.	36.347
12745	20.813	0.9	0.	37.336
12746	20.913	0.9	0.	38.358
12747	21.013	0.9	0.	39.414
12748	21.112	0.9	0.	40.506
12749	21.212	0.9	0.	41.636
12750	21.311	0.9	0.	42.808
12751	21.411	0.9	0.	44.023
12752	21.51	0.9	0.	45.285
12753	21.61	0.9	0.	46.597
12754	21.71	0.9	0.	47.964
12755	21.809	0.9	0.	49.389
12756	21.909	0.9	0.	50.877
12757	22.008	0.9	0.	52.434
12758	22.108	0.9	0.	54.067
12759	22.208	0.9	0.	55.782
12760	22.307	0.9	0.	57.589
12761	22.407	0.9	0.	59.496
12762	22.506	0.9	0.	61.515
12763	22.606	0.9	0.	63.66
12764	22.705	0.9	0.	65.944
12765	22.805	0.9	0.	68.386
12766	22.905	0.9	0.	71.005
12767	23.004	0.9	0.	73.824
12768	23.104	0.9	0.	76.867
12769	23.203	0.9	0.	80.163
12770	23.303	0.9	0.	83.74
12771	23.403	0.9	0.	87.626
12772	23.502	0.9	0.	91.849
12773	23.602	0.9	0.	96.431
12774	23.701	0.9	0.	101.38
12775	23.801	0.9	0.	106.72
12776	23.9	0.9	0.	112.52
12777	8.2662	0.8	0.	827.02
12778	8.3658	0.8	0.	630.71
12779	8.4654	0.8	0.	512.12
12780	8.565	0.8	0.	419.8
12781	8.6646	0.8	0.	347.63
12782	8.7642	0.8	0.	291.71
12783	8.8637	0.8	0.	248.22
12784	8.9633	0.8	0.	213.86
12785	9.0629	0.8	0.	186.09
12786	9.1625	0.8	0.	163.06
12787	9.2621	0.8	0.	143.46
12788	9.3616	0.8	0.	126.38
12789	9.4612	0.8	0.	111.22
12790	9.5608	0.8	0.	97.55
12791	9.6604	0.8	0.	85.104
12792	9.76	0.8	0.	73.691
12793	9.8595	0.8	0.	63.186
12794	9.9591	0.8	0.	53.501
12795	10.059	0.8	0.	44.576
12796	10.158	0.8	0.	36.37
12797	10.258	0.8	0.	28.852
12798	10.357	0.8	0.	22.001
12799	10.457	0.8	0.	15.815
12800	10.557	0.8	0.	10.327
12801	10.656	0.8	0.	5.7023
12802	10.756	0.8	0.	2.4911
12803	10.855	0.8	0.	1.0757
12804	10.955	0.8	0.	0.56984
12805	11.055	0.8	0.	0.35136
12806	11.154	0.8	0.	0.23749
12807	11.254	0.8	0.	0.17044
12808	11.353	0.8	0.	0.12766
12809	11.453	0.8	0.	9.8747e-002
12810	11.552	0.8	0.	7.8374e-002
12811	11.652	0.8	0.	6.3529e-002
12812	11.752	0.8	0.	5.2416e-002
12813	11.851	0.8	0.	4.3926e-002
12814	11.951	0.8	0.	3.7323e-002
12815	12.05	0.8	0.	3.2086e-002
12816	12.15	0.8	0.	2.7871e-002
12817	12.249	0.8	0.	2.4437e-002
12818	12.349	0.8	0.	2.1621e-002
12819	12.449	0.8	0.	1.9286e-002
12820	12.548	0.8	0.	1.7295e-002
12821	12.648	0.8	0.	1.5614e-002
12822	12.747	0.8	0.	1.4192e-002
12823	12.847	0.8	0.	1.2967e-002
12824	12.947	0.8	0.	1.1914e-002
12825	13.046	0.8	0.	1.0997e-002
12826	13.146	0.8	0.	1.0188e-002
12827	13.245	0.8	0.	9.4947e-003
12828	13.345	0.8	0.	8.9029e-003
12829	13.444	0.8	0.	8.3785e-003
12830	13.544	0.8	0.	7.9174e-003
12831	13.644	0.8	0.	7.5174e-003
12832	13.743	0.8	0.	7.1697e-003
12833	13.843	0.8	0.	6.8842e-003
12834	13.942	0.8	0.	6.6528e-003
12835	14.042	0.8	0.	6.4393e-003
12836	14.142	0.8	0.	6.2608e-003
12837	14.241	0.8	0.	6.1731e-003
12838	14.341	0.8	0.	6.136e-003
12839	14.44	0.8	0.	6.1593e-003
12840	14.54	0.8	0.	6.2374e-003
12841	14.639	0.8	0.	6.4311e-003
12842	14.739	0.8	0.	6.7976e-003
12843	14.839	0.8	0.	7.4558e-003
12844	14.938	0.8	0.	8.576e-003
12845	15.038	0.8	0.	1.0843e-002
12846	15.137	0.8	0.	1.701e-002
12847	15.237	0.8	0.	6.4009e-002
12848	15.336	0.8	0.	0.63438
12849	15.436	0.8	0.	1.3727
12850	15.536	0.8	0.	2.1032
12851	15.635	0.8	0.	2.8203
12852	15.735	0.8	0.	3.5232
12853	15.834	0.8	0.	4.2121
12854	15.934	0.8	0.	4.8874
12855	16.034	0.8	0.	5.5496
12856	16.133	0.8	0.	6.1993
12857	16.233	0.8	0.	6.8372
12858	16.332	0.8	0.	7.4638
12859	16.432	0.8	0.	8.0798
12860	16.531	0.8	0.	8.6859
12861	16.631	0.8	0.	9.2828
12862	16.731	0.8	0.	9.8711
12863	16.83	0.8	0.	10.452
12864	16.93	0.8	0.	11.025
12865	17.029	0.8	0.	11.592
12866	17.129	0.8	0.	12.153
12867	17.229	0.8	0.	12.71
12868	17.328	0.8	0.	13.262
12869	17.428	0.8	0.	13.811
12870	17.527	0.8	0.	14.356
12871	17.627	0.8	0.	14.9
12872	17.726	0.8	0.	15.443
12873	17.826	0.8	0.	15.984
12874	17.926	0.8	0.	16.526
12875	18.025	0.8	0.	17.069
12876	18.125	0.8	0.	17.613
12877	18.224	0.8	0.	18.16
12878	18.324	0.8	0.	18.709
12879	18.423	0.8	0.	19.262
12880	18.523	0.8	0.	19.82
12881	18.623	0.8	0.	20.383
12882	18.722	0.8	0.	20.952
12883	18.822	0.8	0.	21.527
12884	18.921	0.8	0.	22.11
12885	19.021	0.8	0.	22.701
12886	19.121	0.8	0.	23.301
12887	19.22	0.8	0.	23.911
12888	19.32	0.8	0.	24.531
12889	19.419	0.8	0.	25.163
12890	19.519	0.8	0.	25.807
12891	19.618	0.8	0.	26.464
12892	19.718	0.8	0.	27.134
12893	19.818	0.8	0.	27.82
12894	19.917	0.8	0.	28.521
12895	20.017	0.8	0.	29.238
12896	20.116	0.8	0.	29.973
12897	20.216	0.8	0.	30.727
12898	20.316	0.8	0.	31.5
12899	20.415	0.8	0.	32.294
12900	20.515	0.8	0.	33.11
12901	20.614	0.8	0.	33.949
12902	20.714	0.8	0.	34.812
12903	20.813	0.8	0.	35.701
12904	20.913	0.8	0.	36.618
12905	21.013	0.8	0.	37.563
12906	21.112	0.8	0.	38.539
12907	21.212	0.8	0.	39.547
12908	21.311	0.8	0.	40.591
12909	21.411	0.8	0.	41.671
12910	21.51	0.8	0.	42.792
12911	21.61	0.8	0.	43.954
12912	21.71	0.8	0.	45.163
12913	21.809	0.8	0.	46.422
12914	21.909	0.8	0.	47.735
12915	22.008	0.8	0.	49.107
12916	22.108	0.8	0.	50.544
12917	22.208	0.8	0.	52.053
12918	22.307	0.8	0.	53.641
12919	22.407	0.8	0.	55.317
12920	22.506	0.8	0.	57.093
12921	22.606	0.8	0.	58.981
12922	22.705	0.8	0.	60.995
12923	22.805	0.8	0.	63.155
12924	22.905	0.8	0.	65.479
12925	23.004	0.8	0.	67.994
12926	23.104	0.8	0.	70.727
12927	23.203	0.8	0.	73.711
12928	23.303	0.8	0.	76.982
12929	23.403	0.8	0.	80.578
12930	23.502	0.8	0.	84.538
12931	23.602	0.8	0.	88.895
12932	23.701	0.8	0.	93.671
12933	23.801	0.8	0.	98.897
12934	23.9	0.8	0.	104.65
12935	8.2662	0.7	0.	687.23
12936	8.3658	0.7	0.	511.65
12937	8.4654	0.7	0.	409.25
12938	8.565	0.7	0.	334.05
12939	8.6646	0.7	0.	278.71
12940	8.7642	0.7	0.	238.13
12941	8.8637	0.7	0.	207.84
12942	8.9633	0.7	0.	184.44
12943	9.0629	0.7	0.	165.53
12944	9.1625	0.7	0.	149.52
12945	9.2621	0.7	0.	135.41
12946	9.3616	0.7	0.	122.58
12947	9.4612	0.7	0.	110.66
12948	9.5608	0.7	0.	99.441
12949	9.6604	0.7	0.	88.827
12950	9.76	0.7	0.	78.764
12951	9.8595	0.7	0.	69.236
12952	9.9591	0.7	0.	60.24
12953	10.059	0.7	0.	51.783
12954	10.158	0.7	0.	43.871
12955	10.258	0.7	0.	36.511
12956	10.357	0.7	0.	29.704
12957	10.457	0.7	0.	23.45
12958	10.557	0.7	0.	17.747
12959	10.656	0.7	0.	12.598
12960	10.756	0.7	0.	8.0342
12961	10.855	0.7	0.	4.1968
12962	10.955	0.7	0.	1.6371
12963	11.055	0.7	0.	0.66604
12964	11.154	0.7	0.	0.35324
12965	11.254	0.7	0.	0.22081
12966	11.353	0.7	0.	0.15177
12967	11.453	0.7	0.	0.1109
12968	11.552	0.7	0.	8.4629e-002
12969	11.652	0.7	0.	6.673e-002
12970	11.752	0.7	0.	5.3991e-002
12971	11.851	0.7	0.	4.4631e-002
12972	11.951	0.7	0.	3.7569e-002
12973	12.05	0.7	0.	3.21e-002
12974	12.15	0.7	0.	2.7781e-002
12975	12.249	0.7	0.	2.4313e-002
12976	12.349	0.7	0.	2.15e-002
12977	12.449	0.7	0.	1.9186e-002
12978	12.548	0.7	0.	1.7223e-002
12979	12.648	0.7	0.	1.5571e-002
12980	12.747	0.7	0.	1.4174e-002
12981	12.847	0.7	0.	1.2972e-002
12982	12.947	0.7	0.	1.1937e-002
12983	13.046	0.7	0.	1.1031e-002
12984	13.146	0.7	0.	1.0229e-002
12985	13.245	0.7	0.	9.5387e-003
12986	13.345	0.7	0.	8.9442e-003
12987	13.444	0.7	0.	8.4146e-003
12988	13.544	0.7	0.	7.9468e-003
12989	13.644	0.7	0.	7.5371e-003
12990	13.743	0.7	0.	7.1798e-003
12991	13.843	0.7	0.	6.8845e-003
12992	13.942	0.7	0.	6.6446e-003
12993	14.042	0.7	0.	6.4278e-003
12994	14.142	0.7	0.	6.2673e-003
12995	14.241	0.7	0.	6.1819e-003
12996	14.341	0.7	0.	6.1671e-003
12997	14.44	0.7	0.	6.2513e-003
12998	14.54	0.7	0.	6.477e-003
12999	14.639	0.7	0.	6.9328e-003
13000	14.739	0.7	0.	7.8594e-003
13001	14.839	0.7	0.	9.9147e-003
13002	14.938	0.7	0.	1.6309e-002
13003	15.038	0.7	0.	0.10502
13004	15.137	0.7	0.	0.74422
13005	15.237	0.7	0.	1.4454
13006	15.336	0.7	0.	2.1371
13007	15.436	0.7	0.	2.8161
13008	15.536	0.7	0.	3.4822
13009	15.635	0.7	0.	4.1355
13010	15.735	0.7	0.	4.7762
13011	15.834	0.7	0.	5.4045
13012	15.934	0.7	0.	6.0211
13013	16.034	0.7	0.	6.6262
13014	16.133	0.7	0.	7.2204
13015	16.233	0.7	0.	7.8043
13016	16.332	0.7	0.	8.3783
13017	16.432	0.7	0.	8.943
13018	16.531	0.7	0.	9.4991
13019	16.631	0.7	0.	10.047
13020	16.731	0.7	0.	10.588
13021	16.83	0.7	0.	11.121
13022	16.93	0.7	0.	11.648
13023	17.029	0.7	0.	12.17
13024	17.129	0.7	0.	12.687
13025	17.229	0.7	0.	13.199
13026	17.328	0.7	0.	13.707
13027	17.428	0.7	0.	14.213
13028	17.527	0.7	0.	14.715
13029	17.627	0.7	0.	15.216
13030	17.726	0.7	0.	15.716
13031	17.826	0.7	0.	16.215
13032	17.926	0.7	0.	16.714
13033	18.025	0.7	0.	17.213
13034	18.125	0.7	0.	17.714
13035	18.224	0.7	0.	18.217
13036	18.324	0.7	0.	18.722
13037	18.423	0.7	0.	19.23
13038	18.523	0.7	0.	19.742
13039	18.623	0.7	0.	20.259
13040	18.722	0.7	0.	20.78
13041	18.822	0.7	0.	21.307
13042	18.921	0.7	0.	21.84
13043	19.021	0.7	0.	22.38
13044	19.121	0.7	0.	22.928
13045	19.22	0.7	0.	23.484
13046	19.32	0.7	0.	24.049
13047	19.419	0.7	0.	24.623
13048	19.519	0.7	0.	25.208
13049	19.618	0.7	0.	25.803
13050	19.718	0.7	0.	26.41
13051	19.818	0.7	0.	27.03
13052	19.917	0.7	0.	27.662
13053	20.017	0.7	0.	28.308
13054	20.116	0.7	0.	28.969
13055	20.216	0.7	0.	29.646
13056	20.316	0.7	0.	30.338
13057	20.415	0.7	0.	31.048
13058	20.515	0.7	0.	31.776
13059	20.614	0.7	0.	32.523
13060	20.714	0.7	0.	33.29
13061	20.813	0.7	0.	34.078
13062	20.913	0.7	0.	34.889
13063	21.013	0.7	0.	35.723
13064	21.112	0.7	0.	36.582
13065	21.212	0.7	0.	37.468
13066	21.311	0.7	0.	38.383
13067	21.411	0.7	0.	39.328
13068	21.51	0.7	0.	40.305
13069	21.61	0.7	0.	41.317
13070	21.71	0.7	0.	42.366
13071	21.809	0.7	0.	43.456
13072	21.909	0.7	0.	44.591
13073	22.008	0.7	0.	45.773
13074	22.108	0.7	0.	47.01
13075	22.208	0.7	0.	48.305
13076	22.307	0.7	0.	49.667
13077	22.407	0.7	0.	51.103
13078	22.506	0.7	0.	52.622
13079	22.606	0.7	0.	54.237
13080	22.705	0.7	0.	55.962
13081	22.805	0.7	0.	57.814
13082	22.905	0.7	0.	59.814
13083	23.004	0.7	0.	61.988
13084	23.104	0.7	0.	64.365
13085	23.203	0.7	0.	66.984
13086	23.303	0.7	0.	69.886
13087	23.403	0.7	0.	73.122
13088	23.502	0.7	0.	76.745
13089	23.602	0.7	0.	80.805
13090	23.701	0.7	0.	85.345
13091	23.801	0.7	0.	90.409
13092	23.9	0.7	0.	96.093
13093	8.2662	0.6	0.	558.63
13094	8.3658	0.6	0.	401.81
13095	8.4654	0.6	0.	314.77
13096	8.565	0.6	0.	255.96
13097	8.6646	0.6	0.	216.36
13098	8.7642	0.6	0.	189.62
13099	8.8637	0.6	0.	170.89
13100	8.9633	0.6	0.	156.83
13101	9.0629	0.6	0.	145.35
13102	9.1625	0.6	0.	135.19
13103	9.2621	0.6	0.	125.66
13104	9.3616	0.6	0.	116.39
13105	9.4612	0.6	0.	107.25
13106	9.5608	0.6	0.	98.201
13107	9.6604	0.6	0.	89.265
13108	9.76	0.6	0.	80.502
13109	9.8595	0.6	0.	71.981
13110	9.9591	0.6	0.	63.765
13111	10.059	0.6	0.	55.91
13112	10.158	0.6	0.	48.462
13113	10.258	0.6	0.	41.454
13114	10.357	0.6	0.	34.91
13115	10.457	0.6	0.	28.844
13116	10.557	0.6	0.	23.262
13117	10.656	0.6	0.	18.161
13118	10.756	0.6	0.	13.541
13119	10.855	0.6	0.	9.398
13120	10.955	0.6	0.	5.7548
13121	11.055	0.6	0.	2.7453
13122	11.154	0.6	0.	0.93553
13123	11.254	0.6	0.	0.38064
13124	11.353	0.6	0.	0.20961
13125	11.453	0.6	0.	0.13552
13126	11.552	0.6	0.	9.6e-002
13127	11.652	0.6	0.	7.2156e-002
13128	11.752	0.6	0.	5.6561e-002
13129	11.851	0.6	0.	4.5781e-002
13130	11.951	0.6	0.	3.801e-002
13131	12.05	0.6	0.	3.2198e-002
13132	12.15	0.6	0.	2.7728e-002
13133	12.249	0.6	0.	2.4211e-002
13134	12.349	0.6	0.	2.1398e-002
13135	12.449	0.6	0.	1.911e-002
13136	12.548	0.6	0.	1.7182e-002
13137	12.648	0.6	0.	1.5564e-002
13138	12.747	0.6	0.	1.4198e-002
13139	12.847	0.6	0.	1.302e-002
13140	12.947	0.6	0.	1.2003e-002
13141	13.046	0.6	0.	1.1108e-002
13142	13.146	0.6	0.	1.031e-002
13143	13.245	0.6	0.	9.6179e-003
13144	13.345	0.6	0.	9.0166e-003
13145	13.444	0.6	0.	8.4756e-003
13146	13.544	0.6	0.	7.9933e-003
13147	13.644	0.6	0.	7.5646e-003
13148	13.743	0.6	0.	7.1874e-003
13149	13.843	0.6	0.	6.8724e-003
13150	13.942	0.6	0.	6.617e-003
13151	14.042	0.6	0.	6.3893e-003
13152	14.142	0.6	0.	6.2355e-003
13153	14.241	0.6	0.	6.1806e-003
13154	14.341	0.6	0.	6.2564e-003
13155	14.44	0.6	0.	6.5665e-003
13156	14.54	0.6	0.	7.3787e-003
13157	14.639	0.6	0.	9.77e-003
13158	14.739	0.6	0.	2.6244e-002
13159	14.839	0.6	0.	0.47076
13160	14.938	0.6	0.	1.1312
13161	15.038	0.6	0.	1.7858
13162	15.137	0.6	0.	2.4301
13163	15.237	0.6	0.	3.0633
13164	15.336	0.6	0.	3.6853
13165	15.436	0.6	0.	4.2959
13166	15.536	0.6	0.	4.8955
13167	15.635	0.6	0.	5.484
13168	15.735	0.6	0.	6.0618
13169	15.834	0.6	0.	6.6292
13170	15.934	0.6	0.	7.1865
13171	16.034	0.6	0.	7.7341
13172	16.133	0.6	0.	8.2723
13173	16.233	0.6	0.	8.8017
13174	16.332	0.6	0.	9.3227
13175	16.432	0.6	0.	9.8357
13176	16.531	0.6	0.	10.341
13177	16.631	0.6	0.	10.84
13178	16.731	0.6	0.	11.332
13179	16.83	0.6	0.	11.818
13180	16.93	0.6	0.	12.299
13181	17.029	0.6	0.	12.774
13182	17.129	0.6	0.	13.246
13183	17.229	0.6	0.	13.714
13184	17.328	0.6	0.	14.178
13185	17.428	0.6	0.	14.639
13186	17.527	0.6	0.	15.099
13187	17.627	0.6	0.	15.556
13188	17.726	0.6	0.	16.013
13189	17.826	0.6	0.	16.468
13190	17.926	0.6	0.	16.924
13191	18.025	0.6	0.	17.38
13192	18.125	0.6	0.	17.837
13193	18.224	0.6	0.	18.296
13194	18.324	0.6	0.	18.756
13195	18.423	0.6	0.	19.219
13196	18.523	0.6	0.	19.685
13197	18.623	0.6	0.	20.155
13198	18.722	0.6	0.	20.629
13199	18.822	0.6	0.	21.107
13200	18.921	0.6	0.	21.59
13201	19.021	0.6	0.	22.079
13202	19.121	0.6	0.	22.575
13203	19.22	0.6	0.	23.077
13204	19.32	0.6	0.	23.586
13205	19.419	0.6	0.	24.103
13206	19.519	0.6	0.	24.628
13207	19.618	0.6	0.	25.162
13208	19.718	0.6	0.	25.706
13209	19.818	0.6	0.	26.26
13210	19.917	0.6	0.	26.824
13211	20.017	0.6	0.	27.399
13212	20.116	0.6	0.	27.986
13213	20.216	0.6	0.	28.585
13214	20.316	0.6	0.	29.198
13215	20.415	0.6	0.	29.824
13216	20.515	0.6	0.	30.464
13217	20.614	0.6	0.	31.119
13218	20.714	0.6	0.	31.791
13219	20.813	0.6	0.	32.478
13220	20.913	0.6	0.	33.184
13221	21.013	0.6	0.	33.908
13222	21.112	0.6	0.	34.651
13223	21.212	0.6	0.	35.415
13224	21.311	0.6	0.	36.201
13225	21.411	0.6	0.	37.01
13226	21.51	0.6	0.	37.844
13227	21.61	0.6	0.	38.705
13228	21.71	0.6	0.	39.594
13229	21.809	0.6	0.	40.515
13230	21.909	0.6	0.	41.47
13231	22.008	0.6	0.	42.462
13232	22.108	0.6	0.	43.495
13233	22.208	0.6	0.	44.574
13234	22.307	0.6	0.	45.704
13235	22.407	0.6	0.	46.892
13236	22.506	0.6	0.	48.147
13237	22.606	0.6	0.	49.477
13238	22.705	0.6	0.	50.897
13239	22.805	0.6	0.	52.421
13240	22.905	0.6	0.	54.069
13241	23.004	0.6	0.	55.865
13242	23.104	0.6	0.	57.841
13243	23.203	0.6	0.	60.036
13244	23.303	0.6	0.	62.499
13245	23.403	0.6	0.	65.289
13246	23.502	0.6	0.	68.477
13247	23.602	0.6	0.	72.141
13248	23.701	0.6	0.	76.349
13249	23.801	0.6	0.	81.178
13250	23.9	0.6	0.	86.755
13251	8.2662	0.5	0.	439.91
13252	8.3658	0.5	0.	301.15
13253	8.4654	0.5	0.	229.91
13254	8.565	0.5	0.	187.46
13255	8.6646	0.5	0.	162.58
13256	8.7642	0.5	0.	147.96
13257	8.8637	0.5	0.	138.77
13258	8.9633	0.5	0.	132.11
13259	9.0629	0.5	0.	126.35
13260	9.1625	0.5	0.	120.64
13261	9.2621	0.5	0.	114.59
13262	9.3616	0.5	0.	108.09
13263	9.4612	0.5	0.	101.15
13264	9.5608	0.5	0.	93.879
13265	9.6604	0.5	0.	86.397
13266	9.76	0.5	0.	78.836
13267	9.8595	0.5	0.	71.316
13268	9.9591	0.5	0.	63.944
13269	10.059	0.5	0.	56.807
13270	10.158	0.5	0.	49.973
13271	10.258	0.5	0.	43.494
13272	10.357	0.5	0.	37.406
13273	10.457	0.5	0.	31.733
13274	10.557	0.5	0.	26.487
13275	10.656	0.5	0.	21.672
13276	10.756	0.5	0.	17.283
13277	10.855	0.5	0.	13.314
13278	10.955	0.5	0.	9.753
13279	11.055	0.5	0.	6.5939
13280	11.154	0.5	0.	3.8488
13281	11.254	0.5	0.	1.6457
13282	11.353	0.5	0.	0.50589
13283	11.453	0.5	0.	0.21698
13284	11.552	0.5	0.	0.12615
13285	11.652	0.5	0.	8.5208e-002
13286	11.752	0.5	0.	6.2707e-002
13287	11.851	0.5	0.	4.8823e-002
13288	11.951	0.5	0.	3.9572e-002
13289	12.05	0.5	0.	3.3036e-002
13290	12.15	0.5	0.	2.8218e-002
13291	12.249	0.5	0.	2.4541e-002
13292	12.349	0.5	0.	2.1666e-002
13293	12.449	0.5	0.	1.9362e-002
13294	12.548	0.5	0.	1.744e-002
13295	12.648	0.5	0.	1.5849e-002
13296	12.747	0.5	0.	1.4484e-002
13297	12.847	0.5	0.	1.3316e-002
13298	12.947	0.5	0.	1.2301e-002
13299	13.046	0.5	0.	1.14e-002
13300	13.146	0.5	0.	1.0591e-002
13301	13.245	0.5	0.	9.8786e-003
13302	13.345	0.5	0.	9.2502e-003
13303	13.444	0.5	0.	8.6759e-003
13304	13.544	0.5	0.	8.153e-003
13305	13.644	0.5	0.	7.6804e-003
13306	13.743	0.5	0.	7.2539e-003
13307	13.843	0.5	0.	6.8888e-003
13308	13.942	0.5	0.	6.5799e-003
13309	14.042	0.5	0.	6.3154e-003
13310	14.142	0.5	0.	6.1611e-003
13311	14.241	0.5	0.	6.2509e-003
13312	14.341	0.5	0.	7.1746e-003
13313	14.44	0.5	0.	3.7864e-002
13314	14.54	0.5	0.	0.61008
13315	14.639	0.5	0.	1.2196
13316	14.739	0.5	0.	1.8228
13317	14.839	0.5	0.	2.4184
13318	14.938	0.5	0.	3.0056
13319	15.038	0.5	0.	3.5841
13320	15.137	0.5	0.	4.1537
13321	15.237	0.5	0.	4.714
13322	15.336	0.5	0.	5.2652
13323	15.436	0.5	0.	5.8071
13324	15.536	0.5	0.	6.3398
13325	15.635	0.5	0.	6.8635
13326	15.735	0.5	0.	7.3783
13327	15.834	0.5	0.	7.8845
13328	15.934	0.5	0.	8.3823
13329	16.034	0.5	0.	8.8721
13330	16.133	0.5	0.	9.3541
13331	16.233	0.5	0.	9.8286
13332	16.332	0.5	0.	10.296
13333	16.432	0.5	0.	10.757
13334	16.531	0.5	0.	11.212
13335	16.631	0.5	0.	11.66
13336	16.731	0.5	0.	12.104
13337	16.83	0.5	0.	12.542
13338	16.93	0.5	0.	12.976
13339	17.029	0.5	0.	13.405
13340	17.129	0.5	0.	13.831
13341	17.229	0.5	0.	14.254
13342	17.328	0.5	0.	14.674
13343	17.428	0.5	0.	15.091
13344	17.527	0.5	0.	15.507
13345	17.627	0.5	0.	15.921
13346	17.726	0.5	0.	16.334
13347	17.826	0.5	0.	16.746
13348	17.926	0.5	0.	17.158
13349	18.025	0.5	0.	17.571
13350	18.125	0.5	0.	17.984
13351	18.224	0.5	0.	18.398
13352	18.324	0.5	0.	18.814
13353	18.423	0.5	0.	19.232
13354	18.523	0.5	0.	19.652
13355	18.623	0.5	0.	20.075
13356	18.722	0.5	0.	20.501
13357	18.822	0.5	0.	20.931
13358	18.921	0.5	0.	21.364
13359	19.021	0.5	0.	21.803
13360	19.121	0.5	0.	22.246
13361	19.22	0.5	0.	22.694
13362	19.32	0.5	0.	23.148
13363	19.419	0.5	0.	23.608
13364	19.519	0.5	0.	24.074
13365	19.618	0.5	0.	24.548
13366	19.718	0.5	0.	25.028
13367	19.818	0.5	0.	25.517
13368	19.917	0.5	0.	26.013
13369	20.017	0.5	0.	26.518
13370	20.116	0.5	0.	27.032
13371	20.216	0.5	0.	27.555
13372	20.316	0.5	0.	28.088
13373	20.415	0.5	0.	28.631
13374	20.515	0.5	0.	29.185
13375	20.614	0.5	0.	29.749
13376	20.714	0.5	0.	30.326
13377	20.813	0.5	0.	30.915
13378	20.913	0.5	0.	31.516
13379	21.013	0.5	0.	32.131
13380	21.112	0.5	0.	32.759
13381	21.212	0.5	0.	33.403
13382	21.311	0.5	0.	34.062
13383	21.411	0.5	0.	34.737
13384	21.51	0.5	0.	35.43
13385	21.61	0.5	0.	36.141
13386	21.71	0.5	0.	36.873
13387	21.809	0.5	0.	37.626
13388	21.909	0.5	0.	38.402
13389	22.008	0.5	0.	39.204
13390	22.108	0.5	0.	40.035
13391	22.208	0.5	0.	40.897
13392	22.307	0.5	0.	41.795
13393	22.407	0.5	0.	42.733
13394	22.506	0.5	0.	43.718
13395	22.606	0.5	0.	44.758
13396	22.705	0.5	0.	45.862
13397	22.805	0.5	0.	47.043
13398	22.905	0.5	0.	48.318
13399	23.004	0.5	0.	49.708
13400	23.104	0.5	0.	51.241
13401	23.203	0.5	0.	52.956
13402	23.303	0.5	0.	54.903
13403	23.403	0.5	0.	57.148
13404	23.502	0.5	0.	59.779
13405	23.602	0.5	0.	62.903
13406	23.701	0.5	0.	66.636
13407	23.801	0.5	0.	71.108
13408	23.9	0.5	0.	76.504
13409	8.2662	0.4	0.	330.46
13410	8.3658	0.4	0.	210.83
13411	8.4654	0.4	0.	157.25
13412	8.565	0.4	0.	131.32
13413	8.6646	0.4	0.	119.58
13414	8.7642	0.4	0.	114.65
13415	8.8637	0.4	0.	112.45
13416	8.9633	0.4	0.	110.86
13417	9.0629	0.4	0.	108.87
13418	9.1625	0.4	0.	106.04
13419	9.2621	0.4	0.	102.28
13420	9.3616	0.4	0.	97.644
13421	9.4612	0.4	0.	92.284
13422	9.5608	0.4	0.	86.377
13423	9.6604	0.4	0.	80.103
13424	9.76	0.4	0.	73.629
13425	9.8595	0.4	0.	67.098
13426	9.9591	0.4	0.	60.632
13427	10.059	0.4	0.	54.329
13428	10.158	0.4	0.	48.264
13429	10.258	0.4	0.	42.495
13430	10.357	0.4	0.	37.059
13431	10.457	0.4	0.	31.983
13432	10.557	0.4	0.	27.281
13433	10.656	0.4	0.	22.957
13434	10.756	0.4	0.	19.01
13435	10.855	0.4	0.	15.431
13436	10.955	0.4	0.	12.209
13437	11.055	0.4	0.	9.33
13438	11.154	0.4	0.	6.7785
13439	11.254	0.4	0.	4.5424
13440	11.353	0.4	0.	2.6228
13441	11.453	0.4	0.	1.0983
13442	11.552	0.4	0.	0.32814
13443	11.652	0.4	0.	0.1434
13444	11.752	0.4	0.	8.6261e-002
13445	11.851	0.4	0.	6.0467e-002
13446	11.951	0.4	0.	4.6209e-002
13447	12.05	0.4	0.	3.7305e-002
13448	12.15	0.4	0.	3.1278e-002
13449	12.249	0.4	0.	2.6951e-002
13450	12.349	0.4	0.	2.3713e-002
13451	12.449	0.4	0.	2.1199e-002
13452	12.548	0.4	0.	1.9147e-002
13453	12.648	0.4	0.	1.7458e-002
13454	12.747	0.4	0.	1.6043e-002
13455	12.847	0.4	0.	1.4823e-002
13456	12.947	0.4	0.	1.3762e-002
13457	13.046	0.4	0.	1.2814e-002
13458	13.146	0.4	0.	1.1954e-002
13459	13.245	0.4	0.	1.1188e-002
13460	13.345	0.4	0.	1.0502e-002
13461	13.444	0.4	0.	9.8649e-003
13462	13.544	0.4	0.	9.2731e-003
13463	13.644	0.4	0.	8.7307e-003
13464	13.743	0.4	0.	8.2339e-003
13465	13.843	0.4	0.	7.8127e-003
13466	13.942	0.4	0.	7.5957e-003
13467	14.042	0.4	0.	0.16147
13468	14.142	0.4	0.	0.69852
13469	14.241	0.4	0.	1.2364
13470	14.341	0.4	0.	1.7731
13471	14.44	0.4	0.	2.3073
13472	14.54	0.4	0.	2.8379
13473	14.639	0.4	0.	3.3639
13474	14.739	0.4	0.	3.8847
13475	14.839	0.4	0.	4.3997
13476	14.938	0.4	0.	4.9084
13477	15.038	0.4	0.	5.4103
13478	15.137	0.4	0.	5.9053
13479	15.237	0.4	0.	6.3932
13480	15.336	0.4	0.	6.8739
13481	15.436	0.4	0.	7.3472
13482	15.536	0.4	0.	7.8133
13483	15.635	0.4	0.	8.2723
13484	15.735	0.4	0.	8.7241
13485	15.834	0.4	0.	9.1691
13486	15.934	0.4	0.	9.6074
13487	16.034	0.4	0.	10.039
13488	16.133	0.4	0.	10.465
13489	16.233	0.4	0.	10.884
13490	16.332	0.4	0.	11.298
13491	16.432	0.4	0.	11.707
13492	16.531	0.4	0.	12.11
13493	16.631	0.4	0.	12.509
13494	16.731	0.4	0.	12.903
13495	16.83	0.4	0.	13.294
13496	16.93	0.4	0.	13.68
13497	17.029	0.4	0.	14.064
13498	17.129	0.4	0.	14.444
13499	17.229	0.4	0.	14.821
13500	17.328	0.4	0.	15.197
13501	17.428	0.4	0.	15.57
13502	17.527	0.4	0.	15.941
13503	17.627	0.4	0.	16.312
13504	17.726	0.4	0.	16.681
13505	17.826	0.4	0.	17.05
13506	17.926	0.4	0.	17.419
13507	18.025	0.4	0.	17.788
13508	18.125	0.4	0.	18.157
13509	18.224	0.4	0.	18.527
13510	18.324	0.4	0.	18.898
13511	18.423	0.4	0.	19.271
13512	18.523	0.4	0.	19.645
13513	18.623	0.4	0.	20.022
13514	18.722	0.4	0.	20.4
13515	18.822	0.4	0.	20.782
13516	18.921	0.4	0.	21.166
13517	19.021	0.4	0.	21.554
13518	19.121	0.4	0.	21.945
13519	19.22	0.4	0.	22.34
13520	19.32	0.4	0.	22.74
13521	19.419	0.4	0.	23.143
13522	19.519	0.4	0.	23.552
13523	19.618	0.4	0.	23.965
13524	19.718	0.4	0.	24.383
13525	19.818	0.4	0.	24.807
13526	19.917	0.4	0.	25.237
13527	20.017	0.4	0.	25.673
13528	20.116	0.4	0.	26.114
13529	20.216	0.4	0.	26.563
13530	20.316	0.4	0.	27.017
13531	20.415	0.4	0.	27.479
13532	20.515	0.4	0.	27.948
13533	20.614	0.4	0.	28.424
13534	20.714	0.4	0.	28.908
13535	20.813	0.4	0.	29.399
13536	20.913	0.4	0.	29.899
13537	21.013	0.4	0.	30.407
13538	21.112	0.4	0.	30.924
13539	21.212	0.4	0.	31.449
13540	21.311	0.4	0.	31.984
13541	21.411	0.4	0.	32.529
13542	21.51	0.4	0.	33.084
13543	21.61	0.4	0.	33.649
13544	21.71	0.4	0.	34.226
13545	21.809	0.4	0.	34.815
13546	21.909	0.4	0.	35.417
13547	22.008	0.4	0.	36.034
13548	22.108	0.4	0.	36.666
13549	22.208	0.4	0.	37.315
13550	22.307	0.4	0.	37.984
13551	22.407	0.4	0.	38.676
13552	22.506	0.4	0.	39.394
13553	22.606	0.4	0.	40.143
13554	22.705	0.4	0.	40.931
13555	22.805	0.4	0.	41.764
13556	22.905	0.4	0.	42.655
13557	23.004	0.4	0.	43.621
13558	23.104	0.4	0.	44.682
13559	23.203	0.4	0.	45.87
13560	23.303	0.4	0.	47.231
13561	23.403	0.4	0.	48.829
13562	23.502	0.4	0.	50.758
13563	23.602	0.4	0.	53.152
13564	23.701	0.4	0.	56.186
13565	23.801	0.4	0.	60.085
13566	23.9	0.4	0.	65.156
13567	8.2662	0.3	0.	230.66
13568	8.3658	0.3	0.	134.52
13569	8.4654	0.3	0.	101.53
13570	8.565	0.3	0.	91.063
13571	8.6646	0.3	0.	89.353
13572	8.7642	0.3	0.	90.61
13573	8.8637	0.3	0.	92.219
13574	8.9633	0.3	0.	93.058
13575	9.0629	0.3	0.	92.719
13576	9.1625	0.3	0.	91.141
13577	9.2621	0.3	0.	88.432
13578	9.3616	0.3	0.	84.775
13579	9.4612	0.3	0.	80.375
13580	9.5608	0.3	0.	75.438
13581	9.6604	0.3	0.	70.148
13582	9.76	0.3	0.	64.669
13583	9.8595	0.3	0.	59.136
13584	9.9591	0.3	0.	53.662
13585	10.059	0.3	0.	48.331
13586	10.158	0.3	0.	43.21
13587	10.258	0.3	0.	38.347
13588	10.357	0.3	0.	33.774
13589	10.457	0.3	0.	29.51
13590	10.557	0.3	0.	25.568
13591	10.656	0.3	0.	21.947
13592	10.756	0.3	0.	18.646
13593	10.855	0.3	0.	15.656
13594	10.955	0.3	0.	12.965
13595	11.055	0.3	0.	10.56
13596	11.154	0.3	0.	8.425
13597	11.254	0.3	0.	6.5451
13598	11.353	0.3	0.	4.9038
13599	11.453	0.3	0.	3.4864
13600	11.552	0.3	0.	2.2809
13601	11.652	0.3	0.	1.2864
13602	11.752	0.3	0.	0.55104
13603	11.851	0.3	0.	0.20401
13604	11.951	0.3	0.	0.10515
13605	12.05	0.3	0.	6.9816e-002
13606	12.15	0.3	0.	5.2809e-002
13607	12.249	0.3	0.	4.3056e-002
13608	12.349	0.3	0.	3.6843e-002
13609	12.449	0.3	0.	3.2607e-002
13610	12.548	0.3	0.	2.9558e-002
13611	12.648	0.3	0.	2.7347e-002
13612	12.747	0.3	0.	2.5776e-002
13613	12.847	0.3	0.	2.4748e-002
13614	12.947	0.3	0.	2.4303e-002
13615	13.046	0.3	0.	2.465e-002
13616	13.146	0.3	0.	2.6472e-002
13617	13.245	0.3	0.	3.2466e-002
13618	13.345	0.3	0.	6.2743e-002
13619	13.444	0.3	0.	0.29153
13620	13.544	0.3	0.	0.67702
13621	13.644	0.3	0.	1.0901
13622	13.743	0.3	0.	1.5167
13623	13.843	0.3	0.	1.9525
13624	13.942	0.3	0.	2.3947
13625	14.042	0.3	0.	2.8412
13626	14.142	0.3	0.	3.2903
13627	14.241	0.3	0.	3.7404
13628	14.341	0.3	0.	4.1904
13629	14.44	0.3	0.	4.6392
13630	14.54	0.3	0.	5.0857
13631	14.639	0.3	0.	5.5293
13632	14.739	0.3	0.	5.9694
13633	14.839	0.3	0.	6.4053
13634	14.938	0.3	0.	6.8367
13635	15.038	0.3	0.	7.2633
13636	15.137	0.3	0.	7.6847
13637	15.237	0.3	0.	8.1009
13638	15.336	0.3	0.	8.5117
13639	15.436	0.3	0.	8.917
13640	15.536	0.3	0.	9.3169
13641	15.635	0.3	0.	9.7114
13642	15.735	0.3	0.	10.101
13643	15.834	0.3	0.	10.485
13644	15.934	0.3	0.	10.863
13645	16.034	0.3	0.	11.237
13646	16.133	0.3	0.	11.606
13647	16.233	0.3	0.	11.971
13648	16.332	0.3	0.	12.331
13649	16.432	0.3	0.	12.688
13650	16.531	0.3	0.	13.04
13651	16.631	0.3	0.	13.389
13652	16.731	0.3	0.	13.734
13653	16.83	0.3	0.	14.076
13654	16.93	0.3	0.	14.416
13655	17.029	0.3	0.	14.752
13656	17.129	0.3	0.	15.087
13657	17.229	0.3	0.	15.419
13658	17.328	0.3	0.	15.75
13659	17.428	0.3	0.	16.079
13660	17.527	0.3	0.	16.407
13661	17.627	0.3	0.	16.734
13662	17.726	0.3	0.	17.06
13663	17.826	0.3	0.	17.385
13664	17.926	0.3	0.	17.711
13665	18.025	0.3	0.	18.036
13666	18.125	0.3	0.	18.362
13667	18.224	0.3	0.	18.688
13668	18.324	0.3	0.	19.015
13669	18.423	0.3	0.	19.343
13670	18.523	0.3	0.	19.672
13671	18.623	0.3	0.	20.002
13672	18.722	0.3	0.	20.334
13673	18.822	0.3	0.	20.668
13674	18.921	0.3	0.	21.004
13675	19.021	0.3	0.	21.342
13676	19.121	0.3	0.	21.682
13677	19.22	0.3	0.	22.025
13678	19.32	0.3	0.	22.37
13679	19.419	0.3	0.	22.718
13680	19.519	0.3	0.	23.07
13681	19.618	0.3	0.	23.424
13682	19.718	0.3	0.	23.782
13683	19.818	0.3	0.	24.143
13684	19.917	0.3	0.	24.507
13685	20.017	0.3	0.	24.875
13686	20.116	0.3	0.	25.246
13687	20.216	0.3	0.	25.621
13688	20.316	0.3	0.	26.
13689	20.415	0.3	0.	26.383
13690	20.515	0.3	0.	26.769
13691	20.614	0.3	0.	27.159
13692	20.714	0.3	0.	27.553
13693	20.813	0.3	0.	27.95
13694	20.913	0.3	0.	28.351
13695	21.013	0.3	0.	28.756
13696	21.112	0.3	0.	29.164
13697	21.212	0.3	0.	29.576
13698	21.311	0.3	0.	29.992
13699	21.411	0.3	0.	30.41
13700	21.51	0.3	0.	30.832
13701	21.61	0.3	0.	31.257
13702	21.71	0.3	0.	31.686
13703	21.809	0.3	0.	32.117
13704	21.909	0.3	0.	32.552
13705	22.008	0.3	0.	32.99
13706	22.108	0.3	0.	33.431
13707	22.208	0.3	0.	33.877
13708	22.307	0.3	0.	34.326
13709	22.407	0.3	0.	34.781
13710	22.506	0.3	0.	35.241
13711	22.606	0.3	0.	35.71
13712	22.705	0.3	0.	36.189
13713	22.805	0.3	0.	36.683
13714	22.905	0.3	0.	37.197
13715	23.004	0.3	0.	37.738
13716	23.104	0.3	0.	38.32
13717	23.203	0.3	0.	38.961
13718	23.303	0.3	0.	39.692
13719	23.403	0.3	0.	40.56
13720	23.502	0.3	0.	41.645
13721	23.602	0.3	0.	43.081
13722	23.701	0.3	0.	45.087
13723	23.801	0.3	0.	48.025
13724	23.9	0.3	0.	52.458
13725	8.2662	0.2	0.	144.6
13726	8.3658	0.2	0.	81.733
13727	8.4654	0.2	0.	69.946
13728	8.565	0.2	0.	70.228
13729	8.6646	0.2	0.	73.186
13730	8.7642	0.2	0.	75.997
13731	8.8637	0.2	0.	77.713
13732	8.9633	0.2	0.	78.11
13733	9.0629	0.2	0.	77.246
13734	9.1625	0.2	0.	75.293
13735	9.2621	0.2	0.	72.457
13736	9.3616	0.2	0.	68.946
13737	9.4612	0.2	0.	64.953
13738	9.5608	0.2	0.	60.648
13739	9.6604	0.2	0.	56.176
13740	9.76	0.2	0.	51.655
13741	9.8595	0.2	0.	47.18
13742	9.9591	0.2	0.	42.825
13743	10.059	0.2	0.	38.643
13744	10.158	0.2	0.	34.674
13745	10.258	0.2	0.	30.944
13746	10.357	0.2	0.	27.469
13747	10.457	0.2	0.	24.255
13748	10.557	0.2	0.	21.305
13749	10.656	0.2	0.	18.613
13750	10.756	0.2	0.	16.173
13751	10.855	0.2	0.	13.974
13752	10.955	0.2	0.	12.006
13753	11.055	0.2	0.	10.255
13754	11.154	0.2	0.	8.7076
13755	11.254	0.2	0.	7.3506
13756	11.353	0.2	0.	6.1703
13757	11.453	0.2	0.	5.1533
13758	11.552	0.2	0.	4.2867
13759	11.652	0.2	0.	3.5582
13760	11.752	0.2	0.	2.9558
13761	11.851	0.2	0.	2.4682
13762	11.951	0.2	0.	2.0846
13763	12.05	0.2	0.	1.7947
13764	12.15	0.2	0.	1.5889
13765	12.249	0.2	0.	1.4579
13766	12.349	0.2	0.	1.3936
13767	12.449	0.2	0.	1.3889
13768	12.548	0.2	0.	1.4373
13769	12.648	0.2	0.	1.5333
13770	12.747	0.2	0.	1.6719
13771	12.847	0.2	0.	1.8481
13772	12.947	0.2	0.	2.0574
13773	13.046	0.2	0.	2.2956
13774	13.146	0.2	0.	2.5587
13775	13.245	0.2	0.	2.8432
13776	13.345	0.2	0.	3.1459
13777	13.444	0.2	0.	3.4638
13778	13.544	0.2	0.	3.7944
13779	13.644	0.2	0.	4.1354
13780	13.743	0.2	0.	4.4847
13781	13.843	0.2	0.	4.8404
13782	13.942	0.2	0.	5.2011
13783	14.042	0.2	0.	5.5652
13784	14.142	0.2	0.	5.9316
13785	14.241	0.2	0.	6.2991
13786	14.341	0.2	0.	6.6669
13787	14.44	0.2	0.	7.0342
13788	14.54	0.2	0.	7.4002
13789	14.639	0.2	0.	7.7644
13790	14.739	0.2	0.	8.1264
13791	14.839	0.2	0.	8.4856
13792	14.938	0.2	0.	8.8419
13793	15.038	0.2	0.	9.1949
13794	15.137	0.2	0.	9.5444
13795	15.237	0.2	0.	9.8904
13796	15.336	0.2	0.	10.233
13797	15.436	0.2	0.	10.571
13798	15.536	0.2	0.	10.906
13799	15.635	0.2	0.	11.237
13800	15.735	0.2	0.	11.564
13801	15.834	0.2	0.	11.888
13802	15.934	0.2	0.	12.208
13803	16.034	0.2	0.	12.525
13804	16.133	0.2	0.	12.839
13805	16.233	0.2	0.	13.149
13806	16.332	0.2	0.	13.456
13807	16.432	0.2	0.	13.761
13808	16.531	0.2	0.	14.063
13809	16.631	0.2	0.	14.362
13810	16.731	0.2	0.	14.659
13811	16.83	0.2	0.	14.954
13812	16.93	0.2	0.	15.247
13813	17.029	0.2	0.	15.538
13814	17.129	0.2	0.	15.827
13815	17.229	0.2	0.	16.115
13816	17.328	0.2	0.	16.402
13817	17.428	0.2	0.	16.688
13818	17.527	0.2	0.	16.973
13819	17.627	0.2	0.	17.257
13820	17.726	0.2	0.	17.541
13821	17.826	0.2	0.	17.824
13822	17.926	0.2	0.	18.107
13823	18.025	0.2	0.	18.39
13824	18.125	0.2	0.	18.673
13825	18.224	0.2	0.	18.956
13826	18.324	0.2	0.	19.24
13827	18.423	0.2	0.	19.524
13828	18.523	0.2	0.	19.809
13829	18.623	0.2	0.	20.095
13830	18.722	0.2	0.	20.381
13831	18.822	0.2	0.	20.669
13832	18.921	0.2	0.	20.957
13833	19.021	0.2	0.	21.247
13834	19.121	0.2	0.	21.537
13835	19.22	0.2	0.	21.829
13836	19.32	0.2	0.	22.123
13837	19.419	0.2	0.	22.417
13838	19.519	0.2	0.	22.713
13839	19.618	0.2	0.	23.011
13840	19.718	0.2	0.	23.31
13841	19.818	0.2	0.	23.61
13842	19.917	0.2	0.	23.911
13843	20.017	0.2	0.	24.213
13844	20.116	0.2	0.	24.517
13845	20.216	0.2	0.	24.822
13846	20.316	0.2	0.	25.127
13847	20.415	0.2	0.	25.433
13848	20.515	0.2	0.	25.74
13849	20.614	0.2	0.	26.047
13850	20.714	0.2	0.	26.355
13851	20.813	0.2	0.	26.662
13852	20.913	0.2	0.	26.968
13853	21.013	0.2	0.	27.274
13854	21.112	0.2	0.	27.579
13855	21.212	0.2	0.	27.882
13856	21.311	0.2	0.	28.183
13857	21.411	0.2	0.	28.481
13858	21.51	0.2	0.	28.777
13859	21.61	0.2	0.	29.069
13860	21.71	0.2	0.	29.356
13861	21.809	0.2	0.	29.638
13862	21.909	0.2	0.	29.914
13863	22.008	0.2	0.	30.184
13864	22.108	0.2	0.	30.445
13865	22.208	0.2	0.	30.698
13866	22.307	0.2	0.	30.941
13867	22.407	0.2	0.	31.173
13868	22.506	0.2	0.	31.392
13869	22.606	0.2	0.	31.598
13870	22.705	0.2	0.	31.788
13871	22.805	0.2	0.	31.963
13872	22.905	0.2	0.	32.121
13873	23.004	0.2	0.	32.261
13874	23.104	0.2	0.	32.384
13875	23.203	0.2	0.	32.494
13876	23.303	0.2	0.	32.598
13877	23.403	0.2	0.	32.712
13878	23.502	0.2	0.	32.871
13879	23.602	0.2	0.	33.152
13880	23.701	0.2	0.	33.725
13881	23.801	0.2	0.	35.002
13882	23.9	0.2	0.	38.003
13883	8.2662	0.1	0.	91.256
13884	8.3658	0.1	0.	74.165
13885	8.4654	0.1	0.	74.675
13886	8.565	0.1	0.	76.283
13887	8.6646	0.1	0.	76.363
13888	8.7642	0.1	0.	74.983
13889	8.8637	0.1	0.	72.433
13890	8.9633	0.1	0.	69.035
13891	9.0629	0.1	0.	65.073
13892	9.1625	0.1	0.	60.779
13893	9.2621	0.1	0.	56.337
13894	9.3616	0.1	0.	51.886
13895	9.4612	0.1	0.	47.53
13896	9.5608	0.1	0.	43.341
13897	9.6604	0.1	0.	39.368
13898	9.76	0.1	0.	35.643
13899	9.8595	0.1	0.	32.181
13900	9.9591	0.1	0.	28.989
13901	10.059	0.1	0.	26.064
13902	10.158	0.1	0.	23.399
13903	10.258	0.1	0.	20.983
13904	10.357	0.1	0.	18.804
13905	10.457	0.1	0.	16.846
13906	10.557	0.1	0.	15.095
13907	10.656	0.1	0.	13.537
13908	10.756	0.1	0.	12.156
13909	10.855	0.1	0.	10.939
13910	10.955	0.1	0.	9.8736
13911	11.055	0.1	0.	8.9463
13912	11.154	0.1	0.	8.1459
13913	11.254	0.1	0.	7.4615
13914	11.353	0.1	0.	6.883
13915	11.453	0.1	0.	6.4011
13916	11.552	0.1	0.	6.0069
13917	11.652	0.1	0.	5.6925
13918	11.752	0.1	0.	5.4503
13919	11.851	0.1	0.	5.2735
13920	11.951	0.1	0.	5.1556
13921	12.05	0.1	0.	5.0908
13922	12.15	0.1	0.	5.0737
13923	12.249	0.1	0.	5.0994
13924	12.349	0.1	0.	5.1634
13925	12.449	0.1	0.	5.2617
13926	12.548	0.1	0.	5.3904
13927	12.648	0.1	0.	5.5462
13928	12.747	0.1	0.	5.7259
13929	12.847	0.1	0.	5.9267
13930	12.947	0.1	0.	6.146
13931	13.046	0.1	0.	6.3814
13932	13.146	0.1	0.	6.6307
13933	13.245	0.1	0.	6.892
13934	13.345	0.1	0.	7.1635
13935	13.444	0.1	0.	7.4437
13936	13.544	0.1	0.	7.731
13937	13.644	0.1	0.	8.0243
13938	13.743	0.1	0.	8.3223
13939	13.843	0.1	0.	8.624
13940	13.942	0.1	0.	8.9285
13941	14.042	0.1	0.	9.235
13942	14.142	0.1	0.	9.5427
13943	14.241	0.1	0.	9.8512
13944	14.341	0.1	0.	10.16
13945	14.44	0.1	0.	10.468
13946	14.54	0.1	0.	10.775
13947	14.639	0.1	0.	11.082
13948	14.739	0.1	0.	11.387
13949	14.839	0.1	0.	11.69
13950	14.938	0.1	0.	11.991
13951	15.038	0.1	0.	12.291
13952	15.137	0.1	0.	12.589
13953	15.237	0.1	0.	12.884
13954	15.336	0.1	0.	13.177
13955	15.436	0.1	0.	13.468
13956	15.536	0.1	0.	13.757
13957	15.635	0.1	0.	14.043
13958	15.735	0.1	0.	14.327
13959	15.834	0.1	0.	14.61
13960	15.934	0.1	0.	14.89
13961	16.034	0.1	0.	15.168
13962	16.133	0.1	0.	15.444
13963	16.233	0.1	0.	15.718
13964	16.332	0.1	0.	15.99
13965	16.432	0.1	0.	16.261
13966	16.531	0.1	0.	16.531
13967	16.631	0.1	0.	16.798
13968	16.731	0.1	0.	17.065
13969	16.83	0.1	0.	17.33
13970	16.93	0.1	0.	17.594
13971	17.029	0.1	0.	17.857
13972	17.129	0.1	0.	18.119
13973	17.229	0.1	0.	18.381
13974	17.328	0.1	0.	18.641
13975	17.428	0.1	0.	18.901
13976	17.527	0.1	0.	19.161
13977	17.627	0.1	0.	19.42
13978	17.726	0.1	0.	19.678
13979	17.826	0.1	0.	19.937
13980	17.926	0.1	0.	20.195
13981	18.025	0.1	0.	20.453
13982	18.125	0.1	0.	20.711
13983	18.224	0.1	0.	20.969
13984	18.324	0.1	0.	21.227
13985	18.423	0.1	0.	21.485
13986	18.523	0.1	0.	21.743
13987	18.623	0.1	0.	22.001
13988	18.722	0.1	0.	22.26
13989	18.822	0.1	0.	22.518
13990	18.921	0.1	0.	22.777
13991	19.021	0.1	0.	23.035
13992	19.121	0.1	0.	23.294
13993	19.22	0.1	0.	23.552
13994	19.32	0.1	0.	23.81
13995	19.419	0.1	0.	24.068
13996	19.519	0.1	0.	24.325
13997	19.618	0.1	0.	24.582
13998	19.718	0.1	0.	24.839
13999	19.818	0.1	0.	25.094
14000	19.917	0.1	0.	25.348
14001	20.017	0.1	0.	25.601
14002	20.116	0.1	0.	25.853
14003	20.216	0.1	0.	26.102
14004	20.316	0.1	0.	26.349
14005	20.415	0.1	0.	26.594
14006	20.515	0.1	0.	26.836
14007	20.614	0.1	0.	27.074
14008	20.714	0.1	0.	27.308
14009	20.813	0.1	0.	27.538
14010	20.913	0.1	0.	27.763
14011	21.013	0.1	0.	27.982
14012	21.112	0.1	0.	28.194
14013	21.212	0.1	0.	28.399
14014	21.311	0.1	0.	28.596
14015	21.411	0.1	0.	28.784
14016	21.51	0.1	0.	28.961
14017	21.61	0.1	0.	29.127
14018	21.71	0.1	0.	29.28
14019	21.809	0.1	0.	29.419
14020	21.909	0.1	0.	29.542
14021	22.008	0.1	0.	29.647
14022	22.108	0.1	0.	29.732
14023	22.208	0.1	0.	29.794
14024	22.307	0.1	0.	29.832
14025	22.407	0.1	0.	29.841
14026	22.506	0.1	0.	29.818
14027	22.606	0.1	0.	29.759
14028	22.705	0.1	0.	29.659
14029	22.805	0.1	0.	29.513
14030	22.905	0.1	0.	29.312
14031	23.004	0.1	0.	29.049
14032	23.104	0.1	0.	28.712
14033	23.203	0.1	0.	28.29
14034	23.303	0.1	0.	27.765
14035	23.403	0.1	0.	27.117
14036	23.502	0.1	0.	26.318
14037	23.602	0.1	0.	25.337
14038	23.701	0.1	0.	24.146
14039	23.801	0.1	0.	22.78
14040	23.9	0.1	0.	22.048
14041	23.9	0.1	0.1	20.923
14042	23.801	0.1	0.1	39.498
14043	23.701	0.1	0.1	59.263
14044	23.602	0.1	0.1	79.464
14045	23.502	0.1	0.1	99.923
14046	23.403	0.1	0.1	120.57
14047	23.303	0.1	0.1	141.36
14048	23.203	0.1	0.1	162.27
14049	23.104	0.1	0.1	183.28
14050	23.004	0.1	0.1	204.36
14051	22.905	0.1	0.1	225.52
14052	22.805	0.1	0.1	246.75
14053	22.705	0.1	0.1	268.03
14054	22.606	0.1	0.1	289.36
14055	22.506	0.1	0.1	310.74
14056	22.407	0.1	0.1	332.17
14057	22.307	0.1	0.1	353.64
14058	22.208	0.1	0.1	375.14
14059	22.108	0.1	0.1	396.69
14060	22.008	0.1	0.1	418.27
14061	21.909	0.1	0.1	439.9
14062	21.809	0.1	0.1	461.55
14063	21.71	0.1	0.1	483.25
14064	21.61	0.1	0.1	504.98
14065	21.51	0.1	0.1	526.75
14066	21.411	0.1	0.1	548.55
14067	21.311	0.1	0.1	570.39
14068	21.212	0.1	0.1	592.27
14069	21.112	0.1	0.1	614.18
14070	21.013	0.1	0.1	636.14
14071	20.913	0.1	0.1	658.13
14072	20.813	0.1	0.1	680.16
14073	20.714	0.1	0.1	702.23
14074	20.614	0.1	0.1	724.35
14075	20.515	0.1	0.1	746.5
14076	20.415	0.1	0.1	768.7
14077	20.316	0.1	0.1	790.94
14078	20.216	0.1	0.1	813.22
14079	20.116	0.1	0.1	835.55
14080	20.017	0.1	0.1	857.92
14081	19.917	0.1	0.1	880.33
14082	19.818	0.1	0.1	902.8
14083	19.718	0.1	0.1	925.31
14084	19.618	0.1	0.1	947.86
14085	19.519	0.1	0.1	970.47
14086	19.419	0.1	0.1	993.12
14087	19.32	0.1	0.1	1015.8
14088	19.22	0.1	0.1	1038.6
14089	19.121	0.1	0.1	1061.4
14090	19.021	0.1	0.1	1084.2
14091	18.921	0.1	0.1	1107.1
14092	18.822	0.1	0.1	1130.1
14093	18.722	0.1	0.1	1153.1
14094	18.623	0.1	0.1	1176.2
14095	18.523	0.1	0.1	1199.3
14096	18.423	0.1	0.1	1222.5
14097	18.324	0.1	0.1	1245.7
14098	18.224	0.1	0.1	1269.
14099	18.125	0.1	0.1	1292.3
14100	18.025	0.1	0.1	1315.7
14101	17.926	0.1	0.1	1339.2
14102	17.826	0.1	0.1	1362.7
14103	17.726	0.1	0.1	1386.2
14104	17.627	0.1	0.1	1409.9
14105	17.527	0.1	0.1	1433.5
14106	17.428	0.1	0.1	1457.3
14107	17.328	0.1	0.1	1481.1
14108	17.229	0.1	0.1	1504.9
14109	17.129	0.1	0.1	1528.8
14110	17.029	0.1	0.1	1552.8
14111	16.93	0.1	0.1	1576.8
14112	16.83	0.1	0.1	1600.9
14113	16.731	0.1	0.1	1625.1
14114	16.631	0.1	0.1	1649.3
14115	16.531	0.1	0.1	1673.6
14116	16.432	0.1	0.1	1697.9
14117	16.332	0.1	0.1	1722.3
14118	16.233	0.1	0.1	1746.7
14119	16.133	0.1	0.1	1771.3
14120	16.034	0.1	0.1	1795.8
14121	15.934	0.1	0.1	1820.5
14122	15.834	0.1	0.1	1845.2
14123	15.735	0.1	0.1	1870.
14124	15.635	0.1	0.1	1894.8
14125	15.536	0.1	0.1	1919.7
14126	15.436	0.1	0.1	1944.6
14127	15.336	0.1	0.1	1969.6
14128	15.237	0.1	0.1	1994.7
14129	15.137	0.1	0.1	2019.8
14130	15.038	0.1	0.1	2045.
14131	14.938	0.1	0.1	2070.2
14132	14.839	0.1	0.1	2095.5
14133	14.739	0.1	0.1	2120.9
14134	14.639	0.1	0.1	2146.3
14135	14.54	0.1	0.1	2171.7
14136	14.44	0.1	0.1	2197.2
14137	14.341	0.1	0.1	2222.8
14138	14.241	0.1	0.1	2248.3
14139	14.142	0.1	0.1	2274.
14140	14.042	0.1	0.1	2299.6
14141	13.942	0.1	0.1	2325.3
14142	13.843	0.1	0.1	2351.
14143	13.743	0.1	0.1	2376.7
14144	13.644	0.1	0.1	2402.4
14145	13.544	0.1	0.1	2428.1
14146	13.444	0.1	0.1	2453.8
14147	13.345	0.1	0.1	2479.4
14148	13.245	0.1	0.1	2505.
14149	13.146	0.1	0.1	2530.5
14150	13.046	0.1	0.1	2556.
14151	12.947	0.1	0.1	2581.3
14152	12.847	0.1	0.1	2606.5
14153	12.747	0.1	0.1	2631.5
14154	12.648	0.1	0.1	2656.3
14155	12.548	0.1	0.1	2680.9
14156	12.449	0.1	0.1	2705.2
14157	12.349	0.1	0.1	2729.1
14158	12.249	0.1	0.1	2752.7
14159	12.15	0.1	0.1	2775.8
14160	12.05	0.1	0.1	2798.3
14161	11.951	0.1	0.1	2820.2
14162	11.851	0.1	0.1	2841.4
14163	11.752	0.1	0.1	2861.7
14164	11.652	0.1	0.1	2881.1
14165	11.552	0.1	0.1	2899.4
14166	11.453	0.1	0.1	2916.4
14167	11.353	0.1	0.1	2932.
14168	11.254	0.1	0.1	2946.
14169	11.154	0.1	0.1	2958.1
14170	11.055	0.1	0.1	2968.
14171	10.955	0.1	0.1	2975.6
14172	10.855	0.1	0.1	2980.5
14173	10.756	0.1	0.1	2982.3
14174	10.656	0.1	0.1	2980.6
14175	10.557	0.1	0.1	2975.1
14176	10.457	0.1	0.1	2965.2
14177	10.357	0.1	0.1	2950.4
14178	10.258	0.1	0.1	2930.1
14179	10.158	0.1	0.1	2903.8
14180	10.059	0.1	0.1	2870.8
14181	9.9591	0.1	0.1	2830.3
14182	9.8595	0.1	0.1	2781.5
14183	9.76	0.1	0.1	2723.8
14184	9.6604	0.1	0.1	2656.3
14185	9.5608	0.1	0.1	2578.2
14186	9.4612	0.1	0.1	2488.6
14187	9.3616	0.1	0.1	2386.8
14188	9.2621	0.1	0.1	2272.
14189	9.1625	0.1	0.1	2143.7
14190	9.0629	0.1	0.1	2001.4
14191	8.9633	0.1	0.1	1844.6
14192	8.8637	0.1	0.1	1673.4
14193	8.7642	0.1	0.1	1487.8
14194	8.6646	0.1	0.1	1288.2
14195	8.565	0.1	0.1	1075.1
14196	8.4654	0.1	0.1	849.62
14197	8.3658	0.1	0.1	614.24
14198	8.2662	0.1	0.1	390.93
14199	23.9	0.2	0.1	21.317
14200	23.801	0.2	0.1	38.956
14201	23.701	0.2	0.1	57.994
14202	23.602	0.2	0.1	77.732
14203	23.502	0.2	0.1	97.886
14204	23.403	0.2	0.1	118.32
14205	23.303	0.2	0.1	138.95
14206	23.203	0.2	0.1	159.73
14207	23.104	0.2	0.1	180.64
14208	23.004	0.2	0.1	201.65
14209	22.905	0.2	0.1	222.74
14210	22.805	0.2	0.1	243.91
14211	22.705	0.2	0.1	265.14
14212	22.606	0.2	0.1	286.43
14213	22.506	0.2	0.1	307.77
14214	22.407	0.2	0.1	329.16
14215	22.307	0.2	0.1	350.6
14216	22.208	0.2	0.1	372.09
14217	22.108	0.2	0.1	393.62
14218	22.008	0.2	0.1	415.18
14219	21.909	0.2	0.1	436.79
14220	21.809	0.2	0.1	458.44
14221	21.71	0.2	0.1	480.12
14222	21.61	0.2	0.1	501.85
14223	21.51	0.2	0.1	523.61
14224	21.411	0.2	0.1	545.41
14225	21.311	0.2	0.1	567.25
14226	21.212	0.2	0.1	589.13
14227	21.112	0.2	0.1	611.04
14228	21.013	0.2	0.1	633.
14229	20.913	0.2	0.1	655.
14230	20.813	0.2	0.1	677.03
14231	20.714	0.2	0.1	699.11
14232	20.614	0.2	0.1	721.23
14233	20.515	0.2	0.1	743.39
14234	20.415	0.2	0.1	765.6
14235	20.316	0.2	0.1	787.85
14236	20.216	0.2	0.1	810.14
14237	20.116	0.2	0.1	832.48
14238	20.017	0.2	0.1	854.86
14239	19.917	0.2	0.1	877.29
14240	19.818	0.2	0.1	899.77
14241	19.718	0.2	0.1	922.29
14242	19.618	0.2	0.1	944.86
14243	19.519	0.2	0.1	967.48
14244	19.419	0.2	0.1	990.15
14245	19.32	0.2	0.1	1012.9
14246	19.22	0.2	0.1	1035.6
14247	19.121	0.2	0.1	1058.5
14248	19.021	0.2	0.1	1081.3
14249	18.921	0.2	0.1	1104.2
14250	18.822	0.2	0.1	1127.2
14251	18.722	0.2	0.1	1150.2
14252	18.623	0.2	0.1	1173.3
14253	18.523	0.2	0.1	1196.5
14254	18.423	0.2	0.1	1219.6
14255	18.324	0.2	0.1	1242.9
14256	18.224	0.2	0.1	1266.2
14257	18.125	0.2	0.1	1289.5
14258	18.025	0.2	0.1	1312.9
14259	17.926	0.2	0.1	1336.4
14260	17.826	0.2	0.1	1359.9
14261	17.726	0.2	0.1	1383.5
14262	17.627	0.2	0.1	1407.1
14263	17.527	0.2	0.1	1430.8
14264	17.428	0.2	0.1	1454.6
14265	17.328	0.2	0.1	1478.4
14266	17.229	0.2	0.1	1502.3
14267	17.129	0.2	0.1	1526.2
14268	17.029	0.2	0.1	1550.2
14269	16.93	0.2	0.1	1574.2
14270	16.83	0.2	0.1	1598.3
14271	16.731	0.2	0.1	1622.5
14272	16.631	0.2	0.1	1646.7
14273	16.531	0.2	0.1	1671.
14274	16.432	0.2	0.1	1695.3
14275	16.332	0.2	0.1	1719.8
14276	16.233	0.2	0.1	1744.2
14277	16.133	0.2	0.1	1768.7
14278	16.034	0.2	0.1	1793.3
14279	15.934	0.2	0.1	1818.
14280	15.834	0.2	0.1	1842.7
14281	15.735	0.2	0.1	1867.5
14282	15.635	0.2	0.1	1892.3
14283	15.536	0.2	0.1	1917.2
14284	15.436	0.2	0.1	1942.2
14285	15.336	0.2	0.1	1967.2
14286	15.237	0.2	0.1	1992.2
14287	15.137	0.2	0.1	2017.4
14288	15.038	0.2	0.1	2042.6
14289	14.938	0.2	0.1	2067.8
14290	14.839	0.2	0.1	2093.1
14291	14.739	0.2	0.1	2118.5
14292	14.639	0.2	0.1	2143.9
14293	14.54	0.2	0.1	2169.3
14294	14.44	0.2	0.1	2194.8
14295	14.341	0.2	0.1	2220.4
14296	14.241	0.2	0.1	2246.
14297	14.142	0.2	0.1	2271.6
14298	14.042	0.2	0.1	2297.3
14299	13.942	0.2	0.1	2322.9
14300	13.843	0.2	0.1	2348.7
14301	13.743	0.2	0.1	2374.4
14302	13.644	0.2	0.1	2400.1
14303	13.544	0.2	0.1	2425.8
14304	13.444	0.2	0.1	2451.5
14305	13.345	0.2	0.1	2477.2
14306	13.245	0.2	0.1	2502.8
14307	13.146	0.2	0.1	2528.4
14308	13.046	0.2	0.1	2553.8
14309	12.947	0.2	0.1	2579.2
14310	12.847	0.2	0.1	2604.5
14311	12.747	0.2	0.1	2629.6
14312	12.648	0.2	0.1	2654.5
14313	12.548	0.2	0.1	2679.1
14314	12.449	0.2	0.1	2703.5
14315	12.349	0.2	0.1	2727.6
14316	12.249	0.2	0.1	2751.2
14317	12.15	0.2	0.1	2774.5
14318	12.05	0.2	0.1	2797.2
14319	11.951	0.2	0.1	2819.3
14320	11.851	0.2	0.1	2840.7
14321	11.752	0.2	0.1	2861.3
14322	11.652	0.2	0.1	2880.9
14323	11.552	0.2	0.1	2899.5
14324	11.453	0.2	0.1	2916.9
14325	11.353	0.2	0.1	2932.9
14326	11.254	0.2	0.1	2947.3
14327	11.154	0.2	0.1	2959.9
14328	11.055	0.2	0.1	2970.4
14329	10.955	0.2	0.1	2978.6
14330	10.855	0.2	0.1	2984.1
14331	10.756	0.2	0.1	2986.7
14332	10.656	0.2	0.1	2985.9
14333	10.557	0.2	0.1	2981.2
14334	10.457	0.2	0.1	2972.3
14335	10.357	0.2	0.1	2958.6
14336	10.258	0.2	0.1	2939.5
14337	10.158	0.2	0.1	2914.4
14338	10.059	0.2	0.1	2882.6
14339	9.9591	0.2	0.1	2843.5
14340	9.8595	0.2	0.1	2796.2
14341	9.76	0.2	0.1	2740.
14342	9.6604	0.2	0.1	2674.
14343	9.5608	0.2	0.1	2597.4
14344	9.4612	0.2	0.1	2509.2
14345	9.3616	0.2	0.1	2408.9
14346	9.2621	0.2	0.1	2295.5
14347	9.1625	0.2	0.1	2168.5
14348	9.0629	0.2	0.1	2027.4
14349	8.9633	0.2	0.1	1872.
14350	8.8637	0.2	0.1	1702.4
14351	8.7642	0.2	0.1	1519.1
14352	8.6646	0.2	0.1	1323.3
14353	8.565	0.2	0.1	1117.3
14354	8.4654	0.2	0.1	906.58
14355	8.3658	0.2	0.1	703.99
14356	8.2662	0.2	0.1	556.28
14357	23.9	0.3	0.1	21.842
14358	23.801	0.3	0.1	39.835
14359	23.701	0.3	0.1	58.716
14360	23.602	0.3	0.1	78.196
14361	23.502	0.3	0.1	98.12
14362	23.403	0.3	0.1	118.37
14363	23.303	0.3	0.1	138.86
14364	23.203	0.3	0.1	159.53
14365	23.104	0.3	0.1	180.34
14366	23.004	0.3	0.1	201.28
14367	22.905	0.3	0.1	222.31
14368	22.805	0.3	0.1	243.42
14369	22.705	0.3	0.1	264.61
14370	22.606	0.3	0.1	285.86
14371	22.506	0.3	0.1	307.17
14372	22.407	0.3	0.1	328.54
14373	22.307	0.3	0.1	349.95
14374	22.208	0.3	0.1	371.41
14375	22.108	0.3	0.1	392.92
14376	22.008	0.3	0.1	414.46
14377	21.909	0.3	0.1	436.05
14378	21.809	0.3	0.1	457.68
14379	21.71	0.3	0.1	479.35
14380	21.61	0.3	0.1	501.06
14381	21.51	0.3	0.1	522.81
14382	21.411	0.3	0.1	544.59
14383	21.311	0.3	0.1	566.42
14384	21.212	0.3	0.1	588.29
14385	21.112	0.3	0.1	610.19
14386	21.013	0.3	0.1	632.14
14387	20.913	0.3	0.1	654.12
14388	20.813	0.3	0.1	676.15
14389	20.714	0.3	0.1	698.22
14390	20.614	0.3	0.1	720.33
14391	20.515	0.3	0.1	742.49
14392	20.415	0.3	0.1	764.68
14393	20.316	0.3	0.1	786.93
14394	20.216	0.3	0.1	809.21
14395	20.116	0.3	0.1	831.54
14396	20.017	0.3	0.1	853.92
14397	19.917	0.3	0.1	876.34
14398	19.818	0.3	0.1	898.81
14399	19.718	0.3	0.1	921.33
14400	19.618	0.3	0.1	943.9
14401	19.519	0.3	0.1	966.51
14402	19.419	0.3	0.1	989.18
14403	19.32	0.3	0.1	1011.9
14404	19.22	0.3	0.1	1034.7
14405	19.121	0.3	0.1	1057.5
14406	19.021	0.3	0.1	1080.3
14407	18.921	0.3	0.1	1103.3
14408	18.822	0.3	0.1	1126.2
14409	18.722	0.3	0.1	1149.2
14410	18.623	0.3	0.1	1172.3
14411	18.523	0.3	0.1	1195.5
14412	18.423	0.3	0.1	1218.6
14413	18.324	0.3	0.1	1241.9
14414	18.224	0.3	0.1	1265.2
14415	18.125	0.3	0.1	1288.5
14416	18.025	0.3	0.1	1311.9
14417	17.926	0.3	0.1	1335.4
14418	17.826	0.3	0.1	1358.9
14419	17.726	0.3	0.1	1382.5
14420	17.627	0.3	0.1	1406.1
14421	17.527	0.3	0.1	1429.8
14422	17.428	0.3	0.1	1453.5
14423	17.328	0.3	0.1	1477.3
14424	17.229	0.3	0.1	1501.2
14425	17.129	0.3	0.1	1525.1
14426	17.029	0.3	0.1	1549.1
14427	16.93	0.3	0.1	1573.1
14428	16.83	0.3	0.1	1597.2
14429	16.731	0.3	0.1	1621.4
14430	16.631	0.3	0.1	1645.6
14431	16.531	0.3	0.1	1669.9
14432	16.432	0.3	0.1	1694.2
14433	16.332	0.3	0.1	1718.6
14434	16.233	0.3	0.1	1743.1
14435	16.133	0.3	0.1	1767.6
14436	16.034	0.3	0.1	1792.2
14437	15.934	0.3	0.1	1816.8
14438	15.834	0.3	0.1	1841.5
14439	15.735	0.3	0.1	1866.3
14440	15.635	0.3	0.1	1891.1
14441	15.536	0.3	0.1	1916.
14442	15.436	0.3	0.1	1940.9
14443	15.336	0.3	0.1	1965.9
14444	15.237	0.3	0.1	1991.
14445	15.137	0.3	0.1	2016.1
14446	15.038	0.3	0.1	2041.3
14447	14.938	0.3	0.1	2066.5
14448	14.839	0.3	0.1	2091.8
14449	14.739	0.3	0.1	2117.2
14450	14.639	0.3	0.1	2142.6
14451	14.54	0.3	0.1	2168.
14452	14.44	0.3	0.1	2193.5
14453	14.341	0.3	0.1	2219.
14454	14.241	0.3	0.1	2244.6
14455	14.142	0.3	0.1	2270.2
14456	14.042	0.3	0.1	2295.9
14457	13.942	0.3	0.1	2321.6
14458	13.843	0.3	0.1	2347.3
14459	13.743	0.3	0.1	2373.
14460	13.644	0.3	0.1	2398.7
14461	13.544	0.3	0.1	2424.4
14462	13.444	0.3	0.1	2450.1
14463	13.345	0.3	0.1	2475.8
14464	13.245	0.3	0.1	2501.5
14465	13.146	0.3	0.1	2527.
14466	13.046	0.3	0.1	2552.6
14467	12.947	0.3	0.1	2578.
14468	12.847	0.3	0.1	2603.3
14469	12.747	0.3	0.1	2628.4
14470	12.648	0.3	0.1	2653.4
14471	12.548	0.3	0.1	2678.1
14472	12.449	0.3	0.1	2702.6
14473	12.349	0.3	0.1	2726.8
14474	12.249	0.3	0.1	2750.6
14475	12.15	0.3	0.1	2774.
14476	12.05	0.3	0.1	2796.9
14477	11.951	0.3	0.1	2819.2
14478	11.851	0.3	0.1	2840.9
14479	11.752	0.3	0.1	2861.8
14480	11.652	0.3	0.1	2881.8
14481	11.552	0.3	0.1	2900.8
14482	11.453	0.3	0.1	2918.6
14483	11.353	0.3	0.1	2935.1
14484	11.254	0.3	0.1	2950.
14485	11.154	0.3	0.1	2963.2
14486	11.055	0.3	0.1	2974.5
14487	10.955	0.3	0.1	2983.4
14488	10.855	0.3	0.1	2989.8
14489	10.756	0.3	0.1	2993.4
14490	10.656	0.3	0.1	2993.6
14491	10.557	0.3	0.1	2990.1
14492	10.457	0.3	0.1	2982.5
14493	10.357	0.3	0.1	2970.3
14494	10.258	0.3	0.1	2952.8
14495	10.158	0.3	0.1	2929.4
14496	10.059	0.3	0.1	2899.5
14497	9.9591	0.3	0.1	2862.4
14498	9.8595	0.3	0.1	2817.3
14499	9.76	0.3	0.1	2763.4
14500	9.6604	0.3	0.1	2699.8
14501	9.5608	0.3	0.1	2625.7
14502	9.4612	0.3	0.1	2540.2
14503	9.3616	0.3	0.1	2442.6
14504	9.2621	0.3	0.1	2332.1
14505	9.1625	0.3	0.1	2208.1
14506	9.0629	0.3	0.1	2070.2
14507	8.9633	0.3	0.1	1918.3
14508	8.8637	0.3	0.1	1753.
14509	8.7642	0.3	0.1	1575.2
14510	8.6646	0.3	0.1	1387.4
14511	8.565	0.3	0.1	1194.2
14512	8.4654	0.3	0.1	1004.6
14513	8.3658	0.3	0.1	835.92
14514	8.2662	0.3	0.1	732.74
14515	23.9	0.4	0.1	22.169
14516	23.801	0.4	0.1	40.623
14517	23.701	0.4	0.1	59.638
14518	23.602	0.4	0.1	79.055
14519	23.502	0.4	0.1	98.842
14520	23.403	0.4	0.1	118.94
14521	23.303	0.4	0.1	139.28
14522	23.203	0.4	0.1	159.83
14523	23.104	0.4	0.1	180.54
14524	23.004	0.4	0.1	201.37
14525	22.905	0.4	0.1	222.32
14526	22.805	0.4	0.1	243.37
14527	22.705	0.4	0.1	264.49
14528	22.606	0.4	0.1	285.69
14529	22.506	0.4	0.1	306.95
14530	22.407	0.4	0.1	328.27
14531	22.307	0.4	0.1	349.64
14532	22.208	0.4	0.1	371.06
14533	22.108	0.4	0.1	392.53
14534	22.008	0.4	0.1	414.05
14535	21.909	0.4	0.1	435.61
14536	21.809	0.4	0.1	457.21
14537	21.71	0.4	0.1	478.85
14538	21.61	0.4	0.1	500.54
14539	21.51	0.4	0.1	522.26
14540	21.411	0.4	0.1	544.03
14541	21.311	0.4	0.1	565.84
14542	21.212	0.4	0.1	587.68
14543	21.112	0.4	0.1	609.57
14544	21.013	0.4	0.1	631.5
14545	20.913	0.4	0.1	653.47
14546	20.813	0.4	0.1	675.49
14547	20.714	0.4	0.1	697.54
14548	20.614	0.4	0.1	719.64
14549	20.515	0.4	0.1	741.78
14550	20.415	0.4	0.1	763.97
14551	20.316	0.4	0.1	786.2
14552	20.216	0.4	0.1	808.48
14553	20.116	0.4	0.1	830.8
14554	20.017	0.4	0.1	853.16
14555	19.917	0.4	0.1	875.58
14556	19.818	0.4	0.1	898.04
14557	19.718	0.4	0.1	920.55
14558	19.618	0.4	0.1	943.11
14559	19.519	0.4	0.1	965.72
14560	19.419	0.4	0.1	988.37
14561	19.32	0.4	0.1	1011.1
14562	19.22	0.4	0.1	1033.8
14563	19.121	0.4	0.1	1056.6
14564	19.021	0.4	0.1	1079.5
14565	18.921	0.4	0.1	1102.4
14566	18.822	0.4	0.1	1125.4
14567	18.722	0.4	0.1	1148.4
14568	18.623	0.4	0.1	1171.5
14569	18.523	0.4	0.1	1194.6
14570	18.423	0.4	0.1	1217.8
14571	18.324	0.4	0.1	1241.
14572	18.224	0.4	0.1	1264.3
14573	18.125	0.4	0.1	1287.6
14574	18.025	0.4	0.1	1311.
14575	17.926	0.4	0.1	1334.5
14576	17.826	0.4	0.1	1358.
14577	17.726	0.4	0.1	1381.6
14578	17.627	0.4	0.1	1405.2
14579	17.527	0.4	0.1	1428.9
14580	17.428	0.4	0.1	1452.6
14581	17.328	0.4	0.1	1476.4
14582	17.229	0.4	0.1	1500.3
14583	17.129	0.4	0.1	1524.2
14584	17.029	0.4	0.1	1548.2
14585	16.93	0.4	0.1	1572.2
14586	16.83	0.4	0.1	1596.3
14587	16.731	0.4	0.1	1620.4
14588	16.631	0.4	0.1	1644.6
14589	16.531	0.4	0.1	1668.9
14590	16.432	0.4	0.1	1693.2
14591	16.332	0.4	0.1	1717.6
14592	16.233	0.4	0.1	1742.1
14593	16.133	0.4	0.1	1766.6
14594	16.034	0.4	0.1	1791.2
14595	15.934	0.4	0.1	1815.8
14596	15.834	0.4	0.1	1840.5
14597	15.735	0.4	0.1	1865.2
14598	15.635	0.4	0.1	1890.
14599	15.536	0.4	0.1	1914.9
14600	15.436	0.4	0.1	1939.8
14601	15.336	0.4	0.1	1964.8
14602	15.237	0.4	0.1	1989.9
14603	15.137	0.4	0.1	2015.
14604	15.038	0.4	0.1	2040.1
14605	14.938	0.4	0.1	2065.4
14606	14.839	0.4	0.1	2090.6
14607	14.739	0.4	0.1	2116.
14608	14.639	0.4	0.1	2141.3
14609	14.54	0.4	0.1	2166.8
14610	14.44	0.4	0.1	2192.2
14611	14.341	0.4	0.1	2217.8
14612	14.241	0.4	0.1	2243.3
14613	14.142	0.4	0.1	2268.9
14614	14.042	0.4	0.1	2294.6
14615	13.942	0.4	0.1	2320.3
14616	13.843	0.4	0.1	2346.
14617	13.743	0.4	0.1	2371.7
14618	13.644	0.4	0.1	2397.4
14619	13.544	0.4	0.1	2423.1
14620	13.444	0.4	0.1	2448.8
14621	13.345	0.4	0.1	2474.5
14622	13.245	0.4	0.1	2500.2
14623	13.146	0.4	0.1	2525.8
14624	13.046	0.4	0.1	2551.4
14625	12.947	0.4	0.1	2576.8
14626	12.847	0.4	0.1	2602.2
14627	12.747	0.4	0.1	2627.4
14628	12.648	0.4	0.1	2652.5
14629	12.548	0.4	0.1	2677.3
14630	12.449	0.4	0.1	2701.9
14631	12.349	0.4	0.1	2726.3
14632	12.249	0.4	0.1	2750.3
14633	12.15	0.4	0.1	2773.8
14634	12.05	0.4	0.1	2797.
14635	11.951	0.4	0.1	2819.6
14636	11.851	0.4	0.1	2841.5
14637	11.752	0.4	0.1	2862.7
14638	11.652	0.4	0.1	2883.1
14639	11.552	0.4	0.1	2902.6
14640	11.453	0.4	0.1	2920.9
14641	11.353	0.4	0.1	2938.
14642	11.254	0.4	0.1	2953.6
14643	11.154	0.4	0.1	2967.5
14644	11.055	0.4	0.1	2979.6
14645	10.955	0.4	0.1	2989.5
14646	10.855	0.4	0.1	2996.9
14647	10.756	0.4	0.1	3001.6
14648	10.656	0.4	0.1	3003.1
14649	10.557	0.4	0.1	3001.1
14650	10.457	0.4	0.1	2995.1
14651	10.357	0.4	0.1	2984.6
14652	10.258	0.4	0.1	2969.1
14653	10.158	0.4	0.1	2947.9
14654	10.059	0.4	0.1	2920.4
14655	9.9591	0.4	0.1	2885.8
14656	9.8595	0.4	0.1	2843.5
14657	9.76	0.4	0.1	2792.5
14658	9.6604	0.4	0.1	2732.2
14659	9.5608	0.4	0.1	2661.5
14660	9.4612	0.4	0.1	2579.6
14661	9.3616	0.4	0.1	2485.9
14662	9.2621	0.4	0.1	2379.4
14663	9.1625	0.4	0.1	2259.7
14664	9.0629	0.4	0.1	2126.6
14665	8.9633	0.4	0.1	1980.
14666	8.8637	0.4	0.1	1821.
14667	8.7642	0.4	0.1	1651.3
14668	8.6646	0.4	0.1	1474.3
14669	8.565	0.4	0.1	1296.3
14670	8.4654	0.4	0.1	1127.8
14671	8.3658	0.4	0.1	984.62
14672	8.2662	0.4	0.1	907.4
14673	23.9	0.5	0.1	22.343
14674	23.801	0.5	0.1	41.207
14675	23.701	0.5	0.1	60.452
14676	23.602	0.5	0.1	79.94
14677	23.502	0.5	0.1	99.697
14678	23.403	0.5	0.1	119.71
14679	23.303	0.5	0.1	139.95
14680	23.203	0.5	0.1	160.39
14681	23.104	0.5	0.1	180.99
14682	23.004	0.5	0.1	201.73
14683	22.905	0.5	0.1	222.59
14684	22.805	0.5	0.1	243.56
14685	22.705	0.5	0.1	264.61
14686	22.606	0.5	0.1	285.74
14687	22.506	0.5	0.1	306.94
14688	22.407	0.5	0.1	328.2
14689	22.307	0.5	0.1	349.53
14690	22.208	0.5	0.1	370.9
14691	22.108	0.5	0.1	392.33
14692	22.008	0.5	0.1	413.81
14693	21.909	0.5	0.1	435.33
14694	21.809	0.5	0.1	456.9
14695	21.71	0.5	0.1	478.51
14696	21.61	0.5	0.1	500.16
14697	21.51	0.5	0.1	521.86
14698	21.411	0.5	0.1	543.6
14699	21.311	0.5	0.1	565.38
14700	21.212	0.5	0.1	587.21
14701	21.112	0.5	0.1	609.08
14702	21.013	0.5	0.1	630.99
14703	20.913	0.5	0.1	652.94
14704	20.813	0.5	0.1	674.93
14705	20.714	0.5	0.1	696.97
14706	20.614	0.5	0.1	719.05
14707	20.515	0.5	0.1	741.18
14708	20.415	0.5	0.1	763.35
14709	20.316	0.5	0.1	785.57
14710	20.216	0.5	0.1	807.83
14711	20.116	0.5	0.1	830.14
14712	20.017	0.5	0.1	852.49
14713	19.917	0.5	0.1	874.9
14714	19.818	0.5	0.1	897.35
14715	19.718	0.5	0.1	919.85
14716	19.618	0.5	0.1	942.4
14717	19.519	0.5	0.1	964.99
14718	19.419	0.5	0.1	987.64
14719	19.32	0.5	0.1	1010.3
14720	19.22	0.5	0.1	1033.1
14721	19.121	0.5	0.1	1055.9
14722	19.021	0.5	0.1	1078.7
14723	18.921	0.5	0.1	1101.6
14724	18.822	0.5	0.1	1124.6
14725	18.722	0.5	0.1	1147.6
14726	18.623	0.5	0.1	1170.7
14727	18.523	0.5	0.1	1193.8
14728	18.423	0.5	0.1	1217.
14729	18.324	0.5	0.1	1240.2
14730	18.224	0.5	0.1	1263.5
14731	18.125	0.5	0.1	1286.8
14732	18.025	0.5	0.1	1310.2
14733	17.926	0.5	0.1	1333.7
14734	17.826	0.5	0.1	1357.2
14735	17.726	0.5	0.1	1380.7
14736	17.627	0.5	0.1	1404.3
14737	17.527	0.5	0.1	1428.
14738	17.428	0.5	0.1	1451.7
14739	17.328	0.5	0.1	1475.5
14740	17.229	0.5	0.1	1499.4
14741	17.129	0.5	0.1	1523.3
14742	17.029	0.5	0.1	1547.3
14743	16.93	0.5	0.1	1571.3
14744	16.83	0.5	0.1	1595.4
14745	16.731	0.5	0.1	1619.5
14746	16.631	0.5	0.1	1643.7
14747	16.531	0.5	0.1	1668.
14748	16.432	0.5	0.1	1692.3
14749	16.332	0.5	0.1	1716.7
14750	16.233	0.5	0.1	1741.1
14751	16.133	0.5	0.1	1765.6
14752	16.034	0.5	0.1	1790.2
14753	15.934	0.5	0.1	1814.8
14754	15.834	0.5	0.1	1839.4
14755	15.735	0.5	0.1	1864.2
14756	15.635	0.5	0.1	1889.
14757	15.536	0.5	0.1	1913.8
14758	15.436	0.5	0.1	1938.8
14759	15.336	0.5	0.1	1963.7
14760	15.237	0.5	0.1	1988.8
14761	15.137	0.5	0.1	2013.9
14762	15.038	0.5	0.1	2039.
14763	14.938	0.5	0.1	2064.2
14764	14.839	0.5	0.1	2089.5
14765	14.739	0.5	0.1	2114.8
14766	14.639	0.5	0.1	2140.1
14767	14.54	0.5	0.1	2165.6
14768	14.44	0.5	0.1	2191.
14769	14.341	0.5	0.1	2216.5
14770	14.241	0.5	0.1	2242.1
14771	14.142	0.5	0.1	2267.7
14772	14.042	0.5	0.1	2293.3
14773	13.942	0.5	0.1	2319.
14774	13.843	0.5	0.1	2344.7
14775	13.743	0.5	0.1	2370.4
14776	13.644	0.5	0.1	2396.1
14777	13.544	0.5	0.1	2421.9
14778	13.444	0.5	0.1	2447.6
14779	13.345	0.5	0.1	2473.3
14780	13.245	0.5	0.1	2499.
14781	13.146	0.5	0.1	2524.7
14782	13.046	0.5	0.1	2550.3
14783	12.947	0.5	0.1	2575.8
14784	12.847	0.5	0.1	2601.2
14785	12.747	0.5	0.1	2626.5
14786	12.648	0.5	0.1	2651.7
14787	12.548	0.5	0.1	2676.7
14788	12.449	0.5	0.1	2701.4
14789	12.349	0.5	0.1	2725.9
14790	12.249	0.5	0.1	2750.1
14791	12.15	0.5	0.1	2773.9
14792	12.05	0.5	0.1	2797.3
14793	11.951	0.5	0.1	2820.2
14794	11.851	0.5	0.1	2842.5
14795	11.752	0.5	0.1	2864.1
14796	11.652	0.5	0.1	2884.9
14797	11.552	0.5	0.1	2904.9
14798	11.453	0.5	0.1	2923.8
14799	11.353	0.5	0.1	2941.5
14800	11.254	0.5	0.1	2957.9
14801	11.154	0.5	0.1	2972.6
14802	11.055	0.5	0.1	2985.7
14803	10.955	0.5	0.1	2996.6
14804	10.855	0.5	0.1	3005.3
14805	10.756	0.5	0.1	3011.3
14806	10.656	0.5	0.1	3014.4
14807	10.557	0.5	0.1	3014.1
14808	10.457	0.5	0.1	3010.
14809	10.357	0.5	0.1	3001.6
14810	10.258	0.5	0.1	2988.4
14811	10.158	0.5	0.1	2969.7
14812	10.059	0.5	0.1	2945.1
14813	9.9591	0.5	0.1	2913.6
14814	9.8595	0.5	0.1	2874.7
14815	9.76	0.5	0.1	2827.4
14816	9.6604	0.5	0.1	2771.1
14817	9.5608	0.5	0.1	2704.7
14818	9.4612	0.5	0.1	2627.6
14819	9.3616	0.5	0.1	2538.8
14820	9.2621	0.5	0.1	2437.7
14821	9.1625	0.5	0.1	2323.8
14822	9.0629	0.5	0.1	2196.9
14823	8.9633	0.5	0.1	2057.5
14824	8.8637	0.5	0.1	1906.6
14825	8.7642	0.5	0.1	1746.8
14826	8.6646	0.5	0.1	1582.1
14827	8.565	0.5	0.1	1419.4
14828	8.4654	0.5	0.1	1268.7
14829	8.3658	0.5	0.1	1143.1
14830	8.2662	0.5	0.1	1082.6
14831	23.9	0.6	0.1	22.43
14832	23.801	0.6	0.1	41.632
14833	23.701	0.6	0.1	61.118
14834	23.602	0.6	0.1	80.741
14835	23.502	0.6	0.1	100.54
14836	23.403	0.6	0.1	120.54
14837	23.303	0.6	0.1	140.72
14838	23.203	0.6	0.1	161.09
14839	23.104	0.6	0.1	181.61
14840	23.004	0.6	0.1	202.26
14841	22.905	0.6	0.1	223.04
14842	22.805	0.6	0.1	243.93
14843	22.705	0.6	0.1	264.91
14844	22.606	0.6	0.1	285.97
14845	22.506	0.6	0.1	307.1
14846	22.407	0.6	0.1	328.31
14847	22.307	0.6	0.1	349.57
14848	22.208	0.6	0.1	370.9
14849	22.108	0.6	0.1	392.28
14850	22.008	0.6	0.1	413.71
14851	21.909	0.6	0.1	435.19
14852	21.809	0.6	0.1	456.72
14853	21.71	0.6	0.1	478.3
14854	21.61	0.6	0.1	499.92
14855	21.51	0.6	0.1	521.58
14856	21.411	0.6	0.1	543.29
14857	21.311	0.6	0.1	565.05
14858	21.212	0.6	0.1	586.84
14859	21.112	0.6	0.1	608.68
14860	21.013	0.6	0.1	630.57
14861	20.913	0.6	0.1	652.5
14862	20.813	0.6	0.1	674.47
14863	20.714	0.6	0.1	696.49
14864	20.614	0.6	0.1	718.55
14865	20.515	0.6	0.1	740.66
14866	20.415	0.6	0.1	762.81
14867	20.316	0.6	0.1	785.01
14868	20.216	0.6	0.1	807.26
14869	20.116	0.6	0.1	829.55
14870	20.017	0.6	0.1	851.9
14871	19.917	0.6	0.1	874.29
14872	19.818	0.6	0.1	896.72
14873	19.718	0.6	0.1	919.21
14874	19.618	0.6	0.1	941.75
14875	19.519	0.6	0.1	964.33
14876	19.419	0.6	0.1	986.97
14877	19.32	0.6	0.1	1009.7
14878	19.22	0.6	0.1	1032.4
14879	19.121	0.6	0.1	1055.2
14880	19.021	0.6	0.1	1078.
14881	18.921	0.6	0.1	1100.9
14882	18.822	0.6	0.1	1123.9
14883	18.722	0.6	0.1	1146.9
14884	18.623	0.6	0.1	1169.9
14885	18.523	0.6	0.1	1193.
14886	18.423	0.6	0.1	1216.2
14887	18.324	0.6	0.1	1239.4
14888	18.224	0.6	0.1	1262.7
14889	18.125	0.6	0.1	1286.
14890	18.025	0.6	0.1	1309.4
14891	17.926	0.6	0.1	1332.9
14892	17.826	0.6	0.1	1356.4
14893	17.726	0.6	0.1	1379.9
14894	17.627	0.6	0.1	1403.5
14895	17.527	0.6	0.1	1427.2
14896	17.428	0.6	0.1	1450.9
14897	17.328	0.6	0.1	1474.7
14898	17.229	0.6	0.1	1498.5
14899	17.129	0.6	0.1	1522.4
14900	17.029	0.6	0.1	1546.4
14901	16.93	0.6	0.1	1570.4
14902	16.83	0.6	0.1	1594.5
14903	16.731	0.6	0.1	1618.6
14904	16.631	0.6	0.1	1642.8
14905	16.531	0.6	0.1	1667.1
14906	16.432	0.6	0.1	1691.4
14907	16.332	0.6	0.1	1715.7
14908	16.233	0.6	0.1	1740.2
14909	16.133	0.6	0.1	1764.6
14910	16.034	0.6	0.1	1789.2
14911	15.934	0.6	0.1	1813.8
14912	15.834	0.6	0.1	1838.5
14913	15.735	0.6	0.1	1863.2
14914	15.635	0.6	0.1	1888.
14915	15.536	0.6	0.1	1912.8
14916	15.436	0.6	0.1	1937.7
14917	15.336	0.6	0.1	1962.7
14918	15.237	0.6	0.1	1987.7
14919	15.137	0.6	0.1	2012.8
14920	15.038	0.6	0.1	2037.9
14921	14.938	0.6	0.1	2063.1
14922	14.839	0.6	0.1	2088.3
14923	14.739	0.6	0.1	2113.6
14924	14.639	0.6	0.1	2139.
14925	14.54	0.6	0.1	2164.4
14926	14.44	0.6	0.1	2189.9
14927	14.341	0.6	0.1	2215.4
14928	14.241	0.6	0.1	2240.9
14929	14.142	0.6	0.1	2266.5
14930	14.042	0.6	0.1	2292.1
14931	13.942	0.6	0.1	2317.8
14932	13.843	0.6	0.1	2343.5
14933	13.743	0.6	0.1	2369.2
14934	13.644	0.6	0.1	2395.
14935	13.544	0.6	0.1	2420.7
14936	13.444	0.6	0.1	2446.5
14937	13.345	0.6	0.1	2472.2
14938	13.245	0.6	0.1	2497.9
14939	13.146	0.6	0.1	2523.6
14940	13.046	0.6	0.1	2549.3
14941	12.947	0.6	0.1	2574.9
14942	12.847	0.6	0.1	2600.4
14943	12.747	0.6	0.1	2625.8
14944	12.648	0.6	0.1	2651.
14945	12.548	0.6	0.1	2676.1
14946	12.449	0.6	0.1	2701.
14947	12.349	0.6	0.1	2725.7
14948	12.249	0.6	0.1	2750.1
14949	12.15	0.6	0.1	2774.1
14950	12.05	0.6	0.1	2797.8
14951	11.951	0.6	0.1	2821.
14952	11.851	0.6	0.1	2843.7
14953	11.752	0.6	0.1	2865.8
14954	11.652	0.6	0.1	2887.1
14955	11.552	0.6	0.1	2907.6
14956	11.453	0.6	0.1	2927.2
14957	11.353	0.6	0.1	2945.6
14958	11.254	0.6	0.1	2962.8
14959	11.154	0.6	0.1	2978.6
14960	11.055	0.6	0.1	2992.7
14961	10.955	0.6	0.1	3004.9
14962	10.855	0.6	0.1	3014.9
14963	10.756	0.6	0.1	3022.5
14964	10.656	0.6	0.1	3027.3
14965	10.557	0.6	0.1	3028.9
14966	10.457	0.6	0.1	3027.
14967	10.357	0.6	0.1	3021.
14968	10.258	0.6	0.1	3010.5
14969	10.158	0.6	0.1	2994.9
14970	10.059	0.6	0.1	2973.5
14971	9.9591	0.6	0.1	2945.8
14972	9.8595	0.6	0.1	2910.9
14973	9.76	0.6	0.1	2868.1
14974	9.6604	0.6	0.1	2816.6
14975	9.5608	0.6	0.1	2755.6
14976	9.4612	0.6	0.1	2684.1
14977	9.3616	0.6	0.1	2601.6
14978	9.2621	0.6	0.1	2507.2
14979	9.1625	0.6	0.1	2400.6
14980	9.0629	0.6	0.1	2281.7
14981	8.9633	0.6	0.1	2151.
14982	8.8637	0.6	0.1	2009.9
14983	8.7642	0.6	0.1	1861.1
14984	8.6646	0.6	0.1	1709.1
14985	8.565	0.6	0.1	1560.5
14986	8.4654	0.6	0.1	1424.1
14987	8.3658	0.6	0.1	1310.3
14988	8.2662	0.6	0.1	1261.4
14989	23.9	0.7	0.1	22.462
14990	23.801	0.7	0.1	41.941
14991	23.701	0.7	0.1	61.651
14992	23.602	0.7	0.1	81.429
14993	23.502	0.7	0.1	101.32
14994	23.403	0.7	0.1	121.34
14995	23.303	0.7	0.1	141.52
14996	23.203	0.7	0.1	161.84
14997	23.104	0.7	0.1	182.3
14998	23.004	0.7	0.1	202.9
14999	22.905	0.7	0.1	223.61
15000	22.805	0.7	0.1	244.42
15001	22.705	0.7	0.1	265.33
15002	22.606	0.7	0.1	286.33
15003	22.506	0.7	0.1	307.4
15004	22.407	0.7	0.1	328.54
15005	22.307	0.7	0.1	349.75
15006	22.208	0.7	0.1	371.02
15007	22.108	0.7	0.1	392.35
15008	22.008	0.7	0.1	413.74
15009	21.909	0.7	0.1	435.17
15010	21.809	0.7	0.1	456.66
15011	21.71	0.7	0.1	478.2
15012	21.61	0.7	0.1	499.78
15013	21.51	0.7	0.1	521.41
15014	21.411	0.7	0.1	543.09
15015	21.311	0.7	0.1	564.81
15016	21.212	0.7	0.1	586.57
15017	21.112	0.7	0.1	608.39
15018	21.013	0.7	0.1	630.24
15019	20.913	0.7	0.1	652.15
15020	20.813	0.7	0.1	674.1
15021	20.714	0.7	0.1	696.09
15022	20.614	0.7	0.1	718.13
15023	20.515	0.7	0.1	740.22
15024	20.415	0.7	0.1	762.35
15025	20.316	0.7	0.1	784.54
15026	20.216	0.7	0.1	806.77
15027	20.116	0.7	0.1	829.04
15028	20.017	0.7	0.1	851.37
15029	19.917	0.7	0.1	873.74
15030	19.818	0.7	0.1	896.17
15031	19.718	0.7	0.1	918.64
15032	19.618	0.7	0.1	941.16
15033	19.519	0.7	0.1	963.74
15034	19.419	0.7	0.1	986.36
15035	19.32	0.7	0.1	1009.
15036	19.22	0.7	0.1	1031.8
15037	19.121	0.7	0.1	1054.5
15038	19.021	0.7	0.1	1077.4
15039	18.921	0.7	0.1	1100.3
15040	18.822	0.7	0.1	1123.2
15041	18.722	0.7	0.1	1146.2
15042	18.623	0.7	0.1	1169.2
15043	18.523	0.7	0.1	1192.3
15044	18.423	0.7	0.1	1215.5
15045	18.324	0.7	0.1	1238.7
15046	18.224	0.7	0.1	1262.
15047	18.125	0.7	0.1	1285.3
15048	18.025	0.7	0.1	1308.7
15049	17.926	0.7	0.1	1332.1
15050	17.826	0.7	0.1	1355.6
15051	17.726	0.7	0.1	1379.1
15052	17.627	0.7	0.1	1402.8
15053	17.527	0.7	0.1	1426.4
15054	17.428	0.7	0.1	1450.1
15055	17.328	0.7	0.1	1473.9
15056	17.229	0.7	0.1	1497.7
15057	17.129	0.7	0.1	1521.6
15058	17.029	0.7	0.1	1545.6
15059	16.93	0.7	0.1	1569.6
15060	16.83	0.7	0.1	1593.6
15061	16.731	0.7	0.1	1617.8
15062	16.631	0.7	0.1	1641.9
15063	16.531	0.7	0.1	1666.2
15064	16.432	0.7	0.1	1690.5
15065	16.332	0.7	0.1	1714.8
15066	16.233	0.7	0.1	1739.3
15067	16.133	0.7	0.1	1763.7
15068	16.034	0.7	0.1	1788.3
15069	15.934	0.7	0.1	1812.9
15070	15.834	0.7	0.1	1837.5
15071	15.735	0.7	0.1	1862.2
15072	15.635	0.7	0.1	1887.
15073	15.536	0.7	0.1	1911.8
15074	15.436	0.7	0.1	1936.7
15075	15.336	0.7	0.1	1961.7
15076	15.237	0.7	0.1	1986.7
15077	15.137	0.7	0.1	2011.7
15078	15.038	0.7	0.1	2036.9
15079	14.938	0.7	0.1	2062.
15080	14.839	0.7	0.1	2087.3
15081	14.739	0.7	0.1	2112.6
15082	14.639	0.7	0.1	2137.9
15083	14.54	0.7	0.1	2163.3
15084	14.44	0.7	0.1	2188.7
15085	14.341	0.7	0.1	2214.2
15086	14.241	0.7	0.1	2239.8
15087	14.142	0.7	0.1	2265.3
15088	14.042	0.7	0.1	2291.
15089	13.942	0.7	0.1	2316.6
15090	13.843	0.7	0.1	2342.3
15091	13.743	0.7	0.1	2368.1
15092	13.644	0.7	0.1	2393.8
15093	13.544	0.7	0.1	2419.6
15094	13.444	0.7	0.1	2445.3
15095	13.345	0.7	0.1	2471.1
15096	13.245	0.7	0.1	2496.9
15097	13.146	0.7	0.1	2522.6
15098	13.046	0.7	0.1	2548.3
15099	12.947	0.7	0.1	2574.
15100	12.847	0.7	0.1	2599.6
15101	12.747	0.7	0.1	2625.1
15102	12.648	0.7	0.1	2650.4
15103	12.548	0.7	0.1	2675.7
15104	12.449	0.7	0.1	2700.8
15105	12.349	0.7	0.1	2725.6
15106	12.249	0.7	0.1	2750.3
15107	12.15	0.7	0.1	2774.6
15108	12.05	0.7	0.1	2798.6
15109	11.951	0.7	0.1	2822.1
15110	11.851	0.7	0.1	2845.2
15111	11.752	0.7	0.1	2867.8
15112	11.652	0.7	0.1	2889.6
15113	11.552	0.7	0.1	2910.8
15114	11.453	0.7	0.1	2931.1
15115	11.353	0.7	0.1	2950.3
15116	11.254	0.7	0.1	2968.4
15117	11.154	0.7	0.1	2985.2
15118	11.055	0.7	0.1	3000.5
15119	10.955	0.7	0.1	3014.1
15120	10.855	0.7	0.1	3025.6
15121	10.756	0.7	0.1	3034.9
15122	10.656	0.7	0.1	3041.7
15123	10.557	0.7	0.1	3045.5
15124	10.457	0.7	0.1	3046.
15125	10.357	0.7	0.1	3042.8
15126	10.258	0.7	0.1	3035.4
15127	10.158	0.7	0.1	3023.2
15128	10.059	0.7	0.1	3005.7
15129	9.9591	0.7	0.1	2982.2
15130	9.8595	0.7	0.1	2952.
15131	9.76	0.7	0.1	2914.4
15132	9.6604	0.7	0.1	2868.7
15133	9.5608	0.7	0.1	2813.9
15134	9.4612	0.7	0.1	2749.4
15135	9.3616	0.7	0.1	2674.3
15136	9.2621	0.7	0.1	2588.1
15137	9.1625	0.7	0.1	2490.3
15138	9.0629	0.7	0.1	2380.9
15139	8.9633	0.7	0.1	2260.5
15140	8.8637	0.7	0.1	2130.6
15141	8.7642	0.7	0.1	1993.8
15142	8.6646	0.7	0.1	1854.4
15143	8.565	0.7	0.1	1718.4
15144	8.4654	0.7	0.1	1593.2
15145	8.3658	0.7	0.1	1487.2
15146	8.2662	0.7	0.1	1447.1
15147	23.9	0.8	0.1	22.459
15148	23.801	0.8	0.1	42.167
15149	23.701	0.8	0.1	62.075
15150	23.602	0.8	0.1	82.008
15151	23.502	0.8	0.1	102.
15152	23.403	0.8	0.1	122.08
15153	23.303	0.8	0.1	142.28
15154	23.203	0.8	0.1	162.59
15155	23.104	0.8	0.1	183.03
15156	23.004	0.8	0.1	203.58
15157	22.905	0.8	0.1	224.23
15158	22.805	0.8	0.1	244.99
15159	22.705	0.8	0.1	265.84
15160	22.606	0.8	0.1	286.78
15161	22.506	0.8	0.1	307.79
15162	22.407	0.8	0.1	328.88
15163	22.307	0.8	0.1	350.03
15164	22.208	0.8	0.1	371.25
15165	22.108	0.8	0.1	392.53
15166	22.008	0.8	0.1	413.87
15167	21.909	0.8	0.1	435.26
15168	21.809	0.8	0.1	456.7
15169	21.71	0.8	0.1	478.19
15170	21.61	0.8	0.1	499.74
15171	21.51	0.8	0.1	521.33
15172	21.411	0.8	0.1	542.97
15173	21.311	0.8	0.1	564.66
15174	21.212	0.8	0.1	586.39
15175	21.112	0.8	0.1	608.17
15176	21.013	0.8	0.1	630.
15177	20.913	0.8	0.1	651.88
15178	20.813	0.8	0.1	673.8
15179	20.714	0.8	0.1	695.77
15180	20.614	0.8	0.1	717.79
15181	20.515	0.8	0.1	739.85
15182	20.415	0.8	0.1	761.97
15183	20.316	0.8	0.1	784.13
15184	20.216	0.8	0.1	806.34
15185	20.116	0.8	0.1	828.6
15186	20.017	0.8	0.1	850.9
15187	19.917	0.8	0.1	873.26
15188	19.818	0.8	0.1	895.67
15189	19.718	0.8	0.1	918.13
15190	19.618	0.8	0.1	940.64
15191	19.519	0.8	0.1	963.2
15192	19.419	0.8	0.1	985.81
15193	19.32	0.8	0.1	1008.5
15194	19.22	0.8	0.1	1031.2
15195	19.121	0.8	0.1	1054.
15196	19.021	0.8	0.1	1076.8
15197	18.921	0.8	0.1	1099.7
15198	18.822	0.8	0.1	1122.6
15199	18.722	0.8	0.1	1145.6
15200	18.623	0.8	0.1	1168.6
15201	18.523	0.8	0.1	1191.7
15202	18.423	0.8	0.1	1214.8
15203	18.324	0.8	0.1	1238.
15204	18.224	0.8	0.1	1261.3
15205	18.125	0.8	0.1	1284.6
15206	18.025	0.8	0.1	1308.
15207	17.926	0.8	0.1	1331.4
15208	17.826	0.8	0.1	1354.9
15209	17.726	0.8	0.1	1378.4
15210	17.627	0.8	0.1	1402.
15211	17.527	0.8	0.1	1425.7
15212	17.428	0.8	0.1	1449.4
15213	17.328	0.8	0.1	1473.1
15214	17.229	0.8	0.1	1497.
15215	17.129	0.8	0.1	1520.9
15216	17.029	0.8	0.1	1544.8
15217	16.93	0.8	0.1	1568.8
15218	16.83	0.8	0.1	1592.8
15219	16.731	0.8	0.1	1617.
15220	16.631	0.8	0.1	1641.1
15221	16.531	0.8	0.1	1665.4
15222	16.432	0.8	0.1	1689.6
15223	16.332	0.8	0.1	1714.
15224	16.233	0.8	0.1	1738.4
15225	16.133	0.8	0.1	1762.9
15226	16.034	0.8	0.1	1787.4
15227	15.934	0.8	0.1	1812.
15228	15.834	0.8	0.1	1836.6
15229	15.735	0.8	0.1	1861.3
15230	15.635	0.8	0.1	1886.1
15231	15.536	0.8	0.1	1910.9
15232	15.436	0.8	0.1	1935.8
15233	15.336	0.8	0.1	1960.7
15234	15.237	0.8	0.1	1985.7
15235	15.137	0.8	0.1	2010.7
15236	15.038	0.8	0.1	2035.8
15237	14.938	0.8	0.1	2061.
15238	14.839	0.8	0.1	2086.2
15239	14.739	0.8	0.1	2111.5
15240	14.639	0.8	0.1	2136.8
15241	14.54	0.8	0.1	2162.2
15242	14.44	0.8	0.1	2187.6
15243	14.341	0.8	0.1	2213.1
15244	14.241	0.8	0.1	2238.7
15245	14.142	0.8	0.1	2264.2
15246	14.042	0.8	0.1	2289.8
15247	13.942	0.8	0.1	2315.5
15248	13.843	0.8	0.1	2341.2
15249	13.743	0.8	0.1	2366.9
15250	13.644	0.8	0.1	2392.7
15251	13.544	0.8	0.1	2418.5
15252	13.444	0.8	0.1	2444.3
15253	13.345	0.8	0.1	2470.1
15254	13.245	0.8	0.1	2495.9
15255	13.146	0.8	0.1	2521.7
15256	13.046	0.8	0.1	2547.4
15257	12.947	0.8	0.1	2573.2
15258	12.847	0.8	0.1	2598.8
15259	12.747	0.8	0.1	2624.4
15260	12.648	0.8	0.1	2650.
15261	12.548	0.8	0.1	2675.4
15262	12.449	0.8	0.1	2700.6
15263	12.349	0.8	0.1	2725.7
15264	12.249	0.8	0.1	2750.6
15265	12.15	0.8	0.1	2775.2
15266	12.05	0.8	0.1	2799.5
15267	11.951	0.8	0.1	2823.4
15268	11.851	0.8	0.1	2847.
15269	11.752	0.8	0.1	2870.
15270	11.652	0.8	0.1	2892.5
15271	11.552	0.8	0.1	2914.3
15272	11.453	0.8	0.1	2935.3
15273	11.353	0.8	0.1	2955.5
15274	11.254	0.8	0.1	2974.6
15275	11.154	0.8	0.1	2992.6
15276	11.055	0.8	0.1	3009.1
15277	10.955	0.8	0.1	3024.1
15278	10.855	0.8	0.1	3037.4
15279	10.756	0.8	0.1	3048.6
15280	10.656	0.8	0.1	3057.5
15281	10.557	0.8	0.1	3063.7
15282	10.457	0.8	0.1	3066.9
15283	10.357	0.8	0.1	3066.8
15284	10.258	0.8	0.1	3062.8
15285	10.158	0.8	0.1	3054.5
15286	10.059	0.8	0.1	3041.3
15287	9.9591	0.8	0.1	3022.6
15288	9.8595	0.8	0.1	2997.8
15289	9.76	0.8	0.1	2966.2
15290	9.6604	0.8	0.1	2927.1
15291	9.5608	0.8	0.1	2879.7
15292	9.4612	0.8	0.1	2823.2
15293	9.3616	0.8	0.1	2756.9
15294	9.2621	0.8	0.1	2680.3
15295	9.1625	0.8	0.1	2592.9
15296	9.0629	0.8	0.1	2494.7
15297	8.9633	0.8	0.1	2386.2
15298	8.8637	0.8	0.1	2268.7
15299	8.7642	0.8	0.1	2144.7
15300	8.6646	0.8	0.1	2017.9
15301	8.565	0.8	0.1	1893.4
15302	8.4654	0.8	0.1	1777.1
15303	8.3658	0.8	0.1	1676.2
15304	8.2662	0.8	0.1	1643.
15305	23.9	0.9	0.1	22.432
15306	23.801	0.9	0.1	42.333
15307	23.701	0.9	0.1	62.413
15308	23.602	0.9	0.1	82.492
15309	23.502	0.9	0.1	102.6
15310	23.403	0.9	0.1	122.75
15311	23.303	0.9	0.1	142.99
15312	23.203	0.9	0.1	163.32
15313	23.104	0.9	0.1	183.74
15314	23.004	0.9	0.1	204.27
15315	22.905	0.9	0.1	224.89
15316	22.805	0.9	0.1	245.6
15317	22.705	0.9	0.1	266.41
15318	22.606	0.9	0.1	287.29
15319	22.506	0.9	0.1	308.25
15320	22.407	0.9	0.1	329.29
15321	22.307	0.9	0.1	350.39
15322	22.208	0.9	0.1	371.56
15323	22.108	0.9	0.1	392.79
15324	22.008	0.9	0.1	414.07
15325	21.909	0.9	0.1	435.42
15326	21.809	0.9	0.1	456.82
15327	21.71	0.9	0.1	478.27
15328	21.61	0.9	0.1	499.77
15329	21.51	0.9	0.1	521.32
15330	21.411	0.9	0.1	542.93
15331	21.311	0.9	0.1	564.58
15332	21.212	0.9	0.1	586.28
15333	21.112	0.9	0.1	608.03
15334	21.013	0.9	0.1	629.83
15335	20.913	0.9	0.1	651.68
15336	20.813	0.9	0.1	673.57
15337	20.714	0.9	0.1	695.52
15338	20.614	0.9	0.1	717.51
15339	20.515	0.9	0.1	739.55
15340	20.415	0.9	0.1	761.64
15341	20.316	0.9	0.1	783.78
15342	20.216	0.9	0.1	805.97
15343	20.116	0.9	0.1	828.21
15344	20.017	0.9	0.1	850.5
15345	19.917	0.9	0.1	872.84
15346	19.818	0.9	0.1	895.23
15347	19.718	0.9	0.1	917.67
15348	19.618	0.9	0.1	940.17
15349	19.519	0.9	0.1	962.71
15350	19.419	0.9	0.1	985.31
15351	19.32	0.9	0.1	1008.
15352	19.22	0.9	0.1	1030.7
15353	19.121	0.9	0.1	1053.4
15354	19.021	0.9	0.1	1076.2
15355	18.921	0.9	0.1	1099.1
15356	18.822	0.9	0.1	1122.
15357	18.722	0.9	0.1	1145.
15358	18.623	0.9	0.1	1168.
15359	18.523	0.9	0.1	1191.1
15360	18.423	0.9	0.1	1214.2
15361	18.324	0.9	0.1	1237.4
15362	18.224	0.9	0.1	1260.7
15363	18.125	0.9	0.1	1284.
15364	18.025	0.9	0.1	1307.3
15365	17.926	0.9	0.1	1330.8
15366	17.826	0.9	0.1	1354.2
15367	17.726	0.9	0.1	1377.8
15368	17.627	0.9	0.1	1401.3
15369	17.527	0.9	0.1	1425.
15370	17.428	0.9	0.1	1448.7
15371	17.328	0.9	0.1	1472.4
15372	17.229	0.9	0.1	1496.2
15373	17.129	0.9	0.1	1520.1
15374	17.029	0.9	0.1	1544.
15375	16.93	0.9	0.1	1568.
15376	16.83	0.9	0.1	1592.1
15377	16.731	0.9	0.1	1616.2
15378	16.631	0.9	0.1	1640.3
15379	16.531	0.9	0.1	1664.6
15380	16.432	0.9	0.1	1688.8
15381	16.332	0.9	0.1	1713.2
15382	16.233	0.9	0.1	1737.6
15383	16.133	0.9	0.1	1762.
15384	16.034	0.9	0.1	1786.5
15385	15.934	0.9	0.1	1811.1
15386	15.834	0.9	0.1	1835.7
15387	15.735	0.9	0.1	1860.4
15388	15.635	0.9	0.1	1885.2
15389	15.536	0.9	0.1	1910.
15390	15.436	0.9	0.1	1934.8
15391	15.336	0.9	0.1	1959.8
15392	15.237	0.9	0.1	1984.7
15393	15.137	0.9	0.1	2009.8
15394	15.038	0.9	0.1	2034.9
15395	14.938	0.9	0.1	2060.
15396	14.839	0.9	0.1	2085.2
15397	14.739	0.9	0.1	2110.5
15398	14.639	0.9	0.1	2135.8
15399	14.54	0.9	0.1	2161.2
15400	14.44	0.9	0.1	2186.6
15401	14.341	0.9	0.1	2212.1
15402	14.241	0.9	0.1	2237.6
15403	14.142	0.9	0.1	2263.2
15404	14.042	0.9	0.1	2288.8
15405	13.942	0.9	0.1	2314.4
15406	13.843	0.9	0.1	2340.1
15407	13.743	0.9	0.1	2365.9
15408	13.644	0.9	0.1	2391.6
15409	13.544	0.9	0.1	2417.4
15410	13.444	0.9	0.1	2443.3
15411	13.345	0.9	0.1	2469.1
15412	13.245	0.9	0.1	2494.9
15413	13.146	0.9	0.1	2520.8
15414	13.046	0.9	0.1	2546.6
15415	12.947	0.9	0.1	2572.4
15416	12.847	0.9	0.1	2598.2
15417	12.747	0.9	0.1	2623.9
15418	12.648	0.9	0.1	2649.6
15419	12.548	0.9	0.1	2675.1
15420	12.449	0.9	0.1	2700.6
15421	12.349	0.9	0.1	2725.9
15422	12.249	0.9	0.1	2751.
15423	12.15	0.9	0.1	2775.9
15424	12.05	0.9	0.1	2800.6
15425	11.951	0.9	0.1	2824.9
15426	11.851	0.9	0.1	2848.9
15427	11.752	0.9	0.1	2872.5
15428	11.652	0.9	0.1	2895.6
15429	11.552	0.9	0.1	2918.2
15430	11.453	0.9	0.1	2940.
15431	11.353	0.9	0.1	2961.1
15432	11.254	0.9	0.1	2981.3
15433	11.154	0.9	0.1	3000.5
15434	11.055	0.9	0.1	3018.4
15435	10.955	0.9	0.1	3035.
15436	10.855	0.9	0.1	3050.1
15437	10.756	0.9	0.1	3063.3
15438	10.656	0.9	0.1	3074.5
15439	10.557	0.9	0.1	3083.4
15440	10.457	0.9	0.1	3089.6
15441	10.357	0.9	0.1	3092.8
15442	10.258	0.9	0.1	3092.6
15443	10.158	0.9	0.1	3088.5
15444	10.059	0.9	0.1	3080.1
15445	9.9591	0.9	0.1	3066.8
15446	9.8595	0.9	0.1	3048.
15447	9.76	0.9	0.1	3023.2
15448	9.6604	0.9	0.1	2991.6
15449	9.5608	0.9	0.1	2952.5
15450	9.4612	0.9	0.1	2905.2
15451	9.3616	0.9	0.1	2849.1
15452	9.2621	0.9	0.1	2783.6
15453	9.1625	0.9	0.1	2708.2
15454	9.0629	0.9	0.1	2622.9
15455	8.9633	0.9	0.1	2527.9
15456	8.8637	0.9	0.1	2424.4
15457	8.7642	0.9	0.1	2314.3
15458	8.6646	0.9	0.1	2200.4
15459	8.565	0.9	0.1	2086.8
15460	8.4654	0.9	0.1	1978.1
15461	8.3658	0.9	0.1	1880.6
15462	8.2662	0.9	0.1	1853.1
15463	23.9	1.	0.1	22.39
15464	23.801	1.	0.1	42.454
15465	23.701	1.	0.1	62.683
15466	23.602	1.	0.1	82.895
15467	23.502	1.	0.1	103.11
15468	23.403	1.	0.1	123.35
15469	23.303	1.	0.1	143.64
15470	23.203	1.	0.1	163.99
15471	23.104	1.	0.1	184.43
15472	23.004	1.	0.1	204.95
15473	22.905	1.	0.1	225.55
15474	22.805	1.	0.1	246.23
15475	22.705	1.	0.1	267.
15476	22.606	1.	0.1	287.84
15477	22.506	1.	0.1	308.76
15478	22.407	1.	0.1	329.74
15479	22.307	1.	0.1	350.8
15480	22.208	1.	0.1	371.92
15481	22.108	1.	0.1	393.1
15482	22.008	1.	0.1	414.35
15483	21.909	1.	0.1	435.65
15484	21.809	1.	0.1	457.
15485	21.71	1.	0.1	478.41
15486	21.61	1.	0.1	499.87
15487	21.51	1.	0.1	521.39
15488	21.411	1.	0.1	542.95
15489	21.311	1.	0.1	564.57
15490	21.212	1.	0.1	586.24
15491	21.112	1.	0.1	607.96
15492	21.013	1.	0.1	629.72
15493	20.913	1.	0.1	651.54
15494	20.813	1.	0.1	673.41
15495	20.714	1.	0.1	695.32
15496	20.614	1.	0.1	717.29
15497	20.515	1.	0.1	739.31
15498	20.415	1.	0.1	761.37
15499	20.316	1.	0.1	783.49
15500	20.216	1.	0.1	805.66
15501	20.116	1.	0.1	827.88
15502	20.017	1.	0.1	850.15
15503	19.917	1.	0.1	872.47
15504	19.818	1.	0.1	894.84
15505	19.718	1.	0.1	917.27
15506	19.618	1.	0.1	939.74
15507	19.519	1.	0.1	962.28
15508	19.419	1.	0.1	984.86
15509	19.32	1.	0.1	1007.5
15510	19.22	1.	0.1	1030.2
15511	19.121	1.	0.1	1052.9
15512	19.021	1.	0.1	1075.7
15513	18.921	1.	0.1	1098.6
15514	18.822	1.	0.1	1121.5
15515	18.722	1.	0.1	1144.4
15516	18.623	1.	0.1	1167.5
15517	18.523	1.	0.1	1190.5
15518	18.423	1.	0.1	1213.7
15519	18.324	1.	0.1	1236.8
15520	18.224	1.	0.1	1260.1
15521	18.125	1.	0.1	1283.4
15522	18.025	1.	0.1	1306.7
15523	17.926	1.	0.1	1330.1
15524	17.826	1.	0.1	1353.6
15525	17.726	1.	0.1	1377.1
15526	17.627	1.	0.1	1400.7
15527	17.527	1.	0.1	1424.3
15528	17.428	1.	0.1	1448.
15529	17.328	1.	0.1	1471.8
15530	17.229	1.	0.1	1495.6
15531	17.129	1.	0.1	1519.4
15532	17.029	1.	0.1	1543.3
15533	16.93	1.	0.1	1567.3
15534	16.83	1.	0.1	1591.4
15535	16.731	1.	0.1	1615.5
15536	16.631	1.	0.1	1639.6
15537	16.531	1.	0.1	1663.8
15538	16.432	1.	0.1	1688.1
15539	16.332	1.	0.1	1712.4
15540	16.233	1.	0.1	1736.8
15541	16.133	1.	0.1	1761.2
15542	16.034	1.	0.1	1785.7
15543	15.934	1.	0.1	1810.3
15544	15.834	1.	0.1	1834.9
15545	15.735	1.	0.1	1859.6
15546	15.635	1.	0.1	1884.3
15547	15.536	1.	0.1	1909.1
15548	15.436	1.	0.1	1933.9
15549	15.336	1.	0.1	1958.9
15550	15.237	1.	0.1	1983.8
15551	15.137	1.	0.1	2008.8
15552	15.038	1.	0.1	2033.9
15553	14.938	1.	0.1	2059.1
15554	14.839	1.	0.1	2084.2
15555	14.739	1.	0.1	2109.5
15556	14.639	1.	0.1	2134.8
15557	14.54	1.	0.1	2160.2
15558	14.44	1.	0.1	2185.6
15559	14.341	1.	0.1	2211.
15560	14.241	1.	0.1	2236.5
15561	14.142	1.	0.1	2262.1
15562	14.042	1.	0.1	2287.7
15563	13.942	1.	0.1	2313.4
15564	13.843	1.	0.1	2339.1
15565	13.743	1.	0.1	2364.8
15566	13.644	1.	0.1	2390.6
15567	13.544	1.	0.1	2416.4
15568	13.444	1.	0.1	2442.3
15569	13.345	1.	0.1	2468.1
15570	13.245	1.	0.1	2494.
15571	13.146	1.	0.1	2519.9
15572	13.046	1.	0.1	2545.8
15573	12.947	1.	0.1	2571.7
15574	12.847	1.	0.1	2597.6
15575	12.747	1.	0.1	2623.4
15576	12.648	1.	0.1	2649.2
15577	12.548	1.	0.1	2674.9
15578	12.449	1.	0.1	2700.6
15579	12.349	1.	0.1	2726.1
15580	12.249	1.	0.1	2751.5
15581	12.15	1.	0.1	2776.7
15582	12.05	1.	0.1	2801.8
15583	11.951	1.	0.1	2826.6
15584	11.851	1.	0.1	2851.1
15585	11.752	1.	0.1	2875.2
15586	11.652	1.	0.1	2899.
15587	11.552	1.	0.1	2922.3
15588	11.453	1.	0.1	2945.
15589	11.353	1.	0.1	2967.1
15590	11.254	1.	0.1	2988.4
15591	11.154	1.	0.1	3008.9
15592	11.055	1.	0.1	3028.3
15593	10.955	1.	0.1	3046.6
15594	10.855	1.	0.1	3063.6
15595	10.756	1.	0.1	3079.
15596	10.656	1.	0.1	3092.7
15597	10.557	1.	0.1	3104.4
15598	10.457	1.	0.1	3113.8
15599	10.357	1.	0.1	3120.6
15600	10.258	1.	0.1	3124.5
15601	10.158	1.	0.1	3125.1
15602	10.059	1.	0.1	3121.9
15603	9.9591	1.	0.1	3114.5
15604	9.8595	1.	0.1	3102.3
15605	9.76	1.	0.1	3084.9
15606	9.6604	1.	0.1	3061.7
15607	9.5608	1.	0.1	3031.9
15608	9.4612	1.	0.1	2995.
15609	9.3616	1.	0.1	2950.4
15610	9.2621	1.	0.1	2897.5
15611	9.1625	1.	0.1	2835.9
15612	9.0629	1.	0.1	2765.4
15613	8.9633	1.	0.1	2685.9
15614	8.8637	1.	0.1	2598.2
15615	8.7642	1.	0.1	2503.5
15616	8.6646	1.	0.1	2403.6
15617	8.565	1.	0.1	2301.3
15618	8.4654	1.	0.1	2199.9
15619	8.3658	1.	0.1	2104.6
15620	8.2662	1.	0.1	2081.9
15621	23.9	1.1	0.1	22.339
15622	23.801	1.1	0.1	42.541
15623	23.701	1.1	0.1	62.9
15624	23.602	1.1	0.1	83.232
15625	23.502	1.1	0.1	103.55
15626	23.403	1.1	0.1	123.87
15627	23.303	1.1	0.1	144.22
15628	23.203	1.1	0.1	164.62
15629	23.104	1.1	0.1	185.07
15630	23.004	1.1	0.1	205.59
15631	22.905	1.1	0.1	226.19
15632	22.805	1.1	0.1	246.85
15633	22.705	1.1	0.1	267.59
15634	22.606	1.1	0.1	288.4
15635	22.506	1.1	0.1	309.28
15636	22.407	1.1	0.1	330.23
15637	22.307	1.1	0.1	351.25
15638	22.208	1.1	0.1	372.32
15639	22.108	1.1	0.1	393.46
15640	22.008	1.1	0.1	414.66
15641	21.909	1.1	0.1	435.92
15642	21.809	1.1	0.1	457.24
15643	21.71	1.1	0.1	478.61
15644	21.61	1.1	0.1	500.03
15645	21.51	1.1	0.1	521.51
15646	21.411	1.1	0.1	543.03
15647	21.311	1.1	0.1	564.62
15648	21.212	1.1	0.1	586.25
15649	21.112	1.1	0.1	607.93
15650	21.013	1.1	0.1	629.67
15651	20.913	1.1	0.1	651.46
15652	20.813	1.1	0.1	673.29
15653	20.714	1.1	0.1	695.18
15654	20.614	1.1	0.1	717.12
15655	20.515	1.1	0.1	739.11
15656	20.415	1.1	0.1	761.16
15657	20.316	1.1	0.1	783.25
15658	20.216	1.1	0.1	805.4
15659	20.116	1.1	0.1	827.59
15660	20.017	1.1	0.1	849.84
15661	19.917	1.1	0.1	872.15
15662	19.818	1.1	0.1	894.5
15663	19.718	1.1	0.1	916.91
15664	19.618	1.1	0.1	939.37
15665	19.519	1.1	0.1	961.88
15666	19.419	1.1	0.1	984.45
15667	19.32	1.1	0.1	1007.1
15668	19.22	1.1	0.1	1029.8
15669	19.121	1.1	0.1	1052.5
15670	19.021	1.1	0.1	1075.3
15671	18.921	1.1	0.1	1098.1
15672	18.822	1.1	0.1	1121.
15673	18.722	1.1	0.1	1143.9
15674	18.623	1.1	0.1	1167.
15675	18.523	1.1	0.1	1190.
15676	18.423	1.1	0.1	1213.1
15677	18.324	1.1	0.1	1236.3
15678	18.224	1.1	0.1	1259.5
15679	18.125	1.1	0.1	1282.8
15680	18.025	1.1	0.1	1306.2
15681	17.926	1.1	0.1	1329.6
15682	17.826	1.1	0.1	1353.
15683	17.726	1.1	0.1	1376.5
15684	17.627	1.1	0.1	1400.1
15685	17.527	1.1	0.1	1423.7
15686	17.428	1.1	0.1	1447.4
15687	17.328	1.1	0.1	1471.1
15688	17.229	1.1	0.1	1494.9
15689	17.129	1.1	0.1	1518.8
15690	17.029	1.1	0.1	1542.7
15691	16.93	1.1	0.1	1566.7
15692	16.83	1.1	0.1	1590.7
15693	16.731	1.1	0.1	1614.8
15694	16.631	1.1	0.1	1638.9
15695	16.531	1.1	0.1	1663.1
15696	16.432	1.1	0.1	1687.4
15697	16.332	1.1	0.1	1711.7
15698	16.233	1.1	0.1	1736.
15699	16.133	1.1	0.1	1760.5
15700	16.034	1.1	0.1	1785.
15701	15.934	1.1	0.1	1809.5
15702	15.834	1.1	0.1	1834.1
15703	15.735	1.1	0.1	1858.8
15704	15.635	1.1	0.1	1883.5
15705	15.536	1.1	0.1	1908.3
15706	15.436	1.1	0.1	1933.1
15707	15.336	1.1	0.1	1958.
15708	15.237	1.1	0.1	1982.9
15709	15.137	1.1	0.1	2007.9
15710	15.038	1.1	0.1	2033.
15711	14.938	1.1	0.1	2058.1
15712	14.839	1.1	0.1	2083.3
15713	14.739	1.1	0.1	2108.6
15714	14.639	1.1	0.1	2133.8
15715	14.54	1.1	0.1	2159.2
15716	14.44	1.1	0.1	2184.6
15717	14.341	1.1	0.1	2210.
15718	14.241	1.1	0.1	2235.6
15719	14.142	1.1	0.1	2261.1
15720	14.042	1.1	0.1	2286.7
15721	13.942	1.1	0.1	2312.4
15722	13.843	1.1	0.1	2338.1
15723	13.743	1.1	0.1	2363.8
15724	13.644	1.1	0.1	2389.6
15725	13.544	1.1	0.1	2415.5
15726	13.444	1.1	0.1	2441.3
15727	13.345	1.1	0.1	2467.2
15728	13.245	1.1	0.1	2493.2
15729	13.146	1.1	0.1	2519.1
15730	13.046	1.1	0.1	2545.1
15731	12.947	1.1	0.1	2571.1
15732	12.847	1.1	0.1	2597.
15733	12.747	1.1	0.1	2623.
15734	12.648	1.1	0.1	2648.9
15735	12.548	1.1	0.1	2674.8
15736	12.449	1.1	0.1	2700.7
15737	12.349	1.1	0.1	2726.4
15738	12.249	1.1	0.1	2752.1
15739	12.15	1.1	0.1	2777.7
15740	12.05	1.1	0.1	2803.1
15741	11.951	1.1	0.1	2828.3
15742	11.851	1.1	0.1	2853.3
15743	11.752	1.1	0.1	2878.1
15744	11.652	1.1	0.1	2902.5
15745	11.552	1.1	0.1	2926.6
15746	11.453	1.1	0.1	2950.2
15747	11.353	1.1	0.1	2973.3
15748	11.254	1.1	0.1	2995.9
15749	11.154	1.1	0.1	3017.7
15750	11.055	1.1	0.1	3038.7
15751	10.955	1.1	0.1	3058.8
15752	10.855	1.1	0.1	3077.8
15753	10.756	1.1	0.1	3095.5
15754	10.656	1.1	0.1	3111.8
15755	10.557	1.1	0.1	3126.5
15756	10.457	1.1	0.1	3139.3
15757	10.357	1.1	0.1	3150.
15758	10.258	1.1	0.1	3158.3
15759	10.158	1.1	0.1	3163.8
15760	10.059	1.1	0.1	3166.2
15761	9.9591	1.1	0.1	3165.2
15762	9.8595	1.1	0.1	3160.3
15763	9.76	1.1	0.1	3151.
15764	9.6604	1.1	0.1	3136.8
15765	9.5608	1.1	0.1	3117.4
15766	9.4612	1.1	0.1	3092.
15767	9.3616	1.1	0.1	3060.3
15768	9.2621	1.1	0.1	3021.6
15769	9.1625	1.1	0.1	2975.6
15770	9.0629	1.1	0.1	2921.9
15771	8.9633	1.1	0.1	2860.3
15772	8.8637	1.1	0.1	2790.8
15773	8.7642	1.1	0.1	2713.9
15774	8.6646	1.1	0.1	2630.2
15775	8.565	1.1	0.1	2540.8
15776	8.4654	1.1	0.1	2447.4
15777	8.3658	1.1	0.1	2354.1
15778	8.2662	1.1	0.1	2335.6
15779	23.9	1.2	0.1	22.281
15780	23.801	1.2	0.1	42.603
15781	23.701	1.2	0.1	63.075
15782	23.602	1.2	0.1	83.514
15783	23.502	1.2	0.1	103.93
15784	23.403	1.2	0.1	124.33
15785	23.303	1.2	0.1	144.74
15786	23.203	1.2	0.1	165.18
15787	23.104	1.2	0.1	185.67
15788	23.004	1.2	0.1	206.21
15789	22.905	1.2	0.1	226.8
15790	22.805	1.2	0.1	247.46
15791	22.705	1.2	0.1	268.18
15792	22.606	1.2	0.1	288.97
15793	22.506	1.2	0.1	309.82
15794	22.407	1.2	0.1	330.73
15795	22.307	1.2	0.1	351.71
15796	22.208	1.2	0.1	372.75
15797	22.108	1.2	0.1	393.86
15798	22.008	1.2	0.1	415.02
15799	21.909	1.2	0.1	436.23
15800	21.809	1.2	0.1	457.51
15801	21.71	1.2	0.1	478.84
15802	21.61	1.2	0.1	500.23
15803	21.51	1.2	0.1	521.67
15804	21.411	1.2	0.1	543.16
15805	21.311	1.2	0.1	564.71
15806	21.212	1.2	0.1	586.31
15807	21.112	1.2	0.1	607.96
15808	21.013	1.2	0.1	629.66
15809	20.913	1.2	0.1	651.42
15810	20.813	1.2	0.1	673.23
15811	20.714	1.2	0.1	695.09
15812	20.614	1.2	0.1	717.
15813	20.515	1.2	0.1	738.97
15814	20.415	1.2	0.1	760.99
15815	20.316	1.2	0.1	783.06
15816	20.216	1.2	0.1	805.18
15817	20.116	1.2	0.1	827.36
15818	20.017	1.2	0.1	849.59
15819	19.917	1.2	0.1	871.87
15820	19.818	1.2	0.1	894.2
15821	19.718	1.2	0.1	916.59
15822	19.618	1.2	0.1	939.04
15823	19.519	1.2	0.1	961.54
15824	19.419	1.2	0.1	984.09
15825	19.32	1.2	0.1	1006.7
15826	19.22	1.2	0.1	1029.4
15827	19.121	1.2	0.1	1052.1
15828	19.021	1.2	0.1	1074.8
15829	18.921	1.2	0.1	1097.7
15830	18.822	1.2	0.1	1120.6
15831	18.722	1.2	0.1	1143.5
15832	18.623	1.2	0.1	1166.5
15833	18.523	1.2	0.1	1189.5
15834	18.423	1.2	0.1	1212.6
15835	18.324	1.2	0.1	1235.8
15836	18.224	1.2	0.1	1259.
15837	18.125	1.2	0.1	1282.3
15838	18.025	1.2	0.1	1305.6
15839	17.926	1.2	0.1	1329.
15840	17.826	1.2	0.1	1352.5
15841	17.726	1.2	0.1	1376.
15842	17.627	1.2	0.1	1399.5
15843	17.527	1.2	0.1	1423.1
15844	17.428	1.2	0.1	1446.8
15845	17.328	1.2	0.1	1470.5
15846	17.229	1.2	0.1	1494.3
15847	17.129	1.2	0.1	1518.2
15848	17.029	1.2	0.1	1542.1
15849	16.93	1.2	0.1	1566.
15850	16.83	1.2	0.1	1590.
15851	16.731	1.2	0.1	1614.1
15852	16.631	1.2	0.1	1638.2
15853	16.531	1.2	0.1	1662.4
15854	16.432	1.2	0.1	1686.7
15855	16.332	1.2	0.1	1711.
15856	16.233	1.2	0.1	1735.3
15857	16.133	1.2	0.1	1759.7
15858	16.034	1.2	0.1	1784.2
15859	15.934	1.2	0.1	1808.8
15860	15.834	1.2	0.1	1833.3
15861	15.735	1.2	0.1	1858.
15862	15.635	1.2	0.1	1882.7
15863	15.536	1.2	0.1	1907.5
15864	15.436	1.2	0.1	1932.3
15865	15.336	1.2	0.1	1957.2
15866	15.237	1.2	0.1	1982.1
15867	15.137	1.2	0.1	2007.1
15868	15.038	1.2	0.1	2032.2
15869	14.938	1.2	0.1	2057.3
15870	14.839	1.2	0.1	2082.4
15871	14.739	1.2	0.1	2107.7
15872	14.639	1.2	0.1	2132.9
15873	14.54	1.2	0.1	2158.3
15874	14.44	1.2	0.1	2183.7
15875	14.341	1.2	0.1	2209.1
15876	14.241	1.2	0.1	2234.6
15877	14.142	1.2	0.1	2260.2
15878	14.042	1.2	0.1	2285.8
15879	13.942	1.2	0.1	2311.4
15880	13.843	1.2	0.1	2337.1
15881	13.743	1.2	0.1	2362.9
15882	13.644	1.2	0.1	2388.7
15883	13.544	1.2	0.1	2414.6
15884	13.444	1.2	0.1	2440.5
15885	13.345	1.2	0.1	2466.4
15886	13.245	1.2	0.1	2492.4
15887	13.146	1.2	0.1	2518.4
15888	13.046	1.2	0.1	2544.4
15889	12.947	1.2	0.1	2570.5
15890	12.847	1.2	0.1	2596.5
15891	12.747	1.2	0.1	2622.6
15892	12.648	1.2	0.1	2648.7
15893	12.548	1.2	0.1	2674.8
15894	12.449	1.2	0.1	2700.8
15895	12.349	1.2	0.1	2726.8
15896	12.249	1.2	0.1	2752.8
15897	12.15	1.2	0.1	2778.7
15898	12.05	1.2	0.1	2804.5
15899	11.951	1.2	0.1	2830.2
15900	11.851	1.2	0.1	2855.7
15901	11.752	1.2	0.1	2881.1
15902	11.652	1.2	0.1	2906.2
15903	11.552	1.2	0.1	2931.1
15904	11.453	1.2	0.1	2955.7
15905	11.353	1.2	0.1	2979.8
15906	11.254	1.2	0.1	3003.6
15907	11.154	1.2	0.1	3026.8
15908	11.055	1.2	0.1	3049.5
15909	10.955	1.2	0.1	3071.4
15910	10.855	1.2	0.1	3092.5
15911	10.756	1.2	0.1	3112.7
15912	10.656	1.2	0.1	3131.7
15913	10.557	1.2	0.1	3149.6
15914	10.457	1.2	0.1	3166.
15915	10.357	1.2	0.1	3180.7
15916	10.258	1.2	0.1	3193.6
15917	10.158	1.2	0.1	3204.4
15918	10.059	1.2	0.1	3212.8
15919	9.9591	1.2	0.1	3218.6
15920	9.8595	1.2	0.1	3221.3
15921	9.76	1.2	0.1	3220.8
15922	9.6604	1.2	0.1	3216.5
15923	9.5608	1.2	0.1	3208.2
15924	9.4612	1.2	0.1	3195.5
15925	9.3616	1.2	0.1	3177.9
15926	9.2621	1.2	0.1	3155.
15927	9.1625	1.2	0.1	3126.5
15928	9.0629	1.2	0.1	3091.9
15929	8.9633	1.2	0.1	3050.9
15930	8.8637	1.2	0.1	3002.8
15931	8.7642	1.2	0.1	2947.2
15932	8.6646	1.2	0.1	2883.3
15933	8.565	1.2	0.1	2810.2
15934	8.4654	1.2	0.1	2727.3
15935	8.3658	1.2	0.1	2636.8
15936	8.2662	1.2	0.1	2622.3
15937	23.9	1.3	0.1	22.22
15938	23.801	1.3	0.1	42.645
15939	23.701	1.3	0.1	63.216
15940	23.602	1.3	0.1	83.75
15941	23.502	1.3	0.1	104.25
15942	23.403	1.3	0.1	124.73
15943	23.303	1.3	0.1	145.2
15944	23.203	1.3	0.1	165.7
15945	23.104	1.3	0.1	186.22
15946	23.004	1.3	0.1	206.77
15947	22.905	1.3	0.1	227.38
15948	22.805	1.3	0.1	248.03
15949	22.705	1.3	0.1	268.75
15950	22.606	1.3	0.1	289.52
15951	22.506	1.3	0.1	310.35
15952	22.407	1.3	0.1	331.24
15953	22.307	1.3	0.1	352.19
15954	22.208	1.3	0.1	373.2
15955	22.108	1.3	0.1	394.26
15956	22.008	1.3	0.1	415.39
15957	21.909	1.3	0.1	436.57
15958	21.809	1.3	0.1	457.81
15959	21.71	1.3	0.1	479.11
15960	21.61	1.3	0.1	500.46
15961	21.51	1.3	0.1	521.86
15962	21.411	1.3	0.1	543.32
15963	21.311	1.3	0.1	564.83
15964	21.212	1.3	0.1	586.4
15965	21.112	1.3	0.1	608.02
15966	21.013	1.3	0.1	629.69
15967	20.913	1.3	0.1	651.42
15968	20.813	1.3	0.1	673.2
15969	20.714	1.3	0.1	695.03
15970	20.614	1.3	0.1	716.92
15971	20.515	1.3	0.1	738.86
15972	20.415	1.3	0.1	760.86
15973	20.316	1.3	0.1	782.9
15974	20.216	1.3	0.1	805.
15975	20.116	1.3	0.1	827.16
15976	20.017	1.3	0.1	849.37
15977	19.917	1.3	0.1	871.63
15978	19.818	1.3	0.1	893.95
15979	19.718	1.3	0.1	916.32
15980	19.618	1.3	0.1	938.75
15981	19.519	1.3	0.1	961.23
15982	19.419	1.3	0.1	983.77
15983	19.32	1.3	0.1	1006.4
15984	19.22	1.3	0.1	1029.
15985	19.121	1.3	0.1	1051.7
15986	19.021	1.3	0.1	1074.5
15987	18.921	1.3	0.1	1097.3
15988	18.822	1.3	0.1	1120.1
15989	18.722	1.3	0.1	1143.1
15990	18.623	1.3	0.1	1166.1
15991	18.523	1.3	0.1	1189.1
15992	18.423	1.3	0.1	1212.2
15993	18.324	1.3	0.1	1235.3
15994	18.224	1.3	0.1	1258.5
15995	18.125	1.3	0.1	1281.8
15996	18.025	1.3	0.1	1305.1
15997	17.926	1.3	0.1	1328.5
15998	17.826	1.3	0.1	1351.9
15999	17.726	1.3	0.1	1375.4
16000	17.627	1.3	0.1	1399.
16001	17.527	1.3	0.1	1422.6
16002	17.428	1.3	0.1	1446.3
16003	17.328	1.3	0.1	1470.
16004	17.229	1.3	0.1	1493.7
16005	17.129	1.3	0.1	1517.6
16006	17.029	1.3	0.1	1541.5
16007	16.93	1.3	0.1	1565.4
16008	16.83	1.3	0.1	1589.4
16009	16.731	1.3	0.1	1613.5
16010	16.631	1.3	0.1	1637.6
16011	16.531	1.3	0.1	1661.8
16012	16.432	1.3	0.1	1686.
16013	16.332	1.3	0.1	1710.3
16014	16.233	1.3	0.1	1734.7
16015	16.133	1.3	0.1	1759.1
16016	16.034	1.3	0.1	1783.5
16017	15.934	1.3	0.1	1808.1
16018	15.834	1.3	0.1	1832.6
16019	15.735	1.3	0.1	1857.3
16020	15.635	1.3	0.1	1882.
16021	15.536	1.3	0.1	1906.7
16022	15.436	1.3	0.1	1931.5
16023	15.336	1.3	0.1	1956.4
16024	15.237	1.3	0.1	1981.3
16025	15.137	1.3	0.1	2006.3
16026	15.038	1.3	0.1	2031.3
16027	14.938	1.3	0.1	2056.4
16028	14.839	1.3	0.1	2081.6
16029	14.739	1.3	0.1	2106.8
16030	14.639	1.3	0.1	2132.1
16031	14.54	1.3	0.1	2157.4
16032	14.44	1.3	0.1	2182.8
16033	14.341	1.3	0.1	2208.2
16034	14.241	1.3	0.1	2233.7
16035	14.142	1.3	0.1	2259.2
16036	14.042	1.3	0.1	2284.8
16037	13.942	1.3	0.1	2310.5
16038	13.843	1.3	0.1	2336.2
16039	13.743	1.3	0.1	2362.
16040	13.644	1.3	0.1	2387.8
16041	13.544	1.3	0.1	2413.7
16042	13.444	1.3	0.1	2439.6
16043	13.345	1.3	0.1	2465.6
16044	13.245	1.3	0.1	2491.6
16045	13.146	1.3	0.1	2517.7
16046	13.046	1.3	0.1	2543.8
16047	12.947	1.3	0.1	2569.9
16048	12.847	1.3	0.1	2596.1
16049	12.747	1.3	0.1	2622.3
16050	12.648	1.3	0.1	2648.5
16051	12.548	1.3	0.1	2674.8
16052	12.449	1.3	0.1	2701.
16053	12.349	1.3	0.1	2727.3
16054	12.249	1.3	0.1	2753.5
16055	12.15	1.3	0.1	2779.8
16056	12.05	1.3	0.1	2806.
16057	11.951	1.3	0.1	2832.1
16058	11.851	1.3	0.1	2858.2
16059	11.752	1.3	0.1	2884.2
16060	11.652	1.3	0.1	2910.
16061	11.552	1.3	0.1	2935.7
16062	11.453	1.3	0.1	2961.2
16063	11.353	1.3	0.1	2986.5
16064	11.254	1.3	0.1	3011.5
16065	11.154	1.3	0.1	3036.2
16066	11.055	1.3	0.1	3060.5
16067	10.955	1.3	0.1	3084.4
16068	10.855	1.3	0.1	3107.7
16069	10.756	1.3	0.1	3130.3
16070	10.656	1.3	0.1	3152.3
16071	10.557	1.3	0.1	3173.3
16072	10.457	1.3	0.1	3193.4
16073	10.357	1.3	0.1	3212.4
16074	10.258	1.3	0.1	3230.2
16075	10.158	1.3	0.1	3246.5
16076	10.059	1.3	0.1	3261.2
16077	9.9591	1.3	0.1	3274.1
16078	9.8595	1.3	0.1	3285.
16079	9.76	1.3	0.1	3293.6
16080	9.6604	1.3	0.1	3299.9
16081	9.5608	1.3	0.1	3303.6
16082	9.4612	1.3	0.1	3304.4
16083	9.3616	1.3	0.1	3302.2
16084	9.2621	1.3	0.1	3296.7
16085	9.1625	1.3	0.1	3287.7
16086	9.0629	1.3	0.1	3274.8
16087	8.9633	1.3	0.1	3257.5
16088	8.8637	1.3	0.1	3234.9
16089	8.7642	1.3	0.1	3205.5
16090	8.6646	1.3	0.1	3167.
16091	8.565	1.3	0.1	3116.1
16092	8.4654	1.3	0.1	3048.7
16093	8.3658	1.3	0.1	2963.7
16094	8.2662	1.3	0.1	2953.7
16095	23.9	1.4	0.1	22.158
16096	23.801	1.4	0.1	42.673
16097	23.701	1.4	0.1	63.329
16098	23.602	1.4	0.1	83.948
16099	23.502	1.4	0.1	104.53
16100	23.403	1.4	0.1	125.08
16101	23.303	1.4	0.1	145.61
16102	23.203	1.4	0.1	166.16
16103	23.104	1.4	0.1	186.71
16104	23.004	1.4	0.1	207.3
16105	22.905	1.4	0.1	227.92
16106	22.805	1.4	0.1	248.58
16107	22.705	1.4	0.1	269.29
16108	22.606	1.4	0.1	290.05
16109	22.506	1.4	0.1	310.86
16110	22.407	1.4	0.1	331.73
16111	22.307	1.4	0.1	352.66
16112	22.208	1.4	0.1	373.64
16113	22.108	1.4	0.1	394.68
16114	22.008	1.4	0.1	415.77
16115	21.909	1.4	0.1	436.92
16116	21.809	1.4	0.1	458.13
16117	21.71	1.4	0.1	479.39
16118	21.61	1.4	0.1	500.71
16119	21.51	1.4	0.1	522.08
16120	21.411	1.4	0.1	543.51
16121	21.311	1.4	0.1	564.99
16122	21.212	1.4	0.1	586.52
16123	21.112	1.4	0.1	608.11
16124	21.013	1.4	0.1	629.76
16125	20.913	1.4	0.1	651.45
16126	20.813	1.4	0.1	673.21
16127	20.714	1.4	0.1	695.01
16128	20.614	1.4	0.1	716.87
16129	20.515	1.4	0.1	738.79
16130	20.415	1.4	0.1	760.76
16131	20.316	1.4	0.1	782.78
16132	20.216	1.4	0.1	804.86
16133	20.116	1.4	0.1	827.
16134	20.017	1.4	0.1	849.18
16135	19.917	1.4	0.1	871.43
16136	19.818	1.4	0.1	893.73
16137	19.718	1.4	0.1	916.08
16138	19.618	1.4	0.1	938.49
16139	19.519	1.4	0.1	960.96
16140	19.419	1.4	0.1	983.48
16141	19.32	1.4	0.1	1006.1
16142	19.22	1.4	0.1	1028.7
16143	19.121	1.4	0.1	1051.4
16144	19.021	1.4	0.1	1074.1
16145	18.921	1.4	0.1	1096.9
16146	18.822	1.4	0.1	1119.8
16147	18.722	1.4	0.1	1142.7
16148	18.623	1.4	0.1	1165.7
16149	18.523	1.4	0.1	1188.7
16150	18.423	1.4	0.1	1211.8
16151	18.324	1.4	0.1	1234.9
16152	18.224	1.4	0.1	1258.1
16153	18.125	1.4	0.1	1281.4
16154	18.025	1.4	0.1	1304.7
16155	17.926	1.4	0.1	1328.
16156	17.826	1.4	0.1	1351.5
16157	17.726	1.4	0.1	1374.9
16158	17.627	1.4	0.1	1398.5
16159	17.527	1.4	0.1	1422.1
16160	17.428	1.4	0.1	1445.7
16161	17.328	1.4	0.1	1469.4
16162	17.229	1.4	0.1	1493.2
16163	17.129	1.4	0.1	1517.
16164	17.029	1.4	0.1	1540.9
16165	16.93	1.4	0.1	1564.9
16166	16.83	1.4	0.1	1588.9
16167	16.731	1.4	0.1	1612.9
16168	16.631	1.4	0.1	1637.
16169	16.531	1.4	0.1	1661.2
16170	16.432	1.4	0.1	1685.4
16171	16.332	1.4	0.1	1709.7
16172	16.233	1.4	0.1	1734.
16173	16.133	1.4	0.1	1758.4
16174	16.034	1.4	0.1	1782.9
16175	15.934	1.4	0.1	1807.4
16176	15.834	1.4	0.1	1831.9
16177	15.735	1.4	0.1	1856.6
16178	15.635	1.4	0.1	1881.3
16179	15.536	1.4	0.1	1906.
16180	15.436	1.4	0.1	1930.8
16181	15.336	1.4	0.1	1955.6
16182	15.237	1.4	0.1	1980.6
16183	15.137	1.4	0.1	2005.5
16184	15.038	1.4	0.1	2030.5
16185	14.938	1.4	0.1	2055.6
16186	14.839	1.4	0.1	2080.8
16187	14.739	1.4	0.1	2106.
16188	14.639	1.4	0.1	2131.2
16189	14.54	1.4	0.1	2156.5
16190	14.44	1.4	0.1	2181.9
16191	14.341	1.4	0.1	2207.3
16192	14.241	1.4	0.1	2232.8
16193	14.142	1.4	0.1	2258.4
16194	14.042	1.4	0.1	2284.
16195	13.942	1.4	0.1	2309.6
16196	13.843	1.4	0.1	2335.4
16197	13.743	1.4	0.1	2361.1
16198	13.644	1.4	0.1	2387.
16199	13.544	1.4	0.1	2412.9
16200	13.444	1.4	0.1	2438.8
16201	13.345	1.4	0.1	2464.8
16202	13.245	1.4	0.1	2490.9
16203	13.146	1.4	0.1	2517.
16204	13.046	1.4	0.1	2543.2
16205	12.947	1.4	0.1	2569.4
16206	12.847	1.4	0.1	2595.7
16207	12.747	1.4	0.1	2622.
16208	12.648	1.4	0.1	2648.4
16209	12.548	1.4	0.1	2674.8
16210	12.449	1.4	0.1	2701.3
16211	12.349	1.4	0.1	2727.8
16212	12.249	1.4	0.1	2754.3
16213	12.15	1.4	0.1	2780.9
16214	12.05	1.4	0.1	2807.5
16215	11.951	1.4	0.1	2834.1
16216	11.851	1.4	0.1	2860.7
16217	11.752	1.4	0.1	2887.3
16218	11.652	1.4	0.1	2913.9
16219	11.552	1.4	0.1	2940.4
16220	11.453	1.4	0.1	2966.9
16221	11.353	1.4	0.1	2993.3
16222	11.254	1.4	0.1	3019.6
16223	11.154	1.4	0.1	3045.8
16224	11.055	1.4	0.1	3071.8
16225	10.955	1.4	0.1	3097.6
16226	10.855	1.4	0.1	3123.1
16227	10.756	1.4	0.1	3148.3
16228	10.656	1.4	0.1	3173.2
16229	10.557	1.4	0.1	3197.6
16230	10.457	1.4	0.1	3221.5
16231	10.357	1.4	0.1	3244.9
16232	10.258	1.4	0.1	3267.7
16233	10.158	1.4	0.1	3289.7
16234	10.059	1.4	0.1	3310.9
16235	9.9591	1.4	0.1	3331.2
16236	9.8595	1.4	0.1	3350.6
16237	9.76	1.4	0.1	3368.9
16238	9.6604	1.4	0.1	3386.3
16239	9.5608	1.4	0.1	3402.6
16240	9.4612	1.4	0.1	3417.8
16241	9.3616	1.4	0.1	3432.1
16242	9.2621	1.4	0.1	3445.4
16243	9.1625	1.4	0.1	3457.9
16244	9.0629	1.4	0.1	3469.3
16245	8.9633	1.4	0.1	3479.3
16246	8.8637	1.4	0.1	3486.9
16247	8.7642	1.4	0.1	3490.2
16248	8.6646	1.4	0.1	3485.4
16249	8.565	1.4	0.1	3466.3
16250	8.4654	1.4	0.1	3424.
16251	8.3658	1.4	0.1	3351.
16252	8.2662	1.4	0.1	3347.4
16253	23.9	1.5	0.1	22.096
16254	23.801	1.5	0.1	42.69
16255	23.701	1.5	0.1	63.421
16256	23.602	1.5	0.1	84.115
16257	23.502	1.5	0.1	104.76
16258	23.403	1.5	0.1	125.38
16259	23.303	1.5	0.1	145.98
16260	23.203	1.5	0.1	166.57
16261	23.104	1.5	0.1	187.16
16262	23.004	1.5	0.1	207.77
16263	22.905	1.5	0.1	228.41
16264	22.805	1.5	0.1	249.08
16265	22.705	1.5	0.1	269.8
16266	22.606	1.5	0.1	290.55
16267	22.506	1.5	0.1	311.36
16268	22.407	1.5	0.1	332.21
16269	22.307	1.5	0.1	353.12
16270	22.208	1.5	0.1	374.08
16271	22.108	1.5	0.1	395.09
16272	22.008	1.5	0.1	416.16
16273	21.909	1.5	0.1	437.28
16274	21.809	1.5	0.1	458.46
16275	21.71	1.5	0.1	479.69
16276	21.61	1.5	0.1	500.97
16277	21.51	1.5	0.1	522.32
16278	21.411	1.5	0.1	543.71
16279	21.311	1.5	0.1	565.16
16280	21.212	1.5	0.1	586.67
16281	21.112	1.5	0.1	608.23
16282	21.013	1.5	0.1	629.84
16283	20.913	1.5	0.1	651.51
16284	20.813	1.5	0.1	673.24
16285	20.714	1.5	0.1	695.02
16286	20.614	1.5	0.1	716.86
16287	20.515	1.5	0.1	738.75
16288	20.415	1.5	0.1	760.69
16289	20.316	1.5	0.1	782.69
16290	20.216	1.5	0.1	804.75
16291	20.116	1.5	0.1	826.86
16292	20.017	1.5	0.1	849.03
16293	19.917	1.5	0.1	871.26
16294	19.818	1.5	0.1	893.54
16295	19.718	1.5	0.1	915.87
16296	19.618	1.5	0.1	938.27
16297	19.519	1.5	0.1	960.72
16298	19.419	1.5	0.1	983.22
16299	19.32	1.5	0.1	1005.8
16300	19.22	1.5	0.1	1028.4
16301	19.121	1.5	0.1	1051.1
16302	19.021	1.5	0.1	1073.8
16303	18.921	1.5	0.1	1096.6
16304	18.822	1.5	0.1	1119.4
16305	18.722	1.5	0.1	1142.3
16306	18.623	1.5	0.1	1165.3
16307	18.523	1.5	0.1	1188.3
16308	18.423	1.5	0.1	1211.4
16309	18.324	1.5	0.1	1234.5
16310	18.224	1.5	0.1	1257.7
16311	18.125	1.5	0.1	1281.
16312	18.025	1.5	0.1	1304.3
16313	17.926	1.5	0.1	1327.6
16314	17.826	1.5	0.1	1351.
16315	17.726	1.5	0.1	1374.5
16316	17.627	1.5	0.1	1398.
16317	17.527	1.5	0.1	1421.6
16318	17.428	1.5	0.1	1445.3
16319	17.328	1.5	0.1	1469.
16320	17.229	1.5	0.1	1492.7
16321	17.129	1.5	0.1	1516.5
16322	17.029	1.5	0.1	1540.4
16323	16.93	1.5	0.1	1564.3
16324	16.83	1.5	0.1	1588.3
16325	16.731	1.5	0.1	1612.4
16326	16.631	1.5	0.1	1636.5
16327	16.531	1.5	0.1	1660.6
16328	16.432	1.5	0.1	1684.8
16329	16.332	1.5	0.1	1709.1
16330	16.233	1.5	0.1	1733.4
16331	16.133	1.5	0.1	1757.8
16332	16.034	1.5	0.1	1782.3
16333	15.934	1.5	0.1	1806.8
16334	15.834	1.5	0.1	1831.3
16335	15.735	1.5	0.1	1855.9
16336	15.635	1.5	0.1	1880.6
16337	15.536	1.5	0.1	1905.3
16338	15.436	1.5	0.1	1930.1
16339	15.336	1.5	0.1	1954.9
16340	15.237	1.5	0.1	1979.8
16341	15.137	1.5	0.1	2004.8
16342	15.038	1.5	0.1	2029.8
16343	14.938	1.5	0.1	2054.9
16344	14.839	1.5	0.1	2080.
16345	14.739	1.5	0.1	2105.2
16346	14.639	1.5	0.1	2130.4
16347	14.54	1.5	0.1	2155.7
16348	14.44	1.5	0.1	2181.1
16349	14.341	1.5	0.1	2206.5
16350	14.241	1.5	0.1	2232.
16351	14.142	1.5	0.1	2257.5
16352	14.042	1.5	0.1	2283.1
16353	13.942	1.5	0.1	2308.8
16354	13.843	1.5	0.1	2334.5
16355	13.743	1.5	0.1	2360.3
16356	13.644	1.5	0.1	2386.2
16357	13.544	1.5	0.1	2412.1
16358	13.444	1.5	0.1	2438.
16359	13.345	1.5	0.1	2464.1
16360	13.245	1.5	0.1	2490.2
16361	13.146	1.5	0.1	2516.3
16362	13.046	1.5	0.1	2542.6
16363	12.947	1.5	0.1	2568.9
16364	12.847	1.5	0.1	2595.3
16365	12.747	1.5	0.1	2621.7
16366	12.648	1.5	0.1	2648.3
16367	12.548	1.5	0.1	2674.9
16368	12.449	1.5	0.1	2701.5
16369	12.349	1.5	0.1	2728.3
16370	12.249	1.5	0.1	2755.1
16371	12.15	1.5	0.1	2782.
16372	12.05	1.5	0.1	2809.
16373	11.951	1.5	0.1	2836.1
16374	11.851	1.5	0.1	2863.2
16375	11.752	1.5	0.1	2890.4
16376	11.652	1.5	0.1	2917.8
16377	11.552	1.5	0.1	2945.1
16378	11.453	1.5	0.1	2972.6
16379	11.353	1.5	0.1	3000.1
16380	11.254	1.5	0.1	3027.7
16381	11.154	1.5	0.1	3055.4
16382	11.055	1.5	0.1	3083.1
16383	10.955	1.5	0.1	3110.8
16384	10.855	1.5	0.1	3138.6
16385	10.756	1.5	0.1	3166.5
16386	10.656	1.5	0.1	3194.3
16387	10.557	1.5	0.1	3222.1
16388	10.457	1.5	0.1	3250.
16389	10.357	1.5	0.1	3277.8
16390	10.258	1.5	0.1	3305.7
16391	10.158	1.5	0.1	3333.5
16392	10.059	1.5	0.1	3361.4
16393	9.9591	1.5	0.1	3389.4
16394	9.8595	1.5	0.1	3417.5
16395	9.76	1.5	0.1	3445.9
16396	9.6604	1.5	0.1	3474.7
16397	9.5608	1.5	0.1	3504.1
16398	9.4612	1.5	0.1	3534.5
16399	9.3616	1.5	0.1	3566.2
16400	9.2621	1.5	0.1	3599.7
16401	9.1625	1.5	0.1	3635.3
16402	9.0629	1.5	0.1	3673.5
16403	8.9633	1.5	0.1	3714.6
16404	8.8637	1.5	0.1	3757.9
16405	8.7642	1.5	0.1	3801.9
16406	8.6646	1.5	0.1	3842.1
16407	8.565	1.5	0.1	3869.9
16408	8.4654	1.5	0.1	3870.
16409	8.3658	1.5	0.1	3823.2
16410	8.2662	1.5	0.1	3832.3
16411	23.9	1.6	0.1	22.035
16412	23.801	1.6	0.1	42.698
16413	23.701	1.6	0.1	63.495
16414	23.602	1.6	0.1	84.255
16415	23.502	1.6	0.1	104.97
16416	23.403	1.6	0.1	125.65
16417	23.303	1.6	0.1	146.3
16418	23.203	1.6	0.1	166.93
16419	23.104	1.6	0.1	187.56
16420	23.004	1.6	0.1	208.21
16421	22.905	1.6	0.1	228.87
16422	22.805	1.6	0.1	249.55
16423	22.705	1.6	0.1	270.27
16424	22.606	1.6	0.1	291.03
16425	22.506	1.6	0.1	311.83
16426	22.407	1.6	0.1	332.67
16427	22.307	1.6	0.1	353.56
16428	22.208	1.6	0.1	374.5
16429	22.108	1.6	0.1	395.5
16430	22.008	1.6	0.1	416.54
16431	21.909	1.6	0.1	437.64
16432	21.809	1.6	0.1	458.79
16433	21.71	1.6	0.1	479.99
16434	21.61	1.6	0.1	501.25
16435	21.51	1.6	0.1	522.56
16436	21.411	1.6	0.1	543.93
16437	21.311	1.6	0.1	565.35
16438	21.212	1.6	0.1	586.83
16439	21.112	1.6	0.1	608.36
16440	21.013	1.6	0.1	629.95
16441	20.913	1.6	0.1	651.59
16442	20.813	1.6	0.1	673.29
16443	20.714	1.6	0.1	695.05
16444	20.614	1.6	0.1	716.86
16445	20.515	1.6	0.1	738.73
16446	20.415	1.6	0.1	760.65
16447	20.316	1.6	0.1	782.63
16448	20.216	1.6	0.1	804.67
16449	20.116	1.6	0.1	826.76
16450	20.017	1.6	0.1	848.91
16451	19.917	1.6	0.1	871.11
16452	19.818	1.6	0.1	893.38
16453	19.718	1.6	0.1	915.7
16454	19.618	1.6	0.1	938.07
16455	19.519	1.6	0.1	960.51
16456	19.419	1.6	0.1	983.
16457	19.32	1.6	0.1	1005.5
16458	19.22	1.6	0.1	1028.1
16459	19.121	1.6	0.1	1050.8
16460	19.021	1.6	0.1	1073.5
16461	18.921	1.6	0.1	1096.3
16462	18.822	1.6	0.1	1119.1
16463	18.722	1.6	0.1	1142.
16464	18.623	1.6	0.1	1165.
16465	18.523	1.6	0.1	1188.
16466	18.423	1.6	0.1	1211.
16467	18.324	1.6	0.1	1234.2
16468	18.224	1.6	0.1	1257.3
16469	18.125	1.6	0.1	1280.6
16470	18.025	1.6	0.1	1303.9
16471	17.926	1.6	0.1	1327.2
16472	17.826	1.6	0.1	1350.6
16473	17.726	1.6	0.1	1374.1
16474	17.627	1.6	0.1	1397.6
16475	17.527	1.6	0.1	1421.2
16476	17.428	1.6	0.1	1444.8
16477	17.328	1.6	0.1	1468.5
16478	17.229	1.6	0.1	1492.3
16479	17.129	1.6	0.1	1516.1
16480	17.029	1.6	0.1	1539.9
16481	16.93	1.6	0.1	1563.8
16482	16.83	1.6	0.1	1587.8
16483	16.731	1.6	0.1	1611.9
16484	16.631	1.6	0.1	1635.9
16485	16.531	1.6	0.1	1660.1
16486	16.432	1.6	0.1	1684.3
16487	16.332	1.6	0.1	1708.6
16488	16.233	1.6	0.1	1732.9
16489	16.133	1.6	0.1	1757.2
16490	16.034	1.6	0.1	1781.7
16491	15.934	1.6	0.1	1806.2
16492	15.834	1.6	0.1	1830.7
16493	15.735	1.6	0.1	1855.3
16494	15.635	1.6	0.1	1880.
16495	15.536	1.6	0.1	1904.7
16496	15.436	1.6	0.1	1929.5
16497	15.336	1.6	0.1	1954.3
16498	15.237	1.6	0.1	1979.2
16499	15.137	1.6	0.1	2004.1
16500	15.038	1.6	0.1	2029.1
16501	14.938	1.6	0.1	2054.2
16502	14.839	1.6	0.1	2079.3
16503	14.739	1.6	0.1	2104.5
16504	14.639	1.6	0.1	2129.7
16505	14.54	1.6	0.1	2155.
16506	14.44	1.6	0.1	2180.3
16507	14.341	1.6	0.1	2205.7
16508	14.241	1.6	0.1	2231.2
16509	14.142	1.6	0.1	2256.8
16510	14.042	1.6	0.1	2282.3
16511	13.942	1.6	0.1	2308.
16512	13.843	1.6	0.1	2333.7
16513	13.743	1.6	0.1	2359.5
16514	13.644	1.6	0.1	2385.4
16515	13.544	1.6	0.1	2411.3
16516	13.444	1.6	0.1	2437.3
16517	13.345	1.6	0.1	2463.4
16518	13.245	1.6	0.1	2489.5
16519	13.146	1.6	0.1	2515.7
16520	13.046	1.6	0.1	2542.1
16521	12.947	1.6	0.1	2568.4
16522	12.847	1.6	0.1	2594.9
16523	12.747	1.6	0.1	2621.5
16524	12.648	1.6	0.1	2648.2
16525	12.548	1.6	0.1	2674.9
16526	12.449	1.6	0.1	2701.8
16527	12.349	1.6	0.1	2728.8
16528	12.249	1.6	0.1	2755.9
16529	12.15	1.6	0.1	2783.2
16530	12.05	1.6	0.1	2810.5
16531	11.951	1.6	0.1	2838.1
16532	11.851	1.6	0.1	2865.7
16533	11.752	1.6	0.1	2893.6
16534	11.652	1.6	0.1	2921.6
16535	11.552	1.6	0.1	2949.8
16536	11.453	1.6	0.1	2978.2
16537	11.353	1.6	0.1	3006.9
16538	11.254	1.6	0.1	3035.8
16539	11.154	1.6	0.1	3064.9
16540	11.055	1.6	0.1	3094.4
16541	10.955	1.6	0.1	3124.1
16542	10.855	1.6	0.1	3154.2
16543	10.756	1.6	0.1	3184.6
16544	10.656	1.6	0.1	3215.4
16545	10.557	1.6	0.1	3246.7
16546	10.457	1.6	0.1	3278.5
16547	10.357	1.6	0.1	3310.8
16548	10.258	1.6	0.1	3343.9
16549	10.158	1.6	0.1	3377.6
16550	10.059	1.6	0.1	3412.3
16551	9.9591	1.6	0.1	3448.
16552	9.8595	1.6	0.1	3485.1
16553	9.76	1.6	0.1	3523.7
16554	9.6604	1.6	0.1	3564.2
16555	9.5608	1.6	0.1	3607.2
16556	9.4612	1.6	0.1	3653.3
16557	9.3616	1.6	0.1	3703.1
16558	9.2621	1.6	0.1	3757.6
16559	9.1625	1.6	0.1	3818.
16560	9.0629	1.6	0.1	3885.3
16561	8.9633	1.6	0.1	3960.8
16562	8.8637	1.6	0.1	4045.5
16563	8.7642	1.6	0.1	4138.9
16564	8.6646	1.6	0.1	4238.4
16565	8.565	1.6	0.1	4335.
16566	8.4654	1.6	0.1	4407.6
16567	8.3658	1.6	0.1	4419.2
16568	8.2662	1.6	0.1	4456.6
16569	23.9	1.7	0.1	21.977
16570	23.801	1.7	0.1	42.7
16571	23.701	1.7	0.1	63.555
16572	23.602	1.7	0.1	84.374
16573	23.502	1.7	0.1	105.15
16574	23.403	1.7	0.1	125.88
16575	23.303	1.7	0.1	146.58
16576	23.203	1.7	0.1	167.25
16577	23.104	1.7	0.1	187.93
16578	23.004	1.7	0.1	208.6
16579	22.905	1.7	0.1	229.28
16580	22.805	1.7	0.1	249.98
16581	22.705	1.7	0.1	270.71
16582	22.606	1.7	0.1	291.47
16583	22.506	1.7	0.1	312.27
16584	22.407	1.7	0.1	333.11
16585	22.307	1.7	0.1	353.99
16586	22.208	1.7	0.1	374.91
16587	22.108	1.7	0.1	395.89
16588	22.008	1.7	0.1	416.91
16589	21.909	1.7	0.1	437.98
16590	21.809	1.7	0.1	459.11
16591	21.71	1.7	0.1	480.29
16592	21.61	1.7	0.1	501.52
16593	21.51	1.7	0.1	522.81
16594	21.411	1.7	0.1	544.15
16595	21.311	1.7	0.1	565.55
16596	21.212	1.7	0.1	587.
16597	21.112	1.7	0.1	608.51
16598	21.013	1.7	0.1	630.07
16599	20.913	1.7	0.1	651.69
16600	20.813	1.7	0.1	673.36
16601	20.714	1.7	0.1	695.1
16602	20.614	1.7	0.1	716.88
16603	20.515	1.7	0.1	738.73
16604	20.415	1.7	0.1	760.63
16605	20.316	1.7	0.1	782.59
16606	20.216	1.7	0.1	804.61
16607	20.116	1.7	0.1	826.68
16608	20.017	1.7	0.1	848.81
16609	19.917	1.7	0.1	871.
16610	19.818	1.7	0.1	893.24
16611	19.718	1.7	0.1	915.54
16612	19.618	1.7	0.1	937.9
16613	19.519	1.7	0.1	960.32
16614	19.419	1.7	0.1	982.8
16615	19.32	1.7	0.1	1005.3
16616	19.22	1.7	0.1	1027.9
16617	19.121	1.7	0.1	1050.6
16618	19.021	1.7	0.1	1073.3
16619	18.921	1.7	0.1	1096.
16620	18.822	1.7	0.1	1118.9
16621	18.722	1.7	0.1	1141.7
16622	18.623	1.7	0.1	1164.7
16623	18.523	1.7	0.1	1187.7
16624	18.423	1.7	0.1	1210.7
16625	18.324	1.7	0.1	1233.8
16626	18.224	1.7	0.1	1257.
16627	18.125	1.7	0.1	1280.2
16628	18.025	1.7	0.1	1303.5
16629	17.926	1.7	0.1	1326.8
16630	17.826	1.7	0.1	1350.2
16631	17.726	1.7	0.1	1373.7
16632	17.627	1.7	0.1	1397.2
16633	17.527	1.7	0.1	1420.8
16634	17.428	1.7	0.1	1444.4
16635	17.328	1.7	0.1	1468.1
16636	17.229	1.7	0.1	1491.8
16637	17.129	1.7	0.1	1515.6
16638	17.029	1.7	0.1	1539.5
16639	16.93	1.7	0.1	1563.4
16640	16.83	1.7	0.1	1587.4
16641	16.731	1.7	0.1	1611.4
16642	16.631	1.7	0.1	1635.5
16643	16.531	1.7	0.1	1659.6
16644	16.432	1.7	0.1	1683.8
16645	16.332	1.7	0.1	1708.
16646	16.233	1.7	0.1	1732.4
16647	16.133	1.7	0.1	1756.7
16648	16.034	1.7	0.1	1781.1
16649	15.934	1.7	0.1	1805.6
16650	15.834	1.7	0.1	1830.1
16651	15.735	1.7	0.1	1854.7
16652	15.635	1.7	0.1	1879.4
16653	15.536	1.7	0.1	1904.1
16654	15.436	1.7	0.1	1928.8
16655	15.336	1.7	0.1	1953.7
16656	15.237	1.7	0.1	1978.5
16657	15.137	1.7	0.1	2003.5
16658	15.038	1.7	0.1	2028.5
16659	14.938	1.7	0.1	2053.5
16660	14.839	1.7	0.1	2078.6
16661	14.739	1.7	0.1	2103.8
16662	14.639	1.7	0.1	2129.
16663	14.54	1.7	0.1	2154.3
16664	14.44	1.7	0.1	2179.6
16665	14.341	1.7	0.1	2205.
16666	14.241	1.7	0.1	2230.5
16667	14.142	1.7	0.1	2256.
16668	14.042	1.7	0.1	2281.6
16669	13.942	1.7	0.1	2307.3
16670	13.843	1.7	0.1	2333.
16671	13.743	1.7	0.1	2358.8
16672	13.644	1.7	0.1	2384.7
16673	13.544	1.7	0.1	2410.6
16674	13.444	1.7	0.1	2436.6
16675	13.345	1.7	0.1	2462.7
16676	13.245	1.7	0.1	2488.9
16677	13.146	1.7	0.1	2515.2
16678	13.046	1.7	0.1	2541.6
16679	12.947	1.7	0.1	2568.
16680	12.847	1.7	0.1	2594.6
16681	12.747	1.7	0.1	2621.3
16682	12.648	1.7	0.1	2648.1
16683	12.548	1.7	0.1	2675.
16684	12.449	1.7	0.1	2702.1
16685	12.349	1.7	0.1	2729.3
16686	12.249	1.7	0.1	2756.7
16687	12.15	1.7	0.1	2784.3
16688	12.05	1.7	0.1	2812.
16689	11.951	1.7	0.1	2840.
16690	11.851	1.7	0.1	2868.2
16691	11.752	1.7	0.1	2896.7
16692	11.652	1.7	0.1	2925.4
16693	11.552	1.7	0.1	2954.4
16694	11.453	1.7	0.1	2983.8
16695	11.353	1.7	0.1	3013.6
16696	11.254	1.7	0.1	3043.7
16697	11.154	1.7	0.1	3074.4
16698	11.055	1.7	0.1	3105.5
16699	10.955	1.7	0.1	3137.2
16700	10.855	1.7	0.1	3169.5
16701	10.756	1.7	0.1	3202.5
16702	10.656	1.7	0.1	3236.3
16703	10.557	1.7	0.1	3271.1
16704	10.457	1.7	0.1	3306.8
16705	10.357	1.7	0.1	3343.7
16706	10.258	1.7	0.1	3381.8
16707	10.158	1.7	0.1	3421.6
16708	10.059	1.7	0.1	3463.
16709	9.9591	1.7	0.1	3506.6
16710	9.8595	1.7	0.1	3552.6
16711	9.76	1.7	0.1	3601.6
16712	9.6604	1.7	0.1	3654.
16713	9.5608	1.7	0.1	3710.8
16714	9.4612	1.7	0.1	3772.7
16715	9.3616	1.7	0.1	3841.1
16716	9.2621	1.7	0.1	3917.4
16717	9.1625	1.7	0.1	4003.5
16718	9.0629	1.7	0.1	4101.6
16719	8.9633	1.7	0.1	4214.4
16720	8.8637	1.7	0.1	4345.2
16721	8.7642	1.7	0.1	4496.8
16722	8.6646	1.7	0.1	4671.2
16723	8.565	1.7	0.1	4865.3
16724	8.4654	1.7	0.1	5062.3
16725	8.3658	1.7	0.1	5201.5
16726	8.2662	1.7	0.1	5329.9
16727	23.9	1.8	0.1	21.921
16728	23.801	1.8	0.1	42.697
16729	23.701	1.8	0.1	63.603
16730	23.602	1.8	0.1	84.474
16731	23.502	1.8	0.1	105.3
16732	23.403	1.8	0.1	126.08
16733	23.303	1.8	0.1	146.82
16734	23.203	1.8	0.1	167.54
16735	23.104	1.8	0.1	188.25
16736	23.004	1.8	0.1	208.95
16737	22.905	1.8	0.1	229.66
16738	22.805	1.8	0.1	250.38
16739	22.705	1.8	0.1	271.12
16740	22.606	1.8	0.1	291.88
16741	22.506	1.8	0.1	312.68
16742	22.407	1.8	0.1	333.51
16743	22.307	1.8	0.1	354.38
16744	22.208	1.8	0.1	375.3
16745	22.108	1.8	0.1	396.26
16746	22.008	1.8	0.1	417.26
16747	21.909	1.8	0.1	438.32
16748	21.809	1.8	0.1	459.43
16749	21.71	1.8	0.1	480.58
16750	21.61	1.8	0.1	501.79
16751	21.51	1.8	0.1	523.06
16752	21.411	1.8	0.1	544.38
16753	21.311	1.8	0.1	565.75
16754	21.212	1.8	0.1	587.18
16755	21.112	1.8	0.1	608.66
16756	21.013	1.8	0.1	630.2
16757	20.913	1.8	0.1	651.79
16758	20.813	1.8	0.1	673.45
16759	20.714	1.8	0.1	695.16
16760	20.614	1.8	0.1	716.92
16761	20.515	1.8	0.1	738.75
16762	20.415	1.8	0.1	760.63
16763	20.316	1.8	0.1	782.57
16764	20.216	1.8	0.1	804.56
16765	20.116	1.8	0.1	826.62
16766	20.017	1.8	0.1	848.73
16767	19.917	1.8	0.1	870.9
16768	19.818	1.8	0.1	893.13
16769	19.718	1.8	0.1	915.42
16770	19.618	1.8	0.1	937.76
16771	19.519	1.8	0.1	960.16
16772	19.419	1.8	0.1	982.62
16773	19.32	1.8	0.1	1005.1
16774	19.22	1.8	0.1	1027.7
16775	19.121	1.8	0.1	1050.4
16776	19.021	1.8	0.1	1073.1
16777	18.921	1.8	0.1	1095.8
16778	18.822	1.8	0.1	1118.6
16779	18.722	1.8	0.1	1141.5
16780	18.623	1.8	0.1	1164.4
16781	18.523	1.8	0.1	1187.4
16782	18.423	1.8	0.1	1210.4
16783	18.324	1.8	0.1	1233.5
16784	18.224	1.8	0.1	1256.7
16785	18.125	1.8	0.1	1279.9
16786	18.025	1.8	0.1	1303.2
16787	17.926	1.8	0.1	1326.5
16788	17.826	1.8	0.1	1349.9
16789	17.726	1.8	0.1	1373.3
16790	17.627	1.8	0.1	1396.8
16791	17.527	1.8	0.1	1420.4
16792	17.428	1.8	0.1	1444.
16793	17.328	1.8	0.1	1467.7
16794	17.229	1.8	0.1	1491.4
16795	17.129	1.8	0.1	1515.2
16796	17.029	1.8	0.1	1539.1
16797	16.93	1.8	0.1	1563.
16798	16.83	1.8	0.1	1586.9
16799	16.731	1.8	0.1	1610.9
16800	16.631	1.8	0.1	1635.
16801	16.531	1.8	0.1	1659.1
16802	16.432	1.8	0.1	1683.3
16803	16.332	1.8	0.1	1707.6
16804	16.233	1.8	0.1	1731.9
16805	16.133	1.8	0.1	1756.2
16806	16.034	1.8	0.1	1780.6
16807	15.934	1.8	0.1	1805.1
16808	15.834	1.8	0.1	1829.6
16809	15.735	1.8	0.1	1854.2
16810	15.635	1.8	0.1	1878.8
16811	15.536	1.8	0.1	1903.5
16812	15.436	1.8	0.1	1928.3
16813	15.336	1.8	0.1	1953.1
16814	15.237	1.8	0.1	1977.9
16815	15.137	1.8	0.1	2002.9
16816	15.038	1.8	0.1	2027.8
16817	14.938	1.8	0.1	2052.9
16818	14.839	1.8	0.1	2078.
16819	14.739	1.8	0.1	2103.1
16820	14.639	1.8	0.1	2128.3
16821	14.54	1.8	0.1	2153.6
16822	14.44	1.8	0.1	2178.9
16823	14.341	1.8	0.1	2204.3
16824	14.241	1.8	0.1	2229.8
16825	14.142	1.8	0.1	2255.3
16826	14.042	1.8	0.1	2280.9
16827	13.942	1.8	0.1	2306.6
16828	13.843	1.8	0.1	2332.3
16829	13.743	1.8	0.1	2358.1
16830	13.644	1.8	0.1	2384.
16831	13.544	1.8	0.1	2409.9
16832	13.444	1.8	0.1	2436.
16833	13.345	1.8	0.1	2462.1
16834	13.245	1.8	0.1	2488.3
16835	13.146	1.8	0.1	2514.7
16836	13.046	1.8	0.1	2541.1
16837	12.947	1.8	0.1	2567.6
16838	12.847	1.8	0.1	2594.3
16839	12.747	1.8	0.1	2621.1
16840	12.648	1.8	0.1	2648.
16841	12.548	1.8	0.1	2675.1
16842	12.449	1.8	0.1	2702.4
16843	12.349	1.8	0.1	2729.9
16844	12.249	1.8	0.1	2757.5
16845	12.15	1.8	0.1	2785.4
16846	12.05	1.8	0.1	2813.5
16847	11.951	1.8	0.1	2841.9
16848	11.851	1.8	0.1	2870.6
16849	11.752	1.8	0.1	2899.7
16850	11.652	1.8	0.1	2929.1
16851	11.552	1.8	0.1	2958.9
16852	11.453	1.8	0.1	2989.2
16853	11.353	1.8	0.1	3020.1
16854	11.254	1.8	0.1	3051.5
16855	11.154	1.8	0.1	3083.5
16856	11.055	1.8	0.1	3116.3
16857	10.955	1.8	0.1	3150.
16858	10.855	1.8	0.1	3184.5
16859	10.756	1.8	0.1	3220.1
16860	10.656	1.8	0.1	3256.9
16861	10.557	1.8	0.1	3295.
16862	10.457	1.8	0.1	3334.6
16863	10.357	1.8	0.1	3375.9
16864	10.258	1.8	0.1	3419.3
16865	10.158	1.8	0.1	3464.9
16866	10.059	1.8	0.1	3513.1
16867	9.9591	1.8	0.1	3564.5
16868	9.8595	1.8	0.1	3619.5
16869	9.76	1.8	0.1	3678.7
16870	9.6604	1.8	0.1	3743.1
16871	9.5608	1.8	0.1	3813.6
16872	9.4612	1.8	0.1	3891.5
16873	9.3616	1.8	0.1	3978.6
16874	9.2621	1.8	0.1	4076.9
16875	9.1625	1.8	0.1	4189.2
16876	9.0629	1.8	0.1	4319.
16877	8.9633	1.8	0.1	4470.9
16878	8.8637	1.8	0.1	4651.
16879	8.7642	1.8	0.1	4867.4
16880	8.6646	1.8	0.1	5130.4
16881	8.565	1.8	0.1	5452.2
16882	8.4654	1.8	0.1	5844.9
16883	8.3658	1.8	0.1	6249.8
16884	8.2662	1.8	0.1	6632.2
16885	23.9	1.9	0.1	21.868
16886	23.801	1.9	0.1	42.691
16887	23.701	1.9	0.1	63.642
16888	23.602	1.9	0.1	84.558
16889	23.502	1.9	0.1	105.43
16890	23.403	1.9	0.1	126.25
16891	23.303	1.9	0.1	147.04
16892	23.203	1.9	0.1	167.79
16893	23.104	1.9	0.1	188.53
16894	23.004	1.9	0.1	209.26
16895	22.905	1.9	0.1	229.99
16896	22.805	1.9	0.1	250.73
16897	22.705	1.9	0.1	271.48
16898	22.606	1.9	0.1	292.25
16899	22.506	1.9	0.1	313.05
16900	22.407	1.9	0.1	333.89
16901	22.307	1.9	0.1	354.75
16902	22.208	1.9	0.1	375.66
16903	22.108	1.9	0.1	396.61
16904	22.008	1.9	0.1	417.6
16905	21.909	1.9	0.1	438.64
16906	21.809	1.9	0.1	459.73
16907	21.71	1.9	0.1	480.87
16908	21.61	1.9	0.1	502.06
16909	21.51	1.9	0.1	523.3
16910	21.411	1.9	0.1	544.6
16911	21.311	1.9	0.1	565.95
16912	21.212	1.9	0.1	587.35
16913	21.112	1.9	0.1	608.81
16914	21.013	1.9	0.1	630.33
16915	20.913	1.9	0.1	651.91
16916	20.813	1.9	0.1	673.54
16917	20.714	1.9	0.1	695.22
16918	20.614	1.9	0.1	716.97
16919	20.515	1.9	0.1	738.78
16920	20.415	1.9	0.1	760.64
16921	20.316	1.9	0.1	782.56
16922	20.216	1.9	0.1	804.54
16923	20.116	1.9	0.1	826.57
16924	20.017	1.9	0.1	848.67
16925	19.917	1.9	0.1	870.82
16926	19.818	1.9	0.1	893.04
16927	19.718	1.9	0.1	915.31
16928	19.618	1.9	0.1	937.64
16929	19.519	1.9	0.1	960.03
16930	19.419	1.9	0.1	982.47
16931	19.32	1.9	0.1	1005.
16932	19.22	1.9	0.1	1027.5
16933	19.121	1.9	0.1	1050.2
16934	19.021	1.9	0.1	1072.9
16935	18.921	1.9	0.1	1095.6
16936	18.822	1.9	0.1	1118.4
16937	18.722	1.9	0.1	1141.2
16938	18.623	1.9	0.1	1164.2
16939	18.523	1.9	0.1	1187.1
16940	18.423	1.9	0.1	1210.2
16941	18.324	1.9	0.1	1233.3
16942	18.224	1.9	0.1	1256.4
16943	18.125	1.9	0.1	1279.6
16944	18.025	1.9	0.1	1302.9
16945	17.926	1.9	0.1	1326.2
16946	17.826	1.9	0.1	1349.6
16947	17.726	1.9	0.1	1373.
16948	17.627	1.9	0.1	1396.5
16949	17.527	1.9	0.1	1420.1
16950	17.428	1.9	0.1	1443.7
16951	17.328	1.9	0.1	1467.3
16952	17.229	1.9	0.1	1491.1
16953	17.129	1.9	0.1	1514.9
16954	17.029	1.9	0.1	1538.7
16955	16.93	1.9	0.1	1562.6
16956	16.83	1.9	0.1	1586.5
16957	16.731	1.9	0.1	1610.5
16958	16.631	1.9	0.1	1634.6
16959	16.531	1.9	0.1	1658.7
16960	16.432	1.9	0.1	1682.9
16961	16.332	1.9	0.1	1707.1
16962	16.233	1.9	0.1	1731.4
16963	16.133	1.9	0.1	1755.8
16964	16.034	1.9	0.1	1780.2
16965	15.934	1.9	0.1	1804.6
16966	15.834	1.9	0.1	1829.1
16967	15.735	1.9	0.1	1853.7
16968	15.635	1.9	0.1	1878.3
16969	15.536	1.9	0.1	1903.
16970	15.436	1.9	0.1	1927.8
16971	15.336	1.9	0.1	1952.6
16972	15.237	1.9	0.1	1977.4
16973	15.137	1.9	0.1	2002.3
16974	15.038	1.9	0.1	2027.3
16975	14.938	1.9	0.1	2052.3
16976	14.839	1.9	0.1	2077.4
16977	14.739	1.9	0.1	2102.5
16978	14.639	1.9	0.1	2127.7
16979	14.54	1.9	0.1	2153.
16980	14.44	1.9	0.1	2178.3
16981	14.341	1.9	0.1	2203.7
16982	14.241	1.9	0.1	2229.1
16983	14.142	1.9	0.1	2254.7
16984	14.042	1.9	0.1	2280.3
16985	13.942	1.9	0.1	2305.9
16986	13.843	1.9	0.1	2331.6
16987	13.743	1.9	0.1	2357.5
16988	13.644	1.9	0.1	2383.3
16989	13.544	1.9	0.1	2409.3
16990	13.444	1.9	0.1	2435.4
16991	13.345	1.9	0.1	2461.5
16992	13.245	1.9	0.1	2487.8
16993	13.146	1.9	0.1	2514.2
16994	13.046	1.9	0.1	2540.7
16995	12.947	1.9	0.1	2567.3
16996	12.847	1.9	0.1	2594.
16997	12.747	1.9	0.1	2620.9
16998	12.648	1.9	0.1	2648.
16999	12.548	1.9	0.1	2675.2
17000	12.449	1.9	0.1	2702.7
17001	12.349	1.9	0.1	2730.4
17002	12.249	1.9	0.1	2758.3
17003	12.15	1.9	0.1	2786.5
17004	12.05	1.9	0.1	2814.9
17005	11.951	1.9	0.1	2843.8
17006	11.851	1.9	0.1	2872.9
17007	11.752	1.9	0.1	2902.6
17008	11.652	1.9	0.1	2932.6
17009	11.552	1.9	0.1	2963.3
17010	11.453	1.9	0.1	2994.5
17011	11.353	1.9	0.1	3026.3
17012	11.254	1.9	0.1	3059.
17013	11.154	1.9	0.1	3092.4
17014	11.055	1.9	0.1	3126.8
17015	10.955	1.9	0.1	3162.3
17016	10.855	1.9	0.1	3199.
17017	10.756	1.9	0.1	3237.1
17018	10.656	1.9	0.1	3276.7
17019	10.557	1.9	0.1	3318.2
17020	10.457	1.9	0.1	3361.6
17021	10.357	1.9	0.1	3407.3
17022	10.258	1.9	0.1	3455.7
17023	10.158	1.9	0.1	3507.1
17024	10.059	1.9	0.1	3562.1
17025	9.9591	1.9	0.1	3621.1
17026	9.8595	1.9	0.1	3684.9
17027	9.76	1.9	0.1	3754.3
17028	9.6604	1.9	0.1	3830.4
17029	9.5608	1.9	0.1	3914.5
17030	9.4612	1.9	0.1	4008.3
17031	9.3616	1.9	0.1	4113.9
17032	9.2621	1.9	0.1	4234.
17033	9.1625	1.9	0.1	4372.3
17034	9.0629	1.9	0.1	4533.7
17035	8.9633	1.9	0.1	4724.9
17036	8.8637	1.9	0.1	4955.4
17037	8.7642	1.9	0.1	5239.1
17038	8.6646	1.9	0.1	5597.5
17039	8.565	1.9	0.1	6066.9
17040	8.4654	1.9	0.1	6710.2
17041	8.3658	1.9	0.1	7716.1
17042	8.2662	1.9	0.1	9557.8
17043	23.9	2.	0.1	21.819
17044	23.801	2.	0.1	42.683
17045	23.701	2.	0.1	63.673
17046	23.602	2.	0.1	84.629
17047	23.502	2.	0.1	105.54
17048	23.403	2.	0.1	126.4
17049	23.303	2.	0.1	147.22
17050	23.203	2.	0.1	168.02
17051	23.104	2.	0.1	188.79
17052	23.004	2.	0.1	209.54
17053	22.905	2.	0.1	230.29
17054	22.805	2.	0.1	251.05
17055	22.705	2.	0.1	271.81
17056	22.606	2.	0.1	292.59
17057	22.506	2.	0.1	313.4
17058	22.407	2.	0.1	334.23
17059	22.307	2.	0.1	355.09
17060	22.208	2.	0.1	375.99
17061	22.108	2.	0.1	396.93
17062	22.008	2.	0.1	417.91
17063	21.909	2.	0.1	438.94
17064	21.809	2.	0.1	460.01
17065	21.71	2.	0.1	481.13
17066	21.61	2.	0.1	502.31
17067	21.51	2.	0.1	523.53
17068	21.411	2.	0.1	544.81
17069	21.311	2.	0.1	566.14
17070	21.212	2.	0.1	587.52
17071	21.112	2.	0.1	608.97
17072	21.013	2.	0.1	630.46
17073	20.913	2.	0.1	652.02
17074	20.813	2.	0.1	673.63
17075	20.714	2.	0.1	695.3
17076	20.614	2.	0.1	717.03
17077	20.515	2.	0.1	738.81
17078	20.415	2.	0.1	760.66
17079	20.316	2.	0.1	782.56
17080	20.216	2.	0.1	804.52
17081	20.116	2.	0.1	826.54
17082	20.017	2.	0.1	848.62
17083	19.917	2.	0.1	870.76
17084	19.818	2.	0.1	892.96
17085	19.718	2.	0.1	915.22
17086	19.618	2.	0.1	937.53
17087	19.519	2.	0.1	959.91
17088	19.419	2.	0.1	982.34
17089	19.32	2.	0.1	1004.8
17090	19.22	2.	0.1	1027.4
17091	19.121	2.	0.1	1050.
17092	19.021	2.	0.1	1072.7
17093	18.921	2.	0.1	1095.4
17094	18.822	2.	0.1	1118.2
17095	18.722	2.	0.1	1141.
17096	18.623	2.	0.1	1164.
17097	18.523	2.	0.1	1186.9
17098	18.423	2.	0.1	1209.9
17099	18.324	2.	0.1	1233.
17100	18.224	2.	0.1	1256.2
17101	18.125	2.	0.1	1279.4
17102	18.025	2.	0.1	1302.6
17103	17.926	2.	0.1	1325.9
17104	17.826	2.	0.1	1349.3
17105	17.726	2.	0.1	1372.7
17106	17.627	2.	0.1	1396.2
17107	17.527	2.	0.1	1419.8
17108	17.428	2.	0.1	1443.4
17109	17.328	2.	0.1	1467.
17110	17.229	2.	0.1	1490.7
17111	17.129	2.	0.1	1514.5
17112	17.029	2.	0.1	1538.4
17113	16.93	2.	0.1	1562.2
17114	16.83	2.	0.1	1586.2
17115	16.731	2.	0.1	1610.2
17116	16.631	2.	0.1	1634.2
17117	16.531	2.	0.1	1658.3
17118	16.432	2.	0.1	1682.5
17119	16.332	2.	0.1	1706.7
17120	16.233	2.	0.1	1731.
17121	16.133	2.	0.1	1755.4
17122	16.034	2.	0.1	1779.8
17123	15.934	2.	0.1	1804.2
17124	15.834	2.	0.1	1828.7
17125	15.735	2.	0.1	1853.3
17126	15.635	2.	0.1	1877.9
17127	15.536	2.	0.1	1902.5
17128	15.436	2.	0.1	1927.3
17129	15.336	2.	0.1	1952.1
17130	15.237	2.	0.1	1976.9
17131	15.137	2.	0.1	2001.8
17132	15.038	2.	0.1	2026.8
17133	14.938	2.	0.1	2051.8
17134	14.839	2.	0.1	2076.8
17135	14.739	2.	0.1	2102.
17136	14.639	2.	0.1	2127.2
17137	14.54	2.	0.1	2152.4
17138	14.44	2.	0.1	2177.7
17139	14.341	2.	0.1	2203.1
17140	14.241	2.	0.1	2228.6
17141	14.142	2.	0.1	2254.1
17142	14.042	2.	0.1	2279.7
17143	13.942	2.	0.1	2305.3
17144	13.843	2.	0.1	2331.
17145	13.743	2.	0.1	2356.9
17146	13.644	2.	0.1	2382.8
17147	13.544	2.	0.1	2408.7
17148	13.444	2.	0.1	2434.8
17149	13.345	2.	0.1	2461.
17150	13.245	2.	0.1	2487.3
17151	13.146	2.	0.1	2513.7
17152	13.046	2.	0.1	2540.3
17153	12.947	2.	0.1	2566.9
17154	12.847	2.	0.1	2593.8
17155	12.747	2.	0.1	2620.8
17156	12.648	2.	0.1	2648.
17157	12.548	2.	0.1	2675.4
17158	12.449	2.	0.1	2703.
17159	12.349	2.	0.1	2730.8
17160	12.249	2.	0.1	2759.
17161	12.15	2.	0.1	2787.5
17162	12.05	2.	0.1	2816.3
17163	11.951	2.	0.1	2845.5
17164	11.851	2.	0.1	2875.2
17165	11.752	2.	0.1	2905.3
17166	11.652	2.	0.1	2936.
17167	11.552	2.	0.1	2967.4
17168	11.453	2.	0.1	2999.4
17169	11.353	2.	0.1	3032.3
17170	11.254	2.	0.1	3066.1
17171	11.154	2.	0.1	3100.9
17172	11.055	2.	0.1	3136.9
17173	10.955	2.	0.1	3174.1
17174	10.855	2.	0.1	3212.9
17175	10.756	2.	0.1	3253.4
17176	10.656	2.	0.1	3295.8
17177	10.557	2.	0.1	3340.4
17178	10.457	2.	0.1	3387.5
17179	10.357	2.	0.1	3437.5
17180	10.258	2.	0.1	3490.8
17181	10.158	2.	0.1	3547.8
17182	10.059	2.	0.1	3609.3
17183	9.9591	2.	0.1	3675.7
17184	9.8595	2.	0.1	3748.2
17185	9.76	2.	0.1	3827.5
17186	9.6604	2.	0.1	3915.1
17187	9.5608	2.	0.1	4012.4
17188	9.4612	2.	0.1	4121.6
17189	9.3616	2.	0.1	4245.1
17190	9.2621	2.	0.1	4386.4
17191	9.1625	2.	0.1	4549.8
17192	9.0629	2.	0.1	4741.7
17193	8.9633	2.	0.1	4970.6
17194	8.8637	2.	0.1	5249.2
17195	8.7642	2.	0.1	5597.1
17196	8.6646	2.	0.1	6046.6
17197	8.565	2.	0.1	6656.7
17198	8.4654	2.	0.1	7550.3
17199	8.3658	2.	0.1	9006.5
17200	8.2662	2.	0.1	13637
17201	23.9	2.1	0.1	21.774
17202	23.801	2.1	0.1	42.674
17203	23.701	2.1	0.1	63.697
17204	23.602	2.1	0.1	84.689
17205	23.502	2.1	0.1	105.63
17206	23.403	2.1	0.1	126.53
17207	23.303	2.1	0.1	147.39
17208	23.203	2.1	0.1	168.21
17209	23.104	2.1	0.1	189.01
17210	23.004	2.1	0.1	209.79
17211	22.905	2.1	0.1	230.56
17212	22.805	2.1	0.1	251.33
17213	22.705	2.1	0.1	272.11
17214	22.606	2.1	0.1	292.9
17215	22.506	2.1	0.1	313.71
17216	22.407	2.1	0.1	334.54
17217	22.307	2.1	0.1	355.4
17218	22.208	2.1	0.1	376.3
17219	22.108	2.1	0.1	397.23
17220	22.008	2.1	0.1	418.2
17221	21.909	2.1	0.1	439.22
17222	21.809	2.1	0.1	460.28
17223	21.71	2.1	0.1	481.38
17224	21.61	2.1	0.1	502.54
17225	21.51	2.1	0.1	523.75
17226	21.411	2.1	0.1	545.01
17227	21.311	2.1	0.1	566.32
17228	21.212	2.1	0.1	587.69
17229	21.112	2.1	0.1	609.11
17230	21.013	2.1	0.1	630.59
17231	20.913	2.1	0.1	652.13
17232	20.813	2.1	0.1	673.72
17233	20.714	2.1	0.1	695.38
17234	20.614	2.1	0.1	717.09
17235	20.515	2.1	0.1	738.86
17236	20.415	2.1	0.1	760.68
17237	20.316	2.1	0.1	782.57
17238	20.216	2.1	0.1	804.52
17239	20.116	2.1	0.1	826.52
17240	20.017	2.1	0.1	848.59
17241	19.917	2.1	0.1	870.71
17242	19.818	2.1	0.1	892.9
17243	19.718	2.1	0.1	915.14
17244	19.618	2.1	0.1	937.44
17245	19.519	2.1	0.1	959.81
17246	19.419	2.1	0.1	982.23
17247	19.32	2.1	0.1	1004.7
17248	19.22	2.1	0.1	1027.3
17249	19.121	2.1	0.1	1049.9
17250	19.021	2.1	0.1	1072.5
17251	18.921	2.1	0.1	1095.2
17252	18.822	2.1	0.1	1118.
17253	18.722	2.1	0.1	1140.9
17254	18.623	2.1	0.1	1163.8
17255	18.523	2.1	0.1	1186.7
17256	18.423	2.1	0.1	1209.7
17257	18.324	2.1	0.1	1232.8
17258	18.224	2.1	0.1	1255.9
17259	18.125	2.1	0.1	1279.1
17260	18.025	2.1	0.1	1302.4
17261	17.926	2.1	0.1	1325.7
17262	17.826	2.1	0.1	1349.1
17263	17.726	2.1	0.1	1372.5
17264	17.627	2.1	0.1	1396.
17265	17.527	2.1	0.1	1419.5
17266	17.428	2.1	0.1	1443.1
17267	17.328	2.1	0.1	1466.7
17268	17.229	2.1	0.1	1490.5
17269	17.129	2.1	0.1	1514.2
17270	17.029	2.1	0.1	1538.
17271	16.93	2.1	0.1	1561.9
17272	16.83	2.1	0.1	1585.9
17273	16.731	2.1	0.1	1609.9
17274	16.631	2.1	0.1	1633.9
17275	16.531	2.1	0.1	1658.
17276	16.432	2.1	0.1	1682.2
17277	16.332	2.1	0.1	1706.4
17278	16.233	2.1	0.1	1730.7
17279	16.133	2.1	0.1	1755.
17280	16.034	2.1	0.1	1779.4
17281	15.934	2.1	0.1	1803.8
17282	15.834	2.1	0.1	1828.3
17283	15.735	2.1	0.1	1852.9
17284	15.635	2.1	0.1	1877.5
17285	15.536	2.1	0.1	1902.1
17286	15.436	2.1	0.1	1926.8
17287	15.336	2.1	0.1	1951.6
17288	15.237	2.1	0.1	1976.4
17289	15.137	2.1	0.1	2001.3
17290	15.038	2.1	0.1	2026.3
17291	14.938	2.1	0.1	2051.3
17292	14.839	2.1	0.1	2076.3
17293	14.739	2.1	0.1	2101.5
17294	14.639	2.1	0.1	2126.7
17295	14.54	2.1	0.1	2151.9
17296	14.44	2.1	0.1	2177.2
17297	14.341	2.1	0.1	2202.6
17298	14.241	2.1	0.1	2228.
17299	14.142	2.1	0.1	2253.5
17300	14.042	2.1	0.1	2279.1
17301	13.942	2.1	0.1	2304.8
17302	13.843	2.1	0.1	2330.5
17303	13.743	2.1	0.1	2356.3
17304	13.644	2.1	0.1	2382.2
17305	13.544	2.1	0.1	2408.2
17306	13.444	2.1	0.1	2434.3
17307	13.345	2.1	0.1	2460.5
17308	13.245	2.1	0.1	2486.9
17309	13.146	2.1	0.1	2513.3
17310	13.046	2.1	0.1	2539.9
17311	12.947	2.1	0.1	2566.6
17312	12.847	2.1	0.1	2593.5
17313	12.747	2.1	0.1	2620.6
17314	12.648	2.1	0.1	2647.9
17315	12.548	2.1	0.1	2675.5
17316	12.449	2.1	0.1	2703.2
17317	12.349	2.1	0.1	2731.3
17318	12.249	2.1	0.1	2759.7
17319	12.15	2.1	0.1	2788.4
17320	12.05	2.1	0.1	2817.5
17321	11.951	2.1	0.1	2847.1
17322	11.851	2.1	0.1	2877.2
17323	11.752	2.1	0.1	2907.9
17324	11.652	2.1	0.1	2939.2
17325	11.552	2.1	0.1	2971.2
17326	11.453	2.1	0.1	3004.1
17327	11.353	2.1	0.1	3037.9
17328	11.254	2.1	0.1	3072.8
17329	11.154	2.1	0.1	3108.8
17330	11.055	2.1	0.1	3146.3
17331	10.955	2.1	0.1	3185.3
17332	10.855	2.1	0.1	3226.
17333	10.756	2.1	0.1	3268.8
17334	10.656	2.1	0.1	3313.9
17335	10.557	2.1	0.1	3361.5
17336	10.457	2.1	0.1	3412.1
17337	10.357	2.1	0.1	3466.2
17338	10.258	2.1	0.1	3524.1
17339	10.158	2.1	0.1	3586.6
17340	10.059	2.1	0.1	3654.2
17341	9.9591	2.1	0.1	3727.9
17342	9.8595	2.1	0.1	3808.5
17343	9.76	2.1	0.1	3897.4
17344	9.6604	2.1	0.1	3995.9
17345	9.5608	2.1	0.1	4106.
17346	9.4612	2.1	0.1	4229.8
17347	9.3616	2.1	0.1	4370.4
17348	9.2621	2.1	0.1	4531.6
17349	9.1625	2.1	0.1	4718.6
17350	9.0629	2.1	0.1	4938.6
17351	8.9633	2.1	0.1	5201.5
17352	8.8637	2.1	0.1	5522.4
17353	8.7642	2.1	0.1	5924.5
17354	8.6646	2.1	0.1	6446.3
17355	8.565	2.1	0.1	7156.9
17356	8.4654	2.1	0.1	8188.6
17357	8.3658	2.1	0.1	9899.5
17358	8.2662	2.1	0.1	13010
17359	23.9	2.2	0.1	21.734
17360	23.801	2.2	0.1	42.664
17361	23.701	2.2	0.1	63.717
17362	23.602	2.2	0.1	84.738
17363	23.502	2.2	0.1	105.71
17364	23.403	2.2	0.1	126.64
17365	23.303	2.2	0.1	147.53
17366	23.203	2.2	0.1	168.38
17367	23.104	2.2	0.1	189.2
17368	23.004	2.2	0.1	210.
17369	22.905	2.2	0.1	230.79
17370	22.805	2.2	0.1	251.58
17371	22.705	2.2	0.1	272.37
17372	22.606	2.2	0.1	293.17
17373	22.506	2.2	0.1	313.98
17374	22.407	2.2	0.1	334.82
17375	22.307	2.2	0.1	355.68
17376	22.208	2.2	0.1	376.57
17377	22.108	2.2	0.1	397.5
17378	22.008	2.2	0.1	418.46
17379	21.909	2.2	0.1	439.47
17380	21.809	2.2	0.1	460.52
17381	21.71	2.2	0.1	481.61
17382	21.61	2.2	0.1	502.76
17383	21.51	2.2	0.1	523.95
17384	21.411	2.2	0.1	545.2
17385	21.311	2.2	0.1	566.49
17386	21.212	2.2	0.1	587.85
17387	21.112	2.2	0.1	609.25
17388	21.013	2.2	0.1	630.72
17389	20.913	2.2	0.1	652.24
17390	20.813	2.2	0.1	673.82
17391	20.714	2.2	0.1	695.45
17392	20.614	2.2	0.1	717.15
17393	20.515	2.2	0.1	738.9
17394	20.415	2.2	0.1	760.71
17395	20.316	2.2	0.1	782.59
17396	20.216	2.2	0.1	804.52
17397	20.116	2.2	0.1	826.51
17398	20.017	2.2	0.1	848.56
17399	19.917	2.2	0.1	870.67
17400	19.818	2.2	0.1	892.85
17401	19.718	2.2	0.1	915.08
17402	19.618	2.2	0.1	937.37
17403	19.519	2.2	0.1	959.72
17404	19.419	2.2	0.1	982.14
17405	19.32	2.2	0.1	1004.6
17406	19.22	2.2	0.1	1027.1
17407	19.121	2.2	0.1	1049.7
17408	19.021	2.2	0.1	1072.4
17409	18.921	2.2	0.1	1095.1
17410	18.822	2.2	0.1	1117.9
17411	18.722	2.2	0.1	1140.7
17412	18.623	2.2	0.1	1163.6
17413	18.523	2.2	0.1	1186.5
17414	18.423	2.2	0.1	1209.5
17415	18.324	2.2	0.1	1232.6
17416	18.224	2.2	0.1	1255.7
17417	18.125	2.2	0.1	1278.9
17418	18.025	2.2	0.1	1302.2
17419	17.926	2.2	0.1	1325.5
17420	17.826	2.2	0.1	1348.8
17421	17.726	2.2	0.1	1372.2
17422	17.627	2.2	0.1	1395.7
17423	17.527	2.2	0.1	1419.3
17424	17.428	2.2	0.1	1442.8
17425	17.328	2.2	0.1	1466.5
17426	17.229	2.2	0.1	1490.2
17427	17.129	2.2	0.1	1513.9
17428	17.029	2.2	0.1	1537.8
17429	16.93	2.2	0.1	1561.6
17430	16.83	2.2	0.1	1585.6
17431	16.731	2.2	0.1	1609.6
17432	16.631	2.2	0.1	1633.6
17433	16.531	2.2	0.1	1657.7
17434	16.432	2.2	0.1	1681.9
17435	16.332	2.2	0.1	1706.1
17436	16.233	2.2	0.1	1730.3
17437	16.133	2.2	0.1	1754.6
17438	16.034	2.2	0.1	1779.
17439	15.934	2.2	0.1	1803.5
17440	15.834	2.2	0.1	1827.9
17441	15.735	2.2	0.1	1852.5
17442	15.635	2.2	0.1	1877.1
17443	15.536	2.2	0.1	1901.7
17444	15.436	2.2	0.1	1926.4
17445	15.336	2.2	0.1	1951.2
17446	15.237	2.2	0.1	1976.
17447	15.137	2.2	0.1	2000.9
17448	15.038	2.2	0.1	2025.9
17449	14.938	2.2	0.1	2050.8
17450	14.839	2.2	0.1	2075.9
17451	14.739	2.2	0.1	2101.
17452	14.639	2.2	0.1	2126.2
17453	14.54	2.2	0.1	2151.4
17454	14.44	2.2	0.1	2176.7
17455	14.341	2.2	0.1	2202.1
17456	14.241	2.2	0.1	2227.5
17457	14.142	2.2	0.1	2253.
17458	14.042	2.2	0.1	2278.6
17459	13.942	2.2	0.1	2304.3
17460	13.843	2.2	0.1	2330.
17461	13.743	2.2	0.1	2355.8
17462	13.644	2.2	0.1	2381.7
17463	13.544	2.2	0.1	2407.7
17464	13.444	2.2	0.1	2433.9
17465	13.345	2.2	0.1	2460.1
17466	13.245	2.2	0.1	2486.4
17467	13.146	2.2	0.1	2512.9
17468	13.046	2.2	0.1	2539.6
17469	12.947	2.2	0.1	2566.4
17470	12.847	2.2	0.1	2593.3
17471	12.747	2.2	0.1	2620.5
17472	12.648	2.2	0.1	2647.9
17473	12.548	2.2	0.1	2675.6
17474	12.449	2.2	0.1	2703.5
17475	12.349	2.2	0.1	2731.7
17476	12.249	2.2	0.1	2760.3
17477	12.15	2.2	0.1	2789.3
17478	12.05	2.2	0.1	2818.7
17479	11.951	2.2	0.1	2848.6
17480	11.851	2.2	0.1	2879.1
17481	11.752	2.2	0.1	2910.3
17482	11.652	2.2	0.1	2942.1
17483	11.552	2.2	0.1	2974.8
17484	11.453	2.2	0.1	3008.4
17485	11.353	2.2	0.1	3043.1
17486	11.254	2.2	0.1	3079.
17487	11.154	2.2	0.1	3116.2
17488	11.055	2.2	0.1	3155.
17489	10.955	2.2	0.1	3195.6
17490	10.855	2.2	0.1	3238.2
17491	10.756	2.2	0.1	3283.1
17492	10.656	2.2	0.1	3330.7
17493	10.557	2.2	0.1	3381.2
17494	10.457	2.2	0.1	3435.1
17495	10.357	2.2	0.1	3493.
17496	10.258	2.2	0.1	3555.4
17497	10.158	2.2	0.1	3622.9
17498	10.059	2.2	0.1	3696.4
17499	9.9591	2.2	0.1	3776.9
17500	9.8595	2.2	0.1	3865.3
17501	9.76	2.2	0.1	3963.2
17502	9.6604	2.2	0.1	4072.
17503	9.5608	2.2	0.1	4194.
17504	9.4612	2.2	0.1	4331.5
17505	9.3616	2.2	0.1	4487.9
17506	9.2621	2.2	0.1	4667.4
17507	9.1625	2.2	0.1	4875.5
17508	9.0629	2.2	0.1	5119.8
17509	8.9633	2.2	0.1	5411.2
17510	8.8637	2.2	0.1	5765.
17511	8.7642	2.2	0.1	6205.
17512	8.6646	2.2	0.1	6768.1
17513	8.565	2.2	0.1	7514.3
17514	8.4654	2.2	0.1	8547.8
17515	8.3658	2.2	0.1	10021
17516	8.2662	2.2	0.1	11990
17517	23.9	2.3	0.1	21.698
17518	23.801	2.3	0.1	42.654
17519	23.701	2.3	0.1	63.732
17520	23.602	2.3	0.1	84.779
17521	23.502	2.3	0.1	105.78
17522	23.403	2.3	0.1	126.74
17523	23.303	2.3	0.1	147.65
17524	23.203	2.3	0.1	168.52
17525	23.104	2.3	0.1	189.36
17526	23.004	2.3	0.1	210.19
17527	22.905	2.3	0.1	230.99
17528	22.805	2.3	0.1	251.8
17529	22.705	2.3	0.1	272.6
17530	22.606	2.3	0.1	293.4
17531	22.506	2.3	0.1	314.22
17532	22.407	2.3	0.1	335.06
17533	22.307	2.3	0.1	355.93
17534	22.208	2.3	0.1	376.82
17535	22.108	2.3	0.1	397.74
17536	22.008	2.3	0.1	418.7
17537	21.909	2.3	0.1	439.69
17538	21.809	2.3	0.1	460.74
17539	21.71	2.3	0.1	481.82
17540	21.61	2.3	0.1	502.95
17541	21.51	2.3	0.1	524.13
17542	21.411	2.3	0.1	545.37
17543	21.311	2.3	0.1	566.65
17544	21.212	2.3	0.1	587.99
17545	21.112	2.3	0.1	609.38
17546	21.013	2.3	0.1	630.83
17547	20.913	2.3	0.1	652.34
17548	20.813	2.3	0.1	673.9
17549	20.714	2.3	0.1	695.53
17550	20.614	2.3	0.1	717.21
17551	20.515	2.3	0.1	738.95
17552	20.415	2.3	0.1	760.75
17553	20.316	2.3	0.1	782.61
17554	20.216	2.3	0.1	804.53
17555	20.116	2.3	0.1	826.5
17556	20.017	2.3	0.1	848.55
17557	19.917	2.3	0.1	870.65
17558	19.818	2.3	0.1	892.81
17559	19.718	2.3	0.1	915.03
17560	19.618	2.3	0.1	937.31
17561	19.519	2.3	0.1	959.65
17562	19.419	2.3	0.1	982.06
17563	19.32	2.3	0.1	1004.5
17564	19.22	2.3	0.1	1027.
17565	19.121	2.3	0.1	1049.6
17566	19.021	2.3	0.1	1072.3
17567	18.921	2.3	0.1	1095.
17568	18.822	2.3	0.1	1117.7
17569	18.722	2.3	0.1	1140.6
17570	18.623	2.3	0.1	1163.4
17571	18.523	2.3	0.1	1186.4
17572	18.423	2.3	0.1	1209.4
17573	18.324	2.3	0.1	1232.4
17574	18.224	2.3	0.1	1255.6
17575	18.125	2.3	0.1	1278.7
17576	18.025	2.3	0.1	1302.
17577	17.926	2.3	0.1	1325.3
17578	17.826	2.3	0.1	1348.6
17579	17.726	2.3	0.1	1372.
17580	17.627	2.3	0.1	1395.5
17581	17.527	2.3	0.1	1419.
17582	17.428	2.3	0.1	1442.6
17583	17.328	2.3	0.1	1466.3
17584	17.229	2.3	0.1	1490.
17585	17.129	2.3	0.1	1513.7
17586	17.029	2.3	0.1	1537.5
17587	16.93	2.3	0.1	1561.4
17588	16.83	2.3	0.1	1585.3
17589	16.731	2.3	0.1	1609.3
17590	16.631	2.3	0.1	1633.3
17591	16.531	2.3	0.1	1657.4
17592	16.432	2.3	0.1	1681.6
17593	16.332	2.3	0.1	1705.8
17594	16.233	2.3	0.1	1730.
17595	16.133	2.3	0.1	1754.4
17596	16.034	2.3	0.1	1778.7
17597	15.934	2.3	0.1	1803.1
17598	15.834	2.3	0.1	1827.6
17599	15.735	2.3	0.1	1852.2
17600	15.635	2.3	0.1	1876.8
17601	15.536	2.3	0.1	1901.4
17602	15.436	2.3	0.1	1926.1
17603	15.336	2.3	0.1	1950.9
17604	15.237	2.3	0.1	1975.7
17605	15.137	2.3	0.1	2000.5
17606	15.038	2.3	0.1	2025.5
17607	14.938	2.3	0.1	2050.5
17608	14.839	2.3	0.1	2075.5
17609	14.739	2.3	0.1	2100.6
17610	14.639	2.3	0.1	2125.8
17611	14.54	2.3	0.1	2151.
17612	14.44	2.3	0.1	2176.3
17613	14.341	2.3	0.1	2201.7
17614	14.241	2.3	0.1	2227.1
17615	14.142	2.3	0.1	2252.6
17616	14.042	2.3	0.1	2278.2
17617	13.942	2.3	0.1	2303.8
17618	13.843	2.3	0.1	2329.6
17619	13.743	2.3	0.1	2355.4
17620	13.644	2.3	0.1	2381.3
17621	13.544	2.3	0.1	2407.3
17622	13.444	2.3	0.1	2433.4
17623	13.345	2.3	0.1	2459.7
17624	13.245	2.3	0.1	2486.1
17625	13.146	2.3	0.1	2512.6
17626	13.046	2.3	0.1	2539.3
17627	12.947	2.3	0.1	2566.1
17628	12.847	2.3	0.1	2593.2
17629	12.747	2.3	0.1	2620.4
17630	12.648	2.3	0.1	2647.9
17631	12.548	2.3	0.1	2675.7
17632	12.449	2.3	0.1	2703.7
17633	12.349	2.3	0.1	2732.1
17634	12.249	2.3	0.1	2760.9
17635	12.15	2.3	0.1	2790.1
17636	12.05	2.3	0.1	2819.8
17637	11.951	2.3	0.1	2850.
17638	11.851	2.3	0.1	2880.9
17639	11.752	2.3	0.1	2912.4
17640	11.652	2.3	0.1	2944.8
17641	11.552	2.3	0.1	2978.
17642	11.453	2.3	0.1	3012.3
17643	11.353	2.3	0.1	3047.8
17644	11.254	2.3	0.1	3084.6
17645	11.154	2.3	0.1	3123.
17646	11.055	2.3	0.1	3163.
17647	10.955	2.3	0.1	3205.1
17648	10.855	2.3	0.1	3249.4
17649	10.756	2.3	0.1	3296.2
17650	10.656	2.3	0.1	3346.
17651	10.557	2.3	0.1	3399.2
17652	10.457	2.3	0.1	3456.2
17653	10.357	2.3	0.1	3517.6
17654	10.258	2.3	0.1	3584.1
17655	10.158	2.3	0.1	3656.3
17656	10.059	2.3	0.1	3735.3
17657	9.9591	2.3	0.1	3822.
17658	9.8595	2.3	0.1	3917.7
17659	9.76	2.3	0.1	4023.8
17660	9.6604	2.3	0.1	4142.3
17661	9.5608	2.3	0.1	4275.1
17662	9.4612	2.3	0.1	4425.1
17663	9.3616	2.3	0.1	4595.7
17664	9.2621	2.3	0.1	4791.2
17665	9.1625	2.3	0.1	5017.3
17666	9.0629	2.3	0.1	5281.5
17667	8.9633	2.3	0.1	5594.2
17668	8.8637	2.3	0.1	5969.7
17669	8.7642	2.3	0.1	6428.3
17670	8.6646	2.3	0.1	6998.8
17671	8.565	2.3	0.1	7721.
17672	8.4654	2.3	0.1	8642.3
17673	8.3658	2.3	0.1	9787.2
17674	8.2662	2.3	0.1	11040
17675	23.9	2.4	0.1	21.666
17676	23.801	2.4	0.1	42.645
17677	23.701	2.4	0.1	63.743
17678	23.602	2.4	0.1	84.813
17679	23.502	2.4	0.1	105.84
17680	23.403	2.4	0.1	126.81
17681	23.303	2.4	0.1	147.75
17682	23.203	2.4	0.1	168.64
17683	23.104	2.4	0.1	189.5
17684	23.004	2.4	0.1	210.34
17685	22.905	2.4	0.1	231.17
17686	22.805	2.4	0.1	251.98
17687	22.705	2.4	0.1	272.79
17688	22.606	2.4	0.1	293.61
17689	22.506	2.4	0.1	314.43
17690	22.407	2.4	0.1	335.27
17691	22.307	2.4	0.1	356.14
17692	22.208	2.4	0.1	377.03
17693	22.108	2.4	0.1	397.95
17694	22.008	2.4	0.1	418.9
17695	21.909	2.4	0.1	439.89
17696	21.809	2.4	0.1	460.93
17697	21.71	2.4	0.1	482.
17698	21.61	2.4	0.1	503.12
17699	21.51	2.4	0.1	524.3
17700	21.411	2.4	0.1	545.52
17701	21.311	2.4	0.1	566.79
17702	21.212	2.4	0.1	588.12
17703	21.112	2.4	0.1	609.5
17704	21.013	2.4	0.1	630.94
17705	20.913	2.4	0.1	652.43
17706	20.813	2.4	0.1	673.98
17707	20.714	2.4	0.1	695.59
17708	20.614	2.4	0.1	717.26
17709	20.515	2.4	0.1	738.99
17710	20.415	2.4	0.1	760.78
17711	20.316	2.4	0.1	782.63
17712	20.216	2.4	0.1	804.53
17713	20.116	2.4	0.1	826.5
17714	20.017	2.4	0.1	848.53
17715	19.917	2.4	0.1	870.62
17716	19.818	2.4	0.1	892.78
17717	19.718	2.4	0.1	914.99
17718	19.618	2.4	0.1	937.26
17719	19.519	2.4	0.1	959.6
17720	19.419	2.4	0.1	981.99
17721	19.32	2.4	0.1	1004.4
17722	19.22	2.4	0.1	1027.
17723	19.121	2.4	0.1	1049.5
17724	19.021	2.4	0.1	1072.2
17725	18.921	2.4	0.1	1094.9
17726	18.822	2.4	0.1	1117.6
17727	18.722	2.4	0.1	1140.4
17728	18.623	2.4	0.1	1163.3
17729	18.523	2.4	0.1	1186.3
17730	18.423	2.4	0.1	1209.3
17731	18.324	2.4	0.1	1232.3
17732	18.224	2.4	0.1	1255.4
17733	18.125	2.4	0.1	1278.6
17734	18.025	2.4	0.1	1301.8
17735	17.926	2.4	0.1	1325.1
17736	17.826	2.4	0.1	1348.5
17737	17.726	2.4	0.1	1371.9
17738	17.627	2.4	0.1	1395.3
17739	17.527	2.4	0.1	1418.9
17740	17.428	2.4	0.1	1442.4
17741	17.328	2.4	0.1	1466.1
17742	17.229	2.4	0.1	1489.8
17743	17.129	2.4	0.1	1513.5
17744	17.029	2.4	0.1	1537.3
17745	16.93	2.4	0.1	1561.2
17746	16.83	2.4	0.1	1585.1
17747	16.731	2.4	0.1	1609.1
17748	16.631	2.4	0.1	1633.1
17749	16.531	2.4	0.1	1657.2
17750	16.432	2.4	0.1	1681.3
17751	16.332	2.4	0.1	1705.5
17752	16.233	2.4	0.1	1729.8
17753	16.133	2.4	0.1	1754.1
17754	16.034	2.4	0.1	1778.5
17755	15.934	2.4	0.1	1802.9
17756	15.834	2.4	0.1	1827.4
17757	15.735	2.4	0.1	1851.9
17758	15.635	2.4	0.1	1876.5
17759	15.536	2.4	0.1	1901.1
17760	15.436	2.4	0.1	1925.8
17761	15.336	2.4	0.1	1950.6
17762	15.237	2.4	0.1	1975.4
17763	15.137	2.4	0.1	2000.2
17764	15.038	2.4	0.1	2025.1
17765	14.938	2.4	0.1	2050.1
17766	14.839	2.4	0.1	2075.2
17767	14.739	2.4	0.1	2100.3
17768	14.639	2.4	0.1	2125.4
17769	14.54	2.4	0.1	2150.6
17770	14.44	2.4	0.1	2175.9
17771	14.341	2.4	0.1	2201.3
17772	14.241	2.4	0.1	2226.7
17773	14.142	2.4	0.1	2252.2
17774	14.042	2.4	0.1	2277.8
17775	13.942	2.4	0.1	2303.4
17776	13.843	2.4	0.1	2329.2
17777	13.743	2.4	0.1	2355.
17778	13.644	2.4	0.1	2380.9
17779	13.544	2.4	0.1	2406.9
17780	13.444	2.4	0.1	2433.1
17781	13.345	2.4	0.1	2459.4
17782	13.245	2.4	0.1	2485.8
17783	13.146	2.4	0.1	2512.3
17784	13.046	2.4	0.1	2539.
17785	12.947	2.4	0.1	2565.9
17786	12.847	2.4	0.1	2593.
17787	12.747	2.4	0.1	2620.3
17788	12.648	2.4	0.1	2647.9
17789	12.548	2.4	0.1	2675.8
17790	12.449	2.4	0.1	2703.9
17791	12.349	2.4	0.1	2732.5
17792	12.249	2.4	0.1	2761.4
17793	12.15	2.4	0.1	2790.8
17794	12.05	2.4	0.1	2820.7
17795	11.951	2.4	0.1	2851.2
17796	11.851	2.4	0.1	2882.4
17797	11.752	2.4	0.1	2914.3
17798	11.652	2.4	0.1	2947.1
17799	11.552	2.4	0.1	2980.9
17800	11.453	2.4	0.1	3015.8
17801	11.353	2.4	0.1	3052.
17802	11.254	2.4	0.1	3089.7
17803	11.154	2.4	0.1	3129.
17804	11.055	2.4	0.1	3170.1
17805	10.955	2.4	0.1	3213.5
17806	10.855	2.4	0.1	3259.3
17807	10.756	2.4	0.1	3308.
17808	10.656	2.4	0.1	3359.8
17809	10.557	2.4	0.1	3415.3
17810	10.457	2.4	0.1	3475.1
17811	10.357	2.4	0.1	3539.7
17812	10.258	2.4	0.1	3609.9
17813	10.158	2.4	0.1	3686.4
17814	10.059	2.4	0.1	3770.3
17815	9.9591	2.4	0.1	3862.7
17816	9.8595	2.4	0.1	3964.9
17817	9.76	2.4	0.1	4078.6
17818	9.6604	2.4	0.1	4205.5
17819	9.5608	2.4	0.1	4348.1
17820	9.4612	2.4	0.1	4509.2
17821	9.3616	2.4	0.1	4692.
17822	9.2621	2.4	0.1	4901.
17823	9.1625	2.4	0.1	5141.6
17824	9.0629	2.4	0.1	5420.8
17825	8.9633	2.4	0.1	5747.5
17826	8.8637	2.4	0.1	6133.3
17827	8.7642	2.4	0.1	6593.2
17828	8.6646	2.4	0.1	7145.1
17829	8.565	2.4	0.1	7807.
17830	8.4654	2.4	0.1	8587.
17831	8.3658	2.4	0.1	9455.4
17832	8.2662	2.4	0.1	10301
17833	23.9	2.5	0.1	21.639
17834	23.801	2.5	0.1	42.636
17835	23.701	2.5	0.1	63.752
17836	23.602	2.5	0.1	84.84
17837	23.502	2.5	0.1	105.88
17838	23.403	2.5	0.1	126.88
17839	23.303	2.5	0.1	147.83
17840	23.203	2.5	0.1	168.74
17841	23.104	2.5	0.1	189.62
17842	23.004	2.5	0.1	210.47
17843	22.905	2.5	0.1	231.31
17844	22.805	2.5	0.1	252.13
17845	22.705	2.5	0.1	272.95
17846	22.606	2.5	0.1	293.78
17847	22.506	2.5	0.1	314.61
17848	22.407	2.5	0.1	335.45
17849	22.307	2.5	0.1	356.32
17850	22.208	2.5	0.1	377.21
17851	22.108	2.5	0.1	398.12
17852	22.008	2.5	0.1	419.07
17853	21.909	2.5	0.1	440.06
17854	21.809	2.5	0.1	461.09
17855	21.71	2.5	0.1	482.16
17856	21.61	2.5	0.1	503.27
17857	21.51	2.5	0.1	524.44
17858	21.411	2.5	0.1	545.65
17859	21.311	2.5	0.1	566.91
17860	21.212	2.5	0.1	588.23
17861	21.112	2.5	0.1	609.6
17862	21.013	2.5	0.1	631.03
17863	20.913	2.5	0.1	652.51
17864	20.813	2.5	0.1	674.05
17865	20.714	2.5	0.1	695.65
17866	20.614	2.5	0.1	717.31
17867	20.515	2.5	0.1	739.03
17868	20.415	2.5	0.1	760.81
17869	20.316	2.5	0.1	782.65
17870	20.216	2.5	0.1	804.55
17871	20.116	2.5	0.1	826.51
17872	20.017	2.5	0.1	848.53
17873	19.917	2.5	0.1	870.61
17874	19.818	2.5	0.1	892.75
17875	19.718	2.5	0.1	914.96
17876	19.618	2.5	0.1	937.22
17877	19.519	2.5	0.1	959.55
17878	19.419	2.5	0.1	981.94
17879	19.32	2.5	0.1	1004.4
17880	19.22	2.5	0.1	1026.9
17881	19.121	2.5	0.1	1049.5
17882	19.021	2.5	0.1	1072.1
17883	18.921	2.5	0.1	1094.8
17884	18.822	2.5	0.1	1117.5
17885	18.722	2.5	0.1	1140.3
17886	18.623	2.5	0.1	1163.2
17887	18.523	2.5	0.1	1186.1
17888	18.423	2.5	0.1	1209.1
17889	18.324	2.5	0.1	1232.2
17890	18.224	2.5	0.1	1255.3
17891	18.125	2.5	0.1	1278.5
17892	18.025	2.5	0.1	1301.7
17893	17.926	2.5	0.1	1325.
17894	17.826	2.5	0.1	1348.3
17895	17.726	2.5	0.1	1371.7
17896	17.627	2.5	0.1	1395.2
17897	17.527	2.5	0.1	1418.7
17898	17.428	2.5	0.1	1442.3
17899	17.328	2.5	0.1	1465.9
17900	17.229	2.5	0.1	1489.6
17901	17.129	2.5	0.1	1513.3
17902	17.029	2.5	0.1	1537.1
17903	16.93	2.5	0.1	1561.
17904	16.83	2.5	0.1	1584.9
17905	16.731	2.5	0.1	1608.9
17906	16.631	2.5	0.1	1632.9
17907	16.531	2.5	0.1	1657.
17908	16.432	2.5	0.1	1681.1
17909	16.332	2.5	0.1	1705.3
17910	16.233	2.5	0.1	1729.6
17911	16.133	2.5	0.1	1753.9
17912	16.034	2.5	0.1	1778.2
17913	15.934	2.5	0.1	1802.6
17914	15.834	2.5	0.1	1827.1
17915	15.735	2.5	0.1	1851.6
17916	15.635	2.5	0.1	1876.2
17917	15.536	2.5	0.1	1900.9
17918	15.436	2.5	0.1	1925.5
17919	15.336	2.5	0.1	1950.3
17920	15.237	2.5	0.1	1975.1
17921	15.137	2.5	0.1	1999.9
17922	15.038	2.5	0.1	2024.9
17923	14.938	2.5	0.1	2049.8
17924	14.839	2.5	0.1	2074.9
17925	14.739	2.5	0.1	2100.
17926	14.639	2.5	0.1	2125.1
17927	14.54	2.5	0.1	2150.3
17928	14.44	2.5	0.1	2175.6
17929	14.341	2.5	0.1	2201.
17930	14.241	2.5	0.1	2226.4
17931	14.142	2.5	0.1	2251.9
17932	14.042	2.5	0.1	2277.4
17933	13.942	2.5	0.1	2303.1
17934	13.843	2.5	0.1	2328.8
17935	13.743	2.5	0.1	2354.7
17936	13.644	2.5	0.1	2380.6
17937	13.544	2.5	0.1	2406.6
17938	13.444	2.5	0.1	2432.8
17939	13.345	2.5	0.1	2459.1
17940	13.245	2.5	0.1	2485.5
17941	13.146	2.5	0.1	2512.1
17942	13.046	2.5	0.1	2538.8
17943	12.947	2.5	0.1	2565.7
17944	12.847	2.5	0.1	2592.9
17945	12.747	2.5	0.1	2620.2
17946	12.648	2.5	0.1	2647.9
17947	12.548	2.5	0.1	2675.8
17948	12.449	2.5	0.1	2704.1
17949	12.349	2.5	0.1	2732.8
17950	12.249	2.5	0.1	2761.8
17951	12.15	2.5	0.1	2791.4
17952	12.05	2.5	0.1	2821.5
17953	11.951	2.5	0.1	2852.3
17954	11.851	2.5	0.1	2883.7
17955	11.752	2.5	0.1	2916.
17956	11.652	2.5	0.1	2949.2
17957	11.552	2.5	0.1	2983.4
17958	11.453	2.5	0.1	3018.9
17959	11.353	2.5	0.1	3055.7
17960	11.254	2.5	0.1	3094.
17961	11.154	2.5	0.1	3134.2
17962	11.055	2.5	0.1	3176.3
17963	10.955	2.5	0.1	3220.8
17964	10.855	2.5	0.1	3268.
17965	10.756	2.5	0.1	3318.1
17966	10.656	2.5	0.1	3371.8
17967	10.557	2.5	0.1	3429.4
17968	10.457	2.5	0.1	3491.6
17969	10.357	2.5	0.1	3559.
17970	10.258	2.5	0.1	3632.4
17971	10.158	2.5	0.1	3712.7
17972	10.059	2.5	0.1	3800.9
17973	9.9591	2.5	0.1	3898.3
17974	9.8595	2.5	0.1	4006.3
17975	9.76	2.5	0.1	4126.5
17976	9.6604	2.5	0.1	4260.9
17977	9.5608	2.5	0.1	4411.9
17978	9.4612	2.5	0.1	4582.3
17979	9.3616	2.5	0.1	4775.4
17980	9.2621	2.5	0.1	4995.3
17981	9.1625	2.5	0.1	5246.9
17982	9.0629	2.5	0.1	5536.1
17983	8.9633	2.5	0.1	5870.2
17984	8.8637	2.5	0.1	6257.4
17985	8.7642	2.5	0.1	6706.7
17986	8.6646	2.5	0.1	7225.9
17987	8.565	2.5	0.1	7817.6
17988	8.4654	2.5	0.1	8469.2
17989	8.3658	2.5	0.1	9138.8
17990	8.2662	2.5	0.1	9740.4
17991	23.9	2.6	0.1	21.617
17992	23.801	2.6	0.1	42.629
17993	23.701	2.6	0.1	63.759
17994	23.602	2.6	0.1	84.862
17995	23.502	2.6	0.1	105.92
17996	23.403	2.6	0.1	126.93
17997	23.303	2.6	0.1	147.9
17998	23.203	2.6	0.1	168.82
17999	23.104	2.6	0.1	189.71
18000	23.004	2.6	0.1	210.58
18001	22.905	2.6	0.1	231.43
18002	22.805	2.6	0.1	252.26
18003	22.705	2.6	0.1	273.09
18004	22.606	2.6	0.1	293.92
18005	22.506	2.6	0.1	314.75
18006	22.407	2.6	0.1	335.6
18007	22.307	2.6	0.1	356.46
18008	22.208	2.6	0.1	377.35
18009	22.108	2.6	0.1	398.27
18010	22.008	2.6	0.1	419.22
18011	21.909	2.6	0.1	440.2
18012	21.809	2.6	0.1	461.22
18013	21.71	2.6	0.1	482.29
18014	21.61	2.6	0.1	503.4
18015	21.51	2.6	0.1	524.55
18016	21.411	2.6	0.1	545.76
18017	21.311	2.6	0.1	567.01
18018	21.212	2.6	0.1	588.32
18019	21.112	2.6	0.1	609.68
18020	21.013	2.6	0.1	631.1
18021	20.913	2.6	0.1	652.58
18022	20.813	2.6	0.1	674.11
18023	20.714	2.6	0.1	695.7
18024	20.614	2.6	0.1	717.35
18025	20.515	2.6	0.1	739.06
18026	20.415	2.6	0.1	760.83
18027	20.316	2.6	0.1	782.67
18028	20.216	2.6	0.1	804.56
18029	20.116	2.6	0.1	826.51
18030	20.017	2.6	0.1	848.52
18031	19.917	2.6	0.1	870.6
18032	19.818	2.6	0.1	892.73
18033	19.718	2.6	0.1	914.93
18034	19.618	2.6	0.1	937.19
18035	19.519	2.6	0.1	959.51
18036	19.419	2.6	0.1	981.89
18037	19.32	2.6	0.1	1004.3
18038	19.22	2.6	0.1	1026.8
18039	19.121	2.6	0.1	1049.4
18040	19.021	2.6	0.1	1072.
18041	18.921	2.6	0.1	1094.7
18042	18.822	2.6	0.1	1117.5
18043	18.722	2.6	0.1	1140.3
18044	18.623	2.6	0.1	1163.1
18045	18.523	2.6	0.1	1186.1
18046	18.423	2.6	0.1	1209.
18047	18.324	2.6	0.1	1232.1
18048	18.224	2.6	0.1	1255.2
18049	18.125	2.6	0.1	1278.4
18050	18.025	2.6	0.1	1301.6
18051	17.926	2.6	0.1	1324.9
18052	17.826	2.6	0.1	1348.2
18053	17.726	2.6	0.1	1371.6
18054	17.627	2.6	0.1	1395.1
18055	17.527	2.6	0.1	1418.6
18056	17.428	2.6	0.1	1442.1
18057	17.328	2.6	0.1	1465.8
18058	17.229	2.6	0.1	1489.5
18059	17.129	2.6	0.1	1513.2
18060	17.029	2.6	0.1	1537.
18061	16.93	2.6	0.1	1560.8
18062	16.83	2.6	0.1	1584.8
18063	16.731	2.6	0.1	1608.7
18064	16.631	2.6	0.1	1632.8
18065	16.531	2.6	0.1	1656.8
18066	16.432	2.6	0.1	1681.
18067	16.332	2.6	0.1	1705.2
18068	16.233	2.6	0.1	1729.4
18069	16.133	2.6	0.1	1753.7
18070	16.034	2.6	0.1	1778.1
18071	15.934	2.6	0.1	1802.5
18072	15.834	2.6	0.1	1826.9
18073	15.735	2.6	0.1	1851.4
18074	15.635	2.6	0.1	1876.
18075	15.536	2.6	0.1	1900.6
18076	15.436	2.6	0.1	1925.3
18077	15.336	2.6	0.1	1950.1
18078	15.237	2.6	0.1	1974.9
18079	15.137	2.6	0.1	1999.7
18080	15.038	2.6	0.1	2024.6
18081	14.938	2.6	0.1	2049.6
18082	14.839	2.6	0.1	2074.6
18083	14.739	2.6	0.1	2099.7
18084	14.639	2.6	0.1	2124.9
18085	14.54	2.6	0.1	2150.1
18086	14.44	2.6	0.1	2175.4
18087	14.341	2.6	0.1	2200.7
18088	14.241	2.6	0.1	2226.1
18089	14.142	2.6	0.1	2251.6
18090	14.042	2.6	0.1	2277.2
18091	13.942	2.6	0.1	2302.8
18092	13.843	2.6	0.1	2328.6
18093	13.743	2.6	0.1	2354.4
18094	13.644	2.6	0.1	2380.3
18095	13.544	2.6	0.1	2406.4
18096	13.444	2.6	0.1	2432.5
18097	13.345	2.6	0.1	2458.8
18098	13.245	2.6	0.1	2485.3
18099	13.146	2.6	0.1	2511.8
18100	13.046	2.6	0.1	2538.6
18101	12.947	2.6	0.1	2565.6
18102	12.847	2.6	0.1	2592.8
18103	12.747	2.6	0.1	2620.2
18104	12.648	2.6	0.1	2647.9
18105	12.548	2.6	0.1	2675.9
18106	12.449	2.6	0.1	2704.2
18107	12.349	2.6	0.1	2733.
18108	12.249	2.6	0.1	2762.2
18109	12.15	2.6	0.1	2791.9
18110	12.05	2.6	0.1	2822.2
18111	11.951	2.6	0.1	2853.1
18112	11.851	2.6	0.1	2884.8
18113	11.752	2.6	0.1	2917.4
18114	11.652	2.6	0.1	2950.9
18115	11.552	2.6	0.1	2985.5
18116	11.453	2.6	0.1	3021.4
18117	11.353	2.6	0.1	3058.7
18118	11.254	2.6	0.1	3097.6
18119	11.154	2.6	0.1	3138.5
18120	11.055	2.6	0.1	3181.5
18121	10.955	2.6	0.1	3226.9
18122	10.855	2.6	0.1	3275.2
18123	10.756	2.6	0.1	3326.7
18124	10.656	2.6	0.1	3381.8
18125	10.557	2.6	0.1	3441.2
18126	10.457	2.6	0.1	3505.4
18127	10.357	2.6	0.1	3575.2
18128	10.258	2.6	0.1	3651.4
18129	10.158	2.6	0.1	3734.8
18130	10.059	2.6	0.1	3826.7
18131	9.9591	2.6	0.1	3928.3
18132	9.8595	2.6	0.1	4041.1
18133	9.76	2.6	0.1	4166.9
18134	9.6604	2.6	0.1	4307.5
18135	9.5608	2.6	0.1	4465.5
18136	9.4612	2.6	0.1	4643.4
18137	9.3616	2.6	0.1	4844.7
18138	9.2621	2.6	0.1	5072.8
18139	9.1625	2.6	0.1	5332.2
18140	9.0629	2.6	0.1	5627.6
18141	8.9633	2.6	0.1	5964.2
18142	8.8637	2.6	0.1	6346.9
18143	8.7642	2.6	0.1	6779.7
18144	8.6646	2.6	0.1	7263.1
18145	8.565	2.6	0.1	7790.2
18146	8.4654	2.6	0.1	8340.8
18147	8.3658	2.6	0.1	8875.
18148	8.2662	2.6	0.1	9330.4
18149	23.9	2.7	0.1	21.6
18150	23.801	2.7	0.1	42.623
18151	23.701	2.7	0.1	63.764
18152	23.602	2.7	0.1	84.878
18153	23.502	2.7	0.1	105.95
18154	23.403	2.7	0.1	126.97
18155	23.303	2.7	0.1	147.95
18156	23.203	2.7	0.1	168.88
18157	23.104	2.7	0.1	189.79
18158	23.004	2.7	0.1	210.66
18159	22.905	2.7	0.1	231.51
18160	22.805	2.7	0.1	252.36
18161	22.705	2.7	0.1	273.19
18162	22.606	2.7	0.1	294.02
18163	22.506	2.7	0.1	314.86
18164	22.407	2.7	0.1	335.71
18165	22.307	2.7	0.1	356.58
18166	22.208	2.7	0.1	377.47
18167	22.108	2.7	0.1	398.38
18168	22.008	2.7	0.1	419.33
18169	21.909	2.7	0.1	440.31
18170	21.809	2.7	0.1	461.33
18171	21.71	2.7	0.1	482.39
18172	21.61	2.7	0.1	503.49
18173	21.51	2.7	0.1	524.64
18174	21.411	2.7	0.1	545.84
18175	21.311	2.7	0.1	567.09
18176	21.212	2.7	0.1	588.39
18177	21.112	2.7	0.1	609.75
18178	21.013	2.7	0.1	631.16
18179	20.913	2.7	0.1	652.63
18180	20.813	2.7	0.1	674.16
18181	20.714	2.7	0.1	695.74
18182	20.614	2.7	0.1	717.39
18183	20.515	2.7	0.1	739.09
18184	20.415	2.7	0.1	760.86
18185	20.316	2.7	0.1	782.68
18186	20.216	2.7	0.1	804.57
18187	20.116	2.7	0.1	826.51
18188	20.017	2.7	0.1	848.52
18189	19.917	2.7	0.1	870.59
18190	19.818	2.7	0.1	892.72
18191	19.718	2.7	0.1	914.91
18192	19.618	2.7	0.1	937.17
18193	19.519	2.7	0.1	959.48
18194	19.419	2.7	0.1	981.86
18195	19.32	2.7	0.1	1004.3
18196	19.22	2.7	0.1	1026.8
18197	19.121	2.7	0.1	1049.4
18198	19.021	2.7	0.1	1072.
18199	18.921	2.7	0.1	1094.7
18200	18.822	2.7	0.1	1117.4
18201	18.722	2.7	0.1	1140.2
18202	18.623	2.7	0.1	1163.1
18203	18.523	2.7	0.1	1186.
18204	18.423	2.7	0.1	1209.
18205	18.324	2.7	0.1	1232.
18206	18.224	2.7	0.1	1255.1
18207	18.125	2.7	0.1	1278.3
18208	18.025	2.7	0.1	1301.5
18209	17.926	2.7	0.1	1324.8
18210	17.826	2.7	0.1	1348.1
18211	17.726	2.7	0.1	1371.5
18212	17.627	2.7	0.1	1395.
18213	17.527	2.7	0.1	1418.5
18214	17.428	2.7	0.1	1442.
18215	17.328	2.7	0.1	1465.7
18216	17.229	2.7	0.1	1489.3
18217	17.129	2.7	0.1	1513.1
18218	17.029	2.7	0.1	1536.9
18219	16.93	2.7	0.1	1560.7
18220	16.83	2.7	0.1	1584.6
18221	16.731	2.7	0.1	1608.6
18222	16.631	2.7	0.1	1632.6
18223	16.531	2.7	0.1	1656.7
18224	16.432	2.7	0.1	1680.8
18225	16.332	2.7	0.1	1705.
18226	16.233	2.7	0.1	1729.3
18227	16.133	2.7	0.1	1753.6
18228	16.034	2.7	0.1	1777.9
18229	15.934	2.7	0.1	1802.3
18230	15.834	2.7	0.1	1826.8
18231	15.735	2.7	0.1	1851.3
18232	15.635	2.7	0.1	1875.9
18233	15.536	2.7	0.1	1900.5
18234	15.436	2.7	0.1	1925.2
18235	15.336	2.7	0.1	1949.9
18236	15.237	2.7	0.1	1974.7
18237	15.137	2.7	0.1	1999.5
18238	15.038	2.7	0.1	2024.5
18239	14.938	2.7	0.1	2049.4
18240	14.839	2.7	0.1	2074.4
18241	14.739	2.7	0.1	2099.5
18242	14.639	2.7	0.1	2124.7
18243	14.54	2.7	0.1	2149.9
18244	14.44	2.7	0.1	2175.2
18245	14.341	2.7	0.1	2200.5
18246	14.241	2.7	0.1	2225.9
18247	14.142	2.7	0.1	2251.4
18248	14.042	2.7	0.1	2277.
18249	13.942	2.7	0.1	2302.6
18250	13.843	2.7	0.1	2328.3
18251	13.743	2.7	0.1	2354.2
18252	13.644	2.7	0.1	2380.1
18253	13.544	2.7	0.1	2406.2
18254	13.444	2.7	0.1	2432.3
18255	13.345	2.7	0.1	2458.6
18256	13.245	2.7	0.1	2485.1
18257	13.146	2.7	0.1	2511.7
18258	13.046	2.7	0.1	2538.5
18259	12.947	2.7	0.1	2565.5
18260	12.847	2.7	0.1	2592.7
18261	12.747	2.7	0.1	2620.1
18262	12.648	2.7	0.1	2647.9
18263	12.548	2.7	0.1	2675.9
18264	12.449	2.7	0.1	2704.4
18265	12.349	2.7	0.1	2733.2
18266	12.249	2.7	0.1	2762.5
18267	12.15	2.7	0.1	2792.3
18268	12.05	2.7	0.1	2822.7
18269	11.951	2.7	0.1	2853.8
18270	11.851	2.7	0.1	2885.7
18271	11.752	2.7	0.1	2918.5
18272	11.652	2.7	0.1	2952.2
18273	11.552	2.7	0.1	2987.1
18274	11.453	2.7	0.1	3023.4
18275	11.353	2.7	0.1	3061.1
18276	11.254	2.7	0.1	3100.5
18277	11.154	2.7	0.1	3141.9
18278	11.055	2.7	0.1	3185.6
18279	10.955	2.7	0.1	3231.8
18280	10.855	2.7	0.1	3280.9
18281	10.756	2.7	0.1	3333.4
18282	10.656	2.7	0.1	3389.8
18283	10.557	2.7	0.1	3450.6
18284	10.457	2.7	0.1	3516.4
18285	10.357	2.7	0.1	3588.1
18286	10.258	2.7	0.1	3666.4
18287	10.158	2.7	0.1	3752.4
18288	10.059	2.7	0.1	3847.3
18289	9.9591	2.7	0.1	3952.2
18290	9.8595	2.7	0.1	4068.9
18291	9.76	2.7	0.1	4199.
18292	9.6604	2.7	0.1	4344.5
18293	9.5608	2.7	0.1	4507.9
18294	9.4612	2.7	0.1	4691.7
18295	9.3616	2.7	0.1	4899.1
18296	9.2621	2.7	0.1	5133.2
18297	9.1625	2.7	0.1	5397.7
18298	9.0629	2.7	0.1	5696.4
18299	8.9633	2.7	0.1	6032.4
18300	8.8637	2.7	0.1	6408.2
18301	8.7642	2.7	0.1	6823.8
18302	8.6646	2.7	0.1	7275.
18303	8.565	2.7	0.1	7750.4
18304	8.4654	2.7	0.1	8227.9
18305	8.3658	2.7	0.1	8672.9
18306	8.2662	2.7	0.1	9039.6
18307	23.9	2.8	0.1	21.587
18308	23.801	2.8	0.1	42.619
18309	23.701	2.8	0.1	63.767
18310	23.602	2.8	0.1	84.889
18311	23.502	2.8	0.1	105.97
18312	23.403	2.8	0.1	127.
18313	23.303	2.8	0.1	147.98
18314	23.203	2.8	0.1	168.93
18315	23.104	2.8	0.1	189.84
18316	23.004	2.8	0.1	210.72
18317	22.905	2.8	0.1	231.58
18318	22.805	2.8	0.1	252.42
18319	22.705	2.8	0.1	273.26
18320	22.606	2.8	0.1	294.1
18321	22.506	2.8	0.1	314.94
18322	22.407	2.8	0.1	335.79
18323	22.307	2.8	0.1	356.66
18324	22.208	2.8	0.1	377.55
18325	22.108	2.8	0.1	398.46
18326	22.008	2.8	0.1	419.41
18327	21.909	2.8	0.1	440.39
18328	21.809	2.8	0.1	461.4
18329	21.71	2.8	0.1	482.46
18330	21.61	2.8	0.1	503.56
18331	21.51	2.8	0.1	524.71
18332	21.411	2.8	0.1	545.9
18333	21.311	2.8	0.1	567.15
18334	21.212	2.8	0.1	588.45
18335	21.112	2.8	0.1	609.8
18336	21.013	2.8	0.1	631.21
18337	20.913	2.8	0.1	652.67
18338	20.813	2.8	0.1	674.19
18339	20.714	2.8	0.1	695.78
18340	20.614	2.8	0.1	717.41
18341	20.515	2.8	0.1	739.11
18342	20.415	2.8	0.1	760.87
18343	20.316	2.8	0.1	782.69
18344	20.216	2.8	0.1	804.57
18345	20.116	2.8	0.1	826.52
18346	20.017	2.8	0.1	848.52
18347	19.917	2.8	0.1	870.59
18348	19.818	2.8	0.1	892.71
18349	19.718	2.8	0.1	914.9
18350	19.618	2.8	0.1	937.15
18351	19.519	2.8	0.1	959.46
18352	19.419	2.8	0.1	981.84
18353	19.32	2.8	0.1	1004.3
18354	19.22	2.8	0.1	1026.8
18355	19.121	2.8	0.1	1049.3
18356	19.021	2.8	0.1	1071.9
18357	18.921	2.8	0.1	1094.6
18358	18.822	2.8	0.1	1117.4
18359	18.722	2.8	0.1	1140.2
18360	18.623	2.8	0.1	1163.
18361	18.523	2.8	0.1	1185.9
18362	18.423	2.8	0.1	1208.9
18363	18.324	2.8	0.1	1232.
18364	18.224	2.8	0.1	1255.1
18365	18.125	2.8	0.1	1278.2
18366	18.025	2.8	0.1	1301.4
18367	17.926	2.8	0.1	1324.7
18368	17.826	2.8	0.1	1348.
18369	17.726	2.8	0.1	1371.4
18370	17.627	2.8	0.1	1394.9
18371	17.527	2.8	0.1	1418.4
18372	17.428	2.8	0.1	1442.
18373	17.328	2.8	0.1	1465.6
18374	17.229	2.8	0.1	1489.3
18375	17.129	2.8	0.1	1513.
18376	17.029	2.8	0.1	1536.8
18377	16.93	2.8	0.1	1560.7
18378	16.83	2.8	0.1	1584.6
18379	16.731	2.8	0.1	1608.5
18380	16.631	2.8	0.1	1632.5
18381	16.531	2.8	0.1	1656.6
18382	16.432	2.8	0.1	1680.7
18383	16.332	2.8	0.1	1704.9
18384	16.233	2.8	0.1	1729.2
18385	16.133	2.8	0.1	1753.5
18386	16.034	2.8	0.1	1777.8
18387	15.934	2.8	0.1	1802.2
18388	15.834	2.8	0.1	1826.7
18389	15.735	2.8	0.1	1851.2
18390	15.635	2.8	0.1	1875.8
18391	15.536	2.8	0.1	1900.4
18392	15.436	2.8	0.1	1925.1
18393	15.336	2.8	0.1	1949.8
18394	15.237	2.8	0.1	1974.6
18395	15.137	2.8	0.1	1999.4
18396	15.038	2.8	0.1	2024.3
18397	14.938	2.8	0.1	2049.3
18398	14.839	2.8	0.1	2074.3
18399	14.739	2.8	0.1	2099.4
18400	14.639	2.8	0.1	2124.5
18401	14.54	2.8	0.1	2149.7
18402	14.44	2.8	0.1	2175.
18403	14.341	2.8	0.1	2200.3
18404	14.241	2.8	0.1	2225.8
18405	14.142	2.8	0.1	2251.2
18406	14.042	2.8	0.1	2276.8
18407	13.942	2.8	0.1	2302.5
18408	13.843	2.8	0.1	2328.2
18409	13.743	2.8	0.1	2354.
18410	13.644	2.8	0.1	2380.
18411	13.544	2.8	0.1	2406.
18412	13.444	2.8	0.1	2432.2
18413	13.345	2.8	0.1	2458.5
18414	13.245	2.8	0.1	2484.9
18415	13.146	2.8	0.1	2511.6
18416	13.046	2.8	0.1	2538.4
18417	12.947	2.8	0.1	2565.4
18418	12.847	2.8	0.1	2592.6
18419	12.747	2.8	0.1	2620.1
18420	12.648	2.8	0.1	2647.9
18421	12.548	2.8	0.1	2676.
18422	12.449	2.8	0.1	2704.4
18423	12.349	2.8	0.1	2733.3
18424	12.249	2.8	0.1	2762.7
18425	12.15	2.8	0.1	2792.6
18426	12.05	2.8	0.1	2823.1
18427	11.951	2.8	0.1	2854.3
18428	11.851	2.8	0.1	2886.3
18429	11.752	2.8	0.1	2919.2
18430	11.652	2.8	0.1	2953.2
18431	11.552	2.8	0.1	2988.3
18432	11.453	2.8	0.1	3024.8
18433	11.353	2.8	0.1	3062.8
18434	11.254	2.8	0.1	3102.6
18435	11.154	2.8	0.1	3144.4
18436	11.055	2.8	0.1	3188.5
18437	10.955	2.8	0.1	3235.3
18438	10.855	2.8	0.1	3285.1
18439	10.756	2.8	0.1	3338.3
18440	10.656	2.8	0.1	3395.6
18441	10.557	2.8	0.1	3457.4
18442	10.457	2.8	0.1	3524.4
18443	10.357	2.8	0.1	3597.4
18444	10.258	2.8	0.1	3677.4
18445	10.158	2.8	0.1	3765.2
18446	10.059	2.8	0.1	3862.2
18447	9.9591	2.8	0.1	3969.6
18448	9.8595	2.8	0.1	4089.
18449	9.76	2.8	0.1	4222.3
18450	9.6604	2.8	0.1	4371.4
18451	9.5608	2.8	0.1	4538.6
18452	9.4612	2.8	0.1	4726.6
18453	9.3616	2.8	0.1	4938.1
18454	9.2621	2.8	0.1	5176.2
18455	9.1625	2.8	0.1	5443.9
18456	9.0629	2.8	0.1	5743.8
18457	8.9633	2.8	0.1	6078.1
18458	8.8637	2.8	0.1	6447.1
18459	8.7642	2.8	0.1	6848.4
18460	8.6646	2.8	0.1	7275.1
18461	8.565	2.8	0.1	7713.7
18462	8.4654	2.8	0.1	8142.6
18463	8.3658	2.8	0.1	8532.
18464	8.2662	2.8	0.1	8846.
18465	23.9	2.9	0.1	21.58
18466	23.801	2.9	0.1	42.616
18467	23.701	2.9	0.1	63.769
18468	23.602	2.9	0.1	84.896
18469	23.502	2.9	0.1	105.98
18470	23.403	2.9	0.1	127.01
18471	23.303	2.9	0.1	148.
18472	23.203	2.9	0.1	168.95
18473	23.104	2.9	0.1	189.87
18474	23.004	2.9	0.1	210.75
18475	22.905	2.9	0.1	231.62
18476	22.805	2.9	0.1	252.47
18477	22.705	2.9	0.1	273.31
18478	22.606	2.9	0.1	294.14
18479	22.506	2.9	0.1	314.99
18480	22.407	2.9	0.1	335.84
18481	22.307	2.9	0.1	356.71
18482	22.208	2.9	0.1	377.6
18483	22.108	2.9	0.1	398.51
18484	22.008	2.9	0.1	419.46
18485	21.909	2.9	0.1	440.43
18486	21.809	2.9	0.1	461.45
18487	21.71	2.9	0.1	482.5
18488	21.61	2.9	0.1	503.6
18489	21.51	2.9	0.1	524.75
18490	21.411	2.9	0.1	545.94
18491	21.311	2.9	0.1	567.18
18492	21.212	2.9	0.1	588.48
18493	21.112	2.9	0.1	609.83
18494	21.013	2.9	0.1	631.24
18495	20.913	2.9	0.1	652.7
18496	20.813	2.9	0.1	674.22
18497	20.714	2.9	0.1	695.79
18498	20.614	2.9	0.1	717.43
18499	20.515	2.9	0.1	739.13
18500	20.415	2.9	0.1	760.88
18501	20.316	2.9	0.1	782.7
18502	20.216	2.9	0.1	804.58
18503	20.116	2.9	0.1	826.52
18504	20.017	2.9	0.1	848.52
18505	19.917	2.9	0.1	870.58
18506	19.818	2.9	0.1	892.71
18507	19.718	2.9	0.1	914.89
18508	19.618	2.9	0.1	937.14
18509	19.519	2.9	0.1	959.45
18510	19.419	2.9	0.1	981.82
18511	19.32	2.9	0.1	1004.3
18512	19.22	2.9	0.1	1026.8
18513	19.121	2.9	0.1	1049.3
18514	19.021	2.9	0.1	1071.9
18515	18.921	2.9	0.1	1094.6
18516	18.822	2.9	0.1	1117.3
18517	18.722	2.9	0.1	1140.1
18518	18.623	2.9	0.1	1163.
18519	18.523	2.9	0.1	1185.9
18520	18.423	2.9	0.1	1208.9
18521	18.324	2.9	0.1	1231.9
18522	18.224	2.9	0.1	1255.
18523	18.125	2.9	0.1	1278.2
18524	18.025	2.9	0.1	1301.4
18525	17.926	2.9	0.1	1324.7
18526	17.826	2.9	0.1	1348.
18527	17.726	2.9	0.1	1371.4
18528	17.627	2.9	0.1	1394.9
18529	17.527	2.9	0.1	1418.4
18530	17.428	2.9	0.1	1441.9
18531	17.328	2.9	0.1	1465.5
18532	17.229	2.9	0.1	1489.2
18533	17.129	2.9	0.1	1513.
18534	17.029	2.9	0.1	1536.8
18535	16.93	2.9	0.1	1560.6
18536	16.83	2.9	0.1	1584.5
18537	16.731	2.9	0.1	1608.5
18538	16.631	2.9	0.1	1632.5
18539	16.531	2.9	0.1	1656.6
18540	16.432	2.9	0.1	1680.7
18541	16.332	2.9	0.1	1704.9
18542	16.233	2.9	0.1	1729.1
18543	16.133	2.9	0.1	1753.4
18544	16.034	2.9	0.1	1777.7
18545	15.934	2.9	0.1	1802.1
18546	15.834	2.9	0.1	1826.6
18547	15.735	2.9	0.1	1851.1
18548	15.635	2.9	0.1	1875.7
18549	15.536	2.9	0.1	1900.3
18550	15.436	2.9	0.1	1925.
18551	15.336	2.9	0.1	1949.7
18552	15.237	2.9	0.1	1974.5
18553	15.137	2.9	0.1	1999.3
18554	15.038	2.9	0.1	2024.2
18555	14.938	2.9	0.1	2049.2
18556	14.839	2.9	0.1	2074.2
18557	14.739	2.9	0.1	2099.3
18558	14.639	2.9	0.1	2124.4
18559	14.54	2.9	0.1	2149.7
18560	14.44	2.9	0.1	2174.9
18561	14.341	2.9	0.1	2200.3
18562	14.241	2.9	0.1	2225.7
18563	14.142	2.9	0.1	2251.2
18564	14.042	2.9	0.1	2276.7
18565	13.942	2.9	0.1	2302.4
18566	13.843	2.9	0.1	2328.1
18567	13.743	2.9	0.1	2353.9
18568	13.644	2.9	0.1	2379.9
18569	13.544	2.9	0.1	2405.9
18570	13.444	2.9	0.1	2432.1
18571	13.345	2.9	0.1	2458.4
18572	13.245	2.9	0.1	2484.9
18573	13.146	2.9	0.1	2511.5
18574	13.046	2.9	0.1	2538.3
18575	12.947	2.9	0.1	2565.3
18576	12.847	2.9	0.1	2592.6
18577	12.747	2.9	0.1	2620.1
18578	12.648	2.9	0.1	2647.9
18579	12.548	2.9	0.1	2676.
18580	12.449	2.9	0.1	2704.5
18581	12.349	2.9	0.1	2733.4
18582	12.249	2.9	0.1	2762.8
18583	12.15	2.9	0.1	2792.8
18584	12.05	2.9	0.1	2823.3
18585	11.951	2.9	0.1	2854.6
18586	11.851	2.9	0.1	2886.7
18587	11.752	2.9	0.1	2919.7
18588	11.652	2.9	0.1	2953.8
18589	11.552	2.9	0.1	2989.
18590	11.453	2.9	0.1	3025.7
18591	11.353	2.9	0.1	3063.9
18592	11.254	2.9	0.1	3103.8
18593	11.154	2.9	0.1	3145.9
18594	11.055	2.9	0.1	3190.3
18595	10.955	2.9	0.1	3237.4
18596	10.855	2.9	0.1	3287.6
18597	10.756	2.9	0.1	3341.3
18598	10.656	2.9	0.1	3399.1
18599	10.557	2.9	0.1	3461.5
18600	10.457	2.9	0.1	3529.2
18601	10.357	2.9	0.1	3603.1
18602	10.258	2.9	0.1	3684.
18603	10.158	2.9	0.1	3773.
18604	10.059	2.9	0.1	3871.2
18605	9.9591	2.9	0.1	3980.2
18606	9.8595	2.9	0.1	4101.3
18607	9.76	2.9	0.1	4236.5
18608	9.6604	2.9	0.1	4387.7
18609	9.5608	2.9	0.1	4557.2
18610	9.4612	2.9	0.1	4747.7
18611	9.3616	2.9	0.1	4961.6
18612	9.2621	2.9	0.1	5201.9
18613	9.1625	2.9	0.1	5471.2
18614	9.0629	2.9	0.1	5771.6
18615	8.9633	2.9	0.1	6104.3
18616	8.8637	2.9	0.1	6468.5
18617	8.7642	2.9	0.1	6860.5
18618	8.6646	2.9	0.1	7272.
18619	8.565	2.9	0.1	7688.8
18620	8.4654	2.9	0.1	8090.2
18621	8.3658	2.9	0.1	8449.
18622	8.2662	2.9	0.1	8735.2
18623	23.9	3.	0.1	21.577
18624	23.801	3.	0.1	42.615
18625	23.701	3.	0.1	63.77
18626	23.602	3.	0.1	84.898
18627	23.502	3.	0.1	105.98
18628	23.403	3.	0.1	127.02
18629	23.303	3.	0.1	148.01
18630	23.203	3.	0.1	168.96
18631	23.104	3.	0.1	189.88
18632	23.004	3.	0.1	210.76
18633	22.905	3.	0.1	231.63
18634	22.805	3.	0.1	252.48
18635	22.705	3.	0.1	273.32
18636	22.606	3.	0.1	294.16
18637	22.506	3.	0.1	315.
18638	22.407	3.	0.1	335.86
18639	22.307	3.	0.1	356.73
18640	22.208	3.	0.1	377.61
18641	22.108	3.	0.1	398.53
18642	22.008	3.	0.1	419.47
18643	21.909	3.	0.1	440.45
18644	21.809	3.	0.1	461.46
18645	21.71	3.	0.1	482.52
18646	21.61	3.	0.1	503.62
18647	21.51	3.	0.1	524.76
18648	21.411	3.	0.1	545.95
18649	21.311	3.	0.1	567.2
18650	21.212	3.	0.1	588.49
18651	21.112	3.	0.1	609.84
18652	21.013	3.	0.1	631.24
18653	20.913	3.	0.1	652.7
18654	20.813	3.	0.1	674.22
18655	20.714	3.	0.1	695.8
18656	20.614	3.	0.1	717.44
18657	20.515	3.	0.1	739.13
18658	20.415	3.	0.1	760.89
18659	20.316	3.	0.1	782.7
18660	20.216	3.	0.1	804.58
18661	20.116	3.	0.1	826.52
18662	20.017	3.	0.1	848.52
18663	19.917	3.	0.1	870.58
18664	19.818	3.	0.1	892.71
18665	19.718	3.	0.1	914.89
18666	19.618	3.	0.1	937.14
18667	19.519	3.	0.1	959.45
18668	19.419	3.	0.1	981.82
18669	19.32	3.	0.1	1004.3
18670	19.22	3.	0.1	1026.7
18671	19.121	3.	0.1	1049.3
18672	19.021	3.	0.1	1071.9
18673	18.921	3.	0.1	1094.6
18674	18.822	3.	0.1	1117.3
18675	18.722	3.	0.1	1140.1
18676	18.623	3.	0.1	1163.
18677	18.523	3.	0.1	1185.9
18678	18.423	3.	0.1	1208.9
18679	18.324	3.	0.1	1231.9
18680	18.224	3.	0.1	1255.
18681	18.125	3.	0.1	1278.2
18682	18.025	3.	0.1	1301.4
18683	17.926	3.	0.1	1324.7
18684	17.826	3.	0.1	1348.
18685	17.726	3.	0.1	1371.4
18686	17.627	3.	0.1	1394.8
18687	17.527	3.	0.1	1418.3
18688	17.428	3.	0.1	1441.9
18689	17.328	3.	0.1	1465.5
18690	17.229	3.	0.1	1489.2
18691	17.129	3.	0.1	1512.9
18692	17.029	3.	0.1	1536.7
18693	16.93	3.	0.1	1560.6
18694	16.83	3.	0.1	1584.5
18695	16.731	3.	0.1	1608.5
18696	16.631	3.	0.1	1632.5
18697	16.531	3.	0.1	1656.5
18698	16.432	3.	0.1	1680.7
18699	16.332	3.	0.1	1704.8
18700	16.233	3.	0.1	1729.1
18701	16.133	3.	0.1	1753.4
18702	16.034	3.	0.1	1777.7
18703	15.934	3.	0.1	1802.1
18704	15.834	3.	0.1	1826.6
18705	15.735	3.	0.1	1851.1
18706	15.635	3.	0.1	1875.7
18707	15.536	3.	0.1	1900.3
18708	15.436	3.	0.1	1925.
18709	15.336	3.	0.1	1949.7
18710	15.237	3.	0.1	1974.5
18711	15.137	3.	0.1	1999.3
18712	15.038	3.	0.1	2024.2
18713	14.938	3.	0.1	2049.2
18714	14.839	3.	0.1	2074.2
18715	14.739	3.	0.1	2099.3
18716	14.639	3.	0.1	2124.4
18717	14.54	3.	0.1	2149.6
18718	14.44	3.	0.1	2174.9
18719	14.341	3.	0.1	2200.2
18720	14.241	3.	0.1	2225.6
18721	14.142	3.	0.1	2251.1
18722	14.042	3.	0.1	2276.7
18723	13.942	3.	0.1	2302.3
18724	13.843	3.	0.1	2328.1
18725	13.743	3.	0.1	2353.9
18726	13.644	3.	0.1	2379.8
18727	13.544	3.	0.1	2405.9
18728	13.444	3.	0.1	2432.1
18729	13.345	3.	0.1	2458.4
18730	13.245	3.	0.1	2484.8
18731	13.146	3.	0.1	2511.5
18732	13.046	3.	0.1	2538.3
18733	12.947	3.	0.1	2565.3
18734	12.847	3.	0.1	2592.6
18735	12.747	3.	0.1	2620.1
18736	12.648	3.	0.1	2647.9
18737	12.548	3.	0.1	2676.
18738	12.449	3.	0.1	2704.5
18739	12.349	3.	0.1	2733.5
18740	12.249	3.	0.1	2762.9
18741	12.15	3.	0.1	2792.8
18742	12.05	3.	0.1	2823.4
18743	11.951	3.	0.1	2854.7
18744	11.851	3.	0.1	2886.8
18745	11.752	3.	0.1	2919.9
18746	11.652	3.	0.1	2954.
18747	11.552	3.	0.1	2989.3
18748	11.453	3.	0.1	3025.9
18749	11.353	3.	0.1	3064.2
18750	11.254	3.	0.1	3104.3
18751	11.154	3.	0.1	3146.4
18752	11.055	3.	0.1	3190.9
18753	10.955	3.	0.1	3238.1
18754	10.855	3.	0.1	3288.4
18755	10.756	3.	0.1	3342.3
18756	10.656	3.	0.1	3400.2
18757	10.557	3.	0.1	3462.9
18758	10.457	3.	0.1	3530.9
18759	10.357	3.	0.1	3605.
18760	10.258	3.	0.1	3686.2
18761	10.158	3.	0.1	3775.6
18762	10.059	3.	0.1	3874.3
18763	9.9591	3.	0.1	3983.7
18764	9.8595	3.	0.1	4105.4
18765	9.76	3.	0.1	4241.2
18766	9.6604	3.	0.1	4393.1
18767	9.5608	3.	0.1	4563.5
18768	9.4612	3.	0.1	4754.7
18769	9.3616	3.	0.1	4969.5
18770	9.2621	3.	0.1	5210.5
18771	9.1625	3.	0.1	5480.2
18772	9.0629	3.	0.1	5780.7
18773	8.9633	3.	0.1	6112.8
18774	8.8637	3.	0.1	6475.3
18775	8.7642	3.	0.1	6864.1
18776	8.6646	3.	0.1	7270.5
18777	8.565	3.	0.1	7680.1
18778	8.4654	3.	0.1	8072.5
18779	8.3658	3.	0.1	8421.7
18780	8.2662	3.	0.1	8699.1
18781	23.9	3.1	0.1	21.58
18782	23.801	3.1	0.1	42.616
18783	23.701	3.1	0.1	63.769
18784	23.602	3.1	0.1	84.896
18785	23.502	3.1	0.1	105.98
18786	23.403	3.1	0.1	127.01
18787	23.303	3.1	0.1	148.
18788	23.203	3.1	0.1	168.95
18789	23.104	3.1	0.1	189.87
18790	23.004	3.1	0.1	210.75
18791	22.905	3.1	0.1	231.62
18792	22.805	3.1	0.1	252.47
18793	22.705	3.1	0.1	273.31
18794	22.606	3.1	0.1	294.14
18795	22.506	3.1	0.1	314.99
18796	22.407	3.1	0.1	335.84
18797	22.307	3.1	0.1	356.71
18798	22.208	3.1	0.1	377.6
18799	22.108	3.1	0.1	398.51
18800	22.008	3.1	0.1	419.46
18801	21.909	3.1	0.1	440.43
18802	21.809	3.1	0.1	461.45
18803	21.71	3.1	0.1	482.5
18804	21.61	3.1	0.1	503.6
18805	21.51	3.1	0.1	524.75
18806	21.411	3.1	0.1	545.94
18807	21.311	3.1	0.1	567.18
18808	21.212	3.1	0.1	588.48
18809	21.112	3.1	0.1	609.83
18810	21.013	3.1	0.1	631.24
18811	20.913	3.1	0.1	652.7
18812	20.813	3.1	0.1	674.22
18813	20.714	3.1	0.1	695.79
18814	20.614	3.1	0.1	717.43
18815	20.515	3.1	0.1	739.13
18816	20.415	3.1	0.1	760.88
18817	20.316	3.1	0.1	782.7
18818	20.216	3.1	0.1	804.58
18819	20.116	3.1	0.1	826.52
18820	20.017	3.1	0.1	848.52
18821	19.917	3.1	0.1	870.58
18822	19.818	3.1	0.1	892.71
18823	19.718	3.1	0.1	914.89
18824	19.618	3.1	0.1	937.14
18825	19.519	3.1	0.1	959.45
18826	19.419	3.1	0.1	981.82
18827	19.32	3.1	0.1	1004.3
18828	19.22	3.1	0.1	1026.8
18829	19.121	3.1	0.1	1049.3
18830	19.021	3.1	0.1	1071.9
18831	18.921	3.1	0.1	1094.6
18832	18.822	3.1	0.1	1117.3
18833	18.722	3.1	0.1	1140.1
18834	18.623	3.1	0.1	1163.
18835	18.523	3.1	0.1	1185.9
18836	18.423	3.1	0.1	1208.9
18837	18.324	3.1	0.1	1231.9
18838	18.224	3.1	0.1	1255.
18839	18.125	3.1	0.1	1278.2
18840	18.025	3.1	0.1	1301.4
18841	17.926	3.1	0.1	1324.7
18842	17.826	3.1	0.1	1348.
18843	17.726	3.1	0.1	1371.4
18844	17.627	3.1	0.1	1394.9
18845	17.527	3.1	0.1	1418.4
18846	17.428	3.1	0.1	1441.9
18847	17.328	3.1	0.1	1465.5
18848	17.229	3.1	0.1	1489.2
18849	17.129	3.1	0.1	1513.
18850	17.029	3.1	0.1	1536.8
18851	16.93	3.1	0.1	1560.6
18852	16.83	3.1	0.1	1584.5
18853	16.731	3.1	0.1	1608.5
18854	16.631	3.1	0.1	1632.5
18855	16.531	3.1	0.1	1656.6
18856	16.432	3.1	0.1	1680.7
18857	16.332	3.1	0.1	1704.9
18858	16.233	3.1	0.1	1729.1
18859	16.133	3.1	0.1	1753.4
18860	16.034	3.1	0.1	1777.7
18861	15.934	3.1	0.1	1802.1
18862	15.834	3.1	0.1	1826.6
18863	15.735	3.1	0.1	1851.1
18864	15.635	3.1	0.1	1875.7
18865	15.536	3.1	0.1	1900.3
18866	15.436	3.1	0.1	1925.
18867	15.336	3.1	0.1	1949.7
18868	15.237	3.1	0.1	1974.5
18869	15.137	3.1	0.1	1999.3
18870	15.038	3.1	0.1	2024.2
18871	14.938	3.1	0.1	2049.2
18872	14.839	3.1	0.1	2074.2
18873	14.739	3.1	0.1	2099.3
18874	14.639	3.1	0.1	2124.4
18875	14.54	3.1	0.1	2149.7
18876	14.44	3.1	0.1	2174.9
18877	14.341	3.1	0.1	2200.3
18878	14.241	3.1	0.1	2225.7
18879	14.142	3.1	0.1	2251.2
18880	14.042	3.1	0.1	2276.7
18881	13.942	3.1	0.1	2302.4
18882	13.843	3.1	0.1	2328.1
18883	13.743	3.1	0.1	2353.9
18884	13.644	3.1	0.1	2379.9
18885	13.544	3.1	0.1	2405.9
18886	13.444	3.1	0.1	2432.1
18887	13.345	3.1	0.1	2458.4
18888	13.245	3.1	0.1	2484.9
18889	13.146	3.1	0.1	2511.5
18890	13.046	3.1	0.1	2538.3
18891	12.947	3.1	0.1	2565.3
18892	12.847	3.1	0.1	2592.6
18893	12.747	3.1	0.1	2620.1
18894	12.648	3.1	0.1	2647.9
18895	12.548	3.1	0.1	2676.
18896	12.449	3.1	0.1	2704.5
18897	12.349	3.1	0.1	2733.4
18898	12.249	3.1	0.1	2762.8
18899	12.15	3.1	0.1	2792.8
18900	12.05	3.1	0.1	2823.3
18901	11.951	3.1	0.1	2854.6
18902	11.851	3.1	0.1	2886.7
18903	11.752	3.1	0.1	2919.7
18904	11.652	3.1	0.1	2953.8
18905	11.552	3.1	0.1	2989.
18906	11.453	3.1	0.1	3025.7
18907	11.353	3.1	0.1	3063.9
18908	11.254	3.1	0.1	3103.8
18909	11.154	3.1	0.1	3145.9
18910	11.055	3.1	0.1	3190.3
18911	10.955	3.1	0.1	3237.4
18912	10.855	3.1	0.1	3287.6
18913	10.756	3.1	0.1	3341.3
18914	10.656	3.1	0.1	3399.1
18915	10.557	3.1	0.1	3461.5
18916	10.457	3.1	0.1	3529.2
18917	10.357	3.1	0.1	3603.1
18918	10.258	3.1	0.1	3684.
18919	10.158	3.1	0.1	3773.
18920	10.059	3.1	0.1	3871.2
18921	9.9591	3.1	0.1	3980.2
18922	9.8595	3.1	0.1	4101.3
18923	9.76	3.1	0.1	4236.5
18924	9.6604	3.1	0.1	4387.7
18925	9.5608	3.1	0.1	4557.2
18926	9.4612	3.1	0.1	4747.7
18927	9.3616	3.1	0.1	4961.6
18928	9.2621	3.1	0.1	5201.9
18929	9.1625	3.1	0.1	5471.2
18930	9.0629	3.1	0.1	5771.6
18931	8.9633	3.1	0.1	6104.3
18932	8.8637	3.1	0.1	6468.5
18933	8.7642	3.1	0.1	6860.5
18934	8.6646	3.1	0.1	7272.
18935	8.565	3.1	0.1	7688.8
18936	8.4654	3.1	0.1	8090.2
18937	8.3658	3.1	0.1	8449.
18938	8.2662	3.1	0.1	8735.2
18939	23.9	3.2	0.1	21.587
18940	23.801	3.2	0.1	42.619
18941	23.701	3.2	0.1	63.767
18942	23.602	3.2	0.1	84.889
18943	23.502	3.2	0.1	105.97
18944	23.403	3.2	0.1	127.
18945	23.303	3.2	0.1	147.98
18946	23.203	3.2	0.1	168.93
18947	23.104	3.2	0.1	189.84
18948	23.004	3.2	0.1	210.72
18949	22.905	3.2	0.1	231.58
18950	22.805	3.2	0.1	252.42
18951	22.705	3.2	0.1	273.26
18952	22.606	3.2	0.1	294.1
18953	22.506	3.2	0.1	314.94
18954	22.407	3.2	0.1	335.79
18955	22.307	3.2	0.1	356.66
18956	22.208	3.2	0.1	377.55
18957	22.108	3.2	0.1	398.46
18958	22.008	3.2	0.1	419.41
18959	21.909	3.2	0.1	440.39
18960	21.809	3.2	0.1	461.4
18961	21.71	3.2	0.1	482.46
18962	21.61	3.2	0.1	503.56
18963	21.51	3.2	0.1	524.71
18964	21.411	3.2	0.1	545.9
18965	21.311	3.2	0.1	567.15
18966	21.212	3.2	0.1	588.45
18967	21.112	3.2	0.1	609.8
18968	21.013	3.2	0.1	631.21
18969	20.913	3.2	0.1	652.67
18970	20.813	3.2	0.1	674.19
18971	20.714	3.2	0.1	695.78
18972	20.614	3.2	0.1	717.41
18973	20.515	3.2	0.1	739.11
18974	20.415	3.2	0.1	760.87
18975	20.316	3.2	0.1	782.69
18976	20.216	3.2	0.1	804.57
18977	20.116	3.2	0.1	826.52
18978	20.017	3.2	0.1	848.52
18979	19.917	3.2	0.1	870.59
18980	19.818	3.2	0.1	892.71
18981	19.718	3.2	0.1	914.9
18982	19.618	3.2	0.1	937.15
18983	19.519	3.2	0.1	959.46
18984	19.419	3.2	0.1	981.84
18985	19.32	3.2	0.1	1004.3
18986	19.22	3.2	0.1	1026.8
18987	19.121	3.2	0.1	1049.3
18988	19.021	3.2	0.1	1071.9
18989	18.921	3.2	0.1	1094.6
18990	18.822	3.2	0.1	1117.4
18991	18.722	3.2	0.1	1140.2
18992	18.623	3.2	0.1	1163.
18993	18.523	3.2	0.1	1185.9
18994	18.423	3.2	0.1	1208.9
18995	18.324	3.2	0.1	1232.
18996	18.224	3.2	0.1	1255.1
18997	18.125	3.2	0.1	1278.2
18998	18.025	3.2	0.1	1301.4
18999	17.926	3.2	0.1	1324.7
19000	17.826	3.2	0.1	1348.
19001	17.726	3.2	0.1	1371.4
19002	17.627	3.2	0.1	1394.9
19003	17.527	3.2	0.1	1418.4
19004	17.428	3.2	0.1	1442.
19005	17.328	3.2	0.1	1465.6
19006	17.229	3.2	0.1	1489.3
19007	17.129	3.2	0.1	1513.
19008	17.029	3.2	0.1	1536.8
19009	16.93	3.2	0.1	1560.7
19010	16.83	3.2	0.1	1584.6
19011	16.731	3.2	0.1	1608.5
19012	16.631	3.2	0.1	1632.5
19013	16.531	3.2	0.1	1656.6
19014	16.432	3.2	0.1	1680.7
19015	16.332	3.2	0.1	1704.9
19016	16.233	3.2	0.1	1729.2
19017	16.133	3.2	0.1	1753.5
19018	16.034	3.2	0.1	1777.8
19019	15.934	3.2	0.1	1802.2
19020	15.834	3.2	0.1	1826.7
19021	15.735	3.2	0.1	1851.2
19022	15.635	3.2	0.1	1875.8
19023	15.536	3.2	0.1	1900.4
19024	15.436	3.2	0.1	1925.1
19025	15.336	3.2	0.1	1949.8
19026	15.237	3.2	0.1	1974.6
19027	15.137	3.2	0.1	1999.4
19028	15.038	3.2	0.1	2024.3
19029	14.938	3.2	0.1	2049.3
19030	14.839	3.2	0.1	2074.3
19031	14.739	3.2	0.1	2099.4
19032	14.639	3.2	0.1	2124.5
19033	14.54	3.2	0.1	2149.7
19034	14.44	3.2	0.1	2175.
19035	14.341	3.2	0.1	2200.3
19036	14.241	3.2	0.1	2225.8
19037	14.142	3.2	0.1	2251.2
19038	14.042	3.2	0.1	2276.8
19039	13.942	3.2	0.1	2302.5
19040	13.843	3.2	0.1	2328.2
19041	13.743	3.2	0.1	2354.
19042	13.644	3.2	0.1	2380.
19043	13.544	3.2	0.1	2406.
19044	13.444	3.2	0.1	2432.2
19045	13.345	3.2	0.1	2458.5
19046	13.245	3.2	0.1	2484.9
19047	13.146	3.2	0.1	2511.6
19048	13.046	3.2	0.1	2538.4
19049	12.947	3.2	0.1	2565.4
19050	12.847	3.2	0.1	2592.6
19051	12.747	3.2	0.1	2620.1
19052	12.648	3.2	0.1	2647.9
19053	12.548	3.2	0.1	2676.
19054	12.449	3.2	0.1	2704.4
19055	12.349	3.2	0.1	2733.3
19056	12.249	3.2	0.1	2762.7
19057	12.15	3.2	0.1	2792.6
19058	12.05	3.2	0.1	2823.1
19059	11.951	3.2	0.1	2854.3
19060	11.851	3.2	0.1	2886.3
19061	11.752	3.2	0.1	2919.2
19062	11.652	3.2	0.1	2953.2
19063	11.552	3.2	0.1	2988.3
19064	11.453	3.2	0.1	3024.8
19065	11.353	3.2	0.1	3062.8
19066	11.254	3.2	0.1	3102.6
19067	11.154	3.2	0.1	3144.4
19068	11.055	3.2	0.1	3188.5
19069	10.955	3.2	0.1	3235.3
19070	10.855	3.2	0.1	3285.1
19071	10.756	3.2	0.1	3338.3
19072	10.656	3.2	0.1	3395.6
19073	10.557	3.2	0.1	3457.4
19074	10.457	3.2	0.1	3524.4
19075	10.357	3.2	0.1	3597.4
19076	10.258	3.2	0.1	3677.4
19077	10.158	3.2	0.1	3765.2
19078	10.059	3.2	0.1	3862.2
19079	9.9591	3.2	0.1	3969.6
19080	9.8595	3.2	0.1	4089.
19081	9.76	3.2	0.1	4222.3
19082	9.6604	3.2	0.1	4371.4
19083	9.5608	3.2	0.1	4538.6
19084	9.4612	3.2	0.1	4726.6
19085	9.3616	3.2	0.1	4938.1
19086	9.2621	3.2	0.1	5176.2
19087	9.1625	3.2	0.1	5443.9
19088	9.0629	3.2	0.1	5743.8
19089	8.9633	3.2	0.1	6078.1
19090	8.8637	3.2	0.1	6447.1
19091	8.7642	3.2	0.1	6848.4
19092	8.6646	3.2	0.1	7275.1
19093	8.565	3.2	0.1	7713.7
19094	8.4654	3.2	0.1	8142.6
19095	8.3658	3.2	0.1	8532.
19096	8.2662	3.2	0.1	8846.
19097	23.9	3.3	0.1	21.6
19098	23.801	3.3	0.1	42.623
19099	23.701	3.3	0.1	63.764
19100	23.602	3.3	0.1	84.878
19101	23.502	3.3	0.1	105.95
19102	23.403	3.3	0.1	126.97
19103	23.303	3.3	0.1	147.95
19104	23.203	3.3	0.1	168.88
19105	23.104	3.3	0.1	189.79
19106	23.004	3.3	0.1	210.66
19107	22.905	3.3	0.1	231.51
19108	22.805	3.3	0.1	252.36
19109	22.705	3.3	0.1	273.19
19110	22.606	3.3	0.1	294.02
19111	22.506	3.3	0.1	314.86
19112	22.407	3.3	0.1	335.71
19113	22.307	3.3	0.1	356.58
19114	22.208	3.3	0.1	377.47
19115	22.108	3.3	0.1	398.38
19116	22.008	3.3	0.1	419.33
19117	21.909	3.3	0.1	440.31
19118	21.809	3.3	0.1	461.33
19119	21.71	3.3	0.1	482.39
19120	21.61	3.3	0.1	503.49
19121	21.51	3.3	0.1	524.64
19122	21.411	3.3	0.1	545.84
19123	21.311	3.3	0.1	567.09
19124	21.212	3.3	0.1	588.39
19125	21.112	3.3	0.1	609.75
19126	21.013	3.3	0.1	631.16
19127	20.913	3.3	0.1	652.63
19128	20.813	3.3	0.1	674.16
19129	20.714	3.3	0.1	695.74
19130	20.614	3.3	0.1	717.39
19131	20.515	3.3	0.1	739.09
19132	20.415	3.3	0.1	760.86
19133	20.316	3.3	0.1	782.68
19134	20.216	3.3	0.1	804.57
19135	20.116	3.3	0.1	826.51
19136	20.017	3.3	0.1	848.52
19137	19.917	3.3	0.1	870.59
19138	19.818	3.3	0.1	892.72
19139	19.718	3.3	0.1	914.91
19140	19.618	3.3	0.1	937.17
19141	19.519	3.3	0.1	959.48
19142	19.419	3.3	0.1	981.86
19143	19.32	3.3	0.1	1004.3
19144	19.22	3.3	0.1	1026.8
19145	19.121	3.3	0.1	1049.4
19146	19.021	3.3	0.1	1072.
19147	18.921	3.3	0.1	1094.7
19148	18.822	3.3	0.1	1117.4
19149	18.722	3.3	0.1	1140.2
19150	18.623	3.3	0.1	1163.1
19151	18.523	3.3	0.1	1186.
19152	18.423	3.3	0.1	1209.
19153	18.324	3.3	0.1	1232.
19154	18.224	3.3	0.1	1255.1
19155	18.125	3.3	0.1	1278.3
19156	18.025	3.3	0.1	1301.5
19157	17.926	3.3	0.1	1324.8
19158	17.826	3.3	0.1	1348.1
19159	17.726	3.3	0.1	1371.5
19160	17.627	3.3	0.1	1395.
19161	17.527	3.3	0.1	1418.5
19162	17.428	3.3	0.1	1442.
19163	17.328	3.3	0.1	1465.7
19164	17.229	3.3	0.1	1489.3
19165	17.129	3.3	0.1	1513.1
19166	17.029	3.3	0.1	1536.9
19167	16.93	3.3	0.1	1560.7
19168	16.83	3.3	0.1	1584.6
19169	16.731	3.3	0.1	1608.6
19170	16.631	3.3	0.1	1632.6
19171	16.531	3.3	0.1	1656.7
19172	16.432	3.3	0.1	1680.8
19173	16.332	3.3	0.1	1705.
19174	16.233	3.3	0.1	1729.3
19175	16.133	3.3	0.1	1753.6
19176	16.034	3.3	0.1	1777.9
19177	15.934	3.3	0.1	1802.3
19178	15.834	3.3	0.1	1826.8
19179	15.735	3.3	0.1	1851.3
19180	15.635	3.3	0.1	1875.9
19181	15.536	3.3	0.1	1900.5
19182	15.436	3.3	0.1	1925.2
19183	15.336	3.3	0.1	1949.9
19184	15.237	3.3	0.1	1974.7
19185	15.137	3.3	0.1	1999.5
19186	15.038	3.3	0.1	2024.5
19187	14.938	3.3	0.1	2049.4
19188	14.839	3.3	0.1	2074.4
19189	14.739	3.3	0.1	2099.5
19190	14.639	3.3	0.1	2124.7
19191	14.54	3.3	0.1	2149.9
19192	14.44	3.3	0.1	2175.2
19193	14.341	3.3	0.1	2200.5
19194	14.241	3.3	0.1	2225.9
19195	14.142	3.3	0.1	2251.4
19196	14.042	3.3	0.1	2277.
19197	13.942	3.3	0.1	2302.6
19198	13.843	3.3	0.1	2328.3
19199	13.743	3.3	0.1	2354.2
19200	13.644	3.3	0.1	2380.1
19201	13.544	3.3	0.1	2406.2
19202	13.444	3.3	0.1	2432.3
19203	13.345	3.3	0.1	2458.6
19204	13.245	3.3	0.1	2485.1
19205	13.146	3.3	0.1	2511.7
19206	13.046	3.3	0.1	2538.5
19207	12.947	3.3	0.1	2565.5
19208	12.847	3.3	0.1	2592.7
19209	12.747	3.3	0.1	2620.1
19210	12.648	3.3	0.1	2647.9
19211	12.548	3.3	0.1	2675.9
19212	12.449	3.3	0.1	2704.4
19213	12.349	3.3	0.1	2733.2
19214	12.249	3.3	0.1	2762.5
19215	12.15	3.3	0.1	2792.3
19216	12.05	3.3	0.1	2822.7
19217	11.951	3.3	0.1	2853.8
19218	11.851	3.3	0.1	2885.7
19219	11.752	3.3	0.1	2918.5
19220	11.652	3.3	0.1	2952.2
19221	11.552	3.3	0.1	2987.1
19222	11.453	3.3	0.1	3023.4
19223	11.353	3.3	0.1	3061.1
19224	11.254	3.3	0.1	3100.5
19225	11.154	3.3	0.1	3141.9
19226	11.055	3.3	0.1	3185.6
19227	10.955	3.3	0.1	3231.8
19228	10.855	3.3	0.1	3280.9
19229	10.756	3.3	0.1	3333.4
19230	10.656	3.3	0.1	3389.8
19231	10.557	3.3	0.1	3450.6
19232	10.457	3.3	0.1	3516.4
19233	10.357	3.3	0.1	3588.1
19234	10.258	3.3	0.1	3666.4
19235	10.158	3.3	0.1	3752.4
19236	10.059	3.3	0.1	3847.3
19237	9.9591	3.3	0.1	3952.2
19238	9.8595	3.3	0.1	4068.9
19239	9.76	3.3	0.1	4199.
19240	9.6604	3.3	0.1	4344.5
19241	9.5608	3.3	0.1	4507.9
19242	9.4612	3.3	0.1	4691.7
19243	9.3616	3.3	0.1	4899.1
19244	9.2621	3.3	0.1	5133.2
19245	9.1625	3.3	0.1	5397.7
19246	9.0629	3.3	0.1	5696.4
19247	8.9633	3.3	0.1	6032.4
19248	8.8637	3.3	0.1	6408.2
19249	8.7642	3.3	0.1	6823.8
19250	8.6646	3.3	0.1	7275.
19251	8.565	3.3	0.1	7750.4
19252	8.4654	3.3	0.1	8227.9
19253	8.3658	3.3	0.1	8672.9
19254	8.2662	3.3	0.1	9039.6
19255	23.9	3.4	0.1	21.617
19256	23.801	3.4	0.1	42.629
19257	23.701	3.4	0.1	63.759
19258	23.602	3.4	0.1	84.862
19259	23.502	3.4	0.1	105.92
19260	23.403	3.4	0.1	126.93
19261	23.303	3.4	0.1	147.9
19262	23.203	3.4	0.1	168.82
19263	23.104	3.4	0.1	189.71
19264	23.004	3.4	0.1	210.58
19265	22.905	3.4	0.1	231.43
19266	22.805	3.4	0.1	252.26
19267	22.705	3.4	0.1	273.09
19268	22.606	3.4	0.1	293.92
19269	22.506	3.4	0.1	314.75
19270	22.407	3.4	0.1	335.6
19271	22.307	3.4	0.1	356.46
19272	22.208	3.4	0.1	377.35
19273	22.108	3.4	0.1	398.27
19274	22.008	3.4	0.1	419.22
19275	21.909	3.4	0.1	440.2
19276	21.809	3.4	0.1	461.22
19277	21.71	3.4	0.1	482.29
19278	21.61	3.4	0.1	503.4
19279	21.51	3.4	0.1	524.55
19280	21.411	3.4	0.1	545.76
19281	21.311	3.4	0.1	567.01
19282	21.212	3.4	0.1	588.32
19283	21.112	3.4	0.1	609.68
19284	21.013	3.4	0.1	631.1
19285	20.913	3.4	0.1	652.58
19286	20.813	3.4	0.1	674.11
19287	20.714	3.4	0.1	695.7
19288	20.614	3.4	0.1	717.35
19289	20.515	3.4	0.1	739.06
19290	20.415	3.4	0.1	760.83
19291	20.316	3.4	0.1	782.67
19292	20.216	3.4	0.1	804.56
19293	20.116	3.4	0.1	826.51
19294	20.017	3.4	0.1	848.52
19295	19.917	3.4	0.1	870.6
19296	19.818	3.4	0.1	892.73
19297	19.718	3.4	0.1	914.93
19298	19.618	3.4	0.1	937.19
19299	19.519	3.4	0.1	959.51
19300	19.419	3.4	0.1	981.89
19301	19.32	3.4	0.1	1004.3
19302	19.22	3.4	0.1	1026.8
19303	19.121	3.4	0.1	1049.4
19304	19.021	3.4	0.1	1072.
19305	18.921	3.4	0.1	1094.7
19306	18.822	3.4	0.1	1117.5
19307	18.722	3.4	0.1	1140.3
19308	18.623	3.4	0.1	1163.1
19309	18.523	3.4	0.1	1186.1
19310	18.423	3.4	0.1	1209.
19311	18.324	3.4	0.1	1232.1
19312	18.224	3.4	0.1	1255.2
19313	18.125	3.4	0.1	1278.4
19314	18.025	3.4	0.1	1301.6
19315	17.926	3.4	0.1	1324.9
19316	17.826	3.4	0.1	1348.2
19317	17.726	3.4	0.1	1371.6
19318	17.627	3.4	0.1	1395.1
19319	17.527	3.4	0.1	1418.6
19320	17.428	3.4	0.1	1442.1
19321	17.328	3.4	0.1	1465.8
19322	17.229	3.4	0.1	1489.5
19323	17.129	3.4	0.1	1513.2
19324	17.029	3.4	0.1	1537.
19325	16.93	3.4	0.1	1560.8
19326	16.83	3.4	0.1	1584.8
19327	16.731	3.4	0.1	1608.7
19328	16.631	3.4	0.1	1632.8
19329	16.531	3.4	0.1	1656.8
19330	16.432	3.4	0.1	1681.
19331	16.332	3.4	0.1	1705.2
19332	16.233	3.4	0.1	1729.4
19333	16.133	3.4	0.1	1753.7
19334	16.034	3.4	0.1	1778.1
19335	15.934	3.4	0.1	1802.5
19336	15.834	3.4	0.1	1826.9
19337	15.735	3.4	0.1	1851.4
19338	15.635	3.4	0.1	1876.
19339	15.536	3.4	0.1	1900.6
19340	15.436	3.4	0.1	1925.3
19341	15.336	3.4	0.1	1950.1
19342	15.237	3.4	0.1	1974.9
19343	15.137	3.4	0.1	1999.7
19344	15.038	3.4	0.1	2024.6
19345	14.938	3.4	0.1	2049.6
19346	14.839	3.4	0.1	2074.6
19347	14.739	3.4	0.1	2099.7
19348	14.639	3.4	0.1	2124.9
19349	14.54	3.4	0.1	2150.1
19350	14.44	3.4	0.1	2175.4
19351	14.341	3.4	0.1	2200.7
19352	14.241	3.4	0.1	2226.1
19353	14.142	3.4	0.1	2251.6
19354	14.042	3.4	0.1	2277.2
19355	13.942	3.4	0.1	2302.8
19356	13.843	3.4	0.1	2328.6
19357	13.743	3.4	0.1	2354.4
19358	13.644	3.4	0.1	2380.3
19359	13.544	3.4	0.1	2406.4
19360	13.444	3.4	0.1	2432.5
19361	13.345	3.4	0.1	2458.8
19362	13.245	3.4	0.1	2485.3
19363	13.146	3.4	0.1	2511.8
19364	13.046	3.4	0.1	2538.6
19365	12.947	3.4	0.1	2565.6
19366	12.847	3.4	0.1	2592.8
19367	12.747	3.4	0.1	2620.2
19368	12.648	3.4	0.1	2647.9
19369	12.548	3.4	0.1	2675.9
19370	12.449	3.4	0.1	2704.2
19371	12.349	3.4	0.1	2733.
19372	12.249	3.4	0.1	2762.2
19373	12.15	3.4	0.1	2791.9
19374	12.05	3.4	0.1	2822.2
19375	11.951	3.4	0.1	2853.1
19376	11.851	3.4	0.1	2884.8
19377	11.752	3.4	0.1	2917.4
19378	11.652	3.4	0.1	2950.9
19379	11.552	3.4	0.1	2985.5
19380	11.453	3.4	0.1	3021.4
19381	11.353	3.4	0.1	3058.7
19382	11.254	3.4	0.1	3097.6
19383	11.154	3.4	0.1	3138.5
19384	11.055	3.4	0.1	3181.5
19385	10.955	3.4	0.1	3226.9
19386	10.855	3.4	0.1	3275.2
19387	10.756	3.4	0.1	3326.7
19388	10.656	3.4	0.1	3381.8
19389	10.557	3.4	0.1	3441.2
19390	10.457	3.4	0.1	3505.4
19391	10.357	3.4	0.1	3575.2
19392	10.258	3.4	0.1	3651.4
19393	10.158	3.4	0.1	3734.8
19394	10.059	3.4	0.1	3826.7
19395	9.9591	3.4	0.1	3928.3
19396	9.8595	3.4	0.1	4041.1
19397	9.76	3.4	0.1	4166.9
19398	9.6604	3.4	0.1	4307.5
19399	9.5608	3.4	0.1	4465.5
19400	9.4612	3.4	0.1	4643.4
19401	9.3616	3.4	0.1	4844.7
19402	9.2621	3.4	0.1	5072.8
19403	9.1625	3.4	0.1	5332.2
19404	9.0629	3.4	0.1	5627.6
19405	8.9633	3.4	0.1	5964.2
19406	8.8637	3.4	0.1	6346.9
19407	8.7642	3.4	0.1	6779.7
19408	8.6646	3.4	0.1	7263.1
19409	8.565	3.4	0.1	7790.2
19410	8.4654	3.4	0.1	8340.8
19411	8.3658	3.4	0.1	8875.
19412	8.2662	3.4	0.1	9330.4
19413	23.9	3.5	0.1	21.639
19414	23.801	3.5	0.1	42.636
19415	23.701	3.5	0.1	63.752
19416	23.602	3.5	0.1	84.84
19417	23.502	3.5	0.1	105.88
19418	23.403	3.5	0.1	126.88
19419	23.303	3.5	0.1	147.83
19420	23.203	3.5	0.1	168.74
19421	23.104	3.5	0.1	189.62
19422	23.004	3.5	0.1	210.47
19423	22.905	3.5	0.1	231.31
19424	22.805	3.5	0.1	252.13
19425	22.705	3.5	0.1	272.95
19426	22.606	3.5	0.1	293.78
19427	22.506	3.5	0.1	314.61
19428	22.407	3.5	0.1	335.45
19429	22.307	3.5	0.1	356.32
19430	22.208	3.5	0.1	377.21
19431	22.108	3.5	0.1	398.12
19432	22.008	3.5	0.1	419.07
19433	21.909	3.5	0.1	440.06
19434	21.809	3.5	0.1	461.09
19435	21.71	3.5	0.1	482.16
19436	21.61	3.5	0.1	503.27
19437	21.51	3.5	0.1	524.44
19438	21.411	3.5	0.1	545.65
19439	21.311	3.5	0.1	566.91
19440	21.212	3.5	0.1	588.23
19441	21.112	3.5	0.1	609.6
19442	21.013	3.5	0.1	631.03
19443	20.913	3.5	0.1	652.51
19444	20.813	3.5	0.1	674.05
19445	20.714	3.5	0.1	695.65
19446	20.614	3.5	0.1	717.31
19447	20.515	3.5	0.1	739.03
19448	20.415	3.5	0.1	760.81
19449	20.316	3.5	0.1	782.65
19450	20.216	3.5	0.1	804.55
19451	20.116	3.5	0.1	826.51
19452	20.017	3.5	0.1	848.53
19453	19.917	3.5	0.1	870.61
19454	19.818	3.5	0.1	892.75
19455	19.718	3.5	0.1	914.96
19456	19.618	3.5	0.1	937.22
19457	19.519	3.5	0.1	959.55
19458	19.419	3.5	0.1	981.94
19459	19.32	3.5	0.1	1004.4
19460	19.22	3.5	0.1	1026.9
19461	19.121	3.5	0.1	1049.5
19462	19.021	3.5	0.1	1072.1
19463	18.921	3.5	0.1	1094.8
19464	18.822	3.5	0.1	1117.5
19465	18.722	3.5	0.1	1140.3
19466	18.623	3.5	0.1	1163.2
19467	18.523	3.5	0.1	1186.1
19468	18.423	3.5	0.1	1209.1
19469	18.324	3.5	0.1	1232.2
19470	18.224	3.5	0.1	1255.3
19471	18.125	3.5	0.1	1278.5
19472	18.025	3.5	0.1	1301.7
19473	17.926	3.5	0.1	1325.
19474	17.826	3.5	0.1	1348.3
19475	17.726	3.5	0.1	1371.7
19476	17.627	3.5	0.1	1395.2
19477	17.527	3.5	0.1	1418.7
19478	17.428	3.5	0.1	1442.3
19479	17.328	3.5	0.1	1465.9
19480	17.229	3.5	0.1	1489.6
19481	17.129	3.5	0.1	1513.3
19482	17.029	3.5	0.1	1537.1
19483	16.93	3.5	0.1	1561.
19484	16.83	3.5	0.1	1584.9
19485	16.731	3.5	0.1	1608.9
19486	16.631	3.5	0.1	1632.9
19487	16.531	3.5	0.1	1657.
19488	16.432	3.5	0.1	1681.1
19489	16.332	3.5	0.1	1705.3
19490	16.233	3.5	0.1	1729.6
19491	16.133	3.5	0.1	1753.9
19492	16.034	3.5	0.1	1778.2
19493	15.934	3.5	0.1	1802.6
19494	15.834	3.5	0.1	1827.1
19495	15.735	3.5	0.1	1851.6
19496	15.635	3.5	0.1	1876.2
19497	15.536	3.5	0.1	1900.9
19498	15.436	3.5	0.1	1925.5
19499	15.336	3.5	0.1	1950.3
19500	15.237	3.5	0.1	1975.1
19501	15.137	3.5	0.1	1999.9
19502	15.038	3.5	0.1	2024.9
19503	14.938	3.5	0.1	2049.8
19504	14.839	3.5	0.1	2074.9
19505	14.739	3.5	0.1	2100.
19506	14.639	3.5	0.1	2125.1
19507	14.54	3.5	0.1	2150.3
19508	14.44	3.5	0.1	2175.6
19509	14.341	3.5	0.1	2201.
19510	14.241	3.5	0.1	2226.4
19511	14.142	3.5	0.1	2251.9
19512	14.042	3.5	0.1	2277.4
19513	13.942	3.5	0.1	2303.1
19514	13.843	3.5	0.1	2328.8
19515	13.743	3.5	0.1	2354.7
19516	13.644	3.5	0.1	2380.6
19517	13.544	3.5	0.1	2406.6
19518	13.444	3.5	0.1	2432.8
19519	13.345	3.5	0.1	2459.1
19520	13.245	3.5	0.1	2485.5
19521	13.146	3.5	0.1	2512.1
19522	13.046	3.5	0.1	2538.8
19523	12.947	3.5	0.1	2565.7
19524	12.847	3.5	0.1	2592.9
19525	12.747	3.5	0.1	2620.2
19526	12.648	3.5	0.1	2647.9
19527	12.548	3.5	0.1	2675.8
19528	12.449	3.5	0.1	2704.1
19529	12.349	3.5	0.1	2732.8
19530	12.249	3.5	0.1	2761.8
19531	12.15	3.5	0.1	2791.4
19532	12.05	3.5	0.1	2821.5
19533	11.951	3.5	0.1	2852.3
19534	11.851	3.5	0.1	2883.7
19535	11.752	3.5	0.1	2916.
19536	11.652	3.5	0.1	2949.2
19537	11.552	3.5	0.1	2983.4
19538	11.453	3.5	0.1	3018.9
19539	11.353	3.5	0.1	3055.7
19540	11.254	3.5	0.1	3094.
19541	11.154	3.5	0.1	3134.2
19542	11.055	3.5	0.1	3176.3
19543	10.955	3.5	0.1	3220.8
19544	10.855	3.5	0.1	3268.
19545	10.756	3.5	0.1	3318.1
19546	10.656	3.5	0.1	3371.8
19547	10.557	3.5	0.1	3429.4
19548	10.457	3.5	0.1	3491.6
19549	10.357	3.5	0.1	3559.
19550	10.258	3.5	0.1	3632.4
19551	10.158	3.5	0.1	3712.7
19552	10.059	3.5	0.1	3800.9
19553	9.9591	3.5	0.1	3898.3
19554	9.8595	3.5	0.1	4006.3
19555	9.76	3.5	0.1	4126.5
19556	9.6604	3.5	0.1	4260.9
19557	9.5608	3.5	0.1	4411.9
19558	9.4612	3.5	0.1	4582.3
19559	9.3616	3.5	0.1	4775.4
19560	9.2621	3.5	0.1	4995.3
19561	9.1625	3.5	0.1	5246.9
19562	9.0629	3.5	0.1	5536.1
19563	8.9633	3.5	0.1	5870.2
19564	8.8637	3.5	0.1	6257.4
19565	8.7642	3.5	0.1	6706.7
19566	8.6646	3.5	0.1	7225.9
19567	8.565	3.5	0.1	7817.6
19568	8.4654	3.5	0.1	8469.2
19569	8.3658	3.5	0.1	9138.8
19570	8.2662	3.5	0.1	9740.4
19571	23.9	3.6	0.1	21.666
19572	23.801	3.6	0.1	42.645
19573	23.701	3.6	0.1	63.743
19574	23.602	3.6	0.1	84.813
19575	23.502	3.6	0.1	105.84
19576	23.403	3.6	0.1	126.81
19577	23.303	3.6	0.1	147.75
19578	23.203	3.6	0.1	168.64
19579	23.104	3.6	0.1	189.5
19580	23.004	3.6	0.1	210.34
19581	22.905	3.6	0.1	231.17
19582	22.805	3.6	0.1	251.98
19583	22.705	3.6	0.1	272.79
19584	22.606	3.6	0.1	293.61
19585	22.506	3.6	0.1	314.43
19586	22.407	3.6	0.1	335.27
19587	22.307	3.6	0.1	356.14
19588	22.208	3.6	0.1	377.03
19589	22.108	3.6	0.1	397.95
19590	22.008	3.6	0.1	418.9
19591	21.909	3.6	0.1	439.89
19592	21.809	3.6	0.1	460.93
19593	21.71	3.6	0.1	482.
19594	21.61	3.6	0.1	503.12
19595	21.51	3.6	0.1	524.3
19596	21.411	3.6	0.1	545.52
19597	21.311	3.6	0.1	566.79
19598	21.212	3.6	0.1	588.12
19599	21.112	3.6	0.1	609.5
19600	21.013	3.6	0.1	630.94
19601	20.913	3.6	0.1	652.43
19602	20.813	3.6	0.1	673.98
19603	20.714	3.6	0.1	695.59
19604	20.614	3.6	0.1	717.26
19605	20.515	3.6	0.1	738.99
19606	20.415	3.6	0.1	760.78
19607	20.316	3.6	0.1	782.63
19608	20.216	3.6	0.1	804.53
19609	20.116	3.6	0.1	826.5
19610	20.017	3.6	0.1	848.53
19611	19.917	3.6	0.1	870.62
19612	19.818	3.6	0.1	892.78
19613	19.718	3.6	0.1	914.99
19614	19.618	3.6	0.1	937.26
19615	19.519	3.6	0.1	959.6
19616	19.419	3.6	0.1	981.99
19617	19.32	3.6	0.1	1004.4
19618	19.22	3.6	0.1	1027.
19619	19.121	3.6	0.1	1049.5
19620	19.021	3.6	0.1	1072.2
19621	18.921	3.6	0.1	1094.9
19622	18.822	3.6	0.1	1117.6
19623	18.722	3.6	0.1	1140.4
19624	18.623	3.6	0.1	1163.3
19625	18.523	3.6	0.1	1186.3
19626	18.423	3.6	0.1	1209.3
19627	18.324	3.6	0.1	1232.3
19628	18.224	3.6	0.1	1255.4
19629	18.125	3.6	0.1	1278.6
19630	18.025	3.6	0.1	1301.8
19631	17.926	3.6	0.1	1325.1
19632	17.826	3.6	0.1	1348.5
19633	17.726	3.6	0.1	1371.9
19634	17.627	3.6	0.1	1395.3
19635	17.527	3.6	0.1	1418.9
19636	17.428	3.6	0.1	1442.4
19637	17.328	3.6	0.1	1466.1
19638	17.229	3.6	0.1	1489.8
19639	17.129	3.6	0.1	1513.5
19640	17.029	3.6	0.1	1537.3
19641	16.93	3.6	0.1	1561.2
19642	16.83	3.6	0.1	1585.1
19643	16.731	3.6	0.1	1609.1
19644	16.631	3.6	0.1	1633.1
19645	16.531	3.6	0.1	1657.2
19646	16.432	3.6	0.1	1681.3
19647	16.332	3.6	0.1	1705.5
19648	16.233	3.6	0.1	1729.8
19649	16.133	3.6	0.1	1754.1
19650	16.034	3.6	0.1	1778.5
19651	15.934	3.6	0.1	1802.9
19652	15.834	3.6	0.1	1827.4
19653	15.735	3.6	0.1	1851.9
19654	15.635	3.6	0.1	1876.5
19655	15.536	3.6	0.1	1901.1
19656	15.436	3.6	0.1	1925.8
19657	15.336	3.6	0.1	1950.6
19658	15.237	3.6	0.1	1975.4
19659	15.137	3.6	0.1	2000.2
19660	15.038	3.6	0.1	2025.1
19661	14.938	3.6	0.1	2050.1
19662	14.839	3.6	0.1	2075.2
19663	14.739	3.6	0.1	2100.3
19664	14.639	3.6	0.1	2125.4
19665	14.54	3.6	0.1	2150.6
19666	14.44	3.6	0.1	2175.9
19667	14.341	3.6	0.1	2201.3
19668	14.241	3.6	0.1	2226.7
19669	14.142	3.6	0.1	2252.2
19670	14.042	3.6	0.1	2277.8
19671	13.942	3.6	0.1	2303.4
19672	13.843	3.6	0.1	2329.2
19673	13.743	3.6	0.1	2355.
19674	13.644	3.6	0.1	2380.9
19675	13.544	3.6	0.1	2406.9
19676	13.444	3.6	0.1	2433.1
19677	13.345	3.6	0.1	2459.4
19678	13.245	3.6	0.1	2485.8
19679	13.146	3.6	0.1	2512.3
19680	13.046	3.6	0.1	2539.
19681	12.947	3.6	0.1	2565.9
19682	12.847	3.6	0.1	2593.
19683	12.747	3.6	0.1	2620.3
19684	12.648	3.6	0.1	2647.9
19685	12.548	3.6	0.1	2675.8
19686	12.449	3.6	0.1	2703.9
19687	12.349	3.6	0.1	2732.5
19688	12.249	3.6	0.1	2761.4
19689	12.15	3.6	0.1	2790.8
19690	12.05	3.6	0.1	2820.7
19691	11.951	3.6	0.1	2851.2
19692	11.851	3.6	0.1	2882.4
19693	11.752	3.6	0.1	2914.3
19694	11.652	3.6	0.1	2947.1
19695	11.552	3.6	0.1	2980.9
19696	11.453	3.6	0.1	3015.8
19697	11.353	3.6	0.1	3052.
19698	11.254	3.6	0.1	3089.7
19699	11.154	3.6	0.1	3129.
19700	11.055	3.6	0.1	3170.1
19701	10.955	3.6	0.1	3213.5
19702	10.855	3.6	0.1	3259.3
19703	10.756	3.6	0.1	3308.
19704	10.656	3.6	0.1	3359.8
19705	10.557	3.6	0.1	3415.3
19706	10.457	3.6	0.1	3475.1
19707	10.357	3.6	0.1	3539.7
19708	10.258	3.6	0.1	3609.9
19709	10.158	3.6	0.1	3686.4
19710	10.059	3.6	0.1	3770.3
19711	9.9591	3.6	0.1	3862.7
19712	9.8595	3.6	0.1	3964.9
19713	9.76	3.6	0.1	4078.6
19714	9.6604	3.6	0.1	4205.5
19715	9.5608	3.6	0.1	4348.1
19716	9.4612	3.6	0.1	4509.2
19717	9.3616	3.6	0.1	4692.
19718	9.2621	3.6	0.1	4901.
19719	9.1625	3.6	0.1	5141.6
19720	9.0629	3.6	0.1	5420.8
19721	8.9633	3.6	0.1	5747.5
19722	8.8637	3.6	0.1	6133.3
19723	8.7642	3.6	0.1	6593.2
19724	8.6646	3.6	0.1	7145.1
19725	8.565	3.6	0.1	7807.
19726	8.4654	3.6	0.1	8587.
19727	8.3658	3.6	0.1	9455.4
19728	8.2662	3.6	0.1	10301
19729	23.9	3.7	0.1	21.698
19730	23.801	3.7	0.1	42.654
19731	23.701	3.7	0.1	63.732
19732	23.602	3.7	0.1	84.779
19733	23.502	3.7	0.1	105.78
19734	23.403	3.7	0.1	126.74
19735	23.303	3.7	0.1	147.65
19736	23.203	3.7	0.1	168.52
19737	23.104	3.7	0.1	189.36
19738	23.004	3.7	0.1	210.19
19739	22.905	3.7	0.1	230.99
19740	22.805	3.7	0.1	251.8
19741	22.705	3.7	0.1	272.6
19742	22.606	3.7	0.1	293.4
19743	22.506	3.7	0.1	314.22
19744	22.407	3.7	0.1	335.06
19745	22.307	3.7	0.1	355.93
19746	22.208	3.7	0.1	376.82
19747	22.108	3.7	0.1	397.74
19748	22.008	3.7	0.1	418.7
19749	21.909	3.7	0.1	439.69
19750	21.809	3.7	0.1	460.74
19751	21.71	3.7	0.1	481.82
19752	21.61	3.7	0.1	502.95
19753	21.51	3.7	0.1	524.13
19754	21.411	3.7	0.1	545.37
19755	21.311	3.7	0.1	566.65
19756	21.212	3.7	0.1	587.99
19757	21.112	3.7	0.1	609.38
19758	21.013	3.7	0.1	630.83
19759	20.913	3.7	0.1	652.34
19760	20.813	3.7	0.1	673.9
19761	20.714	3.7	0.1	695.53
19762	20.614	3.7	0.1	717.21
19763	20.515	3.7	0.1	738.95
19764	20.415	3.7	0.1	760.75
19765	20.316	3.7	0.1	782.61
19766	20.216	3.7	0.1	804.52
19767	20.116	3.7	0.1	826.5
19768	20.017	3.7	0.1	848.54
19769	19.917	3.7	0.1	870.65
19770	19.818	3.7	0.1	892.81
19771	19.718	3.7	0.1	915.03
19772	19.618	3.7	0.1	937.31
19773	19.519	3.7	0.1	959.65
19774	19.419	3.7	0.1	982.06
19775	19.32	3.7	0.1	1004.5
19776	19.22	3.7	0.1	1027.
19777	19.121	3.7	0.1	1049.6
19778	19.021	3.7	0.1	1072.3
19779	18.921	3.7	0.1	1095.
19780	18.822	3.7	0.1	1117.7
19781	18.722	3.7	0.1	1140.6
19782	18.623	3.7	0.1	1163.4
19783	18.523	3.7	0.1	1186.4
19784	18.423	3.7	0.1	1209.4
19785	18.324	3.7	0.1	1232.4
19786	18.224	3.7	0.1	1255.6
19787	18.125	3.7	0.1	1278.7
19788	18.025	3.7	0.1	1302.
19789	17.926	3.7	0.1	1325.3
19790	17.826	3.7	0.1	1348.6
19791	17.726	3.7	0.1	1372.
19792	17.627	3.7	0.1	1395.5
19793	17.527	3.7	0.1	1419.
19794	17.428	3.7	0.1	1442.6
19795	17.328	3.7	0.1	1466.3
19796	17.229	3.7	0.1	1490.
19797	17.129	3.7	0.1	1513.7
19798	17.029	3.7	0.1	1537.5
19799	16.93	3.7	0.1	1561.4
19800	16.83	3.7	0.1	1585.3
19801	16.731	3.7	0.1	1609.3
19802	16.631	3.7	0.1	1633.3
19803	16.531	3.7	0.1	1657.4
19804	16.432	3.7	0.1	1681.6
19805	16.332	3.7	0.1	1705.8
19806	16.233	3.7	0.1	1730.
19807	16.133	3.7	0.1	1754.4
19808	16.034	3.7	0.1	1778.7
19809	15.934	3.7	0.1	1803.1
19810	15.834	3.7	0.1	1827.6
19811	15.735	3.7	0.1	1852.2
19812	15.635	3.7	0.1	1876.8
19813	15.536	3.7	0.1	1901.4
19814	15.436	3.7	0.1	1926.1
19815	15.336	3.7	0.1	1950.9
19816	15.237	3.7	0.1	1975.7
19817	15.137	3.7	0.1	2000.5
19818	15.038	3.7	0.1	2025.5
19819	14.938	3.7	0.1	2050.5
19820	14.839	3.7	0.1	2075.5
19821	14.739	3.7	0.1	2100.6
19822	14.639	3.7	0.1	2125.8
19823	14.54	3.7	0.1	2151.
19824	14.44	3.7	0.1	2176.3
19825	14.341	3.7	0.1	2201.7
19826	14.241	3.7	0.1	2227.1
19827	14.142	3.7	0.1	2252.6
19828	14.042	3.7	0.1	2278.2
19829	13.942	3.7	0.1	2303.8
19830	13.843	3.7	0.1	2329.6
19831	13.743	3.7	0.1	2355.4
19832	13.644	3.7	0.1	2381.3
19833	13.544	3.7	0.1	2407.3
19834	13.444	3.7	0.1	2433.4
19835	13.345	3.7	0.1	2459.7
19836	13.245	3.7	0.1	2486.1
19837	13.146	3.7	0.1	2512.6
19838	13.046	3.7	0.1	2539.3
19839	12.947	3.7	0.1	2566.1
19840	12.847	3.7	0.1	2593.2
19841	12.747	3.7	0.1	2620.4
19842	12.648	3.7	0.1	2647.9
19843	12.548	3.7	0.1	2675.7
19844	12.449	3.7	0.1	2703.7
19845	12.349	3.7	0.1	2732.1
19846	12.249	3.7	0.1	2760.9
19847	12.15	3.7	0.1	2790.1
19848	12.05	3.7	0.1	2819.8
19849	11.951	3.7	0.1	2850.
19850	11.851	3.7	0.1	2880.9
19851	11.752	3.7	0.1	2912.4
19852	11.652	3.7	0.1	2944.8
19853	11.552	3.7	0.1	2978.
19854	11.453	3.7	0.1	3012.3
19855	11.353	3.7	0.1	3047.8
19856	11.254	3.7	0.1	3084.6
19857	11.154	3.7	0.1	3123.
19858	11.055	3.7	0.1	3163.
19859	10.955	3.7	0.1	3205.1
19860	10.855	3.7	0.1	3249.4
19861	10.756	3.7	0.1	3296.2
19862	10.656	3.7	0.1	3346.
19863	10.557	3.7	0.1	3399.2
19864	10.457	3.7	0.1	3456.2
19865	10.357	3.7	0.1	3517.6
19866	10.258	3.7	0.1	3584.1
19867	10.158	3.7	0.1	3656.3
19868	10.059	3.7	0.1	3735.3
19869	9.9591	3.7	0.1	3822.
19870	9.8595	3.7	0.1	3917.7
19871	9.76	3.7	0.1	4023.8
19872	9.6604	3.7	0.1	4142.2
19873	9.5608	3.7	0.1	4275.1
19874	9.4612	3.7	0.1	4425.1
19875	9.3616	3.7	0.1	4595.7
19876	9.2621	3.7	0.1	4791.2
19877	9.1625	3.7	0.1	5017.3
19878	9.0629	3.7	0.1	5281.5
19879	8.9633	3.7	0.1	5594.2
19880	8.8637	3.7	0.1	5969.7
19881	8.7642	3.7	0.1	6428.3
19882	8.6646	3.7	0.1	6998.8
19883	8.565	3.7	0.1	7721.
19884	8.4654	3.7	0.1	8642.3
19885	8.3658	3.7	0.1	9787.2
19886	8.2662	3.7	0.1	11040
19887	23.9	3.8	0.1	21.734
19888	23.801	3.8	0.1	42.664
19889	23.701	3.8	0.1	63.717
19890	23.602	3.8	0.1	84.738
19891	23.502	3.8	0.1	105.71
19892	23.403	3.8	0.1	126.64
19893	23.303	3.8	0.1	147.53
19894	23.203	3.8	0.1	168.38
19895	23.104	3.8	0.1	189.2
19896	23.004	3.8	0.1	210.
19897	22.905	3.8	0.1	230.79
19898	22.805	3.8	0.1	251.58
19899	22.705	3.8	0.1	272.37
19900	22.606	3.8	0.1	293.17
19901	22.506	3.8	0.1	313.98
19902	22.407	3.8	0.1	334.82
19903	22.307	3.8	0.1	355.68
19904	22.208	3.8	0.1	376.57
19905	22.108	3.8	0.1	397.5
19906	22.008	3.8	0.1	418.46
19907	21.909	3.8	0.1	439.47
19908	21.809	3.8	0.1	460.52
19909	21.71	3.8	0.1	481.61
19910	21.61	3.8	0.1	502.76
19911	21.51	3.8	0.1	523.95
19912	21.411	3.8	0.1	545.2
19913	21.311	3.8	0.1	566.49
19914	21.212	3.8	0.1	587.85
19915	21.112	3.8	0.1	609.25
19916	21.013	3.8	0.1	630.72
19917	20.913	3.8	0.1	652.24
19918	20.813	3.8	0.1	673.82
19919	20.714	3.8	0.1	695.45
19920	20.614	3.8	0.1	717.15
19921	20.515	3.8	0.1	738.9
19922	20.415	3.8	0.1	760.71
19923	20.316	3.8	0.1	782.59
19924	20.216	3.8	0.1	804.52
19925	20.116	3.8	0.1	826.51
19926	20.017	3.8	0.1	848.56
19927	19.917	3.8	0.1	870.67
19928	19.818	3.8	0.1	892.85
19929	19.718	3.8	0.1	915.08
19930	19.618	3.8	0.1	937.37
19931	19.519	3.8	0.1	959.72
19932	19.419	3.8	0.1	982.14
19933	19.32	3.8	0.1	1004.6
19934	19.22	3.8	0.1	1027.1
19935	19.121	3.8	0.1	1049.7
19936	19.021	3.8	0.1	1072.4
19937	18.921	3.8	0.1	1095.1
19938	18.822	3.8	0.1	1117.9
19939	18.722	3.8	0.1	1140.7
19940	18.623	3.8	0.1	1163.6
19941	18.523	3.8	0.1	1186.5
19942	18.423	3.8	0.1	1209.5
19943	18.324	3.8	0.1	1232.6
19944	18.224	3.8	0.1	1255.7
19945	18.125	3.8	0.1	1278.9
19946	18.025	3.8	0.1	1302.2
19947	17.926	3.8	0.1	1325.5
19948	17.826	3.8	0.1	1348.8
19949	17.726	3.8	0.1	1372.2
19950	17.627	3.8	0.1	1395.7
19951	17.527	3.8	0.1	1419.3
19952	17.428	3.8	0.1	1442.8
19953	17.328	3.8	0.1	1466.5
19954	17.229	3.8	0.1	1490.2
19955	17.129	3.8	0.1	1513.9
19956	17.029	3.8	0.1	1537.8
19957	16.93	3.8	0.1	1561.6
19958	16.83	3.8	0.1	1585.6
19959	16.731	3.8	0.1	1609.6
19960	16.631	3.8	0.1	1633.6
19961	16.531	3.8	0.1	1657.7
19962	16.432	3.8	0.1	1681.9
19963	16.332	3.8	0.1	1706.1
19964	16.233	3.8	0.1	1730.3
19965	16.133	3.8	0.1	1754.6
19966	16.034	3.8	0.1	1779.
19967	15.934	3.8	0.1	1803.5
19968	15.834	3.8	0.1	1827.9
19969	15.735	3.8	0.1	1852.5
19970	15.635	3.8	0.1	1877.1
19971	15.536	3.8	0.1	1901.7
19972	15.436	3.8	0.1	1926.4
19973	15.336	3.8	0.1	1951.2
19974	15.237	3.8	0.1	1976.
19975	15.137	3.8	0.1	2000.9
19976	15.038	3.8	0.1	2025.9
19977	14.938	3.8	0.1	2050.8
19978	14.839	3.8	0.1	2075.9
19979	14.739	3.8	0.1	2101.
19980	14.639	3.8	0.1	2126.2
19981	14.54	3.8	0.1	2151.4
19982	14.44	3.8	0.1	2176.7
19983	14.341	3.8	0.1	2202.1
19984	14.241	3.8	0.1	2227.5
19985	14.142	3.8	0.1	2253.
19986	14.042	3.8	0.1	2278.6
19987	13.942	3.8	0.1	2304.3
19988	13.843	3.8	0.1	2330.
19989	13.743	3.8	0.1	2355.8
19990	13.644	3.8	0.1	2381.7
19991	13.544	3.8	0.1	2407.7
19992	13.444	3.8	0.1	2433.9
19993	13.345	3.8	0.1	2460.1
19994	13.245	3.8	0.1	2486.4
19995	13.146	3.8	0.1	2512.9
19996	13.046	3.8	0.1	2539.6
19997	12.947	3.8	0.1	2566.4
19998	12.847	3.8	0.1	2593.3
19999	12.747	3.8	0.1	2620.5
20000	12.648	3.8	0.1	2647.9
20001	12.548	3.8	0.1	2675.6
20002	12.449	3.8	0.1	2703.5
20003	12.349	3.8	0.1	2731.7
20004	12.249	3.8	0.1	2760.3
20005	12.15	3.8	0.1	2789.3
20006	12.05	3.8	0.1	2818.7
20007	11.951	3.8	0.1	2848.6
20008	11.851	3.8	0.1	2879.1
20009	11.752	3.8	0.1	2910.3
20010	11.652	3.8	0.1	2942.1
20011	11.552	3.8	0.1	2974.8
20012	11.453	3.8	0.1	3008.4
20013	11.353	3.8	0.1	3043.1
20014	11.254	3.8	0.1	3079.
20015	11.154	3.8	0.1	3116.2
20016	11.055	3.8	0.1	3155.
20017	10.955	3.8	0.1	3195.6
20018	10.855	3.8	0.1	3238.2
20019	10.756	3.8	0.1	3283.1
20020	10.656	3.8	0.1	3330.7
20021	10.557	3.8	0.1	3381.2
20022	10.457	3.8	0.1	3435.1
20023	10.357	3.8	0.1	3493.
20024	10.258	3.8	0.1	3555.4
20025	10.158	3.8	0.1	3622.9
20026	10.059	3.8	0.1	3696.4
20027	9.9591	3.8	0.1	3776.9
20028	9.8595	3.8	0.1	3865.3
20029	9.76	3.8	0.1	3963.2
20030	9.6604	3.8	0.1	4072.
20031	9.5608	3.8	0.1	4194.
20032	9.4612	3.8	0.1	4331.5
20033	9.3616	3.8	0.1	4487.9
20034	9.2621	3.8	0.1	4667.4
20035	9.1625	3.8	0.1	4875.5
20036	9.0629	3.8	0.1	5119.8
20037	8.9633	3.8	0.1	5411.2
20038	8.8637	3.8	0.1	5765.
20039	8.7642	3.8	0.1	6205.
20040	8.6646	3.8	0.1	6768.1
20041	8.565	3.8	0.1	7514.2
20042	8.4654	3.8	0.1	8547.8
20043	8.3658	3.8	0.1	10021
20044	8.2662	3.8	0.1	11990
20045	23.9	3.9	0.1	21.774
20046	23.801	3.9	0.1	42.674
20047	23.701	3.9	0.1	63.697
20048	23.602	3.9	0.1	84.689
20049	23.502	3.9	0.1	105.63
20050	23.403	3.9	0.1	126.53
20051	23.303	3.9	0.1	147.39
20052	23.203	3.9	0.1	168.21
20053	23.104	3.9	0.1	189.01
20054	23.004	3.9	0.1	209.79
20055	22.905	3.9	0.1	230.56
20056	22.805	3.9	0.1	251.33
20057	22.705	3.9	0.1	272.11
20058	22.606	3.9	0.1	292.9
20059	22.506	3.9	0.1	313.71
20060	22.407	3.9	0.1	334.54
20061	22.307	3.9	0.1	355.4
20062	22.208	3.9	0.1	376.3
20063	22.108	3.9	0.1	397.23
20064	22.008	3.9	0.1	418.2
20065	21.909	3.9	0.1	439.22
20066	21.809	3.9	0.1	460.28
20067	21.71	3.9	0.1	481.38
20068	21.61	3.9	0.1	502.54
20069	21.51	3.9	0.1	523.75
20070	21.411	3.9	0.1	545.01
20071	21.311	3.9	0.1	566.32
20072	21.212	3.9	0.1	587.69
20073	21.112	3.9	0.1	609.11
20074	21.013	3.9	0.1	630.59
20075	20.913	3.9	0.1	652.13
20076	20.813	3.9	0.1	673.72
20077	20.714	3.9	0.1	695.38
20078	20.614	3.9	0.1	717.09
20079	20.515	3.9	0.1	738.86
20080	20.415	3.9	0.1	760.68
20081	20.316	3.9	0.1	782.57
20082	20.216	3.9	0.1	804.52
20083	20.116	3.9	0.1	826.52
20084	20.017	3.9	0.1	848.59
20085	19.917	3.9	0.1	870.71
20086	19.818	3.9	0.1	892.9
20087	19.718	3.9	0.1	915.14
20088	19.618	3.9	0.1	937.44
20089	19.519	3.9	0.1	959.81
20090	19.419	3.9	0.1	982.23
20091	19.32	3.9	0.1	1004.7
20092	19.22	3.9	0.1	1027.3
20093	19.121	3.9	0.1	1049.9
20094	19.021	3.9	0.1	1072.5
20095	18.921	3.9	0.1	1095.2
20096	18.822	3.9	0.1	1118.
20097	18.722	3.9	0.1	1140.9
20098	18.623	3.9	0.1	1163.8
20099	18.523	3.9	0.1	1186.7
20100	18.423	3.9	0.1	1209.7
20101	18.324	3.9	0.1	1232.8
20102	18.224	3.9	0.1	1255.9
20103	18.125	3.9	0.1	1279.1
20104	18.025	3.9	0.1	1302.4
20105	17.926	3.9	0.1	1325.7
20106	17.826	3.9	0.1	1349.1
20107	17.726	3.9	0.1	1372.5
20108	17.627	3.9	0.1	1396.
20109	17.527	3.9	0.1	1419.5
20110	17.428	3.9	0.1	1443.1
20111	17.328	3.9	0.1	1466.7
20112	17.229	3.9	0.1	1490.5
20113	17.129	3.9	0.1	1514.2
20114	17.029	3.9	0.1	1538.
20115	16.93	3.9	0.1	1561.9
20116	16.83	3.9	0.1	1585.9
20117	16.731	3.9	0.1	1609.9
20118	16.631	3.9	0.1	1633.9
20119	16.531	3.9	0.1	1658.
20120	16.432	3.9	0.1	1682.2
20121	16.332	3.9	0.1	1706.4
20122	16.233	3.9	0.1	1730.7
20123	16.133	3.9	0.1	1755.
20124	16.034	3.9	0.1	1779.4
20125	15.934	3.9	0.1	1803.8
20126	15.834	3.9	0.1	1828.3
20127	15.735	3.9	0.1	1852.9
20128	15.635	3.9	0.1	1877.5
20129	15.536	3.9	0.1	1902.1
20130	15.436	3.9	0.1	1926.8
20131	15.336	3.9	0.1	1951.6
20132	15.237	3.9	0.1	1976.4
20133	15.137	3.9	0.1	2001.3
20134	15.038	3.9	0.1	2026.3
20135	14.938	3.9	0.1	2051.3
20136	14.839	3.9	0.1	2076.3
20137	14.739	3.9	0.1	2101.5
20138	14.639	3.9	0.1	2126.7
20139	14.54	3.9	0.1	2151.9
20140	14.44	3.9	0.1	2177.2
20141	14.341	3.9	0.1	2202.6
20142	14.241	3.9	0.1	2228.
20143	14.142	3.9	0.1	2253.5
20144	14.042	3.9	0.1	2279.1
20145	13.942	3.9	0.1	2304.8
20146	13.843	3.9	0.1	2330.5
20147	13.743	3.9	0.1	2356.3
20148	13.644	3.9	0.1	2382.2
20149	13.544	3.9	0.1	2408.2
20150	13.444	3.9	0.1	2434.3
20151	13.345	3.9	0.1	2460.5
20152	13.245	3.9	0.1	2486.9
20153	13.146	3.9	0.1	2513.3
20154	13.046	3.9	0.1	2539.9
20155	12.947	3.9	0.1	2566.6
20156	12.847	3.9	0.1	2593.5
20157	12.747	3.9	0.1	2620.6
20158	12.648	3.9	0.1	2647.9
20159	12.548	3.9	0.1	2675.5
20160	12.449	3.9	0.1	2703.2
20161	12.349	3.9	0.1	2731.3
20162	12.249	3.9	0.1	2759.7
20163	12.15	3.9	0.1	2788.4
20164	12.05	3.9	0.1	2817.5
20165	11.951	3.9	0.1	2847.1
20166	11.851	3.9	0.1	2877.2
20167	11.752	3.9	0.1	2907.9
20168	11.652	3.9	0.1	2939.2
20169	11.552	3.9	0.1	2971.2
20170	11.453	3.9	0.1	3004.1
20171	11.353	3.9	0.1	3037.9
20172	11.254	3.9	0.1	3072.8
20173	11.154	3.9	0.1	3108.8
20174	11.055	3.9	0.1	3146.3
20175	10.955	3.9	0.1	3185.3
20176	10.855	3.9	0.1	3226.
20177	10.756	3.9	0.1	3268.8
20178	10.656	3.9	0.1	3313.9
20179	10.557	3.9	0.1	3361.5
20180	10.457	3.9	0.1	3412.1
20181	10.357	3.9	0.1	3466.2
20182	10.258	3.9	0.1	3524.1
20183	10.158	3.9	0.1	3586.6
20184	10.059	3.9	0.1	3654.2
20185	9.9591	3.9	0.1	3727.9
20186	9.8595	3.9	0.1	3808.5
20187	9.76	3.9	0.1	3897.4
20188	9.6604	3.9	0.1	3995.9
20189	9.5608	3.9	0.1	4106.
20190	9.4612	3.9	0.1	4229.8
20191	9.3616	3.9	0.1	4370.4
20192	9.2621	3.9	0.1	4531.6
20193	9.1625	3.9	0.1	4718.6
20194	9.0629	3.9	0.1	4938.5
20195	8.9633	3.9	0.1	5201.5
20196	8.8637	3.9	0.1	5522.4
20197	8.7642	3.9	0.1	5924.5
20198	8.6646	3.9	0.1	6446.3
20199	8.565	3.9	0.1	7156.9
20200	8.4654	3.9	0.1	8188.6
20201	8.3658	3.9	0.1	9899.5
20202	8.2662	3.9	0.1	13010
20203	23.9	4.	0.1	21.819
20204	23.801	4.	0.1	42.683
20205	23.701	4.	0.1	63.673
20206	23.602	4.	0.1	84.629
20207	23.502	4.	0.1	105.54
20208	23.403	4.	0.1	126.4
20209	23.303	4.	0.1	147.22
20210	23.203	4.	0.1	168.02
20211	23.104	4.	0.1	188.79
20212	23.004	4.	0.1	209.54
20213	22.905	4.	0.1	230.29
20214	22.805	4.	0.1	251.05
20215	22.705	4.	0.1	271.81
20216	22.606	4.	0.1	292.59
20217	22.506	4.	0.1	313.4
20218	22.407	4.	0.1	334.23
20219	22.307	4.	0.1	355.09
20220	22.208	4.	0.1	375.99
20221	22.108	4.	0.1	396.93
20222	22.008	4.	0.1	417.91
20223	21.909	4.	0.1	438.94
20224	21.809	4.	0.1	460.01
20225	21.71	4.	0.1	481.13
20226	21.61	4.	0.1	502.31
20227	21.51	4.	0.1	523.53
20228	21.411	4.	0.1	544.81
20229	21.311	4.	0.1	566.14
20230	21.212	4.	0.1	587.52
20231	21.112	4.	0.1	608.97
20232	21.013	4.	0.1	630.46
20233	20.913	4.	0.1	652.02
20234	20.813	4.	0.1	673.63
20235	20.714	4.	0.1	695.3
20236	20.614	4.	0.1	717.03
20237	20.515	4.	0.1	738.81
20238	20.415	4.	0.1	760.66
20239	20.316	4.	0.1	782.56
20240	20.216	4.	0.1	804.52
20241	20.116	4.	0.1	826.54
20242	20.017	4.	0.1	848.62
20243	19.917	4.	0.1	870.76
20244	19.818	4.	0.1	892.96
20245	19.718	4.	0.1	915.22
20246	19.618	4.	0.1	937.53
20247	19.519	4.	0.1	959.91
20248	19.419	4.	0.1	982.34
20249	19.32	4.	0.1	1004.8
20250	19.22	4.	0.1	1027.4
20251	19.121	4.	0.1	1050.
20252	19.021	4.	0.1	1072.7
20253	18.921	4.	0.1	1095.4
20254	18.822	4.	0.1	1118.2
20255	18.722	4.	0.1	1141.
20256	18.623	4.	0.1	1163.9
20257	18.523	4.	0.1	1186.9
20258	18.423	4.	0.1	1209.9
20259	18.324	4.	0.1	1233.
20260	18.224	4.	0.1	1256.2
20261	18.125	4.	0.1	1279.4
20262	18.025	4.	0.1	1302.6
20263	17.926	4.	0.1	1325.9
20264	17.826	4.	0.1	1349.3
20265	17.726	4.	0.1	1372.7
20266	17.627	4.	0.1	1396.2
20267	17.527	4.	0.1	1419.8
20268	17.428	4.	0.1	1443.4
20269	17.328	4.	0.1	1467.
20270	17.229	4.	0.1	1490.7
20271	17.129	4.	0.1	1514.5
20272	17.029	4.	0.1	1538.4
20273	16.93	4.	0.1	1562.2
20274	16.83	4.	0.1	1586.2
20275	16.731	4.	0.1	1610.2
20276	16.631	4.	0.1	1634.2
20277	16.531	4.	0.1	1658.3
20278	16.432	4.	0.1	1682.5
20279	16.332	4.	0.1	1706.7
20280	16.233	4.	0.1	1731.
20281	16.133	4.	0.1	1755.4
20282	16.034	4.	0.1	1779.8
20283	15.934	4.	0.1	1804.2
20284	15.834	4.	0.1	1828.7
20285	15.735	4.	0.1	1853.3
20286	15.635	4.	0.1	1877.9
20287	15.536	4.	0.1	1902.5
20288	15.436	4.	0.1	1927.3
20289	15.336	4.	0.1	1952.1
20290	15.237	4.	0.1	1976.9
20291	15.137	4.	0.1	2001.8
20292	15.038	4.	0.1	2026.8
20293	14.938	4.	0.1	2051.8
20294	14.839	4.	0.1	2076.8
20295	14.739	4.	0.1	2102.
20296	14.639	4.	0.1	2127.2
20297	14.54	4.	0.1	2152.4
20298	14.44	4.	0.1	2177.7
20299	14.341	4.	0.1	2203.1
20300	14.241	4.	0.1	2228.6
20301	14.142	4.	0.1	2254.1
20302	14.042	4.	0.1	2279.7
20303	13.942	4.	0.1	2305.3
20304	13.843	4.	0.1	2331.
20305	13.743	4.	0.1	2356.9
20306	13.644	4.	0.1	2382.8
20307	13.544	4.	0.1	2408.7
20308	13.444	4.	0.1	2434.8
20309	13.345	4.	0.1	2461.
20310	13.245	4.	0.1	2487.3
20311	13.146	4.	0.1	2513.7
20312	13.046	4.	0.1	2540.3
20313	12.947	4.	0.1	2566.9
20314	12.847	4.	0.1	2593.8
20315	12.747	4.	0.1	2620.8
20316	12.648	4.	0.1	2648.
20317	12.548	4.	0.1	2675.4
20318	12.449	4.	0.1	2703.
20319	12.349	4.	0.1	2730.8
20320	12.249	4.	0.1	2759.
20321	12.15	4.	0.1	2787.5
20322	12.05	4.	0.1	2816.3
20323	11.951	4.	0.1	2845.5
20324	11.851	4.	0.1	2875.2
20325	11.752	4.	0.1	2905.3
20326	11.652	4.	0.1	2936.
20327	11.552	4.	0.1	2967.4
20328	11.453	4.	0.1	2999.4
20329	11.353	4.	0.1	3032.3
20330	11.254	4.	0.1	3066.1
20331	11.154	4.	0.1	3100.9
20332	11.055	4.	0.1	3136.9
20333	10.955	4.	0.1	3174.1
20334	10.855	4.	0.1	3212.9
20335	10.756	4.	0.1	3253.4
20336	10.656	4.	0.1	3295.8
20337	10.557	4.	0.1	3340.4
20338	10.457	4.	0.1	3387.5
20339	10.357	4.	0.1	3437.5
20340	10.258	4.	0.1	3490.8
20341	10.158	4.	0.1	3547.8
20342	10.059	4.	0.1	3609.3
20343	9.9591	4.	0.1	3675.7
20344	9.8595	4.	0.1	3748.2
20345	9.76	4.	0.1	3827.5
20346	9.6604	4.	0.1	3915.1
20347	9.5608	4.	0.1	4012.4
20348	9.4612	4.	0.1	4121.6
20349	9.3616	4.	0.1	4245.1
20350	9.2621	4.	0.1	4386.4
20351	9.1625	4.	0.1	4549.8
20352	9.0629	4.	0.1	4741.7
20353	8.9633	4.	0.1	4970.6
20354	8.8637	4.	0.1	5249.2
20355	8.7642	4.	0.1	5597.1
20356	8.6646	4.	0.1	6046.6
20357	8.565	4.	0.1	6656.7
20358	8.4654	4.	0.1	7550.3
20359	8.3658	4.	0.1	9006.5
20360	8.2662	4.	0.1	13637
20361	23.9	4.1	0.1	21.868
20362	23.801	4.1	0.1	42.691
20363	23.701	4.1	0.1	63.642
20364	23.602	4.1	0.1	84.558
20365	23.502	4.1	0.1	105.43
20366	23.403	4.1	0.1	126.25
20367	23.303	4.1	0.1	147.04
20368	23.203	4.1	0.1	167.79
20369	23.104	4.1	0.1	188.53
20370	23.004	4.1	0.1	209.26
20371	22.905	4.1	0.1	229.99
20372	22.805	4.1	0.1	250.73
20373	22.705	4.1	0.1	271.48
20374	22.606	4.1	0.1	292.25
20375	22.506	4.1	0.1	313.05
20376	22.407	4.1	0.1	333.89
20377	22.307	4.1	0.1	354.75
20378	22.208	4.1	0.1	375.66
20379	22.108	4.1	0.1	396.61
20380	22.008	4.1	0.1	417.6
20381	21.909	4.1	0.1	438.64
20382	21.809	4.1	0.1	459.73
20383	21.71	4.1	0.1	480.87
20384	21.61	4.1	0.1	502.06
20385	21.51	4.1	0.1	523.3
20386	21.411	4.1	0.1	544.6
20387	21.311	4.1	0.1	565.95
20388	21.212	4.1	0.1	587.35
20389	21.112	4.1	0.1	608.81
20390	21.013	4.1	0.1	630.33
20391	20.913	4.1	0.1	651.91
20392	20.813	4.1	0.1	673.54
20393	20.714	4.1	0.1	695.22
20394	20.614	4.1	0.1	716.97
20395	20.515	4.1	0.1	738.77
20396	20.415	4.1	0.1	760.64
20397	20.316	4.1	0.1	782.56
20398	20.216	4.1	0.1	804.54
20399	20.116	4.1	0.1	826.57
20400	20.017	4.1	0.1	848.67
20401	19.917	4.1	0.1	870.82
20402	19.818	4.1	0.1	893.04
20403	19.718	4.1	0.1	915.31
20404	19.618	4.1	0.1	937.64
20405	19.519	4.1	0.1	960.03
20406	19.419	4.1	0.1	982.47
20407	19.32	4.1	0.1	1005.
20408	19.22	4.1	0.1	1027.5
20409	19.121	4.1	0.1	1050.2
20410	19.021	4.1	0.1	1072.9
20411	18.921	4.1	0.1	1095.6
20412	18.822	4.1	0.1	1118.4
20413	18.722	4.1	0.1	1141.2
20414	18.623	4.1	0.1	1164.2
20415	18.523	4.1	0.1	1187.1
20416	18.423	4.1	0.1	1210.2
20417	18.324	4.1	0.1	1233.3
20418	18.224	4.1	0.1	1256.4
20419	18.125	4.1	0.1	1279.6
20420	18.025	4.1	0.1	1302.9
20421	17.926	4.1	0.1	1326.2
20422	17.826	4.1	0.1	1349.6
20423	17.726	4.1	0.1	1373.
20424	17.627	4.1	0.1	1396.5
20425	17.527	4.1	0.1	1420.1
20426	17.428	4.1	0.1	1443.7
20427	17.328	4.1	0.1	1467.3
20428	17.229	4.1	0.1	1491.1
20429	17.129	4.1	0.1	1514.9
20430	17.029	4.1	0.1	1538.7
20431	16.93	4.1	0.1	1562.6
20432	16.83	4.1	0.1	1586.5
20433	16.731	4.1	0.1	1610.5
20434	16.631	4.1	0.1	1634.6
20435	16.531	4.1	0.1	1658.7
20436	16.432	4.1	0.1	1682.9
20437	16.332	4.1	0.1	1707.1
20438	16.233	4.1	0.1	1731.4
20439	16.133	4.1	0.1	1755.8
20440	16.034	4.1	0.1	1780.2
20441	15.934	4.1	0.1	1804.6
20442	15.834	4.1	0.1	1829.1
20443	15.735	4.1	0.1	1853.7
20444	15.635	4.1	0.1	1878.3
20445	15.536	4.1	0.1	1903.
20446	15.436	4.1	0.1	1927.8
20447	15.336	4.1	0.1	1952.6
20448	15.237	4.1	0.1	1977.4
20449	15.137	4.1	0.1	2002.3
20450	15.038	4.1	0.1	2027.3
20451	14.938	4.1	0.1	2052.3
20452	14.839	4.1	0.1	2077.4
20453	14.739	4.1	0.1	2102.5
20454	14.639	4.1	0.1	2127.7
20455	14.54	4.1	0.1	2153.
20456	14.44	4.1	0.1	2178.3
20457	14.341	4.1	0.1	2203.7
20458	14.241	4.1	0.1	2229.1
20459	14.142	4.1	0.1	2254.7
20460	14.042	4.1	0.1	2280.3
20461	13.942	4.1	0.1	2305.9
20462	13.843	4.1	0.1	2331.6
20463	13.743	4.1	0.1	2357.5
20464	13.644	4.1	0.1	2383.3
20465	13.544	4.1	0.1	2409.3
20466	13.444	4.1	0.1	2435.4
20467	13.345	4.1	0.1	2461.5
20468	13.245	4.1	0.1	2487.8
20469	13.146	4.1	0.1	2514.2
20470	13.046	4.1	0.1	2540.7
20471	12.947	4.1	0.1	2567.3
20472	12.847	4.1	0.1	2594.
20473	12.747	4.1	0.1	2620.9
20474	12.648	4.1	0.1	2648.
20475	12.548	4.1	0.1	2675.2
20476	12.449	4.1	0.1	2702.7
20477	12.349	4.1	0.1	2730.4
20478	12.249	4.1	0.1	2758.3
20479	12.15	4.1	0.1	2786.5
20480	12.05	4.1	0.1	2814.9
20481	11.951	4.1	0.1	2843.8
20482	11.851	4.1	0.1	2872.9
20483	11.752	4.1	0.1	2902.6
20484	11.652	4.1	0.1	2932.6
20485	11.552	4.1	0.1	2963.3
20486	11.453	4.1	0.1	2994.5
20487	11.353	4.1	0.1	3026.3
20488	11.254	4.1	0.1	3059.
20489	11.154	4.1	0.1	3092.4
20490	11.055	4.1	0.1	3126.8
20491	10.955	4.1	0.1	3162.3
20492	10.855	4.1	0.1	3199.
20493	10.756	4.1	0.1	3237.1
20494	10.656	4.1	0.1	3276.7
20495	10.557	4.1	0.1	3318.2
20496	10.457	4.1	0.1	3361.6
20497	10.357	4.1	0.1	3407.3
20498	10.258	4.1	0.1	3455.7
20499	10.158	4.1	0.1	3507.1
20500	10.059	4.1	0.1	3562.
20501	9.9591	4.1	0.1	3621.1
20502	9.8595	4.1	0.1	3684.9
20503	9.76	4.1	0.1	3754.3
20504	9.6604	4.1	0.1	3830.4
20505	9.5608	4.1	0.1	3914.5
20506	9.4612	4.1	0.1	4008.3
20507	9.3616	4.1	0.1	4113.9
20508	9.2621	4.1	0.1	4234.
20509	9.1625	4.1	0.1	4372.3
20510	9.0629	4.1	0.1	4533.7
20511	8.9633	4.1	0.1	4724.9
20512	8.8637	4.1	0.1	4955.4
20513	8.7642	4.1	0.1	5239.1
20514	8.6646	4.1	0.1	5597.5
20515	8.565	4.1	0.1	6066.9
20516	8.4654	4.1	0.1	6710.2
20517	8.3658	4.1	0.1	7716.1
20518	8.2662	4.1	0.1	9557.8
20519	23.9	4.2	0.1	21.921
20520	23.801	4.2	0.1	42.697
20521	23.701	4.2	0.1	63.603
20522	23.602	4.2	0.1	84.474
20523	23.502	4.2	0.1	105.3
20524	23.403	4.2	0.1	126.08
20525	23.303	4.2	0.1	146.82
20526	23.203	4.2	0.1	167.54
20527	23.104	4.2	0.1	188.25
20528	23.004	4.2	0.1	208.95
20529	22.905	4.2	0.1	229.66
20530	22.805	4.2	0.1	250.38
20531	22.705	4.2	0.1	271.12
20532	22.606	4.2	0.1	291.88
20533	22.506	4.2	0.1	312.68
20534	22.407	4.2	0.1	333.51
20535	22.307	4.2	0.1	354.38
20536	22.208	4.2	0.1	375.3
20537	22.108	4.2	0.1	396.26
20538	22.008	4.2	0.1	417.26
20539	21.909	4.2	0.1	438.32
20540	21.809	4.2	0.1	459.43
20541	21.71	4.2	0.1	480.58
20542	21.61	4.2	0.1	501.79
20543	21.51	4.2	0.1	523.06
20544	21.411	4.2	0.1	544.38
20545	21.311	4.2	0.1	565.75
20546	21.212	4.2	0.1	587.18
20547	21.112	4.2	0.1	608.66
20548	21.013	4.2	0.1	630.2
20549	20.913	4.2	0.1	651.79
20550	20.813	4.2	0.1	673.45
20551	20.714	4.2	0.1	695.16
20552	20.614	4.2	0.1	716.92
20553	20.515	4.2	0.1	738.75
20554	20.415	4.2	0.1	760.63
20555	20.316	4.2	0.1	782.57
20556	20.216	4.2	0.1	804.56
20557	20.116	4.2	0.1	826.62
20558	20.017	4.2	0.1	848.73
20559	19.917	4.2	0.1	870.9
20560	19.818	4.2	0.1	893.13
20561	19.718	4.2	0.1	915.42
20562	19.618	4.2	0.1	937.76
20563	19.519	4.2	0.1	960.16
20564	19.419	4.2	0.1	982.62
20565	19.32	4.2	0.1	1005.1
20566	19.22	4.2	0.1	1027.7
20567	19.121	4.2	0.1	1050.4
20568	19.021	4.2	0.1	1073.1
20569	18.921	4.2	0.1	1095.8
20570	18.822	4.2	0.1	1118.6
20571	18.722	4.2	0.1	1141.5
20572	18.623	4.2	0.1	1164.4
20573	18.523	4.2	0.1	1187.4
20574	18.423	4.2	0.1	1210.4
20575	18.324	4.2	0.1	1233.5
20576	18.224	4.2	0.1	1256.7
20577	18.125	4.2	0.1	1279.9
20578	18.025	4.2	0.1	1303.2
20579	17.926	4.2	0.1	1326.5
20580	17.826	4.2	0.1	1349.9
20581	17.726	4.2	0.1	1373.3
20582	17.627	4.2	0.1	1396.8
20583	17.527	4.2	0.1	1420.4
20584	17.428	4.2	0.1	1444.
20585	17.328	4.2	0.1	1467.7
20586	17.229	4.2	0.1	1491.4
20587	17.129	4.2	0.1	1515.2
20588	17.029	4.2	0.1	1539.1
20589	16.93	4.2	0.1	1563.
20590	16.83	4.2	0.1	1586.9
20591	16.731	4.2	0.1	1610.9
20592	16.631	4.2	0.1	1635.
20593	16.531	4.2	0.1	1659.1
20594	16.432	4.2	0.1	1683.3
20595	16.332	4.2	0.1	1707.6
20596	16.233	4.2	0.1	1731.9
20597	16.133	4.2	0.1	1756.2
20598	16.034	4.2	0.1	1780.6
20599	15.934	4.2	0.1	1805.1
20600	15.834	4.2	0.1	1829.6
20601	15.735	4.2	0.1	1854.2
20602	15.635	4.2	0.1	1878.8
20603	15.536	4.2	0.1	1903.5
20604	15.436	4.2	0.1	1928.3
20605	15.336	4.2	0.1	1953.1
20606	15.237	4.2	0.1	1977.9
20607	15.137	4.2	0.1	2002.9
20608	15.038	4.2	0.1	2027.8
20609	14.938	4.2	0.1	2052.9
20610	14.839	4.2	0.1	2078.
20611	14.739	4.2	0.1	2103.1
20612	14.639	4.2	0.1	2128.3
20613	14.54	4.2	0.1	2153.6
20614	14.44	4.2	0.1	2178.9
20615	14.341	4.2	0.1	2204.3
20616	14.241	4.2	0.1	2229.8
20617	14.142	4.2	0.1	2255.3
20618	14.042	4.2	0.1	2280.9
20619	13.942	4.2	0.1	2306.6
20620	13.843	4.2	0.1	2332.3
20621	13.743	4.2	0.1	2358.1
20622	13.644	4.2	0.1	2384.
20623	13.544	4.2	0.1	2409.9
20624	13.444	4.2	0.1	2436.
20625	13.345	4.2	0.1	2462.1
20626	13.245	4.2	0.1	2488.3
20627	13.146	4.2	0.1	2514.7
20628	13.046	4.2	0.1	2541.1
20629	12.947	4.2	0.1	2567.6
20630	12.847	4.2	0.1	2594.3
20631	12.747	4.2	0.1	2621.1
20632	12.648	4.2	0.1	2648.
20633	12.548	4.2	0.1	2675.1
20634	12.449	4.2	0.1	2702.4
20635	12.349	4.2	0.1	2729.9
20636	12.249	4.2	0.1	2757.5
20637	12.15	4.2	0.1	2785.4
20638	12.05	4.2	0.1	2813.5
20639	11.951	4.2	0.1	2841.9
20640	11.851	4.2	0.1	2870.6
20641	11.752	4.2	0.1	2899.7
20642	11.652	4.2	0.1	2929.1
20643	11.552	4.2	0.1	2958.9
20644	11.453	4.2	0.1	2989.2
20645	11.353	4.2	0.1	3020.1
20646	11.254	4.2	0.1	3051.5
20647	11.154	4.2	0.1	3083.5
20648	11.055	4.2	0.1	3116.3
20649	10.955	4.2	0.1	3150.
20650	10.855	4.2	0.1	3184.5
20651	10.756	4.2	0.1	3220.1
20652	10.656	4.2	0.1	3256.9
20653	10.557	4.2	0.1	3295.
20654	10.457	4.2	0.1	3334.6
20655	10.357	4.2	0.1	3375.9
20656	10.258	4.2	0.1	3419.3
20657	10.158	4.2	0.1	3464.9
20658	10.059	4.2	0.1	3513.1
20659	9.9591	4.2	0.1	3564.5
20660	9.8595	4.2	0.1	3619.5
20661	9.76	4.2	0.1	3678.7
20662	9.6604	4.2	0.1	3743.1
20663	9.5608	4.2	0.1	3813.6
20664	9.4612	4.2	0.1	3891.5
20665	9.3616	4.2	0.1	3978.6
20666	9.2621	4.2	0.1	4076.9
20667	9.1625	4.2	0.1	4189.2
20668	9.0629	4.2	0.1	4319.
20669	8.9633	4.2	0.1	4470.9
20670	8.8637	4.2	0.1	4651.
20671	8.7642	4.2	0.1	4867.4
20672	8.6646	4.2	0.1	5130.4
20673	8.565	4.2	0.1	5452.2
20674	8.4654	4.2	0.1	5844.9
20675	8.3658	4.2	0.1	6249.8
20676	8.2662	4.2	0.1	6632.2
20677	23.9	4.3	0.1	21.977
20678	23.801	4.3	0.1	42.7
20679	23.701	4.3	0.1	63.555
20680	23.602	4.3	0.1	84.374
20681	23.502	4.3	0.1	105.15
20682	23.403	4.3	0.1	125.88
20683	23.303	4.3	0.1	146.58
20684	23.203	4.3	0.1	167.25
20685	23.104	4.3	0.1	187.93
20686	23.004	4.3	0.1	208.6
20687	22.905	4.3	0.1	229.28
20688	22.805	4.3	0.1	249.98
20689	22.705	4.3	0.1	270.71
20690	22.606	4.3	0.1	291.47
20691	22.506	4.3	0.1	312.27
20692	22.407	4.3	0.1	333.11
20693	22.307	4.3	0.1	353.99
20694	22.208	4.3	0.1	374.91
20695	22.108	4.3	0.1	395.89
20696	22.008	4.3	0.1	416.91
20697	21.909	4.3	0.1	437.98
20698	21.809	4.3	0.1	459.11
20699	21.71	4.3	0.1	480.29
20700	21.61	4.3	0.1	501.52
20701	21.51	4.3	0.1	522.81
20702	21.411	4.3	0.1	544.15
20703	21.311	4.3	0.1	565.55
20704	21.212	4.3	0.1	587.
20705	21.112	4.3	0.1	608.51
20706	21.013	4.3	0.1	630.07
20707	20.913	4.3	0.1	651.69
20708	20.813	4.3	0.1	673.36
20709	20.714	4.3	0.1	695.1
20710	20.614	4.3	0.1	716.88
20711	20.515	4.3	0.1	738.73
20712	20.415	4.3	0.1	760.63
20713	20.316	4.3	0.1	782.59
20714	20.216	4.3	0.1	804.61
20715	20.116	4.3	0.1	826.68
20716	20.017	4.3	0.1	848.81
20717	19.917	4.3	0.1	871.
20718	19.818	4.3	0.1	893.24
20719	19.718	4.3	0.1	915.54
20720	19.618	4.3	0.1	937.9
20721	19.519	4.3	0.1	960.32
20722	19.419	4.3	0.1	982.8
20723	19.32	4.3	0.1	1005.3
20724	19.22	4.3	0.1	1027.9
20725	19.121	4.3	0.1	1050.6
20726	19.021	4.3	0.1	1073.3
20727	18.921	4.3	0.1	1096.
20728	18.822	4.3	0.1	1118.9
20729	18.722	4.3	0.1	1141.7
20730	18.623	4.3	0.1	1164.7
20731	18.523	4.3	0.1	1187.7
20732	18.423	4.3	0.1	1210.7
20733	18.324	4.3	0.1	1233.8
20734	18.224	4.3	0.1	1257.
20735	18.125	4.3	0.1	1280.2
20736	18.025	4.3	0.1	1303.5
20737	17.926	4.3	0.1	1326.8
20738	17.826	4.3	0.1	1350.2
20739	17.726	4.3	0.1	1373.7
20740	17.627	4.3	0.1	1397.2
20741	17.527	4.3	0.1	1420.8
20742	17.428	4.3	0.1	1444.4
20743	17.328	4.3	0.1	1468.1
20744	17.229	4.3	0.1	1491.8
20745	17.129	4.3	0.1	1515.6
20746	17.029	4.3	0.1	1539.5
20747	16.93	4.3	0.1	1563.4
20748	16.83	4.3	0.1	1587.4
20749	16.731	4.3	0.1	1611.4
20750	16.631	4.3	0.1	1635.5
20751	16.531	4.3	0.1	1659.6
20752	16.432	4.3	0.1	1683.8
20753	16.332	4.3	0.1	1708.
20754	16.233	4.3	0.1	1732.4
20755	16.133	4.3	0.1	1756.7
20756	16.034	4.3	0.1	1781.1
20757	15.934	4.3	0.1	1805.6
20758	15.834	4.3	0.1	1830.1
20759	15.735	4.3	0.1	1854.7
20760	15.635	4.3	0.1	1879.4
20761	15.536	4.3	0.1	1904.1
20762	15.436	4.3	0.1	1928.8
20763	15.336	4.3	0.1	1953.7
20764	15.237	4.3	0.1	1978.5
20765	15.137	4.3	0.1	2003.5
20766	15.038	4.3	0.1	2028.5
20767	14.938	4.3	0.1	2053.5
20768	14.839	4.3	0.1	2078.6
20769	14.739	4.3	0.1	2103.8
20770	14.639	4.3	0.1	2129.
20771	14.54	4.3	0.1	2154.3
20772	14.44	4.3	0.1	2179.6
20773	14.341	4.3	0.1	2205.
20774	14.241	4.3	0.1	2230.5
20775	14.142	4.3	0.1	2256.
20776	14.042	4.3	0.1	2281.6
20777	13.942	4.3	0.1	2307.3
20778	13.843	4.3	0.1	2333.
20779	13.743	4.3	0.1	2358.8
20780	13.644	4.3	0.1	2384.7
20781	13.544	4.3	0.1	2410.6
20782	13.444	4.3	0.1	2436.6
20783	13.345	4.3	0.1	2462.7
20784	13.245	4.3	0.1	2488.9
20785	13.146	4.3	0.1	2515.2
20786	13.046	4.3	0.1	2541.6
20787	12.947	4.3	0.1	2568.
20788	12.847	4.3	0.1	2594.6
20789	12.747	4.3	0.1	2621.3
20790	12.648	4.3	0.1	2648.1
20791	12.548	4.3	0.1	2675.
20792	12.449	4.3	0.1	2702.1
20793	12.349	4.3	0.1	2729.3
20794	12.249	4.3	0.1	2756.7
20795	12.15	4.3	0.1	2784.3
20796	12.05	4.3	0.1	2812.
20797	11.951	4.3	0.1	2840.
20798	11.851	4.3	0.1	2868.2
20799	11.752	4.3	0.1	2896.7
20800	11.652	4.3	0.1	2925.4
20801	11.552	4.3	0.1	2954.4
20802	11.453	4.3	0.1	2983.8
20803	11.353	4.3	0.1	3013.6
20804	11.254	4.3	0.1	3043.7
20805	11.154	4.3	0.1	3074.3
20806	11.055	4.3	0.1	3105.5
20807	10.955	4.3	0.1	3137.2
20808	10.855	4.3	0.1	3169.5
20809	10.756	4.3	0.1	3202.5
20810	10.656	4.3	0.1	3236.3
20811	10.557	4.3	0.1	3271.1
20812	10.457	4.3	0.1	3306.8
20813	10.357	4.3	0.1	3343.7
20814	10.258	4.3	0.1	3381.8
20815	10.158	4.3	0.1	3421.6
20816	10.059	4.3	0.1	3463.
20817	9.9591	4.3	0.1	3506.6
20818	9.8595	4.3	0.1	3552.6
20819	9.76	4.3	0.1	3601.6
20820	9.6604	4.3	0.1	3654.
20821	9.5608	4.3	0.1	3710.8
20822	9.4612	4.3	0.1	3772.7
20823	9.3616	4.3	0.1	3841.1
20824	9.2621	4.3	0.1	3917.4
20825	9.1625	4.3	0.1	4003.5
20826	9.0629	4.3	0.1	4101.6
20827	8.9633	4.3	0.1	4214.4
20828	8.8637	4.3	0.1	4345.2
20829	8.7642	4.3	0.1	4496.8
20830	8.6646	4.3	0.1	4671.2
20831	8.565	4.3	0.1	4865.3
20832	8.4654	4.3	0.1	5062.3
20833	8.3658	4.3	0.1	5201.5
20834	8.2662	4.3	0.1	5329.9
20835	23.9	4.4	0.1	22.035
20836	23.801	4.4	0.1	42.698
20837	23.701	4.4	0.1	63.495
20838	23.602	4.4	0.1	84.255
20839	23.502	4.4	0.1	104.97
20840	23.403	4.4	0.1	125.65
20841	23.303	4.4	0.1	146.3
20842	23.203	4.4	0.1	166.93
20843	23.104	4.4	0.1	187.56
20844	23.004	4.4	0.1	208.21
20845	22.905	4.4	0.1	228.87
20846	22.805	4.4	0.1	249.55
20847	22.705	4.4	0.1	270.27
20848	22.606	4.4	0.1	291.03
20849	22.506	4.4	0.1	311.83
20850	22.407	4.4	0.1	332.67
20851	22.307	4.4	0.1	353.56
20852	22.208	4.4	0.1	374.5
20853	22.108	4.4	0.1	395.5
20854	22.008	4.4	0.1	416.54
20855	21.909	4.4	0.1	437.64
20856	21.809	4.4	0.1	458.79
20857	21.71	4.4	0.1	479.99
20858	21.61	4.4	0.1	501.25
20859	21.51	4.4	0.1	522.56
20860	21.411	4.4	0.1	543.93
20861	21.311	4.4	0.1	565.35
20862	21.212	4.4	0.1	586.83
20863	21.112	4.4	0.1	608.36
20864	21.013	4.4	0.1	629.95
20865	20.913	4.4	0.1	651.59
20866	20.813	4.4	0.1	673.29
20867	20.714	4.4	0.1	695.05
20868	20.614	4.4	0.1	716.86
20869	20.515	4.4	0.1	738.73
20870	20.415	4.4	0.1	760.65
20871	20.316	4.4	0.1	782.63
20872	20.216	4.4	0.1	804.67
20873	20.116	4.4	0.1	826.76
20874	20.017	4.4	0.1	848.91
20875	19.917	4.4	0.1	871.11
20876	19.818	4.4	0.1	893.38
20877	19.718	4.4	0.1	915.7
20878	19.618	4.4	0.1	938.07
20879	19.519	4.4	0.1	960.51
20880	19.419	4.4	0.1	983.
20881	19.32	4.4	0.1	1005.5
20882	19.22	4.4	0.1	1028.1
20883	19.121	4.4	0.1	1050.8
20884	19.021	4.4	0.1	1073.5
20885	18.921	4.4	0.1	1096.3
20886	18.822	4.4	0.1	1119.1
20887	18.722	4.4	0.1	1142.
20888	18.623	4.4	0.1	1165.
20889	18.523	4.4	0.1	1188.
20890	18.423	4.4	0.1	1211.
20891	18.324	4.4	0.1	1234.2
20892	18.224	4.4	0.1	1257.3
20893	18.125	4.4	0.1	1280.6
20894	18.025	4.4	0.1	1303.9
20895	17.926	4.4	0.1	1327.2
20896	17.826	4.4	0.1	1350.6
20897	17.726	4.4	0.1	1374.1
20898	17.627	4.4	0.1	1397.6
20899	17.527	4.4	0.1	1421.2
20900	17.428	4.4	0.1	1444.8
20901	17.328	4.4	0.1	1468.5
20902	17.229	4.4	0.1	1492.3
20903	17.129	4.4	0.1	1516.1
20904	17.029	4.4	0.1	1539.9
20905	16.93	4.4	0.1	1563.8
20906	16.83	4.4	0.1	1587.8
20907	16.731	4.4	0.1	1611.9
20908	16.631	4.4	0.1	1635.9
20909	16.531	4.4	0.1	1660.1
20910	16.432	4.4	0.1	1684.3
20911	16.332	4.4	0.1	1708.6
20912	16.233	4.4	0.1	1732.9
20913	16.133	4.4	0.1	1757.2
20914	16.034	4.4	0.1	1781.7
20915	15.934	4.4	0.1	1806.2
20916	15.834	4.4	0.1	1830.7
20917	15.735	4.4	0.1	1855.3
20918	15.635	4.4	0.1	1880.
20919	15.536	4.4	0.1	1904.7
20920	15.436	4.4	0.1	1929.5
20921	15.336	4.4	0.1	1954.3
20922	15.237	4.4	0.1	1979.2
20923	15.137	4.4	0.1	2004.1
20924	15.038	4.4	0.1	2029.1
20925	14.938	4.4	0.1	2054.2
20926	14.839	4.4	0.1	2079.3
20927	14.739	4.4	0.1	2104.5
20928	14.639	4.4	0.1	2129.7
20929	14.54	4.4	0.1	2155.
20930	14.44	4.4	0.1	2180.3
20931	14.341	4.4	0.1	2205.7
20932	14.241	4.4	0.1	2231.2
20933	14.142	4.4	0.1	2256.8
20934	14.042	4.4	0.1	2282.3
20935	13.942	4.4	0.1	2308.
20936	13.843	4.4	0.1	2333.7
20937	13.743	4.4	0.1	2359.5
20938	13.644	4.4	0.1	2385.4
20939	13.544	4.4	0.1	2411.3
20940	13.444	4.4	0.1	2437.3
20941	13.345	4.4	0.1	2463.4
20942	13.245	4.4	0.1	2489.5
20943	13.146	4.4	0.1	2515.7
20944	13.046	4.4	0.1	2542.1
20945	12.947	4.4	0.1	2568.4
20946	12.847	4.4	0.1	2594.9
20947	12.747	4.4	0.1	2621.5
20948	12.648	4.4	0.1	2648.2
20949	12.548	4.4	0.1	2674.9
20950	12.449	4.4	0.1	2701.8
20951	12.349	4.4	0.1	2728.8
20952	12.249	4.4	0.1	2755.9
20953	12.15	4.4	0.1	2783.2
20954	12.05	4.4	0.1	2810.5
20955	11.951	4.4	0.1	2838.1
20956	11.851	4.4	0.1	2865.7
20957	11.752	4.4	0.1	2893.6
20958	11.652	4.4	0.1	2921.6
20959	11.552	4.4	0.1	2949.8
20960	11.453	4.4	0.1	2978.2
20961	11.353	4.4	0.1	3006.9
20962	11.254	4.4	0.1	3035.8
20963	11.154	4.4	0.1	3064.9
20964	11.055	4.4	0.1	3094.4
20965	10.955	4.4	0.1	3124.1
20966	10.855	4.4	0.1	3154.2
20967	10.756	4.4	0.1	3184.6
20968	10.656	4.4	0.1	3215.4
20969	10.557	4.4	0.1	3246.7
20970	10.457	4.4	0.1	3278.5
20971	10.357	4.4	0.1	3310.8
20972	10.258	4.4	0.1	3343.9
20973	10.158	4.4	0.1	3377.6
20974	10.059	4.4	0.1	3412.3
20975	9.9591	4.4	0.1	3448.
20976	9.8595	4.4	0.1	3485.1
20977	9.76	4.4	0.1	3523.7
20978	9.6604	4.4	0.1	3564.2
20979	9.5608	4.4	0.1	3607.2
20980	9.4612	4.4	0.1	3653.3
20981	9.3616	4.4	0.1	3703.1
20982	9.2621	4.4	0.1	3757.6
20983	9.1625	4.4	0.1	3817.9
20984	9.0629	4.4	0.1	3885.3
20985	8.9633	4.4	0.1	3960.8
20986	8.8637	4.4	0.1	4045.4
20987	8.7642	4.4	0.1	4138.9
20988	8.6646	4.4	0.1	4238.4
20989	8.565	4.4	0.1	4335.
20990	8.4654	4.4	0.1	4407.6
20991	8.3658	4.4	0.1	4419.2
20992	8.2662	4.4	0.1	4456.6
20993	23.9	4.5	0.1	22.096
20994	23.801	4.5	0.1	42.69
20995	23.701	4.5	0.1	63.421
20996	23.602	4.5	0.1	84.115
20997	23.502	4.5	0.1	104.76
20998	23.403	4.5	0.1	125.38
20999	23.303	4.5	0.1	145.98
21000	23.203	4.5	0.1	166.57
21001	23.104	4.5	0.1	187.16
21002	23.004	4.5	0.1	207.77
21003	22.905	4.5	0.1	228.41
21004	22.805	4.5	0.1	249.08
21005	22.705	4.5	0.1	269.8
21006	22.606	4.5	0.1	290.55
21007	22.506	4.5	0.1	311.36
21008	22.407	4.5	0.1	332.21
21009	22.307	4.5	0.1	353.12
21010	22.208	4.5	0.1	374.08
21011	22.108	4.5	0.1	395.09
21012	22.008	4.5	0.1	416.16
21013	21.909	4.5	0.1	437.28
21014	21.809	4.5	0.1	458.46
21015	21.71	4.5	0.1	479.69
21016	21.61	4.5	0.1	500.97
21017	21.51	4.5	0.1	522.31
21018	21.411	4.5	0.1	543.71
21019	21.311	4.5	0.1	565.16
21020	21.212	4.5	0.1	586.67
21021	21.112	4.5	0.1	608.23
21022	21.013	4.5	0.1	629.84
21023	20.913	4.5	0.1	651.51
21024	20.813	4.5	0.1	673.24
21025	20.714	4.5	0.1	695.02
21026	20.614	4.5	0.1	716.86
21027	20.515	4.5	0.1	738.75
21028	20.415	4.5	0.1	760.69
21029	20.316	4.5	0.1	782.69
21030	20.216	4.5	0.1	804.75
21031	20.116	4.5	0.1	826.86
21032	20.017	4.5	0.1	849.03
21033	19.917	4.5	0.1	871.26
21034	19.818	4.5	0.1	893.54
21035	19.718	4.5	0.1	915.87
21036	19.618	4.5	0.1	938.27
21037	19.519	4.5	0.1	960.72
21038	19.419	4.5	0.1	983.22
21039	19.32	4.5	0.1	1005.8
21040	19.22	4.5	0.1	1028.4
21041	19.121	4.5	0.1	1051.1
21042	19.021	4.5	0.1	1073.8
21043	18.921	4.5	0.1	1096.6
21044	18.822	4.5	0.1	1119.4
21045	18.722	4.5	0.1	1142.3
21046	18.623	4.5	0.1	1165.3
21047	18.523	4.5	0.1	1188.3
21048	18.423	4.5	0.1	1211.4
21049	18.324	4.5	0.1	1234.5
21050	18.224	4.5	0.1	1257.7
21051	18.125	4.5	0.1	1281.
21052	18.025	4.5	0.1	1304.3
21053	17.926	4.5	0.1	1327.6
21054	17.826	4.5	0.1	1351.
21055	17.726	4.5	0.1	1374.5
21056	17.627	4.5	0.1	1398.
21057	17.527	4.5	0.1	1421.6
21058	17.428	4.5	0.1	1445.3
21059	17.328	4.5	0.1	1469.
21060	17.229	4.5	0.1	1492.7
21061	17.129	4.5	0.1	1516.5
21062	17.029	4.5	0.1	1540.4
21063	16.93	4.5	0.1	1564.3
21064	16.83	4.5	0.1	1588.3
21065	16.731	4.5	0.1	1612.4
21066	16.631	4.5	0.1	1636.5
21067	16.531	4.5	0.1	1660.6
21068	16.432	4.5	0.1	1684.8
21069	16.332	4.5	0.1	1709.1
21070	16.233	4.5	0.1	1733.4
21071	16.133	4.5	0.1	1757.8
21072	16.034	4.5	0.1	1782.3
21073	15.934	4.5	0.1	1806.8
21074	15.834	4.5	0.1	1831.3
21075	15.735	4.5	0.1	1855.9
21076	15.635	4.5	0.1	1880.6
21077	15.536	4.5	0.1	1905.3
21078	15.436	4.5	0.1	1930.1
21079	15.336	4.5	0.1	1954.9
21080	15.237	4.5	0.1	1979.8
21081	15.137	4.5	0.1	2004.8
21082	15.038	4.5	0.1	2029.8
21083	14.938	4.5	0.1	2054.9
21084	14.839	4.5	0.1	2080.
21085	14.739	4.5	0.1	2105.2
21086	14.639	4.5	0.1	2130.4
21087	14.54	4.5	0.1	2155.7
21088	14.44	4.5	0.1	2181.1
21089	14.341	4.5	0.1	2206.5
21090	14.241	4.5	0.1	2232.
21091	14.142	4.5	0.1	2257.5
21092	14.042	4.5	0.1	2283.1
21093	13.942	4.5	0.1	2308.8
21094	13.843	4.5	0.1	2334.5
21095	13.743	4.5	0.1	2360.3
21096	13.644	4.5	0.1	2386.1
21097	13.544	4.5	0.1	2412.1
21098	13.444	4.5	0.1	2438.
21099	13.345	4.5	0.1	2464.1
21100	13.245	4.5	0.1	2490.2
21101	13.146	4.5	0.1	2516.3
21102	13.046	4.5	0.1	2542.6
21103	12.947	4.5	0.1	2568.9
21104	12.847	4.5	0.1	2595.3
21105	12.747	4.5	0.1	2621.7
21106	12.648	4.5	0.1	2648.3
21107	12.548	4.5	0.1	2674.9
21108	12.449	4.5	0.1	2701.5
21109	12.349	4.5	0.1	2728.3
21110	12.249	4.5	0.1	2755.1
21111	12.15	4.5	0.1	2782.
21112	12.05	4.5	0.1	2809.
21113	11.951	4.5	0.1	2836.1
21114	11.851	4.5	0.1	2863.2
21115	11.752	4.5	0.1	2890.4
21116	11.652	4.5	0.1	2917.8
21117	11.552	4.5	0.1	2945.1
21118	11.453	4.5	0.1	2972.6
21119	11.353	4.5	0.1	3000.1
21120	11.254	4.5	0.1	3027.7
21121	11.154	4.5	0.1	3055.4
21122	11.055	4.5	0.1	3083.1
21123	10.955	4.5	0.1	3110.8
21124	10.855	4.5	0.1	3138.6
21125	10.756	4.5	0.1	3166.5
21126	10.656	4.5	0.1	3194.3
21127	10.557	4.5	0.1	3222.1
21128	10.457	4.5	0.1	3250.
21129	10.357	4.5	0.1	3277.8
21130	10.258	4.5	0.1	3305.7
21131	10.158	4.5	0.1	3333.5
21132	10.059	4.5	0.1	3361.4
21133	9.9591	4.5	0.1	3389.4
21134	9.8595	4.5	0.1	3417.5
21135	9.76	4.5	0.1	3445.9
21136	9.6604	4.5	0.1	3474.7
21137	9.5608	4.5	0.1	3504.1
21138	9.4612	4.5	0.1	3534.5
21139	9.3616	4.5	0.1	3566.2
21140	9.2621	4.5	0.1	3599.6
21141	9.1625	4.5	0.1	3635.3
21142	9.0629	4.5	0.1	3673.5
21143	8.9633	4.5	0.1	3714.6
21144	8.8637	4.5	0.1	3757.9
21145	8.7642	4.5	0.1	3801.9
21146	8.6646	4.5	0.1	3842.1
21147	8.565	4.5	0.1	3869.9
21148	8.4654	4.5	0.1	3870.
21149	8.3658	4.5	0.1	3823.2
21150	8.2662	4.5	0.1	3832.3
21151	23.9	4.6	0.1	22.158
21152	23.801	4.6	0.1	42.673
21153	23.701	4.6	0.1	63.329
21154	23.602	4.6	0.1	83.948
21155	23.502	4.6	0.1	104.53
21156	23.403	4.6	0.1	125.08
21157	23.303	4.6	0.1	145.61
21158	23.203	4.6	0.1	166.16
21159	23.104	4.6	0.1	186.71
21160	23.004	4.6	0.1	207.3
21161	22.905	4.6	0.1	227.92
21162	22.805	4.6	0.1	248.58
21163	22.705	4.6	0.1	269.29
21164	22.606	4.6	0.1	290.05
21165	22.506	4.6	0.1	310.86
21166	22.407	4.6	0.1	331.73
21167	22.307	4.6	0.1	352.66
21168	22.208	4.6	0.1	373.64
21169	22.108	4.6	0.1	394.68
21170	22.008	4.6	0.1	415.77
21171	21.909	4.6	0.1	436.92
21172	21.809	4.6	0.1	458.13
21173	21.71	4.6	0.1	479.39
21174	21.61	4.6	0.1	500.71
21175	21.51	4.6	0.1	522.08
21176	21.411	4.6	0.1	543.51
21177	21.311	4.6	0.1	564.99
21178	21.212	4.6	0.1	586.52
21179	21.112	4.6	0.1	608.11
21180	21.013	4.6	0.1	629.76
21181	20.913	4.6	0.1	651.45
21182	20.813	4.6	0.1	673.21
21183	20.714	4.6	0.1	695.01
21184	20.614	4.6	0.1	716.87
21185	20.515	4.6	0.1	738.79
21186	20.415	4.6	0.1	760.76
21187	20.316	4.6	0.1	782.78
21188	20.216	4.6	0.1	804.86
21189	20.116	4.6	0.1	827.
21190	20.017	4.6	0.1	849.18
21191	19.917	4.6	0.1	871.43
21192	19.818	4.6	0.1	893.73
21193	19.718	4.6	0.1	916.08
21194	19.618	4.6	0.1	938.49
21195	19.519	4.6	0.1	960.96
21196	19.419	4.6	0.1	983.48
21197	19.32	4.6	0.1	1006.1
21198	19.22	4.6	0.1	1028.7
21199	19.121	4.6	0.1	1051.4
21200	19.021	4.6	0.1	1074.1
21201	18.921	4.6	0.1	1096.9
21202	18.822	4.6	0.1	1119.8
21203	18.722	4.6	0.1	1142.7
21204	18.623	4.6	0.1	1165.7
21205	18.523	4.6	0.1	1188.7
21206	18.423	4.6	0.1	1211.8
21207	18.324	4.6	0.1	1234.9
21208	18.224	4.6	0.1	1258.1
21209	18.125	4.6	0.1	1281.4
21210	18.025	4.6	0.1	1304.7
21211	17.926	4.6	0.1	1328.
21212	17.826	4.6	0.1	1351.5
21213	17.726	4.6	0.1	1374.9
21214	17.627	4.6	0.1	1398.5
21215	17.527	4.6	0.1	1422.1
21216	17.428	4.6	0.1	1445.7
21217	17.328	4.6	0.1	1469.4
21218	17.229	4.6	0.1	1493.2
21219	17.129	4.6	0.1	1517.
21220	17.029	4.6	0.1	1540.9
21221	16.93	4.6	0.1	1564.9
21222	16.83	4.6	0.1	1588.9
21223	16.731	4.6	0.1	1612.9
21224	16.631	4.6	0.1	1637.
21225	16.531	4.6	0.1	1661.2
21226	16.432	4.6	0.1	1685.4
21227	16.332	4.6	0.1	1709.7
21228	16.233	4.6	0.1	1734.
21229	16.133	4.6	0.1	1758.4
21230	16.034	4.6	0.1	1782.9
21231	15.934	4.6	0.1	1807.4
21232	15.834	4.6	0.1	1831.9
21233	15.735	4.6	0.1	1856.6
21234	15.635	4.6	0.1	1881.3
21235	15.536	4.6	0.1	1906.
21236	15.436	4.6	0.1	1930.8
21237	15.336	4.6	0.1	1955.6
21238	15.237	4.6	0.1	1980.6
21239	15.137	4.6	0.1	2005.5
21240	15.038	4.6	0.1	2030.5
21241	14.938	4.6	0.1	2055.6
21242	14.839	4.6	0.1	2080.8
21243	14.739	4.6	0.1	2106.
21244	14.639	4.6	0.1	2131.2
21245	14.54	4.6	0.1	2156.5
21246	14.44	4.6	0.1	2181.9
21247	14.341	4.6	0.1	2207.3
21248	14.241	4.6	0.1	2232.8
21249	14.142	4.6	0.1	2258.4
21250	14.042	4.6	0.1	2284.
21251	13.942	4.6	0.1	2309.6
21252	13.843	4.6	0.1	2335.4
21253	13.743	4.6	0.1	2361.1
21254	13.644	4.6	0.1	2387.
21255	13.544	4.6	0.1	2412.9
21256	13.444	4.6	0.1	2438.8
21257	13.345	4.6	0.1	2464.8
21258	13.245	4.6	0.1	2490.9
21259	13.146	4.6	0.1	2517.
21260	13.046	4.6	0.1	2543.2
21261	12.947	4.6	0.1	2569.4
21262	12.847	4.6	0.1	2595.7
21263	12.747	4.6	0.1	2622.
21264	12.648	4.6	0.1	2648.4
21265	12.548	4.6	0.1	2674.8
21266	12.449	4.6	0.1	2701.3
21267	12.349	4.6	0.1	2727.8
21268	12.249	4.6	0.1	2754.3
21269	12.15	4.6	0.1	2780.9
21270	12.05	4.6	0.1	2807.5
21271	11.951	4.6	0.1	2834.1
21272	11.851	4.6	0.1	2860.7
21273	11.752	4.6	0.1	2887.3
21274	11.652	4.6	0.1	2913.9
21275	11.552	4.6	0.1	2940.4
21276	11.453	4.6	0.1	2966.9
21277	11.353	4.6	0.1	2993.3
21278	11.254	4.6	0.1	3019.6
21279	11.154	4.6	0.1	3045.8
21280	11.055	4.6	0.1	3071.8
21281	10.955	4.6	0.1	3097.6
21282	10.855	4.6	0.1	3123.1
21283	10.756	4.6	0.1	3148.3
21284	10.656	4.6	0.1	3173.2
21285	10.557	4.6	0.1	3197.6
21286	10.457	4.6	0.1	3221.5
21287	10.357	4.6	0.1	3244.9
21288	10.258	4.6	0.1	3267.7
21289	10.158	4.6	0.1	3289.7
21290	10.059	4.6	0.1	3310.9
21291	9.9591	4.6	0.1	3331.2
21292	9.8595	4.6	0.1	3350.6
21293	9.76	4.6	0.1	3368.9
21294	9.6604	4.6	0.1	3386.3
21295	9.5608	4.6	0.1	3402.6
21296	9.4612	4.6	0.1	3417.8
21297	9.3616	4.6	0.1	3432.1
21298	9.2621	4.6	0.1	3445.4
21299	9.1625	4.6	0.1	3457.8
21300	9.0629	4.6	0.1	3469.3
21301	8.9633	4.6	0.1	3479.3
21302	8.8637	4.6	0.1	3486.9
21303	8.7642	4.6	0.1	3490.2
21304	8.6646	4.6	0.1	3485.4
21305	8.565	4.6	0.1	3466.3
21306	8.4654	4.6	0.1	3424.
21307	8.3658	4.6	0.1	3351.
21308	8.2662	4.6	0.1	3347.4
21309	23.9	4.7	0.1	22.22
21310	23.801	4.7	0.1	42.645
21311	23.701	4.7	0.1	63.216
21312	23.602	4.7	0.1	83.75
21313	23.502	4.7	0.1	104.25
21314	23.403	4.7	0.1	124.73
21315	23.303	4.7	0.1	145.2
21316	23.203	4.7	0.1	165.7
21317	23.104	4.7	0.1	186.22
21318	23.004	4.7	0.1	206.77
21319	22.905	4.7	0.1	227.38
21320	22.805	4.7	0.1	248.03
21321	22.705	4.7	0.1	268.75
21322	22.606	4.7	0.1	289.52
21323	22.506	4.7	0.1	310.35
21324	22.407	4.7	0.1	331.24
21325	22.307	4.7	0.1	352.19
21326	22.208	4.7	0.1	373.2
21327	22.108	4.7	0.1	394.26
21328	22.008	4.7	0.1	415.39
21329	21.909	4.7	0.1	436.57
21330	21.809	4.7	0.1	457.81
21331	21.71	4.7	0.1	479.11
21332	21.61	4.7	0.1	500.46
21333	21.51	4.7	0.1	521.86
21334	21.411	4.7	0.1	543.32
21335	21.311	4.7	0.1	564.83
21336	21.212	4.7	0.1	586.4
21337	21.112	4.7	0.1	608.02
21338	21.013	4.7	0.1	629.69
21339	20.913	4.7	0.1	651.42
21340	20.813	4.7	0.1	673.2
21341	20.714	4.7	0.1	695.03
21342	20.614	4.7	0.1	716.92
21343	20.515	4.7	0.1	738.86
21344	20.415	4.7	0.1	760.86
21345	20.316	4.7	0.1	782.9
21346	20.216	4.7	0.1	805.
21347	20.116	4.7	0.1	827.16
21348	20.017	4.7	0.1	849.37
21349	19.917	4.7	0.1	871.63
21350	19.818	4.7	0.1	893.95
21351	19.718	4.7	0.1	916.32
21352	19.618	4.7	0.1	938.75
21353	19.519	4.7	0.1	961.23
21354	19.419	4.7	0.1	983.76
21355	19.32	4.7	0.1	1006.4
21356	19.22	4.7	0.1	1029.
21357	19.121	4.7	0.1	1051.7
21358	19.021	4.7	0.1	1074.5
21359	18.921	4.7	0.1	1097.3
21360	18.822	4.7	0.1	1120.1
21361	18.722	4.7	0.1	1143.1
21362	18.623	4.7	0.1	1166.1
21363	18.523	4.7	0.1	1189.1
21364	18.423	4.7	0.1	1212.2
21365	18.324	4.7	0.1	1235.3
21366	18.224	4.7	0.1	1258.5
21367	18.125	4.7	0.1	1281.8
21368	18.025	4.7	0.1	1305.1
21369	17.926	4.7	0.1	1328.5
21370	17.826	4.7	0.1	1351.9
21371	17.726	4.7	0.1	1375.4
21372	17.627	4.7	0.1	1399.
21373	17.527	4.7	0.1	1422.6
21374	17.428	4.7	0.1	1446.3
21375	17.328	4.7	0.1	1470.
21376	17.229	4.7	0.1	1493.7
21377	17.129	4.7	0.1	1517.6
21378	17.029	4.7	0.1	1541.5
21379	16.93	4.7	0.1	1565.4
21380	16.83	4.7	0.1	1589.4
21381	16.731	4.7	0.1	1613.5
21382	16.631	4.7	0.1	1637.6
21383	16.531	4.7	0.1	1661.8
21384	16.432	4.7	0.1	1686.
21385	16.332	4.7	0.1	1710.3
21386	16.233	4.7	0.1	1734.7
21387	16.133	4.7	0.1	1759.1
21388	16.034	4.7	0.1	1783.5
21389	15.934	4.7	0.1	1808.
21390	15.834	4.7	0.1	1832.6
21391	15.735	4.7	0.1	1857.3
21392	15.635	4.7	0.1	1882.
21393	15.536	4.7	0.1	1906.7
21394	15.436	4.7	0.1	1931.5
21395	15.336	4.7	0.1	1956.4
21396	15.237	4.7	0.1	1981.3
21397	15.137	4.7	0.1	2006.3
21398	15.038	4.7	0.1	2031.3
21399	14.938	4.7	0.1	2056.4
21400	14.839	4.7	0.1	2081.6
21401	14.739	4.7	0.1	2106.8
21402	14.639	4.7	0.1	2132.1
21403	14.54	4.7	0.1	2157.4
21404	14.44	4.7	0.1	2182.8
21405	14.341	4.7	0.1	2208.2
21406	14.241	4.7	0.1	2233.7
21407	14.142	4.7	0.1	2259.2
21408	14.042	4.7	0.1	2284.8
21409	13.942	4.7	0.1	2310.5
21410	13.843	4.7	0.1	2336.2
21411	13.743	4.7	0.1	2362.
21412	13.644	4.7	0.1	2387.8
21413	13.544	4.7	0.1	2413.7
21414	13.444	4.7	0.1	2439.6
21415	13.345	4.7	0.1	2465.6
21416	13.245	4.7	0.1	2491.6
21417	13.146	4.7	0.1	2517.7
21418	13.046	4.7	0.1	2543.8
21419	12.947	4.7	0.1	2569.9
21420	12.847	4.7	0.1	2596.1
21421	12.747	4.7	0.1	2622.3
21422	12.648	4.7	0.1	2648.5
21423	12.548	4.7	0.1	2674.8
21424	12.449	4.7	0.1	2701.
21425	12.349	4.7	0.1	2727.3
21426	12.249	4.7	0.1	2753.5
21427	12.15	4.7	0.1	2779.8
21428	12.05	4.7	0.1	2806.
21429	11.951	4.7	0.1	2832.1
21430	11.851	4.7	0.1	2858.2
21431	11.752	4.7	0.1	2884.2
21432	11.652	4.7	0.1	2910.
21433	11.552	4.7	0.1	2935.7
21434	11.453	4.7	0.1	2961.2
21435	11.353	4.7	0.1	2986.5
21436	11.254	4.7	0.1	3011.5
21437	11.154	4.7	0.1	3036.2
21438	11.055	4.7	0.1	3060.5
21439	10.955	4.7	0.1	3084.4
21440	10.855	4.7	0.1	3107.7
21441	10.756	4.7	0.1	3130.3
21442	10.656	4.7	0.1	3152.3
21443	10.557	4.7	0.1	3173.3
21444	10.457	4.7	0.1	3193.4
21445	10.357	4.7	0.1	3212.4
21446	10.258	4.7	0.1	3230.2
21447	10.158	4.7	0.1	3246.5
21448	10.059	4.7	0.1	3261.2
21449	9.9591	4.7	0.1	3274.1
21450	9.8595	4.7	0.1	3285.
21451	9.76	4.7	0.1	3293.6
21452	9.6604	4.7	0.1	3299.9
21453	9.5608	4.7	0.1	3303.6
21454	9.4612	4.7	0.1	3304.4
21455	9.3616	4.7	0.1	3302.2
21456	9.2621	4.7	0.1	3296.7
21457	9.1625	4.7	0.1	3287.7
21458	9.0629	4.7	0.1	3274.8
21459	8.9633	4.7	0.1	3257.5
21460	8.8637	4.7	0.1	3234.9
21461	8.7642	4.7	0.1	3205.5
21462	8.6646	4.7	0.1	3167.
21463	8.565	4.7	0.1	3116.1
21464	8.4654	4.7	0.1	3048.7
21465	8.3658	4.7	0.1	2963.7
21466	8.2662	4.7	0.1	2953.7
21467	23.9	4.8	0.1	22.281
21468	23.801	4.8	0.1	42.603
21469	23.701	4.8	0.1	63.075
21470	23.602	4.8	0.1	83.514
21471	23.502	4.8	0.1	103.93
21472	23.403	4.8	0.1	124.33
21473	23.303	4.8	0.1	144.74
21474	23.203	4.8	0.1	165.18
21475	23.104	4.8	0.1	185.67
21476	23.004	4.8	0.1	206.21
21477	22.905	4.8	0.1	226.8
21478	22.805	4.8	0.1	247.46
21479	22.705	4.8	0.1	268.18
21480	22.606	4.8	0.1	288.97
21481	22.506	4.8	0.1	309.82
21482	22.407	4.8	0.1	330.73
21483	22.307	4.8	0.1	351.71
21484	22.208	4.8	0.1	372.75
21485	22.108	4.8	0.1	393.86
21486	22.008	4.8	0.1	415.02
21487	21.909	4.8	0.1	436.23
21488	21.809	4.8	0.1	457.51
21489	21.71	4.8	0.1	478.84
21490	21.61	4.8	0.1	500.23
21491	21.51	4.8	0.1	521.67
21492	21.411	4.8	0.1	543.16
21493	21.311	4.8	0.1	564.71
21494	21.212	4.8	0.1	586.31
21495	21.112	4.8	0.1	607.96
21496	21.013	4.8	0.1	629.66
21497	20.913	4.8	0.1	651.42
21498	20.813	4.8	0.1	673.23
21499	20.714	4.8	0.1	695.09
21500	20.614	4.8	0.1	717.
21501	20.515	4.8	0.1	738.97
21502	20.415	4.8	0.1	760.99
21503	20.316	4.8	0.1	783.06
21504	20.216	4.8	0.1	805.18
21505	20.116	4.8	0.1	827.36
21506	20.017	4.8	0.1	849.59
21507	19.917	4.8	0.1	871.87
21508	19.818	4.8	0.1	894.2
21509	19.718	4.8	0.1	916.59
21510	19.618	4.8	0.1	939.04
21511	19.519	4.8	0.1	961.54
21512	19.419	4.8	0.1	984.09
21513	19.32	4.8	0.1	1006.7
21514	19.22	4.8	0.1	1029.4
21515	19.121	4.8	0.1	1052.1
21516	19.021	4.8	0.1	1074.8
21517	18.921	4.8	0.1	1097.7
21518	18.822	4.8	0.1	1120.6
21519	18.722	4.8	0.1	1143.5
21520	18.623	4.8	0.1	1166.5
21521	18.523	4.8	0.1	1189.5
21522	18.423	4.8	0.1	1212.6
21523	18.324	4.8	0.1	1235.8
21524	18.224	4.8	0.1	1259.
21525	18.125	4.8	0.1	1282.3
21526	18.025	4.8	0.1	1305.6
21527	17.926	4.8	0.1	1329.
21528	17.826	4.8	0.1	1352.5
21529	17.726	4.8	0.1	1376.
21530	17.627	4.8	0.1	1399.5
21531	17.527	4.8	0.1	1423.1
21532	17.428	4.8	0.1	1446.8
21533	17.328	4.8	0.1	1470.5
21534	17.229	4.8	0.1	1494.3
21535	17.129	4.8	0.1	1518.2
21536	17.029	4.8	0.1	1542.1
21537	16.93	4.8	0.1	1566.
21538	16.83	4.8	0.1	1590.
21539	16.731	4.8	0.1	1614.1
21540	16.631	4.8	0.1	1638.2
21541	16.531	4.8	0.1	1662.4
21542	16.432	4.8	0.1	1686.7
21543	16.332	4.8	0.1	1711.
21544	16.233	4.8	0.1	1735.3
21545	16.133	4.8	0.1	1759.7
21546	16.034	4.8	0.1	1784.2
21547	15.934	4.8	0.1	1808.8
21548	15.834	4.8	0.1	1833.3
21549	15.735	4.8	0.1	1858.
21550	15.635	4.8	0.1	1882.7
21551	15.536	4.8	0.1	1907.5
21552	15.436	4.8	0.1	1932.3
21553	15.336	4.8	0.1	1957.2
21554	15.237	4.8	0.1	1982.1
21555	15.137	4.8	0.1	2007.1
21556	15.038	4.8	0.1	2032.2
21557	14.938	4.8	0.1	2057.3
21558	14.839	4.8	0.1	2082.4
21559	14.739	4.8	0.1	2107.7
21560	14.639	4.8	0.1	2132.9
21561	14.54	4.8	0.1	2158.3
21562	14.44	4.8	0.1	2183.7
21563	14.341	4.8	0.1	2209.1
21564	14.241	4.8	0.1	2234.6
21565	14.142	4.8	0.1	2260.2
21566	14.042	4.8	0.1	2285.8
21567	13.942	4.8	0.1	2311.4
21568	13.843	4.8	0.1	2337.1
21569	13.743	4.8	0.1	2362.9
21570	13.644	4.8	0.1	2388.7
21571	13.544	4.8	0.1	2414.6
21572	13.444	4.8	0.1	2440.5
21573	13.345	4.8	0.1	2466.4
21574	13.245	4.8	0.1	2492.4
21575	13.146	4.8	0.1	2518.4
21576	13.046	4.8	0.1	2544.4
21577	12.947	4.8	0.1	2570.5
21578	12.847	4.8	0.1	2596.5
21579	12.747	4.8	0.1	2622.6
21580	12.648	4.8	0.1	2648.7
21581	12.548	4.8	0.1	2674.8
21582	12.449	4.8	0.1	2700.8
21583	12.349	4.8	0.1	2726.8
21584	12.249	4.8	0.1	2752.8
21585	12.15	4.8	0.1	2778.7
21586	12.05	4.8	0.1	2804.5
21587	11.951	4.8	0.1	2830.2
21588	11.851	4.8	0.1	2855.7
21589	11.752	4.8	0.1	2881.1
21590	11.652	4.8	0.1	2906.2
21591	11.552	4.8	0.1	2931.1
21592	11.453	4.8	0.1	2955.7
21593	11.353	4.8	0.1	2979.8
21594	11.254	4.8	0.1	3003.6
21595	11.154	4.8	0.1	3026.8
21596	11.055	4.8	0.1	3049.5
21597	10.955	4.8	0.1	3071.4
21598	10.855	4.8	0.1	3092.5
21599	10.756	4.8	0.1	3112.7
21600	10.656	4.8	0.1	3131.7
21601	10.557	4.8	0.1	3149.6
21602	10.457	4.8	0.1	3166.
21603	10.357	4.8	0.1	3180.7
21604	10.258	4.8	0.1	3193.6
21605	10.158	4.8	0.1	3204.4
21606	10.059	4.8	0.1	3212.8
21607	9.9591	4.8	0.1	3218.6
21608	9.8595	4.8	0.1	3221.3
21609	9.76	4.8	0.1	3220.8
21610	9.6604	4.8	0.1	3216.5
21611	9.5608	4.8	0.1	3208.2
21612	9.4612	4.8	0.1	3195.5
21613	9.3616	4.8	0.1	3177.8
21614	9.2621	4.8	0.1	3155.
21615	9.1625	4.8	0.1	3126.5
21616	9.0629	4.8	0.1	3091.9
21617	8.9633	4.8	0.1	3050.9
21618	8.8637	4.8	0.1	3002.8
21619	8.7642	4.8	0.1	2947.2
21620	8.6646	4.8	0.1	2883.3
21621	8.565	4.8	0.1	2810.2
21622	8.4654	4.8	0.1	2727.3
21623	8.3658	4.8	0.1	2636.8
21624	8.2662	4.8	0.1	2622.3
21625	23.9	4.9	0.1	22.339
21626	23.801	4.9	0.1	42.541
21627	23.701	4.9	0.1	62.9
21628	23.602	4.9	0.1	83.232
21629	23.502	4.9	0.1	103.55
21630	23.403	4.9	0.1	123.87
21631	23.303	4.9	0.1	144.22
21632	23.203	4.9	0.1	164.62
21633	23.104	4.9	0.1	185.07
21634	23.004	4.9	0.1	205.59
21635	22.905	4.9	0.1	226.19
21636	22.805	4.9	0.1	246.85
21637	22.705	4.9	0.1	267.59
21638	22.606	4.9	0.1	288.4
21639	22.506	4.9	0.1	309.28
21640	22.407	4.9	0.1	330.23
21641	22.307	4.9	0.1	351.25
21642	22.208	4.9	0.1	372.32
21643	22.108	4.9	0.1	393.46
21644	22.008	4.9	0.1	414.66
21645	21.909	4.9	0.1	435.92
21646	21.809	4.9	0.1	457.24
21647	21.71	4.9	0.1	478.61
21648	21.61	4.9	0.1	500.03
21649	21.51	4.9	0.1	521.51
21650	21.411	4.9	0.1	543.03
21651	21.311	4.9	0.1	564.62
21652	21.212	4.9	0.1	586.25
21653	21.112	4.9	0.1	607.93
21654	21.013	4.9	0.1	629.67
21655	20.913	4.9	0.1	651.46
21656	20.813	4.9	0.1	673.29
21657	20.714	4.9	0.1	695.18
21658	20.614	4.9	0.1	717.12
21659	20.515	4.9	0.1	739.11
21660	20.415	4.9	0.1	761.16
21661	20.316	4.9	0.1	783.25
21662	20.216	4.9	0.1	805.4
21663	20.116	4.9	0.1	827.59
21664	20.017	4.9	0.1	849.84
21665	19.917	4.9	0.1	872.15
21666	19.818	4.9	0.1	894.5
21667	19.718	4.9	0.1	916.91
21668	19.618	4.9	0.1	939.37
21669	19.519	4.9	0.1	961.88
21670	19.419	4.9	0.1	984.45
21671	19.32	4.9	0.1	1007.1
21672	19.22	4.9	0.1	1029.8
21673	19.121	4.9	0.1	1052.5
21674	19.021	4.9	0.1	1075.3
21675	18.921	4.9	0.1	1098.1
21676	18.822	4.9	0.1	1121.
21677	18.722	4.9	0.1	1143.9
21678	18.623	4.9	0.1	1167.
21679	18.523	4.9	0.1	1190.
21680	18.423	4.9	0.1	1213.1
21681	18.324	4.9	0.1	1236.3
21682	18.224	4.9	0.1	1259.5
21683	18.125	4.9	0.1	1282.8
21684	18.025	4.9	0.1	1306.2
21685	17.926	4.9	0.1	1329.6
21686	17.826	4.9	0.1	1353.
21687	17.726	4.9	0.1	1376.5
21688	17.627	4.9	0.1	1400.1
21689	17.527	4.9	0.1	1423.7
21690	17.428	4.9	0.1	1447.4
21691	17.328	4.9	0.1	1471.1
21692	17.229	4.9	0.1	1494.9
21693	17.129	4.9	0.1	1518.8
21694	17.029	4.9	0.1	1542.7
21695	16.93	4.9	0.1	1566.7
21696	16.83	4.9	0.1	1590.7
21697	16.731	4.9	0.1	1614.8
21698	16.631	4.9	0.1	1638.9
21699	16.531	4.9	0.1	1663.1
21700	16.432	4.9	0.1	1687.4
21701	16.332	4.9	0.1	1711.7
21702	16.233	4.9	0.1	1736.
21703	16.133	4.9	0.1	1760.5
21704	16.034	4.9	0.1	1785.
21705	15.934	4.9	0.1	1809.5
21706	15.834	4.9	0.1	1834.1
21707	15.735	4.9	0.1	1858.8
21708	15.635	4.9	0.1	1883.5
21709	15.536	4.9	0.1	1908.3
21710	15.436	4.9	0.1	1933.1
21711	15.336	4.9	0.1	1958.
21712	15.237	4.9	0.1	1982.9
21713	15.137	4.9	0.1	2007.9
21714	15.038	4.9	0.1	2033.
21715	14.938	4.9	0.1	2058.1
21716	14.839	4.9	0.1	2083.3
21717	14.739	4.9	0.1	2108.6
21718	14.639	4.9	0.1	2133.8
21719	14.54	4.9	0.1	2159.2
21720	14.44	4.9	0.1	2184.6
21721	14.341	4.9	0.1	2210.
21722	14.241	4.9	0.1	2235.6
21723	14.142	4.9	0.1	2261.1
21724	14.042	4.9	0.1	2286.7
21725	13.942	4.9	0.1	2312.4
21726	13.843	4.9	0.1	2338.1
21727	13.743	4.9	0.1	2363.8
21728	13.644	4.9	0.1	2389.6
21729	13.544	4.9	0.1	2415.5
21730	13.444	4.9	0.1	2441.3
21731	13.345	4.9	0.1	2467.2
21732	13.245	4.9	0.1	2493.2
21733	13.146	4.9	0.1	2519.1
21734	13.046	4.9	0.1	2545.1
21735	12.947	4.9	0.1	2571.1
21736	12.847	4.9	0.1	2597.
21737	12.747	4.9	0.1	2623.
21738	12.648	4.9	0.1	2648.9
21739	12.548	4.9	0.1	2674.8
21740	12.449	4.9	0.1	2700.7
21741	12.349	4.9	0.1	2726.4
21742	12.249	4.9	0.1	2752.1
21743	12.15	4.9	0.1	2777.7
21744	12.05	4.9	0.1	2803.1
21745	11.951	4.9	0.1	2828.3
21746	11.851	4.9	0.1	2853.3
21747	11.752	4.9	0.1	2878.1
21748	11.652	4.9	0.1	2902.5
21749	11.552	4.9	0.1	2926.6
21750	11.453	4.9	0.1	2950.2
21751	11.353	4.9	0.1	2973.3
21752	11.254	4.9	0.1	2995.9
21753	11.154	4.9	0.1	3017.7
21754	11.055	4.9	0.1	3038.7
21755	10.955	4.9	0.1	3058.8
21756	10.855	4.9	0.1	3077.8
21757	10.756	4.9	0.1	3095.5
21758	10.656	4.9	0.1	3111.8
21759	10.557	4.9	0.1	3126.5
21760	10.457	4.9	0.1	3139.3
21761	10.357	4.9	0.1	3150.
21762	10.258	4.9	0.1	3158.3
21763	10.158	4.9	0.1	3163.8
21764	10.059	4.9	0.1	3166.2
21765	9.9591	4.9	0.1	3165.2
21766	9.8595	4.9	0.1	3160.3
21767	9.76	4.9	0.1	3151.
21768	9.6604	4.9	0.1	3136.8
21769	9.5608	4.9	0.1	3117.4
21770	9.4612	4.9	0.1	3092.
21771	9.3616	4.9	0.1	3060.3
21772	9.2621	4.9	0.1	3021.6
21773	9.1625	4.9	0.1	2975.6
21774	9.0629	4.9	0.1	2921.9
21775	8.9633	4.9	0.1	2860.3
21776	8.8637	4.9	0.1	2790.8
21777	8.7642	4.9	0.1	2713.9
21778	8.6646	4.9	0.1	2630.2
21779	8.565	4.9	0.1	2540.8
21780	8.4654	4.9	0.1	2447.4
21781	8.3658	4.9	0.1	2354.1
21782	8.2662	4.9	0.1	2335.6
21783	23.9	5.	0.1	22.39
21784	23.801	5.	0.1	42.454
21785	23.701	5.	0.1	62.683
21786	23.602	5.	0.1	82.895
21787	23.502	5.	0.1	103.11
21788	23.403	5.	0.1	123.35
21789	23.303	5.	0.1	143.64
21790	23.203	5.	0.1	163.99
21791	23.104	5.	0.1	184.43
21792	23.004	5.	0.1	204.95
21793	22.905	5.	0.1	225.55
21794	22.805	5.	0.1	246.23
21795	22.705	5.	0.1	267.
21796	22.606	5.	0.1	287.84
21797	22.506	5.	0.1	308.76
21798	22.407	5.	0.1	329.74
21799	22.307	5.	0.1	350.8
21800	22.208	5.	0.1	371.92
21801	22.108	5.	0.1	393.1
21802	22.008	5.	0.1	414.35
21803	21.909	5.	0.1	435.65
21804	21.809	5.	0.1	457.
21805	21.71	5.	0.1	478.41
21806	21.61	5.	0.1	499.87
21807	21.51	5.	0.1	521.39
21808	21.411	5.	0.1	542.95
21809	21.311	5.	0.1	564.57
21810	21.212	5.	0.1	586.24
21811	21.112	5.	0.1	607.96
21812	21.013	5.	0.1	629.72
21813	20.913	5.	0.1	651.54
21814	20.813	5.	0.1	673.41
21815	20.714	5.	0.1	695.32
21816	20.614	5.	0.1	717.29
21817	20.515	5.	0.1	739.31
21818	20.415	5.	0.1	761.37
21819	20.316	5.	0.1	783.49
21820	20.216	5.	0.1	805.66
21821	20.116	5.	0.1	827.88
21822	20.017	5.	0.1	850.15
21823	19.917	5.	0.1	872.47
21824	19.818	5.	0.1	894.84
21825	19.718	5.	0.1	917.27
21826	19.618	5.	0.1	939.74
21827	19.519	5.	0.1	962.27
21828	19.419	5.	0.1	984.86
21829	19.32	5.	0.1	1007.5
21830	19.22	5.	0.1	1030.2
21831	19.121	5.	0.1	1052.9
21832	19.021	5.	0.1	1075.7
21833	18.921	5.	0.1	1098.6
21834	18.822	5.	0.1	1121.5
21835	18.722	5.	0.1	1144.4
21836	18.623	5.	0.1	1167.5
21837	18.523	5.	0.1	1190.5
21838	18.423	5.	0.1	1213.7
21839	18.324	5.	0.1	1236.8
21840	18.224	5.	0.1	1260.1
21841	18.125	5.	0.1	1283.4
21842	18.025	5.	0.1	1306.7
21843	17.926	5.	0.1	1330.1
21844	17.826	5.	0.1	1353.6
21845	17.726	5.	0.1	1377.1
21846	17.627	5.	0.1	1400.7
21847	17.527	5.	0.1	1424.3
21848	17.428	5.	0.1	1448.
21849	17.328	5.	0.1	1471.8
21850	17.229	5.	0.1	1495.6
21851	17.129	5.	0.1	1519.4
21852	17.029	5.	0.1	1543.3
21853	16.93	5.	0.1	1567.3
21854	16.83	5.	0.1	1591.4
21855	16.731	5.	0.1	1615.5
21856	16.631	5.	0.1	1639.6
21857	16.531	5.	0.1	1663.8
21858	16.432	5.	0.1	1688.1
21859	16.332	5.	0.1	1712.4
21860	16.233	5.	0.1	1736.8
21861	16.133	5.	0.1	1761.2
21862	16.034	5.	0.1	1785.7
21863	15.934	5.	0.1	1810.3
21864	15.834	5.	0.1	1834.9
21865	15.735	5.	0.1	1859.6
21866	15.635	5.	0.1	1884.3
21867	15.536	5.	0.1	1909.1
21868	15.436	5.	0.1	1933.9
21869	15.336	5.	0.1	1958.9
21870	15.237	5.	0.1	1983.8
21871	15.137	5.	0.1	2008.8
21872	15.038	5.	0.1	2033.9
21873	14.938	5.	0.1	2059.1
21874	14.839	5.	0.1	2084.2
21875	14.739	5.	0.1	2109.5
21876	14.639	5.	0.1	2134.8
21877	14.54	5.	0.1	2160.2
21878	14.44	5.	0.1	2185.6
21879	14.341	5.	0.1	2211.
21880	14.241	5.	0.1	2236.5
21881	14.142	5.	0.1	2262.1
21882	14.042	5.	0.1	2287.7
21883	13.942	5.	0.1	2313.4
21884	13.843	5.	0.1	2339.1
21885	13.743	5.	0.1	2364.8
21886	13.644	5.	0.1	2390.6
21887	13.544	5.	0.1	2416.4
21888	13.444	5.	0.1	2442.3
21889	13.345	5.	0.1	2468.1
21890	13.245	5.	0.1	2494.
21891	13.146	5.	0.1	2519.9
21892	13.046	5.	0.1	2545.8
21893	12.947	5.	0.1	2571.7
21894	12.847	5.	0.1	2597.6
21895	12.747	5.	0.1	2623.4
21896	12.648	5.	0.1	2649.2
21897	12.548	5.	0.1	2674.9
21898	12.449	5.	0.1	2700.6
21899	12.349	5.	0.1	2726.1
21900	12.249	5.	0.1	2751.5
21901	12.15	5.	0.1	2776.7
21902	12.05	5.	0.1	2801.8
21903	11.951	5.	0.1	2826.6
21904	11.851	5.	0.1	2851.1
21905	11.752	5.	0.1	2875.2
21906	11.652	5.	0.1	2899.
21907	11.552	5.	0.1	2922.3
21908	11.453	5.	0.1	2945.
21909	11.353	5.	0.1	2967.1
21910	11.254	5.	0.1	2988.4
21911	11.154	5.	0.1	3008.9
21912	11.055	5.	0.1	3028.3
21913	10.955	5.	0.1	3046.6
21914	10.855	5.	0.1	3063.6
21915	10.756	5.	0.1	3079.
21916	10.656	5.	0.1	3092.7
21917	10.557	5.	0.1	3104.4
21918	10.457	5.	0.1	3113.8
21919	10.357	5.	0.1	3120.6
21920	10.258	5.	0.1	3124.5
21921	10.158	5.	0.1	3125.1
21922	10.059	5.	0.1	3121.9
21923	9.9591	5.	0.1	3114.5
21924	9.8595	5.	0.1	3102.3
21925	9.76	5.	0.1	3084.9
21926	9.6604	5.	0.1	3061.6
21927	9.5608	5.	0.1	3031.9
21928	9.4612	5.	0.1	2995.
21929	9.3616	5.	0.1	2950.4
21930	9.2621	5.	0.1	2897.5
21931	9.1625	5.	0.1	2835.9
21932	9.0629	5.	0.1	2765.4
21933	8.9633	5.	0.1	2685.9
21934	8.8637	5.	0.1	2598.2
21935	8.7642	5.	0.1	2503.5
21936	8.6646	5.	0.1	2403.6
21937	8.565	5.	0.1	2301.3
21938	8.4654	5.	0.1	2199.9
21939	8.3658	5.	0.1	2104.6
21940	8.2662	5.	0.1	2081.9
21941	23.9	5.1	0.1	22.432
21942	23.801	5.1	0.1	42.333
21943	23.701	5.1	0.1	62.413
21944	23.602	5.1	0.1	82.492
21945	23.502	5.1	0.1	102.6
21946	23.403	5.1	0.1	122.75
21947	23.303	5.1	0.1	142.99
21948	23.203	5.1	0.1	163.32
21949	23.104	5.1	0.1	183.74
21950	23.004	5.1	0.1	204.27
21951	22.905	5.1	0.1	224.89
21952	22.805	5.1	0.1	245.6
21953	22.705	5.1	0.1	266.41
21954	22.606	5.1	0.1	287.29
21955	22.506	5.1	0.1	308.25
21956	22.407	5.1	0.1	329.29
21957	22.307	5.1	0.1	350.39
21958	22.208	5.1	0.1	371.56
21959	22.108	5.1	0.1	392.79
21960	22.008	5.1	0.1	414.07
21961	21.909	5.1	0.1	435.42
21962	21.809	5.1	0.1	456.82
21963	21.71	5.1	0.1	478.27
21964	21.61	5.1	0.1	499.77
21965	21.51	5.1	0.1	521.32
21966	21.411	5.1	0.1	542.93
21967	21.311	5.1	0.1	564.58
21968	21.212	5.1	0.1	586.28
21969	21.112	5.1	0.1	608.03
21970	21.013	5.1	0.1	629.83
21971	20.913	5.1	0.1	651.68
21972	20.813	5.1	0.1	673.57
21973	20.714	5.1	0.1	695.52
21974	20.614	5.1	0.1	717.51
21975	20.515	5.1	0.1	739.55
21976	20.415	5.1	0.1	761.64
21977	20.316	5.1	0.1	783.78
21978	20.216	5.1	0.1	805.97
21979	20.116	5.1	0.1	828.21
21980	20.017	5.1	0.1	850.5
21981	19.917	5.1	0.1	872.84
21982	19.818	5.1	0.1	895.23
21983	19.718	5.1	0.1	917.67
21984	19.618	5.1	0.1	940.17
21985	19.519	5.1	0.1	962.71
21986	19.419	5.1	0.1	985.31
21987	19.32	5.1	0.1	1008.
21988	19.22	5.1	0.1	1030.7
21989	19.121	5.1	0.1	1053.4
21990	19.021	5.1	0.1	1076.2
21991	18.921	5.1	0.1	1099.1
21992	18.822	5.1	0.1	1122.
21993	18.722	5.1	0.1	1145.
21994	18.623	5.1	0.1	1168.
21995	18.523	5.1	0.1	1191.1
21996	18.423	5.1	0.1	1214.2
21997	18.324	5.1	0.1	1237.4
21998	18.224	5.1	0.1	1260.7
21999	18.125	5.1	0.1	1284.
22000	18.025	5.1	0.1	1307.3
22001	17.926	5.1	0.1	1330.8
22002	17.826	5.1	0.1	1354.2
22003	17.726	5.1	0.1	1377.8
22004	17.627	5.1	0.1	1401.3
22005	17.527	5.1	0.1	1425.
22006	17.428	5.1	0.1	1448.7
22007	17.328	5.1	0.1	1472.4
22008	17.229	5.1	0.1	1496.2
22009	17.129	5.1	0.1	1520.1
22010	17.029	5.1	0.1	1544.
22011	16.93	5.1	0.1	1568.
22012	16.83	5.1	0.1	1592.1
22013	16.731	5.1	0.1	1616.2
22014	16.631	5.1	0.1	1640.3
22015	16.531	5.1	0.1	1664.6
22016	16.432	5.1	0.1	1688.8
22017	16.332	5.1	0.1	1713.2
22018	16.233	5.1	0.1	1737.6
22019	16.133	5.1	0.1	1762.
22020	16.034	5.1	0.1	1786.5
22021	15.934	5.1	0.1	1811.1
22022	15.834	5.1	0.1	1835.7
22023	15.735	5.1	0.1	1860.4
22024	15.635	5.1	0.1	1885.2
22025	15.536	5.1	0.1	1910.
22026	15.436	5.1	0.1	1934.8
22027	15.336	5.1	0.1	1959.8
22028	15.237	5.1	0.1	1984.7
22029	15.137	5.1	0.1	2009.8
22030	15.038	5.1	0.1	2034.9
22031	14.938	5.1	0.1	2060.
22032	14.839	5.1	0.1	2085.2
22033	14.739	5.1	0.1	2110.5
22034	14.639	5.1	0.1	2135.8
22035	14.54	5.1	0.1	2161.2
22036	14.44	5.1	0.1	2186.6
22037	14.341	5.1	0.1	2212.1
22038	14.241	5.1	0.1	2237.6
22039	14.142	5.1	0.1	2263.2
22040	14.042	5.1	0.1	2288.8
22041	13.942	5.1	0.1	2314.4
22042	13.843	5.1	0.1	2340.1
22043	13.743	5.1	0.1	2365.9
22044	13.644	5.1	0.1	2391.6
22045	13.544	5.1	0.1	2417.4
22046	13.444	5.1	0.1	2443.3
22047	13.345	5.1	0.1	2469.1
22048	13.245	5.1	0.1	2494.9
22049	13.146	5.1	0.1	2520.8
22050	13.046	5.1	0.1	2546.6
22051	12.947	5.1	0.1	2572.4
22052	12.847	5.1	0.1	2598.2
22053	12.747	5.1	0.1	2623.9
22054	12.648	5.1	0.1	2649.5
22055	12.548	5.1	0.1	2675.1
22056	12.449	5.1	0.1	2700.6
22057	12.349	5.1	0.1	2725.9
22058	12.249	5.1	0.1	2751.
22059	12.15	5.1	0.1	2775.9
22060	12.05	5.1	0.1	2800.6
22061	11.951	5.1	0.1	2824.9
22062	11.851	5.1	0.1	2848.9
22063	11.752	5.1	0.1	2872.5
22064	11.652	5.1	0.1	2895.6
22065	11.552	5.1	0.1	2918.1
22066	11.453	5.1	0.1	2940.
22067	11.353	5.1	0.1	2961.1
22068	11.254	5.1	0.1	2981.3
22069	11.154	5.1	0.1	3000.5
22070	11.055	5.1	0.1	3018.4
22071	10.955	5.1	0.1	3035.
22072	10.855	5.1	0.1	3050.1
22073	10.756	5.1	0.1	3063.3
22074	10.656	5.1	0.1	3074.5
22075	10.557	5.1	0.1	3083.4
22076	10.457	5.1	0.1	3089.6
22077	10.357	5.1	0.1	3092.8
22078	10.258	5.1	0.1	3092.6
22079	10.158	5.1	0.1	3088.5
22080	10.059	5.1	0.1	3080.1
22081	9.9591	5.1	0.1	3066.8
22082	9.8595	5.1	0.1	3048.
22083	9.76	5.1	0.1	3023.2
22084	9.6604	5.1	0.1	2991.6
22085	9.5608	5.1	0.1	2952.5
22086	9.4612	5.1	0.1	2905.2
22087	9.3616	5.1	0.1	2849.1
22088	9.2621	5.1	0.1	2783.6
22089	9.1625	5.1	0.1	2708.2
22090	9.0629	5.1	0.1	2622.9
22091	8.9633	5.1	0.1	2527.9
22092	8.8637	5.1	0.1	2424.4
22093	8.7642	5.1	0.1	2314.3
22094	8.6646	5.1	0.1	2200.4
22095	8.565	5.1	0.1	2086.8
22096	8.4654	5.1	0.1	1978.1
22097	8.3658	5.1	0.1	1880.6
22098	8.2662	5.1	0.1	1853.1
22099	23.9	5.2	0.1	22.459
22100	23.801	5.2	0.1	42.167
22101	23.701	5.2	0.1	62.075
22102	23.602	5.2	0.1	82.008
22103	23.502	5.2	0.1	102.
22104	23.403	5.2	0.1	122.08
22105	23.303	5.2	0.1	142.28
22106	23.203	5.2	0.1	162.59
22107	23.104	5.2	0.1	183.03
22108	23.004	5.2	0.1	203.58
22109	22.905	5.2	0.1	224.23
22110	22.805	5.2	0.1	244.99
22111	22.705	5.2	0.1	265.84
22112	22.606	5.2	0.1	286.78
22113	22.506	5.2	0.1	307.79
22114	22.407	5.2	0.1	328.88
22115	22.307	5.2	0.1	350.03
22116	22.208	5.2	0.1	371.25
22117	22.108	5.2	0.1	392.53
22118	22.008	5.2	0.1	413.87
22119	21.909	5.2	0.1	435.26
22120	21.809	5.2	0.1	456.7
22121	21.71	5.2	0.1	478.19
22122	21.61	5.2	0.1	499.74
22123	21.51	5.2	0.1	521.33
22124	21.411	5.2	0.1	542.97
22125	21.311	5.2	0.1	564.66
22126	21.212	5.2	0.1	586.39
22127	21.112	5.2	0.1	608.17
22128	21.013	5.2	0.1	630.
22129	20.913	5.2	0.1	651.88
22130	20.813	5.2	0.1	673.8
22131	20.714	5.2	0.1	695.77
22132	20.614	5.2	0.1	717.79
22133	20.515	5.2	0.1	739.85
22134	20.415	5.2	0.1	761.97
22135	20.316	5.2	0.1	784.13
22136	20.216	5.2	0.1	806.34
22137	20.116	5.2	0.1	828.6
22138	20.017	5.2	0.1	850.9
22139	19.917	5.2	0.1	873.26
22140	19.818	5.2	0.1	895.67
22141	19.718	5.2	0.1	918.13
22142	19.618	5.2	0.1	940.64
22143	19.519	5.2	0.1	963.2
22144	19.419	5.2	0.1	985.81
22145	19.32	5.2	0.1	1008.5
22146	19.22	5.2	0.1	1031.2
22147	19.121	5.2	0.1	1054.
22148	19.021	5.2	0.1	1076.8
22149	18.921	5.2	0.1	1099.7
22150	18.822	5.2	0.1	1122.6
22151	18.722	5.2	0.1	1145.6
22152	18.623	5.2	0.1	1168.6
22153	18.523	5.2	0.1	1191.7
22154	18.423	5.2	0.1	1214.8
22155	18.324	5.2	0.1	1238.
22156	18.224	5.2	0.1	1261.3
22157	18.125	5.2	0.1	1284.6
22158	18.025	5.2	0.1	1308.
22159	17.926	5.2	0.1	1331.4
22160	17.826	5.2	0.1	1354.9
22161	17.726	5.2	0.1	1378.4
22162	17.627	5.2	0.1	1402.
22163	17.527	5.2	0.1	1425.7
22164	17.428	5.2	0.1	1449.4
22165	17.328	5.2	0.1	1473.1
22166	17.229	5.2	0.1	1497.
22167	17.129	5.2	0.1	1520.9
22168	17.029	5.2	0.1	1544.8
22169	16.93	5.2	0.1	1568.8
22170	16.83	5.2	0.1	1592.8
22171	16.731	5.2	0.1	1617.
22172	16.631	5.2	0.1	1641.1
22173	16.531	5.2	0.1	1665.4
22174	16.432	5.2	0.1	1689.6
22175	16.332	5.2	0.1	1714.
22176	16.233	5.2	0.1	1738.4
22177	16.133	5.2	0.1	1762.9
22178	16.034	5.2	0.1	1787.4
22179	15.934	5.2	0.1	1812.
22180	15.834	5.2	0.1	1836.6
22181	15.735	5.2	0.1	1861.3
22182	15.635	5.2	0.1	1886.1
22183	15.536	5.2	0.1	1910.9
22184	15.436	5.2	0.1	1935.8
22185	15.336	5.2	0.1	1960.7
22186	15.237	5.2	0.1	1985.7
22187	15.137	5.2	0.1	2010.7
22188	15.038	5.2	0.1	2035.8
22189	14.938	5.2	0.1	2061.
22190	14.839	5.2	0.1	2086.2
22191	14.739	5.2	0.1	2111.5
22192	14.639	5.2	0.1	2136.8
22193	14.54	5.2	0.1	2162.2
22194	14.44	5.2	0.1	2187.6
22195	14.341	5.2	0.1	2213.1
22196	14.241	5.2	0.1	2238.7
22197	14.142	5.2	0.1	2264.2
22198	14.042	5.2	0.1	2289.8
22199	13.942	5.2	0.1	2315.5
22200	13.843	5.2	0.1	2341.2
22201	13.743	5.2	0.1	2366.9
22202	13.644	5.2	0.1	2392.7
22203	13.544	5.2	0.1	2418.5
22204	13.444	5.2	0.1	2444.3
22205	13.345	5.2	0.1	2470.1
22206	13.245	5.2	0.1	2495.9
22207	13.146	5.2	0.1	2521.7
22208	13.046	5.2	0.1	2547.4
22209	12.947	5.2	0.1	2573.2
22210	12.847	5.2	0.1	2598.8
22211	12.747	5.2	0.1	2624.4
22212	12.648	5.2	0.1	2650.
22213	12.548	5.2	0.1	2675.4
22214	12.449	5.2	0.1	2700.6
22215	12.349	5.2	0.1	2725.7
22216	12.249	5.2	0.1	2750.6
22217	12.15	5.2	0.1	2775.2
22218	12.05	5.2	0.1	2799.5
22219	11.951	5.2	0.1	2823.4
22220	11.851	5.2	0.1	2847.
22221	11.752	5.2	0.1	2870.
22222	11.652	5.2	0.1	2892.5
22223	11.552	5.2	0.1	2914.3
22224	11.453	5.2	0.1	2935.3
22225	11.353	5.2	0.1	2955.5
22226	11.254	5.2	0.1	2974.6
22227	11.154	5.2	0.1	2992.6
22228	11.055	5.2	0.1	3009.1
22229	10.955	5.2	0.1	3024.1
22230	10.855	5.2	0.1	3037.4
22231	10.756	5.2	0.1	3048.6
22232	10.656	5.2	0.1	3057.5
22233	10.557	5.2	0.1	3063.7
22234	10.457	5.2	0.1	3066.9
22235	10.357	5.2	0.1	3066.8
22236	10.258	5.2	0.1	3062.8
22237	10.158	5.2	0.1	3054.5
22238	10.059	5.2	0.1	3041.3
22239	9.9591	5.2	0.1	3022.6
22240	9.8595	5.2	0.1	2997.8
22241	9.76	5.2	0.1	2966.2
22242	9.6604	5.2	0.1	2927.1
22243	9.5608	5.2	0.1	2879.7
22244	9.4612	5.2	0.1	2823.2
22245	9.3616	5.2	0.1	2756.9
22246	9.2621	5.2	0.1	2680.3
22247	9.1625	5.2	0.1	2592.9
22248	9.0629	5.2	0.1	2494.7
22249	8.9633	5.2	0.1	2386.2
22250	8.8637	5.2	0.1	2268.7
22251	8.7642	5.2	0.1	2144.7
22252	8.6646	5.2	0.1	2017.9
22253	8.565	5.2	0.1	1893.4
22254	8.4654	5.2	0.1	1777.1
22255	8.3658	5.2	0.1	1676.2
22256	8.2662	5.2	0.1	1643.
22257	23.9	5.3	0.1	22.462
22258	23.801	5.3	0.1	41.941
22259	23.701	5.3	0.1	61.651
22260	23.602	5.3	0.1	81.429
22261	23.502	5.3	0.1	101.32
22262	23.403	5.3	0.1	121.34
22263	23.303	5.3	0.1	141.52
22264	23.203	5.3	0.1	161.84
22265	23.104	5.3	0.1	182.3
22266	23.004	5.3	0.1	202.9
22267	22.905	5.3	0.1	223.61
22268	22.805	5.3	0.1	244.42
22269	22.705	5.3	0.1	265.33
22270	22.606	5.3	0.1	286.33
22271	22.506	5.3	0.1	307.4
22272	22.407	5.3	0.1	328.54
22273	22.307	5.3	0.1	349.75
22274	22.208	5.3	0.1	371.02
22275	22.108	5.3	0.1	392.35
22276	22.008	5.3	0.1	413.74
22277	21.909	5.3	0.1	435.17
22278	21.809	5.3	0.1	456.66
22279	21.71	5.3	0.1	478.2
22280	21.61	5.3	0.1	499.78
22281	21.51	5.3	0.1	521.41
22282	21.411	5.3	0.1	543.08
22283	21.311	5.3	0.1	564.81
22284	21.212	5.3	0.1	586.57
22285	21.112	5.3	0.1	608.39
22286	21.013	5.3	0.1	630.24
22287	20.913	5.3	0.1	652.15
22288	20.813	5.3	0.1	674.1
22289	20.714	5.3	0.1	696.09
22290	20.614	5.3	0.1	718.13
22291	20.515	5.3	0.1	740.22
22292	20.415	5.3	0.1	762.35
22293	20.316	5.3	0.1	784.54
22294	20.216	5.3	0.1	806.77
22295	20.116	5.3	0.1	829.04
22296	20.017	5.3	0.1	851.37
22297	19.917	5.3	0.1	873.74
22298	19.818	5.3	0.1	896.17
22299	19.718	5.3	0.1	918.64
22300	19.618	5.3	0.1	941.16
22301	19.519	5.3	0.1	963.74
22302	19.419	5.3	0.1	986.36
22303	19.32	5.3	0.1	1009.
22304	19.22	5.3	0.1	1031.8
22305	19.121	5.3	0.1	1054.5
22306	19.021	5.3	0.1	1077.4
22307	18.921	5.3	0.1	1100.3
22308	18.822	5.3	0.1	1123.2
22309	18.722	5.3	0.1	1146.2
22310	18.623	5.3	0.1	1169.2
22311	18.523	5.3	0.1	1192.3
22312	18.423	5.3	0.1	1215.5
22313	18.324	5.3	0.1	1238.7
22314	18.224	5.3	0.1	1262.
22315	18.125	5.3	0.1	1285.3
22316	18.025	5.3	0.1	1308.7
22317	17.926	5.3	0.1	1332.1
22318	17.826	5.3	0.1	1355.6
22319	17.726	5.3	0.1	1379.1
22320	17.627	5.3	0.1	1402.8
22321	17.527	5.3	0.1	1426.4
22322	17.428	5.3	0.1	1450.1
22323	17.328	5.3	0.1	1473.9
22324	17.229	5.3	0.1	1497.7
22325	17.129	5.3	0.1	1521.6
22326	17.029	5.3	0.1	1545.6
22327	16.93	5.3	0.1	1569.6
22328	16.83	5.3	0.1	1593.6
22329	16.731	5.3	0.1	1617.8
22330	16.631	5.3	0.1	1641.9
22331	16.531	5.3	0.1	1666.2
22332	16.432	5.3	0.1	1690.5
22333	16.332	5.3	0.1	1714.8
22334	16.233	5.3	0.1	1739.3
22335	16.133	5.3	0.1	1763.7
22336	16.034	5.3	0.1	1788.3
22337	15.934	5.3	0.1	1812.9
22338	15.834	5.3	0.1	1837.5
22339	15.735	5.3	0.1	1862.2
22340	15.635	5.3	0.1	1887.
22341	15.536	5.3	0.1	1911.8
22342	15.436	5.3	0.1	1936.7
22343	15.336	5.3	0.1	1961.7
22344	15.237	5.3	0.1	1986.7
22345	15.137	5.3	0.1	2011.7
22346	15.038	5.3	0.1	2036.9
22347	14.938	5.3	0.1	2062.
22348	14.839	5.3	0.1	2087.3
22349	14.739	5.3	0.1	2112.5
22350	14.639	5.3	0.1	2137.9
22351	14.54	5.3	0.1	2163.3
22352	14.44	5.3	0.1	2188.7
22353	14.341	5.3	0.1	2214.2
22354	14.241	5.3	0.1	2239.8
22355	14.142	5.3	0.1	2265.3
22356	14.042	5.3	0.1	2291.
22357	13.942	5.3	0.1	2316.6
22358	13.843	5.3	0.1	2342.3
22359	13.743	5.3	0.1	2368.1
22360	13.644	5.3	0.1	2393.8
22361	13.544	5.3	0.1	2419.6
22362	13.444	5.3	0.1	2445.3
22363	13.345	5.3	0.1	2471.1
22364	13.245	5.3	0.1	2496.9
22365	13.146	5.3	0.1	2522.6
22366	13.046	5.3	0.1	2548.3
22367	12.947	5.3	0.1	2574.
22368	12.847	5.3	0.1	2599.6
22369	12.747	5.3	0.1	2625.1
22370	12.648	5.3	0.1	2650.4
22371	12.548	5.3	0.1	2675.7
22372	12.449	5.3	0.1	2700.8
22373	12.349	5.3	0.1	2725.6
22374	12.249	5.3	0.1	2750.3
22375	12.15	5.3	0.1	2774.6
22376	12.05	5.3	0.1	2798.6
22377	11.951	5.3	0.1	2822.1
22378	11.851	5.3	0.1	2845.2
22379	11.752	5.3	0.1	2867.8
22380	11.652	5.3	0.1	2889.6
22381	11.552	5.3	0.1	2910.8
22382	11.453	5.3	0.1	2931.1
22383	11.353	5.3	0.1	2950.3
22384	11.254	5.3	0.1	2968.4
22385	11.154	5.3	0.1	2985.2
22386	11.055	5.3	0.1	3000.5
22387	10.955	5.3	0.1	3014.1
22388	10.855	5.3	0.1	3025.6
22389	10.756	5.3	0.1	3034.9
22390	10.656	5.3	0.1	3041.7
22391	10.557	5.3	0.1	3045.5
22392	10.457	5.3	0.1	3046.
22393	10.357	5.3	0.1	3042.8
22394	10.258	5.3	0.1	3035.4
22395	10.158	5.3	0.1	3023.2
22396	10.059	5.3	0.1	3005.7
22397	9.9591	5.3	0.1	2982.2
22398	9.8595	5.3	0.1	2952.
22399	9.76	5.3	0.1	2914.4
22400	9.6604	5.3	0.1	2868.7
22401	9.5608	5.3	0.1	2813.9
22402	9.4612	5.3	0.1	2749.4
22403	9.3616	5.3	0.1	2674.3
22404	9.2621	5.3	0.1	2588.1
22405	9.1625	5.3	0.1	2490.3
22406	9.0629	5.3	0.1	2380.9
22407	8.9633	5.3	0.1	2260.5
22408	8.8637	5.3	0.1	2130.6
22409	8.7642	5.3	0.1	1993.8
22410	8.6646	5.3	0.1	1854.4
22411	8.565	5.3	0.1	1718.4
22412	8.4654	5.3	0.1	1593.2
22413	8.3658	5.3	0.1	1487.2
22414	8.2662	5.3	0.1	1447.1
22415	23.9	5.4	0.1	22.43
22416	23.801	5.4	0.1	41.632
22417	23.701	5.4	0.1	61.118
22418	23.602	5.4	0.1	80.741
22419	23.502	5.4	0.1	100.54
22420	23.403	5.4	0.1	120.54
22421	23.303	5.4	0.1	140.72
22422	23.203	5.4	0.1	161.09
22423	23.104	5.4	0.1	181.61
22424	23.004	5.4	0.1	202.26
22425	22.905	5.4	0.1	223.04
22426	22.805	5.4	0.1	243.93
22427	22.705	5.4	0.1	264.91
22428	22.606	5.4	0.1	285.97
22429	22.506	5.4	0.1	307.1
22430	22.407	5.4	0.1	328.31
22431	22.307	5.4	0.1	349.57
22432	22.208	5.4	0.1	370.9
22433	22.108	5.4	0.1	392.28
22434	22.008	5.4	0.1	413.71
22435	21.909	5.4	0.1	435.19
22436	21.809	5.4	0.1	456.72
22437	21.71	5.4	0.1	478.3
22438	21.61	5.4	0.1	499.92
22439	21.51	5.4	0.1	521.58
22440	21.411	5.4	0.1	543.29
22441	21.311	5.4	0.1	565.05
22442	21.212	5.4	0.1	586.84
22443	21.112	5.4	0.1	608.68
22444	21.013	5.4	0.1	630.57
22445	20.913	5.4	0.1	652.5
22446	20.813	5.4	0.1	674.47
22447	20.714	5.4	0.1	696.49
22448	20.614	5.4	0.1	718.55
22449	20.515	5.4	0.1	740.66
22450	20.415	5.4	0.1	762.81
22451	20.316	5.4	0.1	785.01
22452	20.216	5.4	0.1	807.26
22453	20.116	5.4	0.1	829.55
22454	20.017	5.4	0.1	851.9
22455	19.917	5.4	0.1	874.29
22456	19.818	5.4	0.1	896.72
22457	19.718	5.4	0.1	919.21
22458	19.618	5.4	0.1	941.75
22459	19.519	5.4	0.1	964.33
22460	19.419	5.4	0.1	986.97
22461	19.32	5.4	0.1	1009.7
22462	19.22	5.4	0.1	1032.4
22463	19.121	5.4	0.1	1055.2
22464	19.021	5.4	0.1	1078.
22465	18.921	5.4	0.1	1100.9
22466	18.822	5.4	0.1	1123.9
22467	18.722	5.4	0.1	1146.9
22468	18.623	5.4	0.1	1169.9
22469	18.523	5.4	0.1	1193.
22470	18.423	5.4	0.1	1216.2
22471	18.324	5.4	0.1	1239.4
22472	18.224	5.4	0.1	1262.7
22473	18.125	5.4	0.1	1286.
22474	18.025	5.4	0.1	1309.4
22475	17.926	5.4	0.1	1332.9
22476	17.826	5.4	0.1	1356.4
22477	17.726	5.4	0.1	1379.9
22478	17.627	5.4	0.1	1403.5
22479	17.527	5.4	0.1	1427.2
22480	17.428	5.4	0.1	1450.9
22481	17.328	5.4	0.1	1474.7
22482	17.229	5.4	0.1	1498.5
22483	17.129	5.4	0.1	1522.4
22484	17.029	5.4	0.1	1546.4
22485	16.93	5.4	0.1	1570.4
22486	16.83	5.4	0.1	1594.5
22487	16.731	5.4	0.1	1618.6
22488	16.631	5.4	0.1	1642.8
22489	16.531	5.4	0.1	1667.1
22490	16.432	5.4	0.1	1691.4
22491	16.332	5.4	0.1	1715.7
22492	16.233	5.4	0.1	1740.2
22493	16.133	5.4	0.1	1764.6
22494	16.034	5.4	0.1	1789.2
22495	15.934	5.4	0.1	1813.8
22496	15.834	5.4	0.1	1838.5
22497	15.735	5.4	0.1	1863.2
22498	15.635	5.4	0.1	1888.
22499	15.536	5.4	0.1	1912.8
22500	15.436	5.4	0.1	1937.7
22501	15.336	5.4	0.1	1962.7
22502	15.237	5.4	0.1	1987.7
22503	15.137	5.4	0.1	2012.8
22504	15.038	5.4	0.1	2037.9
22505	14.938	5.4	0.1	2063.1
22506	14.839	5.4	0.1	2088.3
22507	14.739	5.4	0.1	2113.6
22508	14.639	5.4	0.1	2139.
22509	14.54	5.4	0.1	2164.4
22510	14.44	5.4	0.1	2189.9
22511	14.341	5.4	0.1	2215.4
22512	14.241	5.4	0.1	2240.9
22513	14.142	5.4	0.1	2266.5
22514	14.042	5.4	0.1	2292.1
22515	13.942	5.4	0.1	2317.8
22516	13.843	5.4	0.1	2343.5
22517	13.743	5.4	0.1	2369.2
22518	13.644	5.4	0.1	2394.9
22519	13.544	5.4	0.1	2420.7
22520	13.444	5.4	0.1	2446.5
22521	13.345	5.4	0.1	2472.2
22522	13.245	5.4	0.1	2497.9
22523	13.146	5.4	0.1	2523.6
22524	13.046	5.4	0.1	2549.3
22525	12.947	5.4	0.1	2574.9
22526	12.847	5.4	0.1	2600.4
22527	12.747	5.4	0.1	2625.8
22528	12.648	5.4	0.1	2651.
22529	12.548	5.4	0.1	2676.1
22530	12.449	5.4	0.1	2701.
22531	12.349	5.4	0.1	2725.7
22532	12.249	5.4	0.1	2750.1
22533	12.15	5.4	0.1	2774.1
22534	12.05	5.4	0.1	2797.8
22535	11.951	5.4	0.1	2821.
22536	11.851	5.4	0.1	2843.7
22537	11.752	5.4	0.1	2865.8
22538	11.652	5.4	0.1	2887.1
22539	11.552	5.4	0.1	2907.6
22540	11.453	5.4	0.1	2927.2
22541	11.353	5.4	0.1	2945.6
22542	11.254	5.4	0.1	2962.8
22543	11.154	5.4	0.1	2978.6
22544	11.055	5.4	0.1	2992.7
22545	10.955	5.4	0.1	3004.9
22546	10.855	5.4	0.1	3014.9
22547	10.756	5.4	0.1	3022.5
22548	10.656	5.4	0.1	3027.3
22549	10.557	5.4	0.1	3028.9
22550	10.457	5.4	0.1	3027.
22551	10.357	5.4	0.1	3021.
22552	10.258	5.4	0.1	3010.5
22553	10.158	5.4	0.1	2994.9
22554	10.059	5.4	0.1	2973.5
22555	9.9591	5.4	0.1	2945.8
22556	9.8595	5.4	0.1	2910.9
22557	9.76	5.4	0.1	2868.1
22558	9.6604	5.4	0.1	2816.6
22559	9.5608	5.4	0.1	2755.6
22560	9.4612	5.4	0.1	2684.1
22561	9.3616	5.4	0.1	2601.6
22562	9.2621	5.4	0.1	2507.2
22563	9.1625	5.4	0.1	2400.6
22564	9.0629	5.4	0.1	2281.7
22565	8.9633	5.4	0.1	2151.
22566	8.8637	5.4	0.1	2009.9
22567	8.7642	5.4	0.1	1861.1
22568	8.6646	5.4	0.1	1709.1
22569	8.565	5.4	0.1	1560.5
22570	8.4654	5.4	0.1	1424.1
22571	8.3658	5.4	0.1	1310.3
22572	8.2662	5.4	0.1	1261.4
22573	23.9	5.5	0.1	22.343
22574	23.801	5.5	0.1	41.207
22575	23.701	5.5	0.1	60.452
22576	23.602	5.5	0.1	79.94
22577	23.502	5.5	0.1	99.697
22578	23.403	5.5	0.1	119.71
22579	23.303	5.5	0.1	139.95
22580	23.203	5.5	0.1	160.39
22581	23.104	5.5	0.1	180.99
22582	23.004	5.5	0.1	201.73
22583	22.905	5.5	0.1	222.59
22584	22.805	5.5	0.1	243.56
22585	22.705	5.5	0.1	264.61
22586	22.606	5.5	0.1	285.74
22587	22.506	5.5	0.1	306.94
22588	22.407	5.5	0.1	328.2
22589	22.307	5.5	0.1	349.52
22590	22.208	5.5	0.1	370.9
22591	22.108	5.5	0.1	392.33
22592	22.008	5.5	0.1	413.81
22593	21.909	5.5	0.1	435.33
22594	21.809	5.5	0.1	456.9
22595	21.71	5.5	0.1	478.51
22596	21.61	5.5	0.1	500.16
22597	21.51	5.5	0.1	521.86
22598	21.411	5.5	0.1	543.6
22599	21.311	5.5	0.1	565.38
22600	21.212	5.5	0.1	587.21
22601	21.112	5.5	0.1	609.08
22602	21.013	5.5	0.1	630.99
22603	20.913	5.5	0.1	652.94
22604	20.813	5.5	0.1	674.93
22605	20.714	5.5	0.1	696.97
22606	20.614	5.5	0.1	719.05
22607	20.515	5.5	0.1	741.18
22608	20.415	5.5	0.1	763.35
22609	20.316	5.5	0.1	785.57
22610	20.216	5.5	0.1	807.83
22611	20.116	5.5	0.1	830.14
22612	20.017	5.5	0.1	852.49
22613	19.917	5.5	0.1	874.9
22614	19.818	5.5	0.1	897.35
22615	19.718	5.5	0.1	919.85
22616	19.618	5.5	0.1	942.39
22617	19.519	5.5	0.1	964.99
22618	19.419	5.5	0.1	987.64
22619	19.32	5.5	0.1	1010.3
22620	19.22	5.5	0.1	1033.1
22621	19.121	5.5	0.1	1055.9
22622	19.021	5.5	0.1	1078.7
22623	18.921	5.5	0.1	1101.6
22624	18.822	5.5	0.1	1124.6
22625	18.722	5.5	0.1	1147.6
22626	18.623	5.5	0.1	1170.7
22627	18.523	5.5	0.1	1193.8
22628	18.423	5.5	0.1	1217.
22629	18.324	5.5	0.1	1240.2
22630	18.224	5.5	0.1	1263.5
22631	18.125	5.5	0.1	1286.8
22632	18.025	5.5	0.1	1310.2
22633	17.926	5.5	0.1	1333.7
22634	17.826	5.5	0.1	1357.2
22635	17.726	5.5	0.1	1380.7
22636	17.627	5.5	0.1	1404.3
22637	17.527	5.5	0.1	1428.
22638	17.428	5.5	0.1	1451.7
22639	17.328	5.5	0.1	1475.5
22640	17.229	5.5	0.1	1499.4
22641	17.129	5.5	0.1	1523.3
22642	17.029	5.5	0.1	1547.3
22643	16.93	5.5	0.1	1571.3
22644	16.83	5.5	0.1	1595.4
22645	16.731	5.5	0.1	1619.5
22646	16.631	5.5	0.1	1643.7
22647	16.531	5.5	0.1	1668.
22648	16.432	5.5	0.1	1692.3
22649	16.332	5.5	0.1	1716.7
22650	16.233	5.5	0.1	1741.1
22651	16.133	5.5	0.1	1765.6
22652	16.034	5.5	0.1	1790.2
22653	15.934	5.5	0.1	1814.8
22654	15.834	5.5	0.1	1839.4
22655	15.735	5.5	0.1	1864.2
22656	15.635	5.5	0.1	1889.
22657	15.536	5.5	0.1	1913.8
22658	15.436	5.5	0.1	1938.8
22659	15.336	5.5	0.1	1963.7
22660	15.237	5.5	0.1	1988.8
22661	15.137	5.5	0.1	2013.9
22662	15.038	5.5	0.1	2039.
22663	14.938	5.5	0.1	2064.2
22664	14.839	5.5	0.1	2089.5
22665	14.739	5.5	0.1	2114.8
22666	14.639	5.5	0.1	2140.1
22667	14.54	5.5	0.1	2165.6
22668	14.44	5.5	0.1	2191.
22669	14.341	5.5	0.1	2216.5
22670	14.241	5.5	0.1	2242.1
22671	14.142	5.5	0.1	2267.7
22672	14.042	5.5	0.1	2293.3
22673	13.942	5.5	0.1	2319.
22674	13.843	5.5	0.1	2344.7
22675	13.743	5.5	0.1	2370.4
22676	13.644	5.5	0.1	2396.1
22677	13.544	5.5	0.1	2421.9
22678	13.444	5.5	0.1	2447.6
22679	13.345	5.5	0.1	2473.3
22680	13.245	5.5	0.1	2499.
22681	13.146	5.5	0.1	2524.7
22682	13.046	5.5	0.1	2550.3
22683	12.947	5.5	0.1	2575.8
22684	12.847	5.5	0.1	2601.2
22685	12.747	5.5	0.1	2626.5
22686	12.648	5.5	0.1	2651.7
22687	12.548	5.5	0.1	2676.7
22688	12.449	5.5	0.1	2701.4
22689	12.349	5.5	0.1	2725.9
22690	12.249	5.5	0.1	2750.1
22691	12.15	5.5	0.1	2773.9
22692	12.05	5.5	0.1	2797.3
22693	11.951	5.5	0.1	2820.2
22694	11.851	5.5	0.1	2842.5
22695	11.752	5.5	0.1	2864.1
22696	11.652	5.5	0.1	2884.9
22697	11.552	5.5	0.1	2904.9
22698	11.453	5.5	0.1	2923.8
22699	11.353	5.5	0.1	2941.5
22700	11.254	5.5	0.1	2957.9
22701	11.154	5.5	0.1	2972.6
22702	11.055	5.5	0.1	2985.7
22703	10.955	5.5	0.1	2996.6
22704	10.855	5.5	0.1	3005.3
22705	10.756	5.5	0.1	3011.3
22706	10.656	5.5	0.1	3014.4
22707	10.557	5.5	0.1	3014.1
22708	10.457	5.5	0.1	3010.
22709	10.357	5.5	0.1	3001.6
22710	10.258	5.5	0.1	2988.4
22711	10.158	5.5	0.1	2969.7
22712	10.059	5.5	0.1	2945.1
22713	9.9591	5.5	0.1	2913.6
22714	9.8595	5.5	0.1	2874.7
22715	9.76	5.5	0.1	2827.4
22716	9.6604	5.5	0.1	2771.1
22717	9.5608	5.5	0.1	2704.7
22718	9.4612	5.5	0.1	2627.6
22719	9.3616	5.5	0.1	2538.8
22720	9.2621	5.5	0.1	2437.7
22721	9.1625	5.5	0.1	2323.8
22722	9.0629	5.5	0.1	2196.9
22723	8.9633	5.5	0.1	2057.5
22724	8.8637	5.5	0.1	1906.6
22725	8.7642	5.5	0.1	1746.8
22726	8.6646	5.5	0.1	1582.1
22727	8.565	5.5	0.1	1419.4
22728	8.4654	5.5	0.1	1268.7
22729	8.3658	5.5	0.1	1143.1
22730	8.2662	5.5	0.1	1082.6
22731	23.9	5.6	0.1	22.169
22732	23.801	5.6	0.1	40.623
22733	23.701	5.6	0.1	59.638
22734	23.602	5.6	0.1	79.055
22735	23.502	5.6	0.1	98.842
22736	23.403	5.6	0.1	118.94
22737	23.303	5.6	0.1	139.28
22738	23.203	5.6	0.1	159.83
22739	23.104	5.6	0.1	180.54
22740	23.004	5.6	0.1	201.37
22741	22.905	5.6	0.1	222.32
22742	22.805	5.6	0.1	243.37
22743	22.705	5.6	0.1	264.49
22744	22.606	5.6	0.1	285.69
22745	22.506	5.6	0.1	306.95
22746	22.407	5.6	0.1	328.27
22747	22.307	5.6	0.1	349.64
22748	22.208	5.6	0.1	371.06
22749	22.108	5.6	0.1	392.53
22750	22.008	5.6	0.1	414.05
22751	21.909	5.6	0.1	435.61
22752	21.809	5.6	0.1	457.21
22753	21.71	5.6	0.1	478.85
22754	21.61	5.6	0.1	500.54
22755	21.51	5.6	0.1	522.26
22756	21.411	5.6	0.1	544.03
22757	21.311	5.6	0.1	565.84
22758	21.212	5.6	0.1	587.68
22759	21.112	5.6	0.1	609.57
22760	21.013	5.6	0.1	631.5
22761	20.913	5.6	0.1	653.47
22762	20.813	5.6	0.1	675.49
22763	20.714	5.6	0.1	697.54
22764	20.614	5.6	0.1	719.64
22765	20.515	5.6	0.1	741.78
22766	20.415	5.6	0.1	763.97
22767	20.316	5.6	0.1	786.2
22768	20.216	5.6	0.1	808.48
22769	20.116	5.6	0.1	830.8
22770	20.017	5.6	0.1	853.16
22771	19.917	5.6	0.1	875.58
22772	19.818	5.6	0.1	898.04
22773	19.718	5.6	0.1	920.55
22774	19.618	5.6	0.1	943.11
22775	19.519	5.6	0.1	965.72
22776	19.419	5.6	0.1	988.37
22777	19.32	5.6	0.1	1011.1
22778	19.22	5.6	0.1	1033.8
22779	19.121	5.6	0.1	1056.6
22780	19.021	5.6	0.1	1079.5
22781	18.921	5.6	0.1	1102.4
22782	18.822	5.6	0.1	1125.4
22783	18.722	5.6	0.1	1148.4
22784	18.623	5.6	0.1	1171.5
22785	18.523	5.6	0.1	1194.6
22786	18.423	5.6	0.1	1217.8
22787	18.324	5.6	0.1	1241.
22788	18.224	5.6	0.1	1264.3
22789	18.125	5.6	0.1	1287.6
22790	18.025	5.6	0.1	1311.
22791	17.926	5.6	0.1	1334.5
22792	17.826	5.6	0.1	1358.
22793	17.726	5.6	0.1	1381.6
22794	17.627	5.6	0.1	1405.2
22795	17.527	5.6	0.1	1428.9
22796	17.428	5.6	0.1	1452.6
22797	17.328	5.6	0.1	1476.4
22798	17.229	5.6	0.1	1500.3
22799	17.129	5.6	0.1	1524.2
22800	17.029	5.6	0.1	1548.2
22801	16.93	5.6	0.1	1572.2
22802	16.83	5.6	0.1	1596.3
22803	16.731	5.6	0.1	1620.4
22804	16.631	5.6	0.1	1644.6
22805	16.531	5.6	0.1	1668.9
22806	16.432	5.6	0.1	1693.2
22807	16.332	5.6	0.1	1717.6
22808	16.233	5.6	0.1	1742.1
22809	16.133	5.6	0.1	1766.6
22810	16.034	5.6	0.1	1791.2
22811	15.934	5.6	0.1	1815.8
22812	15.834	5.6	0.1	1840.5
22813	15.735	5.6	0.1	1865.2
22814	15.635	5.6	0.1	1890.
22815	15.536	5.6	0.1	1914.9
22816	15.436	5.6	0.1	1939.8
22817	15.336	5.6	0.1	1964.8
22818	15.237	5.6	0.1	1989.9
22819	15.137	5.6	0.1	2015.
22820	15.038	5.6	0.1	2040.1
22821	14.938	5.6	0.1	2065.3
22822	14.839	5.6	0.1	2090.6
22823	14.739	5.6	0.1	2116.
22824	14.639	5.6	0.1	2141.3
22825	14.54	5.6	0.1	2166.8
22826	14.44	5.6	0.1	2192.2
22827	14.341	5.6	0.1	2217.8
22828	14.241	5.6	0.1	2243.3
22829	14.142	5.6	0.1	2268.9
22830	14.042	5.6	0.1	2294.6
22831	13.942	5.6	0.1	2320.3
22832	13.843	5.6	0.1	2346.
22833	13.743	5.6	0.1	2371.7
22834	13.644	5.6	0.1	2397.4
22835	13.544	5.6	0.1	2423.1
22836	13.444	5.6	0.1	2448.8
22837	13.345	5.6	0.1	2474.5
22838	13.245	5.6	0.1	2500.2
22839	13.146	5.6	0.1	2525.8
22840	13.046	5.6	0.1	2551.4
22841	12.947	5.6	0.1	2576.8
22842	12.847	5.6	0.1	2602.2
22843	12.747	5.6	0.1	2627.4
22844	12.648	5.6	0.1	2652.5
22845	12.548	5.6	0.1	2677.3
22846	12.449	5.6	0.1	2701.9
22847	12.349	5.6	0.1	2726.3
22848	12.249	5.6	0.1	2750.2
22849	12.15	5.6	0.1	2773.8
22850	12.05	5.6	0.1	2797.
22851	11.951	5.6	0.1	2819.6
22852	11.851	5.6	0.1	2841.5
22853	11.752	5.6	0.1	2862.7
22854	11.652	5.6	0.1	2883.1
22855	11.552	5.6	0.1	2902.6
22856	11.453	5.6	0.1	2920.9
22857	11.353	5.6	0.1	2938.
22858	11.254	5.6	0.1	2953.6
22859	11.154	5.6	0.1	2967.5
22860	11.055	5.6	0.1	2979.6
22861	10.955	5.6	0.1	2989.5
22862	10.855	5.6	0.1	2996.9
22863	10.756	5.6	0.1	3001.6
22864	10.656	5.6	0.1	3003.1
22865	10.557	5.6	0.1	3001.1
22866	10.457	5.6	0.1	2995.1
22867	10.357	5.6	0.1	2984.6
22868	10.258	5.6	0.1	2969.1
22869	10.158	5.6	0.1	2947.9
22870	10.059	5.6	0.1	2920.4
22871	9.9591	5.6	0.1	2885.8
22872	9.8595	5.6	0.1	2843.5
22873	9.76	5.6	0.1	2792.5
22874	9.6604	5.6	0.1	2732.2
22875	9.5608	5.6	0.1	2661.5
22876	9.4612	5.6	0.1	2579.6
22877	9.3616	5.6	0.1	2485.9
22878	9.2621	5.6	0.1	2379.4
22879	9.1625	5.6	0.1	2259.7
22880	9.0629	5.6	0.1	2126.5
22881	8.9633	5.6	0.1	1980.
22882	8.8637	5.6	0.1	1821.
22883	8.7642	5.6	0.1	1651.3
22884	8.6646	5.6	0.1	1474.3
22885	8.565	5.6	0.1	1296.3
22886	8.4654	5.6	0.1	1127.8
22887	8.3658	5.6	0.1	984.62
22888	8.2662	5.6	0.1	907.4
22889	23.9	5.7	0.1	21.842
22890	23.801	5.7	0.1	39.836
22891	23.701	5.7	0.1	58.716
22892	23.602	5.7	0.1	78.196
22893	23.502	5.7	0.1	98.12
22894	23.403	5.7	0.1	118.37
22895	23.303	5.7	0.1	138.86
22896	23.203	5.7	0.1	159.53
22897	23.104	5.7	0.1	180.34
22898	23.004	5.7	0.1	201.28
22899	22.905	5.7	0.1	222.31
22900	22.805	5.7	0.1	243.42
22901	22.705	5.7	0.1	264.61
22902	22.606	5.7	0.1	285.86
22903	22.506	5.7	0.1	307.17
22904	22.407	5.7	0.1	328.54
22905	22.307	5.7	0.1	349.95
22906	22.208	5.7	0.1	371.41
22907	22.108	5.7	0.1	392.92
22908	22.008	5.7	0.1	414.46
22909	21.909	5.7	0.1	436.05
22910	21.809	5.7	0.1	457.68
22911	21.71	5.7	0.1	479.35
22912	21.61	5.7	0.1	501.06
22913	21.51	5.7	0.1	522.81
22914	21.411	5.7	0.1	544.59
22915	21.311	5.7	0.1	566.42
22916	21.212	5.7	0.1	588.29
22917	21.112	5.7	0.1	610.19
22918	21.013	5.7	0.1	632.14
22919	20.913	5.7	0.1	654.12
22920	20.813	5.7	0.1	676.15
22921	20.714	5.7	0.1	698.22
22922	20.614	5.7	0.1	720.33
22923	20.515	5.7	0.1	742.49
22924	20.415	5.7	0.1	764.68
22925	20.316	5.7	0.1	786.93
22926	20.216	5.7	0.1	809.21
22927	20.116	5.7	0.1	831.54
22928	20.017	5.7	0.1	853.92
22929	19.917	5.7	0.1	876.34
22930	19.818	5.7	0.1	898.81
22931	19.718	5.7	0.1	921.33
22932	19.618	5.7	0.1	943.9
22933	19.519	5.7	0.1	966.51
22934	19.419	5.7	0.1	989.18
22935	19.32	5.7	0.1	1011.9
22936	19.22	5.7	0.1	1034.7
22937	19.121	5.7	0.1	1057.5
22938	19.021	5.7	0.1	1080.3
22939	18.921	5.7	0.1	1103.3
22940	18.822	5.7	0.1	1126.2
22941	18.722	5.7	0.1	1149.2
22942	18.623	5.7	0.1	1172.3
22943	18.523	5.7	0.1	1195.5
22944	18.423	5.7	0.1	1218.6
22945	18.324	5.7	0.1	1241.9
22946	18.224	5.7	0.1	1265.2
22947	18.125	5.7	0.1	1288.5
22948	18.025	5.7	0.1	1311.9
22949	17.926	5.7	0.1	1335.4
22950	17.826	5.7	0.1	1358.9
22951	17.726	5.7	0.1	1382.5
22952	17.627	5.7	0.1	1406.1
22953	17.527	5.7	0.1	1429.8
22954	17.428	5.7	0.1	1453.5
22955	17.328	5.7	0.1	1477.3
22956	17.229	5.7	0.1	1501.2
22957	17.129	5.7	0.1	1525.1
22958	17.029	5.7	0.1	1549.1
22959	16.93	5.7	0.1	1573.1
22960	16.83	5.7	0.1	1597.2
22961	16.731	5.7	0.1	1621.4
22962	16.631	5.7	0.1	1645.6
22963	16.531	5.7	0.1	1669.9
22964	16.432	5.7	0.1	1694.2
22965	16.332	5.7	0.1	1718.6
22966	16.233	5.7	0.1	1743.1
22967	16.133	5.7	0.1	1767.6
22968	16.034	5.7	0.1	1792.2
22969	15.934	5.7	0.1	1816.8
22970	15.834	5.7	0.1	1841.5
22971	15.735	5.7	0.1	1866.3
22972	15.635	5.7	0.1	1891.1
22973	15.536	5.7	0.1	1916.
22974	15.436	5.7	0.1	1940.9
22975	15.336	5.7	0.1	1965.9
22976	15.237	5.7	0.1	1991.
22977	15.137	5.7	0.1	2016.1
22978	15.038	5.7	0.1	2041.3
22979	14.938	5.7	0.1	2066.5
22980	14.839	5.7	0.1	2091.8
22981	14.739	5.7	0.1	2117.2
22982	14.639	5.7	0.1	2142.6
22983	14.54	5.7	0.1	2168.
22984	14.44	5.7	0.1	2193.5
22985	14.341	5.7	0.1	2219.
22986	14.241	5.7	0.1	2244.6
22987	14.142	5.7	0.1	2270.2
22988	14.042	5.7	0.1	2295.9
22989	13.942	5.7	0.1	2321.6
22990	13.843	5.7	0.1	2347.3
22991	13.743	5.7	0.1	2373.
22992	13.644	5.7	0.1	2398.7
22993	13.544	5.7	0.1	2424.4
22994	13.444	5.7	0.1	2450.1
22995	13.345	5.7	0.1	2475.8
22996	13.245	5.7	0.1	2501.5
22997	13.146	5.7	0.1	2527.
22998	13.046	5.7	0.1	2552.6
22999	12.947	5.7	0.1	2578.
23000	12.847	5.7	0.1	2603.3
23001	12.747	5.7	0.1	2628.4
23002	12.648	5.7	0.1	2653.4
23003	12.548	5.7	0.1	2678.1
23004	12.449	5.7	0.1	2702.6
23005	12.349	5.7	0.1	2726.8
23006	12.249	5.7	0.1	2750.6
23007	12.15	5.7	0.1	2774.
23008	12.05	5.7	0.1	2796.9
23009	11.951	5.7	0.1	2819.2
23010	11.851	5.7	0.1	2840.9
23011	11.752	5.7	0.1	2861.8
23012	11.652	5.7	0.1	2881.8
23013	11.552	5.7	0.1	2900.8
23014	11.453	5.7	0.1	2918.6
23015	11.353	5.7	0.1	2935.1
23016	11.254	5.7	0.1	2950.
23017	11.154	5.7	0.1	2963.2
23018	11.055	5.7	0.1	2974.5
23019	10.955	5.7	0.1	2983.4
23020	10.855	5.7	0.1	2989.8
23021	10.756	5.7	0.1	2993.3
23022	10.656	5.7	0.1	2993.6
23023	10.557	5.7	0.1	2990.1
23024	10.457	5.7	0.1	2982.5
23025	10.357	5.7	0.1	2970.3
23026	10.258	5.7	0.1	2952.8
23027	10.158	5.7	0.1	2929.4
23028	10.059	5.7	0.1	2899.5
23029	9.9591	5.7	0.1	2862.4
23030	9.8595	5.7	0.1	2817.3
23031	9.76	5.7	0.1	2763.4
23032	9.6604	5.7	0.1	2699.8
23033	9.5608	5.7	0.1	2625.7
23034	9.4612	5.7	0.1	2540.2
23035	9.3616	5.7	0.1	2442.6
23036	9.2621	5.7	0.1	2332.1
23037	9.1625	5.7	0.1	2208.1
23038	9.0629	5.7	0.1	2070.2
23039	8.9633	5.7	0.1	1918.3
23040	8.8637	5.7	0.1	1753.
23041	8.7642	5.7	0.1	1575.2
23042	8.6646	5.7	0.1	1387.4
23043	8.565	5.7	0.1	1194.2
23044	8.4654	5.7	0.1	1004.6
23045	8.3658	5.7	0.1	835.92
23046	8.2662	5.7	0.1	732.74
23047	23.9	5.8	0.1	21.317
23048	23.801	5.8	0.1	38.956
23049	23.701	5.8	0.1	57.994
23050	23.602	5.8	0.1	77.732
23051	23.502	5.8	0.1	97.886
23052	23.403	5.8	0.1	118.32
23053	23.303	5.8	0.1	138.95
23054	23.203	5.8	0.1	159.73
23055	23.104	5.8	0.1	180.64
23056	23.004	5.8	0.1	201.65
23057	22.905	5.8	0.1	222.74
23058	22.805	5.8	0.1	243.91
23059	22.705	5.8	0.1	265.14
23060	22.606	5.8	0.1	286.43
23061	22.506	5.8	0.1	307.77
23062	22.407	5.8	0.1	329.16
23063	22.307	5.8	0.1	350.6
23064	22.208	5.8	0.1	372.09
23065	22.108	5.8	0.1	393.62
23066	22.008	5.8	0.1	415.18
23067	21.909	5.8	0.1	436.79
23068	21.809	5.8	0.1	458.44
23069	21.71	5.8	0.1	480.12
23070	21.61	5.8	0.1	501.85
23071	21.51	5.8	0.1	523.61
23072	21.411	5.8	0.1	545.41
23073	21.311	5.8	0.1	567.25
23074	21.212	5.8	0.1	589.13
23075	21.112	5.8	0.1	611.04
23076	21.013	5.8	0.1	633.
23077	20.913	5.8	0.1	655.
23078	20.813	5.8	0.1	677.03
23079	20.714	5.8	0.1	699.11
23080	20.614	5.8	0.1	721.23
23081	20.515	5.8	0.1	743.39
23082	20.415	5.8	0.1	765.6
23083	20.316	5.8	0.1	787.85
23084	20.216	5.8	0.1	810.14
23085	20.116	5.8	0.1	832.48
23086	20.017	5.8	0.1	854.86
23087	19.917	5.8	0.1	877.29
23088	19.818	5.8	0.1	899.77
23089	19.718	5.8	0.1	922.29
23090	19.618	5.8	0.1	944.86
23091	19.519	5.8	0.1	967.48
23092	19.419	5.8	0.1	990.15
23093	19.32	5.8	0.1	1012.9
23094	19.22	5.8	0.1	1035.6
23095	19.121	5.8	0.1	1058.5
23096	19.021	5.8	0.1	1081.3
23097	18.921	5.8	0.1	1104.2
23098	18.822	5.8	0.1	1127.2
23099	18.722	5.8	0.1	1150.2
23100	18.623	5.8	0.1	1173.3
23101	18.523	5.8	0.1	1196.5
23102	18.423	5.8	0.1	1219.6
23103	18.324	5.8	0.1	1242.9
23104	18.224	5.8	0.1	1266.2
23105	18.125	5.8	0.1	1289.5
23106	18.025	5.8	0.1	1312.9
23107	17.926	5.8	0.1	1336.4
23108	17.826	5.8	0.1	1359.9
23109	17.726	5.8	0.1	1383.5
23110	17.627	5.8	0.1	1407.1
23111	17.527	5.8	0.1	1430.8
23112	17.428	5.8	0.1	1454.6
23113	17.328	5.8	0.1	1478.4
23114	17.229	5.8	0.1	1502.3
23115	17.129	5.8	0.1	1526.2
23116	17.029	5.8	0.1	1550.2
23117	16.93	5.8	0.1	1574.2
23118	16.83	5.8	0.1	1598.3
23119	16.731	5.8	0.1	1622.5
23120	16.631	5.8	0.1	1646.7
23121	16.531	5.8	0.1	1671.
23122	16.432	5.8	0.1	1695.3
23123	16.332	5.8	0.1	1719.8
23124	16.233	5.8	0.1	1744.2
23125	16.133	5.8	0.1	1768.7
23126	16.034	5.8	0.1	1793.3
23127	15.934	5.8	0.1	1818.
23128	15.834	5.8	0.1	1842.7
23129	15.735	5.8	0.1	1867.5
23130	15.635	5.8	0.1	1892.3
23131	15.536	5.8	0.1	1917.2
23132	15.436	5.8	0.1	1942.2
23133	15.336	5.8	0.1	1967.2
23134	15.237	5.8	0.1	1992.2
23135	15.137	5.8	0.1	2017.4
23136	15.038	5.8	0.1	2042.6
23137	14.938	5.8	0.1	2067.8
23138	14.839	5.8	0.1	2093.1
23139	14.739	5.8	0.1	2118.5
23140	14.639	5.8	0.1	2143.9
23141	14.54	5.8	0.1	2169.3
23142	14.44	5.8	0.1	2194.8
23143	14.341	5.8	0.1	2220.4
23144	14.241	5.8	0.1	2246.
23145	14.142	5.8	0.1	2271.6
23146	14.042	5.8	0.1	2297.3
23147	13.942	5.8	0.1	2322.9
23148	13.843	5.8	0.1	2348.7
23149	13.743	5.8	0.1	2374.4
23150	13.644	5.8	0.1	2400.1
23151	13.544	5.8	0.1	2425.8
23152	13.444	5.8	0.1	2451.5
23153	13.345	5.8	0.1	2477.2
23154	13.245	5.8	0.1	2502.8
23155	13.146	5.8	0.1	2528.4
23156	13.046	5.8	0.1	2553.8
23157	12.947	5.8	0.1	2579.2
23158	12.847	5.8	0.1	2604.5
23159	12.747	5.8	0.1	2629.6
23160	12.648	5.8	0.1	2654.5
23161	12.548	5.8	0.1	2679.1
23162	12.449	5.8	0.1	2703.5
23163	12.349	5.8	0.1	2727.6
23164	12.249	5.8	0.1	2751.2
23165	12.15	5.8	0.1	2774.5
23166	12.05	5.8	0.1	2797.2
23167	11.951	5.8	0.1	2819.3
23168	11.851	5.8	0.1	2840.7
23169	11.752	5.8	0.1	2861.3
23170	11.652	5.8	0.1	2880.9
23171	11.552	5.8	0.1	2899.5
23172	11.453	5.8	0.1	2916.9
23173	11.353	5.8	0.1	2932.9
23174	11.254	5.8	0.1	2947.3
23175	11.154	5.8	0.1	2959.9
23176	11.055	5.8	0.1	2970.4
23177	10.955	5.8	0.1	2978.6
23178	10.855	5.8	0.1	2984.1
23179	10.756	5.8	0.1	2986.7
23180	10.656	5.8	0.1	2985.9
23181	10.557	5.8	0.1	2981.2
23182	10.457	5.8	0.1	2972.3
23183	10.357	5.8	0.1	2958.6
23184	10.258	5.8	0.1	2939.5
23185	10.158	5.8	0.1	2914.4
23186	10.059	5.8	0.1	2882.6
23187	9.9591	5.8	0.1	2843.5
23188	9.8595	5.8	0.1	2796.2
23189	9.76	5.8	0.1	2740.
23190	9.6604	5.8	0.1	2674.
23191	9.5608	5.8	0.1	2597.4
23192	9.4612	5.8	0.1	2509.2
23193	9.3616	5.8	0.1	2408.9
23194	9.2621	5.8	0.1	2295.5
23195	9.1625	5.8	0.1	2168.5
23196	9.0629	5.8	0.1	2027.4
23197	8.9633	5.8	0.1	1872.
23198	8.8637	5.8	0.1	1702.4
23199	8.7642	5.8	0.1	1519.1
23200	8.6646	5.8	0.1	1323.3
23201	8.565	5.8	0.1	1117.3
23202	8.4654	5.8	0.1	906.58
23203	8.3658	5.8	0.1	703.99
23204	8.2662	5.8	0.1	556.28
23205	23.9	5.9	0.1	20.923
23206	23.801	5.9	0.1	39.498
23207	23.701	5.9	0.1	59.263
23208	23.602	5.9	0.1	79.464
23209	23.502	5.9	0.1	99.923
23210	23.403	5.9	0.1	120.57
23211	23.303	5.9	0.1	141.36
23212	23.203	5.9	0.1	162.27
23213	23.104	5.9	0.1	183.28
23214	23.004	5.9	0.1	204.36
23215	22.905	5.9	0.1	225.52
23216	22.805	5.9	0.1	246.75
23217	22.705	5.9	0.1	268.03
23218	22.606	5.9	0.1	289.36
23219	22.506	5.9	0.1	310.74
23220	22.407	5.9	0.1	332.17
23221	22.307	5.9	0.1	353.63
23222	22.208	5.9	0.1	375.14
23223	22.108	5.9	0.1	396.69
23224	22.008	5.9	0.1	418.27
23225	21.909	5.9	0.1	439.89
23226	21.809	5.9	0.1	461.55
23227	21.71	5.9	0.1	483.25
23228	21.61	5.9	0.1	504.98
23229	21.51	5.9	0.1	526.75
23230	21.411	5.9	0.1	548.55
23231	21.311	5.9	0.1	570.39
23232	21.212	5.9	0.1	592.27
23233	21.112	5.9	0.1	614.18
23234	21.013	5.9	0.1	636.14
23235	20.913	5.9	0.1	658.13
23236	20.813	5.9	0.1	680.16
23237	20.714	5.9	0.1	702.23
23238	20.614	5.9	0.1	724.35
23239	20.515	5.9	0.1	746.5
23240	20.415	5.9	0.1	768.7
23241	20.316	5.9	0.1	790.94
23242	20.216	5.9	0.1	813.22
23243	20.116	5.9	0.1	835.55
23244	20.017	5.9	0.1	857.92
23245	19.917	5.9	0.1	880.33
23246	19.818	5.9	0.1	902.8
23247	19.718	5.9	0.1	925.31
23248	19.618	5.9	0.1	947.86
23249	19.519	5.9	0.1	970.47
23250	19.419	5.9	0.1	993.12
23251	19.32	5.9	0.1	1015.8
23252	19.22	5.9	0.1	1038.6
23253	19.121	5.9	0.1	1061.4
23254	19.021	5.9	0.1	1084.2
23255	18.921	5.9	0.1	1107.1
23256	18.822	5.9	0.1	1130.1
23257	18.722	5.9	0.1	1153.1
23258	18.623	5.9	0.1	1176.2
23259	18.523	5.9	0.1	1199.3
23260	18.423	5.9	0.1	1222.5
23261	18.324	5.9	0.1	1245.7
23262	18.224	5.9	0.1	1269.
23263	18.125	5.9	0.1	1292.3
23264	18.025	5.9	0.1	1315.7
23265	17.926	5.9	0.1	1339.2
23266	17.826	5.9	0.1	1362.7
23267	17.726	5.9	0.1	1386.2
23268	17.627	5.9	0.1	1409.9
23269	17.527	5.9	0.1	1433.5
23270	17.428	5.9	0.1	1457.3
23271	17.328	5.9	0.1	1481.1
23272	17.229	5.9	0.1	1504.9
23273	17.129	5.9	0.1	1528.8
23274	17.029	5.9	0.1	1552.8
23275	16.93	5.9	0.1	1576.8
23276	16.83	5.9	0.1	1600.9
23277	16.731	5.9	0.1	1625.1
23278	16.631	5.9	0.1	1649.3
23279	16.531	5.9	0.1	1673.6
23280	16.432	5.9	0.1	1697.9
23281	16.332	5.9	0.1	1722.3
23282	16.233	5.9	0.1	1746.7
23283	16.133	5.9	0.1	1771.3
23284	16.034	5.9	0.1	1795.8
23285	15.934	5.9	0.1	1820.5
23286	15.834	5.9	0.1	1845.2
23287	15.735	5.9	0.1	1870.
23288	15.635	5.9	0.1	1894.8
23289	15.536	5.9	0.1	1919.7
23290	15.436	5.9	0.1	1944.6
23291	15.336	5.9	0.1	1969.6
23292	15.237	5.9	0.1	1994.7
23293	15.137	5.9	0.1	2019.8
23294	15.038	5.9	0.1	2045.
23295	14.938	5.9	0.1	2070.2
23296	14.839	5.9	0.1	2095.5
23297	14.739	5.9	0.1	2120.9
23298	14.639	5.9	0.1	2146.3
23299	14.54	5.9	0.1	2171.7
23300	14.44	5.9	0.1	2197.2
23301	14.341	5.9	0.1	2222.8
23302	14.241	5.9	0.1	2248.3
23303	14.142	5.9	0.1	2274.
23304	14.042	5.9	0.1	2299.6
23305	13.942	5.9	0.1	2325.3
23306	13.843	5.9	0.1	2351.
23307	13.743	5.9	0.1	2376.7
23308	13.644	5.9	0.1	2402.4
23309	13.544	5.9	0.1	2428.1
23310	13.444	5.9	0.1	2453.8
23311	13.345	5.9	0.1	2479.4
23312	13.245	5.9	0.1	2505.
23313	13.146	5.9	0.1	2530.5
23314	13.046	5.9	0.1	2556.
23315	12.947	5.9	0.1	2581.3
23316	12.847	5.9	0.1	2606.5
23317	12.747	5.9	0.1	2631.5
23318	12.648	5.9	0.1	2656.3
23319	12.548	5.9	0.1	2680.9
23320	12.449	5.9	0.1	2705.2
23321	12.349	5.9	0.1	2729.1
23322	12.249	5.9	0.1	2752.7
23323	12.15	5.9	0.1	2775.8
23324	12.05	5.9	0.1	2798.3
23325	11.951	5.9	0.1	2820.2
23326	11.851	5.9	0.1	2841.4
23327	11.752	5.9	0.1	2861.7
23328	11.652	5.9	0.1	2881.1
23329	11.552	5.9	0.1	2899.4
23330	11.453	5.9	0.1	2916.4
23331	11.353	5.9	0.1	2932.
23332	11.254	5.9	0.1	2946.
23333	11.154	5.9	0.1	2958.1
23334	11.055	5.9	0.1	2968.
23335	10.955	5.9	0.1	2975.6
23336	10.855	5.9	0.1	2980.5
23337	10.756	5.9	0.1	2982.3
23338	10.656	5.9	0.1	2980.6
23339	10.557	5.9	0.1	2975.1
23340	10.457	5.9	0.1	2965.2
23341	10.357	5.9	0.1	2950.4
23342	10.258	5.9	0.1	2930.1
23343	10.158	5.9	0.1	2903.8
23344	10.059	5.9	0.1	2870.8
23345	9.9591	5.9	0.1	2830.3
23346	9.8595	5.9	0.1	2781.5
23347	9.76	5.9	0.1	2723.8
23348	9.6604	5.9	0.1	2656.3
23349	9.5608	5.9	0.1	2578.2
23350	9.4612	5.9	0.1	2488.6
23351	9.3616	5.9	0.1	2386.8
23352	9.2621	5.9	0.1	2272.
23353	9.1625	5.9	0.1	2143.7
23354	9.0629	5.9	0.1	2001.4
23355	8.9633	5.9	0.1	1844.6
23356	8.8637	5.9	0.1	1673.4
23357	8.7642	5.9	0.1	1487.8
23358	8.6646	5.9	0.1	1288.2
23359	8.565	5.9	0.1	1075.1
23360	8.4654	5.9	0.1	849.62
23361	8.3658	5.9	0.1	614.24
23362	8.2662	5.9	0.1	390.93
23363	8.0833	3.9	0.1	17928
23364	8.0833	3.8	0.1	14321
23365	8.0833	3.7	0.1	12359
23366	8.0833	3.6	0.1	11099
23367	8.0833	3.5	0.1	10279
23368	8.0833	3.4	0.1	9728.1
23369	8.0833	3.3	0.1	9357.1
23370	8.0833	3.2	0.1	9118.1
23371	8.0833	3.1	0.1	8983.8
23372	8.0833	3.	0.1	8940.4
23373	8.0833	2.9	0.1	8983.8
23374	8.0833	2.8	0.1	9118.1
23375	8.0833	2.7	0.1	9357.1
23376	8.0833	2.6	0.1	9728.1
23377	8.0833	2.5	0.1	10279
23378	8.0833	2.4	0.1	11099
23379	8.0833	2.3	0.1	12359
23380	8.0833	2.2	0.1	14321
23381	8.0833	2.1	0.1	17928
23382	0.1	0.1	0.1	2744.8
23383	0.1	0.2	0.1	3281.7
23384	0.1	0.3	0.1	3994.1
23385	0.1	0.4	0.1	4609.
23386	0.1	0.5	0.1	5108.4
23387	0.1	0.6	0.1	5509.
23388	0.1	0.7	0.1	5832.7
23389	0.1	0.8	0.1	6097.9
23390	0.1	0.9	0.1	6317.8
23391	0.1	1.	0.1	6502.3
23392	0.1	1.1	0.1	6658.6
23393	0.1	1.2	0.1	6792.
23394	0.1	1.3	0.1	6906.7
23395	0.1	1.4	0.1	7005.8
23396	0.1	1.5	0.1	7091.7
23397	0.1	1.6	0.1	7166.4
23398	0.1	1.7	0.1	7231.5
23399	0.1	1.8	0.1	7288.2
23400	0.1	1.9	0.1	7337.6
23401	0.1	2.	0.1	7380.5
23402	0.1	2.1	0.1	7417.6
23403	0.1	2.2	0.1	7449.6
23404	0.1	2.3	0.1	7476.8
23405	0.1	2.4	0.1	7499.7
23406	0.1	2.5	0.1	7518.5
23407	0.1	2.6	0.1	7533.6
23408	0.1	2.7	0.1	7545.2
23409	0.1	2.8	0.1	7553.4
23410	0.1	2.9	0.1	7558.2
23411	0.1	3.	0.1	7559.8
23412	0.1	3.1	0.1	7558.2
23413	0.1	3.2	0.1	7553.4
23414	0.1	3.3	0.1	7545.2
23415	0.1	3.4	0.1	7533.6
23416	0.1	3.5	0.1	7518.5
23417	0.1	3.6	0.1	7499.7
23418	0.1	3.7	0.1	7476.8
23419	0.1	3.8	0.1	7449.6
23420	0.1	3.9	0.1	7417.6
23421	0.1	4.	0.1	7380.5
23422	0.1	4.1	0.1	7337.6
23423	0.1	4.2	0.1	7288.2
23424	0.1	4.3	0.1	7231.5
23425	0.1	4.4	0.1	7166.4
23426	0.1	4.5	0.1	7091.7
23427	0.1	4.6	0.1	7005.8
23428	0.1	4.7	0.1	6906.7
23429	0.1	4.8	0.1	6792.
23430	0.1	4.9	0.1	6658.6
23431	0.1	5.	0.1	6502.3
23432	0.1	5.1	0.1	6317.8
23433	0.1	5.2	0.1	6097.9
23434	0.1	5.3	0.1	5832.7
23435	0.1	5.4	0.1	5509.
23436	0.1	5.5	0.1	5108.4
23437	0.1	5.6	0.1	4609.
23438	0.1	5.7	0.1	3994.1
23439	0.1	5.8	0.1	3281.7
23440	0.1	5.9	0.1	2744.8
23441	0.2	0.1	0.1	3991.6
23442	0.2	0.2	0.1	4145.1
23443	0.2	0.3	0.1	4456.8
23444	0.2	0.4	0.1	4811.9
23445	0.2	0.5	0.1	5159.4
23446	0.2	0.6	0.1	5475.5
23447	0.2	0.7	0.1	5753.3
23448	0.2	0.8	0.1	5993.9
23449	0.2	0.9	0.1	6201.3
23450	0.2	1.	0.1	6380.2
23451	0.2	1.1	0.1	6534.8
23452	0.2	1.2	0.1	6668.9
23453	0.2	1.3	0.1	6785.6
23454	0.2	1.4	0.1	6887.3
23455	0.2	1.5	0.1	6976.2
23456	0.2	1.6	0.1	7054.1
23457	0.2	1.7	0.1	7122.2
23458	0.2	1.8	0.1	7181.9
23459	0.2	1.9	0.1	7234.1
23460	0.2	2.	0.1	7279.7
23461	0.2	2.1	0.1	7319.1
23462	0.2	2.2	0.1	7353.2
23463	0.2	2.3	0.1	7382.3
23464	0.2	2.4	0.1	7406.8
23465	0.2	2.5	0.1	7427.
23466	0.2	2.6	0.1	7443.2
23467	0.2	2.7	0.1	7455.7
23468	0.2	2.8	0.1	7464.4
23469	0.2	2.9	0.1	7469.6
23470	0.2	3.	0.1	7471.4
23471	0.2	3.1	0.1	7469.6
23472	0.2	3.2	0.1	7464.4
23473	0.2	3.3	0.1	7455.7
23474	0.2	3.4	0.1	7443.2
23475	0.2	3.5	0.1	7427.
23476	0.2	3.6	0.1	7406.8
23477	0.2	3.7	0.1	7382.3
23478	0.2	3.8	0.1	7353.2
23479	0.2	3.9	0.1	7319.1
23480	0.2	4.	0.1	7279.7
23481	0.2	4.1	0.1	7234.1
23482	0.2	4.2	0.1	7181.9
23483	0.2	4.3	0.1	7122.2
23484	0.2	4.4	0.1	7054.1
23485	0.2	4.5	0.1	6976.2
23486	0.2	4.6	0.1	6887.3
23487	0.2	4.7	0.1	6785.6
23488	0.2	4.8	0.1	6668.9
23489	0.2	4.9	0.1	6534.8
23490	0.2	5.	0.1	6380.2
23491	0.2	5.1	0.1	6201.3
23492	0.2	5.2	0.1	5993.9
23493	0.2	5.3	0.1	5753.3
23494	0.2	5.4	0.1	5475.5
23495	0.2	5.5	0.1	5159.4
23496	0.2	5.6	0.1	4811.9
23497	0.2	5.7	0.1	4456.7
23498	0.2	5.8	0.1	4145.1
23499	0.2	5.9	0.1	3991.6
23500	0.3	0.1	0.1	4680.2
23501	0.3	0.2	0.1	4705.9
23502	0.3	0.3	0.1	4850.5
23503	0.3	0.4	0.1	5046.1
23504	0.3	0.5	0.1	5266.1
23505	0.3	0.6	0.1	5490.2
23506	0.3	0.7	0.1	5704.9
23507	0.3	0.8	0.1	5903.4
23508	0.3	0.9	0.1	6083.1
23509	0.3	1.	0.1	6243.9
23510	0.3	1.1	0.1	6386.8
23511	0.3	1.2	0.1	6513.5
23512	0.3	1.3	0.1	6625.7
23513	0.3	1.4	0.1	6724.8
23514	0.3	1.5	0.1	6812.5
23515	0.3	1.6	0.1	6890.
23516	0.3	1.7	0.1	6958.4
23517	0.3	1.8	0.1	7018.7
23518	0.3	1.9	0.1	7071.7
23519	0.3	2.	0.1	7118.1
23520	0.3	2.1	0.1	7158.6
23521	0.3	2.2	0.1	7193.6
23522	0.3	2.3	0.1	7223.6
23523	0.3	2.4	0.1	7248.9
23524	0.3	2.5	0.1	7269.9
23525	0.3	2.6	0.1	7286.7
23526	0.3	2.7	0.1	7299.6
23527	0.3	2.8	0.1	7308.7
23528	0.3	2.9	0.1	7314.2
23529	0.3	3.	0.1	7316.
23530	0.3	3.1	0.1	7314.2
23531	0.3	3.2	0.1	7308.7
23532	0.3	3.3	0.1	7299.6
23533	0.3	3.4	0.1	7286.7
23534	0.3	3.5	0.1	7269.9
23535	0.3	3.6	0.1	7248.9
23536	0.3	3.7	0.1	7223.6
23537	0.3	3.8	0.1	7193.6
23538	0.3	3.9	0.1	7158.6
23539	0.3	4.	0.1	7118.1
23540	0.3	4.1	0.1	7071.7
23541	0.3	4.2	0.1	7018.7
23542	0.3	4.3	0.1	6958.4
23543	0.3	4.4	0.1	6890.
23544	0.3	4.5	0.1	6812.5
23545	0.3	4.6	0.1	6724.8
23546	0.3	4.7	0.1	6625.7
23547	0.3	4.8	0.1	6513.5
23548	0.3	4.9	0.1	6386.8
23549	0.3	5.	0.1	6243.9
23550	0.3	5.1	0.1	6083.1
23551	0.3	5.2	0.1	5903.4
23552	0.3	5.3	0.1	5704.9
23553	0.3	5.4	0.1	5490.2
23554	0.3	5.5	0.1	5266.1
23555	0.3	5.6	0.1	5046.1
23556	0.3	5.7	0.1	4850.5
23557	0.3	5.8	0.1	4705.9
23558	0.3	5.9	0.1	4680.2
23559	0.4	0.1	0.1	5125.3
23560	0.4	0.2	0.1	5106.
23561	0.4	0.3	0.1	5173.5
23562	0.4	0.4	0.1	5281.5
23563	0.4	0.5	0.1	5417.1
23564	0.4	0.6	0.1	5568.6
23565	0.4	0.7	0.1	5725.5
23566	0.4	0.8	0.1	5880.1
23567	0.4	0.9	0.1	6027.3
23568	0.4	1.	0.1	6164.6
23569	0.4	1.1	0.1	6290.6
23570	0.4	1.2	0.1	6405.3
23571	0.4	1.3	0.1	6508.9
23572	0.4	1.4	0.1	6602.2
23573	0.4	1.5	0.1	6685.8
23574	0.4	1.6	0.1	6760.6
23575	0.4	1.7	0.1	6827.3
23576	0.4	1.8	0.1	6886.5
23577	0.4	1.9	0.1	6939.
23578	0.4	2.	0.1	6985.2
23579	0.4	2.1	0.1	7025.7
23580	0.4	2.2	0.1	7060.9
23581	0.4	2.3	0.1	7091.1
23582	0.4	2.4	0.1	7116.8
23583	0.4	2.5	0.1	7138.
23584	0.4	2.6	0.1	7155.1
23585	0.4	2.7	0.1	7168.3
23586	0.4	2.8	0.1	7177.6
23587	0.4	2.9	0.1	7183.1
23588	0.4	3.	0.1	7184.9
23589	0.4	3.1	0.1	7183.1
23590	0.4	3.2	0.1	7177.6
23591	0.4	3.3	0.1	7168.3
23592	0.4	3.4	0.1	7155.1
23593	0.4	3.5	0.1	7138.
23594	0.4	3.6	0.1	7116.8
23595	0.4	3.7	0.1	7091.1
23596	0.4	3.8	0.1	7060.9
23597	0.4	3.9	0.1	7025.7
23598	0.4	4.	0.1	6985.2
23599	0.4	4.1	0.1	6939.
23600	0.4	4.2	0.1	6886.5
23601	0.4	4.3	0.1	6827.3
23602	0.4	4.4	0.1	6760.6
23603	0.4	4.5	0.1	6685.8
23604	0.4	4.6	0.1	6602.2
23605	0.4	4.7	0.1	6508.9
23606	0.4	4.8	0.1	6405.3
23607	0.4	4.9	0.1	6290.6
23608	0.4	5.	0.1	6164.6
23609	0.4	5.1	0.1	6027.3
23610	0.4	5.2	0.1	5880.1
23611	0.4	5.3	0.1	5725.5
23612	0.4	5.4	0.1	5568.6
23613	0.4	5.5	0.1	5417.1
23614	0.4	5.6	0.1	5281.5
23615	0.4	5.7	0.1	5173.5
23616	0.4	5.8	0.1	5106.
23617	0.4	5.9	0.1	5125.3
23618	0.5	0.1	0.1	5426.1
23619	0.5	0.2	0.1	5387.
23620	0.5	0.3	0.1	5415.1
23621	0.5	0.4	0.1	5473.6
23622	0.5	0.5	0.1	5556.
23623	0.5	0.6	0.1	5655.9
23624	0.5	0.7	0.1	5766.9
23625	0.5	0.8	0.1	5882.8
23626	0.5	0.9	0.1	5998.7
23627	0.5	1.	0.1	6111.3
23628	0.5	1.1	0.1	6218.2
23629	0.5	1.2	0.1	6318.2
23630	0.5	1.3	0.1	6410.7
23631	0.5	1.4	0.1	6495.6
23632	0.5	1.5	0.1	6572.9
23633	0.5	1.6	0.1	6643.
23634	0.5	1.7	0.1	6706.2
23635	0.5	1.8	0.1	6762.9
23636	0.5	1.9	0.1	6813.5
23637	0.5	2.	0.1	6858.5
23638	0.5	2.1	0.1	6898.1
23639	0.5	2.2	0.1	6932.6
23640	0.5	2.3	0.1	6962.5
23641	0.5	2.4	0.1	6987.8
23642	0.5	2.5	0.1	7009.
23643	0.5	2.6	0.1	7026.
23644	0.5	2.7	0.1	7039.1
23645	0.5	2.8	0.1	7048.4
23646	0.5	2.9	0.1	7053.9
23647	0.5	3.	0.1	7055.8
23648	0.5	3.1	0.1	7053.9
23649	0.5	3.2	0.1	7048.4
23650	0.5	3.3	0.1	7039.1
23651	0.5	3.4	0.1	7026.
23652	0.5	3.5	0.1	7009.
23653	0.5	3.6	0.1	6987.8
23654	0.5	3.7	0.1	6962.5
23655	0.5	3.8	0.1	6932.6
23656	0.5	3.9	0.1	6898.1
23657	0.5	4.	0.1	6858.5
23658	0.5	4.1	0.1	6813.5
23659	0.5	4.2	0.1	6762.9
23660	0.5	4.3	0.1	6706.2
23661	0.5	4.4	0.1	6643.
23662	0.5	4.5	0.1	6572.9
23663	0.5	4.6	0.1	6495.6
23664	0.5	4.7	0.1	6410.7
23665	0.5	4.8	0.1	6318.2
23666	0.5	4.9	0.1	6218.2
23667	0.5	5.	0.1	6111.3
23668	0.5	5.1	0.1	5998.7
23669	0.5	5.2	0.1	5882.8
23670	0.5	5.3	0.1	5766.9
23671	0.5	5.4	0.1	5655.9
23672	0.5	5.5	0.1	5556.
23673	0.5	5.6	0.1	5473.6
23674	0.5	5.7	0.1	5415.1
23675	0.5	5.8	0.1	5387.
23676	0.5	5.9	0.1	5426.1
23677	0.6	0.1	0.1	5637.5
23678	0.6	0.2	0.1	5590.5
23679	0.6	0.3	0.1	5597.1
23680	0.6	0.4	0.1	5626.6
23681	0.6	0.5	0.1	5675.4
23682	0.6	0.6	0.1	5740.
23683	0.6	0.7	0.1	5816.8
23684	0.6	0.8	0.1	5901.4
23685	0.6	0.9	0.1	5990.1
23686	0.6	1.	0.1	6079.6
23687	0.6	1.1	0.1	6167.6
23688	0.6	1.2	0.1	6252.2
23689	0.6	1.3	0.1	6332.5
23690	0.6	1.4	0.1	6407.5
23691	0.6	1.5	0.1	6477.2
23692	0.6	1.6	0.1	6541.2
23693	0.6	1.7	0.1	6599.6
23694	0.6	1.8	0.1	6652.6
23695	0.6	1.9	0.1	6700.4
23696	0.6	2.	0.1	6743.1
23697	0.6	2.1	0.1	6781.
23698	0.6	2.2	0.1	6814.3
23699	0.6	2.3	0.1	6843.2
23700	0.6	2.4	0.1	6867.8
23701	0.6	2.5	0.1	6888.4
23702	0.6	2.6	0.1	6905.
23703	0.6	2.7	0.1	6917.9
23704	0.6	2.8	0.1	6927.
23705	0.6	2.9	0.1	6932.4
23706	0.6	3.	0.1	6934.2
23707	0.6	3.1	0.1	6932.4
23708	0.6	3.2	0.1	6927.
23709	0.6	3.3	0.1	6917.9
23710	0.6	3.4	0.1	6905.
23711	0.6	3.5	0.1	6888.4
23712	0.6	3.6	0.1	6867.8
23713	0.6	3.7	0.1	6843.2
23714	0.6	3.8	0.1	6814.3
23715	0.6	3.9	0.1	6781.
23716	0.6	4.	0.1	6743.1
23717	0.6	4.1	0.1	6700.4
23718	0.6	4.2	0.1	6652.6
23719	0.6	4.3	0.1	6599.6
23720	0.6	4.4	0.1	6541.2
23721	0.6	4.5	0.1	6477.2
23722	0.6	4.6	0.1	6407.5
23723	0.6	4.7	0.1	6332.5
23724	0.6	4.8	0.1	6252.2
23725	0.6	4.9	0.1	6167.6
23726	0.6	5.	0.1	6079.6
23727	0.6	5.1	0.1	5990.1
23728	0.6	5.2	0.1	5901.4
23729	0.6	5.3	0.1	5816.8
23730	0.6	5.4	0.1	5740.
23731	0.6	5.5	0.1	5675.4
23732	0.6	5.6	0.1	5626.6
23733	0.6	5.7	0.1	5597.1
23734	0.6	5.8	0.1	5590.5
23735	0.6	5.9	0.1	5637.5
23736	0.7	0.1	0.1	5788.5
23737	0.7	0.2	0.1	5738.8
23738	0.7	0.3	0.1	5733.1
23739	0.7	0.4	0.1	5744.9
23740	0.7	0.5	0.1	5771.9
23741	0.7	0.6	0.1	5812.4
23742	0.7	0.7	0.1	5864.2
23743	0.7	0.8	0.1	5924.6
23744	0.7	0.9	0.1	5990.9
23745	0.7	1.	0.1	6060.4
23746	0.7	1.1	0.1	6131.
23747	0.7	1.2	0.1	6200.9
23748	0.7	1.3	0.1	6268.7
23749	0.7	1.4	0.1	6333.5
23750	0.7	1.5	0.1	6394.7
23751	0.7	1.6	0.1	6451.9
23752	0.7	1.7	0.1	6504.8
23753	0.7	1.8	0.1	6553.3
23754	0.7	1.9	0.1	6597.4
23755	0.7	2.	0.1	6637.2
23756	0.7	2.1	0.1	6672.8
23757	0.7	2.2	0.1	6704.2
23758	0.7	2.3	0.1	6731.6
23759	0.7	2.4	0.1	6755.1
23760	0.7	2.5	0.1	6774.8
23761	0.7	2.6	0.1	6790.8
23762	0.7	2.7	0.1	6803.1
23763	0.7	2.8	0.1	6811.9
23764	0.7	2.9	0.1	6817.2
23765	0.7	3.	0.1	6818.9
23766	0.7	3.1	0.1	6817.2
23767	0.7	3.2	0.1	6811.9
23768	0.7	3.3	0.1	6803.1
23769	0.7	3.4	0.1	6790.8
23770	0.7	3.5	0.1	6774.8
23771	0.7	3.6	0.1	6755.1
23772	0.7	3.7	0.1	6731.6
23773	0.7	3.8	0.1	6704.2
23774	0.7	3.9	0.1	6672.8
23775	0.7	4.	0.1	6637.2
23776	0.7	4.1	0.1	6597.4
23777	0.7	4.2	0.1	6553.3
23778	0.7	4.3	0.1	6504.8
23779	0.7	4.4	0.1	6451.9
23780	0.7	4.5	0.1	6394.7
23781	0.7	4.6	0.1	6333.5
23782	0.7	4.7	0.1	6268.7
23783	0.7	4.8	0.1	6200.9
23784	0.7	4.9	0.1	6131.
23785	0.7	5.	0.1	6060.4
23786	0.7	5.1	0.1	5990.9
23787	0.7	5.2	0.1	5924.6
23788	0.7	5.3	0.1	5864.2
23789	0.7	5.4	0.1	5812.4
23790	0.7	5.5	0.1	5771.9
23791	0.7	5.6	0.1	5744.9
23792	0.7	5.7	0.1	5733.1
23793	0.7	5.8	0.1	5738.8
23794	0.7	5.9	0.1	5788.5
23795	0.8	0.1	0.1	5896.9
23796	0.8	0.2	0.1	5847.2
23797	0.8	0.3	0.1	5834.2
23798	0.8	0.4	0.1	5834.8
23799	0.8	0.5	0.1	5847.5
23800	0.8	0.6	0.1	5871.3
23801	0.8	0.7	0.1	5905.1
23802	0.8	0.8	0.1	5947.1
23803	0.8	0.9	0.1	5995.5
23804	0.8	1.	0.1	6048.3
23805	0.8	1.1	0.1	6103.7
23806	0.8	1.2	0.1	6160.1
23807	0.8	1.3	0.1	6216.2
23808	0.8	1.4	0.1	6271.
23809	0.8	1.5	0.1	6323.6
23810	0.8	1.6	0.1	6373.6
23811	0.8	1.7	0.1	6420.5
23812	0.8	1.8	0.1	6464.
23813	0.8	1.9	0.1	6504.
23814	0.8	2.	0.1	6540.4
23815	0.8	2.1	0.1	6573.2
23816	0.8	2.2	0.1	6602.3
23817	0.8	2.3	0.1	6627.9
23818	0.8	2.4	0.1	6649.9
23819	0.8	2.5	0.1	6668.4
23820	0.8	2.6	0.1	6683.5
23821	0.8	2.7	0.1	6695.2
23822	0.8	2.8	0.1	6703.5
23823	0.8	2.9	0.1	6708.5
23824	0.8	3.	0.1	6710.1
23825	0.8	3.1	0.1	6708.5
23826	0.8	3.2	0.1	6703.5
23827	0.8	3.3	0.1	6695.2
23828	0.8	3.4	0.1	6683.5
23829	0.8	3.5	0.1	6668.4
23830	0.8	3.6	0.1	6649.9
23831	0.8	3.7	0.1	6627.9
23832	0.8	3.8	0.1	6602.3
23833	0.8	3.9	0.1	6573.2
23834	0.8	4.	0.1	6540.4
23835	0.8	4.1	0.1	6504.
23836	0.8	4.2	0.1	6464.
23837	0.8	4.3	0.1	6420.5
23838	0.8	4.4	0.1	6373.6
23839	0.8	4.5	0.1	6323.6
23840	0.8	4.6	0.1	6271.
23841	0.8	4.7	0.1	6216.2
23842	0.8	4.8	0.1	6160.1
23843	0.8	4.9	0.1	6103.7
23844	0.8	5.	0.1	6048.3
23845	0.8	5.1	0.1	5995.5
23846	0.8	5.2	0.1	5947.1
23847	0.8	5.3	0.1	5905.1
23848	0.8	5.4	0.1	5871.3
23849	0.8	5.5	0.1	5847.5
23850	0.8	5.6	0.1	5834.8
23851	0.8	5.7	0.1	5834.2
23852	0.8	5.8	0.1	5847.2
23853	0.8	5.9	0.1	5896.9
23854	0.9	0.1	0.1	5974.3
23855	0.9	0.2	0.1	5925.7
23856	0.9	0.3	0.1	5908.3
23857	0.9	0.4	0.1	5901.7
23858	0.9	0.5	0.1	5904.8
23859	0.9	0.6	0.1	5917.
23860	0.9	0.7	0.1	5937.7
23861	0.9	0.8	0.1	5965.8
23862	0.9	0.9	0.1	6000.2
23863	0.9	1.	0.1	6039.3
23864	0.9	1.1	0.1	6081.8
23865	0.9	1.2	0.1	6126.4
23866	0.9	1.3	0.1	6171.8
23867	0.9	1.4	0.1	6217.2
23868	0.9	1.5	0.1	6261.6
23869	0.9	1.6	0.1	6304.4
23870	0.9	1.7	0.1	6345.2
23871	0.9	1.8	0.1	6383.5
23872	0.9	1.9	0.1	6419.
23873	0.9	2.	0.1	6451.7
23874	0.9	2.1	0.1	6481.4
23875	0.9	2.2	0.1	6508.
23876	0.9	2.3	0.1	6531.4
23877	0.9	2.4	0.1	6551.7
23878	0.9	2.5	0.1	6568.9
23879	0.9	2.6	0.1	6582.9
23880	0.9	2.7	0.1	6593.7
23881	0.9	2.8	0.1	6601.5
23882	0.9	2.9	0.1	6606.1
23883	0.9	3.	0.1	6607.7
23884	0.9	3.1	0.1	6606.1
23885	0.9	3.2	0.1	6601.5
23886	0.9	3.3	0.1	6593.7
23887	0.9	3.4	0.1	6582.9
23888	0.9	3.5	0.1	6568.9
23889	0.9	3.6	0.1	6551.7
23890	0.9	3.7	0.1	6531.4
23891	0.9	3.8	0.1	6508.
23892	0.9	3.9	0.1	6481.4
23893	0.9	4.	0.1	6451.7
23894	0.9	4.1	0.1	6419.
23895	0.9	4.2	0.1	6383.5
23896	0.9	4.3	0.1	6345.2
23897	0.9	4.4	0.1	6304.4
23898	0.9	4.5	0.1	6261.6
23899	0.9	4.6	0.1	6217.2
23900	0.9	4.7	0.1	6171.8
23901	0.9	4.8	0.1	6126.4
23902	0.9	4.9	0.1	6081.8
23903	0.9	5.	0.1	6039.3
23904	0.9	5.1	0.1	6000.2
23905	0.9	5.2	0.1	5965.8
23906	0.9	5.3	0.1	5937.7
23907	0.9	5.4	0.1	5917.
23908	0.9	5.5	0.1	5904.8
23909	0.9	5.6	0.1	5901.7
23910	0.9	5.7	0.1	5908.3
23911	0.9	5.8	0.1	5925.7
23912	0.9	5.9	0.1	5974.3
23913	1.	0.1	0.1	6028.2
23914	1.	0.2	0.1	5981.4
23915	1.	0.3	0.1	5961.5
23916	1.	0.4	0.1	5950.1
23917	1.	0.5	0.1	5946.6
23918	1.	0.6	0.1	5950.6
23919	1.	0.7	0.1	5961.7
23920	1.	0.8	0.1	5979.4
23921	1.	0.9	0.1	6002.8
23922	1.	1.	0.1	6030.9
23923	1.	1.1	0.1	6062.7
23924	1.	1.2	0.1	6097.1
23925	1.	1.3	0.1	6133.2
23926	1.	1.4	0.1	6169.9
23927	1.	1.5	0.1	6206.7
23928	1.	1.6	0.1	6242.7
23929	1.	1.7	0.1	6277.4
23930	1.	1.8	0.1	6310.5
23931	1.	1.9	0.1	6341.6
23932	1.	2.	0.1	6370.5
23933	1.	2.1	0.1	6396.9
23934	1.	2.2	0.1	6420.7
23935	1.	2.3	0.1	6441.8
23936	1.	2.4	0.1	6460.2
23937	1.	2.5	0.1	6475.8
23938	1.	2.6	0.1	6488.6
23939	1.	2.7	0.1	6498.6
23940	1.	2.8	0.1	6505.7
23941	1.	2.9	0.1	6510.
23942	1.	3.	0.1	6511.4
23943	1.	3.1	0.1	6510.
23944	1.	3.2	0.1	6505.7
23945	1.	3.3	0.1	6498.6
23946	1.	3.4	0.1	6488.6
23947	1.	3.5	0.1	6475.8
23948	1.	3.6	0.1	6460.2
23949	1.	3.7	0.1	6441.8
23950	1.	3.8	0.1	6420.7
23951	1.	3.9	0.1	6396.9
23952	1.	4.	0.1	6370.5
23953	1.	4.1	0.1	6341.6
23954	1.	4.2	0.1	6310.5
23955	1.	4.3	0.1	6277.4
23956	1.	4.4	0.1	6242.7
23957	1.	4.5	0.1	6206.6
23958	1.	4.6	0.1	6169.9
23959	1.	4.7	0.1	6133.2
23960	1.	4.8	0.1	6097.1
23961	1.	4.9	0.1	6062.7
23962	1.	5.	0.1	6030.9
23963	1.	5.1	0.1	6002.8
23964	1.	5.2	0.1	5979.4
23965	1.	5.3	0.1	5961.7
23966	1.	5.4	0.1	5950.6
23967	1.	5.5	0.1	5946.6
23968	1.	5.6	0.1	5950.1
23969	1.	5.7	0.1	5961.5
23970	1.	5.8	0.1	5981.4
23971	1.	5.9	0.1	6028.2
23972	1.1	0.1	0.1	6064.1
23973	1.1	0.2	0.1	6019.3
23974	1.1	0.3	0.1	5998.
23975	1.1	0.4	0.1	5983.5
23976	1.1	0.5	0.1	5975.4
23977	1.1	0.6	0.1	5973.5
23978	1.1	0.7	0.1	5977.6
23979	1.1	0.8	0.1	5987.4
23980	1.1	0.9	0.1	6002.2
23981	1.1	1.	0.1	6021.6
23982	1.1	1.1	0.1	6044.6
23983	1.1	1.2	0.1	6070.4
23984	1.1	1.3	0.1	6098.3
23985	1.1	1.4	0.1	6127.5
23986	1.1	1.5	0.1	6157.2
23987	1.1	1.6	0.1	6186.9
23988	1.1	1.7	0.1	6216.
23989	1.1	1.8	0.1	6244.1
23990	1.1	1.9	0.1	6270.7
23991	1.1	2.	0.1	6295.7
23992	1.1	2.1	0.1	6318.8
23993	1.1	2.2	0.1	6339.8
23994	1.1	2.3	0.1	6358.6
23995	1.1	2.4	0.1	6375.
23996	1.1	2.5	0.1	6389.
23997	1.1	2.6	0.1	6400.5
23998	1.1	2.7	0.1	6409.5
23999	1.1	2.8	0.1	6415.9
24000	1.1	2.9	0.1	6419.8
24001	1.1	3.	0.1	6421.1
24002	1.1	3.1	0.1	6419.8
24003	1.1	3.2	0.1	6415.9
24004	1.1	3.3	0.1	6409.5
24005	1.1	3.4	0.1	6400.5
24006	1.1	3.5	0.1	6389.
24007	1.1	3.6	0.1	6375.
24008	1.1	3.7	0.1	6358.6
24009	1.1	3.8	0.1	6339.8
24010	1.1	3.9	0.1	6318.8
24011	1.1	4.	0.1	6295.7
24012	1.1	4.1	0.1	6270.7
24013	1.1	4.2	0.1	6244.1
24014	1.1	4.3	0.1	6216.
24015	1.1	4.4	0.1	6186.9
24016	1.1	4.5	0.1	6157.2
24017	1.1	4.6	0.1	6127.5
24018	1.1	4.7	0.1	6098.3
24019	1.1	4.8	0.1	6070.4
24020	1.1	4.9	0.1	6044.6
24021	1.1	5.	0.1	6021.6
24022	1.1	5.1	0.1	6002.2
24023	1.1	5.2	0.1	5987.4
24024	1.1	5.3	0.1	5977.6
24025	1.1	5.4	0.1	5973.5
24026	1.1	5.5	0.1	5975.4
24027	1.1	5.6	0.1	5983.5
24028	1.1	5.7	0.1	5998.
24029	1.1	5.8	0.1	6019.3
24030	1.1	5.9	0.1	6064.1
24031	1.2	0.1	0.1	6085.9
24032	1.2	0.2	0.1	6043.3
24033	1.2	0.3	0.1	6021.2
24034	1.2	0.4	0.1	6004.7
24035	1.2	0.5	0.1	5993.4
24036	1.2	0.6	0.1	5987.2
24037	1.2	0.7	0.1	5986.1
24038	1.2	0.8	0.1	5989.9
24039	1.2	0.9	0.1	5998.1
24040	1.2	1.	0.1	6010.5
24041	1.2	1.1	0.1	6026.3
24042	1.2	1.2	0.1	6045.
24043	1.2	1.3	0.1	6065.9
24044	1.2	1.4	0.1	6088.5
24045	1.2	1.5	0.1	6112.
24046	1.2	1.6	0.1	6135.9
24047	1.2	1.7	0.1	6159.7
24048	1.2	1.8	0.1	6183.1
24049	1.2	1.9	0.1	6205.5
24050	1.2	2.	0.1	6226.8
24051	1.2	2.1	0.1	6246.6
24052	1.2	2.2	0.1	6264.8
24053	1.2	2.3	0.1	6281.2
24054	1.2	2.4	0.1	6295.5
24055	1.2	2.5	0.1	6307.9
24056	1.2	2.6	0.1	6318.
24057	1.2	2.7	0.1	6326.
24058	1.2	2.8	0.1	6331.7
24059	1.2	2.9	0.1	6335.2
24060	1.2	3.	0.1	6336.3
24061	1.2	3.1	0.1	6335.2
24062	1.2	3.2	0.1	6331.7
24063	1.2	3.3	0.1	6326.
24064	1.2	3.4	0.1	6318.
24065	1.2	3.5	0.1	6307.9
24066	1.2	3.6	0.1	6295.5
24067	1.2	3.7	0.1	6281.2
24068	1.2	3.8	0.1	6264.8
24069	1.2	3.9	0.1	6246.6
24070	1.2	4.	0.1	6226.8
24071	1.2	4.1	0.1	6205.5
24072	1.2	4.2	0.1	6183.1
24073	1.2	4.3	0.1	6159.7
24074	1.2	4.4	0.1	6135.9
24075	1.2	4.5	0.1	6112.
24076	1.2	4.6	0.1	6088.5
24077	1.2	4.7	0.1	6065.9
24078	1.2	4.8	0.1	6045.
24079	1.2	4.9	0.1	6026.3
24080	1.2	5.	0.1	6010.5
24081	1.2	5.1	0.1	5998.1
24082	1.2	5.2	0.1	5989.9
24083	1.2	5.3	0.1	5986.1
24084	1.2	5.4	0.1	5987.2
24085	1.2	5.5	0.1	5993.4
24086	1.2	5.6	0.1	6004.7
24087	1.2	5.7	0.1	6021.2
24088	1.2	5.8	0.1	6043.3
24089	1.2	5.9	0.1	6085.9
24090	1.3	0.1	0.1	6096.5
24091	1.3	0.2	0.1	6056.1
24092	1.3	0.3	0.1	6033.6
24093	1.3	0.4	0.1	6015.9
24094	1.3	0.5	0.1	6002.4
24095	1.3	0.6	0.1	5993.1
24096	1.3	0.7	0.1	5988.1
24097	1.3	0.8	0.1	5987.3
24098	1.3	0.9	0.1	5990.4
24099	1.3	1.	0.1	5997.2
24100	1.3	1.1	0.1	6007.2
24101	1.3	1.2	0.1	6020.
24102	1.3	1.3	0.1	6035.
24103	1.3	1.4	0.1	6051.8
24104	1.3	1.5	0.1	6069.9
24105	1.3	1.6	0.1	6088.6
24106	1.3	1.7	0.1	6107.7
24107	1.3	1.8	0.1	6126.7
24108	1.3	1.9	0.1	6145.2
24109	1.3	2.	0.1	6162.9
24110	1.3	2.1	0.1	6179.6
24111	1.3	2.2	0.1	6195.1
24112	1.3	2.3	0.1	6209.1
24113	1.3	2.4	0.1	6221.4
24114	1.3	2.5	0.1	6232.1
24115	1.3	2.6	0.1	6241.
24116	1.3	2.7	0.1	6247.9
24117	1.3	2.8	0.1	6252.9
24118	1.3	2.9	0.1	6255.9
24119	1.3	3.	0.1	6256.9
24120	1.3	3.1	0.1	6255.9
24121	1.3	3.2	0.1	6252.9
24122	1.3	3.3	0.1	6247.9
24123	1.3	3.4	0.1	6241.
24124	1.3	3.5	0.1	6232.1
24125	1.3	3.6	0.1	6221.4
24126	1.3	3.7	0.1	6209.1
24127	1.3	3.8	0.1	6195.1
24128	1.3	3.9	0.1	6179.6
24129	1.3	4.	0.1	6162.9
24130	1.3	4.1	0.1	6145.2
24131	1.3	4.2	0.1	6126.7
24132	1.3	4.3	0.1	6107.7
24133	1.3	4.4	0.1	6088.6
24134	1.3	4.5	0.1	6069.9
24135	1.3	4.6	0.1	6051.8
24136	1.3	4.7	0.1	6035.
24137	1.3	4.8	0.1	6020.
24138	1.3	4.9	0.1	6007.2
24139	1.3	5.	0.1	5997.2
24140	1.3	5.1	0.1	5990.4
24141	1.3	5.2	0.1	5987.3
24142	1.3	5.3	0.1	5988.1
24143	1.3	5.4	0.1	5993.1
24144	1.3	5.5	0.1	6002.3
24145	1.3	5.6	0.1	6015.9
24146	1.3	5.7	0.1	6033.6
24147	1.3	5.8	0.1	6056.1
24148	1.3	5.9	0.1	6096.5
24149	1.4	0.1	0.1	6098.1
24150	1.4	0.2	0.1	6059.8
24151	1.4	0.3	0.1	6037.4
24152	1.4	0.4	0.1	6018.8
24153	1.4	0.5	0.1	6003.8
24154	1.4	0.6	0.1	5992.3
24155	1.4	0.7	0.1	5984.4
24156	1.4	0.8	0.1	5980.1
24157	1.4	0.9	0.1	5979.2
24158	1.4	1.	0.1	5981.6
24159	1.4	1.1	0.1	5986.9
24160	1.4	1.2	0.1	5994.8
24161	1.4	1.3	0.1	6004.9
24162	1.4	1.4	0.1	6016.8
24163	1.4	1.5	0.1	6030.1
24164	1.4	1.6	0.1	6044.3
24165	1.4	1.7	0.1	6059.2
24166	1.4	1.8	0.1	6074.2
24167	1.4	1.9	0.1	6089.
24168	1.4	2.	0.1	6103.5
24169	1.4	2.1	0.1	6117.2
24170	1.4	2.2	0.1	6130.1
24171	1.4	2.3	0.1	6141.8
24172	1.4	2.4	0.1	6152.2
24173	1.4	2.5	0.1	6161.3
24174	1.4	2.6	0.1	6168.8
24175	1.4	2.7	0.1	6174.8
24176	1.4	2.8	0.1	6179.1
24177	1.4	2.9	0.1	6181.7
24178	1.4	3.	0.1	6182.5
24179	1.4	3.1	0.1	6181.7
24180	1.4	3.2	0.1	6179.1
24181	1.4	3.3	0.1	6174.8
24182	1.4	3.4	0.1	6168.8
24183	1.4	3.5	0.1	6161.3
24184	1.4	3.6	0.1	6152.2
24185	1.4	3.7	0.1	6141.8
24186	1.4	3.8	0.1	6130.1
24187	1.4	3.9	0.1	6117.2
24188	1.4	4.	0.1	6103.5
24189	1.4	4.1	0.1	6089.
24190	1.4	4.2	0.1	6074.2
24191	1.4	4.3	0.1	6059.2
24192	1.4	4.4	0.1	6044.3
24193	1.4	4.5	0.1	6030.1
24194	1.4	4.6	0.1	6016.8
24195	1.4	4.7	0.1	6004.9
24196	1.4	4.8	0.1	5994.7
24197	1.4	4.9	0.1	5986.8
24198	1.4	5.	0.1	5981.6
24199	1.4	5.1	0.1	5979.2
24200	1.4	5.2	0.1	5980.1
24201	1.4	5.3	0.1	5984.4
24202	1.4	5.4	0.1	5992.3
24203	1.4	5.5	0.1	6003.8
24204	1.4	5.6	0.1	6018.8
24205	1.4	5.7	0.1	6037.4
24206	1.4	5.8	0.1	6059.8
24207	1.4	5.9	0.1	6098.1
24208	1.5	0.1	0.1	6092.5
24209	1.5	0.2	0.1	6056.2
24210	1.5	0.3	0.1	6033.9
24211	1.5	0.4	0.1	6014.9
24212	1.5	0.5	0.1	5998.9
24213	1.5	0.6	0.1	5985.8
24214	1.5	0.7	0.1	5975.8
24215	1.5	0.8	0.1	5968.8
24216	1.5	0.9	0.1	5964.8
24217	1.5	1.	0.1	5963.6
24218	1.5	1.1	0.1	5965.1
24219	1.5	1.2	0.1	5969.
24220	1.5	1.3	0.1	5975.
24221	1.5	1.4	0.1	5982.8
24222	1.5	1.5	0.1	5992.
24223	1.5	1.6	0.1	6002.3
24224	1.5	1.7	0.1	6013.4
24225	1.5	1.8	0.1	6024.8
24226	1.5	1.9	0.1	6036.4
24227	1.5	2.	0.1	6047.9
24228	1.5	2.1	0.1	6058.9
24229	1.5	2.2	0.1	6069.3
24230	1.5	2.3	0.1	6078.9
24231	1.5	2.4	0.1	6087.5
24232	1.5	2.5	0.1	6095.
24233	1.5	2.6	0.1	6101.3
24234	1.5	2.7	0.1	6106.3
24235	1.5	2.8	0.1	6109.9
24236	1.5	2.9	0.1	6112.
24237	1.5	3.	0.1	6112.8
24238	1.5	3.1	0.1	6112.
24239	1.5	3.2	0.1	6109.9
24240	1.5	3.3	0.1	6106.3
24241	1.5	3.4	0.1	6101.3
24242	1.5	3.5	0.1	6095.
24243	1.5	3.6	0.1	6087.5
24244	1.5	3.7	0.1	6078.9
24245	1.5	3.8	0.1	6069.3
24246	1.5	3.9	0.1	6058.9
24247	1.5	4.	0.1	6047.9
24248	1.5	4.1	0.1	6036.4
24249	1.5	4.2	0.1	6024.8
24250	1.5	4.3	0.1	6013.4
24251	1.5	4.4	0.1	6002.3
24252	1.5	4.5	0.1	5992.
24253	1.5	4.6	0.1	5982.8
24254	1.5	4.7	0.1	5975.
24255	1.5	4.8	0.1	5969.
24256	1.5	4.9	0.1	5965.1
24257	1.5	5.	0.1	5963.6
24258	1.5	5.1	0.1	5964.8
24259	1.5	5.2	0.1	5968.8
24260	1.5	5.3	0.1	5975.8
24261	1.5	5.4	0.1	5985.8
24262	1.5	5.5	0.1	5998.9
24263	1.5	5.6	0.1	6014.9
24264	1.5	5.7	0.1	6033.9
24265	1.5	5.8	0.1	6056.2
24266	1.5	5.9	0.1	6092.5
24267	1.6	0.1	0.1	6080.9
24268	1.6	0.2	0.1	6046.5
24269	1.6	0.3	0.1	6024.6
24270	1.6	0.4	0.1	6005.4
24271	1.6	0.5	0.1	5988.7
24272	1.6	0.6	0.1	5974.5
24273	1.6	0.7	0.1	5962.9
24274	1.6	0.8	0.1	5953.9
24275	1.6	0.9	0.1	5947.4
24276	1.6	1.	0.1	5943.5
24277	1.6	1.1	0.1	5941.9
24278	1.6	1.2	0.1	5942.6
24279	1.6	1.3	0.1	5945.2
24280	1.6	1.4	0.1	5949.5
24281	1.6	1.5	0.1	5955.2
24282	1.6	1.6	0.1	5962.1
24283	1.6	1.7	0.1	5969.9
24284	1.6	1.8	0.1	5978.2
24285	1.6	1.9	0.1	5986.9
24286	1.6	2.	0.1	5995.6
24287	1.6	2.1	0.1	6004.1
24288	1.6	2.2	0.1	6012.3
24289	1.6	2.3	0.1	6019.9
24290	1.6	2.4	0.1	6026.8
24291	1.6	2.5	0.1	6032.8
24292	1.6	2.6	0.1	6038.
24293	1.6	2.7	0.1	6042.
24294	1.6	2.8	0.1	6045.
24295	1.6	2.9	0.1	6046.7
24296	1.6	3.	0.1	6047.3
24297	1.6	3.1	0.1	6046.7
24298	1.6	3.2	0.1	6045.
24299	1.6	3.3	0.1	6042.
24300	1.6	3.4	0.1	6037.9
24301	1.6	3.5	0.1	6032.8
24302	1.6	3.6	0.1	6026.8
24303	1.6	3.7	0.1	6019.9
24304	1.6	3.8	0.1	6012.3
24305	1.6	3.9	0.1	6004.1
24306	1.6	4.	0.1	5995.6
24307	1.6	4.1	0.1	5986.9
24308	1.6	4.2	0.1	5978.2
24309	1.6	4.3	0.1	5969.9
24310	1.6	4.4	0.1	5962.1
24311	1.6	4.5	0.1	5955.2
24312	1.6	4.6	0.1	5949.5
24313	1.6	4.7	0.1	5945.2
24314	1.6	4.8	0.1	5942.6
24315	1.6	4.9	0.1	5941.9
24316	1.6	5.	0.1	5943.5
24317	1.6	5.1	0.1	5947.4
24318	1.6	5.2	0.1	5953.9
24319	1.6	5.3	0.1	5962.9
24320	1.6	5.4	0.1	5974.5
24321	1.6	5.5	0.1	5988.7
24322	1.6	5.6	0.1	6005.4
24323	1.6	5.7	0.1	6024.6
24324	1.6	5.8	0.1	6046.5
24325	1.6	5.9	0.1	6080.9
24326	1.7	0.1	0.1	6064.4
24327	1.7	0.2	0.1	6031.8
24328	1.7	0.3	0.1	6010.4
24329	1.7	0.4	0.1	5991.2
24330	1.7	0.5	0.1	5974.1
24331	1.7	0.6	0.1	5959.1
24332	1.7	0.7	0.1	5946.4
24333	1.7	0.8	0.1	5935.8
24334	1.7	0.9	0.1	5927.5
24335	1.7	1.	0.1	5921.4
24336	1.7	1.1	0.1	5917.4
24337	1.7	1.2	0.1	5915.3
24338	1.7	1.3	0.1	5915.1
24339	1.7	1.4	0.1	5916.5
24340	1.7	1.5	0.1	5919.3
24341	1.7	1.6	0.1	5923.3
24342	1.7	1.7	0.1	5928.2
24343	1.7	1.8	0.1	5933.8
24344	1.7	1.9	0.1	5939.9
24345	1.7	2.	0.1	5946.1
24346	1.7	2.1	0.1	5952.4
24347	1.7	2.2	0.1	5958.6
24348	1.7	2.3	0.1	5964.4
24349	1.7	2.4	0.1	5969.7
24350	1.7	2.5	0.1	5974.4
24351	1.7	2.6	0.1	5978.4
24352	1.7	2.7	0.1	5981.7
24353	1.7	2.8	0.1	5984.
24354	1.7	2.9	0.1	5985.4
24355	1.7	3.	0.1	5985.9
24356	1.7	3.1	0.1	5985.4
24357	1.7	3.2	0.1	5984.
24358	1.7	3.3	0.1	5981.7
24359	1.7	3.4	0.1	5978.4
24360	1.7	3.5	0.1	5974.4
24361	1.7	3.6	0.1	5969.7
24362	1.7	3.7	0.1	5964.4
24363	1.7	3.8	0.1	5958.6
24364	1.7	3.9	0.1	5952.4
24365	1.7	4.	0.1	5946.1
24366	1.7	4.1	0.1	5939.9
24367	1.7	4.2	0.1	5933.8
24368	1.7	4.3	0.1	5928.2
24369	1.7	4.4	0.1	5923.3
24370	1.7	4.5	0.1	5919.3
24371	1.7	4.6	0.1	5916.5
24372	1.7	4.7	0.1	5915.1
24373	1.7	4.8	0.1	5915.3
24374	1.7	4.9	0.1	5917.4
24375	1.7	5.	0.1	5921.4
24376	1.7	5.1	0.1	5927.5
24377	1.7	5.2	0.1	5935.8
24378	1.7	5.3	0.1	5946.4
24379	1.7	5.4	0.1	5959.1
24380	1.7	5.5	0.1	5974.1
24381	1.7	5.6	0.1	5991.2
24382	1.7	5.7	0.1	6010.4
24383	1.7	5.8	0.1	6031.8
24384	1.7	5.9	0.1	6064.4
24385	1.8	0.1	0.1	6043.9
24386	1.8	0.2	0.1	6013.1
24387	1.8	0.3	0.1	5992.1
24388	1.8	0.4	0.1	5973.1
24389	1.8	0.5	0.1	5955.8
24390	1.8	0.6	0.1	5940.3
24391	1.8	0.7	0.1	5926.7
24392	1.8	0.8	0.1	5915.
24393	1.8	0.9	0.1	5905.3
24394	1.8	1.	0.1	5897.4
24395	1.8	1.1	0.1	5891.5
24396	1.8	1.2	0.1	5887.3
24397	1.8	1.3	0.1	5884.8
24398	1.8	1.4	0.1	5883.8
24399	1.8	1.5	0.1	5884.1
24400	1.8	1.6	0.1	5885.6
24401	1.8	1.7	0.1	5888.1
24402	1.8	1.8	0.1	5891.3
24403	1.8	1.9	0.1	5895.1
24404	1.8	2.	0.1	5899.2
24405	1.8	2.1	0.1	5903.5
24406	1.8	2.2	0.1	5907.8
24407	1.8	2.3	0.1	5912.
24408	1.8	2.4	0.1	5915.9
24409	1.8	2.5	0.1	5919.4
24410	1.8	2.6	0.1	5922.4
24411	1.8	2.7	0.1	5924.9
24412	1.8	2.8	0.1	5926.6
24413	1.8	2.9	0.1	5927.7
24414	1.8	3.	0.1	5928.1
24415	1.8	3.1	0.1	5927.7
24416	1.8	3.2	0.1	5926.6
24417	1.8	3.3	0.1	5924.9
24418	1.8	3.4	0.1	5922.4
24419	1.8	3.5	0.1	5919.4
24420	1.8	3.6	0.1	5915.9
24421	1.8	3.7	0.1	5912.
24422	1.8	3.8	0.1	5907.8
24423	1.8	3.9	0.1	5903.5
24424	1.8	4.	0.1	5899.2
24425	1.8	4.1	0.1	5895.1
24426	1.8	4.2	0.1	5891.3
24427	1.8	4.3	0.1	5888.1
24428	1.8	4.4	0.1	5885.6
24429	1.8	4.5	0.1	5884.1
24430	1.8	4.6	0.1	5883.8
24431	1.8	4.7	0.1	5884.8
24432	1.8	4.8	0.1	5887.3
24433	1.8	4.9	0.1	5891.5
24434	1.8	5.	0.1	5897.4
24435	1.8	5.1	0.1	5905.3
24436	1.8	5.2	0.1	5915.
24437	1.8	5.3	0.1	5926.7
24438	1.8	5.4	0.1	5940.3
24439	1.8	5.5	0.1	5955.8
24440	1.8	5.6	0.1	5973.1
24441	1.8	5.7	0.1	5992.1
24442	1.8	5.8	0.1	6013.1
24443	1.8	5.9	0.1	6043.9
24444	1.9	0.1	0.1	6020.1
24445	1.9	0.2	0.1	5990.9
24446	1.9	0.3	0.1	5970.4
24447	1.9	0.4	0.1	5951.7
24448	1.9	0.5	0.1	5934.4
24449	1.9	0.6	0.1	5918.6
24450	1.9	0.7	0.1	5904.4
24451	1.9	0.8	0.1	5891.9
24452	1.9	0.9	0.1	5881.1
24453	1.9	1.	0.1	5871.9
24454	1.9	1.1	0.1	5864.4
24455	1.9	1.2	0.1	5858.5
24456	1.9	1.3	0.1	5854.1
24457	1.9	1.4	0.1	5851.1
24458	1.9	1.5	0.1	5849.4
24459	1.9	1.6	0.1	5848.8
24460	1.9	1.7	0.1	5849.2
24461	1.9	1.8	0.1	5850.4
24462	1.9	1.9	0.1	5852.2
24463	1.9	2.	0.1	5854.4
24464	1.9	2.1	0.1	5857.
24465	1.9	2.2	0.1	5859.7
24466	1.9	2.3	0.1	5862.4
24467	1.9	2.4	0.1	5865.1
24468	1.9	2.5	0.1	5867.5
24469	1.9	2.6	0.1	5869.6
24470	1.9	2.7	0.1	5871.3
24471	1.9	2.8	0.1	5872.6
24472	1.9	2.9	0.1	5873.3
24473	1.9	3.	0.1	5873.6
24474	1.9	3.1	0.1	5873.3
24475	1.9	3.2	0.1	5872.6
24476	1.9	3.3	0.1	5871.3
24477	1.9	3.4	0.1	5869.6
24478	1.9	3.5	0.1	5867.5
24479	1.9	3.6	0.1	5865.1
24480	1.9	3.7	0.1	5862.4
24481	1.9	3.8	0.1	5859.7
24482	1.9	3.9	0.1	5857.
24483	1.9	4.	0.1	5854.4
24484	1.9	4.1	0.1	5852.2
24485	1.9	4.2	0.1	5850.4
24486	1.9	4.3	0.1	5849.2
24487	1.9	4.4	0.1	5848.8
24488	1.9	4.5	0.1	5849.4
24489	1.9	4.6	0.1	5851.1
24490	1.9	4.7	0.1	5854.1
24491	1.9	4.8	0.1	5858.5
24492	1.9	4.9	0.1	5864.4
24493	1.9	5.	0.1	5871.9
24494	1.9	5.1	0.1	5881.1
24495	1.9	5.2	0.1	5891.9
24496	1.9	5.3	0.1	5904.4
24497	1.9	5.4	0.1	5918.6
24498	1.9	5.5	0.1	5934.4
24499	1.9	5.6	0.1	5951.7
24500	1.9	5.7	0.1	5970.4
24501	1.9	5.8	0.1	5990.9
24502	1.9	5.9	0.1	6020.1
24503	2.	0.1	0.1	5993.6
24504	2.	0.2	0.1	5965.8
24505	2.	0.3	0.1	5946.
24506	2.	0.4	0.1	5927.5
24507	2.	0.5	0.1	5910.3
24508	2.	0.6	0.1	5894.4
24509	2.	0.7	0.1	5879.9
24510	2.	0.8	0.1	5866.8
24511	2.	0.9	0.1	5855.1
24512	2.	1.	0.1	5845.
24513	2.	1.1	0.1	5836.3
24514	2.	1.2	0.1	5829.
24515	2.	1.3	0.1	5823.1
24516	2.	1.4	0.1	5818.5
24517	2.	1.5	0.1	5815.1
24518	2.	1.6	0.1	5812.7
24519	2.	1.7	0.1	5811.3
24520	2.	1.8	0.1	5810.8
24521	2.	1.9	0.1	5810.9
24522	2.	2.	0.1	5811.5
24523	2.	2.1	0.1	5812.6
24524	2.	2.2	0.1	5813.9
24525	2.	2.3	0.1	5815.3
24526	2.	2.4	0.1	5816.8
24527	2.	2.5	0.1	5818.3
24528	2.	2.6	0.1	5819.6
24529	2.	2.7	0.1	5820.6
24530	2.	2.8	0.1	5821.5
24531	2.	2.9	0.1	5822.
24532	2.	3.	0.1	5822.1
24533	2.	3.1	0.1	5822.
24534	2.	3.2	0.1	5821.5
24535	2.	3.3	0.1	5820.6
24536	2.	3.4	0.1	5819.6
24537	2.	3.5	0.1	5818.3
24538	2.	3.6	0.1	5816.8
24539	2.	3.7	0.1	5815.3
24540	2.	3.8	0.1	5813.9
24541	2.	3.9	0.1	5812.6
24542	2.	4.	0.1	5811.5
24543	2.	4.1	0.1	5810.9
24544	2.	4.2	0.1	5810.8
24545	2.	4.3	0.1	5811.3
24546	2.	4.4	0.1	5812.7
24547	2.	4.5	0.1	5815.1
24548	2.	4.6	0.1	5818.5
24549	2.	4.7	0.1	5823.1
24550	2.	4.8	0.1	5829.
24551	2.	4.9	0.1	5836.3
24552	2.	5.	0.1	5845.
24553	2.	5.1	0.1	5855.1
24554	2.	5.2	0.1	5866.8
24555	2.	5.3	0.1	5879.9
24556	2.	5.4	0.1	5894.4
24557	2.	5.5	0.1	5910.3
24558	2.	5.6	0.1	5927.5
24559	2.	5.7	0.1	5946.
24560	2.	5.8	0.1	5965.8
24561	2.	5.9	0.1	5993.6
24562	2.1	0.1	0.1	5964.7
24563	2.1	0.2	0.1	5938.4
24564	2.1	0.3	0.1	5919.2
24565	2.1	0.4	0.1	5901.1
24566	2.1	0.5	0.1	5884.1
24567	2.1	0.6	0.1	5868.2
24568	2.1	0.7	0.1	5853.4
24569	2.1	0.8	0.1	5840.
24570	2.1	0.9	0.1	5827.7
24571	2.1	1.	0.1	5816.8
24572	2.1	1.1	0.1	5807.2
24573	2.1	1.2	0.1	5798.8
24574	2.1	1.3	0.1	5791.7
24575	2.1	1.4	0.1	5785.8
24576	2.1	1.5	0.1	5781.
24577	2.1	1.6	0.1	5777.2
24578	2.1	1.7	0.1	5774.4
24579	2.1	1.8	0.1	5772.4
24580	2.1	1.9	0.1	5771.
24581	2.1	2.	0.1	5770.3
24582	2.1	2.1	0.1	5770.
24583	2.1	2.2	0.1	5770.1
24584	2.1	2.3	0.1	5770.5
24585	2.1	2.4	0.1	5771.
24586	2.1	2.5	0.1	5771.5
24587	2.1	2.6	0.1	5772.1
24588	2.1	2.7	0.1	5772.6
24589	2.1	2.8	0.1	5773.
24590	2.1	2.9	0.1	5773.3
24591	2.1	3.	0.1	5773.4
24592	2.1	3.1	0.1	5773.3
24593	2.1	3.2	0.1	5773.
24594	2.1	3.3	0.1	5772.6
24595	2.1	3.4	0.1	5772.1
24596	2.1	3.5	0.1	5771.5
24597	2.1	3.6	0.1	5771.
24598	2.1	3.7	0.1	5770.5
24599	2.1	3.8	0.1	5770.1
24600	2.1	3.9	0.1	5770.
24601	2.1	4.	0.1	5770.3
24602	2.1	4.1	0.1	5771.
24603	2.1	4.2	0.1	5772.4
24604	2.1	4.3	0.1	5774.4
24605	2.1	4.4	0.1	5777.2
24606	2.1	4.5	0.1	5781.
24607	2.1	4.6	0.1	5785.8
24608	2.1	4.7	0.1	5791.7
24609	2.1	4.8	0.1	5798.8
24610	2.1	4.9	0.1	5807.2
24611	2.1	5.	0.1	5816.8
24612	2.1	5.1	0.1	5827.7
24613	2.1	5.2	0.1	5839.9
24614	2.1	5.3	0.1	5853.4
24615	2.1	5.4	0.1	5868.2
24616	2.1	5.5	0.1	5884.1
24617	2.1	5.6	0.1	5901.1
24618	2.1	5.7	0.1	5919.2
24619	2.1	5.8	0.1	5938.4
24620	2.1	5.9	0.1	5964.7
24621	2.2	0.1	0.1	5934.
24622	2.2	0.2	0.1	5909.
24623	2.2	0.3	0.1	5890.4
24624	2.2	0.4	0.1	5872.7
24625	2.2	0.5	0.1	5856.
24626	2.2	0.6	0.1	5840.2
24627	2.2	0.7	0.1	5825.4
24628	2.2	0.8	0.1	5811.7
24629	2.2	0.9	0.1	5799.1
24630	2.2	1.	0.1	5787.6
24631	2.2	1.1	0.1	5777.3
24632	2.2	1.2	0.1	5768.1
24633	2.2	1.3	0.1	5760.
24634	2.2	1.4	0.1	5753.1
24635	2.2	1.5	0.1	5747.2
24636	2.2	1.6	0.1	5742.2
24637	2.2	1.7	0.1	5738.2
24638	2.2	1.8	0.1	5734.9
24639	2.2	1.9	0.1	5732.4
24640	2.2	2.	0.1	5730.5
24641	2.2	2.1	0.1	5729.1
24642	2.2	2.2	0.1	5728.1
24643	2.2	2.3	0.1	5727.5
24644	2.2	2.4	0.1	5727.2
24645	2.2	2.5	0.1	5727.
24646	2.2	2.6	0.1	5727.
24647	2.2	2.7	0.1	5727.
24648	2.2	2.8	0.1	5727.1
24649	2.2	2.9	0.1	5727.1
24650	2.2	3.	0.1	5727.1
24651	2.2	3.1	0.1	5727.1
24652	2.2	3.2	0.1	5727.1
24653	2.2	3.3	0.1	5727.
24654	2.2	3.4	0.1	5727.
24655	2.2	3.5	0.1	5727.
24656	2.2	3.6	0.1	5727.2
24657	2.2	3.7	0.1	5727.5
24658	2.2	3.8	0.1	5728.1
24659	2.2	3.9	0.1	5729.1
24660	2.2	4.	0.1	5730.5
24661	2.2	4.1	0.1	5732.4
24662	2.2	4.2	0.1	5734.9
24663	2.2	4.3	0.1	5738.2
24664	2.2	4.4	0.1	5742.2
24665	2.2	4.5	0.1	5747.2
24666	2.2	4.6	0.1	5753.1
24667	2.2	4.7	0.1	5760.
24668	2.2	4.8	0.1	5768.1
24669	2.2	4.9	0.1	5777.3
24670	2.2	5.	0.1	5787.6
24671	2.2	5.1	0.1	5799.1
24672	2.2	5.2	0.1	5811.7
24673	2.2	5.3	0.1	5825.4
24674	2.2	5.4	0.1	5840.2
24675	2.2	5.5	0.1	5856.
24676	2.2	5.6	0.1	5872.7
24677	2.2	5.7	0.1	5890.4
24678	2.2	5.8	0.1	5909.
24679	2.2	5.9	0.1	5934.
24680	2.3	0.1	0.1	5901.7
24681	2.3	0.2	0.1	5878.
24682	2.3	0.3	0.1	5860.
24683	2.3	0.4	0.1	5842.7
24684	2.3	0.5	0.1	5826.3
24685	2.3	0.6	0.1	5810.7
24686	2.3	0.7	0.1	5796.
24687	2.3	0.8	0.1	5782.2
24688	2.3	0.9	0.1	5769.3
24689	2.3	1.	0.1	5757.5
24690	2.3	1.1	0.1	5746.7
24691	2.3	1.2	0.1	5736.9
24692	2.3	1.3	0.1	5728.1
24693	2.3	1.4	0.1	5720.3
24694	2.3	1.5	0.1	5713.5
24695	2.3	1.6	0.1	5707.6
24696	2.3	1.7	0.1	5702.6
24697	2.3	1.8	0.1	5698.3
24698	2.3	1.9	0.1	5694.8
24699	2.3	2.	0.1	5691.9
24700	2.3	2.1	0.1	5689.6
24701	2.3	2.2	0.1	5687.8
24702	2.3	2.3	0.1	5686.3
24703	2.3	2.4	0.1	5685.3
24704	2.3	2.5	0.1	5684.5
24705	2.3	2.6	0.1	5683.9
24706	2.3	2.7	0.1	5683.5
24707	2.3	2.8	0.1	5683.2
24708	2.3	2.9	0.1	5683.1
24709	2.3	3.	0.1	5683.1
24710	2.3	3.1	0.1	5683.1
24711	2.3	3.2	0.1	5683.2
24712	2.3	3.3	0.1	5683.5
24713	2.3	3.4	0.1	5683.9
24714	2.3	3.5	0.1	5684.5
24715	2.3	3.6	0.1	5685.3
24716	2.3	3.7	0.1	5686.3
24717	2.3	3.8	0.1	5687.8
24718	2.3	3.9	0.1	5689.6
24719	2.3	4.	0.1	5691.9
24720	2.3	4.1	0.1	5694.8
24721	2.3	4.2	0.1	5698.3
24722	2.3	4.3	0.1	5702.6
24723	2.3	4.4	0.1	5707.6
24724	2.3	4.5	0.1	5713.5
24725	2.3	4.6	0.1	5720.3
24726	2.3	4.7	0.1	5728.1
24727	2.3	4.8	0.1	5736.9
24728	2.3	4.9	0.1	5746.7
24729	2.3	5.	0.1	5757.5
24730	2.3	5.1	0.1	5769.3
24731	2.3	5.2	0.1	5782.2
24732	2.3	5.3	0.1	5796.
24733	2.3	5.4	0.1	5810.7
24734	2.3	5.5	0.1	5826.3
24735	2.3	5.6	0.1	5842.7
24736	2.3	5.7	0.1	5860.
24737	2.3	5.8	0.1	5878.
24738	2.3	5.9	0.1	5901.7
24739	2.4	0.1	0.1	5868.1
24740	2.4	0.2	0.1	5845.6
24741	2.4	0.3	0.1	5828.2
24742	2.4	0.4	0.1	5811.4
24743	2.4	0.5	0.1	5795.4
24744	2.4	0.6	0.1	5780.
24745	2.4	0.7	0.1	5765.4
24746	2.4	0.8	0.1	5751.6
24747	2.4	0.9	0.1	5738.7
24748	2.4	1.	0.1	5726.6
24749	2.4	1.1	0.1	5715.5
24750	2.4	1.2	0.1	5705.2
24751	2.4	1.3	0.1	5695.9
24752	2.4	1.4	0.1	5687.5
24753	2.4	1.5	0.1	5680.
24754	2.4	1.6	0.1	5673.4
24755	2.4	1.7	0.1	5667.6
24756	2.4	1.8	0.1	5662.5
24757	2.4	1.9	0.1	5658.2
24758	2.4	2.	0.1	5654.5
24759	2.4	2.1	0.1	5651.4
24760	2.4	2.2	0.1	5648.8
24761	2.4	2.3	0.1	5646.7
24762	2.4	2.4	0.1	5645.
24763	2.4	2.5	0.1	5643.7
24764	2.4	2.6	0.1	5642.7
24765	2.4	2.7	0.1	5641.9
24766	2.4	2.8	0.1	5641.4
24767	2.4	2.9	0.1	5641.1
24768	2.4	3.	0.1	5641.
24769	2.4	3.1	0.1	5641.1
24770	2.4	3.2	0.1	5641.4
24771	2.4	3.3	0.1	5641.9
24772	2.4	3.4	0.1	5642.7
24773	2.4	3.5	0.1	5643.7
24774	2.4	3.6	0.1	5645.
24775	2.4	3.7	0.1	5646.7
24776	2.4	3.8	0.1	5648.8
24777	2.4	3.9	0.1	5651.4
24778	2.4	4.	0.1	5654.5
24779	2.4	4.1	0.1	5658.2
24780	2.4	4.2	0.1	5662.5
24781	2.4	4.3	0.1	5667.5
24782	2.4	4.4	0.1	5673.4
24783	2.4	4.5	0.1	5680.
24784	2.4	4.6	0.1	5687.5
24785	2.4	4.7	0.1	5695.9
24786	2.4	4.8	0.1	5705.2
24787	2.4	4.9	0.1	5715.5
24788	2.4	5.	0.1	5726.6
24789	2.4	5.1	0.1	5738.7
24790	2.4	5.2	0.1	5751.6
24791	2.4	5.3	0.1	5765.4
24792	2.4	5.4	0.1	5780.
24793	2.4	5.5	0.1	5795.4
24794	2.4	5.6	0.1	5811.4
24795	2.4	5.7	0.1	5828.2
24796	2.4	5.8	0.1	5845.6
24797	2.4	5.9	0.1	5868.
24798	2.5	0.1	0.1	5833.4
24799	2.5	0.2	0.1	5812.1
24800	2.5	0.3	0.1	5795.2
24801	2.5	0.4	0.1	5779.
24802	2.5	0.5	0.1	5763.3
24803	2.5	0.6	0.1	5748.3
24804	2.5	0.7	0.1	5733.9
24805	2.5	0.8	0.1	5720.2
24806	2.5	0.9	0.1	5707.3
24807	2.5	1.	0.1	5695.1
24808	2.5	1.1	0.1	5683.7
24809	2.5	1.2	0.1	5673.2
24810	2.5	1.3	0.1	5663.5
24811	2.5	1.4	0.1	5654.7
24812	2.5	1.5	0.1	5646.7
24813	2.5	1.6	0.1	5639.5
24814	2.5	1.7	0.1	5633.
24815	2.5	1.8	0.1	5627.3
24816	2.5	1.9	0.1	5622.3
24817	2.5	2.	0.1	5618.
24818	2.5	2.1	0.1	5614.3
24819	2.5	2.2	0.1	5611.1
24820	2.5	2.3	0.1	5608.5
24821	2.5	2.4	0.1	5606.3
24822	2.5	2.5	0.1	5604.5
24823	2.5	2.6	0.1	5603.1
24824	2.5	2.7	0.1	5602.
24825	2.5	2.8	0.1	5601.3
24826	2.5	2.9	0.1	5600.9
24827	2.5	3.	0.1	5600.7
24828	2.5	3.1	0.1	5600.9
24829	2.5	3.2	0.1	5601.3
24830	2.5	3.3	0.1	5602.
24831	2.5	3.4	0.1	5603.1
24832	2.5	3.5	0.1	5604.5
24833	2.5	3.6	0.1	5606.3
24834	2.5	3.7	0.1	5608.5
24835	2.5	3.8	0.1	5611.1
24836	2.5	3.9	0.1	5614.3
24837	2.5	4.	0.1	5618.
24838	2.5	4.1	0.1	5622.3
24839	2.5	4.2	0.1	5627.3
24840	2.5	4.3	0.1	5633.
24841	2.5	4.4	0.1	5639.5
24842	2.5	4.5	0.1	5646.7
24843	2.5	4.6	0.1	5654.7
24844	2.5	4.7	0.1	5663.5
24845	2.5	4.8	0.1	5673.2
24846	2.5	4.9	0.1	5683.7
24847	2.5	5.	0.1	5695.1
24848	2.5	5.1	0.1	5707.3
24849	2.5	5.2	0.1	5720.2
24850	2.5	5.3	0.1	5733.9
24851	2.5	5.4	0.1	5748.3
24852	2.5	5.5	0.1	5763.3
24853	2.5	5.6	0.1	5779.
24854	2.5	5.7	0.1	5795.2
24855	2.5	5.8	0.1	5812.1
24856	2.5	5.9	0.1	5833.4
24857	2.6	0.1	0.1	5797.8
24858	2.6	0.2	0.1	5777.6
24859	2.6	0.3	0.1	5761.3
24860	2.6	0.4	0.1	5745.6
24861	2.6	0.5	0.1	5730.4
24862	2.6	0.6	0.1	5715.7
24863	2.6	0.7	0.1	5701.6
24864	2.6	0.8	0.1	5688.1
24865	2.6	0.9	0.1	5675.2
24866	2.6	1.	0.1	5663.1
24867	2.6	1.1	0.1	5651.6
24868	2.6	1.2	0.1	5640.9
24869	2.6	1.3	0.1	5631.
24870	2.6	1.4	0.1	5621.8
24871	2.6	1.5	0.1	5613.5
24872	2.6	1.6	0.1	5605.8
24873	2.6	1.7	0.1	5598.9
24874	2.6	1.8	0.1	5592.7
24875	2.6	1.9	0.1	5587.3
24876	2.6	2.	0.1	5582.4
24877	2.6	2.1	0.1	5578.2
24878	2.6	2.2	0.1	5574.5
24879	2.6	2.3	0.1	5571.4
24880	2.6	2.4	0.1	5568.8
24881	2.6	2.5	0.1	5566.7
24882	2.6	2.6	0.1	5565.
24883	2.6	2.7	0.1	5563.7
24884	2.6	2.8	0.1	5562.8
24885	2.6	2.9	0.1	5562.2
24886	2.6	3.	0.1	5562.
24887	2.6	3.1	0.1	5562.2
24888	2.6	3.2	0.1	5562.8
24889	2.6	3.3	0.1	5563.7
24890	2.6	3.4	0.1	5565.
24891	2.6	3.5	0.1	5566.7
24892	2.6	3.6	0.1	5568.8
24893	2.6	3.7	0.1	5571.4
24894	2.6	3.8	0.1	5574.5
24895	2.6	3.9	0.1	5578.2
24896	2.6	4.	0.1	5582.4
24897	2.6	4.1	0.1	5587.3
24898	2.6	4.2	0.1	5592.7
24899	2.6	4.3	0.1	5598.9
24900	2.6	4.4	0.1	5605.8
24901	2.6	4.5	0.1	5613.5
24902	2.6	4.6	0.1	5621.8
24903	2.6	4.7	0.1	5631.
24904	2.6	4.8	0.1	5640.9
24905	2.6	4.9	0.1	5651.6
24906	2.6	5.	0.1	5663.1
24907	2.6	5.1	0.1	5675.2
24908	2.6	5.2	0.1	5688.1
24909	2.6	5.3	0.1	5701.6
24910	2.6	5.4	0.1	5715.7
24911	2.6	5.5	0.1	5730.4
24912	2.6	5.6	0.1	5745.6
24913	2.6	5.7	0.1	5761.3
24914	2.6	5.8	0.1	5777.6
24915	2.6	5.9	0.1	5797.8
24916	2.7	0.1	0.1	5761.4
24917	2.7	0.2	0.1	5742.3
24918	2.7	0.3	0.1	5726.7
24919	2.7	0.4	0.1	5711.5
24920	2.7	0.5	0.1	5696.7
24921	2.7	0.6	0.1	5682.4
24922	2.7	0.7	0.1	5668.6
24923	2.7	0.8	0.1	5655.3
24924	2.7	0.9	0.1	5642.6
24925	2.7	1.	0.1	5630.6
24926	2.7	1.1	0.1	5619.2
24927	2.7	1.2	0.1	5608.4
24928	2.7	1.3	0.1	5598.4
24929	2.7	1.4	0.1	5589.
24930	2.7	1.5	0.1	5580.4
24931	2.7	1.6	0.1	5572.5
24932	2.7	1.7	0.1	5565.2
24933	2.7	1.8	0.1	5558.7
24934	2.7	1.9	0.1	5552.8
24935	2.7	2.	0.1	5547.6
24936	2.7	2.1	0.1	5543.
24937	2.7	2.2	0.1	5539.
24938	2.7	2.3	0.1	5535.5
24939	2.7	2.4	0.1	5532.6
24940	2.7	2.5	0.1	5530.1
24941	2.7	2.6	0.1	5528.2
24942	2.7	2.7	0.1	5526.7
24943	2.7	2.8	0.1	5525.6
24944	2.7	2.9	0.1	5525.
24945	2.7	3.	0.1	5524.8
24946	2.7	3.1	0.1	5525.
24947	2.7	3.2	0.1	5525.6
24948	2.7	3.3	0.1	5526.7
24949	2.7	3.4	0.1	5528.2
24950	2.7	3.5	0.1	5530.1
24951	2.7	3.6	0.1	5532.6
24952	2.7	3.7	0.1	5535.5
24953	2.7	3.8	0.1	5539.
24954	2.7	3.9	0.1	5543.
24955	2.7	4.	0.1	5547.6
24956	2.7	4.1	0.1	5552.8
24957	2.7	4.2	0.1	5558.7
24958	2.7	4.3	0.1	5565.2
24959	2.7	4.4	0.1	5572.5
24960	2.7	4.5	0.1	5580.4
24961	2.7	4.6	0.1	5589.
24962	2.7	4.7	0.1	5598.4
24963	2.7	4.8	0.1	5608.4
24964	2.7	4.9	0.1	5619.2
24965	2.7	5.	0.1	5630.6
24966	2.7	5.1	0.1	5642.6
24967	2.7	5.2	0.1	5655.3
24968	2.7	5.3	0.1	5668.6
24969	2.7	5.4	0.1	5682.4
24970	2.7	5.5	0.1	5696.7
24971	2.7	5.6	0.1	5711.5
24972	2.7	5.7	0.1	5726.6
24973	2.7	5.8	0.1	5742.3
24974	2.7	5.9	0.1	5761.4
24975	2.8	0.1	0.1	5724.5
24976	2.8	0.2	0.1	5706.3
24977	2.8	0.3	0.1	5691.3
24978	2.8	0.4	0.1	5676.6
24979	2.8	0.5	0.1	5662.4
24980	2.8	0.6	0.1	5648.5
24981	2.8	0.7	0.1	5635.
24982	2.8	0.8	0.1	5622.1
24983	2.8	0.9	0.1	5609.6
24984	2.8	1.	0.1	5597.7
24985	2.8	1.1	0.1	5586.4
24986	2.8	1.2	0.1	5575.7
24987	2.8	1.3	0.1	5565.6
24988	2.8	1.4	0.1	5556.2
24989	2.8	1.5	0.1	5547.4
24990	2.8	1.6	0.1	5539.3
24991	2.8	1.7	0.1	5531.9
24992	2.8	1.8	0.1	5525.1
24993	2.8	1.9	0.1	5519.
24994	2.8	2.	0.1	5513.5
24995	2.8	2.1	0.1	5508.6
24996	2.8	2.2	0.1	5504.3
24997	2.8	2.3	0.1	5500.5
24998	2.8	2.4	0.1	5497.4
24999	2.8	2.5	0.1	5494.7
25000	2.8	2.6	0.1	5492.6
25001	2.8	2.7	0.1	5490.9
25002	2.8	2.8	0.1	5489.8
25003	2.8	2.9	0.1	5489.1
25004	2.8	3.	0.1	5488.8
25005	2.8	3.1	0.1	5489.1
25006	2.8	3.2	0.1	5489.8
25007	2.8	3.3	0.1	5490.9
25008	2.8	3.4	0.1	5492.6
25009	2.8	3.5	0.1	5494.7
25010	2.8	3.6	0.1	5497.4
25011	2.8	3.7	0.1	5500.5
25012	2.8	3.8	0.1	5504.3
25013	2.8	3.9	0.1	5508.6
25014	2.8	4.	0.1	5513.5
25015	2.8	4.1	0.1	5519.
25016	2.8	4.2	0.1	5525.1
25017	2.8	4.3	0.1	5531.9
25018	2.8	4.4	0.1	5539.3
25019	2.8	4.5	0.1	5547.4
25020	2.8	4.6	0.1	5556.2
25021	2.8	4.7	0.1	5565.6
25022	2.8	4.8	0.1	5575.7
25023	2.8	4.9	0.1	5586.4
25024	2.8	5.	0.1	5597.7
25025	2.8	5.1	0.1	5609.6
25026	2.8	5.2	0.1	5622.1
25027	2.8	5.3	0.1	5635.
25028	2.8	5.4	0.1	5648.5
25029	2.8	5.5	0.1	5662.4
25030	2.8	5.6	0.1	5676.6
25031	2.8	5.7	0.1	5691.3
25032	2.8	5.8	0.1	5706.3
25033	2.8	5.9	0.1	5724.5
25034	2.9	0.1	0.1	5687.
25035	2.9	0.2	0.1	5669.8
25036	2.9	0.3	0.1	5655.4
25037	2.9	0.4	0.1	5641.3
25038	2.9	0.5	0.1	5627.5
25039	2.9	0.6	0.1	5614.1
25040	2.9	0.7	0.1	5601.
25041	2.9	0.8	0.1	5588.4
25042	2.9	0.9	0.1	5576.2
25043	2.9	1.	0.1	5564.6
25044	2.9	1.1	0.1	5553.4
25045	2.9	1.2	0.1	5542.8
25046	2.9	1.3	0.1	5532.8
25047	2.9	1.4	0.1	5523.4
25048	2.9	1.5	0.1	5514.6
25049	2.9	1.6	0.1	5506.4
25050	2.9	1.7	0.1	5498.9
25051	2.9	1.8	0.1	5492.
25052	2.9	1.9	0.1	5485.7
25053	2.9	2.	0.1	5480.
25054	2.9	2.1	0.1	5474.9
25055	2.9	2.2	0.1	5470.4
25056	2.9	2.3	0.1	5466.5
25057	2.9	2.4	0.1	5463.1
25058	2.9	2.5	0.1	5460.3
25059	2.9	2.6	0.1	5458.
25060	2.9	2.7	0.1	5456.3
25061	2.9	2.8	0.1	5455.
25062	2.9	2.9	0.1	5454.3
25063	2.9	3.	0.1	5454.
25064	2.9	3.1	0.1	5454.3
25065	2.9	3.2	0.1	5455.
25066	2.9	3.3	0.1	5456.3
25067	2.9	3.4	0.1	5458.
25068	2.9	3.5	0.1	5460.3
25069	2.9	3.6	0.1	5463.1
25070	2.9	3.7	0.1	5466.5
25071	2.9	3.8	0.1	5470.4
25072	2.9	3.9	0.1	5474.9
25073	2.9	4.	0.1	5480.
25074	2.9	4.1	0.1	5485.7
25075	2.9	4.2	0.1	5492.
25076	2.9	4.3	0.1	5498.9
25077	2.9	4.4	0.1	5506.4
25078	2.9	4.5	0.1	5514.6
25079	2.9	4.6	0.1	5523.4
25080	2.9	4.7	0.1	5532.8
25081	2.9	4.8	0.1	5542.8
25082	2.9	4.9	0.1	5553.4
25083	2.9	5.	0.1	5564.6
25084	2.9	5.1	0.1	5576.2
25085	2.9	5.2	0.1	5588.4
25086	2.9	5.3	0.1	5601.
25087	2.9	5.4	0.1	5614.1
25088	2.9	5.5	0.1	5627.5
25089	2.9	5.6	0.1	5641.3
25090	2.9	5.7	0.1	5655.4
25091	2.9	5.8	0.1	5669.8
25092	2.9	5.9	0.1	5687.
25093	3.	0.1	0.1	5649.1
25094	3.	0.2	0.1	5632.8
25095	3.	0.3	0.1	5619.
25096	3.	0.4	0.1	5605.4
25097	3.	0.5	0.1	5592.2
25098	3.	0.6	0.1	5579.2
25099	3.	0.7	0.1	5566.6
25100	3.	0.8	0.1	5554.4
25101	3.	0.9	0.1	5542.6
25102	3.	1.	0.1	5531.2
25103	3.	1.1	0.1	5520.3
25104	3.	1.2	0.1	5509.9
25105	3.	1.3	0.1	5500.
25106	3.	1.4	0.1	5490.7
25107	3.	1.5	0.1	5481.9
25108	3.	1.6	0.1	5473.8
25109	3.	1.7	0.1	5466.2
25110	3.	1.8	0.1	5459.2
25111	3.	1.9	0.1	5452.8
25112	3.	2.	0.1	5447.
25113	3.	2.1	0.1	5441.9
25114	3.	2.2	0.1	5437.2
25115	3.	2.3	0.1	5433.2
25116	3.	2.4	0.1	5429.7
25117	3.	2.5	0.1	5426.8
25118	3.	2.6	0.1	5424.4
25119	3.	2.7	0.1	5422.6
25120	3.	2.8	0.1	5421.3
25121	3.	2.9	0.1	5420.5
25122	3.	3.	0.1	5420.3
25123	3.	3.1	0.1	5420.5
25124	3.	3.2	0.1	5421.3
25125	3.	3.3	0.1	5422.6
25126	3.	3.4	0.1	5424.4
25127	3.	3.5	0.1	5426.8
25128	3.	3.6	0.1	5429.7
25129	3.	3.7	0.1	5433.2
25130	3.	3.8	0.1	5437.2
25131	3.	3.9	0.1	5441.9
25132	3.	4.	0.1	5447.
25133	3.	4.1	0.1	5452.8
25134	3.	4.2	0.1	5459.2
25135	3.	4.3	0.1	5466.2
25136	3.	4.4	0.1	5473.8
25137	3.	4.5	0.1	5481.9
25138	3.	4.6	0.1	5490.7
25139	3.	4.7	0.1	5500.
25140	3.	4.8	0.1	5509.9
25141	3.	4.9	0.1	5520.3
25142	3.	5.	0.1	5531.2
25143	3.	5.1	0.1	5542.6
25144	3.	5.2	0.1	5554.4
25145	3.	5.3	0.1	5566.6
25146	3.	5.4	0.1	5579.2
25147	3.	5.5	0.1	5592.2
25148	3.	5.6	0.1	5605.4
25149	3.	5.7	0.1	5619.
25150	3.	5.8	0.1	5632.8
25151	3.	5.9	0.1	5649.1
25152	3.1	0.1	0.1	5610.8
25153	3.1	0.2	0.1	5595.4
25154	3.1	0.3	0.1	5582.2
25155	3.1	0.4	0.1	5569.2
25156	3.1	0.5	0.1	5556.5
25157	3.1	0.6	0.1	5544.
25158	3.1	0.7	0.1	5531.9
25159	3.1	0.8	0.1	5520.1
25160	3.1	0.9	0.1	5508.6
25161	3.1	1.	0.1	5497.6
25162	3.1	1.1	0.1	5487.
25163	3.1	1.2	0.1	5476.8
25164	3.1	1.3	0.1	5467.2
25165	3.1	1.4	0.1	5458.
25166	3.1	1.5	0.1	5449.4
25167	3.1	1.6	0.1	5441.3
25168	3.1	1.7	0.1	5433.8
25169	3.1	1.8	0.1	5426.8
25170	3.1	1.9	0.1	5420.5
25171	3.1	2.	0.1	5414.6
25172	3.1	2.1	0.1	5409.4
25173	3.1	2.2	0.1	5404.8
25174	3.1	2.3	0.1	5400.7
25175	3.1	2.4	0.1	5397.1
25176	3.1	2.5	0.1	5394.2
25177	3.1	2.6	0.1	5391.7
25178	3.1	2.7	0.1	5389.9
25179	3.1	2.8	0.1	5388.5
25180	3.1	2.9	0.1	5387.7
25181	3.1	3.	0.1	5387.4
25182	3.1	3.1	0.1	5387.7
25183	3.1	3.2	0.1	5388.5
25184	3.1	3.3	0.1	5389.9
25185	3.1	3.4	0.1	5391.7
25186	3.1	3.5	0.1	5394.2
25187	3.1	3.6	0.1	5397.1
25188	3.1	3.7	0.1	5400.7
25189	3.1	3.8	0.1	5404.8
25190	3.1	3.9	0.1	5409.4
25191	3.1	4.	0.1	5414.6
25192	3.1	4.1	0.1	5420.5
25193	3.1	4.2	0.1	5426.8
25194	3.1	4.3	0.1	5433.8
25195	3.1	4.4	0.1	5441.3
25196	3.1	4.5	0.1	5449.4
25197	3.1	4.6	0.1	5458.
25198	3.1	4.7	0.1	5467.2
25199	3.1	4.8	0.1	5476.8
25200	3.1	4.9	0.1	5487.
25201	3.1	5.	0.1	5497.6
25202	3.1	5.1	0.1	5508.6
25203	3.1	5.2	0.1	5520.1
25204	3.1	5.3	0.1	5531.9
25205	3.1	5.4	0.1	5544.
25206	3.1	5.5	0.1	5556.5
25207	3.1	5.6	0.1	5569.2
25208	3.1	5.7	0.1	5582.2
25209	3.1	5.8	0.1	5595.4
25210	3.1	5.9	0.1	5610.8
25211	3.2	0.1	0.1	5572.2
25212	3.2	0.2	0.1	5557.7
25213	3.2	0.3	0.1	5545.
25214	3.2	0.4	0.1	5532.6
25215	3.2	0.5	0.1	5520.4
25216	3.2	0.6	0.1	5508.5
25217	3.2	0.7	0.1	5496.8
25218	3.2	0.8	0.1	5485.5
25219	3.2	0.9	0.1	5474.5
25220	3.2	1.	0.1	5463.8
25221	3.2	1.1	0.1	5453.6
25222	3.2	1.2	0.1	5443.7
25223	3.2	1.3	0.1	5434.3
25224	3.2	1.4	0.1	5425.4
25225	3.2	1.5	0.1	5417.
25226	3.2	1.6	0.1	5409.
25227	3.2	1.7	0.1	5401.7
25228	3.2	1.8	0.1	5394.8
25229	3.2	1.9	0.1	5388.5
25230	3.2	2.	0.1	5382.7
25231	3.2	2.1	0.1	5377.5
25232	3.2	2.2	0.1	5372.9
25233	3.2	2.3	0.1	5368.8
25234	3.2	2.4	0.1	5365.2
25235	3.2	2.5	0.1	5362.3
25236	3.2	2.6	0.1	5359.8
25237	3.2	2.7	0.1	5357.9
25238	3.2	2.8	0.1	5356.6
25239	3.2	2.9	0.1	5355.8
25240	3.2	3.	0.1	5355.5
25241	3.2	3.1	0.1	5355.8
25242	3.2	3.2	0.1	5356.6
25243	3.2	3.3	0.1	5357.9
25244	3.2	3.4	0.1	5359.8
25245	3.2	3.5	0.1	5362.3
25246	3.2	3.6	0.1	5365.2
25247	3.2	3.7	0.1	5368.8
25248	3.2	3.8	0.1	5372.9
25249	3.2	3.9	0.1	5377.5
25250	3.2	4.	0.1	5382.7
25251	3.2	4.1	0.1	5388.5
25252	3.2	4.2	0.1	5394.8
25253	3.2	4.3	0.1	5401.7
25254	3.2	4.4	0.1	5409.
25255	3.2	4.5	0.1	5417.
25256	3.2	4.6	0.1	5425.4
25257	3.2	4.7	0.1	5434.3
25258	3.2	4.8	0.1	5443.7
25259	3.2	4.9	0.1	5453.5
25260	3.2	5.	0.1	5463.8
25261	3.2	5.1	0.1	5474.5
25262	3.2	5.2	0.1	5485.5
25263	3.2	5.3	0.1	5496.8
25264	3.2	5.4	0.1	5508.5
25265	3.2	5.5	0.1	5520.4
25266	3.2	5.6	0.1	5532.6
25267	3.2	5.7	0.1	5545.
25268	3.2	5.8	0.1	5557.7
25269	3.2	5.9	0.1	5572.2
25270	3.3	0.1	0.1	5533.3
25271	3.3	0.2	0.1	5519.6
25272	3.3	0.3	0.1	5507.5
25273	3.3	0.4	0.1	5495.7
25274	3.3	0.5	0.1	5484.1
25275	3.3	0.6	0.1	5472.7
25276	3.3	0.7	0.1	5461.6
25277	3.3	0.8	0.1	5450.7
25278	3.3	0.9	0.1	5440.1
25279	3.3	1.	0.1	5429.9
25280	3.3	1.1	0.1	5420.
25281	3.3	1.2	0.1	5410.6
25282	3.3	1.3	0.1	5401.5
25283	3.3	1.4	0.1	5392.9
25284	3.3	1.5	0.1	5384.7
25285	3.3	1.6	0.1	5377.
25286	3.3	1.7	0.1	5369.8
25287	3.3	1.8	0.1	5363.1
25288	3.3	1.9	0.1	5356.9
25289	3.3	2.	0.1	5351.3
25290	3.3	2.1	0.1	5346.1
25291	3.3	2.2	0.1	5341.6
25292	3.3	2.3	0.1	5337.5
25293	3.3	2.4	0.1	5334.
25294	3.3	2.5	0.1	5331.1
25295	3.3	2.6	0.1	5328.6
25296	3.3	2.7	0.1	5326.8
25297	3.3	2.8	0.1	5325.4
25298	3.3	2.9	0.1	5324.6
25299	3.3	3.	0.1	5324.3
25300	3.3	3.1	0.1	5324.6
25301	3.3	3.2	0.1	5325.4
25302	3.3	3.3	0.1	5326.8
25303	3.3	3.4	0.1	5328.6
25304	3.3	3.5	0.1	5331.1
25305	3.3	3.6	0.1	5334.
25306	3.3	3.7	0.1	5337.5
25307	3.3	3.8	0.1	5341.6
25308	3.3	3.9	0.1	5346.1
25309	3.3	4.	0.1	5351.3
25310	3.3	4.1	0.1	5356.9
25311	3.3	4.2	0.1	5363.1
25312	3.3	4.3	0.1	5369.8
25313	3.3	4.4	0.1	5377.
25314	3.3	4.5	0.1	5384.7
25315	3.3	4.6	0.1	5392.9
25316	3.3	4.7	0.1	5401.5
25317	3.3	4.8	0.1	5410.6
25318	3.3	4.9	0.1	5420.
25319	3.3	5.	0.1	5429.9
25320	3.3	5.1	0.1	5440.1
25321	3.3	5.2	0.1	5450.7
25322	3.3	5.3	0.1	5461.6
25323	3.3	5.4	0.1	5472.7
25324	3.3	5.5	0.1	5484.1
25325	3.3	5.6	0.1	5495.7
25326	3.3	5.7	0.1	5507.5
25327	3.3	5.8	0.1	5519.6
25328	3.3	5.9	0.1	5533.3
25329	3.4	0.1	0.1	5494.2
25330	3.4	0.2	0.1	5481.2
25331	3.4	0.3	0.1	5469.8
25332	3.4	0.4	0.1	5458.5
25333	3.4	0.5	0.1	5447.5
25334	3.4	0.6	0.1	5436.6
25335	3.4	0.7	0.1	5426.
25336	3.4	0.8	0.1	5415.7
25337	3.4	0.9	0.1	5405.6
25338	3.4	1.	0.1	5395.9
25339	3.4	1.1	0.1	5386.5
25340	3.4	1.2	0.1	5377.4
25341	3.4	1.3	0.1	5368.7
25342	3.4	1.4	0.1	5360.4
25343	3.4	1.5	0.1	5352.5
25344	3.4	1.6	0.1	5345.1
25345	3.4	1.7	0.1	5338.2
25346	3.4	1.8	0.1	5331.7
25347	3.4	1.9	0.1	5325.7
25348	3.4	2.	0.1	5320.2
25349	3.4	2.1	0.1	5315.2
25350	3.4	2.2	0.1	5310.8
25351	3.4	2.3	0.1	5306.8
25352	3.4	2.4	0.1	5303.4
25353	3.4	2.5	0.1	5300.5
25354	3.4	2.6	0.1	5298.1
25355	3.4	2.7	0.1	5296.3
25356	3.4	2.8	0.1	5295.
25357	3.4	2.9	0.1	5294.2
25358	3.4	3.	0.1	5293.9
25359	3.4	3.1	0.1	5294.2
25360	3.4	3.2	0.1	5295.
25361	3.4	3.3	0.1	5296.3
25362	3.4	3.4	0.1	5298.1
25363	3.4	3.5	0.1	5300.5
25364	3.4	3.6	0.1	5303.4
25365	3.4	3.7	0.1	5306.8
25366	3.4	3.8	0.1	5310.8
25367	3.4	3.9	0.1	5315.2
25368	3.4	4.	0.1	5320.2
25369	3.4	4.1	0.1	5325.7
25370	3.4	4.2	0.1	5331.7
25371	3.4	4.3	0.1	5338.2
25372	3.4	4.4	0.1	5345.1
25373	3.4	4.5	0.1	5352.5
25374	3.4	4.6	0.1	5360.4
25375	3.4	4.7	0.1	5368.7
25376	3.4	4.8	0.1	5377.4
25377	3.4	4.9	0.1	5386.4
25378	3.4	5.	0.1	5395.9
25379	3.4	5.1	0.1	5405.6
25380	3.4	5.2	0.1	5415.7
25381	3.4	5.3	0.1	5426.
25382	3.4	5.4	0.1	5436.6
25383	3.4	5.5	0.1	5447.5
25384	3.4	5.6	0.1	5458.5
25385	3.4	5.7	0.1	5469.8
25386	3.4	5.8	0.1	5481.2
25387	3.4	5.9	0.1	5494.2
25388	3.5	0.1	0.1	5454.7
25389	3.5	0.2	0.1	5442.5
25390	3.5	0.3	0.1	5431.7
25391	3.5	0.4	0.1	5421.1
25392	3.5	0.5	0.1	5410.6
25393	3.5	0.6	0.1	5400.4
25394	3.5	0.7	0.1	5390.3
25395	3.5	0.8	0.1	5380.5
25396	3.5	0.9	0.1	5371.
25397	3.5	1.	0.1	5361.7
25398	3.5	1.1	0.1	5352.8
25399	3.5	1.2	0.1	5344.2
25400	3.5	1.3	0.1	5335.9
25401	3.5	1.4	0.1	5328.
25402	3.5	1.5	0.1	5320.5
25403	3.5	1.6	0.1	5313.4
25404	3.5	1.7	0.1	5306.8
25405	3.5	1.8	0.1	5300.6
25406	3.5	1.9	0.1	5294.9
25407	3.5	2.	0.1	5289.6
25408	3.5	2.1	0.1	5284.8
25409	3.5	2.2	0.1	5280.5
25410	3.5	2.3	0.1	5276.7
25411	3.5	2.4	0.1	5273.4
25412	3.5	2.5	0.1	5270.6
25413	3.5	2.6	0.1	5268.3
25414	3.5	2.7	0.1	5266.5
25415	3.5	2.8	0.1	5265.2
25416	3.5	2.9	0.1	5264.5
25417	3.5	3.	0.1	5264.2
25418	3.5	3.1	0.1	5264.5
25419	3.5	3.2	0.1	5265.2
25420	3.5	3.3	0.1	5266.5
25421	3.5	3.4	0.1	5268.3
25422	3.5	3.5	0.1	5270.6
25423	3.5	3.6	0.1	5273.4
25424	3.5	3.7	0.1	5276.7
25425	3.5	3.8	0.1	5280.5
25426	3.5	3.9	0.1	5284.8
25427	3.5	4.	0.1	5289.6
25428	3.5	4.1	0.1	5294.9
25429	3.5	4.2	0.1	5300.6
25430	3.5	4.3	0.1	5306.8
25431	3.5	4.4	0.1	5313.4
25432	3.5	4.5	0.1	5320.5
25433	3.5	4.6	0.1	5328.
25434	3.5	4.7	0.1	5335.9
25435	3.5	4.8	0.1	5344.2
25436	3.5	4.9	0.1	5352.8
25437	3.5	5.	0.1	5361.7
25438	3.5	5.1	0.1	5371.
25439	3.5	5.2	0.1	5380.5
25440	3.5	5.3	0.1	5390.3
25441	3.5	5.4	0.1	5400.4
25442	3.5	5.5	0.1	5410.6
25443	3.5	5.6	0.1	5421.1
25444	3.5	5.7	0.1	5431.7
25445	3.5	5.8	0.1	5442.5
25446	3.5	5.9	0.1	5454.7
25447	3.6	0.1	0.1	5415.
25448	3.6	0.2	0.1	5403.6
25449	3.6	0.3	0.1	5393.4
25450	3.6	0.4	0.1	5383.3
25451	3.6	0.5	0.1	5373.5
25452	3.6	0.6	0.1	5363.8
25453	3.6	0.7	0.1	5354.4
25454	3.6	0.8	0.1	5345.2
25455	3.6	0.9	0.1	5336.2
25456	3.6	1.	0.1	5327.5
25457	3.6	1.1	0.1	5319.1
25458	3.6	1.2	0.1	5311.
25459	3.6	1.3	0.1	5303.2
25460	3.6	1.4	0.1	5295.7
25461	3.6	1.5	0.1	5288.7
25462	3.6	1.6	0.1	5282.
25463	3.6	1.7	0.1	5275.7
25464	3.6	1.8	0.1	5269.8
25465	3.6	1.9	0.1	5264.4
25466	3.6	2.	0.1	5259.3
25467	3.6	2.1	0.1	5254.8
25468	3.6	2.2	0.1	5250.7
25469	3.6	2.3	0.1	5247.1
25470	3.6	2.4	0.1	5243.9
25471	3.6	2.5	0.1	5241.3
25472	3.6	2.6	0.1	5239.1
25473	3.6	2.7	0.1	5237.4
25474	3.6	2.8	0.1	5236.2
25475	3.6	2.9	0.1	5235.4
25476	3.6	3.	0.1	5235.2
25477	3.6	3.1	0.1	5235.4
25478	3.6	3.2	0.1	5236.2
25479	3.6	3.3	0.1	5237.4
25480	3.6	3.4	0.1	5239.1
25481	3.6	3.5	0.1	5241.3
25482	3.6	3.6	0.1	5243.9
25483	3.6	3.7	0.1	5247.1
25484	3.6	3.8	0.1	5250.7
25485	3.6	3.9	0.1	5254.8
25486	3.6	4.	0.1	5259.3
25487	3.6	4.1	0.1	5264.3
25488	3.6	4.2	0.1	5269.8
25489	3.6	4.3	0.1	5275.7
25490	3.6	4.4	0.1	5282.
25491	3.6	4.5	0.1	5288.7
25492	3.6	4.6	0.1	5295.7
25493	3.6	4.7	0.1	5303.2
25494	3.6	4.8	0.1	5311.
25495	3.6	4.9	0.1	5319.1
25496	3.6	5.	0.1	5327.5
25497	3.6	5.1	0.1	5336.2
25498	3.6	5.2	0.1	5345.2
25499	3.6	5.3	0.1	5354.4
25500	3.6	5.4	0.1	5363.8
25501	3.6	5.5	0.1	5373.5
25502	3.6	5.6	0.1	5383.3
25503	3.6	5.7	0.1	5393.4
25504	3.6	5.8	0.1	5403.6
25505	3.6	5.9	0.1	5415.
25506	3.7	0.1	0.1	5375.
25507	3.7	0.2	0.1	5364.3
25508	3.7	0.3	0.1	5354.7
25509	3.7	0.4	0.1	5345.3
25510	3.7	0.5	0.1	5336.1
25511	3.7	0.6	0.1	5327.1
25512	3.7	0.7	0.1	5318.2
25513	3.7	0.8	0.1	5309.6
25514	3.7	0.9	0.1	5301.3
25515	3.7	1.	0.1	5293.2
25516	3.7	1.1	0.1	5285.3
25517	3.7	1.2	0.1	5277.7
25518	3.7	1.3	0.1	5270.5
25519	3.7	1.4	0.1	5263.5
25520	3.7	1.5	0.1	5256.9
25521	3.7	1.6	0.1	5250.7
25522	3.7	1.7	0.1	5244.8
25523	3.7	1.8	0.1	5239.3
25524	3.7	1.9	0.1	5234.2
25525	3.7	2.	0.1	5229.5
25526	3.7	2.1	0.1	5225.2
25527	3.7	2.2	0.1	5221.4
25528	3.7	2.3	0.1	5218.
25529	3.7	2.4	0.1	5215.1
25530	3.7	2.5	0.1	5212.6
25531	3.7	2.6	0.1	5210.5
25532	3.7	2.7	0.1	5208.9
25533	3.7	2.8	0.1	5207.8
25534	3.7	2.9	0.1	5207.1
25535	3.7	3.	0.1	5206.8
25536	3.7	3.1	0.1	5207.1
25537	3.7	3.2	0.1	5207.8
25538	3.7	3.3	0.1	5208.9
25539	3.7	3.4	0.1	5210.5
25540	3.7	3.5	0.1	5212.6
25541	3.7	3.6	0.1	5215.1
25542	3.7	3.7	0.1	5218.
25543	3.7	3.8	0.1	5221.4
25544	3.7	3.9	0.1	5225.2
25545	3.7	4.	0.1	5229.5
25546	3.7	4.1	0.1	5234.2
25547	3.7	4.2	0.1	5239.3
25548	3.7	4.3	0.1	5244.8
25549	3.7	4.4	0.1	5250.7
25550	3.7	4.5	0.1	5256.9
25551	3.7	4.6	0.1	5263.5
25552	3.7	4.7	0.1	5270.5
25553	3.7	4.8	0.1	5277.7
25554	3.7	4.9	0.1	5285.3
25555	3.7	5.	0.1	5293.2
25556	3.7	5.1	0.1	5301.3
25557	3.7	5.2	0.1	5309.6
25558	3.7	5.3	0.1	5318.2
25559	3.7	5.4	0.1	5327.1
25560	3.7	5.5	0.1	5336.1
25561	3.7	5.6	0.1	5345.3
25562	3.7	5.7	0.1	5354.7
25563	3.7	5.8	0.1	5364.3
25564	3.7	5.9	0.1	5375.
25565	3.8	0.1	0.1	5334.7
25566	3.8	0.2	0.1	5324.7
25567	3.8	0.3	0.1	5315.8
25568	3.8	0.4	0.1	5307.
25569	3.8	0.5	0.1	5298.4
25570	3.8	0.6	0.1	5290.
25571	3.8	0.7	0.1	5281.9
25572	3.8	0.8	0.1	5273.9
25573	3.8	0.9	0.1	5266.2
25574	3.8	1.	0.1	5258.7
25575	3.8	1.1	0.1	5251.5
25576	3.8	1.2	0.1	5244.5
25577	3.8	1.3	0.1	5237.8
25578	3.8	1.4	0.1	5231.4
25579	3.8	1.5	0.1	5225.3
25580	3.8	1.6	0.1	5219.6
25581	3.8	1.7	0.1	5214.1
25582	3.8	1.8	0.1	5209.1
25583	3.8	1.9	0.1	5204.4
25584	3.8	2.	0.1	5200.1
25585	3.8	2.1	0.1	5196.1
25586	3.8	2.2	0.1	5192.6
25587	3.8	2.3	0.1	5189.5
25588	3.8	2.4	0.1	5186.7
25589	3.8	2.5	0.1	5184.4
25590	3.8	2.6	0.1	5182.5
25591	3.8	2.7	0.1	5181.1
25592	3.8	2.8	0.1	5180.
25593	3.8	2.9	0.1	5179.4
25594	3.8	3.	0.1	5179.2
25595	3.8	3.1	0.1	5179.4
25596	3.8	3.2	0.1	5180.
25597	3.8	3.3	0.1	5181.1
25598	3.8	3.4	0.1	5182.5
25599	3.8	3.5	0.1	5184.4
25600	3.8	3.6	0.1	5186.7
25601	3.8	3.7	0.1	5189.5
25602	3.8	3.8	0.1	5192.6
25603	3.8	3.9	0.1	5196.1
25604	3.8	4.	0.1	5200.1
25605	3.8	4.1	0.1	5204.4
25606	3.8	4.2	0.1	5209.1
25607	3.8	4.3	0.1	5214.1
25608	3.8	4.4	0.1	5219.6
25609	3.8	4.5	0.1	5225.3
25610	3.8	4.6	0.1	5231.4
25611	3.8	4.7	0.1	5237.8
25612	3.8	4.8	0.1	5244.5
25613	3.8	4.9	0.1	5251.5
25614	3.8	5.	0.1	5258.7
25615	3.8	5.1	0.1	5266.2
25616	3.8	5.2	0.1	5273.9
25617	3.8	5.3	0.1	5281.9
25618	3.8	5.4	0.1	5290.
25619	3.8	5.5	0.1	5298.4
25620	3.8	5.6	0.1	5307.
25621	3.8	5.7	0.1	5315.8
25622	3.8	5.8	0.1	5324.7
25623	3.8	5.9	0.1	5334.7
25624	3.9	0.1	0.1	5294.
25625	3.9	0.2	0.1	5284.7
25626	3.9	0.3	0.1	5276.4
25627	3.9	0.4	0.1	5268.3
25628	3.9	0.5	0.1	5260.4
25629	3.9	0.6	0.1	5252.7
25630	3.9	0.7	0.1	5245.2
25631	3.9	0.8	0.1	5238.
25632	3.9	0.9	0.1	5230.9
25633	3.9	1.	0.1	5224.1
25634	3.9	1.1	0.1	5217.5
25635	3.9	1.2	0.1	5211.2
25636	3.9	1.3	0.1	5205.1
25637	3.9	1.4	0.1	5199.3
25638	3.9	1.5	0.1	5193.8
25639	3.9	1.6	0.1	5188.6
25640	3.9	1.7	0.1	5183.7
25641	3.9	1.8	0.1	5179.2
25642	3.9	1.9	0.1	5174.9
25643	3.9	2.	0.1	5171.
25644	3.9	2.1	0.1	5167.5
25645	3.9	2.2	0.1	5164.3
25646	3.9	2.3	0.1	5161.5
25647	3.9	2.4	0.1	5159.
25648	3.9	2.5	0.1	5156.9
25649	3.9	2.6	0.1	5155.2
25650	3.9	2.7	0.1	5153.9
25651	3.9	2.8	0.1	5152.9
25652	3.9	2.9	0.1	5152.3
25653	3.9	3.	0.1	5152.2
25654	3.9	3.1	0.1	5152.3
25655	3.9	3.2	0.1	5152.9
25656	3.9	3.3	0.1	5153.9
25657	3.9	3.4	0.1	5155.2
25658	3.9	3.5	0.1	5156.9
25659	3.9	3.6	0.1	5159.
25660	3.9	3.7	0.1	5161.5
25661	3.9	3.8	0.1	5164.3
25662	3.9	3.9	0.1	5167.5
25663	3.9	4.	0.1	5171.
25664	3.9	4.1	0.1	5174.9
25665	3.9	4.2	0.1	5179.2
25666	3.9	4.3	0.1	5183.7
25667	3.9	4.4	0.1	5188.6
25668	3.9	4.5	0.1	5193.8
25669	3.9	4.6	0.1	5199.3
25670	3.9	4.7	0.1	5205.1
25671	3.9	4.8	0.1	5211.2
25672	3.9	4.9	0.1	5217.5
25673	3.9	5.	0.1	5224.1
25674	3.9	5.1	0.1	5230.9
25675	3.9	5.2	0.1	5238.
25676	3.9	5.3	0.1	5245.2
25677	3.9	5.4	0.1	5252.7
25678	3.9	5.5	0.1	5260.4
25679	3.9	5.6	0.1	5268.3
25680	3.9	5.7	0.1	5276.4
25681	3.9	5.8	0.1	5284.7
25682	3.9	5.9	0.1	5294.
25683	4.	0.1	0.1	5252.9
25684	4.	0.2	0.1	5244.3
25685	4.	0.3	0.1	5236.7
25686	4.	0.4	0.1	5229.3
25687	4.	0.5	0.1	5222.1
25688	4.	0.6	0.1	5215.1
25689	4.	0.7	0.1	5208.3
25690	4.	0.8	0.1	5201.8
25691	4.	0.9	0.1	5195.5
25692	4.	1.	0.1	5189.4
25693	4.	1.1	0.1	5183.5
25694	4.	1.2	0.1	5177.9
25695	4.	1.3	0.1	5172.5
25696	4.	1.4	0.1	5167.4
25697	4.	1.5	0.1	5162.5
25698	4.	1.6	0.1	5157.9
25699	4.	1.7	0.1	5153.6
25700	4.	1.8	0.1	5149.6
25701	4.	1.9	0.1	5145.8
25702	4.	2.	0.1	5142.4
25703	4.	2.1	0.1	5139.3
25704	4.	2.2	0.1	5136.5
25705	4.	2.3	0.1	5134.
25706	4.	2.4	0.1	5131.9
25707	4.	2.5	0.1	5130.
25708	4.	2.6	0.1	5128.5
25709	4.	2.7	0.1	5127.4
25710	4.	2.8	0.1	5126.5
25711	4.	2.9	0.1	5126.
25712	4.	3.	0.1	5125.9
25713	4.	3.1	0.1	5126.
25714	4.	3.2	0.1	5126.5
25715	4.	3.3	0.1	5127.4
25716	4.	3.4	0.1	5128.5
25717	4.	3.5	0.1	5130.
25718	4.	3.6	0.1	5131.9
25719	4.	3.7	0.1	5134.
25720	4.	3.8	0.1	5136.5
25721	4.	3.9	0.1	5139.3
25722	4.	4.	0.1	5142.4
25723	4.	4.1	0.1	5145.8
25724	4.	4.2	0.1	5149.6
25725	4.	4.3	0.1	5153.6
25726	4.	4.4	0.1	5157.9
25727	4.	4.5	0.1	5162.5
25728	4.	4.6	0.1	5167.4
25729	4.	4.7	0.1	5172.5
25730	4.	4.8	0.1	5177.9
25731	4.	4.9	0.1	5183.5
25732	4.	5.	0.1	5189.4
25733	4.	5.1	0.1	5195.5
25734	4.	5.2	0.1	5201.8
25735	4.	5.3	0.1	5208.3
25736	4.	5.4	0.1	5215.1
25737	4.	5.5	0.1	5222.1
25738	4.	5.6	0.1	5229.3
25739	4.	5.7	0.1	5236.7
25740	4.	5.8	0.1	5244.3
25741	4.	5.9	0.1	5252.9
25742	4.1	0.1	0.1	5211.2
25743	4.1	0.2	0.1	5203.4
25744	4.1	0.3	0.1	5196.5
25745	4.1	0.4	0.1	5189.8
25746	4.1	0.5	0.1	5183.3
25747	4.1	0.6	0.1	5177.1
25748	4.1	0.7	0.1	5171.1
25749	4.1	0.8	0.1	5165.3
25750	4.1	0.9	0.1	5159.8
25751	4.1	1.	0.1	5154.5
25752	4.1	1.1	0.1	5149.4
25753	4.1	1.2	0.1	5144.5
25754	4.1	1.3	0.1	5139.9
25755	4.1	1.4	0.1	5135.5
25756	4.1	1.5	0.1	5131.3
25757	4.1	1.6	0.1	5127.4
25758	4.1	1.7	0.1	5123.7
25759	4.1	1.8	0.1	5120.3
25760	4.1	1.9	0.1	5117.1
25761	4.1	2.	0.1	5114.2
25762	4.1	2.1	0.1	5111.6
25763	4.1	2.2	0.1	5109.3
25764	4.1	2.3	0.1	5107.2
25765	4.1	2.4	0.1	5105.4
25766	4.1	2.5	0.1	5103.8
25767	4.1	2.6	0.1	5102.6
25768	4.1	2.7	0.1	5101.6
25769	4.1	2.8	0.1	5100.9
25770	4.1	2.9	0.1	5100.5
25771	4.1	3.	0.1	5100.4
25772	4.1	3.1	0.1	5100.5
25773	4.1	3.2	0.1	5100.9
25774	4.1	3.3	0.1	5101.6
25775	4.1	3.4	0.1	5102.6
25776	4.1	3.5	0.1	5103.8
25777	4.1	3.6	0.1	5105.4
25778	4.1	3.7	0.1	5107.2
25779	4.1	3.8	0.1	5109.3
25780	4.1	3.9	0.1	5111.6
25781	4.1	4.	0.1	5114.2
25782	4.1	4.1	0.1	5117.1
25783	4.1	4.2	0.1	5120.3
25784	4.1	4.3	0.1	5123.7
25785	4.1	4.4	0.1	5127.4
25786	4.1	4.5	0.1	5131.3
25787	4.1	4.6	0.1	5135.5
25788	4.1	4.7	0.1	5139.9
25789	4.1	4.8	0.1	5144.5
25790	4.1	4.9	0.1	5149.4
25791	4.1	5.	0.1	5154.5
25792	4.1	5.1	0.1	5159.8
25793	4.1	5.2	0.1	5165.3
25794	4.1	5.3	0.1	5171.1
25795	4.1	5.4	0.1	5177.1
25796	4.1	5.5	0.1	5183.3
25797	4.1	5.6	0.1	5189.8
25798	4.1	5.7	0.1	5196.5
25799	4.1	5.8	0.1	5203.4
25800	4.1	5.9	0.1	5211.2
25801	4.2	0.1	0.1	5169.
25802	4.2	0.2	0.1	5162.
25803	4.2	0.3	0.1	5155.7
25804	4.2	0.4	0.1	5149.8
25805	4.2	0.5	0.1	5144.1
25806	4.2	0.6	0.1	5138.6
25807	4.2	0.7	0.1	5133.5
25808	4.2	0.8	0.1	5128.5
25809	4.2	0.9	0.1	5123.8
25810	4.2	1.	0.1	5119.3
25811	4.2	1.1	0.1	5115.1
25812	4.2	1.2	0.1	5111.
25813	4.2	1.3	0.1	5107.2
25814	4.2	1.4	0.1	5103.6
25815	4.2	1.5	0.1	5100.2
25816	4.2	1.6	0.1	5097.1
25817	4.2	1.7	0.1	5094.1
25818	4.2	1.8	0.1	5091.4
25819	4.2	1.9	0.1	5088.8
25820	4.2	2.	0.1	5086.6
25821	4.2	2.1	0.1	5084.5
25822	4.2	2.2	0.1	5082.6
25823	4.2	2.3	0.1	5081.
25824	4.2	2.4	0.1	5079.6
25825	4.2	2.5	0.1	5078.4
25826	4.2	2.6	0.1	5077.4
25827	4.2	2.7	0.1	5076.6
25828	4.2	2.8	0.1	5076.1
25829	4.2	2.9	0.1	5075.7
25830	4.2	3.	0.1	5075.6
25831	4.2	3.1	0.1	5075.7
25832	4.2	3.2	0.1	5076.1
25833	4.2	3.3	0.1	5076.6
25834	4.2	3.4	0.1	5077.4
25835	4.2	3.5	0.1	5078.4
25836	4.2	3.6	0.1	5079.6
25837	4.2	3.7	0.1	5081.
25838	4.2	3.8	0.1	5082.6
25839	4.2	3.9	0.1	5084.5
25840	4.2	4.	0.1	5086.6
25841	4.2	4.1	0.1	5088.8
25842	4.2	4.2	0.1	5091.4
25843	4.2	4.3	0.1	5094.1
25844	4.2	4.4	0.1	5097.1
25845	4.2	4.5	0.1	5100.2
25846	4.2	4.6	0.1	5103.6
25847	4.2	4.7	0.1	5107.2
25848	4.2	4.8	0.1	5111.
25849	4.2	4.9	0.1	5115.1
25850	4.2	5.	0.1	5119.3
25851	4.2	5.1	0.1	5123.8
25852	4.2	5.2	0.1	5128.5
25853	4.2	5.3	0.1	5133.5
25854	4.2	5.4	0.1	5138.6
25855	4.2	5.5	0.1	5144.1
25856	4.2	5.6	0.1	5149.8
25857	4.2	5.7	0.1	5155.7
25858	4.2	5.8	0.1	5162.
25859	4.2	5.9	0.1	5169.
25860	4.3	0.1	0.1	5126.2
25861	4.3	0.2	0.1	5119.9
25862	4.3	0.3	0.1	5114.4
25863	4.3	0.4	0.1	5109.2
25864	4.3	0.5	0.1	5104.3
25865	4.3	0.6	0.1	5099.7
25866	4.3	0.7	0.1	5095.4
25867	4.3	0.8	0.1	5091.3
25868	4.3	0.9	0.1	5087.5
25869	4.3	1.	0.1	5084.
25870	4.3	1.1	0.1	5080.6
25871	4.3	1.2	0.1	5077.5
25872	4.3	1.3	0.1	5074.6
25873	4.3	1.4	0.1	5071.8
25874	4.3	1.5	0.1	5069.3
25875	4.3	1.6	0.1	5066.9
25876	4.3	1.7	0.1	5064.8
25877	4.3	1.8	0.1	5062.8
25878	4.3	1.9	0.1	5061.
25879	4.3	2.	0.1	5059.4
25880	4.3	2.1	0.1	5057.9
25881	4.3	2.2	0.1	5056.6
25882	4.3	2.3	0.1	5055.5
25883	4.3	2.4	0.1	5054.5
25884	4.3	2.5	0.1	5053.7
25885	4.3	2.6	0.1	5053.
25886	4.3	2.7	0.1	5052.5
25887	4.3	2.8	0.1	5052.1
25888	4.3	2.9	0.1	5051.9
25889	4.3	3.	0.1	5051.8
25890	4.3	3.1	0.1	5051.9
25891	4.3	3.2	0.1	5052.1
25892	4.3	3.3	0.1	5052.5
25893	4.3	3.4	0.1	5053.
25894	4.3	3.5	0.1	5053.7
25895	4.3	3.6	0.1	5054.5
25896	4.3	3.7	0.1	5055.5
25897	4.3	3.8	0.1	5056.6
25898	4.3	3.9	0.1	5057.9
25899	4.3	4.	0.1	5059.4
25900	4.3	4.1	0.1	5061.
25901	4.3	4.2	0.1	5062.8
25902	4.3	4.3	0.1	5064.8
25903	4.3	4.4	0.1	5066.9
25904	4.3	4.5	0.1	5069.3
25905	4.3	4.6	0.1	5071.8
25906	4.3	4.7	0.1	5074.5
25907	4.3	4.8	0.1	5077.5
25908	4.3	4.9	0.1	5080.6
25909	4.3	5.	0.1	5084.
25910	4.3	5.1	0.1	5087.5
25911	4.3	5.2	0.1	5091.3
25912	4.3	5.3	0.1	5095.4
25913	4.3	5.4	0.1	5099.7
25914	4.3	5.5	0.1	5104.3
25915	4.3	5.6	0.1	5109.2
25916	4.3	5.7	0.1	5114.4
25917	4.3	5.8	0.1	5119.9
25918	4.3	5.9	0.1	5126.2
25919	4.4	0.1	0.1	5082.5
25920	4.4	0.2	0.1	5077.
25921	4.4	0.3	0.1	5072.3
25922	4.4	0.4	0.1	5067.9
25923	4.4	0.5	0.1	5063.9
25924	4.4	0.6	0.1	5060.2
25925	4.4	0.7	0.1	5056.8
25926	4.4	0.8	0.1	5053.7
25927	4.4	0.9	0.1	5050.9
25928	4.4	1.	0.1	5048.3
25929	4.4	1.1	0.1	5045.9
25930	4.4	1.2	0.1	5043.8
25931	4.4	1.3	0.1	5041.8
25932	4.4	1.4	0.1	5040.1
25933	4.4	1.5	0.1	5038.5
25934	4.4	1.6	0.1	5037.
25935	4.4	1.7	0.1	5035.8
25936	4.4	1.8	0.1	5034.6
25937	4.4	1.9	0.1	5033.6
25938	4.4	2.	0.1	5032.7
25939	4.4	2.1	0.1	5032.
25940	4.4	2.2	0.1	5031.3
25941	4.4	2.3	0.1	5030.7
25942	4.4	2.4	0.1	5030.2
25943	4.4	2.5	0.1	5029.8
25944	4.4	2.6	0.1	5029.5
25945	4.4	2.7	0.1	5029.3
25946	4.4	2.8	0.1	5029.1
25947	4.4	2.9	0.1	5029.
25948	4.4	3.	0.1	5029.
25949	4.4	3.1	0.1	5029.
25950	4.4	3.2	0.1	5029.1
25951	4.4	3.3	0.1	5029.3
25952	4.4	3.4	0.1	5029.5
25953	4.4	3.5	0.1	5029.8
25954	4.4	3.6	0.1	5030.2
25955	4.4	3.7	0.1	5030.7
25956	4.4	3.8	0.1	5031.3
25957	4.4	3.9	0.1	5032.
25958	4.4	4.	0.1	5032.7
25959	4.4	4.1	0.1	5033.6
25960	4.4	4.2	0.1	5034.6
25961	4.4	4.3	0.1	5035.8
25962	4.4	4.4	0.1	5037.
25963	4.4	4.5	0.1	5038.5
25964	4.4	4.6	0.1	5040.1
25965	4.4	4.7	0.1	5041.8
25966	4.4	4.8	0.1	5043.8
25967	4.4	4.9	0.1	5045.9
25968	4.4	5.	0.1	5048.3
25969	4.4	5.1	0.1	5050.9
25970	4.4	5.2	0.1	5053.7
25971	4.4	5.3	0.1	5056.8
25972	4.4	5.4	0.1	5060.2
25973	4.4	5.5	0.1	5063.9
25974	4.4	5.6	0.1	5067.9
25975	4.4	5.7	0.1	5072.3
25976	4.4	5.8	0.1	5077.
25977	4.4	5.9	0.1	5082.5
25978	4.5	0.1	0.1	5038.
25979	4.5	0.2	0.1	5033.2
25980	4.5	0.3	0.1	5029.3
25981	4.5	0.4	0.1	5025.8
25982	4.5	0.5	0.1	5022.7
25983	4.5	0.6	0.1	5020.
25984	4.5	0.7	0.1	5017.6
25985	4.5	0.8	0.1	5015.5
25986	4.5	0.9	0.1	5013.8
25987	4.5	1.	0.1	5012.2
25988	4.5	1.1	0.1	5011.
25989	4.5	1.2	0.1	5009.9
25990	4.5	1.3	0.1	5009.
25991	4.5	1.4	0.1	5008.3
25992	4.5	1.5	0.1	5007.8
25993	4.5	1.6	0.1	5007.4
25994	4.5	1.7	0.1	5007.1
25995	4.5	1.8	0.1	5006.9
25996	4.5	1.9	0.1	5006.8
25997	4.5	2.	0.1	5006.7
25998	4.5	2.1	0.1	5006.7
25999	4.5	2.2	0.1	5006.7
26000	4.5	2.3	0.1	5006.8
26001	4.5	2.4	0.1	5006.9
26002	4.5	2.5	0.1	5007.
26003	4.5	2.6	0.1	5007.1
26004	4.5	2.7	0.1	5007.1
26005	4.5	2.8	0.1	5007.2
26006	4.5	2.9	0.1	5007.2
26007	4.5	3.	0.1	5007.2
26008	4.5	3.1	0.1	5007.2
26009	4.5	3.2	0.1	5007.2
26010	4.5	3.3	0.1	5007.1
26011	4.5	3.4	0.1	5007.1
26012	4.5	3.5	0.1	5007.
26013	4.5	3.6	0.1	5006.9
26014	4.5	3.7	0.1	5006.8
26015	4.5	3.8	0.1	5006.7
26016	4.5	3.9	0.1	5006.7
26017	4.5	4.	0.1	5006.7
26018	4.5	4.1	0.1	5006.8
26019	4.5	4.2	0.1	5006.9
26020	4.5	4.3	0.1	5007.1
26021	4.5	4.4	0.1	5007.4
26022	4.5	4.5	0.1	5007.8
26023	4.5	4.6	0.1	5008.3
26024	4.5	4.7	0.1	5009.
26025	4.5	4.8	0.1	5009.9
26026	4.5	4.9	0.1	5011.
26027	4.5	5.	0.1	5012.2
26028	4.5	5.1	0.1	5013.8
26029	4.5	5.2	0.1	5015.5
26030	4.5	5.3	0.1	5017.6
26031	4.5	5.4	0.1	5020.
26032	4.5	5.5	0.1	5022.7
26033	4.5	5.6	0.1	5025.8
26034	4.5	5.7	0.1	5029.3
26035	4.5	5.8	0.1	5033.2
26036	4.5	5.9	0.1	5038.
26037	4.6	0.1	0.1	4992.4
26038	4.6	0.2	0.1	4988.5
26039	4.6	0.3	0.1	4985.4
26040	4.6	0.4	0.1	4982.8
26041	4.6	0.5	0.1	4980.7
26042	4.6	0.6	0.1	4979.
26043	4.6	0.7	0.1	4977.7
26044	4.6	0.8	0.1	4976.7
26045	4.6	0.9	0.1	4976.1
26046	4.6	1.	0.1	4975.8
26047	4.6	1.1	0.1	4975.7
26048	4.6	1.2	0.1	4975.8
26049	4.6	1.3	0.1	4976.1
26050	4.6	1.4	0.1	4976.6
26051	4.6	1.5	0.1	4977.2
26052	4.6	1.6	0.1	4977.9
26053	4.6	1.7	0.1	4978.7
26054	4.6	1.8	0.1	4979.6
26055	4.6	1.9	0.1	4980.5
26056	4.6	2.	0.1	4981.4
26057	4.6	2.1	0.1	4982.2
26058	4.6	2.2	0.1	4983.1
26059	4.6	2.3	0.1	4983.8
26060	4.6	2.4	0.1	4984.6
26061	4.6	2.5	0.1	4985.2
26062	4.6	2.6	0.1	4985.7
26063	4.6	2.7	0.1	4986.2
26064	4.6	2.8	0.1	4986.5
26065	4.6	2.9	0.1	4986.7
26066	4.6	3.	0.1	4986.7
26067	4.6	3.1	0.1	4986.7
26068	4.6	3.2	0.1	4986.5
26069	4.6	3.3	0.1	4986.2
26070	4.6	3.4	0.1	4985.7
26071	4.6	3.5	0.1	4985.2
26072	4.6	3.6	0.1	4984.6
26073	4.6	3.7	0.1	4983.8
26074	4.6	3.8	0.1	4983.1
26075	4.6	3.9	0.1	4982.2
26076	4.6	4.	0.1	4981.4
26077	4.6	4.1	0.1	4980.5
26078	4.6	4.2	0.1	4979.6
26079	4.6	4.3	0.1	4978.7
26080	4.6	4.4	0.1	4977.9
26081	4.6	4.5	0.1	4977.2
26082	4.6	4.6	0.1	4976.6
26083	4.6	4.7	0.1	4976.1
26084	4.6	4.8	0.1	4975.8
26085	4.6	4.9	0.1	4975.7
26086	4.6	5.	0.1	4975.8
26087	4.6	5.1	0.1	4976.1
26088	4.6	5.2	0.1	4976.7
26089	4.6	5.3	0.1	4977.7
26090	4.6	5.4	0.1	4979.
26091	4.6	5.5	0.1	4980.7
26092	4.6	5.6	0.1	4982.8
26093	4.6	5.7	0.1	4985.4
26094	4.6	5.8	0.1	4988.5
26095	4.6	5.9	0.1	4992.4
26096	4.7	0.1	0.1	4945.6
26097	4.7	0.2	0.1	4942.5
26098	4.7	0.3	0.1	4940.3
26099	4.7	0.4	0.1	4938.7
26100	4.7	0.5	0.1	4937.6
26101	4.7	0.6	0.1	4937.1
26102	4.7	0.7	0.1	4936.9
26103	4.7	0.8	0.1	4937.2
26104	4.7	0.9	0.1	4937.8
26105	4.7	1.	0.1	4938.8
26106	4.7	1.1	0.1	4940.
26107	4.7	1.2	0.1	4941.4
26108	4.7	1.3	0.1	4943.1
26109	4.7	1.4	0.1	4944.9
26110	4.7	1.5	0.1	4946.8
26111	4.7	1.6	0.1	4948.8
26112	4.7	1.7	0.1	4950.8
26113	4.7	1.8	0.1	4952.8
26114	4.7	1.9	0.1	4954.8
26115	4.7	2.	0.1	4956.8
26116	4.7	2.1	0.1	4958.6
26117	4.7	2.2	0.1	4960.3
26118	4.7	2.3	0.1	4961.9
26119	4.7	2.4	0.1	4963.4
26120	4.7	2.5	0.1	4964.6
26121	4.7	2.6	0.1	4965.7
26122	4.7	2.7	0.1	4966.5
26123	4.7	2.8	0.1	4967.1
26124	4.7	2.9	0.1	4967.5
26125	4.7	3.	0.1	4967.6
26126	4.7	3.1	0.1	4967.5
26127	4.7	3.2	0.1	4967.1
26128	4.7	3.3	0.1	4966.5
26129	4.7	3.4	0.1	4965.7
26130	4.7	3.5	0.1	4964.6
26131	4.7	3.6	0.1	4963.4
26132	4.7	3.7	0.1	4961.9
26133	4.7	3.8	0.1	4960.3
26134	4.7	3.9	0.1	4958.6
26135	4.7	4.	0.1	4956.8
26136	4.7	4.1	0.1	4954.8
26137	4.7	4.2	0.1	4952.8
26138	4.7	4.3	0.1	4950.8
26139	4.7	4.4	0.1	4948.8
26140	4.7	4.5	0.1	4946.8
26141	4.7	4.6	0.1	4944.9
26142	4.7	4.7	0.1	4943.1
26143	4.7	4.8	0.1	4941.4
26144	4.7	4.9	0.1	4940.
26145	4.7	5.	0.1	4938.8
26146	4.7	5.1	0.1	4937.8
26147	4.7	5.2	0.1	4937.2
26148	4.7	5.3	0.1	4936.9
26149	4.7	5.4	0.1	4937.1
26150	4.7	5.5	0.1	4937.6
26151	4.7	5.6	0.1	4938.7
26152	4.7	5.7	0.1	4940.3
26153	4.7	5.8	0.1	4942.5
26154	4.7	5.9	0.1	4945.6
26155	4.8	0.1	0.1	4897.4
26156	4.8	0.2	0.1	4895.2
26157	4.8	0.3	0.1	4893.9
26158	4.8	0.4	0.1	4893.4
26159	4.8	0.5	0.1	4893.4
26160	4.8	0.6	0.1	4894.1
26161	4.8	0.7	0.1	4895.2
26162	4.8	0.8	0.1	4896.8
26163	4.8	0.9	0.1	4898.8
26164	4.8	1.	0.1	4901.2
26165	4.8	1.1	0.1	4903.8
26166	4.8	1.2	0.1	4906.8
26167	4.8	1.3	0.1	4909.9
26168	4.8	1.4	0.1	4913.1
26169	4.8	1.5	0.1	4916.5
26170	4.8	1.6	0.1	4919.9
26171	4.8	1.7	0.1	4923.3
26172	4.8	1.8	0.1	4926.6
26173	4.8	1.9	0.1	4929.9
26174	4.8	2.	0.1	4933.
26175	4.8	2.1	0.1	4936.
26176	4.8	2.2	0.1	4938.7
26177	4.8	2.3	0.1	4941.2
26178	4.8	2.4	0.1	4943.5
26179	4.8	2.5	0.1	4945.4
26180	4.8	2.6	0.1	4947.
26181	4.8	2.7	0.1	4948.3
26182	4.8	2.8	0.1	4949.3
26183	4.8	2.9	0.1	4949.8
26184	4.8	3.	0.1	4950.
26185	4.8	3.1	0.1	4949.8
26186	4.8	3.2	0.1	4949.3
26187	4.8	3.3	0.1	4948.3
26188	4.8	3.4	0.1	4947.
26189	4.8	3.5	0.1	4945.4
26190	4.8	3.6	0.1	4943.5
26191	4.8	3.7	0.1	4941.2
26192	4.8	3.8	0.1	4938.7
26193	4.8	3.9	0.1	4936.
26194	4.8	4.	0.1	4933.
26195	4.8	4.1	0.1	4929.9
26196	4.8	4.2	0.1	4926.6
26197	4.8	4.3	0.1	4923.3
26198	4.8	4.4	0.1	4919.9
26199	4.8	4.5	0.1	4916.5
26200	4.8	4.6	0.1	4913.1
26201	4.8	4.7	0.1	4909.9
26202	4.8	4.8	0.1	4906.8
26203	4.8	4.9	0.1	4903.8
26204	4.8	5.	0.1	4901.2
26205	4.8	5.1	0.1	4898.8
26206	4.8	5.2	0.1	4896.8
26207	4.8	5.3	0.1	4895.2
26208	4.8	5.4	0.1	4894.1
26209	4.8	5.5	0.1	4893.4
26210	4.8	5.6	0.1	4893.4
26211	4.8	5.7	0.1	4893.9
26212	4.8	5.8	0.1	4895.2
26213	4.8	5.9	0.1	4897.4
26214	4.9	0.1	0.1	4847.5
26215	4.9	0.2	0.1	4846.3
26216	4.9	0.3	0.1	4846.1
26217	4.9	0.4	0.1	4846.6
26218	4.9	0.5	0.1	4847.9
26219	4.9	0.6	0.1	4849.8
26220	4.9	0.7	0.1	4852.4
26221	4.9	0.8	0.1	4855.4
26222	4.9	0.9	0.1	4859.
26223	4.9	1.	0.1	4862.9
26224	4.9	1.1	0.1	4867.1
26225	4.9	1.2	0.1	4871.7
26226	4.9	1.3	0.1	4876.4
26227	4.9	1.4	0.1	4881.3
26228	4.9	1.5	0.1	4886.3
26229	4.9	1.6	0.1	4891.2
26230	4.9	1.7	0.1	4896.2
26231	4.9	1.8	0.1	4901.
26232	4.9	1.9	0.1	4905.7
26233	4.9	2.	0.1	4910.2
26234	4.9	2.1	0.1	4914.4
26235	4.9	2.2	0.1	4918.3
26236	4.9	2.3	0.1	4921.9
26237	4.9	2.4	0.1	4925.
26238	4.9	2.5	0.1	4927.8
26239	4.9	2.6	0.1	4930.1
26240	4.9	2.7	0.1	4931.9
26241	4.9	2.8	0.1	4933.2
26242	4.9	2.9	0.1	4934.
26243	4.9	3.	0.1	4934.2
26244	4.9	3.1	0.1	4934.
26245	4.9	3.2	0.1	4933.2
26246	4.9	3.3	0.1	4931.9
26247	4.9	3.4	0.1	4930.1
26248	4.9	3.5	0.1	4927.8
26249	4.9	3.6	0.1	4925.
26250	4.9	3.7	0.1	4921.9
26251	4.9	3.8	0.1	4918.3
26252	4.9	3.9	0.1	4914.4
26253	4.9	4.	0.1	4910.2
26254	4.9	4.1	0.1	4905.7
26255	4.9	4.2	0.1	4901.
26256	4.9	4.3	0.1	4896.2
26257	4.9	4.4	0.1	4891.2
26258	4.9	4.5	0.1	4886.3
26259	4.9	4.6	0.1	4881.3
26260	4.9	4.7	0.1	4876.4
26261	4.9	4.8	0.1	4871.7
26262	4.9	4.9	0.1	4867.1
26263	4.9	5.	0.1	4862.9
26264	4.9	5.1	0.1	4858.9
26265	4.9	5.2	0.1	4855.4
26266	4.9	5.3	0.1	4852.4
26267	4.9	5.4	0.1	4849.8
26268	4.9	5.5	0.1	4847.9
26269	4.9	5.6	0.1	4846.6
26270	4.9	5.7	0.1	4846.1
26271	4.9	5.8	0.1	4846.3
26272	4.9	5.9	0.1	4847.5
26273	5.	0.1	0.1	4795.9
26274	5.	0.2	0.1	4795.6
26275	5.	0.3	0.1	4796.5
26276	5.	0.4	0.1	4798.2
26277	5.	0.5	0.1	4800.8
26278	5.	0.6	0.1	4804.2
26279	5.	0.7	0.1	4808.2
26280	5.	0.8	0.1	4812.9
26281	5.	0.9	0.1	4818.1
26282	5.	1.	0.1	4823.7
26283	5.	1.1	0.1	4829.8
26284	5.	1.2	0.1	4836.1
26285	5.	1.3	0.1	4842.7
26286	5.	1.4	0.1	4849.4
26287	5.	1.5	0.1	4856.2
26288	5.	1.6	0.1	4862.9
26289	5.	1.7	0.1	4869.6
26290	5.	1.8	0.1	4876.1
26291	5.	1.9	0.1	4882.4
26292	5.	2.	0.1	4888.4
26293	5.	2.1	0.1	4894.
26294	5.	2.2	0.1	4899.3
26295	5.	2.3	0.1	4904.
26296	5.	2.4	0.1	4908.2
26297	5.	2.5	0.1	4911.9
26298	5.	2.6	0.1	4914.9
26299	5.	2.7	0.1	4917.3
26300	5.	2.8	0.1	4919.1
26301	5.	2.9	0.1	4920.1
26302	5.	3.	0.1	4920.5
26303	5.	3.1	0.1	4920.1
26304	5.	3.2	0.1	4919.1
26305	5.	3.3	0.1	4917.3
26306	5.	3.4	0.1	4914.9
26307	5.	3.5	0.1	4911.9
26308	5.	3.6	0.1	4908.2
26309	5.	3.7	0.1	4904.
26310	5.	3.8	0.1	4899.3
26311	5.	3.9	0.1	4894.
26312	5.	4.	0.1	4888.4
26313	5.	4.1	0.1	4882.4
26314	5.	4.2	0.1	4876.1
26315	5.	4.3	0.1	4869.6
26316	5.	4.4	0.1	4862.9
26317	5.	4.5	0.1	4856.2
26318	5.	4.6	0.1	4849.4
26319	5.	4.7	0.1	4842.7
26320	5.	4.8	0.1	4836.1
26321	5.	4.9	0.1	4829.8
26322	5.	5.	0.1	4823.7
26323	5.	5.1	0.1	4818.1
26324	5.	5.2	0.1	4812.9
26325	5.	5.3	0.1	4808.2
26326	5.	5.4	0.1	4804.2
26327	5.	5.5	0.1	4800.8
26328	5.	5.6	0.1	4798.2
26329	5.	5.7	0.1	4796.5
26330	5.	5.8	0.1	4795.6
26331	5.	5.9	0.1	4795.9
26332	5.1	0.1	0.1	4742.1
26333	5.1	0.2	0.1	4742.9
26334	5.1	0.3	0.1	4744.9
26335	5.1	0.4	0.1	4748.
26336	5.1	0.5	0.1	4752.
26337	5.1	0.6	0.1	4756.9
26338	5.1	0.7	0.1	4762.6
26339	5.1	0.8	0.1	4769.
26340	5.1	0.9	0.1	4776.1
26341	5.1	1.	0.1	4783.6
26342	5.1	1.1	0.1	4791.6
26343	5.1	1.2	0.1	4800.
26344	5.1	1.3	0.1	4808.6
26345	5.1	1.4	0.1	4817.4
26346	5.1	1.5	0.1	4826.2
26347	5.1	1.6	0.1	4835.
26348	5.1	1.7	0.1	4843.6
26349	5.1	1.8	0.1	4852.
26350	5.1	1.9	0.1	4860.1
26351	5.1	2.	0.1	4867.8
26352	5.1	2.1	0.1	4875.1
26353	5.1	2.2	0.1	4881.8
26354	5.1	2.3	0.1	4887.9
26355	5.1	2.4	0.1	4893.3
26356	5.1	2.5	0.1	4898.
26357	5.1	2.6	0.1	4901.9
26358	5.1	2.7	0.1	4905.
26359	5.1	2.8	0.1	4907.2
26360	5.1	2.9	0.1	4908.6
26361	5.1	3.	0.1	4909.
26362	5.1	3.1	0.1	4908.6
26363	5.1	3.2	0.1	4907.2
26364	5.1	3.3	0.1	4905.
26365	5.1	3.4	0.1	4901.9
26366	5.1	3.5	0.1	4898.
26367	5.1	3.6	0.1	4893.3
26368	5.1	3.7	0.1	4887.9
26369	5.1	3.8	0.1	4881.8
26370	5.1	3.9	0.1	4875.1
26371	5.1	4.	0.1	4867.8
26372	5.1	4.1	0.1	4860.1
26373	5.1	4.2	0.1	4852.
26374	5.1	4.3	0.1	4843.6
26375	5.1	4.4	0.1	4835.
26376	5.1	4.5	0.1	4826.2
26377	5.1	4.6	0.1	4817.4
26378	5.1	4.7	0.1	4808.6
26379	5.1	4.8	0.1	4800.
26380	5.1	4.9	0.1	4791.6
26381	5.1	5.	0.1	4783.6
26382	5.1	5.1	0.1	4776.1
26383	5.1	5.2	0.1	4769.
26384	5.1	5.3	0.1	4762.6
26385	5.1	5.4	0.1	4756.9
26386	5.1	5.5	0.1	4752.
26387	5.1	5.6	0.1	4748.
26388	5.1	5.7	0.1	4744.9
26389	5.1	5.8	0.1	4742.9
26390	5.1	5.9	0.1	4742.1
26391	5.2	0.1	0.1	4685.9
26392	5.2	0.2	0.1	4687.8
26393	5.2	0.3	0.1	4691.1
26394	5.2	0.4	0.1	4695.5
26395	5.2	0.5	0.1	4701.1
26396	5.2	0.6	0.1	4707.7
26397	5.2	0.7	0.1	4715.3
26398	5.2	0.8	0.1	4723.6
26399	5.2	0.9	0.1	4732.7
26400	5.2	1.	0.1	4742.4
26401	5.2	1.1	0.1	4752.6
26402	5.2	1.2	0.1	4763.2
26403	5.2	1.3	0.1	4774.1
26404	5.2	1.4	0.1	4785.2
26405	5.2	1.5	0.1	4796.3
26406	5.2	1.6	0.1	4807.3
26407	5.2	1.7	0.1	4818.2
26408	5.2	1.8	0.1	4828.8
26409	5.2	1.9	0.1	4839.
26410	5.2	2.	0.1	4848.6
26411	5.2	2.1	0.1	4857.7
26412	5.2	2.2	0.1	4866.1
26413	5.2	2.3	0.1	4873.8
26414	5.2	2.4	0.1	4880.5
26415	5.2	2.5	0.1	4886.4
26416	5.2	2.6	0.1	4891.3
26417	5.2	2.7	0.1	4895.2
26418	5.2	2.8	0.1	4898.
26419	5.2	2.9	0.1	4899.6
26420	5.2	3.	0.1	4900.2
26421	5.2	3.1	0.1	4899.6
26422	5.2	3.2	0.1	4898.
26423	5.2	3.3	0.1	4895.2
26424	5.2	3.4	0.1	4891.3
26425	5.2	3.5	0.1	4886.4
26426	5.2	3.6	0.1	4880.5
26427	5.2	3.7	0.1	4873.8
26428	5.2	3.8	0.1	4866.1
26429	5.2	3.9	0.1	4857.7
26430	5.2	4.	0.1	4848.6
26431	5.2	4.1	0.1	4839.
26432	5.2	4.2	0.1	4828.8
26433	5.2	4.3	0.1	4818.2
26434	5.2	4.4	0.1	4807.3
26435	5.2	4.5	0.1	4796.3
26436	5.2	4.6	0.1	4785.2
26437	5.2	4.7	0.1	4774.1
26438	5.2	4.8	0.1	4763.2
26439	5.2	4.9	0.1	4752.6
26440	5.2	5.	0.1	4742.4
26441	5.2	5.1	0.1	4732.7
26442	5.2	5.2	0.1	4723.6
26443	5.2	5.3	0.1	4715.3
26444	5.2	5.4	0.1	4707.7
26445	5.2	5.5	0.1	4701.1
26446	5.2	5.6	0.1	4695.5
26447	5.2	5.7	0.1	4691.1
26448	5.2	5.8	0.1	4687.8
26449	5.2	5.9	0.1	4685.9
26450	5.3	0.1	0.1	4627.
26451	5.3	0.2	0.1	4630.
26452	5.3	0.3	0.1	4634.7
26453	5.3	0.4	0.1	4640.7
26454	5.3	0.5	0.1	4647.9
26455	5.3	0.6	0.1	4656.4
26456	5.3	0.7	0.1	4665.9
26457	5.3	0.8	0.1	4676.4
26458	5.3	0.9	0.1	4687.8
26459	5.3	1.	0.1	4699.9
26460	5.3	1.1	0.1	4712.6
26461	5.3	1.2	0.1	4725.7
26462	5.3	1.3	0.1	4739.2
26463	5.3	1.4	0.1	4752.8
26464	5.3	1.5	0.1	4766.5
26465	5.3	1.6	0.1	4780.1
26466	5.3	1.7	0.1	4793.5
26467	5.3	1.8	0.1	4806.5
26468	5.3	1.9	0.1	4819.
26469	5.3	2.	0.1	4830.9
26470	5.3	2.1	0.1	4842.1
26471	5.3	2.2	0.1	4852.5
26472	5.3	2.3	0.1	4861.9
26473	5.3	2.4	0.1	4870.2
26474	5.3	2.5	0.1	4877.4
26475	5.3	2.6	0.1	4883.5
26476	5.3	2.7	0.1	4888.2
26477	5.3	2.8	0.1	4891.6
26478	5.3	2.9	0.1	4893.7
26479	5.3	3.	0.1	4894.4
26480	5.3	3.1	0.1	4893.7
26481	5.3	3.2	0.1	4891.6
26482	5.3	3.3	0.1	4888.2
26483	5.3	3.4	0.1	4883.5
26484	5.3	3.5	0.1	4877.4
26485	5.3	3.6	0.1	4870.2
26486	5.3	3.7	0.1	4861.9
26487	5.3	3.8	0.1	4852.5
26488	5.3	3.9	0.1	4842.1
26489	5.3	4.	0.1	4830.9
26490	5.3	4.1	0.1	4819.
26491	5.3	4.2	0.1	4806.5
26492	5.3	4.3	0.1	4793.5
26493	5.3	4.4	0.1	4780.1
26494	5.3	4.5	0.1	4766.5
26495	5.3	4.6	0.1	4752.8
26496	5.3	4.7	0.1	4739.2
26497	5.3	4.8	0.1	4725.7
26498	5.3	4.9	0.1	4712.6
26499	5.3	5.	0.1	4699.9
26500	5.3	5.1	0.1	4687.8
26501	5.3	5.2	0.1	4676.4
26502	5.3	5.3	0.1	4665.9
26503	5.3	5.4	0.1	4656.4
26504	5.3	5.5	0.1	4647.9
26505	5.3	5.6	0.1	4640.7
26506	5.3	5.7	0.1	4634.7
26507	5.3	5.8	0.1	4630.
26508	5.3	5.9	0.1	4627.
26509	5.4	0.1	0.1	4565.
26510	5.4	0.2	0.1	4569.3
26511	5.4	0.3	0.1	4575.4
26512	5.4	0.4	0.1	4583.
26513	5.4	0.5	0.1	4592.1
26514	5.4	0.6	0.1	4602.6
26515	5.4	0.7	0.1	4614.4
26516	5.4	0.8	0.1	4627.2
26517	5.4	0.9	0.1	4641.1
26518	5.4	1.	0.1	4655.9
26519	5.4	1.1	0.1	4671.3
26520	5.4	1.2	0.1	4687.3
26521	5.4	1.3	0.1	4703.6
26522	5.4	1.4	0.1	4720.2
26523	5.4	1.5	0.1	4736.8
26524	5.4	1.6	0.1	4753.3
26525	5.4	1.7	0.1	4769.6
26526	5.4	1.8	0.1	4785.4
26527	5.4	1.9	0.1	4800.5
26528	5.4	2.	0.1	4815.
26529	5.4	2.1	0.1	4828.6
26530	5.4	2.2	0.1	4841.1
26531	5.4	2.3	0.1	4852.5
26532	5.4	2.4	0.1	4862.7
26533	5.4	2.5	0.1	4871.4
26534	5.4	2.6	0.1	4878.8
26535	5.4	2.7	0.1	4884.5
26536	5.4	2.8	0.1	4888.7
26537	5.4	2.9	0.1	4891.3
26538	5.4	3.	0.1	4892.1
26539	5.4	3.1	0.1	4891.3
26540	5.4	3.2	0.1	4888.7
26541	5.4	3.3	0.1	4884.5
26542	5.4	3.4	0.1	4878.8
26543	5.4	3.5	0.1	4871.4
26544	5.4	3.6	0.1	4862.7
26545	5.4	3.7	0.1	4852.5
26546	5.4	3.8	0.1	4841.1
26547	5.4	3.9	0.1	4828.6
26548	5.4	4.	0.1	4815.
26549	5.4	4.1	0.1	4800.5
26550	5.4	4.2	0.1	4785.4
26551	5.4	4.3	0.1	4769.6
26552	5.4	4.4	0.1	4753.3
26553	5.4	4.5	0.1	4736.8
26554	5.4	4.6	0.1	4720.2
26555	5.4	4.7	0.1	4703.6
26556	5.4	4.8	0.1	4687.3
26557	5.4	4.9	0.1	4671.3
26558	5.4	5.	0.1	4655.9
26559	5.4	5.1	0.1	4641.1
26560	5.4	5.2	0.1	4627.2
26561	5.4	5.3	0.1	4614.4
26562	5.4	5.4	0.1	4602.6
26563	5.4	5.5	0.1	4592.1
26564	5.4	5.6	0.1	4583.
26565	5.4	5.7	0.1	4575.3
26566	5.4	5.8	0.1	4569.3
26567	5.4	5.9	0.1	4565.
26568	5.5	0.1	0.1	4499.5
26569	5.5	0.2	0.1	4505.1
26570	5.5	0.3	0.1	4512.7
26571	5.5	0.4	0.1	4522.2
26572	5.5	0.5	0.1	4533.3
26573	5.5	0.6	0.1	4546.
26574	5.5	0.7	0.1	4560.2
26575	5.5	0.8	0.1	4575.7
26576	5.5	0.9	0.1	4592.4
26577	5.5	1.	0.1	4610.1
26578	5.5	1.1	0.1	4628.6
26579	5.5	1.2	0.1	4647.8
26580	5.5	1.3	0.1	4667.4
26581	5.5	1.4	0.1	4687.3
26582	5.5	1.5	0.1	4707.2
26583	5.5	1.6	0.1	4727.
26584	5.5	1.7	0.1	4746.5
26585	5.5	1.8	0.1	4765.4
26586	5.5	1.9	0.1	4783.7
26587	5.5	2.	0.1	4801.
26588	5.5	2.1	0.1	4817.3
26589	5.5	2.2	0.1	4832.4
26590	5.5	2.3	0.1	4846.1
26591	5.5	2.4	0.1	4858.3
26592	5.5	2.5	0.1	4868.9
26593	5.5	2.6	0.1	4877.7
26594	5.5	2.7	0.1	4884.6
26595	5.5	2.8	0.1	4889.7
26596	5.5	2.9	0.1	4892.7
26597	5.5	3.	0.1	4893.7
26598	5.5	3.1	0.1	4892.7
26599	5.5	3.2	0.1	4889.7
26600	5.5	3.3	0.1	4884.6
26601	5.5	3.4	0.1	4877.7
26602	5.5	3.5	0.1	4868.9
26603	5.5	3.6	0.1	4858.3
26604	5.5	3.7	0.1	4846.1
26605	5.5	3.8	0.1	4832.4
26606	5.5	3.9	0.1	4817.3
26607	5.5	4.	0.1	4801.
26608	5.5	4.1	0.1	4783.7
26609	5.5	4.2	0.1	4765.4
26610	5.5	4.3	0.1	4746.5
26611	5.5	4.4	0.1	4727.
26612	5.5	4.5	0.1	4707.2
26613	5.5	4.6	0.1	4687.3
26614	5.5	4.7	0.1	4667.4
26615	5.5	4.8	0.1	4647.8
26616	5.5	4.9	0.1	4628.6
26617	5.5	5.	0.1	4610.1
26618	5.5	5.1	0.1	4592.4
26619	5.5	5.2	0.1	4575.7
26620	5.5	5.3	0.1	4560.2
26621	5.5	5.4	0.1	4546.
26622	5.5	5.5	0.1	4533.3
26623	5.5	5.6	0.1	4522.2
26624	5.5	5.7	0.1	4512.7
26625	5.5	5.8	0.1	4505.1
26626	5.5	5.9	0.1	4499.5
26627	5.6	0.1	0.1	4430.1
26628	5.6	0.2	0.1	4437.1
26629	5.6	0.3	0.1	4446.4
26630	5.6	0.4	0.1	4457.8
26631	5.6	0.5	0.1	4471.1
26632	5.6	0.6	0.1	4486.3
26633	5.6	0.7	0.1	4503.1
26634	5.6	0.8	0.1	4521.6
26635	5.6	0.9	0.1	4541.4
26636	5.6	1.	0.1	4562.4
26637	5.6	1.1	0.1	4584.4
26638	5.6	1.2	0.1	4607.1
26639	5.6	1.3	0.1	4630.4
26640	5.6	1.4	0.1	4654.
26641	5.6	1.5	0.1	4677.7
26642	5.6	1.6	0.1	4701.3
26643	5.6	1.7	0.1	4724.4
26644	5.6	1.8	0.1	4746.9
26645	5.6	1.9	0.1	4768.6
26646	5.6	2.	0.1	4789.3
26647	5.6	2.1	0.1	4808.7
26648	5.6	2.2	0.1	4826.6
26649	5.6	2.3	0.1	4843.
26650	5.6	2.4	0.1	4857.6
26651	5.6	2.5	0.1	4870.2
26652	5.6	2.6	0.1	4880.7
26653	5.6	2.7	0.1	4889.1
26654	5.6	2.8	0.1	4895.1
26655	5.6	2.9	0.1	4898.7
26656	5.6	3.	0.1	4899.9
26657	5.6	3.1	0.1	4898.7
26658	5.6	3.2	0.1	4895.1
26659	5.6	3.3	0.1	4889.1
26660	5.6	3.4	0.1	4880.7
26661	5.6	3.5	0.1	4870.2
26662	5.6	3.6	0.1	4857.6
26663	5.6	3.7	0.1	4843.
26664	5.6	3.8	0.1	4826.6
26665	5.6	3.9	0.1	4808.7
26666	5.6	4.	0.1	4789.3
26667	5.6	4.1	0.1	4768.6
26668	5.6	4.2	0.1	4746.9
26669	5.6	4.3	0.1	4724.4
26670	5.6	4.4	0.1	4701.3
26671	5.6	4.5	0.1	4677.7
26672	5.6	4.6	0.1	4654.
26673	5.6	4.7	0.1	4630.4
26674	5.6	4.8	0.1	4607.1
26675	5.6	4.9	0.1	4584.4
26676	5.6	5.	0.1	4562.4
26677	5.6	5.1	0.1	4541.4
26678	5.6	5.2	0.1	4521.6
26679	5.6	5.3	0.1	4503.1
26680	5.6	5.4	0.1	4486.3
26681	5.6	5.5	0.1	4471.1
26682	5.6	5.6	0.1	4457.8
26683	5.6	5.7	0.1	4446.4
26684	5.6	5.8	0.1	4437.1
26685	5.6	5.9	0.1	4430.1
26686	5.7	0.1	0.1	4356.2
26687	5.7	0.2	0.1	4364.7
26688	5.7	0.3	0.1	4375.8
26689	5.7	0.4	0.1	4389.3
26690	5.7	0.5	0.1	4405.
26691	5.7	0.6	0.1	4422.9
26692	5.7	0.7	0.1	4442.7
26693	5.7	0.8	0.1	4464.4
26694	5.7	0.9	0.1	4487.7
26695	5.7	1.	0.1	4512.4
26696	5.7	1.1	0.1	4538.3
26697	5.7	1.2	0.1	4565.1
26698	5.7	1.3	0.1	4592.5
26699	5.7	1.4	0.1	4620.4
26700	5.7	1.5	0.1	4648.3
26701	5.7	1.6	0.1	4676.1
26702	5.7	1.7	0.1	4703.4
26703	5.7	1.8	0.1	4730.
26704	5.7	1.9	0.1	4755.7
26705	5.7	2.	0.1	4780.1
26706	5.7	2.1	0.1	4803.1
26707	5.7	2.2	0.1	4824.3
26708	5.7	2.3	0.1	4843.7
26709	5.7	2.4	0.1	4861.
26710	5.7	2.5	0.1	4876.
26711	5.7	2.6	0.1	4888.5
26712	5.7	2.7	0.1	4898.4
26713	5.7	2.8	0.1	4905.6
26714	5.7	2.9	0.1	4909.9
26715	5.7	3.	0.1	4911.3
26716	5.7	3.1	0.1	4909.9
26717	5.7	3.2	0.1	4905.6
26718	5.7	3.3	0.1	4898.4
26719	5.7	3.4	0.1	4888.5
26720	5.7	3.5	0.1	4876.
26721	5.7	3.6	0.1	4861.
26722	5.7	3.7	0.1	4843.7
26723	5.7	3.8	0.1	4824.3
26724	5.7	3.9	0.1	4803.1
26725	5.7	4.	0.1	4780.1
26726	5.7	4.1	0.1	4755.7
26727	5.7	4.2	0.1	4730.
26728	5.7	4.3	0.1	4703.4
26729	5.7	4.4	0.1	4676.1
26730	5.7	4.5	0.1	4648.3
26731	5.7	4.6	0.1	4620.4
26732	5.7	4.7	0.1	4592.5
26733	5.7	4.8	0.1	4565.1
26734	5.7	4.9	0.1	4538.3
26735	5.7	5.	0.1	4512.4
26736	5.7	5.1	0.1	4487.7
26737	5.7	5.2	0.1	4464.4
26738	5.7	5.3	0.1	4442.7
26739	5.7	5.4	0.1	4422.9
26740	5.7	5.5	0.1	4405.
26741	5.7	5.6	0.1	4389.3
26742	5.7	5.7	0.1	4375.8
26743	5.7	5.8	0.1	4364.7
26744	5.7	5.9	0.1	4356.2
26745	5.8	0.1	0.1	4277.4
26746	5.8	0.2	0.1	4287.5
26747	5.8	0.3	0.1	4300.5
26748	5.8	0.4	0.1	4316.3
26749	5.8	0.5	0.1	4334.6
26750	5.8	0.6	0.1	4355.4
26751	5.8	0.7	0.1	4378.6
26752	5.8	0.8	0.1	4403.8
26753	5.8	0.9	0.1	4431.
26754	5.8	1.	0.1	4459.8
26755	5.8	1.1	0.1	4490.1
26756	5.8	1.2	0.1	4521.4
26757	5.8	1.3	0.1	4553.6
26758	5.8	1.4	0.1	4586.2
26759	5.8	1.5	0.1	4619.
26760	5.8	1.6	0.1	4651.5
26761	5.8	1.7	0.1	4683.6
26762	5.8	1.8	0.1	4714.9
26763	5.8	1.9	0.1	4745.1
26764	5.8	2.	0.1	4773.8
26765	5.8	2.1	0.1	4800.9
26766	5.8	2.2	0.1	4826.
26767	5.8	2.3	0.1	4848.8
26768	5.8	2.4	0.1	4869.2
26769	5.8	2.5	0.1	4886.9
26770	5.8	2.6	0.1	4901.7
26771	5.8	2.7	0.1	4913.4
26772	5.8	2.8	0.1	4921.9
26773	5.8	2.9	0.1	4927.
26774	5.8	3.	0.1	4928.7
26775	5.8	3.1	0.1	4927.
26776	5.8	3.2	0.1	4921.9
26777	5.8	3.3	0.1	4913.4
26778	5.8	3.4	0.1	4901.7
26779	5.8	3.5	0.1	4886.9
26780	5.8	3.6	0.1	4869.2
26781	5.8	3.7	0.1	4848.8
26782	5.8	3.8	0.1	4826.
26783	5.8	3.9	0.1	4800.9
26784	5.8	4.	0.1	4773.8
26785	5.8	4.1	0.1	4745.1
26786	5.8	4.2	0.1	4714.9
26787	5.8	4.3	0.1	4683.6
26788	5.8	4.4	0.1	4651.5
26789	5.8	4.5	0.1	4619.
26790	5.8	4.6	0.1	4586.2
26791	5.8	4.7	0.1	4553.6
26792	5.8	4.8	0.1	4521.4
26793	5.8	4.9	0.1	4490.1
26794	5.8	5.	0.1	4459.8
26795	5.8	5.1	0.1	4431.
26796	5.8	5.2	0.1	4403.8
26797	5.8	5.3	0.1	4378.6
26798	5.8	5.4	0.1	4355.4
26799	5.8	5.5	0.1	4334.6
26800	5.8	5.6	0.1	4316.3
26801	5.8	5.7	0.1	4300.5
26802	5.8	5.8	0.1	4287.5
26803	5.8	5.9	0.1	4277.4
26804	5.9	0.1	0.1	4193.1
26805	5.9	0.2	0.1	4204.9
26806	5.9	0.3	0.1	4219.9
26807	5.9	0.4	0.1	4238.1
26808	5.9	0.5	0.1	4259.3
26809	5.9	0.6	0.1	4283.4
26810	5.9	0.7	0.1	4310.1
26811	5.9	0.8	0.1	4339.4
26812	5.9	0.9	0.1	4370.9
26813	5.9	1.	0.1	4404.4
26814	5.9	1.1	0.1	4439.5
26815	5.9	1.2	0.1	4476.
26816	5.9	1.3	0.1	4513.4
26817	5.9	1.4	0.1	4551.5
26818	5.9	1.5	0.1	4589.7
26819	5.9	1.6	0.1	4627.8
26820	5.9	1.7	0.1	4665.3
26821	5.9	1.8	0.1	4701.9
26822	5.9	1.9	0.1	4737.2
26823	5.9	2.	0.1	4770.9
26824	5.9	2.1	0.1	4802.6
26825	5.9	2.2	0.1	4832.1
26826	5.9	2.3	0.1	4858.9
26827	5.9	2.4	0.1	4882.9
26828	5.9	2.5	0.1	4903.7
26829	5.9	2.6	0.1	4921.2
26830	5.9	2.7	0.1	4935.
26831	5.9	2.8	0.1	4945.
26832	5.9	2.9	0.1	4951.
26833	5.9	3.	0.1	4953.
26834	5.9	3.1	0.1	4951.
26835	5.9	3.2	0.1	4945.
26836	5.9	3.3	0.1	4935.
26837	5.9	3.4	0.1	4921.2
26838	5.9	3.5	0.1	4903.7
26839	5.9	3.6	0.1	4882.9
26840	5.9	3.7	0.1	4858.9
26841	5.9	3.8	0.1	4832.1
26842	5.9	3.9	0.1	4802.6
26843	5.9	4.	0.1	4770.9
26844	5.9	4.1	0.1	4737.2
26845	5.9	4.2	0.1	4701.9
26846	5.9	4.3	0.1	4665.3
26847	5.9	4.4	0.1	4627.8
26848	5.9	4.5	0.1	4589.7
26849	5.9	4.6	0.1	4551.5
26850	5.9	4.7	0.1	4513.4
26851	5.9	4.8	0.1	4476.
26852	5.9	4.9	0.1	4439.5
26853	5.9	5.	0.1	4404.4
26854	5.9	5.1	0.1	4370.9
26855	5.9	5.2	0.1	4339.4
26856	5.9	5.3	0.1	4310.1
26857	5.9	5.4	0.1	4283.4
26858	5.9	5.5	0.1	4259.3
26859	5.9	5.6	0.1	4238.1
26860	5.9	5.7	0.1	4219.9
26861	5.9	5.8	0.1	4204.8
26862	5.9	5.9	0.1	4193.1
26863	6.	0.1	0.1	4102.7
26864	6.	0.2	0.1	4116.1
26865	6.	0.3	0.1	4133.4
26866	6.	0.4	0.1	4154.3
26867	6.	0.5	0.1	4178.5
26868	6.	0.6	0.1	4206.1
26869	6.	0.7	0.1	4236.9
26870	6.	0.8	0.1	4270.5
26871	6.	0.9	0.1	4306.9
26872	6.	1.	0.1	4345.6
26873	6.	1.1	0.1	4386.2
26874	6.	1.2	0.1	4428.5
26875	6.	1.3	0.1	4471.9
26876	6.	1.4	0.1	4516.1
26877	6.	1.5	0.1	4560.6
26878	6.	1.6	0.1	4604.9
26879	6.	1.7	0.1	4648.6
26880	6.	1.8	0.1	4691.2
26881	6.	1.9	0.1	4732.5
26882	6.	2.	0.1	4771.8
26883	6.	2.1	0.1	4808.9
26884	6.	2.2	0.1	4843.3
26885	6.	2.3	0.1	4874.8
26886	6.	2.4	0.1	4902.9
26887	6.	2.5	0.1	4927.3
26888	6.	2.6	0.1	4947.8
26889	6.	2.7	0.1	4964.
26890	6.	2.8	0.1	4975.7
26891	6.	2.9	0.1	4982.8
26892	6.	3.	0.1	4985.2
26893	6.	3.1	0.1	4982.8
26894	6.	3.2	0.1	4975.7
26895	6.	3.3	0.1	4964.
26896	6.	3.4	0.1	4947.8
26897	6.	3.5	0.1	4927.3
26898	6.	3.6	0.1	4902.9
26899	6.	3.7	0.1	4874.8
26900	6.	3.8	0.1	4843.3
26901	6.	3.9	0.1	4808.9
26902	6.	4.	0.1	4771.8
26903	6.	4.1	0.1	4732.5
26904	6.	4.2	0.1	4691.2
26905	6.	4.3	0.1	4648.6
26906	6.	4.4	0.1	4604.9
26907	6.	4.5	0.1	4560.6
26908	6.	4.6	0.1	4516.1
26909	6.	4.7	0.1	4471.9
26910	6.	4.8	0.1	4428.5
26911	6.	4.9	0.1	4386.2
26912	6.	5.	0.1	4345.6
26913	6.	5.1	0.1	4306.9
26914	6.	5.2	0.1	4270.5
26915	6.	5.3	0.1	4236.9
26916	6.	5.4	0.1	4206.1
26917	6.	5.5	0.1	4178.5
26918	6.	5.6	0.1	4154.3
26919	6.	5.7	0.1	4133.4
26920	6.	5.8	0.1	4116.1
26921	6.	5.9	0.1	4102.7
26922	6.1	0.1	0.1	4005.4
26923	6.1	0.2	0.1	4020.7
26924	6.1	0.3	0.1	4040.3
26925	6.1	0.4	0.1	4064.
26926	6.1	0.5	0.1	4091.6
26927	6.1	0.6	0.1	4123.1
26928	6.1	0.7	0.1	4158.2
26929	6.1	0.8	0.1	4196.8
26930	6.1	0.9	0.1	4238.5
26931	6.1	1.	0.1	4283.
26932	6.1	1.1	0.1	4329.9
26933	6.1	1.2	0.1	4378.7
26934	6.1	1.3	0.1	4428.9
26935	6.1	1.4	0.1	4480.
26936	6.1	1.5	0.1	4531.6
26937	6.1	1.6	0.1	4583.
26938	6.1	1.7	0.1	4633.8
26939	6.1	1.8	0.1	4683.4
26940	6.1	1.9	0.1	4731.3
26941	6.1	2.	0.1	4777.1
26942	6.1	2.1	0.1	4820.3
26943	6.1	2.2	0.1	4860.5
26944	6.1	2.3	0.1	4897.3
26945	6.1	2.4	0.1	4930.1
26946	6.1	2.5	0.1	4958.7
26947	6.1	2.6	0.1	4982.6
26948	6.1	2.7	0.1	5001.6
26949	6.1	2.8	0.1	5015.3
26950	6.1	2.9	0.1	5023.7
26951	6.1	3.	0.1	5026.4
26952	6.1	3.1	0.1	5023.7
26953	6.1	3.2	0.1	5015.3
26954	6.1	3.3	0.1	5001.6
26955	6.1	3.4	0.1	4982.6
26956	6.1	3.5	0.1	4958.7
26957	6.1	3.6	0.1	4930.1
26958	6.1	3.7	0.1	4897.3
26959	6.1	3.8	0.1	4860.5
26960	6.1	3.9	0.1	4820.3
26961	6.1	4.	0.1	4777.1
26962	6.1	4.1	0.1	4731.3
26963	6.1	4.2	0.1	4683.4
26964	6.1	4.3	0.1	4633.8
26965	6.1	4.4	0.1	4583.
26966	6.1	4.5	0.1	4531.6
26967	6.1	4.6	0.1	4480.
26968	6.1	4.7	0.1	4428.9
26969	6.1	4.8	0.1	4378.7
26970	6.1	4.9	0.1	4329.9
26971	6.1	5.	0.1	4283.
26972	6.1	5.1	0.1	4238.5
26973	6.1	5.2	0.1	4196.8
26974	6.1	5.3	0.1	4158.2
26975	6.1	5.4	0.1	4123.1
26976	6.1	5.5	0.1	4091.6
26977	6.1	5.6	0.1	4064.
26978	6.1	5.7	0.1	4040.3
26979	6.1	5.8	0.1	4020.7
26980	6.1	5.9	0.1	4005.4
26981	6.2	0.1	0.1	3900.6
26982	6.2	0.2	0.1	3917.8
26983	6.2	0.3	0.1	3939.9
26984	6.2	0.4	0.1	3966.6
26985	6.2	0.5	0.1	3997.9
26986	6.2	0.6	0.1	4033.6
26987	6.2	0.7	0.1	4073.5
26988	6.2	0.8	0.1	4117.5
26989	6.2	0.9	0.1	4165.2
26990	6.2	1.	0.1	4216.2
26991	6.2	1.1	0.1	4270.
26992	6.2	1.2	0.1	4326.2
26993	6.2	1.3	0.1	4384.1
26994	6.2	1.4	0.1	4443.2
26995	6.2	1.5	0.1	4502.8
26996	6.2	1.6	0.1	4562.3
26997	6.2	1.7	0.1	4621.1
26998	6.2	1.8	0.1	4678.7
26999	6.2	1.9	0.1	4734.3
27000	6.2	2.	0.1	4787.6
27001	6.2	2.1	0.1	4837.8
27002	6.2	2.2	0.1	4884.6
27003	6.2	2.3	0.1	4927.4
27004	6.2	2.4	0.1	4965.6
27005	6.2	2.5	0.1	4999.
27006	6.2	2.6	0.1	5026.9
27007	6.2	2.7	0.1	5049.1
27008	6.2	2.8	0.1	5065.1
27009	6.2	2.9	0.1	5074.9
27010	6.2	3.	0.1	5078.1
27011	6.2	3.1	0.1	5074.9
27012	6.2	3.2	0.1	5065.1
27013	6.2	3.3	0.1	5049.1
27014	6.2	3.4	0.1	5026.9
27015	6.2	3.5	0.1	4999.
27016	6.2	3.6	0.1	4965.6
27017	6.2	3.7	0.1	4927.4
27018	6.2	3.8	0.1	4884.6
27019	6.2	3.9	0.1	4837.8
27020	6.2	4.	0.1	4787.6
27021	6.2	4.1	0.1	4734.3
27022	6.2	4.2	0.1	4678.7
27023	6.2	4.3	0.1	4621.1
27024	6.2	4.4	0.1	4562.3
27025	6.2	4.5	0.1	4502.8
27026	6.2	4.6	0.1	4443.2
27027	6.2	4.7	0.1	4384.1
27028	6.2	4.8	0.1	4326.2
27029	6.2	4.9	0.1	4270.
27030	6.2	5.	0.1	4216.2
27031	6.2	5.1	0.1	4165.2
27032	6.2	5.2	0.1	4117.5
27033	6.2	5.3	0.1	4073.5
27034	6.2	5.4	0.1	4033.6
27035	6.2	5.5	0.1	3997.9
27036	6.2	5.6	0.1	3966.6
27037	6.2	5.7	0.1	3939.9
27038	6.2	5.8	0.1	3917.8
27039	6.2	5.9	0.1	3900.6
27040	6.3	0.1	0.1	3787.6
27041	6.3	0.2	0.1	3806.7
27042	6.3	0.3	0.1	3831.4
27043	6.3	0.4	0.1	3861.4
27044	6.3	0.5	0.1	3896.6
27045	6.3	0.6	0.1	3936.9
27046	6.3	0.7	0.1	3982.1
27047	6.3	0.8	0.1	4032.1
27048	6.3	0.9	0.1	4086.4
27049	6.3	1.	0.1	4144.7
27050	6.3	1.1	0.1	4206.3
27051	6.3	1.2	0.1	4270.8
27052	6.3	1.3	0.1	4337.4
27053	6.3	1.4	0.1	4405.5
27054	6.3	1.5	0.1	4474.3
27055	6.3	1.6	0.1	4543.
27056	6.3	1.7	0.1	4611.1
27057	6.3	1.8	0.1	4677.7
27058	6.3	1.9	0.1	4742.2
27059	6.3	2.	0.1	4803.9
27060	6.3	2.1	0.1	4862.3
27061	6.3	2.2	0.1	4916.6
27062	6.3	2.3	0.1	4966.3
27063	6.3	2.4	0.1	5010.8
27064	6.3	2.5	0.1	5049.6
27065	6.3	2.6	0.1	5082.1
27066	6.3	2.7	0.1	5107.9
27067	6.3	2.8	0.1	5126.6
27068	6.3	2.9	0.1	5137.9
27069	6.3	3.	0.1	5141.7
27070	6.3	3.1	0.1	5137.9
27071	6.3	3.2	0.1	5126.6
27072	6.3	3.3	0.1	5107.9
27073	6.3	3.4	0.1	5082.1
27074	6.3	3.5	0.1	5049.6
27075	6.3	3.6	0.1	5010.8
27076	6.3	3.7	0.1	4966.3
27077	6.3	3.8	0.1	4916.6
27078	6.3	3.9	0.1	4862.3
27079	6.3	4.	0.1	4803.9
27080	6.3	4.1	0.1	4742.2
27081	6.3	4.2	0.1	4677.7
27082	6.3	4.3	0.1	4611.1
27083	6.3	4.4	0.1	4543.
27084	6.3	4.5	0.1	4474.3
27085	6.3	4.6	0.1	4405.5
27086	6.3	4.7	0.1	4337.4
27087	6.3	4.8	0.1	4270.8
27088	6.3	4.9	0.1	4206.3
27089	6.3	5.	0.1	4144.7
27090	6.3	5.1	0.1	4086.4
27091	6.3	5.2	0.1	4032.1
27092	6.3	5.3	0.1	3982.1
27093	6.3	5.4	0.1	3936.9
27094	6.3	5.5	0.1	3896.6
27095	6.3	5.6	0.1	3861.4
27096	6.3	5.7	0.1	3831.4
27097	6.3	5.8	0.1	3806.7
27098	6.3	5.9	0.1	3787.6
27099	6.4	0.1	0.1	3665.6
27100	6.4	0.2	0.1	3686.6
27101	6.4	0.3	0.1	3714.1
27102	6.4	0.4	0.1	3747.5
27103	6.4	0.5	0.1	3786.9
27104	6.4	0.6	0.1	3832.2
27105	6.4	0.7	0.1	3883.2
27106	6.4	0.8	0.1	3939.8
27107	6.4	0.9	0.1	4001.4
27108	6.4	1.	0.1	4067.8
27109	6.4	1.1	0.1	4138.2
27110	6.4	1.2	0.1	4212.1
27111	6.4	1.3	0.1	4288.5
27112	6.4	1.4	0.1	4366.8
27113	6.4	1.5	0.1	4446.1
27114	6.4	1.6	0.1	4525.5
27115	6.4	1.7	0.1	4604.1
27116	6.4	1.8	0.1	4681.1
27117	6.4	1.9	0.1	4755.8
27118	6.4	2.	0.1	4827.3
27119	6.4	2.1	0.1	4894.9
27120	6.4	2.2	0.1	4957.8
27121	6.4	2.3	0.1	5015.5
27122	6.4	2.4	0.1	5067.2
27123	6.4	2.5	0.1	5112.2
27124	6.4	2.6	0.1	5149.9
27125	6.4	2.7	0.1	5179.8
27126	6.4	2.8	0.1	5201.5
27127	6.4	2.9	0.1	5214.7
27128	6.4	3.	0.1	5219.1
27129	6.4	3.1	0.1	5214.7
27130	6.4	3.2	0.1	5201.5
27131	6.4	3.3	0.1	5179.8
27132	6.4	3.4	0.1	5149.9
27133	6.4	3.5	0.1	5112.2
27134	6.4	3.6	0.1	5067.2
27135	6.4	3.7	0.1	5015.5
27136	6.4	3.8	0.1	4957.8
27137	6.4	3.9	0.1	4894.9
27138	6.4	4.	0.1	4827.3
27139	6.4	4.1	0.1	4755.8
27140	6.4	4.2	0.1	4681.1
27141	6.4	4.3	0.1	4604.1
27142	6.4	4.4	0.1	4525.5
27143	6.4	4.5	0.1	4446.1
27144	6.4	4.6	0.1	4366.8
27145	6.4	4.7	0.1	4288.5
27146	6.4	4.8	0.1	4212.1
27147	6.4	4.9	0.1	4138.2
27148	6.4	5.	0.1	4067.8
27149	6.4	5.1	0.1	4001.4
27150	6.4	5.2	0.1	3939.7
27151	6.4	5.3	0.1	3883.2
27152	6.4	5.4	0.1	3832.2
27153	6.4	5.5	0.1	3786.9
27154	6.4	5.6	0.1	3747.5
27155	6.4	5.7	0.1	3714.1
27156	6.4	5.8	0.1	3686.6
27157	6.4	5.9	0.1	3665.6
27158	6.5	0.1	0.1	3533.8
27159	6.5	0.2	0.1	3556.8
27160	6.5	0.3	0.1	3587.1
27161	6.5	0.4	0.1	3624.1
27162	6.5	0.5	0.1	3668.
27163	6.5	0.6	0.1	3718.7
27164	6.5	0.7	0.1	3776.
27165	6.5	0.8	0.1	3839.8
27166	6.5	0.9	0.1	3909.7
27167	6.5	1.	0.1	3985.
27168	6.5	1.1	0.1	4065.3
27169	6.5	1.2	0.1	4149.7
27170	6.5	1.3	0.1	4237.3
27171	6.5	1.4	0.1	4327.2
27172	6.5	1.5	0.1	4418.5
27173	6.5	1.6	0.1	4510.
27174	6.5	1.7	0.1	4600.7
27175	6.5	1.8	0.1	4689.7
27176	6.5	1.9	0.1	4776.
27177	6.5	2.	0.1	4858.8
27178	6.5	2.1	0.1	4937.
27179	6.5	2.2	0.1	5009.9
27180	6.5	2.3	0.1	5076.7
27181	6.5	2.4	0.1	5136.5
27182	6.5	2.5	0.1	5188.6
27183	6.5	2.6	0.1	5232.2
27184	6.5	2.7	0.1	5266.8
27185	6.5	2.8	0.1	5291.9
27186	6.5	2.9	0.1	5307.1
27187	6.5	3.	0.1	5312.1
27188	6.5	3.1	0.1	5307.1
27189	6.5	3.2	0.1	5291.9
27190	6.5	3.3	0.1	5266.8
27191	6.5	3.4	0.1	5232.2
27192	6.5	3.5	0.1	5188.6
27193	6.5	3.6	0.1	5136.5
27194	6.5	3.7	0.1	5076.7
27195	6.5	3.8	0.1	5009.9
27196	6.5	3.9	0.1	4937.
27197	6.5	4.	0.1	4858.8
27198	6.5	4.1	0.1	4776.
27199	6.5	4.2	0.1	4689.7
27200	6.5	4.3	0.1	4600.7
27201	6.5	4.4	0.1	4510.
27202	6.5	4.5	0.1	4418.5
27203	6.5	4.6	0.1	4327.2
27204	6.5	4.7	0.1	4237.3
27205	6.5	4.8	0.1	4149.7
27206	6.5	4.9	0.1	4065.3
27207	6.5	5.	0.1	3985.
27208	6.5	5.1	0.1	3909.7
27209	6.5	5.2	0.1	3839.8
27210	6.5	5.3	0.1	3776.
27211	6.5	5.4	0.1	3718.7
27212	6.5	5.5	0.1	3668.
27213	6.5	5.6	0.1	3624.1
27214	6.5	5.7	0.1	3587.1
27215	6.5	5.8	0.1	3556.8
27216	6.5	5.9	0.1	3533.8
27217	6.6	0.1	0.1	3391.5
27218	6.6	0.2	0.1	3416.4
27219	6.6	0.3	0.1	3449.6
27220	6.6	0.4	0.1	3490.5
27221	6.6	0.5	0.1	3539.1
27222	6.6	0.6	0.1	3595.6
27223	6.6	0.7	0.1	3659.8
27224	6.6	0.8	0.1	3731.5
27225	6.6	0.9	0.1	3810.3
27226	6.6	1.	0.1	3895.7
27227	6.6	1.1	0.1	3987.
27228	6.6	1.2	0.1	4083.2
27229	6.6	1.3	0.1	4183.5
27230	6.6	1.4	0.1	4286.7
27231	6.6	1.5	0.1	4391.6
27232	6.6	1.6	0.1	4497.
27233	6.6	1.7	0.1	4601.7
27234	6.6	1.8	0.1	4704.5
27235	6.6	1.9	0.1	4804.3
27236	6.6	2.	0.1	4900.
27237	6.6	2.1	0.1	4990.5
27238	6.6	2.2	0.1	5074.8
27239	6.6	2.3	0.1	5151.9
27240	6.6	2.4	0.1	5221.
27241	6.6	2.5	0.1	5281.
27242	6.6	2.6	0.1	5331.3
27243	6.6	2.7	0.1	5371.1
27244	6.6	2.8	0.1	5399.9
27245	6.6	2.9	0.1	5417.3
27246	6.6	3.	0.1	5423.1
27247	6.6	3.1	0.1	5417.3
27248	6.6	3.2	0.1	5399.9
27249	6.6	3.3	0.1	5371.1
27250	6.6	3.4	0.1	5331.3
27251	6.6	3.5	0.1	5281.
27252	6.6	3.6	0.1	5221.
27253	6.6	3.7	0.1	5151.9
27254	6.6	3.8	0.1	5074.8
27255	6.6	3.9	0.1	4990.5
27256	6.6	4.	0.1	4900.
27257	6.6	4.1	0.1	4804.3
27258	6.6	4.2	0.1	4704.5
27259	6.6	4.3	0.1	4601.7
27260	6.6	4.4	0.1	4497.
27261	6.6	4.5	0.1	4391.6
27262	6.6	4.6	0.1	4286.7
27263	6.6	4.7	0.1	4183.5
27264	6.6	4.8	0.1	4083.2
27265	6.6	4.9	0.1	3987.
27266	6.6	5.	0.1	3895.7
27267	6.6	5.1	0.1	3810.3
27268	6.6	5.2	0.1	3731.5
27269	6.6	5.3	0.1	3659.8
27270	6.6	5.4	0.1	3595.6
27271	6.6	5.5	0.1	3539.1
27272	6.6	5.6	0.1	3490.5
27273	6.6	5.7	0.1	3449.6
27274	6.6	5.8	0.1	3416.4
27275	6.6	5.9	0.1	3391.5
27276	6.7	0.1	0.1	3237.9
27277	6.7	0.2	0.1	3264.6
27278	6.7	0.3	0.1	3300.8
27279	6.7	0.4	0.1	3345.7
27280	6.7	0.5	0.1	3399.4
27281	6.7	0.6	0.1	3462.1
27282	6.7	0.7	0.1	3533.8
27283	6.7	0.8	0.1	3614.1
27284	6.7	0.9	0.1	3702.8
27285	6.7	1.	0.1	3799.3
27286	6.7	1.1	0.1	3902.8
27287	6.7	1.2	0.1	4012.3
27288	6.7	1.3	0.1	4126.8
27289	6.7	1.4	0.1	4245.1
27290	6.7	1.5	0.1	4365.7
27291	6.7	1.6	0.1	4487.1
27292	6.7	1.7	0.1	4608.
27293	6.7	1.8	0.1	4726.8
27294	6.7	1.9	0.1	4842.2
27295	6.7	2.	0.1	4952.8
27296	6.7	2.1	0.1	5057.4
27297	6.7	2.2	0.1	5154.8
27298	6.7	2.3	0.1	5243.8
27299	6.7	2.4	0.1	5323.3
27300	6.7	2.5	0.1	5392.3
27301	6.7	2.6	0.1	5449.8
27302	6.7	2.7	0.1	5495.3
27303	6.7	2.8	0.1	5528.1
27304	6.7	2.9	0.1	5547.9
27305	6.7	3.	0.1	5554.5
27306	6.7	3.1	0.1	5547.9
27307	6.7	3.2	0.1	5528.1
27308	6.7	3.3	0.1	5495.3
27309	6.7	3.4	0.1	5449.8
27310	6.7	3.5	0.1	5392.3
27311	6.7	3.6	0.1	5323.3
27312	6.7	3.7	0.1	5243.8
27313	6.7	3.8	0.1	5154.8
27314	6.7	3.9	0.1	5057.4
27315	6.7	4.	0.1	4952.8
27316	6.7	4.1	0.1	4842.2
27317	6.7	4.2	0.1	4726.8
27318	6.7	4.3	0.1	4608.
27319	6.7	4.4	0.1	4487.1
27320	6.7	4.5	0.1	4365.7
27321	6.7	4.6	0.1	4245.1
27322	6.7	4.7	0.1	4126.8
27323	6.7	4.8	0.1	4012.3
27324	6.7	4.9	0.1	3902.8
27325	6.7	5.	0.1	3799.3
27326	6.7	5.1	0.1	3702.8
27327	6.7	5.2	0.1	3614.1
27328	6.7	5.3	0.1	3533.8
27329	6.7	5.4	0.1	3462.1
27330	6.7	5.5	0.1	3399.4
27331	6.7	5.6	0.1	3345.7
27332	6.7	5.7	0.1	3300.8
27333	6.7	5.8	0.1	3264.6
27334	6.7	5.9	0.1	3237.9
27335	6.8	0.1	0.1	3072.4
27336	6.8	0.2	0.1	3100.8
27337	6.8	0.3	0.1	3140.1
27338	6.8	0.4	0.1	3189.1
27339	6.8	0.5	0.1	3248.2
27340	6.8	0.6	0.1	3317.6
27341	6.8	0.7	0.1	3397.2
27342	6.8	0.8	0.1	3487.
27343	6.8	0.9	0.1	3586.4
27344	6.8	1.	0.1	3695.1
27345	6.8	1.1	0.1	3812.1
27346	6.8	1.2	0.1	3936.5
27347	6.8	1.3	0.1	4067.1
27348	6.8	1.4	0.1	4202.5
27349	6.8	1.5	0.1	4341.1
27350	6.8	1.6	0.1	4481.1
27351	6.8	1.7	0.1	4620.7
27352	6.8	1.8	0.1	4758.1
27353	6.8	1.9	0.1	4891.7
27354	6.8	2.	0.1	5019.7
27355	6.8	2.1	0.1	5140.7
27356	6.8	2.2	0.1	5253.1
27357	6.8	2.3	0.1	5355.5
27358	6.8	2.4	0.1	5446.7
27359	6.8	2.5	0.1	5525.5
27360	6.8	2.6	0.1	5590.9
27361	6.8	2.7	0.1	5642.3
27362	6.8	2.8	0.1	5679.3
27363	6.8	2.9	0.1	5701.5
27364	6.8	3.	0.1	5708.9
27365	6.8	3.1	0.1	5701.5
27366	6.8	3.2	0.1	5679.3
27367	6.8	3.3	0.1	5642.3
27368	6.8	3.4	0.1	5590.9
27369	6.8	3.5	0.1	5525.5
27370	6.8	3.6	0.1	5446.7
27371	6.8	3.7	0.1	5355.5
27372	6.8	3.8	0.1	5253.1
27373	6.8	3.9	0.1	5140.7
27374	6.8	4.	0.1	5019.7
27375	6.8	4.1	0.1	4891.7
27376	6.8	4.2	0.1	4758.1
27377	6.8	4.3	0.1	4620.7
27378	6.8	4.4	0.1	4481.1
27379	6.8	4.5	0.1	4341.1
27380	6.8	4.6	0.1	4202.5
27381	6.8	4.7	0.1	4067.1
27382	6.8	4.8	0.1	3936.5
27383	6.8	4.9	0.1	3812.1
27384	6.8	5.	0.1	3695.1
27385	6.8	5.1	0.1	3586.4
27386	6.8	5.2	0.1	3487.
27387	6.8	5.3	0.1	3397.2
27388	6.8	5.4	0.1	3317.6
27389	6.8	5.5	0.1	3248.2
27390	6.8	5.6	0.1	3189.1
27391	6.8	5.7	0.1	3140.1
27392	6.8	5.8	0.1	3100.8
27393	6.8	5.9	0.1	3072.4
27394	6.9	0.1	0.1	2894.4
27395	6.9	0.2	0.1	2924.3
27396	6.9	0.3	0.1	2966.7
27397	6.9	0.4	0.1	3020.1
27398	6.9	0.5	0.1	3084.9
27399	6.9	0.6	0.1	3161.4
27400	6.9	0.7	0.1	3249.6
27401	6.9	0.8	0.1	3349.5
27402	6.9	0.9	0.1	3460.7
27403	6.9	1.	0.1	3582.6
27404	6.9	1.1	0.1	3714.5
27405	6.9	1.2	0.1	3855.4
27406	6.9	1.3	0.1	4004.1
27407	6.9	1.4	0.1	4159.
27408	6.9	1.5	0.1	4318.3
27409	6.9	1.6	0.1	4479.7
27410	6.9	1.7	0.1	4641.3
27411	6.9	1.8	0.1	4800.6
27412	6.9	1.9	0.1	4955.5
27413	6.9	2.	0.1	5103.9
27414	6.9	2.1	0.1	5243.9
27415	6.9	2.2	0.1	5373.6
27416	6.9	2.3	0.1	5491.2
27417	6.9	2.4	0.1	5595.3
27418	6.9	2.5	0.1	5684.5
27419	6.9	2.6	0.1	5758.1
27420	6.9	2.7	0.1	5815.4
27421	6.9	2.8	0.1	5856.4
27422	6.9	2.9	0.1	5880.9
27423	6.9	3.	0.1	5889.1
27424	6.9	3.1	0.1	5880.9
27425	6.9	3.2	0.1	5856.4
27426	6.9	3.3	0.1	5815.4
27427	6.9	3.4	0.1	5758.1
27428	6.9	3.5	0.1	5684.5
27429	6.9	3.6	0.1	5595.3
27430	6.9	3.7	0.1	5491.2
27431	6.9	3.8	0.1	5373.6
27432	6.9	3.9	0.1	5243.9
27433	6.9	4.	0.1	5103.9
27434	6.9	4.1	0.1	4955.5
27435	6.9	4.2	0.1	4800.6
27436	6.9	4.3	0.1	4641.3
27437	6.9	4.4	0.1	4479.7
27438	6.9	4.5	0.1	4318.2
27439	6.9	4.6	0.1	4159.
27440	6.9	4.7	0.1	4004.1
27441	6.9	4.8	0.1	3855.4
27442	6.9	4.9	0.1	3714.5
27443	6.9	5.	0.1	3582.6
27444	6.9	5.1	0.1	3460.7
27445	6.9	5.2	0.1	3349.5
27446	6.9	5.3	0.1	3249.6
27447	6.9	5.4	0.1	3161.4
27448	6.9	5.5	0.1	3084.9
27449	6.9	5.6	0.1	3020.1
27450	6.9	5.7	0.1	2966.7
27451	6.9	5.8	0.1	2924.3
27452	6.9	5.9	0.1	2894.4
27453	7.	0.1	0.1	2703.3
27454	7.	0.2	0.1	2734.7
27455	7.	0.3	0.1	2780.2
27456	7.	0.4	0.1	2838.2
27457	7.	0.5	0.1	2909.
27458	7.	0.6	0.1	2993.2
27459	7.	0.7	0.1	3090.7
27460	7.	0.8	0.1	3201.4
27461	7.	0.9	0.1	3325.2
27462	7.	1.	0.1	3461.4
27463	7.	1.1	0.1	3609.6
27464	7.	1.2	0.1	3768.7
27465	7.	1.3	0.1	3937.5
27466	7.	1.4	0.1	4114.5
27467	7.	1.5	0.1	4297.5
27468	7.	1.6	0.1	4484.1
27469	7.	1.7	0.1	4671.5
27470	7.	1.8	0.1	4856.8
27471	7.	1.9	0.1	5037.1
27472	7.	2.	0.1	5209.7
27473	7.	2.1	0.1	5372.
27474	7.	2.2	0.1	5521.5
27475	7.	2.3	0.1	5656.2
27476	7.	2.4	0.1	5774.2
27477	7.	2.5	0.1	5874.1
27478	7.	2.6	0.1	5955.5
27479	7.	2.7	0.1	6018.2
27480	7.	2.8	0.1	6062.5
27481	7.	2.9	0.1	6088.8
27482	7.	3.	0.1	6097.5
27483	7.	3.1	0.1	6088.8
27484	7.	3.2	0.1	6062.5
27485	7.	3.3	0.1	6018.2
27486	7.	3.4	0.1	5955.5
27487	7.	3.5	0.1	5874.1
27488	7.	3.6	0.1	5774.1
27489	7.	3.7	0.1	5656.2
27490	7.	3.8	0.1	5521.5
27491	7.	3.9	0.1	5372.
27492	7.	4.	0.1	5209.7
27493	7.	4.1	0.1	5037.1
27494	7.	4.2	0.1	4856.8
27495	7.	4.3	0.1	4671.5
27496	7.	4.4	0.1	4484.1
27497	7.	4.5	0.1	4297.5
27498	7.	4.6	0.1	4114.5
27499	7.	4.7	0.1	3937.5
27500	7.	4.8	0.1	3768.7
27501	7.	4.9	0.1	3609.6
27502	7.	5.	0.1	3461.4
27503	7.	5.1	0.1	3325.2
27504	7.	5.2	0.1	3201.4
27505	7.	5.3	0.1	3090.7
27506	7.	5.4	0.1	2993.2
27507	7.	5.5	0.1	2909.
27508	7.	5.6	0.1	2838.2
27509	7.	5.7	0.1	2780.2
27510	7.	5.8	0.1	2734.7
27511	7.	5.9	0.1	2703.3
27512	7.1	0.1	0.1	2498.9
27513	7.1	0.2	0.1	2531.6
27514	7.1	0.3	0.1	2580.4
27515	7.1	0.4	0.1	2643.3
27516	7.1	0.5	0.1	2720.8
27517	7.1	0.6	0.1	2813.2
27518	7.1	0.7	0.1	2920.6
27519	7.1	0.8	0.1	3042.9
27520	7.1	0.9	0.1	3180.
27521	7.1	1.	0.1	3331.5
27522	7.1	1.1	0.1	3497.
27523	7.1	1.2	0.1	3675.9
27524	7.1	1.3	0.1	3867.
27525	7.1	1.4	0.1	4068.9
27526	7.1	1.5	0.1	4279.3
27527	7.1	1.6	0.1	4495.4
27528	7.1	1.7	0.1	4713.6
27529	7.1	1.8	0.1	4930.2
27530	7.1	1.9	0.1	5141.2
27531	7.1	2.	0.1	5342.9
27532	7.1	2.1	0.1	5531.6
27533	7.1	2.2	0.1	5704.2
27534	7.1	2.3	0.1	5857.7
27535	7.1	2.4	0.1	5990.
27536	7.1	2.5	0.1	6100.1
27537	7.1	2.6	0.1	6187.9
27538	7.1	2.7	0.1	6254.3
27539	7.1	2.8	0.1	6300.4
27540	7.1	2.9	0.1	6327.5
27541	7.1	3.	0.1	6336.4
27542	7.1	3.1	0.1	6327.5
27543	7.1	3.2	0.1	6300.4
27544	7.1	3.3	0.1	6254.3
27545	7.1	3.4	0.1	6187.9
27546	7.1	3.5	0.1	6100.1
27547	7.1	3.6	0.1	5990.
27548	7.1	3.7	0.1	5857.6
27549	7.1	3.8	0.1	5704.2
27550	7.1	3.9	0.1	5531.6
27551	7.1	4.	0.1	5342.9
27552	7.1	4.1	0.1	5141.2
27553	7.1	4.2	0.1	4930.2
27554	7.1	4.3	0.1	4713.6
27555	7.1	4.4	0.1	4495.3
27556	7.1	4.5	0.1	4279.3
27557	7.1	4.6	0.1	4068.9
27558	7.1	4.7	0.1	3867.
27559	7.1	4.8	0.1	3675.9
27560	7.1	4.9	0.1	3497.
27561	7.1	5.	0.1	3331.5
27562	7.1	5.1	0.1	3180.
27563	7.1	5.2	0.1	3042.9
27564	7.1	5.3	0.1	2920.6
27565	7.1	5.4	0.1	2813.2
27566	7.1	5.5	0.1	2720.8
27567	7.1	5.6	0.1	2643.3
27568	7.1	5.7	0.1	2580.4
27569	7.1	5.8	0.1	2531.6
27570	7.1	5.9	0.1	2498.9
27571	7.2	0.1	0.1	2281.1
27572	7.2	0.2	0.1	2315.1
27573	7.2	0.3	0.1	2367.5
27574	7.2	0.4	0.1	2435.9
27575	7.2	0.5	0.1	2520.7
27576	7.2	0.6	0.1	2622.2
27577	7.2	0.7	0.1	2740.2
27578	7.2	0.8	0.1	2874.8
27579	7.2	0.9	0.1	3025.8
27580	7.2	1.	0.1	3193.2
27581	7.2	1.1	0.1	3376.9
27582	7.2	1.2	0.1	3576.6
27583	7.2	1.3	0.1	3791.9
27584	7.2	1.4	0.1	4021.6
27585	7.2	1.5	0.1	4263.5
27586	7.2	1.6	0.1	4514.5
27587	7.2	1.7	0.1	4770.1
27588	7.2	1.8	0.1	5025.3
27589	7.2	1.9	0.1	5274.4
27590	7.2	2.	0.1	5511.8
27591	7.2	2.1	0.1	5732.5
27592	7.2	2.2	0.1	5931.6
27593	7.2	2.3	0.1	6105.4
27594	7.2	2.4	0.1	6251.4
27595	7.2	2.5	0.1	6369.3
27596	7.2	2.6	0.1	6460.4
27597	7.2	2.7	0.1	6527.1
27598	7.2	2.8	0.1	6572.3
27599	7.2	2.9	0.1	6598.3
27600	7.2	3.	0.1	6606.7
27601	7.2	3.1	0.1	6598.3
27602	7.2	3.2	0.1	6572.3
27603	7.2	3.3	0.1	6527.1
27604	7.2	3.4	0.1	6460.4
27605	7.2	3.5	0.1	6369.3
27606	7.2	3.6	0.1	6251.4
27607	7.2	3.7	0.1	6105.4
27608	7.2	3.8	0.1	5931.6
27609	7.2	3.9	0.1	5732.5
27610	7.2	4.	0.1	5511.8
27611	7.2	4.1	0.1	5274.4
27612	7.2	4.2	0.1	5025.3
27613	7.2	4.3	0.1	4770.1
27614	7.2	4.4	0.1	4514.5
27615	7.2	4.5	0.1	4263.5
27616	7.2	4.6	0.1	4021.6
27617	7.2	4.7	0.1	3791.9
27618	7.2	4.8	0.1	3576.6
27619	7.2	4.9	0.1	3376.9
27620	7.2	5.	0.1	3193.2
27621	7.2	5.1	0.1	3025.8
27622	7.2	5.2	0.1	2874.8
27623	7.2	5.3	0.1	2740.2
27624	7.2	5.4	0.1	2622.2
27625	7.2	5.5	0.1	2520.7
27626	7.2	5.6	0.1	2435.9
27627	7.2	5.7	0.1	2367.5
27628	7.2	5.8	0.1	2315.1
27629	7.2	5.9	0.1	2281.1
27630	7.3	0.1	0.1	2050.
27631	7.3	0.2	0.1	2085.4
27632	7.3	0.3	0.1	2142.2
27633	7.3	0.4	0.1	2217.1
27634	7.3	0.5	0.1	2310.4
27635	7.3	0.6	0.1	2421.9
27636	7.3	0.7	0.1	2551.5
27637	7.3	0.8	0.1	2698.8
27638	7.3	0.9	0.1	2864.
27639	7.3	1.	0.1	3047.3
27640	7.3	1.1	0.1	3249.4
27641	7.3	1.2	0.1	3470.7
27642	7.3	1.3	0.1	3711.6
27643	7.3	1.4	0.1	3971.8
27644	7.3	1.5	0.1	4249.7
27645	7.3	1.6	0.1	4542.2
27646	7.3	1.7	0.1	4844.
27647	7.3	1.8	0.1	5147.9
27648	7.3	1.9	0.1	5445.6
27649	7.3	2.	0.1	5728.7
27650	7.3	2.1	0.1	5988.8
27651	7.3	2.2	0.1	6218.7
27652	7.3	2.3	0.1	6413.1
27653	7.3	2.4	0.1	6569.8
27654	7.3	2.5	0.1	6690.1
27655	7.3	2.6	0.1	6778.2
27656	7.3	2.7	0.1	6839.4
27657	7.3	2.8	0.1	6878.9
27658	7.3	2.9	0.1	6900.8
27659	7.3	3.	0.1	6907.8
27660	7.3	3.1	0.1	6900.8
27661	7.3	3.2	0.1	6878.9
27662	7.3	3.3	0.1	6839.4
27663	7.3	3.4	0.1	6778.2
27664	7.3	3.5	0.1	6690.1
27665	7.3	3.6	0.1	6569.8
27666	7.3	3.7	0.1	6413.1
27667	7.3	3.8	0.1	6218.7
27668	7.3	3.9	0.1	5988.8
27669	7.3	4.	0.1	5728.7
27670	7.3	4.1	0.1	5445.6
27671	7.3	4.2	0.1	5147.9
27672	7.3	4.3	0.1	4844.
27673	7.3	4.4	0.1	4542.2
27674	7.3	4.5	0.1	4249.7
27675	7.3	4.6	0.1	3971.7
27676	7.3	4.7	0.1	3711.6
27677	7.3	4.8	0.1	3470.7
27678	7.3	4.9	0.1	3249.4
27679	7.3	5.	0.1	3047.3
27680	7.3	5.1	0.1	2864.
27681	7.3	5.2	0.1	2698.8
27682	7.3	5.3	0.1	2551.5
27683	7.3	5.4	0.1	2421.9
27684	7.3	5.5	0.1	2310.4
27685	7.3	5.6	0.1	2217.1
27686	7.3	5.7	0.1	2142.2
27687	7.3	5.8	0.1	2085.4
27688	7.3	5.9	0.1	2050.
27689	7.4	0.1	0.1	1805.9
27690	7.4	0.2	0.1	1843.3
27691	7.4	0.3	0.1	1905.8
27692	7.4	0.4	0.1	1989.1
27693	7.4	0.5	0.1	2092.6
27694	7.4	0.6	0.1	2215.7
27695	7.4	0.7	0.1	2357.6
27696	7.4	0.8	0.1	2518.
27697	7.4	0.9	0.1	2697.1
27698	7.4	1.	0.1	2895.7
27699	7.4	1.1	0.1	3115.4
27700	7.4	1.2	0.1	3357.7
27701	7.4	1.3	0.1	3624.6
27702	7.4	1.4	0.1	3917.2
27703	7.4	1.5	0.1	4235.8
27704	7.4	1.6	0.1	4577.9
27705	7.4	1.7	0.1	4937.8
27706	7.4	1.8	0.1	5305.6
27707	7.4	1.9	0.1	5668.5
27708	7.4	2.	0.1	6012.3
27709	7.4	2.1	0.1	6322.8
27710	7.4	2.2	0.1	6588.
27711	7.4	2.3	0.1	6800.5
27712	7.4	2.4	0.1	6959.8
27713	7.4	2.5	0.1	7071.7
27714	7.4	2.6	0.1	7145.7
27715	7.4	2.7	0.1	7191.6
27716	7.4	2.8	0.1	7218.2
27717	7.4	2.9	0.1	7231.6
27718	7.4	3.	0.1	7235.7
27719	7.4	3.1	0.1	7231.6
27720	7.4	3.2	0.1	7218.2
27721	7.4	3.3	0.1	7191.6
27722	7.4	3.4	0.1	7145.7
27723	7.4	3.5	0.1	7071.7
27724	7.4	3.6	0.1	6959.8
27725	7.4	3.7	0.1	6800.5
27726	7.4	3.8	0.1	6588.
27727	7.4	3.9	0.1	6322.8
27728	7.4	4.	0.1	6012.3
27729	7.4	4.1	0.1	5668.5
27730	7.4	4.2	0.1	5305.6
27731	7.4	4.3	0.1	4937.8
27732	7.4	4.4	0.1	4577.9
27733	7.4	4.5	0.1	4235.8
27734	7.4	4.6	0.1	3917.2
27735	7.4	4.7	0.1	3624.6
27736	7.4	4.8	0.1	3357.7
27737	7.4	4.9	0.1	3115.4
27738	7.4	5.	0.1	2895.7
27739	7.4	5.1	0.1	2697.1
27740	7.4	5.2	0.1	2518.
27741	7.4	5.3	0.1	2357.6
27742	7.4	5.4	0.1	2215.7
27743	7.4	5.5	0.1	2092.6
27744	7.4	5.6	0.1	1989.1
27745	7.4	5.7	0.1	1905.8
27746	7.4	5.8	0.1	1843.3
27747	7.4	5.9	0.1	1805.9
27748	7.5	0.1	0.1	1549.3
27749	7.5	0.2	0.1	1590.4
27750	7.5	0.3	0.1	1661.3
27751	7.5	0.4	0.1	1756.
27752	7.5	0.5	0.1	1872.5
27753	7.5	0.6	0.1	2008.9
27754	7.5	0.7	0.1	2163.8
27755	7.5	0.8	0.1	2336.9
27756	7.5	0.9	0.1	2528.8
27757	7.5	1.	0.1	2741.1
27758	7.5	1.1	0.1	2976.3
27759	7.5	1.2	0.1	3237.6
27760	7.5	1.3	0.1	3528.9
27761	7.5	1.4	0.1	3854.3
27762	7.5	1.5	0.1	4217.2
27763	7.5	1.6	0.1	4618.2
27764	7.5	1.7	0.1	5052.8
27765	7.5	1.8	0.1	5508.3
27766	7.5	1.9	0.1	5963.9
27767	7.5	2.	0.1	6393.8
27768	7.5	2.1	0.1	6771.5
27769	7.5	2.2	0.1	7075.4
27770	7.5	2.3	0.1	7296.1
27771	7.5	2.4	0.1	7439.9
27772	7.5	2.5	0.1	7522.9
27773	7.5	2.6	0.1	7564.1
27774	7.5	2.7	0.1	7580.3
27775	7.5	2.8	0.1	7584.
27776	7.5	2.9	0.1	7583.2
27777	7.5	3.	0.1	7582.4
27778	7.5	3.1	0.1	7583.2
27779	7.5	3.2	0.1	7584.
27780	7.5	3.3	0.1	7580.3
27781	7.5	3.4	0.1	7564.1
27782	7.5	3.5	0.1	7522.9
27783	7.5	3.6	0.1	7439.9
27784	7.5	3.7	0.1	7296.1
27785	7.5	3.8	0.1	7075.4
27786	7.5	3.9	0.1	6771.5
27787	7.5	4.	0.1	6393.8
27788	7.5	4.1	0.1	5963.9
27789	7.5	4.2	0.1	5508.3
27790	7.5	4.3	0.1	5052.8
27791	7.5	4.4	0.1	4618.2
27792	7.5	4.5	0.1	4217.2
27793	7.5	4.6	0.1	3854.3
27794	7.5	4.7	0.1	3528.9
27795	7.5	4.8	0.1	3237.6
27796	7.5	4.9	0.1	2976.3
27797	7.5	5.	0.1	2741.1
27798	7.5	5.1	0.1	2528.8
27799	7.5	5.2	0.1	2336.9
27800	7.5	5.3	0.1	2163.8
27801	7.5	5.4	0.1	2008.9
27802	7.5	5.5	0.1	1872.5
27803	7.5	5.6	0.1	1756.
27804	7.5	5.7	0.1	1661.3
27805	7.5	5.8	0.1	1590.4
27806	7.5	5.9	0.1	1549.3
27807	7.6	0.1	0.1	1281.2
27808	7.6	0.2	0.1	1329.5
27809	7.6	0.3	0.1	1413.9
27810	7.6	0.4	0.1	1524.9
27811	7.6	0.5	0.1	1657.8
27812	7.6	0.6	0.1	1809.1
27813	7.6	0.7	0.1	1977.2
27814	7.6	0.8	0.1	2161.9
27815	7.6	0.9	0.1	2364.4
27816	7.6	1.	0.1	2587.2
27817	7.6	1.1	0.1	2834.1
27818	7.6	1.2	0.1	3110.1
27819	7.6	1.3	0.1	3421.7
27820	7.6	1.4	0.1	3776.8
27821	7.6	1.5	0.1	4184.6
27822	7.6	1.6	0.1	4653.1
27823	7.6	1.7	0.1	5184.4
27824	7.6	1.8	0.1	5767.1
27825	7.6	1.9	0.1	6367.
27826	7.6	2.	0.1	6930.7
27827	7.6	2.1	0.1	7402.3
27828	7.6	2.2	0.1	7740.
27829	7.6	2.3	0.1	7940.6
27830	7.6	2.4	0.1	8029.8
27831	7.6	2.5	0.1	8047.7
27832	7.6	2.6	0.1	8028.2
27833	7.6	2.7	0.1	7995.2
27834	7.6	2.8	0.1	7963.6
27835	7.6	2.9	0.1	7941.8
27836	7.6	3.	0.1	7934.1
27837	7.6	3.1	0.1	7941.8
27838	7.6	3.2	0.1	7963.6
27839	7.6	3.3	0.1	7995.2
27840	7.6	3.4	0.1	8028.2
27841	7.6	3.5	0.1	8047.6
27842	7.6	3.6	0.1	8029.8
27843	7.6	3.7	0.1	7940.6
27844	7.6	3.8	0.1	7740.
27845	7.6	3.9	0.1	7402.2
27846	7.6	4.	0.1	6930.7
27847	7.6	4.1	0.1	6367.
27848	7.6	4.2	0.1	5767.1
27849	7.6	4.3	0.1	5184.4
27850	7.6	4.4	0.1	4653.1
27851	7.6	4.5	0.1	4184.6
27852	7.6	4.6	0.1	3776.8
27853	7.6	4.7	0.1	3421.7
27854	7.6	4.8	0.1	3110.1
27855	7.6	4.9	0.1	2834.1
27856	7.6	5.	0.1	2587.2
27857	7.6	5.1	0.1	2364.4
27858	7.6	5.2	0.1	2161.9
27859	7.6	5.3	0.1	1977.2
27860	7.6	5.4	0.1	1809.1
27861	7.6	5.5	0.1	1657.8
27862	7.6	5.6	0.1	1524.9
27863	7.6	5.7	0.1	1413.9
27864	7.6	5.8	0.1	1329.5
27865	7.6	5.9	0.1	1281.2
27866	7.7	0.1	0.1	1003.
27867	7.7	0.2	0.1	1066.7
27868	7.7	0.3	0.1	1174.1
27869	7.7	0.4	0.1	1308.1
27870	7.7	0.5	0.1	1460.5
27871	7.7	0.6	0.1	1627.1
27872	7.7	0.7	0.1	1806.8
27873	7.7	0.8	0.1	2000.3
27874	7.7	0.9	0.1	2209.8
27875	7.7	1.	0.1	2438.7
27876	7.7	1.1	0.1	2691.8
27877	7.7	1.2	0.1	2975.8
27878	7.7	1.3	0.1	3299.8
27879	7.7	1.4	0.1	3676.3
27880	7.7	1.5	0.1	4122.4
27881	7.7	1.6	0.1	4659.4
27882	7.7	1.7	0.1	5312.7
27883	7.7	1.8	0.1	6090.3
27884	7.7	1.9	0.1	6938.
27885	7.7	2.	0.1	7743.6
27886	7.7	2.1	0.1	8344.9
27887	7.7	2.2	0.1	8688.4
27888	7.7	2.3	0.1	8785.
27889	7.7	2.4	0.1	8741.2
27890	7.7	2.5	0.1	8636.5
27891	7.7	2.6	0.1	8519.6
27892	7.7	2.7	0.1	8415.5
27893	7.7	2.8	0.1	8336.2
27894	7.7	2.9	0.1	8287.2
27895	7.7	3.	0.1	8270.7
27896	7.7	3.1	0.1	8287.2
27897	7.7	3.2	0.1	8336.2
27898	7.7	3.3	0.1	8415.4
27899	7.7	3.4	0.1	8519.6
27900	7.7	3.5	0.1	8636.5
27901	7.7	3.6	0.1	8741.2
27902	7.7	3.7	0.1	8785.
27903	7.7	3.8	0.1	8688.4
27904	7.7	3.9	0.1	8344.9
27905	7.7	4.	0.1	7743.6
27906	7.7	4.1	0.1	6938.
27907	7.7	4.2	0.1	6090.3
27908	7.7	4.3	0.1	5312.7
27909	7.7	4.4	0.1	4659.4
27910	7.7	4.5	0.1	4122.4
27911	7.7	4.6	0.1	3676.3
27912	7.7	4.7	0.1	3299.8
27913	7.7	4.8	0.1	2975.8
27914	7.7	4.9	0.1	2691.8
27915	7.7	5.	0.1	2438.7
27916	7.7	5.1	0.1	2209.8
27917	7.7	5.2	0.1	2000.3
27918	7.7	5.3	0.1	1806.8
27919	7.7	5.4	0.1	1627.1
27920	7.7	5.5	0.1	1460.5
27921	7.7	5.6	0.1	1308.1
27922	7.7	5.7	0.1	1174.1
27923	7.7	5.8	0.1	1066.7
27924	7.7	5.9	0.1	1003.
27925	7.8	0.1	0.1	717.42
27926	7.8	0.2	0.1	816.72
27927	7.8	0.3	0.1	961.7
27928	7.8	0.4	0.1	1124.2
27929	7.8	0.5	0.1	1296.
27930	7.8	0.6	0.1	1475.4
27931	7.8	0.7	0.1	1663.1
27932	7.8	0.8	0.1	1861.3
27933	7.8	0.9	0.1	2073.1
27934	7.8	1.	0.1	2302.6
27935	7.8	1.1	0.1	2555.3
27936	7.8	1.2	0.1	2838.9
27937	7.8	1.3	0.1	3164.1
27938	7.8	1.4	0.1	3547.
27939	7.8	1.5	0.1	4011.9
27940	7.8	1.6	0.1	4598.4
27941	7.8	1.7	0.1	5369.1
27942	7.8	1.8	0.1	6409.8
27943	7.8	1.9	0.1	7860.5
27944	7.8	2.	0.1	9109.6
27945	7.8	2.1	0.1	9974.1
27946	7.8	2.2	0.1	10084
27947	7.8	2.3	0.1	9862.9
27948	7.8	2.4	0.1	9550.1
27949	7.8	2.5	0.1	9250.7
27950	7.8	2.6	0.1	9000.
27951	7.8	2.7	0.1	8807.1
27952	7.8	2.8	0.1	8672.1
27953	7.8	2.9	0.1	8592.5
27954	7.8	3.	0.1	8566.2
27955	7.8	3.1	0.1	8592.5
27956	7.8	3.2	0.1	8672.1
27957	7.8	3.3	0.1	8807.1
27958	7.8	3.4	0.1	9000.
27959	7.8	3.5	0.1	9250.7
27960	7.8	3.6	0.1	9550.1
27961	7.8	3.7	0.1	9862.9
27962	7.8	3.8	0.1	10084
27963	7.8	3.9	0.1	9974.1
27964	7.8	4.	0.1	9109.6
27965	7.8	4.1	0.1	7860.5
27966	7.8	4.2	0.1	6409.8
27967	7.8	4.3	0.1	5369.1
27968	7.8	4.4	0.1	4598.4
27969	7.8	4.5	0.1	4011.9
27970	7.8	4.6	0.1	3547.
27971	7.8	4.7	0.1	3164.1
27972	7.8	4.8	0.1	2838.9
27973	7.8	4.9	0.1	2555.3
27974	7.8	5.	0.1	2302.6
27975	7.8	5.1	0.1	2073.1
27976	7.8	5.2	0.1	1861.3
27977	7.8	5.3	0.1	1663.1
27978	7.8	5.4	0.1	1475.4
27979	7.8	5.5	0.1	1296.
27980	7.8	5.6	0.1	1124.2
27981	7.8	5.7	0.1	961.7
27982	7.8	5.8	0.1	816.72
27983	7.8	5.9	0.1	717.42
27984	7.9	0.1	0.1	449.8
27985	7.9	0.2	0.1	634.21
27986	7.9	0.3	0.1	830.02
27987	7.9	0.4	0.1	1022.2
27988	7.9	0.5	0.1	1212.9
27989	7.9	0.6	0.1	1405.4
27990	7.9	0.7	0.1	1602.6
27991	7.9	0.8	0.1	1807.9
27992	7.9	0.9	0.1	2025.1
27993	7.9	1.	0.1	2258.5
27994	7.9	1.1	0.1	2513.8
27995	7.9	1.2	0.1	2798.8
27996	7.9	1.3	0.1	3124.4
27997	7.9	1.4	0.1	3507.5
27998	7.9	1.5	0.1	3975.8
27999	7.9	1.6	0.1	4575.3
28000	7.9	1.7	0.1	5415.2
28001	7.9	1.8	0.1	6663.1
28002	7.9	1.9	0.1	9496.7
28003	7.9	2.	0.1	13761
28004	7.9	2.1	0.1	13078
28005	7.9	2.2	0.1	12018
28006	7.9	2.3	0.1	11070
28007	7.9	2.4	0.1	10351
28008	7.9	2.5	0.1	9806.6
28009	7.9	2.6	0.1	9407.8
28010	7.9	2.7	0.1	9124.4
28011	7.9	2.8	0.1	8935.5
28012	7.9	2.9	0.1	8827.2
28013	7.9	3.	0.1	8792.
28014	7.9	3.1	0.1	8827.2
28015	7.9	3.2	0.1	8935.5
28016	7.9	3.3	0.1	9124.4
28017	7.9	3.4	0.1	9407.8
28018	7.9	3.5	0.1	9806.6
28019	7.9	3.6	0.1	10351
28020	7.9	3.7	0.1	11070
28021	7.9	3.8	0.1	12018
28022	7.9	3.9	0.1	13078
28023	7.9	4.	0.1	13761
28024	7.9	4.1	0.1	9496.7
28025	7.9	4.2	0.1	6663.1
28026	7.9	4.3	0.1	5415.2
28027	7.9	4.4	0.1	4575.3
28028	7.9	4.5	0.1	3975.8
28029	7.9	4.6	0.1	3507.5
28030	7.9	4.7	0.1	3124.4
28031	7.9	4.8	0.1	2798.8
28032	7.9	4.9	0.1	2513.8
28033	7.9	5.	0.1	2258.5
28034	7.9	5.1	0.1	2025.1
28035	7.9	5.2	0.1	1807.9
28036	7.9	5.3	0.1	1602.6
28037	7.9	5.4	0.1	1405.4
28038	7.9	5.5	0.1	1212.9
28039	7.9	5.6	0.1	1022.2
28040	7.9	5.7	0.1	830.02
28041	7.9	5.8	0.1	634.21
28042	7.9	5.9	0.1	449.8
28043	8.1667	3.9	0.1	16246
28044	8.1667	3.8	0.1	13781
28045	8.1667	3.7	0.1	12031
28046	8.1667	3.6	0.1	10910
28047	8.1667	3.5	0.1	10151
28048	8.1667	3.4	0.1	9631.2
28049	8.1667	3.3	0.1	9277.8
28050	8.1667	3.2	0.1	9048.4
28051	8.1667	3.1	0.1	8919.
28052	8.1667	3.	0.1	8877.2
28053	8.1667	2.9	0.1	8919.
28054	8.1667	2.8	0.1	9048.4
28055	8.1667	2.7	0.1	9277.8
28056	8.1667	2.6	0.1	9631.2
28057	8.1667	2.5	0.1	10151
28058	8.1667	2.4	0.1	10910
28059	8.1667	2.3	0.1	12031
28060	8.1667	2.2	0.1	13781
28061	8.1667	2.1	0.1	16246
28062	8.	3.9	0.1	16524
28063	8.	3.8	0.1	13790
28064	8.	3.7	0.1	12044
28065	8.	3.6	0.1	10931
28066	8.	3.5	0.1	10180
28067	8.	3.4	0.1	9666.3
28068	8.	3.3	0.1	9316.5
28069	8.	3.2	0.1	9089.5
28070	8.	3.1	0.1	8961.3
28071	8.	3.	0.1	8919.9
28072	8.	2.9	0.1	8961.3
28073	8.	2.8	0.1	9089.5
28074	8.	2.7	0.1	9316.5
28075	8.	2.6	0.1	9666.3
28076	8.	2.5	0.1	10180
28077	8.	2.4	0.1	10931
28078	8.	2.3	0.1	12044
28079	8.	2.2	0.1	13790
28080	8.	2.1	0.1	16524
28081	8.0833	4.	0.1	22301
28082	8.1667	5.9	0.1	157.91
28083	8.1667	5.8	0.1	328.71
28084	8.1667	5.7	0.1	465.71
28085	8.1667	5.6	0.1	587.46
28086	8.1667	5.5	0.1	702.01
28087	8.1667	5.4	0.1	813.8
28088	8.1667	5.3	0.1	925.98
28089	8.1667	5.2	0.1	1041.2
28090	8.1667	5.1	0.1	1162.
28091	8.1667	5.	0.1	1291.1
28092	8.1667	4.9	0.1	1431.8
28093	8.1667	4.8	0.1	1588.
28094	8.1667	4.7	0.1	1765.5
28095	8.1667	4.6	0.1	1972.1
28096	8.1667	4.5	0.1	2221.6
28097	8.1667	4.4	0.1	2531.2
28098	8.1667	4.3	0.1	2964.2
28099	8.1667	4.2	0.1	3483.2
28100	8.1667	4.1	0.1	4972.2
28101	8.1667	4.	0.1	23642
28102	8.	4.	0.1	23427
28103	8.	4.1	0.1	4619.1
28104	8.	4.2	0.1	3233.5
28105	8.	4.3	0.1	2782.2
28106	8.	4.4	0.1	2403.8
28107	8.	4.5	0.1	2137.9
28108	8.	4.6	0.1	1921.9
28109	8.	4.7	0.1	1742.
28110	8.	4.8	0.1	1585.7
28111	8.	4.9	0.1	1446.2
28112	8.	5.	0.1	1318.7
28113	8.	5.1	0.1	1199.5
28114	8.	5.2	0.1	1086.
28115	8.	5.3	0.1	975.44
28116	8.	5.4	0.1	865.62
28117	8.	5.5	0.1	753.84
28118	8.	5.6	0.1	636.8
28119	8.	5.7	0.1	509.68
28120	8.	5.8	0.1	363.51
28121	8.	5.9	0.1	177.16
28122	8.0833	2.	0.1	22301
28123	8.1667	0.1	0.1	157.91
28124	8.1667	0.2	0.1	328.71
28125	8.1667	0.3	0.1	465.71
28126	8.1667	0.4	0.1	587.46
28127	8.1667	0.5	0.1	702.01
28128	8.1667	0.6	0.1	813.8
28129	8.1667	0.7	0.1	925.98
28130	8.1667	0.8	0.1	1041.2
28131	8.1667	0.9	0.1	1162.
28132	8.1667	1.	0.1	1291.1
28133	8.1667	1.1	0.1	1431.8
28134	8.1667	1.2	0.1	1588.
28135	8.1667	1.3	0.1	1765.5
28136	8.1667	1.4	0.1	1972.1
28137	8.1667	1.5	0.1	2221.6
28138	8.1667	1.6	0.1	2531.2
28139	8.1667	1.7	0.1	2964.2
28140	8.1667	1.8	0.1	3483.2
28141	8.1667	1.9	0.1	4972.2
28142	8.1667	2.	0.1	23642
28143	8.	2.	0.1	23427
28144	8.	1.9	0.1	4619.1
28145	8.	1.8	0.1	3233.5
28146	8.	1.7	0.1	2782.2
28147	8.	1.6	0.1	2403.8
28148	8.	1.5	0.1	2137.9
28149	8.	1.4	0.1	1921.9
28150	8.	1.3	0.1	1742.
28151	8.	1.2	0.1	1585.7
28152	8.	1.1	0.1	1446.2
28153	8.	1.	0.1	1318.7
28154	8.	0.9	0.1	1199.5
28155	8.	0.8	0.1	1086.
28156	8.	0.7	0.1	975.44
28157	8.	0.6	0.1	865.62
28158	8.	0.5	0.1	753.84
28159	8.	0.4	0.1	636.8
28160	8.	0.3	0.1	509.68
28161	8.	0.2	0.1	363.51
28162	8.	0.1	0.1	177.16
28163	8.1667	6.	0.1	9.7425
28164	8.2662	6.	0.1	212.1
28165	8.3658	6.	0.1	492.98
28166	8.4654	6.	0.1	746.47
28167	8.565	6.	0.1	982.84
28168	8.6646	6.	0.1	1205.
28169	8.7642	6.	0.1	1412.8
28170	8.8637	6.	0.1	1606.1
28171	8.9633	6.	0.1	1784.5
28172	9.0629	6.	0.1	1947.9
28173	9.1625	6.	0.1	2096.4
28174	9.2621	6.	0.1	2230.3
28175	9.3616	6.	0.1	2350.1
28176	9.4612	6.	0.1	2456.4
28177	9.5608	6.	0.1	2550.
28178	9.6604	6.	0.1	2631.6
28179	9.76	6.	0.1	2702.1
28180	9.8595	6.	0.1	2762.5
28181	9.9591	6.	0.1	2813.5
28182	10.059	6.	0.1	2855.9
28183	10.158	6.	0.1	2890.7
28184	10.258	6.	0.1	2918.5
28185	10.357	6.	0.1	2940.
28186	10.457	6.	0.1	2955.8
28187	10.557	6.	0.1	2966.7
28188	10.656	6.	0.1	2973.
28189	10.756	6.	0.1	2975.3
28190	10.855	6.	0.1	2974.1
28191	10.955	6.	0.1	2969.7
28192	11.055	6.	0.1	2962.5
28193	11.154	6.	0.1	2952.9
28194	11.254	6.	0.1	2941.1
28195	11.353	6.	0.1	2927.4
28196	11.453	6.	0.1	2912.
28197	11.552	6.	0.1	2895.1
28198	11.652	6.	0.1	2876.9
28199	11.752	6.	0.1	2857.6
28200	11.851	6.	0.1	2837.2
28201	11.951	6.	0.1	2816.1
28202	12.05	6.	0.1	2794.2
28203	12.15	6.	0.1	2771.6
28204	12.249	6.	0.1	2748.5
28205	12.349	6.	0.1	2724.9
28206	12.449	6.	0.1	2700.8
28207	12.548	6.	0.1	2676.5
28208	12.648	6.	0.1	2651.8
28209	12.747	6.	0.1	2626.8
28210	12.847	6.	0.1	2601.7
28211	12.947	6.	0.1	2576.4
28212	13.046	6.	0.1	2550.9
28213	13.146	6.	0.1	2525.3
28214	13.245	6.	0.1	2499.7
28215	13.345	6.	0.1	2473.9
28216	13.444	6.	0.1	2448.1
28217	13.544	6.	0.1	2422.3
28218	13.644	6.	0.1	2396.4
28219	13.743	6.	0.1	2370.6
28220	13.843	6.	0.1	2344.7
28221	13.942	6.	0.1	2318.8
28222	14.042	6.	0.1	2293.
28223	14.142	6.	0.1	2267.2
28224	14.241	6.	0.1	2241.4
28225	14.341	6.	0.1	2215.6
28226	14.44	6.	0.1	2189.9
28227	14.54	6.	0.1	2164.2
28228	14.639	6.	0.1	2138.6
28229	14.739	6.	0.1	2113.1
28230	14.839	6.	0.1	2087.5
28231	14.938	6.	0.1	2062.1
28232	15.038	6.	0.1	2036.7
28233	15.137	6.	0.1	2011.3
28234	15.237	6.	0.1	1986.
28235	15.336	6.	0.1	1960.8
28236	15.436	6.	0.1	1935.6
28237	15.536	6.	0.1	1910.5
28238	15.635	6.	0.1	1885.5
28239	15.735	6.	0.1	1860.5
28240	15.834	6.	0.1	1835.6
28241	15.934	6.	0.1	1810.7
28242	16.034	6.	0.1	1785.9
28243	16.133	6.	0.1	1761.2
28244	16.233	6.	0.1	1736.5
28245	16.332	6.	0.1	1711.9
28246	16.432	6.	0.1	1687.4
28247	16.531	6.	0.1	1662.9
28248	16.631	6.	0.1	1638.5
28249	16.731	6.	0.1	1614.1
28250	16.83	6.	0.1	1589.8
28251	16.93	6.	0.1	1565.5
28252	17.029	6.	0.1	1541.4
28253	17.129	6.	0.1	1517.2
28254	17.229	6.	0.1	1493.2
28255	17.328	6.	0.1	1469.2
28256	17.428	6.	0.1	1445.2
28257	17.527	6.	0.1	1421.4
28258	17.627	6.	0.1	1397.5
28259	17.726	6.	0.1	1373.8
28260	17.826	6.	0.1	1350.1
28261	17.926	6.	0.1	1326.4
28262	18.025	6.	0.1	1302.8
28263	18.125	6.	0.1	1279.3
28264	18.224	6.	0.1	1255.8
28265	18.324	6.	0.1	1232.4
28266	18.423	6.	0.1	1209.
28267	18.523	6.	0.1	1185.7
28268	18.623	6.	0.1	1162.4
28269	18.722	6.	0.1	1139.2
28270	18.822	6.	0.1	1116.1
28271	18.921	6.	0.1	1093.
28272	19.021	6.	0.1	1070.
28273	19.121	6.	0.1	1047.
28274	19.22	6.	0.1	1024.
28275	19.32	6.	0.1	1001.1
28276	19.419	6.	0.1	978.31
28277	19.519	6.	0.1	955.53
28278	19.618	6.	0.1	932.8
28279	19.718	6.	0.1	910.12
28280	19.818	6.	0.1	887.48
28281	19.917	6.	0.1	864.9
28282	20.017	6.	0.1	842.37
28283	20.116	6.	0.1	819.88
28284	20.216	6.	0.1	797.45
28285	20.316	6.	0.1	775.06
28286	20.415	6.	0.1	752.72
28287	20.515	6.	0.1	730.43
28288	20.614	6.	0.1	708.18
28289	20.714	6.	0.1	685.99
28290	20.813	6.	0.1	663.84
28291	20.913	6.	0.1	641.73
28292	21.013	6.	0.1	619.68
28293	21.112	6.	0.1	597.67
28294	21.212	6.	0.1	575.71
28295	21.311	6.	0.1	553.79
28296	21.411	6.	0.1	531.93
28297	21.51	6.	0.1	510.11
28298	21.61	6.	0.1	488.35
28299	21.71	6.	0.1	466.64
28300	21.809	6.	0.1	444.98
28301	21.909	6.	0.1	423.37
28302	22.008	6.	0.1	401.83
28303	22.108	6.	0.1	380.34
28304	22.208	6.	0.1	358.92
28305	22.307	6.	0.1	337.56
28306	22.407	6.	0.1	316.28
28307	22.506	6.	0.1	295.08
28308	22.606	6.	0.1	273.96
28309	22.705	6.	0.1	252.94
28310	22.805	6.	0.1	232.02
28311	22.905	6.	0.1	211.23
28312	23.004	6.	0.1	190.57
28313	23.104	6.	0.1	170.07
28314	23.203	6.	0.1	149.77
28315	23.303	6.	0.1	129.69
28316	23.403	6.	0.1	109.89
28317	23.502	6.	0.1	90.441
28318	23.602	6.	0.1	71.459
28319	23.701	6.	0.1	53.108
28320	23.801	6.	0.1	35.736
28321	23.9	6.	0.1	19.945
28322	24.	6.	0.1	5.2659
28323	24.	5.9	0.1	3.9881
28324	24.	5.8	0.1	4.2392
28325	24.	5.7	0.1	4.2739
28326	24.	5.6	0.1	4.2993
28327	24.	5.5	0.1	4.2951
28328	24.	5.4	0.1	4.2785
28329	24.	5.3	0.1	4.2551
28330	24.	5.2	0.1	4.2278
28331	24.	5.1	0.1	4.1985
28332	24.	5.	0.1	4.1685
28333	24.	4.9	0.1	4.1383
28334	24.	4.8	0.1	4.1087
28335	24.	4.7	0.1	4.0799
28336	24.	4.6	0.1	4.0523
28337	24.	4.5	0.1	4.0259
28338	24.	4.4	0.1	4.001
28339	24.	4.3	0.1	3.9776
28340	24.	4.2	0.1	3.9558
28341	24.	4.1	0.1	3.9357
28342	24.	4.	0.1	3.9173
28343	24.	3.9	0.1	3.9006
28344	24.	3.8	0.1	3.8857
28345	24.	3.7	0.1	3.8724
28346	24.	3.6	0.1	3.861
28347	24.	3.5	0.1	3.8513
28348	24.	3.4	0.1	3.8433
28349	24.	3.3	0.1	3.8372
28350	24.	3.2	0.1	3.8327
28351	24.	3.1	0.1	3.8301
28352	24.	3.	0.1	3.8292
28353	24.	2.9	0.1	3.8301
28354	24.	2.8	0.1	3.8327
28355	24.	2.7	0.1	3.8372
28356	24.	2.6	0.1	3.8433
28357	24.	2.5	0.1	3.8513
28358	24.	2.4	0.1	3.861
28359	24.	2.3	0.1	3.8724
28360	24.	2.2	0.1	3.8857
28361	24.	2.1	0.1	3.9006
28362	24.	2.	0.1	3.9173
28363	24.	1.9	0.1	3.9357
28364	24.	1.8	0.1	3.9558
28365	24.	1.7	0.1	3.9776
28366	24.	1.6	0.1	4.001
28367	24.	1.5	0.1	4.0259
28368	24.	1.4	0.1	4.0523
28369	24.	1.3	0.1	4.0799
28370	24.	1.2	0.1	4.1087
28371	24.	1.1	0.1	4.1383
28372	24.	1.	0.1	4.1685
28373	24.	0.9	0.1	4.1985
28374	24.	0.8	0.1	4.2278
28375	24.	0.7	0.1	4.2551
28376	24.	0.6	0.1	4.2785
28377	24.	0.5	0.1	4.2951
28378	24.	0.4	0.1	4.2993
28379	24.	0.3	0.1	4.2739
28380	24.	0.2	0.1	4.2392
28381	24.	0.1	0.1	3.9881
28382	8.7419e-016	0.1	0.1	1034.2
28383	1.7484e-015	0.2	0.1	2744.3
28384	2.6226e-015	0.3	0.1	3972.1
28385	3.4968e-015	0.4	0.1	4806.6
28386	4.371e-015	0.5	0.1	5391.7
28387	5.2451e-015	0.6	0.1	5825.6
28388	6.1193e-015	0.7	0.1	6160.9
28389	6.9935e-015	0.8	0.1	6428.
28390	7.8677e-015	0.9	0.1	6645.7
28391	8.7419e-015	1.	0.1	6826.
28392	9.6161e-015	1.1	0.1	6977.4
28393	1.049e-014	1.2	0.1	7105.8
28394	1.1364e-014	1.3	0.1	7215.4
28395	1.2239e-014	1.4	0.1	7309.7
28396	1.3113e-014	1.5	0.1	7391.2
28397	1.3987e-014	1.6	0.1	7461.8
28398	1.4861e-014	1.7	0.1	7523.1
28399	1.5735e-014	1.8	0.1	7576.4
28400	1.661e-014	1.9	0.1	7622.7
28401	1.7484e-014	2.	0.1	7662.9
28402	1.8358e-014	2.1	0.1	7697.5
28403	1.9232e-014	2.2	0.1	7727.3
28404	2.0106e-014	2.3	0.1	7752.7
28405	2.0981e-014	2.4	0.1	7774.
28406	2.1855e-014	2.5	0.1	7791.5
28407	2.2729e-014	2.6	0.1	7805.5
28408	2.3603e-014	2.7	0.1	7816.2
28409	2.4477e-014	2.8	0.1	7823.8
28410	2.5352e-014	2.9	0.1	7828.3
28411	2.6226e-014	3.	0.1	7829.8
28412	2.71e-014	3.1	0.1	7828.3
28413	2.7974e-014	3.2	0.1	7823.8
28414	2.8848e-014	3.3	0.1	7816.2
28415	2.9723e-014	3.4	0.1	7805.5
28416	3.0597e-014	3.5	0.1	7791.5
28417	3.1471e-014	3.6	0.1	7774.
28418	3.2345e-014	3.7	0.1	7752.7
28419	3.3219e-014	3.8	0.1	7727.3
28420	3.4093e-014	3.9	0.1	7697.5
28421	3.4968e-014	4.	0.1	7662.9
28422	3.5842e-014	4.1	0.1	7622.7
28423	3.6716e-014	4.2	0.1	7576.4
28424	3.759e-014	4.3	0.1	7523.1
28425	3.8464e-014	4.4	0.1	7461.8
28426	3.9339e-014	4.5	0.1	7391.2
28427	4.0213e-014	4.6	0.1	7309.7
28428	4.1087e-014	4.7	0.1	7215.4
28429	4.1961e-014	4.8	0.1	7105.8
28430	4.2835e-014	4.9	0.1	6977.4
28431	4.371e-014	5.	0.1	6826.
28432	4.4584e-014	5.1	0.1	6645.7
28433	4.5458e-014	5.2	0.1	6428.
28434	4.6332e-014	5.3	0.1	6160.9
28435	4.7206e-014	5.4	0.1	5825.6
28436	4.8081e-014	5.5	0.1	5391.7
28437	4.8955e-014	5.6	0.1	4806.6
28438	4.9829e-014	5.7	0.1	3972.1
28439	5.0703e-014	5.8	0.1	2744.3
28440	5.1577e-014	5.9	0.1	1034.2
28441	24.	0.	0.1	5.2659
28442	23.9	0.	0.1	19.945
28443	23.801	0.	0.1	35.736
28444	23.701	0.	0.1	53.108
28445	23.602	0.	0.1	71.459
28446	23.502	0.	0.1	90.441
28447	23.403	0.	0.1	109.89
28448	23.303	0.	0.1	129.69
28449	23.203	0.	0.1	149.77
28450	23.104	0.	0.1	170.07
28451	23.004	0.	0.1	190.57
28452	22.905	0.	0.1	211.23
28453	22.805	0.	0.1	232.02
28454	22.705	0.	0.1	252.94
28455	22.606	0.	0.1	273.96
28456	22.506	0.	0.1	295.08
28457	22.407	0.	0.1	316.28
28458	22.307	0.	0.1	337.56
28459	22.208	0.	0.1	358.92
28460	22.108	0.	0.1	380.34
28461	22.008	0.	0.1	401.83
28462	21.909	0.	0.1	423.37
28463	21.809	0.	0.1	444.98
28464	21.71	0.	0.1	466.64
28465	21.61	0.	0.1	488.35
28466	21.51	0.	0.1	510.11
28467	21.411	0.	0.1	531.93
28468	21.311	0.	0.1	553.79
28469	21.212	0.	0.1	575.71
28470	21.112	0.	0.1	597.67
28471	21.013	0.	0.1	619.68
28472	20.913	0.	0.1	641.73
28473	20.813	0.	0.1	663.84
28474	20.714	0.	0.1	685.99
28475	20.614	0.	0.1	708.18
28476	20.515	0.	0.1	730.43
28477	20.415	0.	0.1	752.72
28478	20.316	0.	0.1	775.06
28479	20.216	0.	0.1	797.45
28480	20.116	0.	0.1	819.88
28481	20.017	0.	0.1	842.37
28482	19.917	0.	0.1	864.9
28483	19.818	0.	0.1	887.48
28484	19.718	0.	0.1	910.12
28485	19.618	0.	0.1	932.8
28486	19.519	0.	0.1	955.53
28487	19.419	0.	0.1	978.31
28488	19.32	0.	0.1	1001.1
28489	19.22	0.	0.1	1024.
28490	19.121	0.	0.1	1047.
28491	19.021	0.	0.1	1070.
28492	18.921	0.	0.1	1093.
28493	18.822	0.	0.1	1116.1
28494	18.722	0.	0.1	1139.2
28495	18.623	0.	0.1	1162.4
28496	18.523	0.	0.1	1185.7
28497	18.423	0.	0.1	1209.
28498	18.324	0.	0.1	1232.4
28499	18.224	0.	0.1	1255.8
28500	18.125	0.	0.1	1279.3
28501	18.025	0.	0.1	1302.8
28502	17.926	0.	0.1	1326.4
28503	17.826	0.	0.1	1350.1
28504	17.726	0.	0.1	1373.8
28505	17.627	0.	0.1	1397.5
28506	17.527	0.	0.1	1421.4
28507	17.428	0.	0.1	1445.2
28508	17.328	0.	0.1	1469.2
28509	17.229	0.	0.1	1493.2
28510	17.129	0.	0.1	1517.2
28511	17.029	0.	0.1	1541.4
28512	16.93	0.	0.1	1565.5
28513	16.83	0.	0.1	1589.8
28514	16.731	0.	0.1	1614.1
28515	16.631	0.	0.1	1638.5
28516	16.531	0.	0.1	1662.9
28517	16.432	0.	0.1	1687.4
28518	16.332	0.	0.1	1711.9
28519	16.233	0.	0.1	1736.5
28520	16.133	0.	0.1	1761.2
28521	16.034	0.	0.1	1785.9
28522	15.934	0.	0.1	1810.7
28523	15.834	0.	0.1	1835.6
28524	15.735	0.	0.1	1860.5
28525	15.635	0.	0.1	1885.5
28526	15.536	0.	0.1	1910.5
28527	15.436	0.	0.1	1935.6
28528	15.336	0.	0.1	1960.8
28529	15.237	0.	0.1	1986.
28530	15.137	0.	0.1	2011.3
28531	15.038	0.	0.1	2036.7
28532	14.938	0.	0.1	2062.1
28533	14.839	0.	0.1	2087.5
28534	14.739	0.	0.1	2113.1
28535	14.639	0.	0.1	2138.6
28536	14.54	0.	0.1	2164.2
28537	14.44	0.	0.1	2189.9
28538	14.341	0.	0.1	2215.6
28539	14.241	0.	0.1	2241.4
28540	14.142	0.	0.1	2267.2
28541	14.042	0.	0.1	2293.
28542	13.942	0.	0.1	2318.8
28543	13.843	0.	0.1	2344.7
28544	13.743	0.	0.1	2370.6
28545	13.644	0.	0.1	2396.4
28546	13.544	0.	0.1	2422.3
28547	13.444	0.	0.1	2448.1
28548	13.345	0.	0.1	2473.9
28549	13.245	0.	0.1	2499.7
28550	13.146	0.	0.1	2525.3
28551	13.046	0.	0.1	2550.9
28552	12.947	0.	0.1	2576.4
28553	12.847	0.	0.1	2601.7
28554	12.747	0.	0.1	2626.8
28555	12.648	0.	0.1	2651.8
28556	12.548	0.	0.1	2676.5
28557	12.449	0.	0.1	2700.8
28558	12.349	0.	0.1	2724.9
28559	12.249	0.	0.1	2748.5
28560	12.15	0.	0.1	2771.6
28561	12.05	0.	0.1	2794.2
28562	11.951	0.	0.1	2816.1
28563	11.851	0.	0.1	2837.2
28564	11.752	0.	0.1	2857.6
28565	11.652	0.	0.1	2876.9
28566	11.552	0.	0.1	2895.1
28567	11.453	0.	0.1	2912.
28568	11.353	0.	0.1	2927.4
28569	11.254	0.	0.1	2941.1
28570	11.154	0.	0.1	2952.9
28571	11.055	0.	0.1	2962.5
28572	10.955	0.	0.1	2969.7
28573	10.855	0.	0.1	2974.1
28574	10.756	0.	0.1	2975.3
28575	10.656	0.	0.1	2973.
28576	10.557	0.	0.1	2966.7
28577	10.457	0.	0.1	2955.8
28578	10.357	0.	0.1	2940.
28579	10.258	0.	0.1	2918.5
28580	10.158	0.	0.1	2890.7
28581	10.059	0.	0.1	2856.
28582	9.9591	0.	0.1	2813.5
28583	9.8595	0.	0.1	2762.5
28584	9.76	0.	0.1	2702.1
28585	9.6604	0.	0.1	2631.6
28586	9.5608	0.	0.1	2550.
28587	9.4612	0.	0.1	2456.4
28588	9.3616	0.	0.1	2350.1
28589	9.2621	0.	0.1	2230.3
28590	9.1625	0.	0.1	2096.4
28591	9.0629	0.	0.1	1947.9
28592	8.9633	0.	0.1	1784.5
28593	8.8637	0.	0.1	1606.1
28594	8.7642	0.	0.1	1412.8
28595	8.6646	0.	0.1	1204.9
28596	8.565	0.	0.1	982.84
28597	8.4654	0.	0.1	746.47
28598	8.3658	0.	0.1	492.98
28599	8.2662	0.	0.1	212.1
28600	8.1667	0.	0.1	9.7425
28601	8.	0.	0.1	11.206
28602	7.9	1.198e-030	0.1	250.52
28603	7.8	1.1829e-030	0.1	586.5
28604	7.7	1.1677e-030	0.1	894.83
28605	7.6	1.1525e-030	0.1	1187.2
28606	7.5	1.1374e-030	0.1	1466.8
28607	7.4	1.1222e-030	0.1	1733.5
28608	7.3	1.107e-030	0.1	1986.8
28609	7.2	1.0919e-030	0.1	2226.3
28610	7.1	1.0767e-030	0.1	2451.6
28611	7.	1.0615e-030	0.1	2662.7
28612	6.9	1.0464e-030	0.1	2859.6
28613	6.8	1.0312e-030	0.1	3042.8
28614	6.7	1.016e-030	0.1	3212.8
28615	6.6	1.0009e-030	0.1	3370.2
28616	6.5	9.8571e-031	0.1	3515.8
28617	6.4	9.7055e-031	0.1	3650.3
28618	6.3	9.5538e-031	0.1	3774.7
28619	6.2	9.4022e-031	0.1	3889.7
28620	6.1	9.2505e-031	0.1	3996.1
28621	6.	9.0989e-031	0.1	4094.8
28622	5.9	8.9472e-031	0.1	4186.4
28623	5.8	8.7956e-031	0.1	4271.8
28624	5.7	8.6439e-031	0.1	4351.4
28625	5.6	8.4923e-031	0.1	4426.
28626	5.5	8.3406e-031	0.1	4496.
28627	5.4	8.189e-031	0.1	4562.1
28628	5.3	8.0373e-031	0.1	4624.5
28629	5.2	7.8857e-031	0.1	4683.8
28630	5.1	7.734e-031	0.1	4740.3
28631	5.	7.5824e-031	0.1	4794.3
28632	4.9	7.4308e-031	0.1	4846.2
28633	4.8	7.2791e-031	0.1	4896.1
28634	4.7	7.1275e-031	0.1	4944.4
28635	4.6	6.9758e-031	0.1	4991.3
28636	4.5	6.8242e-031	0.1	5036.8
28637	4.4	6.6725e-031	0.1	5081.2
28638	4.3	6.5209e-031	0.1	5124.7
28639	4.2	6.3692e-031	0.1	5167.3
28640	4.1	6.2176e-031	0.1	5209.2
28641	4.	6.0659e-031	0.1	5250.4
28642	3.9	5.9143e-031	0.1	5291.
28643	3.8	5.7626e-031	0.1	5331.
28644	3.7	5.611e-031	0.1	5370.6
28645	3.6	5.4593e-031	0.1	5409.8
28646	3.5	5.3077e-031	0.1	5448.5
28647	3.4	5.156e-031	0.1	5486.8
28648	3.3	5.0044e-031	0.1	5524.6
28649	3.2	4.8527e-031	0.1	5562.
28650	3.1	4.7011e-031	0.1	5598.9
28651	3.	4.5494e-031	0.1	5635.3
28652	2.9	4.3978e-031	0.1	5671.1
28653	2.8	4.2461e-031	0.1	5706.3
28654	2.7	4.0945e-031	0.1	5740.6
28655	2.6	3.9428e-031	0.1	5774.
28656	2.5	3.7912e-031	0.1	5806.4
28657	2.4	3.6396e-031	0.1	5837.6
28658	2.3	3.4879e-031	0.1	5867.3
28659	2.2	3.3363e-031	0.1	5895.3
28660	2.1	3.1846e-031	0.1	5921.2
28661	2.	3.033e-031	0.1	5944.8
28662	1.9	2.8813e-031	0.1	5965.5
28663	1.8	2.7297e-031	0.1	5982.9
28664	1.7	2.578e-031	0.1	5996.3
28665	1.6	2.4264e-031	0.1	6005.
28666	1.5	2.2747e-031	0.1	6007.9
28667	1.4	2.1231e-031	0.1	6004.
28668	1.3	1.9714e-031	0.1	5991.7
28669	1.2	1.8198e-031	0.1	5969.3
28670	1.1	1.6681e-031	0.1	5934.3
28671	1.	1.5165e-031	0.1	5883.6
28672	0.9	1.3648e-031	0.1	5813.
28673	0.8	1.2132e-031	0.1	5716.8
28674	0.7	1.0615e-031	0.1	5586.9
28675	0.6	9.0989e-032	0.1	5411.4
28676	0.5	7.5824e-032	0.1	5171.6
28677	0.4	6.0659e-032	0.1	4837.9
28678	0.3	4.5494e-032	0.1	4357.3
28679	0.2	3.033e-032	0.1	3620.8
28680	0.1	1.5165e-032	0.1	2453.7
28681	0.	0.	0.1	554.86
28682	3.937e-014	6.	0.1	554.85
28683	0.1	6.	0.1	2453.7
28684	0.2	6.	0.1	3620.8
28685	0.3	6.	0.1	4357.3
28686	0.4	6.	0.1	4837.9
28687	0.5	6.	0.1	5171.6
28688	0.6	6.	0.1	5411.4
28689	0.7	6.	0.1	5586.9
28690	0.8	6.	0.1	5716.8
28691	0.9	6.	0.1	5813.
28692	1.	6.	0.1	5883.6
28693	1.1	6.	0.1	5934.3
28694	1.2	6.	0.1	5969.3
28695	1.3	6.	0.1	5991.7
28696	1.4	6.	0.1	6004.
28697	1.5	6.	0.1	6007.9
28698	1.6	6.	0.1	6005.
28699	1.7	6.	0.1	5996.3
28700	1.8	6.	0.1	5982.9
28701	1.9	6.	0.1	5965.5
28702	2.	6.	0.1	5944.8
28703	2.1	6.	0.1	5921.2
28704	2.2	6.	0.1	5895.2
28705	2.3	6.	0.1	5867.3
28706	2.4	6.	0.1	5837.6
28707	2.5	6.	0.1	5806.4
28708	2.6	6.	0.1	5774.
28709	2.7	6.	0.1	5740.6
28710	2.8	6.	0.1	5706.3
28711	2.9	6.	0.1	5671.1
28712	3.	6.	0.1	5635.3
28713	3.1	6.	0.1	5598.9
28714	3.2	6.	0.1	5562.
28715	3.3	6.	0.1	5524.6
28716	3.4	6.	0.1	5486.8
28717	3.5	6.	0.1	5448.5
28718	3.6	6.	0.1	5409.8
28719	3.7	6.	0.1	5370.6
28720	3.8	6.	0.1	5331.
28721	3.9	6.	0.1	5291.
28722	4.	6.	0.1	5250.4
28723	4.1	6.	0.1	5209.2
28724	4.2	6.	0.1	5167.3
28725	4.3	6.	0.1	5124.7
28726	4.4	6.	0.1	5081.2
28727	4.5	6.	0.1	5036.8
28728	4.6	6.	0.1	4991.3
28729	4.7	6.	0.1	4944.4
28730	4.8	6.	0.1	4896.1
28731	4.9	6.	0.1	4846.2
28732	5.	6.	0.1	4794.3
28733	5.1	6.	0.1	4740.3
28734	5.2	6.	0.1	4683.8
28735	5.3	6.	0.1	4624.5
28736	5.4	6.	0.1	4562.1
28737	5.5	6.	0.1	4496.
28738	5.6	6.	0.1	4426.
28739	5.7	6.	0.1	4351.4
28740	5.8	6.	0.1	4271.8
28741	5.9	6.	0.1	4186.4
28742	6.	6.	0.1	4094.8
28743	6.1	6.	0.1	3996.1
28744	6.2	6.	0.1	3889.7
28745	6.3	6.	0.1	3774.7
28746	6.4	6.	0.1	3650.3
28747	6.5	6.	0.1	3515.8
28748	6.6	6.	0.1	3370.2
28749	6.7	6.	0.1	3212.8
28750	6.8	6.	0.1	3042.8
28751	6.9	6.	0.1	2859.6
28752	7.	6.	0.1	2662.7
28753	7.1	6.	0.1	2451.6
28754	7.2	6.	0.1	2226.3
28755	7.3	6.	0.1	1986.8
28756	7.4	6.	0.1	1733.5
28757	7.5	6.	0.1	1466.8
28758	7.6	6.	0.1	1187.2
28759	7.7	6.	0.1	894.83
28760	7.8	6.	0.1	586.5
28761	7.9	6.	0.1	250.52
28762	8.	6.	0.1	11.206
28763	7.9	6.	0.	15.945
28764	7.8	6.	0.	14.978
28765	7.7	6.	0.	14.623
28766	7.6	6.	0.	14.333
28767	7.5	6.	0.	13.445
28768	7.4	6.	0.	12.22
28769	7.3	6.	0.	10.848
28770	7.2	6.	0.	9.4492
28771	7.1	6.	0.	8.1031
28772	7.	6.	0.	6.8582
28773	6.9	6.	0.	5.7403
28774	6.8	6.	0.	4.7599
28775	6.7	6.	0.	3.9166
28776	6.6	6.	0.	3.203
28777	6.5	6.	0.	2.6076
28778	6.4	6.	0.	2.1169
28779	6.3	6.	0.	1.7167
28780	6.2	6.	0.	1.3933
28781	6.1	6.	0.	1.1339
28782	6.	6.	0.	0.92736
28783	5.9	6.	0.	0.76385
28784	5.8	6.	0.	0.63522
28785	5.7	6.	0.	0.53488
28786	5.6	6.	0.	0.45773
28787	5.5	6.	0.	0.40018
28788	5.4	6.	0.	0.36036
28789	5.3	6.	0.	0.33937
28790	5.2	6.	0.	0.34719
28791	5.1	6.	0.	0.41491
28792	5.	6.	0.	0.54263
28793	4.9	6.	0.	0.68885
28794	4.8	6.	0.	0.83747
28795	4.7	6.	0.	0.98472
28796	4.6	6.	0.	1.1298
28797	4.5	6.	0.	1.2729
28798	4.4	6.	0.	1.4146
28799	4.3	6.	0.	1.5555
28800	4.2	6.	0.	1.6969
28801	4.1	6.	0.	1.8405
28802	4.	6.	0.	1.9891
28803	3.9	6.	0.	2.1482
28804	3.8	6.	0.	2.33
28805	3.7	6.	0.	2.5604
28806	3.6	6.	0.	2.8745
28807	3.5	6.	0.	3.2845
28808	3.4	6.	0.	3.7818
28809	3.3	6.	0.	4.3607
28810	3.2	6.	0.	5.0221
28811	3.1	6.	0.	5.7706
28812	3.	6.	0.	6.6128
28813	2.9	6.	0.	7.5568
28814	2.8	6.	0.	8.612
28815	2.7	6.	0.	9.789
28816	2.6	6.	0.	11.1
28817	2.5	6.	0.	12.557
28818	2.4	6.	0.	14.177
28819	2.3	6.	0.	15.976
28820	2.2	6.	0.	17.974
28821	2.1	6.	0.	20.193
28822	2.	6.	0.	22.658
28823	1.9	6.	0.	25.4
28824	1.8	6.	0.	28.454
28825	1.7	6.	0.	31.861
28826	1.6	6.	0.	35.672
28827	1.5	6.	0.	39.946
28828	1.4	6.	0.	44.76
28829	1.3	6.	0.	50.206
28830	1.2	6.	0.	56.404
28831	1.1	6.	0.	63.509
28832	1.	6.	0.	71.729
28833	0.9	6.	0.	81.351
28834	0.8	6.	0.	92.783
28835	0.7	6.	0.	106.63
28836	0.6	6.	0.	123.91
28837	0.5	6.	0.	146.13
28838	0.4	6.	0.	177.35
28839	0.3	6.	0.	220.45
28840	0.2	6.	0.	321.72
28841	0.1	6.	0.	490.1
28842	8.	6.	0.	47.649
28843	3.937e-014	6.	0.	2011.9
28844	0.1	1.5165e-032	0.	490.1
28845	0.2	3.033e-032	0.	321.72
28846	0.3	4.5494e-032	0.	220.45
28847	0.4	6.0659e-032	0.	177.35
28848	0.5	7.5824e-032	0.	146.13
28849	0.6	9.0989e-032	0.	123.91
28850	0.7	1.0615e-031	0.	106.64
28851	0.8	1.2132e-031	0.	92.783
28852	0.9	1.3648e-031	0.	81.351
28853	1.	1.5165e-031	0.	71.729
28854	1.1	1.6681e-031	0.	63.509
28855	1.2	1.8198e-031	0.	56.404
28856	1.3	1.9714e-031	0.	50.206
28857	1.4	2.1231e-031	0.	44.76
28858	1.5	2.2747e-031	0.	39.946
28859	1.6	2.4264e-031	0.	35.672
28860	1.7	2.578e-031	0.	31.861
28861	1.8	2.7297e-031	0.	28.454
28862	1.9	2.8813e-031	0.	25.4
28863	2.	3.033e-031	0.	22.658
28864	2.1	3.1846e-031	0.	20.193
28865	2.2	3.3363e-031	0.	17.974
28866	2.3	3.4879e-031	0.	15.976
28867	2.4	3.6396e-031	0.	14.177
28868	2.5	3.7912e-031	0.	12.557
28869	2.6	3.9428e-031	0.	11.1
28870	2.7	4.0945e-031	0.	9.789
28871	2.8	4.2461e-031	0.	8.612
28872	2.9	4.3978e-031	0.	7.5568
28873	3.	4.5494e-031	0.	6.6128
28874	3.1	4.7011e-031	0.	5.7706
28875	3.2	4.8527e-031	0.	5.0221
28876	3.3	5.0044e-031	0.	4.3607
28877	3.4	5.156e-031	0.	3.7818
28878	3.5	5.3077e-031	0.	3.2845
28879	3.6	5.4593e-031	0.	2.8745
28880	3.7	5.611e-031	0.	2.5604
28881	3.8	5.7626e-031	0.	2.33
28882	3.9	5.9143e-031	0.	2.1482
28883	4.	6.0659e-031	0.	1.9891
28884	4.1	6.2176e-031	0.	1.8405
28885	4.2	6.3692e-031	0.	1.6969
28886	4.3	6.5209e-031	0.	1.5555
28887	4.4	6.6725e-031	0.	1.4146
28888	4.5	6.8242e-031	0.	1.2729
28889	4.6	6.9758e-031	0.	1.1298
28890	4.7	7.1275e-031	0.	0.98472
28891	4.8	7.2791e-031	0.	0.83747
28892	4.9	7.4308e-031	0.	0.68885
28893	5.	7.5824e-031	0.	0.54263
28894	5.1	7.734e-031	0.	0.41491
28895	5.2	7.8857e-031	0.	0.34719
28896	5.3	8.0373e-031	0.	0.33937
28897	5.4	8.189e-031	0.	0.36036
28898	5.5	8.3406e-031	0.	0.40018
28899	5.6	8.4923e-031	0.	0.45774
28900	5.7	8.6439e-031	0.	0.53488
28901	5.8	8.7956e-031	0.	0.63522
28902	5.9	8.9472e-031	0.	0.76385
28903	6.	9.0989e-031	0.	0.92737
28904	6.1	9.2505e-031	0.	1.1339
28905	6.2	9.4022e-031	0.	1.3933
28906	6.3	9.5538e-031	0.	1.7167
28907	6.4	9.7055e-031	0.	2.1169
28908	6.5	9.8571e-031	0.	2.6076
28909	6.6	1.0009e-030	0.	3.203
28910	6.7	1.016e-030	0.	3.9166
28911	6.8	1.0312e-030	0.	4.7599
28912	6.9	1.0464e-030	0.	5.7403
28913	7.	1.0615e-030	0.	6.8582
28914	7.1	1.0767e-030	0.	8.1031
28915	7.2	1.0919e-030	0.	9.4492
28916	7.3	1.107e-030	0.	10.848
28917	7.4	1.1222e-030	0.	12.22
28918	7.5	1.1374e-030	0.	13.445
28919	7.6	1.1525e-030	0.	14.333
28920	7.7	1.1677e-030	0.	14.623
28921	7.8	1.1829e-030	0.	14.978
28922	7.9	1.198e-030	0.	15.945
28923	8.	0.	0.	47.649
28924	0.	0.	0.	2011.9
28925	8.2662	0.	0.	15.056
28926	8.3658	0.	0.	15.266
28927	8.4654	0.	0.	15.94
28928	8.565	0.	0.	16.385
28929	8.6646	0.	0.	16.112
28930	8.7642	0.	0.	15.383
28931	8.8637	0.	0.	14.387
28932	8.9633	0.	0.	13.252
28933	9.0629	0.	0.	12.071
28934	9.1625	0.	0.	10.903
28935	9.2621	0.	0.	9.7899
28936	9.3616	0.	0.	8.7555
28937	9.4612	0.	0.	7.8127
28938	9.5608	0.	0.	6.9664
28939	9.6604	0.	0.	6.2158
28940	9.76	0.	0.	5.5566
28941	9.8595	0.	0.	4.9823
28942	9.9591	0.	0.	4.4855
28943	10.059	0.	0.	4.0581
28944	10.158	0.	0.	3.6926
28945	10.258	0.	0.	3.3814
28946	10.357	0.	0.	3.1181
28947	10.457	0.	0.	2.8966
28948	10.557	0.	0.	2.7115
28949	10.656	0.	0.	2.5582
28950	10.756	0.	0.	2.4327
28951	10.855	0.	0.	2.3314
28952	10.955	0.	0.	2.2514
28953	11.055	0.	0.	2.1902
28954	11.154	0.	0.	2.1454
28955	11.254	0.	0.	2.1152
28956	11.353	0.	0.	2.098
28957	11.453	0.	0.	2.0924
28958	11.552	0.	0.	2.0971
28959	11.652	0.	0.	2.111
28960	11.752	0.	0.	2.1333
28961	11.851	0.	0.	2.163
28962	11.951	0.	0.	2.1995
28963	12.05	0.	0.	2.2419
28964	12.15	0.	0.	2.2899
28965	12.249	0.	0.	2.3427
28966	12.349	0.	0.	2.3998
28967	12.449	0.	0.	2.4609
28968	12.548	0.	0.	2.5255
28969	12.648	0.	0.	2.5931
28970	12.747	0.	0.	2.6636
28971	12.847	0.	0.	2.7364
28972	12.947	0.	0.	2.8113
28973	13.046	0.	0.	2.8881
28974	13.146	0.	0.	2.9665
28975	13.245	0.	0.	3.0462
28976	13.345	0.	0.	3.1271
28977	13.444	0.	0.	3.2089
28978	13.544	0.	0.	3.2915
28979	13.644	0.	0.	3.3747
28980	13.743	0.	0.	3.4583
28981	13.843	0.	0.	3.5424
28982	13.942	0.	0.	3.6266
28983	14.042	0.	0.	3.711
28984	14.142	0.	0.	3.7954
28985	14.241	0.	0.	3.8798
28986	14.341	0.	0.	3.9641
28987	14.44	0.	0.	4.0482
28988	14.54	0.	0.	4.1321
28989	14.639	0.	0.	4.2158
28990	14.739	0.	0.	4.2992
28991	14.839	0.	0.	4.3823
28992	14.938	0.	0.	4.4651
28993	15.038	0.	0.	4.5476
28994	15.137	0.	0.	4.6297
28995	15.237	0.	0.	4.7115
28996	15.336	0.	0.	4.7929
28997	15.436	0.	0.	4.874
28998	15.536	0.	0.	4.9548
28999	15.635	0.	0.	5.0353
29000	15.735	0.	0.	5.1154
29001	15.834	0.	0.	5.1953
29002	15.934	0.	0.	5.2749
29003	16.034	0.	0.	5.3542
29004	16.133	0.	0.	5.4334
29005	16.233	0.	0.	5.5123
29006	16.332	0.	0.	5.591
29007	16.432	0.	0.	5.6696
29008	16.531	0.	0.	5.7481
29009	16.631	0.	0.	5.8265
29010	16.731	0.	0.	5.9048
29011	16.83	0.	0.	5.983
29012	16.93	0.	0.	6.0612
29013	17.029	0.	0.	6.1394
29014	17.129	0.	0.	6.2176
29015	17.229	0.	0.	6.2959
29016	17.328	0.	0.	6.3742
29017	17.428	0.	0.	6.4526
29018	17.527	0.	0.	6.5311
29019	17.627	0.	0.	6.6098
29020	17.726	0.	0.	6.6886
29021	17.826	0.	0.	6.7676
29022	17.926	0.	0.	6.8467
29023	18.025	0.	0.	6.9261
29024	18.125	0.	0.	7.0056
29025	18.224	0.	0.	7.0854
29026	18.324	0.	0.	7.1654
29027	18.423	0.	0.	7.2456
29028	18.523	0.	0.	7.3261
29029	18.623	0.	0.	7.4068
29030	18.722	0.	0.	7.4877
29031	18.822	0.	0.	7.5688
29032	18.921	0.	0.	7.6502
29033	19.021	0.	0.	7.7317
29034	19.121	0.	0.	7.8135
29035	19.22	0.	0.	7.8954
29036	19.32	0.	0.	7.9774
29037	19.419	0.	0.	8.0596
29038	19.519	0.	0.	8.1418
29039	19.618	0.	0.	8.2241
29040	19.718	0.	0.	8.3064
29041	19.818	0.	0.	8.3886
29042	19.917	0.	0.	8.4707
29043	20.017	0.	0.	8.5526
29044	20.116	0.	0.	8.6343
29045	20.216	0.	0.	8.7157
29046	20.316	0.	0.	8.7966
29047	20.415	0.	0.	8.877
29048	20.515	0.	0.	8.9569
29049	20.614	0.	0.	9.036
29050	20.714	0.	0.	9.1142
29051	20.813	0.	0.	9.1914
29052	20.913	0.	0.	9.2675
29053	21.013	0.	0.	9.3422
29054	21.112	0.	0.	9.4154
29055	21.212	0.	0.	9.4869
29056	21.311	0.	0.	9.5564
29057	21.411	0.	0.	9.6237
29058	21.51	0.	0.	9.6886
29059	21.61	0.	0.	9.7506
29060	21.71	0.	0.	9.8095
29061	21.809	0.	0.	9.8648
29062	21.909	0.	0.	9.9162
29063	22.008	0.	0.	9.9632
29064	22.108	0.	0.	10.005
29065	22.208	0.	0.	10.042
29066	22.307	0.	0.	10.072
29067	22.407	0.	0.	10.095
29068	22.506	0.	0.	10.109
29069	22.606	0.	0.	10.115
29070	22.705	0.	0.	10.11
29071	22.805	0.	0.	10.093
29072	22.905	0.	0.	10.062
29073	23.004	0.	0.	10.014
29074	23.104	0.	0.	9.9452
29075	23.203	0.	0.	9.8519
29076	23.303	0.	0.	9.7272
29077	23.403	0.	0.	9.5613
29078	23.502	0.	0.	9.3372
29079	23.602	0.	0.	9.0285
29080	23.701	0.	0.	8.5601
29081	23.801	0.	0.	7.8124
29082	23.9	0.	0.	5.9035
29083	8.1667	0.	0.	41.593
29084	24.	0.	0.	2.784
29085	5.1577e-014	5.9	0.	328.15
29086	5.0703e-014	5.8	0.	-1193.7
29087	4.9829e-014	5.7	0.	-1895.2
29088	4.8955e-014	5.6	0.	-2333.9
29089	4.8081e-014	5.5	0.	-2633.6
29090	4.7206e-014	5.4	0.	-2853.3
29091	4.6332e-014	5.3	0.	-3022.
29092	4.5458e-014	5.2	0.	-3155.9
29093	4.4584e-014	5.1	0.	-3264.7
29094	4.371e-014	5.	0.	-3354.8
29095	4.2835e-014	4.9	0.	-3430.3
29096	4.1961e-014	4.8	0.	-3494.2
29097	4.1087e-014	4.7	0.	-3548.8
29098	4.0213e-014	4.6	0.	-3595.7
29099	3.9339e-014	4.5	0.	-3636.2
29100	3.8464e-014	4.4	0.	-3671.3
29101	3.759e-014	4.3	0.	-3701.8
29102	3.6716e-014	4.2	0.	-3728.3
29103	3.5842e-014	4.1	0.	-3751.3
29104	3.4968e-014	4.	0.	-3771.3
29105	3.4093e-014	3.9	0.	-3788.5
29106	3.3219e-014	3.8	0.	-3803.3
29107	3.2345e-014	3.7	0.	-3815.9
29108	3.1471e-014	3.6	0.	-3826.4
29109	3.0597e-014	3.5	0.	-3835.1
29110	2.9723e-014	3.4	0.	-3842.1
29111	2.8848e-014	3.3	0.	-3847.4
29112	2.7974e-014	3.2	0.	-3851.2
29113	2.71e-014	3.1	0.	-3853.4
29114	2.6226e-014	3.	0.	-3854.2
29115	2.5352e-014	2.9	0.	-3853.4
29116	2.4477e-014	2.8	0.	-3851.2
29117	2.3603e-014	2.7	0.	-3847.4
29118	2.2729e-014	2.6	0.	-3842.1
29119	2.1855e-014	2.5	0.	-3835.1
29120	2.0981e-014	2.4	0.	-3826.4
29121	2.0106e-014	2.3	0.	-3815.9
29122	1.9232e-014	2.2	0.	-3803.3
29123	1.8358e-014	2.1	0.	-3788.5
29124	1.7484e-014	2.	0.	-3771.3
29125	1.661e-014	1.9	0.	-3751.3
29126	1.5735e-014	1.8	0.	-3728.3
29127	1.4861e-014	1.7	0.	-3701.8
29128	1.3987e-014	1.6	0.	-3671.3
29129	1.3113e-014	1.5	0.	-3636.2
29130	1.2239e-014	1.4	0.	-3595.7
29131	1.1364e-014	1.3	0.	-3548.8
29132	1.049e-014	1.2	0.	-3494.2
29133	9.6161e-015	1.1	0.	-3430.3
29134	8.7419e-015	1.	0.	-3354.8
29135	7.8677e-015	0.9	0.	-3264.7
29136	6.9935e-015	0.8	0.	-3155.9
29137	6.1193e-015	0.7	0.	-3022.
29138	5.2451e-015	0.6	0.	-2853.3
29139	4.371e-015	0.5	0.	-2633.6
29140	3.4968e-015	0.4	0.	-2333.9
29141	2.6226e-015	0.3	0.	-1895.2
29142	1.7484e-015	0.2	0.	-1193.7
29143	8.7419e-016	0.1	0.	328.15
29144	24.	0.1	0.	19.527
29145	24.	0.2	0.	39.692
29146	24.	0.3	0.	55.295
29147	24.	0.4	0.	68.572
29148	24.	0.5	0.	80.306
29149	24.	0.6	0.	90.852
29150	24.	0.7	0.	100.43
29151	24.	0.8	0.	109.19
29152	24.	0.9	0.	117.25
29153	24.	1.	0.	124.66
29154	24.	1.1	0.	131.51
29155	24.	1.2	0.	137.84
29156	24.	1.3	0.	143.69
29157	24.	1.4	0.	149.09
29158	24.	1.5	0.	154.06
29159	24.	1.6	0.	158.64
29160	24.	1.7	0.	162.83
29161	24.	1.8	0.	166.66
29162	24.	1.9	0.	170.14
29163	24.	2.	0.	173.29
29164	24.	2.1	0.	176.11
29165	24.	2.2	0.	178.61
29166	24.	2.3	0.	180.8
29167	24.	2.4	0.	182.68
29168	24.	2.5	0.	184.27
29169	24.	2.6	0.	185.56
29170	24.	2.7	0.	186.56
29171	24.	2.8	0.	187.28
29172	24.	2.9	0.	187.7
29173	24.	3.	0.	187.85
29174	24.	3.1	0.	187.7
29175	24.	3.2	0.	187.28
29176	24.	3.3	0.	186.56
29177	24.	3.4	0.	185.56
29178	24.	3.5	0.	184.27
29179	24.	3.6	0.	182.68
29180	24.	3.7	0.	180.8
29181	24.	3.8	0.	178.61
29182	24.	3.9	0.	176.11
29183	24.	4.	0.	173.29
29184	24.	4.1	0.	170.14
29185	24.	4.2	0.	166.66
29186	24.	4.3	0.	162.83
29187	24.	4.4	0.	158.64
29188	24.	4.5	0.	154.06
29189	24.	4.6	0.	149.09
29190	24.	4.7	0.	143.69
29191	24.	4.8	0.	137.84
29192	24.	4.9	0.	131.51
29193	24.	5.	0.	124.66
29194	24.	5.1	0.	117.25
29195	24.	5.2	0.	109.19
29196	24.	5.3	0.	100.43
29197	24.	5.4	0.	90.852
29198	24.	5.5	0.	80.306
29199	24.	5.6	0.	68.572
29200	24.	5.7	0.	55.295
29201	24.	5.8	0.	39.692
29202	24.	5.9	0.	19.527
29203	24.	6.	0.	2.784
29204	23.9	6.	0.	5.9035
29205	23.801	6.	0.	7.8124
29206	23.701	6.	0.	8.5601
29207	23.602	6.	0.	9.0285
29208	23.502	6.	0.	9.3372
29209	23.403	6.	0.	9.5613
29210	23.303	6.	0.	9.7272
29211	23.203	6.	0.	9.8519
29212	23.104	6.	0.	9.9452
29213	23.004	6.	0.	10.014
29214	22.905	6.	0.	10.062
29215	22.805	6.	0.	10.093
29216	22.705	6.	0.	10.11
29217	22.606	6.	0.	10.115
29218	22.506	6.	0.	10.11
29219	22.407	6.	0.	10.095
29220	22.307	6.	0.	10.072
29221	22.208	6.	0.	10.042
29222	22.108	6.	0.	10.005
29223	22.008	6.	0.	9.9632
29224	21.909	6.	0.	9.9162
29225	21.809	6.	0.	9.8648
29226	21.71	6.	0.	9.8095
29227	21.61	6.	0.	9.7506
29228	21.51	6.	0.	9.6886
29229	21.411	6.	0.	9.6237
29230	21.311	6.	0.	9.5564
29231	21.212	6.	0.	9.4869
29232	21.112	6.	0.	9.4154
29233	21.013	6.	0.	9.3422
29234	20.913	6.	0.	9.2675
29235	20.813	6.	0.	9.1914
29236	20.714	6.	0.	9.1142
29237	20.614	6.	0.	9.036
29238	20.515	6.	0.	8.9569
29239	20.415	6.	0.	8.8771
29240	20.316	6.	0.	8.7966
29241	20.216	6.	0.	8.7157
29242	20.116	6.	0.	8.6343
29243	20.017	6.	0.	8.5526
29244	19.917	6.	0.	8.4707
29245	19.818	6.	0.	8.3886
29246	19.718	6.	0.	8.3064
29247	19.618	6.	0.	8.2241
29248	19.519	6.	0.	8.1418
29249	19.419	6.	0.	8.0596
29250	19.32	6.	0.	7.9774
29251	19.22	6.	0.	7.8954
29252	19.121	6.	0.	7.8135
29253	19.021	6.	0.	7.7317
29254	18.921	6.	0.	7.6502
29255	18.822	6.	0.	7.5688
29256	18.722	6.	0.	7.4877
29257	18.623	6.	0.	7.4068
29258	18.523	6.	0.	7.3261
29259	18.423	6.	0.	7.2456
29260	18.324	6.	0.	7.1654
29261	18.224	6.	0.	7.0854
29262	18.125	6.	0.	7.0056
29263	18.025	6.	0.	6.9261
29264	17.926	6.	0.	6.8467
29265	17.826	6.	0.	6.7676
29266	17.726	6.	0.	6.6886
29267	17.627	6.	0.	6.6098
29268	17.527	6.	0.	6.5311
29269	17.428	6.	0.	6.4526
29270	17.328	6.	0.	6.3742
29271	17.229	6.	0.	6.2959
29272	17.129	6.	0.	6.2176
29273	17.029	6.	0.	6.1394
29274	16.93	6.	0.	6.0612
29275	16.83	6.	0.	5.983
29276	16.731	6.	0.	5.9047
29277	16.631	6.	0.	5.8265
29278	16.531	6.	0.	5.7481
29279	16.432	6.	0.	5.6696
29280	16.332	6.	0.	5.591
29281	16.233	6.	0.	5.5123
29282	16.133	6.	0.	5.4334
29283	16.034	6.	0.	5.3542
29284	15.934	6.	0.	5.2749
29285	15.834	6.	0.	5.1953
29286	15.735	6.	0.	5.1154
29287	15.635	6.	0.	5.0353
29288	15.536	6.	0.	4.9548
29289	15.436	6.	0.	4.874
29290	15.336	6.	0.	4.7929
29291	15.237	6.	0.	4.7115
29292	15.137	6.	0.	4.6297
29293	15.038	6.	0.	4.5476
29294	14.938	6.	0.	4.4651
29295	14.839	6.	0.	4.3823
29296	14.739	6.	0.	4.2992
29297	14.639	6.	0.	4.2158
29298	14.54	6.	0.	4.1321
29299	14.44	6.	0.	4.0482
29300	14.341	6.	0.	3.9641
29301	14.241	6.	0.	3.8798
29302	14.142	6.	0.	3.7954
29303	14.042	6.	0.	3.711
29304	13.942	6.	0.	3.6266
29305	13.843	6.	0.	3.5424
29306	13.743	6.	0.	3.4583
29307	13.644	6.	0.	3.3747
29308	13.544	6.	0.	3.2915
29309	13.444	6.	0.	3.2089
29310	13.345	6.	0.	3.1271
29311	13.245	6.	0.	3.0462
29312	13.146	6.	0.	2.9665
29313	13.046	6.	0.	2.8881
29314	12.947	6.	0.	2.8113
29315	12.847	6.	0.	2.7364
29316	12.747	6.	0.	2.6636
29317	12.648	6.	0.	2.5931
29318	12.548	6.	0.	2.5255
29319	12.449	6.	0.	2.4609
29320	12.349	6.	0.	2.3998
29321	12.249	6.	0.	2.3427
29322	12.15	6.	0.	2.2899
29323	12.05	6.	0.	2.2419
29324	11.951	6.	0.	2.1995
29325	11.851	6.	0.	2.163
29326	11.752	6.	0.	2.1333
29327	11.652	6.	0.	2.111
29328	11.552	6.	0.	2.0971
29329	11.453	6.	0.	2.0924
29330	11.353	6.	0.	2.098
29331	11.254	6.	0.	2.1152
29332	11.154	6.	0.	2.1454
29333	11.055	6.	0.	2.1902
29334	10.955	6.	0.	2.2514
29335	10.855	6.	0.	2.3314
29336	10.756	6.	0.	2.4327
29337	10.656	6.	0.	2.5582
29338	10.557	6.	0.	2.7115
29339	10.457	6.	0.	2.8966
29340	10.357	6.	0.	3.1181
29341	10.258	6.	0.	3.3814
29342	10.158	6.	0.	3.6926
29343	10.059	6.	0.	4.0581
29344	9.9591	6.	0.	4.4855
29345	9.8595	6.	0.	4.9823
29346	9.76	6.	0.	5.5566
29347	9.6604	6.	0.	6.2158
29348	9.5608	6.	0.	6.9664
29349	9.4612	6.	0.	7.8127
29350	9.3616	6.	0.	8.7555
29351	9.2621	6.	0.	9.7899
29352	9.1625	6.	0.	10.903
29353	9.0629	6.	0.	12.071
29354	8.9633	6.	0.	13.252
29355	8.8637	6.	0.	14.387
29356	8.7642	6.	0.	15.383
29357	8.6646	6.	0.	16.112
29358	8.565	6.	0.	16.385
29359	8.4654	6.	0.	15.94
29360	8.3658	6.	0.	15.266
29361	8.2662	6.	0.	15.056
29362	8.1667	6.	0.	41.593
29363	8.	1.9	0.	6054.7
29364	8.	1.8	0.	3607.8
29365	8.	1.7	0.	2801.7
29366	8.	1.6	0.	2241.3
29367	8.	1.5	0.	1856.4
29368	8.	1.4	0.	1560.9
29369	8.	1.3	0.	1324.1
29370	8.	1.2	0.	1127.6
29371	8.	1.1	0.	960.4
29372	8.	1.	0.	815.55
29373	8.	0.9	0.	688.27
29374	8.	0.8	0.	575.24
29375	8.	0.7	0.	474.13
29376	8.	0.6	0.	383.22
29377	8.	0.5	0.	301.33
29378	8.	0.4	0.	227.58
29379	8.	0.3	0.	161.36
29380	8.	0.2	0.	102.9
29381	8.	0.1	0.	52.714
29382	8.	2.	0.	4338.2
29383	8.1667	0.1	0.	42.307
29384	8.1667	0.2	0.	80.556
29385	8.1667	0.3	0.	124.48
29386	8.1667	0.4	0.	173.54
29387	8.1667	0.5	0.	227.56
29388	8.1667	0.6	0.	287.08
29389	8.1667	0.7	0.	352.78
29390	8.1667	0.8	0.	425.63
29391	8.1667	0.9	0.	506.97
29392	8.1667	1.	0.	598.62
29393	8.1667	1.1	0.	703.17
29394	8.1667	1.2	0.	824.33
29395	8.1667	1.3	0.	967.55
29396	8.1667	1.4	0.	1141.4
29397	8.1667	1.5	0.	1360.2
29398	8.1667	1.6	0.	1647.8
29399	8.1667	1.7	0.	2074.3
29400	8.1667	1.8	0.	2682.5
29401	8.1667	1.9	0.	4687.7
29402	8.1667	2.	0.	2633.3
29403	8.0833	2.	0.	1269.2
29404	8.	4.1	0.	6054.7
29405	8.	4.2	0.	3607.8
29406	8.	4.3	0.	2801.7
29407	8.	4.4	0.	2241.3
29408	8.	4.5	0.	1856.4
29409	8.	4.6	0.	1560.9
29410	8.	4.7	0.	1324.1
29411	8.	4.8	0.	1127.6
29412	8.	4.9	0.	960.4
29413	8.	5.	0.	815.55
29414	8.	5.1	0.	688.27
29415	8.	5.2	0.	575.24
29416	8.	5.3	0.	474.13
29417	8.	5.4	0.	383.22
29418	8.	5.5	0.	301.33
29419	8.	5.6	0.	227.58
29420	8.	5.7	0.	161.36
29421	8.	5.8	0.	102.9
29422	8.	5.9	0.	52.714
29423	8.	4.	0.	4338.2
29424	8.1667	5.9	0.	42.307
29425	8.1667	5.8	0.	80.556
29426	8.1667	5.7	0.	124.48
29427	8.1667	5.6	0.	173.54
29428	8.1667	5.5	0.	227.56
29429	8.1667	5.4	0.	287.08
29430	8.1667	5.3	0.	352.78
29431	8.1667	5.2	0.	425.63
29432	8.1667	5.1	0.	506.97
29433	8.1667	5.	0.	598.62
29434	8.1667	4.9	0.	703.17
29435	8.1667	4.8	0.	824.33
29436	8.1667	4.7	0.	967.55
29437	8.1667	4.6	0.	1141.4
29438	8.1667	4.5	0.	1360.2
29439	8.1667	4.4	0.	1647.8
29440	8.1667	4.3	0.	2074.3
29441	8.1667	4.2	0.	2682.5
29442	8.1667	4.1	0.	4687.7
29443	8.1667	4.	0.	2633.3
29444	8.0833	4.	0.	1269.2
29445	8.	2.15	0.	1631.2
29446	7.95	2.1	0.	1905.6
29447	8.0417	2.1	0.	1138.3
29448	8.	2.1	5.e-002	878.55
29449	8.	2.05	0.	2812.9
29450	8.	2.25	0.	1514.8
29451	7.95	2.2	0.	1574.3
29452	8.0417	2.2	0.	1500.6
29453	8.	2.2	5.e-002	277.59
29454	8.	2.35	0.	1349.8
29455	7.95	2.3	0.	1357.
29456	8.0417	2.3	0.	1397.9
29457	8.	2.3	5.e-002	159.78
29458	8.	2.45	0.	1219.5
29459	7.95	2.4	0.	1220.7
29460	8.0417	2.4	0.	1268.2
29461	8.	2.4	5.e-002	94.054
29462	8.	2.55	0.	1119.3
29463	7.95	2.5	0.	1117.6
29464	8.0417	2.5	0.	1158.6
29465	8.	2.5	5.e-002	61.199
29466	8.	2.65	0.	1046.3
29467	7.95	2.6	0.	1041.5
29468	8.0417	2.6	0.	1075.6
29469	8.	2.6	5.e-002	40.808
29470	8.	2.75	0.	995.46
29471	7.95	2.7	0.	986.78
29472	8.0417	2.7	0.	1015.6
29473	8.	2.7	5.e-002	27.369
29474	8.	2.85	0.	963.41
29475	7.95	2.8	0.	949.92
29476	8.0417	2.8	0.	975.26
29477	8.	2.8	5.e-002	17.748
29478	8.	2.95	0.	947.91
29479	7.95	2.9	0.	928.65
29480	8.0417	2.9	0.	952.06
29481	8.	2.9	5.e-002	10.843
29482	8.	3.05	0.	947.91
29483	7.95	3.	0.	921.69
29484	8.0417	3.	0.	944.48
29485	8.	3.	5.e-002	7.7632
29486	8.	3.15	0.	963.41
29487	7.95	3.1	0.	928.65
29488	8.0417	3.1	0.	952.06
29489	8.	3.1	5.e-002	10.842
29490	8.	3.25	0.	995.46
29491	7.95	3.2	0.	949.92
29492	8.0417	3.2	0.	975.26
29493	8.	3.2	5.e-002	17.747
29494	8.	3.35	0.	1046.3
29495	7.95	3.3	0.	986.77
29496	8.0417	3.3	0.	1015.6
29497	8.	3.3	5.e-002	27.368
29498	8.	3.45	0.	1119.3
29499	7.95	3.4	0.	1041.5
29500	8.0417	3.4	0.	1075.6
29501	8.	3.4	5.e-002	40.807
29502	8.	3.55	0.	1219.5
29503	7.95	3.5	0.	1117.6
29504	8.0417	3.5	0.	1158.6
29505	8.	3.5	5.e-002	61.198
29506	8.	3.65	0.	1349.8
29507	7.95	3.6	0.	1220.7
29508	8.0417	3.6	0.	1268.2
29509	8.	3.6	5.e-002	94.052
29510	8.	3.75	0.	1514.8
29511	7.95	3.7	0.	1357.
29512	8.0417	3.7	0.	1397.9
29513	8.	3.7	5.e-002	159.78
29514	8.	3.85	0.	1631.2
29515	7.95	3.8	0.	1574.3
29516	8.0417	3.8	0.	1500.6
29517	8.	3.8	5.e-002	277.58
29518	7.95	3.9	0.	1905.6
29519	8.0417	3.9	0.	1138.3
29520	8.	3.9	5.e-002	878.55
29521	8.	3.95	0.	2812.9
29522	8.1667	2.15	0.	1173.9
29523	8.125	2.1	0.	901.24
29524	8.2165	2.1	0.	1191.8
29525	8.1667	2.1	5.e-002	809.8
29526	8.1667	2.05	0.	1736.9
29527	8.1667	2.25	0.	1353.9
29528	8.125	2.2	0.	1403.7
29529	8.2165	2.2	0.	1282.2
29530	8.1667	2.2	5.e-002	283.03
29531	8.1667	2.35	0.	1253.
29532	8.125	2.3	0.	1340.7
29533	8.2165	2.3	0.	1186.6
29534	8.1667	2.3	5.e-002	163.52
29535	8.1667	2.45	0.	1152.1
29536	8.125	2.4	0.	1229.8
29537	8.2165	2.4	0.	1103.1
29538	8.1667	2.4	5.e-002	96.372
29539	8.1667	2.55	0.	1067.6
29540	8.125	2.5	0.	1130.
29541	8.2165	2.5	0.	1029.
29542	8.1667	2.5	5.e-002	63.135
29543	8.1667	2.65	0.	1003.7
29544	8.125	2.6	0.	1052.7
29545	8.2165	2.6	0.	969.9
29546	8.1667	2.6	5.e-002	42.533
29547	8.1667	2.75	0.	958.46
29548	8.125	2.7	0.	996.13
29549	8.2165	2.7	0.	925.61
29550	8.1667	2.7	5.e-002	29.03
29551	8.1667	2.85	0.	929.61
29552	8.125	2.8	0.	957.87
29553	8.2165	2.8	0.	895.08
29554	8.1667	2.8	5.e-002	19.527
29555	8.1667	2.95	0.	915.58
29556	8.125	2.9	0.	935.78
29557	8.2165	2.9	0.	877.22
29558	8.1667	2.9	5.e-002	13.038
29559	8.1667	3.05	0.	915.58
29560	8.125	3.	0.	928.55
29561	8.2165	3.	0.	871.35
29562	8.1667	3.	5.e-002	10.413
29563	8.1667	3.15	0.	929.61
29564	8.125	3.1	0.	935.78
29565	8.2165	3.1	0.	877.22
29566	8.1667	3.1	5.e-002	13.038
29567	8.1667	3.25	0.	958.46
29568	8.125	3.2	0.	957.87
29569	8.2165	3.2	0.	895.07
29570	8.1667	3.2	5.e-002	19.526
29571	8.1667	3.35	0.	1003.7
29572	8.125	3.3	0.	996.13
29573	8.2165	3.3	0.	925.61
29574	8.1667	3.3	5.e-002	29.029
29575	8.1667	3.45	0.	1067.6
29576	8.125	3.4	0.	1052.7
29577	8.2165	3.4	0.	969.9
29578	8.1667	3.4	5.e-002	42.532
29579	8.1667	3.55	0.	1152.1
29580	8.125	3.5	0.	1130.
29581	8.2165	3.5	0.	1029.
29582	8.1667	3.5	5.e-002	63.133
29583	8.1667	3.65	0.	1253.
29584	8.125	3.6	0.	1229.8
29585	8.2165	3.6	0.	1103.1
29586	8.1667	3.6	5.e-002	96.37
29587	8.1667	3.75	0.	1353.9
29588	8.125	3.7	0.	1340.7
29589	8.2165	3.7	0.	1186.6
29590	8.1667	3.7	5.e-002	163.51
29591	8.1667	3.85	0.	1173.9
29592	8.125	3.8	0.	1403.7
29593	8.2165	3.8	0.	1282.2
29594	8.1667	3.8	5.e-002	283.03
29595	8.125	3.9	0.	901.23
29596	8.2165	3.9	0.	1191.8
29597	8.1667	3.9	5.e-002	809.8
29598	8.1667	3.95	0.	1736.9
29599	7.9	5.85	0.	137.61
29600	7.85	5.9	0.	87.114
29601	7.9	5.9	5.e-002	47.91
29602	7.9	5.95	0.	41.164
29603	7.95	5.9	0.	48.039
29604	7.9	5.75	0.	230.95
29605	7.85	5.8	0.	128.69
29606	7.9	5.8	5.e-002	41.447
29607	7.95	5.8	0.	98.641
29608	7.9	5.65	0.	351.51
29609	7.85	5.7	0.	221.82
29610	7.9	5.7	5.e-002	39.879
29611	7.95	5.7	0.	174.27
29612	7.9	5.55	0.	487.06
29613	7.85	5.6	0.	338.85
29614	7.9	5.6	5.e-002	39.946
29615	7.95	5.6	0.	260.72
29616	7.9	5.45	0.	635.15
29617	7.85	5.5	0.	471.01
29618	7.9	5.5	5.e-002	40.986
29619	7.95	5.5	0.	356.17
29620	7.9	5.35	0.	795.82
29621	7.85	5.4	0.	615.87
29622	7.9	5.4	5.e-002	42.782
29623	7.95	5.4	0.	460.91
29624	7.9	5.25	0.	970.12
29625	7.85	5.3	0.	773.14
29626	7.9	5.3	5.e-002	45.271
29627	7.95	5.3	0.	575.68
29628	7.9	5.15	0.	1159.9
29629	7.85	5.2	0.	943.61
29630	7.9	5.2	5.e-002	48.48
29631	7.95	5.2	0.	701.7
29632	7.9	5.05	0.	1367.7
29633	7.85	5.1	0.	1128.9
29634	7.9	5.1	5.e-002	52.511
29635	7.95	5.1	0.	840.73
29636	7.9	4.95	0.	1597.3
29637	7.85	5.	0.	1331.3
29638	7.9	5.	5.e-002	57.541
29639	7.95	5.	0.	995.23
29640	7.9	4.85	0.	1853.9
29641	7.85	4.9	0.	1554.2
29642	7.9	4.9	5.e-002	63.865
29643	7.95	4.9	0.	1168.6
29644	7.9	4.75	0.	2144.5
29645	7.85	4.8	0.	1801.9
29646	7.9	4.8	5.e-002	71.953
29647	7.95	4.8	0.	1365.7
29648	7.9	4.65	0.	2479.6
29649	7.85	4.7	0.	2080.3
29650	7.9	4.7	5.e-002	82.582
29651	7.95	4.7	0.	1593.5
29652	7.9	4.55	0.	2874.2
29653	7.85	4.6	0.	2397.1
29654	7.9	4.6	5.e-002	97.108
29655	7.95	4.6	0.	1862.3
29656	7.9	4.45	0.	3352.1
29657	7.85	4.5	0.	2762.2
29658	7.9	4.5	5.e-002	118.01
29659	7.95	4.5	0.	2188.8
29660	7.9	4.35	0.	3943.9
29661	7.85	4.4	0.	3188.4
29662	7.9	4.4	5.e-002	150.47
29663	7.95	4.4	0.	2597.9
29664	7.9	4.25	0.	4716.4
29665	7.85	4.3	0.	3674.6
29666	7.9	4.3	5.e-002	205.88
29667	7.95	4.3	0.	3153.9
29668	7.9	4.15	0.	5488.6
29669	7.85	4.2	0.	4213.7
29670	7.9	4.2	5.e-002	311.73
29671	7.95	4.2	0.	3850.2
29672	7.9	4.05	0.	5497.9
29673	7.85	4.1	0.	4548.9
29674	7.9	4.1	5.e-002	670.62
29675	7.95	4.1	0.	5356.5
29676	7.9	3.95	0.	3805.5
29677	7.85	4.	0.	4039.
29678	7.9	4.	5.e-002	1120.
29679	7.95	4.	0.	3999.7
29680	7.9	3.85	0.	2007.8
29681	7.85	3.9	0.	2135.4
29682	7.9	3.9	5.e-002	495.38
29683	7.9	3.75	0.	1457.7
29684	7.85	3.8	0.	1459.7
29685	7.9	3.8	5.e-002	270.58
29686	7.9	3.65	0.	1248.2
29687	7.85	3.7	0.	1217.
29688	7.9	3.7	5.e-002	164.89
29689	7.9	3.55	0.	1129.4
29690	7.85	3.6	0.	1092.1
29691	7.9	3.6	5.e-002	102.4
29692	7.9	3.45	0.	1045.3
29693	7.85	3.5	0.	1009.7
29694	7.9	3.5	5.e-002	68.637
29695	7.9	3.35	0.	984.66
29696	7.85	3.4	0.	950.54
29697	7.9	3.4	5.e-002	47.563
29698	7.9	3.25	0.	942.27
29699	7.85	3.3	0.	908.09
29700	7.9	3.3	5.e-002	33.995
29701	7.9	3.15	0.	915.33
29702	7.85	3.2	0.	879.31
29703	7.9	3.2	5.e-002	25.026
29704	7.9	3.05	0.	902.23
29705	7.85	3.1	0.	862.59
29706	7.9	3.1	5.e-002	19.598
29707	7.9	2.95	0.	902.23
29708	7.85	3.	0.	857.1
29709	7.9	3.	5.e-002	17.709
29710	7.9	2.85	0.	915.33
29711	7.85	2.9	0.	862.59
29712	7.9	2.9	5.e-002	19.598
29713	7.9	2.75	0.	942.28
29714	7.85	2.8	0.	879.31
29715	7.9	2.8	5.e-002	25.027
29716	7.9	2.65	0.	984.67
29717	7.85	2.7	0.	908.09
29718	7.9	2.7	5.e-002	33.996
29719	7.9	2.55	0.	1045.3
29720	7.85	2.6	0.	950.54
29721	7.9	2.6	5.e-002	47.564
29722	7.9	2.45	0.	1129.4
29723	7.85	2.5	0.	1009.7
29724	7.9	2.5	5.e-002	68.639
29725	7.9	2.35	0.	1248.2
29726	7.85	2.4	0.	1092.1
29727	7.9	2.4	5.e-002	102.4
29728	7.9	2.25	0.	1457.7
29729	7.85	2.3	0.	1217.
29730	7.9	2.3	5.e-002	164.89
29731	7.9	2.15	0.	2007.8
29732	7.85	2.2	0.	1459.7
29733	7.9	2.2	5.e-002	270.58
29734	7.9	2.05	0.	3805.5
29735	7.85	2.1	0.	2135.4
29736	7.9	2.1	5.e-002	495.38
29737	7.9	1.95	0.	5497.9
29738	7.85	2.	0.	4039.
29739	7.9	2.	5.e-002	1120.
29740	7.95	2.	0.	3999.7
29741	7.9	1.85	0.	5488.6
29742	7.85	1.9	0.	4548.9
29743	7.9	1.9	5.e-002	670.62
29744	7.95	1.9	0.	5356.5
29745	7.9	1.75	0.	4716.4
29746	7.85	1.8	0.	4213.7
29747	7.9	1.8	5.e-002	311.73
29748	7.95	1.8	0.	3850.2
29749	7.9	1.65	0.	3943.9
29750	7.85	1.7	0.	3674.6
29751	7.9	1.7	5.e-002	205.88
29752	7.95	1.7	0.	3153.9
29753	7.9	1.55	0.	3352.1
29754	7.85	1.6	0.	3188.4
29755	7.9	1.6	5.e-002	150.47
29756	7.95	1.6	0.	2597.9
29757	7.9	1.45	0.	2874.2
29758	7.85	1.5	0.	2762.2
29759	7.9	1.5	5.e-002	118.01
29760	7.95	1.5	0.	2188.8
29761	7.9	1.35	0.	2479.6
29762	7.85	1.4	0.	2397.1
29763	7.9	1.4	5.e-002	97.108
29764	7.95	1.4	0.	1862.3
29765	7.9	1.25	0.	2144.5
29766	7.85	1.3	0.	2080.3
29767	7.9	1.3	5.e-002	82.582
29768	7.95	1.3	0.	1593.5
29769	7.9	1.15	0.	1853.9
29770	7.85	1.2	0.	1801.9
29771	7.9	1.2	5.e-002	71.953
29772	7.95	1.2	0.	1365.7
29773	7.9	1.05	0.	1597.3
29774	7.85	1.1	0.	1554.2
29775	7.9	1.1	5.e-002	63.865
29776	7.95	1.1	0.	1168.6
29777	7.9	0.95	0.	1367.7
29778	7.85	1.	0.	1331.3
29779	7.9	1.	5.e-002	57.541
29780	7.95	1.	0.	995.23
29781	7.9	0.85	0.	1159.9
29782	7.85	0.9	0.	1128.9
29783	7.9	0.9	5.e-002	52.511
29784	7.95	0.9	0.	840.73
29785	7.9	0.75	0.	970.12
29786	7.85	0.8	0.	943.61
29787	7.9	0.8	5.e-002	48.48
29788	7.95	0.8	0.	701.7
29789	7.9	0.65	0.	795.82
29790	7.85	0.7	0.	773.14
29791	7.9	0.7	5.e-002	45.271
29792	7.95	0.7	0.	575.68
29793	7.9	0.55	0.	635.15
29794	7.85	0.6	0.	615.87
29795	7.9	0.6	5.e-002	42.782
29796	7.95	0.6	0.	460.91
29797	7.9	0.45	0.	487.06
29798	7.85	0.5	0.	471.01
29799	7.9	0.5	5.e-002	40.986
29800	7.95	0.5	0.	356.17
29801	7.9	0.35	0.	351.51
29802	7.85	0.4	0.	338.85
29803	7.9	0.4	5.e-002	39.946
29804	7.95	0.4	0.	260.72
29805	7.9	0.25	0.	230.95
29806	7.85	0.3	0.	221.82
29807	7.9	0.3	5.e-002	39.879
29808	7.95	0.3	0.	174.27
29809	7.9	0.15	0.	137.61
29810	7.85	0.2	0.	128.69
29811	7.9	0.2	5.e-002	41.447
29812	7.95	0.2	0.	98.641
29813	7.85	0.1	0.	87.114
29814	7.9	0.1	5.e-002	47.91
29815	7.9	5.e-002	0.	41.164
29816	7.95	0.1	0.	48.039
29817	7.8	5.85	0.	89.583
29818	7.75	5.9	0.	79.552
29819	7.8	5.9	5.e-002	45.58
29820	7.8	5.95	0.	26.845
29821	7.8	5.75	0.	136.55
29822	7.75	5.8	0.	90.158
29823	7.8	5.8	5.e-002	39.313
29824	7.8	5.65	0.	225.52
29825	7.75	5.7	0.	150.22
29826	7.8	5.7	5.e-002	37.396
29827	7.8	5.55	0.	337.49
29828	7.75	5.6	0.	240.95
29829	7.8	5.6	5.e-002	36.659
29830	7.8	5.45	0.	465.12
29831	7.75	5.5	0.	351.89
29832	7.8	5.5	5.e-002	36.779
29833	7.8	5.35	0.	605.77
29834	7.75	5.4	0.	477.82
29835	7.8	5.4	5.e-002	37.581
29836	7.8	5.25	0.	758.87
29837	7.75	5.3	0.	616.5
29838	7.8	5.3	5.e-002	39.002
29839	7.8	5.15	0.	924.94
29840	7.75	5.2	0.	767.23
29841	7.8	5.2	5.e-002	41.049
29842	7.8	5.05	0.	1105.3
29843	7.75	5.1	0.	930.29
29844	7.8	5.1	5.e-002	43.796
29845	7.8	4.95	0.	1301.9
29846	7.75	5.	0.	1106.6
29847	7.8	5.	5.e-002	47.383
29848	7.8	4.85	0.	1517.4
29849	7.75	4.9	0.	1297.5
29850	7.8	4.9	5.e-002	52.038
29851	7.8	4.75	0.	1755.1
29852	7.75	4.8	0.	1504.5
29853	7.8	4.8	5.e-002	58.105
29854	7.8	4.65	0.	2018.8
29855	7.75	4.7	0.	1729.3
29856	7.8	4.7	5.e-002	66.121
29857	7.8	4.55	0.	2311.6
29858	7.75	4.6	0.	1972.5
29859	7.8	4.6	5.e-002	76.887
29860	7.8	4.45	0.	2633.9
29861	7.75	4.5	0.	2231.7
29862	7.8	4.5	5.e-002	91.859
29863	7.8	4.35	0.	2968.6
29864	7.75	4.4	0.	2496.8
29865	7.8	4.4	5.e-002	112.16
29866	7.8	4.25	0.	3250.7
29867	7.75	4.3	0.	2733.7
29868	7.8	4.3	5.e-002	145.6
29869	7.8	4.15	0.	3367.6
29870	7.75	4.2	0.	2859.7
29871	7.8	4.2	5.e-002	181.1
29872	7.8	4.05	0.	2974.8
29873	7.75	4.1	0.	2765.7
29874	7.8	4.1	5.e-002	250.87
29875	7.8	3.95	0.	2204.2
29876	7.75	4.	0.	2184.6
29877	7.8	4.	5.e-002	243.23
29878	7.8	3.85	0.	1574.8
29879	7.75	3.9	0.	1584.5
29880	7.8	3.9	5.e-002	281.73
29881	7.8	3.75	0.	1219.7
29882	7.75	3.8	0.	1185.8
29883	7.8	3.8	5.e-002	198.29
29884	7.8	3.65	0.	1063.1
29885	7.75	3.7	0.	1008.6
29886	7.8	3.7	5.e-002	141.73
29887	7.8	3.55	0.	974.32
29888	7.75	3.6	0.	915.39
29889	7.8	3.6	5.e-002	99.378
29890	7.8	3.45	0.	916.06
29891	7.75	3.5	0.	859.22
29892	7.8	3.5	5.e-002	71.261
29893	7.8	3.35	0.	874.34
29894	7.75	3.4	0.	820.51
29895	7.8	3.4	5.e-002	52.512
29896	7.8	3.25	0.	844.93
29897	7.75	3.3	0.	792.97
29898	7.8	3.3	5.e-002	40.025
29899	7.8	3.15	0.	826.
29900	7.75	3.2	0.	774.2
29901	7.8	3.2	5.e-002	31.896
29902	7.8	3.05	0.	816.71
29903	7.75	3.1	0.	763.2
29904	7.8	3.1	5.e-002	27.211
29905	7.8	2.95	0.	816.71
29906	7.75	3.	0.	759.57
29907	7.8	3.	5.e-002	25.663
29908	7.8	2.85	0.	826.
29909	7.75	2.9	0.	763.2
29910	7.8	2.9	5.e-002	27.212
29911	7.8	2.75	0.	844.93
29912	7.75	2.8	0.	774.2
29913	7.8	2.8	5.e-002	31.897
29914	7.8	2.65	0.	874.34
29915	7.75	2.7	0.	792.98
29916	7.8	2.7	5.e-002	40.026
29917	7.8	2.55	0.	916.07
29918	7.75	2.6	0.	820.51
29919	7.8	2.6	5.e-002	52.514
29920	7.8	2.45	0.	974.32
29921	7.75	2.5	0.	859.23
29922	7.8	2.5	5.e-002	71.263
29923	7.8	2.35	0.	1063.1
29924	7.75	2.4	0.	915.4
29925	7.8	2.4	5.e-002	99.38
29926	7.8	2.25	0.	1219.7
29927	7.75	2.3	0.	1008.6
29928	7.8	2.3	5.e-002	141.73
29929	7.8	2.15	0.	1574.8
29930	7.75	2.2	0.	1185.8
29931	7.8	2.2	5.e-002	198.29
29932	7.8	2.05	0.	2204.2
29933	7.75	2.1	0.	1584.5
29934	7.8	2.1	5.e-002	281.74
29935	7.8	1.95	0.	2974.8
29936	7.75	2.	0.	2184.6
29937	7.8	2.	5.e-002	243.23
29938	7.8	1.85	0.	3367.6
29939	7.75	1.9	0.	2765.7
29940	7.8	1.9	5.e-002	250.87
29941	7.8	1.75	0.	3250.7
29942	7.75	1.8	0.	2859.7
29943	7.8	1.8	5.e-002	181.1
29944	7.8	1.65	0.	2968.6
29945	7.75	1.7	0.	2733.7
29946	7.8	1.7	5.e-002	145.6
29947	7.8	1.55	0.	2633.9
29948	7.75	1.6	0.	2496.8
29949	7.8	1.6	5.e-002	112.16
29950	7.8	1.45	0.	2311.6
29951	7.75	1.5	0.	2231.7
29952	7.8	1.5	5.e-002	91.859
29953	7.8	1.35	0.	2018.8
29954	7.75	1.4	0.	1972.5
29955	7.8	1.4	5.e-002	76.887
29956	7.8	1.25	0.	1755.1
29957	7.75	1.3	0.	1729.3
29958	7.8	1.3	5.e-002	66.121
29959	7.8	1.15	0.	1517.4
29960	7.75	1.2	0.	1504.5
29961	7.8	1.2	5.e-002	58.105
29962	7.8	1.05	0.	1301.9
29963	7.75	1.1	0.	1297.5
29964	7.8	1.1	5.e-002	52.038
29965	7.8	0.95	0.	1105.3
29966	7.75	1.	0.	1106.6
29967	7.8	1.	5.e-002	47.383
29968	7.8	0.85	0.	924.94
29969	7.75	0.9	0.	930.29
29970	7.8	0.9	5.e-002	43.796
29971	7.8	0.75	0.	758.87
29972	7.75	0.8	0.	767.23
29973	7.8	0.8	5.e-002	41.049
29974	7.8	0.65	0.	605.77
29975	7.75	0.7	0.	616.5
29976	7.8	0.7	5.e-002	39.002
29977	7.8	0.55	0.	465.12
29978	7.75	0.6	0.	477.82
29979	7.8	0.6	5.e-002	37.581
29980	7.8	0.45	0.	337.49
29981	7.75	0.5	0.	351.89
29982	7.8	0.5	5.e-002	36.779
29983	7.8	0.35	0.	225.52
29984	7.75	0.4	0.	240.95
29985	7.8	0.4	5.e-002	36.659
29986	7.8	0.25	0.	136.55
29987	7.75	0.3	0.	150.22
29988	7.8	0.3	5.e-002	37.396
29989	7.8	0.15	0.	89.583
29990	7.75	0.2	0.	90.158
29991	7.8	0.2	5.e-002	39.313
29992	7.75	0.1	0.	79.552
29993	7.8	0.1	5.e-002	45.58
29994	7.8	5.e-002	0.	26.845
29995	7.7	5.85	0.	82.647
29996	7.65	5.9	0.	79.541
29997	7.7	5.9	5.e-002	44.546
29998	7.7	5.95	0.	27.803
29999	7.7	5.75	0.	110.8
30000	7.65	5.8	0.	85.261
30001	7.7	5.8	5.e-002	38.914
30002	7.7	5.65	0.	176.12
30003	7.65	5.7	0.	128.08
30004	7.7	5.7	5.e-002	37.493
30005	7.7	5.55	0.	266.97
30006	7.65	5.6	0.	198.36
30007	7.7	5.6	5.e-002	36.897
30008	7.7	5.45	0.	376.32
30009	7.65	5.5	0.	289.85
30010	7.7	5.5	5.e-002	36.946
30011	7.7	5.35	0.	500.13
30012	7.65	5.4	0.	397.7
30013	7.7	5.4	5.e-002	37.576
30014	7.7	5.25	0.	636.35
30015	7.65	5.3	0.	518.78
30016	7.7	5.3	5.e-002	38.758
30017	7.7	5.15	0.	784.18
30018	7.65	5.2	0.	651.33
30019	7.7	5.2	5.e-002	40.498
30020	7.7	5.05	0.	943.53
30021	7.65	5.1	0.	794.39
30022	7.7	5.1	5.e-002	42.844
30023	7.7	4.95	0.	1114.7
30024	7.65	5.	0.	947.5
30025	7.7	5.	5.e-002	45.883
30026	7.7	4.85	0.	1298.1
30027	7.65	4.9	0.	1110.3
30028	7.7	4.9	5.e-002	49.751
30029	7.7	4.75	0.	1493.7
30030	7.65	4.8	0.	1282.
30031	7.7	4.8	5.e-002	54.641
30032	7.7	4.65	0.	1700.
30033	7.65	4.7	0.	1460.9
30034	7.7	4.7	5.e-002	60.809
30035	7.7	4.55	0.	1912.3
30036	7.65	4.6	0.	1642.8
30037	7.7	4.6	5.e-002	68.554
30038	7.7	4.45	0.	2117.6
30039	7.65	4.5	0.	1818.7
30040	7.7	4.5	5.e-002	78.217
30041	7.7	4.35	0.	2287.5
30042	7.65	4.4	0.	1970.2
30043	7.7	4.4	5.e-002	90.021
30044	7.7	4.25	0.	2364.4
30045	7.65	4.3	0.	2063.6
30046	7.7	4.3	5.e-002	102.94
30047	7.7	4.15	0.	2264.
30048	7.65	4.2	0.	2042.1
30049	7.7	4.2	5.e-002	116.86
30050	7.7	4.05	0.	1957.3
30051	7.65	4.1	0.	1847.6
30052	7.7	4.1	5.e-002	135.43
30053	7.7	3.95	0.	1537.1
30054	7.65	4.	0.	1512.9
30055	7.7	4.	5.e-002	156.67
30056	7.7	3.85	0.	1176.6
30057	7.65	3.9	0.	1160.6
30058	7.7	3.9	5.e-002	152.09
30059	7.7	3.75	0.	964.29
30060	7.65	3.8	0.	924.16
30061	7.7	3.8	5.e-002	137.46
30062	7.7	3.65	0.	855.25
30063	7.65	3.7	0.	797.28
30064	7.7	3.7	5.e-002	110.7
30065	7.7	3.55	0.	797.12
30066	7.65	3.6	0.	732.42
30067	7.7	3.6	5.e-002	86.935
30068	7.7	3.45	0.	761.65
30069	7.65	3.5	0.	696.61
30070	7.7	3.5	5.e-002	67.74
30071	7.7	3.35	0.	737.6
30072	7.65	3.4	0.	674.48
30073	7.7	3.4	5.e-002	53.422
30074	7.7	3.25	0.	720.86
30075	7.65	3.3	0.	659.67
30076	7.7	3.3	5.e-002	43.233
30077	7.7	3.15	0.	710.05
30078	7.65	3.2	0.	649.81
30079	7.7	3.2	5.e-002	36.418
30080	7.7	3.05	0.	704.71
30081	7.65	3.1	0.	644.07
30082	7.7	3.1	5.e-002	32.484
30083	7.7	2.95	0.	704.71
30084	7.65	3.	0.	642.18
30085	7.7	3.	5.e-002	31.194
30086	7.7	2.85	0.	710.05
30087	7.65	2.9	0.	644.07
30088	7.7	2.9	5.e-002	32.485
30089	7.7	2.75	0.	720.86
30090	7.65	2.8	0.	649.82
30091	7.7	2.8	5.e-002	36.419
30092	7.7	2.65	0.	737.6
30093	7.65	2.7	0.	659.67
30094	7.7	2.7	5.e-002	43.234
30095	7.7	2.55	0.	761.65
30096	7.65	2.6	0.	674.48
30097	7.7	2.6	5.e-002	53.423
30098	7.7	2.45	0.	797.12
30099	7.65	2.5	0.	696.61
30100	7.7	2.5	5.e-002	67.742
30101	7.7	2.35	0.	855.26
30102	7.65	2.4	0.	732.42
30103	7.7	2.4	5.e-002	86.937
30104	7.7	2.25	0.	964.29
30105	7.65	2.3	0.	797.29
30106	7.7	2.3	5.e-002	110.7
30107	7.7	2.15	0.	1176.6
30108	7.65	2.2	0.	924.16
30109	7.7	2.2	5.e-002	137.46
30110	7.7	2.05	0.	1537.1
30111	7.65	2.1	0.	1160.6
30112	7.7	2.1	5.e-002	152.1
30113	7.7	1.95	0.	1957.3
30114	7.65	2.	0.	1512.9
30115	7.7	2.	5.e-002	156.67
30116	7.7	1.85	0.	2264.
30117	7.65	1.9	0.	1847.6
30118	7.7	1.9	5.e-002	135.43
30119	7.7	1.75	0.	2364.4
30120	7.65	1.8	0.	2042.1
30121	7.7	1.8	5.e-002	116.86
30122	7.7	1.65	0.	2287.5
30123	7.65	1.7	0.	2063.6
30124	7.7	1.7	5.e-002	102.94
30125	7.7	1.55	0.	2117.6
30126	7.65	1.6	0.	1970.2
30127	7.7	1.6	5.e-002	90.021
30128	7.7	1.45	0.	1912.3
30129	7.65	1.5	0.	1818.7
30130	7.7	1.5	5.e-002	78.217
30131	7.7	1.35	0.	1700.
30132	7.65	1.4	0.	1642.8
30133	7.7	1.4	5.e-002	68.554
30134	7.7	1.25	0.	1493.7
30135	7.65	1.3	0.	1460.9
30136	7.7	1.3	5.e-002	60.809
30137	7.7	1.15	0.	1298.1
30138	7.65	1.2	0.	1282.
30139	7.7	1.2	5.e-002	54.641
30140	7.7	1.05	0.	1114.7
30141	7.65	1.1	0.	1110.3
30142	7.7	1.1	5.e-002	49.752
30143	7.7	0.95	0.	943.53
30144	7.65	1.	0.	947.5
30145	7.7	1.	5.e-002	45.883
30146	7.7	0.85	0.	784.18
30147	7.65	0.9	0.	794.39
30148	7.7	0.9	5.e-002	42.844
30149	7.7	0.75	0.	636.35
30150	7.65	0.8	0.	651.33
30151	7.7	0.8	5.e-002	40.498
30152	7.7	0.65	0.	500.13
30153	7.65	0.7	0.	518.78
30154	7.7	0.7	5.e-002	38.758
30155	7.7	0.55	0.	376.32
30156	7.65	0.6	0.	397.7
30157	7.7	0.6	5.e-002	37.576
30158	7.7	0.45	0.	266.97
30159	7.65	0.5	0.	289.85
30160	7.7	0.5	5.e-002	36.946
30161	7.7	0.35	0.	176.12
30162	7.65	0.4	0.	198.36
30163	7.7	0.4	5.e-002	36.897
30164	7.7	0.25	0.	110.8
30165	7.65	0.3	0.	128.08
30166	7.7	0.3	5.e-002	37.493
30167	7.7	0.15	0.	82.647
30168	7.65	0.2	0.	85.261
30169	7.7	0.2	5.e-002	38.914
30170	7.65	0.1	0.	79.541
30171	7.7	0.1	5.e-002	44.546
30172	7.7	5.e-002	0.	27.803
30173	7.6	5.85	0.	83.009
30174	7.55	5.9	0.	78.973
30175	7.6	5.9	5.e-002	43.436
30176	7.6	5.95	0.	29.907
30177	7.6	5.75	0.	105.28
30178	7.55	5.8	0.	87.466
30179	7.6	5.8	5.e-002	37.962
30180	7.6	5.65	0.	155.93
30181	7.55	5.7	0.	122.61
30182	7.6	5.7	5.e-002	36.926
30183	7.6	5.55	0.	228.93
30184	7.55	5.6	0.	178.94
30185	7.6	5.6	5.e-002	36.501
30186	7.6	5.45	0.	320.07
30187	7.55	5.5	0.	253.84
30188	7.6	5.5	5.e-002	36.541
30189	7.6	5.35	0.	425.82
30190	7.55	5.4	0.	344.21
30191	7.6	5.4	5.e-002	37.037
30192	7.6	5.25	0.	543.62
30193	7.55	5.3	0.	447.26
30194	7.6	5.3	5.e-002	37.984
30195	7.6	5.15	0.	671.75
30196	7.55	5.2	0.	560.81
30197	7.6	5.2	5.e-002	39.39
30198	7.6	5.05	0.	808.99
30199	7.55	5.1	0.	683.15
30200	7.6	5.1	5.e-002	41.276
30201	7.6	4.95	0.	954.24
30202	7.55	5.	0.	812.75
30203	7.6	5.	5.e-002	43.684
30204	7.6	4.85	0.	1106.
30205	7.55	4.9	0.	947.91
30206	7.6	4.9	5.e-002	46.67
30207	7.6	4.75	0.	1261.9
30208	7.55	4.8	0.	1086.2
30209	7.6	4.8	5.e-002	50.299
30210	7.6	4.65	0.	1417.4
30211	7.55	4.7	0.	1223.9
30212	7.6	4.7	5.e-002	54.627
30213	7.6	4.55	0.	1563.9
30214	7.55	4.6	0.	1354.6
30215	7.6	4.6	5.e-002	59.666
30216	7.6	4.45	0.	1686.4
30217	7.55	4.5	0.	1467.6
30218	7.6	4.5	5.e-002	65.347
30219	7.6	4.35	0.	1759.9
30220	7.55	4.4	0.	1545.8
30221	7.6	4.4	5.e-002	71.472
30222	7.6	4.25	0.	1750.2
30223	7.55	4.3	0.	1564.9
30224	7.6	4.3	5.e-002	78.114
30225	7.6	4.15	0.	1627.1
30226	7.55	4.2	0.	1497.6
30227	7.6	4.2	5.e-002	86.694
30228	7.6	4.05	0.	1398.2
30229	7.55	4.1	0.	1332.7
30230	7.6	4.1	5.e-002	95.694
30231	7.6	3.95	0.	1128.6
30232	7.55	4.	0.	1102.9
30233	7.6	4.	5.e-002	102.52
30234	7.6	3.85	0.	899.31
30235	7.55	3.9	0.	878.84
30236	7.6	3.9	5.e-002	103.28
30237	7.6	3.75	0.	749.56
30238	7.55	3.8	0.	714.21
30239	7.6	3.8	5.e-002	96.236
30240	7.6	3.65	0.	668.55
30241	7.55	3.7	0.	617.65
30242	7.6	3.7	5.e-002	85.192
30243	7.6	3.55	0.	627.55
30244	7.55	3.6	0.	567.58
30245	7.6	3.6	5.e-002	72.587
30246	7.6	3.45	0.	606.2
30247	7.55	3.5	0.	542.8
30248	7.6	3.5	5.e-002	60.874
30249	7.6	3.35	0.	594.02
30250	7.55	3.4	0.	530.32
30251	7.6	3.4	5.e-002	51.104
30252	7.6	3.25	0.	586.52
30253	7.55	3.3	0.	523.65
30254	7.6	3.3	5.e-002	43.62
30255	7.6	3.15	0.	581.95
30256	7.55	3.2	0.	519.9
30257	7.6	3.2	5.e-002	38.391
30258	7.6	3.05	0.	579.75
30259	7.55	3.1	0.	517.92
30260	7.6	3.1	5.e-002	35.307
30261	7.6	2.95	0.	579.75
30262	7.55	3.	0.	517.3
30263	7.6	3.	5.e-002	34.289
30264	7.6	2.85	0.	581.95
30265	7.55	2.9	0.	517.92
30266	7.6	2.9	5.e-002	35.308
30267	7.6	2.75	0.	586.52
30268	7.55	2.8	0.	519.9
30269	7.6	2.8	5.e-002	38.391
30270	7.6	2.65	0.	594.02
30271	7.55	2.7	0.	523.65
30272	7.6	2.7	5.e-002	43.621
30273	7.6	2.55	0.	606.2
30274	7.55	2.6	0.	530.32
30275	7.6	2.6	5.e-002	51.106
30276	7.6	2.45	0.	627.55
30277	7.55	2.5	0.	542.81
30278	7.6	2.5	5.e-002	60.876
30279	7.6	2.35	0.	668.55
30280	7.55	2.4	0.	567.58
30281	7.6	2.4	5.e-002	72.589
30282	7.6	2.25	0.	749.56
30283	7.55	2.3	0.	617.65
30284	7.6	2.3	5.e-002	85.194
30285	7.6	2.15	0.	899.31
30286	7.55	2.2	0.	714.21
30287	7.6	2.2	5.e-002	96.238
30288	7.6	2.05	0.	1128.6
30289	7.55	2.1	0.	878.84
30290	7.6	2.1	5.e-002	103.28
30291	7.6	1.95	0.	1398.2
30292	7.55	2.	0.	1102.9
30293	7.6	2.	5.e-002	102.52
30294	7.6	1.85	0.	1627.1
30295	7.55	1.9	0.	1332.7
30296	7.6	1.9	5.e-002	95.695
30297	7.6	1.75	0.	1750.2
30298	7.55	1.8	0.	1497.6
30299	7.6	1.8	5.e-002	86.694
30300	7.6	1.65	0.	1759.9
30301	7.55	1.7	0.	1564.9
30302	7.6	1.7	5.e-002	78.114
30303	7.6	1.55	0.	1686.4
30304	7.55	1.6	0.	1545.8
30305	7.6	1.6	5.e-002	71.472
30306	7.6	1.45	0.	1563.9
30307	7.55	1.5	0.	1467.6
30308	7.6	1.5	5.e-002	65.347
30309	7.6	1.35	0.	1417.4
30310	7.55	1.4	0.	1354.6
30311	7.6	1.4	5.e-002	59.666
30312	7.6	1.25	0.	1261.9
30313	7.55	1.3	0.	1223.9
30314	7.6	1.3	5.e-002	54.627
30315	7.6	1.15	0.	1106.
30316	7.55	1.2	0.	1086.2
30317	7.6	1.2	5.e-002	50.299
30318	7.6	1.05	0.	954.24
30319	7.55	1.1	0.	947.91
30320	7.6	1.1	5.e-002	46.67
30321	7.6	0.95	0.	808.99
30322	7.55	1.	0.	812.75
30323	7.6	1.	5.e-002	43.684
30324	7.6	0.85	0.	671.75
30325	7.55	0.9	0.	683.15
30326	7.6	0.9	5.e-002	41.276
30327	7.6	0.75	0.	543.62
30328	7.55	0.8	0.	560.81
30329	7.6	0.8	5.e-002	39.39
30330	7.6	0.65	0.	425.82
30331	7.55	0.7	0.	447.26
30332	7.6	0.7	5.e-002	37.984
30333	7.6	0.55	0.	320.07
30334	7.55	0.6	0.	344.21
30335	7.6	0.6	5.e-002	37.037
30336	7.6	0.45	0.	228.93
30337	7.55	0.5	0.	253.84
30338	7.6	0.5	5.e-002	36.541
30339	7.6	0.35	0.	155.93
30340	7.55	0.4	0.	178.94
30341	7.6	0.4	5.e-002	36.501
30342	7.6	0.25	0.	105.28
30343	7.55	0.3	0.	122.61
30344	7.6	0.3	5.e-002	36.926
30345	7.6	0.15	0.	83.009
30346	7.55	0.2	0.	87.466
30347	7.6	0.2	5.e-002	37.962
30348	7.55	0.1	0.	78.973
30349	7.6	0.1	5.e-002	43.436
30350	7.6	5.e-002	0.	29.907
30351	7.5	5.85	0.	83.893
30352	7.45	5.9	0.	76.918
30353	7.5	5.9	5.e-002	42.109
30354	7.5	5.95	0.	30.835
30355	7.5	5.75	0.	106.01
30356	7.45	5.8	0.	90.53
30357	7.5	5.8	5.e-002	36.719
30358	7.5	5.65	0.	148.64
30359	7.45	5.7	0.	122.9
30360	7.5	5.7	5.e-002	35.917
30361	7.5	5.55	0.	208.65
30362	7.45	5.6	0.	170.47
30363	7.5	5.6	5.e-002	35.614
30364	7.5	5.45	0.	284.18
30365	7.45	5.5	0.	232.65
30366	7.5	5.5	5.e-002	35.651
30367	7.5	5.35	0.	372.86
30368	7.45	5.4	0.	307.9
30369	7.5	5.4	5.e-002	36.03
30370	7.5	5.25	0.	472.39
30371	7.45	5.3	0.	394.18
30372	7.5	5.3	5.e-002	36.755
30373	7.5	5.15	0.	580.72
30374	7.45	5.2	0.	489.43
30375	7.5	5.2	5.e-002	37.829
30376	7.5	5.05	0.	695.92
30377	7.45	5.1	0.	591.62
30378	7.5	5.1	5.e-002	39.256
30379	7.5	4.95	0.	815.92
30380	7.45	5.	0.	698.63
30381	7.5	5.	5.e-002	41.041
30382	7.5	4.85	0.	938.12
30383	7.45	4.9	0.	807.98
30384	7.5	4.9	5.e-002	43.187
30385	7.5	4.75	0.	1058.7
30386	7.45	4.8	0.	916.37
30387	7.5	4.8	5.e-002	45.682
30388	7.5	4.65	0.	1172.
30389	7.45	4.7	0.	1019.2
30390	7.5	4.7	5.e-002	48.492
30391	7.5	4.55	0.	1269.
30392	7.45	4.6	0.	1109.6
30393	7.5	4.6	5.e-002	51.549
30394	7.5	4.45	0.	1337.
30395	7.45	4.5	0.	1178.2
30396	7.5	4.5	5.e-002	54.764
30397	7.5	4.35	0.	1358.9
30398	7.45	4.4	0.	1212.2
30399	7.5	4.4	5.e-002	58.146
30400	7.5	4.25	0.	1317.3
30401	7.45	4.3	0.	1197.2
30402	7.5	4.3	5.e-002	61.964
30403	7.5	4.15	0.	1204.7
30404	7.45	4.2	0.	1122.4
30405	7.5	4.2	5.e-002	66.51
30406	7.5	4.05	0.	1036.2
30407	7.45	4.1	0.	991.13
30408	7.5	4.1	5.e-002	71.615
30409	7.5	3.95	0.	850.4
30410	7.45	4.	0.	827.99
30411	7.5	4.	5.e-002	75.143
30412	7.5	3.85	0.	690.05
30413	7.45	3.9	0.	670.77
30414	7.5	3.9	5.e-002	75.263
30415	7.5	3.75	0.	578.1
30416	7.45	3.8	0.	549.24
30417	7.5	3.8	5.e-002	72.16
30418	7.5	3.65	0.	512.56
30419	7.45	3.7	0.	471.22
30420	7.5	3.7	5.e-002	66.679
30421	7.5	3.55	0.	479.16
30422	7.45	3.6	0.	428.27
30423	7.5	3.6	5.e-002	60.039
30424	7.5	3.45	0.	463.79
30425	7.45	3.5	0.	407.45
30426	7.5	3.5	5.e-002	53.218
30427	7.5	3.35	0.	457.28
30428	7.45	3.4	0.	398.61
30429	7.5	3.4	5.e-002	47.027
30430	7.5	3.25	0.	454.71
30431	7.45	3.3	0.	395.49
30432	7.5	3.3	5.e-002	41.958
30433	7.5	3.15	0.	453.77
30434	7.45	3.2	0.	394.74
30435	7.5	3.2	5.e-002	38.254
30436	7.5	3.05	0.	453.47
30437	7.45	3.1	0.	394.75
30438	7.5	3.1	5.e-002	36.01
30439	7.5	2.95	0.	453.47
30440	7.45	3.	0.	394.82
30441	7.5	3.	5.e-002	35.26
30442	7.5	2.85	0.	453.77
30443	7.45	2.9	0.	394.75
30444	7.5	2.9	5.e-002	36.011
30445	7.5	2.75	0.	454.71
30446	7.45	2.8	0.	394.74
30447	7.5	2.8	5.e-002	38.254
30448	7.5	2.65	0.	457.28
30449	7.45	2.7	0.	395.49
30450	7.5	2.7	5.e-002	41.959
30451	7.5	2.55	0.	463.79
30452	7.45	2.6	0.	398.61
30453	7.5	2.6	5.e-002	47.029
30454	7.5	2.45	0.	479.16
30455	7.45	2.5	0.	407.45
30456	7.5	2.5	5.e-002	53.219
30457	7.5	2.35	0.	512.56
30458	7.45	2.4	0.	428.27
30459	7.5	2.4	5.e-002	60.041
30460	7.5	2.25	0.	578.1
30461	7.45	2.3	0.	471.22
30462	7.5	2.3	5.e-002	66.681
30463	7.5	2.15	0.	690.05
30464	7.45	2.2	0.	549.24
30465	7.5	2.2	5.e-002	72.161
30466	7.5	2.05	0.	850.4
30467	7.45	2.1	0.	670.77
30468	7.5	2.1	5.e-002	75.265
30469	7.5	1.95	0.	1036.2
30470	7.45	2.	0.	827.99
30471	7.5	2.	5.e-002	75.144
30472	7.5	1.85	0.	1204.7
30473	7.45	1.9	0.	991.12
30474	7.5	1.9	5.e-002	71.615
30475	7.5	1.75	0.	1317.3
30476	7.45	1.8	0.	1122.4
30477	7.5	1.8	5.e-002	66.51
30478	7.5	1.65	0.	1358.9
30479	7.45	1.7	0.	1197.2
30480	7.5	1.7	5.e-002	61.964
30481	7.5	1.55	0.	1337.
30482	7.45	1.6	0.	1212.2
30483	7.5	1.6	5.e-002	58.146
30484	7.5	1.45	0.	1269.
30485	7.45	1.5	0.	1178.2
30486	7.5	1.5	5.e-002	54.763
30487	7.5	1.35	0.	1172.
30488	7.45	1.4	0.	1109.6
30489	7.5	1.4	5.e-002	51.549
30490	7.5	1.25	0.	1058.7
30491	7.45	1.3	0.	1019.2
30492	7.5	1.3	5.e-002	48.492
30493	7.5	1.15	0.	938.12
30494	7.45	1.2	0.	916.37
30495	7.5	1.2	5.e-002	45.682
30496	7.5	1.05	0.	815.92
30497	7.45	1.1	0.	807.98
30498	7.5	1.1	5.e-002	43.187
30499	7.5	0.95	0.	695.92
30500	7.45	1.	0.	698.63
30501	7.5	1.	5.e-002	41.041
30502	7.5	0.85	0.	580.72
30503	7.45	0.9	0.	591.62
30504	7.5	0.9	5.e-002	39.256
30505	7.5	0.75	0.	472.39
30506	7.45	0.8	0.	489.43
30507	7.5	0.8	5.e-002	37.829
30508	7.5	0.65	0.	372.86
30509	7.45	0.7	0.	394.18
30510	7.5	0.7	5.e-002	36.755
30511	7.5	0.55	0.	284.18
30512	7.45	0.6	0.	307.9
30513	7.5	0.6	5.e-002	36.03
30514	7.5	0.45	0.	208.65
30515	7.45	0.5	0.	232.66
30516	7.5	0.5	5.e-002	35.651
30517	7.5	0.35	0.	148.64
30518	7.45	0.4	0.	170.47
30519	7.5	0.4	5.e-002	35.614
30520	7.5	0.25	0.	106.01
30521	7.45	0.3	0.	122.9
30522	7.5	0.3	5.e-002	35.917
30523	7.5	0.15	0.	83.893
30524	7.45	0.2	0.	90.53
30525	7.5	0.2	5.e-002	36.719
30526	7.45	0.1	0.	76.918
30527	7.5	0.1	5.e-002	42.109
30528	7.5	5.e-002	0.	30.835
30529	7.4	5.85	0.	83.902
30530	7.35	5.9	0.	73.704
30531	7.4	5.9	5.e-002	40.554
30532	7.4	5.95	0.	30.796
30533	7.4	5.75	0.	108.04
30534	7.35	5.8	0.	92.652
30535	7.4	5.8	5.e-002	35.256
30536	7.4	5.65	0.	146.47
30537	7.35	5.7	0.	124.45
30538	7.4	5.7	5.e-002	34.593
30539	7.4	5.55	0.	197.51
30540	7.35	5.6	0.	166.55
30541	7.4	5.6	5.e-002	34.361
30542	7.4	5.45	0.	260.63
30543	7.35	5.5	0.	219.33
30544	7.4	5.5	5.e-002	34.379
30545	7.4	5.35	0.	334.5
30546	7.35	5.4	0.	282.21
30547	7.4	5.4	5.e-002	34.646
30548	7.4	5.25	0.	417.32
30549	7.35	5.3	0.	353.86
30550	7.4	5.3	5.e-002	35.165
30551	7.4	5.15	0.	507.1
30552	7.35	5.2	0.	432.54
30553	7.4	5.2	5.e-002	35.932
30554	7.4	5.05	0.	601.64
30555	7.35	5.1	0.	516.25
30556	7.4	5.1	5.e-002	36.937
30557	7.4	4.95	0.	698.44
30558	7.35	5.	0.	602.67
30559	7.4	5.	5.e-002	38.167
30560	7.4	4.85	0.	794.32
30561	7.35	4.9	0.	689.02
30562	7.4	4.9	5.e-002	39.595
30563	7.4	4.75	0.	885.12
30564	7.35	4.8	0.	771.74
30565	7.4	4.8	5.e-002	41.185
30566	7.4	4.65	0.	965.12
30567	7.35	4.7	0.	846.24
30568	7.4	4.7	5.e-002	42.885
30569	7.4	4.55	0.	1026.7
30570	7.35	4.6	0.	906.51
30571	7.4	4.6	5.e-002	44.643
30572	7.4	4.45	0.	1060.4
30573	7.35	4.5	0.	945.07
30574	7.4	4.5	5.e-002	46.449
30575	7.4	4.35	0.	1056.
30576	7.35	4.4	0.	953.47
30577	7.4	4.4	5.e-002	48.396
30578	7.4	4.25	0.	1005.8
30579	7.35	4.3	0.	924.2
30580	7.4	4.3	5.e-002	50.701
30581	7.4	4.15	0.	910.44
30582	7.35	4.2	0.	854.36
30583	7.4	4.2	5.e-002	53.462
30584	7.4	4.05	0.	783.15
30585	7.35	4.1	0.	750.23
30586	7.4	4.1	5.e-002	56.186
30587	7.4	3.95	0.	647.66
30588	7.35	4.	0.	628.69
30589	7.4	4.	5.e-002	57.926
30590	7.4	3.85	0.	528.48
30591	7.35	3.9	0.	511.89
30592	7.4	3.9	5.e-002	57.984
30593	7.4	3.75	0.	440.26
30594	7.35	3.8	0.	417.42
30595	7.4	3.8	5.e-002	56.372
30596	7.4	3.65	0.	384.44
30597	7.35	3.7	0.	352.08
30598	7.4	3.7	5.e-002	53.542
30599	7.4	3.55	0.	353.97
30600	7.35	3.6	0.	312.89
30601	7.4	3.6	5.e-002	49.94
30602	7.4	3.45	0.	339.76
30603	7.35	3.5	0.	292.52
30604	7.4	3.5	5.e-002	46.047
30605	7.4	3.35	0.	334.48
30606	7.35	3.4	0.	283.62
30607	7.4	3.4	5.e-002	42.303
30608	7.4	3.25	0.	333.34
30609	7.35	3.3	0.	280.78
30610	7.4	3.3	5.e-002	39.077
30611	7.4	3.15	0.	333.68
30612	7.35	3.2	0.	280.58
30613	7.4	3.2	5.e-002	36.624
30614	7.4	3.05	0.	334.12
30615	7.35	3.1	0.	281.08
30616	7.4	3.1	5.e-002	35.101
30617	7.4	2.95	0.	334.12
30618	7.35	3.	0.	281.34
30619	7.4	3.	5.e-002	34.586
30620	7.4	2.85	0.	333.68
30621	7.35	2.9	0.	281.08
30622	7.4	2.9	5.e-002	35.101
30623	7.4	2.75	0.	333.34
30624	7.35	2.8	0.	280.58
30625	7.4	2.8	5.e-002	36.625
30626	7.4	2.65	0.	334.48
30627	7.35	2.7	0.	280.79
30628	7.4	2.7	5.e-002	39.077
30629	7.4	2.55	0.	339.76
30630	7.35	2.6	0.	283.62
30631	7.4	2.6	5.e-002	42.304
30632	7.4	2.45	0.	353.97
30633	7.35	2.5	0.	292.52
30634	7.4	2.5	5.e-002	46.049
30635	7.4	2.35	0.	384.44
30636	7.35	2.4	0.	312.89
30637	7.4	2.4	5.e-002	49.942
30638	7.4	2.25	0.	440.26
30639	7.35	2.3	0.	352.08
30640	7.4	2.3	5.e-002	53.543
30641	7.4	2.15	0.	528.48
30642	7.35	2.2	0.	417.42
30643	7.4	2.2	5.e-002	56.373
30644	7.4	2.05	0.	647.66
30645	7.35	2.1	0.	511.89
30646	7.4	2.1	5.e-002	57.985
30647	7.4	1.95	0.	783.15
30648	7.35	2.	0.	628.69
30649	7.4	2.	5.e-002	57.927
30650	7.4	1.85	0.	910.44
30651	7.35	1.9	0.	750.23
30652	7.4	1.9	5.e-002	56.186
30653	7.4	1.75	0.	1005.8
30654	7.35	1.8	0.	854.36
30655	7.4	1.8	5.e-002	53.462
30656	7.4	1.65	0.	1056.
30657	7.35	1.7	0.	924.2
30658	7.4	1.7	5.e-002	50.701
30659	7.4	1.55	0.	1060.4
30660	7.35	1.6	0.	953.47
30661	7.4	1.6	5.e-002	48.396
30662	7.4	1.45	0.	1026.7
30663	7.35	1.5	0.	945.07
30664	7.4	1.5	5.e-002	46.448
30665	7.4	1.35	0.	965.12
30666	7.35	1.4	0.	906.51
30667	7.4	1.4	5.e-002	44.643
30668	7.4	1.25	0.	885.12
30669	7.35	1.3	0.	846.24
30670	7.4	1.3	5.e-002	42.885
30671	7.4	1.15	0.	794.32
30672	7.35	1.2	0.	771.74
30673	7.4	1.2	5.e-002	41.185
30674	7.4	1.05	0.	698.44
30675	7.35	1.1	0.	689.02
30676	7.4	1.1	5.e-002	39.595
30677	7.4	0.95	0.	601.64
30678	7.35	1.	0.	602.67
30679	7.4	1.	5.e-002	38.167
30680	7.4	0.85	0.	507.1
30681	7.35	0.9	0.	516.25
30682	7.4	0.9	5.e-002	36.937
30683	7.4	0.75	0.	417.32
30684	7.35	0.8	0.	432.54
30685	7.4	0.8	5.e-002	35.932
30686	7.4	0.65	0.	334.5
30687	7.35	0.7	0.	353.86
30688	7.4	0.7	5.e-002	35.165
30689	7.4	0.55	0.	260.63
30690	7.35	0.6	0.	282.21
30691	7.4	0.6	5.e-002	34.646
30692	7.4	0.45	0.	197.51
30693	7.35	0.5	0.	219.33
30694	7.4	0.5	5.e-002	34.379
30695	7.4	0.35	0.	146.47
30696	7.35	0.4	0.	166.55
30697	7.4	0.4	5.e-002	34.361
30698	7.4	0.25	0.	108.04
30699	7.35	0.3	0.	124.45
30700	7.4	0.3	5.e-002	34.593
30701	7.4	0.15	0.	83.902
30702	7.35	0.2	0.	92.652
30703	7.4	0.2	5.e-002	35.256
30704	7.35	0.1	0.	73.704
30705	7.4	0.1	5.e-002	40.554
30706	7.4	5.e-002	0.	30.796
30707	7.3	5.85	0.	82.753
30708	7.25	5.9	0.	69.683
30709	7.3	5.9	5.e-002	38.793
30710	7.3	5.95	0.	30.04
30711	7.3	5.75	0.	109.44
30712	7.25	5.8	0.	93.33
30713	7.3	5.8	5.e-002	33.633
30714	7.3	5.65	0.	145.63
30715	7.25	5.7	0.	125.35
30716	7.3	5.7	5.e-002	33.054
30717	7.3	5.55	0.	190.38
30718	7.25	5.6	0.	163.85
30719	7.3	5.6	5.e-002	32.856
30720	7.3	5.45	0.	243.86
30721	7.25	5.5	0.	209.6
30722	7.3	5.5	5.e-002	32.84
30723	7.3	5.35	0.	305.39
30724	7.25	5.4	0.	262.54
30725	7.3	5.4	5.e-002	33.001
30726	7.3	5.25	0.	373.67
30727	7.25	5.3	0.	321.85
30728	7.3	5.3	5.e-002	33.335
30729	7.3	5.15	0.	446.93
30730	7.25	5.2	0.	386.14
30731	7.3	5.2	5.e-002	33.834
30732	7.3	5.05	0.	523.03
30733	7.25	5.1	0.	453.6
30734	7.3	5.1	5.e-002	34.48
30735	7.3	4.95	0.	599.38
30736	7.25	5.	0.	522.
30737	7.3	5.	5.e-002	35.252
30738	7.3	4.85	0.	672.8
30739	7.25	4.9	0.	588.6
30740	7.3	4.9	5.e-002	36.117
30741	7.3	4.75	0.	739.3
30742	7.25	4.8	0.	650.04
30743	7.3	4.8	5.e-002	37.038
30744	7.3	4.65	0.	793.9
30745	7.25	4.7	0.	702.24
30746	7.3	4.7	5.e-002	37.981
30747	7.3	4.55	0.	830.66
30748	7.25	4.6	0.	740.33
30749	7.3	4.6	5.e-002	38.928
30750	7.3	4.45	0.	843.14
30751	7.25	4.5	0.	758.9
30752	7.3	4.5	5.e-002	39.913
30753	7.3	4.35	0.	825.64
30754	7.25	4.4	0.	752.75
30755	7.3	4.4	5.e-002	41.035
30756	7.3	4.25	0.	775.49
30757	7.25	4.3	0.	718.38
30758	7.3	4.3	5.e-002	42.407
30759	7.3	4.15	0.	695.73
30760	7.25	4.2	0.	656.13
30761	7.3	4.2	5.e-002	43.998
30762	7.3	4.05	0.	596.51
30763	7.25	4.1	0.	572.06
30764	7.3	4.1	5.e-002	45.49
30765	7.3	3.95	0.	493.02
30766	7.25	4.	0.	477.69
30767	7.3	4.	5.e-002	46.389
30768	7.3	3.85	0.	400.37
30769	7.25	3.9	0.	386.81
30770	7.3	3.9	5.e-002	46.376
30771	7.3	3.75	0.	328.28
30772	7.25	3.8	0.	310.61
30773	7.3	3.8	5.e-002	45.483
30774	7.3	3.65	0.	279.15
30775	7.25	3.7	0.	254.4
30776	7.3	3.7	5.e-002	43.926
30777	7.3	3.55	0.	249.77
30778	7.25	3.6	0.	217.68
30779	7.3	3.6	5.e-002	41.94
30780	7.3	3.45	0.	234.56
30781	7.25	3.5	0.	196.46
30782	7.3	3.5	5.e-002	39.739
30783	7.3	3.35	0.	228.07
30784	7.25	3.4	0.	185.83
30785	7.3	3.4	5.e-002	37.552
30786	7.3	3.25	0.	226.17
30787	7.25	3.3	0.	181.48
30788	7.3	3.3	5.e-002	35.599
30789	7.3	3.15	0.	226.16
30790	7.25	3.2	0.	180.28
30791	7.3	3.2	5.e-002	34.07
30792	7.3	3.05	0.	226.5
30793	7.25	3.1	0.	180.27
30794	7.3	3.1	5.e-002	33.1
30795	7.3	2.95	0.	226.5
30796	7.25	3.	0.	180.37
30797	7.3	3.	5.e-002	32.768
30798	7.3	2.85	0.	226.16
30799	7.25	2.9	0.	180.27
30800	7.3	2.9	5.e-002	33.1
30801	7.3	2.75	0.	226.17
30802	7.25	2.8	0.	180.28
30803	7.3	2.8	5.e-002	34.07
30804	7.3	2.65	0.	228.07
30805	7.25	2.7	0.	181.48
30806	7.3	2.7	5.e-002	35.6
30807	7.3	2.55	0.	234.56
30808	7.25	2.6	0.	185.83
30809	7.3	2.6	5.e-002	37.552
30810	7.3	2.45	0.	249.77
30811	7.25	2.5	0.	196.46
30812	7.3	2.5	5.e-002	39.74
30813	7.3	2.35	0.	279.15
30814	7.25	2.4	0.	217.68
30815	7.3	2.4	5.e-002	41.941
30816	7.3	2.25	0.	328.28
30817	7.25	2.3	0.	254.4
30818	7.3	2.3	5.e-002	43.927
30819	7.3	2.15	0.	400.37
30820	7.25	2.2	0.	310.61
30821	7.3	2.2	5.e-002	45.483
30822	7.3	2.05	0.	493.02
30823	7.25	2.1	0.	386.81
30824	7.3	2.1	5.e-002	46.376
30825	7.3	1.95	0.	596.51
30826	7.25	2.	0.	477.69
30827	7.3	2.	5.e-002	46.389
30828	7.3	1.85	0.	695.73
30829	7.25	1.9	0.	572.06
30830	7.3	1.9	5.e-002	45.49
30831	7.3	1.75	0.	775.49
30832	7.25	1.8	0.	656.13
30833	7.3	1.8	5.e-002	43.998
30834	7.3	1.65	0.	825.64
30835	7.25	1.7	0.	718.38
30836	7.3	1.7	5.e-002	42.407
30837	7.3	1.55	0.	843.14
30838	7.25	1.6	0.	752.75
30839	7.3	1.6	5.e-002	41.035
30840	7.3	1.45	0.	830.66
30841	7.25	1.5	0.	758.9
30842	7.3	1.5	5.e-002	39.913
30843	7.3	1.35	0.	793.9
30844	7.25	1.4	0.	740.33
30845	7.3	1.4	5.e-002	38.928
30846	7.3	1.25	0.	739.3
30847	7.25	1.3	0.	702.24
30848	7.3	1.3	5.e-002	37.981
30849	7.3	1.15	0.	672.8
30850	7.25	1.2	0.	650.04
30851	7.3	1.2	5.e-002	37.038
30852	7.3	1.05	0.	599.38
30853	7.25	1.1	0.	588.6
30854	7.3	1.1	5.e-002	36.117
30855	7.3	0.95	0.	523.03
30856	7.25	1.	0.	522.
30857	7.3	1.	5.e-002	35.252
30858	7.3	0.85	0.	446.93
30859	7.25	0.9	0.	453.6
30860	7.3	0.9	5.e-002	34.48
30861	7.3	0.75	0.	373.67
30862	7.25	0.8	0.	386.14
30863	7.3	0.8	5.e-002	33.834
30864	7.3	0.65	0.	305.39
30865	7.25	0.7	0.	321.85
30866	7.3	0.7	5.e-002	33.335
30867	7.3	0.55	0.	243.86
30868	7.25	0.6	0.	262.54
30869	7.3	0.6	5.e-002	33.001
30870	7.3	0.45	0.	190.38
30871	7.25	0.5	0.	209.6
30872	7.3	0.5	5.e-002	32.841
30873	7.3	0.35	0.	145.63
30874	7.25	0.4	0.	163.85
30875	7.3	0.4	5.e-002	32.856
30876	7.3	0.25	0.	109.44
30877	7.25	0.3	0.	125.35
30878	7.3	0.3	5.e-002	33.054
30879	7.3	0.15	0.	82.753
30880	7.25	0.2	0.	93.33
30881	7.3	0.2	5.e-002	33.633
30882	7.25	0.1	0.	69.683
30883	7.3	0.1	5.e-002	38.793
30884	7.3	5.e-002	0.	30.04
30885	7.2	5.85	0.	80.528
30886	7.15	5.9	0.	65.162
30887	7.2	5.9	5.e-002	36.871
30888	7.2	5.95	0.	28.787
30889	7.2	5.75	0.	109.51
30890	7.15	5.8	0.	92.536
30891	7.2	5.8	5.e-002	31.899
30892	7.2	5.65	0.	144.33
30893	7.15	5.7	0.	124.87
30894	7.2	5.7	5.e-002	31.374
30895	7.2	5.55	0.	184.46
30896	7.15	5.6	0.	160.74
30897	7.2	5.6	5.e-002	31.186
30898	7.2	5.45	0.	230.37
30899	7.15	5.5	0.	201.04
30900	7.2	5.5	5.e-002	31.13
30901	7.2	5.35	0.	281.77
30902	7.15	5.4	0.	245.96
30903	7.2	5.4	5.e-002	31.194
30904	7.2	5.25	0.	337.74
30905	7.15	5.3	0.	295.01
30906	7.2	5.3	5.e-002	31.37
30907	7.2	5.15	0.	396.79
30908	7.15	5.2	0.	347.11
30909	7.2	5.2	5.e-002	31.646
30910	7.2	5.05	0.	456.99
30911	7.15	5.1	0.	400.7
30912	7.2	5.1	5.e-002	32.003
30913	7.2	4.95	0.	515.95
30914	7.15	5.	0.	453.79
30915	7.2	5.	5.e-002	32.419
30916	7.2	4.85	0.	570.74
30917	7.15	4.9	0.	503.91
30918	7.2	4.9	5.e-002	32.867
30919	7.2	4.75	0.	617.9
30920	7.15	4.8	0.	548.14
30921	7.2	4.8	5.e-002	33.321
30922	7.2	4.65	0.	653.39
30923	7.15	4.7	0.	583.09
30924	7.2	4.7	5.e-002	33.764
30925	7.2	4.55	0.	672.88
30926	7.15	4.6	0.	605.06
30927	7.2	4.6	5.e-002	34.206
30928	7.2	4.45	0.	672.21
30929	7.15	4.5	0.	610.34
30930	7.2	4.5	5.e-002	34.69
30931	7.2	4.35	0.	648.43
30932	7.15	4.4	0.	595.91
30933	7.2	4.4	5.e-002	35.29
30934	7.2	4.25	0.	601.17
30935	7.15	4.3	0.	560.43
30936	7.2	4.3	5.e-002	36.055
30937	7.2	4.15	0.	533.89
30938	7.15	4.2	0.	505.43
30939	7.2	4.2	5.e-002	36.928
30940	7.2	4.05	0.	454.1
30941	7.15	4.1	0.	435.92
30942	7.2	4.1	5.e-002	37.705
30943	7.2	3.95	0.	371.89
30944	7.15	4.	0.	359.93
30945	7.2	4.	5.e-002	38.134
30946	7.2	3.85	0.	297.08
30947	7.15	3.9	0.	286.49
30948	7.2	3.9	5.e-002	38.069
30949	7.2	3.75	0.	236.39
30950	7.15	3.8	0.	223.07
30951	7.2	3.8	5.e-002	37.532
30952	7.2	3.65	0.	192.23
30953	7.15	3.7	0.	173.74
30954	7.2	3.7	5.e-002	36.644
30955	7.2	3.55	0.	163.36
30956	7.15	3.6	0.	138.97
30957	7.2	3.6	5.e-002	35.53
30958	7.2	3.45	0.	146.5
30959	7.15	3.5	0.	116.73
30960	7.2	3.5	5.e-002	34.297
30961	7.2	3.35	0.	137.85
30962	7.15	3.4	0.	103.89
30963	7.2	3.4	5.e-002	33.058
30964	7.2	3.25	0.	134.12
30965	7.15	3.3	0.	97.31
30966	7.2	3.3	5.e-002	31.93
30967	7.2	3.15	0.	132.88
30968	7.15	3.2	0.	94.4
30969	7.2	3.2	5.e-002	31.029
30970	7.2	3.05	0.	132.62
30971	7.15	3.1	0.	93.349
30972	7.2	3.1	5.e-002	30.449
30973	7.2	2.95	0.	132.62
30974	7.15	3.	0.	93.111
30975	7.2	3.	5.e-002	30.249
30976	7.2	2.85	0.	132.88
30977	7.15	2.9	0.	93.349
30978	7.2	2.9	5.e-002	30.449
30979	7.2	2.75	0.	134.12
30980	7.15	2.8	0.	94.4
30981	7.2	2.8	5.e-002	31.029
30982	7.2	2.65	0.	137.85
30983	7.15	2.7	0.	97.31
30984	7.2	2.7	5.e-002	31.93
30985	7.2	2.55	0.	146.5
30986	7.15	2.6	0.	103.89
30987	7.2	2.6	5.e-002	33.058
30988	7.2	2.45	0.	163.36
30989	7.15	2.5	0.	116.73
30990	7.2	2.5	5.e-002	34.298
30991	7.2	2.35	0.	192.23
30992	7.15	2.4	0.	138.97
30993	7.2	2.4	5.e-002	35.53
30994	7.2	2.25	0.	236.39
30995	7.15	2.3	0.	173.74
30996	7.2	2.3	5.e-002	36.645
30997	7.2	2.15	0.	297.08
30998	7.15	2.2	0.	223.07
30999	7.2	2.2	5.e-002	37.533
31000	7.2	2.05	0.	371.89
31001	7.15	2.1	0.	286.49
31002	7.2	2.1	5.e-002	38.07
31003	7.2	1.95	0.	454.1
31004	7.15	2.	0.	359.93
31005	7.2	2.	5.e-002	38.135
31006	7.2	1.85	0.	533.89
31007	7.15	1.9	0.	435.92
31008	7.2	1.9	5.e-002	37.705
31009	7.2	1.75	0.	601.17
31010	7.15	1.8	0.	505.43
31011	7.2	1.8	5.e-002	36.928
31012	7.2	1.65	0.	648.43
31013	7.15	1.7	0.	560.43
31014	7.2	1.7	5.e-002	36.055
31015	7.2	1.55	0.	672.21
31016	7.15	1.6	0.	595.9
31017	7.2	1.6	5.e-002	35.29
31018	7.2	1.45	0.	672.88
31019	7.15	1.5	0.	610.34
31020	7.2	1.5	5.e-002	34.69
31021	7.2	1.35	0.	653.39
31022	7.15	1.4	0.	605.06
31023	7.2	1.4	5.e-002	34.206
31024	7.2	1.25	0.	617.9
31025	7.15	1.3	0.	583.09
31026	7.2	1.3	5.e-002	33.764
31027	7.2	1.15	0.	570.74
31028	7.15	1.2	0.	548.14
31029	7.2	1.2	5.e-002	33.321
31030	7.2	1.05	0.	515.95
31031	7.15	1.1	0.	503.91
31032	7.2	1.1	5.e-002	32.867
31033	7.2	0.95	0.	456.99
31034	7.15	1.	0.	453.79
31035	7.2	1.	5.e-002	32.419
31036	7.2	0.85	0.	396.79
31037	7.15	0.9	0.	400.7
31038	7.2	0.9	5.e-002	32.003
31039	7.2	0.75	0.	337.74
31040	7.15	0.8	0.	347.11
31041	7.2	0.8	5.e-002	31.646
31042	7.2	0.65	0.	281.77
31043	7.15	0.7	0.	295.01
31044	7.2	0.7	5.e-002	31.37
31045	7.2	0.55	0.	230.37
31046	7.15	0.6	0.	245.96
31047	7.2	0.6	5.e-002	31.194
31048	7.2	0.45	0.	184.46
31049	7.15	0.5	0.	201.04
31050	7.2	0.5	5.e-002	31.131
31051	7.2	0.35	0.	144.33
31052	7.15	0.4	0.	160.74
31053	7.2	0.4	5.e-002	31.186
31054	7.2	0.25	0.	109.51
31055	7.15	0.3	0.	124.87
31056	7.2	0.3	5.e-002	31.374
31057	7.2	0.15	0.	80.528
31058	7.15	0.2	0.	92.536
31059	7.2	0.2	5.e-002	31.899
31060	7.15	0.1	0.	65.162
31061	7.2	0.1	5.e-002	36.871
31062	7.2	5.e-002	0.	28.787
31063	7.1	5.85	0.	77.409
31064	7.05	5.9	0.	60.38
31065	7.1	5.9	5.e-002	34.836
31066	7.1	5.95	0.	27.206
31067	7.1	5.75	0.	108.1
31068	7.05	5.8	0.	90.416
31069	7.1	5.8	5.e-002	30.096
31070	7.1	5.65	0.	141.83
31071	7.05	5.7	0.	122.81
31072	7.1	5.7	5.e-002	29.612
31073	7.1	5.55	0.	178.32
31074	7.05	5.6	0.	156.5
31075	7.1	5.6	5.e-002	29.423
31076	7.1	5.45	0.	218.14
31077	7.05	5.5	0.	192.38
31078	7.1	5.5	5.e-002	29.327
31079	7.1	5.35	0.	261.23
31080	7.05	5.4	0.	230.74
31081	7.1	5.4	5.e-002	29.308
31082	7.1	5.25	0.	306.92
31083	7.05	5.3	0.	271.29
31084	7.1	5.3	5.e-002	29.354
31085	7.1	5.15	0.	354.01
31086	7.05	5.2	0.	313.2
31087	7.1	5.2	5.e-002	29.454
31088	7.1	5.05	0.	400.84
31089	7.05	5.1	0.	355.18
31090	7.1	5.1	5.e-002	29.59
31091	7.1	4.95	0.	445.34
31092	7.05	5.	0.	395.54
31093	7.1	5.	5.e-002	29.743
31094	7.1	4.85	0.	485.02
31095	7.05	4.9	0.	432.2
31096	7.1	4.9	5.e-002	29.895
31097	7.1	4.75	0.	517.04
31098	7.05	4.8	0.	462.74
31099	7.1	4.8	5.e-002	30.031
31100	7.1	4.65	0.	538.3
31101	7.05	4.7	0.	484.52
31102	7.1	4.7	5.e-002	30.15
31103	7.1	4.55	0.	545.74
31104	7.05	4.6	0.	494.81
31105	7.1	4.6	5.e-002	30.271
31106	7.1	4.45	0.	536.81
31107	7.05	4.5	0.	491.2
31108	7.1	4.5	5.e-002	30.433
31109	7.1	4.35	0.	510.16
31110	7.05	4.4	0.	472.03
31111	7.1	4.4	5.e-002	30.684
31112	7.1	4.25	0.	466.4
31113	7.05	4.3	0.	437.08
31114	7.1	4.3	5.e-002	31.042
31115	7.1	4.15	0.	408.69
31116	7.05	4.2	0.	388.17
31117	7.1	4.2	5.e-002	31.455
31118	7.1	4.05	0.	342.59
31119	7.05	4.1	0.	329.28
31120	7.1	4.1	5.e-002	31.803
31121	7.1	3.95	0.	275.05
31122	7.05	4.	0.	266.12
31123	7.1	4.	5.e-002	31.955
31124	7.1	3.85	0.	212.72
31125	7.05	3.9	0.	204.88
31126	7.1	3.9	5.e-002	31.84
31127	7.1	3.75	0.	160.41
31128	7.05	3.8	0.	150.76
31129	7.1	3.8	5.e-002	31.479
31130	7.1	3.65	0.	120.24
31131	7.05	3.7	0.	106.88
31132	7.1	3.7	5.e-002	30.941
31133	7.1	3.55	0.	91.876
31134	7.05	3.6	0.	74.046
31135	7.1	3.6	5.e-002	30.301
31136	7.1	3.45	0.	73.447
31137	7.05	3.5	0.	51.231
31138	7.1	3.5	5.e-002	29.613
31139	7.1	3.35	0.	62.466
31140	7.05	3.4	0.	36.426
31141	7.1	3.4	5.e-002	28.93
31142	7.1	3.25	0.	56.529
31143	7.05	3.3	0.	27.438
31144	7.1	3.3	5.e-002	28.309
31145	7.1	3.15	0.	53.686
31146	7.05	3.2	0.	22.389
31147	7.1	3.2	5.e-002	27.808
31148	7.1	3.05	0.	52.6
31149	7.05	3.1	0.	19.912
31150	7.1	3.1	5.e-002	27.483
31151	7.1	2.95	0.	52.6
31152	7.05	3.	0.	19.179
31153	7.1	3.	5.e-002	27.371
31154	7.1	2.85	0.	53.686
31155	7.05	2.9	0.	19.911
31156	7.1	2.9	5.e-002	27.484
31157	7.1	2.75	0.	56.529
31158	7.05	2.8	0.	22.389
31159	7.1	2.8	5.e-002	27.809
31160	7.1	2.65	0.	62.466
31161	7.05	2.7	0.	27.438
31162	7.1	2.7	5.e-002	28.309
31163	7.1	2.55	0.	73.447
31164	7.05	2.6	0.	36.426
31165	7.1	2.6	5.e-002	28.931
31166	7.1	2.45	0.	91.875
31167	7.05	2.5	0.	51.23
31168	7.1	2.5	5.e-002	29.614
31169	7.1	2.35	0.	120.24
31170	7.05	2.4	0.	74.046
31171	7.1	2.4	5.e-002	30.301
31172	7.1	2.25	0.	160.41
31173	7.05	2.3	0.	106.88
31174	7.1	2.3	5.e-002	30.942
31175	7.1	2.15	0.	212.72
31176	7.05	2.2	0.	150.76
31177	7.1	2.2	5.e-002	31.479
31178	7.1	2.05	0.	275.05
31179	7.05	2.1	0.	204.88
31180	7.1	2.1	5.e-002	31.84
31181	7.1	1.95	0.	342.59
31182	7.05	2.	0.	266.12
31183	7.1	2.	5.e-002	31.955
31184	7.1	1.85	0.	408.69
31185	7.05	1.9	0.	329.28
31186	7.1	1.9	5.e-002	31.803
31187	7.1	1.75	0.	466.4
31188	7.05	1.8	0.	388.17
31189	7.1	1.8	5.e-002	31.454
31190	7.1	1.65	0.	510.16
31191	7.05	1.7	0.	437.08
31192	7.1	1.7	5.e-002	31.042
31193	7.1	1.55	0.	536.81
31194	7.05	1.6	0.	472.03
31195	7.1	1.6	5.e-002	30.684
31196	7.1	1.45	0.	545.74
31197	7.05	1.5	0.	491.2
31198	7.1	1.5	5.e-002	30.433
31199	7.1	1.35	0.	538.3
31200	7.05	1.4	0.	494.81
31201	7.1	1.4	5.e-002	30.271
31202	7.1	1.25	0.	517.04
31203	7.05	1.3	0.	484.52
31204	7.1	1.3	5.e-002	30.15
31205	7.1	1.15	0.	485.02
31206	7.05	1.2	0.	462.74
31207	7.1	1.2	5.e-002	30.031
31208	7.1	1.05	0.	445.34
31209	7.05	1.1	0.	432.2
31210	7.1	1.1	5.e-002	29.895
31211	7.1	0.95	0.	400.84
31212	7.05	1.	0.	395.54
31213	7.1	1.	5.e-002	29.744
31214	7.1	0.85	0.	354.01
31215	7.05	0.9	0.	355.18
31216	7.1	0.9	5.e-002	29.59
31217	7.1	0.75	0.	306.92
31218	7.05	0.8	0.	313.2
31219	7.1	0.8	5.e-002	29.454
31220	7.1	0.65	0.	261.23
31221	7.05	0.7	0.	271.29
31222	7.1	0.7	5.e-002	29.355
31223	7.1	0.55	0.	218.14
31224	7.05	0.6	0.	230.74
31225	7.1	0.6	5.e-002	29.308
31226	7.1	0.45	0.	178.32
31227	7.05	0.5	0.	192.38
31228	7.1	0.5	5.e-002	29.327
31229	7.1	0.35	0.	141.83
31230	7.05	0.4	0.	156.5
31231	7.1	0.4	5.e-002	29.423
31232	7.1	0.25	0.	108.1
31233	7.05	0.3	0.	122.81
31234	7.1	0.3	5.e-002	29.612
31235	7.1	0.15	0.	77.409
31236	7.05	0.2	0.	90.416
31237	7.1	0.2	5.e-002	30.097
31238	7.05	0.1	0.	60.38
31239	7.1	0.1	5.e-002	34.836
31240	7.1	5.e-002	0.	27.206
31241	7.	5.85	0.	73.596
31242	6.95	5.9	0.	55.514
31243	7.	5.9	5.e-002	32.741
31244	7.	5.95	0.	25.425
31245	7.	5.75	0.	105.29
31246	6.95	5.8	0.	87.179
31247	7.	5.8	5.e-002	28.268
31248	7.	5.65	0.	137.9
31249	6.95	5.7	0.	119.23
31250	7.	5.7	5.e-002	27.817
31251	7.	5.55	0.	171.3
31252	6.95	5.6	0.	150.9
31253	7.	5.6	5.e-002	27.623
31254	7.	5.45	0.	206.09
31255	6.95	5.5	0.	183.03
31256	7.	5.5	5.e-002	27.493
31257	7.	5.35	0.	242.3
31258	6.95	5.4	0.	215.91
31259	7.	5.4	5.e-002	27.406
31260	7.	5.25	0.	279.45
31261	6.95	5.3	0.	249.4
31262	7.	5.3	5.e-002	27.353
31263	7.	5.15	0.	316.6
31264	6.95	5.2	0.	282.85
31265	7.	5.2	5.e-002	27.32
31266	7.	5.05	0.	352.39
31267	6.95	5.1	0.	315.25
31268	7.	5.1	5.e-002	27.294
31269	7.	4.95	0.	385.1
31270	6.95	5.	0.	345.19
31271	7.	5.	5.e-002	27.261
31272	7.	4.85	0.	412.71
31273	6.95	4.9	0.	371.02
31274	7.	4.9	5.e-002	27.209
31275	7.	4.75	0.	432.99
31276	6.95	4.8	0.	390.81
31277	7.	4.8	5.e-002	27.135
31278	7.	4.65	0.	443.67
31279	6.95	4.7	0.	402.59
31280	7.	4.7	5.e-002	27.044
31281	7.	4.55	0.	442.68
31282	6.95	4.6	0.	404.43
31283	7.	4.6	5.e-002	26.957
31284	7.	4.45	0.	428.5
31285	6.95	4.5	0.	394.81
31286	7.	4.5	5.e-002	26.905
31287	7.	4.35	0.	400.68
31288	6.95	4.4	0.	372.93
31289	7.	4.4	5.e-002	26.916
31290	7.	4.25	0.	360.21
31291	6.95	4.3	0.	339.13
31292	7.	4.3	5.e-002	26.996
31293	7.	4.15	0.	309.79
31294	6.95	4.2	0.	295.12
31295	7.	4.2	5.e-002	27.109
31296	7.	4.05	0.	253.55
31297	6.95	4.1	0.	244.08
31298	7.	4.1	5.e-002	27.186
31299	7.	3.95	0.	196.46
31300	6.95	4.	0.	190.16
31301	7.	4.	5.e-002	27.157
31302	7.	3.85	0.	143.23
31303	6.95	3.9	0.	137.81
31304	7.	3.9	5.e-002	26.992
31305	7.	3.75	0.	97.448
31306	6.95	3.8	0.	90.882
31307	7.	3.8	5.e-002	26.708
31308	7.	3.65	0.	60.99
31309	6.95	3.7	0.	52.132
31310	7.	3.7	5.e-002	26.348
31311	7.	3.55	0.	34.159
31312	6.95	3.6	0.	23.523
31313	7.	3.6	5.e-002	25.958
31314	7.	3.45	0.	16.256
31315	6.95	3.5	0.	7.8755
31316	7.	3.5	5.e-002	25.567
31317	7.	3.35	0.	6.3766
31318	6.95	3.4	0.	3.0367
31319	7.	3.4	5.e-002	25.196
31320	7.	3.25	0.	2.518
31321	6.95	3.3	0.	1.5946
31322	7.	3.3	5.e-002	24.868
31323	7.	3.15	0.	1.2439
31324	6.95	3.2	0.	1.0369
31325	7.	3.2	5.e-002	24.607
31326	7.	3.05	0.	0.82957
31327	6.95	3.1	0.	0.80349
31328	7.	3.1	5.e-002	24.438
31329	7.	2.95	0.	0.82957
31330	6.95	3.	0.	0.73774
31331	7.	3.	5.e-002	24.379
31332	7.	2.85	0.	1.2439
31333	6.95	2.9	0.	0.80349
31334	7.	2.9	5.e-002	24.438
31335	7.	2.75	0.	2.5179
31336	6.95	2.8	0.	1.0369
31337	7.	2.8	5.e-002	24.607
31338	7.	2.65	0.	6.3765
31339	6.95	2.7	0.	1.5946
31340	7.	2.7	5.e-002	24.868
31341	7.	2.55	0.	16.256
31342	6.95	2.6	0.	3.0367
31343	7.	2.6	5.e-002	25.197
31344	7.	2.45	0.	34.159
31345	6.95	2.5	0.	7.8753
31346	7.	2.5	5.e-002	25.567
31347	7.	2.35	0.	60.989
31348	6.95	2.4	0.	23.523
31349	7.	2.4	5.e-002	25.958
31350	7.	2.25	0.	97.447
31351	6.95	2.3	0.	52.132
31352	7.	2.3	5.e-002	26.349
31353	7.	2.15	0.	143.23
31354	6.95	2.2	0.	90.881
31355	7.	2.2	5.e-002	26.708
31356	7.	2.05	0.	196.46
31357	6.95	2.1	0.	137.8
31358	7.	2.1	5.e-002	26.992
31359	7.	1.95	0.	253.55
31360	6.95	2.	0.	190.16
31361	7.	2.	5.e-002	27.157
31362	7.	1.85	0.	309.79
31363	6.95	1.9	0.	244.08
31364	7.	1.9	5.e-002	27.186
31365	7.	1.75	0.	360.21
31366	6.95	1.8	0.	295.12
31367	7.	1.8	5.e-002	27.109
31368	7.	1.65	0.	400.68
31369	6.95	1.7	0.	339.12
31370	7.	1.7	5.e-002	26.996
31371	7.	1.55	0.	428.5
31372	6.95	1.6	0.	372.93
31373	7.	1.6	5.e-002	26.916
31374	7.	1.45	0.	442.68
31375	6.95	1.5	0.	394.81
31376	7.	1.5	5.e-002	26.904
31377	7.	1.35	0.	443.67
31378	6.95	1.4	0.	404.43
31379	7.	1.4	5.e-002	26.957
31380	7.	1.25	0.	432.99
31381	6.95	1.3	0.	402.59
31382	7.	1.3	5.e-002	27.044
31383	7.	1.15	0.	412.71
31384	6.95	1.2	0.	390.81
31385	7.	1.2	5.e-002	27.135
31386	7.	1.05	0.	385.1
31387	6.95	1.1	0.	371.02
31388	7.	1.1	5.e-002	27.209
31389	7.	0.95	0.	352.39
31390	6.95	1.	0.	345.19
31391	7.	1.	5.e-002	27.261
31392	7.	0.85	0.	316.6
31393	6.95	0.9	0.	315.25
31394	7.	0.9	5.e-002	27.294
31395	7.	0.75	0.	279.45
31396	6.95	0.8	0.	282.85
31397	7.	0.8	5.e-002	27.32
31398	7.	0.65	0.	242.3
31399	6.95	0.7	0.	249.4
31400	7.	0.7	5.e-002	27.353
31401	7.	0.55	0.	206.09
31402	6.95	0.6	0.	215.91
31403	7.	0.6	5.e-002	27.407
31404	7.	0.45	0.	171.3
31405	6.95	0.5	0.	183.03
31406	7.	0.5	5.e-002	27.493
31407	7.	0.35	0.	137.9
31408	6.95	0.4	0.	150.9
31409	7.	0.4	5.e-002	27.624
31410	7.	0.25	0.	105.29
31411	6.95	0.3	0.	119.23
31412	7.	0.3	5.e-002	27.817
31413	7.	0.15	0.	73.596
31414	6.95	0.2	0.	87.179
31415	7.	0.2	5.e-002	28.268
31416	6.95	0.1	0.	55.514
31417	7.	0.1	5.e-002	32.741
31418	7.	5.e-002	0.	25.425
31419	6.9	5.85	0.	69.274
31420	6.85	5.9	0.	50.692
31421	6.9	5.9	5.e-002	30.63
31422	6.9	5.95	0.	23.537
31423	6.9	5.75	0.	101.26
31424	6.85	5.8	0.	83.043
31425	6.9	5.8	5.e-002	26.449
31426	6.9	5.65	0.	132.57
31427	6.85	5.7	0.	114.32
31428	6.9	5.7	5.e-002	26.028
31429	6.9	5.55	0.	163.19
31430	6.85	5.6	0.	143.99
31431	6.9	5.6	5.e-002	25.833
31432	6.9	5.45	0.	193.69
31433	6.85	5.5	0.	172.79
31434	6.9	5.5	5.e-002	25.676
31435	6.9	5.35	0.	224.14
31436	6.85	5.4	0.	201.02
31437	6.9	5.4	5.e-002	25.539
31438	6.9	5.25	0.	254.2
31439	6.85	5.3	0.	228.59
31440	6.9	5.3	5.e-002	25.411
31441	6.9	5.15	0.	283.16
31442	6.85	5.2	0.	255.04
31443	6.9	5.2	5.e-002	25.283
31444	6.9	5.05	0.	309.92
31445	6.85	5.1	0.	279.57
31446	6.9	5.1	5.e-002	25.144
31447	6.9	4.95	0.	333.12
31448	6.85	5.	0.	301.09
31449	6.9	5.	5.e-002	24.984
31450	6.9	4.85	0.	351.2
31451	6.85	4.9	0.	318.28
31452	6.9	4.9	5.e-002	24.798
31453	6.9	4.75	0.	362.47
31454	6.85	4.8	0.	329.71
31455	6.9	4.8	5.e-002	24.587
31456	6.9	4.65	0.	365.31
31457	6.85	4.7	0.	333.93
31458	6.9	4.7	5.e-002	24.361
31459	6.9	4.55	0.	358.36
31460	6.85	4.6	0.	329.65
31461	6.9	4.6	5.e-002	24.137
31462	6.9	4.45	0.	340.82
31463	6.85	4.5	0.	315.96
31464	6.9	4.5	5.e-002	23.94
31465	6.9	4.35	0.	312.7
31466	6.85	4.4	0.	292.56
31467	6.9	4.4	5.e-002	23.785
31468	6.9	4.25	0.	275.1
31469	6.85	4.3	0.	260.05
31470	6.9	4.3	5.e-002	23.675
31471	6.9	4.15	0.	230.24
31472	6.85	4.2	0.	219.98
31473	6.9	4.2	5.e-002	23.587
31474	6.9	4.05	0.	181.31
31475	6.85	4.1	0.	174.86
31476	6.9	4.1	5.e-002	23.483
31477	6.9	3.95	0.	131.96
31478	6.85	4.	0.	127.87
31479	6.9	4.	5.e-002	23.329
31480	6.9	3.85	0.	85.83
31481	6.85	3.9	0.	82.478
31482	6.9	3.9	5.e-002	23.112
31483	6.9	3.75	0.	46.203
31484	6.85	3.8	0.	42.428
31485	6.9	3.8	5.e-002	22.848
31486	6.9	3.65	0.	17.442
31487	6.85	3.7	0.	14.356
31488	6.9	3.7	5.e-002	22.567
31489	6.9	3.55	0.	5.4648
31490	6.85	3.6	0.	4.6751
31491	6.9	3.6	5.e-002	22.297
31492	6.9	3.45	0.	2.4402
31493	6.85	3.5	0.	2.2497
31494	6.9	3.5	5.e-002	22.055
31495	6.9	3.35	0.	1.4242
31496	6.85	3.4	0.	1.3664
31497	6.9	3.4	5.e-002	21.846
31498	6.9	3.25	0.	0.98652
31499	6.85	3.3	0.	0.96379
31500	6.9	3.3	5.e-002	21.675
31501	6.9	3.15	0.	0.7823
31502	6.85	3.2	0.	0.76441
31503	6.9	3.2	5.e-002	21.545
31504	6.9	3.05	0.	0.69906
31505	6.85	3.1	0.	0.66991
31506	6.9	3.1	5.e-002	21.463
31507	6.9	2.95	0.	0.69906
31508	6.85	3.	0.	0.64188
31509	6.9	3.	5.e-002	21.435
31510	6.9	2.85	0.	0.7823
31511	6.85	2.9	0.	0.66991
31512	6.9	2.9	5.e-002	21.463
31513	6.9	2.75	0.	0.98652
31514	6.85	2.8	0.	0.76441
31515	6.9	2.8	5.e-002	21.545
31516	6.9	2.65	0.	1.4241
31517	6.85	2.7	0.	0.96379
31518	6.9	2.7	5.e-002	21.675
31519	6.9	2.55	0.	2.4402
31520	6.85	2.6	0.	1.3664
31521	6.9	2.6	5.e-002	21.846
31522	6.9	2.45	0.	5.4647
31523	6.85	2.5	0.	2.2497
31524	6.9	2.5	5.e-002	22.055
31525	6.9	2.35	0.	17.442
31526	6.85	2.4	0.	4.675
31527	6.9	2.4	5.e-002	22.297
31528	6.9	2.25	0.	46.203
31529	6.85	2.3	0.	14.355
31530	6.9	2.3	5.e-002	22.567
31531	6.9	2.15	0.	85.83
31532	6.85	2.2	0.	42.428
31533	6.9	2.2	5.e-002	22.848
31534	6.9	2.05	0.	131.96
31535	6.85	2.1	0.	82.477
31536	6.9	2.1	5.e-002	23.112
31537	6.9	1.95	0.	181.3
31538	6.85	2.	0.	127.87
31539	6.9	2.	5.e-002	23.329
31540	6.9	1.85	0.	230.24
31541	6.85	1.9	0.	174.86
31542	6.9	1.9	5.e-002	23.483
31543	6.9	1.75	0.	275.1
31544	6.85	1.8	0.	219.98
31545	6.9	1.8	5.e-002	23.587
31546	6.9	1.65	0.	312.7
31547	6.85	1.7	0.	260.05
31548	6.9	1.7	5.e-002	23.675
31549	6.9	1.55	0.	340.82
31550	6.85	1.6	0.	292.56
31551	6.9	1.6	5.e-002	23.785
31552	6.9	1.45	0.	358.36
31553	6.85	1.5	0.	315.96
31554	6.9	1.5	5.e-002	23.939
31555	6.9	1.35	0.	365.31
31556	6.85	1.4	0.	329.65
31557	6.9	1.4	5.e-002	24.137
31558	6.9	1.25	0.	362.47
31559	6.85	1.3	0.	333.93
31560	6.9	1.3	5.e-002	24.361
31561	6.9	1.15	0.	351.2
31562	6.85	1.2	0.	329.71
31563	6.9	1.2	5.e-002	24.587
31564	6.9	1.05	0.	333.12
31565	6.85	1.1	0.	318.28
31566	6.9	1.1	5.e-002	24.798
31567	6.9	0.95	0.	309.92
31568	6.85	1.	0.	301.09
31569	6.9	1.	5.e-002	24.984
31570	6.9	0.85	0.	283.16
31571	6.85	0.9	0.	279.57
31572	6.9	0.9	5.e-002	25.144
31573	6.9	0.75	0.	254.2
31574	6.85	0.8	0.	255.04
31575	6.9	0.8	5.e-002	25.283
31576	6.9	0.65	0.	224.14
31577	6.85	0.7	0.	228.59
31578	6.9	0.7	5.e-002	25.412
31579	6.9	0.55	0.	193.69
31580	6.85	0.6	0.	201.02
31581	6.9	0.6	5.e-002	25.539
31582	6.9	0.45	0.	163.19
31583	6.85	0.5	0.	172.79
31584	6.9	0.5	5.e-002	25.676
31585	6.9	0.35	0.	132.57
31586	6.85	0.4	0.	143.99
31587	6.9	0.4	5.e-002	25.833
31588	6.9	0.25	0.	101.26
31589	6.85	0.3	0.	114.32
31590	6.9	0.3	5.e-002	26.028
31591	6.9	0.15	0.	69.274
31592	6.85	0.2	0.	83.043
31593	6.9	0.2	5.e-002	26.449
31594	6.85	0.1	0.	50.692
31595	6.9	0.1	5.e-002	30.63
31596	6.9	5.e-002	0.	23.537
31597	6.8	5.85	0.	64.606
31598	6.75	5.9	0.	46.002
31599	6.8	5.9	5.e-002	28.544
31600	6.8	5.95	0.	21.611
31601	6.8	5.75	0.	96.223
31602	6.75	5.8	0.	78.217
31603	6.8	5.8	5.e-002	24.668
31604	6.8	5.65	0.	126.
31605	6.75	5.7	0.	108.31
31606	6.8	5.7	5.e-002	24.279
31607	6.8	5.55	0.	154.02
31608	6.75	5.6	0.	135.91
31609	6.8	5.6	5.e-002	24.085
31610	6.8	5.45	0.	180.75
31611	6.75	5.5	0.	161.67
31612	6.8	5.5	5.e-002	23.911
31613	6.8	5.35	0.	206.31
31614	6.75	5.4	0.	185.87
31615	6.8	5.4	5.e-002	23.739
31616	6.8	5.25	0.	230.48
31617	6.75	5.3	0.	208.45
31618	6.8	5.3	5.e-002	23.562
31619	6.8	5.15	0.	252.69
31620	6.75	5.2	0.	229.1
31621	6.8	5.2	5.e-002	23.369
31622	6.8	5.05	0.	272.13
31623	6.75	5.1	0.	247.2
31624	6.8	5.1	5.e-002	23.155
31625	6.8	4.95	0.	287.73
31626	6.75	5.	0.	261.93
31627	6.8	5.	5.e-002	22.912
31628	6.8	4.85	0.	298.33
31629	6.75	4.9	0.	272.29
31630	6.8	4.9	5.e-002	22.641
31631	6.8	4.75	0.	302.7
31632	6.75	4.8	0.	277.25
31633	6.8	4.8	5.e-002	22.345
31634	6.8	4.65	0.	299.73
31635	6.75	4.7	0.	275.79
31636	6.8	4.7	5.e-002	22.032
31637	6.8	4.55	0.	288.58
31638	6.75	4.6	0.	267.07
31639	6.8	4.6	5.e-002	21.719
31640	6.8	4.45	0.	268.89
31641	6.75	4.5	0.	250.61
31642	6.8	4.5	5.e-002	21.422
31643	6.8	4.35	0.	240.92
31644	6.75	4.4	0.	226.43
31645	6.8	4.4	5.e-002	21.153
31646	6.8	4.25	0.	205.76
31647	6.75	4.3	0.	195.21
31648	6.8	4.3	5.e-002	20.911
31649	6.8	4.15	0.	165.26
31650	6.75	4.2	0.	158.34
31651	6.8	4.2	5.e-002	20.686
31652	6.8	4.05	0.	121.93
31653	6.75	4.1	0.	117.87
31654	6.8	4.1	5.e-002	20.456
31655	6.8	3.95	0.	78.788
31656	6.75	4.	0.	76.503
31657	6.8	4.	5.e-002	20.207
31658	6.8	3.85	0.	39.609
31659	6.75	3.9	0.	38.034
31660	6.8	3.9	5.e-002	19.937
31661	6.8	3.75	0.	12.682
31662	6.75	3.8	0.	11.856
31663	6.8	3.8	5.e-002	19.661
31664	6.8	3.65	0.	4.3169
31665	6.75	3.7	0.	4.1574
31666	6.8	3.7	5.e-002	19.401
31667	6.8	3.55	0.	2.165
31668	6.75	3.6	0.	2.1328
31669	6.8	3.6	5.e-002	19.175
31670	6.8	3.45	0.	1.3388
31671	6.75	3.5	0.	1.33
31672	6.8	3.5	5.e-002	18.993
31673	6.8	3.35	0.	0.94713
31674	6.75	3.4	0.	0.93897
31675	6.8	3.4	5.e-002	18.855
31676	6.8	3.25	0.	0.74524
31677	6.75	3.3	0.	0.73156
31678	6.8	3.3	5.e-002	18.755
31679	6.8	3.15	0.	0.64175
31680	6.75	3.2	0.	0.61999
31681	6.8	3.2	5.e-002	18.687
31682	6.8	3.05	0.	0.59758
31683	6.75	3.1	0.	0.56476
31684	6.8	3.1	5.e-002	18.648
31685	6.8	2.95	0.	0.59758
31686	6.75	3.	0.	0.54807
31687	6.8	3.	5.e-002	18.635
31688	6.8	2.85	0.	0.64175
31689	6.75	2.9	0.	0.56476
31690	6.8	2.9	5.e-002	18.648
31691	6.8	2.75	0.	0.74524
31692	6.75	2.8	0.	0.61999
31693	6.8	2.8	5.e-002	18.688
31694	6.8	2.65	0.	0.94712
31695	6.75	2.7	0.	0.73156
31696	6.8	2.7	5.e-002	18.755
31697	6.8	2.55	0.	1.3388
31698	6.75	2.6	0.	0.93897
31699	6.8	2.6	5.e-002	18.855
31700	6.8	2.45	0.	2.165
31701	6.75	2.5	0.	1.33
31702	6.8	2.5	5.e-002	18.993
31703	6.8	2.35	0.	4.3169
31704	6.75	2.4	0.	2.1328
31705	6.8	2.4	5.e-002	19.175
31706	6.8	2.25	0.	12.682
31707	6.75	2.3	0.	4.1574
31708	6.8	2.3	5.e-002	19.401
31709	6.8	2.15	0.	39.609
31710	6.75	2.2	0.	11.856
31711	6.8	2.2	5.e-002	19.661
31712	6.8	2.05	0.	78.788
31713	6.75	2.1	0.	38.034
31714	6.8	2.1	5.e-002	19.937
31715	6.8	1.95	0.	121.93
31716	6.75	2.	0.	76.503
31717	6.8	2.	5.e-002	20.207
31718	6.8	1.85	0.	165.26
31719	6.75	1.9	0.	117.87
31720	6.8	1.9	5.e-002	20.456
31721	6.8	1.75	0.	205.76
31722	6.75	1.8	0.	158.33
31723	6.8	1.8	5.e-002	20.685
31724	6.8	1.65	0.	240.92
31725	6.75	1.7	0.	195.21
31726	6.8	1.7	5.e-002	20.911
31727	6.8	1.55	0.	268.88
31728	6.75	1.6	0.	226.43
31729	6.8	1.6	5.e-002	21.153
31730	6.8	1.45	0.	288.58
31731	6.75	1.5	0.	250.61
31732	6.8	1.5	5.e-002	21.422
31733	6.8	1.35	0.	299.73
31734	6.75	1.4	0.	267.07
31735	6.8	1.4	5.e-002	21.719
31736	6.8	1.25	0.	302.7
31737	6.75	1.3	0.	275.79
31738	6.8	1.3	5.e-002	22.032
31739	6.8	1.15	0.	298.33
31740	6.75	1.2	0.	277.25
31741	6.8	1.2	5.e-002	22.345
31742	6.8	1.05	0.	287.73
31743	6.75	1.1	0.	272.29
31744	6.8	1.1	5.e-002	22.641
31745	6.8	0.95	0.	272.13
31746	6.75	1.	0.	261.93
31747	6.8	1.	5.e-002	22.913
31748	6.8	0.85	0.	252.69
31749	6.75	0.9	0.	247.2
31750	6.8	0.9	5.e-002	23.155
31751	6.8	0.75	0.	230.48
31752	6.75	0.8	0.	229.1
31753	6.8	0.8	5.e-002	23.369
31754	6.8	0.65	0.	206.31
31755	6.75	0.7	0.	208.45
31756	6.8	0.7	5.e-002	23.562
31757	6.8	0.55	0.	180.75
31758	6.75	0.6	0.	185.87
31759	6.8	0.6	5.e-002	23.74
31760	6.8	0.45	0.	154.02
31761	6.75	0.5	0.	161.67
31762	6.8	0.5	5.e-002	23.911
31763	6.8	0.35	0.	126.
31764	6.75	0.4	0.	135.91
31765	6.8	0.4	5.e-002	24.085
31766	6.8	0.25	0.	96.223
31767	6.75	0.3	0.	108.31
31768	6.8	0.3	5.e-002	24.279
31769	6.8	0.15	0.	64.606
31770	6.75	0.2	0.	78.217
31771	6.8	0.2	5.e-002	24.668
31772	6.75	0.1	0.	46.002
31773	6.8	0.1	5.e-002	28.544
31774	6.8	5.e-002	0.	21.611
31775	6.7	5.85	0.	59.727
31776	6.65	5.9	0.	41.501
31777	6.7	5.9	5.e-002	26.515
31778	6.7	5.95	0.	19.695
31779	6.7	5.75	0.	90.4
31780	6.65	5.8	0.	72.889
31781	6.7	5.8	5.e-002	22.95
31782	6.7	5.65	0.	118.42
31783	6.65	5.7	0.	101.43
31784	6.7	5.7	5.e-002	22.594
31785	6.7	5.55	0.	143.91
31786	6.65	5.6	0.	126.89
31787	6.7	5.6	5.e-002	22.405
31788	6.7	5.45	0.	167.27
31789	6.65	5.5	0.	149.81
31790	6.7	5.5	5.e-002	22.223
31791	6.7	5.35	0.	188.64
31792	6.65	5.4	0.	170.44
31793	6.7	5.4	5.e-002	22.031
31794	6.7	5.25	0.	207.86
31795	6.65	5.3	0.	188.78
31796	6.7	5.3	5.e-002	21.823
31797	6.7	5.15	0.	224.53
31798	6.65	5.2	0.	204.6
31799	6.7	5.2	5.e-002	21.59
31800	6.7	5.05	0.	238.03
31801	6.65	5.1	0.	217.44
31802	6.7	5.1	5.e-002	21.33
31803	6.7	4.95	0.	247.59
31804	6.65	5.	0.	226.72
31805	6.7	5.	5.e-002	21.038
31806	6.7	4.85	0.	252.35
31807	6.65	4.9	0.	231.7
31808	6.7	4.9	5.e-002	20.716
31809	6.7	4.75	0.	251.46
31810	6.65	4.8	0.	231.67
31811	6.7	4.8	5.e-002	20.368
31812	6.7	4.65	0.	244.2
31813	6.65	4.7	0.	225.94
31814	6.7	4.7	5.e-002	20.003
31815	6.7	4.55	0.	230.09
31816	6.65	4.6	0.	214.01
31817	6.7	4.6	5.e-002	19.633
31818	6.7	4.45	0.	209.04
31819	6.65	4.5	0.	195.7
31820	6.7	4.5	5.e-002	19.269
31821	6.7	4.35	0.	181.48
31822	6.65	4.4	0.	171.2
31823	6.7	4.4	5.e-002	18.92
31824	6.7	4.25	0.	148.42
31825	6.65	4.3	0.	141.24
31826	6.7	4.3	5.e-002	18.587
31827	6.7	4.15	0.	111.46
31828	6.65	4.2	0.	107.07
31829	6.7	4.2	5.e-002	18.265
31830	6.7	4.05	0.	72.842
31831	6.65	4.1	0.	70.62
31832	6.7	4.1	5.e-002	17.944
31833	6.7	3.95	0.	36.131
31834	6.65	4.	0.	35.236
31835	6.7	4.	5.e-002	17.621
31836	6.7	3.85	0.	11.176
31837	6.65	3.9	0.	10.909
31838	6.7	3.9	5.e-002	17.299
31839	6.7	3.75	0.	4.0303
31840	6.65	3.8	0.	3.984
31841	6.7	3.8	5.e-002	16.992
31842	6.7	3.65	0.	2.1074
31843	6.65	3.7	0.	2.1042
31844	6.7	3.7	5.e-002	16.718
31845	6.7	3.55	0.	1.3231
31846	6.65	3.6	0.	1.3257
31847	6.7	3.6	5.e-002	16.491
31848	6.7	3.45	0.	0.93057
31849	6.65	3.5	0.	0.92888
31850	6.7	3.5	5.e-002	16.318
31851	6.7	3.35	0.	0.71645
31852	6.65	3.4	0.	0.70776
31853	6.7	3.4	5.e-002	16.195
31854	6.7	3.25	0.	0.59693
31855	6.65	3.3	0.	0.58088
31856	6.7	3.3	5.e-002	16.114
31857	6.7	3.15	0.	0.53281
31858	6.65	3.2	0.	0.50936
31859	6.7	3.2	5.e-002	16.066
31860	6.7	3.05	0.	0.50482
31861	6.65	3.1	0.	0.47301
31862	6.7	3.1	5.e-002	16.04
31863	6.7	2.95	0.	0.50482
31864	6.65	3.	0.	0.4619
31865	6.7	3.	5.e-002	16.032
31866	6.7	2.85	0.	0.53281
31867	6.65	2.9	0.	0.47301
31868	6.7	2.9	5.e-002	16.04
31869	6.7	2.75	0.	0.59693
31870	6.65	2.8	0.	0.50936
31871	6.7	2.8	5.e-002	16.066
31872	6.7	2.65	0.	0.71645
31873	6.65	2.7	0.	0.58088
31874	6.7	2.7	5.e-002	16.115
31875	6.7	2.55	0.	0.93057
31876	6.65	2.6	0.	0.70775
31877	6.7	2.6	5.e-002	16.195
31878	6.7	2.45	0.	1.3231
31879	6.65	2.5	0.	0.92888
31880	6.7	2.5	5.e-002	16.318
31881	6.7	2.35	0.	2.1074
31882	6.65	2.4	0.	1.3257
31883	6.7	2.4	5.e-002	16.491
31884	6.7	2.25	0.	4.0303
31885	6.65	2.3	0.	2.1042
31886	6.7	2.3	5.e-002	16.718
31887	6.7	2.15	0.	11.176
31888	6.65	2.2	0.	3.9839
31889	6.7	2.2	5.e-002	16.992
31890	6.7	2.05	0.	36.131
31891	6.65	2.1	0.	10.909
31892	6.7	2.1	5.e-002	17.299
31893	6.7	1.95	0.	72.842
31894	6.65	2.	0.	35.235
31895	6.7	2.	5.e-002	17.621
31896	6.7	1.85	0.	111.46
31897	6.65	1.9	0.	70.62
31898	6.7	1.9	5.e-002	17.944
31899	6.7	1.75	0.	148.42
31900	6.65	1.8	0.	107.07
31901	6.7	1.8	5.e-002	18.265
31902	6.7	1.65	0.	181.48
31903	6.65	1.7	0.	141.23
31904	6.7	1.7	5.e-002	18.587
31905	6.7	1.55	0.	209.04
31906	6.65	1.6	0.	171.2
31907	6.7	1.6	5.e-002	18.92
31908	6.7	1.45	0.	230.09
31909	6.65	1.5	0.	195.7
31910	6.7	1.5	5.e-002	19.269
31911	6.7	1.35	0.	244.2
31912	6.65	1.4	0.	214.01
31913	6.7	1.4	5.e-002	19.632
31914	6.7	1.25	0.	251.46
31915	6.65	1.3	0.	225.94
31916	6.7	1.3	5.e-002	20.003
31917	6.7	1.15	0.	252.35
31918	6.65	1.2	0.	231.67
31919	6.7	1.2	5.e-002	20.368
31920	6.7	1.05	0.	247.59
31921	6.65	1.1	0.	231.7
31922	6.7	1.1	5.e-002	20.716
31923	6.7	0.95	0.	238.03
31924	6.65	1.	0.	226.72
31925	6.7	1.	5.e-002	21.038
31926	6.7	0.85	0.	224.53
31927	6.65	0.9	0.	217.44
31928	6.7	0.9	5.e-002	21.33
31929	6.7	0.75	0.	207.86
31930	6.65	0.8	0.	204.6
31931	6.7	0.8	5.e-002	21.591
31932	6.7	0.65	0.	188.64
31933	6.65	0.7	0.	188.78
31934	6.7	0.7	5.e-002	21.823
31935	6.7	0.55	0.	167.27
31936	6.65	0.6	0.	170.44
31937	6.7	0.6	5.e-002	22.032
31938	6.7	0.45	0.	143.91
31939	6.65	0.5	0.	149.81
31940	6.7	0.5	5.e-002	22.223
31941	6.7	0.35	0.	118.42
31942	6.65	0.4	0.	126.89
31943	6.7	0.4	5.e-002	22.406
31944	6.7	0.25	0.	90.4
31945	6.65	0.3	0.	101.43
31946	6.7	0.3	5.e-002	22.594
31947	6.7	0.15	0.	59.727
31948	6.65	0.2	0.	72.889
31949	6.7	0.2	5.e-002	22.95
31950	6.65	0.1	0.	41.501
31951	6.7	0.1	5.e-002	26.515
31952	6.7	5.e-002	0.	19.695
31953	6.6	5.85	0.	54.747
31954	6.55	5.9	0.	37.222
31955	6.6	5.9	5.e-002	24.568
31956	6.6	5.95	0.	17.823
31957	6.6	5.75	0.	83.998
31958	6.55	5.8	0.	67.222
31959	6.6	5.8	5.e-002	21.312
31960	6.6	5.65	0.	110.06
31961	6.55	5.7	0.	93.916
31962	6.6	5.7	5.e-002	20.99
31963	6.6	5.55	0.	133.05
31964	6.55	5.6	0.	117.14
31965	6.6	5.6	5.e-002	20.812
31966	6.6	5.45	0.	153.35
31967	6.55	5.5	0.	137.37
31968	6.6	5.5	5.e-002	20.63
31969	6.6	5.35	0.	171.06
31970	6.55	5.4	0.	154.82
31971	6.6	5.4	5.e-002	20.429
31972	6.6	5.25	0.	186.11
31973	6.55	5.3	0.	169.5
31974	6.6	5.3	5.e-002	20.205
31975	6.6	5.15	0.	198.2
31976	6.55	5.2	0.	181.26
31977	6.6	5.2	5.e-002	19.952
31978	6.6	5.05	0.	206.89
31979	6.55	5.1	0.	189.8
31980	6.6	5.1	5.e-002	19.667
31981	6.6	4.95	0.	211.64
31982	6.55	5.	0.	194.69
31983	6.6	5.	5.e-002	19.349
31984	6.6	4.85	0.	211.86
31985	6.55	4.9	0.	195.45
31986	6.6	4.9	5.e-002	18.999
31987	6.6	4.75	0.	206.97
31988	6.55	4.8	0.	191.57
31989	6.6	4.8	5.e-002	18.624
31990	6.6	4.65	0.	196.55
31991	6.55	4.7	0.	182.64
31992	6.6	4.7	5.e-002	18.229
31993	6.6	4.55	0.	180.36
31994	6.55	4.6	0.	168.42
31995	6.6	4.6	5.e-002	17.824
31996	6.6	4.45	0.	158.52
31997	6.55	4.5	0.	148.9
31998	6.6	4.5	5.e-002	17.417
31999	6.6	4.35	0.	131.53
32000	6.55	4.4	0.	124.41
32001	6.6	4.4	5.e-002	17.014
32002	6.6	4.25	0.	100.37
32003	6.55	4.3	0.	95.707
32004	6.6	4.3	5.e-002	16.618
32005	6.6	4.15	0.	66.617
32006	6.55	4.2	0.	64.124
32007	6.6	4.2	5.e-002	16.227
32008	6.6	4.05	0.	33.334
32009	6.55	4.1	0.	32.434
32010	6.6	4.1	5.e-002	15.839
32011	6.6	3.95	0.	10.375
32012	6.55	4.	0.	10.191
32013	6.6	4.	5.e-002	15.455
32014	6.6	3.85	0.	3.873
32015	6.55	3.9	0.	3.8305
32016	6.6	3.9	5.e-002	15.082
32017	6.6	3.75	0.	2.0765
32018	6.55	3.8	0.	2.0686
32019	6.6	3.8	5.e-002	14.735
32020	6.6	3.65	0.	1.318
32021	6.55	3.7	0.	1.3186
32022	6.6	3.7	5.e-002	14.427
32023	6.6	3.55	0.	0.92272
32024	6.55	3.6	0.	0.92237
32025	6.6	3.6	5.e-002	14.172
32026	6.6	3.45	0.	0.69684
32027	6.55	3.5	0.	0.69178
32028	6.6	3.5	5.e-002	13.976
32029	6.6	3.35	0.	0.56339
32030	6.55	3.4	0.	0.55247
32031	6.6	3.4	5.e-002	13.836
32032	6.6	3.25	0.	0.48505
32033	6.55	3.3	0.	0.46823
32034	6.6	3.3	5.e-002	13.743
32035	6.6	3.15	0.	0.4417
32036	6.55	3.2	0.	0.41908
32037	6.6	3.2	5.e-002	13.688
32038	6.6	3.05	0.	0.42246
32039	6.55	3.1	0.	0.39358
32040	6.6	3.1	5.e-002	13.659
32041	6.6	2.95	0.	0.42246
32042	6.55	3.	0.	0.3857
32043	6.6	3.	5.e-002	13.65
32044	6.6	2.85	0.	0.4417
32045	6.55	2.9	0.	0.39358
32046	6.6	2.9	5.e-002	13.659
32047	6.6	2.75	0.	0.48505
32048	6.55	2.8	0.	0.41908
32049	6.6	2.8	5.e-002	13.688
32050	6.6	2.65	0.	0.56339
32051	6.55	2.7	0.	0.46823
32052	6.6	2.7	5.e-002	13.743
32053	6.6	2.55	0.	0.69684
32054	6.55	2.6	0.	0.55247
32055	6.6	2.6	5.e-002	13.836
32056	6.6	2.45	0.	0.92272
32057	6.55	2.5	0.	0.69178
32058	6.6	2.5	5.e-002	13.976
32059	6.6	2.35	0.	1.3179
32060	6.55	2.4	0.	0.92236
32061	6.6	2.4	5.e-002	14.172
32062	6.6	2.25	0.	2.0765
32063	6.55	2.3	0.	1.3186
32064	6.6	2.3	5.e-002	14.427
32065	6.6	2.15	0.	3.873
32066	6.55	2.2	0.	2.0686
32067	6.6	2.2	5.e-002	14.735
32068	6.6	2.05	0.	10.375
32069	6.55	2.1	0.	3.8305
32070	6.6	2.1	5.e-002	15.082
32071	6.6	1.95	0.	33.333
32072	6.55	2.	0.	10.191
32073	6.6	2.	5.e-002	15.455
32074	6.6	1.85	0.	66.617
32075	6.55	1.9	0.	32.434
32076	6.6	1.9	5.e-002	15.839
32077	6.6	1.75	0.	100.36
32078	6.55	1.8	0.	64.123
32079	6.6	1.8	5.e-002	16.227
32080	6.6	1.65	0.	131.53
32081	6.55	1.7	0.	95.707
32082	6.6	1.7	5.e-002	16.618
32083	6.6	1.55	0.	158.52
32084	6.55	1.6	0.	124.41
32085	6.6	1.6	5.e-002	17.014
32086	6.6	1.45	0.	180.36
32087	6.55	1.5	0.	148.9
32088	6.6	1.5	5.e-002	17.417
32089	6.6	1.35	0.	196.55
32090	6.55	1.4	0.	168.42
32091	6.6	1.4	5.e-002	17.823
32092	6.6	1.25	0.	206.97
32093	6.55	1.3	0.	182.64
32094	6.6	1.3	5.e-002	18.229
32095	6.6	1.15	0.	211.86
32096	6.55	1.2	0.	191.57
32097	6.6	1.2	5.e-002	18.624
32098	6.6	1.05	0.	211.64
32099	6.55	1.1	0.	195.45
32100	6.6	1.1	5.e-002	18.999
32101	6.6	0.95	0.	206.89
32102	6.55	1.	0.	194.69
32103	6.6	1.	5.e-002	19.349
32104	6.6	0.85	0.	198.2
32105	6.55	0.9	0.	189.8
32106	6.6	0.9	5.e-002	19.667
32107	6.6	0.75	0.	186.11
32108	6.55	0.8	0.	181.26
32109	6.6	0.8	5.e-002	19.952
32110	6.6	0.65	0.	171.06
32111	6.55	0.7	0.	169.5
32112	6.6	0.7	5.e-002	20.205
32113	6.6	0.55	0.	153.35
32114	6.55	0.6	0.	154.82
32115	6.6	0.6	5.e-002	20.43
32116	6.6	0.45	0.	133.05
32117	6.55	0.5	0.	137.37
32118	6.6	0.5	5.e-002	20.63
32119	6.6	0.35	0.	110.06
32120	6.55	0.4	0.	117.14
32121	6.6	0.4	5.e-002	20.812
32122	6.6	0.25	0.	83.998
32123	6.55	0.3	0.	93.916
32124	6.6	0.3	5.e-002	20.991
32125	6.6	0.15	0.	54.747
32126	6.55	0.2	0.	67.222
32127	6.6	0.2	5.e-002	21.312
32128	6.55	0.1	0.	37.222
32129	6.6	0.1	5.e-002	24.568
32130	6.6	5.e-002	0.	17.823
32131	6.5	5.85	0.	49.755
32132	6.45	5.9	0.	33.183
32133	6.5	5.9	5.e-002	22.723
32134	6.5	5.95	0.	16.017
32135	6.5	5.75	0.	77.197
32136	6.45	5.8	0.	61.353
32137	6.5	5.8	5.e-002	19.767
32138	6.5	5.65	0.	101.12
32139	6.45	5.7	0.	85.956
32140	6.5	5.7	5.e-002	19.48
32141	6.5	5.55	0.	121.66
32142	6.45	5.6	0.	106.89
32143	6.5	5.6	5.e-002	19.317
32144	6.5	5.45	0.	139.12
32145	6.45	5.5	0.	124.54
32146	6.5	5.5	5.e-002	19.141
32147	6.5	5.35	0.	153.61
32148	6.45	5.4	0.	139.09
32149	6.5	5.4	5.e-002	18.941
32150	6.5	5.25	0.	165.09
32151	6.45	5.3	0.	150.58
32152	6.5	5.3	5.e-002	18.713
32153	6.5	5.15	0.	173.37
32154	6.45	5.2	0.	158.93
32155	6.5	5.2	5.e-002	18.453
32156	6.5	5.05	0.	178.17
32157	6.45	5.1	0.	163.92
32158	6.5	5.1	5.e-002	18.159
32159	6.5	4.95	0.	179.09
32160	6.45	5.	0.	165.28
32161	6.5	5.	5.e-002	17.831
32162	6.5	4.85	0.	175.77
32163	6.45	4.9	0.	162.69
32164	6.5	4.9	5.e-002	17.471
32165	6.5	4.75	0.	167.84
32166	6.45	4.8	0.	155.85
32167	6.5	4.8	5.e-002	17.084
32168	6.5	4.65	0.	155.1
32169	6.45	4.7	0.	144.55
32170	6.5	4.7	5.e-002	16.675
32171	6.5	4.55	0.	137.5
32172	6.45	4.6	0.	128.7
32173	6.5	4.6	5.e-002	16.251
32174	6.5	4.45	0.	115.27
32175	6.45	4.5	0.	108.45
32176	6.5	4.5	5.e-002	15.818
32177	6.5	4.35	0.	89.012
32178	6.45	4.4	0.	84.258
32179	6.5	4.4	5.e-002	15.38
32180	6.5	4.25	0.	59.825
32181	6.45	4.3	0.	57.04
32182	6.5	4.3	5.e-002	14.941
32183	6.5	4.15	0.	30.254
32184	6.45	4.2	0.	29.103
32185	6.5	4.2	5.e-002	14.501
32186	6.5	4.05	0.	9.5659
32187	6.45	4.1	0.	9.2932
32188	6.5	4.1	5.e-002	14.062
32189	6.5	3.95	0.	3.6803
32190	6.45	4.	0.	3.6032
32191	6.5	4.	5.e-002	13.628
32192	6.5	3.85	0.	2.019
32193	6.45	3.9	0.	1.9923
32194	6.5	3.9	5.e-002	13.208
32195	6.5	3.75	0.	1.2999
32196	6.45	3.8	0.	1.2907
32197	6.5	3.8	5.e-002	12.815
32198	6.5	3.65	0.	0.91283
32199	6.45	3.7	0.	0.90892
32200	6.5	3.7	5.e-002	12.463
32201	6.5	3.55	0.	0.68244
32202	6.45	3.6	0.	0.67805
32203	6.5	3.6	5.e-002	12.165
32204	6.5	3.45	0.	0.5395
32205	6.45	3.5	0.	0.53195
32206	6.5	3.5	5.e-002	11.927
32207	6.5	3.35	0.	0.45028
32208	6.45	3.4	0.	0.43855
32209	6.5	3.4	5.e-002	11.75
32210	6.5	3.25	0.	0.39587
32211	6.45	3.3	0.	0.37974
32212	6.5	3.3	5.e-002	11.626
32213	6.5	3.15	0.	0.36498
32214	6.45	3.2	0.	0.34442
32215	6.5	3.2	5.e-002	11.548
32216	6.5	3.05	0.	0.35106
32217	6.45	3.1	0.	0.32574
32218	6.5	3.1	5.e-002	11.505
32219	6.5	2.95	0.	0.35106
32220	6.45	3.	0.	0.31992
32221	6.5	3.	5.e-002	11.491
32222	6.5	2.85	0.	0.36498
32223	6.45	2.9	0.	0.32574
32224	6.5	2.9	5.e-002	11.505
32225	6.5	2.75	0.	0.39587
32226	6.45	2.8	0.	0.34442
32227	6.5	2.8	5.e-002	11.548
32228	6.5	2.65	0.	0.45027
32229	6.45	2.7	0.	0.37974
32230	6.5	2.7	5.e-002	11.626
32231	6.5	2.55	0.	0.5395
32232	6.45	2.6	0.	0.43855
32233	6.5	2.6	5.e-002	11.75
32234	6.5	2.45	0.	0.68243
32235	6.45	2.5	0.	0.53195
32236	6.5	2.5	5.e-002	11.927
32237	6.5	2.35	0.	0.91282
32238	6.45	2.4	0.	0.67805
32239	6.5	2.4	5.e-002	12.165
32240	6.5	2.25	0.	1.2999
32241	6.45	2.3	0.	0.90892
32242	6.5	2.3	5.e-002	12.463
32243	6.5	2.15	0.	2.019
32244	6.45	2.2	0.	1.2907
32245	6.5	2.2	5.e-002	12.814
32246	6.5	2.05	0.	3.6802
32247	6.45	2.1	0.	1.9923
32248	6.5	2.1	5.e-002	13.207
32249	6.5	1.95	0.	9.5657
32250	6.45	2.	0.	3.6032
32251	6.5	2.	5.e-002	13.627
32252	6.5	1.85	0.	30.254
32253	6.45	1.9	0.	9.2931
32254	6.5	1.9	5.e-002	14.062
32255	6.5	1.75	0.	59.825
32256	6.45	1.8	0.	29.102
32257	6.5	1.8	5.e-002	14.501
32258	6.5	1.65	0.	89.011
32259	6.45	1.7	0.	57.039
32260	6.5	1.7	5.e-002	14.941
32261	6.5	1.55	0.	115.27
32262	6.45	1.6	0.	84.258
32263	6.5	1.6	5.e-002	15.38
32264	6.5	1.45	0.	137.5
32265	6.45	1.5	0.	108.45
32266	6.5	1.5	5.e-002	15.818
32267	6.5	1.35	0.	155.1
32268	6.45	1.4	0.	128.7
32269	6.5	1.4	5.e-002	16.251
32270	6.5	1.25	0.	167.84
32271	6.45	1.3	0.	144.55
32272	6.5	1.3	5.e-002	16.675
32273	6.5	1.15	0.	175.77
32274	6.45	1.2	0.	155.85
32275	6.5	1.2	5.e-002	17.084
32276	6.5	1.05	0.	179.09
32277	6.45	1.1	0.	162.69
32278	6.5	1.1	5.e-002	17.471
32279	6.5	0.95	0.	178.17
32280	6.45	1.	0.	165.28
32281	6.5	1.	5.e-002	17.831
32282	6.5	0.85	0.	173.37
32283	6.45	0.9	0.	163.92
32284	6.5	0.9	5.e-002	18.159
32285	6.5	0.75	0.	165.09
32286	6.45	0.8	0.	158.93
32287	6.5	0.8	5.e-002	18.453
32288	6.5	0.65	0.	153.61
32289	6.45	0.7	0.	150.58
32290	6.5	0.7	5.e-002	18.713
32291	6.5	0.55	0.	139.12
32292	6.45	0.6	0.	139.09
32293	6.5	0.6	5.e-002	18.941
32294	6.5	0.45	0.	121.66
32295	6.45	0.5	0.	124.54
32296	6.5	0.5	5.e-002	19.141
32297	6.5	0.35	0.	101.12
32298	6.45	0.4	0.	106.89
32299	6.5	0.4	5.e-002	19.317
32300	6.5	0.25	0.	77.197
32301	6.45	0.3	0.	85.956
32302	6.5	0.3	5.e-002	19.481
32303	6.5	0.15	0.	49.755
32304	6.45	0.2	0.	61.353
32305	6.5	0.2	5.e-002	19.767
32306	6.45	0.1	0.	33.183
32307	6.5	0.1	5.e-002	22.723
32308	6.5	5.e-002	0.	16.017
32309	6.4	5.85	0.	44.816
32310	6.35	5.9	0.	29.388
32311	6.4	5.9	5.e-002	20.993
32312	6.4	5.95	0.	14.292
32313	6.4	5.75	0.	70.153
32314	6.35	5.8	0.	55.393
32315	6.4	5.8	5.e-002	18.322
32316	6.4	5.65	0.	91.816
32317	6.35	5.7	0.	77.728
32318	6.4	5.7	5.e-002	18.071
32319	6.4	5.55	0.	109.92
32320	6.35	5.6	0.	96.32
32321	6.4	5.6	5.e-002	17.925
32322	6.4	5.45	0.	124.73
32323	6.35	5.5	0.	111.49
32324	6.4	5.5	5.e-002	17.761
32325	6.4	5.35	0.	136.34
32326	6.35	5.4	0.	123.39
32327	6.4	5.4	5.e-002	17.569
32328	6.4	5.25	0.	144.75
32329	6.35	5.3	0.	132.07
32330	6.4	5.3	5.e-002	17.346
32331	6.4	5.15	0.	149.84
32332	6.35	5.2	0.	137.48
32333	6.4	5.2	5.e-002	17.089
32334	6.4	5.05	0.	151.44
32335	6.35	5.1	0.	139.52
32336	6.4	5.1	5.e-002	16.797
32337	6.4	4.95	0.	149.31
32338	6.35	5.	0.	138.02
32339	6.4	5.	5.e-002	16.471
32340	6.4	4.85	0.	143.22
32341	6.35	4.9	0.	132.78
32342	6.4	4.9	5.e-002	16.113
32343	6.4	4.75	0.	133.
32344	6.35	4.8	0.	123.67
32345	6.4	4.8	5.e-002	15.725
32346	6.4	4.65	0.	118.57
32347	6.35	4.7	0.	110.61
32348	6.4	4.7	5.e-002	15.313
32349	6.4	4.55	0.	100.05
32350	6.35	4.6	0.	93.657
32351	6.4	4.6	5.e-002	14.881
32352	6.4	4.45	0.	77.8
32353	6.35	4.5	0.	73.1
32354	6.4	4.5	5.e-002	14.435
32355	6.4	4.35	0.	52.608
32356	6.35	4.4	0.	49.618
32357	6.4	4.4	5.e-002	13.976
32358	6.4	4.25	0.	26.644
32359	6.35	4.3	0.	25.205
32360	6.4	4.3	5.e-002	13.509
32361	6.4	4.15	0.	8.5312
32362	6.35	4.2	0.	8.124
32363	6.4	4.2	5.e-002	13.034
32364	6.4	4.05	0.	3.4025
32365	6.35	4.1	0.	3.2804
32366	6.4	4.1	5.e-002	12.557
32367	6.4	3.95	0.	1.9157
32368	6.35	4.	0.	1.8658
32369	6.4	4.	5.e-002	12.081
32370	6.4	3.85	0.	1.2565
32371	6.35	3.9	0.	1.234
32372	6.4	3.9	5.e-002	11.618
32373	6.4	3.75	0.	0.89173
32374	6.35	3.8	0.	0.88082
32375	6.4	3.8	5.e-002	11.178
32376	6.4	3.65	0.	0.66675
32377	6.35	3.7	0.	0.65998
32378	6.4	3.7	5.e-002	10.778
32379	6.4	3.55	0.	0.52097
32380	6.35	3.6	0.	0.51436
32381	6.4	3.6	5.e-002	10.428
32382	6.4	3.45	0.	0.42513
32383	6.35	3.5	0.	0.41658
32384	6.4	3.5	5.e-002	10.138
32385	6.4	3.35	0.	0.36272
32386	6.35	3.4	0.	0.35127
32387	6.4	3.4	5.e-002	9.9111
32388	6.4	3.25	0.	0.32344
32389	6.35	3.3	0.	0.30874
32390	6.4	3.3	5.e-002	9.7446
32391	6.4	3.15	0.	0.30062
32392	6.35	3.2	0.	0.28254
32393	6.4	3.2	5.e-002	9.633
32394	6.4	3.05	0.	0.29018
32395	6.35	3.1	0.	0.26842
32396	6.4	3.1	5.e-002	9.5696
32397	6.4	2.95	0.	0.29018
32398	6.35	3.	0.	0.26398
32399	6.4	3.	5.e-002	9.5491
32400	6.4	2.85	0.	0.30062
32401	6.35	2.9	0.	0.26842
32402	6.4	2.9	5.e-002	9.5696
32403	6.4	2.75	0.	0.32344
32404	6.35	2.8	0.	0.28253
32405	6.4	2.8	5.e-002	9.633
32406	6.4	2.65	0.	0.36272
32407	6.35	2.7	0.	0.30874
32408	6.4	2.7	5.e-002	9.7446
32409	6.4	2.55	0.	0.42513
32410	6.35	2.6	0.	0.35127
32411	6.4	2.6	5.e-002	9.9111
32412	6.4	2.45	0.	0.52097
32413	6.35	2.5	0.	0.41658
32414	6.4	2.5	5.e-002	10.138
32415	6.4	2.35	0.	0.66675
32416	6.35	2.4	0.	0.51436
32417	6.4	2.4	5.e-002	10.428
32418	6.4	2.25	0.	0.89173
32419	6.35	2.3	0.	0.65998
32420	6.4	2.3	5.e-002	10.778
32421	6.4	2.15	0.	1.2565
32422	6.35	2.2	0.	0.88082
32423	6.4	2.2	5.e-002	11.178
32424	6.4	2.05	0.	1.9156
32425	6.35	2.1	0.	1.234
32426	6.4	2.1	5.e-002	11.617
32427	6.4	1.95	0.	3.4024
32428	6.35	2.	0.	1.8658
32429	6.4	2.	5.e-002	12.081
32430	6.4	1.85	0.	8.5311
32431	6.35	1.9	0.	3.2804
32432	6.4	1.9	5.e-002	12.556
32433	6.4	1.75	0.	26.643
32434	6.35	1.8	0.	8.1239
32435	6.4	1.8	5.e-002	13.034
32436	6.4	1.65	0.	52.608
32437	6.35	1.7	0.	25.205
32438	6.4	1.7	5.e-002	13.508
32439	6.4	1.55	0.	77.8
32440	6.35	1.6	0.	49.617
32441	6.4	1.6	5.e-002	13.976
32442	6.4	1.45	0.	100.05
32443	6.35	1.5	0.	73.1
32444	6.4	1.5	5.e-002	14.434
32445	6.4	1.35	0.	118.57
32446	6.35	1.4	0.	93.657
32447	6.4	1.4	5.e-002	14.881
32448	6.4	1.25	0.	133.
32449	6.35	1.3	0.	110.61
32450	6.4	1.3	5.e-002	15.313
32451	6.4	1.15	0.	143.22
32452	6.35	1.2	0.	123.67
32453	6.4	1.2	5.e-002	15.725
32454	6.4	1.05	0.	149.31
32455	6.35	1.1	0.	132.78
32456	6.4	1.1	5.e-002	16.113
32457	6.4	0.95	0.	151.44
32458	6.35	1.	0.	138.02
32459	6.4	1.	5.e-002	16.471
32460	6.4	0.85	0.	149.84
32461	6.35	0.9	0.	139.52
32462	6.4	0.9	5.e-002	16.797
32463	6.4	0.75	0.	144.75
32464	6.35	0.8	0.	137.48
32465	6.4	0.8	5.e-002	17.089
32466	6.4	0.65	0.	136.34
32467	6.35	0.7	0.	132.07
32468	6.4	0.7	5.e-002	17.346
32469	6.4	0.55	0.	124.73
32470	6.35	0.6	0.	123.39
32471	6.4	0.6	5.e-002	17.57
32472	6.4	0.45	0.	109.92
32473	6.35	0.5	0.	111.49
32474	6.4	0.5	5.e-002	17.761
32475	6.4	0.35	0.	91.816
32476	6.35	0.4	0.	96.32
32477	6.4	0.4	5.e-002	17.926
32478	6.4	0.25	0.	70.153
32479	6.35	0.3	0.	77.728
32480	6.4	0.3	5.e-002	18.072
32481	6.4	0.15	0.	44.816
32482	6.35	0.2	0.	55.393
32483	6.4	0.2	5.e-002	18.322
32484	6.35	0.1	0.	29.388
32485	6.4	0.1	5.e-002	20.993
32486	6.4	5.e-002	0.	14.292
32487	6.3	5.85	0.	39.982
32488	6.25	5.9	0.	25.834
32489	6.3	5.9	5.e-002	19.386
32490	6.3	5.95	0.	12.653
32491	6.3	5.75	0.	62.996
32492	6.25	5.8	0.	49.433
32493	6.3	5.8	5.e-002	16.982
32494	6.3	5.65	0.	82.303
32495	6.25	5.7	0.	69.375
32496	6.3	5.7	5.e-002	16.767
32497	6.3	5.55	0.	98.004
32498	6.25	5.6	0.	85.601
32499	6.3	5.6	5.e-002	16.641
32500	6.3	5.45	0.	110.31
32501	6.25	5.5	0.	98.373
32502	6.3	5.5	5.e-002	16.492
32503	6.3	5.35	0.	119.32
32504	6.25	5.4	0.	107.81
32505	6.3	5.4	5.e-002	16.313
32506	6.3	5.25	0.	125.04
32507	6.25	5.3	0.	113.98
32508	6.3	5.3	5.e-002	16.101
32509	6.3	5.15	0.	127.44
32510	6.25	5.2	0.	116.87
32511	6.3	5.2	5.e-002	15.854
32512	6.3	5.05	0.	126.4
32513	6.25	5.1	0.	116.42
32514	6.3	5.1	5.e-002	15.572
32515	6.3	4.95	0.	121.81
32516	6.25	5.	0.	112.57
32517	6.3	5.	5.e-002	15.256
32518	6.3	4.85	0.	113.56
32519	6.25	4.9	0.	105.24
32520	6.3	4.9	5.e-002	14.906
32521	6.3	4.75	0.	101.61
32522	6.25	4.8	0.	94.38
32523	6.3	4.8	5.e-002	14.526
32524	6.3	4.65	0.	86.002
32525	6.25	4.7	0.	80.044
32526	6.3	4.7	5.e-002	14.119
32527	6.3	4.55	0.	66.995
32528	6.25	4.6	0.	62.434
32529	6.3	4.6	5.e-002	13.689
32530	6.3	4.45	0.	45.198
32531	6.25	4.5	0.	42.097
32532	6.3	4.5	5.e-002	13.237
32533	6.3	4.35	0.	22.566
32534	6.25	4.4	0.	20.896
32535	6.3	4.4	5.e-002	12.769
32536	6.3	4.25	0.	7.2661
32537	6.25	4.3	0.	6.7491
32538	6.3	4.3	5.e-002	12.284
32539	6.3	4.15	0.	3.0386
32540	6.25	4.2	0.	2.8776
32541	6.3	4.2	5.e-002	11.787
32542	6.3	4.05	0.	1.7651
32543	6.25	4.1	0.	1.694
32544	6.3	4.1	5.e-002	11.281
32545	6.3	3.95	0.	1.1842
32546	6.25	4.	0.	1.1483
32547	6.3	4.	5.e-002	10.773
32548	6.3	3.85	0.	0.85416
32549	6.25	3.9	0.	0.83486
32550	6.3	3.9	5.e-002	10.271
32551	6.3	3.75	0.	0.64409
32552	6.25	3.8	0.	0.63288
32553	6.3	3.8	5.e-002	9.7876
32554	6.3	3.65	0.	0.50267
32555	6.25	3.7	0.	0.49477
32556	6.3	3.7	5.e-002	9.3366
32557	6.3	3.55	0.	0.40536
32558	6.25	3.6	0.	0.39794
32559	6.3	3.6	5.e-002	8.9313
32560	6.3	3.45	0.	0.33847
32561	6.25	3.5	0.	0.32989
32562	6.3	3.5	5.e-002	8.5828
32563	6.3	3.35	0.	0.29336
32564	6.25	3.4	0.	0.28278
32565	6.3	3.4	5.e-002	8.2983
32566	6.3	3.25	0.	0.26416
32567	6.25	3.3	0.	0.25119
32568	6.3	3.3	5.e-002	8.0804
32569	6.3	3.15	0.	0.24684
32570	6.25	3.2	0.	0.23125
32571	6.3	3.2	5.e-002	7.9281
32572	6.3	3.05	0.	0.23881
32573	6.25	3.1	0.	0.22034
32574	6.3	3.1	5.e-002	7.8387
32575	6.3	2.95	0.	0.23881
32576	6.25	3.	0.	0.21687
32577	6.3	3.	5.e-002	7.8092
32578	6.3	2.85	0.	0.24684
32579	6.25	2.9	0.	0.22034
32580	6.3	2.9	5.e-002	7.8386
32581	6.3	2.75	0.	0.26416
32582	6.25	2.8	0.	0.23125
32583	6.3	2.8	5.e-002	7.9281
32584	6.3	2.65	0.	0.29336
32585	6.25	2.7	0.	0.25119
32586	6.3	2.7	5.e-002	8.0804
32587	6.3	2.55	0.	0.33847
32588	6.25	2.6	0.	0.28278
32589	6.3	2.6	5.e-002	8.2982
32590	6.3	2.45	0.	0.40536
32591	6.25	2.5	0.	0.32989
32592	6.3	2.5	5.e-002	8.5827
32593	6.3	2.35	0.	0.50267
32594	6.25	2.4	0.	0.39794
32595	6.3	2.4	5.e-002	8.9311
32596	6.3	2.25	0.	0.64409
32597	6.25	2.3	0.	0.49477
32598	6.3	2.3	5.e-002	9.3364
32599	6.3	2.15	0.	0.85416
32600	6.25	2.2	0.	0.63288
32601	6.3	2.2	5.e-002	9.7874
32602	6.3	2.05	0.	1.1842
32603	6.25	2.1	0.	0.83486
32604	6.3	2.1	5.e-002	10.271
32605	6.3	1.95	0.	1.7651
32606	6.25	2.	0.	1.1482
32607	6.3	2.	5.e-002	10.773
32608	6.3	1.85	0.	3.0386
32609	6.25	1.9	0.	1.694
32610	6.3	1.9	5.e-002	11.281
32611	6.3	1.75	0.	7.266
32612	6.25	1.8	0.	2.8775
32613	6.3	1.8	5.e-002	11.787
32614	6.3	1.65	0.	22.566
32615	6.25	1.7	0.	6.749
32616	6.3	1.7	5.e-002	12.284
32617	6.3	1.55	0.	45.198
32618	6.25	1.6	0.	20.896
32619	6.3	1.6	5.e-002	12.768
32620	6.3	1.45	0.	66.995
32621	6.25	1.5	0.	42.096
32622	6.3	1.5	5.e-002	13.237
32623	6.3	1.35	0.	86.002
32624	6.25	1.4	0.	62.434
32625	6.3	1.4	5.e-002	13.689
32626	6.3	1.25	0.	101.61
32627	6.25	1.3	0.	80.044
32628	6.3	1.3	5.e-002	14.119
32629	6.3	1.15	0.	113.56
32630	6.25	1.2	0.	94.38
32631	6.3	1.2	5.e-002	14.526
32632	6.3	1.05	0.	121.81
32633	6.25	1.1	0.	105.24
32634	6.3	1.1	5.e-002	14.906
32635	6.3	0.95	0.	126.4
32636	6.25	1.	0.	112.57
32637	6.3	1.	5.e-002	15.256
32638	6.3	0.85	0.	127.44
32639	6.25	0.9	0.	116.42
32640	6.3	0.9	5.e-002	15.573
32641	6.3	0.75	0.	125.04
32642	6.25	0.8	0.	116.87
32643	6.3	0.8	5.e-002	15.855
32644	6.3	0.65	0.	119.32
32645	6.25	0.7	0.	113.98
32646	6.3	0.7	5.e-002	16.101
32647	6.3	0.55	0.	110.31
32648	6.25	0.6	0.	107.81
32649	6.3	0.6	5.e-002	16.313
32650	6.3	0.45	0.	98.004
32651	6.25	0.5	0.	98.373
32652	6.3	0.5	5.e-002	16.492
32653	6.3	0.35	0.	82.303
32654	6.25	0.4	0.	85.601
32655	6.3	0.4	5.e-002	16.641
32656	6.3	0.25	0.	62.996
32657	6.25	0.3	0.	69.374
32658	6.3	0.3	5.e-002	16.767
32659	6.3	0.15	0.	39.982
32660	6.25	0.2	0.	49.433
32661	6.3	0.2	5.e-002	16.982
32662	6.25	0.1	0.	25.834
32663	6.3	0.1	5.e-002	19.386
32664	6.3	5.e-002	0.	12.653
32665	6.2	5.85	0.	35.287
32666	6.15	5.9	0.	22.511
32667	6.2	5.9	5.e-002	17.905
32668	6.2	5.95	0.	11.103
32669	6.2	5.75	0.	55.829
32670	6.15	5.8	0.	43.542
32671	6.2	5.8	5.e-002	15.747
32672	6.2	5.65	0.	72.724
32673	6.15	5.7	0.	61.012
32674	6.2	5.7	5.e-002	15.567
32675	6.2	5.55	0.	86.056
32676	6.15	5.6	0.	74.869
32677	6.2	5.6	5.e-002	15.462
32678	6.2	5.45	0.	95.992
32679	6.15	5.5	0.	85.319
32680	6.2	5.5	5.e-002	15.332
32681	6.2	5.35	0.	102.62
32682	6.15	5.4	0.	92.46
32683	6.2	5.4	5.e-002	15.169
32684	6.2	5.25	0.	105.98
32685	6.15	5.3	0.	96.355
32686	6.2	5.3	5.e-002	14.973
32687	6.2	5.15	0.	106.05
32688	6.15	5.2	0.	97.029
32689	6.2	5.2	5.e-002	14.741
32690	6.2	5.05	0.	102.82
32691	6.15	5.1	0.	94.479
32692	6.2	5.1	5.e-002	14.474
32693	6.2	4.95	0.	96.235
32694	6.15	5.	0.	88.693
32695	6.2	5.	5.e-002	14.172
32696	6.2	4.85	0.	86.294
32697	6.15	4.9	0.	79.678
32698	6.2	4.9	5.e-002	13.837
32699	6.2	4.75	0.	73.053
32700	6.15	4.8	0.	67.493
32701	6.2	4.8	5.e-002	13.47
32702	6.2	4.65	0.	56.707
32703	6.15	4.7	0.	52.316
32704	6.2	4.7	5.e-002	13.074
32705	6.2	4.55	0.	37.779
32706	6.15	4.6	0.	34.638
32707	6.2	4.6	5.e-002	12.65
32708	6.2	4.45	0.	18.196
32709	6.15	4.5	0.	16.387
32710	6.2	4.5	5.e-002	12.202
32711	6.2	4.35	0.	5.8757
32712	6.15	4.4	0.	5.3122
32713	6.2	4.4	5.e-002	11.731
32714	6.2	4.25	0.	2.6148
32715	6.15	4.3	0.	2.4303
32716	6.2	4.3	5.e-002	11.239
32717	6.2	4.15	0.	1.5769
32718	6.15	4.2	0.	1.4906
32719	6.2	4.2	5.e-002	10.729
32720	6.2	4.05	0.	1.0861
32721	6.15	4.1	0.	1.0391
32722	6.2	4.1	5.e-002	10.204
32723	6.2	3.95	0.	0.79928
32724	6.15	4.	0.	0.77213
32725	6.2	4.	5.e-002	9.6704
32726	6.2	3.85	0.	0.61138
32727	6.15	3.9	0.	0.59505
32728	6.2	3.9	5.e-002	9.1366
32729	6.2	3.75	0.	0.48051
32730	6.15	3.8	0.	0.46994
32731	6.2	3.8	5.e-002	8.6133
32732	6.2	3.65	0.	0.38678
32733	6.15	3.7	0.	0.37881
32734	6.2	3.7	5.e-002	8.1139
32735	6.2	3.55	0.	0.31926
32736	6.15	3.6	0.	0.31187
32737	6.2	3.6	5.e-002	7.6521
32738	6.2	3.45	0.	0.27112
32739	6.15	3.5	0.	0.26306
32740	6.2	3.5	5.e-002	7.2414
32741	6.2	3.35	0.	0.23767
32742	6.15	3.4	0.	0.22822
32743	6.2	3.4	5.e-002	6.8934
32744	6.2	3.25	0.	0.21548
32745	6.15	3.3	0.	0.20424
32746	6.2	3.3	5.e-002	6.6166
32747	6.2	3.15	0.	0.20205
32748	6.15	3.2	0.	0.18878
32749	6.2	3.2	5.e-002	6.4164
32750	6.2	3.05	0.	0.19575
32751	6.15	3.1	0.	0.18018
32752	6.2	3.1	5.e-002	6.2955
32753	6.2	2.95	0.	0.19575
32754	6.15	3.	0.	0.17743
32755	6.2	3.	5.e-002	6.2551
32756	6.2	2.85	0.	0.20205
32757	6.15	2.9	0.	0.18018
32758	6.2	2.9	5.e-002	6.2954
32759	6.2	2.75	0.	0.21548
32760	6.15	2.8	0.	0.18878
32761	6.2	2.8	5.e-002	6.4163
32762	6.2	2.65	0.	0.23767
32763	6.15	2.7	0.	0.20424
32764	6.2	2.7	5.e-002	6.6165
32765	6.2	2.55	0.	0.27112
32766	6.15	2.6	0.	0.22822
32767	6.2	2.6	5.e-002	6.8933
32768	6.2	2.45	0.	0.31925
32769	6.15	2.5	0.	0.26306
32770	6.2	2.5	5.e-002	7.2413
32771	6.2	2.35	0.	0.38678
32772	6.15	2.4	0.	0.31187
32773	6.2	2.4	5.e-002	7.6519
32774	6.2	2.25	0.	0.48051
32775	6.15	2.3	0.	0.37881
32776	6.2	2.3	5.e-002	8.1137
32777	6.2	2.15	0.	0.61138
32778	6.15	2.2	0.	0.46994
32779	6.2	2.2	5.e-002	8.6131
32780	6.2	2.05	0.	0.79928
32781	6.15	2.1	0.	0.59505
32782	6.2	2.1	5.e-002	9.1363
32783	6.2	1.95	0.	1.0861
32784	6.15	2.	0.	0.77213
32785	6.2	2.	5.e-002	9.6702
32786	6.2	1.85	0.	1.5769
32787	6.15	1.9	0.	1.0391
32788	6.2	1.9	5.e-002	10.204
32789	6.2	1.75	0.	2.6148
32790	6.15	1.8	0.	1.4905
32791	6.2	1.8	5.e-002	10.729
32792	6.2	1.65	0.	5.8756
32793	6.15	1.7	0.	2.4303
32794	6.2	1.7	5.e-002	11.239
32795	6.2	1.55	0.	18.196
32796	6.15	1.6	0.	5.3121
32797	6.2	1.6	5.e-002	11.731
32798	6.2	1.45	0.	37.778
32799	6.15	1.5	0.	16.387
32800	6.2	1.5	5.e-002	12.202
32801	6.2	1.35	0.	56.706
32802	6.15	1.4	0.	34.638
32803	6.2	1.4	5.e-002	12.65
32804	6.2	1.25	0.	73.053
32805	6.15	1.3	0.	52.315
32806	6.2	1.3	5.e-002	13.074
32807	6.2	1.15	0.	86.294
32808	6.15	1.2	0.	67.493
32809	6.2	1.2	5.e-002	13.47
32810	6.2	1.05	0.	96.235
32811	6.15	1.1	0.	79.678
32812	6.2	1.1	5.e-002	13.837
32813	6.2	0.95	0.	102.82
32814	6.15	1.	0.	88.693
32815	6.2	1.	5.e-002	14.173
32816	6.2	0.85	0.	106.05
32817	6.15	0.9	0.	94.479
32818	6.2	0.9	5.e-002	14.474
32819	6.2	0.75	0.	105.98
32820	6.15	0.8	0.	97.029
32821	6.2	0.8	5.e-002	14.741
32822	6.2	0.65	0.	102.62
32823	6.15	0.7	0.	96.355
32824	6.2	0.7	5.e-002	14.973
32825	6.2	0.55	0.	95.992
32826	6.15	0.6	0.	92.46
32827	6.2	0.6	5.e-002	15.169
32828	6.2	0.45	0.	86.055
32829	6.15	0.5	0.	85.318
32830	6.2	0.5	5.e-002	15.332
32831	6.2	0.35	0.	72.724
32832	6.15	0.4	0.	74.869
32833	6.2	0.4	5.e-002	15.462
32834	6.2	0.25	0.	55.829
32835	6.15	0.3	0.	61.012
32836	6.2	0.3	5.e-002	15.568
32837	6.2	0.15	0.	35.287
32838	6.15	0.2	0.	43.542
32839	6.2	0.2	5.e-002	15.747
32840	6.15	0.1	0.	22.511
32841	6.2	0.1	5.e-002	17.906
32842	6.2	5.e-002	0.	11.103
32843	6.1	5.85	0.	30.756
32844	6.05	5.9	0.	19.407
32845	6.1	5.9	5.e-002	16.552
32846	6.1	5.95	0.	9.6428
32847	6.1	5.75	0.	48.733
32848	6.05	5.8	0.	37.771
32849	6.1	5.8	5.e-002	14.617
32850	6.1	5.65	0.	63.193
32851	6.05	5.7	0.	52.732
32852	6.1	5.7	5.e-002	14.47
32853	6.1	5.55	0.	74.194
32854	6.05	5.6	0.	64.232
32855	6.1	5.6	5.e-002	14.387
32856	6.1	5.45	0.	81.873
32857	6.05	5.5	0.	72.432
32858	6.1	5.5	5.e-002	14.276
32859	6.1	5.35	0.	86.304
32860	6.05	5.4	0.	77.411
32861	6.1	5.4	5.e-002	14.133
32862	6.1	5.25	0.	87.538
32863	6.05	5.3	0.	79.233
32864	6.1	5.3	5.e-002	13.954
32865	6.1	5.15	0.	85.602
32866	6.05	5.2	0.	77.943
32867	6.1	5.2	5.e-002	13.741
32868	6.1	5.05	0.	80.513
32869	6.05	5.1	0.	73.576
32870	6.1	5.1	5.e-002	13.492
32871	6.1	4.95	0.	72.304
32872	6.05	5.	0.	66.179
32873	6.1	5.	5.e-002	13.209
32874	6.1	4.85	0.	61.05
32875	6.05	4.9	0.	55.832
32876	6.1	4.9	5.e-002	12.891
32877	6.1	4.75	0.	46.936
32878	6.05	4.8	0.	42.716
32879	6.1	4.8	5.e-002	12.541
32880	6.1	4.65	0.	30.465
32881	6.05	4.7	0.	27.336
32882	6.1	4.7	5.e-002	12.159
32883	6.1	4.55	0.	13.755
32884	6.05	4.6	0.	11.93
32885	6.1	4.6	5.e-002	11.748
32886	6.1	4.45	0.	4.5079
32887	6.05	4.5	0.	3.97
32888	6.1	4.5	5.e-002	11.308
32889	6.1	4.35	0.	2.1689
32890	6.05	4.4	0.	1.9796
32891	6.1	4.4	5.e-002	10.841
32892	6.1	4.25	0.	1.3664
32893	6.05	4.3	0.	1.2724
32894	6.1	4.3	5.e-002	10.349
32895	6.1	4.15	0.	0.96925
32896	6.05	4.2	0.	0.91517
32897	6.1	4.2	5.e-002	9.8343
32898	6.1	4.05	0.	0.72981
32899	6.05	4.1	0.	0.69666
32900	6.1	4.1	5.e-002	9.299
32901	6.1	3.95	0.	0.56838
32902	6.05	4.	0.	0.54744
32903	6.1	4.	5.e-002	8.7487
32904	6.1	3.85	0.	0.45241
32905	6.05	3.9	0.	0.43876
32906	6.1	3.9	5.e-002	8.1905
32907	6.1	3.75	0.	0.36633
32908	6.05	3.8	0.	0.35684
32909	6.1	3.8	5.e-002	7.6339
32910	6.1	3.65	0.	0.30171
32911	6.05	3.7	0.	0.29425
32912	6.1	3.7	5.e-002	7.0907
32913	6.1	3.55	0.	0.25341
32914	6.05	3.6	0.	0.24652
32915	6.1	3.6	5.e-002	6.5746
32916	6.1	3.45	0.	0.21791
32917	6.05	3.5	0.	0.21063
32918	6.1	3.5	5.e-002	6.1006
32919	6.1	3.35	0.	0.19258
32920	6.05	3.4	0.	0.18431
32921	6.1	3.4	5.e-002	5.6841
32922	6.1	3.25	0.	0.17539
32923	6.05	3.3	0.	0.16578
32924	6.1	3.3	5.e-002	5.3402
32925	6.1	3.15	0.	0.16481
32926	6.05	3.2	0.	0.15359
32927	6.1	3.2	5.e-002	5.0828
32928	6.1	3.05	0.	0.15978
32929	6.05	3.1	0.	0.14672
32930	6.1	3.1	5.e-002	4.9233
32931	6.1	2.95	0.	0.15978
32932	6.05	3.	0.	0.1445
32933	6.1	3.	5.e-002	4.8691
32934	6.1	2.85	0.	0.16481
32935	6.05	2.9	0.	0.14672
32936	6.1	2.9	5.e-002	4.9232
32937	6.1	2.75	0.	0.17539
32938	6.05	2.8	0.	0.15359
32939	6.1	2.8	5.e-002	5.0827
32940	6.1	2.65	0.	0.19258
32941	6.05	2.7	0.	0.16578
32942	6.1	2.7	5.e-002	5.3401
32943	6.1	2.55	0.	0.21791
32944	6.05	2.6	0.	0.18431
32945	6.1	2.6	5.e-002	5.684
32946	6.1	2.45	0.	0.25341
32947	6.05	2.5	0.	0.21063
32948	6.1	2.5	5.e-002	6.1005
32949	6.1	2.35	0.	0.30171
32950	6.05	2.4	0.	0.24652
32951	6.1	2.4	5.e-002	6.5744
32952	6.1	2.25	0.	0.36633
32953	6.05	2.3	0.	0.29425
32954	6.1	2.3	5.e-002	7.0905
32955	6.1	2.15	0.	0.45241
32956	6.05	2.2	0.	0.35684
32957	6.1	2.2	5.e-002	7.6337
32958	6.1	2.05	0.	0.56838
32959	6.05	2.1	0.	0.43876
32960	6.1	2.1	5.e-002	8.1903
32961	6.1	1.95	0.	0.7298
32962	6.05	2.	0.	0.54744
32963	6.1	2.	5.e-002	8.7485
32964	6.1	1.85	0.	0.96925
32965	6.05	1.9	0.	0.69666
32966	6.1	1.9	5.e-002	9.2988
32967	6.1	1.75	0.	1.3664
32968	6.05	1.8	0.	0.91517
32969	6.1	1.8	5.e-002	9.8341
32970	6.1	1.65	0.	2.1689
32971	6.05	1.7	0.	1.2724
32972	6.1	1.7	5.e-002	10.349
32973	6.1	1.55	0.	4.5078
32974	6.05	1.6	0.	1.9796
32975	6.1	1.6	5.e-002	10.841
32976	6.1	1.45	0.	13.755
32977	6.05	1.5	0.	3.9699
32978	6.1	1.5	5.e-002	11.308
32979	6.1	1.35	0.	30.464
32980	6.05	1.4	0.	11.93
32981	6.1	1.4	5.e-002	11.748
32982	6.1	1.25	0.	46.935
32983	6.05	1.3	0.	27.336
32984	6.1	1.3	5.e-002	12.159
32985	6.1	1.15	0.	61.05
32986	6.05	1.2	0.	42.716
32987	6.1	1.2	5.e-002	12.541
32988	6.1	1.05	0.	72.304
32989	6.05	1.1	0.	55.831
32990	6.1	1.1	5.e-002	12.891
32991	6.1	0.95	0.	80.513
32992	6.05	1.	0.	66.178
32993	6.1	1.	5.e-002	13.209
32994	6.1	0.85	0.	85.601
32995	6.05	0.9	0.	73.576
32996	6.1	0.9	5.e-002	13.493
32997	6.1	0.75	0.	87.538
32998	6.05	0.8	0.	77.942
32999	6.1	0.8	5.e-002	13.741
33000	6.1	0.65	0.	86.304
33001	6.05	0.7	0.	79.233
33002	6.1	0.7	5.e-002	13.955
33003	6.1	0.55	0.	81.873
33004	6.05	0.6	0.	77.411
33005	6.1	0.6	5.e-002	14.133
33006	6.1	0.45	0.	74.194
33007	6.05	0.5	0.	72.432
33008	6.1	0.5	5.e-002	14.277
33009	6.1	0.35	0.	63.193
33010	6.05	0.4	0.	64.232
33011	6.1	0.4	5.e-002	14.387
33012	6.1	0.25	0.	48.733
33013	6.05	0.3	0.	52.732
33014	6.1	0.3	5.e-002	14.471
33015	6.1	0.15	0.	30.756
33016	6.05	0.2	0.	37.771
33017	6.1	0.2	5.e-002	14.617
33018	6.05	0.1	0.	19.407
33019	6.1	0.1	5.e-002	16.553
33020	6.1	5.e-002	0.	9.6428
33021	6.	5.85	0.	26.405
33022	5.95	5.9	0.	16.508
33023	6.	5.9	5.e-002	15.325
33024	6.	5.95	0.	8.2687
33025	6.	5.75	0.	41.771
33026	5.95	5.8	0.	32.159
33027	6.	5.8	5.e-002	13.588
33028	6.	5.65	0.	53.795
33029	5.95	5.7	0.	44.603
33030	6.	5.7	5.e-002	13.473
33031	6.	5.55	0.	62.514
33032	5.95	5.6	0.	53.775
33033	6.	5.6	5.e-002	13.412
33034	6.	5.45	0.	68.033
33035	5.95	5.5	0.	59.795
33036	6.	5.5	5.e-002	13.321
33037	6.	5.35	0.	70.419
33038	5.95	5.4	0.	62.729
33039	6.	5.4	5.e-002	13.197
33040	6.	5.25	0.	69.732
33041	5.95	5.3	0.	62.638
33042	6.	5.3	5.e-002	13.039
33043	6.	5.15	0.	66.024
33044	5.95	5.2	0.	59.586
33045	6.	5.2	5.e-002	12.846
33046	6.	5.05	0.	59.358
33047	5.95	5.1	0.	53.642
33048	6.	5.1	5.e-002	12.617
33049	6.	4.95	0.	49.831
33050	5.95	5.	0.	44.91
33051	6.	5.	5.e-002	12.354
33052	6.	4.85	0.	37.64
33053	5.95	4.9	0.	33.592
33054	6.	4.9	5.e-002	12.056
33055	6.	4.75	0.	23.335
33056	5.95	4.8	0.	20.272
33057	6.	4.8	5.e-002	11.724
33058	6.	4.65	0.	9.5313
33059	5.95	4.7	0.	7.8703
33060	6.	4.7	5.e-002	11.361
33061	6.	4.55	0.	3.297
33062	5.95	4.6	0.	2.8389
33063	6.	4.6	5.e-002	10.965
33064	6.	4.45	0.	1.7384
33065	5.95	4.5	0.	1.5607
33066	6.	4.5	5.e-002	10.538
33067	6.	4.35	0.	1.1501
33068	5.95	4.4	0.	1.0562
33069	6.	4.4	5.e-002	10.082
33070	6.	4.25	0.	0.84265
33071	5.95	4.3	0.	0.78576
33072	6.	4.3	5.e-002	9.5963
33073	6.	4.15	0.	0.65051
33074	5.95	4.2	0.	0.61388
33075	6.	4.2	5.e-002	9.0835
33076	6.	4.05	0.	0.51705
33077	5.95	4.1	0.	0.4928
33078	6.	4.1	5.e-002	8.5458
33079	6.	3.95	0.	0.41828
33080	5.95	4.	0.	0.40195
33081	6.	4.	5.e-002	7.9872
33082	6.	3.85	0.	0.34253
33083	5.95	3.9	0.	0.33124
33084	6.	3.9	5.e-002	7.4134
33085	6.	3.75	0.	0.28354
33086	5.95	3.8	0.	0.27528
33087	6.	3.8	5.e-002	6.8321
33088	6.	3.65	0.	0.23756
33089	5.95	3.7	0.	0.23087
33090	6.	3.7	5.e-002	6.253
33091	6.	3.55	0.	0.20212
33092	5.95	3.6	0.	0.19594
33093	6.	3.6	5.e-002	5.6884
33094	6.	3.45	0.	0.17538
33095	5.95	3.5	0.	0.16897
33096	6.	3.5	5.e-002	5.1531
33097	6.	3.35	0.	0.15585
33098	5.95	3.4	0.	0.14872
33099	6.	3.4	5.e-002	4.6648
33100	6.	3.25	0.	0.14232
33101	5.95	3.3	0.	0.13416
33102	6.	3.3	5.e-002	4.2446
33103	6.	3.15	0.	0.13387
33104	5.95	3.2	0.	0.12443
33105	6.	3.2	5.e-002	3.9169
33106	6.	3.05	0.	0.12981
33107	5.95	3.1	0.	0.11886
33108	6.	3.1	5.e-002	3.7066
33109	6.	2.95	0.	0.12981
33110	5.95	3.	0.	0.11705
33111	6.	3.	5.e-002	3.6339
33112	6.	2.85	0.	0.13387
33113	5.95	2.9	0.	0.11886
33114	6.	2.9	5.e-002	3.7065
33115	6.	2.75	0.	0.14232
33116	5.95	2.8	0.	0.12443
33117	6.	2.8	5.e-002	3.9168
33118	6.	2.65	0.	0.15585
33119	5.95	2.7	0.	0.13416
33120	6.	2.7	5.e-002	4.2445
33121	6.	2.55	0.	0.17538
33122	5.95	2.6	0.	0.14872
33123	6.	2.6	5.e-002	4.6646
33124	6.	2.45	0.	0.20212
33125	5.95	2.5	0.	0.16897
33126	6.	2.5	5.e-002	5.1529
33127	6.	2.35	0.	0.23756
33128	5.95	2.4	0.	0.19594
33129	6.	2.4	5.e-002	5.6882
33130	6.	2.25	0.	0.28354
33131	5.95	2.3	0.	0.23087
33132	6.	2.3	5.e-002	6.2528
33133	6.	2.15	0.	0.34253
33134	5.95	2.2	0.	0.27528
33135	6.	2.2	5.e-002	6.8319
33136	6.	2.05	0.	0.41828
33137	5.95	2.1	0.	0.33124
33138	6.	2.1	5.e-002	7.4133
33139	6.	1.95	0.	0.51705
33140	5.95	2.	0.	0.40195
33141	6.	2.	5.e-002	7.9871
33142	6.	1.85	0.	0.65051
33143	5.95	1.9	0.	0.4928
33144	6.	1.9	5.e-002	8.5456
33145	6.	1.75	0.	0.84265
33146	5.95	1.8	0.	0.61388
33147	6.	1.8	5.e-002	9.0833
33148	6.	1.65	0.	1.1501
33149	5.95	1.7	0.	0.78576
33150	6.	1.7	5.e-002	9.5962
33151	6.	1.55	0.	1.7384
33152	5.95	1.6	0.	1.0562
33153	6.	1.6	5.e-002	10.082
33154	6.	1.45	0.	3.2969
33155	5.95	1.5	0.	1.5607
33156	6.	1.5	5.e-002	10.538
33157	6.	1.35	0.	9.5312
33158	5.95	1.4	0.	2.8389
33159	6.	1.4	5.e-002	10.965
33160	6.	1.25	0.	23.334
33161	5.95	1.3	0.	7.8701
33162	6.	1.3	5.e-002	11.361
33163	6.	1.15	0.	37.64
33164	5.95	1.2	0.	20.272
33165	6.	1.2	5.e-002	11.725
33166	6.	1.05	0.	49.831
33167	5.95	1.1	0.	33.592
33168	6.	1.1	5.e-002	12.056
33169	6.	0.95	0.	59.358
33170	5.95	1.	0.	44.91
33171	6.	1.	5.e-002	12.354
33172	6.	0.85	0.	66.024
33173	5.95	0.9	0.	53.642
33174	6.	0.9	5.e-002	12.617
33175	6.	0.75	0.	69.732
33176	5.95	0.8	0.	59.585
33177	6.	0.8	5.e-002	12.846
33178	6.	0.65	0.	70.419
33179	5.95	0.7	0.	62.638
33180	6.	0.7	5.e-002	13.039
33181	6.	0.55	0.	68.033
33182	5.95	0.6	0.	62.729
33183	6.	0.6	5.e-002	13.198
33184	6.	0.45	0.	62.514
33185	5.95	0.5	0.	59.795
33186	6.	0.5	5.e-002	13.321
33187	6.	0.35	0.	53.795
33188	5.95	0.4	0.	53.775
33189	6.	0.4	5.e-002	13.412
33190	6.	0.25	0.	41.771
33191	5.95	0.3	0.	44.603
33192	6.	0.3	5.e-002	13.474
33193	6.	0.15	0.	26.405
33194	5.95	0.2	0.	32.159
33195	6.	0.2	5.e-002	13.589
33196	5.95	0.1	0.	16.508
33197	6.	0.1	5.e-002	15.326
33198	6.	5.e-002	0.	8.2687
33199	5.9	5.85	0.	22.241
33200	5.85	5.9	0.	13.801
33201	5.9	5.9	5.e-002	14.221
33202	5.9	5.95	0.	6.9772
33203	5.9	5.75	0.	34.987
33204	5.85	5.8	0.	26.73
33205	5.9	5.8	5.e-002	12.657
33206	5.9	5.65	0.	44.597
33207	5.85	5.7	0.	36.676
33208	5.9	5.7	5.e-002	12.571
33209	5.9	5.55	0.	51.087
33210	5.85	5.6	0.	43.561
33211	5.9	5.6	5.e-002	12.531
33212	5.9	5.45	0.	54.536
33213	5.85	5.5	0.	47.471
33214	5.9	5.5	5.e-002	12.46
33215	5.9	5.35	0.	55.005
33216	5.85	5.4	0.	48.461
33217	5.9	5.4	5.e-002	12.357
33218	5.9	5.25	0.	52.56
33219	5.85	5.3	0.	46.594
33220	5.9	5.3	5.e-002	12.219
33221	5.9	5.15	0.	47.283
33222	5.85	5.2	0.	41.953
33223	5.9	5.2	5.e-002	12.046
33224	5.9	5.05	0.	39.286
33225	5.85	5.1	0.	34.656
33226	5.9	5.1	5.e-002	11.839
33227	5.9	4.95	0.	28.793
33228	5.85	5.	0.	24.938
33229	5.9	5.	5.e-002	11.597
33230	5.9	4.85	0.	16.492
33231	5.85	4.9	0.	13.591
33232	5.9	4.9	5.e-002	11.32
33233	5.9	4.75	0.	5.9379
33234	5.85	4.8	0.	4.6652
33235	5.9	4.8	5.e-002	11.01
33236	5.9	4.65	0.	2.3215
33237	5.85	4.7	0.	1.9662
33238	5.9	4.7	5.e-002	10.666
33239	5.9	4.55	0.	1.3521
33240	5.85	4.6	0.	1.1969
33241	5.9	4.6	5.e-002	10.288
33242	5.9	4.45	0.	0.94282
33243	5.85	4.5	0.	0.85511
33244	5.9	4.5	5.e-002	9.8784
33245	5.9	4.35	0.	0.71511
33246	5.85	4.4	0.	0.6593
33247	5.9	4.4	5.e-002	9.4364
33248	5.9	4.25	0.	0.56688
33249	5.85	4.3	0.	0.52932
33250	5.9	4.3	5.e-002	8.9628
33251	5.9	4.15	0.	0.46054
33252	5.85	4.2	0.	0.43459
33253	5.9	4.2	5.e-002	8.4589
33254	5.9	4.05	0.	0.37944
33255	5.85	4.1	0.	0.36131
33256	5.9	4.1	5.e-002	7.9265
33257	5.9	3.95	0.	0.31529
33258	5.85	4.	0.	0.30249
33259	5.9	4.	5.e-002	7.3684
33260	5.9	3.85	0.	0.26362
33261	5.85	3.9	0.	0.25437
33262	5.9	3.9	5.e-002	6.7889
33263	5.9	3.75	0.	0.22181
33264	5.85	3.8	0.	0.21478
33265	5.9	3.8	5.e-002	6.1935
33266	5.9	3.65	0.	0.18821
33267	5.85	3.7	0.	0.18238
33268	5.9	3.7	5.e-002	5.5897
33269	5.9	3.55	0.	0.16162
33270	5.85	3.6	0.	0.15622
33271	5.9	3.6	5.e-002	4.987
33272	5.9	3.45	0.	0.14108
33273	5.85	3.5	0.	0.13555
33274	5.9	3.5	5.e-002	4.3978
33275	5.9	3.35	0.	0.12577
33276	5.85	3.4	0.	0.1197
33277	5.9	3.4	5.e-002	3.8388
33278	5.9	3.25	0.	0.11498
33279	5.85	3.3	0.	0.1081
33280	5.9	3.3	5.e-002	3.3337
33281	5.9	3.15	0.	0.10814
33282	5.85	3.2	0.	0.10022
33283	5.9	3.2	5.e-002	2.9168
33284	5.9	3.05	0.	0.10483
33285	5.85	3.1	0.	9.5662e-002
33286	5.9	3.1	5.e-002	2.6341
33287	5.9	2.95	0.	0.10483
33288	5.85	3.	0.	9.4173e-002
33289	5.9	3.	5.e-002	2.5328
33290	5.9	2.85	0.	0.10814
33291	5.85	2.9	0.	9.5662e-002
33292	5.9	2.9	5.e-002	2.634
33293	5.9	2.75	0.	0.11498
33294	5.85	2.8	0.	0.10022
33295	5.9	2.8	5.e-002	2.9167
33296	5.9	2.65	0.	0.12577
33297	5.85	2.7	0.	0.1081
33298	5.9	2.7	5.e-002	3.3336
33299	5.9	2.55	0.	0.14108
33300	5.85	2.6	0.	0.1197
33301	5.9	2.6	5.e-002	3.8386
33302	5.9	2.45	0.	0.16162
33303	5.85	2.5	0.	0.13555
33304	5.9	2.5	5.e-002	4.3976
33305	5.9	2.35	0.	0.18821
33306	5.85	2.4	0.	0.15622
33307	5.9	2.4	5.e-002	4.9868
33308	5.9	2.25	0.	0.22181
33309	5.85	2.3	0.	0.18238
33310	5.9	2.3	5.e-002	5.5895
33311	5.9	2.15	0.	0.26362
33312	5.85	2.2	0.	0.21478
33313	5.9	2.2	5.e-002	6.1933
33314	5.9	2.05	0.	0.31529
33315	5.85	2.1	0.	0.25437
33316	5.9	2.1	5.e-002	6.7887
33317	5.9	1.95	0.	0.37944
33318	5.85	2.	0.	0.30249
33319	5.9	2.	5.e-002	7.3683
33320	5.9	1.85	0.	0.46054
33321	5.85	1.9	0.	0.36131
33322	5.9	1.9	5.e-002	7.9264
33323	5.9	1.75	0.	0.56688
33324	5.85	1.8	0.	0.43459
33325	5.9	1.8	5.e-002	8.4588
33326	5.9	1.65	0.	0.71511
33327	5.85	1.7	0.	0.52931
33328	5.9	1.7	5.e-002	8.9628
33329	5.9	1.55	0.	0.94281
33330	5.85	1.6	0.	0.6593
33331	5.9	1.6	5.e-002	9.4363
33332	5.9	1.45	0.	1.3521
33333	5.85	1.5	0.	0.85511
33334	5.9	1.5	5.e-002	9.8784
33335	5.9	1.35	0.	2.3215
33336	5.85	1.4	0.	1.1969
33337	5.9	1.4	5.e-002	10.288
33338	5.9	1.25	0.	5.9377
33339	5.85	1.3	0.	1.9662
33340	5.9	1.3	5.e-002	10.666
33341	5.9	1.15	0.	16.492
33342	5.85	1.2	0.	4.6651
33343	5.9	1.2	5.e-002	11.01
33344	5.9	1.05	0.	28.793
33345	5.85	1.1	0.	13.591
33346	5.9	1.1	5.e-002	11.32
33347	5.9	0.95	0.	39.286
33348	5.85	1.	0.	24.937
33349	5.9	1.	5.e-002	11.597
33350	5.9	0.85	0.	47.283
33351	5.85	0.9	0.	34.656
33352	5.9	0.9	5.e-002	11.839
33353	5.9	0.75	0.	52.56
33354	5.85	0.8	0.	41.953
33355	5.9	0.8	5.e-002	12.047
33356	5.9	0.65	0.	55.004
33357	5.85	0.7	0.	46.594
33358	5.9	0.7	5.e-002	12.219
33359	5.9	0.55	0.	54.535
33360	5.85	0.6	0.	48.461
33361	5.9	0.6	5.e-002	12.357
33362	5.9	0.45	0.	51.086
33363	5.85	0.5	0.	47.471
33364	5.9	0.5	5.e-002	12.461
33365	5.9	0.35	0.	44.597
33366	5.85	0.4	0.	43.561
33367	5.9	0.4	5.e-002	12.531
33368	5.9	0.25	0.	34.987
33369	5.85	0.3	0.	36.676
33370	5.9	0.3	5.e-002	12.572
33371	5.9	0.15	0.	22.241
33372	5.85	0.2	0.	26.73
33373	5.9	0.2	5.e-002	12.658
33374	5.85	0.1	0.	13.801
33375	5.9	0.1	5.e-002	14.221
33376	5.9	5.e-002	0.	6.9772
33377	5.8	5.85	0.	18.268
33378	5.75	5.9	0.	11.271
33379	5.8	5.9	5.e-002	13.234
33380	5.8	5.95	0.	5.764
33381	5.8	5.75	0.	28.413
33382	5.75	5.8	0.	21.504
33383	5.8	5.8	5.e-002	11.819
33384	5.8	5.65	0.	35.647
33385	5.75	5.7	0.	28.989
33386	5.8	5.7	5.e-002	11.759
33387	5.8	5.55	0.	39.965
33388	5.75	5.6	0.	33.636
33389	5.8	5.6	5.e-002	11.739
33390	5.8	5.45	0.	41.428
33391	5.75	5.5	0.	35.507
33392	5.8	5.5	5.e-002	11.688
33393	5.8	5.35	0.	40.093
33394	5.75	5.4	0.	34.648
33395	5.8	5.4	5.e-002	11.605
33396	5.8	5.25	0.	36.041
33397	5.75	5.3	0.	31.136
33398	5.8	5.3	5.e-002	11.487
33399	5.8	5.15	0.	29.398
33400	5.75	5.2	0.	25.099
33401	5.8	5.2	5.e-002	11.336
33402	5.8	5.05	0.	20.434
33403	5.75	5.1	0.	16.839
33404	5.8	5.1	5.e-002	11.15
33405	5.8	4.95	0.	10.184
33406	5.75	5.	0.	7.6767
33407	5.8	5.	5.e-002	10.929
33408	5.8	4.85	0.	3.3843
33409	5.75	4.9	0.	2.595
33410	5.8	4.9	5.e-002	10.674
33411	5.8	4.75	0.	1.594
33412	5.75	4.8	0.	1.3367
33413	5.8	4.8	5.e-002	10.385
33414	5.8	4.65	0.	1.0259
33415	5.75	4.7	0.	0.89834
33416	5.8	4.7	5.e-002	10.062
33417	5.8	4.55	0.	0.75531
33418	5.75	4.6	0.	0.67795
33419	5.8	4.6	5.e-002	9.7057
33420	5.8	4.45	0.	0.594
33421	5.75	4.5	0.	0.54231
33422	5.8	4.5	5.e-002	9.3153
33423	5.8	4.35	0.	0.48405
33424	5.75	4.4	0.	0.44778
33425	5.8	4.4	5.e-002	8.8914
33426	5.8	4.25	0.	0.40231
33427	5.75	4.3	0.	0.37627
33428	5.8	4.3	5.e-002	8.4346
33429	5.8	4.15	0.	0.33798
33430	5.75	4.2	0.	0.31911
33431	5.8	4.2	5.e-002	7.9455
33432	5.8	4.05	0.	0.28551
33433	5.75	4.1	0.	0.27178
33434	5.8	4.1	5.e-002	7.4254
33435	5.8	3.95	0.	0.24186
33436	5.75	4.	0.	0.2318
33437	5.8	4.	5.e-002	6.8764
33438	5.8	3.85	0.	0.20531
33439	5.75	3.9	0.	0.1978
33440	5.8	3.9	5.e-002	6.3014
33441	5.8	3.75	0.	0.17481
33442	5.75	3.8	0.	0.16893
33443	5.8	3.8	5.e-002	5.7043
33444	5.8	3.65	0.	0.14965
33445	5.75	3.7	0.	0.14469
33446	5.8	3.7	5.e-002	5.09
33447	5.8	3.55	0.	0.12928
33448	5.75	3.6	0.	0.12466
33449	5.8	3.6	5.e-002	4.4649
33450	5.8	3.45	0.	0.11323
33451	5.75	3.5	0.	0.10852
33452	5.8	3.5	5.e-002	3.8373
33453	5.8	3.35	0.	0.10105
33454	5.75	3.4	0.	9.5916e-002
33455	5.8	3.4	5.e-002	3.2189
33456	5.8	3.25	0.	9.2331e-002
33457	5.75	3.3	0.	8.6539e-002
33458	5.8	3.3	5.e-002	2.6286
33459	5.8	3.15	0.	8.6731e-002
33460	5.75	3.2	0.	8.0087e-002
33461	5.8	3.2	5.e-002	2.1012
33462	5.8	3.05	0.	8.3998e-002
33463	5.75	3.1	0.	7.6322e-002
33464	5.8	3.1	5.e-002	1.7053
33465	5.8	2.95	0.	8.3998e-002
33466	5.75	3.	0.	7.5085e-002
33467	5.8	3.	5.e-002	1.5503
33468	5.8	2.85	0.	8.6731e-002
33469	5.75	2.9	0.	7.6322e-002
33470	5.8	2.9	5.e-002	1.7052
33471	5.8	2.75	0.	9.2331e-002
33472	5.75	2.8	0.	8.0087e-002
33473	5.8	2.8	5.e-002	2.1011
33474	5.8	2.65	0.	0.10105
33475	5.75	2.7	0.	8.6539e-002
33476	5.8	2.7	5.e-002	2.6285
33477	5.8	2.55	0.	0.11323
33478	5.75	2.6	0.	9.5916e-002
33479	5.8	2.6	5.e-002	3.2188
33480	5.8	2.45	0.	0.12928
33481	5.75	2.5	0.	0.10852
33482	5.8	2.5	5.e-002	3.8372
33483	5.8	2.35	0.	0.14965
33484	5.75	2.4	0.	0.12466
33485	5.8	2.4	5.e-002	4.4648
33486	5.8	2.25	0.	0.17481
33487	5.75	2.3	0.	0.14469
33488	5.8	2.3	5.e-002	5.0899
33489	5.8	2.15	0.	0.20531
33490	5.75	2.2	0.	0.16893
33491	5.8	2.2	5.e-002	5.7042
33492	5.8	2.05	0.	0.24186
33493	5.75	2.1	0.	0.1978
33494	5.8	2.1	5.e-002	6.3013
33495	5.8	1.95	0.	0.28551
33496	5.75	2.	0.	0.2318
33497	5.8	2.	5.e-002	6.8764
33498	5.8	1.85	0.	0.33798
33499	5.75	1.9	0.	0.27178
33500	5.8	1.9	5.e-002	7.4254
33501	5.8	1.75	0.	0.40231
33502	5.75	1.8	0.	0.31911
33503	5.8	1.8	5.e-002	7.9454
33504	5.8	1.65	0.	0.48405
33505	5.75	1.7	0.	0.37627
33506	5.8	1.7	5.e-002	8.4346
33507	5.8	1.55	0.	0.594
33508	5.75	1.6	0.	0.44778
33509	5.8	1.6	5.e-002	8.8915
33510	5.8	1.45	0.	0.75531
33511	5.75	1.5	0.	0.5423
33512	5.8	1.5	5.e-002	9.3153
33513	5.8	1.35	0.	1.0259
33514	5.75	1.4	0.	0.67795
33515	5.8	1.4	5.e-002	9.7058
33516	5.8	1.25	0.	1.594
33517	5.75	1.3	0.	0.89833
33518	5.8	1.3	5.e-002	10.063
33519	5.8	1.15	0.	3.3843
33520	5.75	1.2	0.	1.3367
33521	5.8	1.2	5.e-002	10.385
33522	5.8	1.05	0.	10.184
33523	5.75	1.1	0.	2.595
33524	5.8	1.1	5.e-002	10.674
33525	5.8	0.95	0.	20.434
33526	5.75	1.	0.	7.6766
33527	5.8	1.	5.e-002	10.929
33528	5.8	0.85	0.	29.398
33529	5.75	0.9	0.	16.839
33530	5.8	0.9	5.e-002	11.15
33531	5.8	0.75	0.	36.04
33532	5.75	0.8	0.	25.099
33533	5.8	0.8	5.e-002	11.336
33534	5.8	0.65	0.	40.092
33535	5.75	0.7	0.	31.136
33536	5.8	0.7	5.e-002	11.488
33537	5.8	0.55	0.	41.428
33538	5.75	0.6	0.	34.648
33539	5.8	0.6	5.e-002	11.605
33540	5.8	0.45	0.	39.965
33541	5.75	0.5	0.	35.507
33542	5.8	0.5	5.e-002	11.689
33543	5.8	0.35	0.	35.647
33544	5.75	0.4	0.	33.636
33545	5.8	0.4	5.e-002	11.739
33546	5.8	0.25	0.	28.413
33547	5.75	0.3	0.	28.989
33548	5.8	0.3	5.e-002	11.76
33549	5.8	0.15	0.	18.268
33550	5.75	0.2	0.	21.504
33551	5.8	0.2	5.e-002	11.819
33552	5.75	0.1	0.	11.271
33553	5.8	0.1	5.e-002	13.234
33554	5.8	5.e-002	0.	5.764
33555	5.7	5.85	0.	14.486
33556	5.65	5.9	0.	8.908
33557	5.7	5.9	5.e-002	12.359
33558	5.7	5.95	0.	4.6243
33559	5.7	5.75	0.	22.071
33560	5.65	5.8	0.	16.489
33561	5.7	5.8	5.e-002	11.067
33562	5.7	5.65	0.	26.981
33563	5.65	5.7	0.	21.567
33564	5.7	5.7	5.e-002	11.031
33565	5.7	5.55	0.	29.191
33566	5.65	5.6	0.	24.037
33567	5.7	5.6	5.e-002	11.029
33568	5.7	5.45	0.	28.752
33569	5.65	5.5	0.	23.945
33570	5.7	5.5	5.e-002	10.998
33571	5.7	5.35	0.	25.731
33572	5.65	5.4	0.	21.35
33573	5.7	5.4	5.e-002	10.934
33574	5.7	5.25	0.	20.264
33575	5.65	5.3	0.	16.394
33576	5.7	5.3	5.e-002	10.836
33577	5.7	5.15	0.	12.731
33578	5.65	5.2	0.	9.559
33579	5.7	5.2	5.e-002	10.705
33580	5.7	5.05	0.	5.0683
33581	5.65	5.1	0.	3.4444
33582	5.7	5.1	5.e-002	10.54
33583	5.7	4.95	0.	1.8827
33584	5.65	5.	0.	1.4515
33585	5.7	5.	5.e-002	10.341
33586	5.7	4.85	0.	1.0808
33587	5.65	4.9	0.	0.90285
33588	5.7	4.9	5.e-002	10.109
33589	5.7	4.75	0.	0.76432
33590	5.65	4.8	0.	0.66434
33591	5.7	4.8	5.e-002	9.8419
33592	5.7	4.65	0.	0.59392
33593	5.65	4.7	0.	0.52889
33594	5.7	4.7	5.e-002	9.5411
33595	5.7	4.55	0.	0.48459
33596	5.65	4.6	0.	0.43897
33597	5.7	4.6	5.e-002	9.2064
33598	5.7	4.45	0.	0.40617
33599	5.65	4.5	0.	0.37287
33600	5.7	4.5	5.e-002	8.8376
33601	5.7	4.35	0.	0.34552
33602	5.65	4.4	0.	0.32073
33603	5.7	4.4	5.e-002	8.435
33604	5.7	4.25	0.	0.29614
33605	5.65	4.3	0.	0.27754
33606	5.7	4.3	5.e-002	7.9987
33607	5.7	4.15	0.	0.25455
33608	5.65	4.2	0.	0.24059
33609	5.7	4.2	5.e-002	7.5294
33610	5.7	4.05	0.	0.21885
33611	5.65	4.1	0.	0.20838
33612	5.7	4.1	5.e-002	7.0281
33613	5.7	3.95	0.	0.18796
33614	5.65	4.	0.	0.18008
33615	5.7	4.	5.e-002	6.4962
33616	5.7	3.85	0.	0.16128
33617	5.65	3.9	0.	0.15523
33618	5.7	3.9	5.e-002	5.9359
33619	5.7	3.75	0.	0.13843
33620	5.65	3.8	0.	0.13358
33621	5.7	3.8	5.e-002	5.3498
33622	5.7	3.65	0.	0.11915
33623	5.65	3.7	0.	0.115
33624	5.7	3.7	5.e-002	4.7412
33625	5.7	3.55	0.	0.10325
33626	5.65	3.6	0.	9.935e-002
33627	5.7	3.6	5.e-002	4.1139
33628	5.7	3.45	0.	9.0487e-002
33629	5.65	3.5	0.	8.6513e-002
33630	5.7	3.5	5.e-002	3.4724
33631	5.7	3.35	0.	8.065e-002
33632	5.65	3.4	0.	7.6337e-002
33633	5.7	3.4	5.e-002	2.8222
33634	5.7	3.25	0.	7.3514e-002
33635	5.65	3.3	0.	6.8657e-002
33636	5.7	3.3	5.e-002	2.1713
33637	5.7	3.15	0.	6.8882e-002
33638	5.65	3.2	0.	6.3314e-002
33639	5.7	3.2	5.e-002	1.5357
33640	5.7	3.05	0.	6.6606e-002
33641	5.65	3.1	0.	6.0169e-002
33642	5.7	3.1	5.e-002	0.96487
33643	5.7	2.95	0.	6.6606e-002
33644	5.65	3.	0.	5.9132e-002
33645	5.7	3.	5.e-002	0.67308
33646	5.7	2.85	0.	6.8882e-002
33647	5.65	2.9	0.	6.0169e-002
33648	5.7	2.9	5.e-002	0.96477
33649	5.7	2.75	0.	7.3514e-002
33650	5.65	2.8	0.	6.3314e-002
33651	5.7	2.8	5.e-002	1.5356
33652	5.7	2.65	0.	8.065e-002
33653	5.65	2.7	0.	6.8658e-002
33654	5.7	2.7	5.e-002	2.1712
33655	5.7	2.55	0.	9.0487e-002
33656	5.65	2.6	0.	7.6337e-002
33657	5.7	2.6	5.e-002	2.8221
33658	5.7	2.45	0.	0.10325
33659	5.65	2.5	0.	8.6513e-002
33660	5.7	2.5	5.e-002	3.4723
33661	5.7	2.35	0.	0.11915
33662	5.65	2.4	0.	9.935e-002
33663	5.7	2.4	5.e-002	4.1138
33664	5.7	2.25	0.	0.13843
33665	5.65	2.3	0.	0.115
33666	5.7	2.3	5.e-002	4.7411
33667	5.7	2.15	0.	0.16128
33668	5.65	2.2	0.	0.13358
33669	5.7	2.2	5.e-002	5.3497
33670	5.7	2.05	0.	0.18796
33671	5.65	2.1	0.	0.15523
33672	5.7	2.1	5.e-002	5.9359
33673	5.7	1.95	0.	0.21885
33674	5.65	2.	0.	0.18008
33675	5.7	2.	5.e-002	6.4962
33676	5.7	1.85	0.	0.25455
33677	5.65	1.9	0.	0.20838
33678	5.7	1.9	5.e-002	7.0281
33679	5.7	1.75	0.	0.29614
33680	5.65	1.8	0.	0.24059
33681	5.7	1.8	5.e-002	7.5294
33682	5.7	1.65	0.	0.34552
33683	5.65	1.7	0.	0.27754
33684	5.7	1.7	5.e-002	7.9987
33685	5.7	1.55	0.	0.40617
33686	5.65	1.6	0.	0.32073
33687	5.7	1.6	5.e-002	8.435
33688	5.7	1.45	0.	0.48459
33689	5.65	1.5	0.	0.37287
33690	5.7	1.5	5.e-002	8.8377
33691	5.7	1.35	0.	0.59392
33692	5.65	1.4	0.	0.43897
33693	5.7	1.4	5.e-002	9.2065
33694	5.7	1.25	0.	0.76431
33695	5.65	1.3	0.	0.52889
33696	5.7	1.3	5.e-002	9.5413
33697	5.7	1.15	0.	1.0808
33698	5.65	1.2	0.	0.66434
33699	5.7	1.2	5.e-002	9.8421
33700	5.7	1.05	0.	1.8826
33701	5.65	1.1	0.	0.90284
33702	5.7	1.1	5.e-002	10.109
33703	5.7	0.95	0.	5.0682
33704	5.65	1.	0.	1.4515
33705	5.7	1.	5.e-002	10.342
33706	5.7	0.85	0.	12.731
33707	5.65	0.9	0.	3.4444
33708	5.7	0.9	5.e-002	10.541
33709	5.7	0.75	0.	20.264
33710	5.65	0.8	0.	9.5589
33711	5.7	0.8	5.e-002	10.706
33712	5.7	0.65	0.	25.73
33713	5.65	0.7	0.	16.394
33714	5.7	0.7	5.e-002	10.837
33715	5.7	0.55	0.	28.752
33716	5.65	0.6	0.	21.35
33717	5.7	0.6	5.e-002	10.934
33718	5.7	0.45	0.	29.191
33719	5.65	0.5	0.	23.945
33720	5.7	0.5	5.e-002	10.998
33721	5.7	0.35	0.	26.981
33722	5.65	0.4	0.	24.037
33723	5.7	0.4	5.e-002	11.03
33724	5.7	0.25	0.	22.071
33725	5.65	0.3	0.	21.567
33726	5.7	0.3	5.e-002	11.032
33727	5.7	0.15	0.	14.486
33728	5.65	0.2	0.	16.489
33729	5.7	0.2	5.e-002	11.068
33730	5.65	0.1	0.	8.908
33731	5.7	0.1	5.e-002	12.36
33732	5.7	5.e-002	0.	4.6243
33733	5.6	5.85	0.	10.893
33734	5.55	5.9	0.	6.7016
33735	5.6	5.9	5.e-002	11.591
33736	5.6	5.95	0.	3.5537
33737	5.6	5.75	0.	15.976
33738	5.55	5.8	0.	11.695
33739	5.6	5.8	5.e-002	10.397
33740	5.6	5.65	0.	18.625
33741	5.55	5.7	0.	14.434
33742	5.6	5.7	5.e-002	10.382
33743	5.6	5.55	0.	18.806
33744	5.55	5.6	0.	14.807
33745	5.6	5.6	5.e-002	10.397
33746	5.6	5.45	0.	16.58
33747	5.55	5.5	0.	12.876
33748	5.6	5.5	5.e-002	10.384
33749	5.6	5.35	0.	12.114
33750	5.55	5.4	0.	8.8481
33751	5.6	5.4	5.e-002	10.338
33752	5.6	5.25	0.	6.1554
33753	5.55	5.3	0.	3.879
33754	5.6	5.3	5.e-002	10.259
33755	5.6	5.15	0.	2.1301
33756	5.55	5.2	0.	1.4578
33757	5.6	5.2	5.e-002	10.148
33758	5.6	5.05	0.	1.0777
33759	5.55	5.1	0.	0.84625
33760	5.6	5.1	5.e-002	10.004
33761	5.6	4.95	0.	0.73175
33762	5.55	5.	0.	0.61206
33763	5.6	5.	5.e-002	9.8262
33764	5.6	4.85	0.	0.56309
33765	5.55	4.9	0.	0.48773
33766	5.6	4.9	5.e-002	9.6152
33767	5.6	4.75	0.	0.46081
33768	5.55	4.8	0.	0.40834
33769	5.6	4.8	5.e-002	9.3707
33770	5.6	4.65	0.	0.38992
33771	5.55	4.7	0.	0.35131
33772	5.6	4.7	5.e-002	9.0926
33773	5.6	4.55	0.	0.33614
33774	5.55	4.6	0.	0.30684
33775	5.6	4.6	5.e-002	8.7808
33776	5.6	4.45	0.	0.29266
33777	5.55	4.5	0.	0.27009
33778	5.6	4.5	5.e-002	8.4352
33779	5.6	4.35	0.	0.2559
33780	5.55	4.4	0.	0.23843
33781	5.6	4.4	5.e-002	8.0561
33782	5.6	4.25	0.	0.22388
33783	5.55	4.3	0.	0.21037
33784	5.6	4.3	5.e-002	7.6436
33785	5.6	4.15	0.	0.1955
33786	5.55	4.2	0.	0.18509
33787	5.6	4.2	5.e-002	7.1983
33788	5.6	4.05	0.	0.17014
33789	5.55	4.1	0.	0.16215
33790	5.6	4.1	5.e-002	6.7211
33791	5.6	3.95	0.	0.1475
33792	5.55	4.	0.	0.14134
33793	5.6	4.	5.e-002	6.2133
33794	5.6	3.85	0.	0.12743
33795	5.55	3.9	0.	0.1226
33796	5.6	3.9	5.e-002	5.6767
33797	5.6	3.75	0.	0.10987
33798	5.55	3.8	0.	0.10593
33799	5.6	3.8	5.e-002	5.1136
33800	5.6	3.65	0.	9.4786e-002
33801	5.55	3.7	0.	9.1357e-002
33802	5.6	3.7	5.e-002	4.5265
33803	5.6	3.55	0.	8.2123e-002
33804	5.55	3.6	0.	7.8883e-002
33805	5.6	3.6	5.e-002	3.9185
33806	5.6	3.45	0.	7.1811e-002
33807	5.55	3.5	0.	6.8496e-002
33808	5.6	3.5	5.e-002	3.2926
33809	5.6	3.35	0.	6.3753e-002
33810	5.55	3.4	0.	6.015e-002
33811	5.6	3.4	5.e-002	2.6521
33812	5.6	3.25	0.	5.784e-002
33813	5.55	3.3	0.	5.3778e-002
33814	5.6	3.3	5.e-002	2.0003
33815	5.6	3.15	0.	5.3968e-002
33816	5.55	3.2	0.	4.9301e-002
33817	5.6	3.2	5.e-002	1.3408
33818	5.6	3.05	0.	5.2055e-002
33819	5.55	3.1	0.	4.6649e-002
33820	5.6	3.1	5.e-002	0.67871
33821	5.6	2.95	0.	5.2055e-002
33822	5.55	3.	0.	4.577e-002
33823	5.6	3.	5.e-002	0.11207
33824	5.6	2.85	0.	5.3968e-002
33825	5.55	2.9	0.	4.6649e-002
33826	5.6	2.9	5.e-002	0.67873
33827	5.6	2.75	0.	5.784e-002
33828	5.55	2.8	0.	4.9301e-002
33829	5.6	2.8	5.e-002	1.3408
33830	5.6	2.65	0.	6.3753e-002
33831	5.55	2.7	0.	5.3778e-002
33832	5.6	2.7	5.e-002	2.0003
33833	5.6	2.55	0.	7.1811e-002
33834	5.55	2.6	0.	6.015e-002
33835	5.6	2.6	5.e-002	2.652
33836	5.6	2.45	0.	8.2123e-002
33837	5.55	2.5	0.	6.8496e-002
33838	5.6	2.5	5.e-002	3.2925
33839	5.6	2.35	0.	9.4786e-002
33840	5.55	2.4	0.	7.8883e-002
33841	5.6	2.4	5.e-002	3.9184
33842	5.6	2.25	0.	0.10987
33843	5.55	2.3	0.	9.1357e-002
33844	5.6	2.3	5.e-002	4.5265
33845	5.6	2.15	0.	0.12743
33846	5.55	2.2	0.	0.10593
33847	5.6	2.2	5.e-002	5.1136
33848	5.6	2.05	0.	0.1475
33849	5.55	2.1	0.	0.1226
33850	5.6	2.1	5.e-002	5.6767
33851	5.6	1.95	0.	0.17014
33852	5.55	2.	0.	0.14134
33853	5.6	2.	5.e-002	6.2133
33854	5.6	1.85	0.	0.1955
33855	5.55	1.9	0.	0.16215
33856	5.6	1.9	5.e-002	6.7211
33857	5.6	1.75	0.	0.22389
33858	5.55	1.8	0.	0.18509
33859	5.6	1.8	5.e-002	7.1983
33860	5.6	1.65	0.	0.2559
33861	5.55	1.7	0.	0.21037
33862	5.6	1.7	5.e-002	7.6436
33863	5.6	1.55	0.	0.29266
33864	5.55	1.6	0.	0.23843
33865	5.6	1.6	5.e-002	8.0562
33866	5.6	1.45	0.	0.33614
33867	5.55	1.5	0.	0.27009
33868	5.6	1.5	5.e-002	8.4353
33869	5.6	1.35	0.	0.38992
33870	5.55	1.4	0.	0.30684
33871	5.6	1.4	5.e-002	8.7809
33872	5.6	1.25	0.	0.46081
33873	5.55	1.3	0.	0.35131
33874	5.6	1.3	5.e-002	9.0928
33875	5.6	1.15	0.	0.56309
33876	5.55	1.2	0.	0.40834
33877	5.6	1.2	5.e-002	9.3709
33878	5.6	1.05	0.	0.73175
33879	5.55	1.1	0.	0.48773
33880	5.6	1.1	5.e-002	9.6155
33881	5.6	0.95	0.	1.0777
33882	5.55	1.	0.	0.61205
33883	5.6	1.	5.e-002	9.8265
33884	5.6	0.85	0.	2.1301
33885	5.55	0.9	0.	0.84624
33886	5.6	0.9	5.e-002	10.004
33887	5.6	0.75	0.	6.1553
33888	5.55	0.8	0.	1.4578
33889	5.6	0.8	5.e-002	10.149
33890	5.6	0.65	0.	12.113
33891	5.55	0.7	0.	3.8789
33892	5.6	0.7	5.e-002	10.26
33893	5.6	0.55	0.	16.58
33894	5.55	0.6	0.	8.848
33895	5.6	0.6	5.e-002	10.338
33896	5.6	0.45	0.	18.806
33897	5.55	0.5	0.	12.876
33898	5.6	0.5	5.e-002	10.384
33899	5.6	0.35	0.	18.625
33900	5.55	0.4	0.	14.807
33901	5.6	0.4	5.e-002	10.398
33902	5.6	0.25	0.	15.976
33903	5.55	0.3	0.	14.434
33904	5.6	0.3	5.e-002	10.382
33905	5.6	0.15	0.	10.893
33906	5.55	0.2	0.	11.695
33907	5.6	0.2	5.e-002	10.397
33908	5.55	0.1	0.	6.7016
33909	5.6	0.1	5.e-002	11.592
33910	5.6	5.e-002	0.	3.5537
33911	5.5	5.85	0.	7.4903
33912	5.45	5.9	0.	4.6495
33913	5.5	5.9	5.e-002	10.923
33914	5.5	5.95	0.	2.5486
33915	5.5	5.75	0.	10.147
33916	5.45	5.8	0.	7.1368
33917	5.5	5.8	5.e-002	9.8022
33918	5.5	5.65	0.	10.627
33919	5.45	5.7	0.	7.6413
33920	5.5	5.7	5.e-002	9.8052
33921	5.5	5.55	0.	8.9341
33922	5.45	5.6	0.	6.1206
33923	5.5	5.6	5.e-002	9.8364
33924	5.5	5.45	0.	5.4115
33925	5.45	5.5	0.	3.1691
33926	5.5	5.5	5.e-002	9.839
33927	5.5	5.35	0.	2.0438
33928	5.45	5.4	0.	1.2303
33929	5.5	5.4	5.e-002	9.8104
33930	5.5	5.25	0.	0.96723
33931	5.45	5.3	0.	0.70848
33932	5.5	5.3	5.e-002	9.75
33933	5.5	5.15	0.	0.64613
33934	5.45	5.2	0.	0.51847
33935	5.5	5.2	5.e-002	9.6576
33936	5.5	5.05	0.	0.49942
33937	5.45	5.1	0.	0.42032
33938	5.5	5.1	5.e-002	9.5331
33939	5.5	4.95	0.	0.41346
33940	5.45	5.	0.	0.35842
33941	5.5	5.	5.e-002	9.376
33942	5.5	4.85	0.	0.35498
33943	5.45	4.9	0.	0.31411
33944	5.5	4.9	5.e-002	9.1864
33945	5.5	4.75	0.	0.31102
33946	5.45	4.8	0.	0.27952
33947	5.5	4.8	5.e-002	8.964
33948	5.5	4.65	0.	0.27554
33949	5.45	4.7	0.	0.25073
33950	5.5	4.7	5.e-002	8.7087
33951	5.5	4.55	0.	0.24539
33952	5.45	4.6	0.	0.22565
33953	5.5	4.6	5.e-002	8.4204
33954	5.5	4.45	0.	0.21881
33955	5.45	4.5	0.	0.20305
33956	5.5	4.5	5.e-002	8.0991
33957	5.5	4.35	0.	0.19479
33958	5.45	4.4	0.	0.18225
33959	5.5	4.4	5.e-002	7.745
33960	5.5	4.25	0.	0.17276
33961	5.45	4.3	0.	0.16284
33962	5.5	4.3	5.e-002	7.3586
33963	5.5	4.15	0.	0.15244
33964	5.45	4.2	0.	0.14464
33965	5.5	4.2	5.e-002	6.9404
33966	5.5	4.05	0.	0.1337
33967	5.45	4.1	0.	0.12761
33968	5.5	4.1	5.e-002	6.4915
33969	5.5	3.95	0.	0.11655
33970	5.45	4.	0.	0.11177
33971	5.5	4.	5.e-002	6.0134
33972	5.5	3.85	0.	0.10103
33973	5.45	3.9	0.	9.722e-002
33974	5.5	3.9	5.e-002	5.5079
33975	5.5	3.75	0.	8.7205e-002
33976	5.45	3.8	0.	8.405e-002
33977	5.5	3.8	5.e-002	4.9775
33978	5.5	3.65	0.	7.5142e-002
33979	5.45	3.7	0.	7.2356e-002
33980	5.5	3.7	5.e-002	4.4253
33981	5.5	3.55	0.	6.4873e-002
33982	5.45	3.6	0.	6.2213e-002
33983	5.5	3.6	5.e-002	3.8548
33984	5.5	3.45	0.	5.6402e-002
33985	5.45	3.5	0.	5.3662e-002
33986	5.5	3.5	5.e-002	3.2706
33987	5.5	3.35	0.	4.9707e-002
33988	5.45	3.4	0.	4.6713e-002
33989	5.5	3.4	5.e-002	2.6791
33990	5.5	3.25	0.	4.4748e-002
33991	5.45	3.3	0.	4.1356e-002
33992	5.5	3.3	5.e-002	2.0902
33993	5.5	3.15	0.	4.1476e-002
33994	5.45	3.2	0.	3.7562e-002
33995	5.5	3.2	5.e-002	1.5245
33996	5.5	3.05	0.	3.9851e-002
33997	5.45	3.1	0.	3.5302e-002
33998	5.5	3.1	5.e-002	1.0402
33999	5.5	2.95	0.	3.9851e-002
34000	5.45	3.	0.	3.4551e-002
34001	5.5	3.	5.e-002	0.81578
34002	5.5	2.85	0.	4.1476e-002
34003	5.45	2.9	0.	3.5302e-002
34004	5.5	2.9	5.e-002	1.0403
34005	5.5	2.75	0.	4.4748e-002
34006	5.45	2.8	0.	3.7562e-002
34007	5.5	2.8	5.e-002	1.5246
34008	5.5	2.65	0.	4.9707e-002
34009	5.45	2.7	0.	4.1356e-002
34010	5.5	2.7	5.e-002	2.0902
34011	5.5	2.55	0.	5.6402e-002
34012	5.45	2.6	0.	4.6714e-002
34013	5.5	2.6	5.e-002	2.6791
34014	5.5	2.45	0.	6.4873e-002
34015	5.45	2.5	0.	5.3662e-002
34016	5.5	2.5	5.e-002	3.2707
34017	5.5	2.35	0.	7.5142e-002
34018	5.45	2.4	0.	6.2213e-002
34019	5.5	2.4	5.e-002	3.8548
34020	5.5	2.25	0.	8.7206e-002
34021	5.45	2.3	0.	7.2357e-002
34022	5.5	2.3	5.e-002	4.4253
34023	5.5	2.15	0.	0.10103
34024	5.45	2.2	0.	8.405e-002
34025	5.5	2.2	5.e-002	4.9776
34026	5.5	2.05	0.	0.11655
34027	5.45	2.1	0.	9.722e-002
34028	5.5	2.1	5.e-002	5.5079
34029	5.5	1.95	0.	0.1337
34030	5.45	2.	0.	0.11177
34031	5.5	2.	5.e-002	6.0134
34032	5.5	1.85	0.	0.15244
34033	5.45	1.9	0.	0.12761
34034	5.5	1.9	5.e-002	6.4916
34035	5.5	1.75	0.	0.17276
34036	5.45	1.8	0.	0.14464
34037	5.5	1.8	5.e-002	6.9405
34038	5.5	1.65	0.	0.19479
34039	5.45	1.7	0.	0.16284
34040	5.5	1.7	5.e-002	7.3587
34041	5.5	1.55	0.	0.21881
34042	5.45	1.6	0.	0.18225
34043	5.5	1.6	5.e-002	7.7452
34044	5.5	1.45	0.	0.24539
34045	5.45	1.5	0.	0.20306
34046	5.5	1.5	5.e-002	8.0993
34047	5.5	1.35	0.	0.27554
34048	5.45	1.4	0.	0.22565
34049	5.5	1.4	5.e-002	8.4206
34050	5.5	1.25	0.	0.31102
34051	5.45	1.3	0.	0.25073
34052	5.5	1.3	5.e-002	8.7089
34053	5.5	1.15	0.	0.35498
34054	5.45	1.2	0.	0.27952
34055	5.5	1.2	5.e-002	8.9642
34056	5.5	1.05	0.	0.41346
34057	5.45	1.1	0.	0.31411
34058	5.5	1.1	5.e-002	9.1867
34059	5.5	0.95	0.	0.49942
34060	5.45	1.	0.	0.35842
34061	5.5	1.	5.e-002	9.3764
34062	5.5	0.85	0.	0.64613
34063	5.45	0.9	0.	0.42032
34064	5.5	0.9	5.e-002	9.5334
34065	5.5	0.75	0.	0.96722
34066	5.45	0.8	0.	0.51847
34067	5.5	0.8	5.e-002	9.658
34068	5.5	0.65	0.	2.0438
34069	5.45	0.7	0.	0.70848
34070	5.5	0.7	5.e-002	9.7504
34071	5.5	0.55	0.	5.4115
34072	5.45	0.6	0.	1.2303
34073	5.5	0.6	5.e-002	9.8108
34074	5.5	0.45	0.	8.934
34075	5.45	0.5	0.	3.1691
34076	5.5	0.5	5.e-002	9.8395
34077	5.5	0.35	0.	10.627
34078	5.45	0.4	0.	6.1205
34079	5.5	0.4	5.e-002	9.8369
34080	5.5	0.25	0.	10.147
34081	5.45	0.3	0.	7.6412
34082	5.5	0.3	5.e-002	9.8058
34083	5.5	0.15	0.	7.4902
34084	5.45	0.2	0.	7.1368
34085	5.5	0.2	5.e-002	9.8028
34086	5.45	0.1	0.	4.6495
34087	5.5	0.1	5.e-002	10.923
34088	5.5	5.e-002	0.	2.5486
34089	5.4	5.85	0.	4.2956
34090	5.35	5.9	0.	2.7714
34091	5.4	5.9	5.e-002	10.348
34092	5.4	5.95	0.	1.6068
34093	5.4	5.75	0.	4.6603
34094	5.35	5.8	0.	2.9196
34095	5.4	5.8	5.e-002	9.2777
34096	5.4	5.65	0.	3.3222
34097	5.35	5.7	0.	1.7812
34098	5.4	5.7	5.e-002	9.2957
34099	5.4	5.55	0.	1.4405
34100	5.35	5.6	0.	0.80495
34101	5.4	5.6	5.e-002	9.3408
34102	5.4	5.45	0.	0.7303
34103	5.35	5.5	0.	0.50973
34104	5.4	5.5	5.e-002	9.3584
34105	5.4	5.35	0.	0.50928
34106	5.35	5.4	0.	0.39573
34107	5.4	5.4	5.e-002	9.3456
34108	5.4	5.25	0.	0.40723
34109	5.35	5.3	0.	0.33481
34110	5.4	5.3	5.e-002	9.302
34111	5.4	5.15	0.	0.34683
34112	5.35	5.2	0.	0.29523
34113	5.4	5.2	5.e-002	9.2275
34114	5.4	5.05	0.	0.30521
34115	5.35	5.1	0.	0.26606
34116	5.4	5.1	5.e-002	9.1218
34117	5.4	4.95	0.	0.27346
34118	5.35	5.	0.	0.24262
34119	5.4	5.	5.e-002	8.9845
34120	5.4	4.85	0.	0.24742
34121	5.35	4.9	0.	0.22255
34122	5.4	4.9	5.e-002	8.8156
34123	5.4	4.75	0.	0.22485
34124	5.35	4.8	0.	0.20458
34125	5.4	4.8	5.e-002	8.6148
34126	5.4	4.65	0.	0.20462
34127	5.35	4.7	0.	0.18794
34128	5.4	4.7	5.e-002	8.3821
34129	5.4	4.55	0.	0.18588
34130	5.35	4.6	0.	0.17218
34131	5.4	4.6	5.e-002	8.1175
34132	5.4	4.45	0.	0.16824
34133	5.35	4.5	0.	0.15704
34134	5.4	4.5	5.e-002	7.8211
34135	5.4	4.35	0.	0.15148
34136	5.35	4.4	0.	0.14238
34137	5.4	4.4	5.e-002	7.4932
34138	5.4	4.25	0.	0.13549
34139	5.35	4.3	0.	0.12817
34140	5.4	4.3	5.e-002	7.1343
34141	5.4	4.15	0.	0.12028
34142	5.35	4.2	0.	0.11445
34143	5.4	4.2	5.e-002	6.7454
34144	5.4	4.05	0.	0.10591
34145	5.35	4.1	0.	0.1013
34146	5.4	4.1	5.e-002	6.3277
34147	5.4	3.95	0.	9.2504e-002
34148	5.35	4.	0.	8.8839e-002
34149	5.4	4.	5.e-002	5.8831
34150	5.4	3.85	0.	8.0171e-002
34151	5.35	3.9	0.	7.7208e-002
34152	5.4	3.9	5.e-002	5.4138
34153	5.4	3.75	0.	6.903e-002
34154	5.35	3.8	0.	6.654e-002
34155	5.4	3.8	5.e-002	4.923
34156	5.4	3.65	0.	5.9181e-002
34157	5.35	3.7	0.	5.6953e-002
34158	5.4	3.7	5.e-002	4.4145
34159	5.4	3.55	0.	5.0699e-002
34160	5.35	3.6	0.	4.8545e-002
34161	5.4	3.6	5.e-002	3.8936
34162	5.4	3.45	0.	4.3628e-002
34163	5.35	3.5	0.	4.1384e-002
34164	5.4	3.5	5.e-002	3.3674
34165	5.4	3.35	0.	3.7988e-002
34166	5.35	3.4	0.	3.5513e-002
34167	5.4	3.4	5.e-002	2.8464
34168	5.4	3.25	0.	3.3776e-002
34169	5.35	3.3	0.	3.0949e-002
34170	5.4	3.3	5.e-002	2.3484
34171	5.4	3.15	0.	3.0981e-002
34172	5.35	3.2	0.	2.7697e-002
34173	5.4	3.2	5.e-002	1.905
34174	5.4	3.05	0.	2.9588e-002
34175	5.35	3.1	0.	2.575e-002
34176	5.4	3.1	5.e-002	1.5756
34177	5.4	2.95	0.	2.9588e-002
34178	5.35	3.	0.	2.5102e-002
34179	5.4	3.	5.e-002	1.4485
34180	5.4	2.85	0.	3.0981e-002
34181	5.35	2.9	0.	2.575e-002
34182	5.4	2.9	5.e-002	1.5757
34183	5.4	2.75	0.	3.3776e-002
34184	5.35	2.8	0.	2.7697e-002
34185	5.4	2.8	5.e-002	1.9051
34186	5.4	2.65	0.	3.7988e-002
34187	5.35	2.7	0.	3.0949e-002
34188	5.4	2.7	5.e-002	2.3485
34189	5.4	2.55	0.	4.3629e-002
34190	5.35	2.6	0.	3.5513e-002
34191	5.4	2.6	5.e-002	2.8465
34192	5.4	2.45	0.	5.0699e-002
34193	5.35	2.5	0.	4.1384e-002
34194	5.4	2.5	5.e-002	3.3675
34195	5.4	2.35	0.	5.9181e-002
34196	5.35	2.4	0.	4.8545e-002
34197	5.4	2.4	5.e-002	3.8937
34198	5.4	2.25	0.	6.903e-002
34199	5.35	2.3	0.	5.6954e-002
34200	5.4	2.3	5.e-002	4.4146
34201	5.4	2.15	0.	8.0171e-002
34202	5.35	2.2	0.	6.654e-002
34203	5.4	2.2	5.e-002	4.9231
34204	5.4	2.05	0.	9.2504e-002
34205	5.35	2.1	0.	7.7209e-002
34206	5.4	2.1	5.e-002	5.4139
34207	5.4	1.95	0.	0.10591
34208	5.35	2.	0.	8.8839e-002
34209	5.4	2.	5.e-002	5.8832
34210	5.4	1.85	0.	0.12028
34211	5.35	1.9	0.	0.1013
34212	5.4	1.9	5.e-002	6.3278
34213	5.4	1.75	0.	0.13549
34214	5.35	1.8	0.	0.11445
34215	5.4	1.8	5.e-002	6.7455
34216	5.4	1.65	0.	0.15148
34217	5.35	1.7	0.	0.12817
34218	5.4	1.7	5.e-002	7.1344
34219	5.4	1.55	0.	0.16824
34220	5.35	1.6	0.	0.14238
34221	5.4	1.6	5.e-002	7.4933
34222	5.4	1.45	0.	0.18588
34223	5.35	1.5	0.	0.15704
34224	5.4	1.5	5.e-002	7.8213
34225	5.4	1.35	0.	0.20462
34226	5.35	1.4	0.	0.17218
34227	5.4	1.4	5.e-002	8.1177
34228	5.4	1.25	0.	0.22485
34229	5.35	1.3	0.	0.18794
34230	5.4	1.3	5.e-002	8.3824
34231	5.4	1.15	0.	0.24742
34232	5.35	1.2	0.	0.20458
34233	5.4	1.2	5.e-002	8.6151
34234	5.4	1.05	0.	0.27346
34235	5.35	1.1	0.	0.22255
34236	5.4	1.1	5.e-002	8.8159
34237	5.4	0.95	0.	0.30521
34238	5.35	1.	0.	0.24262
34239	5.4	1.	5.e-002	8.9848
34240	5.4	0.85	0.	0.34683
34241	5.35	0.9	0.	0.26606
34242	5.4	0.9	5.e-002	9.1221
34243	5.4	0.75	0.	0.40723
34244	5.35	0.8	0.	0.29523
34245	5.4	0.8	5.e-002	9.2279
34246	5.4	0.65	0.	0.50927
34247	5.35	0.7	0.	0.33481
34248	5.4	0.7	5.e-002	9.3025
34249	5.4	0.55	0.	0.7303
34250	5.35	0.6	0.	0.39573
34251	5.4	0.6	5.e-002	9.346
34252	5.4	0.45	0.	1.4404
34253	5.35	0.5	0.	0.50973
34254	5.4	0.5	5.e-002	9.3588
34255	5.4	0.35	0.	3.3221
34256	5.35	0.4	0.	0.80494
34257	5.4	0.4	5.e-002	9.3414
34258	5.4	0.25	0.	4.6603
34259	5.35	0.3	0.	1.7812
34260	5.4	0.3	5.e-002	9.2963
34261	5.4	0.15	0.	4.2956
34262	5.35	0.2	0.	2.9196
34263	5.4	0.2	5.e-002	9.2783
34264	5.35	0.1	0.	2.7713
34265	5.4	0.1	5.e-002	10.348
34266	5.4	5.e-002	0.	1.6068
34267	5.3	5.85	0.	1.4927
34268	5.25	5.9	0.	1.2174
34269	5.3	5.9	5.e-002	9.8602
34270	5.3	5.95	0.	0.7354
34271	5.3	5.75	0.	0.7533
34272	5.25	5.8	0.	0.48942
34273	5.3	5.8	5.e-002	8.8178
34274	5.3	5.65	0.	0.45804
34275	5.25	5.7	0.	0.33144
34276	5.3	5.7	5.e-002	8.8479
34277	5.3	5.55	0.	0.35467
34278	5.25	5.6	0.	0.27734
34279	5.3	5.6	5.e-002	8.9054
34280	5.3	5.45	0.	0.30334
34281	5.25	5.5	0.	0.24873
34282	5.3	5.5	5.e-002	8.9362
34283	5.3	5.35	0.	0.2711
34284	5.25	5.4	0.	0.2295
34285	5.3	5.4	5.e-002	8.9379
34286	5.3	5.25	0.	0.24763
34287	5.25	5.3	0.	0.21449
34288	5.3	5.3	5.e-002	8.9099
34289	5.3	5.15	0.	0.22873
34290	5.25	5.2	0.	0.2016
34291	5.3	5.2	5.e-002	8.8521
34292	5.3	5.05	0.	0.21244
34293	5.25	5.1	0.	0.18984
34294	5.3	5.1	5.e-002	8.7641
34295	5.3	4.95	0.	0.19768
34296	5.25	5.	0.	0.17866
34297	5.3	5.	5.e-002	8.6457
34298	5.3	4.85	0.	0.18385
34299	5.25	4.9	0.	0.16775
34300	5.3	4.9	5.e-002	8.4967
34301	5.3	4.75	0.	0.17056
34302	5.25	4.8	0.	0.15693
34303	5.3	4.8	5.e-002	8.317
34304	5.3	4.65	0.	0.1576
34305	5.25	4.7	0.	0.14609
34306	5.3	4.7	5.e-002	8.1065
34307	5.3	4.55	0.	0.14485
34308	5.25	4.6	0.	0.13519
34309	5.3	4.6	5.e-002	7.8655
34310	5.3	4.45	0.	0.13225
34311	5.25	4.5	0.	0.12422
34312	5.3	4.5	5.e-002	7.594
34313	5.3	4.35	0.	0.11982
34314	5.25	4.4	0.	0.11321
34315	5.3	4.4	5.e-002	7.2926
34316	5.3	4.25	0.	0.10763
34317	5.25	4.3	0.	0.10225
34318	5.3	4.3	5.e-002	6.9621
34319	5.3	4.15	0.	9.5768e-002
34320	5.25	4.2	0.	9.1441e-002
34321	5.3	4.2	5.e-002	6.6036
34322	5.3	4.05	0.	8.4368e-002
34323	5.25	4.1	0.	8.0909e-002
34324	5.3	4.1	5.e-002	6.2189
34325	5.3	3.95	0.	7.3568e-002
34326	5.25	4.	0.	7.0796e-002
34327	5.3	4.	5.e-002	5.81
34328	5.3	3.85	0.	6.3509e-002
34329	5.25	3.9	0.	6.1245e-002
34330	5.3	3.9	5.e-002	5.3798
34331	5.3	3.75	0.	5.4321e-002
34332	5.25	3.8	0.	5.2395e-002
34333	5.3	3.8	5.e-002	4.9321
34334	5.3	3.65	0.	4.6117e-002
34335	5.25	3.7	0.	4.4368e-002
34336	5.3	3.7	5.e-002	4.4718
34337	5.3	3.55	0.	3.8986e-002
34338	5.25	3.6	0.	3.7266e-002
34339	5.3	3.6	5.e-002	4.0056
34340	5.3	3.45	0.	3.299e-002
34341	5.25	3.5	0.	3.117e-002
34342	5.3	3.5	5.e-002	3.5427
34343	5.3	3.35	0.	2.8171e-002
34344	5.25	3.4	0.	2.6136e-002
34345	5.3	3.4	5.e-002	3.0961
34346	5.3	3.25	0.	2.4551e-002
34347	5.25	3.3	0.	2.2199e-002
34348	5.3	3.3	5.e-002	2.6857
34349	5.3	3.15	0.	2.2136e-002
34350	5.25	3.2	0.	1.9379e-002
34351	5.3	3.2	5.e-002	2.3413
34352	5.3	3.05	0.	2.0929e-002
34353	5.25	3.1	0.	1.7684e-002
34354	5.3	3.1	5.e-002	2.1044
34355	5.3	2.95	0.	2.0929e-002
34356	5.25	3.	0.	1.7119e-002
34357	5.3	3.	5.e-002	2.0187
34358	5.3	2.85	0.	2.2136e-002
34359	5.25	2.9	0.	1.7684e-002
34360	5.3	2.9	5.e-002	2.1045
34361	5.3	2.75	0.	2.4551e-002
34362	5.25	2.8	0.	1.9379e-002
34363	5.3	2.8	5.e-002	2.3415
34364	5.3	2.65	0.	2.8172e-002
34365	5.25	2.7	0.	2.2199e-002
34366	5.3	2.7	5.e-002	2.6858
34367	5.3	2.55	0.	3.299e-002
34368	5.25	2.6	0.	2.6136e-002
34369	5.3	2.6	5.e-002	3.0962
34370	5.3	2.45	0.	3.8986e-002
34371	5.25	2.5	0.	3.1171e-002
34372	5.3	2.5	5.e-002	3.5428
34373	5.3	2.35	0.	4.6117e-002
34374	5.25	2.4	0.	3.7267e-002
34375	5.3	2.4	5.e-002	4.0058
34376	5.3	2.25	0.	5.4321e-002
34377	5.25	2.3	0.	4.4368e-002
34378	5.3	2.3	5.e-002	4.4719
34379	5.3	2.15	0.	6.3509e-002
34380	5.25	2.2	0.	5.2395e-002
34381	5.3	2.2	5.e-002	4.9322
34382	5.3	2.05	0.	7.3569e-002
34383	5.25	2.1	0.	6.1246e-002
34384	5.3	2.1	5.e-002	5.3799
34385	5.3	1.95	0.	8.4368e-002
34386	5.25	2.	0.	7.0796e-002
34387	5.3	2.	5.e-002	5.8101
34388	5.3	1.85	0.	9.5768e-002
34389	5.25	1.9	0.	8.091e-002
34390	5.3	1.9	5.e-002	6.219
34391	5.3	1.75	0.	0.10763
34392	5.25	1.8	0.	9.1442e-002
34393	5.3	1.8	5.e-002	6.6038
34394	5.3	1.65	0.	0.11982
34395	5.25	1.7	0.	0.10225
34396	5.3	1.7	5.e-002	6.9623
34397	5.3	1.55	0.	0.13225
34398	5.25	1.6	0.	0.11321
34399	5.3	1.6	5.e-002	7.2927
34400	5.3	1.45	0.	0.14485
34401	5.25	1.5	0.	0.12422
34402	5.3	1.5	5.e-002	7.5942
34403	5.3	1.35	0.	0.1576
34404	5.25	1.4	0.	0.13519
34405	5.3	1.4	5.e-002	7.8657
34406	5.3	1.25	0.	0.17056
34407	5.25	1.3	0.	0.1461
34408	5.3	1.3	5.e-002	8.1068
34409	5.3	1.15	0.	0.18385
34410	5.25	1.2	0.	0.15693
34411	5.3	1.2	5.e-002	8.3172
34412	5.3	1.05	0.	0.19768
34413	5.25	1.1	0.	0.16775
34414	5.3	1.1	5.e-002	8.497
34415	5.3	0.95	0.	0.21244
34416	5.25	1.	0.	0.17866
34417	5.3	1.	5.e-002	8.646
34418	5.3	0.85	0.	0.22873
34419	5.25	0.9	0.	0.18984
34420	5.3	0.9	5.e-002	8.7644
34421	5.3	0.75	0.	0.24763
34422	5.25	0.8	0.	0.20161
34423	5.3	0.8	5.e-002	8.8525
34424	5.3	0.65	0.	0.2711
34425	5.25	0.7	0.	0.21449
34426	5.3	0.7	5.e-002	8.9104
34427	5.3	0.55	0.	0.30334
34428	5.25	0.6	0.	0.2295
34429	5.3	0.6	5.e-002	8.9384
34430	5.3	0.45	0.	0.35467
34431	5.25	0.5	0.	0.24873
34432	5.3	0.5	5.e-002	8.9367
34433	5.3	0.35	0.	0.45804
34434	5.25	0.4	0.	0.27734
34435	5.3	0.4	5.e-002	8.9059
34436	5.3	0.25	0.	0.75329
34437	5.25	0.3	0.	0.33145
34438	5.3	0.3	5.e-002	8.8485
34439	5.3	0.15	0.	1.4927
34440	5.25	0.2	0.	0.48942
34441	5.3	0.2	5.e-002	8.8184
34442	5.25	0.1	0.	1.2174
34443	5.3	0.1	5.e-002	9.8607
34444	5.3	5.e-002	0.	0.7354
34445	5.2	5.85	0.	0.37672
34446	5.15	5.9	0.	0.53131
34447	5.2	5.9	5.e-002	9.4535
34448	5.2	5.95	0.	0.15498
34449	5.2	5.75	0.	0.24726
34450	5.15	5.8	0.	0.22969
34451	5.2	5.8	5.e-002	8.4172
34452	5.2	5.65	0.	0.21717
34453	5.15	5.7	0.	0.18926
34454	5.2	5.7	5.e-002	8.4567
34455	5.2	5.55	0.	0.20283
34456	5.15	5.6	0.	0.17695
34457	5.2	5.6	5.e-002	8.5249
34458	5.2	5.45	0.	0.19268
34459	5.15	5.5	0.	0.16943
34460	5.2	5.5	5.e-002	8.5675
34461	5.2	5.35	0.	0.18408
34462	5.15	5.4	0.	0.16351
34463	5.2	5.4	5.e-002	8.5823
34464	5.2	5.25	0.	0.176
34465	5.15	5.3	0.	0.15785
34466	5.2	5.3	5.e-002	8.5687
34467	5.2	5.15	0.	0.16801
34468	5.15	5.2	0.	0.15203
34469	5.2	5.2	5.e-002	8.5263
34470	5.2	5.05	0.	0.15991
34471	5.15	5.1	0.	0.14585
34472	5.2	5.1	5.e-002	8.4549
34473	5.2	4.95	0.	0.15158
34474	5.15	5.	0.	0.13924
34475	5.2	5.	5.e-002	8.3543
34476	5.2	4.85	0.	0.14298
34477	5.15	4.9	0.	0.1322
34478	5.2	4.9	5.e-002	8.2243
34479	5.2	4.75	0.	0.13408
34480	5.15	4.8	0.	0.12473
34481	5.2	4.8	5.e-002	8.0649
34482	5.2	4.65	0.	0.1249
34483	5.15	4.7	0.	0.11685
34484	5.2	4.7	5.e-002	7.8761
34485	5.2	4.55	0.	0.11546
34486	5.15	4.6	0.	0.10861
34487	5.2	4.6	5.e-002	7.6581
34488	5.2	4.45	0.	0.10584
34489	5.15	4.5	0.	0.10008
34490	5.2	4.5	5.e-002	7.4113
34491	5.2	4.35	0.	9.6109e-002
34492	5.15	4.4	0.	9.1324e-002
34493	5.2	4.4	5.e-002	7.1364
34494	5.2	4.25	0.	8.6377e-002
34495	5.15	4.3	0.	8.2459e-002
34496	5.2	4.3	5.e-002	6.8344
34497	5.2	4.15	0.	7.6768e-002
34498	5.15	4.2	0.	7.3599e-002
34499	5.2	4.2	5.e-002	6.5067
34500	5.2	4.05	0.	6.742e-002
34501	5.15	4.1	0.	6.4874e-002
34502	5.2	4.1	5.e-002	6.1554
34503	5.2	3.95	0.	5.8472e-002
34504	5.15	4.	0.	5.642e-002
34505	5.2	4.	5.e-002	5.783
34506	5.2	3.85	0.	5.0062e-002
34507	5.15	3.9	0.	4.8374e-002
34508	5.2	3.9	5.e-002	5.3927
34509	5.2	3.75	0.	4.2318e-002
34510	5.15	3.8	0.	4.0864e-002
34511	5.2	3.8	5.e-002	4.9891
34512	5.2	3.65	0.	3.535e-002
34513	5.15	3.7	0.	3.4007e-002
34514	5.2	3.7	5.e-002	4.5777
34515	5.2	3.55	0.	2.925e-002
34516	5.15	3.6	0.	2.7902e-002
34517	5.2	3.6	5.e-002	4.1661
34518	5.2	3.45	0.	2.4089e-002
34519	5.15	3.5	0.	2.263e-002
34520	5.2	3.5	5.e-002	3.7643
34521	5.2	3.35	0.	1.9916e-002
34522	5.15	3.4	0.	1.8252e-002
34523	5.2	3.4	5.e-002	3.3857
34524	5.2	3.25	0.	1.6765e-002
34525	5.15	3.3	0.	1.4812e-002
34526	5.2	3.3	5.e-002	3.0487
34527	5.2	3.15	0.	1.4656e-002
34528	5.15	3.2	0.	1.2339e-002
34529	5.2	3.2	5.e-002	2.777
34530	5.2	3.05	0.	1.3599e-002
34531	5.15	3.1	0.	1.0849e-002
34532	5.2	3.1	5.e-002	2.5977
34533	5.2	2.95	0.	1.36e-002
34534	5.15	3.	0.	1.0351e-002
34535	5.2	3.	5.e-002	2.5346
34536	5.2	2.85	0.	1.4656e-002
34537	5.15	2.9	0.	1.0849e-002
34538	5.2	2.9	5.e-002	2.5977
34539	5.2	2.75	0.	1.6765e-002
34540	5.15	2.8	0.	1.2339e-002
34541	5.2	2.8	5.e-002	2.7771
34542	5.2	2.65	0.	1.9916e-002
34543	5.15	2.7	0.	1.4812e-002
34544	5.2	2.7	5.e-002	3.0489
34545	5.2	2.55	0.	2.4089e-002
34546	5.15	2.6	0.	1.8252e-002
34547	5.2	2.6	5.e-002	3.3859
34548	5.2	2.45	0.	2.925e-002
34549	5.15	2.5	0.	2.263e-002
34550	5.2	2.5	5.e-002	3.7644
34551	5.2	2.35	0.	3.535e-002
34552	5.15	2.4	0.	2.7902e-002
34553	5.2	2.4	5.e-002	4.1663
34554	5.2	2.25	0.	4.2318e-002
34555	5.15	2.3	0.	3.4007e-002
34556	5.2	2.3	5.e-002	4.5779
34557	5.2	2.15	0.	5.0063e-002
34558	5.15	2.2	0.	4.0864e-002
34559	5.2	2.2	5.e-002	4.9892
34560	5.2	2.05	0.	5.8472e-002
34561	5.15	2.1	0.	4.8374e-002
34562	5.2	2.1	5.e-002	5.3929
34563	5.2	1.95	0.	6.742e-002
34564	5.15	2.	0.	5.642e-002
34565	5.2	2.	5.e-002	5.7831
34566	5.2	1.85	0.	7.6769e-002
34567	5.15	1.9	0.	6.4874e-002
34568	5.2	1.9	5.e-002	6.1556
34569	5.2	1.75	0.	8.6377e-002
34570	5.15	1.8	0.	7.3599e-002
34571	5.2	1.8	5.e-002	6.5069
34572	5.2	1.65	0.	9.6109e-002
34573	5.15	1.7	0.	8.2459e-002
34574	5.2	1.7	5.e-002	6.8346
34575	5.2	1.55	0.	0.10584
34576	5.15	1.6	0.	9.1324e-002
34577	5.2	1.6	5.e-002	7.1366
34578	5.2	1.45	0.	0.11546
34579	5.15	1.5	0.	0.10008
34580	5.2	1.5	5.e-002	7.4115
34581	5.2	1.35	0.	0.1249
34582	5.15	1.4	0.	0.10861
34583	5.2	1.4	5.e-002	7.6584
34584	5.2	1.25	0.	0.13408
34585	5.15	1.3	0.	0.11685
34586	5.2	1.3	5.e-002	7.8763
34587	5.2	1.15	0.	0.14298
34588	5.15	1.2	0.	0.12473
34589	5.2	1.2	5.e-002	8.0652
34590	5.2	1.05	0.	0.15158
34591	5.15	1.1	0.	0.13221
34592	5.2	1.1	5.e-002	8.2246
34593	5.2	0.95	0.	0.15991
34594	5.15	1.	0.	0.13925
34595	5.2	1.	5.e-002	8.3546
34596	5.2	0.85	0.	0.16802
34597	5.15	0.9	0.	0.14585
34598	5.2	0.9	5.e-002	8.4552
34599	5.2	0.75	0.	0.176
34600	5.15	0.8	0.	0.15203
34601	5.2	0.8	5.e-002	8.5267
34602	5.2	0.65	0.	0.18408
34603	5.15	0.7	0.	0.15785
34604	5.2	0.7	5.e-002	8.5691
34605	5.2	0.55	0.	0.19268
34606	5.15	0.6	0.	0.16352
34607	5.2	0.6	5.e-002	8.5828
34608	5.2	0.45	0.	0.20284
34609	5.15	0.5	0.	0.16943
34610	5.2	0.5	5.e-002	8.5681
34611	5.2	0.35	0.	0.21717
34612	5.15	0.4	0.	0.17695
34613	5.2	0.4	5.e-002	8.5253
34614	5.2	0.25	0.	0.24726
34615	5.15	0.3	0.	0.18926
34616	5.2	0.3	5.e-002	8.4573
34617	5.2	0.15	0.	0.37672
34618	5.15	0.2	0.	0.22969
34619	5.2	0.2	5.e-002	8.4178
34620	5.15	0.1	0.	0.53131
34621	5.2	0.1	5.e-002	9.4542
34622	5.2	5.e-002	0.	0.15498
34623	5.1	5.85	0.	0.25514
34624	5.05	5.9	0.	0.4133
34625	5.1	5.9	5.e-002	9.1219
34626	5.1	5.95	0.	0.14884
34627	5.1	5.75	0.	0.17363
34628	5.05	5.8	0.	0.18533
34629	5.1	5.8	5.e-002	8.0709
34630	5.1	5.65	0.	0.15531
34631	5.05	5.7	0.	0.14726
34632	5.1	5.7	5.e-002	8.1174
34633	5.1	5.55	0.	0.14917
34634	5.05	5.6	0.	0.13845
34635	5.1	5.6	5.e-002	8.1945
34636	5.1	5.45	0.	0.14483
34637	5.05	5.5	0.	0.1333
34638	5.1	5.5	5.e-002	8.2476
34639	5.1	5.35	0.	0.14093
34640	5.05	5.4	0.	0.12963
34641	5.1	5.4	5.e-002	8.2741
34642	5.1	5.25	0.	0.13677
34643	5.05	5.3	0.	0.12608
34644	5.1	5.3	5.e-002	8.2734
34645	5.1	5.15	0.	0.13216
34646	5.05	5.2	0.	0.12225
34647	5.1	5.2	5.e-002	8.2453
34648	5.1	5.05	0.	0.12702
34649	5.05	5.1	0.	0.11796
34650	5.1	5.1	5.e-002	8.1894
34651	5.1	4.95	0.	0.12133
34652	5.05	5.	0.	0.11315
34653	5.1	5.	5.e-002	8.1055
34654	5.1	4.85	0.	0.11512
34655	5.05	4.9	0.	0.10781
34656	5.1	4.9	5.e-002	7.9936
34657	5.1	4.75	0.	0.10842
34658	5.05	4.8	0.	0.10197
34659	5.1	4.8	5.e-002	7.8536
34660	5.1	4.65	0.	0.10128
34661	5.05	4.7	0.	9.5656e-002
34662	5.1	4.7	5.e-002	7.6857
34663	5.1	4.55	0.	9.3772e-002
34664	5.05	4.6	0.	8.8932e-002
34665	5.1	4.6	5.e-002	7.4901
34666	5.1	4.45	0.	8.5966e-002
34667	5.05	4.5	0.	8.1866e-002
34668	5.1	4.5	5.e-002	7.2674
34669	5.1	4.35	0.	7.7963e-002
34670	5.05	4.4	0.	7.4544e-002
34671	5.1	4.4	5.e-002	7.0185
34672	5.1	4.25	0.	6.9871e-002
34673	5.05	4.3	0.	6.7066e-002
34674	5.1	4.3	5.e-002	6.7446
34675	5.1	4.15	0.	6.1811e-002
34676	5.05	4.2	0.	5.9541e-002
34677	5.1	4.2	5.e-002	6.4474
34678	5.1	4.05	0.	5.3911e-002
34679	5.05	4.1	0.	5.2088e-002
34680	5.1	4.1	5.e-002	6.1291
34681	5.1	3.95	0.	4.6301e-002
34682	5.05	4.	0.	4.483e-002
34683	5.1	4.	5.e-002	5.7926
34684	5.1	3.85	0.	3.9106e-002
34685	5.05	3.9	0.	3.789e-002
34686	5.1	3.9	5.e-002	5.4416
34687	5.1	3.75	0.	3.2443e-002
34688	5.05	3.8	0.	3.1383e-002
34689	5.1	3.8	5.e-002	5.0809
34690	5.1	3.65	0.	2.6416e-002
34691	5.05	3.7	0.	2.5415e-002
34692	5.1	3.7	5.e-002	4.7165
34693	5.1	3.55	0.	2.1113e-002
34694	5.05	3.6	0.	2.0079e-002
34695	5.1	3.6	5.e-002	4.3561
34696	5.1	3.45	0.	1.6604e-002
34697	5.05	3.5	0.	1.5452e-002
34698	5.1	3.5	5.e-002	4.0096
34699	5.1	3.35	0.	1.2944e-002
34700	5.05	3.4	0.	1.1594e-002
34701	5.1	3.4	5.e-002	3.6895
34702	5.1	3.25	0.	1.017e-002
34703	5.05	3.3	0.	8.5518e-003
34704	5.1	3.3	5.e-002	3.4113
34705	5.1	3.15	0.	8.3075e-003
34706	5.05	3.2	0.	6.3582e-003
34707	5.1	3.2	5.e-002	3.1927
34708	5.1	3.05	0.	7.3729e-003
34709	5.05	3.1	0.	5.0343e-003
34710	5.1	3.1	5.e-002	3.0519
34711	5.1	2.95	0.	7.3729e-003
34712	5.05	3.	0.	4.5917e-003
34713	5.1	3.	5.e-002	3.0032
34714	5.1	2.85	0.	8.3075e-003
34715	5.05	2.9	0.	5.0343e-003
34716	5.1	2.9	5.e-002	3.0519
34717	5.1	2.75	0.	1.017e-002
34718	5.05	2.8	0.	6.3583e-003
34719	5.1	2.8	5.e-002	3.1928
34720	5.1	2.65	0.	1.2944e-002
34721	5.05	2.7	0.	8.5519e-003
34722	5.1	2.7	5.e-002	3.4115
34723	5.1	2.55	0.	1.6605e-002
34724	5.05	2.6	0.	1.1594e-002
34725	5.1	2.6	5.e-002	3.6897
34726	5.1	2.45	0.	2.1113e-002
34727	5.05	2.5	0.	1.5452e-002
34728	5.1	2.5	5.e-002	4.0098
34729	5.1	2.35	0.	2.6416e-002
34730	5.05	2.4	0.	2.0079e-002
34731	5.1	2.4	5.e-002	4.3562
34732	5.1	2.25	0.	3.2443e-002
34733	5.05	2.3	0.	2.5415e-002
34734	5.1	2.3	5.e-002	4.7167
34735	5.1	2.15	0.	3.9106e-002
34736	5.05	2.2	0.	3.1383e-002
34737	5.1	2.2	5.e-002	5.0811
34738	5.1	2.05	0.	4.6301e-002
34739	5.05	2.1	0.	3.789e-002
34740	5.1	2.1	5.e-002	5.4418
34741	5.1	1.95	0.	5.3911e-002
34742	5.05	2.	0.	4.4831e-002
34743	5.1	2.	5.e-002	5.7927
34744	5.1	1.85	0.	6.1811e-002
34745	5.05	1.9	0.	5.2088e-002
34746	5.1	1.9	5.e-002	6.1293
34747	5.1	1.75	0.	6.9871e-002
34748	5.05	1.8	0.	5.9541e-002
34749	5.1	1.8	5.e-002	6.4476
34750	5.1	1.65	0.	7.7963e-002
34751	5.05	1.7	0.	6.7066e-002
34752	5.1	1.7	5.e-002	6.7448
34753	5.1	1.55	0.	8.5967e-002
34754	5.05	1.6	0.	7.4545e-002
34755	5.1	1.6	5.e-002	7.0187
34756	5.1	1.45	0.	9.3773e-002
34757	5.05	1.5	0.	8.1867e-002
34758	5.1	1.5	5.e-002	7.2677
34759	5.1	1.35	0.	0.10129
34760	5.05	1.4	0.	8.8932e-002
34761	5.1	1.4	5.e-002	7.4903
34762	5.1	1.25	0.	0.10842
34763	5.05	1.3	0.	9.5656e-002
34764	5.1	1.3	5.e-002	7.686
34765	5.1	1.15	0.	0.11512
34766	5.05	1.2	0.	0.10197
34767	5.1	1.2	5.e-002	7.8539
34768	5.1	1.05	0.	0.12133
34769	5.05	1.1	0.	0.10781
34770	5.1	1.1	5.e-002	7.994
34771	5.1	0.95	0.	0.12702
34772	5.05	1.	0.	0.11315
34773	5.1	1.	5.e-002	8.1059
34774	5.1	0.85	0.	0.13216
34775	5.05	0.9	0.	0.11796
34776	5.1	0.9	5.e-002	8.1898
34777	5.1	0.75	0.	0.13677
34778	5.05	0.8	0.	0.12225
34779	5.1	0.8	5.e-002	8.2457
34780	5.1	0.65	0.	0.14093
34781	5.05	0.7	0.	0.12608
34782	5.1	0.7	5.e-002	8.2738
34783	5.1	0.55	0.	0.14483
34784	5.05	0.6	0.	0.12963
34785	5.1	0.6	5.e-002	8.2746
34786	5.1	0.45	0.	0.14917
34787	5.05	0.5	0.	0.1333
34788	5.1	0.5	5.e-002	8.2482
34789	5.1	0.35	0.	0.15531
34790	5.05	0.4	0.	0.13845
34791	5.1	0.4	5.e-002	8.195
34792	5.1	0.25	0.	0.17363
34793	5.05	0.3	0.	0.14726
34794	5.1	0.3	5.e-002	8.1179
34795	5.1	0.15	0.	0.25514
34796	5.05	0.2	0.	0.18533
34797	5.1	0.2	5.e-002	8.0716
34798	5.05	0.1	0.	0.4133
34799	5.1	0.1	5.e-002	9.1226
34800	5.1	5.e-002	0.	0.14884
34801	5.	5.85	0.	0.23809
34802	4.95	5.9	0.	0.40617
34803	5.	5.9	5.e-002	8.8594
34804	5.	5.95	0.	0.19294
34805	5.	5.75	0.	0.1515
34806	4.95	5.8	0.	0.1757
34807	5.	5.8	5.e-002	7.7744
34808	5.	5.65	0.	0.12982
34809	4.95	5.7	0.	0.12991
34810	5.	5.7	5.e-002	7.8253
34811	5.	5.55	0.	0.12349
34812	4.95	5.6	0.	0.11977
34813	5.	5.6	5.e-002	7.9098
34814	5.	5.45	0.	0.11937
34815	4.95	5.5	0.	0.11373
34816	5.	5.5	5.e-002	7.972
34817	5.	5.35	0.	0.11608
34818	4.95	5.4	0.	0.10982
34819	5.	5.4	5.e-002	8.009
34820	5.	5.25	0.	0.11275
34821	4.95	5.3	0.	0.10637
34822	5.	5.3	5.e-002	8.02
34823	5.	5.15	0.	0.1091
34824	4.95	5.2	0.	0.10289
34825	5.	5.2	5.e-002	8.0049
34826	5.	5.05	0.	0.105
34827	4.95	5.1	0.	9.9128e-002
34828	5.	5.1	5.e-002	7.9633
34829	5.	4.95	0.	0.10039
34830	4.95	5.	0.	9.4961e-002
34831	5.	5.	5.e-002	7.8952
34832	5.	4.85	0.	9.5295e-002
34833	4.95	4.9	0.	9.0351e-002
34834	5.	4.9	5.e-002	7.8004
34835	5.	4.75	0.	8.9721e-002
34836	4.95	4.8	0.	8.5298e-002
34837	5.	4.8	5.e-002	7.6789
34838	5.	4.65	0.	8.372e-002
34839	4.95	4.7	0.	7.9827e-002
34840	5.	4.7	5.e-002	7.5309
34841	5.	4.55	0.	7.735e-002
34842	4.95	4.6	0.	7.3984e-002
34843	5.	4.6	5.e-002	7.3568
34844	5.	4.45	0.	7.0686e-002
34845	4.95	4.5	0.	6.7829e-002
34846	5.	4.5	5.e-002	7.1574
34847	5.	4.35	0.	6.3817e-002
34848	4.95	4.4	0.	6.1438e-002
34849	5.	4.4	5.e-002	6.9337
34850	5.	4.25	0.	5.6843e-002
34851	4.95	4.3	0.	5.4897e-002
34852	5.	4.3	5.e-002	6.6871
34853	5.	4.15	0.	4.987e-002
34854	4.95	4.2	0.	4.8305e-002
34855	5.	4.2	5.e-002	6.4193
34856	5.	4.05	0.	4.3012e-002
34857	4.95	4.1	0.	4.1764e-002
34858	5.	4.1	5.e-002	6.133
34859	5.	3.95	0.	3.6384e-002
34860	4.95	4.	0.	3.5384e-002
34861	5.	4.	5.e-002	5.8311
34862	5.	3.85	0.	3.0097e-002
34863	4.95	3.9	0.	2.9269e-002
34864	5.	3.9	5.e-002	5.5176
34865	5.	3.75	0.	2.4256e-002
34866	4.95	3.8	0.	2.3523e-002
34867	5.	3.8	5.e-002	5.1974
34868	5.	3.65	0.	1.8954e-002
34869	4.95	3.7	0.	1.8241e-002
34870	5.	3.7	5.e-002	4.8765
34871	5.	3.55	0.	1.4273e-002
34872	4.95	3.6	0.	1.3504e-002
34873	5.	3.6	5.e-002	4.5625
34874	5.	3.45	0.	1.0281e-002
34875	4.95	3.5	0.	9.3857e-003
34876	5.	3.5	5.e-002	4.2645
34877	5.	3.35	0.	7.0295e-003
34878	4.95	3.4	0.	5.9434e-003
34879	5.	3.4	5.e-002	3.9933
34880	5.	3.25	0.	4.5592e-003
34881	4.95	3.3	0.	3.2226e-003
34882	5.	3.3	5.e-002	3.7617
34883	5.	3.15	0.	2.8979e-003
34884	4.95	3.2	0.	1.2569e-003
34885	5.	3.2	5.e-002	3.583
34886	5.	3.05	0.	2.0631e-003
34887	4.95	3.1	0.	6.8966e-005
34888	5.	3.1	5.e-002	3.4695
34889	5.	2.95	0.	2.063e-003
34890	4.95	3.	0.	-3.2854e-004
34891	5.	3.	5.e-002	3.4306
34892	5.	2.85	0.	2.8979e-003
34893	4.95	2.9	0.	6.8892e-005
34894	5.	2.9	5.e-002	3.4696
34895	5.	2.75	0.	4.5593e-003
34896	4.95	2.8	0.	1.257e-003
34897	5.	2.8	5.e-002	3.583
34898	5.	2.65	0.	7.0296e-003
34899	4.95	2.7	0.	3.2228e-003
34900	5.	2.7	5.e-002	3.7619
34901	5.	2.55	0.	1.0281e-002
34902	4.95	2.6	0.	5.9435e-003
34903	5.	2.6	5.e-002	3.9935
34904	5.	2.45	0.	1.4274e-002
34905	4.95	2.5	0.	9.3859e-003
34906	5.	2.5	5.e-002	4.2646
34907	5.	2.35	0.	1.8954e-002
34908	4.95	2.4	0.	1.3504e-002
34909	5.	2.4	5.e-002	4.5627
34910	5.	2.25	0.	2.4256e-002
34911	4.95	2.3	0.	1.8241e-002
34912	5.	2.3	5.e-002	4.8767
34913	5.	2.15	0.	3.0097e-002
34914	4.95	2.2	0.	2.3524e-002
34915	5.	2.2	5.e-002	5.1975
34916	5.	2.05	0.	3.6384e-002
34917	4.95	2.1	0.	2.927e-002
34918	5.	2.1	5.e-002	5.5178
34919	5.	1.95	0.	4.3012e-002
34920	4.95	2.	0.	3.5384e-002
34921	5.	2.	5.e-002	5.8313
34922	5.	1.85	0.	4.987e-002
34923	4.95	1.9	0.	4.1765e-002
34924	5.	1.9	5.e-002	6.1332
34925	5.	1.75	0.	5.6843e-002
34926	4.95	1.8	0.	4.8305e-002
34927	5.	1.8	5.e-002	6.4195
34928	5.	1.65	0.	6.3818e-002
34929	4.95	1.7	0.	5.4898e-002
34930	5.	1.7	5.e-002	6.6873
34931	5.	1.55	0.	7.0687e-002
34932	4.95	1.6	0.	6.1438e-002
34933	5.	1.6	5.e-002	6.934
34934	5.	1.45	0.	7.735e-002
34935	4.95	1.5	0.	6.783e-002
34936	5.	1.5	5.e-002	7.1577
34937	5.	1.35	0.	8.372e-002
34938	4.95	1.4	0.	7.3985e-002
34939	5.	1.4	5.e-002	7.3571
34940	5.	1.25	0.	8.9722e-002
34941	4.95	1.3	0.	7.9828e-002
34942	5.	1.3	5.e-002	7.5312
34943	5.	1.15	0.	9.5295e-002
34944	4.95	1.2	0.	8.5299e-002
34945	5.	1.2	5.e-002	7.6792
34946	5.	1.05	0.	0.1004
34947	4.95	1.1	0.	9.0352e-002
34948	5.	1.1	5.e-002	7.8007
34949	5.	0.95	0.	0.105
34950	4.95	1.	0.	9.4961e-002
34951	5.	1.	5.e-002	7.8956
34952	5.	0.85	0.	0.1091
34953	4.95	0.9	0.	9.9129e-002
34954	5.	0.9	5.e-002	7.9638
34955	5.	0.75	0.	0.11275
34956	4.95	0.8	0.	0.1029
34957	5.	0.8	5.e-002	8.0053
34958	5.	0.65	0.	0.11608
34959	4.95	0.7	0.	0.10637
34960	5.	0.7	5.e-002	8.0204
34961	5.	0.55	0.	0.11937
34962	4.95	0.6	0.	0.10982
34963	5.	0.6	5.e-002	8.0094
34964	5.	0.45	0.	0.12349
34965	4.95	0.5	0.	0.11373
34966	5.	0.5	5.e-002	7.9726
34967	5.	0.35	0.	0.12983
34968	4.95	0.4	0.	0.11977
34969	5.	0.4	5.e-002	7.9104
34970	5.	0.25	0.	0.1515
34971	4.95	0.3	0.	0.12991
34972	5.	0.3	5.e-002	7.8258
34973	5.	0.15	0.	0.2381
34974	4.95	0.2	0.	0.1757
34975	5.	0.2	5.e-002	7.775
34976	4.95	0.1	0.	0.40617
34977	5.	0.1	5.e-002	8.8601
34978	5.	5.e-002	0.	0.19294
34979	4.9	5.85	0.	0.24445
34980	4.85	5.9	0.	0.42898
34981	4.9	5.9	5.e-002	8.6606
34982	4.9	5.95	0.	0.24137
34983	4.9	5.75	0.	0.1448
34984	4.85	5.8	0.	0.17762
34985	4.9	5.8	5.e-002	7.523
34986	4.9	5.65	0.	0.11756
34987	4.85	5.7	0.	0.12227
34988	4.9	5.7	5.e-002	7.5762
34989	4.9	5.55	0.	0.10949
34990	4.85	5.6	0.	0.10986
34991	4.9	5.6	5.e-002	7.6669
34992	4.9	5.45	0.	0.1043
34993	4.85	5.5	0.	0.10218
34994	4.9	5.5	5.e-002	7.7369
34995	4.9	5.35	0.	0.10048
34996	4.85	5.4	0.	9.7348e-002
34997	4.9	5.4	5.e-002	7.783
34998	4.9	5.25	0.	9.6964e-002
34999	4.85	5.3	0.	9.3354e-002
35000	4.9	5.3	5.e-002	7.8045
35001	4.9	5.15	0.	9.3382e-002
35002	4.85	5.2	0.	8.9632e-002
35003	4.9	5.2	5.e-002	7.8014
35004	4.9	5.05	0.	8.9525e-002
35005	4.85	5.1	0.	8.5829e-002
35006	4.9	5.1	5.e-002	7.7732
35007	4.9	4.95	0.	8.5306e-002
35008	4.85	5.	0.	8.1789e-002
35009	4.9	5.	5.e-002	7.7197
35010	4.9	4.85	0.	8.0692e-002
35011	4.85	4.9	0.	7.7434e-002
35012	4.9	4.9	5.e-002	7.6408
35013	4.9	4.75	0.	7.5689e-002
35014	4.85	4.8	0.	7.274e-002
35015	4.9	4.8	5.e-002	7.5368
35016	4.9	4.65	0.	7.0324e-002
35017	4.85	4.7	0.	6.7713e-002
35018	4.9	4.7	5.e-002	7.4077
35019	4.9	4.55	0.	6.4645e-002
35020	4.85	4.6	0.	6.2385e-002
35021	4.9	4.6	5.e-002	7.2542
35022	4.9	4.45	0.	5.8714e-002
35023	4.85	4.5	0.	5.6802e-002
35024	4.9	4.5	5.e-002	7.0771
35025	4.9	4.35	0.	5.2607e-002
35026	4.85	4.4	0.	5.1027e-002
35027	4.9	4.4	5.e-002	6.8775
35028	4.9	4.25	0.	4.6409e-002
35029	4.85	4.3	0.	4.5133e-002
35030	4.9	4.3	5.e-002	6.6569
35031	4.9	4.15	0.	4.0213e-002
35032	4.85	4.2	0.	3.9205e-002
35033	4.9	4.2	5.e-002	6.4173
35034	4.9	4.05	0.	3.4118e-002
35035	4.85	4.1	0.	3.3331e-002
35036	4.9	4.1	5.e-002	6.1613
35037	4.9	3.95	0.	2.8223e-002
35038	4.85	4.	0.	2.7603e-002
35039	4.9	4.	5.e-002	5.8921
35040	4.9	3.85	0.	2.2625e-002
35041	4.85	3.9	0.	2.2115e-002
35042	4.9	3.9	5.e-002	5.6136
35043	4.9	3.75	0.	1.7416e-002
35044	4.85	3.8	0.	1.6955e-002
35045	4.9	3.8	5.e-002	5.3308
35046	4.9	3.65	0.	1.268e-002
35047	4.85	3.7	0.	1.2207e-002
35048	4.9	3.7	5.e-002	5.0494
35049	4.9	3.55	0.	8.4913e-003
35050	4.85	3.6	0.	7.9445e-003
35051	4.9	3.6	5.e-002	4.7765
35052	4.9	3.45	0.	4.911e-003
35053	4.85	3.5	0.	4.2327e-003
35054	4.9	3.5	5.e-002	4.5203
35055	4.9	3.35	0.	1.9898e-003
35056	4.85	3.4	0.	1.1256e-003
35057	4.9	3.4	5.e-002	4.2898
35058	4.9	3.25	0.	-2.3324e-004
35059	4.85	3.3	0.	-1.3336e-003
35060	4.9	3.3	5.e-002	4.0955
35061	4.9	3.15	0.	-1.7302e-003
35062	4.85	3.2	0.	-3.1125e-003
35063	4.9	3.2	5.e-002	3.9473
35064	4.9	3.05	0.	-2.4831e-003
35065	4.85	3.1	0.	-4.1885e-003
35066	4.9	3.1	5.e-002	3.8542
35067	4.9	2.95	0.	-2.4831e-003
35068	4.85	3.	0.	-4.5487e-003
35069	4.9	3.	5.e-002	3.8225
35070	4.9	2.85	0.	-1.7302e-003
35071	4.85	2.9	0.	-4.1885e-003
35072	4.9	2.9	5.e-002	3.8542
35073	4.9	2.75	0.	-2.332e-004
35074	4.85	2.8	0.	-3.1124e-003
35075	4.9	2.8	5.e-002	3.9474
35076	4.9	2.65	0.	1.99e-003
35077	4.85	2.7	0.	-1.3335e-003
35078	4.9	2.7	5.e-002	4.0956
35079	4.9	2.55	0.	4.9111e-003
35080	4.85	2.6	0.	1.1258e-003
35081	4.9	2.6	5.e-002	4.29
35082	4.9	2.45	0.	8.4914e-003
35083	4.85	2.5	0.	4.2328e-003
35084	4.9	2.5	5.e-002	4.5204
35085	4.9	2.35	0.	1.2681e-002
35086	4.85	2.4	0.	7.9446e-003
35087	4.9	2.4	5.e-002	4.7767
35088	4.9	2.25	0.	1.7416e-002
35089	4.85	2.3	0.	1.2207e-002
35090	4.9	2.3	5.e-002	5.0496
35091	4.9	2.15	0.	2.2625e-002
35092	4.85	2.2	0.	1.6956e-002
35093	4.9	2.2	5.e-002	5.331
35094	4.9	2.05	0.	2.8223e-002
35095	4.85	2.1	0.	2.2116e-002
35096	4.9	2.1	5.e-002	5.6139
35097	4.9	1.95	0.	3.4118e-002
35098	4.85	2.	0.	2.7604e-002
35099	4.9	2.	5.e-002	5.8923
35100	4.9	1.85	0.	4.0213e-002
35101	4.85	1.9	0.	3.3331e-002
35102	4.9	1.9	5.e-002	6.1615
35103	4.9	1.75	0.	4.6409e-002
35104	4.85	1.8	0.	3.9205e-002
35105	4.9	1.8	5.e-002	6.4175
35106	4.9	1.65	0.	5.2607e-002
35107	4.85	1.7	0.	4.5134e-002
35108	4.9	1.7	5.e-002	6.6571
35109	4.9	1.55	0.	5.8715e-002
35110	4.85	1.6	0.	5.1027e-002
35111	4.9	1.6	5.e-002	6.8778
35112	4.9	1.45	0.	6.4645e-002
35113	4.85	1.5	0.	5.6802e-002
35114	4.9	1.5	5.e-002	7.0774
35115	4.9	1.35	0.	7.0324e-002
35116	4.85	1.4	0.	6.2385e-002
35117	4.9	1.4	5.e-002	7.2545
35118	4.9	1.25	0.	7.5689e-002
35119	4.85	1.3	0.	6.7714e-002
35120	4.9	1.3	5.e-002	7.408
35121	4.9	1.15	0.	8.0693e-002
35122	4.85	1.2	0.	7.2741e-002
35123	4.9	1.2	5.e-002	7.537
35124	4.9	1.05	0.	8.5307e-002
35125	4.85	1.1	0.	7.7435e-002
35126	4.9	1.1	5.e-002	7.6412
35127	4.9	0.95	0.	8.9526e-002
35128	4.85	1.	0.	8.179e-002
35129	4.9	1.	5.e-002	7.72
35130	4.9	0.85	0.	9.3383e-002
35131	4.85	0.9	0.	8.583e-002
35132	4.9	0.9	5.e-002	7.7736
35133	4.9	0.75	0.	9.6965e-002
35134	4.85	0.8	0.	8.9633e-002
35135	4.9	0.8	5.e-002	7.8019
35136	4.9	0.65	0.	0.10048
35137	4.85	0.7	0.	9.3355e-002
35138	4.9	0.7	5.e-002	7.8051
35139	4.9	0.55	0.	0.1043
35140	4.85	0.6	0.	9.7349e-002
35141	4.9	0.6	5.e-002	7.7834
35142	4.9	0.45	0.	0.10949
35143	4.85	0.5	0.	0.10218
35144	4.9	0.5	5.e-002	7.7374
35145	4.9	0.35	0.	0.11756
35146	4.85	0.4	0.	0.10986
35147	4.9	0.4	5.e-002	7.6675
35148	4.9	0.25	0.	0.1448
35149	4.85	0.3	0.	0.12227
35150	4.9	0.3	5.e-002	7.5767
35151	4.9	0.15	0.	0.24445
35152	4.85	0.2	0.	0.17762
35153	4.9	0.2	5.e-002	7.5236
35154	4.85	0.1	0.	0.42898
35155	4.9	0.1	5.e-002	8.6612
35156	4.9	5.e-002	0.	0.24137
35157	4.8	5.85	0.	0.25974
35158	4.75	5.9	0.	0.46446
35159	4.8	5.9	5.e-002	8.5198
35160	4.8	5.95	0.	0.29021
35161	4.8	5.75	0.	0.14476
35162	4.75	5.8	0.	0.18482
35163	4.8	5.8	5.e-002	7.3127
35164	4.8	5.65	0.	0.11156
35165	4.75	5.7	0.	0.11949
35166	4.8	5.7	5.e-002	7.3661
35167	4.8	5.55	0.	0.10144
35168	4.75	5.6	0.	0.10459
35169	4.8	5.6	5.e-002	7.4618
35170	4.8	5.45	0.	9.4841e-002
35171	4.75	5.5	0.	9.5113e-002
35172	4.8	5.5	5.e-002	7.5384
35173	4.8	5.35	0.	9.0149e-002
35174	4.75	5.4	0.	8.9157e-002
35175	4.8	5.4	5.e-002	7.5926
35176	4.8	5.25	0.	8.6096e-002
35177	4.75	5.3	0.	8.4405e-002
35178	4.8	5.3	5.e-002	7.6237
35179	4.8	5.15	0.	8.2222e-002
35180	4.75	5.2	0.	8.0201e-002
35181	4.8	5.2	5.e-002	7.6314
35182	4.8	5.05	0.	7.8262e-002
35183	4.75	5.1	0.	7.612e-002
35184	4.8	5.1	5.e-002	7.6154
35185	4.8	4.95	0.	7.4087e-002
35186	4.75	5.	0.	7.1964e-002
35187	4.8	5.	5.e-002	7.5755
35188	4.8	4.85	0.	6.964e-002
35189	4.75	4.9	0.	6.7625e-002
35190	4.8	4.9	5.e-002	7.5117
35191	4.8	4.75	0.	6.4903e-002
35192	4.75	4.8	0.	6.3056e-002
35193	4.8	4.8	5.e-002	7.424
35194	4.8	4.65	0.	5.9888e-002
35195	4.75	4.7	0.	5.8247e-002
35196	4.8	4.7	5.e-002	7.3129
35197	4.8	4.55	0.	5.4629e-002
35198	4.75	4.6	0.	5.3214e-002
35199	4.8	4.6	5.e-002	7.1789
35200	4.8	4.45	0.	4.9175e-002
35201	4.75	4.5	0.	4.7992e-002
35202	4.8	4.5	5.e-002	7.0229
35203	4.8	4.35	0.	4.3588e-002
35204	4.75	4.4	0.	4.2631e-002
35205	4.8	4.4	5.e-002	6.846
35206	4.8	4.25	0.	3.7939e-002
35207	4.75	4.3	0.	3.7192e-002
35208	4.8	4.3	5.e-002	6.6501
35209	4.8	4.15	0.	3.2309e-002
35210	4.75	4.2	0.	3.1745e-002
35211	4.8	4.2	5.e-002	6.437
35212	4.8	4.05	0.	2.6782e-002
35213	4.75	4.1	0.	2.6365e-002
35214	4.8	4.1	5.e-002	6.2095
35215	4.8	3.95	0.	2.1442e-002
35216	4.75	4.	0.	2.1132e-002
35217	4.8	4.	5.e-002	5.9708
35218	4.8	3.85	0.	1.6375e-002
35219	4.75	3.9	0.	1.6126e-002
35220	4.8	3.9	5.e-002	5.7246
35221	4.8	3.75	0.	1.166e-002
35222	4.75	3.8	0.	1.1424e-002
35223	4.8	3.8	5.e-002	5.4758
35224	4.8	3.65	0.	7.3714e-003
35225	4.75	3.7	0.	7.0982e-003
35226	4.8	3.7	5.e-002	5.2297
35227	4.8	3.55	0.	3.5753e-003
35228	4.75	3.6	0.	3.2147e-003
35229	4.8	3.6	5.e-002	4.9928
35230	4.8	3.45	0.	3.2776e-004
35231	4.75	3.5	0.	-1.6841e-004
35232	4.8	3.5	5.e-002	4.7722
35233	4.8	3.35	0.	-2.3244e-003
35234	4.75	3.4	0.	-3.002e-003
35235	4.8	3.4	5.e-002	4.5758
35236	4.8	3.25	0.	-4.3447e-003
35237	4.75	3.3	0.	-5.2463e-003
35238	4.8	3.3	5.e-002	4.4116
35239	4.8	3.15	0.	-5.7061e-003
35240	4.75	3.2	0.	-6.8707e-003
35241	4.8	3.2	5.e-002	4.2875
35242	4.8	3.05	0.	-6.3913e-003
35243	4.75	3.1	0.	-7.8538e-003
35244	4.8	3.1	5.e-002	4.21
35245	4.8	2.95	0.	-6.3913e-003
35246	4.75	3.	0.	-8.183e-003
35247	4.8	3.	5.e-002	4.1837
35248	4.8	2.85	0.	-5.7061e-003
35249	4.75	2.9	0.	-7.8538e-003
35250	4.8	2.9	5.e-002	4.21
35251	4.8	2.75	0.	-4.3446e-003
35252	4.75	2.8	0.	-6.8707e-003
35253	4.8	2.8	5.e-002	4.2875
35254	4.8	2.65	0.	-2.3243e-003
35255	4.75	2.7	0.	-5.2461e-003
35256	4.8	2.7	5.e-002	4.4117
35257	4.8	2.55	0.	3.2792e-004
35258	4.75	2.6	0.	-3.0019e-003
35259	4.8	2.6	5.e-002	4.5759
35260	4.8	2.45	0.	3.5754e-003
35261	4.75	2.5	0.	-1.6822e-004
35262	4.8	2.5	5.e-002	4.7724
35263	4.8	2.35	0.	7.3716e-003
35264	4.75	2.4	0.	3.2149e-003
35265	4.8	2.4	5.e-002	4.993
35266	4.8	2.25	0.	1.166e-002
35267	4.75	2.3	0.	7.0985e-003
35268	4.8	2.3	5.e-002	5.2299
35269	4.8	2.15	0.	1.6375e-002
35270	4.75	2.2	0.	1.1424e-002
35271	4.8	2.2	5.e-002	5.476
35272	4.8	2.05	0.	2.1442e-002
35273	4.75	2.1	0.	1.6127e-002
35274	4.8	2.1	5.e-002	5.7248
35275	4.8	1.95	0.	2.6782e-002
35276	4.75	2.	0.	2.1133e-002
35277	4.8	2.	5.e-002	5.971
35278	4.8	1.85	0.	3.231e-002
35279	4.75	1.9	0.	2.6365e-002
35280	4.8	1.9	5.e-002	6.2098
35281	4.8	1.75	0.	3.794e-002
35282	4.75	1.8	0.	3.1745e-002
35283	4.8	1.8	5.e-002	6.4373
35284	4.8	1.65	0.	4.3588e-002
35285	4.75	1.7	0.	3.7192e-002
35286	4.8	1.7	5.e-002	6.6504
35287	4.8	1.55	0.	4.9176e-002
35288	4.75	1.6	0.	4.2632e-002
35289	4.8	1.6	5.e-002	6.8463
35290	4.8	1.45	0.	5.463e-002
35291	4.75	1.5	0.	4.7993e-002
35292	4.8	1.5	5.e-002	7.0232
35293	4.8	1.35	0.	5.9889e-002
35294	4.75	1.4	0.	5.3215e-002
35295	4.8	1.4	5.e-002	7.1792
35296	4.8	1.25	0.	6.4903e-002
35297	4.75	1.3	0.	5.8248e-002
35298	4.8	1.3	5.e-002	7.3132
35299	4.8	1.15	0.	6.9641e-002
35300	4.75	1.2	0.	6.3056e-002
35301	4.8	1.2	5.e-002	7.4244
35302	4.8	1.05	0.	7.4088e-002
35303	4.75	1.1	0.	6.7625e-002
35304	4.8	1.1	5.e-002	7.512
35305	4.8	0.95	0.	7.8262e-002
35306	4.75	1.	0.	7.1965e-002
35307	4.8	1.	5.e-002	7.5758
35308	4.8	0.85	0.	8.2223e-002
35309	4.75	0.9	0.	7.6121e-002
35310	4.8	0.9	5.e-002	7.6158
35311	4.8	0.75	0.	8.6097e-002
35312	4.75	0.8	0.	8.0202e-002
35313	4.8	0.8	5.e-002	7.6319
35314	4.8	0.65	0.	9.015e-002
35315	4.75	0.7	0.	8.4406e-002
35316	4.8	0.7	5.e-002	7.6242
35317	4.8	0.55	0.	9.4842e-002
35318	4.75	0.6	0.	8.9158e-002
35319	4.8	0.6	5.e-002	7.5931
35320	4.8	0.45	0.	0.10144
35321	4.75	0.5	0.	9.5114e-002
35322	4.8	0.5	5.e-002	7.539
35323	4.8	0.35	0.	0.11156
35324	4.75	0.4	0.	0.10459
35325	4.8	0.4	5.e-002	7.4624
35326	4.8	0.25	0.	0.14476
35327	4.75	0.3	0.	0.11949
35328	4.8	0.3	5.e-002	7.3667
35329	4.8	0.15	0.	0.25974
35330	4.75	0.2	0.	0.18482
35331	4.8	0.2	5.e-002	7.3133
35332	4.75	0.1	0.	0.46446
35333	4.8	0.1	5.e-002	8.5205
35334	4.8	5.e-002	0.	0.29021
35335	4.7	5.85	0.	0.27956
35336	4.65	5.9	0.	0.50726
35337	4.7	5.9	5.e-002	8.4323
35338	4.7	5.95	0.	0.33866
35339	4.7	5.75	0.	0.14824
35340	4.65	5.8	0.	0.19497
35341	4.7	5.8	5.e-002	7.1396
35342	4.7	5.65	0.	0.10906
35343	4.65	5.7	0.	0.11953
35344	4.7	5.7	5.e-002	7.1916
35345	4.7	5.55	0.	9.6835e-002
35346	4.65	5.6	0.	0.1021
35347	4.7	5.6	5.e-002	7.2912
35348	4.7	5.45	0.	8.8766e-002
35349	4.65	5.5	0.	9.0805e-002
35350	4.7	5.5	5.e-002	7.3734
35351	4.7	5.35	0.	8.31e-002
35352	4.65	5.4	0.	8.3683e-002
35353	4.7	5.4	5.e-002	7.4348
35354	4.7	5.25	0.	7.8376e-002
35355	4.65	5.3	0.	7.8101e-002
35356	4.7	5.3	5.e-002	7.4743
35357	4.7	5.15	0.	7.4061e-002
35358	4.65	5.2	0.	7.3323e-002
35359	4.7	5.2	5.e-002	7.4919
35360	4.7	5.05	0.	6.9835e-002
35361	4.65	5.1	0.	6.8857e-002
35362	4.7	5.1	5.e-002	7.4871
35363	4.7	4.95	0.	6.5538e-002
35364	4.65	5.	0.	6.4466e-002
35365	4.7	5.	5.e-002	7.4598
35366	4.7	4.85	0.	6.1086e-002
35367	4.65	4.9	0.	6.0016e-002
35368	4.7	4.9	5.e-002	7.41
35369	4.7	4.75	0.	5.6444e-002
35370	4.65	4.8	0.	5.5441e-002
35371	4.7	4.8	5.e-002	7.3377
35372	4.7	4.65	0.	5.1609e-002
35373	4.65	4.7	0.	5.0717e-002
35374	4.7	4.7	5.e-002	7.2434
35375	4.7	4.55	0.	4.6602e-002
35376	4.65	4.6	0.	4.5845e-002
35377	4.7	4.6	5.e-002	7.1278
35378	4.7	4.45	0.	4.146e-002
35379	4.65	4.5	0.	4.0849e-002
35380	4.7	4.5	5.e-002	6.9917
35381	4.7	4.35	0.	3.6232e-002
35382	4.65	4.4	0.	3.5768e-002
35383	4.7	4.4	5.e-002	6.8363
35384	4.7	4.25	0.	3.0979e-002
35385	4.65	4.3	0.	3.0651e-002
35386	4.7	4.3	5.e-002	6.6635
35387	4.7	4.15	0.	2.5767e-002
35388	4.65	4.2	0.	2.5558e-002
35389	4.7	4.2	5.e-002	6.4752
35390	4.7	4.05	0.	2.0669e-002
35391	4.65	4.1	0.	2.0551e-002
35392	4.7	4.1	5.e-002	6.2742
35393	4.7	3.95	0.	1.5757e-002
35394	4.65	4.	0.	1.57e-002
35395	4.7	4.	5.e-002	6.0634
35396	4.7	3.85	0.	1.1104e-002
35397	4.65	3.9	0.	1.1071e-002
35398	4.7	3.9	5.e-002	5.8467
35399	4.7	3.75	0.	6.7806e-003
35400	4.65	3.8	0.	6.7308e-003
35401	4.7	3.8	5.e-002	5.6285
35402	4.7	3.65	0.	2.8503e-003
35403	4.65	3.7	0.	2.7438e-003
35404	4.7	3.7	5.e-002	5.4138
35405	4.7	3.55	0.	-6.2808e-004
35406	4.65	3.6	0.	-8.3267e-004
35407	4.7	3.6	5.e-002	5.2083
35408	4.7	3.45	0.	-3.6039e-003
35409	4.65	3.5	0.	-3.9469e-003
35410	4.7	3.5	5.e-002	5.0182
35411	4.7	3.35	0.	-6.0347e-003
35412	4.65	3.4	0.	-6.5551e-003
35413	4.7	3.4	5.e-002	4.8501
35414	4.7	3.25	0.	-7.8871e-003
35415	4.65	3.3	0.	-8.621e-003
35416	4.7	3.3	5.e-002	4.7106
35417	4.7	3.15	0.	-9.1358e-003
35418	4.65	3.2	0.	-1.0116e-002
35419	4.7	3.2	5.e-002	4.6058
35420	4.7	3.05	0.	-9.7642e-003
35421	4.65	3.1	0.	-1.1022e-002
35422	4.7	3.1	5.e-002	4.5407
35423	4.7	2.95	0.	-9.7641e-003
35424	4.65	3.	0.	-1.1325e-002
35425	4.7	3.	5.e-002	4.5186
35426	4.7	2.85	0.	-9.1357e-003
35427	4.65	2.9	0.	-1.1022e-002
35428	4.7	2.9	5.e-002	4.5408
35429	4.7	2.75	0.	-7.887e-003
35430	4.65	2.8	0.	-1.0116e-002
35431	4.7	2.8	5.e-002	4.6059
35432	4.7	2.65	0.	-6.0346e-003
35433	4.65	2.7	0.	-8.6208e-003
35434	4.7	2.7	5.e-002	4.7107
35435	4.7	2.55	0.	-3.6037e-003
35436	4.65	2.6	0.	-6.555e-003
35437	4.7	2.6	5.e-002	4.8503
35438	4.7	2.45	0.	-6.2787e-004
35439	4.65	2.5	0.	-3.9468e-003
35440	4.7	2.5	5.e-002	5.0183
35441	4.7	2.35	0.	2.8505e-003
35442	4.65	2.4	0.	-8.324e-004
35443	4.7	2.4	5.e-002	5.2085
35444	4.7	2.25	0.	6.7808e-003
35445	4.65	2.3	0.	2.744e-003
35446	4.7	2.3	5.e-002	5.414
35447	4.7	2.15	0.	1.1105e-002
35448	4.65	2.2	0.	6.7311e-003
35449	4.7	2.2	5.e-002	5.6287
35450	4.7	2.05	0.	1.5757e-002
35451	4.65	2.1	0.	1.1071e-002
35452	4.7	2.1	5.e-002	5.8469
35453	4.7	1.95	0.	2.0669e-002
35454	4.65	2.	0.	1.57e-002
35455	4.7	2.	5.e-002	6.0636
35456	4.7	1.85	0.	2.5768e-002
35457	4.65	1.9	0.	2.0552e-002
35458	4.7	1.9	5.e-002	6.2744
35459	4.7	1.75	0.	3.0979e-002
35460	4.65	1.8	0.	2.5558e-002
35461	4.7	1.8	5.e-002	6.4754
35462	4.7	1.65	0.	3.6232e-002
35463	4.65	1.7	0.	3.0652e-002
35464	4.7	1.7	5.e-002	6.6637
35465	4.7	1.55	0.	4.146e-002
35466	4.65	1.6	0.	3.5769e-002
35467	4.7	1.6	5.e-002	6.8366
35468	4.7	1.45	0.	4.6603e-002
35469	4.65	1.5	0.	4.085e-002
35470	4.7	1.5	5.e-002	6.9919
35471	4.7	1.35	0.	5.161e-002
35472	4.65	1.4	0.	4.5845e-002
35473	4.7	1.4	5.e-002	7.128
35474	4.7	1.25	0.	5.6445e-002
35475	4.65	1.3	0.	5.0717e-002
35476	4.7	1.3	5.e-002	7.2437
35477	4.7	1.15	0.	6.1087e-002
35478	4.65	1.2	0.	5.5442e-002
35479	4.7	1.2	5.e-002	7.338
35480	4.7	1.05	0.	6.5539e-002
35481	4.65	1.1	0.	6.0017e-002
35482	4.7	1.1	5.e-002	7.4103
35483	4.7	0.95	0.	6.9836e-002
35484	4.65	1.	0.	6.4467e-002
35485	4.7	1.	5.e-002	7.4602
35486	4.7	0.85	0.	7.4062e-002
35487	4.65	0.9	0.	6.8858e-002
35488	4.7	0.9	5.e-002	7.4875
35489	4.7	0.75	0.	7.8377e-002
35490	4.65	0.8	0.	7.3324e-002
35491	4.7	0.8	5.e-002	7.4924
35492	4.7	0.65	0.	8.3101e-002
35493	4.65	0.7	0.	7.8102e-002
35494	4.7	0.7	5.e-002	7.4748
35495	4.7	0.55	0.	8.8767e-002
35496	4.65	0.6	0.	8.3684e-002
35497	4.7	0.6	5.e-002	7.4352
35498	4.7	0.45	0.	9.6836e-002
35499	4.65	0.5	0.	9.0806e-002
35500	4.7	0.5	5.e-002	7.374
35501	4.7	0.35	0.	0.10906
35502	4.65	0.4	0.	0.1021
35503	4.7	0.4	5.e-002	7.2918
35504	4.7	0.25	0.	0.14824
35505	4.65	0.3	0.	0.11953
35506	4.7	0.3	5.e-002	7.1922
35507	4.7	0.15	0.	0.27956
35508	4.65	0.2	0.	0.19497
35509	4.7	0.2	5.e-002	7.1403
35510	4.65	0.1	0.	0.50726
35511	4.7	0.1	5.e-002	8.433
35512	4.7	5.e-002	0.	0.33867
35513	4.6	5.85	0.	0.30222
35514	4.55	5.9	0.	0.55549
35515	4.6	5.9	5.e-002	8.3934
35516	4.6	5.95	0.	0.38661
35517	4.6	5.75	0.	0.1539
35518	4.55	5.8	0.	0.20702
35519	4.6	5.8	5.e-002	7.0002
35520	4.6	5.65	0.	0.10874
35521	4.55	5.7	0.	0.1214
35522	4.6	5.7	5.e-002	7.0493
35523	4.6	5.55	0.	9.4424e-002
35524	4.55	5.6	0.	0.10144
35525	4.6	5.6	5.e-002	7.1518
35526	4.6	5.45	0.	8.489e-002
35527	4.55	5.5	0.	8.8337e-002
35528	4.6	5.5	5.e-002	7.2389
35529	4.6	5.35	0.	7.8229e-002
35530	4.55	5.4	0.	8.0047e-002
35531	4.6	5.4	5.e-002	7.3064
35532	4.6	5.25	0.	7.279e-002
35533	4.55	5.3	0.	7.3619e-002
35534	4.6	5.3	5.e-002	7.3536
35535	4.6	5.15	0.	6.7971e-002
35536	4.55	5.2	0.	6.8232e-002
35537	4.6	5.2	5.e-002	7.3801
35538	4.6	5.05	0.	6.3404e-002
35539	4.55	5.1	0.	6.3331e-002
35540	4.6	5.1	5.e-002	7.3857
35541	4.6	4.95	0.	5.8897e-002
35542	4.55	5.	0.	5.8645e-002
35543	4.6	5.	5.e-002	7.3701
35544	4.6	4.85	0.	5.4345e-002
35545	4.55	4.9	0.	5.4016e-002
35546	4.6	4.9	5.e-002	7.3332
35547	4.6	4.75	0.	4.9696e-002
35548	4.55	4.8	0.	4.9359e-002
35549	4.6	4.8	5.e-002	7.2753
35550	4.6	4.65	0.	4.4937e-002
35551	4.55	4.7	0.	4.4635e-002
35552	4.6	4.7	5.e-002	7.1968
35553	4.6	4.55	0.	4.0074e-002
35554	4.55	4.6	0.	3.9838e-002
35555	4.6	4.6	5.e-002	7.0984
35556	4.6	4.45	0.	3.5134e-002
35557	4.55	4.5	0.	3.4979e-002
35558	4.6	4.5	5.e-002	6.9808
35559	4.6	4.35	0.	3.0157e-002
35560	4.55	4.4	0.	3.0088e-002
35561	4.6	4.4	5.e-002	6.8457
35562	4.6	4.25	0.	2.5192e-002
35563	4.55	4.3	0.	2.5203e-002
35564	4.6	4.3	5.e-002	6.6943
35565	4.6	4.15	0.	2.0295e-002
35566	4.55	4.2	0.	2.0373e-002
35567	4.6	4.2	5.e-002	6.5291
35568	4.6	4.05	0.	1.5527e-002
35569	4.55	4.1	0.	1.5652e-002
35570	4.6	4.1	5.e-002	6.3524
35571	4.6	3.95	0.	1.095e-002
35572	4.55	4.	0.	1.1098e-002
35573	4.6	4.	5.e-002	6.1673
35574	4.6	3.85	0.	6.6257e-003
35575	4.55	3.9	0.	6.768e-003
35576	4.6	3.9	5.e-002	5.9773
35577	4.6	3.75	0.	2.6158e-003
35578	4.55	3.8	0.	2.72e-003
35579	4.6	3.8	5.e-002	5.7865
35580	4.6	3.65	0.	-1.0237e-003
35581	4.55	3.7	0.	-9.9133e-004
35582	4.6	3.7	5.e-002	5.5995
35583	4.6	3.55	0.	-4.2416e-003
35584	4.55	3.6	0.	-4.3156e-003
35585	4.6	3.6	5.e-002	5.4213
35586	4.6	3.45	0.	-6.9929e-003
35587	4.55	3.5	0.	-7.2072e-003
35588	4.6	3.5	5.e-002	5.2574
35589	4.6	3.35	0.	-9.2398e-003
35590	4.55	3.4	0.	-9.6272e-003
35591	4.6	3.4	5.e-002	5.1132
35592	4.6	3.25	0.	-1.0952e-002
35593	4.55	3.3	0.	-1.1543e-002
35594	4.6	3.3	5.e-002	4.9942
35595	4.6	3.15	0.	-1.2105e-002
35596	4.55	3.2	0.	-1.293e-002
35597	4.6	3.2	5.e-002	4.9051
35598	4.6	3.05	0.	-1.2686e-002
35599	4.55	3.1	0.	-1.3769e-002
35600	4.6	3.1	5.e-002	4.85
35601	4.6	2.95	0.	-1.2686e-002
35602	4.55	3.	0.	-1.405e-002
35603	4.6	3.	5.e-002	4.8314
35604	4.6	2.85	0.	-1.2105e-002
35605	4.55	2.9	0.	-1.3769e-002
35606	4.6	2.9	5.e-002	4.85
35607	4.6	2.75	0.	-1.0951e-002
35608	4.55	2.8	0.	-1.293e-002
35609	4.6	2.8	5.e-002	4.9052
35610	4.6	2.65	0.	-9.2396e-003
35611	4.55	2.7	0.	-1.1543e-002
35612	4.6	2.7	5.e-002	4.9943
35613	4.6	2.55	0.	-6.9928e-003
35614	4.55	2.6	0.	-9.6271e-003
35615	4.6	2.6	5.e-002	5.1134
35616	4.6	2.45	0.	-4.2414e-003
35617	4.55	2.5	0.	-7.207e-003
35618	4.6	2.5	5.e-002	5.2576
35619	4.6	2.35	0.	-1.0235e-003
35620	4.55	2.4	0.	-4.3154e-003
35621	4.6	2.4	5.e-002	5.4215
35622	4.6	2.25	0.	2.616e-003
35623	4.55	2.3	0.	-9.9111e-004
35624	4.6	2.3	5.e-002	5.5997
35625	4.6	2.15	0.	6.626e-003
35626	4.55	2.2	0.	2.7202e-003
35627	4.6	2.2	5.e-002	5.7867
35628	4.6	2.05	0.	1.095e-002
35629	4.55	2.1	0.	6.7684e-003
35630	4.6	2.1	5.e-002	5.9775
35631	4.6	1.95	0.	1.5527e-002
35632	4.55	2.	0.	1.1098e-002
35633	4.6	2.	5.e-002	6.1675
35634	4.6	1.85	0.	2.0296e-002
35635	4.55	1.9	0.	1.5653e-002
35636	4.6	1.9	5.e-002	6.3526
35637	4.6	1.75	0.	2.5193e-002
35638	4.55	1.8	0.	2.0373e-002
35639	4.6	1.8	5.e-002	6.5293
35640	4.6	1.65	0.	3.0158e-002
35641	4.55	1.7	0.	2.5203e-002
35642	4.6	1.7	5.e-002	6.6946
35643	4.6	1.55	0.	3.5135e-002
35644	4.55	1.6	0.	3.0088e-002
35645	4.6	1.6	5.e-002	6.8459
35646	4.6	1.45	0.	4.0074e-002
35647	4.55	1.5	0.	3.498e-002
35648	4.6	1.5	5.e-002	6.9811
35649	4.6	1.35	0.	4.4937e-002
35650	4.55	1.4	0.	3.9839e-002
35651	4.6	1.4	5.e-002	7.0987
35652	4.6	1.25	0.	4.9697e-002
35653	4.55	1.3	0.	4.4636e-002
35654	4.6	1.3	5.e-002	7.1971
35655	4.6	1.15	0.	5.4345e-002
35656	4.55	1.2	0.	4.9359e-002
35657	4.6	1.2	5.e-002	7.2757
35658	4.6	1.05	0.	5.8897e-002
35659	4.55	1.1	0.	5.4016e-002
35660	4.6	1.1	5.e-002	7.3336
35661	4.6	0.95	0.	6.3404e-002
35662	4.55	1.	0.	5.8646e-002
35663	4.6	1.	5.e-002	7.3704
35664	4.6	0.85	0.	6.7972e-002
35665	4.55	0.9	0.	6.3332e-002
35666	4.6	0.9	5.e-002	7.386
35667	4.6	0.75	0.	7.2791e-002
35668	4.55	0.8	0.	6.8233e-002
35669	4.6	0.8	5.e-002	7.3806
35670	4.6	0.65	0.	7.8229e-002
35671	4.55	0.7	0.	7.362e-002
35672	4.6	0.7	5.e-002	7.3541
35673	4.6	0.55	0.	8.4891e-002
35674	4.55	0.6	0.	8.0048e-002
35675	4.6	0.6	5.e-002	7.3069
35676	4.6	0.45	0.	9.4425e-002
35677	4.55	0.5	0.	8.8338e-002
35678	4.6	0.5	5.e-002	7.2394
35679	4.6	0.35	0.	0.10874
35680	4.55	0.4	0.	0.10144
35681	4.6	0.4	5.e-002	7.1524
35682	4.6	0.25	0.	0.1539
35683	4.55	0.3	0.	0.1214
35684	4.6	0.3	5.e-002	7.0499
35685	4.6	0.15	0.	0.30223
35686	4.55	0.2	0.	0.20702
35687	4.6	0.2	5.e-002	7.0009
35688	4.55	0.1	0.	0.55549
35689	4.6	0.1	5.e-002	8.3941
35690	4.6	5.e-002	0.	0.38661
35691	4.5	5.85	0.	0.327
35692	4.45	5.9	0.	0.6086
35693	4.5	5.9	5.e-002	8.3988
35694	4.5	5.95	0.	0.43415
35695	4.5	5.75	0.	0.16102
35696	4.45	5.8	0.	0.22047
35697	4.5	5.8	5.e-002	6.8912
35698	4.5	5.65	0.	0.10991
35699	4.45	5.7	0.	0.12459
35700	4.5	5.7	5.e-002	6.9361
35701	4.5	5.55	0.	9.3521e-002
35702	4.45	5.6	0.	0.10207
35703	4.5	5.6	5.e-002	7.0409
35704	4.5	5.45	0.	8.2539e-002
35705	4.45	5.5	0.	8.7176e-002
35706	4.5	5.5	5.e-002	7.132
35707	4.5	5.35	0.	7.4885e-002
35708	4.45	5.4	0.	7.7729e-002
35709	4.5	5.4	5.e-002	7.2049
35710	4.5	5.25	0.	6.872e-002
35711	4.45	5.3	0.	7.0452e-002
35712	4.5	5.3	5.e-002	7.259
35713	4.5	5.15	0.	6.3372e-002
35714	4.45	5.2	0.	6.4444e-002
35715	4.5	5.2	5.e-002	7.2938
35716	4.5	5.05	0.	5.8425e-002
35717	4.45	5.1	0.	5.9086e-002
35718	4.5	5.1	5.e-002	7.3088
35719	4.5	4.95	0.	5.3661e-002
35720	4.45	5.	0.	5.4073e-002
35721	4.5	5.	5.e-002	7.304
35722	4.5	4.85	0.	4.8954e-002
35723	4.45	4.9	0.	4.9222e-002
35724	4.5	4.9	5.e-002	7.2793
35725	4.5	4.75	0.	4.4238e-002
35726	4.45	4.8	0.	4.4436e-002
35727	4.5	4.8	5.e-002	7.2349
35728	4.5	4.65	0.	3.9486e-002
35729	4.45	4.7	0.	3.9662e-002
35730	4.5	4.7	5.e-002	7.1711
35731	4.5	4.55	0.	3.4696e-002
35732	4.45	4.6	0.	3.4882e-002
35733	4.5	4.6	5.e-002	7.0886
35734	4.5	4.45	0.	2.9886e-002
35735	4.45	4.5	0.	3.0099e-002
35736	4.5	4.5	5.e-002	6.9885
35737	4.5	4.35	0.	2.5084e-002
35738	4.45	4.4	0.	2.5334e-002
35739	4.5	4.4	5.e-002	6.8719
35740	4.5	4.25	0.	2.0331e-002
35741	4.45	4.3	0.	2.0616e-002
35742	4.5	4.3	5.e-002	6.7406
35743	4.5	4.15	0.	1.5674e-002
35744	4.45	4.2	0.	1.5985e-002
35745	4.5	4.2	5.e-002	6.5966
35746	4.5	4.05	0.	1.1162e-002
35747	4.45	4.1	0.	1.1487e-002
35748	4.5	4.1	5.e-002	6.4422
35749	4.5	3.95	0.	6.8504e-003
35750	4.45	4.	0.	7.1681e-003
35751	4.5	4.	5.e-002	6.2805
35752	4.5	3.85	0.	2.7916e-003
35753	4.45	3.9	0.	3.0795e-003
35754	4.5	3.9	5.e-002	6.1146
35755	4.5	3.75	0.	-9.6238e-004
35756	4.45	3.8	0.	-7.3037e-004
35757	4.5	3.8	5.e-002	5.9483
35758	4.5	3.65	0.	-4.3626e-003
35759	4.45	3.7	0.	-4.2141e-003
35760	4.5	3.7	5.e-002	5.7857
35761	4.5	3.55	0.	-7.3642e-003
35762	4.45	3.6	0.	-7.3282e-003
35763	4.5	3.6	5.e-002	5.6314
35764	4.5	3.45	0.	-9.9276e-003
35765	4.45	3.5	0.	-1.0033e-002
35766	4.5	3.5	5.e-002	5.49
35767	4.5	3.35	0.	-1.2019e-002
35768	4.45	3.4	0.	-1.2294e-002
35769	4.5	3.4	5.e-002	5.3661
35770	4.5	3.25	0.	-1.3612e-002
35771	4.45	3.3	0.	-1.4082e-002
35772	4.5	3.3	5.e-002	5.2641
35773	4.5	3.15	0.	-1.4685e-002
35774	4.45	3.2	0.	-1.5376e-002
35775	4.5	3.2	5.e-002	5.1881
35776	4.5	3.05	0.	-1.5226e-002
35777	4.45	3.1	0.	-1.6159e-002
35778	4.5	3.1	5.e-002	5.1412
35779	4.5	2.95	0.	-1.5225e-002
35780	4.45	3.	0.	-1.6421e-002
35781	4.5	3.	5.e-002	5.1254
35782	4.5	2.85	0.	-1.4685e-002
35783	4.45	2.9	0.	-1.6159e-002
35784	4.5	2.9	5.e-002	5.1412
35785	4.5	2.75	0.	-1.3612e-002
35786	4.45	2.8	0.	-1.5376e-002
35787	4.5	2.8	5.e-002	5.1882
35788	4.5	2.65	0.	-1.2019e-002
35789	4.45	2.7	0.	-1.4082e-002
35790	4.5	2.7	5.e-002	5.2643
35791	4.5	2.55	0.	-9.9274e-003
35792	4.45	2.6	0.	-1.2294e-002
35793	4.5	2.6	5.e-002	5.3662
35794	4.5	2.45	0.	-7.364e-003
35795	4.45	2.5	0.	-1.0033e-002
35796	4.5	2.5	5.e-002	5.4901
35797	4.5	2.35	0.	-4.3623e-003
35798	4.45	2.4	0.	-7.328e-003
35799	4.5	2.4	5.e-002	5.6316
35800	4.5	2.25	0.	-9.6207e-004
35801	4.45	2.3	0.	-4.2138e-003
35802	4.5	2.3	5.e-002	5.7859
35803	4.5	2.15	0.	2.7919e-003
35804	4.45	2.2	0.	-7.301e-004
35805	4.5	2.2	5.e-002	5.9485
35806	4.5	2.05	0.	6.8509e-003
35807	4.45	2.1	0.	3.0799e-003
35808	4.5	2.1	5.e-002	6.1148
35809	4.5	1.95	0.	1.1163e-002
35810	4.45	2.	0.	7.1686e-003
35811	4.5	2.	5.e-002	6.2807
35812	4.5	1.85	0.	1.5674e-002
35813	4.45	1.9	0.	1.1487e-002
35814	4.5	1.9	5.e-002	6.4425
35815	4.5	1.75	0.	2.0332e-002
35816	4.45	1.8	0.	1.5986e-002
35817	4.5	1.8	5.e-002	6.5968
35818	4.5	1.65	0.	2.5085e-002
35819	4.45	1.7	0.	2.0616e-002
35820	4.5	1.7	5.e-002	6.7409
35821	4.5	1.55	0.	2.9886e-002
35822	4.45	1.6	0.	2.5334e-002
35823	4.5	1.6	5.e-002	6.8722
35824	4.5	1.45	0.	3.4697e-002
35825	4.45	1.5	0.	3.01e-002
35826	4.5	1.5	5.e-002	6.9888
35827	4.5	1.35	0.	3.9487e-002
35828	4.45	1.4	0.	3.4883e-002
35829	4.5	1.4	5.e-002	7.0889
35830	4.5	1.25	0.	4.4239e-002
35831	4.45	1.3	0.	3.9663e-002
35832	4.5	1.3	5.e-002	7.1714
35833	4.5	1.15	0.	4.8955e-002
35834	4.45	1.2	0.	4.4437e-002
35835	4.5	1.2	5.e-002	7.2352
35836	4.5	1.05	0.	5.3662e-002
35837	4.45	1.1	0.	4.9223e-002
35838	4.5	1.1	5.e-002	7.2796
35839	4.5	0.95	0.	5.8426e-002
35840	4.45	1.	0.	5.4073e-002
35841	4.5	1.	5.e-002	7.3044
35842	4.5	0.85	0.	6.3373e-002
35843	4.45	0.9	0.	5.9087e-002
35844	4.5	0.9	5.e-002	7.3092
35845	4.5	0.75	0.	6.8721e-002
35846	4.45	0.8	0.	6.4445e-002
35847	4.5	0.8	5.e-002	7.2941
35848	4.5	0.65	0.	7.4886e-002
35849	4.45	0.7	0.	7.0453e-002
35850	4.5	0.7	5.e-002	7.2595
35851	4.5	0.55	0.	8.254e-002
35852	4.45	0.6	0.	7.773e-002
35853	4.5	0.6	5.e-002	7.2054
35854	4.5	0.45	0.	9.3522e-002
35855	4.45	0.5	0.	8.7177e-002
35856	4.5	0.5	5.e-002	7.1325
35857	4.5	0.35	0.	0.10991
35858	4.45	0.4	0.	0.10207
35859	4.5	0.4	5.e-002	7.0415
35860	4.5	0.25	0.	0.16103
35861	4.45	0.3	0.	0.12459
35862	4.5	0.3	5.e-002	6.9367
35863	4.5	0.15	0.	0.327
35864	4.45	0.2	0.	0.22047
35865	4.5	0.2	5.e-002	6.8918
35866	4.45	0.1	0.	0.60861
35867	4.5	0.1	5.e-002	8.3995
35868	4.5	5.e-002	0.	0.43415
35869	4.4	5.85	0.	0.35362
35870	4.35	5.9	0.	0.66672
35871	4.4	5.9	5.e-002	8.4445
35872	4.4	5.95	0.	0.48148
35873	4.4	5.75	0.	0.16928
35874	4.35	5.8	0.	0.23507
35875	4.4	5.8	5.e-002	6.8096
35876	4.4	5.65	0.	0.11218
35877	4.35	5.7	0.	0.12879
35878	4.4	5.7	5.e-002	6.8493
35879	4.4	5.55	0.	9.3725e-002
35880	4.35	5.6	0.	0.10368
35881	4.4	5.6	5.e-002	6.9558
35882	4.4	5.45	0.	8.1308e-002
35883	4.35	5.5	0.	8.7e-002
35884	4.4	5.5	5.e-002	7.0503
35885	4.4	5.35	0.	7.2669e-002
35886	4.35	5.4	0.	7.6401e-002
35887	4.4	5.4	5.e-002	7.1281
35888	4.4	5.25	0.	6.5775e-002
35889	4.35	5.3	0.	6.8278e-002
35890	4.4	5.3	5.e-002	7.1884
35891	4.4	5.15	0.	5.9887e-002
35892	4.35	5.2	0.	6.1644e-002
35893	4.4	5.2	5.e-002	7.2306
35894	4.4	5.05	0.	5.4541e-002
35895	4.35	5.1	0.	5.5815e-002
35896	4.4	5.1	5.e-002	7.2545
35897	4.4	4.95	0.	4.9492e-002
35898	4.35	5.	0.	5.0455e-002
35899	4.4	5.	5.e-002	7.2597
35900	4.4	4.85	0.	4.4595e-002
35901	4.35	4.9	0.	4.5359e-002
35902	4.4	4.9	5.e-002	7.2462
35903	4.4	4.75	0.	3.9771e-002
35904	4.35	4.8	0.	4.0413e-002
35905	4.4	4.8	5.e-002	7.2143
35906	4.4	4.65	0.	3.4982e-002
35907	4.35	4.7	0.	3.5553e-002
35908	4.4	4.7	5.e-002	7.1643
35909	4.4	4.55	0.	3.0217e-002
35910	4.35	4.6	0.	3.075e-002
35911	4.4	4.6	5.e-002	7.0968
35912	4.4	4.45	0.	2.5484e-002
35913	4.35	4.5	0.	2.6001e-002
35914	4.4	4.5	5.e-002	7.0128
35915	4.4	4.35	0.	2.0803e-002
35916	4.35	4.4	0.	2.1316e-002
35917	4.4	4.4	5.e-002	6.9136
35918	4.4	4.25	0.	1.6208e-002
35919	4.35	4.3	0.	1.6718e-002
35920	4.4	4.3	5.e-002	6.8008
35921	4.4	4.15	0.	1.1735e-002
35922	4.35	4.2	0.	1.2239e-002
35923	4.4	4.2	5.e-002	6.6762
35924	4.4	4.05	0.	7.4271e-003
35925	4.35	4.1	0.	7.9154e-003
35926	4.4	4.1	5.e-002	6.5423
35927	4.4	3.95	0.	3.3296e-003
35928	4.35	4.	0.	3.7871e-003
35929	4.4	4.	5.e-002	6.4017
35930	4.4	3.85	0.	-5.1261e-004
35931	4.35	3.9	0.	-1.0384e-004
35932	4.4	3.9	5.e-002	6.2575
35933	4.4	3.75	0.	-4.0548e-003
35934	4.35	3.8	0.	-3.716e-003
35935	4.4	3.8	5.e-002	6.1131
35936	4.4	3.65	0.	-7.2549e-003
35937	4.35	3.7	0.	-7.0089e-003
35938	4.4	3.7	5.e-002	5.9721
35939	4.4	3.55	0.	-1.0074e-002
35940	4.35	3.6	0.	-9.945e-003
35941	4.4	3.6	5.e-002	5.8387
35942	4.4	3.45	0.	-1.2478e-002
35943	4.35	3.5	0.	-1.249e-002
35944	4.4	3.5	5.e-002	5.7166
35945	4.4	3.35	0.	-1.4438e-002
35946	4.35	3.4	0.	-1.4615e-002
35947	4.4	3.4	5.e-002	5.61
35948	4.4	3.25	0.	-1.5928e-002
35949	4.35	3.3	0.	-1.6293e-002
35950	4.4	3.3	5.e-002	5.5226
35951	4.4	3.15	0.	-1.6932e-002
35952	4.35	3.2	0.	-1.7507e-002
35953	4.4	3.2	5.e-002	5.4575
35954	4.4	3.05	0.	-1.7437e-002
35955	4.35	3.1	0.	-1.8241e-002
35956	4.4	3.1	5.e-002	5.4175
35957	4.4	2.95	0.	-1.7437e-002
35958	4.35	3.	0.	-1.8486e-002
35959	4.4	3.	5.e-002	5.4039
35960	4.4	2.85	0.	-1.6932e-002
35961	4.35	2.9	0.	-1.8241e-002
35962	4.4	2.9	5.e-002	5.4175
35963	4.4	2.75	0.	-1.5928e-002
35964	4.35	2.8	0.	-1.7507e-002
35965	4.4	2.8	5.e-002	5.4576
35966	4.4	2.65	0.	-1.4437e-002
35967	4.35	2.7	0.	-1.6293e-002
35968	4.4	2.7	5.e-002	5.5226
35969	4.4	2.55	0.	-1.2478e-002
35970	4.35	2.6	0.	-1.4615e-002
35971	4.4	2.6	5.e-002	5.6101
35972	4.4	2.45	0.	-1.0074e-002
35973	4.35	2.5	0.	-1.249e-002
35974	4.4	2.5	5.e-002	5.7167
35975	4.4	2.35	0.	-7.2547e-003
35976	4.35	2.4	0.	-9.9448e-003
35977	4.4	2.4	5.e-002	5.8388
35978	4.4	2.25	0.	-4.0545e-003
35979	4.35	2.3	0.	-7.0087e-003
35980	4.4	2.3	5.e-002	5.9723
35981	4.4	2.15	0.	-5.1233e-004
35982	4.35	2.2	0.	-3.7158e-003
35983	4.4	2.2	5.e-002	6.1133
35984	4.4	2.05	0.	3.3299e-003
35985	4.35	2.1	0.	-1.0354e-004
35986	4.4	2.1	5.e-002	6.2577
35987	4.4	1.95	0.	7.4276e-003
35988	4.35	2.	0.	3.7875e-003
35989	4.4	2.	5.e-002	6.4019
35990	4.4	1.85	0.	1.1735e-002
35991	4.35	1.9	0.	7.9158e-003
35992	4.4	1.9	5.e-002	6.5425
35993	4.4	1.75	0.	1.6208e-002
35994	4.35	1.8	0.	1.224e-002
35995	4.4	1.8	5.e-002	6.6765
35996	4.4	1.65	0.	2.0804e-002
35997	4.35	1.7	0.	1.6719e-002
35998	4.4	1.7	5.e-002	6.801
35999	4.4	1.55	0.	2.5484e-002
36000	4.35	1.6	0.	2.1317e-002
36001	4.4	1.6	5.e-002	6.9139
36002	4.4	1.45	0.	3.0218e-002
36003	4.35	1.5	0.	2.6002e-002
36004	4.4	1.5	5.e-002	7.0131
36005	4.4	1.35	0.	3.4983e-002
36006	4.35	1.4	0.	3.0751e-002
36007	4.4	1.4	5.e-002	7.0971
36008	4.4	1.25	0.	3.9772e-002
36009	4.35	1.3	0.	3.5553e-002
36010	4.4	1.3	5.e-002	7.1646
36011	4.4	1.15	0.	4.4596e-002
36012	4.35	1.2	0.	4.0413e-002
36013	4.4	1.2	5.e-002	7.2147
36014	4.4	1.05	0.	4.9493e-002
36015	4.35	1.1	0.	4.536e-002
36016	4.4	1.1	5.e-002	7.2467
36017	4.4	0.95	0.	5.4542e-002
36018	4.35	1.	0.	5.0456e-002
36019	4.4	1.	5.e-002	7.2601
36020	4.4	0.85	0.	5.9888e-002
36021	4.35	0.9	0.	5.5816e-002
36022	4.4	0.9	5.e-002	7.2549
36023	4.4	0.75	0.	6.5776e-002
36024	4.35	0.8	0.	6.1645e-002
36025	4.4	0.8	5.e-002	7.2311
36026	4.4	0.65	0.	7.267e-002
36027	4.35	0.7	0.	6.8279e-002
36028	4.4	0.7	5.e-002	7.1889
36029	4.4	0.55	0.	8.1309e-002
36030	4.35	0.6	0.	7.6402e-002
36031	4.4	0.6	5.e-002	7.1286
36032	4.4	0.45	0.	9.3726e-002
36033	4.35	0.5	0.	8.7001e-002
36034	4.4	0.5	5.e-002	7.0508
36035	4.4	0.35	0.	0.11219
36036	4.35	0.4	0.	0.10368
36037	4.4	0.4	5.e-002	6.9563
36038	4.4	0.25	0.	0.16928
36039	4.35	0.3	0.	0.12879
36040	4.4	0.3	5.e-002	6.8499
36041	4.4	0.15	0.	0.35362
36042	4.35	0.2	0.	0.23507
36043	4.4	0.2	5.e-002	6.8102
36044	4.35	0.1	0.	0.66672
36045	4.4	0.1	5.e-002	8.4452
36046	4.4	5.e-002	0.	0.48148
36047	4.3	5.85	0.	0.38201
36048	4.25	5.9	0.	0.73038
36049	4.3	5.9	5.e-002	8.5269
36050	4.3	5.95	0.	0.52885
36051	4.3	5.75	0.	0.17847
36052	4.25	5.8	0.	0.25073
36053	4.3	5.8	5.e-002	6.7525
36054	4.3	5.65	0.	0.11534
36055	4.25	5.7	0.	0.13383
36056	4.3	5.7	5.e-002	6.7862
36057	4.3	5.55	0.	9.479e-002
36058	4.25	5.6	0.	0.10608
36059	4.3	5.6	5.e-002	6.894
36060	4.3	5.45	0.	8.0941e-002
36061	4.25	5.5	0.	8.7605e-002
36062	4.3	5.5	5.e-002	6.9916
36063	4.3	5.35	0.	7.132e-002
36064	4.25	5.4	0.	7.5852e-002
36065	4.3	5.4	5.e-002	7.0738
36066	4.3	5.25	0.	6.3697e-002
36067	4.25	5.3	0.	6.6882e-002
36068	4.3	5.3	5.e-002	7.1398
36069	4.3	5.15	0.	5.7261e-002
36070	4.25	5.2	0.	5.9616e-002
36071	4.3	5.2	5.e-002	7.189
36072	4.3	5.05	0.	5.1504e-002
36073	4.25	5.1	0.	5.3308e-002
36074	4.3	5.1	5.e-002	7.221
36075	4.3	4.95	0.	4.6152e-002
36076	4.25	5.	0.	4.7589e-002
36077	4.3	5.	5.e-002	7.2355
36078	4.3	4.85	0.	4.1042e-002
36079	4.25	4.9	0.	4.2229e-002
36080	4.3	4.9	5.e-002	7.2326
36081	4.3	4.75	0.	3.6083e-002
36082	4.25	4.8	0.	3.7101e-002
36083	4.3	4.8	5.e-002	7.2123
36084	4.3	4.65	0.	3.1226e-002
36085	4.25	4.7	0.	3.2129e-002
36086	4.3	4.7	5.e-002	7.175
36087	4.3	4.55	0.	2.6451e-002
36088	4.25	4.6	0.	2.7276e-002
36089	4.3	4.6	5.e-002	7.1215
36090	4.3	4.45	0.	2.1757e-002
36091	4.25	4.5	0.	2.2528e-002
36092	4.3	4.5	5.e-002	7.0525
36093	4.3	4.35	0.	1.7159e-002
36094	4.25	4.4	0.	1.7891e-002
36095	4.3	4.4	5.e-002	6.9694
36096	4.3	4.25	0.	1.268e-002
36097	4.25	4.3	0.	1.3379e-002
36098	4.3	4.3	5.e-002	6.8735
36099	4.3	4.15	0.	8.3513e-003
36100	4.25	4.2	0.	9.016e-003
36101	4.3	4.2	5.e-002	6.7669
36102	4.3	4.05	0.	4.207e-003
36103	4.25	4.1	0.	4.8317e-003
36104	4.3	4.1	5.e-002	6.6515
36105	4.3	3.95	0.	2.8493e-004
36106	4.25	4.	0.	8.5916e-004
36107	4.3	4.	5.e-002	6.5301
36108	4.3	3.85	0.	-3.3769e-003
36109	4.25	3.9	0.	-2.8671e-003
36110	4.3	3.9	5.e-002	6.4054
36111	4.3	3.75	0.	-6.7409e-003
36112	4.25	3.8	0.	-6.3123e-003
36113	4.3	3.8	5.e-002	6.2805
36114	4.3	3.65	0.	-9.771e-003
36115	4.25	3.7	0.	-9.4423e-003
36116	4.3	3.7	5.e-002	6.1587
36117	4.3	3.55	0.	-1.2434e-002
36118	4.25	3.6	0.	-1.2225e-002
36119	4.3	3.6	5.e-002	6.0434
36120	4.3	3.45	0.	-1.4701e-002
36121	4.25	3.5	0.	-1.4632e-002
36122	4.3	3.5	5.e-002	5.9383
36123	4.3	3.35	0.	-1.6546e-002
36124	4.25	3.4	0.	-1.6638e-002
36125	4.3	3.4	5.e-002	5.8466
36126	4.3	3.25	0.	-1.7948e-002
36127	4.25	3.3	0.	-1.8221e-002
36128	4.3	3.3	5.e-002	5.7715
36129	4.3	3.15	0.	-1.8891e-002
36130	4.25	3.2	0.	-1.9363e-002
36131	4.3	3.2	5.e-002	5.7158
36132	4.3	3.05	0.	-1.9366e-002
36133	4.25	3.1	0.	-2.0054e-002
36134	4.3	3.1	5.e-002	5.6815
36135	4.3	2.95	0.	-1.9366e-002
36136	4.25	3.	0.	-2.0285e-002
36137	4.3	3.	5.e-002	5.6699
36138	4.3	2.85	0.	-1.8891e-002
36139	4.25	2.9	0.	-2.0054e-002
36140	4.3	2.9	5.e-002	5.6815
36141	4.3	2.75	0.	-1.7948e-002
36142	4.25	2.8	0.	-1.9363e-002
36143	4.3	2.8	5.e-002	5.7159
36144	4.3	2.65	0.	-1.6545e-002
36145	4.25	2.7	0.	-1.822e-002
36146	4.3	2.7	5.e-002	5.7716
36147	4.3	2.55	0.	-1.4701e-002
36148	4.25	2.6	0.	-1.6638e-002
36149	4.3	2.6	5.e-002	5.8466
36150	4.3	2.45	0.	-1.2434e-002
36151	4.25	2.5	0.	-1.4632e-002
36152	4.3	2.5	5.e-002	5.9384
36153	4.3	2.35	0.	-9.7707e-003
36154	4.25	2.4	0.	-1.2225e-002
36155	4.3	2.4	5.e-002	6.0436
36156	4.3	2.25	0.	-6.7406e-003
36157	4.25	2.3	0.	-9.442e-003
36158	4.3	2.3	5.e-002	6.1589
36159	4.3	2.15	0.	-3.3767e-003
36160	4.25	2.2	0.	-6.312e-003
36161	4.3	2.2	5.e-002	6.2807
36162	4.3	2.05	0.	2.8525e-004
36163	4.25	2.1	0.	-2.8668e-003
36164	4.3	2.1	5.e-002	6.4057
36165	4.3	1.95	0.	4.2074e-003
36166	4.25	2.	0.	8.5949e-004
36167	4.3	2.	5.e-002	6.5304
36168	4.3	1.85	0.	8.3517e-003
36169	4.25	1.9	0.	4.8321e-003
36170	4.3	1.9	5.e-002	6.6518
36171	4.3	1.75	0.	1.2681e-002
36172	4.25	1.8	0.	9.0164e-003
36173	4.3	1.8	5.e-002	6.7671
36174	4.3	1.65	0.	1.7159e-002
36175	4.25	1.7	0.	1.3379e-002
36176	4.3	1.7	5.e-002	6.8738
36177	4.3	1.55	0.	2.1758e-002
36178	4.25	1.6	0.	1.7892e-002
36179	4.3	1.6	5.e-002	6.9696
36180	4.3	1.45	0.	2.6451e-002
36181	4.25	1.5	0.	2.2529e-002
36182	4.3	1.5	5.e-002	7.0528
36183	4.3	1.35	0.	3.1227e-002
36184	4.25	1.4	0.	2.7276e-002
36185	4.3	1.4	5.e-002	7.1218
36186	4.3	1.25	0.	3.6084e-002
36187	4.25	1.3	0.	3.2129e-002
36188	4.3	1.3	5.e-002	7.1753
36189	4.3	1.15	0.	4.1043e-002
36190	4.25	1.2	0.	3.7101e-002
36191	4.3	1.2	5.e-002	7.2126
36192	4.3	1.05	0.	4.6153e-002
36193	4.25	1.1	0.	4.223e-002
36194	4.3	1.1	5.e-002	7.233
36195	4.3	0.95	0.	5.1505e-002
36196	4.25	1.	0.	4.7589e-002
36197	4.3	1.	5.e-002	7.2359
36198	4.3	0.85	0.	5.7262e-002
36199	4.25	0.9	0.	5.3309e-002
36200	4.3	0.9	5.e-002	7.2214
36201	4.3	0.75	0.	6.3698e-002
36202	4.25	0.8	0.	5.9617e-002
36203	4.3	0.8	5.e-002	7.1894
36204	4.3	0.65	0.	7.1321e-002
36205	4.25	0.7	0.	6.6883e-002
36206	4.3	0.7	5.e-002	7.1403
36207	4.3	0.55	0.	8.0942e-002
36208	4.25	0.6	0.	7.5853e-002
36209	4.3	0.6	5.e-002	7.0744
36210	4.3	0.45	0.	9.4791e-002
36211	4.25	0.5	0.	8.7606e-002
36212	4.3	0.5	5.e-002	6.9922
36213	4.3	0.35	0.	0.11534
36214	4.25	0.4	0.	0.10608
36215	4.3	0.4	5.e-002	6.8946
36216	4.3	0.25	0.	0.17847
36217	4.25	0.3	0.	0.13384
36218	4.3	0.3	5.e-002	6.7868
36219	4.3	0.15	0.	0.38201
36220	4.25	0.2	0.	0.25073
36221	4.3	0.2	5.e-002	6.7531
36222	4.25	0.1	0.	0.73038
36223	4.3	0.1	5.e-002	8.5276
36224	4.3	5.e-002	0.	0.52885
36225	4.2	5.85	0.	0.41227
36226	4.15	5.9	0.	0.80047
36227	4.2	5.9	5.e-002	8.6429
36228	4.2	5.95	0.	0.57656
36229	4.2	5.75	0.	0.1885
36230	4.15	5.8	0.	0.26742
36231	4.2	5.8	5.e-002	6.7176
36232	4.2	5.65	0.	0.11923
36233	4.15	5.7	0.	0.13964
36234	4.2	5.7	5.e-002	6.7448
36235	4.2	5.55	0.	9.6561e-002
36236	4.15	5.6	0.	0.10915
36237	4.2	5.6	5.e-002	6.8537
36238	4.2	5.45	0.	8.1273e-002
36239	4.15	5.5	0.	8.8859e-002
36240	4.2	5.5	5.e-002	6.9541
36241	4.2	5.35	0.	7.0666e-002
36242	4.15	5.4	0.	7.5942e-002
36243	4.2	5.4	5.e-002	7.0403
36244	4.2	5.25	0.	6.2311e-002
36245	4.15	5.3	0.	6.6118e-002
36246	4.2	5.3	5.e-002	7.1115
36247	4.2	5.15	0.	5.5321e-002
36248	4.15	5.2	0.	5.8215e-002
36249	4.2	5.2	5.e-002	7.1672
36250	4.2	5.05	0.	4.9142e-002
36251	4.15	5.1	0.	5.1419e-002
36252	4.2	5.1	5.e-002	7.2068
36253	4.2	4.95	0.	4.3473e-002
36254	4.15	5.	0.	4.5327e-002
36255	4.2	5.	5.e-002	7.2301
36256	4.2	4.85	0.	3.8134e-002
36257	4.15	4.9	0.	3.969e-002
36258	4.2	4.9	5.e-002	7.2369
36259	4.2	4.75	0.	3.3019e-002
36260	4.15	4.8	0.	3.4362e-002
36261	4.2	4.8	5.e-002	7.2275
36262	4.2	4.65	0.	2.807e-002
36263	4.15	4.7	0.	2.9259e-002
36264	4.2	4.7	5.e-002	7.2022
36265	4.2	4.55	0.	2.3259e-002
36266	4.15	4.6	0.	2.4333e-002
36267	4.2	4.6	5.e-002	7.1615
36268	4.2	4.45	0.	1.8577e-002
36269	4.15	4.5	0.	1.9565e-002
36270	4.2	4.5	5.e-002	7.1065
36271	4.2	4.35	0.	1.4032e-002
36272	4.15	4.4	0.	1.495e-002
36273	4.2	4.4	5.e-002	7.0382
36274	4.2	4.25	0.	9.6395e-003
36275	4.15	4.3	0.	1.0497e-002
36276	4.2	4.3	5.e-002	6.958
36277	4.2	4.15	0.	5.424e-003
36278	4.15	4.2	0.	6.2238e-003
36279	4.2	4.2	5.e-002	6.8678
36280	4.2	4.05	0.	1.4131e-003
36281	4.15	4.1	0.	2.1525e-003
36282	4.2	4.1	5.e-002	6.7695
36283	4.2	3.95	0.	-2.3626e-003
36284	4.15	4.	0.	-1.6902e-003
36285	4.2	4.	5.e-002	6.6654
36286	4.2	3.85	0.	-5.8718e-003
36287	4.15	3.9	0.	-5.2766e-003
36288	4.2	3.9	5.e-002	6.5583
36289	4.2	3.75	0.	-9.0829e-003
36290	4.15	3.8	0.	-8.5779e-003
36291	4.2	3.8	5.e-002	6.4507
36292	4.2	3.65	0.	-1.1966e-002
36293	4.15	3.7	0.	-1.1566e-002
36294	4.2	3.7	5.e-002	6.3459
36295	4.2	3.55	0.	-1.4493e-002
36296	4.15	3.6	0.	-1.4215e-002
36297	4.2	3.6	5.e-002	6.2466
36298	4.2	3.45	0.	-1.6639e-002
36299	4.15	3.5	0.	-1.65e-002
36300	4.2	3.5	5.e-002	6.1562
36301	4.2	3.35	0.	-1.8383e-002
36302	4.15	3.4	0.	-1.84e-002
36303	4.2	3.4	5.e-002	6.0775
36304	4.2	3.25	0.	-1.9707e-002
36305	4.15	3.3	0.	-1.9897e-002
36306	4.2	3.3	5.e-002	6.0131
36307	4.2	3.15	0.	-2.0597e-002
36308	4.15	3.2	0.	-2.0977e-002
36309	4.2	3.2	5.e-002	5.9653
36310	4.2	3.05	0.	-2.1044e-002
36311	4.15	3.1	0.	-2.1629e-002
36312	4.2	3.1	5.e-002	5.9359
36313	4.2	2.95	0.	-2.1044e-002
36314	4.15	3.	0.	-2.1847e-002
36315	4.2	3.	5.e-002	5.926
36316	4.2	2.85	0.	-2.0597e-002
36317	4.15	2.9	0.	-2.1629e-002
36318	4.2	2.9	5.e-002	5.936
36319	4.2	2.75	0.	-1.9707e-002
36320	4.15	2.8	0.	-2.0977e-002
36321	4.2	2.8	5.e-002	5.9654
36322	4.2	2.65	0.	-1.8383e-002
36323	4.15	2.7	0.	-1.9897e-002
36324	4.2	2.7	5.e-002	6.0131
36325	4.2	2.55	0.	-1.6639e-002
36326	4.15	2.6	0.	-1.84e-002
36327	4.2	2.6	5.e-002	6.0776
36328	4.2	2.45	0.	-1.4493e-002
36329	4.15	2.5	0.	-1.65e-002
36330	4.2	2.5	5.e-002	6.1564
36331	4.2	2.35	0.	-1.1966e-002
36332	4.15	2.4	0.	-1.4215e-002
36333	4.2	2.4	5.e-002	6.2468
36334	4.2	2.25	0.	-9.0826e-003
36335	4.15	2.3	0.	-1.1566e-002
36336	4.2	2.3	5.e-002	6.346
36337	4.2	2.15	0.	-5.8715e-003
36338	4.15	2.2	0.	-8.5777e-003
36339	4.2	2.2	5.e-002	6.4509
36340	4.2	2.05	0.	-2.3623e-003
36341	4.15	2.1	0.	-5.2762e-003
36342	4.2	2.1	5.e-002	6.5584
36343	4.2	1.95	0.	1.4135e-003
36344	4.15	2.	0.	-1.6899e-003
36345	4.2	2.	5.e-002	6.6657
36346	4.2	1.85	0.	5.4244e-003
36347	4.15	1.9	0.	2.153e-003
36348	4.2	1.9	5.e-002	6.7697
36349	4.2	1.75	0.	9.6399e-003
36350	4.15	1.8	0.	6.2242e-003
36351	4.2	1.8	5.e-002	6.868
36352	4.2	1.65	0.	1.4032e-002
36353	4.15	1.7	0.	1.0498e-002
36354	4.2	1.7	5.e-002	6.9583
36355	4.2	1.55	0.	1.8577e-002
36356	4.15	1.6	0.	1.495e-002
36357	4.2	1.6	5.e-002	7.0385
36358	4.2	1.45	0.	2.3259e-002
36359	4.15	1.5	0.	1.9565e-002
36360	4.2	1.5	5.e-002	7.1068
36361	4.2	1.35	0.	2.8071e-002
36362	4.15	1.4	0.	2.4334e-002
36363	4.2	1.4	5.e-002	7.1619
36364	4.2	1.25	0.	3.302e-002
36365	4.15	1.3	0.	2.926e-002
36366	4.2	1.3	5.e-002	7.2025
36367	4.2	1.15	0.	3.8135e-002
36368	4.15	1.2	0.	3.4363e-002
36369	4.2	1.2	5.e-002	7.2279
36370	4.2	1.05	0.	4.3474e-002
36371	4.15	1.1	0.	3.9691e-002
36372	4.2	1.1	5.e-002	7.2373
36373	4.2	0.95	0.	4.9143e-002
36374	4.15	1.	0.	4.5328e-002
36375	4.2	1.	5.e-002	7.2305
36376	4.2	0.85	0.	5.5322e-002
36377	4.15	0.9	0.	5.142e-002
36378	4.2	0.9	5.e-002	7.2072
36379	4.2	0.75	0.	6.2312e-002
36380	4.15	0.8	0.	5.8216e-002
36381	4.2	0.8	5.e-002	7.1676
36382	4.2	0.65	0.	7.0667e-002
36383	4.15	0.7	0.	6.6119e-002
36384	4.2	0.7	5.e-002	7.112
36385	4.2	0.55	0.	8.1274e-002
36386	4.15	0.6	0.	7.5943e-002
36387	4.2	0.6	5.e-002	7.0408
36388	4.2	0.45	0.	9.6562e-002
36389	4.15	0.5	0.	8.886e-002
36390	4.2	0.5	5.e-002	6.9546
36391	4.2	0.35	0.	0.11923
36392	4.15	0.4	0.	0.10916
36393	4.2	0.4	5.e-002	6.8542
36394	4.2	0.25	0.	0.1885
36395	4.15	0.3	0.	0.13964
36396	4.2	0.3	5.e-002	6.7454
36397	4.2	0.15	0.	0.41227
36398	4.15	0.2	0.	0.26742
36399	4.2	0.2	5.e-002	6.7182
36400	4.15	0.1	0.	0.80047
36401	4.2	0.1	5.e-002	8.6436
36402	4.2	5.e-002	0.	0.57656
36403	4.1	5.85	0.	0.44457
36404	4.05	5.9	0.	0.87822
36405	4.1	5.9	5.e-002	8.7895
36406	4.1	5.95	0.	0.62496
36407	4.1	5.75	0.	0.19934
36408	4.05	5.8	0.	0.28517
36409	4.1	5.8	5.e-002	6.7026
36410	4.1	5.65	0.	0.12377
36411	4.05	5.7	0.	0.14614
36412	4.1	5.7	5.e-002	6.7229
36413	4.1	5.55	0.	9.8939e-002
36414	4.05	5.6	0.	0.11283
36415	4.1	5.6	5.e-002	6.8327
36416	4.1	5.45	0.	8.2193e-002
36417	4.05	5.5	0.	9.0675e-002
36418	4.1	5.5	5.e-002	6.9358
36419	4.1	5.35	0.	7.0591e-002
36420	4.05	5.4	0.	7.6577e-002
36421	4.1	5.4	5.e-002	7.0258
36422	4.1	5.25	0.	6.1495e-002
36423	4.05	5.3	0.	6.5887e-002
36424	4.1	5.3	5.e-002	7.1021
36425	4.1	5.15	0.	5.3942e-002
36426	4.05	5.2	0.	5.7335e-002
36427	4.1	5.2	5.e-002	7.1638
36428	4.1	5.05	0.	4.7331e-002
36429	4.05	5.1	0.	5.004e-002
36430	4.1	5.1	5.e-002	7.2106
36431	4.1	4.95	0.	4.1333e-002
36432	4.05	5.	0.	4.3565e-002
36433	4.1	5.	5.e-002	7.2421
36434	4.1	4.85	0.	3.575e-002
36435	4.05	4.9	0.	3.7637e-002
36436	4.1	4.9	5.e-002	7.2582
36437	4.1	4.75	0.	3.0463e-002
36438	4.05	4.8	0.	3.2095e-002
36439	4.1	4.8	5.e-002	7.2589
36440	4.1	4.65	0.	2.5404e-002
36441	4.05	4.7	0.	2.6844e-002
36442	4.1	4.7	5.e-002	7.2448
36443	4.1	4.55	0.	2.0536e-002
36444	4.05	4.6	0.	2.1829e-002
36445	4.1	4.6	5.e-002	7.2162
36446	4.1	4.45	0.	1.5845e-002
36447	4.05	4.5	0.	1.702e-002
36448	4.1	4.5	5.e-002	7.1741
36449	4.1	4.35	0.	1.133e-002
36450	4.05	4.4	0.	1.2408e-002
36451	4.1	4.4	5.e-002	7.1195
36452	4.1	4.25	0.	7.0017e-003
36453	4.05	4.3	0.	7.9953e-003
36454	4.1	4.3	5.e-002	7.0537
36455	4.1	4.15	0.	2.8768e-003
36456	4.05	4.2	0.	3.7916e-003
36457	4.1	4.2	5.e-002	6.9785
36458	4.1	4.05	0.	-1.0234e-003
36459	4.05	4.1	0.	-1.8637e-004
36460	4.1	4.1	5.e-002	6.8957
36461	4.1	3.95	0.	-4.6747e-003
36462	4.05	4.	0.	-3.9187e-003
36463	4.1	4.	5.e-002	6.8074
36464	4.1	3.85	0.	-8.0519e-003
36465	4.05	3.9	0.	-7.3836e-003
36466	4.1	3.9	5.e-002	6.7161
36467	4.1	3.75	0.	-1.1129e-002
36468	4.05	3.8	0.	-1.0558e-002
36469	4.1	3.8	5.e-002	6.6241
36470	4.1	3.65	0.	-1.3883e-002
36471	4.05	3.7	0.	-1.3421e-002
36472	4.1	3.7	5.e-002	6.5343
36473	4.1	3.55	0.	-1.6289e-002
36474	4.05	3.6	0.	-1.5949e-002
36475	4.1	3.6	5.e-002	6.4493
36476	4.1	3.45	0.	-1.8328e-002
36477	4.05	3.5	0.	-1.8125e-002
36478	4.1	3.5	5.e-002	6.3718
36479	4.1	3.35	0.	-1.9981e-002
36480	4.05	3.4	0.	-1.9929e-002
36481	4.1	3.4	5.e-002	6.3043
36482	4.1	3.25	0.	-2.1234e-002
36483	4.05	3.3	0.	-2.1348e-002
36484	4.1	3.3	5.e-002	6.2492
36485	4.1	3.15	0.	-2.2076e-002
36486	4.05	3.2	0.	-2.2371e-002
36487	4.1	3.2	5.e-002	6.2083
36488	4.1	3.05	0.	-2.2498e-002
36489	4.05	3.1	0.	-2.2987e-002
36490	4.1	3.1	5.e-002	6.1831
36491	4.1	2.95	0.	-2.2498e-002
36492	4.05	3.	0.	-2.3194e-002
36493	4.1	3.	5.e-002	6.1747
36494	4.1	2.85	0.	-2.2076e-002
36495	4.05	2.9	0.	-2.2987e-002
36496	4.1	2.9	5.e-002	6.1832
36497	4.1	2.75	0.	-2.1234e-002
36498	4.05	2.8	0.	-2.2371e-002
36499	4.1	2.8	5.e-002	6.2083
36500	4.1	2.65	0.	-1.9981e-002
36501	4.05	2.7	0.	-2.1348e-002
36502	4.1	2.7	5.e-002	6.2493
36503	4.1	2.55	0.	-1.8328e-002
36504	4.05	2.6	0.	-1.9929e-002
36505	4.1	2.6	5.e-002	6.3044
36506	4.1	2.45	0.	-1.6289e-002
36507	4.05	2.5	0.	-1.8124e-002
36508	4.1	2.5	5.e-002	6.3719
36509	4.1	2.35	0.	-1.3883e-002
36510	4.05	2.4	0.	-1.5949e-002
36511	4.1	2.4	5.e-002	6.4495
36512	4.1	2.25	0.	-1.1129e-002
36513	4.05	2.3	0.	-1.3421e-002
36514	4.1	2.3	5.e-002	6.5345
36515	4.1	2.15	0.	-8.0516e-003
36516	4.05	2.2	0.	-1.0558e-002
36517	4.1	2.2	5.e-002	6.6243
36518	4.1	2.05	0.	-4.6744e-003
36519	4.05	2.1	0.	-7.3833e-003
36520	4.1	2.1	5.e-002	6.7163
36521	4.1	1.95	0.	-1.023e-003
36522	4.05	2.	0.	-3.9184e-003
36523	4.1	2.	5.e-002	6.8077
36524	4.1	1.85	0.	2.8772e-003
36525	4.05	1.9	0.	-1.8591e-004
36526	4.1	1.9	5.e-002	6.8959
36527	4.1	1.75	0.	7.0021e-003
36528	4.05	1.8	0.	3.792e-003
36529	4.1	1.8	5.e-002	6.9788
36530	4.1	1.65	0.	1.133e-002
36531	4.05	1.7	0.	7.9958e-003
36532	4.1	1.7	5.e-002	7.054
36533	4.1	1.55	0.	1.5845e-002
36534	4.05	1.6	0.	1.2409e-002
36535	4.1	1.6	5.e-002	7.1198
36536	4.1	1.45	0.	2.0536e-002
36537	4.05	1.5	0.	1.7021e-002
36538	4.1	1.5	5.e-002	7.1744
36539	4.1	1.35	0.	2.5404e-002
36540	4.05	1.4	0.	2.1829e-002
36541	4.1	1.4	5.e-002	7.2165
36542	4.1	1.25	0.	3.0463e-002
36543	4.05	1.3	0.	2.6845e-002
36544	4.1	1.3	5.e-002	7.2451
36545	4.1	1.15	0.	3.5751e-002
36546	4.05	1.2	0.	3.2096e-002
36547	4.1	1.2	5.e-002	7.2593
36548	4.1	1.05	0.	4.1334e-002
36549	4.05	1.1	0.	3.7637e-002
36550	4.1	1.1	5.e-002	7.2585
36551	4.1	0.95	0.	4.7332e-002
36552	4.05	1.	0.	4.3566e-002
36553	4.1	1.	5.e-002	7.2425
36554	4.1	0.85	0.	5.3943e-002
36555	4.05	0.9	0.	5.0041e-002
36556	4.1	0.9	5.e-002	7.211
36557	4.1	0.75	0.	6.1496e-002
36558	4.05	0.8	0.	5.7336e-002
36559	4.1	0.8	5.e-002	7.1643
36560	4.1	0.65	0.	7.0592e-002
36561	4.05	0.7	0.	6.5888e-002
36562	4.1	0.7	5.e-002	7.1026
36563	4.1	0.55	0.	8.2194e-002
36564	4.05	0.6	0.	7.6578e-002
36565	4.1	0.6	5.e-002	7.0264
36566	4.1	0.45	0.	9.894e-002
36567	4.05	0.5	0.	9.0676e-002
36568	4.1	0.5	5.e-002	6.9363
36569	4.1	0.35	0.	0.12377
36570	4.05	0.4	0.	0.11283
36571	4.1	0.4	5.e-002	6.8333
36572	4.1	0.25	0.	0.19934
36573	4.05	0.3	0.	0.14614
36574	4.1	0.3	5.e-002	6.7235
36575	4.1	0.15	0.	0.44457
36576	4.05	0.2	0.	0.28518
36577	4.1	0.2	5.e-002	6.7032
36578	4.05	0.1	0.	0.87822
36579	4.1	0.1	5.e-002	8.7903
36580	4.1	5.e-002	0.	0.62496
36581	4.	5.85	0.	0.47917
36582	3.95	5.9	0.	0.96525
36583	4.	5.9	5.e-002	8.9643
36584	4.	5.95	0.	0.67444
36585	4.	5.75	0.	0.21099
36586	3.95	5.8	0.	0.30407
36587	4.	5.8	5.e-002	6.7054
36588	4.	5.65	0.	0.12893
36589	3.95	5.7	0.	0.15333
36590	4.	5.7	5.e-002	6.7187
36591	4.	5.55	0.	0.10186
36592	3.95	5.6	0.	0.11706
36593	4.	5.6	5.e-002	6.8296
36594	4.	5.45	0.	8.3628e-002
36595	3.95	5.5	0.	9.2997e-002
36596	4.	5.5	5.e-002	6.9353
36597	4.	5.35	0.	7.1013e-002
36598	3.95	5.4	0.	7.7689e-002
36599	4.	5.4	5.e-002	7.0291
36600	4.	5.25	0.	6.1162e-002
36601	3.95	5.3	0.	6.6116e-002
36602	4.	5.3	5.e-002	7.1101
36603	4.	5.15	0.	5.3036e-002
36604	3.95	5.2	0.	5.6901e-002
36605	4.	5.2	5.e-002	7.1778
36606	4.	5.05	0.	4.5981e-002
36607	3.95	5.1	0.	4.9095e-002
36608	4.	5.1	5.e-002	7.2313
36609	4.	4.95	0.	3.9642e-002
36610	3.95	5.	0.	4.2223e-002
36611	4.	5.	5.e-002	7.2706
36612	4.	4.85	0.	3.38e-002
36613	3.95	4.9	0.	3.599e-002
36614	4.	4.9	5.e-002	7.2954
36615	4.	4.75	0.	2.8327e-002
36616	3.95	4.8	0.	3.0222e-002
36617	4.	4.8	5.e-002	7.3058
36618	4.	4.65	0.	2.3142e-002
36619	3.95	4.7	0.	2.4809e-002
36620	4.	4.7	5.e-002	7.3021
36621	4.	4.55	0.	1.8202e-002
36622	3.95	4.6	0.	1.9689e-002
36623	4.	4.6	5.e-002	7.2848
36624	4.	4.45	0.	1.3485e-002
36625	3.95	4.5	0.	1.4826e-002
36626	4.	4.5	5.e-002	7.2547
36627	4.	4.35	0.	8.9836e-003
36628	3.95	4.4	0.	1.0202e-002
36629	4.	4.4	5.e-002	7.2128
36630	4.	4.25	0.	4.7019e-003
36631	3.95	4.3	0.	5.8136e-003
36632	4.	4.3	5.e-002	7.1603
36633	4.	4.15	0.	6.5032e-004
36634	3.95	4.2	0.	1.6646e-003
36635	4.	4.2	5.e-002	7.0989
36636	4.	4.05	0.	-3.156e-003
36637	3.95	4.1	0.	-2.2348e-003
36638	4.	4.1	5.e-002	7.0302
36639	4.	3.95	0.	-6.699e-003
36640	3.95	4.	0.	-5.8708e-003
36641	4.	4.	5.e-002	6.9563
36642	4.	3.85	0.	-9.9594e-003
36643	3.95	3.9	0.	-9.2275e-003
36644	4.	3.9	5.e-002	6.8792
36645	4.	3.75	0.	-1.2917e-002
36646	3.95	3.8	0.	-1.2288e-002
36647	4.	3.8	5.e-002	6.8012
36648	4.	3.65	0.	-1.5554e-002
36649	3.95	3.7	0.	-1.5036e-002
36650	4.	3.7	5.e-002	6.7249
36651	4.	3.55	0.	-1.785e-002
36652	3.95	3.6	0.	-1.7454e-002
36653	4.	3.6	5.e-002	6.6525
36654	4.	3.45	0.	-1.9791e-002
36655	3.95	3.5	0.	-1.9528e-002
36656	4.	3.5	5.e-002	6.5864
36657	4.	3.35	0.	-2.1361e-002
36658	3.95	3.4	0.	-2.1244e-002
36659	4.	3.4	5.e-002	6.5288
36660	4.	3.25	0.	-2.2549e-002
36661	3.95	3.3	0.	-2.2591e-002
36662	4.	3.3	5.e-002	6.4817
36663	4.	3.15	0.	-2.3346e-002
36664	3.95	3.2	0.	-2.356e-002
36665	4.	3.2	5.e-002	6.4468
36666	4.	3.05	0.	-2.3746e-002
36667	3.95	3.1	0.	-2.4144e-002
36668	4.	3.1	5.e-002	6.4254
36669	4.	2.95	0.	-2.3746e-002
36670	3.95	3.	0.	-2.4339e-002
36671	4.	3.	5.e-002	6.4181
36672	4.	2.85	0.	-2.3346e-002
36673	3.95	2.9	0.	-2.4144e-002
36674	4.	2.9	5.e-002	6.4254
36675	4.	2.75	0.	-2.2549e-002
36676	3.95	2.8	0.	-2.356e-002
36677	4.	2.8	5.e-002	6.4469
36678	4.	2.65	0.	-2.1361e-002
36679	3.95	2.7	0.	-2.2591e-002
36680	4.	2.7	5.e-002	6.4818
36681	4.	2.55	0.	-1.9791e-002
36682	3.95	2.6	0.	-2.1244e-002
36683	4.	2.6	5.e-002	6.5289
36684	4.	2.45	0.	-1.785e-002
36685	3.95	2.5	0.	-1.9528e-002
36686	4.	2.5	5.e-002	6.5865
36687	4.	2.35	0.	-1.5553e-002
36688	3.95	2.4	0.	-1.7454e-002
36689	4.	2.4	5.e-002	6.6526
36690	4.	2.25	0.	-1.2917e-002
36691	3.95	2.3	0.	-1.5036e-002
36692	4.	2.3	5.e-002	6.7251
36693	4.	2.15	0.	-9.9591e-003
36694	3.95	2.2	0.	-1.2288e-002
36695	4.	2.2	5.e-002	6.8014
36696	4.	2.05	0.	-6.6986e-003
36697	3.95	2.1	0.	-9.2273e-003
36698	4.	2.1	5.e-002	6.8794
36699	4.	1.95	0.	-3.1556e-003
36700	3.95	2.	0.	-5.8704e-003
36701	4.	2.	5.e-002	6.9565
36702	4.	1.85	0.	6.5071e-004
36703	3.95	1.9	0.	-2.2344e-003
36704	4.	1.9	5.e-002	7.0305
36705	4.	1.75	0.	4.7024e-003
36706	3.95	1.8	0.	1.665e-003
36707	4.	1.8	5.e-002	7.0991
36708	4.	1.65	0.	8.9841e-003
36709	3.95	1.7	0.	5.8141e-003
36710	4.	1.7	5.e-002	7.1606
36711	4.	1.55	0.	1.3485e-002
36712	3.95	1.6	0.	1.0203e-002
36713	4.	1.6	5.e-002	7.213
36714	4.	1.45	0.	1.8203e-002
36715	3.95	1.5	0.	1.4826e-002
36716	4.	1.5	5.e-002	7.255
36717	4.	1.35	0.	2.3143e-002
36718	3.95	1.4	0.	1.969e-002
36719	4.	1.4	5.e-002	7.2851
36720	4.	1.25	0.	2.8327e-002
36721	3.95	1.3	0.	2.481e-002
36722	4.	1.3	5.e-002	7.3024
36723	4.	1.15	0.	3.3801e-002
36724	3.95	1.2	0.	3.0222e-002
36725	4.	1.2	5.e-002	7.3062
36726	4.	1.05	0.	3.9642e-002
36727	3.95	1.1	0.	3.5991e-002
36728	4.	1.1	5.e-002	7.2957
36729	4.	0.95	0.	4.5982e-002
36730	3.95	1.	0.	4.2224e-002
36731	4.	1.	5.e-002	7.271
36732	4.	0.85	0.	5.3037e-002
36733	3.95	0.9	0.	4.9096e-002
36734	4.	0.9	5.e-002	7.2317
36735	4.	0.75	0.	6.1163e-002
36736	3.95	0.8	0.	5.6902e-002
36737	4.	0.8	5.e-002	7.1782
36738	4.	0.65	0.	7.1014e-002
36739	3.95	0.7	0.	6.6117e-002
36740	4.	0.7	5.e-002	7.1106
36741	4.	0.55	0.	8.3629e-002
36742	3.95	0.6	0.	7.769e-002
36743	4.	0.6	5.e-002	7.0296
36744	4.	0.45	0.	0.10186
36745	3.95	0.5	0.	9.2998e-002
36746	4.	0.5	5.e-002	6.9358
36747	4.	0.35	0.	0.12894
36748	3.95	0.4	0.	0.11706
36749	4.	0.4	5.e-002	6.8302
36750	4.	0.25	0.	0.21099
36751	3.95	0.3	0.	0.15333
36752	4.	0.3	5.e-002	6.7192
36753	4.	0.15	0.	0.47917
36754	3.95	0.2	0.	0.30407
36755	4.	0.2	5.e-002	6.7061
36756	3.95	0.1	0.	0.96525
36757	4.	0.1	5.e-002	8.9651
36758	4.	5.e-002	0.	0.67444
36759	3.9	5.85	0.	0.51641
36760	3.85	5.9	0.	1.0636
36761	3.9	5.9	5.e-002	9.1649
36762	3.9	5.95	0.	0.72544
36763	3.9	5.75	0.	0.22348
36764	3.85	5.8	0.	0.32421
36765	3.9	5.8	5.e-002	6.7244
36766	3.9	5.65	0.	0.13469
36767	3.85	5.7	0.	0.1612
36768	3.9	5.7	5.e-002	6.7306
36769	3.9	5.55	0.	0.10529
36770	3.85	5.6	0.	0.12182
36771	3.9	5.6	5.e-002	6.8427
36772	3.9	5.45	0.	8.5528e-002
36773	3.85	5.5	0.	9.5789e-002
36774	3.9	5.5	5.e-002	6.9511
36775	3.9	5.35	0.	7.1875e-002
36776	3.85	5.4	0.	7.9235e-002
36777	3.9	5.4	5.e-002	7.0488
36778	3.9	5.25	0.	6.1252e-002
36779	3.85	5.3	0.	6.6754e-002
36780	3.9	5.3	5.e-002	7.1346
36781	3.9	5.15	0.	5.2537e-002
36782	3.85	5.2	0.	5.6858e-002
36783	3.9	5.2	5.e-002	7.2079
36784	3.9	5.05	0.	4.5024e-002
36785	3.85	5.1	0.	4.8524e-002
36786	3.9	5.1	5.e-002	7.2681
36787	3.9	4.95	0.	3.833e-002
36788	3.85	5.	0.	4.1241e-002
36789	3.9	5.	5.e-002	7.3148
36790	3.9	4.85	0.	3.2218e-002
36791	3.85	4.9	0.	3.4691e-002
36792	3.9	4.9	5.e-002	7.3479
36793	3.9	4.75	0.	2.6544e-002
36794	3.85	4.8	0.	2.8681e-002
36795	3.9	4.8	5.e-002	7.3674
36796	3.9	4.65	0.	2.1221e-002
36797	3.85	4.7	0.	2.3095e-002
36798	3.9	4.7	5.e-002	7.3735
36799	3.9	4.55	0.	1.6195e-002
36800	3.85	4.6	0.	1.7858e-002
36801	3.9	4.6	5.e-002	7.3668
36802	3.9	4.45	0.	1.1439e-002
36803	3.85	4.5	0.	1.2928e-002
36804	3.9	4.5	5.e-002	7.348
36805	3.9	4.35	0.	6.9377e-003
36806	3.85	4.4	0.	8.2805e-003
36807	3.9	4.4	5.e-002	7.3178
36808	3.9	4.25	0.	2.6897e-003
36809	3.85	4.3	0.	3.9053e-003
36810	3.9	4.3	5.e-002	7.2776
36811	3.9	4.15	0.	-1.3011e-003
36812	3.85	4.2	0.	-1.9981e-004
36813	3.9	4.2	5.e-002	7.2289
36814	3.9	4.05	0.	-5.0256e-003
36815	3.85	4.1	0.	-4.0309e-003
36816	3.9	4.1	5.e-002	7.1732
36817	3.9	3.95	0.	-8.4717e-003
36818	3.85	4.	0.	-7.5802e-003
36819	3.9	4.	5.e-002	7.1123
36820	3.9	3.85	0.	-1.1626e-002
36821	3.85	3.9	0.	-1.0838e-002
36822	3.9	3.9	5.e-002	7.0481
36823	3.9	3.75	0.	-1.4474e-002
36824	3.85	3.8	0.	-1.3793e-002
36825	3.9	3.8	5.e-002	6.9828
36826	3.9	3.65	0.	-1.7002e-002
36827	3.85	3.7	0.	-1.6433e-002
36828	3.9	3.7	5.e-002	6.9185
36829	3.9	3.55	0.	-1.9197e-002
36830	3.85	3.6	0.	-1.8748e-002
36831	3.9	3.6	5.e-002	6.8573
36832	3.9	3.45	0.	-2.1045e-002
36833	3.85	3.5	0.	-2.0726e-002
36834	3.9	3.5	5.e-002	6.8014
36835	3.9	3.35	0.	-2.2538e-002
36836	3.85	3.4	0.	-2.2358e-002
36837	3.9	3.4	5.e-002	6.7525
36838	3.9	3.25	0.	-2.3665e-002
36839	3.85	3.3	0.	-2.3637e-002
36840	3.9	3.3	5.e-002	6.7126
36841	3.9	3.15	0.	-2.442e-002
36842	3.85	3.2	0.	-2.4555e-002
36843	3.9	3.2	5.e-002	6.6829
36844	3.9	3.05	0.	-2.4799e-002
36845	3.85	3.1	0.	-2.5107e-002
36846	3.9	3.1	5.e-002	6.6647
36847	3.9	2.95	0.	-2.4799e-002
36848	3.85	3.	0.	-2.5292e-002
36849	3.9	3.	5.e-002	6.6586
36850	3.9	2.85	0.	-2.442e-002
36851	3.85	2.9	0.	-2.5107e-002
36852	3.9	2.9	5.e-002	6.6647
36853	3.9	2.75	0.	-2.3665e-002
36854	3.85	2.8	0.	-2.4555e-002
36855	3.9	2.8	5.e-002	6.683
36856	3.9	2.65	0.	-2.2537e-002
36857	3.85	2.7	0.	-2.3637e-002
36858	3.9	2.7	5.e-002	6.7126
36859	3.9	2.55	0.	-2.1045e-002
36860	3.85	2.6	0.	-2.2358e-002
36861	3.9	2.6	5.e-002	6.7526
36862	3.9	2.45	0.	-1.9196e-002
36863	3.85	2.5	0.	-2.0726e-002
36864	3.9	2.5	5.e-002	6.8014
36865	3.9	2.35	0.	-1.7002e-002
36866	3.85	2.4	0.	-1.8747e-002
36867	3.9	2.4	5.e-002	6.8574
36868	3.9	2.25	0.	-1.4474e-002
36869	3.85	2.3	0.	-1.6433e-002
36870	3.9	2.3	5.e-002	6.9186
36871	3.9	2.15	0.	-1.1626e-002
36872	3.85	2.2	0.	-1.3792e-002
36873	3.9	2.2	5.e-002	6.983
36874	3.9	2.05	0.	-8.4714e-003
36875	3.85	2.1	0.	-1.0838e-002
36876	3.9	2.1	5.e-002	7.0483
36877	3.9	1.95	0.	-5.0252e-003
36878	3.85	2.	0.	-7.5798e-003
36879	3.9	2.	5.e-002	7.1125
36880	3.9	1.85	0.	-1.3007e-003
36881	3.85	1.9	0.	-4.0305e-003
36882	3.9	1.9	5.e-002	7.1734
36883	3.9	1.75	0.	2.6902e-003
36884	3.85	1.8	0.	-1.9935e-004
36885	3.9	1.8	5.e-002	7.2292
36886	3.9	1.65	0.	6.9383e-003
36887	3.85	1.7	0.	3.9058e-003
36888	3.9	1.7	5.e-002	7.278
36889	3.9	1.55	0.	1.1439e-002
36890	3.85	1.6	0.	8.281e-003
36891	3.9	1.6	5.e-002	7.3181
36892	3.9	1.45	0.	1.6196e-002
36893	3.85	1.5	0.	1.2928e-002
36894	3.9	1.5	5.e-002	7.3482
36895	3.9	1.35	0.	2.1221e-002
36896	3.85	1.4	0.	1.7859e-002
36897	3.9	1.4	5.e-002	7.3671
36898	3.9	1.25	0.	2.6545e-002
36899	3.85	1.3	0.	2.3095e-002
36900	3.9	1.3	5.e-002	7.3739
36901	3.9	1.15	0.	3.2219e-002
36902	3.85	1.2	0.	2.8682e-002
36903	3.9	1.2	5.e-002	7.3677
36904	3.9	1.05	0.	3.8331e-002
36905	3.85	1.1	0.	3.4691e-002
36906	3.9	1.1	5.e-002	7.3483
36907	3.9	0.95	0.	4.5025e-002
36908	3.85	1.	0.	4.1242e-002
36909	3.9	1.	5.e-002	7.3153
36910	3.9	0.85	0.	5.2538e-002
36911	3.85	0.9	0.	4.8525e-002
36912	3.9	0.9	5.e-002	7.2685
36913	3.9	0.75	0.	6.1253e-002
36914	3.85	0.8	0.	5.6859e-002
36915	3.9	0.8	5.e-002	7.2084
36916	3.9	0.65	0.	7.1876e-002
36917	3.85	0.7	0.	6.6755e-002
36918	3.9	0.7	5.e-002	7.1351
36919	3.9	0.55	0.	8.553e-002
36920	3.85	0.6	0.	7.9236e-002
36921	3.9	0.6	5.e-002	7.0493
36922	3.9	0.45	0.	0.10529
36923	3.85	0.5	0.	9.579e-002
36924	3.9	0.5	5.e-002	6.9517
36925	3.9	0.35	0.	0.13469
36926	3.85	0.4	0.	0.12183
36927	3.9	0.4	5.e-002	6.8433
36928	3.9	0.25	0.	0.22348
36929	3.85	0.3	0.	0.16121
36930	3.9	0.3	5.e-002	6.7311
36931	3.9	0.15	0.	0.51641
36932	3.85	0.2	0.	0.32421
36933	3.9	0.2	5.e-002	6.725
36934	3.85	0.1	0.	1.0636
36935	3.9	0.1	5.e-002	9.1656
36936	3.9	5.e-002	0.	0.72544
36937	3.8	5.85	0.	0.5567
36938	3.75	5.9	0.	1.1761
36939	3.8	5.9	5.e-002	9.3893
36940	3.8	5.95	0.	0.77853
36941	3.8	5.75	0.	0.23685
36942	3.75	5.8	0.	0.34574
36943	3.8	5.8	5.e-002	6.7578
36944	3.8	5.65	0.	0.14103
36945	3.75	5.7	0.	0.16979
36946	3.8	5.7	5.e-002	6.7571
36947	3.8	5.55	0.	0.10921
36948	3.75	5.6	0.	0.12712
36949	3.8	5.6	5.e-002	6.8709
36950	3.8	5.45	0.	8.7861e-002
36951	3.75	5.5	0.	9.9029e-002
36952	3.8	5.5	5.e-002	6.9824
36953	3.8	5.35	0.	7.3137e-002
36954	3.75	5.4	0.	8.1185e-002
36955	3.8	5.4	5.e-002	7.084
36956	3.8	5.25	0.	6.1719e-002
36957	3.75	5.3	0.	6.7765e-002
36958	3.8	5.3	5.e-002	7.1746
36959	3.8	5.15	0.	5.2396e-002
36960	3.75	5.2	0.	5.7164e-002
36961	3.8	5.2	5.e-002	7.2535
36962	3.8	5.05	0.	4.4409e-002
36963	3.75	5.1	0.	4.8284e-002
36964	3.8	5.1	5.e-002	7.3202
36965	3.8	4.95	0.	3.7346e-002
36966	3.75	5.	0.	4.0574e-002
36967	3.8	5.	5.e-002	7.3742
36968	3.8	4.85	0.	3.0949e-002
36969	3.75	4.9	0.	3.369e-002
36970	3.8	4.9	5.e-002	7.4152
36971	3.8	4.75	0.	2.5063e-002
36972	3.75	4.8	0.	2.7427e-002
36973	3.8	4.8	5.e-002	7.4434
36974	3.8	4.65	0.	1.9589e-002
36975	3.75	4.7	0.	2.1655e-002
36976	3.8	4.7	5.e-002	7.4589
36977	3.8	4.55	0.	1.4467e-002
36978	3.75	4.6	0.	1.629e-002
36979	3.8	4.6	5.e-002	7.4621
36980	3.8	4.45	0.	9.6601e-003
36981	3.75	4.5	0.	1.1283e-002
36982	3.8	4.5	5.e-002	7.4537
36983	3.8	4.35	0.	5.1497e-003
36984	3.75	4.4	0.	6.6039e-003
36985	3.8	4.4	5.e-002	7.4345
36986	3.8	4.25	0.	9.2601e-004
36987	3.75	4.3	0.	2.234e-003
36988	3.8	4.3	5.e-002	7.4058
36989	3.8	4.15	0.	-3.0127e-003
36990	3.75	4.2	0.	-1.8344e-003
36991	3.8	4.2	5.e-002	7.3687
36992	3.8	4.05	0.	-6.6633e-003
36993	3.75	4.1	0.	-5.6036e-003
36994	3.8	4.1	5.e-002	7.3249
36995	3.8	3.95	0.	-1.002e-002
36996	3.75	4.	0.	-9.072e-003
36997	3.8	4.	5.e-002	7.2758
36998	3.8	3.85	0.	-1.3075e-002
36999	3.75	3.9	0.	-1.2236e-002
37000	3.8	3.9	5.e-002	7.2235
37001	3.8	3.75	0.	-1.5819e-002
37002	3.75	3.8	0.	-1.5089e-002
37003	3.8	3.8	5.e-002	7.1695
37004	3.8	3.65	0.	-1.8244e-002
37005	3.75	3.7	0.	-1.7626e-002
37006	3.8	3.7	5.e-002	7.1161
37007	3.8	3.55	0.	-2.0341e-002
37008	3.75	3.6	0.	-1.984e-002
37009	3.8	3.6	5.e-002	7.065
37010	3.8	3.45	0.	-2.2101e-002
37011	3.75	3.5	0.	-2.1726e-002
37012	3.8	3.5	5.e-002	7.0181
37013	3.8	3.35	0.	-2.3519e-002
37014	3.75	3.4	0.	-2.3277e-002
37015	3.8	3.4	5.e-002	6.9771
37016	3.8	3.25	0.	-2.4587e-002
37017	3.75	3.3	0.	-2.4488e-002
37018	3.8	3.3	5.e-002	6.9434
37019	3.8	3.15	0.	-2.5302e-002
37020	3.75	3.2	0.	-2.5357e-002
37021	3.8	3.2	5.e-002	6.9185
37022	3.8	3.05	0.	-2.5661e-002
37023	3.75	3.1	0.	-2.5879e-002
37024	3.8	3.1	5.e-002	6.9031
37025	3.8	2.95	0.	-2.5661e-002
37026	3.75	3.	0.	-2.6053e-002
37027	3.8	3.	5.e-002	6.8979
37028	3.8	2.85	0.	-2.5302e-002
37029	3.75	2.9	0.	-2.5879e-002
37030	3.8	2.9	5.e-002	6.9031
37031	3.8	2.75	0.	-2.4587e-002
37032	3.75	2.8	0.	-2.5357e-002
37033	3.8	2.8	5.e-002	6.9186
37034	3.8	2.65	0.	-2.3519e-002
37035	3.75	2.7	0.	-2.4488e-002
37036	3.8	2.7	5.e-002	6.9435
37037	3.8	2.55	0.	-2.2101e-002
37038	3.75	2.6	0.	-2.3277e-002
37039	3.8	2.6	5.e-002	6.9771
37040	3.8	2.45	0.	-2.0341e-002
37041	3.75	2.5	0.	-2.1726e-002
37042	3.8	2.5	5.e-002	7.0182
37043	3.8	2.35	0.	-1.8244e-002
37044	3.75	2.4	0.	-1.984e-002
37045	3.8	2.4	5.e-002	7.0652
37046	3.8	2.25	0.	-1.5819e-002
37047	3.75	2.3	0.	-1.7626e-002
37048	3.8	2.3	5.e-002	7.1163
37049	3.8	2.15	0.	-1.3074e-002
37050	3.75	2.2	0.	-1.5089e-002
37051	3.8	2.2	5.e-002	7.1697
37052	3.8	2.05	0.	-1.002e-002
37053	3.75	2.1	0.	-1.2235e-002
37054	3.8	2.1	5.e-002	7.2237
37055	3.8	1.95	0.	-6.6629e-003
37056	3.75	2.	0.	-9.0716e-003
37057	3.8	2.	5.e-002	7.2761
37058	3.8	1.85	0.	-3.0122e-003
37059	3.75	1.9	0.	-5.6032e-003
37060	3.8	1.9	5.e-002	7.3251
37061	3.8	1.75	0.	9.2646e-004
37062	3.75	1.8	0.	-1.8339e-003
37063	3.8	1.8	5.e-002	7.369
37064	3.8	1.65	0.	5.1502e-003
37065	3.75	1.7	0.	2.2345e-003
37066	3.8	1.7	5.e-002	7.4061
37067	3.8	1.55	0.	9.6607e-003
37068	3.75	1.6	0.	6.6044e-003
37069	3.8	1.6	5.e-002	7.4348
37070	3.8	1.45	0.	1.4467e-002
37071	3.75	1.5	0.	1.1284e-002
37072	3.8	1.5	5.e-002	7.454
37073	3.8	1.35	0.	1.9589e-002
37074	3.75	1.4	0.	1.6291e-002
37075	3.8	1.4	5.e-002	7.4624
37076	3.8	1.25	0.	2.5063e-002
37077	3.75	1.3	0.	2.1655e-002
37078	3.8	1.3	5.e-002	7.4592
37079	3.8	1.15	0.	3.095e-002
37080	3.75	1.2	0.	2.7428e-002
37081	3.8	1.2	5.e-002	7.4438
37082	3.8	1.05	0.	3.7346e-002
37083	3.75	1.1	0.	3.3691e-002
37084	3.8	1.1	5.e-002	7.4156
37085	3.8	0.95	0.	4.441e-002
37086	3.75	1.	0.	4.0574e-002
37087	3.8	1.	5.e-002	7.3746
37088	3.8	0.85	0.	5.2397e-002
37089	3.75	0.9	0.	4.8284e-002
37090	3.8	0.9	5.e-002	7.3206
37091	3.8	0.75	0.	6.172e-002
37092	3.75	0.8	0.	5.7165e-002
37093	3.8	0.8	5.e-002	7.254
37094	3.8	0.65	0.	7.3138e-002
37095	3.75	0.7	0.	6.7766e-002
37096	3.8	0.7	5.e-002	7.175
37097	3.8	0.55	0.	8.7862e-002
37098	3.75	0.6	0.	8.1186e-002
37099	3.8	0.6	5.e-002	7.0844
37100	3.8	0.45	0.	0.10921
37101	3.75	0.5	0.	9.903e-002
37102	3.8	0.5	5.e-002	6.9829
37103	3.8	0.35	0.	0.14104
37104	3.75	0.4	0.	0.12712
37105	3.8	0.4	5.e-002	6.8715
37106	3.8	0.25	0.	0.23685
37107	3.75	0.3	0.	0.16979
37108	3.8	0.3	5.e-002	6.7577
37109	3.8	0.15	0.	0.5567
37110	3.75	0.2	0.	0.34574
37111	3.8	0.2	5.e-002	6.7584
37112	3.75	0.1	0.	1.1761
37113	3.8	0.1	5.e-002	9.39
37114	3.8	5.e-002	0.	0.77853
37115	3.7	5.85	0.	0.60053
37116	3.65	5.9	0.	1.3063
37117	3.7	5.9	5.e-002	9.6358
37118	3.7	5.95	0.	0.83435
37119	3.7	5.75	0.	0.25118
37120	3.65	5.8	0.	0.36881
37121	3.7	5.8	5.e-002	6.8044
37122	3.7	5.65	0.	0.14798
37123	3.65	5.7	0.	0.17913
37124	3.7	5.7	5.e-002	6.7972
37125	3.7	5.55	0.	0.1136
37126	3.65	5.6	0.	0.13295
37127	3.7	5.6	5.e-002	6.913
37128	3.7	5.45	0.	9.0606e-002
37129	3.65	5.5	0.	0.10271
37130	3.7	5.5	5.e-002	7.0278
37131	3.7	5.35	0.	7.4772e-002
37132	3.65	5.4	0.	8.3518e-002
37133	3.7	5.4	5.e-002	7.1336
37134	3.7	5.25	0.	6.253e-002
37135	3.65	5.3	0.	6.9123e-002
37136	3.7	5.3	5.e-002	7.2293
37137	3.7	5.15	0.	5.2576e-002
37138	3.65	5.2	0.	5.779e-002
37139	3.7	5.2	5.e-002	7.314
37140	3.7	5.05	0.	4.4097e-002
37141	3.65	5.1	0.	4.834e-002
37142	3.7	5.1	5.e-002	7.3871
37143	3.7	4.95	0.	3.6647e-002
37144	3.65	5.	0.	4.0183e-002
37145	3.7	5.	5.e-002	7.4482
37146	3.7	4.85	0.	2.9952e-002
37147	3.65	4.9	0.	3.2952e-002
37148	3.7	4.9	5.e-002	7.497
37149	3.7	4.75	0.	2.3841e-002
37150	3.65	4.8	0.	2.6422e-002
37151	3.7	4.8	5.e-002	7.5335
37152	3.7	4.65	0.	1.8205e-002
37153	3.65	4.7	0.	2.0451e-002
37154	3.7	4.7	5.e-002	7.5579
37155	3.7	4.55	0.	1.2977e-002
37156	3.65	4.6	0.	1.495e-002
37157	3.7	4.6	5.e-002	7.5705
37158	3.7	4.45	0.	8.1128e-003
37159	3.65	4.5	0.	9.8592e-003
37160	3.7	4.5	5.e-002	7.572
37161	3.7	4.35	0.	3.5858e-003
37162	3.65	4.4	0.	5.1411e-003
37163	3.7	4.4	5.e-002	7.5631
37164	3.7	4.25	0.	-6.1938e-004
37165	3.65	4.3	0.	7.7164e-004
37166	3.7	4.3	5.e-002	7.545
37167	3.7	4.15	0.	-4.5109e-003
37168	3.65	4.2	0.	-3.2638e-003
37169	3.7	4.2	5.e-002	7.5187
37170	3.7	4.05	0.	-8.092e-003
37171	3.65	4.1	0.	-6.974e-003
37172	3.7	4.1	5.e-002	7.4858
37173	3.7	3.95	0.	-1.1363e-002
37174	3.65	4.	0.	-1.0364e-002
37175	3.7	4.	5.e-002	7.4477
37176	3.7	3.85	0.	-1.4321e-002
37177	3.65	3.9	0.	-1.3435e-002
37178	3.7	3.9	5.e-002	7.406
37179	3.7	3.75	0.	-1.6964e-002
37180	3.65	3.8	0.	-1.6188e-002
37181	3.7	3.8	5.e-002	7.3625
37182	3.7	3.65	0.	-1.9288e-002
37183	3.65	3.7	0.	-1.8623e-002
37184	3.7	3.7	5.e-002	7.3188
37185	3.7	3.55	0.	-2.1289e-002
37186	3.65	3.6	0.	-2.0737e-002
37187	3.7	3.6	5.e-002	7.2768
37188	3.7	3.45	0.	-2.2963e-002
37189	3.65	3.5	0.	-2.253e-002
37190	3.7	3.5	5.e-002	7.238
37191	3.7	3.35	0.	-2.4307e-002
37192	3.65	3.4	0.	-2.4e-002
37193	3.7	3.4	5.e-002	7.2039
37194	3.7	3.25	0.	-2.5318e-002
37195	3.65	3.3	0.	-2.5144e-002
37196	3.7	3.3	5.e-002	7.176
37197	3.7	3.15	0.	-2.5993e-002
37198	3.65	3.2	0.	-2.5963e-002
37199	3.7	3.2	5.e-002	7.1552
37200	3.7	3.05	0.	-2.633e-002
37201	3.65	3.1	0.	-2.6455e-002
37202	3.7	3.1	5.e-002	7.1424
37203	3.7	2.95	0.	-2.633e-002
37204	3.65	3.	0.	-2.6619e-002
37205	3.7	3.	5.e-002	7.1381
37206	3.7	2.85	0.	-2.5993e-002
37207	3.65	2.9	0.	-2.6455e-002
37208	3.7	2.9	5.e-002	7.1424
37209	3.7	2.75	0.	-2.5318e-002
37210	3.65	2.8	0.	-2.5963e-002
37211	3.7	2.8	5.e-002	7.1553
37212	3.7	2.65	0.	-2.4307e-002
37213	3.65	2.7	0.	-2.5144e-002
37214	3.7	2.7	5.e-002	7.1761
37215	3.7	2.55	0.	-2.2963e-002
37216	3.65	2.6	0.	-2.4e-002
37217	3.7	2.6	5.e-002	7.2041
37218	3.7	2.45	0.	-2.1289e-002
37219	3.65	2.5	0.	-2.253e-002
37220	3.7	2.5	5.e-002	7.2382
37221	3.7	2.35	0.	-1.9288e-002
37222	3.65	2.4	0.	-2.0737e-002
37223	3.7	2.4	5.e-002	7.277
37224	3.7	2.25	0.	-1.6964e-002
37225	3.65	2.3	0.	-1.8623e-002
37226	3.7	2.3	5.e-002	7.319
37227	3.7	2.15	0.	-1.4321e-002
37228	3.65	2.2	0.	-1.6188e-002
37229	3.7	2.2	5.e-002	7.3627
37230	3.7	2.05	0.	-1.1362e-002
37231	3.65	2.1	0.	-1.3435e-002
37232	3.7	2.1	5.e-002	7.4062
37233	3.7	1.95	0.	-8.0917e-003
37234	3.65	2.	0.	-1.0363e-002
37235	3.7	2.	5.e-002	7.4479
37236	3.7	1.85	0.	-4.5105e-003
37237	3.65	1.9	0.	-6.9737e-003
37238	3.7	1.9	5.e-002	7.4861
37239	3.7	1.75	0.	-6.1894e-004
37240	3.65	1.8	0.	-3.2634e-003
37241	3.7	1.8	5.e-002	7.519
37242	3.7	1.65	0.	3.5863e-003
37243	3.65	1.7	0.	7.7209e-004
37244	3.7	1.7	5.e-002	7.5452
37245	3.7	1.55	0.	8.1133e-003
37246	3.65	1.6	0.	5.1416e-003
37247	3.7	1.6	5.e-002	7.5634
37248	3.7	1.45	0.	1.2978e-002
37249	3.65	1.5	0.	9.8598e-003
37250	3.7	1.5	5.e-002	7.5723
37251	3.7	1.35	0.	1.8206e-002
37252	3.65	1.4	0.	1.4951e-002
37253	3.7	1.4	5.e-002	7.5708
37254	3.7	1.25	0.	2.3842e-002
37255	3.65	1.3	0.	2.0452e-002
37256	3.7	1.3	5.e-002	7.5582
37257	3.7	1.15	0.	2.9953e-002
37258	3.65	1.2	0.	2.6422e-002
37259	3.7	1.2	5.e-002	7.5339
37260	3.7	1.05	0.	3.6648e-002
37261	3.65	1.1	0.	3.2952e-002
37262	3.7	1.1	5.e-002	7.4973
37263	3.7	0.95	0.	4.4097e-002
37264	3.65	1.	0.	4.0184e-002
37265	3.7	1.	5.e-002	7.4485
37266	3.7	0.85	0.	5.2577e-002
37267	3.65	0.9	0.	4.8341e-002
37268	3.7	0.9	5.e-002	7.3875
37269	3.7	0.75	0.	6.2531e-002
37270	3.65	0.8	0.	5.779e-002
37271	3.7	0.8	5.e-002	7.3144
37272	3.7	0.65	0.	7.4773e-002
37273	3.65	0.7	0.	6.9123e-002
37274	3.7	0.7	5.e-002	7.2297
37275	3.7	0.55	0.	9.0607e-002
37276	3.65	0.6	0.	8.3519e-002
37277	3.7	0.6	5.e-002	7.1341
37278	3.7	0.45	0.	0.1136
37279	3.65	0.5	0.	0.10271
37280	3.7	0.5	5.e-002	7.0283
37281	3.7	0.35	0.	0.14798
37282	3.65	0.4	0.	0.13295
37283	3.7	0.4	5.e-002	6.9135
37284	3.7	0.25	0.	0.25119
37285	3.65	0.3	0.	0.17913
37286	3.7	0.3	5.e-002	6.7977
37287	3.7	0.15	0.	0.60053
37288	3.65	0.2	0.	0.36881
37289	3.7	0.2	5.e-002	6.805
37290	3.65	0.1	0.	1.3063
37291	3.7	0.1	5.e-002	9.6365
37292	3.7	5.e-002	0.	0.83435
37293	3.6	5.85	0.	0.64851
37294	3.55	5.9	0.	1.4589
37295	3.6	5.9	5.e-002	9.9026
37296	3.6	5.95	0.	0.89375
37297	3.6	5.75	0.	0.26656
37298	3.55	5.8	0.	0.39362
37299	3.6	5.8	5.e-002	6.8628
37300	3.6	5.65	0.	0.15555
37301	3.55	5.7	0.	0.18925
37302	3.6	5.7	5.e-002	6.8496
37303	3.6	5.55	0.	0.11847
37304	3.55	5.6	0.	0.13932
37305	3.6	5.6	5.e-002	6.9681
37306	3.6	5.45	0.	9.3752e-002
37307	3.55	5.5	0.	0.10682
37308	3.6	5.5	5.e-002	7.0868
37309	3.6	5.35	0.	7.676e-002
37310	3.55	5.4	0.	8.6222e-002
37311	3.6	5.4	5.e-002	7.1972
37312	3.6	5.25	0.	6.366e-002
37313	3.55	5.3	0.	7.0808e-002
37314	3.6	5.3	5.e-002	7.2982
37315	3.6	5.15	0.	5.3049e-002
37316	3.55	5.2	0.	5.871e-002
37317	3.6	5.2	5.e-002	7.3888
37318	3.6	5.05	0.	4.4055e-002
37319	3.55	5.1	0.	4.8665e-002
37320	3.6	5.1	5.e-002	7.4684
37321	3.6	4.95	0.	3.6202e-002
37322	3.55	5.	0.	4.0042e-002
37323	3.6	5.	5.e-002	7.5365
37324	3.6	4.85	0.	2.9193e-002
37325	3.55	4.9	0.	3.2445e-002
37326	3.6	4.9	5.e-002	7.593
37327	3.6	4.75	0.	2.2845e-002
37328	3.55	4.8	0.	2.5634e-002
37329	3.6	4.8	5.e-002	7.6376
37330	3.6	4.65	0.	1.7038e-002
37331	3.55	4.7	0.	1.9456e-002
37332	3.6	4.7	5.e-002	7.6705
37333	3.6	4.55	0.	1.1696e-002
37334	3.55	4.6	0.	1.3809e-002
37335	3.6	4.6	5.e-002	7.6921
37336	3.6	4.45	0.	6.768e-003
37337	3.55	4.5	0.	8.6283e-003
37338	3.6	4.5	5.e-002	7.7029
37339	3.6	4.35	0.	2.2203e-003
37340	3.55	4.4	0.	3.8679e-003
37341	3.6	4.4	5.e-002	7.7038
37342	3.6	4.25	0.	-1.9692e-003
37343	3.55	4.3	0.	-5.0304e-004
37344	3.6	4.3	5.e-002	7.6955
37345	3.6	4.15	0.	-5.8154e-003
37346	3.55	4.2	0.	-4.5061e-003
37347	3.6	4.2	5.e-002	7.6794
37348	3.6	4.05	0.	-9.3278e-003
37349	3.55	4.1	0.	-8.1569e-003
37350	3.6	4.1	5.e-002	7.6566
37351	3.6	3.95	0.	-1.2513e-002
37352	3.55	4.	0.	-1.1467e-002
37353	3.6	4.	5.e-002	7.6285
37354	3.6	3.85	0.	-1.5375e-002
37355	3.55	3.9	0.	-1.4444e-002
37356	3.6	3.9	5.e-002	7.5966
37357	3.6	3.75	0.	-1.7916e-002
37358	3.55	3.8	0.	-1.7095e-002
37359	3.6	3.8	5.e-002	7.5626
37360	3.6	3.65	0.	-2.0138e-002
37361	3.55	3.7	0.	-1.9424e-002
37362	3.6	3.7	5.e-002	7.5279
37363	3.6	3.55	0.	-2.2042e-002
37364	3.55	3.6	0.	-2.1437e-002
37365	3.6	3.6	5.e-002	7.4941
37366	3.6	3.45	0.	-2.3629e-002
37367	3.55	3.5	0.	-2.3135e-002
37368	3.6	3.5	5.e-002	7.4626
37369	3.6	3.35	0.	-2.4898e-002
37370	3.55	3.4	0.	-2.4521e-002
37371	3.6	3.4	5.e-002	7.4349
37372	3.6	3.25	0.	-2.585e-002
37373	3.55	3.3	0.	-2.5598e-002
37374	3.6	3.3	5.e-002	7.4119
37375	3.6	3.15	0.	-2.6485e-002
37376	3.55	3.2	0.	-2.6366e-002
37377	3.6	3.2	5.e-002	7.3948
37378	3.6	3.05	0.	-2.6802e-002
37379	3.55	3.1	0.	-2.6826e-002
37380	3.6	3.1	5.e-002	7.3843
37381	3.6	2.95	0.	-2.6802e-002
37382	3.55	3.	0.	-2.6979e-002
37383	3.6	3.	5.e-002	7.3808
37384	3.6	2.85	0.	-2.6485e-002
37385	3.55	2.9	0.	-2.6826e-002
37386	3.6	2.9	5.e-002	7.3843
37387	3.6	2.75	0.	-2.585e-002
37388	3.55	2.8	0.	-2.6366e-002
37389	3.6	2.8	5.e-002	7.3949
37390	3.6	2.65	0.	-2.4898e-002
37391	3.55	2.7	0.	-2.5598e-002
37392	3.6	2.7	5.e-002	7.4119
37393	3.6	2.55	0.	-2.3629e-002
37394	3.55	2.6	0.	-2.4521e-002
37395	3.6	2.6	5.e-002	7.4349
37396	3.6	2.45	0.	-2.2042e-002
37397	3.55	2.5	0.	-2.3135e-002
37398	3.6	2.5	5.e-002	7.4627
37399	3.6	2.35	0.	-2.0138e-002
37400	3.55	2.4	0.	-2.1436e-002
37401	3.6	2.4	5.e-002	7.4942
37402	3.6	2.25	0.	-1.7916e-002
37403	3.55	2.3	0.	-1.9424e-002
37404	3.6	2.3	5.e-002	7.5281
37405	3.6	2.15	0.	-1.5374e-002
37406	3.55	2.2	0.	-1.7094e-002
37407	3.6	2.2	5.e-002	7.5628
37408	3.6	2.05	0.	-1.2513e-002
37409	3.55	2.1	0.	-1.4443e-002
37410	3.6	2.1	5.e-002	7.5969
37411	3.6	1.95	0.	-9.3274e-003
37412	3.55	2.	0.	-1.1466e-002
37413	3.6	2.	5.e-002	7.6287
37414	3.6	1.85	0.	-5.815e-003
37415	3.55	1.9	0.	-8.1566e-003
37416	3.6	1.9	5.e-002	7.6568
37417	3.6	1.75	0.	-1.9688e-003
37418	3.55	1.8	0.	-4.5058e-003
37419	3.6	1.8	5.e-002	7.6797
37420	3.6	1.65	0.	2.2208e-003
37421	3.55	1.7	0.	-5.0258e-004
37422	3.6	1.7	5.e-002	7.6958
37423	3.6	1.55	0.	6.7686e-003
37424	3.55	1.6	0.	3.8684e-003
37425	3.6	1.6	5.e-002	7.704
37426	3.6	1.45	0.	1.1697e-002
37427	3.55	1.5	0.	8.6289e-003
37428	3.6	1.5	5.e-002	7.7032
37429	3.6	1.35	0.	1.7039e-002
37430	3.55	1.4	0.	1.381e-002
37431	3.6	1.4	5.e-002	7.6924
37432	3.6	1.25	0.	2.2846e-002
37433	3.55	1.3	0.	1.9456e-002
37434	3.6	1.3	5.e-002	7.6709
37435	3.6	1.15	0.	2.9194e-002
37436	3.55	1.2	0.	2.5635e-002
37437	3.6	1.2	5.e-002	7.638
37438	3.6	1.05	0.	3.6203e-002
37439	3.55	1.1	0.	3.2445e-002
37440	3.6	1.1	5.e-002	7.5933
37441	3.6	0.95	0.	4.4056e-002
37442	3.55	1.	0.	4.0043e-002
37443	3.6	1.	5.e-002	7.537
37444	3.6	0.85	0.	5.305e-002
37445	3.55	0.9	0.	4.8666e-002
37446	3.6	0.9	5.e-002	7.4688
37447	3.6	0.75	0.	6.3661e-002
37448	3.55	0.8	0.	5.8711e-002
37449	3.6	0.8	5.e-002	7.3892
37450	3.6	0.65	0.	7.6761e-002
37451	3.55	0.7	0.	7.0809e-002
37452	3.6	0.7	5.e-002	7.2986
37453	3.6	0.55	0.	9.3753e-002
37454	3.55	0.6	0.	8.6223e-002
37455	3.6	0.6	5.e-002	7.1977
37456	3.6	0.45	0.	0.11847
37457	3.55	0.5	0.	0.10682
37458	3.6	0.5	5.e-002	7.0873
37459	3.6	0.35	0.	0.15555
37460	3.55	0.4	0.	0.13933
37461	3.6	0.4	5.e-002	6.9686
37462	3.6	0.25	0.	0.26656
37463	3.55	0.3	0.	0.18925
37464	3.6	0.3	5.e-002	6.8502
37465	3.6	0.15	0.	0.64851
37466	3.55	0.2	0.	0.39362
37467	3.6	0.2	5.e-002	6.8634
37468	3.55	0.1	0.	1.4589
37469	3.6	0.1	5.e-002	9.9034
37470	3.6	5.e-002	0.	0.89375
37471	3.5	5.85	0.	0.70137
37472	3.45	5.9	0.	1.6404
37473	3.5	5.9	5.e-002	10.188
37474	3.5	5.95	0.	0.95783
37475	3.5	5.75	0.	0.28309
37476	3.45	5.8	0.	0.42039
37477	3.5	5.8	5.e-002	6.932
37478	3.5	5.65	0.	0.16377
37479	3.45	5.7	0.	0.20023
37480	3.5	5.7	5.e-002	6.9136
37481	3.5	5.55	0.	0.12382
37482	3.45	5.6	0.	0.14627
37483	3.5	5.6	5.e-002	7.0354
37484	3.5	5.45	0.	9.7296e-002
37485	3.45	5.5	0.	0.11138
37486	3.5	5.5	5.e-002	7.1586
37487	3.5	5.35	0.	7.9089e-002
37488	3.45	5.4	0.	8.9292e-002
37489	3.5	5.4	5.e-002	7.2742
37490	3.5	5.25	0.	6.509e-002
37491	3.45	5.3	0.	7.2808e-002
37492	3.5	5.3	5.e-002	7.3808
37493	3.5	5.15	0.	5.3791e-002
37494	3.45	5.2	0.	5.9907e-002
37495	3.5	5.2	5.e-002	7.4776
37496	3.5	5.05	0.	4.4259e-002
37497	3.45	5.1	0.	4.9238e-002
37498	3.5	5.1	5.e-002	7.5639
37499	3.5	4.95	0.	3.5982e-002
37500	3.45	5.	0.	4.0124e-002
37501	3.5	5.	5.e-002	7.6392
37502	3.5	4.85	0.	2.8645e-002
37503	3.45	4.9	0.	3.2144e-002
37504	3.5	4.9	5.e-002	7.7032
37505	3.5	4.75	0.	2.2047e-002
37506	3.45	4.8	0.	2.5038e-002
37507	3.5	4.8	5.e-002	7.7557
37508	3.5	4.65	0.	1.6061e-002
37509	3.45	4.7	0.	1.8642e-002
37510	3.5	4.7	5.e-002	7.7969
37511	3.5	4.55	0.	1.0599e-002
37512	3.45	4.6	0.	1.2844e-002
37513	3.5	4.6	5.e-002	7.8271
37514	3.5	4.45	0.	5.6033e-003
37515	3.45	4.5	0.	7.5694e-003
37516	3.5	4.5	5.e-002	7.8469
37517	3.5	4.35	0.	1.0334e-003
37518	3.45	4.4	0.	2.7657e-003
37519	3.5	4.4	5.e-002	7.8569
37520	3.5	4.25	0.	-3.1402e-003
37521	3.45	4.3	0.	-1.6057e-003
37522	3.5	4.3	5.e-002	7.8579
37523	3.5	4.15	0.	-6.9393e-003
37524	3.45	4.2	0.	-5.5737e-003
37525	3.5	4.2	5.e-002	7.8512
37526	3.5	4.05	0.	-1.038e-002
37527	3.45	4.1	0.	-9.161e-003
37528	3.5	4.1	5.e-002	7.8378
37529	3.5	3.95	0.	-1.3476e-002
37530	3.45	4.	0.	-1.2386e-002
37531	3.5	4.	5.e-002	7.819
37532	3.5	3.85	0.	-1.6238e-002
37533	3.45	3.9	0.	-1.5263e-002
37534	3.5	3.9	5.e-002	7.7963
37535	3.5	3.75	0.	-1.8674e-002
37536	3.45	3.8	0.	-1.7806e-002
37537	3.5	3.8	5.e-002	7.7709
37538	3.5	3.65	0.	-2.079e-002
37539	3.45	3.7	0.	-2.0026e-002
37540	3.5	3.7	5.e-002	7.7443
37541	3.5	3.55	0.	-2.2594e-002
37542	3.45	3.6	0.	-2.1931e-002
37543	3.5	3.6	5.e-002	7.7181
37544	3.5	3.45	0.	-2.409e-002
37545	3.45	3.5	0.	-2.353e-002
37546	3.5	3.5	5.e-002	7.6933
37547	3.5	3.35	0.	-2.5283e-002
37548	3.45	3.4	0.	-2.483e-002
37549	3.5	3.4	5.e-002	7.6712
37550	3.5	3.25	0.	-2.6174e-002
37551	3.45	3.3	0.	-2.5835e-002
37552	3.5	3.3	5.e-002	7.6528
37553	3.5	3.15	0.	-2.6767e-002
37554	3.45	3.2	0.	-2.655e-002
37555	3.5	3.2	5.e-002	7.6391
37556	3.5	3.05	0.	-2.7063e-002
37557	3.45	3.1	0.	-2.6978e-002
37558	3.5	3.1	5.e-002	7.6306
37559	3.5	2.95	0.	-2.7063e-002
37560	3.45	3.	0.	-2.7121e-002
37561	3.5	3.	5.e-002	7.6277
37562	3.5	2.85	0.	-2.6767e-002
37563	3.45	2.9	0.	-2.6978e-002
37564	3.5	2.9	5.e-002	7.6306
37565	3.5	2.75	0.	-2.6174e-002
37566	3.45	2.8	0.	-2.655e-002
37567	3.5	2.8	5.e-002	7.6391
37568	3.5	2.65	0.	-2.5282e-002
37569	3.45	2.7	0.	-2.5835e-002
37570	3.5	2.7	5.e-002	7.6529
37571	3.5	2.55	0.	-2.409e-002
37572	3.45	2.6	0.	-2.483e-002
37573	3.5	2.6	5.e-002	7.6713
37574	3.5	2.45	0.	-2.2594e-002
37575	3.45	2.5	0.	-2.353e-002
37576	3.5	2.5	5.e-002	7.6934
37577	3.5	2.35	0.	-2.079e-002
37578	3.45	2.4	0.	-2.1931e-002
37579	3.5	2.4	5.e-002	7.7182
37580	3.5	2.25	0.	-1.8673e-002
37581	3.45	2.3	0.	-2.0026e-002
37582	3.5	2.3	5.e-002	7.7445
37583	3.5	2.15	0.	-1.6238e-002
37584	3.45	2.2	0.	-1.7806e-002
37585	3.5	2.2	5.e-002	7.7711
37586	3.5	2.05	0.	-1.3476e-002
37587	3.45	2.1	0.	-1.5263e-002
37588	3.5	2.1	5.e-002	7.7965
37589	3.5	1.95	0.	-1.038e-002
37590	3.45	2.	0.	-1.2386e-002
37591	3.5	2.	5.e-002	7.8193
37592	3.5	1.85	0.	-6.939e-003
37593	3.45	1.9	0.	-9.1606e-003
37594	3.5	1.9	5.e-002	7.8381
37595	3.5	1.75	0.	-3.1398e-003
37596	3.45	1.8	0.	-5.5733e-003
37597	3.5	1.8	5.e-002	7.8515
37598	3.5	1.65	0.	1.034e-003
37599	3.45	1.7	0.	-1.6052e-003
37600	3.5	1.7	5.e-002	7.8582
37601	3.5	1.55	0.	5.6039e-003
37602	3.45	1.6	0.	2.7662e-003
37603	3.5	1.6	5.e-002	7.8572
37604	3.5	1.45	0.	1.0599e-002
37605	3.45	1.5	0.	7.5698e-003
37606	3.5	1.5	5.e-002	7.8472
37607	3.5	1.35	0.	1.6061e-002
37608	3.45	1.4	0.	1.2844e-002
37609	3.5	1.4	5.e-002	7.8275
37610	3.5	1.25	0.	2.2048e-002
37611	3.45	1.3	0.	1.8642e-002
37612	3.5	1.3	5.e-002	7.7973
37613	3.5	1.15	0.	2.8645e-002
37614	3.45	1.2	0.	2.5039e-002
37615	3.5	1.2	5.e-002	7.7561
37616	3.5	1.05	0.	3.5983e-002
37617	3.45	1.1	0.	3.2144e-002
37618	3.5	1.1	5.e-002	7.7036
37619	3.5	0.95	0.	4.4259e-002
37620	3.45	1.	0.	4.0125e-002
37621	3.5	1.	5.e-002	7.6396
37622	3.5	0.85	0.	5.3792e-002
37623	3.45	0.9	0.	4.9239e-002
37624	3.5	0.9	5.e-002	7.5643
37625	3.5	0.75	0.	6.5091e-002
37626	3.45	0.8	0.	5.9908e-002
37627	3.5	0.8	5.e-002	7.478
37628	3.5	0.65	0.	7.909e-002
37629	3.45	0.7	0.	7.2809e-002
37630	3.5	0.7	5.e-002	7.3812
37631	3.5	0.55	0.	9.7297e-002
37632	3.45	0.6	0.	8.9293e-002
37633	3.5	0.6	5.e-002	7.2746
37634	3.5	0.45	0.	0.12382
37635	3.45	0.5	0.	0.11138
37636	3.5	0.5	5.e-002	7.1591
37637	3.5	0.35	0.	0.16378
37638	3.45	0.4	0.	0.14627
37639	3.5	0.4	5.e-002	7.0359
37640	3.5	0.25	0.	0.28309
37641	3.45	0.3	0.	0.20023
37642	3.5	0.3	5.e-002	6.9141
37643	3.5	0.15	0.	0.70137
37644	3.45	0.2	0.	0.4204
37645	3.5	0.2	5.e-002	6.9326
37646	3.45	0.1	0.	1.6404
37647	3.5	0.1	5.e-002	10.189
37648	3.5	5.e-002	0.	0.95783
37649	3.4	5.85	0.	0.75999
37650	3.35	5.9	0.	1.8597
37651	3.4	5.9	5.e-002	10.492
37652	3.4	5.95	0.	1.0281
37653	3.4	5.75	0.	0.30089
37654	3.35	5.8	0.	0.4494
37655	3.4	5.8	5.e-002	7.0111
37656	3.4	5.65	0.	0.1727
37657	3.35	5.7	0.	0.21213
37658	3.4	5.7	5.e-002	6.9884
37659	3.4	5.55	0.	0.12968
37660	3.35	5.6	0.	0.15382
37661	3.4	5.6	5.e-002	7.1144
37662	3.4	5.45	0.	0.10124
37663	3.35	5.5	0.	0.11638
37664	3.4	5.5	5.e-002	7.2429
37665	3.4	5.35	0.	8.1752e-002
37666	3.35	5.4	0.	9.2727e-002
37667	3.4	5.4	5.e-002	7.3642
37668	3.4	5.25	0.	6.6808e-002
37669	3.35	5.3	0.	7.5114e-002
37670	3.4	5.3	5.e-002	7.477
37671	3.4	5.15	0.	5.4786e-002
37672	3.35	5.2	0.	6.1367e-002
37673	3.4	5.2	5.e-002	7.5805
37674	3.4	5.05	0.	4.4687e-002
37675	3.35	5.1	0.	5.004e-002
37676	3.4	5.1	5.e-002	7.6737
37677	3.4	4.95	0.	3.5966e-002
37678	3.35	5.	0.	4.0411e-002
37679	3.4	5.	5.e-002	7.7562
37680	3.4	4.85	0.	2.8283e-002
37681	3.35	4.9	0.	3.2027e-002
37682	3.4	4.9	5.e-002	7.8278
37683	3.4	4.75	0.	2.1425e-002
37684	3.35	4.8	0.	2.4613e-002
37685	3.4	4.8	5.e-002	7.8882
37686	3.4	4.65	0.	1.525e-002
37687	3.35	4.7	0.	1.7989e-002
37688	3.4	4.7	5.e-002	7.9375
37689	3.4	4.55	0.	9.6648e-003
37690	3.35	4.6	0.	1.2035e-002
37691	3.4	4.6	5.e-002	7.976
37692	3.4	4.45	0.	4.601e-003
37693	3.35	4.5	0.	6.6655e-003
37694	3.4	4.5	5.e-002	8.0043
37695	3.4	4.35	0.	1.0534e-005
37696	3.35	4.4	0.	1.8205e-003
37697	3.4	4.4	5.e-002	8.023
37698	3.4	4.25	0.	-4.1436e-003
37699	3.35	4.3	0.	-2.5469e-003
37700	3.4	4.3	5.e-002	8.0328
37701	3.4	4.15	0.	-7.8906e-003
37702	3.35	4.2	0.	-6.4735e-003
37703	3.4	4.2	5.e-002	8.035
37704	3.4	4.05	0.	-1.1254e-002
37705	3.35	4.1	0.	-9.9898e-003
37706	3.4	4.1	5.e-002	8.0303
37707	3.4	3.95	0.	-1.4254e-002
37708	3.35	4.	0.	-1.3121e-002
37709	3.4	4.	5.e-002	8.0202
37710	3.4	3.85	0.	-1.6909e-002
37711	3.35	3.9	0.	-1.5891e-002
37712	3.4	3.9	5.e-002	8.0058
37713	3.4	3.75	0.	-1.9232e-002
37714	3.35	3.8	0.	-1.8317e-002
37715	3.4	3.8	5.e-002	7.9885
37716	3.4	3.65	0.	-2.1236e-002
37717	3.35	3.7	0.	-2.0418e-002
37718	3.4	3.7	5.e-002	7.9694
37719	3.4	3.55	0.	-2.2934e-002
37720	3.35	3.6	0.	-2.2209e-002
37721	3.4	3.6	5.e-002	7.95
37722	3.4	3.45	0.	-2.4335e-002
37723	3.35	3.5	0.	-2.3703e-002
37724	3.4	3.5	5.e-002	7.9313
37725	3.4	3.35	0.	-2.5446e-002
37726	3.35	3.4	0.	-2.491e-002
37727	3.4	3.4	5.e-002	7.9144
37728	3.4	3.25	0.	-2.6273e-002
37729	3.35	3.3	0.	-2.5839e-002
37730	3.4	3.3	5.e-002	7.9003
37731	3.4	3.15	0.	-2.6823e-002
37732	3.35	3.2	0.	-2.6498e-002
37733	3.4	3.2	5.e-002	7.8896
37734	3.4	3.05	0.	-2.7096e-002
37735	3.35	3.1	0.	-2.6892e-002
37736	3.4	3.1	5.e-002	7.8829
37737	3.4	2.95	0.	-2.7096e-002
37738	3.35	3.	0.	-2.7022e-002
37739	3.4	3.	5.e-002	7.8807
37740	3.4	2.85	0.	-2.6823e-002
37741	3.35	2.9	0.	-2.6892e-002
37742	3.4	2.9	5.e-002	7.8829
37743	3.4	2.75	0.	-2.6273e-002
37744	3.35	2.8	0.	-2.6498e-002
37745	3.4	2.8	5.e-002	7.8896
37746	3.4	2.65	0.	-2.5446e-002
37747	3.35	2.7	0.	-2.5839e-002
37748	3.4	2.7	5.e-002	7.9003
37749	3.4	2.55	0.	-2.4335e-002
37750	3.35	2.6	0.	-2.491e-002
37751	3.4	2.6	5.e-002	7.9145
37752	3.4	2.45	0.	-2.2934e-002
37753	3.35	2.5	0.	-2.3703e-002
37754	3.4	2.5	5.e-002	7.9314
37755	3.4	2.35	0.	-2.1236e-002
37756	3.35	2.4	0.	-2.2209e-002
37757	3.4	2.4	5.e-002	7.9501
37758	3.4	2.25	0.	-1.9231e-002
37759	3.35	2.3	0.	-2.0418e-002
37760	3.4	2.3	5.e-002	7.9696
37761	3.4	2.15	0.	-1.6908e-002
37762	3.35	2.2	0.	-1.8317e-002
37763	3.4	2.2	5.e-002	7.9887
37764	3.4	2.05	0.	-1.4254e-002
37765	3.35	2.1	0.	-1.589e-002
37766	3.4	2.1	5.e-002	8.006
37767	3.4	1.95	0.	-1.1254e-002
37768	3.35	2.	0.	-1.3121e-002
37769	3.4	2.	5.e-002	8.0205
37770	3.4	1.85	0.	-7.8902e-003
37771	3.35	1.9	0.	-9.9894e-003
37772	3.4	1.9	5.e-002	8.0306
37773	3.4	1.75	0.	-4.1432e-003
37774	3.35	1.8	0.	-6.4732e-003
37775	3.4	1.8	5.e-002	8.0352
37776	3.4	1.65	0.	1.1002e-005
37777	3.35	1.7	0.	-2.5465e-003
37778	3.4	1.7	5.e-002	8.0332
37779	3.4	1.55	0.	4.6015e-003
37780	3.35	1.6	0.	1.8209e-003
37781	3.4	1.6	5.e-002	8.0233
37782	3.4	1.45	0.	9.6653e-003
37783	3.35	1.5	0.	6.666e-003
37784	3.4	1.5	5.e-002	8.0046
37785	3.4	1.35	0.	1.5251e-002
37786	3.35	1.4	0.	1.2035e-002
37787	3.4	1.4	5.e-002	7.9763
37788	3.4	1.25	0.	2.1426e-002
37789	3.35	1.3	0.	1.799e-002
37790	3.4	1.3	5.e-002	7.9378
37791	3.4	1.15	0.	2.8284e-002
37792	3.35	1.2	0.	2.4614e-002
37793	3.4	1.2	5.e-002	7.8885
37794	3.4	1.05	0.	3.5967e-002
37795	3.35	1.1	0.	3.2028e-002
37796	3.4	1.1	5.e-002	7.8282
37797	3.4	0.95	0.	4.4688e-002
37798	3.35	1.	0.	4.0412e-002
37799	3.4	1.	5.e-002	7.7566
37800	3.4	0.85	0.	5.4787e-002
37801	3.35	0.9	0.	5.0041e-002
37802	3.4	0.9	5.e-002	7.6741
37803	3.4	0.75	0.	6.6809e-002
37804	3.35	0.8	0.	6.1368e-002
37805	3.4	0.8	5.e-002	7.5808
37806	3.4	0.65	0.	8.1753e-002
37807	3.35	0.7	0.	7.5115e-002
37808	3.4	0.7	5.e-002	7.4774
37809	3.4	0.55	0.	0.10124
37810	3.35	0.6	0.	9.2728e-002
37811	3.4	0.6	5.e-002	7.3646
37812	3.4	0.45	0.	0.12968
37813	3.35	0.5	0.	0.11638
37814	3.4	0.5	5.e-002	7.2434
37815	3.4	0.35	0.	0.1727
37816	3.35	0.4	0.	0.15382
37817	3.4	0.4	5.e-002	7.1149
37818	3.4	0.25	0.	0.30089
37819	3.35	0.3	0.	0.21213
37820	3.4	0.3	5.e-002	6.9889
37821	3.4	0.15	0.	0.75999
37822	3.35	0.2	0.	0.4494
37823	3.4	0.2	5.e-002	7.0117
37824	3.35	0.1	0.	1.8597
37825	3.4	0.1	5.e-002	10.492
37826	3.4	5.e-002	0.	1.0281
37827	3.3	5.85	0.	0.82547
37828	3.25	5.9	0.	2.1291
37829	3.3	5.9	5.e-002	10.811
37830	3.3	5.95	0.	1.1066
37831	3.3	5.75	0.	0.3201
37832	3.25	5.8	0.	0.48096
37833	3.3	5.8	5.e-002	7.0993
37834	3.3	5.65	0.	0.18236
37835	3.25	5.7	0.	0.22504
37836	3.3	5.7	5.e-002	7.0734
37837	3.3	5.55	0.	0.13606
37838	3.25	5.6	0.	0.162
37839	3.3	5.6	5.e-002	7.2047
37840	3.3	5.45	0.	0.10558
37841	3.25	5.5	0.	0.12185
37842	3.3	5.5	5.e-002	7.3393
37843	3.3	5.35	0.	8.4745e-002
37844	3.25	5.4	0.	9.6529e-002
37845	3.3	5.4	5.e-002	7.4671
37846	3.3	5.25	0.	6.8804e-002
37847	3.25	5.3	0.	7.7721e-002
37848	3.3	5.3	5.e-002	7.5868
37849	3.3	5.15	0.	5.6019e-002
37850	3.25	5.2	0.	6.3079e-002
37851	3.3	5.2	5.e-002	7.6972
37852	3.3	5.05	0.	4.5323e-002
37853	3.25	5.1	0.	5.1058e-002
37854	3.3	5.1	5.e-002	7.7978
37855	3.3	4.95	0.	3.6134e-002
37856	3.25	5.	0.	4.0884e-002
37857	3.3	5.	5.e-002	7.8879
37858	3.3	4.85	0.	2.8089e-002
37859	3.25	4.9	0.	3.2076e-002
37860	3.3	4.9	5.e-002	7.9671
37861	3.3	4.75	0.	2.0958e-002
37862	3.25	4.8	0.	2.4339e-002
37863	3.3	4.8	5.e-002	8.0353
37864	3.3	4.65	0.	1.459e-002
37865	3.25	4.7	0.	1.748e-002
37866	3.3	4.7	5.e-002	8.0926
37867	3.3	4.55	0.	8.8781e-003
37868	3.25	4.6	0.	1.1366e-002
37869	3.3	4.6	5.e-002	8.1393
37870	3.3	4.45	0.	3.7478e-003
37871	3.25	4.5	0.	5.9038e-003
37872	3.3	4.5	5.e-002	8.1758
37873	3.3	4.35	0.	-8.5848e-004
37874	3.25	4.4	0.	1.0226e-003
37875	3.3	4.4	5.e-002	8.2028
37876	3.3	4.25	0.	-4.986e-003
37877	3.25	4.3	0.	-3.3328e-003
37878	3.3	4.3	5.e-002	8.221
37879	3.3	4.15	0.	-8.672e-003
37880	3.25	4.2	0.	-7.2079e-003
37881	3.3	4.2	5.e-002	8.2314
37882	3.3	4.05	0.	-1.1948e-002
37883	3.25	4.1	0.	-1.0642e-002
37884	3.3	4.1	5.e-002	8.2351
37885	3.3	3.95	0.	-1.4842e-002
37886	3.25	4.	0.	-1.3668e-002
37887	3.3	4.	5.e-002	8.233
37888	3.3	3.85	0.	-1.7379e-002
37889	3.25	3.9	0.	-1.6316e-002
37890	3.3	3.9	5.e-002	8.2264
37891	3.3	3.75	0.	-1.9579e-002
37892	3.25	3.8	0.	-1.8615e-002
37893	3.3	3.8	5.e-002	8.2166
37894	3.3	3.65	0.	-2.1463e-002
37895	3.25	3.7	0.	-2.0586e-002
37896	3.3	3.7	5.e-002	8.2045
37897	3.3	3.55	0.	-2.3046e-002
37898	3.25	3.6	0.	-2.2252e-002
37899	3.3	3.6	5.e-002	8.1914
37900	3.3	3.45	0.	-2.4344e-002
37901	3.25	3.5	0.	-2.3631e-002
37902	3.3	3.5	5.e-002	8.1782
37903	3.3	3.35	0.	-2.5368e-002
37904	3.25	3.4	0.	-2.4738e-002
37905	3.3	3.4	5.e-002	8.1661
37906	3.3	3.25	0.	-2.6127e-002
37907	3.25	3.3	0.	-2.5586e-002
37908	3.3	3.3	5.e-002	8.1558
37909	3.3	3.15	0.	-2.663e-002
37910	3.25	3.2	0.	-2.6185e-002
37911	3.3	3.2	5.e-002	8.1479
37912	3.3	3.05	0.	-2.688e-002
37913	3.25	3.1	0.	-2.6541e-002
37914	3.3	3.1	5.e-002	8.143
37915	3.3	2.95	0.	-2.688e-002
37916	3.25	3.	0.	-2.666e-002
37917	3.3	3.	5.e-002	8.1413
37918	3.3	2.85	0.	-2.663e-002
37919	3.25	2.9	0.	-2.6541e-002
37920	3.3	2.9	5.e-002	8.143
37921	3.3	2.75	0.	-2.6127e-002
37922	3.25	2.8	0.	-2.6185e-002
37923	3.3	2.8	5.e-002	8.148
37924	3.3	2.65	0.	-2.5368e-002
37925	3.25	2.7	0.	-2.5586e-002
37926	3.3	2.7	5.e-002	8.1558
37927	3.3	2.55	0.	-2.4344e-002
37928	3.25	2.6	0.	-2.4738e-002
37929	3.3	2.6	5.e-002	8.1662
37930	3.3	2.45	0.	-2.3046e-002
37931	3.25	2.5	0.	-2.3631e-002
37932	3.3	2.5	5.e-002	8.1784
37933	3.3	2.35	0.	-2.1463e-002
37934	3.25	2.4	0.	-2.2252e-002
37935	3.3	2.4	5.e-002	8.1915
37936	3.3	2.25	0.	-1.9579e-002
37937	3.25	2.3	0.	-2.0586e-002
37938	3.3	2.3	5.e-002	8.2047
37939	3.3	2.15	0.	-1.7378e-002
37940	3.25	2.2	0.	-1.8614e-002
37941	3.3	2.2	5.e-002	8.2168
37942	3.3	2.05	0.	-1.4842e-002
37943	3.25	2.1	0.	-1.6316e-002
37944	3.3	2.1	5.e-002	8.2267
37945	3.3	1.95	0.	-1.1948e-002
37946	3.25	2.	0.	-1.3667e-002
37947	3.3	2.	5.e-002	8.2332
37948	3.3	1.85	0.	-8.6716e-003
37949	3.25	1.9	0.	-1.0641e-002
37950	3.3	1.9	5.e-002	8.2353
37951	3.3	1.75	0.	-4.9856e-003
37952	3.25	1.8	0.	-7.2075e-003
37953	3.3	1.8	5.e-002	8.2317
37954	3.3	1.65	0.	-8.5804e-004
37955	3.25	1.7	0.	-3.3323e-003
37956	3.3	1.7	5.e-002	8.2213
37957	3.3	1.55	0.	3.7483e-003
37958	3.25	1.6	0.	1.0231e-003
37959	3.3	1.6	5.e-002	8.2031
37960	3.3	1.45	0.	8.8786e-003
37961	3.25	1.5	0.	5.9043e-003
37962	3.3	1.5	5.e-002	8.1761
37963	3.3	1.35	0.	1.459e-002
37964	3.25	1.4	0.	1.1367e-002
37965	3.3	1.4	5.e-002	8.1396
37966	3.3	1.25	0.	2.0959e-002
37967	3.25	1.3	0.	1.7481e-002
37968	3.3	1.3	5.e-002	8.0929
37969	3.3	1.15	0.	2.8089e-002
37970	3.25	1.2	0.	2.434e-002
37971	3.3	1.2	5.e-002	8.0357
37972	3.3	1.05	0.	3.6135e-002
37973	3.25	1.1	0.	3.2077e-002
37974	3.3	1.1	5.e-002	7.9674
37975	3.3	0.95	0.	4.5324e-002
37976	3.25	1.	0.	4.0885e-002
37977	3.3	1.	5.e-002	7.8882
37978	3.3	0.85	0.	5.602e-002
37979	3.25	0.9	0.	5.1058e-002
37980	3.3	0.9	5.e-002	7.7982
37981	3.3	0.75	0.	6.8805e-002
37982	3.25	0.8	0.	6.308e-002
37983	3.3	0.8	5.e-002	7.6976
37984	3.3	0.65	0.	8.4746e-002
37985	3.25	0.7	0.	7.7722e-002
37986	3.3	0.7	5.e-002	7.5872
37987	3.3	0.55	0.	0.10558
37988	3.25	0.6	0.	9.653e-002
37989	3.3	0.6	5.e-002	7.4675
37990	3.3	0.45	0.	0.13606
37991	3.25	0.5	0.	0.12185
37992	3.3	0.5	5.e-002	7.3397
37993	3.3	0.35	0.	0.18236
37994	3.25	0.4	0.	0.162
37995	3.3	0.4	5.e-002	7.2051
37996	3.3	0.25	0.	0.3201
37997	3.25	0.3	0.	0.22504
37998	3.3	0.3	5.e-002	7.0739
37999	3.3	0.15	0.	0.82547
38000	3.25	0.2	0.	0.48096
38001	3.3	0.2	5.e-002	7.0998
38002	3.25	0.1	0.	2.1291
38003	3.3	0.1	5.e-002	10.812
38004	3.3	5.e-002	0.	1.1066
38005	3.2	5.85	0.	0.89916
38006	3.15	5.9	0.	2.4665
38007	3.2	5.9	5.e-002	11.146
38008	3.2	5.95	0.	1.1965
38009	3.2	5.75	0.	0.34088
38010	3.15	5.8	0.	0.51542
38011	3.2	5.8	5.e-002	7.196
38012	3.2	5.65	0.	0.19283
38013	3.15	5.7	0.	0.23906
38014	3.2	5.7	5.e-002	7.1684
38015	3.2	5.55	0.	0.14298
38016	3.15	5.6	0.	0.17086
38017	3.2	5.6	5.e-002	7.306
38018	3.2	5.45	0.	0.11035
38019	3.15	5.5	0.	0.12781
38020	3.2	5.5	5.e-002	7.4478
38021	3.2	5.35	0.	8.8069e-002
38022	3.15	5.4	0.	0.10071
38023	3.2	5.4	5.e-002	7.583
38024	3.2	5.25	0.	7.1071e-002
38025	3.15	5.3	0.	8.0627e-002
38026	3.2	5.3	5.e-002	7.7102
38027	3.2	5.15	0.	5.7477e-002
38028	3.15	5.2	0.	6.5034e-002
38029	3.2	5.2	5.e-002	7.8283
38030	3.2	5.05	0.	4.615e-002
38031	3.15	5.1	0.	5.2276e-002
38032	3.2	5.1	5.e-002	7.9367
38033	3.2	4.95	0.	3.6468e-002
38034	3.15	5.	0.	4.1527e-002
38035	3.2	5.	5.e-002	8.0345
38036	3.2	4.85	0.	2.8043e-002
38037	3.15	4.9	0.	3.2274e-002
38038	3.2	4.9	5.e-002	8.1216
38039	3.2	4.75	0.	2.063e-002
38040	3.15	4.8	0.	2.4201e-002
38041	3.2	4.8	5.e-002	8.1977
38042	3.2	4.65	0.	1.4063e-002
38043	3.15	4.7	0.	1.71e-002
38044	3.2	4.7	5.e-002	8.263
38045	3.2	4.55	0.	8.2261e-003
38046	3.15	4.6	0.	1.0826e-002
38047	3.2	4.6	5.e-002	8.3176
38048	3.2	4.45	0.	3.0343e-003
38049	3.15	4.5	0.	5.2751e-003
38050	3.2	4.5	5.e-002	8.3622
38051	3.2	4.35	0.	-1.5793e-003
38052	3.15	4.4	0.	3.666e-004
38053	3.2	4.4	5.e-002	8.3971
38054	3.2	4.25	0.	-5.6691e-003
38055	3.15	4.3	0.	-3.9648e-003
38056	3.2	4.3	5.e-002	8.4233
38057	3.2	4.15	0.	-9.2814e-003
38058	3.15	4.2	0.	-7.7741e-003
38059	3.2	4.2	5.e-002	8.4416
38060	3.2	4.05	0.	-1.2456e-002
38061	3.15	4.1	0.	-1.111e-002
38062	3.2	4.1	5.e-002	8.4531
38063	3.2	3.95	0.	-1.523e-002
38064	3.15	4.	0.	-1.4014e-002
38065	3.2	4.	5.e-002	8.4586
38066	3.2	3.85	0.	-1.7635e-002
38067	3.15	3.9	0.	-1.6526e-002
38068	3.2	3.9	5.e-002	8.4593
38069	3.2	3.75	0.	-1.97e-002
38070	3.15	3.8	0.	-1.8681e-002
38071	3.2	3.8	5.e-002	8.4564
38072	3.2	3.65	0.	-2.145e-002
38073	3.15	3.7	0.	-2.0509e-002
38074	3.2	3.7	5.e-002	8.4507
38075	3.2	3.55	0.	-2.2908e-002
38076	3.15	3.6	0.	-2.2038e-002
38077	3.2	3.6	5.e-002	8.4434
38078	3.2	3.45	0.	-2.4094e-002
38079	3.15	3.5	0.	-2.3291e-002
38080	3.2	3.5	5.e-002	8.4355
38081	3.2	3.35	0.	-2.5024e-002
38082	3.15	3.4	0.	-2.4289e-002
38083	3.2	3.4	5.e-002	8.4278
38084	3.2	3.25	0.	-2.5709e-002
38085	3.15	3.3	0.	-2.5048e-002
38086	3.2	3.3	5.e-002	8.421
38087	3.2	3.15	0.	-2.6161e-002
38088	3.15	3.2	0.	-2.5581e-002
38089	3.2	3.2	5.e-002	8.4157
38090	3.2	3.05	0.	-2.6385e-002
38091	3.15	3.1	0.	-2.5898e-002
38092	3.2	3.1	5.e-002	8.4123
38093	3.2	2.95	0.	-2.6385e-002
38094	3.15	3.	0.	-2.6002e-002
38095	3.2	3.	5.e-002	8.4111
38096	3.2	2.85	0.	-2.6161e-002
38097	3.15	2.9	0.	-2.5898e-002
38098	3.2	2.9	5.e-002	8.4123
38099	3.2	2.75	0.	-2.5709e-002
38100	3.15	2.8	0.	-2.5581e-002
38101	3.2	2.8	5.e-002	8.4157
38102	3.2	2.65	0.	-2.5023e-002
38103	3.15	2.7	0.	-2.5048e-002
38104	3.2	2.7	5.e-002	8.421
38105	3.2	2.55	0.	-2.4094e-002
38106	3.15	2.6	0.	-2.4289e-002
38107	3.2	2.6	5.e-002	8.4279
38108	3.2	2.45	0.	-2.2908e-002
38109	3.15	2.5	0.	-2.3291e-002
38110	3.2	2.5	5.e-002	8.4357
38111	3.2	2.35	0.	-2.145e-002
38112	3.15	2.4	0.	-2.2038e-002
38113	3.2	2.4	5.e-002	8.4436
38114	3.2	2.25	0.	-1.9699e-002
38115	3.15	2.3	0.	-2.0509e-002
38116	3.2	2.3	5.e-002	8.4508
38117	3.2	2.15	0.	-1.7635e-002
38118	3.15	2.2	0.	-1.8681e-002
38119	3.2	2.2	5.e-002	8.4566
38120	3.2	2.05	0.	-1.523e-002
38121	3.15	2.1	0.	-1.6526e-002
38122	3.2	2.1	5.e-002	8.4595
38123	3.2	1.95	0.	-1.2456e-002
38124	3.15	2.	0.	-1.4014e-002
38125	3.2	2.	5.e-002	8.4588
38126	3.2	1.85	0.	-9.281e-003
38127	3.15	1.9	0.	-1.1109e-002
38128	3.2	1.9	5.e-002	8.4532
38129	3.2	1.75	0.	-5.6687e-003
38130	3.15	1.8	0.	-7.7737e-003
38131	3.2	1.8	5.e-002	8.4419
38132	3.2	1.65	0.	-1.5788e-003
38133	3.15	1.7	0.	-3.9643e-003
38134	3.2	1.7	5.e-002	8.4236
38135	3.2	1.55	0.	3.0348e-003
38136	3.15	1.6	0.	3.6706e-004
38137	3.2	1.6	5.e-002	8.3974
38138	3.2	1.45	0.	8.2267e-003
38139	3.15	1.5	0.	5.2756e-003
38140	3.2	1.5	5.e-002	8.3624
38141	3.2	1.35	0.	1.4063e-002
38142	3.15	1.4	0.	1.0827e-002
38143	3.2	1.4	5.e-002	8.318
38144	3.2	1.25	0.	2.063e-002
38145	3.15	1.3	0.	1.71e-002
38146	3.2	1.3	5.e-002	8.2633
38147	3.2	1.15	0.	2.8044e-002
38148	3.15	1.2	0.	2.4202e-002
38149	3.2	1.2	5.e-002	8.1981
38150	3.2	1.05	0.	3.6469e-002
38151	3.15	1.1	0.	3.2275e-002
38152	3.2	1.1	5.e-002	8.122
38153	3.2	0.95	0.	4.6151e-002
38154	3.15	1.	0.	4.1528e-002
38155	3.2	1.	5.e-002	8.0349
38156	3.2	0.85	0.	5.7478e-002
38157	3.15	0.9	0.	5.2277e-002
38158	3.2	0.9	5.e-002	7.9371
38159	3.2	0.75	0.	7.1072e-002
38160	3.15	0.8	0.	6.5035e-002
38161	3.2	0.8	5.e-002	7.8288
38162	3.2	0.65	0.	8.807e-002
38163	3.15	0.7	0.	8.0627e-002
38164	3.2	0.7	5.e-002	7.7106
38165	3.2	0.55	0.	0.11035
38166	3.15	0.6	0.	0.10071
38167	3.2	0.6	5.e-002	7.5834
38168	3.2	0.45	0.	0.14299
38169	3.15	0.5	0.	0.12781
38170	3.2	0.5	5.e-002	7.4482
38171	3.2	0.35	0.	0.19284
38172	3.15	0.4	0.	0.17086
38173	3.2	0.4	5.e-002	7.3064
38174	3.2	0.25	0.	0.34088
38175	3.15	0.3	0.	0.23906
38176	3.2	0.3	5.e-002	7.1689
38177	3.2	0.15	0.	0.89916
38178	3.15	0.2	0.	0.51542
38179	3.2	0.2	5.e-002	7.1964
38180	3.15	0.1	0.	2.4665
38181	3.2	0.1	5.e-002	11.147
38182	3.2	5.e-002	0.	1.1965
38183	3.1	5.85	0.	0.98278
38184	3.05	5.9	0.	2.8973
38185	3.1	5.9	5.e-002	11.494
38186	3.1	5.95	0.	1.3026
38187	3.1	5.75	0.	0.36342
38188	3.05	5.8	0.	0.55322
38189	3.1	5.8	5.e-002	7.3006
38190	3.1	5.65	0.	0.20418
38191	3.05	5.7	0.	0.25429
38192	3.1	5.7	5.e-002	7.2731
38193	3.1	5.55	0.	0.15049
38194	3.05	5.6	0.	0.18046
38195	3.1	5.6	5.e-002	7.4184
38196	3.1	5.45	0.	0.11554
38197	3.05	5.5	0.	0.13428
38198	3.1	5.5	5.e-002	7.5685
38199	3.1	5.35	0.	9.1728e-002
38200	3.05	5.4	0.	0.10527
38201	3.1	5.4	5.e-002	7.7121
38202	3.1	5.25	0.	7.3603e-002
38203	3.05	5.3	0.	8.3831e-002
38204	3.1	5.3	5.e-002	7.8478
38205	3.1	5.15	0.	5.9151e-002
38206	3.05	5.2	0.	6.7226e-002
38207	3.1	5.2	5.e-002	7.9743
38208	3.1	5.05	0.	4.7156e-002
38209	3.05	5.1	0.	5.3685e-002
38210	3.1	5.1	5.e-002	8.0909
38211	3.1	4.95	0.	3.6953e-002
38212	3.05	5.	0.	4.2327e-002
38213	3.1	5.	5.e-002	8.197
38214	3.1	4.85	0.	2.8131e-002
38215	3.05	4.9	0.	3.2606e-002
38216	3.1	4.9	5.e-002	8.2921
38217	3.1	4.75	0.	2.0426e-002
38218	3.05	4.8	0.	2.4184e-002
38219	3.1	4.8	5.e-002	8.3762
38220	3.1	4.65	0.	1.3658e-002
38221	3.05	4.7	0.	1.6836e-002
38222	3.1	4.7	5.e-002	8.4494
38223	3.1	4.55	0.	7.6998e-003
38224	3.05	4.6	0.	1.0405e-002
38225	3.1	4.6	5.e-002	8.5119
38226	3.1	4.45	0.	2.4552e-003
38227	3.05	4.5	0.	4.7737e-003
38228	3.1	4.5	5.e-002	8.5642
38229	3.1	4.35	0.	-2.1532e-003
38230	3.05	4.4	0.	-1.4891e-004
38231	3.1	4.4	5.e-002	8.6069
38232	3.1	4.25	0.	-6.19e-003
38233	3.05	4.3	0.	-4.4396e-003
38234	3.1	4.3	5.e-002	8.6407
38235	3.1	4.15	0.	-9.7114e-003
38236	3.05	4.2	0.	-8.1643e-003
38237	3.1	4.2	5.e-002	8.6666
38238	3.1	4.05	0.	-1.2767e-002
38239	3.05	4.1	0.	-1.1382e-002
38240	3.1	4.1	5.e-002	8.6853
38241	3.1	3.95	0.	-1.5403e-002
38242	3.05	4.	0.	-1.4144e-002
38243	3.1	4.	5.e-002	8.698
38244	3.1	3.85	0.	-1.7659e-002
38245	3.05	3.9	0.	-1.65e-002
38246	3.1	3.9	5.e-002	8.7056
38247	3.1	3.75	0.	-1.9571e-002
38248	3.05	3.8	0.	-1.8493e-002
38249	3.1	3.8	5.e-002	8.7091
38250	3.1	3.65	0.	-2.1173e-002
38251	3.05	3.7	0.	-2.016e-002
38252	3.1	3.7	5.e-002	8.7095
38253	3.1	3.55	0.	-2.2494e-002
38254	3.05	3.6	0.	-2.1536e-002
38255	3.1	3.6	5.e-002	8.7077
38256	3.1	3.45	0.	-2.3557e-002
38257	3.05	3.5	0.	-2.2651e-002
38258	3.1	3.5	5.e-002	8.7046
38259	3.1	3.35	0.	-2.4383e-002
38260	3.05	3.4	0.	-2.3529e-002
38261	3.1	3.4	5.e-002	8.7009
38262	3.1	3.25	0.	-2.4988e-002
38263	3.05	3.3	0.	-2.4191e-002
38264	3.1	3.3	5.e-002	8.6974
38265	3.1	3.15	0.	-2.5384e-002
38266	3.05	3.2	0.	-2.4653e-002
38267	3.1	3.2	5.e-002	8.6944
38268	3.1	3.05	0.	-2.5581e-002
38269	3.05	3.1	0.	-2.4925e-002
38270	3.1	3.1	5.e-002	8.6925
38271	3.1	2.95	0.	-2.5581e-002
38272	3.05	3.	0.	-2.5015e-002
38273	3.1	3.	5.e-002	8.6918
38274	3.1	2.85	0.	-2.5384e-002
38275	3.05	2.9	0.	-2.4925e-002
38276	3.1	2.9	5.e-002	8.6925
38277	3.1	2.75	0.	-2.4988e-002
38278	3.05	2.8	0.	-2.4653e-002
38279	3.1	2.8	5.e-002	8.6945
38280	3.1	2.65	0.	-2.4382e-002
38281	3.05	2.7	0.	-2.4191e-002
38282	3.1	2.7	5.e-002	8.6975
38283	3.1	2.55	0.	-2.3557e-002
38284	3.05	2.6	0.	-2.3529e-002
38285	3.1	2.6	5.e-002	8.7011
38286	3.1	2.45	0.	-2.2494e-002
38287	3.05	2.5	0.	-2.2651e-002
38288	3.1	2.5	5.e-002	8.7047
38289	3.1	2.35	0.	-2.1173e-002
38290	3.05	2.4	0.	-2.1536e-002
38291	3.1	2.4	5.e-002	8.7078
38292	3.1	2.25	0.	-1.9571e-002
38293	3.05	2.3	0.	-2.016e-002
38294	3.1	2.3	5.e-002	8.7097
38295	3.1	2.15	0.	-1.7658e-002
38296	3.05	2.2	0.	-1.8492e-002
38297	3.1	2.2	5.e-002	8.7093
38298	3.1	2.05	0.	-1.5402e-002
38299	3.05	2.1	0.	-1.65e-002
38300	3.1	2.1	5.e-002	8.7058
38301	3.1	1.95	0.	-1.2767e-002
38302	3.05	2.	0.	-1.4144e-002
38303	3.1	2.	5.e-002	8.6982
38304	3.1	1.85	0.	-9.7111e-003
38305	3.05	1.9	0.	-1.1381e-002
38306	3.1	1.9	5.e-002	8.6856
38307	3.1	1.75	0.	-6.1896e-003
38308	3.05	1.8	0.	-8.164e-003
38309	3.1	1.8	5.e-002	8.6668
38310	3.1	1.65	0.	-2.1528e-003
38311	3.05	1.7	0.	-4.4392e-003
38312	3.1	1.7	5.e-002	8.641
38313	3.1	1.55	0.	2.4556e-003
38314	3.05	1.6	0.	-1.4847e-004
38315	3.1	1.6	5.e-002	8.6072
38316	3.1	1.45	0.	7.7003e-003
38317	3.05	1.5	0.	4.7741e-003
38318	3.1	1.5	5.e-002	8.5645
38319	3.1	1.35	0.	1.3658e-002
38320	3.05	1.4	0.	1.0405e-002
38321	3.1	1.4	5.e-002	8.5122
38322	3.1	1.25	0.	2.0426e-002
38323	3.05	1.3	0.	1.6836e-002
38324	3.1	1.3	5.e-002	8.4497
38325	3.1	1.15	0.	2.8132e-002
38326	3.05	1.2	0.	2.4184e-002
38327	3.1	1.2	5.e-002	8.3766
38328	3.1	1.05	0.	3.6954e-002
38329	3.05	1.1	0.	3.2607e-002
38330	3.1	1.1	5.e-002	8.2925
38331	3.1	0.95	0.	4.7156e-002
38332	3.05	1.	0.	4.2328e-002
38333	3.1	1.	5.e-002	8.1973
38334	3.1	0.85	0.	5.9152e-002
38335	3.05	0.9	0.	5.3686e-002
38336	3.1	0.9	5.e-002	8.0913
38337	3.1	0.75	0.	7.3604e-002
38338	3.05	0.8	0.	6.7226e-002
38339	3.1	0.8	5.e-002	7.9747
38340	3.1	0.65	0.	9.1729e-002
38341	3.05	0.7	0.	8.3832e-002
38342	3.1	0.7	5.e-002	7.8482
38343	3.1	0.55	0.	0.11554
38344	3.05	0.6	0.	0.10527
38345	3.1	0.6	5.e-002	7.7125
38346	3.1	0.45	0.	0.1505
38347	3.05	0.5	0.	0.13428
38348	3.1	0.5	5.e-002	7.5689
38349	3.1	0.35	0.	0.20418
38350	3.05	0.4	0.	0.18046
38351	3.1	0.4	5.e-002	7.4188
38352	3.1	0.25	0.	0.36342
38353	3.05	0.3	0.	0.25429
38354	3.1	0.3	5.e-002	7.2735
38355	3.1	0.15	0.	0.98278
38356	3.05	0.2	0.	0.55323
38357	3.1	0.2	5.e-002	7.3011
38358	3.05	0.1	0.	2.8973
38359	3.1	0.1	5.e-002	11.495
38360	3.1	5.e-002	0.	1.3026
38361	3.	5.85	0.	1.0785
38362	2.95	5.9	0.	3.4583
38363	3.	5.9	5.e-002	11.855
38364	3.	5.95	0.	1.4326
38365	3.	5.75	0.	0.38794
38366	2.95	5.8	0.	0.59489
38367	3.	5.8	5.e-002	7.413
38368	3.	5.65	0.	0.21647
38369	2.95	5.7	0.	0.27088
38370	3.	5.7	5.e-002	7.3875
38371	3.	5.55	0.	0.15863
38372	2.95	5.6	0.	0.19084
38373	3.	5.6	5.e-002	7.542
38374	3.	5.45	0.	0.12118
38375	2.95	5.5	0.	0.14129
38376	3.	5.5	5.e-002	7.7018
38377	3.	5.35	0.	9.5726e-002
38378	2.95	5.4	0.	0.11023
38379	3.	5.4	5.e-002	7.855
38380	3.	5.25	0.	7.6399e-002
38381	2.95	5.3	0.	8.7335e-002
38382	3.	5.3	5.e-002	8.0001
38383	3.	5.15	0.	6.1032e-002
38384	2.95	5.2	0.	6.9647e-002
38385	3.	5.2	5.e-002	8.1358
38386	3.	5.05	0.	4.8326e-002
38387	2.95	5.1	0.	5.5272e-002
38388	3.	5.1	5.e-002	8.2613
38389	3.	4.95	0.	3.7576e-002
38390	2.95	5.	0.	4.3271e-002
38391	3.	5.	5.e-002	8.376
38392	3.	4.85	0.	2.8339e-002
38393	2.95	4.9	0.	3.3058e-002
38394	3.	4.9	5.e-002	8.4795
38395	3.	4.75	0.	2.0333e-002
38396	2.95	4.8	0.	2.4274e-002
38397	3.	4.8	5.e-002	8.5718
38398	3.	4.65	0.	1.3365e-002
38399	2.95	4.7	0.	1.6678e-002
38400	3.	4.7	5.e-002	8.6529
38401	3.	4.55	0.	7.293e-003
38402	2.95	4.6	0.	1.0096e-002
38403	3.	4.6	5.e-002	8.7231
38404	3.	4.45	0.	2.0086e-003
38405	2.95	4.5	0.	4.3978e-003
38406	3.	4.5	5.e-002	8.7831
38407	3.	4.35	0.	-2.5773e-003
38408	2.95	4.4	0.	-5.2077e-004
38409	3.	4.4	5.e-002	8.8332
38410	3.	4.25	0.	-6.5408e-003
38411	2.95	4.3	0.	-4.7491e-003
38412	3.	4.3	5.e-002	8.8744
38413	3.	4.15	0.	-9.9495e-003
38414	2.95	4.2	0.	-8.3653e-003
38415	3.	4.2	5.e-002	8.9075
38416	3.	4.05	0.	-1.2864e-002
38417	2.95	4.1	0.	-1.144e-002
38418	3.	4.1	5.e-002	8.9332
38419	3.	3.95	0.	-1.5339e-002
38420	2.95	4.	0.	-1.4036e-002
38421	3.	4.	5.e-002	8.9526
38422	3.	3.85	0.	-1.7425e-002
38423	2.95	3.9	0.	-1.6212e-002
38424	3.	3.9	5.e-002	8.9666
38425	3.	3.75	0.	-1.9166e-002
38426	2.95	3.8	0.	-1.802e-002
38427	3.	3.8	5.e-002	8.9762
38428	3.	3.65	0.	-2.0603e-002
38429	2.95	3.7	0.	-1.9507e-002
38430	3.	3.7	5.e-002	8.9822
38431	3.	3.55	0.	-2.177e-002
38432	2.95	3.6	0.	-2.0713e-002
38433	3.	3.6	5.e-002	8.9856
38434	3.	3.45	0.	-2.2697e-002
38435	2.95	3.5	0.	-2.1675e-002
38436	3.	3.5	5.e-002	8.9869
38437	3.	3.35	0.	-2.3409e-002
38438	2.95	3.4	0.	-2.2421e-002
38439	3.	3.4	5.e-002	8.9871
38440	3.	3.25	0.	-2.3926e-002
38441	2.95	3.3	0.	-2.2977e-002
38442	3.	3.3	5.e-002	8.9866
38443	3.	3.15	0.	-2.4263e-002
38444	2.95	3.2	0.	-2.336e-002
38445	3.	3.2	5.e-002	8.9858
38446	3.	3.05	0.	-2.4428e-002
38447	2.95	3.1	0.	-2.3585e-002
38448	3.	3.1	5.e-002	8.9853
38449	3.	2.95	0.	-2.4428e-002
38450	2.95	3.	0.	-2.3659e-002
38451	3.	3.	5.e-002	8.9851
38452	3.	2.85	0.	-2.4263e-002
38453	2.95	2.9	0.	-2.3585e-002
38454	3.	2.9	5.e-002	8.9854
38455	3.	2.75	0.	-2.3926e-002
38456	2.95	2.8	0.	-2.336e-002
38457	3.	2.8	5.e-002	8.9859
38458	3.	2.65	0.	-2.3409e-002
38459	2.95	2.7	0.	-2.2977e-002
38460	3.	2.7	5.e-002	8.9867
38461	3.	2.55	0.	-2.2697e-002
38462	2.95	2.6	0.	-2.2421e-002
38463	3.	2.6	5.e-002	8.9872
38464	3.	2.45	0.	-2.177e-002
38465	2.95	2.5	0.	-2.1674e-002
38466	3.	2.5	5.e-002	8.9871
38467	3.	2.35	0.	-2.0602e-002
38468	2.95	2.4	0.	-2.0713e-002
38469	3.	2.4	5.e-002	8.9857
38470	3.	2.25	0.	-1.9166e-002
38471	2.95	2.3	0.	-1.9507e-002
38472	3.	2.3	5.e-002	8.9824
38473	3.	2.15	0.	-1.7424e-002
38474	2.95	2.2	0.	-1.802e-002
38475	3.	2.2	5.e-002	8.9765
38476	3.	2.05	0.	-1.5339e-002
38477	2.95	2.1	0.	-1.6212e-002
38478	3.	2.1	5.e-002	8.9668
38479	3.	1.95	0.	-1.2863e-002
38480	2.95	2.	0.	-1.4036e-002
38481	3.	2.	5.e-002	8.9529
38482	3.	1.85	0.	-9.9491e-003
38483	2.95	1.9	0.	-1.1439e-002
38484	3.	1.9	5.e-002	8.9334
38485	3.	1.75	0.	-6.5404e-003
38486	2.95	1.8	0.	-8.3649e-003
38487	3.	1.8	5.e-002	8.9077
38488	3.	1.65	0.	-2.5768e-003
38489	2.95	1.7	0.	-4.7486e-003
38490	3.	1.7	5.e-002	8.8747
38491	3.	1.55	0.	2.009e-003
38492	2.95	1.6	0.	-5.2032e-004
38493	3.	1.6	5.e-002	8.8335
38494	3.	1.45	0.	7.2935e-003
38495	2.95	1.5	0.	4.3982e-003
38496	3.	1.5	5.e-002	8.7834
38497	3.	1.35	0.	1.3365e-002
38498	2.95	1.4	0.	1.0096e-002
38499	3.	1.4	5.e-002	8.7235
38500	3.	1.25	0.	2.0334e-002
38501	2.95	1.3	0.	1.6678e-002
38502	3.	1.3	5.e-002	8.6532
38503	3.	1.15	0.	2.8339e-002
38504	2.95	1.2	0.	2.4275e-002
38505	3.	1.2	5.e-002	8.5721
38506	3.	1.05	0.	3.7576e-002
38507	2.95	1.1	0.	3.3059e-002
38508	3.	1.1	5.e-002	8.4798
38509	3.	0.95	0.	4.8327e-002
38510	2.95	1.	0.	4.3271e-002
38511	3.	1.	5.e-002	8.3764
38512	3.	0.85	0.	6.1033e-002
38513	2.95	0.9	0.	5.5273e-002
38514	3.	0.9	5.e-002	8.2617
38515	3.	0.75	0.	7.64e-002
38516	2.95	0.8	0.	6.9648e-002
38517	3.	0.8	5.e-002	8.1362
38518	3.	0.65	0.	9.5727e-002
38519	2.95	0.7	0.	8.7336e-002
38520	3.	0.7	5.e-002	8.0005
38521	3.	0.55	0.	0.12118
38522	2.95	0.6	0.	0.11023
38523	3.	0.6	5.e-002	7.8554
38524	3.	0.45	0.	0.15863
38525	2.95	0.5	0.	0.14129
38526	3.	0.5	5.e-002	7.7022
38527	3.	0.35	0.	0.21648
38528	2.95	0.4	0.	0.19085
38529	3.	0.4	5.e-002	7.5424
38530	3.	0.25	0.	0.38794
38531	2.95	0.3	0.	0.27088
38532	3.	0.3	5.e-002	7.3879
38533	3.	0.15	0.	1.0785
38534	2.95	0.2	0.	0.59489
38535	3.	0.2	5.e-002	7.4135
38536	2.95	0.1	0.	3.4583
38537	3.	0.1	5.e-002	11.856
38538	3.	5.e-002	0.	1.4326
38539	2.9	5.85	0.	1.1892
38540	2.85	5.9	0.	4.2021
38541	2.9	5.9	5.e-002	12.227
38542	2.9	5.95	0.	1.5998
38543	2.9	5.75	0.	0.41469
38544	2.85	5.8	0.	0.64104
38545	2.9	5.8	5.e-002	7.533
38546	2.9	5.65	0.	0.22981
38547	2.85	5.7	0.	0.28897
38548	2.9	5.7	5.e-002	7.512
38549	2.9	5.55	0.	0.16743
38550	2.85	5.6	0.	0.20209
38551	2.9	5.6	5.e-002	7.6774
38552	2.9	5.45	0.	0.12729
38553	2.85	5.5	0.	0.14888
38554	2.9	5.5	5.e-002	7.8484
38555	2.9	5.35	0.	0.10007
38556	2.85	5.4	0.	0.1156
38557	2.9	5.4	5.e-002	8.0126
38558	2.9	5.25	0.	7.9456e-002
38559	2.85	5.3	0.	9.1145e-002
38560	2.9	5.3	5.e-002	8.1682
38561	2.9	5.15	0.	6.3111e-002
38562	2.85	5.2	0.	7.2295e-002
38563	2.9	5.2	5.e-002	8.3139
38564	2.9	5.05	0.	4.9651e-002
38565	2.85	5.1	0.	5.7029e-002
38566	2.9	5.1	5.e-002	8.449
38567	2.9	4.95	0.	3.8322e-002
38568	2.85	5.	0.	4.4344e-002
38569	2.9	5.	5.e-002	8.5728
38570	2.9	4.85	0.	2.8653e-002
38571	2.85	4.9	0.	3.3617e-002
38572	2.9	4.9	5.e-002	8.685
38573	2.9	4.75	0.	2.0342e-002
38574	2.85	4.8	0.	2.4462e-002
38575	2.9	4.8	5.e-002	8.7856
38576	2.9	4.65	0.	1.3177e-002
38577	2.85	4.7	0.	1.6618e-002
38578	2.9	4.7	5.e-002	8.8747
38579	2.9	4.55	0.	7.0034e-003
38580	2.85	4.6	0.	9.8963e-003
38581	2.9	4.6	5.e-002	8.9527
38582	2.9	4.45	0.	1.6976e-003
38583	2.85	4.5	0.	4.1501e-003
38584	2.9	4.5	5.e-002	9.02
38585	2.9	4.35	0.	-2.8431e-003
38586	2.85	4.4	0.	-7.4048e-004
38587	2.9	4.4	5.e-002	9.0774
38588	2.9	4.25	0.	-6.7078e-003
38589	2.85	4.3	0.	-4.8789e-003
38590	2.9	4.3	5.e-002	9.1257
38591	2.9	4.15	0.	-9.9768e-003
38592	2.85	4.2	0.	-8.3572e-003
38593	2.9	4.2	5.e-002	9.1655
38594	2.9	4.05	0.	-1.2723e-002
38595	2.85	4.1	0.	-1.1259e-002
38596	2.9	4.1	5.e-002	9.198
38597	2.9	3.95	0.	-1.5011e-002
38598	2.85	4.	0.	-1.366e-002
38599	2.9	4.	5.e-002	9.2238
38600	2.9	3.85	0.	-1.6902e-002
38601	2.85	3.9	0.	-1.5629e-002
38602	2.9	3.9	5.e-002	9.2439
38603	2.9	3.75	0.	-1.845e-002
38604	2.85	3.8	0.	-1.7227e-002
38605	2.9	3.8	5.e-002	9.2592
38606	2.9	3.65	0.	-1.9701e-002
38607	2.85	3.7	0.	-1.8511e-002
38608	2.9	3.7	5.e-002	9.2705
38609	2.9	3.55	0.	-2.0698e-002
38610	2.85	3.6	0.	-1.9528e-002
38611	2.9	3.6	5.e-002	9.2786
38612	2.9	3.45	0.	-2.1476e-002
38613	2.85	3.5	0.	-2.0321e-002
38614	2.9	3.5	5.e-002	9.2842
38615	2.9	3.35	0.	-2.2063e-002
38616	2.85	3.4	0.	-2.0922e-002
38617	2.9	3.4	5.e-002	9.2878
38618	2.9	3.25	0.	-2.2484e-002
38619	2.85	3.3	0.	-2.1361e-002
38620	2.9	3.3	5.e-002	9.2901
38621	2.9	3.15	0.	-2.2754e-002
38622	2.85	3.2	0.	-2.166e-002
38623	2.9	3.2	5.e-002	9.2915
38624	2.9	3.05	0.	-2.2887e-002
38625	2.85	3.1	0.	-2.1833e-002
38626	2.9	3.1	5.e-002	9.2922
38627	2.9	2.95	0.	-2.2887e-002
38628	2.85	3.	0.	-2.1889e-002
38629	2.9	3.	5.e-002	9.2924
38630	2.9	2.85	0.	-2.2754e-002
38631	2.85	2.9	0.	-2.1833e-002
38632	2.9	2.9	5.e-002	9.2922
38633	2.9	2.75	0.	-2.2484e-002
38634	2.85	2.8	0.	-2.166e-002
38635	2.9	2.8	5.e-002	9.2916
38636	2.9	2.65	0.	-2.2063e-002
38637	2.85	2.7	0.	-2.1361e-002
38638	2.9	2.7	5.e-002	9.2902
38639	2.9	2.55	0.	-2.1476e-002
38640	2.85	2.6	0.	-2.0922e-002
38641	2.9	2.6	5.e-002	9.2879
38642	2.9	2.45	0.	-2.0698e-002
38643	2.85	2.5	0.	-2.032e-002
38644	2.9	2.5	5.e-002	9.2843
38645	2.9	2.35	0.	-1.9701e-002
38646	2.85	2.4	0.	-1.9528e-002
38647	2.9	2.4	5.e-002	9.2787
38648	2.9	2.25	0.	-1.845e-002
38649	2.85	2.3	0.	-1.8511e-002
38650	2.9	2.3	5.e-002	9.2707
38651	2.9	2.15	0.	-1.6902e-002
38652	2.85	2.2	0.	-1.7227e-002
38653	2.9	2.2	5.e-002	9.2594
38654	2.9	2.05	0.	-1.5011e-002
38655	2.85	2.1	0.	-1.5628e-002
38656	2.9	2.1	5.e-002	9.2441
38657	2.9	1.95	0.	-1.2722e-002
38658	2.85	2.	0.	-1.3659e-002
38659	2.9	2.	5.e-002	9.2239
38660	2.9	1.85	0.	-9.9765e-003
38661	2.85	1.9	0.	-1.1259e-002
38662	2.9	1.9	5.e-002	9.1982
38663	2.9	1.75	0.	-6.7074e-003
38664	2.85	1.8	0.	-8.3568e-003
38665	2.9	1.8	5.e-002	9.1658
38666	2.9	1.65	0.	-2.8426e-003
38667	2.85	1.7	0.	-4.8785e-003
38668	2.9	1.7	5.e-002	9.1259
38669	2.9	1.55	0.	1.698e-003
38670	2.85	1.6	0.	-7.4003e-004
38671	2.9	1.6	5.e-002	9.0777
38672	2.9	1.45	0.	7.0038e-003
38673	2.85	1.5	0.	4.1505e-003
38674	2.9	1.5	5.e-002	9.0203
38675	2.9	1.35	0.	1.3178e-002
38676	2.85	1.4	0.	9.8968e-003
38677	2.9	1.4	5.e-002	8.953
38678	2.9	1.25	0.	2.0342e-002
38679	2.85	1.3	0.	1.6619e-002
38680	2.9	1.3	5.e-002	8.875
38681	2.9	1.15	0.	2.8654e-002
38682	2.85	1.2	0.	2.4463e-002
38683	2.9	1.2	5.e-002	8.786
38684	2.9	1.05	0.	3.8322e-002
38685	2.85	1.1	0.	3.3618e-002
38686	2.9	1.1	5.e-002	8.6854
38687	2.9	0.95	0.	4.9652e-002
38688	2.85	1.	0.	4.4345e-002
38689	2.9	1.	5.e-002	8.5732
38690	2.9	0.85	0.	6.3112e-002
38691	2.85	0.9	0.	5.703e-002
38692	2.9	0.9	5.e-002	8.4494
38693	2.9	0.75	0.	7.9457e-002
38694	2.85	0.8	0.	7.2296e-002
38695	2.9	0.8	5.e-002	8.3143
38696	2.9	0.65	0.	0.10007
38697	2.85	0.7	0.	9.1145e-002
38698	2.9	0.7	5.e-002	8.1685
38699	2.9	0.55	0.	0.12729
38700	2.85	0.6	0.	0.1156
38701	2.9	0.6	5.e-002	8.013
38702	2.9	0.45	0.	0.16743
38703	2.85	0.5	0.	0.14888
38704	2.9	0.5	5.e-002	7.8488
38705	2.9	0.35	0.	0.22982
38706	2.85	0.4	0.	0.20209
38707	2.9	0.4	5.e-002	7.6778
38708	2.9	0.25	0.	0.41469
38709	2.85	0.3	0.	0.28897
38710	2.9	0.3	5.e-002	7.5123
38711	2.9	0.15	0.	1.1892
38712	2.85	0.2	0.	0.64105
38713	2.9	0.2	5.e-002	7.5335
38714	2.85	0.1	0.	4.2021
38715	2.9	0.1	5.e-002	12.228
38716	2.9	5.e-002	0.	1.5998
38717	2.8	5.85	0.	1.3185
38718	2.75	5.9	0.	5.2006
38719	2.8	5.9	5.e-002	12.609
38720	2.8	5.95	0.	1.8278
38721	2.8	5.75	0.	0.44397
38722	2.75	5.8	0.	0.69243
38723	2.8	5.8	5.e-002	7.6607
38724	2.8	5.65	0.	0.2443
38725	2.75	5.7	0.	0.30873
38726	2.8	5.7	5.e-002	7.647
38727	2.8	5.55	0.	0.17695
38728	2.75	5.6	0.	0.21428
38729	2.8	5.6	5.e-002	7.8254
38730	2.8	5.45	0.	0.1339
38731	2.75	5.5	0.	0.15708
38732	2.8	5.5	5.e-002	8.0094
38733	2.8	5.35	0.	0.10478
38734	2.75	5.4	0.	0.12141
38735	2.8	5.4	5.e-002	8.1859
38736	2.8	5.25	0.	8.2775e-002
38737	2.75	5.3	0.	9.5264e-002
38738	2.8	5.3	5.e-002	8.3532
38739	2.8	5.15	0.	6.5382e-002
38740	2.75	5.2	0.	7.5164e-002
38741	2.8	5.2	5.e-002	8.51
38742	2.8	5.05	0.	5.1118e-002
38743	2.75	5.1	0.	5.8945e-002
38744	2.8	5.1	5.e-002	8.6555
38745	2.8	4.95	0.	3.9179e-002
38746	2.75	5.	0.	4.5536e-002
38747	2.8	5.	5.e-002	8.7889
38748	2.8	4.85	0.	2.9063e-002
38749	2.75	4.9	0.	3.4272e-002
38750	2.8	4.9	5.e-002	8.9101
38751	2.8	4.75	0.	2.0443e-002
38752	2.75	4.8	0.	2.4739e-002
38753	2.8	4.8	5.e-002	9.0192
38754	2.8	4.65	0.	1.3091e-002
38755	2.75	4.7	0.	1.6654e-002
38756	2.8	4.7	5.e-002	9.1163
38757	2.8	4.55	0.	6.8331e-003
38758	2.75	4.6	0.	9.8086e-003
38759	2.8	4.6	5.e-002	9.2018
38760	2.8	4.45	0.	1.5302e-003
38761	2.75	4.5	0.	4.0387e-003
38762	2.8	4.5	5.e-002	9.2765
38763	2.8	4.35	0.	-2.9363e-003
38764	2.75	4.4	0.	-7.9327e-004
38765	2.8	4.4	5.e-002	9.341
38766	2.8	4.25	0.	-6.6708e-003
38767	2.75	4.3	0.	-4.8078e-003
38768	2.8	4.3	5.e-002	9.3959
38769	2.8	4.15	0.	-9.7678e-003
38770	2.75	4.2	0.	-8.113e-003
38771	2.8	4.2	5.e-002	9.4423
38772	2.8	4.05	0.	-1.2313e-002
38773	2.75	4.1	0.	-1.0807e-002
38774	2.8	4.1	5.e-002	9.481
38775	2.8	3.95	0.	-1.4385e-002
38776	2.75	4.	0.	-1.2979e-002
38777	2.8	4.	5.e-002	9.5129
38778	2.8	3.85	0.	-1.6053e-002
38779	2.75	3.9	0.	-1.471e-002
38780	2.8	3.9	5.e-002	9.5387
38781	2.8	3.75	0.	-1.7382e-002
38782	2.75	3.8	0.	-1.6071e-002
38783	2.8	3.8	5.e-002	9.5594
38784	2.8	3.65	0.	-1.8427e-002
38785	2.75	3.7	0.	-1.7128e-002
38786	2.8	3.7	5.e-002	9.5757
38787	2.8	3.55	0.	-1.9235e-002
38788	2.75	3.6	0.	-1.7936e-002
38789	2.8	3.6	5.e-002	9.5883
38790	2.8	3.45	0.	-1.9848e-002
38791	2.75	3.5	0.	-1.8541e-002
38792	2.8	3.5	5.e-002	9.5978
38793	2.8	3.35	0.	-2.0298e-002
38794	2.75	3.4	0.	-1.8984e-002
38795	2.8	3.4	5.e-002	9.6048
38796	2.8	3.25	0.	-2.0614e-002
38797	2.75	3.3	0.	-1.9297e-002
38798	2.8	3.3	5.e-002	9.6097
38799	2.8	3.15	0.	-2.0813e-002
38800	2.75	3.2	0.	-1.9503e-002
38801	2.8	3.2	5.e-002	9.613
38802	2.8	3.05	0.	-2.0909e-002
38803	2.75	3.1	0.	-1.962e-002
38804	2.8	3.1	5.e-002	9.6148
38805	2.8	2.95	0.	-2.0909e-002
38806	2.75	3.	0.	-1.9657e-002
38807	2.8	3.	5.e-002	9.6154
38808	2.8	2.85	0.	-2.0813e-002
38809	2.75	2.9	0.	-1.962e-002
38810	2.8	2.9	5.e-002	9.6149
38811	2.8	2.75	0.	-2.0613e-002
38812	2.75	2.8	0.	-1.9503e-002
38813	2.8	2.8	5.e-002	9.6131
38814	2.8	2.65	0.	-2.0298e-002
38815	2.75	2.7	0.	-1.9297e-002
38816	2.8	2.7	5.e-002	9.6098
38817	2.8	2.55	0.	-1.9847e-002
38818	2.75	2.6	0.	-1.8984e-002
38819	2.8	2.6	5.e-002	9.6049
38820	2.8	2.45	0.	-1.9235e-002
38821	2.75	2.5	0.	-1.8541e-002
38822	2.8	2.5	5.e-002	9.5979
38823	2.8	2.35	0.	-1.8426e-002
38824	2.75	2.4	0.	-1.7936e-002
38825	2.8	2.4	5.e-002	9.5884
38826	2.8	2.25	0.	-1.7382e-002
38827	2.75	2.3	0.	-1.7128e-002
38828	2.8	2.3	5.e-002	9.5758
38829	2.8	2.15	0.	-1.6053e-002
38830	2.75	2.2	0.	-1.6071e-002
38831	2.8	2.2	5.e-002	9.5596
38832	2.8	2.05	0.	-1.4385e-002
38833	2.75	2.1	0.	-1.4709e-002
38834	2.8	2.1	5.e-002	9.539
38835	2.8	1.95	0.	-1.2313e-002
38836	2.75	2.	0.	-1.2979e-002
38837	2.8	2.	5.e-002	9.5131
38838	2.8	1.85	0.	-9.7675e-003
38839	2.75	1.9	0.	-1.0807e-002
38840	2.8	1.9	5.e-002	9.4812
38841	2.8	1.75	0.	-6.6704e-003
38842	2.75	1.8	0.	-8.1126e-003
38843	2.8	1.8	5.e-002	9.4426
38844	2.8	1.65	0.	-2.9358e-003
38845	2.75	1.7	0.	-4.8074e-003
38846	2.8	1.7	5.e-002	9.3962
38847	2.8	1.55	0.	1.5306e-003
38848	2.75	1.6	0.	-7.9283e-004
38849	2.8	1.6	5.e-002	9.3412
38850	2.8	1.45	0.	6.8336e-003
38851	2.75	1.5	0.	4.0392e-003
38852	2.8	1.5	5.e-002	9.2768
38853	2.8	1.35	0.	1.3092e-002
38854	2.75	1.4	0.	9.8091e-003
38855	2.8	1.4	5.e-002	9.2021
38856	2.8	1.25	0.	2.0444e-002
38857	2.75	1.3	0.	1.6654e-002
38858	2.8	1.3	5.e-002	9.1166
38859	2.8	1.15	0.	2.9063e-002
38860	2.75	1.2	0.	2.4739e-002
38861	2.8	1.2	5.e-002	9.0195
38862	2.8	1.05	0.	3.9179e-002
38863	2.75	1.1	0.	3.4272e-002
38864	2.8	1.1	5.e-002	8.9104
38865	2.8	0.95	0.	5.1118e-002
38866	2.75	1.	0.	4.5537e-002
38867	2.8	1.	5.e-002	8.7892
38868	2.8	0.85	0.	6.5383e-002
38869	2.75	0.9	0.	5.8946e-002
38870	2.8	0.9	5.e-002	8.6558
38871	2.8	0.75	0.	8.2776e-002
38872	2.75	0.8	0.	7.5165e-002
38873	2.8	0.8	5.e-002	8.5104
38874	2.8	0.65	0.	0.10478
38875	2.75	0.7	0.	9.5264e-002
38876	2.8	0.7	5.e-002	8.3536
38877	2.8	0.55	0.	0.13391
38878	2.75	0.6	0.	0.12141
38879	2.8	0.6	5.e-002	8.1863
38880	2.8	0.45	0.	0.17695
38881	2.75	0.5	0.	0.15709
38882	2.8	0.5	5.e-002	8.0097
38883	2.8	0.35	0.	0.2443
38884	2.75	0.4	0.	0.21428
38885	2.8	0.4	5.e-002	7.8258
38886	2.8	0.25	0.	0.44397
38887	2.75	0.3	0.	0.30873
38888	2.8	0.3	5.e-002	7.6474
38889	2.8	0.15	0.	1.3185
38890	2.75	0.2	0.	0.69243
38891	2.8	0.2	5.e-002	7.6611
38892	2.75	0.1	0.	5.2006
38893	2.8	0.1	5.e-002	12.61
38894	2.8	5.e-002	0.	1.8278
38895	2.7	5.85	0.	1.4715
38896	2.65	5.9	0.	6.5442
38897	2.7	5.9	5.e-002	12.999
38898	2.7	5.95	0.	2.1603
38899	2.7	5.75	0.	0.47612
38900	2.65	5.8	0.	0.74996
38901	2.7	5.8	5.e-002	7.7965
38902	2.7	5.65	0.	0.26006
38903	2.65	5.7	0.	0.33037
38904	2.7	5.7	5.e-002	7.7936
38905	2.7	5.55	0.	0.18725
38906	2.65	5.6	0.	0.2275
38907	2.7	5.6	5.e-002	7.9871
38908	2.7	5.45	0.	0.14105
38909	2.65	5.5	0.	0.16596
38910	2.7	5.5	5.e-002	8.186
38911	2.7	5.35	0.	0.10986
38912	2.65	5.4	0.	0.12767
38913	2.7	5.4	5.e-002	8.3766
38914	2.7	5.25	0.	8.6356e-002
38915	2.65	5.3	0.	9.97e-002
38916	2.7	5.3	5.e-002	8.557
38917	2.7	5.15	0.	6.7837e-002
38918	2.65	5.2	0.	7.8251e-002
38919	2.7	5.2	5.e-002	8.7259
38920	2.7	5.05	0.	5.2716e-002
38921	2.65	5.1	0.	6.1012e-002
38922	2.7	5.1	5.e-002	8.8824
38923	2.7	4.95	0.	4.0136e-002
38924	2.65	5.	0.	4.6835e-002
38925	2.7	5.	5.e-002	9.0261
38926	2.7	4.85	0.	2.9558e-002
38927	2.65	4.9	0.	3.5012e-002
38928	2.7	4.9	5.e-002	9.1566
38929	2.7	4.75	0.	2.0633e-002
38930	2.65	4.8	0.	2.5098e-002
38931	2.7	4.8	5.e-002	9.2743
38932	2.7	4.65	0.	1.3108e-002
38933	2.65	4.7	0.	1.6784e-002
38934	2.7	4.7	5.e-002	9.3794
38935	2.7	4.55	0.	6.7898e-003
38936	2.65	4.6	0.	9.8395e-003
38937	2.7	4.6	5.e-002	9.4724
38938	2.7	4.45	0.	1.5211e-003
38939	2.65	4.5	0.	4.0788e-003
38940	2.7	4.5	5.e-002	9.5542
38941	2.7	4.35	0.	-2.8354e-003
38942	2.65	4.4	0.	-6.5647e-004
38943	2.7	4.4	5.e-002	9.6253
38944	2.7	4.25	0.	-6.4017e-003
38945	2.65	4.3	0.	-4.5062e-003
38946	2.7	4.3	5.e-002	9.6868
38947	2.7	4.15	0.	-9.2887e-003
38948	2.65	4.2	0.	-7.5966e-003
38949	2.7	4.2	5.e-002	9.7394
38950	2.7	4.05	0.	-1.1597e-002
38951	2.65	4.1	0.	-1.0043e-002
38952	2.7	4.1	5.e-002	9.7841
38953	2.7	3.95	0.	-1.3418e-002
38954	2.65	4.	0.	-1.1948e-002
38955	2.7	4.	5.e-002	9.8216
38956	2.7	3.85	0.	-1.4833e-002
38957	2.65	3.9	0.	-1.3407e-002
38958	2.7	3.9	5.e-002	9.8528
38959	2.7	3.75	0.	-1.5916e-002
38960	2.65	3.8	0.	-1.4502e-002
38961	2.7	3.8	5.e-002	9.8785
38962	2.7	3.65	0.	-1.673e-002
38963	2.65	3.7	0.	-1.5306e-002
38964	2.7	3.7	5.e-002	9.8994
38965	2.7	3.55	0.	-1.733e-002
38966	2.65	3.6	0.	-1.5882e-002
38967	2.7	3.6	5.e-002	9.9162
38968	2.7	3.45	0.	-1.7763e-002
38969	2.65	3.5	0.	-1.6284e-002
38970	2.7	3.5	5.e-002	9.9293
38971	2.7	3.35	0.	-1.8065e-002
38972	2.65	3.4	0.	-1.6555e-002
38973	2.7	3.4	5.e-002	9.9394
38974	2.7	3.25	0.	-1.8266e-002
38975	2.65	3.3	0.	-1.6731e-002
38976	2.7	3.3	5.e-002	9.9468
38977	2.7	3.15	0.	-1.8388e-002
38978	2.65	3.2	0.	-1.6837e-002
38979	2.7	3.2	5.e-002	9.9519
38980	2.7	3.05	0.	-1.8445e-002
38981	2.65	3.1	0.	-1.6894e-002
38982	2.7	3.1	5.e-002	9.9548
38983	2.7	2.95	0.	-1.8445e-002
38984	2.65	3.	0.	-1.6912e-002
38985	2.7	3.	5.e-002	9.9558
38986	2.7	2.85	0.	-1.8388e-002
38987	2.65	2.9	0.	-1.6894e-002
38988	2.7	2.9	5.e-002	9.9549
38989	2.7	2.75	0.	-1.8266e-002
38990	2.65	2.8	0.	-1.6837e-002
38991	2.7	2.8	5.e-002	9.9519
38992	2.7	2.65	0.	-1.8064e-002
38993	2.65	2.7	0.	-1.6731e-002
38994	2.7	2.7	5.e-002	9.9469
38995	2.7	2.55	0.	-1.7762e-002
38996	2.65	2.6	0.	-1.6555e-002
38997	2.7	2.6	5.e-002	9.9396
38998	2.7	2.45	0.	-1.733e-002
38999	2.65	2.5	0.	-1.6284e-002
39000	2.7	2.5	5.e-002	9.9295
39001	2.7	2.35	0.	-1.673e-002
39002	2.65	2.4	0.	-1.5882e-002
39003	2.7	2.4	5.e-002	9.9163
39004	2.7	2.25	0.	-1.5916e-002
39005	2.65	2.3	0.	-1.5306e-002
39006	2.7	2.3	5.e-002	9.8996
39007	2.7	2.15	0.	-1.4833e-002
39008	2.65	2.2	0.	-1.4501e-002
39009	2.7	2.2	5.e-002	9.8787
39010	2.7	2.05	0.	-1.3417e-002
39011	2.65	2.1	0.	-1.3406e-002
39012	2.7	2.1	5.e-002	9.853
39013	2.7	1.95	0.	-1.1597e-002
39014	2.65	2.	0.	-1.1948e-002
39015	2.7	2.	5.e-002	9.8218
39016	2.7	1.85	0.	-9.2884e-003
39017	2.65	1.9	0.	-1.0042e-002
39018	2.7	1.9	5.e-002	9.7843
39019	2.7	1.75	0.	-6.4014e-003
39020	2.65	1.8	0.	-7.5963e-003
39021	2.7	1.8	5.e-002	9.7397
39022	2.7	1.65	0.	-2.835e-003
39023	2.65	1.7	0.	-4.5058e-003
39024	2.7	1.7	5.e-002	9.6871
39025	2.7	1.55	0.	1.5216e-003
39026	2.65	1.6	0.	-6.5605e-004
39027	2.7	1.6	5.e-002	9.6256
39028	2.7	1.45	0.	6.7903e-003
39029	2.65	1.5	0.	4.0792e-003
39030	2.7	1.5	5.e-002	9.5545
39031	2.7	1.35	0.	1.3108e-002
39032	2.65	1.4	0.	9.84e-003
39033	2.7	1.4	5.e-002	9.4727
39034	2.7	1.25	0.	2.0633e-002
39035	2.65	1.3	0.	1.6785e-002
39036	2.7	1.3	5.e-002	9.3796
39037	2.7	1.15	0.	2.9559e-002
39038	2.65	1.2	0.	2.5098e-002
39039	2.7	1.2	5.e-002	9.2746
39040	2.7	1.05	0.	4.0136e-002
39041	2.65	1.1	0.	3.5013e-002
39042	2.7	1.1	5.e-002	9.1569
39043	2.7	0.95	0.	5.2717e-002
39044	2.65	1.	0.	4.6836e-002
39045	2.7	1.	5.e-002	9.0263
39046	2.7	0.85	0.	6.7837e-002
39047	2.65	0.9	0.	6.1013e-002
39048	2.7	0.9	5.e-002	8.8827
39049	2.7	0.75	0.	8.6356e-002
39050	2.65	0.8	0.	7.8252e-002
39051	2.7	0.8	5.e-002	8.7262
39052	2.7	0.65	0.	0.10986
39053	2.65	0.7	0.	9.97e-002
39054	2.7	0.7	5.e-002	8.5573
39055	2.7	0.55	0.	0.14105
39056	2.65	0.6	0.	0.12768
39057	2.7	0.6	5.e-002	8.3769
39058	2.7	0.45	0.	0.18725
39059	2.65	0.5	0.	0.16596
39060	2.7	0.5	5.e-002	8.1864
39061	2.7	0.35	0.	0.26006
39062	2.65	0.4	0.	0.2275
39063	2.7	0.4	5.e-002	7.9875
39064	2.7	0.25	0.	0.47612
39065	2.65	0.3	0.	0.33038
39066	2.7	0.3	5.e-002	7.794
39067	2.7	0.15	0.	1.4715
39068	2.65	0.2	0.	0.74996
39069	2.7	0.2	5.e-002	7.7969
39070	2.65	0.1	0.	6.5442
39071	2.7	0.1	5.e-002	13.
39072	2.7	5.e-002	0.	2.1603
39073	2.6	5.85	0.	1.655
39074	2.55	5.9	0.	8.331
39075	2.6	5.9	5.e-002	13.395
39076	2.6	5.95	0.	2.6741
39077	2.6	5.75	0.	0.51155
39078	2.55	5.8	0.	0.81478
39079	2.6	5.8	5.e-002	7.9411
39080	2.6	5.65	0.	0.27723
39081	2.55	5.7	0.	0.35414
39082	2.6	5.7	5.e-002	7.9531
39083	2.6	5.55	0.	0.1984
39084	2.55	5.6	0.	0.24187
39085	2.6	5.6	5.e-002	8.1644
39086	2.6	5.45	0.	0.14875
39087	2.55	5.5	0.	0.17555
39088	2.6	5.5	5.e-002	8.3803
39089	2.6	5.35	0.	0.11532
39090	2.55	5.4	0.	0.13442
39091	2.6	5.4	5.e-002	8.5867
39092	2.6	5.25	0.	9.02e-002
39093	2.55	5.3	0.	0.10446
39094	2.6	5.3	5.e-002	8.7817
39095	2.6	5.15	0.	7.047e-002
39096	2.55	5.2	0.	8.1554e-002
39097	2.6	5.2	5.e-002	8.9638
39098	2.6	5.05	0.	5.4436e-002
39099	2.55	5.1	0.	6.322e-002
39100	2.6	5.1	5.e-002	9.1321
39101	2.6	4.95	0.	4.1182e-002
39102	2.55	5.	0.	4.8232e-002
39103	2.6	5.	5.e-002	9.2864
39104	2.6	4.85	0.	3.0134e-002
39105	2.55	4.9	0.	3.5831e-002
39106	2.6	4.9	5.e-002	9.4266
39107	2.6	4.75	0.	2.091e-002
39108	2.55	4.8	0.	2.5538e-002
39109	2.6	4.8	5.e-002	9.553
39110	2.6	4.65	0.	1.3233e-002
39111	2.55	4.7	0.	1.7015e-002
39112	2.6	4.7	5.e-002	9.666
39113	2.6	4.55	0.	6.8881e-003
39114	2.55	4.6	0.	1.0004e-002
39115	2.6	4.6	5.e-002	9.7664
39116	2.6	4.45	0.	1.6933e-003
39117	2.55	4.5	0.	4.2942e-003
39118	2.6	4.5	5.e-002	9.8549
39119	2.6	4.35	0.	-2.5097e-003
39120	2.55	4.4	0.	-2.9757e-004
39121	2.6	4.4	5.e-002	9.9325
39122	2.6	4.25	0.	-5.8631e-003
39123	2.55	4.3	0.	-3.9338e-003
39124	2.6	4.3	5.e-002	10.
39125	2.6	4.15	0.	-8.4962e-003
39126	2.55	4.2	0.	-6.7616e-003
39127	2.6	4.2	5.e-002	10.059
39128	2.6	4.05	0.	-1.0526e-002
39129	2.55	4.1	0.	-8.9144e-003
39130	2.6	4.1	5.e-002	10.109
39131	2.6	3.95	0.	-1.2058e-002
39132	2.55	4.	0.	-1.0512e-002
39133	2.6	4.	5.e-002	10.152
39134	2.6	3.85	0.	-1.3187e-002
39135	2.55	3.9	0.	-1.1663e-002
39136	2.6	3.9	5.e-002	10.188
39137	2.6	3.75	0.	-1.3996e-002
39138	2.55	3.8	0.	-1.246e-002
39139	2.6	3.8	5.e-002	10.218
39140	2.6	3.65	0.	-1.4556e-002
39141	2.55	3.7	0.	-1.2985e-002
39142	2.6	3.7	5.e-002	10.243
39143	2.6	3.55	0.	-1.4929e-002
39144	2.55	3.6	0.	-1.3309e-002
39145	2.6	3.6	5.e-002	10.264
39146	2.6	3.45	0.	-1.5165e-002
39147	2.55	3.5	0.	-1.3491e-002
39148	2.6	3.5	5.e-002	10.281
39149	2.6	3.35	0.	-1.5307e-002
39150	2.55	3.4	0.	-1.3577e-002
39151	2.6	3.4	5.e-002	10.294
39152	2.6	3.25	0.	-1.5386e-002
39153	2.55	3.3	0.	-1.3607e-002
39154	2.6	3.3	5.e-002	10.303
39155	2.6	3.15	0.	-1.5425e-002
39156	2.55	3.2	0.	-1.3608e-002
39157	2.6	3.2	5.e-002	10.31
39158	2.6	3.05	0.	-1.5441e-002
39159	2.55	3.1	0.	-1.3601e-002
39160	2.6	3.1	5.e-002	10.314
39161	2.6	2.95	0.	-1.5441e-002
39162	2.55	3.	0.	-1.3597e-002
39163	2.6	3.	5.e-002	10.315
39164	2.6	2.85	0.	-1.5425e-002
39165	2.55	2.9	0.	-1.3601e-002
39166	2.6	2.9	5.e-002	10.314
39167	2.6	2.75	0.	-1.5386e-002
39168	2.55	2.8	0.	-1.3608e-002
39169	2.6	2.8	5.e-002	10.31
39170	2.6	2.65	0.	-1.5307e-002
39171	2.55	2.7	0.	-1.3607e-002
39172	2.6	2.7	5.e-002	10.303
39173	2.6	2.55	0.	-1.5165e-002
39174	2.55	2.6	0.	-1.3577e-002
39175	2.6	2.6	5.e-002	10.294
39176	2.6	2.45	0.	-1.4929e-002
39177	2.55	2.5	0.	-1.3491e-002
39178	2.6	2.5	5.e-002	10.281
39179	2.6	2.35	0.	-1.4556e-002
39180	2.55	2.4	0.	-1.3309e-002
39181	2.6	2.4	5.e-002	10.264
39182	2.6	2.25	0.	-1.3996e-002
39183	2.55	2.3	0.	-1.2985e-002
39184	2.6	2.3	5.e-002	10.244
39185	2.6	2.15	0.	-1.3187e-002
39186	2.55	2.2	0.	-1.2459e-002
39187	2.6	2.2	5.e-002	10.218
39188	2.6	2.05	0.	-1.2058e-002
39189	2.55	2.1	0.	-1.1662e-002
39190	2.6	2.1	5.e-002	10.188
39191	2.6	1.95	0.	-1.0526e-002
39192	2.55	2.	0.	-1.0512e-002
39193	2.6	2.	5.e-002	10.152
39194	2.6	1.85	0.	-8.4958e-003
39195	2.55	1.9	0.	-8.9141e-003
39196	2.6	1.9	5.e-002	10.109
39197	2.6	1.75	0.	-5.8628e-003
39198	2.55	1.8	0.	-6.7613e-003
39199	2.6	1.8	5.e-002	10.059
39200	2.6	1.65	0.	-2.5093e-003
39201	2.55	1.7	0.	-3.9334e-003
39202	2.6	1.7	5.e-002	10.
39203	2.6	1.55	0.	1.6937e-003
39204	2.55	1.6	0.	-2.9717e-004
39205	2.6	1.6	5.e-002	9.9328
39206	2.6	1.45	0.	6.8886e-003
39207	2.55	1.5	0.	4.2946e-003
39208	2.6	1.5	5.e-002	9.8552
39209	2.6	1.35	0.	1.3234e-002
39210	2.55	1.4	0.	1.0005e-002
39211	2.6	1.4	5.e-002	9.7667
39212	2.6	1.25	0.	2.091e-002
39213	2.55	1.3	0.	1.7016e-002
39214	2.6	1.3	5.e-002	9.6663
39215	2.6	1.15	0.	3.0134e-002
39216	2.55	1.2	0.	2.5539e-002
39217	2.6	1.2	5.e-002	9.5533
39218	2.6	1.05	0.	4.1183e-002
39219	2.55	1.1	0.	3.5832e-002
39220	2.6	1.1	5.e-002	9.427
39221	2.6	0.95	0.	5.4436e-002
39222	2.55	1.	0.	4.8233e-002
39223	2.6	1.	5.e-002	9.2868
39224	2.6	0.85	0.	7.047e-002
39225	2.55	0.9	0.	6.3221e-002
39226	2.6	0.9	5.e-002	9.1324
39227	2.6	0.75	0.	9.0201e-002
39228	2.55	0.8	0.	8.1555e-002
39229	2.6	0.8	5.e-002	8.9641
39230	2.6	0.65	0.	0.11532
39231	2.55	0.7	0.	0.10446
39232	2.6	0.7	5.e-002	8.782
39233	2.6	0.55	0.	0.14875
39234	2.55	0.6	0.	0.13443
39235	2.6	0.6	5.e-002	8.587
39236	2.6	0.45	0.	0.1984
39237	2.55	0.5	0.	0.17555
39238	2.6	0.5	5.e-002	8.3806
39239	2.6	0.35	0.	0.27723
39240	2.55	0.4	0.	0.24187
39241	2.6	0.4	5.e-002	8.1646
39242	2.6	0.25	0.	0.51155
39243	2.55	0.3	0.	0.35414
39244	2.6	0.3	5.e-002	7.9534
39245	2.6	0.15	0.	1.655
39246	2.55	0.2	0.	0.81478
39247	2.6	0.2	5.e-002	7.9414
39248	2.55	0.1	0.	8.331
39249	2.6	0.1	5.e-002	13.396
39250	2.6	5.e-002	0.	2.6741
39251	2.5	5.85	0.	1.8786
39252	2.45	5.9	0.	10.649
39253	2.5	5.9	5.e-002	13.796
39254	2.5	5.95	0.	3.4773
39255	2.5	5.75	0.	0.55074
39256	2.45	5.8	0.	0.88828
39257	2.5	5.8	5.e-002	8.0956
39258	2.5	5.65	0.	0.29597
39259	2.45	5.7	0.	0.3803
39260	2.5	5.7	5.e-002	8.1273
39261	2.5	5.55	0.	0.21049
39262	2.45	5.6	0.	0.25749
39263	2.5	5.6	5.e-002	8.3593
39264	2.5	5.45	0.	0.15707
39265	2.45	5.5	0.	0.18594
39266	2.5	5.5	5.e-002	8.5948
39267	2.5	5.35	0.	0.12119
39268	2.45	5.4	0.	0.14169
39269	2.5	5.4	5.e-002	8.819
39270	2.5	5.25	0.	9.4312e-002
39271	2.45	5.3	0.	0.10956
39272	2.5	5.3	5.e-002	9.03
39273	2.5	5.15	0.	7.3274e-002
39274	2.45	5.2	0.	8.5071e-002
39275	2.5	5.2	5.e-002	9.2264
39276	2.5	5.05	0.	5.6268e-002
39277	2.45	5.1	0.	6.5562e-002
39278	2.5	5.1	5.e-002	9.4074
39279	2.5	4.95	0.	4.2311e-002
39280	2.45	5.	0.	4.9718e-002
39281	2.5	5.	5.e-002	9.5728
39282	2.5	4.85	0.	3.0786e-002
39283	2.45	4.9	0.	3.6725e-002
39284	2.5	4.9	5.e-002	9.7228
39285	2.5	4.75	0.	2.1278e-002
39286	2.45	4.8	0.	2.6064e-002
39287	2.5	4.8	5.e-002	9.8578
39288	2.5	4.65	0.	1.3482e-002
39289	2.45	4.7	0.	1.7362e-002
39290	2.5	4.7	5.e-002	9.9786
39291	2.5	4.55	0.	7.1519e-003
39292	2.45	4.6	0.	1.0328e-002
39293	2.5	4.6	5.e-002	10.086
39294	2.5	4.45	0.	2.08e-003
39295	2.45	4.5	0.	4.7204e-003
39296	2.5	4.5	5.e-002	10.181
39297	2.5	4.35	0.	-1.9173e-003
39298	2.45	4.4	0.	3.2853e-004
39299	2.5	4.4	5.e-002	10.265
39300	2.5	4.25	0.	-5.0058e-003
39301	2.45	4.3	0.	-3.0375e-003
39302	2.5	4.3	5.e-002	10.338
39303	2.5	4.15	0.	-7.3354e-003
39304	2.45	4.2	0.	-5.5485e-003
39305	2.5	4.2	5.e-002	10.402
39306	2.5	4.05	0.	-9.0416e-003
39307	2.45	4.1	0.	-7.3585e-003
39308	2.5	4.1	5.e-002	10.457
39309	2.5	3.95	0.	-1.0245e-002
39310	2.45	4.	0.	-8.6051e-003
39311	2.5	4.	5.e-002	10.505
39312	2.5	3.85	0.	-1.1054e-002
39313	2.45	3.9	0.	-9.4096e-003
39314	2.5	3.9	5.e-002	10.546
39315	2.5	3.75	0.	-1.1559e-002
39316	2.45	3.8	0.	-9.8777e-003
39317	2.5	3.8	5.e-002	10.58
39318	2.5	3.65	0.	-1.1842e-002
39319	2.45	3.7	0.	-1.01e-002
39320	2.5	3.7	5.e-002	10.609
39321	2.5	3.55	0.	-1.1969e-002
39322	2.45	3.6	0.	-1.0153e-002
39323	2.5	3.6	5.e-002	10.634
39324	2.5	3.45	0.	-1.1996e-002
39325	2.45	3.5	0.	-1.0099e-002
39326	2.5	3.5	5.e-002	10.653
39327	2.5	3.35	0.	-1.1967e-002
39328	2.45	3.4	0.	-9.9904e-003
39329	2.5	3.4	5.e-002	10.669
39330	2.5	3.25	0.	-1.1916e-002
39331	2.45	3.3	0.	-9.8664e-003
39332	2.5	3.3	5.e-002	10.68
39333	2.5	3.15	0.	-1.1869e-002
39334	2.45	3.2	0.	-9.7571e-003
39335	2.5	3.2	5.e-002	10.689
39336	2.5	3.05	0.	-1.1841e-002
39337	2.45	3.1	0.	-9.6834e-003
39338	2.5	3.1	5.e-002	10.694
39339	2.5	2.95	0.	-1.1841e-002
39340	2.45	3.	0.	-9.6575e-003
39341	2.5	3.	5.e-002	10.695
39342	2.5	2.85	0.	-1.1869e-002
39343	2.45	2.9	0.	-9.6834e-003
39344	2.5	2.9	5.e-002	10.694
39345	2.5	2.75	0.	-1.1916e-002
39346	2.45	2.8	0.	-9.7571e-003
39347	2.5	2.8	5.e-002	10.689
39348	2.5	2.65	0.	-1.1967e-002
39349	2.45	2.7	0.	-9.8663e-003
39350	2.5	2.7	5.e-002	10.681
39351	2.5	2.55	0.	-1.1996e-002
39352	2.45	2.6	0.	-9.9903e-003
39353	2.5	2.6	5.e-002	10.669
39354	2.5	2.45	0.	-1.1969e-002
39355	2.45	2.5	0.	-1.0099e-002
39356	2.5	2.5	5.e-002	10.653
39357	2.5	2.35	0.	-1.1842e-002
39358	2.45	2.4	0.	-1.0153e-002
39359	2.5	2.4	5.e-002	10.634
39360	2.5	2.25	0.	-1.1559e-002
39361	2.45	2.3	0.	-1.01e-002
39362	2.5	2.3	5.e-002	10.61
39363	2.5	2.15	0.	-1.1053e-002
39364	2.45	2.2	0.	-9.8775e-003
39365	2.5	2.2	5.e-002	10.58
39366	2.5	2.05	0.	-1.0245e-002
39367	2.45	2.1	0.	-9.4093e-003
39368	2.5	2.1	5.e-002	10.546
39369	2.5	1.95	0.	-9.0413e-003
39370	2.45	2.	0.	-8.6048e-003
39371	2.5	2.	5.e-002	10.505
39372	2.5	1.85	0.	-7.3351e-003
39373	2.45	1.9	0.	-7.3582e-003
39374	2.5	1.9	5.e-002	10.457
39375	2.5	1.75	0.	-5.0054e-003
39376	2.45	1.8	0.	-5.5481e-003
39377	2.5	1.8	5.e-002	10.402
39378	2.5	1.65	0.	-1.9169e-003
39379	2.45	1.7	0.	-3.0371e-003
39380	2.5	1.7	5.e-002	10.338
39381	2.5	1.55	0.	2.0805e-003
39382	2.45	1.6	0.	3.289e-004
39383	2.5	1.6	5.e-002	10.265
39384	2.5	1.45	0.	7.1523e-003
39385	2.45	1.5	0.	4.7209e-003
39386	2.5	1.5	5.e-002	10.181
39387	2.5	1.35	0.	1.3482e-002
39388	2.45	1.4	0.	1.0328e-002
39389	2.5	1.4	5.e-002	10.086
39390	2.5	1.25	0.	2.1279e-002
39391	2.45	1.3	0.	1.7362e-002
39392	2.5	1.3	5.e-002	9.9788
39393	2.5	1.15	0.	3.0787e-002
39394	2.45	1.2	0.	2.6065e-002
39395	2.5	1.2	5.e-002	9.8581
39396	2.5	1.05	0.	4.2312e-002
39397	2.45	1.1	0.	3.6726e-002
39398	2.5	1.1	5.e-002	9.7231
39399	2.5	0.95	0.	5.6268e-002
39400	2.45	1.	0.	4.9719e-002
39401	2.5	1.	5.e-002	9.5731
39402	2.5	0.85	0.	7.3275e-002
39403	2.45	0.9	0.	6.5563e-002
39404	2.5	0.9	5.e-002	9.4077
39405	2.5	0.75	0.	9.4313e-002
39406	2.45	0.8	0.	8.5072e-002
39407	2.5	0.8	5.e-002	9.2266
39408	2.5	0.65	0.	0.12119
39409	2.45	0.7	0.	0.10956
39410	2.5	0.7	5.e-002	9.0303
39411	2.5	0.55	0.	0.15707
39412	2.45	0.6	0.	0.14169
39413	2.5	0.6	5.e-002	8.8193
39414	2.5	0.45	0.	0.21049
39415	2.45	0.5	0.	0.18594
39416	2.5	0.5	5.e-002	8.595
39417	2.5	0.35	0.	0.29597
39418	2.45	0.4	0.	0.25749
39419	2.5	0.4	5.e-002	8.3596
39420	2.5	0.25	0.	0.55075
39421	2.45	0.3	0.	0.3803
39422	2.5	0.3	5.e-002	8.1276
39423	2.5	0.15	0.	1.8786
39424	2.45	0.2	0.	0.88828
39425	2.5	0.2	5.e-002	8.0959
39426	2.45	0.1	0.	10.649
39427	2.5	0.1	5.e-002	13.796
39428	2.5	5.e-002	0.	3.4773
39429	2.4	5.85	0.	2.1561
39430	2.35	5.9	0.	13.56
39431	2.4	5.9	5.e-002	14.198
39432	2.4	5.95	0.	4.6599
39433	2.4	5.75	0.	0.59428
39434	2.35	5.8	0.	0.97225
39435	2.4	5.8	5.e-002	8.2618
39436	2.4	5.65	0.	0.31647
39437	2.35	5.7	0.	0.40918
39438	2.4	5.7	5.e-002	8.319
39439	2.4	5.55	0.	0.2236
39440	2.35	5.6	0.	0.27452
39441	2.4	5.6	5.e-002	8.575
39442	2.4	5.45	0.	0.16604
39443	2.35	5.5	0.	0.19718
39444	2.4	5.5	5.e-002	8.8326
39445	2.4	5.35	0.	0.12749
39446	2.35	5.4	0.	0.14951
39447	2.4	5.4	5.e-002	9.0768
39448	2.4	5.25	0.	9.8694e-002
39449	2.35	5.3	0.	0.11501
39450	2.4	5.3	5.e-002	9.3054
39451	2.4	5.15	0.	7.6246e-002
39452	2.35	5.2	0.	8.8801e-002
39453	2.4	5.2	5.e-002	9.5172
39454	2.4	5.05	0.	5.8204e-002
39455	2.35	5.1	0.	6.8032e-002
39456	2.4	5.1	5.e-002	9.7115
39457	2.4	4.95	0.	4.3518e-002
39458	2.35	5.	0.	5.129e-002
39459	2.4	5.	5.e-002	9.8883
39460	2.4	4.85	0.	3.1518e-002
39461	2.35	4.9	0.	3.7698e-002
39462	2.4	4.9	5.e-002	10.048
39463	2.4	4.75	0.	2.1753e-002
39464	2.35	4.8	0.	2.6689e-002
39465	2.4	4.8	5.e-002	10.192
39466	2.4	4.65	0.	1.3879e-002
39467	2.35	4.7	0.	1.7849e-002
39468	2.4	4.7	5.e-002	10.32
39469	2.4	4.55	0.	7.6175e-003
39470	2.35	4.6	0.	1.0849e-002
39471	2.4	4.6	5.e-002	10.434
39472	2.4	4.45	0.	2.7285e-003
39473	2.35	4.5	0.	5.4085e-003
39474	2.4	4.5	5.e-002	10.535
39475	2.4	4.35	0.	-1.002e-003
39476	2.35	4.4	0.	1.2831e-003
39477	2.4	4.4	5.e-002	10.624
39478	2.4	4.25	0.	-3.7664e-003
39479	2.35	4.3	0.	-1.7479e-003
39480	2.4	4.3	5.e-002	10.702
39481	2.4	4.15	0.	-5.7381e-003
39482	2.35	4.2	0.	-3.8823e-003
39483	2.4	4.2	5.e-002	10.771
39484	2.4	4.05	0.	-7.0724e-003
39485	2.35	4.1	0.	-5.2968e-003
39486	2.4	4.1	5.e-002	10.831
39487	2.4	3.95	0.	-7.9064e-003
39488	2.35	4.	0.	-6.1473e-003
39489	2.4	4.	5.e-002	10.883
39490	2.4	3.85	0.	-8.3598e-003
39491	2.35	3.9	0.	-6.5694e-003
39492	2.4	3.9	5.e-002	10.928
39493	2.4	3.75	0.	-8.5354e-003
39494	2.35	3.8	0.	-6.6798e-003
39495	2.4	3.8	5.e-002	10.966
39496	2.4	3.65	0.	-8.52e-003
39497	2.35	3.7	0.	-6.5768e-003
39498	2.4	3.7	5.e-002	10.999
39499	2.4	3.55	0.	-8.3858e-003
39500	2.35	3.6	0.	-6.3422e-003
39501	2.4	3.6	5.e-002	11.026
39502	2.4	3.45	0.	-8.1917e-003
39503	2.35	3.5	0.	-6.0426e-003
39504	2.4	3.5	5.e-002	11.049
39505	2.4	3.35	0.	-7.9841e-003
39506	2.35	3.4	0.	-5.7311e-003
39507	2.4	3.4	5.e-002	11.067
39508	2.4	3.25	0.	-7.7987e-003
39509	2.35	3.3	0.	-5.449e-003
39510	2.4	3.3	5.e-002	11.08
39511	2.4	3.15	0.	-7.6613e-003
39512	2.35	3.2	0.	-5.2267e-003
39513	2.4	3.2	5.e-002	11.09
39514	2.4	3.05	0.	-7.5885e-003
39515	2.35	3.1	0.	-5.0851e-003
39516	2.4	3.1	5.e-002	11.096
39517	2.4	2.95	0.	-7.5885e-003
39518	2.35	3.	0.	-5.0366e-003
39519	2.4	3.	5.e-002	11.097
39520	2.4	2.85	0.	-7.6613e-003
39521	2.35	2.9	0.	-5.0851e-003
39522	2.4	2.9	5.e-002	11.096
39523	2.4	2.75	0.	-7.7987e-003
39524	2.35	2.8	0.	-5.2266e-003
39525	2.4	2.8	5.e-002	11.09
39526	2.4	2.65	0.	-7.984e-003
39527	2.35	2.7	0.	-5.4489e-003
39528	2.4	2.7	5.e-002	11.08
39529	2.4	2.55	0.	-8.1916e-003
39530	2.35	2.6	0.	-5.731e-003
39531	2.4	2.6	5.e-002	11.067
39532	2.4	2.45	0.	-8.3857e-003
39533	2.35	2.5	0.	-6.0425e-003
39534	2.4	2.5	5.e-002	11.049
39535	2.4	2.35	0.	-8.5198e-003
39536	2.35	2.4	0.	-6.342e-003
39537	2.4	2.4	5.e-002	11.026
39538	2.4	2.25	0.	-8.5352e-003
39539	2.35	2.3	0.	-6.5766e-003
39540	2.4	2.3	5.e-002	10.999
39541	2.4	2.15	0.	-8.3596e-003
39542	2.35	2.2	0.	-6.6796e-003
39543	2.4	2.2	5.e-002	10.966
39544	2.4	2.05	0.	-7.9062e-003
39545	2.35	2.1	0.	-6.5692e-003
39546	2.4	2.1	5.e-002	10.928
39547	2.4	1.95	0.	-7.0722e-003
39548	2.35	2.	0.	-6.147e-003
39549	2.4	2.	5.e-002	10.883
39550	2.4	1.85	0.	-5.7379e-003
39551	2.35	1.9	0.	-5.2966e-003
39552	2.4	1.9	5.e-002	10.831
39553	2.4	1.75	0.	-3.766e-003
39554	2.35	1.8	0.	-3.8821e-003
39555	2.4	1.8	5.e-002	10.771
39556	2.4	1.65	0.	-1.0016e-003
39557	2.35	1.7	0.	-1.7476e-003
39558	2.4	1.7	5.e-002	10.702
39559	2.4	1.55	0.	2.7289e-003
39560	2.35	1.6	0.	1.2835e-003
39561	2.4	1.6	5.e-002	10.624
39562	2.4	1.45	0.	7.618e-003
39563	2.35	1.5	0.	5.409e-003
39564	2.4	1.5	5.e-002	10.535
39565	2.4	1.35	0.	1.3879e-002
39566	2.35	1.4	0.	1.0849e-002
39567	2.4	1.4	5.e-002	10.434
39568	2.4	1.25	0.	2.1753e-002
39569	2.35	1.3	0.	1.785e-002
39570	2.4	1.3	5.e-002	10.32
39571	2.4	1.15	0.	3.1519e-002
39572	2.35	1.2	0.	2.669e-002
39573	2.4	1.2	5.e-002	10.192
39574	2.4	1.05	0.	4.3518e-002
39575	2.35	1.1	0.	3.7698e-002
39576	2.4	1.1	5.e-002	10.048
39577	2.4	0.95	0.	5.8205e-002
39578	2.35	1.	0.	5.129e-002
39579	2.4	1.	5.e-002	9.8886
39580	2.4	0.85	0.	7.6247e-002
39581	2.35	0.9	0.	6.8033e-002
39582	2.4	0.9	5.e-002	9.7118
39583	2.4	0.75	0.	9.8695e-002
39584	2.35	0.8	0.	8.8802e-002
39585	2.4	0.8	5.e-002	9.5175
39586	2.4	0.65	0.	0.12749
39587	2.35	0.7	0.	0.11501
39588	2.4	0.7	5.e-002	9.3057
39589	2.4	0.55	0.	0.16604
39590	2.35	0.6	0.	0.14951
39591	2.4	0.6	5.e-002	9.077
39592	2.4	0.45	0.	0.22361
39593	2.35	0.5	0.	0.19718
39594	2.4	0.5	5.e-002	8.8329
39595	2.4	0.35	0.	0.31647
39596	2.35	0.4	0.	0.27452
39597	2.4	0.4	5.e-002	8.5752
39598	2.4	0.25	0.	0.59428
39599	2.35	0.3	0.	0.40918
39600	2.4	0.3	5.e-002	8.3193
39601	2.4	0.15	0.	2.1561
39602	2.35	0.2	0.	0.97225
39603	2.4	0.2	5.e-002	8.2621
39604	2.35	0.1	0.	13.56
39605	2.4	0.1	5.e-002	14.199
39606	2.4	5.e-002	0.	4.6599
39607	2.3	5.85	0.	2.5076
39608	2.25	5.9	0.	17.103
39609	2.3	5.9	5.e-002	14.6
39610	2.3	5.95	0.	6.2397
39611	2.3	5.75	0.	0.64284
39612	2.25	5.8	0.	1.0689
39613	2.3	5.8	5.e-002	8.4423
39614	2.3	5.65	0.	0.33895
39615	2.25	5.7	0.	0.44118
39616	2.3	5.7	5.e-002	8.5317
39617	2.3	5.55	0.	0.23786
39618	2.25	5.6	0.	0.29313
39619	2.3	5.6	5.e-002	8.8153
39620	2.3	5.45	0.	0.17573
39621	2.25	5.5	0.	0.20937
39622	2.3	5.5	5.e-002	9.0981
39623	2.3	5.35	0.	0.13424
39624	2.25	5.4	0.	0.15793
39625	2.3	5.4	5.e-002	9.3644
39626	2.3	5.25	0.	0.10335
39627	2.25	5.3	0.	0.12082
39628	2.3	5.3	5.e-002	9.6123
39629	2.3	5.15	0.	7.9383e-002
39630	2.25	5.2	0.	9.2747e-002
39631	2.3	5.2	5.e-002	9.8404
39632	2.3	5.05	0.	6.0243e-002
39633	2.25	5.1	0.	7.0629e-002
39634	2.3	5.1	5.e-002	10.049
39635	2.3	4.95	0.	4.4804e-002
39636	2.25	5.	0.	5.2949e-002
39637	2.3	5.	5.e-002	10.237
39638	2.3	4.85	0.	3.2343e-002
39639	2.25	4.9	0.	3.8761e-002
39640	2.3	4.9	5.e-002	10.406
39641	2.3	4.75	0.	2.2358e-002
39642	2.25	4.8	0.	2.744e-002
39643	2.3	4.8	5.e-002	10.558
39644	2.3	4.65	0.	1.4464e-002
39645	2.25	4.7	0.	1.852e-002
39646	2.3	4.7	5.e-002	10.693
39647	2.3	4.55	0.	8.3382e-003
39648	2.25	4.6	0.	1.1625e-002
39649	2.3	4.6	5.e-002	10.813
39650	2.3	4.45	0.	3.7035e-003
39651	2.25	4.5	0.	6.4296e-003
39652	2.3	4.5	5.e-002	10.919
39653	2.3	4.35	0.	3.104e-004
39654	2.25	4.4	0.	2.648e-003
39655	2.3	4.4	5.e-002	11.013
39656	2.3	4.25	0.	-2.0642e-003
39657	2.25	4.3	0.	2.4144e-005
39658	2.3	4.3	5.e-002	11.095
39659	2.3	4.15	0.	-3.6198e-003
39660	2.25	4.2	0.	-1.6697e-003
39661	2.3	4.2	5.e-002	11.168
39662	2.3	4.05	0.	-4.5326e-003
39663	2.25	4.1	0.	-2.6346e-003
39664	2.3	4.1	5.e-002	11.232
39665	2.3	3.95	0.	-4.9565e-003
39666	2.25	4.	0.	-3.0453e-003
39667	2.3	4.	5.e-002	11.288
39668	2.3	3.85	0.	-5.0234e-003
39669	2.25	3.9	0.	-3.0517e-003
39670	2.3	3.9	5.e-002	11.337
39671	2.3	3.75	0.	-4.8452e-003
39672	2.25	3.8	0.	-2.78e-003
39673	2.3	3.8	5.e-002	11.378
39674	2.3	3.65	0.	-4.5146e-003
39675	2.25	3.7	0.	-2.3353e-003
39676	2.3	3.7	5.e-002	11.414
39677	2.3	3.55	0.	-4.1077e-003
39678	2.25	3.6	0.	-1.803e-003
39679	2.3	3.6	5.e-002	11.444
39680	2.3	3.45	0.	-3.6854e-003
39681	2.25	3.5	0.	-1.2517e-003
39682	2.3	3.5	5.e-002	11.469
39683	2.3	3.35	0.	-3.2952e-003
39684	2.25	3.4	0.	-7.3522e-004
39685	2.3	3.4	5.e-002	11.489
39686	2.3	3.25	0.	-2.9731e-003
39687	2.25	3.3	0.	-2.9449e-004
39688	2.3	3.3	5.e-002	11.504
39689	2.3	3.15	0.	-2.7446e-003
39690	2.25	3.2	0.	4.0488e-005
39691	2.3	3.2	5.e-002	11.515
39692	2.3	3.05	0.	-2.6263e-003
39693	2.25	3.1	0.	2.4933e-004
39694	2.3	3.1	5.e-002	11.521
39695	2.3	2.95	0.	-2.6263e-003
39696	2.25	3.	0.	3.2022e-004
39697	2.3	3.	5.e-002	11.523
39698	2.3	2.85	0.	-2.7446e-003
39699	2.25	2.9	0.	2.4934e-004
39700	2.3	2.9	5.e-002	11.521
39701	2.3	2.75	0.	-2.973e-003
39702	2.25	2.8	0.	4.0532e-005
39703	2.3	2.8	5.e-002	11.515
39704	2.3	2.65	0.	-3.2951e-003
39705	2.25	2.7	0.	-2.9442e-004
39706	2.3	2.7	5.e-002	11.504
39707	2.3	2.55	0.	-3.6853e-003
39708	2.25	2.6	0.	-7.3512e-004
39709	2.3	2.6	5.e-002	11.489
39710	2.3	2.45	0.	-4.1076e-003
39711	2.25	2.5	0.	-1.2516e-003
39712	2.3	2.5	5.e-002	11.469
39713	2.3	2.35	0.	-4.5145e-003
39714	2.25	2.4	0.	-1.8029e-003
39715	2.3	2.4	5.e-002	11.444
39716	2.3	2.25	0.	-4.845e-003
39717	2.25	2.3	0.	-2.3351e-003
39718	2.3	2.3	5.e-002	11.414
39719	2.3	2.15	0.	-5.0232e-003
39720	2.25	2.2	0.	-2.7799e-003
39721	2.3	2.2	5.e-002	11.379
39722	2.3	2.05	0.	-4.9562e-003
39723	2.25	2.1	0.	-3.0515e-003
39724	2.3	2.1	5.e-002	11.337
39725	2.3	1.95	0.	-4.5323e-003
39726	2.25	2.	0.	-3.0451e-003
39727	2.3	2.	5.e-002	11.288
39728	2.3	1.85	0.	-3.6195e-003
39729	2.25	1.9	0.	-2.6343e-003
39730	2.3	1.9	5.e-002	11.232
39731	2.3	1.75	0.	-2.0639e-003
39732	2.25	1.8	0.	-1.6694e-003
39733	2.3	1.8	5.e-002	11.169
39734	2.3	1.65	0.	3.1076e-004
39735	2.25	1.7	0.	2.4475e-005
39736	2.3	1.7	5.e-002	11.096
39737	2.3	1.55	0.	3.7038e-003
39738	2.25	1.6	0.	2.6483e-003
39739	2.3	1.6	5.e-002	11.013
39740	2.3	1.45	0.	8.3386e-003
39741	2.25	1.5	0.	6.4299e-003
39742	2.3	1.5	5.e-002	10.919
39743	2.3	1.35	0.	1.4464e-002
39744	2.25	1.4	0.	1.1625e-002
39745	2.3	1.4	5.e-002	10.813
39746	2.3	1.25	0.	2.2359e-002
39747	2.25	1.3	0.	1.8521e-002
39748	2.3	1.3	5.e-002	10.693
39749	2.3	1.15	0.	3.2344e-002
39750	2.25	1.2	0.	2.7441e-002
39751	2.3	1.2	5.e-002	10.558
39752	2.3	1.05	0.	4.4805e-002
39753	2.25	1.1	0.	3.8761e-002
39754	2.3	1.1	5.e-002	10.407
39755	2.3	0.95	0.	6.0243e-002
39756	2.25	1.	0.	5.295e-002
39757	2.3	1.	5.e-002	10.237
39758	2.3	0.85	0.	7.9384e-002
39759	2.25	0.9	0.	7.0629e-002
39760	2.3	0.9	5.e-002	10.049
39761	2.3	0.75	0.	0.10336
39762	2.25	0.8	0.	9.2748e-002
39763	2.3	0.8	5.e-002	9.8407
39764	2.3	0.65	0.	0.13424
39765	2.25	0.7	0.	0.12082
39766	2.3	0.7	5.e-002	9.6125
39767	2.3	0.55	0.	0.17573
39768	2.25	0.6	0.	0.15793
39769	2.3	0.6	5.e-002	9.3646
39770	2.3	0.45	0.	0.23786
39771	2.25	0.5	0.	0.20937
39772	2.3	0.5	5.e-002	9.0983
39773	2.3	0.35	0.	0.33895
39774	2.25	0.4	0.	0.29313
39775	2.3	0.4	5.e-002	8.8155
39776	2.3	0.25	0.	0.64284
39777	2.25	0.3	0.	0.44118
39778	2.3	0.3	5.e-002	8.5319
39779	2.3	0.15	0.	2.5076
39780	2.25	0.2	0.	1.0689
39781	2.3	0.2	5.e-002	8.4426
39782	2.25	0.1	0.	17.103
39783	2.3	0.1	5.e-002	14.601
39784	2.3	5.e-002	0.	6.2397
39785	2.2	5.85	0.	2.9637
39786	2.15	5.9	0.	21.301
39787	2.2	5.9	5.e-002	14.998
39788	2.2	5.95	0.	8.1924
39789	2.2	5.75	0.	0.69727
39790	2.15	5.8	0.	1.1812
39791	2.2	5.8	5.e-002	8.6406
39792	2.2	5.65	0.	0.36367
39793	2.15	5.7	0.	0.47674
39794	2.2	5.7	5.e-002	8.7701
39795	2.2	5.55	0.	0.25337
39796	2.15	5.6	0.	0.31351
39797	2.2	5.6	5.e-002	9.0856
39798	2.2	5.45	0.	0.1862
39799	2.15	5.5	0.	0.22262
39800	2.2	5.5	5.e-002	9.3966
39801	2.2	5.35	0.	0.14148
39802	2.15	5.4	0.	0.16699
39803	2.2	5.4	5.e-002	9.6873
39804	2.2	5.25	0.	0.1083
39805	2.15	5.3	0.	0.12702
39806	2.2	5.3	5.e-002	9.9559
39807	2.2	5.15	0.	8.2685e-002
39808	2.15	5.2	0.	9.6914e-002
39809	2.2	5.2	5.e-002	10.201
39810	2.2	5.05	0.	6.2385e-002
39811	2.15	5.1	0.	7.3355e-002
39812	2.2	5.1	5.e-002	10.423
39813	2.2	4.95	0.	4.6182e-002
39814	2.15	5.	0.	5.4708e-002
39815	2.2	5.	5.e-002	10.623
39816	2.2	4.85	0.	3.3286e-002
39817	2.15	4.9	0.	3.9942e-002
39818	2.2	4.9	5.e-002	10.801
39819	2.2	4.75	0.	2.3138e-002
39820	2.15	4.8	0.	2.8362e-002
39821	2.2	4.8	5.e-002	10.96
39822	2.2	4.65	0.	1.5296e-002
39823	2.15	4.7	0.	1.944e-002
39824	2.2	4.7	5.e-002	11.101
39825	2.2	4.55	0.	9.3892e-003
39826	2.15	4.6	0.	1.2739e-002
39827	2.2	4.6	5.e-002	11.226
39828	2.2	4.45	0.	5.0927e-003
39829	2.15	4.5	0.	7.881e-003
39830	2.2	4.5	5.e-002	11.336
39831	2.2	4.35	0.	2.1166e-003
39832	2.15	4.4	0.	4.5309e-003
39833	2.2	4.4	5.e-002	11.434
39834	2.2	4.25	0.	2.027e-004
39835	2.15	4.3	0.	2.3925e-003
39836	2.2	4.3	5.e-002	11.52
39837	2.2	4.15	0.	-8.7665e-004
39838	2.15	4.2	0.	1.2051e-003
39839	2.2	4.2	5.e-002	11.597
39840	2.2	4.05	0.	-1.3198e-003
39841	2.15	4.1	0.	7.4202e-004
39842	2.2	4.1	5.e-002	11.664
39843	2.2	3.95	0.	-1.2967e-003
39844	2.15	4.	0.	8.0997e-004
39845	2.2	4.	5.e-002	11.722
39846	2.2	3.85	0.	-9.5095e-004
39847	2.15	3.9	0.	1.2462e-003
39848	2.2	3.9	5.e-002	11.774
39849	2.2	3.75	0.	-4.0164e-004
39850	2.15	3.8	0.	1.9162e-003
39851	2.2	3.8	5.e-002	11.818
39852	2.2	3.65	0.	2.5411e-004
39853	2.15	3.7	0.	2.7108e-003
39854	2.2	3.7	5.e-002	11.857
39855	2.2	3.55	0.	9.3834e-004
39856	2.15	3.6	0.	3.5427e-003
39857	2.2	3.6	5.e-002	11.889
39858	2.2	3.45	0.	1.5898e-003
39859	2.15	3.5	0.	4.3435e-003
39860	2.2	3.5	5.e-002	11.916
39861	2.2	3.35	0.	2.1615e-003
39862	2.15	3.4	0.	5.0606e-003
39863	2.2	3.4	5.e-002	11.937
39864	2.2	3.25	0.	2.6184e-003
39865	2.15	3.3	0.	5.6549e-003
39866	2.2	3.3	5.e-002	11.954
39867	2.2	3.15	0.	2.936e-003
39868	2.15	3.2	0.	6.0979e-003
39869	2.2	3.2	5.e-002	11.965
39870	2.2	3.05	0.	3.0985e-003
39871	2.15	3.1	0.	6.371e-003
39872	2.2	3.1	5.e-002	11.972
39873	2.2	2.95	0.	3.0985e-003
39874	2.15	3.	0.	6.4632e-003
39875	2.2	3.	5.e-002	11.975
39876	2.2	2.85	0.	2.936e-003
39877	2.15	2.9	0.	6.371e-003
39878	2.2	2.9	5.e-002	11.972
39879	2.2	2.75	0.	2.6184e-003
39880	2.15	2.8	0.	6.098e-003
39881	2.2	2.8	5.e-002	11.965
39882	2.2	2.65	0.	2.1615e-003
39883	2.15	2.7	0.	5.6549e-003
39884	2.2	2.7	5.e-002	11.954
39885	2.2	2.55	0.	1.5899e-003
39886	2.15	2.6	0.	5.0607e-003
39887	2.2	2.6	5.e-002	11.937
39888	2.2	2.45	0.	9.3846e-004
39889	2.15	2.5	0.	4.3436e-003
39890	2.2	2.5	5.e-002	11.916
39891	2.2	2.35	0.	2.5425e-004
39892	2.15	2.4	0.	3.5428e-003
39893	2.2	2.4	5.e-002	11.889
39894	2.2	2.25	0.	-4.0147e-004
39895	2.15	2.3	0.	2.7109e-003
39896	2.2	2.3	5.e-002	11.857
39897	2.2	2.15	0.	-9.5078e-004
39898	2.15	2.2	0.	1.9163e-003
39899	2.2	2.2	5.e-002	11.819
39900	2.2	2.05	0.	-1.2965e-003
39901	2.15	2.1	0.	1.2464e-003
39902	2.2	2.1	5.e-002	11.774
39903	2.2	1.95	0.	-1.3195e-003
39904	2.15	2.	0.	8.1018e-004
39905	2.2	2.	5.e-002	11.723
39906	2.2	1.85	0.	-8.7637e-004
39907	2.15	1.9	0.	7.4229e-004
39908	2.2	1.9	5.e-002	11.664
39909	2.2	1.75	0.	2.03e-004
39910	2.15	1.8	0.	1.2053e-003
39911	2.2	1.8	5.e-002	11.597
39912	2.2	1.65	0.	2.1169e-003
39913	2.15	1.7	0.	2.3928e-003
39914	2.2	1.7	5.e-002	11.521
39915	2.2	1.55	0.	5.0931e-003
39916	2.15	1.6	0.	4.5312e-003
39917	2.2	1.6	5.e-002	11.434
39918	2.2	1.45	0.	9.3896e-003
39919	2.15	1.5	0.	7.8813e-003
39920	2.2	1.5	5.e-002	11.337
39921	2.2	1.35	0.	1.5296e-002
39922	2.15	1.4	0.	1.274e-002
39923	2.2	1.4	5.e-002	11.226
39924	2.2	1.25	0.	2.3138e-002
39925	2.15	1.3	0.	1.9441e-002
39926	2.2	1.3	5.e-002	11.101
39927	2.2	1.15	0.	3.3287e-002
39928	2.15	1.2	0.	2.8363e-002
39929	2.2	1.2	5.e-002	10.96
39930	2.2	1.05	0.	4.6183e-002
39931	2.15	1.1	0.	3.9942e-002
39932	2.2	1.1	5.e-002	10.802
39933	2.2	0.95	0.	6.2385e-002
39934	2.15	1.	0.	5.4709e-002
39935	2.2	1.	5.e-002	10.623
39936	2.2	0.85	0.	8.2686e-002
39937	2.15	0.9	0.	7.3356e-002
39938	2.2	0.9	5.e-002	10.424
39939	2.2	0.75	0.	0.1083
39940	2.15	0.8	0.	9.6915e-002
39941	2.2	0.8	5.e-002	10.201
39942	2.2	0.65	0.	0.14148
39943	2.15	0.7	0.	0.12702
39944	2.2	0.7	5.e-002	9.9561
39945	2.2	0.55	0.	0.1862
39946	2.15	0.6	0.	0.16699
39947	2.2	0.6	5.e-002	9.6875
39948	2.2	0.45	0.	0.25337
39949	2.15	0.5	0.	0.22262
39950	2.2	0.5	5.e-002	9.3967
39951	2.2	0.35	0.	0.36367
39952	2.15	0.4	0.	0.31351
39953	2.2	0.4	5.e-002	9.0858
39954	2.2	0.25	0.	0.69727
39955	2.15	0.3	0.	0.47675
39956	2.2	0.3	5.e-002	8.7703
39957	2.2	0.15	0.	2.9637
39958	2.15	0.2	0.	1.1812
39959	2.2	0.2	5.e-002	8.6408
39960	2.15	0.1	0.	21.301
39961	2.2	0.1	5.e-002	14.999
39962	2.2	5.e-002	0.	8.1924
39963	2.1	5.85	0.	3.572
39964	2.05	5.9	0.	26.183
39965	2.1	5.9	5.e-002	15.389
39966	2.1	5.95	0.	10.5
39967	2.1	5.75	0.	0.75858
39968	2.05	5.8	0.	1.313
39969	2.1	5.8	5.e-002	8.8617
39970	2.1	5.65	0.	0.39093
39971	2.05	5.7	0.	0.51643
39972	2.1	5.7	5.e-002	9.0405
39973	2.1	5.55	0.	0.27031
39974	2.05	5.6	0.	0.3359
39975	2.1	5.6	5.e-002	9.3924
39976	2.1	5.45	0.	0.19753
39977	2.05	5.5	0.	0.23704
39978	2.1	5.5	5.e-002	9.7349
39979	2.1	5.35	0.	0.14923
39980	2.05	5.4	0.	0.17676
39981	2.1	5.4	5.e-002	10.052
39982	2.1	5.25	0.	0.11355
39983	2.05	5.3	0.	0.13364
39984	2.1	5.3	5.e-002	10.343
39985	2.1	5.15	0.	8.616e-002
39986	2.05	5.2	0.	0.10132
39987	2.1	5.2	5.e-002	10.606
39988	2.1	5.05	0.	6.4643e-002
39989	2.05	5.1	0.	7.6228e-002
39990	2.1	5.1	5.e-002	10.842
39991	2.1	4.95	0.	4.7678e-002
39992	2.05	5.	0.	5.6596e-002
39993	2.1	5.	5.e-002	11.052
39994	2.1	4.85	0.	3.4394e-002
39995	2.05	4.9	0.	4.129e-002
39996	2.1	4.9	5.e-002	11.238
39997	2.1	4.75	0.	2.4158e-002
39998	2.05	4.8	0.	2.953e-002
39999	2.1	4.8	5.e-002	11.403
40000	2.1	4.65	0.	1.6463e-002
40001	2.05	4.7	0.	2.0706e-002
40002	2.1	4.7	5.e-002	11.549
40003	2.1	4.55	0.	1.0875e-002
40004	2.05	4.6	0.	1.4309e-002
40005	2.1	4.6	5.e-002	11.677
40006	2.1	4.45	0.	7.0135e-003
40007	2.05	4.5	0.	9.8944e-003
40008	2.1	4.5	5.e-002	11.791
40009	2.1	4.35	0.	4.5413e-003
40010	2.05	4.4	0.	7.0724e-003
40011	2.1	4.4	5.e-002	11.891
40012	2.1	4.25	0.	3.1617e-003
40013	2.05	4.3	0.	5.5007e-003
40014	2.1	4.3	5.e-002	11.98
40015	2.1	4.15	0.	2.617e-003
40016	2.05	4.2	0.	4.8835e-003
40017	2.1	4.2	5.e-002	12.058
40018	2.1	4.05	0.	2.6869e-003
40019	2.05	4.1	0.	4.9684e-003
40020	2.1	4.1	5.e-002	12.128
40021	2.1	3.95	0.	3.186e-003
40022	2.05	4.	0.	5.5446e-003
40023	2.1	4.	5.e-002	12.188
40024	2.1	3.85	0.	3.9615e-003
40025	2.05	3.9	0.	6.439e-003
40026	2.1	3.9	5.e-002	12.242
40027	2.1	3.75	0.	4.8892e-003
40028	2.05	3.8	0.	7.5117e-003
40029	2.1	3.8	5.e-002	12.288
40030	2.1	3.65	0.	5.8703e-003
40031	2.05	3.7	0.	8.6521e-003
40032	2.1	3.7	5.e-002	12.328
40033	2.1	3.55	0.	6.8271e-003
40034	2.05	3.6	0.	9.774e-003
40035	2.1	3.6	5.e-002	12.362
40036	2.1	3.45	0.	7.7002e-003
40037	2.05	3.5	0.	1.0812e-002
40038	2.1	3.5	5.e-002	12.39
40039	2.1	3.35	0.	8.445e-003
40040	2.05	3.4	0.	1.1716e-002
40041	2.1	3.4	5.e-002	12.413
40042	2.1	3.25	0.	9.0292e-003
40043	2.05	3.3	0.	1.2452e-002
40044	2.1	3.3	5.e-002	12.43
40045	2.1	3.15	0.	9.4302e-003
40046	2.05	3.2	0.	1.2993e-002
40047	2.1	3.2	5.e-002	12.443
40048	2.1	3.05	0.	9.6341e-003
40049	2.05	3.1	0.	1.3324e-002
40050	2.1	3.1	5.e-002	12.45
40051	2.1	2.95	0.	9.6341e-003
40052	2.05	3.	0.	1.3435e-002
40053	2.1	3.	5.e-002	12.453
40054	2.1	2.85	0.	9.4302e-003
40055	2.05	2.9	0.	1.3324e-002
40056	2.1	2.9	5.e-002	12.45
40057	2.1	2.75	0.	9.0292e-003
40058	2.05	2.8	0.	1.2993e-002
40059	2.1	2.8	5.e-002	12.443
40060	2.1	2.65	0.	8.4451e-003
40061	2.05	2.7	0.	1.2452e-002
40062	2.1	2.7	5.e-002	12.431
40063	2.1	2.55	0.	7.7003e-003
40064	2.05	2.6	0.	1.1716e-002
40065	2.1	2.6	5.e-002	12.413
40066	2.1	2.45	0.	6.8272e-003
40067	2.05	2.5	0.	1.0812e-002
40068	2.1	2.5	5.e-002	12.39
40069	2.1	2.35	0.	5.8704e-003
40070	2.05	2.4	0.	9.7741e-003
40071	2.1	2.4	5.e-002	12.362
40072	2.1	2.25	0.	4.8894e-003
40073	2.05	2.3	0.	8.6523e-003
40074	2.1	2.3	5.e-002	12.328
40075	2.1	2.15	0.	3.9617e-003
40076	2.05	2.2	0.	7.5119e-003
40077	2.1	2.2	5.e-002	12.288
40078	2.1	2.05	0.	3.1862e-003
40079	2.05	2.1	0.	6.4392e-003
40080	2.1	2.1	5.e-002	12.242
40081	2.1	1.95	0.	2.6871e-003
40082	2.05	2.	0.	5.5449e-003
40083	2.1	2.	5.e-002	12.189
40084	2.1	1.85	0.	2.6173e-003
40085	2.05	1.9	0.	4.9686e-003
40086	2.1	1.9	5.e-002	12.128
40087	2.1	1.75	0.	3.162e-003
40088	2.05	1.8	0.	4.8837e-003
40089	2.1	1.8	5.e-002	12.059
40090	2.1	1.65	0.	4.5416e-003
40091	2.05	1.7	0.	5.501e-003
40092	2.1	1.7	5.e-002	11.98
40093	2.1	1.55	0.	7.0139e-003
40094	2.05	1.6	0.	7.0727e-003
40095	2.1	1.6	5.e-002	11.892
40096	2.1	1.45	0.	1.0876e-002
40097	2.05	1.5	0.	9.8948e-003
40098	2.1	1.5	5.e-002	11.791
40099	2.1	1.35	0.	1.6464e-002
40100	2.05	1.4	0.	1.4309e-002
40101	2.1	1.4	5.e-002	11.678
40102	2.1	1.25	0.	2.4159e-002
40103	2.05	1.3	0.	2.0707e-002
40104	2.1	1.3	5.e-002	11.549
40105	2.1	1.15	0.	3.4395e-002
40106	2.05	1.2	0.	2.953e-002
40107	2.1	1.2	5.e-002	11.404
40108	2.1	1.05	0.	4.7679e-002
40109	2.05	1.1	0.	4.1291e-002
40110	2.1	1.1	5.e-002	11.239
40111	2.1	0.95	0.	6.4643e-002
40112	2.05	1.	0.	5.6597e-002
40113	2.1	1.	5.e-002	11.052
40114	2.1	0.85	0.	8.616e-002
40115	2.05	0.9	0.	7.6228e-002
40116	2.1	0.9	5.e-002	10.842
40117	2.1	0.75	0.	0.11355
40118	2.05	0.8	0.	0.10132
40119	2.1	0.8	5.e-002	10.606
40120	2.1	0.65	0.	0.14923
40121	2.05	0.7	0.	0.13364
40122	2.1	0.7	5.e-002	10.343
40123	2.1	0.55	0.	0.19753
40124	2.05	0.6	0.	0.17676
40125	2.1	0.6	5.e-002	10.053
40126	2.1	0.45	0.	0.27031
40127	2.05	0.5	0.	0.23704
40128	2.1	0.5	5.e-002	9.7351
40129	2.1	0.35	0.	0.39093
40130	2.05	0.4	0.	0.3359
40131	2.1	0.4	5.e-002	9.3926
40132	2.1	0.25	0.	0.75858
40133	2.05	0.3	0.	0.51643
40134	2.1	0.3	5.e-002	9.0407
40135	2.1	0.15	0.	3.572
40136	2.05	0.2	0.	1.313
40137	2.1	0.2	5.e-002	8.8619
40138	2.05	0.1	0.	26.183
40139	2.1	0.1	5.e-002	15.39
40140	2.1	5.e-002	0.	10.5
40141	2.	5.85	0.	4.4075
40142	1.95	5.9	0.	31.783
40143	2.	5.9	5.e-002	15.769
40144	2.	5.95	0.	13.164
40145	2.	5.75	0.	0.828
40146	1.95	5.8	0.	1.4692
40147	2.	5.8	5.e-002	9.1124
40148	2.	5.65	0.	0.4211
40149	1.95	5.7	0.	0.56091
40150	2.	5.7	5.e-002	9.3513
40151	2.	5.55	0.	0.28884
40152	1.95	5.6	0.	0.36058
40153	2.	5.6	5.e-002	9.7445
40154	2.	5.45	0.	0.20981
40155	1.95	5.5	0.	0.25278
40156	2.	5.5	5.e-002	10.122
40157	2.	5.35	0.	0.15755
40158	1.95	5.4	0.	0.18732
40159	2.	5.4	5.e-002	10.468
40160	2.	5.25	0.	0.11913
40161	1.95	5.3	0.	0.14071
40162	2.	5.3	5.e-002	10.781
40163	2.	5.15	0.	8.9826e-002
40164	1.95	5.2	0.	0.10598
40165	2.	5.2	5.e-002	11.062
40166	2.	5.05	0.	6.7047e-002
40167	1.95	5.1	0.	7.9279e-002
40168	2.	5.1	5.e-002	11.311
40169	2.	4.95	0.	4.9343e-002
40170	1.95	5.	0.	5.8668e-002
40171	2.	5.	5.e-002	11.53
40172	2.	4.85	0.	3.5743e-002
40173	1.95	4.9	0.	4.289e-002
40174	2.	4.9	5.e-002	11.723
40175	2.	4.75	0.	2.5523e-002
40176	1.95	4.8	0.	3.1057e-002
40177	2.	4.8	5.e-002	11.892
40178	2.	4.65	0.	1.8092e-002
40179	1.95	4.7	0.	2.2459e-002
40180	2.	4.7	5.e-002	12.041
40181	2.	4.55	0.	1.294e-002
40182	1.95	4.6	0.	1.6496e-002
40183	2.	4.6	5.e-002	12.171
40184	2.	4.45	0.	9.6205e-003
40185	1.95	4.5	0.	1.2646e-002
40186	2.	4.5	5.e-002	12.286
40187	2.	4.35	0.	7.7436e-003
40188	1.95	4.4	0.	1.0453e-002
40189	2.	4.4	5.e-002	12.387
40190	2.	4.25	0.	6.9704e-003
40191	1.95	4.3	0.	9.5279e-003
40192	2.	4.3	5.e-002	12.477
40193	2.	4.15	0.	7.0122e-003
40194	1.95	4.2	0.	9.5366e-003
40195	2.	4.2	5.e-002	12.556
40196	2.	4.05	0.	7.6279e-003
40197	1.95	4.1	0.	1.0203e-002
40198	2.	4.1	5.e-002	12.627
40199	2.	3.95	0.	8.6195e-003
40200	1.95	4.	0.	1.1302e-002
40201	2.	4.	5.e-002	12.688
40202	2.	3.85	0.	9.8279e-003
40203	1.95	3.9	0.	1.2653e-002
40204	2.	3.9	5.e-002	12.743
40205	2.	3.75	0.	1.1127e-002
40206	1.95	3.8	0.	1.4116e-002
40207	2.	3.8	5.e-002	12.79
40208	2.	3.65	0.	1.242e-002
40209	1.95	3.7	0.	1.5581e-002
40210	2.	3.7	5.e-002	12.831
40211	2.	3.55	0.	1.3632e-002
40212	1.95	3.6	0.	1.6968e-002
40213	2.	3.6	5.e-002	12.866
40214	2.	3.45	0.	1.4708e-002
40215	1.95	3.5	0.	1.8217e-002
40216	2.	3.5	5.e-002	12.895
40217	2.	3.35	0.	1.5609e-002
40218	1.95	3.4	0.	1.9284e-002
40219	2.	3.4	5.e-002	12.918
40220	2.	3.25	0.	1.6306e-002
40221	1.95	3.3	0.	2.014e-002
40222	2.	3.3	5.e-002	12.936
40223	2.	3.15	0.	1.678e-002
40224	1.95	3.2	0.	2.0763e-002
40225	2.	3.2	5.e-002	12.949
40226	2.	3.05	0.	1.702e-002
40227	1.95	3.1	0.	2.1142e-002
40228	2.	3.1	5.e-002	12.956
40229	2.	2.95	0.	1.702e-002
40230	1.95	3.	0.	2.1269e-002
40231	2.	3.	5.e-002	12.959
40232	2.	2.85	0.	1.678e-002
40233	1.95	2.9	0.	2.1142e-002
40234	2.	2.9	5.e-002	12.956
40235	2.	2.75	0.	1.6306e-002
40236	1.95	2.8	0.	2.0763e-002
40237	2.	2.8	5.e-002	12.949
40238	2.	2.65	0.	1.5609e-002
40239	1.95	2.7	0.	2.014e-002
40240	2.	2.7	5.e-002	12.936
40241	2.	2.55	0.	1.4708e-002
40242	1.95	2.6	0.	1.9284e-002
40243	2.	2.6	5.e-002	12.918
40244	2.	2.45	0.	1.3632e-002
40245	1.95	2.5	0.	1.8217e-002
40246	2.	2.5	5.e-002	12.895
40247	2.	2.35	0.	1.242e-002
40248	1.95	2.4	0.	1.6969e-002
40249	2.	2.4	5.e-002	12.866
40250	2.	2.25	0.	1.1127e-002
40251	1.95	2.3	0.	1.5582e-002
40252	2.	2.3	5.e-002	12.831
40253	2.	2.15	0.	9.828e-003
40254	1.95	2.2	0.	1.4116e-002
40255	2.	2.2	5.e-002	12.79
40256	2.	2.05	0.	8.6197e-003
40257	1.95	2.1	0.	1.2654e-002
40258	2.	2.1	5.e-002	12.743
40259	2.	1.95	0.	7.6281e-003
40260	1.95	2.	0.	1.1302e-002
40261	2.	2.	5.e-002	12.689
40262	2.	1.85	0.	7.0124e-003
40263	1.95	1.9	0.	1.0203e-002
40264	2.	1.9	5.e-002	12.627
40265	2.	1.75	0.	6.9706e-003
40266	1.95	1.8	0.	9.5369e-003
40267	2.	1.8	5.e-002	12.557
40268	2.	1.65	0.	7.7439e-003
40269	1.95	1.7	0.	9.5282e-003
40270	2.	1.7	5.e-002	12.477
40271	2.	1.55	0.	9.6208e-003
40272	1.95	1.6	0.	1.0454e-002
40273	2.	1.6	5.e-002	12.388
40274	2.	1.45	0.	1.294e-002
40275	1.95	1.5	0.	1.2646e-002
40276	2.	1.5	5.e-002	12.286
40277	2.	1.35	0.	1.8092e-002
40278	1.95	1.4	0.	1.6496e-002
40279	2.	1.4	5.e-002	12.171
40280	2.	1.25	0.	2.5524e-002
40281	1.95	1.3	0.	2.246e-002
40282	2.	1.3	5.e-002	12.041
40283	2.	1.15	0.	3.5743e-002
40284	1.95	1.2	0.	3.1058e-002
40285	2.	1.2	5.e-002	11.893
40286	2.	1.05	0.	4.9344e-002
40287	1.95	1.1	0.	4.289e-002
40288	2.	1.1	5.e-002	11.723
40289	2.	0.95	0.	6.7047e-002
40290	1.95	1.	0.	5.8668e-002
40291	2.	1.	5.e-002	11.53
40292	2.	0.85	0.	8.9827e-002
40293	1.95	0.9	0.	7.928e-002
40294	2.	0.9	5.e-002	11.311
40295	2.	0.75	0.	0.11913
40296	1.95	0.8	0.	0.10598
40297	2.	0.8	5.e-002	11.062
40298	2.	0.65	0.	0.15755
40299	1.95	0.7	0.	0.14071
40300	2.	0.7	5.e-002	10.782
40301	2.	0.55	0.	0.20981
40302	1.95	0.6	0.	0.18732
40303	2.	0.6	5.e-002	10.468
40304	2.	0.45	0.	0.28884
40305	1.95	0.5	0.	0.25278
40306	2.	0.5	5.e-002	10.122
40307	2.	0.35	0.	0.4211
40308	1.95	0.4	0.	0.36058
40309	2.	0.4	5.e-002	9.7446
40310	2.	0.25	0.	0.828
40311	1.95	0.3	0.	0.56091
40312	2.	0.3	5.e-002	9.3514
40313	2.	0.15	0.	4.4075
40314	1.95	0.2	0.	1.4692
40315	2.	0.2	5.e-002	9.1125
40316	1.95	0.1	0.	31.783
40317	2.	0.1	5.e-002	15.769
40318	2.	5.e-002	0.	13.164
40319	1.9	5.85	0.	5.5889
40320	1.85	5.9	0.	38.151
40321	1.9	5.9	5.e-002	16.131
40322	1.9	5.95	0.	16.201
40323	1.9	5.75	0.	0.90707
40324	1.85	5.8	0.	1.6567
40325	1.9	5.8	5.e-002	9.4021
40326	1.9	5.65	0.	0.45462
40327	1.85	5.7	0.	0.61097
40328	1.9	5.7	5.e-002	9.7132
40329	1.9	5.55	0.	0.30919
40330	1.85	5.6	0.	0.38789
40331	1.9	5.6	5.e-002	10.153
40332	1.9	5.45	0.	0.22317
40333	1.85	5.5	0.	0.27004
40334	1.9	5.5	5.e-002	10.568
40335	1.9	5.35	0.	0.16651
40336	1.85	5.4	0.	0.19877
40337	1.9	5.4	5.e-002	10.945
40338	1.9	5.25	0.	0.12506
40339	1.85	5.3	0.	0.14829
40340	1.9	5.3	5.e-002	11.281
40341	1.9	5.15	0.	9.3722e-002
40342	1.85	5.2	0.	0.11096
40343	1.9	5.2	5.e-002	11.578
40344	1.9	5.05	0.	6.9654e-002
40345	1.85	5.1	0.	8.2575e-002
40346	1.9	5.1	5.e-002	11.839
40347	1.9	4.95	0.	5.1263e-002
40348	1.85	5.	0.	6.1019e-002
40349	1.9	5.	5.e-002	12.065
40350	1.9	4.85	0.	3.7453e-002
40351	1.85	4.9	0.	4.4875e-002
40352	1.9	4.9	5.e-002	12.262
40353	1.9	4.75	0.	2.7383e-002
40354	1.85	4.8	0.	3.3115e-002
40355	1.9	4.8	5.e-002	12.433
40356	1.9	4.65	0.	2.0358e-002
40357	1.85	4.7	0.	2.4901e-002
40358	1.9	4.7	5.e-002	12.582
40359	1.9	4.55	0.	1.5777e-002
40360	1.85	4.6	0.	1.9523e-002
40361	1.9	4.6	5.e-002	12.712
40362	1.9	4.45	0.	1.3115e-002
40363	1.85	4.5	0.	1.6366e-002
40364	1.9	4.5	5.e-002	12.826
40365	1.9	4.35	0.	1.1924e-002
40366	1.85	4.4	0.	1.4904e-002
40367	1.9	4.4	5.e-002	12.926
40368	1.9	4.25	0.	1.1821e-002
40369	1.85	4.3	0.	1.4694e-002
40370	1.9	4.3	5.e-002	13.015
40371	1.9	4.15	0.	1.2488e-002
40372	1.85	4.2	0.	1.5368e-002
40373	1.9	4.2	5.e-002	13.094
40374	1.9	4.05	0.	1.3665e-002
40375	1.85	4.1	0.	1.6629e-002
40376	1.9	4.1	5.e-002	13.163
40377	1.9	3.95	0.	1.5146e-002
40378	1.85	4.	0.	1.8242e-002
40379	1.9	4.	5.e-002	13.225
40380	1.9	3.85	0.	1.677e-002
40381	1.85	3.9	0.	2.0025e-002
40382	1.9	3.9	5.e-002	13.279
40383	1.9	3.75	0.	1.8414e-002
40384	1.85	3.8	0.	2.1842e-002
40385	1.9	3.8	5.e-002	13.326
40386	1.9	3.65	0.	1.9987e-002
40387	1.85	3.7	0.	2.359e-002
40388	1.9	3.7	5.e-002	13.367
40389	1.9	3.55	0.	2.1421e-002
40390	1.85	3.6	0.	2.5198e-002
40391	1.9	3.6	5.e-002	13.401
40392	1.9	3.45	0.	2.2668e-002
40393	1.85	3.5	0.	2.6615e-002
40394	1.9	3.5	5.e-002	13.43
40395	1.9	3.35	0.	2.3696e-002
40396	1.85	3.4	0.	2.7806e-002
40397	1.9	3.4	5.e-002	13.453
40398	1.9	3.25	0.	2.4483e-002
40399	1.85	3.3	0.	2.875e-002
40400	1.9	3.3	5.e-002	13.471
40401	1.9	3.15	0.	2.5014e-002
40402	1.85	3.2	0.	2.9432e-002
40403	1.9	3.2	5.e-002	13.484
40404	1.9	3.05	0.	2.5282e-002
40405	1.85	3.1	0.	2.9844e-002
40406	1.9	3.1	5.e-002	13.491
40407	1.9	2.95	0.	2.5282e-002
40408	1.85	3.	0.	2.9982e-002
40409	1.9	3.	5.e-002	13.494
40410	1.9	2.85	0.	2.5014e-002
40411	1.85	2.9	0.	2.9844e-002
40412	1.9	2.9	5.e-002	13.491
40413	1.9	2.75	0.	2.4483e-002
40414	1.85	2.8	0.	2.9432e-002
40415	1.9	2.8	5.e-002	13.484
40416	1.9	2.65	0.	2.3696e-002
40417	1.85	2.7	0.	2.875e-002
40418	1.9	2.7	5.e-002	13.471
40419	1.9	2.55	0.	2.2668e-002
40420	1.85	2.6	0.	2.7806e-002
40421	1.9	2.6	5.e-002	13.453
40422	1.9	2.45	0.	2.1421e-002
40423	1.85	2.5	0.	2.6615e-002
40424	1.9	2.5	5.e-002	13.43
40425	1.9	2.35	0.	1.9987e-002
40426	1.85	2.4	0.	2.5198e-002
40427	1.9	2.4	5.e-002	13.401
40428	1.9	2.25	0.	1.8415e-002
40429	1.85	2.3	0.	2.359e-002
40430	1.9	2.3	5.e-002	13.367
40431	1.9	2.15	0.	1.677e-002
40432	1.85	2.2	0.	2.1842e-002
40433	1.9	2.2	5.e-002	13.326
40434	1.9	2.05	0.	1.5146e-002
40435	1.85	2.1	0.	2.0025e-002
40436	1.9	2.1	5.e-002	13.279
40437	1.9	1.95	0.	1.3665e-002
40438	1.85	2.	0.	1.8242e-002
40439	1.9	2.	5.e-002	13.225
40440	1.9	1.85	0.	1.2488e-002
40441	1.85	1.9	0.	1.663e-002
40442	1.9	1.9	5.e-002	13.164
40443	1.9	1.75	0.	1.1821e-002
40444	1.85	1.8	0.	1.5369e-002
40445	1.9	1.8	5.e-002	13.094
40446	1.9	1.65	0.	1.1925e-002
40447	1.85	1.7	0.	1.4695e-002
40448	1.9	1.7	5.e-002	13.016
40449	1.9	1.55	0.	1.3116e-002
40450	1.85	1.6	0.	1.4905e-002
40451	1.9	1.6	5.e-002	12.927
40452	1.9	1.45	0.	1.5777e-002
40453	1.85	1.5	0.	1.6366e-002
40454	1.9	1.5	5.e-002	12.826
40455	1.9	1.35	0.	2.0359e-002
40456	1.85	1.4	0.	1.9523e-002
40457	1.9	1.4	5.e-002	12.712
40458	1.9	1.25	0.	2.7384e-002
40459	1.85	1.3	0.	2.4901e-002
40460	1.9	1.3	5.e-002	12.582
40461	1.9	1.15	0.	3.7453e-002
40462	1.85	1.2	0.	3.3115e-002
40463	1.9	1.2	5.e-002	12.433
40464	1.9	1.05	0.	5.1264e-002
40465	1.85	1.1	0.	4.4876e-002
40466	1.9	1.1	5.e-002	12.262
40467	1.9	0.95	0.	6.9654e-002
40468	1.85	1.	0.	6.102e-002
40469	1.9	1.	5.e-002	12.065
40470	1.9	0.85	0.	9.3723e-002
40471	1.85	0.9	0.	8.2575e-002
40472	1.9	0.9	5.e-002	11.839
40473	1.9	0.75	0.	0.12506
40474	1.85	0.8	0.	0.11096
40475	1.9	0.8	5.e-002	11.579
40476	1.9	0.65	0.	0.16651
40477	1.85	0.7	0.	0.14829
40478	1.9	0.7	5.e-002	11.281
40479	1.9	0.55	0.	0.22317
40480	1.85	0.6	0.	0.19877
40481	1.9	0.6	5.e-002	10.945
40482	1.9	0.45	0.	0.30919
40483	1.85	0.5	0.	0.27004
40484	1.9	0.5	5.e-002	10.569
40485	1.9	0.35	0.	0.45462
40486	1.85	0.4	0.	0.3879
40487	1.9	0.4	5.e-002	10.153
40488	1.9	0.25	0.	0.90707
40489	1.85	0.3	0.	0.61097
40490	1.9	0.3	5.e-002	9.7133
40491	1.9	0.15	0.	5.5889
40492	1.85	0.2	0.	1.6567
40493	1.9	0.2	5.e-002	9.4022
40494	1.85	0.1	0.	38.151
40495	1.9	0.1	5.e-002	16.132
40496	1.9	5.e-002	0.	16.201
40497	1.8	5.85	0.	7.2955
40498	1.75	5.9	0.	45.348
40499	1.8	5.9	5.e-002	16.471
40500	1.8	5.95	0.	19.643
40501	1.8	5.75	0.	0.99766
40502	1.75	5.8	0.	1.8848
40503	1.8	5.8	5.e-002	9.7435
40504	1.8	5.65	0.	0.49201
40505	1.75	5.7	0.	0.6676
40506	1.8	5.7	5.e-002	10.141
40507	1.8	5.55	0.	0.33163
40508	1.75	5.6	0.	0.41827
40509	1.8	5.6	5.e-002	10.632
40510	1.8	5.45	0.	0.23776
40511	1.75	5.5	0.	0.28902
40512	1.8	5.5	5.e-002	11.089
40513	1.8	5.35	0.	0.17617
40514	1.75	5.4	0.	0.21123
40515	1.8	5.4	5.e-002	11.496
40516	1.8	5.25	0.	0.13143
40517	1.75	5.3	0.	0.15647
40518	1.8	5.3	5.e-002	11.855
40519	1.8	5.15	0.	9.7919e-002
40520	1.75	5.2	0.	0.11632
40521	1.8	5.2	5.e-002	12.166
40522	1.8	5.05	0.	7.2563e-002
40523	1.75	5.1	0.	8.6228e-002
40524	1.8	5.1	5.e-002	12.435
40525	1.8	4.95	0.	5.358e-002
40526	1.75	5.	0.	6.381e-002
40527	1.8	5.	5.e-002	12.665
40528	1.8	4.85	0.	3.9707e-002
40529	1.75	4.9	0.	4.7455e-002
40530	1.8	4.9	5.e-002	12.863
40531	1.8	4.75	0.	2.996e-002
40532	1.75	4.8	0.	3.5956e-002
40533	1.8	4.8	5.e-002	13.032
40534	1.8	4.65	0.	2.3509e-002
40535	1.75	4.7	0.	2.8315e-002
40536	1.8	4.7	5.e-002	13.178
40537	1.8	4.55	0.	1.9645e-002
40538	1.75	4.6	0.	2.3688e-002
40539	1.8	4.6	5.e-002	13.305
40540	1.8	4.45	0.	1.7758e-002
40541	1.75	4.5	0.	2.1356e-002
40542	1.8	4.5	5.e-002	13.415
40543	1.8	4.35	0.	1.7333e-002
40544	1.75	4.4	0.	2.0714e-002
40545	1.8	4.4	5.e-002	13.512
40546	1.8	4.25	0.	1.7946e-002
40547	1.75	4.3	0.	2.1268e-002
40548	1.8	4.3	5.e-002	13.598
40549	1.8	4.15	0.	1.9252e-002
40550	1.75	4.2	0.	2.2618e-002
40551	1.8	4.2	5.e-002	13.674
40552	1.8	4.05	0.	2.0979e-002
40553	1.75	4.1	0.	2.4454e-002
40554	1.8	4.1	5.e-002	13.741
40555	1.8	3.95	0.	2.2919e-002
40556	1.75	4.	0.	2.6539e-002
40557	1.8	4.	5.e-002	13.8
40558	1.8	3.85	0.	2.4915e-002
40559	1.75	3.9	0.	2.8696e-002
40560	1.8	3.9	5.e-002	13.852
40561	1.8	3.75	0.	2.6853e-002
40562	1.75	3.8	0.	3.08e-002
40563	1.8	3.8	5.e-002	13.898
40564	1.8	3.65	0.	2.8651e-002
40565	1.75	3.7	0.	3.2762e-002
40566	1.8	3.7	5.e-002	13.937
40567	1.8	3.55	0.	3.0253e-002
40568	1.75	3.6	0.	3.4524e-002
40569	1.8	3.6	5.e-002	13.97
40570	1.8	3.45	0.	3.1623e-002
40571	1.75	3.5	0.	3.6047e-002
40572	1.8	3.5	5.e-002	13.998
40573	1.8	3.35	0.	3.2737e-002
40574	1.75	3.4	0.	3.7309e-002
40575	1.8	3.4	5.e-002	14.02
40576	1.8	3.25	0.	3.3581e-002
40577	1.75	3.3	0.	3.8297e-002
40578	1.8	3.3	5.e-002	14.037
40579	1.8	3.15	0.	3.4147e-002
40580	1.75	3.2	0.	3.9005e-002
40581	1.8	3.2	5.e-002	14.049
40582	1.8	3.05	0.	3.443e-002
40583	1.75	3.1	0.	3.943e-002
40584	1.8	3.1	5.e-002	14.056
40585	1.8	2.95	0.	3.443e-002
40586	1.75	3.	0.	3.9572e-002
40587	1.8	3.	5.e-002	14.059
40588	1.8	2.85	0.	3.4147e-002
40589	1.75	2.9	0.	3.943e-002
40590	1.8	2.9	5.e-002	14.056
40591	1.8	2.75	0.	3.3581e-002
40592	1.75	2.8	0.	3.9005e-002
40593	1.8	2.8	5.e-002	14.049
40594	1.8	2.65	0.	3.2737e-002
40595	1.75	2.7	0.	3.8297e-002
40596	1.8	2.7	5.e-002	14.037
40597	1.8	2.55	0.	3.1623e-002
40598	1.75	2.6	0.	3.7309e-002
40599	1.8	2.6	5.e-002	14.02
40600	1.8	2.45	0.	3.0253e-002
40601	1.75	2.5	0.	3.6047e-002
40602	1.8	2.5	5.e-002	13.998
40603	1.8	2.35	0.	2.8651e-002
40604	1.75	2.4	0.	3.4524e-002
40605	1.8	2.4	5.e-002	13.97
40606	1.8	2.25	0.	2.6853e-002
40607	1.75	2.3	0.	3.2763e-002
40608	1.8	2.3	5.e-002	13.937
40609	1.8	2.15	0.	2.4915e-002
40610	1.75	2.2	0.	3.08e-002
40611	1.8	2.2	5.e-002	13.898
40612	1.8	2.05	0.	2.2919e-002
40613	1.75	2.1	0.	2.8696e-002
40614	1.8	2.1	5.e-002	13.852
40615	1.8	1.95	0.	2.0979e-002
40616	1.75	2.	0.	2.6539e-002
40617	1.8	2.	5.e-002	13.8
40618	1.8	1.85	0.	1.9252e-002
40619	1.75	1.9	0.	2.4454e-002
40620	1.8	1.9	5.e-002	13.741
40621	1.8	1.75	0.	1.7946e-002
40622	1.75	1.8	0.	2.2618e-002
40623	1.8	1.8	5.e-002	13.674
40624	1.8	1.65	0.	1.7334e-002
40625	1.75	1.7	0.	2.1268e-002
40626	1.8	1.7	5.e-002	13.598
40627	1.8	1.55	0.	1.7758e-002
40628	1.75	1.6	0.	2.0715e-002
40629	1.8	1.6	5.e-002	13.513
40630	1.8	1.45	0.	1.9645e-002
40631	1.75	1.5	0.	2.1356e-002
40632	1.8	1.5	5.e-002	13.416
40633	1.8	1.35	0.	2.3509e-002
40634	1.75	1.4	0.	2.3689e-002
40635	1.8	1.4	5.e-002	13.305
40636	1.8	1.25	0.	2.996e-002
40637	1.75	1.3	0.	2.8316e-002
40638	1.8	1.3	5.e-002	13.178
40639	1.8	1.15	0.	3.9708e-002
40640	1.75	1.2	0.	3.5956e-002
40641	1.8	1.2	5.e-002	13.032
40642	1.8	1.05	0.	5.358e-002
40643	1.75	1.1	0.	4.7456e-002
40644	1.8	1.1	5.e-002	12.863
40645	1.8	0.95	0.	7.2564e-002
40646	1.75	1.	0.	6.381e-002
40647	1.8	1.	5.e-002	12.666
40648	1.8	0.85	0.	9.7919e-002
40649	1.75	0.9	0.	8.6228e-002
40650	1.8	0.9	5.e-002	12.435
40651	1.8	0.75	0.	0.13143
40652	1.75	0.8	0.	0.11632
40653	1.8	0.8	5.e-002	12.167
40654	1.8	0.65	0.	0.17617
40655	1.75	0.7	0.	0.15647
40656	1.8	0.7	5.e-002	11.855
40657	1.8	0.55	0.	0.23776
40658	1.75	0.6	0.	0.21123
40659	1.8	0.6	5.e-002	11.496
40660	1.8	0.45	0.	0.33163
40661	1.75	0.5	0.	0.28902
40662	1.8	0.5	5.e-002	11.089
40663	1.8	0.35	0.	0.49201
40664	1.75	0.4	0.	0.41827
40665	1.8	0.4	5.e-002	10.632
40666	1.8	0.25	0.	0.99766
40667	1.75	0.3	0.	0.6676
40668	1.8	0.3	5.e-002	10.141
40669	1.8	0.15	0.	7.2955
40670	1.75	0.2	0.	1.8848
40671	1.8	0.2	5.e-002	9.7435
40672	1.75	0.1	0.	45.348
40673	1.8	0.1	5.e-002	16.472
40674	1.8	5.e-002	0.	19.643
40675	1.7	5.85	0.	9.7678
40676	1.65	5.9	0.	53.453
40677	1.7	5.9	5.e-002	16.781
40678	1.7	5.95	0.	23.529
40679	1.7	5.75	0.	1.1021
40680	1.65	5.8	0.	2.1664
40681	1.7	5.8	5.e-002	10.154
40682	1.7	5.65	0.	0.53393
40683	1.65	5.7	0.	0.73203
40684	1.7	5.7	5.e-002	10.652
40685	1.7	5.55	0.	0.35648
40686	1.65	5.6	0.	0.45222
40687	1.7	5.6	5.e-002	11.201
40688	1.7	5.45	0.	0.25375
40689	1.65	5.5	0.	0.31003
40690	1.7	5.5	5.e-002	11.7
40691	1.7	5.35	0.	0.18667
40692	1.65	5.4	0.	0.22488
40693	1.7	5.4	5.e-002	12.138
40694	1.7	5.25	0.	0.13831
40695	1.65	5.3	0.	0.16538
40696	1.7	5.3	5.e-002	12.517
40697	1.7	5.15	0.	0.10254
40698	1.65	5.2	0.	0.12223
40699	1.7	5.2	5.e-002	12.839
40700	1.7	5.05	0.	7.5945e-002
40701	1.65	5.1	0.	9.0431e-002
40702	1.7	5.1	5.e-002	13.111
40703	1.7	4.95	0.	5.6517e-002
40704	1.65	5.	0.	6.7296e-002
40705	1.7	5.	5.e-002	13.341
40706	1.7	4.85	0.	4.2782e-002
40707	1.65	4.9	0.	5.0947e-002
40708	1.7	4.9	5.e-002	13.534
40709	1.7	4.75	0.	3.3566e-002
40710	1.65	4.8	0.	3.9945e-002
40711	1.7	4.8	5.e-002	13.697
40712	1.7	4.65	0.	2.788e-002
40713	1.65	4.7	0.	3.3094e-002
40714	1.7	4.7	5.e-002	13.836
40715	1.7	4.55	0.	2.4886e-002
40716	1.65	4.6	0.	2.9391e-002
40717	1.7	4.6	5.e-002	13.955
40718	1.7	4.45	0.	2.3878e-002
40719	1.65	4.5	0.	2.8e-002
40720	1.7	4.5	5.e-002	14.059
40721	1.7	4.35	0.	2.4277e-002
40722	1.65	4.4	0.	2.8238e-002
40723	1.7	4.4	5.e-002	14.15
40724	1.7	4.25	0.	2.5619e-002
40725	1.65	4.3	0.	2.9564e-002
40726	1.7	4.3	5.e-002	14.229
40727	1.7	4.15	0.	2.7542e-002
40728	1.65	4.2	0.	3.1557e-002
40729	1.7	4.2	5.e-002	14.3
40730	1.7	4.05	0.	2.977e-002
40731	1.65	4.1	0.	3.3903e-002
40732	1.7	4.1	5.e-002	14.362
40733	1.7	3.95	0.	3.2101e-002
40734	1.65	4.	0.	3.6373e-002
40735	1.7	4.	5.e-002	14.417
40736	1.7	3.85	0.	3.4389e-002
40737	1.65	3.9	0.	3.8807e-002
40738	1.7	3.9	5.e-002	14.465
40739	1.7	3.75	0.	3.6537e-002
40740	1.65	3.8	0.	4.1095e-002
40741	1.7	3.8	5.e-002	14.507
40742	1.7	3.65	0.	3.8478e-002
40743	1.65	3.7	0.	4.3169e-002
40744	1.7	3.7	5.e-002	14.543
40745	1.7	3.55	0.	4.0173e-002
40746	1.65	3.6	0.	4.4989e-002
40747	1.7	3.6	5.e-002	14.573
40748	1.7	3.45	0.	4.1597e-002
40749	1.65	3.5	0.	4.6534e-002
40750	1.7	3.5	5.e-002	14.599
40751	1.7	3.35	0.	4.2741e-002
40752	1.65	3.4	0.	4.7794e-002
40753	1.7	3.4	5.e-002	14.619
40754	1.7	3.25	0.	4.3598e-002
40755	1.65	3.3	0.	4.8769e-002
40756	1.7	3.3	5.e-002	14.635
40757	1.7	3.15	0.	4.4169e-002
40758	1.65	3.2	0.	4.9462e-002
40759	1.7	3.2	5.e-002	14.646
40760	1.7	3.05	0.	4.4455e-002
40761	1.65	3.1	0.	4.9876e-002
40762	1.7	3.1	5.e-002	14.652
40763	1.7	2.95	0.	4.4455e-002
40764	1.65	3.	0.	5.0013e-002
40765	1.7	3.	5.e-002	14.654
40766	1.7	2.85	0.	4.4169e-002
40767	1.65	2.9	0.	4.9876e-002
40768	1.7	2.9	5.e-002	14.652
40769	1.7	2.75	0.	4.3598e-002
40770	1.65	2.8	0.	4.9462e-002
40771	1.7	2.8	5.e-002	14.646
40772	1.7	2.65	0.	4.2741e-002
40773	1.65	2.7	0.	4.877e-002
40774	1.7	2.7	5.e-002	14.635
40775	1.7	2.55	0.	4.1597e-002
40776	1.65	2.6	0.	4.7794e-002
40777	1.7	2.6	5.e-002	14.619
40778	1.7	2.45	0.	4.0173e-002
40779	1.65	2.5	0.	4.6534e-002
40780	1.7	2.5	5.e-002	14.599
40781	1.7	2.35	0.	3.8478e-002
40782	1.65	2.4	0.	4.499e-002
40783	1.7	2.4	5.e-002	14.574
40784	1.7	2.25	0.	3.6537e-002
40785	1.65	2.3	0.	4.3169e-002
40786	1.7	2.3	5.e-002	14.543
40787	1.7	2.15	0.	3.439e-002
40788	1.65	2.2	0.	4.1095e-002
40789	1.7	2.2	5.e-002	14.507
40790	1.7	2.05	0.	3.2101e-002
40791	1.65	2.1	0.	3.8807e-002
40792	1.7	2.1	5.e-002	14.465
40793	1.7	1.95	0.	2.977e-002
40794	1.65	2.	0.	3.6373e-002
40795	1.7	2.	5.e-002	14.417
40796	1.7	1.85	0.	2.7542e-002
40797	1.65	1.9	0.	3.3903e-002
40798	1.7	1.9	5.e-002	14.362
40799	1.7	1.75	0.	2.5619e-002
40800	1.65	1.8	0.	3.1557e-002
40801	1.7	1.8	5.e-002	14.3
40802	1.7	1.65	0.	2.4277e-002
40803	1.65	1.7	0.	2.9564e-002
40804	1.7	1.7	5.e-002	14.23
40805	1.7	1.55	0.	2.3878e-002
40806	1.65	1.6	0.	2.8238e-002
40807	1.7	1.6	5.e-002	14.15
40808	1.7	1.45	0.	2.4886e-002
40809	1.65	1.5	0.	2.8e-002
40810	1.7	1.5	5.e-002	14.059
40811	1.7	1.35	0.	2.7881e-002
40812	1.65	1.4	0.	2.9391e-002
40813	1.7	1.4	5.e-002	13.956
40814	1.7	1.25	0.	3.3566e-002
40815	1.65	1.3	0.	3.3094e-002
40816	1.7	1.3	5.e-002	13.836
40817	1.7	1.15	0.	4.2783e-002
40818	1.65	1.2	0.	3.9945e-002
40819	1.7	1.2	5.e-002	13.697
40820	1.7	1.05	0.	5.6518e-002
40821	1.65	1.1	0.	5.0948e-002
40822	1.7	1.1	5.e-002	13.534
40823	1.7	0.95	0.	7.5945e-002
40824	1.65	1.	0.	6.7296e-002
40825	1.7	1.	5.e-002	13.341
40826	1.7	0.85	0.	0.10254
40827	1.65	0.9	0.	9.0432e-002
40828	1.7	0.9	5.e-002	13.112
40829	1.7	0.75	0.	0.13831
40830	1.65	0.8	0.	0.12223
40831	1.7	0.8	5.e-002	12.839
40832	1.7	0.65	0.	0.18667
40833	1.65	0.7	0.	0.16538
40834	1.7	0.7	5.e-002	12.517
40835	1.7	0.55	0.	0.25375
40836	1.65	0.6	0.	0.22488
40837	1.7	0.6	5.e-002	12.138
40838	1.7	0.45	0.	0.35648
40839	1.65	0.5	0.	0.31003
40840	1.7	0.5	5.e-002	11.7
40841	1.7	0.35	0.	0.53394
40842	1.65	0.4	0.	0.45222
40843	1.7	0.4	5.e-002	11.201
40844	1.7	0.25	0.	1.1021
40845	1.65	0.3	0.	0.73203
40846	1.7	0.3	5.e-002	10.652
40847	1.7	0.15	0.	9.7678
40848	1.65	0.2	0.	2.1664
40849	1.7	0.2	5.e-002	10.154
40850	1.65	0.1	0.	53.453
40851	1.7	0.1	5.e-002	16.782
40852	1.7	5.e-002	0.	23.529
40853	1.6	5.85	0.	13.257
40854	1.55	5.9	0.	62.559
40855	1.6	5.9	5.e-002	17.055
40856	1.6	5.95	0.	27.911
40857	1.6	5.75	0.	1.2235
40858	1.55	5.8	0.	2.5201
40859	1.6	5.8	5.e-002	10.657
40860	1.6	5.65	0.	0.58119
40861	1.55	5.7	0.	0.80576
40862	1.6	5.7	5.e-002	11.272
40863	1.6	5.55	0.	0.38419
40864	1.55	5.6	0.	0.49043
40865	1.6	5.6	5.e-002	11.882
40866	1.6	5.45	0.	0.2714
40867	1.55	5.5	0.	0.33345
40868	1.6	5.5	5.e-002	12.425
40869	1.6	5.35	0.	0.19818
40870	1.55	5.4	0.	0.23997
40871	1.6	5.4	5.e-002	12.891
40872	1.6	5.25	0.	0.14589
40873	1.55	5.3	0.	0.17523
40874	1.6	5.3	5.e-002	13.284
40875	1.6	5.15	0.	0.10779
40876	1.55	5.2	0.	0.12893
40877	1.6	5.2	5.e-002	13.612
40878	1.6	5.05	0.	8.0074e-002
40879	1.55	5.1	0.	9.551e-002
40880	1.6	5.1	5.e-002	13.881
40881	1.6	4.95	0.	6.0422e-002
40882	1.55	5.	0.	7.1884e-002
40883	1.6	5.	5.e-002	14.103
40884	1.6	4.85	0.	4.7082e-002
40885	1.55	4.9	0.	5.583e-002
40886	1.6	4.9	5.e-002	14.285
40887	1.6	4.75	0.	3.8643e-002
40888	1.55	4.8	0.	4.5605e-002
40889	1.6	4.8	5.e-002	14.436
40890	1.6	4.65	0.	3.3923e-002
40891	1.55	4.7	0.	3.9773e-002
40892	1.6	4.7	5.e-002	14.562
40893	1.6	4.55	0.	3.1938e-002
40894	1.55	4.6	0.	3.7152e-002
40895	1.6	4.6	5.e-002	14.67
40896	1.6	4.45	0.	3.1883e-002
40897	1.55	4.5	0.	3.6781e-002
40898	1.6	4.5	5.e-002	14.762
40899	1.6	4.35	0.	3.312e-002
40900	1.55	4.4	0.	3.7907e-002
40901	1.6	4.4	5.e-002	14.843
40902	1.6	4.25	0.	3.5155e-002
40903	1.55	4.3	0.	3.9952e-002
40904	1.6	4.3	5.e-002	14.913
40905	1.6	4.15	0.	3.762e-002
40906	1.55	4.2	0.	4.2491e-002
40907	1.6	4.2	5.e-002	14.975
40908	1.6	4.05	0.	4.0247e-002
40909	1.55	4.1	0.	4.522e-002
40910	1.6	4.1	5.e-002	15.03
40911	1.6	3.95	0.	4.2851e-002
40912	1.55	4.	0.	4.7931e-002
40913	1.6	4.	5.e-002	15.078
40914	1.6	3.85	0.	4.531e-002
40915	1.55	3.9	0.	5.0489e-002
40916	1.6	3.9	5.e-002	15.12
40917	1.6	3.75	0.	4.7546e-002
40918	1.55	3.8	0.	5.2814e-002
40919	1.6	3.8	5.e-002	15.156
40920	1.6	3.65	0.	4.9516e-002
40921	1.55	3.7	0.	5.4862e-002
40922	1.6	3.7	5.e-002	15.187
40923	1.6	3.55	0.	5.12e-002
40924	1.55	3.6	0.	5.6616e-002
40925	1.6	3.6	5.e-002	15.213
40926	1.6	3.45	0.	5.2591e-002
40927	1.55	3.5	0.	5.8073e-002
40928	1.6	3.5	5.e-002	15.234
40929	1.6	3.35	0.	5.3691e-002
40930	1.55	3.4	0.	5.9242e-002
40931	1.6	3.4	5.e-002	15.251
40932	1.6	3.25	0.	5.4507e-002
40933	1.55	3.3	0.	6.0133e-002
40934	1.6	3.3	5.e-002	15.264
40935	1.6	3.15	0.	5.5046e-002
40936	1.55	3.2	0.	6.0759e-002
40937	1.6	3.2	5.e-002	15.273
40938	1.6	3.05	0.	5.5314e-002
40939	1.55	3.1	0.	6.1131e-002
40940	1.6	3.1	5.e-002	15.279
40941	1.6	2.95	0.	5.5314e-002
40942	1.55	3.	0.	6.1254e-002
40943	1.6	3.	5.e-002	15.28
40944	1.6	2.85	0.	5.5046e-002
40945	1.55	2.9	0.	6.1131e-002
40946	1.6	2.9	5.e-002	15.279
40947	1.6	2.75	0.	5.4507e-002
40948	1.55	2.8	0.	6.0759e-002
40949	1.6	2.8	5.e-002	15.273
40950	1.6	2.65	0.	5.3691e-002
40951	1.55	2.7	0.	6.0133e-002
40952	1.6	2.7	5.e-002	15.264
40953	1.6	2.55	0.	5.2591e-002
40954	1.55	2.6	0.	5.9242e-002
40955	1.6	2.6	5.e-002	15.251
40956	1.6	2.45	0.	5.12e-002
40957	1.55	2.5	0.	5.8073e-002
40958	1.6	2.5	5.e-002	15.234
40959	1.6	2.35	0.	4.9516e-002
40960	1.55	2.4	0.	5.6616e-002
40961	1.6	2.4	5.e-002	15.213
40962	1.6	2.25	0.	4.7546e-002
40963	1.55	2.3	0.	5.4863e-002
40964	1.6	2.3	5.e-002	15.187
40965	1.6	2.15	0.	4.531e-002
40966	1.55	2.2	0.	5.2814e-002
40967	1.6	2.2	5.e-002	15.156
40968	1.6	2.05	0.	4.2851e-002
40969	1.55	2.1	0.	5.0489e-002
40970	1.6	2.1	5.e-002	15.12
40971	1.6	1.95	0.	4.0247e-002
40972	1.55	2.	0.	4.7931e-002
40973	1.6	2.	5.e-002	15.078
40974	1.6	1.85	0.	3.762e-002
40975	1.55	1.9	0.	4.522e-002
40976	1.6	1.9	5.e-002	15.03
40977	1.6	1.75	0.	3.5156e-002
40978	1.55	1.8	0.	4.2491e-002
40979	1.6	1.8	5.e-002	14.976
40980	1.6	1.65	0.	3.312e-002
40981	1.55	1.7	0.	3.9953e-002
40982	1.6	1.7	5.e-002	14.914
40983	1.6	1.55	0.	3.1884e-002
40984	1.55	1.6	0.	3.7907e-002
40985	1.6	1.6	5.e-002	14.843
40986	1.6	1.45	0.	3.1938e-002
40987	1.55	1.5	0.	3.6781e-002
40988	1.6	1.5	5.e-002	14.763
40989	1.6	1.35	0.	3.3924e-002
40990	1.55	1.4	0.	3.7152e-002
40991	1.6	1.4	5.e-002	14.67
40992	1.6	1.25	0.	3.8644e-002
40993	1.55	1.3	0.	3.9774e-002
40994	1.6	1.3	5.e-002	14.563
40995	1.6	1.15	0.	4.7082e-002
40996	1.55	1.2	0.	4.5605e-002
40997	1.6	1.2	5.e-002	14.436
40998	1.6	1.05	0.	6.0422e-002
40999	1.55	1.1	0.	5.583e-002
41000	1.6	1.1	5.e-002	14.285
41001	1.6	0.95	0.	8.0075e-002
41002	1.55	1.	0.	7.1885e-002
41003	1.6	1.	5.e-002	14.103
41004	1.6	0.85	0.	0.10779
41005	1.55	0.9	0.	9.551e-002
41006	1.6	0.9	5.e-002	13.881
41007	1.6	0.75	0.	0.14589
41008	1.55	0.8	0.	0.12893
41009	1.6	0.8	5.e-002	13.612
41010	1.6	0.65	0.	0.19818
41011	1.55	0.7	0.	0.17523
41012	1.6	0.7	5.e-002	13.285
41013	1.6	0.55	0.	0.2714
41014	1.55	0.6	0.	0.23997
41015	1.6	0.6	5.e-002	12.891
41016	1.6	0.45	0.	0.38419
41017	1.55	0.5	0.	0.33345
41018	1.6	0.5	5.e-002	12.425
41019	1.6	0.35	0.	0.58119
41020	1.55	0.4	0.	0.49043
41021	1.6	0.4	5.e-002	11.882
41022	1.6	0.25	0.	1.2235
41023	1.55	0.3	0.	0.80577
41024	1.6	0.3	5.e-002	11.272
41025	1.6	0.15	0.	13.257
41026	1.55	0.2	0.	2.5201
41027	1.6	0.2	5.e-002	10.657
41028	1.55	0.1	0.	62.559
41029	1.6	0.1	5.e-002	17.056
41030	1.6	5.e-002	0.	27.911
41031	1.5	5.85	0.	17.937
41032	1.45	5.9	0.	72.783
41033	1.5	5.9	5.e-002	17.283
41034	1.5	5.95	0.	32.85
41035	1.5	5.75	0.	1.3653
41036	1.45	5.8	0.	2.9725
41037	1.5	5.8	5.e-002	11.283
41038	1.5	5.65	0.	0.63481
41039	1.45	5.7	0.	0.89073
41040	1.5	5.7	5.e-002	12.031
41041	1.5	5.55	0.	0.41529
41042	1.45	5.6	0.	0.53377
41043	1.5	5.6	5.e-002	12.705
41044	1.5	5.45	0.	0.29107
41045	1.45	5.5	0.	0.35979
41046	1.5	5.5	5.e-002	13.29
41047	1.5	5.35	0.	0.21097
41048	1.45	5.4	0.	0.25686
41049	1.5	5.4	5.e-002	13.779
41050	1.5	5.25	0.	0.15445
41051	1.45	5.3	0.	0.18637
41052	1.5	5.3	5.e-002	14.18
41053	1.5	5.15	0.	0.11403
41054	1.45	5.2	0.	0.13683
41055	1.5	5.2	5.e-002	14.503
41056	1.5	5.05	0.	8.54e-002
41057	1.45	5.1	0.	0.10198
41058	1.5	5.1	5.e-002	14.76
41059	1.5	4.95	0.	6.5827e-002
41060	1.45	5.	0.	7.8193e-002
41061	1.5	5.	5.e-002	14.964
41062	1.5	4.85	0.	5.32e-002
41063	1.45	4.9	0.	6.2792e-002
41064	1.5	4.9	5.e-002	15.127
41065	1.5	4.75	0.	4.5808e-002
41066	1.45	4.8	0.	5.3654e-002
41067	1.5	4.8	5.e-002	15.258
41068	1.5	4.65	0.	4.2245e-002
41069	1.45	4.7	0.	4.9058e-002
41070	1.5	4.7	5.e-002	15.365
41071	1.5	4.55	0.	4.1369e-002
41072	1.45	4.6	0.	4.7625e-002
41073	1.5	4.6	5.e-002	15.455
41074	1.5	4.45	0.	4.2282e-002
41075	1.45	4.5	0.	4.828e-002
41076	1.5	4.5	5.e-002	15.531
41077	1.5	4.35	0.	4.4299e-002
41078	1.45	4.4	0.	5.0213e-002
41079	1.5	4.4	5.e-002	15.597
41080	1.5	4.25	0.	4.6914e-002
41081	1.45	4.3	0.	5.2833e-002
41082	1.5	4.3	5.e-002	15.654
41083	1.5	4.15	0.	4.9771e-002
41084	1.45	4.2	0.	5.5731e-002
41085	1.5	4.2	5.e-002	15.704
41086	1.5	4.05	0.	5.2628e-002
41087	1.45	4.1	0.	5.8634e-002
41088	1.5	4.1	5.e-002	15.747
41089	1.5	3.95	0.	5.5328e-002
41090	1.45	4.	0.	6.1369e-002
41091	1.5	4.	5.e-002	15.785
41092	1.5	3.85	0.	5.7782e-002
41093	1.45	3.9	0.	6.3842e-002
41094	1.5	3.9	5.e-002	15.817
41095	1.5	3.75	0.	5.9942e-002
41096	1.45	3.8	0.	6.6005e-002
41097	1.5	3.8	5.e-002	15.845
41098	1.5	3.65	0.	6.1792e-002
41099	1.45	3.7	0.	6.7848e-002
41100	1.5	3.7	5.e-002	15.869
41101	1.5	3.55	0.	6.3334e-002
41102	1.45	3.6	0.	6.9378e-002
41103	1.5	3.6	5.e-002	15.888
41104	1.5	3.45	0.	6.458e-002
41105	1.45	3.5	0.	7.0614e-002
41106	1.5	3.5	5.e-002	15.904
41107	1.5	3.35	0.	6.5549e-002
41108	1.45	3.4	0.	7.1582e-002
41109	1.5	3.4	5.e-002	15.916
41110	1.5	3.25	0.	6.6256e-002
41111	1.45	3.3	0.	7.2305e-002
41112	1.5	3.3	5.e-002	15.926
41113	1.5	3.15	0.	6.6719e-002
41114	1.45	3.2	0.	7.2804e-002
41115	1.5	3.2	5.e-002	15.932
41116	1.5	3.05	0.	6.6947e-002
41117	1.45	3.1	0.	7.3097e-002
41118	1.5	3.1	5.e-002	15.936
41119	1.5	2.95	0.	6.6947e-002
41120	1.45	3.	0.	7.3194e-002
41121	1.5	3.	5.e-002	15.937
41122	1.5	2.85	0.	6.6719e-002
41123	1.45	2.9	0.	7.3097e-002
41124	1.5	2.9	5.e-002	15.936
41125	1.5	2.75	0.	6.6256e-002
41126	1.45	2.8	0.	7.2804e-002
41127	1.5	2.8	5.e-002	15.932
41128	1.5	2.65	0.	6.5549e-002
41129	1.45	2.7	0.	7.2305e-002
41130	1.5	2.7	5.e-002	15.926
41131	1.5	2.55	0.	6.458e-002
41132	1.45	2.6	0.	7.1582e-002
41133	1.5	2.6	5.e-002	15.916
41134	1.5	2.45	0.	6.3334e-002
41135	1.45	2.5	0.	7.0614e-002
41136	1.5	2.5	5.e-002	15.904
41137	1.5	2.35	0.	6.1792e-002
41138	1.45	2.4	0.	6.9378e-002
41139	1.5	2.4	5.e-002	15.888
41140	1.5	2.25	0.	5.9942e-002
41141	1.45	2.3	0.	6.7848e-002
41142	1.5	2.3	5.e-002	15.869
41143	1.5	2.15	0.	5.7782e-002
41144	1.45	2.2	0.	6.6005e-002
41145	1.5	2.2	5.e-002	15.845
41146	1.5	2.05	0.	5.5328e-002
41147	1.45	2.1	0.	6.3842e-002
41148	1.5	2.1	5.e-002	15.818
41149	1.5	1.95	0.	5.2628e-002
41150	1.45	2.	0.	6.1369e-002
41151	1.5	2.	5.e-002	15.785
41152	1.5	1.85	0.	4.9772e-002
41153	1.45	1.9	0.	5.8634e-002
41154	1.5	1.9	5.e-002	15.747
41155	1.5	1.75	0.	4.6915e-002
41156	1.45	1.8	0.	5.5732e-002
41157	1.5	1.8	5.e-002	15.704
41158	1.5	1.65	0.	4.4299e-002
41159	1.45	1.7	0.	5.2834e-002
41160	1.5	1.7	5.e-002	15.654
41161	1.5	1.55	0.	4.2282e-002
41162	1.45	1.6	0.	5.0213e-002
41163	1.5	1.6	5.e-002	15.597
41164	1.5	1.45	0.	4.1369e-002
41165	1.45	1.5	0.	4.8281e-002
41166	1.5	1.5	5.e-002	15.532
41167	1.5	1.35	0.	4.2245e-002
41168	1.45	1.4	0.	4.7626e-002
41169	1.5	1.4	5.e-002	15.455
41170	1.5	1.25	0.	4.5809e-002
41171	1.45	1.3	0.	4.9059e-002
41172	1.5	1.3	5.e-002	15.366
41173	1.5	1.15	0.	5.32e-002
41174	1.45	1.2	0.	5.3655e-002
41175	1.5	1.2	5.e-002	15.258
41176	1.5	1.05	0.	6.5827e-002
41177	1.45	1.1	0.	6.2792e-002
41178	1.5	1.1	5.e-002	15.127
41179	1.5	0.95	0.	8.54e-002
41180	1.45	1.	0.	7.8194e-002
41181	1.5	1.	5.e-002	14.964
41182	1.5	0.85	0.	0.11403
41183	1.45	0.9	0.	0.10198
41184	1.5	0.9	5.e-002	14.76
41185	1.5	0.75	0.	0.15445
41186	1.45	0.8	0.	0.13683
41187	1.5	0.8	5.e-002	14.503
41188	1.5	0.65	0.	0.21097
41189	1.45	0.7	0.	0.18637
41190	1.5	0.7	5.e-002	14.18
41191	1.5	0.55	0.	0.29107
41192	1.45	0.6	0.	0.25686
41193	1.5	0.6	5.e-002	13.779
41194	1.5	0.45	0.	0.41529
41195	1.45	0.5	0.	0.35979
41196	1.5	0.5	5.e-002	13.29
41197	1.5	0.35	0.	0.63481
41198	1.45	0.4	0.	0.53377
41199	1.5	0.4	5.e-002	12.705
41200	1.5	0.25	0.	1.3653
41201	1.45	0.3	0.	0.89073
41202	1.5	0.3	5.e-002	12.031
41203	1.5	0.15	0.	17.937
41204	1.45	0.2	0.	2.9725
41205	1.5	0.2	5.e-002	11.283
41206	1.45	0.1	0.	72.783
41207	1.5	0.1	5.e-002	17.284
41208	1.5	5.e-002	0.	32.85
41209	1.4	5.85	0.	23.865
41210	1.35	5.9	0.	84.261
41211	1.4	5.9	5.e-002	17.459
41212	1.4	5.95	0.	38.424
41213	1.4	5.75	0.	1.5325
41214	1.35	5.8	0.	3.5623
41215	1.4	5.8	5.e-002	12.075
41216	1.4	5.65	0.	0.69609
41217	1.35	5.7	0.	0.98939
41218	1.4	5.7	5.e-002	12.972
41219	1.4	5.55	0.	0.45052
41220	1.35	5.6	0.	0.58342
41221	1.4	5.6	5.e-002	13.71
41222	1.4	5.45	0.	0.31323
41223	1.35	5.5	0.	0.38981
41224	1.4	5.5	5.e-002	14.331
41225	1.4	5.35	0.	0.22544
41226	1.35	5.4	0.	0.27615
41227	1.4	5.4	5.e-002	14.834
41228	1.4	5.25	0.	0.16444
41229	1.35	5.3	0.	0.19941
41230	1.4	5.3	5.e-002	15.229
41231	1.4	5.15	0.	0.12181
41232	1.35	5.2	0.	0.14666
41233	1.4	5.2	5.e-002	15.534
41234	1.4	5.05	0.	9.2597e-002
41235	1.35	5.1	0.	0.11071
41236	1.4	5.1	5.e-002	15.765
41237	1.4	4.95	0.	7.3502e-002
41238	1.35	5.	0.	8.7214e-002
41239	1.4	5.	5.e-002	15.94
41240	1.4	4.85	0.	6.1948e-002
41241	1.35	4.9	0.	7.2883e-002
41242	1.4	4.9	5.e-002	16.072
41243	1.4	4.75	0.	5.5866e-002
41244	1.35	4.8	0.	6.5132e-002
41245	1.4	4.8	5.e-002	16.173
41246	1.4	4.65	0.	5.3597e-002
41247	1.35	4.7	0.	6.1921e-002
41248	1.4	4.7	5.e-002	16.253
41249	1.4	4.55	0.	5.3846e-002
41250	1.35	4.6	0.	6.1679e-002
41251	1.4	4.6	5.e-002	16.318
41252	1.4	4.45	0.	5.5639e-002
41253	1.35	4.5	0.	6.3236e-002
41254	1.4	4.5	5.e-002	16.372
41255	1.4	4.35	0.	5.827e-002
41256	1.35	4.4	0.	6.5761e-002
41257	1.4	4.4	5.e-002	16.417
41258	1.4	4.25	0.	6.1248e-002
41259	1.35	4.3	0.	6.8684e-002
41260	1.4	4.3	5.e-002	16.456
41261	1.4	4.15	0.	6.4252e-002
41262	1.35	4.2	0.	7.1638e-002
41263	1.4	4.2	5.e-002	16.489
41264	1.4	4.05	0.	6.7083e-002
41265	1.35	4.1	0.	7.4404e-002
41266	1.4	4.1	5.e-002	16.517
41267	1.4	3.95	0.	6.9583e-002
41268	1.35	4.	0.	7.6864e-002
41269	1.4	4.	5.e-002	16.54
41270	1.4	3.85	0.	7.1844e-002
41271	1.35	3.9	0.	7.8971e-002
41272	1.4	3.9	5.e-002	16.56
41273	1.4	3.75	0.	7.3716e-002
41274	1.35	3.8	0.	8.0722e-002
41275	1.4	3.8	5.e-002	16.576
41276	1.4	3.65	0.	7.5258e-002
41277	1.35	3.7	0.	8.2137e-002
41278	1.4	3.7	5.e-002	16.59
41279	1.4	3.55	0.	7.6498e-002
41280	1.35	3.6	0.	8.3254e-002
41281	1.4	3.6	5.e-002	16.6
41282	1.4	3.45	0.	7.7468e-002
41283	1.35	3.5	0.	8.4113e-002
41284	1.4	3.5	5.e-002	16.608
41285	1.4	3.35	0.	7.82e-002
41286	1.35	3.4	0.	8.4754e-002
41287	1.4	3.4	5.e-002	16.614
41288	1.4	3.25	0.	7.8722e-002
41289	1.35	3.3	0.	8.5212e-002
41290	1.4	3.3	5.e-002	16.619
41291	1.4	3.15	0.	7.9056e-002
41292	1.35	3.2	0.	8.5518e-002
41293	1.4	3.2	5.e-002	16.622
41294	1.4	3.05	0.	7.9219e-002
41295	1.35	3.1	0.	8.5692e-002
41296	1.4	3.1	5.e-002	16.623
41297	1.4	2.95	0.	7.9219e-002
41298	1.35	3.	0.	8.5749e-002
41299	1.4	3.	5.e-002	16.624
41300	1.4	2.85	0.	7.9056e-002
41301	1.35	2.9	0.	8.5692e-002
41302	1.4	2.9	5.e-002	16.623
41303	1.4	2.75	0.	7.8722e-002
41304	1.35	2.8	0.	8.5518e-002
41305	1.4	2.8	5.e-002	16.622
41306	1.4	2.65	0.	7.82e-002
41307	1.35	2.7	0.	8.5212e-002
41308	1.4	2.7	5.e-002	16.619
41309	1.4	2.55	0.	7.7468e-002
41310	1.35	2.6	0.	8.4754e-002
41311	1.4	2.6	5.e-002	16.614
41312	1.4	2.45	0.	7.6498e-002
41313	1.35	2.5	0.	8.4113e-002
41314	1.4	2.5	5.e-002	16.608
41315	1.4	2.35	0.	7.5258e-002
41316	1.35	2.4	0.	8.3254e-002
41317	1.4	2.4	5.e-002	16.6
41318	1.4	2.25	0.	7.3716e-002
41319	1.35	2.3	0.	8.2137e-002
41320	1.4	2.3	5.e-002	16.59
41321	1.4	2.15	0.	7.1844e-002
41322	1.35	2.2	0.	8.0722e-002
41323	1.4	2.2	5.e-002	16.577
41324	1.4	2.05	0.	6.9583e-002
41325	1.35	2.1	0.	7.8971e-002
41326	1.4	2.1	5.e-002	16.56
41327	1.4	1.95	0.	6.7083e-002
41328	1.35	2.	0.	7.6864e-002
41329	1.4	2.	5.e-002	16.541
41330	1.4	1.85	0.	6.4252e-002
41331	1.35	1.9	0.	7.4404e-002
41332	1.4	1.9	5.e-002	16.517
41333	1.4	1.75	0.	6.1248e-002
41334	1.35	1.8	0.	7.1638e-002
41335	1.4	1.8	5.e-002	16.489
41336	1.4	1.65	0.	5.827e-002
41337	1.35	1.7	0.	6.8684e-002
41338	1.4	1.7	5.e-002	16.456
41339	1.4	1.55	0.	5.5639e-002
41340	1.35	1.6	0.	6.5761e-002
41341	1.4	1.6	5.e-002	16.417
41342	1.4	1.45	0.	5.3846e-002
41343	1.35	1.5	0.	6.3237e-002
41344	1.4	1.5	5.e-002	16.372
41345	1.4	1.35	0.	5.3597e-002
41346	1.35	1.4	0.	6.1679e-002
41347	1.4	1.4	5.e-002	16.318
41348	1.4	1.25	0.	5.5867e-002
41349	1.35	1.3	0.	6.1922e-002
41350	1.4	1.3	5.e-002	16.254
41351	1.4	1.15	0.	6.1949e-002
41352	1.35	1.2	0.	6.5132e-002
41353	1.4	1.2	5.e-002	16.174
41354	1.4	1.05	0.	7.3502e-002
41355	1.35	1.1	0.	7.2883e-002
41356	1.4	1.1	5.e-002	16.072
41357	1.4	0.95	0.	9.2597e-002
41358	1.35	1.	0.	8.7215e-002
41359	1.4	1.	5.e-002	15.94
41360	1.4	0.85	0.	0.12181
41361	1.35	0.9	0.	0.11071
41362	1.4	0.9	5.e-002	15.765
41363	1.4	0.75	0.	0.16444
41364	1.35	0.8	0.	0.14666
41365	1.4	0.8	5.e-002	15.534
41366	1.4	0.65	0.	0.22544
41367	1.35	0.7	0.	0.19941
41368	1.4	0.7	5.e-002	15.229
41369	1.4	0.55	0.	0.31323
41370	1.35	0.6	0.	0.27615
41371	1.4	0.6	5.e-002	14.834
41372	1.4	0.45	0.	0.45052
41373	1.35	0.5	0.	0.38981
41374	1.4	0.5	5.e-002	14.331
41375	1.4	0.35	0.	0.69609
41376	1.35	0.4	0.	0.58342
41377	1.4	0.4	5.e-002	13.71
41378	1.4	0.25	0.	1.5325
41379	1.35	0.3	0.	0.98939
41380	1.4	0.3	5.e-002	12.972
41381	1.4	0.15	0.	23.865
41382	1.35	0.2	0.	3.5623
41383	1.4	0.2	5.e-002	12.075
41384	1.35	0.1	0.	84.261
41385	1.4	0.1	5.e-002	17.459
41386	1.4	5.e-002	0.	38.424
41387	1.3	5.85	0.	31.031
41388	1.25	5.9	0.	97.16
41389	1.3	5.9	5.e-002	17.575
41390	1.3	5.95	0.	44.726
41391	1.3	5.75	0.	1.7308
41392	1.25	5.8	0.	4.3465
41393	1.3	5.8	5.e-002	13.09
41394	1.3	5.65	0.	0.76683
41395	1.25	5.7	0.	1.1049
41396	1.3	5.7	5.e-002	14.147
41397	1.3	5.55	0.	0.49098
41398	1.25	5.6	0.	0.64092
41399	1.3	5.6	5.e-002	14.946
41400	1.3	5.45	0.	0.3387
41401	1.25	5.5	0.	0.42448
41402	1.3	5.5	5.e-002	15.592
41403	1.3	5.35	0.	0.24236
41404	1.25	5.4	0.	0.29863
41405	1.3	5.4	5.e-002	16.091
41406	1.3	5.25	0.	0.17672
41407	1.25	5.3	0.	0.21519
41408	1.3	5.3	5.e-002	16.463
41409	1.3	5.15	0.	0.13217
41410	1.25	5.2	0.	0.15944
41411	1.3	5.2	5.e-002	16.73
41412	1.3	5.05	0.	0.10285
41413	1.25	5.1	0.	0.1229
41414	1.3	5.1	5.e-002	16.917
41415	1.3	4.95	0.	8.4712e-002
41416	1.25	5.	0.	0.10024
41417	1.3	5.	5.e-002	17.045
41418	1.3	4.85	0.	7.4598e-002
41419	1.25	4.9	0.	8.7387e-002
41420	1.3	4.9	5.e-002	17.132
41421	1.3	4.75	0.	7.0021e-002
41422	1.25	4.8	0.	8.123e-002
41423	1.3	4.8	5.e-002	17.193
41424	1.3	4.65	0.	6.9065e-002
41425	1.25	4.7	0.	7.9395e-002
41426	1.3	4.7	5.e-002	17.235
41427	1.3	4.55	0.	7.0306e-002
41428	1.25	4.6	0.	8.015e-002
41429	1.3	4.6	5.e-002	17.267
41430	1.3	4.45	0.	7.2733e-002
41431	1.25	4.5	0.	8.2286e-002
41432	1.3	4.5	5.e-002	17.29
41433	1.3	4.35	0.	7.5658e-002
41434	1.25	4.4	0.	8.4995e-002
41435	1.3	4.4	5.e-002	17.308
41436	1.3	4.25	0.	7.8643e-002
41437	1.25	4.3	0.	8.7775e-002
41438	1.3	4.3	5.e-002	17.322
41439	1.3	4.15	0.	8.1427e-002
41440	1.25	4.2	0.	9.0337e-002
41441	1.3	4.2	5.e-002	17.333
41442	1.3	4.05	0.	8.3878e-002
41443	1.25	4.1	0.	9.2538e-002
41444	1.3	4.1	5.e-002	17.341
41445	1.3	3.95	0.	8.5942e-002
41446	1.25	4.	0.	9.4328e-002
41447	1.3	4.	5.e-002	17.346
41448	1.3	3.85	0.	8.762e-002
41449	1.25	3.9	0.	9.5718e-002
41450	1.3	3.9	5.e-002	17.349
41451	1.3	3.75	0.	8.8942e-002
41452	1.25	3.8	0.	9.6749e-002
41453	1.3	3.8	5.e-002	17.35
41454	1.3	3.65	0.	8.9954e-002
41455	1.25	3.7	0.	9.7477e-002
41456	1.3	3.7	5.e-002	17.35
41457	1.3	3.55	0.	9.0706e-002
41458	1.25	3.6	0.	9.7964e-002
41459	1.3	3.6	5.e-002	17.348
41460	1.3	3.45	0.	9.1249e-002
41461	1.25	3.5	0.	9.8268e-002
41462	1.3	3.5	5.e-002	17.346
41463	1.3	3.35	0.	9.1626e-002
41464	1.25	3.4	0.	9.8442e-002
41465	1.3	3.4	5.e-002	17.344
41466	1.3	3.25	0.	9.1876e-002
41467	1.25	3.3	0.	9.8531e-002
41468	1.3	3.3	5.e-002	17.342
41469	1.3	3.15	0.	9.2026e-002
41470	1.25	3.2	0.	9.8569e-002
41471	1.3	3.2	5.e-002	17.34
41472	1.3	3.05	0.	9.2096e-002
41473	1.25	3.1	0.	9.8582e-002
41474	1.3	3.1	5.e-002	17.339
41475	1.3	2.95	0.	9.2096e-002
41476	1.25	3.	0.	9.8585e-002
41477	1.3	3.	5.e-002	17.339
41478	1.3	2.85	0.	9.2026e-002
41479	1.25	2.9	0.	9.8582e-002
41480	1.3	2.9	5.e-002	17.339
41481	1.3	2.75	0.	9.1876e-002
41482	1.25	2.8	0.	9.8569e-002
41483	1.3	2.8	5.e-002	17.34
41484	1.3	2.65	0.	9.1626e-002
41485	1.25	2.7	0.	9.8531e-002
41486	1.3	2.7	5.e-002	17.342
41487	1.3	2.55	0.	9.1249e-002
41488	1.25	2.6	0.	9.8442e-002
41489	1.3	2.6	5.e-002	17.344
41490	1.3	2.45	0.	9.0706e-002
41491	1.25	2.5	0.	9.8268e-002
41492	1.3	2.5	5.e-002	17.346
41493	1.3	2.35	0.	8.9954e-002
41494	1.25	2.4	0.	9.7964e-002
41495	1.3	2.4	5.e-002	17.348
41496	1.3	2.25	0.	8.8942e-002
41497	1.25	2.3	0.	9.7477e-002
41498	1.3	2.3	5.e-002	17.35
41499	1.3	2.15	0.	8.762e-002
41500	1.25	2.2	0.	9.6749e-002
41501	1.3	2.2	5.e-002	17.35
41502	1.3	2.05	0.	8.5942e-002
41503	1.25	2.1	0.	9.5719e-002
41504	1.3	2.1	5.e-002	17.349
41505	1.3	1.95	0.	8.3878e-002
41506	1.25	2.	0.	9.4329e-002
41507	1.3	2.	5.e-002	17.346
41508	1.3	1.85	0.	8.1427e-002
41509	1.25	1.9	0.	9.2538e-002
41510	1.3	1.9	5.e-002	17.341
41511	1.3	1.75	0.	7.8643e-002
41512	1.25	1.8	0.	9.0337e-002
41513	1.3	1.8	5.e-002	17.333
41514	1.3	1.65	0.	7.5658e-002
41515	1.25	1.7	0.	8.7775e-002
41516	1.3	1.7	5.e-002	17.323
41517	1.3	1.55	0.	7.2733e-002
41518	1.25	1.6	0.	8.4995e-002
41519	1.3	1.6	5.e-002	17.309
41520	1.3	1.45	0.	7.0307e-002
41521	1.25	1.5	0.	8.2286e-002
41522	1.3	1.5	5.e-002	17.29
41523	1.3	1.35	0.	6.9065e-002
41524	1.25	1.4	0.	8.0151e-002
41525	1.3	1.4	5.e-002	17.267
41526	1.3	1.25	0.	7.0021e-002
41527	1.25	1.3	0.	7.9395e-002
41528	1.3	1.3	5.e-002	17.236
41529	1.3	1.15	0.	7.4599e-002
41530	1.25	1.2	0.	8.123e-002
41531	1.3	1.2	5.e-002	17.193
41532	1.3	1.05	0.	8.4713e-002
41533	1.25	1.1	0.	8.7387e-002
41534	1.3	1.1	5.e-002	17.133
41535	1.3	0.95	0.	0.10285
41536	1.25	1.	0.	0.10024
41537	1.3	1.	5.e-002	17.045
41538	1.3	0.85	0.	0.13217
41539	1.25	0.9	0.	0.1229
41540	1.3	0.9	5.e-002	16.917
41541	1.3	0.75	0.	0.17672
41542	1.25	0.8	0.	0.15944
41543	1.3	0.8	5.e-002	16.73
41544	1.3	0.65	0.	0.24236
41545	1.25	0.7	0.	0.21519
41546	1.3	0.7	5.e-002	16.463
41547	1.3	0.55	0.	0.3387
41548	1.25	0.6	0.	0.29863
41549	1.3	0.6	5.e-002	16.091
41550	1.3	0.45	0.	0.49098
41551	1.25	0.5	0.	0.42448
41552	1.3	0.5	5.e-002	15.592
41553	1.3	0.35	0.	0.76684
41554	1.25	0.4	0.	0.64092
41555	1.3	0.4	5.e-002	14.946
41556	1.3	0.25	0.	1.7308
41557	1.25	0.3	0.	1.1049
41558	1.3	0.3	5.e-002	14.147
41559	1.3	0.15	0.	31.031
41560	1.25	0.2	0.	4.3465
41561	1.3	0.2	5.e-002	13.09
41562	1.25	0.1	0.	97.16
41563	1.3	0.1	5.e-002	17.575
41564	1.3	5.e-002	0.	44.726
41565	1.2	5.85	0.	39.43
41566	1.15	5.9	0.	111.68
41567	1.2	5.9	5.e-002	17.633
41568	1.2	5.95	0.	51.875
41569	1.2	5.75	0.	1.9678
41570	1.15	5.8	0.	5.4075
41571	1.2	5.8	5.e-002	14.401
41572	1.2	5.65	0.	0.84919
41573	1.15	5.7	0.	1.2419
41574	1.2	5.7	5.e-002	15.627
41575	1.2	5.55	0.	0.53789
41576	1.15	5.6	0.	0.70898
41577	1.2	5.6	5.e-002	16.476
41578	1.2	5.45	0.	0.36833
41579	1.15	5.5	0.	0.4659
41580	1.2	5.5	5.e-002	17.126
41581	1.2	5.35	0.	0.26256
41582	1.15	5.4	0.	0.3263
41583	1.2	5.4	5.e-002	17.597
41584	1.2	5.25	0.	0.19227
41585	1.15	5.3	0.	0.23593
41586	1.2	5.3	5.e-002	17.916
41587	1.2	5.15	0.	0.14627
41588	1.15	5.2	0.	0.17763
41589	1.2	5.2	5.e-002	18.119
41590	1.2	5.05	0.	0.11744
41591	1.15	5.1	0.	0.14119
41592	1.2	5.1	5.e-002	18.237
41593	1.2	4.95	0.	0.10076
41594	1.15	5.	0.	0.11994
41595	1.2	5.	5.e-002	18.298
41596	1.2	4.85	0.	9.2352e-002
41597	1.15	4.9	0.	0.10888
41598	1.2	4.9	5.e-002	18.323
41599	1.2	4.75	0.	8.9292e-002
41600	1.15	4.8	0.	0.10429
41601	1.2	4.8	5.e-002	18.328
41602	1.2	4.65	0.	8.9436e-002
41603	1.15	4.7	0.	0.10354
41604	1.2	4.7	5.e-002	18.321
41605	1.2	4.55	0.	9.129e-002
41606	1.15	4.6	0.	0.1048
41607	1.2	4.6	5.e-002	18.308
41608	1.2	4.45	0.	9.3867e-002
41609	1.15	4.5	0.	0.1069
41610	1.2	4.5	5.e-002	18.293
41611	1.2	4.35	0.	9.6556e-002
41612	1.15	4.4	0.	0.10914
41613	1.2	4.4	5.e-002	18.276
41614	1.2	4.25	0.	9.9011e-002
41615	1.15	4.3	0.	0.11113
41616	1.2	4.3	5.e-002	18.258
41617	1.2	4.15	0.	0.10107
41618	1.15	4.2	0.	0.11268
41619	1.2	4.2	5.e-002	18.24
41620	1.2	4.05	0.	0.10267
41621	1.15	4.1	0.	0.11376
41622	1.2	4.1	5.e-002	18.221
41623	1.2	3.95	0.	0.10383
41624	1.15	4.	0.	0.1144
41625	1.2	4.	5.e-002	18.203
41626	1.2	3.85	0.	0.10461
41627	1.15	3.9	0.	0.11465
41628	1.2	3.9	5.e-002	18.184
41629	1.2	3.75	0.	0.10508
41630	1.15	3.8	0.	0.11461
41631	1.2	3.8	5.e-002	18.165
41632	1.2	3.65	0.	0.1053
41633	1.15	3.7	0.	0.11436
41634	1.2	3.7	5.e-002	18.148
41635	1.2	3.55	0.	0.10536
41636	1.15	3.6	0.	0.11398
41637	1.2	3.6	5.e-002	18.131
41638	1.2	3.45	0.	0.10531
41639	1.15	3.5	0.	0.11355
41640	1.2	3.5	5.e-002	18.117
41641	1.2	3.35	0.	0.10521
41642	1.15	3.4	0.	0.11311
41643	1.2	3.4	5.e-002	18.104
41644	1.2	3.25	0.	0.10509
41645	1.15	3.3	0.	0.11272
41646	1.2	3.3	5.e-002	18.094
41647	1.2	3.15	0.	0.105
41648	1.15	3.2	0.	0.11242
41649	1.2	3.2	5.e-002	18.086
41650	1.2	3.05	0.	0.10494
41651	1.15	3.1	0.	0.11222
41652	1.2	3.1	5.e-002	18.082
41653	1.2	2.95	0.	0.10494
41654	1.15	3.	0.	0.11216
41655	1.2	3.	5.e-002	18.08
41656	1.2	2.85	0.	0.105
41657	1.15	2.9	0.	0.11222
41658	1.2	2.9	5.e-002	18.082
41659	1.2	2.75	0.	0.10509
41660	1.15	2.8	0.	0.11242
41661	1.2	2.8	5.e-002	18.086
41662	1.2	2.65	0.	0.10521
41663	1.15	2.7	0.	0.11272
41664	1.2	2.7	5.e-002	18.094
41665	1.2	2.55	0.	0.10531
41666	1.15	2.6	0.	0.11311
41667	1.2	2.6	5.e-002	18.104
41668	1.2	2.45	0.	0.10536
41669	1.15	2.5	0.	0.11355
41670	1.2	2.5	5.e-002	18.117
41671	1.2	2.35	0.	0.1053
41672	1.15	2.4	0.	0.11398
41673	1.2	2.4	5.e-002	18.132
41674	1.2	2.25	0.	0.10508
41675	1.15	2.3	0.	0.11436
41676	1.2	2.3	5.e-002	18.148
41677	1.2	2.15	0.	0.10461
41678	1.15	2.2	0.	0.11461
41679	1.2	2.2	5.e-002	18.166
41680	1.2	2.05	0.	0.10383
41681	1.15	2.1	0.	0.11465
41682	1.2	2.1	5.e-002	18.184
41683	1.2	1.95	0.	0.10267
41684	1.15	2.	0.	0.1144
41685	1.2	2.	5.e-002	18.203
41686	1.2	1.85	0.	0.10107
41687	1.15	1.9	0.	0.11376
41688	1.2	1.9	5.e-002	18.222
41689	1.2	1.75	0.	9.9011e-002
41690	1.15	1.8	0.	0.11268
41691	1.2	1.8	5.e-002	18.24
41692	1.2	1.65	0.	9.6556e-002
41693	1.15	1.7	0.	0.11113
41694	1.2	1.7	5.e-002	18.259
41695	1.2	1.55	0.	9.3867e-002
41696	1.15	1.6	0.	0.10914
41697	1.2	1.6	5.e-002	18.276
41698	1.2	1.45	0.	9.129e-002
41699	1.15	1.5	0.	0.1069
41700	1.2	1.5	5.e-002	18.293
41701	1.2	1.35	0.	8.9436e-002
41702	1.15	1.4	0.	0.1048
41703	1.2	1.4	5.e-002	18.309
41704	1.2	1.25	0.	8.9292e-002
41705	1.15	1.3	0.	0.10354
41706	1.2	1.3	5.e-002	18.321
41707	1.2	1.15	0.	9.2352e-002
41708	1.15	1.2	0.	0.10429
41709	1.2	1.2	5.e-002	18.328
41710	1.2	1.05	0.	0.10076
41711	1.15	1.1	0.	0.10888
41712	1.2	1.1	5.e-002	18.324
41713	1.2	0.95	0.	0.11744
41714	1.15	1.	0.	0.11994
41715	1.2	1.	5.e-002	18.298
41716	1.2	0.85	0.	0.14627
41717	1.15	0.9	0.	0.14119
41718	1.2	0.9	5.e-002	18.237
41719	1.2	0.75	0.	0.19227
41720	1.15	0.8	0.	0.17763
41721	1.2	0.8	5.e-002	18.119
41722	1.2	0.65	0.	0.26256
41723	1.15	0.7	0.	0.23593
41724	1.2	0.7	5.e-002	17.916
41725	1.2	0.55	0.	0.36833
41726	1.15	0.6	0.	0.3263
41727	1.2	0.6	5.e-002	17.597
41728	1.2	0.45	0.	0.53789
41729	1.15	0.5	0.	0.4659
41730	1.2	0.5	5.e-002	17.126
41731	1.2	0.35	0.	0.84919
41732	1.15	0.4	0.	0.70898
41733	1.2	0.4	5.e-002	16.476
41734	1.2	0.25	0.	1.9678
41735	1.15	0.3	0.	1.2419
41736	1.2	0.3	5.e-002	15.627
41737	1.2	0.15	0.	39.43
41738	1.15	0.2	0.	5.4075
41739	1.2	0.2	5.e-002	14.401
41740	1.15	0.1	0.	111.68
41741	1.2	0.1	5.e-002	17.633
41742	1.2	5.e-002	0.	51.875
41743	1.1	5.85	0.	49.08
41744	1.05	5.9	0.	128.08
41745	1.1	5.9	5.e-002	17.649
41746	1.1	5.95	0.	60.018
41747	1.1	5.75	0.	2.2533
41748	1.05	5.8	0.	6.8569
41749	1.1	5.8	5.e-002	16.111
41750	1.1	5.65	0.	0.94747
41751	1.05	5.7	0.	1.4052
41752	1.1	5.7	5.e-002	17.505
41753	1.1	5.55	0.	0.59464
41754	1.05	5.6	0.	0.78953
41755	1.1	5.6	5.e-002	18.382
41756	1.1	5.45	0.	0.40528
41757	1.05	5.5	0.	0.51497
41758	1.1	5.5	5.e-002	19.004
41759	1.1	5.35	0.	0.28935
41760	1.05	5.4	0.	0.35981
41761	1.1	5.4	5.e-002	19.405
41762	1.1	5.25	0.	0.21473
41763	1.05	5.3	0.	0.26238
41764	1.1	5.3	5.e-002	19.632
41765	1.1	5.15	0.	0.16802
41766	1.05	5.2	0.	0.20216
41767	1.1	5.2	5.e-002	19.732
41768	1.1	5.05	0.	0.1404
41769	1.05	5.1	0.	0.1665
41770	1.1	5.1	5.e-002	19.75
41771	1.1	4.95	0.	0.12559
41772	1.05	5.	0.	0.14701
41773	1.1	5.	5.e-002	19.718
41774	1.1	4.85	0.	0.11892
41775	1.05	4.9	0.	0.13761
41776	1.1	4.9	5.e-002	19.66
41777	1.1	4.75	0.	0.11707
41778	1.05	4.8	0.	0.13407
41779	1.1	4.8	5.e-002	19.591
41780	1.1	4.65	0.	0.11775
41781	1.05	4.7	0.	0.13356
41782	1.1	4.7	5.e-002	19.521
41783	1.1	4.55	0.	0.11949
41784	1.05	4.6	0.	0.13434
41785	1.1	4.6	5.e-002	19.452
41786	1.1	4.45	0.	0.12144
41787	1.05	4.5	0.	0.13538
41788	1.1	4.5	5.e-002	19.387
41789	1.1	4.35	0.	0.12312
41790	1.05	4.4	0.	0.13614
41791	1.1	4.4	5.e-002	19.325
41792	1.1	4.25	0.	0.12431
41793	1.05	4.3	0.	0.13641
41794	1.1	4.3	5.e-002	19.267
41795	1.1	4.15	0.	0.12498
41796	1.05	4.2	0.	0.13616
41797	1.1	4.2	5.e-002	19.212
41798	1.1	4.05	0.	0.12516
41799	1.05	4.1	0.	0.13542
41800	1.1	4.1	5.e-002	19.16
41801	1.1	3.95	0.	0.12494
41802	1.05	4.	0.	0.13431
41803	1.1	4.	5.e-002	19.111
41804	1.1	3.85	0.	0.12442
41805	1.05	3.9	0.	0.13295
41806	1.1	3.9	5.e-002	19.065
41807	1.1	3.75	0.	0.12369
41808	1.05	3.8	0.	0.13144
41809	1.1	3.8	5.e-002	19.022
41810	1.1	3.65	0.	0.12286
41811	1.05	3.7	0.	0.1299
41812	1.1	3.7	5.e-002	18.983
41813	1.1	3.55	0.	0.122
41814	1.05	3.6	0.	0.1284
41815	1.1	3.6	5.e-002	18.948
41816	1.1	3.45	0.	0.12119
41817	1.05	3.5	0.	0.12702
41818	1.1	3.5	5.e-002	18.918
41819	1.1	3.35	0.	0.12048
41820	1.05	3.4	0.	0.12582
41821	1.1	3.4	5.e-002	18.892
41822	1.1	3.25	0.	0.11991
41823	1.05	3.3	0.	0.12485
41824	1.1	3.3	5.e-002	18.872
41825	1.1	3.15	0.	0.11951
41826	1.05	3.2	0.	0.12413
41827	1.1	3.2	5.e-002	18.857
41828	1.1	3.05	0.	0.11931
41829	1.05	3.1	0.	0.12369
41830	1.1	3.1	5.e-002	18.848
41831	1.1	2.95	0.	0.11931
41832	1.05	3.	0.	0.12354
41833	1.1	3.	5.e-002	18.845
41834	1.1	2.85	0.	0.11951
41835	1.05	2.9	0.	0.12369
41836	1.1	2.9	5.e-002	18.848
41837	1.1	2.75	0.	0.11991
41838	1.05	2.8	0.	0.12413
41839	1.1	2.8	5.e-002	18.857
41840	1.1	2.65	0.	0.12048
41841	1.05	2.7	0.	0.12485
41842	1.1	2.7	5.e-002	18.872
41843	1.1	2.55	0.	0.12119
41844	1.05	2.6	0.	0.12582
41845	1.1	2.6	5.e-002	18.892
41846	1.1	2.45	0.	0.122
41847	1.05	2.5	0.	0.12702
41848	1.1	2.5	5.e-002	18.918
41849	1.1	2.35	0.	0.12286
41850	1.05	2.4	0.	0.1284
41851	1.1	2.4	5.e-002	18.948
41852	1.1	2.25	0.	0.12369
41853	1.05	2.3	0.	0.1299
41854	1.1	2.3	5.e-002	18.983
41855	1.1	2.15	0.	0.12442
41856	1.05	2.2	0.	0.13144
41857	1.1	2.2	5.e-002	19.022
41858	1.1	2.05	0.	0.12494
41859	1.05	2.1	0.	0.13295
41860	1.1	2.1	5.e-002	19.065
41861	1.1	1.95	0.	0.12516
41862	1.05	2.	0.	0.13431
41863	1.1	2.	5.e-002	19.111
41864	1.1	1.85	0.	0.12498
41865	1.05	1.9	0.	0.13542
41866	1.1	1.9	5.e-002	19.16
41867	1.1	1.75	0.	0.12431
41868	1.05	1.8	0.	0.13616
41869	1.1	1.8	5.e-002	19.212
41870	1.1	1.65	0.	0.12312
41871	1.05	1.7	0.	0.13641
41872	1.1	1.7	5.e-002	19.267
41873	1.1	1.55	0.	0.12144
41874	1.05	1.6	0.	0.13614
41875	1.1	1.6	5.e-002	19.325
41876	1.1	1.45	0.	0.11949
41877	1.05	1.5	0.	0.13538
41878	1.1	1.5	5.e-002	19.387
41879	1.1	1.35	0.	0.11775
41880	1.05	1.4	0.	0.13434
41881	1.1	1.4	5.e-002	19.452
41882	1.1	1.25	0.	0.11707
41883	1.05	1.3	0.	0.13356
41884	1.1	1.3	5.e-002	19.521
41885	1.1	1.15	0.	0.11892
41886	1.05	1.2	0.	0.13407
41887	1.1	1.2	5.e-002	19.591
41888	1.1	1.05	0.	0.12559
41889	1.05	1.1	0.	0.13761
41890	1.1	1.1	5.e-002	19.66
41891	1.1	0.95	0.	0.1404
41892	1.05	1.	0.	0.14701
41893	1.1	1.	5.e-002	19.718
41894	1.1	0.85	0.	0.16802
41895	1.05	0.9	0.	0.1665
41896	1.1	0.9	5.e-002	19.75
41897	1.1	0.75	0.	0.21473
41898	1.05	0.8	0.	0.20216
41899	1.1	0.8	5.e-002	19.733
41900	1.1	0.65	0.	0.28935
41901	1.05	0.7	0.	0.26238
41902	1.1	0.7	5.e-002	19.632
41903	1.1	0.55	0.	0.40528
41904	1.05	0.6	0.	0.35981
41905	1.1	0.6	5.e-002	19.405
41906	1.1	0.45	0.	0.59464
41907	1.05	0.5	0.	0.51497
41908	1.1	0.5	5.e-002	19.004
41909	1.1	0.35	0.	0.94747
41910	1.05	0.4	0.	0.78953
41911	1.1	0.4	5.e-002	18.382
41912	1.1	0.25	0.	2.2533
41913	1.05	0.3	0.	1.4052
41914	1.1	0.3	5.e-002	17.505
41915	1.1	0.15	0.	49.08
41916	1.05	0.2	0.	6.8569
41917	1.1	0.2	5.e-002	16.111
41918	1.05	0.1	0.	128.08
41919	1.1	0.1	5.e-002	17.65
41920	1.1	5.e-002	0.	60.018
41921	1.	5.85	0.	60.026
41922	0.95	5.9	0.	146.66
41923	1.	5.9	5.e-002	17.681
41924	1.	5.95	0.	69.346
41925	1.	5.75	0.	2.5963
41926	0.95	5.8	0.	8.8317
41927	1.	5.8	5.e-002	18.359
41928	1.	5.65	0.	1.0629
41929	0.95	5.7	0.	1.6084
41930	1.	5.7	5.e-002	19.907
41931	1.	5.55	0.	0.6603
41932	0.95	5.6	0.	0.89454
41933	1.	5.6	5.e-002	20.772
41934	1.	5.45	0.	0.44775
41935	0.95	5.5	0.	0.58355
41936	1.	5.5	5.e-002	21.31
41937	1.	5.35	0.	0.32073
41938	0.95	5.4	0.	0.41167
41939	1.	5.4	5.e-002	21.582
41940	1.	5.25	0.	0.2421
41941	0.95	5.3	0.	0.30786
41942	1.	5.3	5.e-002	21.658
41943	1.	5.15	0.	0.19534
41944	0.95	5.2	0.	0.24684
41945	1.	5.2	5.e-002	21.606
41946	1.	5.05	0.	0.16928
41947	0.95	5.1	0.	0.21267
41948	1.	5.1	5.e-002	21.482
41949	1.	4.95	0.	0.15619
41950	0.95	5.	0.	0.19492
41951	1.	5.	5.e-002	21.324
41952	1.	4.85	0.	0.1506
41953	0.95	4.9	0.	0.18647
41954	1.	4.9	5.e-002	21.157
41955	1.	4.75	0.	0.14891
41956	0.95	4.8	0.	0.18278
41957	1.	4.8	5.e-002	20.996
41958	1.	4.65	0.	0.14888
41959	0.95	4.7	0.	0.1811
41960	1.	4.7	5.e-002	20.844
41961	1.	4.55	0.	0.14922
41962	0.95	4.6	0.	0.1799
41963	1.	4.6	5.e-002	20.705
41964	1.	4.45	0.	0.14929
41965	0.95	4.5	0.	0.17846
41966	1.	4.5	5.e-002	20.578
41967	1.	4.35	0.	0.14881
41968	0.95	4.4	0.	0.17648
41969	1.	4.4	5.e-002	20.46
41970	1.	4.25	0.	0.14775
41971	0.95	4.3	0.	0.17396
41972	1.	4.3	5.e-002	20.351
41973	1.	4.15	0.	0.14618
41974	0.95	4.2	0.	0.17098
41975	1.	4.2	5.e-002	20.251
41976	1.	4.05	0.	0.14423
41977	0.95	4.1	0.	0.16769
41978	1.	4.1	5.e-002	20.157
41979	1.	3.95	0.	0.14204
41980	0.95	4.	0.	0.16425
41981	1.	4.	5.e-002	20.07
41982	1.	3.85	0.	0.13974
41983	0.95	3.9	0.	0.1608
41984	1.	3.9	5.e-002	19.991
41985	1.	3.75	0.	0.13744
41986	0.95	3.8	0.	0.15746
41987	1.	3.8	5.e-002	19.918
41988	1.	3.65	0.	0.13526
41989	0.95	3.7	0.	0.15434
41990	1.	3.7	5.e-002	19.852
41991	1.	3.55	0.	0.13326
41992	0.95	3.6	0.	0.15151
41993	1.	3.6	5.e-002	19.795
41994	1.	3.45	0.	0.13151
41995	0.95	3.5	0.	0.14904
41996	1.	3.5	5.e-002	19.745
41997	1.	3.35	0.	0.13005
41998	0.95	3.4	0.	0.14696
41999	1.	3.4	5.e-002	19.704
42000	1.	3.25	0.	0.12894
42001	0.95	3.3	0.	0.14531
42002	1.	3.3	5.e-002	19.672
42003	1.	3.15	0.	0.12818
42004	0.95	3.2	0.	0.14412
42005	1.	3.2	5.e-002	19.649
42006	1.	3.05	0.	0.1278
42007	0.95	3.1	0.	0.1434
42008	1.	3.1	5.e-002	19.635
42009	1.	2.95	0.	0.1278
42010	0.95	3.	0.	0.14316
42011	1.	3.	5.e-002	19.63
42012	1.	2.85	0.	0.12818
42013	0.95	2.9	0.	0.1434
42014	1.	2.9	5.e-002	19.635
42015	1.	2.75	0.	0.12894
42016	0.95	2.8	0.	0.14412
42017	1.	2.8	5.e-002	19.649
42018	1.	2.65	0.	0.13005
42019	0.95	2.7	0.	0.14531
42020	1.	2.7	5.e-002	19.672
42021	1.	2.55	0.	0.13151
42022	0.95	2.6	0.	0.14696
42023	1.	2.6	5.e-002	19.704
42024	1.	2.45	0.	0.13326
42025	0.95	2.5	0.	0.14904
42026	1.	2.5	5.e-002	19.745
42027	1.	2.35	0.	0.13526
42028	0.95	2.4	0.	0.15151
42029	1.	2.4	5.e-002	19.795
42030	1.	2.25	0.	0.13744
42031	0.95	2.3	0.	0.15434
42032	1.	2.3	5.e-002	19.853
42033	1.	2.15	0.	0.13974
42034	0.95	2.2	0.	0.15747
42035	1.	2.2	5.e-002	19.918
42036	1.	2.05	0.	0.14204
42037	0.95	2.1	0.	0.1608
42038	1.	2.1	5.e-002	19.991
42039	1.	1.95	0.	0.14423
42040	0.95	2.	0.	0.16425
42041	1.	2.	5.e-002	20.071
42042	1.	1.85	0.	0.14618
42043	0.95	1.9	0.	0.16769
42044	1.	1.9	5.e-002	20.157
42045	1.	1.75	0.	0.14775
42046	0.95	1.8	0.	0.17098
42047	1.	1.8	5.e-002	20.251
42048	1.	1.65	0.	0.14881
42049	0.95	1.7	0.	0.17396
42050	1.	1.7	5.e-002	20.352
42051	1.	1.55	0.	0.14929
42052	0.95	1.6	0.	0.17648
42053	1.	1.6	5.e-002	20.46
42054	1.	1.45	0.	0.14922
42055	0.95	1.5	0.	0.17846
42056	1.	1.5	5.e-002	20.578
42057	1.	1.35	0.	0.14888
42058	0.95	1.4	0.	0.1799
42059	1.	1.4	5.e-002	20.706
42060	1.	1.25	0.	0.14891
42061	0.95	1.3	0.	0.1811
42062	1.	1.3	5.e-002	20.845
42063	1.	1.15	0.	0.1506
42064	0.95	1.2	0.	0.18278
42065	1.	1.2	5.e-002	20.996
42066	1.	1.05	0.	0.15619
42067	0.95	1.1	0.	0.18647
42068	1.	1.1	5.e-002	21.157
42069	1.	0.95	0.	0.16928
42070	0.95	1.	0.	0.19492
42071	1.	1.	5.e-002	21.324
42072	1.	0.85	0.	0.19534
42073	0.95	0.9	0.	0.21267
42074	1.	0.9	5.e-002	21.482
42075	1.	0.75	0.	0.2421
42076	0.95	0.8	0.	0.24684
42077	1.	0.8	5.e-002	21.606
42078	1.	0.65	0.	0.32073
42079	0.95	0.7	0.	0.30786
42080	1.	0.7	5.e-002	21.658
42081	1.	0.55	0.	0.44775
42082	0.95	0.6	0.	0.41167
42083	1.	0.6	5.e-002	21.582
42084	1.	0.45	0.	0.6603
42085	0.95	0.5	0.	0.58355
42086	1.	0.5	5.e-002	21.31
42087	1.	0.35	0.	1.0629
42088	0.95	0.4	0.	0.89454
42089	1.	0.4	5.e-002	20.772
42090	1.	0.25	0.	2.5963
42091	0.95	0.3	0.	1.6084
42092	1.	0.3	5.e-002	19.907
42093	1.	0.15	0.	60.027
42094	0.95	0.2	0.	8.8317
42095	1.	0.2	5.e-002	18.359
42096	0.95	0.1	0.	146.66
42097	1.	0.1	5.e-002	17.681
42098	1.	5.e-002	0.	69.346
42099	0.9	5.85	0.	72.328
42100	0.85	5.9	0.	167.8
42101	0.9	5.9	5.e-002	17.864
42102	0.9	5.95	0.	80.112
42103	0.9	5.75	0.	3.0218
42104	0.85	5.8	0.	11.432
42105	0.9	5.8	5.e-002	21.339
42106	0.9	5.65	0.	1.2185
42107	0.85	5.7	0.	1.8445
42108	0.9	5.7	5.e-002	23.004
42109	0.9	5.55	0.	0.7592
42110	0.85	5.6	0.	1.0077
42111	0.9	5.6	5.e-002	23.786
42112	0.9	5.45	0.	0.52169
42113	0.85	5.5	0.	0.65064
42114	0.9	5.5	5.e-002	24.152
42115	0.9	5.35	0.	0.38438
42116	0.85	5.4	0.	0.45838
42117	0.9	5.4	5.e-002	24.204
42118	0.9	5.25	0.	0.30341
42119	0.85	5.3	0.	0.34701
42120	0.9	5.3	5.e-002	24.048
42121	0.9	5.15	0.	0.25789
42122	0.85	5.2	0.	0.28433
42123	0.9	5.2	5.e-002	23.777
42124	0.9	5.05	0.	0.23382
42125	0.85	5.1	0.	0.25007
42126	0.9	5.1	5.e-002	23.46
42127	0.9	4.95	0.	0.22192
42128	0.85	5.	0.	0.23162
42129	0.9	5.	5.e-002	23.138
42130	0.9	4.85	0.	0.21621
42131	0.85	4.9	0.	0.22113
42132	0.9	4.9	5.e-002	22.833
42133	0.9	4.75	0.	0.21313
42134	0.85	4.8	0.	0.21409
42135	0.9	4.8	5.e-002	22.554
42136	0.9	4.65	0.	0.21072
42137	0.85	4.7	0.	0.20814
42138	0.9	4.7	5.e-002	22.303
42139	0.9	4.55	0.	0.20806
42140	0.85	4.6	0.	0.20218
42141	0.9	4.6	5.e-002	22.076
42142	0.9	4.45	0.	0.20482
42143	0.85	4.5	0.	0.19585
42144	0.9	4.5	5.e-002	21.871
42145	0.9	4.35	0.	0.20098
42146	0.85	4.4	0.	0.18912
42147	0.9	4.4	5.e-002	21.684
42148	0.9	4.25	0.	0.19667
42149	0.85	4.3	0.	0.18215
42150	0.9	4.3	5.e-002	21.513
42151	0.9	4.15	0.	0.19207
42152	0.85	4.2	0.	0.17513
42153	0.9	4.2	5.e-002	21.356
42154	0.9	4.05	0.	0.18737
42155	0.85	4.1	0.	0.16824
42156	0.9	4.1	5.e-002	21.211
42157	0.9	3.95	0.	0.18273
42158	0.85	4.	0.	0.16164
42159	0.9	4.	5.e-002	21.079
42160	0.9	3.85	0.	0.17829
42161	0.85	3.9	0.	0.15545
42162	0.9	3.9	5.e-002	20.958
42163	0.9	3.75	0.	0.17416
42164	0.85	3.8	0.	0.14978
42165	0.9	3.8	5.e-002	20.85
42166	0.9	3.65	0.	0.17042
42167	0.85	3.7	0.	0.1447
42168	0.9	3.7	5.e-002	20.753
42169	0.9	3.55	0.	0.16713
42170	0.85	3.6	0.	0.14024
42171	0.9	3.6	5.e-002	20.668
42172	0.9	3.45	0.	0.16435
42173	0.85	3.5	0.	0.13643
42174	0.9	3.5	5.e-002	20.597
42175	0.9	3.35	0.	0.16208
42176	0.85	3.4	0.	0.13331
42177	0.9	3.4	5.e-002	20.537
42178	0.9	3.25	0.	0.16037
42179	0.85	3.3	0.	0.13087
42180	0.9	3.3	5.e-002	20.491
42181	0.9	3.15	0.	0.15922
42182	0.85	3.2	0.	0.12912
42183	0.9	3.2	5.e-002	20.458
42184	0.9	3.05	0.	0.15865
42185	0.85	3.1	0.	0.12808
42186	0.9	3.1	5.e-002	20.438
42187	0.9	2.95	0.	0.15865
42188	0.85	3.	0.	0.12773
42189	0.9	3.	5.e-002	20.431
42190	0.9	2.85	0.	0.15922
42191	0.85	2.9	0.	0.12808
42192	0.9	2.9	5.e-002	20.438
42193	0.9	2.75	0.	0.16037
42194	0.85	2.8	0.	0.12912
42195	0.9	2.8	5.e-002	20.458
42196	0.9	2.65	0.	0.16208
42197	0.85	2.7	0.	0.13087
42198	0.9	2.7	5.e-002	20.491
42199	0.9	2.55	0.	0.16435
42200	0.85	2.6	0.	0.13331
42201	0.9	2.6	5.e-002	20.537
42202	0.9	2.45	0.	0.16713
42203	0.85	2.5	0.	0.13643
42204	0.9	2.5	5.e-002	20.597
42205	0.9	2.35	0.	0.17042
42206	0.85	2.4	0.	0.14024
42207	0.9	2.4	5.e-002	20.669
42208	0.9	2.25	0.	0.17416
42209	0.85	2.3	0.	0.1447
42210	0.9	2.3	5.e-002	20.753
42211	0.9	2.15	0.	0.17829
42212	0.85	2.2	0.	0.14978
42213	0.9	2.2	5.e-002	20.85
42214	0.9	2.05	0.	0.18273
42215	0.85	2.1	0.	0.15545
42216	0.9	2.1	5.e-002	20.958
42217	0.9	1.95	0.	0.18737
42218	0.85	2.	0.	0.16164
42219	0.9	2.	5.e-002	21.079
42220	0.9	1.85	0.	0.19207
42221	0.85	1.9	0.	0.16824
42222	0.9	1.9	5.e-002	21.211
42223	0.9	1.75	0.	0.19667
42224	0.85	1.8	0.	0.17513
42225	0.9	1.8	5.e-002	21.356
42226	0.9	1.65	0.	0.20098
42227	0.85	1.7	0.	0.18215
42228	0.9	1.7	5.e-002	21.513
42229	0.9	1.55	0.	0.20482
42230	0.85	1.6	0.	0.18912
42231	0.9	1.6	5.e-002	21.685
42232	0.9	1.45	0.	0.20806
42233	0.85	1.5	0.	0.19585
42234	0.9	1.5	5.e-002	21.872
42235	0.9	1.35	0.	0.21072
42236	0.85	1.4	0.	0.20218
42237	0.9	1.4	5.e-002	22.077
42238	0.9	1.25	0.	0.21313
42239	0.85	1.3	0.	0.20814
42240	0.9	1.3	5.e-002	22.303
42241	0.9	1.15	0.	0.21621
42242	0.85	1.2	0.	0.21409
42243	0.9	1.2	5.e-002	22.555
42244	0.9	1.05	0.	0.22192
42245	0.85	1.1	0.	0.22113
42246	0.9	1.1	5.e-002	22.833
42247	0.9	0.95	0.	0.23382
42248	0.85	1.	0.	0.23162
42249	0.9	1.	5.e-002	23.138
42250	0.9	0.85	0.	0.25789
42251	0.85	0.9	0.	0.25007
42252	0.9	0.9	5.e-002	23.46
42253	0.9	0.75	0.	0.30341
42254	0.85	0.8	0.	0.28433
42255	0.9	0.8	5.e-002	23.777
42256	0.9	0.65	0.	0.38438
42257	0.85	0.7	0.	0.34701
42258	0.9	0.7	5.e-002	24.048
42259	0.9	0.55	0.	0.52169
42260	0.85	0.6	0.	0.45838
42261	0.9	0.6	5.e-002	24.204
42262	0.9	0.45	0.	0.7592
42263	0.85	0.5	0.	0.65065
42264	0.9	0.5	5.e-002	24.152
42265	0.9	0.35	0.	1.2185
42266	0.85	0.4	0.	1.0077
42267	0.9	0.4	5.e-002	23.786
42268	0.9	0.25	0.	3.0218
42269	0.85	0.3	0.	1.8445
42270	0.9	0.3	5.e-002	23.004
42271	0.9	0.15	0.	72.328
42272	0.85	0.2	0.	11.432
42273	0.9	0.2	5.e-002	21.34
42274	0.85	0.1	0.	167.8
42275	0.9	0.1	5.e-002	17.864
42276	0.9	5.e-002	0.	80.112
42277	0.8	5.85	0.	86.008
42278	0.75	5.9	0.	191.98
42279	0.8	5.9	5.e-002	18.511
42280	0.8	5.95	0.	92.652
42281	0.8	5.75	0.	3.5034
42282	0.75	5.8	0.	14.68
42283	0.8	5.8	5.e-002	25.336
42284	0.8	5.65	0.	1.366
42285	0.75	5.7	0.	2.218
42286	0.8	5.7	5.e-002	27.038
42287	0.8	5.55	0.	0.82901
42288	0.75	5.6	0.	1.2496
42289	0.8	5.6	5.e-002	27.613
42290	0.8	5.45	0.	0.55626
42291	0.75	5.5	0.	0.84898
42292	0.8	5.5	5.e-002	27.664
42293	0.8	5.35	0.	0.40356
42294	0.75	5.4	0.	0.64218
42295	0.8	5.4	5.e-002	27.359
42296	0.8	5.25	0.	0.31685
42297	0.75	5.3	0.	0.52866
42298	0.8	5.3	5.e-002	26.859
42299	0.8	5.15	0.	0.269
42300	0.75	5.2	0.	0.46741
42301	0.8	5.2	5.e-002	26.284
42302	0.8	5.05	0.	0.24259
42303	0.75	5.1	0.	0.43369
42304	0.8	5.1	5.e-002	25.712
42305	0.8	4.95	0.	0.22704
42306	0.75	5.	0.	0.41344
42307	0.8	5.	5.e-002	25.181
42308	0.8	4.85	0.	0.21625
42309	0.75	4.9	0.	0.39895
42310	0.8	4.9	5.e-002	24.703
42311	0.8	4.75	0.	0.20707
42312	0.75	4.8	0.	0.38644
42313	0.8	4.8	5.e-002	24.28
42314	0.8	4.65	0.	0.19809
42315	0.75	4.7	0.	0.37429
42316	0.8	4.7	5.e-002	23.905
42317	0.8	4.55	0.	0.18883
42318	0.75	4.6	0.	0.36204
42319	0.8	4.6	5.e-002	23.571
42320	0.8	4.45	0.	0.17928
42321	0.75	4.5	0.	0.34971
42322	0.8	4.5	5.e-002	23.27
42323	0.8	4.35	0.	0.16963
42324	0.75	4.4	0.	0.33751
42325	0.8	4.4	5.e-002	22.998
42326	0.8	4.25	0.	0.16009
42327	0.75	4.3	0.	0.32568
42328	0.8	4.3	5.e-002	22.75
42329	0.8	4.15	0.	0.15088
42330	0.75	4.2	0.	0.31444
42331	0.8	4.2	5.e-002	22.524
42332	0.8	4.05	0.	0.14217
42333	0.75	4.1	0.	0.30394
42334	0.8	4.1	5.e-002	22.318
42335	0.8	3.95	0.	0.13408
42336	0.75	4.	0.	0.29429
42337	0.8	4.	5.e-002	22.13
42338	0.8	3.85	0.	0.12672
42339	0.75	3.9	0.	0.28556
42340	0.8	3.9	5.e-002	21.961
42341	0.8	3.75	0.	0.12012
42342	0.75	3.8	0.	0.27778
42343	0.8	3.8	5.e-002	21.81
42344	0.8	3.65	0.	0.11434
42345	0.75	3.7	0.	0.27095
42346	0.8	3.7	5.e-002	21.677
42347	0.8	3.55	0.	0.10938
42348	0.75	3.6	0.	0.26508
42349	0.8	3.6	5.e-002	21.561
42350	0.8	3.45	0.	0.10525
42351	0.75	3.5	0.	0.26016
42352	0.8	3.5	5.e-002	21.463
42353	0.8	3.35	0.	0.10196
42354	0.75	3.4	0.	0.25616
42355	0.8	3.4	5.e-002	21.383
42356	0.8	3.25	0.	9.9495e-002
42357	0.75	3.3	0.	0.25308
42358	0.8	3.3	5.e-002	21.321
42359	0.8	3.15	0.	9.7855e-002
42360	0.75	3.2	0.	0.25088
42361	0.8	3.2	5.e-002	21.276
42362	0.8	3.05	0.	9.7037e-002
42363	0.75	3.1	0.	0.24957
42364	0.8	3.1	5.e-002	21.249
42365	0.8	2.95	0.	9.7037e-002
42366	0.75	3.	0.	0.24914
42367	0.8	3.	5.e-002	21.24
42368	0.8	2.85	0.	9.7855e-002
42369	0.75	2.9	0.	0.24957
42370	0.8	2.9	5.e-002	21.249
42371	0.8	2.75	0.	9.9495e-002
42372	0.75	2.8	0.	0.25088
42373	0.8	2.8	5.e-002	21.276
42374	0.8	2.65	0.	0.10196
42375	0.75	2.7	0.	0.25308
42376	0.8	2.7	5.e-002	21.321
42377	0.8	2.55	0.	0.10525
42378	0.75	2.6	0.	0.25616
42379	0.8	2.6	5.e-002	21.383
42380	0.8	2.45	0.	0.10938
42381	0.75	2.5	0.	0.26016
42382	0.8	2.5	5.e-002	21.464
42383	0.8	2.35	0.	0.11434
42384	0.75	2.4	0.	0.26508
42385	0.8	2.4	5.e-002	21.562
42386	0.8	2.25	0.	0.12012
42387	0.75	2.3	0.	0.27095
42388	0.8	2.3	5.e-002	21.677
42389	0.8	2.15	0.	0.12672
42390	0.75	2.2	0.	0.27778
42391	0.8	2.2	5.e-002	21.811
42392	0.8	2.05	0.	0.13408
42393	0.75	2.1	0.	0.28556
42394	0.8	2.1	5.e-002	21.962
42395	0.8	1.95	0.	0.14217
42396	0.75	2.	0.	0.29429
42397	0.8	2.	5.e-002	22.131
42398	0.8	1.85	0.	0.15088
42399	0.75	1.9	0.	0.30394
42400	0.8	1.9	5.e-002	22.318
42401	0.8	1.75	0.	0.16009
42402	0.75	1.8	0.	0.31444
42403	0.8	1.8	5.e-002	22.524
42404	0.8	1.65	0.	0.16963
42405	0.75	1.7	0.	0.32568
42406	0.8	1.7	5.e-002	22.75
42407	0.8	1.55	0.	0.17928
42408	0.75	1.6	0.	0.33751
42409	0.8	1.6	5.e-002	22.998
42410	0.8	1.45	0.	0.18883
42411	0.75	1.5	0.	0.34971
42412	0.8	1.5	5.e-002	23.27
42413	0.8	1.35	0.	0.19809
42414	0.75	1.4	0.	0.36204
42415	0.8	1.4	5.e-002	23.571
42416	0.8	1.25	0.	0.20707
42417	0.75	1.3	0.	0.37429
42418	0.8	1.3	5.e-002	23.906
42419	0.8	1.15	0.	0.21625
42420	0.75	1.2	0.	0.38644
42421	0.8	1.2	5.e-002	24.281
42422	0.8	1.05	0.	0.22704
42423	0.75	1.1	0.	0.39895
42424	0.8	1.1	5.e-002	24.704
42425	0.8	0.95	0.	0.24259
42426	0.75	1.	0.	0.41344
42427	0.8	1.	5.e-002	25.181
42428	0.8	0.85	0.	0.269
42429	0.75	0.9	0.	0.43369
42430	0.8	0.9	5.e-002	25.712
42431	0.8	0.75	0.	0.31685
42432	0.75	0.8	0.	0.46741
42433	0.8	0.8	5.e-002	26.284
42434	0.8	0.65	0.	0.40356
42435	0.75	0.7	0.	0.52866
42436	0.8	0.7	5.e-002	26.859
42437	0.8	0.55	0.	0.55626
42438	0.75	0.6	0.	0.64218
42439	0.8	0.6	5.e-002	27.359
42440	0.8	0.45	0.	0.82901
42441	0.75	0.5	0.	0.84898
42442	0.8	0.5	5.e-002	27.664
42443	0.8	0.35	0.	1.366
42444	0.75	0.4	0.	1.2496
42445	0.8	0.4	5.e-002	27.613
42446	0.8	0.25	0.	3.5034
42447	0.75	0.3	0.	2.218
42448	0.8	0.3	5.e-002	27.038
42449	0.8	0.15	0.	86.009
42450	0.75	0.2	0.	14.68
42451	0.8	0.2	5.e-002	25.336
42452	0.75	0.1	0.	191.98
42453	0.8	0.1	5.e-002	18.511
42454	0.8	5.e-002	0.	92.652
42455	0.7	5.85	0.	101.04
42456	0.65	5.9	0.	219.78
42457	0.7	5.9	5.e-002	20.243
42458	0.7	5.95	0.	107.45
42459	0.7	5.75	0.	4.2379
42460	0.65	5.8	0.	18.141
42461	0.7	5.8	5.e-002	30.769
42462	0.7	5.65	0.	1.7764
42463	0.65	5.7	0.	2.4377
42464	0.7	5.7	5.e-002	32.351
42465	0.7	5.55	0.	1.1841
42466	0.65	5.6	0.	1.2379
42467	0.7	5.6	5.e-002	32.499
42468	0.7	5.45	0.	0.89671
42469	0.65	5.5	0.	0.73708
42470	0.7	5.5	5.e-002	32.003
42471	0.7	5.35	0.	0.74581
42472	0.65	5.4	0.	0.47825
42473	0.7	5.4	5.e-002	31.144
42474	0.7	5.25	0.	0.66572
42475	0.65	5.3	0.	0.33287
42476	0.7	5.3	5.e-002	30.15
42477	0.7	5.15	0.	0.62311
42478	0.65	5.2	0.	0.24644
42479	0.7	5.2	5.e-002	29.168
42480	0.7	5.05	0.	0.59837
42481	0.65	5.1	0.	0.18894
42482	0.7	5.1	5.e-002	28.271
42483	0.7	4.95	0.	0.58104
42484	0.65	5.	0.	0.14521
42485	0.7	5.	5.e-002	27.48
42486	0.7	4.85	0.	0.56607
42487	0.65	4.9	0.	0.10803
42488	0.7	4.9	5.e-002	26.791
42489	0.7	4.75	0.	0.55145
42490	0.65	4.8	0.	7.4348e-002
42491	0.7	4.8	5.e-002	26.192
42492	0.7	4.65	0.	0.53665
42493	0.65	4.7	0.	4.3074e-002
42494	0.7	4.7	5.e-002	25.666
42495	0.7	4.55	0.	0.52174
42496	0.65	4.6	0.	1.3949e-002
42497	0.7	4.6	5.e-002	25.2
42498	0.7	4.45	0.	0.50705
42499	0.65	4.5	0.	-1.3011e-002
42500	0.7	4.5	5.e-002	24.782
42501	0.7	4.35	0.	0.49289
42502	0.65	4.4	0.	-3.7741e-002
42503	0.7	4.4	5.e-002	24.406
42504	0.7	4.25	0.	0.47951
42505	0.65	4.3	0.	-6.0213e-002
42506	0.7	4.3	5.e-002	24.066
42507	0.7	4.15	0.	0.46709
42508	0.65	4.2	0.	-8.045e-002
42509	0.7	4.2	5.e-002	23.758
42510	0.7	4.05	0.	0.45574
42511	0.65	4.1	0.	-9.8518e-002
42512	0.7	4.1	5.e-002	23.479
42513	0.7	3.95	0.	0.4455
42514	0.65	4.	0.	-0.11452
42515	0.7	4.	5.e-002	23.228
42516	0.7	3.85	0.	0.4364
42517	0.65	3.9	0.	-0.12855
42518	0.7	3.9	5.e-002	23.002
42519	0.7	3.75	0.	0.42842
42520	0.65	3.8	0.	-0.14075
42521	0.7	3.8	5.e-002	22.802
42522	0.7	3.65	0.	0.42154
42523	0.65	3.7	0.	-0.15122
42524	0.7	3.7	5.e-002	22.627
42525	0.7	3.55	0.	0.41572
42526	0.65	3.6	0.	-0.16006
42527	0.7	3.6	5.e-002	22.476
42528	0.7	3.45	0.	0.41094
42529	0.65	3.5	0.	-0.16738
42530	0.7	3.5	5.e-002	22.349
42531	0.7	3.35	0.	0.40716
42532	0.65	3.4	0.	-0.17326
42533	0.7	3.4	5.e-002	22.245
42534	0.7	3.25	0.	0.40435
42535	0.65	3.3	0.	-0.17776
42536	0.7	3.3	5.e-002	22.164
42537	0.7	3.15	0.	0.40249
42538	0.65	3.2	0.	-0.18094
42539	0.7	3.2	5.e-002	22.107
42540	0.7	3.05	0.	0.40156
42541	0.65	3.1	0.	-0.18283
42542	0.7	3.1	5.e-002	22.073
42543	0.7	2.95	0.	0.40156
42544	0.65	3.	0.	-0.18346
42545	0.7	3.	5.e-002	22.061
42546	0.7	2.85	0.	0.40249
42547	0.65	2.9	0.	-0.18283
42548	0.7	2.9	5.e-002	22.073
42549	0.7	2.75	0.	0.40435
42550	0.65	2.8	0.	-0.18094
42551	0.7	2.8	5.e-002	22.107
42552	0.7	2.65	0.	0.40716
42553	0.65	2.7	0.	-0.17776
42554	0.7	2.7	5.e-002	22.165
42555	0.7	2.55	0.	0.41094
42556	0.65	2.6	0.	-0.17326
42557	0.7	2.6	5.e-002	22.245
42558	0.7	2.45	0.	0.41572
42559	0.65	2.5	0.	-0.16738
42560	0.7	2.5	5.e-002	22.349
42561	0.7	2.35	0.	0.42154
42562	0.65	2.4	0.	-0.16006
42563	0.7	2.4	5.e-002	22.476
42564	0.7	2.25	0.	0.42842
42565	0.65	2.3	0.	-0.15122
42566	0.7	2.3	5.e-002	22.627
42567	0.7	2.15	0.	0.4364
42568	0.65	2.2	0.	-0.14075
42569	0.7	2.2	5.e-002	22.803
42570	0.7	2.05	0.	0.4455
42571	0.65	2.1	0.	-0.12855
42572	0.7	2.1	5.e-002	23.003
42573	0.7	1.95	0.	0.45574
42574	0.65	2.	0.	-0.11452
42575	0.7	2.	5.e-002	23.228
42576	0.7	1.85	0.	0.46709
42577	0.65	1.9	0.	-9.8518e-002
42578	0.7	1.9	5.e-002	23.479
42579	0.7	1.75	0.	0.47952
42580	0.65	1.8	0.	-8.045e-002
42581	0.7	1.8	5.e-002	23.758
42582	0.7	1.65	0.	0.49289
42583	0.65	1.7	0.	-6.0213e-002
42584	0.7	1.7	5.e-002	24.066
42585	0.7	1.55	0.	0.50705
42586	0.65	1.6	0.	-3.7741e-002
42587	0.7	1.6	5.e-002	24.407
42588	0.7	1.45	0.	0.52174
42589	0.65	1.5	0.	-1.3011e-002
42590	0.7	1.5	5.e-002	24.783
42591	0.7	1.35	0.	0.53665
42592	0.65	1.4	0.	1.3949e-002
42593	0.7	1.4	5.e-002	25.2
42594	0.7	1.25	0.	0.55146
42595	0.65	1.3	0.	4.3074e-002
42596	0.7	1.3	5.e-002	25.666
42597	0.7	1.15	0.	0.56607
42598	0.65	1.2	0.	7.4348e-002
42599	0.7	1.2	5.e-002	26.192
42600	0.7	1.05	0.	0.58104
42601	0.65	1.1	0.	0.10803
42602	0.7	1.1	5.e-002	26.792
42603	0.7	0.95	0.	0.59837
42604	0.65	1.	0.	0.14521
42605	0.7	1.	5.e-002	27.48
42606	0.7	0.85	0.	0.62311
42607	0.65	0.9	0.	0.18894
42608	0.7	0.9	5.e-002	28.271
42609	0.7	0.75	0.	0.66572
42610	0.65	0.8	0.	0.24644
42611	0.7	0.8	5.e-002	29.168
42612	0.7	0.65	0.	0.74581
42613	0.65	0.7	0.	0.33287
42614	0.7	0.7	5.e-002	30.15
42615	0.7	0.55	0.	0.89671
42616	0.65	0.6	0.	0.47825
42617	0.7	0.6	5.e-002	31.144
42618	0.7	0.45	0.	1.1841
42619	0.65	0.5	0.	0.73708
42620	0.7	0.5	5.e-002	32.003
42621	0.7	0.35	0.	1.7764
42622	0.65	0.4	0.	1.2379
42623	0.7	0.4	5.e-002	32.499
42624	0.7	0.25	0.	4.2379
42625	0.65	0.3	0.	2.4377
42626	0.7	0.3	5.e-002	32.351
42627	0.7	0.15	0.	101.04
42628	0.65	0.2	0.	18.141
42629	0.7	0.2	5.e-002	30.77
42630	0.65	0.1	0.	219.78
42631	0.7	0.1	5.e-002	20.244
42632	0.7	5.e-002	0.	107.45
42633	0.6	5.85	0.	117.01
42634	0.55	5.9	0.	251.93
42635	0.6	5.9	5.e-002	24.17
42636	0.6	5.95	0.	125.14
42637	0.6	5.75	0.	4.5606
42638	0.55	5.8	0.	21.75
42639	0.6	5.8	5.e-002	38.321
42640	0.6	5.65	0.	1.5017
42641	0.55	5.7	0.	3.9244
42642	0.6	5.7	5.e-002	39.458
42643	0.6	5.55	0.	0.68475
42644	0.55	5.6	0.	2.7099
42645	0.6	5.6	5.e-002	38.775
42646	0.6	5.45	0.	0.27065
42647	0.55	5.5	0.	2.2614
42648	0.6	5.5	5.e-002	37.356
42649	0.6	5.35	0.	3.8459e-002
42650	0.55	5.4	0.	2.0607
42651	0.6	5.4	5.e-002	35.655
42652	0.6	5.25	0.	-0.10299
42653	0.55	5.3	0.	1.9626
42654	0.6	5.3	5.e-002	33.975
42655	0.6	5.15	0.	-0.19848
42656	0.55	5.2	0.	1.909
42657	0.6	5.2	5.e-002	32.461
42658	0.6	5.05	0.	-0.27137
42659	0.55	5.1	0.	1.8725
42660	0.6	5.1	5.e-002	31.155
42661	0.6	4.95	0.	-0.33264
42662	0.55	5.	0.	1.8421
42663	0.6	5.	5.e-002	30.043
42664	0.6	4.85	0.	-0.38704
42665	0.55	4.9	0.	1.8139
42666	0.6	4.9	5.e-002	29.095
42667	0.6	4.75	0.	-0.43638
42668	0.55	4.8	0.	1.7872
42669	0.6	4.8	5.e-002	28.278
42670	0.6	4.65	0.	-0.48129
42671	0.55	4.7	0.	1.7621
42672	0.6	4.7	5.e-002	27.565
42673	0.6	4.55	0.	-0.52201
42674	0.55	4.6	0.	1.7388
42675	0.6	4.6	5.e-002	26.936
42676	0.6	4.45	0.	-0.55869
42677	0.55	4.5	0.	1.7177
42678	0.6	4.5	5.e-002	26.376
42679	0.6	4.35	0.	-0.59151
42680	0.55	4.4	0.	1.6987
42681	0.6	4.4	5.e-002	25.875
42682	0.6	4.25	0.	-0.62068
42683	0.55	4.3	0.	1.6818
42684	0.6	4.3	5.e-002	25.424
42685	0.6	4.15	0.	-0.64645
42686	0.55	4.2	0.	1.667
42687	0.6	4.2	5.e-002	25.018
42688	0.6	4.05	0.	-0.66908
42689	0.55	4.1	0.	1.6541
42690	0.6	4.1	5.e-002	24.654
42691	0.6	3.95	0.	-0.68882
42692	0.55	4.	0.	1.6429
42693	0.6	4.	5.e-002	24.328
42694	0.6	3.85	0.	-0.70591
42695	0.55	3.9	0.	1.6333
42696	0.6	3.9	5.e-002	24.038
42697	0.6	3.75	0.	-0.72056
42698	0.55	3.8	0.	1.6251
42699	0.6	3.8	5.e-002	23.783
42700	0.6	3.65	0.	-0.73297
42701	0.55	3.7	0.	1.6182
42702	0.6	3.7	5.e-002	23.56
42703	0.6	3.55	0.	-0.74331
42704	0.55	3.6	0.	1.6124
42705	0.6	3.6	5.e-002	23.369
42706	0.6	3.45	0.	-0.75171
42707	0.55	3.5	0.	1.6077
42708	0.6	3.5	5.e-002	23.209
42709	0.6	3.35	0.	-0.7583
42710	0.55	3.4	0.	1.6039
42711	0.6	3.4	5.e-002	23.079
42712	0.6	3.25	0.	-0.76316
42713	0.55	3.3	0.	1.6011
42714	0.6	3.3	5.e-002	22.978
42715	0.6	3.15	0.	-0.76637
42716	0.55	3.2	0.	1.5991
42717	0.6	3.2	5.e-002	22.907
42718	0.6	3.05	0.	-0.76796
42719	0.55	3.1	0.	1.5979
42720	0.6	3.1	5.e-002	22.864
42721	0.6	2.95	0.	-0.76796
42722	0.55	3.	0.	1.5975
42723	0.6	3.	5.e-002	22.85
42724	0.6	2.85	0.	-0.76637
42725	0.55	2.9	0.	1.5979
42726	0.6	2.9	5.e-002	22.864
42727	0.6	2.75	0.	-0.76316
42728	0.55	2.8	0.	1.5991
42729	0.6	2.8	5.e-002	22.907
42730	0.6	2.65	0.	-0.7583
42731	0.55	2.7	0.	1.6011
42732	0.6	2.7	5.e-002	22.978
42733	0.6	2.55	0.	-0.75171
42734	0.55	2.6	0.	1.6039
42735	0.6	2.6	5.e-002	23.079
42736	0.6	2.45	0.	-0.74331
42737	0.55	2.5	0.	1.6077
42738	0.6	2.5	5.e-002	23.209
42739	0.6	2.35	0.	-0.73297
42740	0.55	2.4	0.	1.6124
42741	0.6	2.4	5.e-002	23.369
42742	0.6	2.25	0.	-0.72056
42743	0.55	2.3	0.	1.6182
42744	0.6	2.3	5.e-002	23.56
42745	0.6	2.15	0.	-0.70591
42746	0.55	2.2	0.	1.6251
42747	0.6	2.2	5.e-002	23.783
42748	0.6	2.05	0.	-0.68882
42749	0.55	2.1	0.	1.6333
42750	0.6	2.1	5.e-002	24.039
42751	0.6	1.95	0.	-0.66908
42752	0.55	2.	0.	1.6429
42753	0.6	2.	5.e-002	24.328
42754	0.6	1.85	0.	-0.64645
42755	0.55	1.9	0.	1.6541
42756	0.6	1.9	5.e-002	24.654
42757	0.6	1.75	0.	-0.62068
42758	0.55	1.8	0.	1.667
42759	0.6	1.8	5.e-002	25.018
42760	0.6	1.65	0.	-0.59151
42761	0.55	1.7	0.	1.6818
42762	0.6	1.7	5.e-002	25.424
42763	0.6	1.55	0.	-0.55869
42764	0.55	1.6	0.	1.6987
42765	0.6	1.6	5.e-002	25.875
42766	0.6	1.45	0.	-0.52201
42767	0.55	1.5	0.	1.7177
42768	0.6	1.5	5.e-002	26.377
42769	0.6	1.35	0.	-0.48129
42770	0.55	1.4	0.	1.7388
42771	0.6	1.4	5.e-002	26.937
42772	0.6	1.25	0.	-0.43638
42773	0.55	1.3	0.	1.7621
42774	0.6	1.3	5.e-002	27.565
42775	0.6	1.15	0.	-0.38704
42776	0.55	1.2	0.	1.7872
42777	0.6	1.2	5.e-002	28.278
42778	0.6	1.05	0.	-0.33264
42779	0.55	1.1	0.	1.8139
42780	0.6	1.1	5.e-002	29.095
42781	0.6	0.95	0.	-0.27137
42782	0.55	1.	0.	1.8421
42783	0.6	1.	5.e-002	30.043
42784	0.6	0.85	0.	-0.19848
42785	0.55	0.9	0.	1.8725
42786	0.6	0.9	5.e-002	31.155
42787	0.6	0.75	0.	-0.10299
42788	0.55	0.8	0.	1.909
42789	0.6	0.8	5.e-002	32.461
42790	0.6	0.65	0.	3.8459e-002
42791	0.55	0.7	0.	1.9626
42792	0.6	0.7	5.e-002	33.975
42793	0.6	0.55	0.	0.27065
42794	0.55	0.6	0.	2.0607
42795	0.6	0.6	5.e-002	35.655
42796	0.6	0.45	0.	0.68475
42797	0.55	0.5	0.	2.2614
42798	0.6	0.5	5.e-002	37.356
42799	0.6	0.35	0.	1.5017
42800	0.55	0.4	0.	2.7099
42801	0.6	0.4	5.e-002	38.776
42802	0.6	0.25	0.	4.5607
42803	0.55	0.3	0.	3.9244
42804	0.6	0.3	5.e-002	39.458
42805	0.6	0.15	0.	117.01
42806	0.55	0.2	0.	21.75
42807	0.6	0.2	5.e-002	38.321
42808	0.55	0.1	0.	251.93
42809	0.6	0.1	5.e-002	24.17
42810	0.6	5.e-002	0.	125.14
42811	0.5	5.85	0.	133.43
42812	0.45	5.9	0.	288.88
42813	0.5	5.9	5.e-002	31.962
42814	0.5	5.95	0.	146.89
42815	0.5	5.75	0.	7.3834
42816	0.45	5.8	0.	22.25
42817	0.5	5.8	5.e-002	49.028
42818	0.5	5.65	0.	4.6455
42819	0.45	5.7	0.	1.4816
42820	0.5	5.7	5.e-002	49.043
42821	0.5	5.55	0.	4.1515
42822	0.45	5.6	0.	-0.89276
42823	0.5	5.6	5.e-002	46.806
42824	0.5	5.45	0.	3.9898
42825	0.45	5.5	0.	-2.0612
42826	0.5	5.5	5.e-002	43.891
42827	0.5	5.35	0.	3.9509
42828	0.45	5.4	0.	-2.7692
42829	0.5	5.4	5.e-002	40.983
42830	0.5	5.25	0.	3.9544
42831	0.45	5.3	0.	-3.2578
42832	0.5	5.3	5.e-002	38.408
42833	0.5	5.15	0.	3.9674
42834	0.45	5.2	0.	-3.6263
42835	0.5	5.2	5.e-002	36.244
42836	0.5	5.05	0.	3.9779
42837	0.45	5.1	0.	-3.9218
42838	0.5	5.1	5.e-002	34.454
42839	0.5	4.95	0.	3.9834
42840	0.45	5.	0.	-4.1665
42841	0.5	5.	5.e-002	32.965
42842	0.5	4.85	0.	3.9847
42843	0.45	4.9	0.	-4.3727
42844	0.5	4.9	5.e-002	31.711
42845	0.5	4.75	0.	3.9833
42846	0.45	4.8	0.	-4.548
42847	0.5	4.8	5.e-002	30.636
42848	0.5	4.65	0.	3.9806
42849	0.45	4.7	0.	-4.6976
42850	0.5	4.7	5.e-002	29.704
42851	0.5	4.55	0.	3.9774
42852	0.45	4.6	0.	-4.8257
42853	0.5	4.6	5.e-002	28.884
42854	0.5	4.45	0.	3.9742
42855	0.45	4.5	0.	-4.9357
42856	0.5	4.5	5.e-002	28.159
42857	0.5	4.35	0.	3.9714
42858	0.45	4.4	0.	-5.0303
42859	0.5	4.4	5.e-002	27.513
42860	0.5	4.25	0.	3.9691
42861	0.45	4.3	0.	-5.1117
42862	0.5	4.3	5.e-002	26.937
42863	0.5	4.15	0.	3.9672
42864	0.45	4.2	0.	-5.1818
42865	0.5	4.2	5.e-002	26.422
42866	0.5	4.05	0.	3.9658
42867	0.45	4.1	0.	-5.2421
42868	0.5	4.1	5.e-002	25.964
42869	0.5	3.95	0.	3.9648
42870	0.45	4.	0.	-5.294
42871	0.5	4.	5.e-002	25.556
42872	0.5	3.85	0.	3.9641
42873	0.45	3.9	0.	-5.3384
42874	0.5	3.9	5.e-002	25.196
42875	0.5	3.75	0.	3.9636
42876	0.45	3.8	0.	-5.3762
42877	0.5	3.8	5.e-002	24.881
42878	0.5	3.65	0.	3.9634
42879	0.45	3.7	0.	-5.4081
42880	0.5	3.7	5.e-002	24.607
42881	0.5	3.55	0.	3.9633
42882	0.45	3.6	0.	-5.4348
42883	0.5	3.6	5.e-002	24.374
42884	0.5	3.45	0.	3.9632
42885	0.45	3.5	0.	-5.4566
42886	0.5	3.5	5.e-002	24.179
42887	0.5	3.35	0.	3.9632
42888	0.45	3.4	0.	-5.474
42889	0.5	3.4	5.e-002	24.021
42890	0.5	3.25	0.	3.9633
42891	0.45	3.3	0.	-5.4873
42892	0.5	3.3	5.e-002	23.9
42893	0.5	3.15	0.	3.9633
42894	0.45	3.2	0.	-5.4966
42895	0.5	3.2	5.e-002	23.813
42896	0.5	3.05	0.	3.9633
42897	0.45	3.1	0.	-5.5021
42898	0.5	3.1	5.e-002	23.762
42899	0.5	2.95	0.	3.9633
42900	0.45	3.	0.	-5.504
42901	0.5	3.	5.e-002	23.745
42902	0.5	2.85	0.	3.9633
42903	0.45	2.9	0.	-5.5021
42904	0.5	2.9	5.e-002	23.762
42905	0.5	2.75	0.	3.9633
42906	0.45	2.8	0.	-5.4966
42907	0.5	2.8	5.e-002	23.813
42908	0.5	2.65	0.	3.9632
42909	0.45	2.7	0.	-5.4873
42910	0.5	2.7	5.e-002	23.9
42911	0.5	2.55	0.	3.9632
42912	0.45	2.6	0.	-5.474
42913	0.5	2.6	5.e-002	24.021
42914	0.5	2.45	0.	3.9633
42915	0.45	2.5	0.	-5.4566
42916	0.5	2.5	5.e-002	24.179
42917	0.5	2.35	0.	3.9634
42918	0.45	2.4	0.	-5.4348
42919	0.5	2.4	5.e-002	24.374
42920	0.5	2.25	0.	3.9636
42921	0.45	2.3	0.	-5.4081
42922	0.5	2.3	5.e-002	24.607
42923	0.5	2.15	0.	3.9641
42924	0.45	2.2	0.	-5.3762
42925	0.5	2.2	5.e-002	24.881
42926	0.5	2.05	0.	3.9648
42927	0.45	2.1	0.	-5.3384
42928	0.5	2.1	5.e-002	25.196
42929	0.5	1.95	0.	3.9658
42930	0.45	2.	0.	-5.294
42931	0.5	2.	5.e-002	25.556
42932	0.5	1.85	0.	3.9672
42933	0.45	1.9	0.	-5.2421
42934	0.5	1.9	5.e-002	25.964
42935	0.5	1.75	0.	3.9691
42936	0.45	1.8	0.	-5.1818
42937	0.5	1.8	5.e-002	26.423
42938	0.5	1.65	0.	3.9714
42939	0.45	1.7	0.	-5.1117
42940	0.5	1.7	5.e-002	26.937
42941	0.5	1.55	0.	3.9742
42942	0.45	1.6	0.	-5.0303
42943	0.5	1.6	5.e-002	27.513
42944	0.5	1.45	0.	3.9774
42945	0.45	1.5	0.	-4.9357
42946	0.5	1.5	5.e-002	28.159
42947	0.5	1.35	0.	3.9806
42948	0.45	1.4	0.	-4.8257
42949	0.5	1.4	5.e-002	28.885
42950	0.5	1.25	0.	3.9833
42951	0.45	1.3	0.	-4.6976
42952	0.5	1.3	5.e-002	29.704
42953	0.5	1.15	0.	3.9847
42954	0.45	1.2	0.	-4.548
42955	0.5	1.2	5.e-002	30.637
42956	0.5	1.05	0.	3.9834
42957	0.45	1.1	0.	-4.3727
42958	0.5	1.1	5.e-002	31.711
42959	0.5	0.95	0.	3.9779
42960	0.45	1.	0.	-4.1665
42961	0.5	1.	5.e-002	32.965
42962	0.5	0.85	0.	3.9674
42963	0.45	0.9	0.	-3.9218
42964	0.5	0.9	5.e-002	34.454
42965	0.5	0.75	0.	3.9544
42966	0.45	0.8	0.	-3.6263
42967	0.5	0.8	5.e-002	36.244
42968	0.5	0.65	0.	3.9509
42969	0.45	0.7	0.	-3.2578
42970	0.5	0.7	5.e-002	38.408
42971	0.5	0.55	0.	3.9898
42972	0.45	0.6	0.	-2.7692
42973	0.5	0.6	5.e-002	40.983
42974	0.5	0.45	0.	4.1515
42975	0.45	0.5	0.	-2.0612
42976	0.5	0.5	5.e-002	43.891
42977	0.5	0.35	0.	4.6456
42978	0.45	0.4	0.	-0.89276
42979	0.5	0.4	5.e-002	46.807
42980	0.5	0.25	0.	7.3834
42981	0.45	0.3	0.	1.4816
42982	0.5	0.3	5.e-002	49.044
42983	0.5	0.15	0.	133.43
42984	0.45	0.2	0.	22.25
42985	0.5	0.2	5.e-002	49.028
42986	0.45	0.1	0.	288.88
42987	0.5	0.1	5.e-002	31.962
42988	0.5	5.e-002	0.	146.89
42989	0.4	5.85	0.	146.19
42990	0.35	5.9	0.	330.87
42991	0.4	5.9	5.e-002	46.508
42992	0.4	5.95	0.	173.93
42993	0.4	5.75	0.	1.5348
42994	0.35	5.8	0.	30.048
42995	0.4	5.8	5.e-002	65.
42996	0.4	5.65	0.	-4.6703
42997	0.35	5.7	0.	17.336
42998	0.4	5.7	5.e-002	62.363
42999	0.4	5.55	0.	-7.2833
43000	0.35	5.6	0.	17.656
43001	0.4	5.6	5.e-002	57.171
43002	0.4	5.45	0.	-8.9012
43003	0.35	5.5	0.	18.37
43004	0.4	5.5	5.e-002	51.829
43005	0.4	5.35	0.	-10.021
43006	0.35	5.4	0.	19.05
43007	0.4	5.4	5.e-002	47.183
43008	0.4	5.25	0.	-10.863
43009	0.35	5.3	0.	19.632
43010	0.4	5.3	5.e-002	43.405
43011	0.4	5.15	0.	-11.53
43012	0.35	5.2	0.	20.117
43013	0.4	5.2	5.e-002	40.387
43014	0.4	5.05	0.	-12.075
43015	0.35	5.1	0.	20.524
43016	0.4	5.1	5.e-002	37.955
43017	0.4	4.95	0.	-12.528
43018	0.35	5.	0.	20.868
43019	0.4	5.	5.e-002	35.96
43020	0.4	4.85	0.	-12.909
43021	0.35	4.9	0.	21.163
43022	0.4	4.9	5.e-002	34.291
43023	0.4	4.75	0.	-13.231
43024	0.35	4.8	0.	21.419
43025	0.4	4.8	5.e-002	32.87
43026	0.4	4.65	0.	-13.506
43027	0.35	4.7	0.	21.642
43028	0.4	4.7	5.e-002	31.644
43029	0.4	4.55	0.	-13.74
43030	0.35	4.6	0.	21.837
43031	0.4	4.6	5.e-002	30.575
43032	0.4	4.45	0.	-13.941
43033	0.35	4.5	0.	22.009
43034	0.4	4.5	5.e-002	29.637
43035	0.4	4.35	0.	-14.114
43036	0.35	4.4	0.	22.16
43037	0.4	4.4	5.e-002	28.809
43038	0.4	4.25	0.	-14.263
43039	0.35	4.3	0.	22.294
43040	0.4	4.3	5.e-002	28.077
43041	0.4	4.15	0.	-14.391
43042	0.35	4.2	0.	22.411
43043	0.4	4.2	5.e-002	27.429
43044	0.4	4.05	0.	-14.502
43045	0.35	4.1	0.	22.514
43046	0.4	4.1	5.e-002	26.856
43047	0.4	3.95	0.	-14.597
43048	0.35	4.	0.	22.605
43049	0.4	4.	5.e-002	26.351
43050	0.4	3.85	0.	-14.679
43051	0.35	3.9	0.	22.684
43052	0.4	3.9	5.e-002	25.908
43053	0.4	3.75	0.	-14.748
43054	0.35	3.8	0.	22.752
43055	0.4	3.8	5.e-002	25.522
43056	0.4	3.65	0.	-14.806
43057	0.35	3.7	0.	22.811
43058	0.4	3.7	5.e-002	25.19
43059	0.4	3.55	0.	-14.855
43060	0.35	3.6	0.	22.86
43061	0.4	3.6	5.e-002	24.907
43062	0.4	3.45	0.	-14.894
43063	0.35	3.5	0.	22.901
43064	0.4	3.5	5.e-002	24.672
43065	0.4	3.35	0.	-14.925
43066	0.35	3.4	0.	22.934
43067	0.4	3.4	5.e-002	24.483
43068	0.4	3.25	0.	-14.947
43069	0.35	3.3	0.	22.959
43070	0.4	3.3	5.e-002	24.337
43071	0.4	3.15	0.	-14.962
43072	0.35	3.2	0.	22.977
43073	0.4	3.2	5.e-002	24.234
43074	0.4	3.05	0.	-14.969
43075	0.35	3.1	0.	22.987
43076	0.4	3.1	5.e-002	24.172
43077	0.4	2.95	0.	-14.969
43078	0.35	3.	0.	22.991
43079	0.4	3.	5.e-002	24.152
43080	0.4	2.85	0.	-14.962
43081	0.35	2.9	0.	22.987
43082	0.4	2.9	5.e-002	24.172
43083	0.4	2.75	0.	-14.947
43084	0.35	2.8	0.	22.977
43085	0.4	2.8	5.e-002	24.234
43086	0.4	2.65	0.	-14.925
43087	0.35	2.7	0.	22.959
43088	0.4	2.7	5.e-002	24.337
43089	0.4	2.55	0.	-14.894
43090	0.35	2.6	0.	22.934
43091	0.4	2.6	5.e-002	24.483
43092	0.4	2.45	0.	-14.855
43093	0.35	2.5	0.	22.901
43094	0.4	2.5	5.e-002	24.673
43095	0.4	2.35	0.	-14.806
43096	0.35	2.4	0.	22.86
43097	0.4	2.4	5.e-002	24.907
43098	0.4	2.25	0.	-14.748
43099	0.35	2.3	0.	22.811
43100	0.4	2.3	5.e-002	25.19
43101	0.4	2.15	0.	-14.679
43102	0.35	2.2	0.	22.752
43103	0.4	2.2	5.e-002	25.522
43104	0.4	2.05	0.	-14.597
43105	0.35	2.1	0.	22.684
43106	0.4	2.1	5.e-002	25.908
43107	0.4	1.95	0.	-14.502
43108	0.35	2.	0.	22.605
43109	0.4	2.	5.e-002	26.351
43110	0.4	1.85	0.	-14.391
43111	0.35	1.9	0.	22.514
43112	0.4	1.9	5.e-002	26.856
43113	0.4	1.75	0.	-14.263
43114	0.35	1.8	0.	22.411
43115	0.4	1.8	5.e-002	27.429
43116	0.4	1.65	0.	-14.114
43117	0.35	1.7	0.	22.294
43118	0.4	1.7	5.e-002	28.077
43119	0.4	1.55	0.	-13.941
43120	0.35	1.6	0.	22.16
43121	0.4	1.6	5.e-002	28.809
43122	0.4	1.45	0.	-13.74
43123	0.35	1.5	0.	22.009
43124	0.4	1.5	5.e-002	29.637
43125	0.4	1.35	0.	-13.506
43126	0.35	1.4	0.	21.837
43127	0.4	1.4	5.e-002	30.576
43128	0.4	1.25	0.	-13.231
43129	0.35	1.3	0.	21.642
43130	0.4	1.3	5.e-002	31.644
43131	0.4	1.15	0.	-12.909
43132	0.35	1.2	0.	21.419
43133	0.4	1.2	5.e-002	32.87
43134	0.4	1.05	0.	-12.528
43135	0.35	1.1	0.	21.163
43136	0.4	1.1	5.e-002	34.291
43137	0.4	0.95	0.	-12.075
43138	0.35	1.	0.	20.868
43139	0.4	1.	5.e-002	35.96
43140	0.4	0.85	0.	-11.53
43141	0.35	0.9	0.	20.524
43142	0.4	0.9	5.e-002	37.955
43143	0.4	0.75	0.	-10.863
43144	0.35	0.8	0.	20.117
43145	0.4	0.8	5.e-002	40.387
43146	0.4	0.65	0.	-10.021
43147	0.35	0.7	0.	19.632
43148	0.4	0.7	5.e-002	43.405
43149	0.4	0.55	0.	-8.9012
43150	0.35	0.6	0.	19.05
43151	0.4	0.6	5.e-002	47.183
43152	0.4	0.45	0.	-7.2833
43153	0.35	0.5	0.	18.37
43154	0.4	0.5	5.e-002	51.829
43155	0.4	0.35	0.	-4.6703
43156	0.35	0.4	0.	17.656
43157	0.4	0.4	5.e-002	57.171
43158	0.4	0.25	0.	1.5348
43159	0.35	0.3	0.	17.336
43160	0.4	0.3	5.e-002	62.363
43161	0.4	0.15	0.	146.19
43162	0.35	0.2	0.	30.048
43163	0.4	0.2	5.e-002	65.001
43164	0.35	0.1	0.	330.87
43165	0.4	0.1	5.e-002	46.509
43166	0.4	5.e-002	0.	173.93
43167	0.3	5.85	0.	154.66
43168	0.25	5.9	0.	371.73
43169	0.3	5.9	5.e-002	72.443
43170	0.3	5.95	0.	209.76
43171	0.3	5.75	0.	34.059
43172	0.25	5.8	0.	1.6086
43173	0.3	5.8	5.e-002	88.708
43174	0.3	5.65	0.	38.912
43175	0.25	5.7	0.	-35.011
43176	0.3	5.7	5.e-002	79.976
43177	0.3	5.55	0.	43.073
43178	0.25	5.6	0.	-49.517
43179	0.3	5.6	5.e-002	69.737
43180	0.3	5.45	0.	46.216
43181	0.25	5.5	0.	-58.554
43182	0.3	5.5	5.e-002	61.167
43183	0.3	5.35	0.	48.651
43184	0.25	5.4	0.	-64.864
43185	0.3	5.4	5.e-002	54.594
43186	0.3	5.25	0.	50.586
43187	0.25	5.3	0.	-69.56
43188	0.3	5.3	5.e-002	49.637
43189	0.3	5.15	0.	52.157
43190	0.25	5.2	0.	-73.21
43191	0.3	5.2	5.e-002	45.827
43192	0.3	5.05	0.	53.46
43193	0.25	5.1	0.	-76.129
43194	0.3	5.1	5.e-002	42.814
43195	0.3	4.95	0.	54.556
43196	0.25	5.	0.	-78.513
43197	0.3	5.	5.e-002	40.365
43198	0.3	4.85	0.	55.489
43199	0.25	4.9	0.	-80.489
43200	0.3	4.9	5.e-002	38.328
43201	0.3	4.75	0.	56.29
43202	0.25	4.8	0.	-82.148
43203	0.3	4.8	5.e-002	36.605
43204	0.3	4.65	0.	56.983
43205	0.25	4.7	0.	-83.553
43206	0.3	4.7	5.e-002	35.128
43207	0.3	4.55	0.	57.585
43208	0.25	4.6	0.	-84.751
43209	0.3	4.6	5.e-002	33.849
43210	0.3	4.45	0.	58.11
43211	0.25	4.5	0.	-85.78
43212	0.3	4.5	5.e-002	32.734
43213	0.3	4.35	0.	58.568
43214	0.25	4.4	0.	-86.667
43215	0.3	4.4	5.e-002	31.758
43216	0.3	4.25	0.	58.968
43217	0.25	4.3	0.	-87.434
43218	0.3	4.3	5.e-002	30.9
43219	0.3	4.15	0.	59.317
43220	0.25	4.2	0.	-88.098
43221	0.3	4.2	5.e-002	30.146
43222	0.3	4.05	0.	59.622
43223	0.25	4.1	0.	-88.672
43224	0.3	4.1	5.e-002	29.484
43225	0.3	3.95	0.	59.886
43226	0.25	4.	0.	-89.169
43227	0.3	4.	5.e-002	28.903
43228	0.3	3.85	0.	60.115
43229	0.25	3.9	0.	-89.597
43230	0.3	3.9	5.e-002	28.396
43231	0.3	3.75	0.	60.311
43232	0.25	3.8	0.	-89.964
43233	0.3	3.8	5.e-002	27.956
43234	0.3	3.65	0.	60.477
43235	0.25	3.7	0.	-90.276
43236	0.3	3.7	5.e-002	27.579
43237	0.3	3.55	0.	60.616
43238	0.25	3.6	0.	-90.537
43239	0.3	3.6	5.e-002	27.259
43240	0.3	3.45	0.	60.729
43241	0.25	3.5	0.	-90.752
43242	0.3	3.5	5.e-002	26.994
43243	0.3	3.35	0.	60.817
43244	0.25	3.4	0.	-90.924
43245	0.3	3.4	5.e-002	26.78
43246	0.3	3.25	0.	60.883
43247	0.25	3.3	0.	-91.055
43248	0.3	3.3	5.e-002	26.616
43249	0.3	3.15	0.	60.926
43250	0.25	3.2	0.	-91.147
43251	0.3	3.2	5.e-002	26.5
43252	0.3	3.05	0.	60.948
43253	0.25	3.1	0.	-91.202
43254	0.3	3.1	5.e-002	26.431
43255	0.3	2.95	0.	60.948
43256	0.25	3.	0.	-91.22
43257	0.3	3.	5.e-002	26.408
43258	0.3	2.85	0.	60.926
43259	0.25	2.9	0.	-91.202
43260	0.3	2.9	5.e-002	26.431
43261	0.3	2.75	0.	60.883
43262	0.25	2.8	0.	-91.147
43263	0.3	2.8	5.e-002	26.5
43264	0.3	2.65	0.	60.817
43265	0.25	2.7	0.	-91.055
43266	0.3	2.7	5.e-002	26.616
43267	0.3	2.55	0.	60.729
43268	0.25	2.6	0.	-90.924
43269	0.3	2.6	5.e-002	26.78
43270	0.3	2.45	0.	60.616
43271	0.25	2.5	0.	-90.752
43272	0.3	2.5	5.e-002	26.994
43273	0.3	2.35	0.	60.477
43274	0.25	2.4	0.	-90.537
43275	0.3	2.4	5.e-002	27.259
43276	0.3	2.25	0.	60.311
43277	0.25	2.3	0.	-90.276
43278	0.3	2.3	5.e-002	27.579
43279	0.3	2.15	0.	60.115
43280	0.25	2.2	0.	-89.964
43281	0.3	2.2	5.e-002	27.956
43282	0.3	2.05	0.	59.886
43283	0.25	2.1	0.	-89.597
43284	0.3	2.1	5.e-002	28.396
43285	0.3	1.95	0.	59.622
43286	0.25	2.	0.	-89.169
43287	0.3	2.	5.e-002	28.903
43288	0.3	1.85	0.	59.317
43289	0.25	1.9	0.	-88.672
43290	0.3	1.9	5.e-002	29.484
43291	0.3	1.75	0.	58.968
43292	0.25	1.8	0.	-88.098
43293	0.3	1.8	5.e-002	30.147
43294	0.3	1.65	0.	58.568
43295	0.25	1.7	0.	-87.434
43296	0.3	1.7	5.e-002	30.901
43297	0.3	1.55	0.	58.11
43298	0.25	1.6	0.	-86.667
43299	0.3	1.6	5.e-002	31.758
43300	0.3	1.45	0.	57.585
43301	0.25	1.5	0.	-85.78
43302	0.3	1.5	5.e-002	32.735
43303	0.3	1.35	0.	56.983
43304	0.25	1.4	0.	-84.751
43305	0.3	1.4	5.e-002	33.849
43306	0.3	1.25	0.	56.29
43307	0.25	1.3	0.	-83.553
43308	0.3	1.3	5.e-002	35.128
43309	0.3	1.15	0.	55.489
43310	0.25	1.2	0.	-82.148
43311	0.3	1.2	5.e-002	36.606
43312	0.3	1.05	0.	54.556
43313	0.25	1.1	0.	-80.489
43314	0.3	1.1	5.e-002	38.329
43315	0.3	0.95	0.	53.46
43316	0.25	1.	0.	-78.513
43317	0.3	1.	5.e-002	40.365
43318	0.3	0.85	0.	52.157
43319	0.25	0.9	0.	-76.129
43320	0.3	0.9	5.e-002	42.814
43321	0.3	0.75	0.	50.586
43322	0.25	0.8	0.	-73.21
43323	0.3	0.8	5.e-002	45.827
43324	0.3	0.65	0.	48.651
43325	0.25	0.7	0.	-69.56
43326	0.3	0.7	5.e-002	49.637
43327	0.3	0.55	0.	46.216
43328	0.25	0.6	0.	-64.864
43329	0.3	0.6	5.e-002	54.594
43330	0.3	0.45	0.	43.073
43331	0.25	0.5	0.	-58.554
43332	0.3	0.5	5.e-002	61.167
43333	0.3	0.35	0.	38.912
43334	0.25	0.4	0.	-49.517
43335	0.3	0.4	5.e-002	69.737
43336	0.3	0.25	0.	34.059
43337	0.25	0.3	0.	-35.011
43338	0.3	0.3	5.e-002	79.976
43339	0.3	0.15	0.	154.66
43340	0.25	0.2	0.	1.6086
43341	0.3	0.2	5.e-002	88.708
43342	0.25	0.1	0.	371.73
43343	0.3	0.1	5.e-002	72.444
43344	0.3	5.e-002	0.	209.76
43345	0.2	5.85	0.	116.03
43346	0.15	5.9	0.	365.81
43347	0.2	5.9	5.e-002	125.68
43348	0.2	5.95	0.	260.96
43349	0.2	5.75	0.	-79.967
43350	0.15	5.8	0.	154.35
43351	0.2	5.8	5.e-002	129.93
43352	0.2	5.65	0.	-124.47
43353	0.15	5.7	0.	198.15
43354	0.2	5.7	5.e-002	106.03
43355	0.2	5.55	0.	-151.46
43356	0.15	5.6	0.	232.4
43357	0.2	5.6	5.e-002	86.319
43358	0.2	5.45	0.	-169.77
43359	0.15	5.5	0.	257.27
43360	0.2	5.5	5.e-002	71.922
43361	0.2	5.35	0.	-183.14
43362	0.15	5.4	0.	276.18
43363	0.2	5.4	5.e-002	61.707
43364	0.2	5.25	0.	-193.39
43365	0.15	5.3	0.	290.97
43366	0.2	5.3	5.e-002	54.213
43367	0.2	5.15	0.	-201.51
43368	0.15	5.2	0.	302.87
43369	0.2	5.2	5.e-002	48.508
43370	0.2	5.05	0.	-208.11
43371	0.15	5.1	0.	312.63
43372	0.2	5.1	5.e-002	44.023
43373	0.2	4.95	0.	-213.56
43374	0.15	5.	0.	320.76
43375	0.2	5.	5.e-002	40.405
43376	0.2	4.85	0.	-218.13
43377	0.15	4.9	0.	327.61
43378	0.2	4.9	5.e-002	37.427
43379	0.2	4.75	0.	-221.99
43380	0.15	4.8	0.	333.44
43381	0.2	4.8	5.e-002	34.937
43382	0.2	4.65	0.	-225.29
43383	0.15	4.7	0.	338.43
43384	0.2	4.7	5.e-002	32.83
43385	0.2	4.55	0.	-228.12
43386	0.15	4.6	0.	342.73
43387	0.2	4.6	5.e-002	31.03
43388	0.2	4.45	0.	-230.56
43389	0.15	4.5	0.	346.46
43390	0.2	4.5	5.e-002	29.48
43391	0.2	4.35	0.	-232.67
43392	0.15	4.4	0.	349.69
43393	0.2	4.4	5.e-002	28.14
43394	0.2	4.25	0.	-234.5
43395	0.15	4.3	0.	352.5
43396	0.2	4.3	5.e-002	26.976
43397	0.2	4.15	0.	-236.09
43398	0.15	4.2	0.	354.95
43399	0.2	4.2	5.e-002	25.964
43400	0.2	4.05	0.	-237.46
43401	0.15	4.1	0.	357.08
43402	0.2	4.1	5.e-002	25.082
43403	0.2	3.95	0.	-238.65
43404	0.15	4.	0.	358.92
43405	0.2	4.	5.e-002	24.316
43406	0.2	3.85	0.	-239.68
43407	0.15	3.9	0.	360.52
43408	0.2	3.9	5.e-002	23.653
43409	0.2	3.75	0.	-240.55
43410	0.15	3.8	0.	361.89
43411	0.2	3.8	5.e-002	23.082
43412	0.2	3.65	0.	-241.29
43413	0.15	3.7	0.	363.05
43414	0.2	3.7	5.e-002	22.595
43415	0.2	3.55	0.	-241.9
43416	0.15	3.6	0.	364.03
43417	0.2	3.6	5.e-002	22.184
43418	0.2	3.45	0.	-242.4
43419	0.15	3.5	0.	364.84
43420	0.2	3.5	5.e-002	21.845
43421	0.2	3.35	0.	-242.79
43422	0.15	3.4	0.	365.49
43423	0.2	3.4	5.e-002	21.573
43424	0.2	3.25	0.	-243.08
43425	0.15	3.3	0.	365.98
43426	0.2	3.3	5.e-002	21.365
43427	0.2	3.15	0.	-243.27
43428	0.15	3.2	0.	366.33
43429	0.2	3.2	5.e-002	21.218
43430	0.2	3.05	0.	-243.37
43431	0.15	3.1	0.	366.54
43432	0.2	3.1	5.e-002	21.131
43433	0.2	2.95	0.	-243.37
43434	0.15	3.	0.	366.61
43435	0.2	3.	5.e-002	21.102
43436	0.2	2.85	0.	-243.27
43437	0.15	2.9	0.	366.54
43438	0.2	2.9	5.e-002	21.131
43439	0.2	2.75	0.	-243.08
43440	0.15	2.8	0.	366.33
43441	0.2	2.8	5.e-002	21.218
43442	0.2	2.65	0.	-242.79
43443	0.15	2.7	0.	365.98
43444	0.2	2.7	5.e-002	21.365
43445	0.2	2.55	0.	-242.4
43446	0.15	2.6	0.	365.49
43447	0.2	2.6	5.e-002	21.573
43448	0.2	2.45	0.	-241.9
43449	0.15	2.5	0.	364.84
43450	0.2	2.5	5.e-002	21.845
43451	0.2	2.35	0.	-241.29
43452	0.15	2.4	0.	364.03
43453	0.2	2.4	5.e-002	22.184
43454	0.2	2.25	0.	-240.55
43455	0.15	2.3	0.	363.05
43456	0.2	2.3	5.e-002	22.595
43457	0.2	2.15	0.	-239.68
43458	0.15	2.2	0.	361.89
43459	0.2	2.2	5.e-002	23.082
43460	0.2	2.05	0.	-238.65
43461	0.15	2.1	0.	360.52
43462	0.2	2.1	5.e-002	23.653
43463	0.2	1.95	0.	-237.46
43464	0.15	2.	0.	358.92
43465	0.2	2.	5.e-002	24.317
43466	0.2	1.85	0.	-236.09
43467	0.15	1.9	0.	357.08
43468	0.2	1.9	5.e-002	25.083
43469	0.2	1.75	0.	-234.5
43470	0.15	1.8	0.	354.95
43471	0.2	1.8	5.e-002	25.964
43472	0.2	1.65	0.	-232.67
43473	0.15	1.7	0.	352.5
43474	0.2	1.7	5.e-002	26.976
43475	0.2	1.55	0.	-230.56
43476	0.15	1.6	0.	349.69
43477	0.2	1.6	5.e-002	28.14
43478	0.2	1.45	0.	-228.12
43479	0.15	1.5	0.	346.46
43480	0.2	1.5	5.e-002	29.481
43481	0.2	1.35	0.	-225.29
43482	0.15	1.4	0.	342.73
43483	0.2	1.4	5.e-002	31.03
43484	0.2	1.25	0.	-221.99
43485	0.15	1.3	0.	338.43
43486	0.2	1.3	5.e-002	32.831
43487	0.2	1.15	0.	-218.13
43488	0.15	1.2	0.	333.44
43489	0.2	1.2	5.e-002	34.938
43490	0.2	1.05	0.	-213.56
43491	0.15	1.1	0.	327.61
43492	0.2	1.1	5.e-002	37.428
43493	0.2	0.95	0.	-208.11
43494	0.15	1.	0.	320.76
43495	0.2	1.	5.e-002	40.406
43496	0.2	0.85	0.	-201.51
43497	0.15	0.9	0.	312.63
43498	0.2	0.9	5.e-002	44.024
43499	0.2	0.75	0.	-193.39
43500	0.15	0.8	0.	302.87
43501	0.2	0.8	5.e-002	48.508
43502	0.2	0.65	0.	-183.14
43503	0.15	0.7	0.	290.97
43504	0.2	0.7	5.e-002	54.213
43505	0.2	0.55	0.	-169.77
43506	0.15	0.6	0.	276.18
43507	0.2	0.6	5.e-002	61.708
43508	0.2	0.45	0.	-151.46
43509	0.15	0.5	0.	257.27
43510	0.2	0.5	5.e-002	71.922
43511	0.2	0.35	0.	-124.47
43512	0.15	0.4	0.	232.4
43513	0.2	0.4	5.e-002	86.319
43514	0.2	0.25	0.	-79.967
43515	0.15	0.3	0.	198.15
43516	0.2	0.3	5.e-002	106.03
43517	0.2	0.15	0.	116.03
43518	0.15	0.2	0.	154.35
43519	0.2	0.2	5.e-002	129.93
43520	0.15	0.1	0.	365.81
43521	0.2	0.1	5.e-002	125.68
43522	0.2	5.e-002	0.	260.96
43523	0.1	5.85	0.	240.18
43524	0.1	5.9	5.e-002	237.89
43525	0.1	5.95	0.	300.46
43526	5.e-002	5.9	0.	268.48
43527	0.1	5.75	0.	427.89
43528	0.1	5.8	5.e-002	185.95
43529	5.e-002	5.8	0.	-461.23
43530	0.1	5.65	0.	554.25
43531	0.1	5.7	5.e-002	136.9
43532	5.e-002	5.7	0.	-715.29
43533	0.1	5.55	0.	641.04
43534	0.1	5.6	5.e-002	108.64
43535	5.e-002	5.6	0.	-875.86
43536	0.1	5.45	0.	703.27
43537	0.1	5.5	5.e-002	92.333
43538	5.e-002	5.5	0.	-986.28
43539	0.1	5.35	0.	750.36
43540	0.1	5.4	5.e-002	81.835
43541	5.e-002	5.4	0.	-1067.4
43542	0.1	5.25	0.	787.29
43543	0.1	5.3	5.e-002	74.581
43544	5.e-002	5.3	0.	-1129.9
43545	0.1	5.15	0.	817.06
43546	0.1	5.2	5.e-002	69.285
43547	5.e-002	5.2	0.	-1179.5
43548	0.1	5.05	0.	841.54
43549	0.1	5.1	5.e-002	65.251
43550	5.e-002	5.1	0.	-1219.9
43551	0.1	4.95	0.	861.97
43552	0.1	5.	5.e-002	62.077
43553	5.e-002	5.	0.	-1253.4
43554	0.1	4.85	0.	879.21
43555	0.1	4.9	5.e-002	59.514
43556	5.e-002	4.9	0.	-1281.4
43557	0.1	4.75	0.	893.89
43558	0.1	4.8	5.e-002	57.401
43559	5.e-002	4.8	0.	-1305.2
43560	0.1	4.65	0.	906.48
43561	0.1	4.7	5.e-002	55.632
43562	5.e-002	4.7	0.	-1325.5
43563	0.1	4.55	0.	917.34
43564	0.1	4.6	5.e-002	54.132
43565	5.e-002	4.6	0.	-1342.9
43566	0.1	4.45	0.	926.73
43567	0.1	4.5	5.e-002	52.848
43568	5.e-002	4.5	0.	-1358.
43569	0.1	4.35	0.	934.89
43570	0.1	4.4	5.e-002	51.741
43571	5.e-002	4.4	0.	-1371.
43572	0.1	4.25	0.	941.97
43573	0.1	4.3	5.e-002	50.781
43574	5.e-002	4.3	0.	-1382.4
43575	0.1	4.15	0.	948.13
43576	0.1	4.2	5.e-002	49.946
43577	5.e-002	4.2	0.	-1392.2
43578	0.1	4.05	0.	953.48
43579	0.1	4.1	5.e-002	49.22
43580	5.e-002	4.1	0.	-1400.8
43581	0.1	3.95	0.	958.11
43582	0.1	4.	5.e-002	48.588
43583	5.e-002	4.	0.	-1408.2
43584	0.1	3.85	0.	962.1
43585	0.1	3.9	5.e-002	48.04
43586	5.e-002	3.9	0.	-1414.6
43587	0.1	3.75	0.	965.51
43588	0.1	3.8	5.e-002	47.568
43589	5.e-002	3.8	0.	-1420.1
43590	0.1	3.65	0.	968.4
43591	0.1	3.7	5.e-002	47.165
43592	5.e-002	3.7	0.	-1424.8
43593	0.1	3.55	0.	970.8
43594	0.1	3.6	5.e-002	46.824
43595	5.e-002	3.6	0.	-1428.7
43596	0.1	3.45	0.	972.76
43597	0.1	3.5	5.e-002	46.543
43598	5.e-002	3.5	0.	-1432.
43599	0.1	3.35	0.	974.29
43600	0.1	3.4	5.e-002	46.316
43601	5.e-002	3.4	0.	-1434.6
43602	0.1	3.25	0.	975.42
43603	0.1	3.3	5.e-002	46.143
43604	5.e-002	3.3	0.	-1436.5
43605	0.1	3.15	0.	976.17
43606	0.1	3.2	5.e-002	46.021
43607	5.e-002	3.2	0.	-1437.9
43608	0.1	3.05	0.	976.54
43609	0.1	3.1	5.e-002	45.948
43610	5.e-002	3.1	0.	-1438.8
43611	0.1	2.95	0.	976.54
43612	0.1	3.	5.e-002	45.924
43613	5.e-002	3.	0.	-1439.
43614	0.1	2.85	0.	976.17
43615	0.1	2.9	5.e-002	45.948
43616	5.e-002	2.9	0.	-1438.8
43617	0.1	2.75	0.	975.42
43618	0.1	2.8	5.e-002	46.021
43619	5.e-002	2.8	0.	-1437.9
43620	0.1	2.65	0.	974.29
43621	0.1	2.7	5.e-002	46.143
43622	5.e-002	2.7	0.	-1436.5
43623	0.1	2.55	0.	972.76
43624	0.1	2.6	5.e-002	46.317
43625	5.e-002	2.6	0.	-1434.6
43626	0.1	2.45	0.	970.8
43627	0.1	2.5	5.e-002	46.543
43628	5.e-002	2.5	0.	-1432.
43629	0.1	2.35	0.	968.4
43630	0.1	2.4	5.e-002	46.824
43631	5.e-002	2.4	0.	-1428.7
43632	0.1	2.25	0.	965.51
43633	0.1	2.3	5.e-002	47.165
43634	5.e-002	2.3	0.	-1424.8
43635	0.1	2.15	0.	962.1
43636	0.1	2.2	5.e-002	47.568
43637	5.e-002	2.2	0.	-1420.1
43638	0.1	2.05	0.	958.11
43639	0.1	2.1	5.e-002	48.041
43640	5.e-002	2.1	0.	-1414.6
43641	0.1	1.95	0.	953.48
43642	0.1	2.	5.e-002	48.589
43643	5.e-002	2.	0.	-1408.2
43644	0.1	1.85	0.	948.13
43645	0.1	1.9	5.e-002	49.22
43646	5.e-002	1.9	0.	-1400.8
43647	0.1	1.75	0.	941.97
43648	0.1	1.8	5.e-002	49.947
43649	5.e-002	1.8	0.	-1392.2
43650	0.1	1.65	0.	934.89
43651	0.1	1.7	5.e-002	50.781
43652	5.e-002	1.7	0.	-1382.4
43653	0.1	1.55	0.	926.73
43654	0.1	1.6	5.e-002	51.741
43655	5.e-002	1.6	0.	-1371.
43656	0.1	1.45	0.	917.34
43657	0.1	1.5	5.e-002	52.849
43658	5.e-002	1.5	0.	-1358.
43659	0.1	1.35	0.	906.48
43660	0.1	1.4	5.e-002	54.133
43661	5.e-002	1.4	0.	-1342.9
43662	0.1	1.25	0.	893.89
43663	0.1	1.3	5.e-002	55.633
43664	5.e-002	1.3	0.	-1325.5
43665	0.1	1.15	0.	879.21
43666	0.1	1.2	5.e-002	57.402
43667	5.e-002	1.2	0.	-1305.2
43668	0.1	1.05	0.	861.97
43669	0.1	1.1	5.e-002	59.514
43670	5.e-002	1.1	0.	-1281.4
43671	0.1	0.95	0.	841.54
43672	0.1	1.	5.e-002	62.077
43673	5.e-002	1.	0.	-1253.4
43674	0.1	0.85	0.	817.06
43675	0.1	0.9	5.e-002	65.252
43676	5.e-002	0.9	0.	-1219.9
43677	0.1	0.75	0.	787.29
43678	0.1	0.8	5.e-002	69.285
43679	5.e-002	0.8	0.	-1179.5
43680	0.1	0.65	0.	750.36
43681	0.1	0.7	5.e-002	74.582
43682	5.e-002	0.7	0.	-1129.9
43683	0.1	0.55	0.	703.27
43684	0.1	0.6	5.e-002	81.835
43685	5.e-002	0.6	0.	-1067.4
43686	0.1	0.45	0.	641.04
43687	0.1	0.5	5.e-002	92.333
43688	5.e-002	0.5	0.	-986.28
43689	0.1	0.35	0.	554.25
43690	0.1	0.4	5.e-002	108.64
43691	5.e-002	0.4	0.	-875.86
43692	0.1	0.25	0.	427.89
43693	0.1	0.3	5.e-002	136.9
43694	5.e-002	0.3	0.	-715.29
43695	0.1	0.15	0.	240.18
43696	0.1	0.2	5.e-002	185.95
43697	5.e-002	0.2	0.	-461.23
43698	0.1	0.1	5.e-002	237.89
43699	0.1	5.e-002	0.	300.46
43700	5.e-002	0.1	0.	268.49
43701	8.0833	2.15	0.	1099.5
43702	8.0833	2.1	5.e-002	879.14
43703	8.0833	2.05	0.	700.51
43704	8.0833	2.25	0.	1435.5
43705	8.0833	2.2	5.e-002	306.37
43706	8.0833	2.35	0.	1340.2
43707	8.0833	2.3	5.e-002	148.08
43708	8.0833	2.45	0.	1218.9
43709	8.0833	2.4	5.e-002	90.829
43710	8.0833	2.55	0.	1120.6
43711	8.0833	2.5	5.e-002	58.452
43712	8.0833	2.65	0.	1047.6
43713	8.0833	2.6	5.e-002	38.854
43714	8.0833	2.75	0.	996.54
43715	8.0833	2.7	5.e-002	25.528
43716	8.0833	2.85	0.	964.26
43717	8.0833	2.8	5.e-002	15.585
43718	8.0833	2.95	0.	948.64
43719	8.0833	2.9	5.e-002	7.4707
43720	8.0833	3.05	0.	948.64
43721	8.0833	3.	5.e-002	1.1775
43722	8.0833	3.15	0.	964.26
43723	8.0833	3.1	5.e-002	7.4704
43724	8.0833	3.25	0.	996.54
43725	8.0833	3.2	5.e-002	15.584
43726	8.0833	3.35	0.	1047.6
43727	8.0833	3.3	5.e-002	25.527
43728	8.0833	3.45	0.	1120.6
43729	8.0833	3.4	5.e-002	38.853
43730	8.0833	3.55	0.	1218.9
43731	8.0833	3.5	5.e-002	58.451
43732	8.0833	3.65	0.	1340.2
43733	8.0833	3.6	5.e-002	90.828
43734	8.0833	3.75	0.	1435.5
43735	8.0833	3.7	5.e-002	148.08
43736	8.0833	3.85	0.	1099.5
43737	8.0833	3.8	5.e-002	306.36
43738	8.0833	3.9	5.e-002	879.13
43739	8.0833	3.95	0.	700.51
43740	8.316	5.9	0.	77.013
43741	8.2662	5.85	0.	115.13
43742	8.2662	5.9	5.e-002	41.228
43743	8.2662	5.95	0.	35.615
43744	8.2165	5.9	0.	40.131
43745	8.4156	5.9	0.	72.567
43746	8.3658	5.85	0.	75.528
43747	8.3658	5.9	5.e-002	38.509
43748	8.3658	5.95	0.	24.006
43749	8.5152	5.9	0.	74.554
43750	8.4654	5.85	0.	70.825
43751	8.4654	5.9	5.e-002	37.091
43752	8.4654	5.95	0.	25.956
43753	8.6148	5.9	0.	75.749
43754	8.565	5.85	0.	72.371
43755	8.565	5.9	5.e-002	35.674
43756	8.565	5.95	0.	28.769
43757	8.7144	5.9	0.	75.271
43758	8.6646	5.85	0.	74.246
43759	8.6646	5.9	5.e-002	34.107
43760	8.6646	5.95	0.	30.347
43761	8.8139	5.9	0.	73.407
43762	8.7642	5.85	0.	75.168
43763	8.7642	5.9	5.e-002	32.369
43764	8.7642	5.95	0.	30.876
43765	8.9135	5.9	0.	70.498
43766	8.8637	5.85	0.	74.873
43767	8.8637	5.9	5.e-002	30.478
43768	8.8637	5.95	0.	30.598
43769	9.0131	5.9	0.	66.866
43770	8.9633	5.85	0.	73.448
43771	8.9633	5.9	5.e-002	28.472
43772	8.9633	5.95	0.	29.734
43773	9.1127	5.9	0.	62.775
43774	9.0629	5.85	0.	71.082
43775	9.0629	5.9	5.e-002	26.395
43776	9.0629	5.95	0.	28.461
43777	9.2123	5.9	0.	58.436
43778	9.1625	5.85	0.	67.989
43779	9.1625	5.9	5.e-002	24.291
43780	9.1625	5.95	0.	26.917
43781	9.3118	5.9	0.	54.012
43782	9.2621	5.85	0.	64.368
43783	9.2621	5.9	5.e-002	22.199
43784	9.2621	5.95	0.	25.211
43785	9.4114	5.9	0.	49.628
43786	9.3616	5.85	0.	60.399
43787	9.3616	5.9	5.e-002	20.153
43788	9.3616	5.95	0.	23.425
43789	9.511	5.9	0.	45.371
43790	9.4612	5.85	0.	56.231
43791	9.4612	5.9	5.e-002	18.18
43792	9.4612	5.95	0.	21.621
43793	9.6106	5.9	0.	41.303
43794	9.5608	5.85	0.	51.988
43795	9.5608	5.9	5.e-002	16.301
43796	9.5608	5.95	0.	19.845
43797	9.7102	5.9	0.	37.464
43798	9.6604	5.85	0.	47.767
43799	9.6604	5.9	5.e-002	14.529
43800	9.6604	5.95	0.	18.13
43801	9.8097	5.9	0.	33.88
43802	9.76	5.85	0.	43.645
43803	9.76	5.9	5.e-002	12.875
43804	9.76	5.95	0.	16.498
43805	9.9093	5.9	0.	30.56
43806	9.8595	5.85	0.	39.677
43807	9.8595	5.9	5.e-002	11.341
43808	9.8595	5.95	0.	14.964
43809	10.009	5.9	0.	27.507
43810	9.9591	5.85	0.	35.902
43811	9.9591	5.9	5.e-002	9.9304
43812	9.9591	5.95	0.	13.535
43813	10.108	5.9	0.	24.716
43814	10.059	5.85	0.	32.348
43815	10.059	5.9	5.e-002	8.64
43816	10.059	5.95	0.	12.216
43817	10.208	5.9	0.	22.18
43818	10.158	5.85	0.	29.031
43819	10.158	5.9	5.e-002	7.4661
43820	10.158	5.95	0.	11.006
43821	10.308	5.9	0.	19.885
43822	10.258	5.85	0.	25.957
43823	10.258	5.9	5.e-002	6.4036
43824	10.258	5.95	0.	9.9025
43825	10.407	5.9	0.	17.818
43826	10.357	5.85	0.	23.129
43827	10.357	5.9	5.e-002	5.4462
43828	10.357	5.95	0.	8.9028
43829	10.507	5.9	0.	15.966
43830	10.457	5.85	0.	20.543
43831	10.457	5.9	5.e-002	4.5868
43832	10.457	5.95	0.	8.0018
43833	10.606	5.9	0.	14.313
43834	10.557	5.85	0.	18.192
43835	10.557	5.9	5.e-002	3.8184
43836	10.557	5.95	0.	7.1938
43837	10.706	5.9	0.	12.844
43838	10.656	5.85	0.	16.067
43839	10.656	5.9	5.e-002	3.1337
43840	10.656	5.95	0.	6.4731
43841	10.806	5.9	0.	11.546
43842	10.756	5.85	0.	14.156
43843	10.756	5.9	5.e-002	2.5258
43844	10.756	5.95	0.	5.8339
43845	10.905	5.9	0.	10.405
43846	10.855	5.85	0.	12.448
43847	10.855	5.9	5.e-002	1.9879
43848	10.855	5.95	0.	5.2704
43849	11.005	5.9	0.	9.4093
43850	10.955	5.85	0.	10.931
43851	10.955	5.9	5.e-002	1.5135
43852	10.955	5.95	0.	4.777
43853	11.104	5.9	0.	8.5457
43854	11.055	5.85	0.	9.5913
43855	11.055	5.9	5.e-002	1.0967
43856	11.055	5.95	0.	4.3484
43857	11.204	5.9	0.	7.8035
43858	11.154	5.85	0.	8.417
43859	11.154	5.9	5.e-002	0.73221
43860	11.154	5.95	0.	3.9793
43861	11.303	5.9	0.	7.1721
43862	11.254	5.85	0.	7.3959
43863	11.254	5.9	5.e-002	0.4161
43864	11.254	5.95	0.	3.6651
43865	11.403	5.9	0.	6.642
43866	11.353	5.85	0.	6.516
43867	11.353	5.9	5.e-002	0.15291
43868	11.353	5.95	0.	3.401
43869	11.503	5.9	0.	6.2039
43870	11.453	5.85	0.	5.7659
43871	11.453	5.9	5.e-002	0.13576
43872	11.453	5.95	0.	3.1828
43873	11.602	5.9	0.	5.8496
43874	11.552	5.85	0.	5.1349
43875	11.552	5.9	5.e-002	0.32732
43876	11.552	5.95	0.	3.0065
43877	11.702	5.9	0.	5.5713
43878	11.652	5.85	0.	4.6127
43879	11.652	5.9	5.e-002	0.50195
43880	11.652	5.95	0.	2.8681
43881	11.801	5.9	0.	5.3617
43882	11.752	5.85	0.	4.1894
43883	11.752	5.9	5.e-002	0.65242
43884	11.752	5.95	0.	2.7642
43885	11.901	5.9	0.	5.2143
43886	11.851	5.85	0.	3.8561
43887	11.851	5.9	5.e-002	0.78035
43888	11.851	5.95	0.	2.6913
43889	12.001	5.9	0.	5.1229
43890	11.951	5.85	0.	3.6041
43891	11.951	5.9	5.e-002	0.88822
43892	11.951	5.95	0.	2.6464
43893	12.1	5.9	0.	5.0819
43894	12.05	5.85	0.	3.4254
43895	12.05	5.9	5.e-002	0.97823
43896	12.05	5.95	0.	2.6266
43897	12.2	5.9	0.	5.0862
43898	12.15	5.85	0.	3.3127
43899	12.15	5.9	5.e-002	1.0525
43900	12.15	5.95	0.	2.6292
43901	12.299	5.9	0.	5.131
43902	12.249	5.85	0.	3.2593
43903	12.249	5.9	5.e-002	1.1128
43904	12.249	5.95	0.	2.6519
43905	12.399	5.9	0.	5.2121
43906	12.349	5.85	0.	3.2589
43907	12.349	5.9	5.e-002	1.1611
43908	12.349	5.95	0.	2.6925
43909	12.498	5.9	0.	5.3256
43910	12.449	5.85	0.	3.3059
43911	12.449	5.9	5.e-002	1.1988
43912	12.449	5.95	0.	2.749
43913	12.598	5.9	0.	5.4678
43914	12.548	5.85	0.	3.395
43915	12.548	5.9	5.e-002	1.2273
43916	12.548	5.95	0.	2.8197
43917	12.698	5.9	0.	5.6355
43918	12.648	5.85	0.	3.5216
43919	12.648	5.9	5.e-002	1.2477
43920	12.648	5.95	0.	2.9028
43921	12.797	5.9	0.	5.8257
43922	12.747	5.85	0.	3.6813
43923	12.747	5.9	5.e-002	1.2612
43924	12.747	5.95	0.	2.997
43925	12.897	5.9	0.	6.0357
43926	12.847	5.85	0.	3.8702
43927	12.847	5.9	5.e-002	1.2687
43928	12.847	5.95	0.	3.101
43929	12.996	5.9	0.	6.263
43930	12.947	5.85	0.	4.0848
43931	12.947	5.9	5.e-002	1.2712
43932	12.947	5.95	0.	3.2135
43933	13.096	5.9	0.	6.5053
43934	13.046	5.85	0.	4.3216
43935	13.046	5.9	5.e-002	1.2692
43936	13.046	5.95	0.	3.3334
43937	13.195	5.9	0.	6.7606
43938	13.146	5.85	0.	4.5777
43939	13.146	5.9	5.e-002	1.2636
43940	13.146	5.95	0.	3.4597
43941	13.295	5.9	0.	7.027
43942	13.245	5.85	0.	4.8504
43943	13.245	5.9	5.e-002	1.2548
43944	13.245	5.95	0.	3.5916
43945	13.395	5.9	0.	7.3028
43946	13.345	5.85	0.	5.1373
43947	13.345	5.9	5.e-002	1.2434
43948	13.345	5.95	0.	3.7282
43949	13.494	5.9	0.	7.5866
43950	13.444	5.85	0.	5.436
43951	13.444	5.9	5.e-002	1.23
43952	13.444	5.95	0.	3.8688
43953	13.594	5.9	0.	7.8769
43954	13.544	5.85	0.	5.7446
43955	13.544	5.9	5.e-002	1.2148
43956	13.544	5.95	0.	4.0127
43957	13.693	5.9	0.	8.1725
43958	13.644	5.85	0.	6.0613
43959	13.644	5.9	5.e-002	1.1982
43960	13.644	5.95	0.	4.1594
43961	13.793	5.9	0.	8.4723
43962	13.743	5.85	0.	6.3845
43963	13.743	5.9	5.e-002	1.1806
43964	13.743	5.95	0.	4.3082
43965	13.893	5.9	0.	8.7755
43966	13.843	5.85	0.	6.7129
43967	13.843	5.9	5.e-002	1.1621
43968	13.843	5.95	0.	4.4588
43969	13.992	5.9	0.	9.081
43970	13.942	5.85	0.	7.0451
43971	13.942	5.9	5.e-002	1.1431
43972	13.942	5.95	0.	4.6107
43973	14.092	5.9	0.	9.3881
43974	14.042	5.85	0.	7.38
43975	14.042	5.9	5.e-002	1.1238
43976	14.042	5.95	0.	4.7634
43977	14.191	5.9	0.	9.6962
43978	14.142	5.85	0.	7.7167
43979	14.142	5.9	5.e-002	1.1041
43980	14.142	5.95	0.	4.9167
43981	14.291	5.9	0.	10.005
43982	14.241	5.85	0.	8.0543
43983	14.241	5.9	5.e-002	1.0844
43984	14.241	5.95	0.	5.0704
43985	14.39	5.9	0.	10.313
43986	14.341	5.85	0.	8.3921
43987	14.341	5.9	5.e-002	1.0647
43988	14.341	5.95	0.	5.224
43989	14.49	5.9	0.	10.621
43990	14.44	5.85	0.	8.7295
43991	14.44	5.9	5.e-002	1.0452
43992	14.44	5.95	0.	5.3776
43993	14.59	5.9	0.	10.928
43994	14.54	5.85	0.	9.0659
43995	14.54	5.9	5.e-002	1.026
43996	14.54	5.95	0.	5.5307
43997	14.689	5.9	0.	11.233
43998	14.639	5.85	0.	9.4008
43999	14.639	5.9	5.e-002	1.0071
44000	14.639	5.95	0.	5.6833
44001	14.789	5.9	0.	11.537
44002	14.739	5.85	0.	9.7339
44003	14.739	5.9	5.e-002	0.98851
44004	14.739	5.95	0.	5.8353
44005	14.888	5.9	0.	11.84
44006	14.839	5.85	0.	10.065
44007	14.839	5.9	5.e-002	0.97045
44008	14.839	5.95	0.	5.9865
44009	14.988	5.9	0.	12.14
44010	14.938	5.85	0.	10.393
44011	14.938	5.9	5.e-002	0.9529
44012	14.938	5.95	0.	6.1369
44013	15.088	5.9	0.	12.439
44014	15.038	5.85	0.	10.719
44015	15.038	5.9	5.e-002	0.93593
44016	15.038	5.95	0.	6.2864
44017	15.187	5.9	0.	12.735
44018	15.137	5.85	0.	11.043
44019	15.137	5.9	5.e-002	0.91952
44020	15.137	5.95	0.	6.4349
44021	15.287	5.9	0.	13.03
44022	15.237	5.85	0.	11.363
44023	15.237	5.9	5.e-002	0.90372
44024	15.237	5.95	0.	6.5825
44025	15.386	5.9	0.	13.322
44026	15.336	5.85	0.	11.68
44027	15.336	5.9	5.e-002	0.88856
44028	15.336	5.95	0.	6.729
44029	15.486	5.9	0.	13.612
44030	15.436	5.85	0.	11.995
44031	15.436	5.9	5.e-002	0.87404
44032	15.436	5.95	0.	6.8745
44033	15.585	5.9	0.	13.899
44034	15.536	5.85	0.	12.306
44035	15.536	5.9	5.e-002	0.86011
44036	15.536	5.95	0.	7.0189
44037	15.685	5.9	0.	14.185
44038	15.635	5.85	0.	12.615
44039	15.635	5.9	5.e-002	0.84681
44040	15.635	5.95	0.	7.1624
44041	15.785	5.9	0.	14.468
44042	15.735	5.85	0.	12.92
44043	15.735	5.9	5.e-002	0.83417
44044	15.735	5.95	0.	7.3049
44045	15.884	5.9	0.	14.749
44046	15.834	5.85	0.	13.223
44047	15.834	5.9	5.e-002	0.82219
44048	15.834	5.95	0.	7.4464
44049	15.984	5.9	0.	15.028
44050	15.934	5.85	0.	13.523
44051	15.934	5.9	5.e-002	0.81086
44052	15.934	5.95	0.	7.5869
44053	16.083	5.9	0.	15.305
44054	16.034	5.85	0.	13.82
44055	16.034	5.9	5.e-002	0.80015
44056	16.034	5.95	0.	7.7266
44057	16.183	5.9	0.	15.58
44058	16.133	5.85	0.	14.114
44059	16.133	5.9	5.e-002	0.79004
44060	16.133	5.95	0.	7.8654
44061	16.282	5.9	0.	15.853
44062	16.233	5.85	0.	14.406
44063	16.233	5.9	5.e-002	0.78063
44064	16.233	5.95	0.	8.0034
44065	16.382	5.9	0.	16.125
44066	16.332	5.85	0.	14.696
44067	16.332	5.9	5.e-002	0.77189
44068	16.332	5.95	0.	8.1407
44069	16.482	5.9	0.	16.395
44070	16.432	5.85	0.	14.983
44071	16.432	5.9	5.e-002	0.76373
44072	16.432	5.95	0.	8.2773
44073	16.581	5.9	0.	16.664
44074	16.531	5.85	0.	15.268
44075	16.531	5.9	5.e-002	0.75624
44076	16.531	5.95	0.	8.4132
44077	16.681	5.9	0.	16.931
44078	16.631	5.85	0.	15.551
44079	16.631	5.9	5.e-002	0.74939
44080	16.631	5.95	0.	8.5485
44081	16.78	5.9	0.	17.197
44082	16.731	5.85	0.	15.833
44083	16.731	5.9	5.e-002	0.74313
44084	16.731	5.95	0.	8.6833
44085	16.88	5.9	0.	17.461
44086	16.83	5.85	0.	16.113
44087	16.83	5.9	5.e-002	0.73752
44088	16.83	5.95	0.	8.8176
44089	16.98	5.9	0.	17.725
44090	16.93	5.85	0.	16.391
44091	16.93	5.9	5.e-002	0.73253
44092	16.93	5.95	0.	8.9515
44093	17.079	5.9	0.	17.987
44094	17.029	5.85	0.	16.667
44095	17.029	5.9	5.e-002	0.7281
44096	17.029	5.95	0.	9.085
44097	17.179	5.9	0.	18.249
44098	17.129	5.85	0.	16.943
44099	17.129	5.9	5.e-002	0.72428
44100	17.129	5.95	0.	9.2182
44101	17.278	5.9	0.	18.51
44102	17.229	5.85	0.	17.217
44103	17.229	5.9	5.e-002	0.72104
44104	17.229	5.95	0.	9.3512
44105	17.378	5.9	0.	18.77
44106	17.328	5.85	0.	17.491
44107	17.328	5.9	5.e-002	0.7184
44108	17.328	5.95	0.	9.484
44109	17.477	5.9	0.	19.03
44110	17.428	5.85	0.	17.763
44111	17.428	5.9	5.e-002	0.71633
44112	17.428	5.95	0.	9.6166
44113	17.577	5.9	0.	19.289
44114	17.527	5.85	0.	18.035
44115	17.527	5.9	5.e-002	0.71484
44116	17.527	5.95	0.	9.7491
44117	17.677	5.9	0.	19.548
44118	17.627	5.85	0.	18.306
44119	17.627	5.9	5.e-002	0.71395
44120	17.627	5.95	0.	9.8816
44121	17.776	5.9	0.	19.807
44122	17.726	5.85	0.	18.577
44123	17.726	5.9	5.e-002	0.71368
44124	17.726	5.95	0.	10.014
44125	17.876	5.9	0.	20.065
44126	17.826	5.85	0.	18.847
44127	17.826	5.9	5.e-002	0.714
44128	17.826	5.95	0.	10.147
44129	17.975	5.9	0.	20.323
44130	17.926	5.85	0.	19.118
44131	17.926	5.9	5.e-002	0.7149
44132	17.926	5.95	0.	10.279
44133	18.075	5.9	0.	20.581
44134	18.025	5.85	0.	19.388
44135	18.025	5.9	5.e-002	0.71643
44136	18.025	5.95	0.	10.412
44137	18.175	5.9	0.	20.839
44138	18.125	5.85	0.	19.658
44139	18.125	5.9	5.e-002	0.71852
44140	18.125	5.95	0.	10.545
44141	18.274	5.9	0.	21.097
44142	18.224	5.85	0.	19.928
44143	18.224	5.9	5.e-002	0.72126
44144	18.224	5.95	0.	10.679
44145	18.374	5.9	0.	21.355
44146	18.324	5.85	0.	20.199
44147	18.324	5.9	5.e-002	0.72461
44148	18.324	5.95	0.	10.812
44149	18.473	5.9	0.	21.613
44150	18.423	5.85	0.	20.469
44151	18.423	5.9	5.e-002	0.72855
44152	18.423	5.95	0.	10.946
44153	18.573	5.9	0.	21.871
44154	18.523	5.85	0.	20.741
44155	18.523	5.9	5.e-002	0.7331
44156	18.523	5.95	0.	11.08
44157	18.672	5.9	0.	22.129
44158	18.623	5.85	0.	21.012
44159	18.623	5.9	5.e-002	0.73829
44160	18.623	5.95	0.	11.214
44161	18.772	5.9	0.	22.388
44162	18.722	5.85	0.	21.284
44163	18.722	5.9	5.e-002	0.74412
44164	18.722	5.95	0.	11.349
44165	18.872	5.9	0.	22.646
44166	18.822	5.85	0.	21.556
44167	18.822	5.9	5.e-002	0.7506
44168	18.822	5.95	0.	11.484
44169	18.971	5.9	0.	22.905
44170	18.921	5.85	0.	21.829
44171	18.921	5.9	5.e-002	0.75775
44172	18.921	5.95	0.	11.619
44173	19.071	5.9	0.	23.163
44174	19.021	5.85	0.	22.103
44175	19.021	5.9	5.e-002	0.76554
44176	19.021	5.95	0.	11.755
44177	19.17	5.9	0.	23.421
44178	19.121	5.85	0.	22.377
44179	19.121	5.9	5.e-002	0.77405
44180	19.121	5.95	0.	11.891
44181	19.27	5.9	0.	23.68
44182	19.22	5.85	0.	22.652
44183	19.22	5.9	5.e-002	0.78328
44184	19.22	5.95	0.	12.028
44185	19.369	5.9	0.	23.938
44186	19.32	5.85	0.	22.927
44187	19.32	5.9	5.e-002	0.79323
44188	19.32	5.95	0.	12.165
44189	19.469	5.9	0.	24.195
44190	19.419	5.85	0.	23.203
44191	19.419	5.9	5.e-002	0.80393
44192	19.419	5.95	0.	12.302
44193	19.569	5.9	0.	24.452
44194	19.519	5.85	0.	23.479
44195	19.519	5.9	5.e-002	0.81537
44196	19.519	5.95	0.	12.439
44197	19.668	5.9	0.	24.709
44198	19.618	5.85	0.	23.756
44199	19.618	5.9	5.e-002	0.82761
44200	19.618	5.95	0.	12.576
44201	19.768	5.9	0.	24.965
44202	19.718	5.85	0.	24.033
44203	19.718	5.9	5.e-002	0.84066
44204	19.718	5.95	0.	12.714
44205	19.867	5.9	0.	25.22
44206	19.818	5.85	0.	24.31
44207	19.818	5.9	5.e-002	0.85453
44208	19.818	5.95	0.	12.851
44209	19.967	5.9	0.	25.473
44210	19.917	5.85	0.	24.587
44211	19.917	5.9	5.e-002	0.86924
44212	19.917	5.95	0.	12.989
44213	20.067	5.9	0.	25.725
44214	20.017	5.85	0.	24.864
44215	20.017	5.9	5.e-002	0.8848
44216	20.017	5.95	0.	13.127
44217	20.166	5.9	0.	25.976
44218	20.116	5.85	0.	25.141
44219	20.116	5.9	5.e-002	0.90128
44220	20.116	5.95	0.	13.264
44221	20.266	5.9	0.	26.224
44222	20.216	5.85	0.	25.418
44223	20.216	5.9	5.e-002	0.91868
44224	20.216	5.95	0.	13.401
44225	20.365	5.9	0.	26.47
44226	20.316	5.85	0.	25.693
44227	20.316	5.9	5.e-002	0.93701
44228	20.316	5.95	0.	13.538
44229	20.465	5.9	0.	26.713
44230	20.415	5.85	0.	25.968
44231	20.415	5.9	5.e-002	0.95633
44232	20.415	5.95	0.	13.674
44233	20.564	5.9	0.	26.953
44234	20.515	5.85	0.	26.242
44235	20.515	5.9	5.e-002	0.97667
44236	20.515	5.95	0.	13.809
44237	20.664	5.9	0.	27.189
44238	20.614	5.85	0.	26.513
44239	20.614	5.9	5.e-002	0.99808
44240	20.614	5.95	0.	13.944
44241	20.764	5.9	0.	27.421
44242	20.714	5.85	0.	26.783
44243	20.714	5.9	5.e-002	1.0206
44244	20.714	5.95	0.	14.077
44245	20.863	5.9	0.	27.648
44246	20.813	5.85	0.	27.051
44247	20.813	5.9	5.e-002	1.0442
44248	20.813	5.95	0.	14.21
44249	20.963	5.9	0.	27.87
44250	20.913	5.85	0.	27.316
44251	20.913	5.9	5.e-002	1.069
44252	20.913	5.95	0.	14.34
44253	21.062	5.9	0.	28.085
44254	21.013	5.85	0.	27.577
44255	21.013	5.9	5.e-002	1.095
44256	21.013	5.95	0.	14.469
44257	21.162	5.9	0.	28.294
44258	21.112	5.85	0.	27.835
44259	21.112	5.9	5.e-002	1.1222
44260	21.112	5.95	0.	14.596
44261	21.262	5.9	0.	28.495
44262	21.212	5.85	0.	28.088
44263	21.212	5.9	5.e-002	1.1508
44264	21.212	5.95	0.	14.72
44265	21.361	5.9	0.	28.687
44266	21.311	5.85	0.	28.336
44267	21.311	5.9	5.e-002	1.1806
44268	21.311	5.95	0.	14.842
44269	21.461	5.9	0.	28.87
44270	21.411	5.85	0.	28.578
44271	21.411	5.9	5.e-002	1.2119
44272	21.411	5.95	0.	14.96
44273	21.56	5.9	0.	29.041
44274	21.51	5.85	0.	28.813
44275	21.51	5.9	5.e-002	1.2446
44276	21.51	5.95	0.	15.075
44277	21.66	5.9	0.	29.201
44278	21.61	5.85	0.	29.041
44279	21.61	5.9	5.e-002	1.2788
44280	21.61	5.95	0.	15.186
44281	21.759	5.9	0.	29.347
44282	21.71	5.85	0.	29.259
44283	21.71	5.9	5.e-002	1.3146
44284	21.71	5.95	0.	15.292
44285	21.859	5.9	0.	29.477
44286	21.809	5.85	0.	29.468
44287	21.809	5.9	5.e-002	1.352
44288	21.809	5.95	0.	15.394
44289	21.959	5.9	0.	29.591
44290	21.909	5.85	0.	29.666
44291	21.909	5.9	5.e-002	1.3911
44292	21.909	5.95	0.	15.489
44293	22.058	5.9	0.	29.686
44294	22.008	5.85	0.	29.852
44295	22.008	5.9	5.e-002	1.432
44296	22.008	5.95	0.	15.577
44297	22.158	5.9	0.	29.759
44298	22.108	5.85	0.	30.023
44299	22.108	5.9	5.e-002	1.4748
44300	22.108	5.95	0.	15.658
44301	22.257	5.9	0.	29.809
44302	22.208	5.85	0.	30.178
44303	22.208	5.9	5.e-002	1.5195
44304	22.208	5.95	0.	15.731
44305	22.357	5.9	0.	29.832
44306	22.307	5.85	0.	30.316
44307	22.307	5.9	5.e-002	1.5662
44308	22.307	5.95	0.	15.794
44309	22.456	5.9	0.	29.825
44310	22.407	5.85	0.	30.433
44311	22.407	5.9	5.e-002	1.6151
44312	22.407	5.95	0.	15.846
44313	22.556	5.9	0.	29.784
44314	22.506	5.85	0.	30.528
44315	22.506	5.9	5.e-002	1.6663
44316	22.506	5.95	0.	15.886
44317	22.656	5.9	0.	29.704
44318	22.606	5.85	0.	30.598
44319	22.606	5.9	5.e-002	1.7198
44320	22.606	5.95	0.	15.912
44321	22.755	5.9	0.	29.58
44322	22.705	5.85	0.	30.639
44323	22.705	5.9	5.e-002	1.776
44324	22.705	5.95	0.	15.921
44325	22.855	5.9	0.	29.406
44326	22.805	5.85	0.	30.648
44327	22.805	5.9	5.e-002	1.8349
44328	22.805	5.95	0.	15.912
44329	22.954	5.9	0.	29.174
44330	22.905	5.85	0.	30.621
44331	22.905	5.9	5.e-002	1.8969
44332	22.905	5.95	0.	15.881
44333	23.054	5.9	0.	28.874
44334	23.004	5.85	0.	30.552
44335	23.004	5.9	5.e-002	1.9621
44336	23.004	5.95	0.	15.825
44337	23.154	5.9	0.	28.494
44338	23.104	5.85	0.	30.437
44339	23.104	5.9	5.e-002	2.0309
44340	23.104	5.95	0.	15.739
44341	23.253	5.9	0.	28.02
44342	23.203	5.85	0.	30.27
44343	23.203	5.9	5.e-002	2.104
44344	23.203	5.95	0.	15.616
44345	23.353	5.9	0.	27.433
44346	23.303	5.85	0.	30.046
44347	23.303	5.9	5.e-002	2.1821
44348	23.303	5.95	0.	15.448
44349	23.452	5.9	0.	26.709
44350	23.403	5.85	0.	29.761
44351	23.403	5.9	5.e-002	2.2664
44352	23.403	5.95	0.	15.224
44353	23.552	5.9	0.	25.819
44354	23.502	5.85	0.	29.417
44355	23.502	5.9	5.e-002	2.3593
44356	23.502	5.95	0.	14.926
44357	23.651	5.9	0.	24.735
44358	23.602	5.85	0.	29.035
44359	23.602	5.9	5.e-002	2.4656
44360	23.602	5.95	0.	14.53
44361	23.751	5.9	0.	23.46
44362	23.701	5.85	0.	28.686
44363	23.701	5.9	5.e-002	2.5975
44364	23.701	5.95	0.	13.992
44365	23.851	5.9	0.	22.405
44366	23.801	5.85	0.	28.604
44367	23.801	5.9	5.e-002	2.7916
44368	23.801	5.95	0.	13.27
44369	23.9	5.85	0.	29.782
44370	23.9	5.9	5.e-002	3.2792
44371	23.95	5.9	0.	20.281
44372	23.9	5.95	0.	12.433
44373	8.316	5.8	0.	104.79
44374	8.2662	5.75	0.	186.96
44375	8.2662	5.8	5.e-002	35.737
44376	8.2165	5.8	0.	76.975
44377	8.4156	5.8	0.	72.09
44378	8.3658	5.75	0.	106.42
44379	8.3658	5.8	5.e-002	33.082
44380	8.5152	5.8	0.	68.175
44381	8.4654	5.75	0.	84.19
44382	8.4654	5.8	5.e-002	32.126
44383	8.6148	5.8	0.	70.585
44384	8.565	5.75	0.	79.51
44385	8.565	5.8	5.e-002	30.741
44386	8.7144	5.8	0.	73.867
44387	8.6646	5.75	0.	80.465
44388	8.6646	5.8	5.e-002	29.134
44389	8.8139	5.8	0.	76.352
44390	8.7642	5.75	0.	82.74
44391	8.7642	5.8	5.e-002	27.365
44392	8.9135	5.8	0.	77.545
44393	8.8637	5.75	0.	84.572
44394	8.8637	5.8	5.e-002	25.486
44395	9.0131	5.8	0.	77.402
44396	8.9633	5.75	0.	85.309
44397	8.9633	5.8	5.e-002	23.54
44398	9.1127	5.8	0.	76.057
44399	9.0629	5.75	0.	84.791
44400	9.0629	5.8	5.e-002	21.566
44401	9.2123	5.8	0.	73.709
44402	9.1625	5.75	0.	83.084
44403	9.1625	5.8	5.e-002	19.6
44404	9.3118	5.8	0.	70.571
44405	9.2621	5.75	0.	80.352
44406	9.2621	5.8	5.e-002	17.674
44407	9.4114	5.8	0.	66.846
44408	9.3616	5.75	0.	76.796
44409	9.3616	5.8	5.e-002	15.813
44410	9.511	5.8	0.	62.719
44411	9.4612	5.75	0.	72.62
44412	9.4612	5.8	5.e-002	14.036
44413	9.6106	5.8	0.	58.348
44414	9.5608	5.75	0.	68.012
44415	9.5608	5.8	5.e-002	12.357
44416	9.7102	5.8	0.	53.865
44417	9.6604	5.75	0.	63.141
44418	9.6604	5.8	5.e-002	10.785
44419	9.8097	5.8	0.	49.378
44420	9.76	5.75	0.	58.147
44421	9.76	5.8	5.e-002	9.325
44422	9.9093	5.8	0.	44.972
44423	9.8595	5.75	0.	53.148
44424	9.8595	5.8	5.e-002	7.9775
44425	10.009	5.8	0.	40.71
44426	9.9591	5.75	0.	48.236
44427	9.9591	5.8	5.e-002	6.7414
44428	10.108	5.8	0.	36.641
44429	10.059	5.75	0.	43.482
44430	10.059	5.8	5.e-002	5.6135
44431	10.208	5.8	0.	32.795
44432	10.158	5.75	0.	38.938
44433	10.158	5.8	5.e-002	4.589
44434	10.308	5.8	0.	29.196
44435	10.258	5.75	0.	34.642
44436	10.258	5.8	5.e-002	3.6623
44437	10.407	5.8	0.	25.854
44438	10.357	5.75	0.	30.618
44439	10.357	5.8	5.e-002	2.8271
44440	10.507	5.8	0.	22.774
44441	10.457	5.75	0.	26.88
44442	10.457	5.8	5.e-002	2.0772
44443	10.606	5.8	0.	19.955
44444	10.557	5.75	0.	23.433
44445	10.557	5.8	5.e-002	1.4066
44446	10.706	5.8	0.	17.39
44447	10.656	5.75	0.	20.277
44448	10.656	5.8	5.e-002	0.81202
44449	10.806	5.8	0.	15.072
44450	10.756	5.75	0.	17.406
44451	10.756	5.8	5.e-002	0.30904
44452	10.905	5.8	0.	12.989
44453	10.855	5.75	0.	14.812
44454	10.855	5.8	5.e-002	0.28203
44455	11.005	5.8	0.	11.13
44456	10.955	5.75	0.	12.482
44457	10.955	5.8	5.e-002	0.67012
44458	11.104	5.8	0.	9.4807
44459	11.055	5.75	0.	10.403
44460	11.055	5.8	5.e-002	1.0386
44461	11.204	5.8	0.	8.0288
44462	11.154	5.75	0.	8.5619
44463	11.154	5.8	5.e-002	1.3684
44464	11.303	5.8	0.	6.7602
44465	11.254	5.75	0.	6.9426
44466	11.254	5.8	5.e-002	1.6606
44467	11.403	5.8	0.	5.6616
44468	11.353	5.75	0.	5.5305
44469	11.353	5.8	5.e-002	1.9187
44470	11.503	5.8	0.	4.7199
44471	11.453	5.75	0.	4.3108
44472	11.453	5.8	5.e-002	2.1459
44473	11.602	5.8	0.	3.9223
44474	11.552	5.75	0.	3.2694
44475	11.552	5.8	5.e-002	2.3454
44476	11.702	5.8	0.	3.2568
44477	11.652	5.75	0.	2.3929
44478	11.652	5.8	5.e-002	2.5203
44479	11.801	5.8	0.	2.7118
44480	11.752	5.75	0.	1.6698
44481	11.752	5.8	5.e-002	2.6731
44482	11.901	5.8	0.	2.2761
44483	11.851	5.75	0.	1.0917
44484	11.851	5.8	5.e-002	2.8063
44485	12.001	5.8	0.	1.9394
44486	11.951	5.75	0.	0.65616
44487	11.951	5.8	5.e-002	2.9221
44488	12.1	5.8	0.	1.6915
44489	12.05	5.75	0.	0.36849
44490	12.05	5.8	5.e-002	3.0226
44491	12.2	5.8	0.	1.5231
44492	12.15	5.75	0.	0.21706
44493	12.15	5.8	5.e-002	3.1094
44494	12.299	5.8	0.	1.4254
44495	12.249	5.75	0.	0.14907
44496	12.249	5.8	5.e-002	3.184
44497	12.399	5.8	0.	1.3909
44498	12.349	5.75	0.	0.11827
44499	12.349	5.8	5.e-002	3.248
44500	12.498	5.8	0.	1.4126
44501	12.449	5.75	0.	0.1047
44502	12.449	5.8	5.e-002	3.3027
44503	12.598	5.8	0.	1.4848
44504	12.548	5.75	0.	0.10183
44505	12.548	5.8	5.e-002	3.3491
44506	12.698	5.8	0.	1.602
44507	12.648	5.75	0.	0.11001
44508	12.648	5.8	5.e-002	3.388
44509	12.797	5.8	0.	1.7593
44510	12.747	5.75	0.	0.13782
44511	12.747	5.8	5.e-002	3.4205
44512	12.897	5.8	0.	1.9521
44513	12.847	5.75	0.	0.21191
44514	12.847	5.8	5.e-002	3.4473
44515	12.996	5.8	0.	2.1758
44516	12.947	5.75	0.	0.3678
44517	12.947	5.8	5.e-002	3.4693
44518	13.096	5.8	0.	2.4265
44519	13.046	5.75	0.	0.59693
44520	13.046	5.8	5.e-002	3.4869
44521	13.195	5.8	0.	2.7003
44522	13.146	5.75	0.	0.8726
44523	13.146	5.8	5.e-002	3.5006
44524	13.295	5.8	0.	2.9939
44525	13.245	5.75	0.	1.1802
44526	13.245	5.8	5.e-002	3.511
44527	13.395	5.8	0.	3.3042
44528	13.345	5.75	0.	1.5119
44529	13.345	5.8	5.e-002	3.5186
44530	13.494	5.8	0.	3.6284
44531	13.444	5.75	0.	1.8628
44532	13.444	5.8	5.e-002	3.5236
44533	13.594	5.8	0.	3.9642
44534	13.544	5.75	0.	2.2291
44535	13.544	5.8	5.e-002	3.5265
44536	13.693	5.8	0.	4.3093
44537	13.644	5.75	0.	2.6077
44538	13.644	5.8	5.e-002	3.5275
44539	13.793	5.8	0.	4.6619
44540	13.743	5.75	0.	2.9961
44541	13.743	5.8	5.e-002	3.5268
44542	13.893	5.8	0.	5.0201
44543	13.843	5.75	0.	3.3919
44544	13.843	5.8	5.e-002	3.5247
44545	13.992	5.8	0.	5.3825
44546	13.942	5.75	0.	3.7934
44547	13.942	5.8	5.e-002	3.5215
44548	14.092	5.8	0.	5.7477
44549	14.042	5.75	0.	4.1987
44550	14.042	5.8	5.e-002	3.5173
44551	14.191	5.8	0.	6.1147
44552	14.142	5.75	0.	4.6063
44553	14.142	5.8	5.e-002	3.5121
44554	14.291	5.8	0.	6.4823
44555	14.241	5.75	0.	5.0152
44556	14.241	5.8	5.e-002	3.506
44557	14.39	5.8	0.	6.8499
44558	14.341	5.75	0.	5.424
44559	14.341	5.8	5.e-002	3.4994
44560	14.49	5.8	0.	7.2165
44561	14.44	5.75	0.	5.832
44562	14.44	5.8	5.e-002	3.4922
44563	14.59	5.8	0.	7.5816
44564	14.54	5.75	0.	6.2382
44565	14.54	5.8	5.e-002	3.4846
44566	14.689	5.8	0.	7.9447
44567	14.639	5.75	0.	6.6421
44568	14.639	5.8	5.e-002	3.4766
44569	14.789	5.8	0.	8.3053
44570	14.739	5.75	0.	7.043
44571	14.739	5.8	5.e-002	3.4682
44572	14.888	5.8	0.	8.6631
44573	14.839	5.75	0.	7.4406
44574	14.839	5.8	5.e-002	3.4597
44575	14.988	5.8	0.	9.0177
44576	14.938	5.75	0.	7.8343
44577	14.938	5.8	5.e-002	3.4509
44578	15.088	5.8	0.	9.369
44579	15.038	5.75	0.	8.2241
44580	15.038	5.8	5.e-002	3.442
44581	15.187	5.8	0.	9.7168
44582	15.137	5.75	0.	8.6095
44583	15.137	5.8	5.e-002	3.4329
44584	15.287	5.8	0.	10.061
44585	15.237	5.75	0.	8.9905
44586	15.237	5.8	5.e-002	3.4238
44587	15.386	5.8	0.	10.401
44588	15.336	5.75	0.	9.367
44589	15.336	5.8	5.e-002	3.4147
44590	15.486	5.8	0.	10.738
44591	15.436	5.75	0.	9.7389
44592	15.436	5.8	5.e-002	3.4055
44593	15.585	5.8	0.	11.071
44594	15.536	5.75	0.	10.106
44595	15.536	5.8	5.e-002	3.3963
44596	15.685	5.8	0.	11.4
44597	15.635	5.75	0.	10.469
44598	15.635	5.8	5.e-002	3.3871
44599	15.785	5.8	0.	11.726
44600	15.735	5.75	0.	10.827
44601	15.735	5.8	5.e-002	3.3779
44602	15.884	5.8	0.	12.048
44603	15.834	5.75	0.	11.181
44604	15.834	5.8	5.e-002	3.3687
44605	15.984	5.8	0.	12.366
44606	15.934	5.75	0.	11.53
44607	15.934	5.8	5.e-002	3.3596
44608	16.083	5.8	0.	12.681
44609	16.034	5.75	0.	11.876
44610	16.034	5.8	5.e-002	3.3505
44611	16.183	5.8	0.	12.993
44612	16.133	5.75	0.	12.217
44613	16.133	5.8	5.e-002	3.3414
44614	16.282	5.8	0.	13.302
44615	16.233	5.75	0.	12.554
44616	16.233	5.8	5.e-002	3.3324
44617	16.382	5.8	0.	13.608
44618	16.332	5.75	0.	12.888
44619	16.332	5.8	5.e-002	3.3235
44620	16.482	5.8	0.	13.911
44621	16.432	5.75	0.	13.218
44622	16.432	5.8	5.e-002	3.3147
44623	16.581	5.8	0.	14.212
44624	16.531	5.75	0.	13.545
44625	16.531	5.8	5.e-002	3.306
44626	16.681	5.8	0.	14.51
44627	16.631	5.75	0.	13.869
44628	16.631	5.8	5.e-002	3.2974
44629	16.78	5.8	0.	14.806
44630	16.731	5.75	0.	14.19
44631	16.731	5.8	5.e-002	3.2888
44632	16.88	5.8	0.	15.1
44633	16.83	5.75	0.	14.509
44634	16.83	5.8	5.e-002	3.2804
44635	16.98	5.8	0.	15.392
44636	16.93	5.75	0.	14.825
44637	16.93	5.8	5.e-002	3.2721
44638	17.079	5.8	0.	15.682
44639	17.029	5.75	0.	15.139
44640	17.029	5.8	5.e-002	3.2638
44641	17.179	5.8	0.	15.971
44642	17.129	5.75	0.	15.451
44643	17.129	5.8	5.e-002	3.2556
44644	17.278	5.8	0.	16.258
44645	17.229	5.75	0.	15.761
44646	17.229	5.8	5.e-002	3.2475
44647	17.378	5.8	0.	16.544
44648	17.328	5.75	0.	16.07
44649	17.328	5.8	5.e-002	3.2395
44650	17.477	5.8	0.	16.83
44651	17.428	5.75	0.	16.377
44652	17.428	5.8	5.e-002	3.2316
44653	17.577	5.8	0.	17.114
44654	17.527	5.75	0.	16.683
44655	17.527	5.8	5.e-002	3.2238
44656	17.677	5.8	0.	17.398
44657	17.627	5.75	0.	16.989
44658	17.627	5.8	5.e-002	3.2161
44659	17.776	5.8	0.	17.681
44660	17.726	5.75	0.	17.293
44661	17.726	5.8	5.e-002	3.2085
44662	17.876	5.8	0.	17.965
44663	17.826	5.75	0.	17.598
44664	17.826	5.8	5.e-002	3.201
44665	17.975	5.8	0.	18.247
44666	17.926	5.75	0.	17.902
44667	17.926	5.8	5.e-002	3.1936
44668	18.075	5.8	0.	18.531
44669	18.025	5.75	0.	18.206
44670	18.025	5.8	5.e-002	3.1863
44671	18.175	5.8	0.	18.814
44672	18.125	5.75	0.	18.51
44673	18.125	5.8	5.e-002	3.1791
44674	18.274	5.8	0.	19.097
44675	18.224	5.75	0.	18.815
44676	18.224	5.8	5.e-002	3.1721
44677	18.374	5.8	0.	19.381
44678	18.324	5.75	0.	19.12
44679	18.324	5.8	5.e-002	3.1652
44680	18.473	5.8	0.	19.666
44681	18.423	5.75	0.	19.426
44682	18.423	5.8	5.e-002	3.1584
44683	18.573	5.8	0.	19.951
44684	18.523	5.75	0.	19.733
44685	18.523	5.8	5.e-002	3.1516
44686	18.672	5.8	0.	20.237
44687	18.623	5.75	0.	20.041
44688	18.623	5.8	5.e-002	3.145
44689	18.772	5.8	0.	20.524
44690	18.722	5.75	0.	20.35
44691	18.722	5.8	5.e-002	3.1385
44692	18.872	5.8	0.	20.812
44693	18.822	5.75	0.	20.66
44694	18.822	5.8	5.e-002	3.1322
44695	18.971	5.8	0.	21.101
44696	18.921	5.75	0.	20.972
44697	18.921	5.8	5.e-002	3.1259
44698	19.071	5.8	0.	21.391
44699	19.021	5.75	0.	21.286
44700	19.021	5.8	5.e-002	3.1197
44701	19.17	5.8	0.	21.682
44702	19.121	5.75	0.	21.601
44703	19.121	5.8	5.e-002	3.1137
44704	19.27	5.8	0.	21.975
44705	19.22	5.75	0.	21.918
44706	19.22	5.8	5.e-002	3.1079
44707	19.369	5.8	0.	22.269
44708	19.32	5.75	0.	22.238
44709	19.32	5.8	5.e-002	3.1021
44710	19.469	5.8	0.	22.564
44711	19.419	5.75	0.	22.559
44712	19.419	5.8	5.e-002	3.0965
44713	19.569	5.8	0.	22.861
44714	19.519	5.75	0.	22.882
44715	19.519	5.8	5.e-002	3.0911
44716	19.668	5.8	0.	23.159
44717	19.618	5.75	0.	23.208
44718	19.618	5.8	5.e-002	3.0857
44719	19.768	5.8	0.	23.458
44720	19.718	5.75	0.	23.536
44721	19.718	5.8	5.e-002	3.0806
44722	19.867	5.8	0.	23.759
44723	19.818	5.75	0.	23.866
44724	19.818	5.8	5.e-002	3.0756
44725	19.967	5.8	0.	24.061
44726	19.917	5.75	0.	24.199
44727	19.917	5.8	5.e-002	3.0707
44728	20.067	5.8	0.	24.364
44729	20.017	5.75	0.	24.534
44730	20.017	5.8	5.e-002	3.066
44731	20.166	5.8	0.	24.668
44732	20.116	5.75	0.	24.871
44733	20.116	5.8	5.e-002	3.0614
44734	20.266	5.8	0.	24.973
44735	20.216	5.75	0.	25.211
44736	20.216	5.8	5.e-002	3.057
44737	20.365	5.8	0.	25.279
44738	20.316	5.75	0.	25.553
44739	20.316	5.8	5.e-002	3.0528
44740	20.465	5.8	0.	25.585
44741	20.415	5.75	0.	25.897
44742	20.415	5.8	5.e-002	3.0487
44743	20.564	5.8	0.	25.892
44744	20.515	5.75	0.	26.243
44745	20.515	5.8	5.e-002	3.0448
44746	20.664	5.8	0.	26.199
44747	20.614	5.75	0.	26.591
44748	20.614	5.8	5.e-002	3.0411
44749	20.764	5.8	0.	26.506
44750	20.714	5.75	0.	26.941
44751	20.714	5.8	5.e-002	3.0376
44752	20.863	5.8	0.	26.813
44753	20.813	5.75	0.	27.293
44754	20.813	5.8	5.e-002	3.0342
44755	20.963	5.8	0.	27.119
44756	20.913	5.75	0.	27.646
44757	20.913	5.8	5.e-002	3.031
44758	21.062	5.8	0.	27.425
44759	21.013	5.75	0.	28.001
44760	21.013	5.8	5.e-002	3.0281
44761	21.162	5.8	0.	27.728
44762	21.112	5.75	0.	28.357
44763	21.112	5.8	5.e-002	3.0253
44764	21.262	5.8	0.	28.03
44765	21.212	5.75	0.	28.714
44766	21.212	5.8	5.e-002	3.0227
44767	21.361	5.8	0.	28.33
44768	21.311	5.75	0.	29.072
44769	21.311	5.8	5.e-002	3.0203
44770	21.461	5.8	0.	28.627
44771	21.411	5.75	0.	29.43
44772	21.411	5.8	5.e-002	3.0181
44773	21.56	5.8	0.	28.921
44774	21.51	5.75	0.	29.788
44775	21.51	5.8	5.e-002	3.0161
44776	21.66	5.8	0.	29.21
44777	21.61	5.75	0.	30.145
44778	21.61	5.8	5.e-002	3.0144
44779	21.759	5.8	0.	29.495
44780	21.71	5.75	0.	30.502
44781	21.71	5.8	5.e-002	3.0128
44782	21.859	5.8	0.	29.774
44783	21.809	5.75	0.	30.858
44784	21.809	5.8	5.e-002	3.0114
44785	21.959	5.8	0.	30.046
44786	21.909	5.75	0.	31.213
44787	21.909	5.8	5.e-002	3.0102
44788	22.058	5.8	0.	30.312
44789	22.008	5.75	0.	31.565
44790	22.008	5.8	5.e-002	3.0092
44791	22.158	5.8	0.	30.569
44792	22.108	5.75	0.	31.915
44793	22.108	5.8	5.e-002	3.0085
44794	22.257	5.8	0.	30.817
44795	22.208	5.75	0.	32.263
44796	22.208	5.8	5.e-002	3.0079
44797	22.357	5.8	0.	31.054
44798	22.307	5.75	0.	32.607
44799	22.307	5.8	5.e-002	3.0076
44800	22.456	5.8	0.	31.28
44801	22.407	5.75	0.	32.949
44802	22.407	5.8	5.e-002	3.0076
44803	22.556	5.8	0.	31.492
44804	22.506	5.75	0.	33.287
44805	22.506	5.8	5.e-002	3.0077
44806	22.656	5.8	0.	31.69
44807	22.606	5.75	0.	33.622
44808	22.606	5.8	5.e-002	3.0082
44809	22.755	5.8	0.	31.873
44810	22.705	5.75	0.	33.954
44811	22.705	5.8	5.e-002	3.0089
44812	22.855	5.8	0.	32.039
44813	22.805	5.75	0.	34.285
44814	22.805	5.8	5.e-002	3.0101
44815	22.954	5.8	0.	32.188
44816	22.905	5.75	0.	34.616
44817	22.905	5.8	5.e-002	3.0118
44818	23.054	5.8	0.	32.32
44819	23.004	5.75	0.	34.953
44820	23.004	5.8	5.e-002	3.0141
44821	23.154	5.8	0.	32.437
44822	23.104	5.75	0.	35.3
44823	23.104	5.8	5.e-002	3.0174
44824	23.253	5.8	0.	32.544
44825	23.203	5.75	0.	35.67
44826	23.203	5.8	5.e-002	3.0222
44827	23.353	5.8	0.	32.653
44828	23.303	5.75	0.	36.08
44829	23.303	5.8	5.e-002	3.0293
44830	23.452	5.8	0.	32.791
44831	23.403	5.75	0.	36.563
44832	23.403	5.8	5.e-002	3.0405
44833	23.552	5.8	0.	33.011
44834	23.502	5.75	0.	37.176
44835	23.502	5.8	5.e-002	3.0589
44836	23.651	5.8	0.	33.438
44837	23.602	5.75	0.	38.027
44838	23.602	5.8	5.e-002	3.0911
44839	23.751	5.8	0.	34.36
44840	23.701	5.75	0.	39.314
44841	23.701	5.8	5.e-002	3.1523
44842	23.851	5.8	0.	36.494
44843	23.801	5.75	0.	41.433
44844	23.801	5.8	5.e-002	3.2802
44845	23.9	5.75	0.	45.18
44846	23.9	5.8	5.e-002	3.632
44847	23.95	5.8	0.	38.264
44848	8.316	5.7	0.	175.06
44849	8.2662	5.65	0.	280.4
44850	8.2662	5.7	5.e-002	34.515
44851	8.2165	5.7	0.	134.42
44852	8.4156	5.7	0.	113.04
44853	8.3658	5.65	0.	171.95
44854	8.3658	5.7	5.e-002	31.471
44855	8.5152	5.7	0.	93.395
44856	8.4654	5.65	0.	128.36
44857	8.4654	5.7	5.e-002	30.969
44858	8.6148	5.7	0.	88.443
44859	8.565	5.65	0.	110.24
44860	8.565	5.7	5.e-002	29.928
44861	8.7144	5.7	0.	88.839
44862	8.6646	5.65	0.	103.72
44863	8.6646	5.7	5.e-002	28.521
44864	8.8139	5.7	0.	90.635
44865	8.7642	5.65	0.	102.08
44866	8.7642	5.7	5.e-002	26.864
44867	8.9135	5.7	0.	92.084
44868	8.8637	5.65	0.	101.94
44869	8.8637	5.7	5.e-002	25.048
44870	9.0131	5.7	0.	92.481
44871	8.9633	5.65	0.	101.68
44872	8.9633	5.7	5.e-002	23.138
44873	9.1127	5.7	0.	91.624
44874	9.0629	5.65	0.	100.6
44875	9.0629	5.7	5.e-002	21.186
44876	9.2123	5.7	0.	89.553
44877	9.1625	5.65	0.	98.455
44878	9.1625	5.7	5.e-002	19.238
44879	9.3118	5.7	0.	86.424
44880	9.2621	5.65	0.	95.261
44881	9.2621	5.7	5.e-002	17.327
44882	9.4114	5.7	0.	82.436
44883	9.3616	5.65	0.	91.145
44884	9.3616	5.7	5.e-002	15.482
44885	9.511	5.7	0.	77.799
44886	9.4612	5.65	0.	86.286
44887	9.4612	5.7	5.e-002	13.722
44888	9.6106	5.7	0.	72.709
44889	9.5608	5.65	0.	80.878
44890	9.5608	5.7	5.e-002	12.062
44891	9.7102	5.7	0.	67.343
44892	9.6604	5.65	0.	75.106
44893	9.6604	5.7	5.e-002	10.511
44894	9.8097	5.7	0.	61.852
44895	9.76	5.65	0.	69.136
44896	9.76	5.7	5.e-002	9.0718
44897	9.9093	5.7	0.	56.36
44898	9.8595	5.65	0.	63.109
44899	9.8595	5.7	5.e-002	7.7467
44900	10.009	5.7	0.	50.967
44901	9.9591	5.65	0.	57.141
44902	9.9591	5.7	5.e-002	6.5337
44903	10.108	5.7	0.	45.748
44904	10.059	5.65	0.	51.326
44905	10.059	5.7	5.e-002	5.4295
44906	10.208	5.7	0.	40.762
44907	10.158	5.65	0.	45.734
44908	10.158	5.7	5.e-002	4.4298
44909	10.308	5.7	0.	36.048
44910	10.258	5.65	0.	40.418
44911	10.258	5.7	5.e-002	3.5298
44912	10.407	5.7	0.	31.633
44913	10.357	5.65	0.	35.414
44914	10.357	5.7	5.e-002	2.725
44915	10.507	5.7	0.	27.532
44916	10.457	5.65	0.	30.744
44917	10.457	5.7	5.e-002	2.0134
44918	10.606	5.7	0.	23.752
44919	10.557	5.65	0.	26.422
44920	10.557	5.7	5.e-002	1.3992
44921	10.706	5.7	0.	20.293
44922	10.656	5.65	0.	22.449
44923	10.656	5.7	5.e-002	0.90846
44924	10.806	5.7	0.	17.148
44925	10.756	5.65	0.	18.825
44926	10.756	5.7	5.e-002	0.6369
44927	10.905	5.7	0.	14.309
44928	10.855	5.65	0.	15.54
44929	10.855	5.7	5.e-002	0.70748
44930	11.005	5.7	0.	11.761
44931	10.955	5.65	0.	12.582
44932	10.955	5.7	5.e-002	0.97727
44933	11.104	5.7	0.	9.4916
44934	11.055	5.65	0.	9.9389
44935	11.055	5.7	5.e-002	1.2844
44936	11.204	5.7	0.	7.4844
44937	11.154	5.65	0.	7.5937
44938	11.154	5.7	5.e-002	1.5791
44939	11.303	5.7	0.	5.7237
44940	11.254	5.65	0.	5.5311
44941	11.254	5.7	5.e-002	1.8486
44942	11.403	5.7	0.	4.1941
44943	11.353	5.65	0.	3.7373
44944	11.353	5.7	5.e-002	2.0908
44945	11.503	5.7	0.	2.8815
44946	11.453	5.65	0.	2.2078
44947	11.453	5.7	5.e-002	2.3063
44948	11.602	5.7	0.	1.7776
44949	11.552	5.65	0.	0.98561
44950	11.552	5.7	5.e-002	2.497
44951	11.702	5.7	0.	0.896
44952	11.652	5.65	0.	0.30851
44953	11.652	5.7	5.e-002	2.6649
44954	11.801	5.7	0.	0.33624
44955	11.752	5.65	0.	0.13164
44956	11.752	5.7	5.e-002	2.8124
44957	11.901	5.7	0.	0.14268
44958	11.851	5.65	0.	7.9146e-002
44959	11.851	5.7	5.e-002	2.9414
44960	12.001	5.7	0.	8.475e-002
44961	11.951	5.65	0.	5.61e-002
44962	11.951	5.7	5.e-002	3.0539
44963	12.1	5.7	0.	6.0465e-002
44964	12.05	5.65	0.	4.3505e-002
44965	12.05	5.7	5.e-002	3.1519
44966	12.2	5.7	0.	4.7611e-002
44967	12.15	5.65	0.	3.5679e-002
44968	12.15	5.7	5.e-002	3.2366
44969	12.299	5.7	0.	3.9814e-002
44970	12.249	5.65	0.	3.0383e-002
44971	12.249	5.7	5.e-002	3.3099
44972	12.399	5.7	0.	3.4667e-002
44973	12.349	5.65	0.	2.6585e-002
44974	12.349	5.7	5.e-002	3.3728
44975	12.498	5.7	0.	3.1059e-002
44976	12.449	5.65	0.	2.3731e-002
44977	12.449	5.7	5.e-002	3.4267
44978	12.598	5.7	0.	2.8443e-002
44979	12.548	5.65	0.	2.1466e-002
44980	12.548	5.7	5.e-002	3.4725
44981	12.698	5.7	0.	2.6557e-002
44982	12.648	5.65	0.	1.9641e-002
44983	12.648	5.7	5.e-002	3.5112
44984	12.797	5.7	0.	2.5254e-002
44985	12.747	5.65	0.	1.8144e-002
44986	12.747	5.7	5.e-002	3.5436
44987	12.897	5.7	0.	2.4502e-002
44988	12.847	5.65	0.	1.6878e-002
44989	12.847	5.7	5.e-002	3.5706
44990	12.996	5.7	0.	2.441e-002
44991	12.947	5.65	0.	1.5803e-002
44992	12.947	5.7	5.e-002	3.5927
44993	13.096	5.7	0.	2.536e-002
44994	13.046	5.65	0.	1.4873e-002
44995	13.046	5.7	5.e-002	3.6105
44996	13.195	5.7	0.	2.8669e-002
44997	13.146	5.65	0.	1.407e-002
44998	13.146	5.7	5.e-002	3.6246
44999	13.295	5.7	0.	4.0867e-002
45000	13.245	5.65	0.	1.3414e-002
45001	13.245	5.7	5.e-002	3.6354
45002	13.395	5.7	0.	0.1385
45003	13.345	5.65	0.	1.2926e-002
45004	13.345	5.7	5.e-002	3.6434
45005	13.494	5.7	0.	0.47984
45006	13.444	5.65	0.	1.268e-002
45007	13.444	5.7	5.e-002	3.6489
45008	13.594	5.7	0.	0.88235
45009	13.544	5.65	0.	1.2883e-002
45010	13.544	5.7	5.e-002	3.6522
45011	13.693	5.7	0.	1.3026
45012	13.644	5.65	0.	1.4947e-002
45013	13.644	5.7	5.e-002	3.6537
45014	13.793	5.7	0.	1.7339
45015	13.743	5.65	0.	7.273e-002
45016	13.743	5.7	5.e-002	3.6535
45017	13.893	5.7	0.	2.1729
45018	13.843	5.65	0.	0.52123
45019	13.843	5.7	5.e-002	3.6519
45020	13.992	5.7	0.	2.6173
45021	13.942	5.65	0.	1.0065
45022	13.942	5.7	5.e-002	3.6491
45023	14.092	5.7	0.	3.0651
45024	14.042	5.65	0.	1.4972
45025	14.042	5.7	5.e-002	3.6453
45026	14.191	5.7	0.	3.5147
45027	14.142	5.65	0.	1.9904
45028	14.142	5.7	5.e-002	3.6405
45029	14.291	5.7	0.	3.9648
45030	14.241	5.65	0.	2.4844
45031	14.241	5.7	5.e-002	3.635
45032	14.39	5.7	0.	4.4142
45033	14.341	5.65	0.	2.9777
45034	14.341	5.7	5.e-002	3.6287
45035	14.49	5.7	0.	4.8619
45036	14.44	5.65	0.	3.4691
45037	14.44	5.7	5.e-002	3.6219
45038	14.59	5.7	0.	5.3069
45039	14.54	5.65	0.	3.9576
45040	14.54	5.7	5.e-002	3.6146
45041	14.689	5.7	0.	5.7488
45042	14.639	5.65	0.	4.4424
45043	14.639	5.7	5.e-002	3.6069
45044	14.789	5.7	0.	6.1868
45045	14.739	5.65	0.	4.9228
45046	14.739	5.7	5.e-002	3.5989
45047	14.888	5.7	0.	6.6204
45048	14.839	5.65	0.	5.3982
45049	14.839	5.7	5.e-002	3.5905
45050	14.988	5.7	0.	7.0494
45051	14.938	5.65	0.	5.8682
45052	14.938	5.7	5.e-002	3.582
45053	15.088	5.7	0.	7.4734
45054	15.038	5.65	0.	6.3324
45055	15.038	5.7	5.e-002	3.5733
45056	15.187	5.7	0.	7.8922
45057	15.137	5.65	0.	6.7906
45058	15.137	5.7	5.e-002	3.5645
45059	15.287	5.7	0.	8.3057
45060	15.237	5.65	0.	7.2426
45061	15.237	5.7	5.e-002	3.5555
45062	15.386	5.7	0.	8.7138
45063	15.336	5.65	0.	7.6883
45064	15.336	5.7	5.e-002	3.5465
45065	15.486	5.7	0.	9.1164
45066	15.436	5.65	0.	8.1276
45067	15.436	5.7	5.e-002	3.5375
45068	15.585	5.7	0.	9.5136
45069	15.536	5.65	0.	8.5606
45070	15.536	5.7	5.e-002	3.5283
45071	15.685	5.7	0.	9.9054
45072	15.635	5.65	0.	8.9872
45073	15.635	5.7	5.e-002	3.5192
45074	15.785	5.7	0.	10.292
45075	15.735	5.65	0.	9.4077
45076	15.735	5.7	5.e-002	3.51
45077	15.884	5.7	0.	10.673
45078	15.834	5.65	0.	9.8221
45079	15.834	5.7	5.e-002	3.5008
45080	15.984	5.7	0.	11.05
45081	15.934	5.65	0.	10.231
45082	15.934	5.7	5.e-002	3.4917
45083	16.083	5.7	0.	11.421
45084	16.034	5.65	0.	10.633
45085	16.034	5.7	5.e-002	3.4826
45086	16.183	5.7	0.	11.788
45087	16.133	5.65	0.	11.031
45088	16.133	5.7	5.e-002	3.4734
45089	16.282	5.7	0.	12.151
45090	16.233	5.65	0.	11.423
45091	16.233	5.7	5.e-002	3.4644
45092	16.382	5.7	0.	12.509
45093	16.332	5.65	0.	11.81
45094	16.332	5.7	5.e-002	3.4554
45095	16.482	5.7	0.	12.863
45096	16.432	5.65	0.	12.192
45097	16.432	5.7	5.e-002	3.4465
45098	16.581	5.7	0.	13.214
45099	16.531	5.65	0.	12.57
45100	16.531	5.7	5.e-002	3.4376
45101	16.681	5.7	0.	13.561
45102	16.631	5.65	0.	12.944
45103	16.631	5.7	5.e-002	3.4288
45104	16.78	5.7	0.	13.904
45105	16.731	5.65	0.	13.313
45106	16.731	5.7	5.e-002	3.4201
45107	16.88	5.7	0.	14.245
45108	16.83	5.65	0.	13.68
45109	16.83	5.7	5.e-002	3.4115
45110	16.98	5.7	0.	14.583
45111	16.93	5.65	0.	14.043
45112	16.93	5.7	5.e-002	3.403
45113	17.079	5.7	0.	14.919
45114	17.029	5.65	0.	14.403
45115	17.029	5.7	5.e-002	3.3945
45116	17.179	5.7	0.	15.252
45117	17.129	5.65	0.	14.76
45118	17.129	5.7	5.e-002	3.386
45119	17.278	5.7	0.	15.584
45120	17.229	5.65	0.	15.115
45121	17.229	5.7	5.e-002	3.3777
45122	17.378	5.7	0.	15.914
45123	17.328	5.65	0.	15.468
45124	17.328	5.7	5.e-002	3.3694
45125	17.477	5.7	0.	16.242
45126	17.428	5.65	0.	15.819
45127	17.428	5.7	5.e-002	3.3612
45128	17.577	5.7	0.	16.57
45129	17.527	5.65	0.	16.168
45130	17.527	5.7	5.e-002	3.3531
45131	17.677	5.7	0.	16.896
45132	17.627	5.65	0.	16.517
45133	17.627	5.7	5.e-002	3.345
45134	17.776	5.7	0.	17.222
45135	17.726	5.65	0.	16.865
45136	17.726	5.7	5.e-002	3.3371
45137	17.876	5.7	0.	17.547
45138	17.826	5.65	0.	17.212
45139	17.826	5.7	5.e-002	3.3292
45140	17.975	5.7	0.	17.873
45141	17.926	5.65	0.	17.559
45142	17.926	5.7	5.e-002	3.3215
45143	18.075	5.7	0.	18.198
45144	18.025	5.65	0.	17.906
45145	18.025	5.7	5.e-002	3.3138
45146	18.175	5.7	0.	18.524
45147	18.125	5.65	0.	18.253
45148	18.125	5.7	5.e-002	3.3062
45149	18.274	5.7	0.	18.851
45150	18.224	5.65	0.	18.601
45151	18.224	5.7	5.e-002	3.2988
45152	18.374	5.7	0.	19.178
45153	18.324	5.65	0.	18.95
45154	18.324	5.7	5.e-002	3.2914
45155	18.473	5.7	0.	19.506
45156	18.423	5.65	0.	19.3
45157	18.423	5.7	5.e-002	3.2841
45158	18.573	5.7	0.	19.836
45159	18.523	5.65	0.	19.652
45160	18.523	5.7	5.e-002	3.2769
45161	18.672	5.7	0.	20.167
45162	18.623	5.65	0.	20.005
45163	18.623	5.7	5.e-002	3.2697
45164	18.772	5.7	0.	20.5
45165	18.722	5.65	0.	20.36
45166	18.722	5.7	5.e-002	3.2627
45167	18.872	5.7	0.	20.835
45168	18.822	5.65	0.	20.718
45169	18.822	5.7	5.e-002	3.2558
45170	18.971	5.7	0.	21.172
45171	18.921	5.65	0.	21.078
45172	18.921	5.7	5.e-002	3.249
45173	19.071	5.7	0.	21.511
45174	19.021	5.65	0.	21.44
45175	19.021	5.7	5.e-002	3.2423
45176	19.17	5.7	0.	21.852
45177	19.121	5.65	0.	21.806
45178	19.121	5.7	5.e-002	3.2356
45179	19.27	5.7	0.	22.196
45180	19.22	5.65	0.	22.175
45181	19.22	5.7	5.e-002	3.2292
45182	19.369	5.7	0.	22.543
45183	19.32	5.65	0.	22.547
45184	19.32	5.7	5.e-002	3.2228
45185	19.469	5.7	0.	22.893
45186	19.419	5.65	0.	22.923
45187	19.419	5.7	5.e-002	3.2165
45188	19.569	5.7	0.	23.246
45189	19.519	5.65	0.	23.303
45190	19.519	5.7	5.e-002	3.2104
45191	19.668	5.7	0.	23.602
45192	19.618	5.65	0.	23.686
45193	19.618	5.7	5.e-002	3.2043
45194	19.768	5.7	0.	23.961
45195	19.718	5.65	0.	24.074
45196	19.718	5.7	5.e-002	3.1985
45197	19.867	5.7	0.	24.324
45198	19.818	5.65	0.	24.466
45199	19.818	5.7	5.e-002	3.1927
45200	19.967	5.7	0.	24.69
45201	19.917	5.65	0.	24.863
45202	19.917	5.7	5.e-002	3.187
45203	20.067	5.7	0.	25.059
45204	20.017	5.65	0.	25.265
45205	20.017	5.7	5.e-002	3.1815
45206	20.166	5.7	0.	25.433
45207	20.116	5.65	0.	25.671
45208	20.116	5.7	5.e-002	3.1761
45209	20.266	5.7	0.	25.81
45210	20.216	5.65	0.	26.083
45211	20.216	5.7	5.e-002	3.1709
45212	20.365	5.7	0.	26.19
45213	20.316	5.65	0.	26.499
45214	20.316	5.7	5.e-002	3.1658
45215	20.465	5.7	0.	26.575
45216	20.415	5.65	0.	26.921
45217	20.415	5.7	5.e-002	3.1608
45218	20.564	5.7	0.	26.963
45219	20.515	5.65	0.	27.348
45220	20.515	5.7	5.e-002	3.156
45221	20.664	5.7	0.	27.355
45222	20.614	5.65	0.	27.781
45223	20.614	5.7	5.e-002	3.1513
45224	20.764	5.7	0.	27.75
45225	20.714	5.65	0.	28.219
45226	20.714	5.7	5.e-002	3.1468
45227	20.863	5.7	0.	28.149
45228	20.813	5.65	0.	28.664
45229	20.813	5.7	5.e-002	3.1424
45230	20.963	5.7	0.	28.552
45231	20.913	5.65	0.	29.114
45232	20.913	5.7	5.e-002	3.1382
45233	21.062	5.7	0.	28.959
45234	21.013	5.65	0.	29.57
45235	21.013	5.7	5.e-002	3.1342
45236	21.162	5.7	0.	29.369
45237	21.112	5.65	0.	30.032
45238	21.112	5.7	5.e-002	3.1303
45239	21.262	5.7	0.	29.782
45240	21.212	5.65	0.	30.5
45241	21.212	5.7	5.e-002	3.1266
45242	21.361	5.7	0.	30.199
45243	21.311	5.65	0.	30.975
45244	21.311	5.7	5.e-002	3.1231
45245	21.461	5.7	0.	30.62
45246	21.411	5.65	0.	31.456
45247	21.411	5.7	5.e-002	3.1197
45248	21.56	5.7	0.	31.043
45249	21.51	5.65	0.	31.943
45250	21.51	5.7	5.e-002	3.1165
45251	21.66	5.7	0.	31.47
45252	21.61	5.65	0.	32.438
45253	21.61	5.7	5.e-002	3.1135
45254	21.759	5.7	0.	31.9
45255	21.71	5.65	0.	32.94
45256	21.71	5.7	5.e-002	3.1107
45257	21.859	5.7	0.	32.333
45258	21.809	5.65	0.	33.45
45259	21.809	5.7	5.e-002	3.1081
45260	21.959	5.7	0.	32.769
45261	21.909	5.65	0.	33.967
45262	21.909	5.7	5.e-002	3.1057
45263	22.058	5.7	0.	33.209
45264	22.008	5.65	0.	34.493
45265	22.008	5.7	5.e-002	3.1035
45266	22.158	5.7	0.	33.652
45267	22.108	5.65	0.	35.029
45268	22.108	5.7	5.e-002	3.1015
45269	22.257	5.7	0.	34.099
45270	22.208	5.65	0.	35.575
45271	22.208	5.7	5.e-002	3.0998
45272	22.357	5.7	0.	34.551
45273	22.307	5.65	0.	36.133
45274	22.307	5.7	5.e-002	3.0983
45275	22.456	5.7	0.	35.009
45276	22.407	5.65	0.	36.705
45277	22.407	5.7	5.e-002	3.0972
45278	22.556	5.7	0.	35.474
45279	22.506	5.65	0.	37.293
45280	22.506	5.7	5.e-002	3.0964
45281	22.656	5.7	0.	35.948
45282	22.606	5.65	0.	37.9
45283	22.606	5.7	5.e-002	3.096
45284	22.755	5.7	0.	36.435
45285	22.705	5.65	0.	38.531
45286	22.705	5.7	5.e-002	3.0962
45287	22.855	5.7	0.	36.938
45288	22.805	5.65	0.	39.192
45289	22.805	5.7	5.e-002	3.097
45290	22.954	5.7	0.	37.466
45291	22.905	5.65	0.	39.892
45292	22.905	5.7	5.e-002	3.0988
45293	23.054	5.7	0.	38.028
45294	23.004	5.65	0.	40.643
45295	23.004	5.7	5.e-002	3.1017
45296	23.154	5.7	0.	38.64
45297	23.104	5.65	0.	41.461
45298	23.104	5.7	5.e-002	3.1064
45299	23.253	5.7	0.	39.326
45300	23.203	5.65	0.	42.373
45301	23.203	5.7	5.e-002	3.1137
45302	23.353	5.7	0.	40.126
45303	23.303	5.65	0.	43.415
45304	23.303	5.7	5.e-002	3.125
45305	23.452	5.7	0.	41.103
45306	23.403	5.65	0.	44.646
45307	23.403	5.7	5.e-002	3.1423
45308	23.552	5.7	0.	42.363
45309	23.502	5.65	0.	46.151
45310	23.502	5.7	5.e-002	3.1698
45311	23.651	5.7	0.	44.082
45312	23.602	5.65	0.	48.067
45313	23.602	5.7	5.e-002	3.2142
45314	23.751	5.7	0.	46.551
45315	23.701	5.65	0.	50.593
45316	23.701	5.7	5.e-002	3.2881
45317	23.851	5.7	0.	50.238
45318	23.801	5.65	0.	54.022
45319	23.801	5.7	5.e-002	3.4136
45320	23.9	5.65	0.	58.786
45321	23.9	5.7	5.e-002	3.699
45322	23.95	5.7	0.	53.353
45323	8.316	5.6	0.	264.24
45324	8.2662	5.55	0.	385.13
45325	8.2662	5.6	5.e-002	34.779
45326	8.2165	5.6	0.	199.52
45327	8.4156	5.6	0.	178.79
45328	8.3658	5.55	0.	255.72
45329	8.3658	5.6	5.e-002	30.875
45330	8.5152	5.6	0.	140.69
45331	8.4654	5.55	0.	193.03
45332	8.4654	5.6	5.e-002	30.519
45333	8.6148	5.6	0.	123.08
45334	8.565	5.55	0.	158.75
45335	8.565	5.6	5.e-002	29.647
45336	8.7144	5.6	0.	115.52
45337	8.6646	5.55	0.	140.5
45338	8.6646	5.6	5.e-002	28.357
45339	8.8139	5.6	0.	112.45
45340	8.7642	5.55	0.	130.84
45341	8.7642	5.6	5.e-002	26.766
45342	8.9135	5.6	0.	110.87
45343	8.8637	5.55	0.	125.25
45344	8.8637	5.6	5.e-002	24.98
45345	9.0131	5.6	0.	109.3
45346	8.9633	5.55	0.	121.23
45347	8.9633	5.6	5.e-002	23.078
45348	9.1127	5.6	0.	107.04
45349	9.0629	5.55	0.	117.43
45350	9.0629	5.6	5.e-002	21.126
45351	9.2123	5.6	0.	103.85
45352	9.1625	5.55	0.	113.21
45353	9.1625	5.6	5.e-002	19.173
45354	9.3118	5.6	0.	99.722
45355	9.2621	5.55	0.	108.35
45356	9.2621	5.6	5.e-002	17.259
45357	9.4114	5.6	0.	94.781
45358	9.3616	5.55	0.	102.81
45359	9.3616	5.6	5.e-002	15.414
45360	9.511	5.6	0.	89.191
45361	9.4612	5.55	0.	96.679
45362	9.4612	5.6	5.e-002	13.658
45363	9.6106	5.6	0.	83.133
45364	9.5608	5.55	0.	90.103
45365	9.5608	5.6	5.e-002	12.006
45366	9.7102	5.6	0.	76.784
45367	9.6604	5.55	0.	83.234
45368	9.6604	5.6	5.e-002	10.466
45369	9.8097	5.6	0.	70.3
45370	9.76	5.55	0.	76.221
45371	9.76	5.6	5.e-002	9.0421
45372	9.9093	5.6	0.	63.817
45373	9.8595	5.55	0.	69.2
45374	9.8595	5.6	5.e-002	7.7348
45375	10.009	5.6	0.	57.444
45376	9.9591	5.55	0.	62.283
45377	9.9591	5.6	5.e-002	6.5425
45378	10.108	5.6	0.	51.269
45379	10.059	5.55	0.	55.564
45380	10.059	5.6	5.e-002	5.4621
45381	10.208	5.6	0.	45.359
45382	10.158	5.55	0.	49.116
45383	10.158	5.6	5.e-002	4.49
45384	10.308	5.6	0.	39.761
45385	10.258	5.55	0.	42.992
45386	10.258	5.6	5.e-002	3.6229
45387	10.407	5.6	0.	34.51
45388	10.357	5.55	0.	37.23
45389	10.357	5.6	5.e-002	2.8595
45390	10.507	5.6	0.	29.624
45391	10.457	5.55	0.	31.855
45392	10.457	5.6	5.e-002	2.2027
45393	10.606	5.6	0.	25.113
45394	10.557	5.55	0.	26.88
45395	10.557	5.6	5.e-002	1.6654
45396	10.706	5.6	0.	20.979
45397	10.656	5.55	0.	22.31
45398	10.656	5.6	5.e-002	1.2792
45399	10.806	5.6	0.	17.217
45400	10.756	5.55	0.	18.141
45401	10.756	5.6	5.e-002	1.0933
45402	10.905	5.6	0.	13.818
45403	10.855	5.55	0.	14.365
45404	10.855	5.6	5.e-002	1.1214
45405	11.005	5.6	0.	10.768
45406	10.955	5.55	0.	10.971
45407	10.955	5.6	5.e-002	1.293
45408	11.104	5.6	0.	8.0522
45409	11.055	5.55	0.	7.9458
45410	11.055	5.6	5.e-002	1.5239
45411	11.204	5.6	0.	5.6573
45412	11.154	5.55	0.	5.2798
45413	11.154	5.6	5.e-002	1.7663
45414	11.303	5.6	0.	3.5746
45415	11.254	5.55	0.	2.9839
45416	11.254	5.6	5.e-002	1.9994
45417	11.403	5.6	0.	1.8257
45418	11.353	5.55	0.	1.1898
45419	11.353	5.6	5.e-002	2.215
45420	11.503	5.6	0.	0.61158
45421	11.453	5.55	0.	0.36041
45422	11.453	5.6	5.e-002	2.4106
45423	11.602	5.6	0.	0.20828
45424	11.552	5.55	0.	0.1633
45425	11.552	5.6	5.e-002	2.5859
45426	11.702	5.6	0.	0.10946
45427	11.652	5.55	0.	9.8613e-002
45428	11.652	5.6	5.e-002	2.7417
45429	11.801	5.6	0.	7.1743e-002
45430	11.752	5.55	0.	6.8542e-002
45431	11.752	5.6	5.e-002	2.8793
45432	11.901	5.6	0.	5.2695e-002
45433	11.851	5.55	0.	5.1701e-002
45434	11.851	5.6	5.e-002	3.0002
45435	12.001	5.6	0.	4.1456e-002
45436	11.951	5.55	0.	4.1154e-002
45437	11.951	5.6	5.e-002	3.1061
45438	12.1	5.6	0.	3.4135e-002
45439	12.05	5.55	0.	3.4013e-002
45440	12.05	5.6	5.e-002	3.1985
45441	12.2	5.6	0.	2.9026e-002
45442	12.15	5.55	0.	2.8906e-002
45443	12.15	5.6	5.e-002	3.2786
45444	12.299	5.6	0.	2.5279e-002
45445	12.249	5.55	0.	2.509e-002
45446	12.249	5.6	5.e-002	3.3479
45447	12.399	5.6	0.	2.2423e-002
45448	12.349	5.55	0.	2.2153e-002
45449	12.349	5.6	5.e-002	3.4075
45450	12.498	5.6	0.	2.0152e-002
45451	12.449	5.55	0.	1.9824e-002
45452	12.449	5.6	5.e-002	3.4586
45453	12.598	5.6	0.	1.8289e-002
45454	12.548	5.55	0.	1.7893e-002
45455	12.548	5.6	5.e-002	3.502
45456	12.698	5.6	0.	1.6741e-002
45457	12.648	5.55	0.	1.6287e-002
45458	12.648	5.6	5.e-002	3.5386
45459	12.797	5.6	0.	1.5427e-002
45460	12.747	5.55	0.	1.4934e-002
45461	12.747	5.6	5.e-002	3.5692
45462	12.897	5.6	0.	1.4288e-002
45463	12.847	5.55	0.	1.377e-002
45464	12.847	5.6	5.e-002	3.5945
45465	12.996	5.6	0.	1.3288e-002
45466	12.947	5.55	0.	1.2741e-002
45467	12.947	5.6	5.e-002	3.6153
45468	13.096	5.6	0.	1.2382e-002
45469	13.046	5.55	0.	1.183e-002
45470	13.046	5.6	5.e-002	3.6319
45471	13.195	5.6	0.	1.1569e-002
45472	13.146	5.55	0.	1.1004e-002
45473	13.146	5.6	5.e-002	3.645
45474	13.295	5.6	0.	1.0844e-002
45475	13.245	5.55	0.	1.0272e-002
45476	13.245	5.6	5.e-002	3.6548
45477	13.395	5.6	0.	1.0182e-002
45478	13.345	5.55	0.	9.6183e-003
45479	13.345	5.6	5.e-002	3.662
45480	13.494	5.6	0.	9.5685e-003
45481	13.444	5.55	0.	9.0136e-003
45482	13.444	5.6	5.e-002	3.6668
45483	13.594	5.6	0.	9.0011e-003
45484	13.544	5.55	0.	8.4545e-003
45485	13.544	5.6	5.e-002	3.6695
45486	13.693	5.6	0.	8.4797e-003
45487	13.644	5.55	0.	7.9393e-003
45488	13.644	5.6	5.e-002	3.6704
45489	13.793	5.6	0.	8.0155e-003
45490	13.743	5.55	0.	7.4632e-003
45491	13.743	5.6	5.e-002	3.6697
45492	13.893	5.6	0.	7.6576e-003
45493	13.843	5.55	0.	7.038e-003
45494	13.843	5.6	5.e-002	3.6676
45495	13.992	5.6	0.	8.2982e-003
45496	13.942	5.55	0.	6.6642e-003
45497	13.942	5.6	5.e-002	3.6644
45498	14.092	5.6	0.	0.42919
45499	14.042	5.55	0.	6.3246e-003
45500	14.042	5.6	5.e-002	3.6603
45501	14.191	5.6	0.	0.9669
45502	14.142	5.55	0.	6.1643e-003
45503	14.142	5.6	5.e-002	3.6551
45504	14.291	5.6	0.	1.5042
45505	14.241	5.55	0.	1.4644e-002
45506	14.241	5.6	5.e-002	3.6492
45507	14.39	5.6	0.	2.0397
45508	14.341	5.55	0.	0.5668
45509	14.341	5.6	5.e-002	3.6426
45510	14.49	5.6	0.	2.572
45511	14.44	5.55	0.	1.145
45512	14.44	5.6	5.e-002	3.6356
45513	14.59	5.6	0.	3.1003
45514	14.54	5.55	0.	1.7189
45515	14.54	5.6	5.e-002	3.628
45516	14.689	5.6	0.	3.6238
45517	14.639	5.55	0.	2.2873
45518	14.639	5.6	5.e-002	3.6201
45519	14.789	5.6	0.	4.1417
45520	14.739	5.55	0.	2.8494
45521	14.739	5.6	5.e-002	3.6118
45522	14.888	5.6	0.	4.6535
45523	14.839	5.55	0.	3.4047
45524	14.839	5.6	5.e-002	3.6033
45525	14.988	5.6	0.	5.1588
45526	14.938	5.55	0.	3.9527
45527	14.938	5.6	5.e-002	3.5945
45528	15.088	5.6	0.	5.6573
45529	15.038	5.55	0.	4.4929
45530	15.038	5.6	5.e-002	3.5857
45531	15.187	5.6	0.	6.1487
45532	15.137	5.55	0.	5.0252
45533	15.137	5.6	5.e-002	3.5766
45534	15.287	5.6	0.	6.633
45535	15.237	5.55	0.	5.5493
45536	15.237	5.6	5.e-002	3.5675
45537	15.386	5.6	0.	7.11
45538	15.336	5.55	0.	6.0652
45539	15.336	5.6	5.e-002	3.5583
45540	15.486	5.6	0.	7.5797
45541	15.436	5.55	0.	6.5727
45542	15.436	5.6	5.e-002	3.5491
45543	15.585	5.6	0.	8.0423
45544	15.536	5.55	0.	7.0721
45545	15.536	5.6	5.e-002	3.5398
45546	15.685	5.6	0.	8.4977
45547	15.635	5.55	0.	7.5634
45548	15.635	5.6	5.e-002	3.5305
45549	15.785	5.6	0.	8.9461
45550	15.735	5.55	0.	8.0467
45551	15.735	5.6	5.e-002	3.5212
45552	15.884	5.6	0.	9.3877
45553	15.834	5.55	0.	8.5222
45554	15.834	5.6	5.e-002	3.5119
45555	15.984	5.6	0.	9.8228
45556	15.934	5.55	0.	8.9902
45557	15.934	5.6	5.e-002	3.5027
45558	16.083	5.6	0.	10.251
45559	16.034	5.55	0.	9.4509
45560	16.034	5.6	5.e-002	3.4934
45561	16.183	5.6	0.	10.674
45562	16.133	5.55	0.	9.9046
45563	16.133	5.6	5.e-002	3.4842
45564	16.282	5.6	0.	11.091
45565	16.233	5.55	0.	10.352
45566	16.233	5.6	5.e-002	3.4751
45567	16.382	5.6	0.	11.502
45568	16.332	5.55	0.	10.792
45569	16.332	5.6	5.e-002	3.466
45570	16.482	5.6	0.	11.908
45571	16.432	5.55	0.	11.227
45572	16.432	5.6	5.e-002	3.457
45573	16.581	5.6	0.	12.309
45574	16.531	5.55	0.	11.656
45575	16.531	5.6	5.e-002	3.448
45576	16.681	5.6	0.	12.706
45577	16.631	5.55	0.	12.08
45578	16.631	5.6	5.e-002	3.4391
45579	16.78	5.6	0.	13.098
45580	16.731	5.55	0.	12.499
45581	16.731	5.6	5.e-002	3.4304
45582	16.88	5.6	0.	13.487
45583	16.83	5.55	0.	12.913
45584	16.83	5.6	5.e-002	3.4217
45585	16.98	5.6	0.	13.871
45586	16.93	5.55	0.	13.323
45587	16.93	5.6	5.e-002	3.4131
45588	17.079	5.6	0.	14.253
45589	17.029	5.55	0.	13.729
45590	17.029	5.6	5.e-002	3.4045
45591	17.179	5.6	0.	14.632
45592	17.129	5.55	0.	14.132
45593	17.129	5.6	5.e-002	3.396
45594	17.278	5.6	0.	15.008
45595	17.229	5.55	0.	14.532
45596	17.229	5.6	5.e-002	3.3876
45597	17.378	5.6	0.	15.383
45598	17.328	5.55	0.	14.93
45599	17.328	5.6	5.e-002	3.3793
45600	17.477	5.6	0.	15.755
45601	17.428	5.55	0.	15.325
45602	17.428	5.6	5.e-002	3.3711
45603	17.577	5.6	0.	16.126
45604	17.527	5.55	0.	15.718
45605	17.527	5.6	5.e-002	3.3629
45606	17.677	5.6	0.	16.496
45607	17.627	5.55	0.	16.111
45608	17.627	5.6	5.e-002	3.3548
45609	17.776	5.6	0.	16.865
45610	17.726	5.55	0.	16.502
45611	17.726	5.6	5.e-002	3.3469
45612	17.876	5.6	0.	17.234
45613	17.826	5.55	0.	16.892
45614	17.826	5.6	5.e-002	3.339
45615	17.975	5.6	0.	17.603
45616	17.926	5.55	0.	17.283
45617	17.926	5.6	5.e-002	3.3312
45618	18.075	5.6	0.	17.972
45619	18.025	5.55	0.	17.673
45620	18.025	5.6	5.e-002	3.3235
45621	18.175	5.6	0.	18.341
45622	18.125	5.55	0.	18.064
45623	18.125	5.6	5.e-002	3.316
45624	18.274	5.6	0.	18.712
45625	18.224	5.55	0.	18.456
45626	18.224	5.6	5.e-002	3.3085
45627	18.374	5.6	0.	19.084
45628	18.324	5.55	0.	18.85
45629	18.324	5.6	5.e-002	3.3011
45630	18.473	5.6	0.	19.457
45631	18.423	5.55	0.	19.245
45632	18.423	5.6	5.e-002	3.2939
45633	18.573	5.6	0.	19.833
45634	18.523	5.55	0.	19.642
45635	18.523	5.6	5.e-002	3.2867
45636	18.672	5.6	0.	20.21
45637	18.623	5.55	0.	20.041
45638	18.623	5.6	5.e-002	3.2796
45639	18.772	5.6	0.	20.59
45640	18.722	5.55	0.	20.444
45641	18.722	5.6	5.e-002	3.2726
45642	18.872	5.6	0.	20.973
45643	18.822	5.55	0.	20.849
45644	18.822	5.6	5.e-002	3.2657
45645	18.971	5.6	0.	21.359
45646	18.921	5.55	0.	21.258
45647	18.921	5.6	5.e-002	3.2589
45648	19.071	5.6	0.	21.749
45649	19.021	5.55	0.	21.671
45650	19.021	5.6	5.e-002	3.2522
45651	19.17	5.6	0.	22.142
45652	19.121	5.55	0.	22.088
45653	19.121	5.6	5.e-002	3.2457
45654	19.27	5.6	0.	22.539
45655	19.22	5.55	0.	22.51
45656	19.22	5.6	5.e-002	3.2393
45657	19.369	5.6	0.	22.941
45658	19.32	5.55	0.	22.936
45659	19.32	5.6	5.e-002	3.2329
45660	19.469	5.6	0.	23.347
45661	19.419	5.55	0.	23.368
45662	19.419	5.6	5.e-002	3.2268
45663	19.569	5.6	0.	23.757
45664	19.519	5.55	0.	23.805
45665	19.519	5.6	5.e-002	3.2207
45666	19.668	5.6	0.	24.173
45667	19.618	5.55	0.	24.248
45668	19.618	5.6	5.e-002	3.2148
45669	19.768	5.6	0.	24.595
45670	19.718	5.55	0.	24.698
45671	19.718	5.6	5.e-002	3.209
45672	19.867	5.6	0.	25.021
45673	19.818	5.55	0.	25.154
45674	19.818	5.6	5.e-002	3.2033
45675	19.967	5.6	0.	25.454
45676	19.917	5.55	0.	25.617
45677	19.917	5.6	5.e-002	3.1978
45678	20.067	5.6	0.	25.893
45679	20.017	5.55	0.	26.087
45680	20.017	5.6	5.e-002	3.1924
45681	20.166	5.6	0.	26.337
45682	20.116	5.55	0.	26.564
45683	20.116	5.6	5.e-002	3.1872
45684	20.266	5.6	0.	26.789
45685	20.216	5.55	0.	27.05
45686	20.216	5.6	5.e-002	3.1821
45687	20.365	5.6	0.	27.247
45688	20.316	5.55	0.	27.543
45689	20.316	5.6	5.e-002	3.1771
45690	20.465	5.6	0.	27.712
45691	20.415	5.55	0.	28.045
45692	20.415	5.6	5.e-002	3.1723
45693	20.564	5.6	0.	28.185
45694	20.515	5.55	0.	28.556
45695	20.515	5.6	5.e-002	3.1677
45696	20.664	5.6	0.	28.665
45697	20.614	5.55	0.	29.077
45698	20.614	5.6	5.e-002	3.1632
45699	20.764	5.6	0.	29.153
45700	20.714	5.55	0.	29.607
45701	20.714	5.6	5.e-002	3.1589
45702	20.863	5.6	0.	29.648
45703	20.813	5.55	0.	30.146
45704	20.813	5.6	5.e-002	3.1548
45705	20.963	5.6	0.	30.152
45706	20.913	5.55	0.	30.697
45707	20.913	5.6	5.e-002	3.1508
45708	21.062	5.6	0.	30.664
45709	21.013	5.55	0.	31.258
45710	21.013	5.6	5.e-002	3.1471
45711	21.162	5.6	0.	31.185
45712	21.112	5.55	0.	31.83
45713	21.112	5.6	5.e-002	3.1435
45714	21.262	5.6	0.	31.716
45715	21.212	5.55	0.	32.414
45716	21.212	5.6	5.e-002	3.1402
45717	21.361	5.6	0.	32.256
45718	21.311	5.55	0.	33.01
45719	21.311	5.6	5.e-002	3.137
45720	21.461	5.6	0.	32.805
45721	21.411	5.55	0.	33.62
45722	21.411	5.6	5.e-002	3.134
45723	21.56	5.6	0.	33.365
45724	21.51	5.55	0.	34.243
45725	21.51	5.6	5.e-002	3.1313
45726	21.66	5.6	0.	33.937
45727	21.61	5.55	0.	34.881
45728	21.61	5.6	5.e-002	3.1288
45729	21.759	5.6	0.	34.52
45730	21.71	5.55	0.	35.535
45731	21.71	5.6	5.e-002	3.1265
45732	21.859	5.6	0.	35.115
45733	21.809	5.55	0.	36.205
45734	21.809	5.6	5.e-002	3.1245
45735	21.959	5.6	0.	35.724
45736	21.909	5.55	0.	36.894
45737	21.909	5.6	5.e-002	3.1228
45738	22.058	5.6	0.	36.348
45739	22.008	5.55	0.	37.602
45740	22.008	5.6	5.e-002	3.1213
45741	22.158	5.6	0.	36.989
45742	22.108	5.55	0.	38.332
45743	22.108	5.6	5.e-002	3.1202
45744	22.257	5.6	0.	37.648
45745	22.208	5.55	0.	39.087
45746	22.208	5.6	5.e-002	3.1195
45747	22.357	5.6	0.	38.329
45748	22.307	5.55	0.	39.87
45749	22.307	5.6	5.e-002	3.1191
45750	22.456	5.6	0.	39.034
45751	22.407	5.55	0.	40.684
45752	22.407	5.6	5.e-002	3.1193
45753	22.556	5.6	0.	39.768
45754	22.506	5.55	0.	41.534
45755	22.506	5.6	5.e-002	3.12
45756	22.656	5.6	0.	40.536
45757	22.606	5.55	0.	42.427
45758	22.606	5.6	5.e-002	3.1213
45759	22.755	5.6	0.	41.346
45760	22.705	5.55	0.	43.371
45761	22.705	5.6	5.e-002	3.1235
45762	22.855	5.6	0.	42.209
45763	22.805	5.55	0.	44.377
45764	22.805	5.6	5.e-002	3.1268
45765	22.954	5.6	0.	43.138
45766	22.905	5.55	0.	45.459
45767	22.905	5.6	5.e-002	3.1315
45768	23.054	5.6	0.	44.151
45769	23.004	5.55	0.	46.635
45770	23.004	5.6	5.e-002	3.1379
45771	23.154	5.6	0.	45.276
45772	23.104	5.55	0.	47.93
45773	23.104	5.6	5.e-002	3.1469
45774	23.253	5.6	0.	46.551
45775	23.203	5.55	0.	49.381
45776	23.203	5.6	5.e-002	3.1593
45777	23.353	5.6	0.	48.03
45778	23.303	5.55	0.	51.034
45779	23.303	5.6	5.e-002	3.1768
45780	23.452	5.6	0.	49.793
45781	23.403	5.55	0.	52.955
45782	23.403	5.6	5.e-002	3.2017
45783	23.552	5.6	0.	51.954
45784	23.502	5.55	0.	55.236
45785	23.502	5.6	5.e-002	3.2376
45786	23.651	5.6	0.	54.667
45787	23.602	5.55	0.	57.998
45788	23.602	5.6	5.e-002	3.29
45789	23.751	5.6	0.	58.132
45790	23.701	5.55	0.	61.387
45791	23.701	5.6	5.e-002	3.3669
45792	23.851	5.6	0.	62.62
45793	23.801	5.55	0.	65.579
45794	23.801	5.6	5.e-002	3.4808
45795	23.9	5.55	0.	70.818
45796	23.9	5.6	5.e-002	3.7199
45797	23.95	5.6	0.	66.391
45798	8.316	5.5	0.	364.89
45799	8.2662	5.45	0.	499.24
45800	8.2662	5.5	5.e-002	35.962
45801	8.2165	5.5	0.	270.78
45802	8.4156	5.5	0.	260.4
45803	8.3658	5.45	0.	351.38
45804	8.3658	5.5	5.e-002	31.041
45805	8.5152	5.5	0.	204.73
45806	8.4654	5.45	0.	272.07
45807	8.4654	5.5	5.e-002	30.633
45808	8.6148	5.5	0.	172.17
45809	8.565	5.45	0.	221.33
45810	8.565	5.5	5.e-002	29.772
45811	8.7144	5.5	0.	153.26
45812	8.6646	5.45	0.	189.07
45813	8.6646	5.5	5.e-002	28.492
45814	8.8139	5.5	0.	141.94
45815	8.7642	5.45	0.	168.44
45816	8.7642	5.5	5.e-002	26.894
45817	8.9135	5.5	0.	134.41
45818	8.8637	5.45	0.	154.55
45819	8.8637	5.5	5.e-002	25.086
45820	9.0131	5.5	0.	128.48
45821	8.9633	5.45	0.	144.26
45822	8.9633	5.5	5.e-002	23.156
45823	9.1127	5.5	0.	122.94
45824	9.0629	5.45	0.	135.69
45825	9.0629	5.5	5.e-002	21.175
45826	9.2123	5.5	0.	117.2
45827	9.1625	5.45	0.	127.8
45828	9.1625	5.5	5.e-002	19.199
45829	9.3118	5.5	0.	111.03
45830	9.2621	5.45	0.	120.05
45831	9.2621	5.5	5.e-002	17.268
45832	9.4114	5.5	0.	104.39
45833	9.3616	5.45	0.	112.19
45834	9.3616	5.5	5.e-002	15.414
45835	9.511	5.5	0.	97.339
45836	9.4612	5.45	0.	104.17
45837	9.4612	5.5	5.e-002	13.657
45838	9.6106	5.5	0.	90.005
45839	9.5608	5.45	0.	96.019
45840	9.5608	5.5	5.e-002	12.011
45841	9.7102	5.5	0.	82.515
45842	9.6604	5.45	0.	87.817
45843	9.6604	5.5	5.e-002	10.483
45844	9.8097	5.5	0.	74.999
45845	9.76	5.45	0.	79.66
45846	9.76	5.5	5.e-002	9.0764
45847	9.9093	5.5	0.	67.572
45848	9.8595	5.45	0.	71.643
45849	9.8595	5.5	5.e-002	7.7907
45850	10.009	5.5	0.	60.332
45851	9.9591	5.45	0.	63.85
45852	9.9591	5.5	5.e-002	6.6242
45853	10.108	5.5	0.	53.357
45854	10.059	5.45	0.	56.354
45855	10.059	5.5	5.e-002	5.5739
45856	10.208	5.5	0.	46.709
45857	10.158	5.45	0.	49.213
45858	10.158	5.5	5.e-002	4.6367
45859	10.308	5.5	0.	40.432
45860	10.258	5.45	0.	42.47
45861	10.258	5.5	5.e-002	3.8109
45862	10.407	5.5	0.	34.556
45863	10.357	5.45	0.	36.154
45864	10.357	5.5	5.e-002	3.0968
45865	10.507	5.5	0.	29.1
45866	10.457	5.45	0.	30.283
45867	10.457	5.5	5.e-002	2.4998
45868	10.606	5.5	0.	24.072
45869	10.557	5.45	0.	24.867
45870	10.557	5.5	5.e-002	2.032
45871	10.706	5.5	0.	19.472
45872	10.656	5.45	0.	19.907
45873	10.656	5.5	5.e-002	1.712
45874	10.806	5.5	0.	15.294
45875	10.756	5.45	0.	15.399
45876	10.756	5.5	5.e-002	1.5547
45877	10.905	5.5	0.	11.529
45878	10.855	5.45	0.	11.335
45879	10.855	5.5	5.e-002	1.5488
45880	11.005	5.5	0.	8.1678
45881	10.955	5.45	0.	7.712
45882	10.955	5.5	5.e-002	1.652
45883	11.104	5.5	0.	5.2084
45884	11.055	5.45	0.	4.5506
45885	11.055	5.5	5.e-002	1.8153
45886	11.204	5.5	0.	2.6948
45887	11.154	5.45	0.	2.0014
45888	11.154	5.5	5.e-002	2.0026
45889	11.303	5.5	0.	0.93038
45890	11.254	5.45	0.	0.64165
45891	11.254	5.5	5.e-002	2.1929
45892	11.403	5.5	0.	0.31891
45893	11.353	5.45	0.	0.27447
45894	11.353	5.5	5.e-002	2.3756
45895	11.503	5.5	0.	0.16288
45896	11.453	5.45	0.	0.15737
45897	11.453	5.5	5.e-002	2.5452
45898	11.602	5.5	0.	0.103
45899	11.552	5.45	0.	0.10467
45900	11.552	5.5	5.e-002	2.6999
45901	11.702	5.5	0.	7.2879e-002
45902	11.652	5.45	0.	7.5855e-002
45903	11.652	5.5	5.e-002	2.8392
45904	11.801	5.5	0.	5.5252e-002
45905	11.752	5.45	0.	5.8146e-002
45906	11.752	5.5	5.e-002	2.9632
45907	11.901	5.5	0.	4.3925e-002
45908	11.851	5.45	0.	4.6413e-002
45909	11.851	5.5	5.e-002	3.073
45910	12.001	5.5	0.	3.6147e-002
45911	11.951	5.45	0.	3.8207e-002
45912	11.951	5.5	5.e-002	3.1697
45913	12.1	5.5	0.	3.0532e-002
45914	12.05	5.45	0.	3.2204e-002
45915	12.05	5.5	5.e-002	3.2542
45916	12.2	5.5	0.	2.6318e-002
45917	12.15	5.45	0.	2.7663e-002
45918	12.15	5.5	5.e-002	3.3278
45919	12.299	5.5	0.	2.3063e-002
45920	12.249	5.45	0.	2.4132e-002
45921	12.249	5.5	5.e-002	3.3915
45922	12.399	5.5	0.	2.0486e-002
45923	12.349	5.45	0.	2.1334e-002
45924	12.349	5.5	5.e-002	3.4464
45925	12.498	5.5	0.	1.8382e-002
45926	12.449	5.45	0.	1.9069e-002
45927	12.449	5.5	5.e-002	3.4933
45928	12.598	5.5	0.	1.6624e-002
45929	12.548	5.45	0.	1.7168e-002
45930	12.548	5.5	5.e-002	3.5332
45931	12.698	5.5	0.	1.5124e-002
45932	12.648	5.45	0.	1.5575e-002
45933	12.648	5.5	5.e-002	3.5668
45934	12.797	5.5	0.	1.3892e-002
45935	12.747	5.45	0.	1.4231e-002
45936	12.747	5.5	5.e-002	3.5948
45937	12.897	5.5	0.	1.2802e-002
45938	12.847	5.45	0.	1.3069e-002
45939	12.847	5.5	5.e-002	3.6179
45940	12.996	5.5	0.	1.1845e-002
45941	12.947	5.45	0.	1.2063e-002
45942	12.947	5.5	5.e-002	3.6366
45943	13.096	5.5	0.	1.0991e-002
45944	13.046	5.45	0.	1.1174e-002
45945	13.046	5.5	5.e-002	3.6515
45946	13.195	5.5	0.	1.0231e-002
45947	13.146	5.45	0.	1.0378e-002
45948	13.146	5.5	5.e-002	3.663
45949	13.295	5.5	0.	9.561e-003
45950	13.245	5.45	0.	9.6826e-003
45951	13.245	5.5	5.e-002	3.6715
45952	13.395	5.5	0.	8.9599e-003
45953	13.345	5.45	0.	9.0747e-003
45954	13.345	5.5	5.e-002	3.6775
45955	13.494	5.5	0.	8.4117e-003
45956	13.444	5.45	0.	8.5238e-003
45957	13.444	5.5	5.e-002	3.6812
45958	13.594	5.5	0.	7.9136e-003
45959	13.544	5.45	0.	8.0282e-003
45960	13.544	5.5	5.e-002	3.683
45961	13.693	5.5	0.	7.4634e-003
45962	13.644	5.45	0.	7.5841e-003
45963	13.644	5.5	5.e-002	3.683
45964	13.793	5.5	0.	7.0663e-003
45965	13.743	5.45	0.	7.1906e-003
45966	13.743	5.5	5.e-002	3.6816
45967	13.893	5.5	0.	6.7282e-003
45968	13.843	5.45	0.	6.8584e-003
45969	13.843	5.5	5.e-002	3.6788
45970	13.992	5.5	0.	6.4388e-003
45971	13.942	5.45	0.	6.5861e-003
45972	13.942	5.5	5.e-002	3.675
45973	14.092	5.5	0.	6.2213e-003
45974	14.042	5.45	0.	6.3485e-003
45975	14.042	5.5	5.e-002	3.6703
45976	14.191	5.5	0.	6.1617e-003
45977	14.142	5.45	0.	6.1969e-003
45978	14.142	5.5	5.e-002	3.6647
45979	14.291	5.5	0.	6.5042e-003
45980	14.241	5.45	0.	6.1819e-003
45981	14.241	5.5	5.e-002	3.6583
45982	14.39	5.5	0.	9.3471e-003
45983	14.341	5.45	0.	6.3987e-003
45984	14.341	5.5	5.e-002	3.6513
45985	14.49	5.5	0.	0.30357
45986	14.44	5.45	0.	7.2089e-003
45987	14.44	5.5	5.e-002	3.6438
45988	14.59	5.5	0.	0.91412
45989	14.54	5.45	0.	1.0779e-002
45990	14.54	5.5	5.e-002	3.636
45991	14.689	5.5	0.	1.5207
45992	14.639	5.45	0.	0.17208
45993	14.639	5.5	5.e-002	3.6277
45994	14.789	5.5	0.	2.1201
45995	14.739	5.45	0.	0.80168
45996	14.739	5.5	5.e-002	3.6191
45997	14.888	5.5	0.	2.7115
45998	14.839	5.45	0.	1.4367
45999	14.839	5.5	5.e-002	3.6102
46000	14.988	5.5	0.	3.2944
46001	14.938	5.45	0.	2.0633
46002	14.938	5.5	5.e-002	3.6013
46003	15.088	5.5	0.	3.8684
46004	15.038	5.45	0.	2.6804
46005	15.038	5.5	5.e-002	3.5921
46006	15.187	5.5	0.	4.4334
46007	15.137	5.45	0.	3.2875
46008	15.137	5.5	5.e-002	3.5829
46009	15.287	5.5	0.	4.9891
46010	15.237	5.45	0.	3.8843
46011	15.237	5.5	5.e-002	3.5735
46012	15.386	5.5	0.	5.5357
46013	15.336	5.45	0.	4.4709
46014	15.336	5.5	5.e-002	3.5642
46015	15.486	5.5	0.	6.073
46016	15.436	5.45	0.	5.0471
46017	15.436	5.5	5.e-002	3.5548
46018	15.585	5.5	0.	6.6012
46019	15.536	5.45	0.	5.6132
46020	15.536	5.5	5.e-002	3.5453
46021	15.685	5.5	0.	7.1204
46022	15.635	5.45	0.	6.1693
46023	15.635	5.5	5.e-002	3.5358
46024	15.785	5.5	0.	7.6309
46025	15.735	5.45	0.	6.7156
46026	15.735	5.5	5.e-002	3.5264
46027	15.884	5.5	0.	8.133
46028	15.834	5.45	0.	7.2523
46029	15.834	5.5	5.e-002	3.517
46030	15.984	5.5	0.	8.6267
46031	15.934	5.45	0.	7.7799
46032	15.934	5.5	5.e-002	3.5076
46033	16.083	5.5	0.	9.1126
46034	16.034	5.45	0.	8.2984
46035	16.034	5.5	5.e-002	3.4982
46036	16.183	5.5	0.	9.5909
46037	16.133	5.45	0.	8.8085
46038	16.133	5.5	5.e-002	3.4888
46039	16.282	5.5	0.	10.062
46040	16.233	5.45	0.	9.3105
46041	16.233	5.5	5.e-002	3.4796
46042	16.382	5.5	0.	10.526
46043	16.332	5.45	0.	9.8046
46044	16.332	5.5	5.e-002	3.4704
46045	16.482	5.5	0.	10.984
46046	16.432	5.45	0.	10.292
46047	16.432	5.5	5.e-002	3.4613
46048	16.581	5.5	0.	11.436
46049	16.531	5.45	0.	10.772
46050	16.531	5.5	5.e-002	3.4523
46051	16.681	5.5	0.	11.882
46052	16.631	5.45	0.	11.245
46053	16.631	5.5	5.e-002	3.4433
46054	16.78	5.5	0.	12.322
46055	16.731	5.45	0.	11.713
46056	16.731	5.5	5.e-002	3.4345
46057	16.88	5.5	0.	12.758
46058	16.83	5.45	0.	12.175
46059	16.83	5.5	5.e-002	3.4257
46060	16.98	5.5	0.	13.19
46061	16.93	5.45	0.	12.632
46062	16.93	5.5	5.e-002	3.417
46063	17.079	5.5	0.	13.618
46064	17.029	5.45	0.	13.085
46065	17.029	5.5	5.e-002	3.4084
46066	17.179	5.5	0.	14.042
46067	17.129	5.45	0.	13.533
46068	17.129	5.5	5.e-002	3.3999
46069	17.278	5.5	0.	14.463
46070	17.229	5.45	0.	13.978
46071	17.229	5.5	5.e-002	3.3915
46072	17.378	5.5	0.	14.882
46073	17.328	5.45	0.	14.42
46074	17.328	5.5	5.e-002	3.3831
46075	17.477	5.5	0.	15.299
46076	17.428	5.45	0.	14.86
46077	17.428	5.5	5.e-002	3.3749
46078	17.577	5.5	0.	15.713
46079	17.527	5.45	0.	15.297
46080	17.527	5.5	5.e-002	3.3667
46081	17.677	5.5	0.	16.127
46082	17.627	5.45	0.	15.733
46083	17.627	5.5	5.e-002	3.3586
46084	17.776	5.5	0.	16.54
46085	17.726	5.45	0.	16.168
46086	17.726	5.5	5.e-002	3.3506
46087	17.876	5.5	0.	16.952
46088	17.826	5.45	0.	16.602
46089	17.826	5.5	5.e-002	3.3428
46090	17.975	5.5	0.	17.364
46091	17.926	5.45	0.	17.035
46092	17.926	5.5	5.e-002	3.335
46093	18.075	5.5	0.	17.777
46094	18.025	5.45	0.	17.47
46095	18.025	5.5	5.e-002	3.3273
46096	18.175	5.5	0.	18.191
46097	18.125	5.45	0.	17.905
46098	18.125	5.5	5.e-002	3.3197
46099	18.274	5.5	0.	18.606
46100	18.224	5.45	0.	18.341
46101	18.224	5.5	5.e-002	3.3123
46102	18.374	5.5	0.	19.022
46103	18.324	5.45	0.	18.779
46104	18.324	5.5	5.e-002	3.305
46105	18.473	5.5	0.	19.441
46106	18.423	5.45	0.	19.219
46107	18.423	5.5	5.e-002	3.2977
46108	18.573	5.5	0.	19.863
46109	18.523	5.45	0.	19.662
46110	18.523	5.5	5.e-002	3.2906
46111	18.672	5.5	0.	20.287
46112	18.623	5.45	0.	20.108
46113	18.623	5.5	5.e-002	3.2835
46114	18.772	5.5	0.	20.715
46115	18.722	5.45	0.	20.558
46116	18.722	5.5	5.e-002	3.2766
46117	18.872	5.5	0.	21.147
46118	18.822	5.45	0.	21.012
46119	18.822	5.5	5.e-002	3.2698
46120	18.971	5.5	0.	21.583
46121	18.921	5.45	0.	21.47
46122	18.921	5.5	5.e-002	3.2631
46123	19.071	5.5	0.	22.023
46124	19.021	5.45	0.	21.934
46125	19.021	5.5	5.e-002	3.2565
46126	19.17	5.5	0.	22.469
46127	19.121	5.45	0.	22.403
46128	19.121	5.5	5.e-002	3.25
46129	19.27	5.5	0.	22.92
46130	19.22	5.45	0.	22.878
46131	19.22	5.5	5.e-002	3.2437
46132	19.369	5.5	0.	23.377
46133	19.32	5.45	0.	23.36
46134	19.32	5.5	5.e-002	3.2375
46135	19.469	5.5	0.	23.84
46136	19.419	5.45	0.	23.848
46137	19.419	5.5	5.e-002	3.2314
46138	19.569	5.5	0.	24.31
46139	19.519	5.45	0.	24.344
46140	19.519	5.5	5.e-002	3.2255
46141	19.668	5.5	0.	24.787
46142	19.618	5.45	0.	24.847
46143	19.618	5.5	5.e-002	3.2196
46144	19.768	5.5	0.	25.272
46145	19.718	5.45	0.	25.359
46146	19.718	5.5	5.e-002	3.214
46147	19.867	5.5	0.	25.764
46148	19.818	5.45	0.	25.88
46149	19.818	5.5	5.e-002	3.2085
46150	19.967	5.5	0.	26.265
46151	19.917	5.45	0.	26.41
46152	19.917	5.5	5.e-002	3.2031
46153	20.067	5.5	0.	26.774
46154	20.017	5.45	0.	26.95
46155	20.017	5.5	5.e-002	3.1979
46156	20.166	5.5	0.	27.293
46157	20.116	5.45	0.	27.5
46158	20.116	5.5	5.e-002	3.1929
46159	20.266	5.5	0.	27.82
46160	20.216	5.45	0.	28.061
46161	20.216	5.5	5.e-002	3.188
46162	20.365	5.5	0.	28.358
46163	20.316	5.45	0.	28.634
46164	20.316	5.5	5.e-002	3.1832
46165	20.465	5.5	0.	28.907
46166	20.415	5.45	0.	29.218
46167	20.415	5.5	5.e-002	3.1787
46168	20.564	5.5	0.	29.466
46169	20.515	5.45	0.	29.815
46170	20.515	5.5	5.e-002	3.1743
46171	20.664	5.5	0.	30.037
46172	20.614	5.45	0.	30.425
46173	20.614	5.5	5.e-002	3.1701
46174	20.764	5.5	0.	30.619
46175	20.714	5.45	0.	31.048
46176	20.714	5.5	5.e-002	3.1661
46177	20.863	5.5	0.	31.214
46178	20.813	5.45	0.	31.686
46179	20.813	5.5	5.e-002	3.1622
46180	20.963	5.5	0.	31.822
46181	20.913	5.45	0.	32.339
46182	20.913	5.5	5.e-002	3.1586
46183	21.062	5.5	0.	32.444
46184	21.013	5.45	0.	33.008
46185	21.013	5.5	5.e-002	3.1552
46186	21.162	5.5	0.	33.08
46187	21.112	5.45	0.	33.694
46188	21.112	5.5	5.e-002	3.152
46189	21.262	5.5	0.	33.731
46190	21.212	5.45	0.	34.397
46191	21.212	5.5	5.e-002	3.1491
46192	21.361	5.5	0.	34.399
46193	21.311	5.45	0.	35.119
46194	21.311	5.5	5.e-002	3.1464
46195	21.461	5.5	0.	35.083
46196	21.411	5.45	0.	35.861
46197	21.411	5.5	5.e-002	3.1439
46198	21.56	5.5	0.	35.785
46199	21.51	5.45	0.	36.624
46200	21.51	5.5	5.e-002	3.1417
46201	21.66	5.5	0.	36.506
46202	21.61	5.45	0.	37.41
46203	21.61	5.5	5.e-002	3.1398
46204	21.759	5.5	0.	37.248
46205	21.71	5.45	0.	38.22
46206	21.71	5.5	5.e-002	3.1381
46207	21.859	5.5	0.	38.013
46208	21.809	5.45	0.	39.056
46209	21.809	5.5	5.e-002	3.1368
46210	21.959	5.5	0.	38.802
46211	21.909	5.45	0.	39.921
46212	21.909	5.5	5.e-002	3.1358
46213	22.058	5.5	0.	39.619
46214	22.008	5.45	0.	40.818
46215	22.008	5.5	5.e-002	3.1353
46216	22.158	5.5	0.	40.465
46217	22.108	5.45	0.	41.749
46218	22.108	5.5	5.e-002	3.1351
46219	22.257	5.5	0.	41.345
46220	22.208	5.45	0.	42.719
46221	22.208	5.5	5.e-002	3.1354
46222	22.357	5.5	0.	42.263
46223	22.307	5.45	0.	43.732
46224	22.307	5.5	5.e-002	3.1363
46225	22.456	5.5	0.	43.225
46226	22.407	5.45	0.	44.794
46227	22.407	5.5	5.e-002	3.1378
46228	22.556	5.5	0.	44.237
46229	22.506	5.45	0.	45.913
46230	22.506	5.5	5.e-002	3.1401
46231	22.656	5.5	0.	45.309
46232	22.606	5.45	0.	47.098
46233	22.606	5.5	5.e-002	3.1432
46234	22.755	5.5	0.	46.452
46235	22.705	5.45	0.	48.358
46236	22.705	5.5	5.e-002	3.1475
46237	22.855	5.5	0.	47.68
46238	22.805	5.45	0.	49.71
46239	22.805	5.5	5.e-002	3.1531
46240	22.954	5.5	0.	49.013
46241	22.905	5.45	0.	51.171
46242	22.905	5.5	5.e-002	3.1605
46243	23.054	5.5	0.	50.474
46244	23.004	5.45	0.	52.763
46245	23.004	5.5	5.e-002	3.1702
46246	23.154	5.5	0.	52.098
46247	23.104	5.45	0.	54.517
46248	23.104	5.5	5.e-002	3.1829
46249	23.253	5.5	0.	53.929
46250	23.203	5.45	0.	56.472
46251	23.203	5.5	5.e-002	3.1996
46252	23.353	5.5	0.	56.025
46253	23.303	5.45	0.	58.677
46254	23.303	5.5	5.e-002	3.2219
46255	23.452	5.5	0.	58.463
46256	23.403	5.45	0.	61.196
46257	23.403	5.5	5.e-002	3.2518
46258	23.552	5.5	0.	61.34
46259	23.502	5.45	0.	64.107
46260	23.502	5.5	5.e-002	3.2923
46261	23.651	5.5	0.	64.767
46262	23.602	5.45	0.	67.504
46263	23.602	5.5	5.e-002	3.3473
46264	23.751	5.5	0.	68.869
46265	23.701	5.45	0.	71.478
46266	23.701	5.5	5.e-002	3.4214
46267	23.851	5.5	0.	73.805
46268	23.801	5.45	0.	76.132
46269	23.801	5.5	5.e-002	3.5214
46270	23.9	5.45	0.	81.622
46271	23.9	5.5	5.e-002	3.7277
46272	23.95	5.5	0.	77.974
46273	8.316	5.4	0.	475.03
46274	8.2662	5.35	0.	622.91
46275	8.2662	5.4	5.e-002	37.878
46276	8.2165	5.4	0.	348.5
46277	8.4156	5.4	0.	353.33
46278	8.3658	5.35	0.	456.7
46279	8.3658	5.4	5.e-002	31.832
46280	8.5152	5.4	0.	281.25
46281	8.4654	5.35	0.	361.89
46282	8.4654	5.4	5.e-002	31.27
46283	8.6148	5.4	0.	232.98
46284	8.565	5.35	0.	294.8
46285	8.565	5.4	5.e-002	30.305
46286	8.7144	5.4	0.	200.62
46287	8.6646	5.35	0.	247.29
46288	8.6646	5.4	5.e-002	28.936
46289	8.8139	5.4	0.	178.52
46290	8.7642	5.35	0.	213.64
46291	8.7642	5.4	5.e-002	27.253
46292	8.9135	5.4	0.	162.59
46293	8.8637	5.35	0.	189.16
46294	8.8637	5.4	5.e-002	25.364
46295	9.0131	5.4	0.	150.16
46296	8.9633	5.35	0.	170.48
46297	8.9633	5.4	5.e-002	23.362
46298	9.1127	5.4	0.	139.58
46299	9.0629	5.35	0.	155.32
46300	9.0629	5.4	5.e-002	21.322
46301	9.2123	5.4	0.	129.91
46302	9.1625	5.35	0.	142.27
46303	9.1625	5.4	5.e-002	19.3
46304	9.3118	5.4	0.	120.64
46305	9.2621	5.35	0.	130.48
46306	9.2621	5.4	5.e-002	17.34
46307	9.4114	5.4	0.	111.54
46308	9.3616	5.35	0.	119.45
46309	9.3616	5.4	5.e-002	15.469
46310	9.511	5.4	0.	102.51
46311	9.4612	5.35	0.	108.93
46312	9.4612	5.4	5.e-002	13.708
46313	9.6106	5.4	0.	93.571
46314	9.5608	5.35	0.	98.804
46315	9.5608	5.4	5.e-002	12.067
46316	9.7102	5.4	0.	84.762
46317	9.6604	5.35	0.	89.035
46318	9.6604	5.4	5.e-002	10.553
46319	9.8097	5.4	0.	76.15
46320	9.76	5.35	0.	79.625
46321	9.76	5.4	5.e-002	9.1664
46322	9.9093	5.4	0.	67.805
46323	9.8595	5.35	0.	70.602
46324	9.8595	5.4	5.e-002	7.9064
46325	10.009	5.4	0.	59.786
46326	9.9591	5.35	0.	61.996
46327	9.9591	5.4	5.e-002	6.7704
46328	10.108	5.4	0.	52.148
46329	10.059	5.35	0.	53.84
46330	10.059	5.4	5.e-002	5.755
46331	10.208	5.4	0.	44.929
46332	10.158	5.35	0.	46.16
46333	10.158	5.4	5.e-002	4.8575
46334	10.308	5.4	0.	38.161
46335	10.258	5.35	0.	38.974
46336	10.258	5.4	5.e-002	4.0762
46337	10.407	5.4	0.	31.862
46338	10.357	5.35	0.	32.297
46339	10.357	5.4	5.e-002	3.4119
46340	10.507	5.4	0.	26.041
46341	10.457	5.35	0.	26.134
46342	10.457	5.4	5.e-002	2.8682
46343	10.606	5.4	0.	20.702
46344	10.557	5.35	0.	20.485
46345	10.557	5.4	5.e-002	2.4515
46346	10.706	5.4	0.	15.843
46347	10.656	5.35	0.	15.35
46348	10.656	5.4	5.e-002	2.168
46349	10.806	5.4	0.	11.46
46350	10.756	5.35	0.	10.731
46351	10.756	5.4	5.e-002	2.0163
46352	10.905	5.4	0.	7.5594
46353	10.855	5.35	0.	6.6571
46354	10.855	5.4	5.e-002	1.9806
46355	11.005	5.4	0.	4.1945
46356	10.955	5.35	0.	3.279
46357	10.955	5.4	5.e-002	2.032
46358	11.104	5.4	0.	1.6678
46359	11.055	5.35	0.	1.185
46360	11.055	5.4	5.e-002	2.1387
46361	11.204	5.4	0.	0.5771
46362	11.154	5.35	0.	0.48763
46363	11.154	5.4	5.e-002	2.2744
46364	11.303	5.4	0.	0.27765
46365	11.254	5.35	0.	0.26597
46366	11.254	5.4	5.e-002	2.4212
46367	11.403	5.4	0.	0.16734
46368	11.353	5.35	0.	0.1699
46369	11.353	5.4	5.e-002	2.568
46370	11.503	5.4	0.	0.1137
46371	11.453	5.35	0.	0.11886
46372	11.453	5.4	5.e-002	2.7084
46373	11.602	5.4	0.	8.3116e-002
46374	11.552	5.35	0.	8.8226e-002
46375	11.552	5.4	5.e-002	2.8391
46376	11.702	5.4	0.	6.3853e-002
46377	11.652	5.35	0.	6.8305e-002
46378	11.652	5.4	5.e-002	2.9587
46379	11.801	5.4	0.	5.0882e-002
46380	11.752	5.35	0.	5.4592e-002
46381	11.752	5.4	5.e-002	3.0664
46382	11.901	5.4	0.	4.1721e-002
46383	11.851	5.35	0.	4.4763e-002
46384	11.851	5.4	5.e-002	3.1625
46385	12.001	5.4	0.	3.4993e-002
46386	11.951	5.35	0.	3.7484e-002
46387	11.951	5.4	5.e-002	3.2477
46388	12.1	5.4	0.	2.989e-002
46389	12.05	5.35	0.	3.1927e-002
46390	12.05	5.4	5.e-002	3.3226
46391	12.2	5.4	0.	2.5919e-002
46392	12.15	5.35	0.	2.7586e-002
46393	12.15	5.4	5.e-002	3.3879
46394	12.299	5.4	0.	2.2769e-002
46395	12.249	5.35	0.	2.4129e-002
46396	12.249	5.4	5.e-002	3.4446
46397	12.399	5.4	0.	2.0229e-002
46398	12.349	5.35	0.	2.1342e-002
46399	12.349	5.4	5.e-002	3.4934
46400	12.498	5.4	0.	1.8127e-002
46401	12.449	5.35	0.	1.9059e-002
46402	12.449	5.4	5.e-002	3.5353
46403	12.598	5.4	0.	1.6359e-002
46404	12.548	5.35	0.	1.7128e-002
46405	12.548	5.4	5.e-002	3.5707
46406	12.698	5.4	0.	1.487e-002
46407	12.648	5.35	0.	1.5503e-002
46408	12.648	5.4	5.e-002	3.6004
46409	12.797	5.4	0.	1.3601e-002
46410	12.747	5.35	0.	1.4131e-002
46411	12.747	5.4	5.e-002	3.625
46412	12.897	5.4	0.	1.2505e-002
46413	12.847	5.35	0.	1.2948e-002
46414	12.847	5.4	5.e-002	3.6452
46415	12.996	5.4	0.	1.155e-002
46416	12.947	5.35	0.	1.1927e-002
46417	12.947	5.4	5.e-002	3.6614
46418	13.096	5.4	0.	1.0704e-002
46419	13.046	5.35	0.	1.1032e-002
46420	13.046	5.4	5.e-002	3.6741
46421	13.195	5.4	0.	9.9598e-003
46422	13.146	5.35	0.	1.0237e-002
46423	13.146	5.4	5.e-002	3.6836
46424	13.295	5.4	0.	9.3134e-003
46425	13.245	5.35	0.	9.5493e-003
46426	13.245	5.4	5.e-002	3.6904
46427	13.395	5.4	0.	8.7425e-003
46428	13.345	5.35	0.	8.9557e-003
46429	13.345	5.4	5.e-002	3.6949
46430	13.494	5.4	0.	8.2307e-003
46431	13.444	5.35	0.	8.4243e-003
46432	13.444	5.4	5.e-002	3.6973
46433	13.594	5.4	0.	7.7748e-003
46434	13.544	5.35	0.	7.9519e-003
46435	13.544	5.4	5.e-002	3.6978
46436	13.693	5.4	0.	7.372e-003
46437	13.644	5.35	0.	7.537e-003
46438	13.644	5.4	5.e-002	3.6968
46439	13.793	5.4	0.	7.0258e-003
46440	13.743	5.35	0.	7.1727e-003
46441	13.743	5.4	5.e-002	3.6944
46442	13.893	5.4	0.	6.7393e-003
46443	13.843	5.35	0.	6.872e-003
46444	13.843	5.4	5.e-002	3.6908
46445	13.992	5.4	0.	6.4964e-003
46446	13.942	5.35	0.	6.6267e-003
46447	13.942	5.4	5.e-002	3.6863
46448	14.092	5.4	0.	6.3029e-003
46449	14.042	5.35	0.	6.4069e-003
46450	14.042	5.4	5.e-002	3.6808
46451	14.191	5.4	0.	6.1941e-003
46452	14.142	5.35	0.	6.2503e-003
46453	14.142	5.4	5.e-002	3.6745
46454	14.291	5.4	0.	6.1974e-003
46455	14.241	5.35	0.	6.1774e-003
46456	14.241	5.4	5.e-002	3.6676
46457	14.39	5.4	0.	6.3709e-003
46458	14.341	5.35	0.	6.1959e-003
46459	14.341	5.4	5.e-002	3.6602
46460	14.49	5.4	0.	6.8736e-003
46461	14.44	5.35	0.	6.3543e-003
46462	14.44	5.4	5.e-002	3.6522
46463	14.59	5.4	0.	8.208e-003
46464	14.54	5.35	0.	6.7435e-003
46465	14.54	5.4	5.e-002	3.6439
46466	14.689	5.4	0.	1.3251e-002
46467	14.639	5.35	0.	7.5915e-003
46468	14.639	5.4	5.e-002	3.6353
46469	14.789	5.4	0.	0.15587
46470	14.739	5.35	0.	9.6968e-003
46471	14.739	5.4	5.e-002	3.6263
46472	14.888	5.4	0.	0.79908
46473	14.839	5.35	0.	1.7888e-002
46474	14.839	5.4	5.e-002	3.6171
46475	14.988	5.4	0.	1.4578
46476	14.938	5.35	0.	0.2304
46477	14.938	5.4	5.e-002	3.6079
46478	15.088	5.4	0.	2.1074
46479	15.038	5.35	0.	0.90077
46480	15.038	5.4	5.e-002	3.5984
46481	15.187	5.4	0.	2.7462
46482	15.137	5.35	0.	1.5803
46483	15.137	5.4	5.e-002	3.5889
46484	15.287	5.4	0.	3.3738
46485	15.237	5.35	0.	2.2494
46486	15.237	5.4	5.e-002	3.5793
46487	15.386	5.4	0.	3.9901
46488	15.336	5.35	0.	2.9066
46489	15.336	5.4	5.e-002	3.5698
46490	15.486	5.4	0.	4.5952
46491	15.436	5.35	0.	3.5516
46492	15.436	5.4	5.e-002	3.5601
46493	15.585	5.4	0.	5.1893
46494	15.536	5.35	0.	4.1845
46495	15.536	5.4	5.e-002	3.5505
46496	15.685	5.4	0.	5.7725
46497	15.635	5.35	0.	4.8054
46498	15.635	5.4	5.e-002	3.5408
46499	15.785	5.4	0.	6.3451
46500	15.735	5.35	0.	5.4146
46501	15.735	5.4	5.e-002	3.5312
46502	15.884	5.4	0.	6.9074
46503	15.834	5.35	0.	6.0124
46504	15.834	5.4	5.e-002	3.5216
46505	15.984	5.4	0.	7.4599
46506	15.934	5.35	0.	6.5993
46507	15.934	5.4	5.e-002	3.5121
46508	16.083	5.4	0.	8.0028
46509	16.034	5.35	0.	7.1756
46510	16.034	5.4	5.e-002	3.5026
46511	16.183	5.4	0.	8.5366
46512	16.133	5.35	0.	7.7418
46513	16.133	5.4	5.e-002	3.4931
46514	16.282	5.4	0.	9.0618
46515	16.233	5.35	0.	8.2983
46516	16.233	5.4	5.e-002	3.4838
46517	16.382	5.4	0.	9.5787
46518	16.332	5.35	0.	8.8458
46519	16.332	5.4	5.e-002	3.4745
46520	16.482	5.4	0.	10.088
46521	16.432	5.35	0.	9.3846
46522	16.432	5.4	5.e-002	3.4653
46523	16.581	5.4	0.	10.59
46524	16.531	5.35	0.	9.9153
46525	16.531	5.4	5.e-002	3.4562
46526	16.681	5.4	0.	11.085
46527	16.631	5.35	0.	10.439
46528	16.631	5.4	5.e-002	3.4472
46529	16.78	5.4	0.	11.574
46530	16.731	5.35	0.	10.955
46531	16.731	5.4	5.e-002	3.4382
46532	16.88	5.4	0.	12.058
46533	16.83	5.35	0.	11.465
46534	16.83	5.4	5.e-002	3.4294
46535	16.98	5.4	0.	12.536
46536	16.93	5.35	0.	11.968
46537	16.93	5.4	5.e-002	3.4207
46538	17.079	5.4	0.	13.01
46539	17.029	5.35	0.	12.467
46540	17.029	5.4	5.e-002	3.412
46541	17.179	5.4	0.	13.479
46542	17.129	5.35	0.	12.961
46543	17.129	5.4	5.e-002	3.4034
46544	17.278	5.4	0.	13.945
46545	17.229	5.35	0.	13.451
46546	17.229	5.4	5.e-002	3.395
46547	17.378	5.4	0.	14.408
46548	17.328	5.35	0.	13.937
46549	17.328	5.4	5.e-002	3.3866
46550	17.477	5.4	0.	14.868
46551	17.428	5.35	0.	14.421
46552	17.428	5.4	5.e-002	3.3783
46553	17.577	5.4	0.	15.327
46554	17.527	5.35	0.	14.902
46555	17.527	5.4	5.e-002	3.3701
46556	17.677	5.4	0.	15.784
46557	17.627	5.35	0.	15.381
46558	17.627	5.4	5.e-002	3.362
46559	17.776	5.4	0.	16.24
46560	17.726	5.35	0.	15.859
46561	17.726	5.4	5.e-002	3.354
46562	17.876	5.4	0.	16.696
46563	17.826	5.35	0.	16.336
46564	17.826	5.4	5.e-002	3.3461
46565	17.975	5.4	0.	17.152
46566	17.926	5.35	0.	16.813
46567	17.926	5.4	5.e-002	3.3384
46568	18.075	5.4	0.	17.608
46569	18.025	5.35	0.	17.291
46570	18.025	5.4	5.e-002	3.3307
46571	18.175	5.4	0.	18.066
46572	18.125	5.35	0.	17.77
46573	18.125	5.4	5.e-002	3.3232
46574	18.274	5.4	0.	18.525
46575	18.224	5.35	0.	18.25
46576	18.224	5.4	5.e-002	3.3158
46577	18.374	5.4	0.	18.987
46578	18.324	5.35	0.	18.733
46579	18.324	5.4	5.e-002	3.3085
46580	18.473	5.4	0.	19.452
46581	18.423	5.35	0.	19.218
46582	18.423	5.4	5.e-002	3.3012
46583	18.573	5.4	0.	19.919
46584	18.523	5.35	0.	19.707
46585	18.523	5.4	5.e-002	3.2941
46586	18.672	5.4	0.	20.391
46587	18.623	5.35	0.	20.2
46588	18.623	5.4	5.e-002	3.2871
46589	18.772	5.4	0.	20.867
46590	18.722	5.35	0.	20.698
46591	18.722	5.4	5.e-002	3.2803
46592	18.872	5.4	0.	21.348
46593	18.822	5.35	0.	21.2
46594	18.822	5.4	5.e-002	3.2735
46595	18.971	5.4	0.	21.834
46596	18.921	5.35	0.	21.708
46597	18.921	5.4	5.e-002	3.2669
46598	19.071	5.4	0.	22.326
46599	19.021	5.35	0.	22.223
46600	19.021	5.4	5.e-002	3.2603
46601	19.17	5.4	0.	22.825
46602	19.121	5.35	0.	22.744
46603	19.121	5.4	5.e-002	3.254
46604	19.27	5.4	0.	23.331
46605	19.22	5.35	0.	23.273
46606	19.22	5.4	5.e-002	3.2477
46607	19.369	5.4	0.	23.844
46608	19.32	5.35	0.	23.81
46609	19.32	5.4	5.e-002	3.2416
46610	19.469	5.4	0.	24.365
46611	19.419	5.35	0.	24.356
46612	19.419	5.4	5.e-002	3.2357
46613	19.569	5.4	0.	24.895
46614	19.519	5.35	0.	24.911
46615	19.519	5.4	5.e-002	3.2299
46616	19.668	5.4	0.	25.434
46617	19.618	5.35	0.	25.475
46618	19.618	5.4	5.e-002	3.2242
46619	19.768	5.4	0.	25.982
46620	19.718	5.35	0.	26.05
46621	19.718	5.4	5.e-002	3.2187
46622	19.867	5.4	0.	26.541
46623	19.818	5.35	0.	26.637
46624	19.818	5.4	5.e-002	3.2133
46625	19.967	5.4	0.	27.111
46626	19.917	5.35	0.	27.235
46627	19.917	5.4	5.e-002	3.2081
46628	20.067	5.4	0.	27.692
46629	20.017	5.35	0.	27.846
46630	20.017	5.4	5.e-002	3.2031
46631	20.166	5.4	0.	28.285
46632	20.116	5.35	0.	28.469
46633	20.116	5.4	5.e-002	3.1982
46634	20.266	5.4	0.	28.891
46635	20.216	5.35	0.	29.107
46636	20.216	5.4	5.e-002	3.1935
46637	20.365	5.4	0.	29.51
46638	20.316	5.35	0.	29.759
46639	20.316	5.4	5.e-002	3.189
46640	20.465	5.4	0.	30.143
46641	20.415	5.35	0.	30.427
46642	20.415	5.4	5.e-002	3.1846
46643	20.564	5.4	0.	30.791
46644	20.515	5.35	0.	31.111
46645	20.515	5.4	5.e-002	3.1805
46646	20.664	5.4	0.	31.454
46647	20.614	5.35	0.	31.812
46648	20.614	5.4	5.e-002	3.1766
46649	20.764	5.4	0.	32.134
46650	20.714	5.35	0.	32.531
46651	20.714	5.4	5.e-002	3.1728
46652	20.863	5.4	0.	32.83
46653	20.813	5.35	0.	33.268
46654	20.813	5.4	5.e-002	3.1693
46655	20.963	5.4	0.	33.545
46656	20.913	5.35	0.	34.026
46657	20.913	5.4	5.e-002	3.166
46658	21.062	5.4	0.	34.278
46659	21.013	5.35	0.	34.805
46660	21.013	5.4	5.e-002	3.163
46661	21.162	5.4	0.	35.032
46662	21.112	5.35	0.	35.606
46663	21.112	5.4	5.e-002	3.1602
46664	21.262	5.4	0.	35.807
46665	21.212	5.35	0.	36.431
46666	21.212	5.4	5.e-002	3.1576
46667	21.361	5.4	0.	36.605
46668	21.311	5.35	0.	37.281
46669	21.311	5.4	5.e-002	3.1554
46670	21.461	5.4	0.	37.426
46671	21.411	5.35	0.	38.157
46672	21.411	5.4	5.e-002	3.1534
46673	21.56	5.4	0.	38.274
46674	21.51	5.35	0.	39.062
46675	21.51	5.4	5.e-002	3.1517
46676	21.66	5.4	0.	39.149
46677	21.61	5.35	0.	39.998
46678	21.61	5.4	5.e-002	3.1504
46679	21.759	5.4	0.	40.054
46680	21.71	5.35	0.	40.968
46681	21.71	5.4	5.e-002	3.1494
46682	21.859	5.4	0.	40.992
46683	21.809	5.35	0.	41.973
46684	21.809	5.4	5.e-002	3.1487
46685	21.959	5.4	0.	41.965
46686	21.909	5.35	0.	43.017
46687	21.909	5.4	5.e-002	3.1485
46688	22.058	5.4	0.	42.978
46689	22.008	5.35	0.	44.104
46690	22.008	5.4	5.e-002	3.1488
46691	22.158	5.4	0.	44.034
46692	22.108	5.35	0.	45.238
46693	22.108	5.4	5.e-002	3.1496
46694	22.257	5.4	0.	45.139
46695	22.208	5.35	0.	46.425
46696	22.208	5.4	5.e-002	3.1509
46697	22.357	5.4	0.	46.298
46698	22.307	5.35	0.	47.67
46699	22.307	5.4	5.e-002	3.153
46700	22.456	5.4	0.	47.519
46701	22.407	5.35	0.	48.981
46702	22.407	5.4	5.e-002	3.1558
46703	22.556	5.4	0.	48.812
46704	22.506	5.35	0.	50.368
46705	22.506	5.4	5.e-002	3.1595
46706	22.656	5.4	0.	50.187
46707	22.606	5.35	0.	51.84
46708	22.606	5.4	5.e-002	3.1643
46709	22.755	5.4	0.	51.659
46710	22.705	5.35	0.	53.412
46711	22.705	5.4	5.e-002	3.1704
46712	22.855	5.4	0.	53.245
46713	22.805	5.35	0.	55.099
46714	22.805	5.4	5.e-002	3.1782
46715	22.954	5.4	0.	54.967
46716	22.905	5.35	0.	56.923
46717	22.905	5.4	5.e-002	3.188
46718	23.054	5.4	0.	56.853
46719	23.004	5.35	0.	58.908
46720	23.004	5.4	5.e-002	3.2004
46721	23.154	5.4	0.	58.939
46722	23.104	5.35	0.	61.085
46723	23.104	5.4	5.e-002	3.216
46724	23.253	5.4	0.	61.267
46725	23.203	5.35	0.	63.492
46726	23.203	5.4	5.e-002	3.236
46727	23.353	5.4	0.	63.894
46728	23.303	5.35	0.	66.175
46729	23.303	5.4	5.e-002	3.2616
46730	23.452	5.4	0.	66.883
46731	23.403	5.35	0.	69.19
46732	23.403	5.4	5.e-002	3.2945
46733	23.552	5.4	0.	70.308
46734	23.502	5.35	0.	72.596
46735	23.502	5.4	5.e-002	3.3369
46736	23.651	5.4	0.	74.243
46737	23.602	5.35	0.	76.461
46738	23.602	5.4	5.e-002	3.3912
46739	23.751	5.4	0.	78.762
46740	23.701	5.35	0.	80.837
46741	23.701	5.4	5.e-002	3.4603
46742	23.851	5.4	0.	83.967
46743	23.801	5.35	0.	85.786
46744	23.801	5.4	5.e-002	3.5479
46745	23.9	5.35	0.	91.419
46746	23.9	5.4	5.e-002	3.7294
46747	23.95	5.4	0.	88.411
46748	8.316	5.3	0.	594.47
46749	8.2662	5.25	0.	757.1
46750	8.2662	5.3	5.e-002	40.481
46751	8.2165	5.3	0.	433.34
46752	8.4156	5.3	0.	455.58
46753	8.3658	5.25	0.	571.17
46754	8.3658	5.3	5.e-002	33.202
46755	8.5152	5.3	0.	367.43
46756	8.4654	5.25	0.	460.64
46757	8.4654	5.3	5.e-002	32.414
46758	8.6148	5.3	0.	302.96
46759	8.565	5.25	0.	376.83
46760	8.565	5.3	5.e-002	31.252
46761	8.7144	5.3	0.	255.76
46762	8.6646	5.25	0.	313.04
46763	8.6646	5.3	5.e-002	29.701
46764	8.8139	5.3	0.	220.98
46765	8.7642	5.25	0.	264.78
46766	8.7642	5.3	5.e-002	27.851
46767	8.9135	5.3	0.	194.64
46768	8.8637	5.25	0.	227.9
46769	8.8637	5.3	5.e-002	25.818
46770	9.0131	5.3	0.	173.87
46771	8.9633	5.25	0.	199.05
46772	8.9633	5.3	5.e-002	23.697
46773	9.1127	5.3	0.	156.7
46774	9.0629	5.25	0.	175.73
46775	9.0629	5.3	5.e-002	21.564
46776	9.2123	5.3	0.	141.85
46777	9.1625	5.25	0.	156.24
46778	9.1625	5.3	5.e-002	19.476
46779	9.3118	5.3	0.	128.54
46780	9.2621	5.25	0.	139.4
46781	9.2621	5.3	5.e-002	17.472
46782	9.4114	5.3	0.	116.28
46783	9.3616	5.25	0.	124.45
46784	9.3616	5.3	5.e-002	15.579
46785	9.511	5.3	0.	104.79
46786	9.4612	5.25	0.	110.92
46787	9.4612	5.3	5.e-002	13.81
46788	9.6106	5.3	0.	93.944
46789	9.5608	5.25	0.	98.482
46790	9.5608	5.3	5.e-002	12.175
46791	9.7102	5.3	0.	83.654
46792	9.6604	5.25	0.	86.955
46793	9.6604	5.3	5.e-002	10.676
46794	9.8097	5.3	0.	73.894
46795	9.76	5.25	0.	76.219
46796	9.76	5.3	5.e-002	9.3129
46797	9.9093	5.3	0.	64.658
46798	9.8595	5.25	0.	66.202
46799	9.8595	5.3	5.e-002	8.0818
46800	10.009	5.3	0.	55.952
46801	9.9591	5.25	0.	56.86
46802	9.9591	5.3	5.e-002	6.9792
46803	10.108	5.3	0.	47.783
46804	10.059	5.25	0.	48.167
46805	10.059	5.3	5.e-002	6.0012
46806	10.208	5.3	0.	40.158
46807	10.158	5.25	0.	40.105
46808	10.158	5.3	5.e-002	5.1443
46809	10.308	5.3	0.	33.083
46810	10.258	5.25	0.	32.661
46811	10.258	5.3	5.e-002	4.4061
46812	10.407	5.3	0.	26.558
46813	10.357	5.25	0.	25.824
46814	10.357	5.3	5.e-002	3.7858
46815	10.507	5.3	0.	20.582
46816	10.457	5.25	0.	19.587
46817	10.457	5.3	5.e-002	3.2837
46818	10.606	5.3	0.	15.157
46819	10.557	5.25	0.	13.954
46820	10.557	5.3	5.e-002	2.9003
46821	10.706	5.3	0.	10.293
46822	10.656	5.25	0.	8.9605
46823	10.656	5.3	5.e-002	2.6339
46824	10.806	5.3	0.	6.0547
46825	10.756	5.25	0.	4.7714
46826	10.756	5.3	5.e-002	2.4765
46827	10.905	5.3	0.	2.7377
46828	10.855	5.25	0.	1.9596
46829	10.855	5.3	5.e-002	2.4127
46830	11.005	5.3	0.	1.022
46831	10.955	5.25	0.	0.82732
46832	10.955	5.3	5.e-002	2.4212
46833	11.104	5.3	0.	0.47668
46834	11.055	5.25	0.	0.44138
46835	11.055	5.3	5.e-002	2.4797
46836	11.204	5.3	0.	0.27717
46837	11.154	5.25	0.	0.27497
46838	11.154	5.3	5.e-002	2.5688
46839	11.303	5.3	0.	0.18247
46840	11.254	5.25	0.	0.18777
46841	11.254	5.3	5.e-002	2.6738
46842	11.403	5.3	0.	0.12957
46843	11.353	5.25	0.	0.13613
46844	11.353	5.3	5.e-002	2.7844
46845	11.503	5.3	0.	9.6849e-002
46846	11.453	5.25	0.	0.10298
46847	11.453	5.3	5.e-002	2.8941
46848	11.602	5.3	0.	7.5162e-002
46849	11.552	5.25	0.	8.046e-002
46850	11.552	5.3	5.e-002	2.9989
46851	11.702	5.3	0.	6.0049e-002
46852	11.652	5.25	0.	6.4496e-002
46853	11.652	5.3	5.e-002	3.0966
46854	11.801	5.3	0.	4.9114e-002
46855	11.752	5.25	0.	5.2793e-002
46856	11.752	5.3	5.e-002	3.186
46857	11.901	5.3	0.	4.0972e-002
46858	11.851	5.25	0.	4.3999e-002
46859	11.851	5.3	5.e-002	3.2666
46860	12.001	5.3	0.	3.4748e-002
46861	11.951	5.25	0.	3.7247e-002
46862	11.951	5.3	5.e-002	3.3386
46863	12.1	5.3	0.	2.988e-002
46864	12.05	5.25	0.	3.1945e-002
46865	12.05	5.3	5.e-002	3.4022
46866	12.2	5.3	0.	2.6003e-002
46867	12.15	5.25	0.	2.7713e-002
46868	12.15	5.3	5.e-002	3.458
46869	12.299	5.3	0.	2.2875e-002
46870	12.249	5.25	0.	2.4286e-002
46871	12.249	5.3	5.e-002	3.5065
46872	12.399	5.3	0.	2.032e-002
46873	12.349	5.25	0.	2.1489e-002
46874	12.349	5.3	5.e-002	3.5482
46875	12.498	5.3	0.	1.8187e-002
46876	12.449	5.25	0.	1.9178e-002
46877	12.449	5.3	5.e-002	3.5839
46878	12.598	5.3	0.	1.6383e-002
46879	12.548	5.25	0.	1.7211e-002
46880	12.548	5.3	5.e-002	3.614
46881	12.698	5.3	0.	1.4862e-002
46882	12.648	5.25	0.	1.5551e-002
46883	12.648	5.3	5.e-002	3.6391
46884	12.797	5.3	0.	1.3565e-002
46885	12.747	5.25	0.	1.4148e-002
46886	12.747	5.3	5.e-002	3.6598
46887	12.897	5.3	0.	1.2447e-002
46888	12.847	5.25	0.	1.2939e-002
46889	12.847	5.3	5.e-002	3.6765
46890	12.996	5.3	0.	1.1477e-002
46891	12.947	5.25	0.	1.19e-002
46892	12.947	5.3	5.e-002	3.6896
46893	13.096	5.3	0.	1.0624e-002
46894	13.046	5.25	0.	1.0991e-002
46895	13.046	5.3	5.e-002	3.6996
46896	13.195	5.3	0.	9.8787e-003
46897	13.146	5.25	0.	1.0189e-002
46898	13.146	5.3	5.e-002	3.7068
46899	13.295	5.3	0.	9.2364e-003
46900	13.245	5.25	0.	9.5002e-003
46901	13.245	5.3	5.e-002	3.7116
46902	13.395	5.3	0.	8.675e-003
46903	13.345	5.25	0.	8.9091e-003
46904	13.345	5.3	5.e-002	3.7142
46905	13.494	5.3	0.	8.176e-003
46906	13.444	5.25	0.	8.385e-003
46907	13.444	5.3	5.e-002	3.715
46908	13.594	5.3	0.	7.7375e-003
46909	13.544	5.25	0.	7.9223e-003
46910	13.544	5.3	5.e-002	3.7142
46911	13.693	5.3	0.	7.3539e-003
46912	13.644	5.25	0.	7.5199e-003
46913	13.644	5.3	5.e-002	3.7119
46914	13.793	5.3	0.	7.0276e-003
46915	13.743	5.25	0.	7.1684e-003
46916	13.743	5.3	5.e-002	3.7084
46917	13.893	5.3	0.	6.7605e-003
46918	13.843	5.25	0.	6.8811e-003
46919	13.843	5.3	5.e-002	3.7038
46920	13.992	5.3	0.	6.5308e-003
46921	13.942	5.25	0.	6.6464e-003
46922	13.942	5.3	5.e-002	3.6983
46923	14.092	5.3	0.	6.3414e-003
46924	14.042	5.25	0.	6.4319e-003
46925	14.042	5.3	5.e-002	3.6921
46926	14.191	5.3	0.	6.2169e-003
46927	14.142	5.25	0.	6.272e-003
46928	14.142	5.3	5.e-002	3.6851
46929	14.291	5.3	0.	6.1631e-003
46930	14.241	5.25	0.	6.1772e-003
46931	14.241	5.3	5.e-002	3.6775
46932	14.39	5.3	0.	6.1935e-003
46933	14.341	5.25	0.	6.1432e-003
46934	14.341	5.3	5.e-002	3.6695
46935	14.49	5.3	0.	6.3415e-003
46936	14.44	5.25	0.	6.1867e-003
46937	14.44	5.3	5.e-002	3.661
46938	14.59	5.3	0.	6.6645e-003
46939	14.54	5.25	0.	6.3309e-003
46940	14.54	5.3	5.e-002	3.6522
46941	14.689	5.3	0.	7.3109e-003
46942	14.639	5.25	0.	6.6065e-003
46943	14.639	5.3	5.e-002	3.643
46944	14.789	5.3	0.	8.6567e-003
46945	14.739	5.25	0.	7.1518e-003
46946	14.739	5.3	5.e-002	3.6337
46947	14.888	5.3	0.	1.202e-002
46948	14.839	5.25	0.	8.1916e-003
46949	14.839	5.3	5.e-002	3.6242
46950	14.988	5.3	0.	2.8261e-002
46951	14.938	5.25	0.	1.031e-002
46952	14.938	5.3	5.e-002	3.6146
46953	15.088	5.3	0.	0.39478
46954	15.038	5.25	0.	1.6283e-002
46955	15.038	5.3	5.e-002	3.6048
46956	15.187	5.3	0.	1.0934
46957	15.137	5.25	0.	6.9231e-002
46958	15.137	5.3	5.e-002	3.595
46959	15.287	5.3	0.	1.7906
46960	15.237	5.25	0.	0.65692
46961	15.237	5.3	5.e-002	3.5852
46962	15.386	5.3	0.	2.4761
46963	15.336	5.25	0.	1.3773
46964	15.336	5.3	5.e-002	3.5754
46965	15.486	5.3	0.	3.1487
46966	15.436	5.25	0.	2.0893
46967	15.436	5.3	5.e-002	3.5655
46968	15.585	5.3	0.	3.8084
46969	15.536	5.25	0.	2.7882
46970	15.536	5.3	5.e-002	3.5557
46971	15.685	5.3	0.	4.4554
46972	15.635	5.25	0.	3.4735
46973	15.635	5.3	5.e-002	3.5458
46974	15.785	5.3	0.	5.0899
46975	15.735	5.25	0.	4.1453
46976	15.735	5.3	5.e-002	3.536
46977	15.884	5.3	0.	5.7124
46978	15.834	5.25	0.	4.8039
46979	15.834	5.3	5.e-002	3.5263
46980	15.984	5.3	0.	6.3232
46981	15.934	5.25	0.	5.4498
46982	15.934	5.3	5.e-002	3.5166
46983	16.083	5.3	0.	6.9229
46984	16.034	5.25	0.	6.0834
46985	16.034	5.3	5.e-002	3.507
46986	16.183	5.3	0.	7.5119
46987	16.133	5.25	0.	6.7053
46988	16.133	5.3	5.e-002	3.4974
46989	16.282	5.3	0.	8.0909
46990	16.233	5.25	0.	7.3162
46991	16.233	5.3	5.e-002	3.4879
46992	16.382	5.3	0.	8.6603
46993	16.332	5.25	0.	7.9164
46994	16.332	5.3	5.e-002	3.4785
46995	16.482	5.3	0.	9.2207
46996	16.432	5.25	0.	8.5067
46997	16.432	5.3	5.e-002	3.4692
46998	16.581	5.3	0.	9.7727
46999	16.531	5.25	0.	9.0878
47000	16.531	5.3	5.e-002	3.46
47001	16.681	5.3	0.	10.317
47002	16.631	5.25	0.	9.6601
47003	16.631	5.3	5.e-002	3.4509
47004	16.78	5.3	0.	10.854
47005	16.731	5.25	0.	10.224
47006	16.731	5.3	5.e-002	3.4419
47007	16.88	5.3	0.	11.384
47008	16.83	5.25	0.	10.781
47009	16.83	5.3	5.e-002	3.433
47010	16.98	5.3	0.	11.909
47011	16.93	5.25	0.	11.332
47012	16.93	5.3	5.e-002	3.4242
47013	17.079	5.3	0.	12.428
47014	17.029	5.25	0.	11.876
47015	17.029	5.3	5.e-002	3.4155
47016	17.179	5.3	0.	12.942
47017	17.129	5.25	0.	12.415
47018	17.129	5.3	5.e-002	3.4069
47019	17.278	5.3	0.	13.453
47020	17.229	5.25	0.	12.949
47021	17.229	5.3	5.e-002	3.3984
47022	17.378	5.3	0.	13.96
47023	17.328	5.25	0.	13.479
47024	17.328	5.3	5.e-002	3.3899
47025	17.477	5.3	0.	14.464
47026	17.428	5.25	0.	14.006
47027	17.428	5.3	5.e-002	3.3816
47028	17.577	5.3	0.	14.965
47029	17.527	5.25	0.	14.531
47030	17.527	5.3	5.e-002	3.3734
47031	17.677	5.3	0.	15.466
47032	17.627	5.25	0.	15.053
47033	17.627	5.3	5.e-002	3.3653
47034	17.776	5.3	0.	15.965
47035	17.726	5.25	0.	15.574
47036	17.726	5.3	5.e-002	3.3573
47037	17.876	5.3	0.	16.464
47038	17.826	5.25	0.	16.094
47039	17.826	5.3	5.e-002	3.3494
47040	17.975	5.3	0.	16.963
47041	17.926	5.25	0.	16.614
47042	17.926	5.3	5.e-002	3.3417
47043	18.075	5.3	0.	17.463
47044	18.025	5.25	0.	17.135
47045	18.025	5.3	5.e-002	3.334
47046	18.175	5.3	0.	17.965
47047	18.125	5.25	0.	17.658
47048	18.125	5.3	5.e-002	3.3265
47049	18.274	5.3	0.	18.469
47050	18.224	5.25	0.	18.182
47051	18.224	5.3	5.e-002	3.3191
47052	18.374	5.3	0.	18.976
47053	18.324	5.25	0.	18.71
47054	18.324	5.3	5.e-002	3.3118
47055	18.473	5.3	0.	19.486
47056	18.423	5.25	0.	19.24
47057	18.423	5.3	5.e-002	3.3046
47058	18.573	5.3	0.	20.
47059	18.523	5.25	0.	19.775
47060	18.523	5.3	5.e-002	3.2976
47061	18.672	5.3	0.	20.519
47062	18.623	5.25	0.	20.314
47063	18.623	5.3	5.e-002	3.2906
47064	18.772	5.3	0.	21.043
47065	18.722	5.25	0.	20.859
47066	18.722	5.3	5.e-002	3.2838
47067	18.872	5.3	0.	21.573
47068	18.822	5.25	0.	21.411
47069	18.822	5.3	5.e-002	3.2771
47070	18.971	5.3	0.	22.11
47071	18.921	5.25	0.	21.969
47072	18.921	5.3	5.e-002	3.2706
47073	19.071	5.3	0.	22.654
47074	19.021	5.25	0.	22.534
47075	19.021	5.3	5.e-002	3.2641
47076	19.17	5.3	0.	23.205
47077	19.121	5.25	0.	23.108
47078	19.121	5.3	5.e-002	3.2578
47079	19.27	5.3	0.	23.766
47080	19.22	5.25	0.	23.691
47081	19.22	5.3	5.e-002	3.2517
47082	19.369	5.3	0.	24.335
47083	19.32	5.25	0.	24.283
47084	19.32	5.3	5.e-002	3.2457
47085	19.469	5.3	0.	24.915
47086	19.419	5.25	0.	24.886
47087	19.419	5.3	5.e-002	3.2398
47088	19.569	5.3	0.	25.505
47089	19.519	5.25	0.	25.5
47090	19.519	5.3	5.e-002	3.2341
47091	19.668	5.3	0.	26.106
47092	19.618	5.25	0.	26.126
47093	19.618	5.3	5.e-002	3.2286
47094	19.768	5.3	0.	26.719
47095	19.718	5.25	0.	26.765
47096	19.718	5.3	5.e-002	3.2232
47097	19.867	5.3	0.	27.345
47098	19.818	5.25	0.	27.417
47099	19.818	5.3	5.e-002	3.218
47100	19.967	5.3	0.	27.985
47101	19.917	5.25	0.	28.084
47102	19.917	5.3	5.e-002	3.213
47103	20.067	5.3	0.	28.638
47104	20.017	5.25	0.	28.765
47105	20.017	5.3	5.e-002	3.2081
47106	20.166	5.3	0.	29.307
47107	20.116	5.25	0.	29.463
47108	20.116	5.3	5.e-002	3.2034
47109	20.266	5.3	0.	29.991
47110	20.216	5.25	0.	30.178
47111	20.216	5.3	5.e-002	3.1989
47112	20.365	5.3	0.	30.693
47113	20.316	5.25	0.	30.911
47114	20.316	5.3	5.e-002	3.1946
47115	20.465	5.3	0.	31.411
47116	20.415	5.25	0.	31.663
47117	20.415	5.3	5.e-002	3.1905
47118	20.564	5.3	0.	32.149
47119	20.515	5.25	0.	32.434
47120	20.515	5.3	5.e-002	3.1866
47121	20.664	5.3	0.	32.906
47122	20.614	5.25	0.	33.227
47123	20.614	5.3	5.e-002	3.1829
47124	20.764	5.3	0.	33.683
47125	20.714	5.25	0.	34.042
47126	20.714	5.3	5.e-002	3.1795
47127	20.863	5.3	0.	34.483
47128	20.813	5.25	0.	34.88
47129	20.813	5.3	5.e-002	3.1763
47130	20.963	5.3	0.	35.305
47131	20.913	5.25	0.	35.744
47132	20.913	5.3	5.e-002	3.1733
47133	21.062	5.3	0.	36.152
47134	21.013	5.25	0.	36.633
47135	21.013	5.3	5.e-002	3.1706
47136	21.162	5.3	0.	37.025
47137	21.112	5.25	0.	37.551
47138	21.112	5.3	5.e-002	3.1682
47139	21.262	5.3	0.	37.925
47140	21.212	5.25	0.	38.498
47141	21.212	5.3	5.e-002	3.166
47142	21.361	5.3	0.	38.855
47143	21.311	5.25	0.	39.476
47144	21.311	5.3	5.e-002	3.1642
47145	21.461	5.3	0.	39.816
47146	21.411	5.25	0.	40.489
47147	21.411	5.3	5.e-002	3.1627
47148	21.56	5.3	0.	40.81
47149	21.51	5.25	0.	41.537
47150	21.51	5.3	5.e-002	3.1615
47151	21.66	5.3	0.	41.841
47152	21.61	5.25	0.	42.624
47153	21.61	5.3	5.e-002	3.1608
47154	21.759	5.3	0.	42.911
47155	21.71	5.25	0.	43.753
47156	21.71	5.3	5.e-002	3.1604
47157	21.859	5.3	0.	44.023
47158	21.809	5.25	0.	44.927
47159	21.809	5.3	5.e-002	3.1604
47160	21.959	5.3	0.	45.182
47161	21.909	5.25	0.	46.15
47162	21.909	5.3	5.e-002	3.1609
47163	22.058	5.3	0.	46.391
47164	22.008	5.25	0.	47.428
47165	22.008	5.3	5.e-002	3.162
47166	22.158	5.3	0.	47.657
47167	22.108	5.25	0.	48.764
47168	22.108	5.3	5.e-002	3.1637
47169	22.257	5.3	0.	48.986
47170	22.208	5.25	0.	50.166
47171	22.208	5.3	5.e-002	3.1661
47172	22.357	5.3	0.	50.385
47173	22.307	5.25	0.	51.64
47174	22.307	5.3	5.e-002	3.1692
47175	22.456	5.3	0.	51.862
47176	22.407	5.25	0.	53.196
47177	22.407	5.3	5.e-002	3.1732
47178	22.556	5.3	0.	53.43
47179	22.506	5.25	0.	54.843
47180	22.506	5.3	5.e-002	3.1783
47181	22.656	5.3	0.	55.1
47182	22.606	5.25	0.	56.594
47183	22.606	5.3	5.e-002	3.1846
47184	22.755	5.3	0.	56.888
47185	22.705	5.25	0.	58.464
47186	22.705	5.3	5.e-002	3.1924
47187	22.855	5.3	0.	58.814
47188	22.805	5.25	0.	60.469
47189	22.805	5.3	5.e-002	3.202
47190	22.954	5.3	0.	60.901
47191	22.905	5.25	0.	62.632
47192	22.905	5.3	5.e-002	3.2138
47193	23.054	5.3	0.	63.176
47194	23.004	5.25	0.	64.976
47195	23.004	5.3	5.e-002	3.2284
47196	23.154	5.3	0.	65.674
47197	23.104	5.25	0.	67.531
47198	23.104	5.3	5.e-002	3.2463
47199	23.253	5.3	0.	68.435
47200	23.203	5.25	0.	70.333
47201	23.203	5.3	5.e-002	3.2686
47202	23.353	5.3	0.	71.504
47203	23.303	5.25	0.	73.421
47204	23.303	5.3	5.e-002	3.2962
47205	23.452	5.3	0.	74.933
47206	23.403	5.25	0.	76.838
47207	23.403	5.3	5.e-002	3.3305
47208	23.552	5.3	0.	78.774
47209	23.502	5.25	0.	80.631
47210	23.502	5.3	5.e-002	3.3731
47211	23.651	5.3	0.	83.074
47212	23.602	5.25	0.	84.842
47213	23.602	5.3	5.e-002	3.4254
47214	23.751	5.3	0.	87.876
47215	23.701	5.25	0.	89.501
47216	23.701	5.3	5.e-002	3.4889
47217	23.851	5.3	0.	93.251
47218	23.801	5.25	0.	94.648
47219	23.801	5.3	5.e-002	3.5662
47220	23.9	5.25	0.	100.37
47221	23.9	5.3	5.e-002	3.728
47222	23.95	5.3	0.	97.906
47223	8.316	5.2	0.	723.91
47224	8.2662	5.15	0.	903.44
47225	8.2662	5.2	5.e-002	43.804
47226	8.2165	5.2	0.	526.31
47227	8.4156	5.2	0.	566.53
47228	8.3658	5.15	0.	695.21
47229	8.3658	5.2	5.e-002	35.167
47230	8.5152	5.2	0.	461.63
47231	8.4654	5.15	0.	567.52
47232	8.4654	5.2	5.e-002	34.082
47233	8.6148	5.2	0.	380.09
47234	8.565	5.15	0.	465.78
47235	8.565	5.2	5.e-002	32.629
47236	8.7144	5.2	0.	316.77
47237	8.6646	5.15	0.	384.39
47238	8.6646	5.2	5.e-002	30.798
47239	8.8139	5.2	0.	267.72
47240	8.7642	5.15	0.	320.03
47241	8.7642	5.2	5.e-002	28.697
47242	8.9135	5.2	0.	229.33
47243	8.8637	5.15	0.	269.18
47244	8.8637	5.2	5.e-002	26.452
47245	9.0131	5.2	0.	198.69
47246	8.9633	5.15	0.	228.67
47247	8.9633	5.2	5.e-002	24.162
47248	9.1127	5.2	0.	173.62
47249	9.0629	5.15	0.	195.92
47250	9.0629	5.2	5.e-002	21.904
47251	9.2123	5.2	0.	152.55
47252	9.1625	5.15	0.	168.94
47253	9.1625	5.2	5.e-002	19.728
47254	9.3118	5.2	0.	134.39
47255	9.2621	5.15	0.	146.26
47256	9.2621	5.2	5.e-002	17.67
47257	9.4114	5.2	0.	118.41
47258	9.3616	5.15	0.	126.84
47259	9.3616	5.2	5.e-002	15.747
47260	9.511	5.2	0.	104.09
47261	9.4612	5.15	0.	109.91
47262	9.4612	5.2	5.e-002	13.969
47263	9.6106	5.2	0.	91.11
47264	9.5608	5.15	0.	94.945
47265	9.5608	5.2	5.e-002	12.34
47266	9.7102	5.2	0.	79.236
47267	9.6604	5.15	0.	81.561
47268	9.6604	5.2	5.e-002	10.858
47269	9.8097	5.2	0.	68.318
47270	9.76	5.15	0.	69.49
47271	9.76	5.2	5.e-002	9.5194
47272	9.9093	5.2	0.	58.254
47273	9.8595	5.15	0.	58.543
47274	9.8595	5.2	5.e-002	8.3185
47275	10.009	5.2	0.	48.972
47276	9.9591	5.15	0.	48.582
47277	9.9591	5.2	5.e-002	7.2501
47278	10.108	5.2	0.	40.423
47279	10.059	5.15	0.	39.511
47280	10.059	5.2	5.e-002	6.3086
47281	10.208	5.2	0.	32.573
47282	10.158	5.15	0.	31.259
47283	10.158	5.2	5.e-002	5.4896
47284	10.308	5.2	0.	25.396
47285	10.258	5.15	0.	23.782
47286	10.258	5.2	5.e-002	4.7889
47287	10.407	5.2	0.	18.88
47288	10.357	5.15	0.	17.06
47289	10.357	5.2	5.e-002	4.2035
47290	10.507	5.2	0.	13.034
47291	10.457	5.15	0.	11.13
47292	10.457	5.2	5.e-002	3.7305
47293	10.606	5.2	0.	7.9384
47294	10.557	5.15	0.	6.1848
47295	10.557	5.2	5.e-002	3.3659
47296	10.706	5.2	0.	3.9078
47297	10.656	5.15	0.	2.8037
47298	10.656	5.2	5.e-002	3.1037
47299	10.806	5.2	0.	1.6197
47300	10.756	5.15	0.	1.2724
47301	10.756	5.2	5.e-002	2.9338
47302	10.905	5.2	0.	0.77129
47303	10.855	5.15	0.	0.68925
47304	10.855	5.2	5.e-002	2.8425
47305	11.005	5.2	0.	0.44423
47306	10.955	5.15	0.	0.42802
47307	10.955	5.2	5.e-002	2.8133
47308	11.104	5.2	0.	0.28798
47309	11.055	5.15	0.	0.28957
47310	11.055	5.2	5.e-002	2.8296
47311	11.204	5.2	0.	0.20098
47312	11.154	5.15	0.	0.20733
47313	11.154	5.2	5.e-002	2.8766
47314	11.303	5.2	0.	0.14749
47315	11.254	5.15	0.	0.15462
47316	11.254	5.2	5.e-002	2.9422
47317	11.403	5.2	0.	0.11232
47318	11.353	5.15	0.	0.11895
47319	11.353	5.2	5.e-002	3.0176
47320	11.503	5.2	0.	8.8034e-002
47321	11.453	5.15	0.	9.3813e-002
47322	11.453	5.2	5.e-002	3.0965
47323	11.602	5.2	0.	7.062e-002
47324	11.552	5.15	0.	7.5525e-002
47325	11.552	5.2	5.e-002	3.1746
47326	11.702	5.2	0.	5.7729e-002
47327	11.652	5.15	0.	6.1869e-002
47328	11.652	5.2	5.e-002	3.2494
47329	11.801	5.2	0.	4.8024e-002
47330	11.752	5.15	0.	5.1444e-002
47331	11.752	5.2	5.e-002	3.3191
47332	11.901	5.2	0.	4.0524e-002
47333	11.851	5.15	0.	4.3359e-002
47334	11.851	5.2	5.e-002	3.3829
47335	12.001	5.2	0.	3.4633e-002
47336	11.951	5.15	0.	3.6993e-002
47337	11.951	5.2	5.e-002	3.4404
47338	12.1	5.2	0.	2.9927e-002
47339	12.05	5.15	0.	3.1891e-002
47340	12.05	5.2	5.e-002	3.4916
47341	12.2	5.2	0.	2.6116e-002
47342	12.15	5.15	0.	2.7754e-002
47343	12.15	5.2	5.e-002	3.5367
47344	12.299	5.2	0.	2.3e-002
47345	12.249	5.15	0.	2.4361e-002
47346	12.249	5.2	5.e-002	3.5759
47347	12.399	5.2	0.	2.0432e-002
47348	12.349	5.15	0.	2.1566e-002
47349	12.349	5.2	5.e-002	3.6097
47350	12.498	5.2	0.	1.8274e-002
47351	12.449	5.15	0.	1.924e-002
47352	12.449	5.2	5.e-002	3.6385
47353	12.598	5.2	0.	1.6442e-002
47354	12.548	5.15	0.	1.7251e-002
47355	12.548	5.2	5.e-002	3.6626
47356	12.698	5.2	0.	1.4892e-002
47357	12.648	5.15	0.	1.5568e-002
47358	12.648	5.2	5.e-002	3.6825
47359	12.797	5.2	0.	1.357e-002
47360	12.747	5.15	0.	1.4144e-002
47361	12.747	5.2	5.e-002	3.6987
47362	12.897	5.2	0.	1.2434e-002
47363	12.847	5.15	0.	1.2918e-002
47364	12.847	5.2	5.e-002	3.7113
47365	12.996	5.2	0.	1.1449e-002
47366	12.947	5.15	0.	1.1864e-002
47367	12.947	5.2	5.e-002	3.721
47368	13.096	5.2	0.	1.0587e-002
47369	13.046	5.15	0.	1.0946e-002
47370	13.046	5.2	5.e-002	3.728
47371	13.195	5.2	0.	9.8372e-003
47372	13.146	5.15	0.	1.0139e-002
47373	13.146	5.2	5.e-002	3.7325
47374	13.295	5.2	0.	9.1948e-003
47375	13.245	5.15	0.	9.4481e-003
47376	13.245	5.2	5.e-002	3.7349
47377	13.395	5.2	0.	8.6368e-003
47378	13.345	5.15	0.	8.8589e-003
47379	13.345	5.2	5.e-002	3.7354
47380	13.494	5.2	0.	8.1448e-003
47381	13.444	5.15	0.	8.3392e-003
47382	13.444	5.2	5.e-002	3.7344
47383	13.594	5.2	0.	7.7141e-003
47384	13.544	5.15	0.	7.8832e-003
47385	13.544	5.2	5.e-002	3.7319
47386	13.693	5.2	0.	7.3399e-003
47387	13.644	5.15	0.	7.4882e-003
47388	13.644	5.2	5.e-002	3.7282
47389	13.793	5.2	0.	7.0234e-003
47390	13.743	5.15	0.	7.146e-003
47391	13.743	5.2	5.e-002	3.7234
47392	13.893	5.2	0.	6.7646e-003
47393	13.843	5.15	0.	6.8658e-003
47394	13.843	5.2	5.e-002	3.7176
47395	13.992	5.2	0.	6.5414e-003
47396	13.942	5.15	0.	6.6379e-003
47397	13.942	5.2	5.e-002	3.7111
47398	14.092	5.2	0.	6.3532e-003
47399	14.042	5.15	0.	6.4384e-003
47400	14.042	5.2	5.e-002	3.7039
47401	14.191	5.2	0.	6.2118e-003
47402	14.142	5.15	0.	6.2664e-003
47403	14.142	5.2	5.e-002	3.6961
47404	14.291	5.2	0.	6.1481e-003
47405	14.241	5.15	0.	6.1617e-003
47406	14.241	5.2	5.e-002	3.6879
47407	14.39	5.2	0.	6.1392e-003
47408	14.341	5.15	0.	6.105e-003
47409	14.341	5.2	5.e-002	3.6791
47410	14.49	5.2	0.	6.198e-003
47411	14.44	5.15	0.	6.1033e-003
47412	14.44	5.2	5.e-002	3.6701
47413	14.59	5.2	0.	6.3165e-003
47414	14.54	5.15	0.	6.1653e-003
47415	14.54	5.2	5.e-002	3.6607
47416	14.689	5.2	0.	6.5877e-003
47417	14.639	5.15	0.	6.3033e-003
47418	14.639	5.2	5.e-002	3.6511
47419	14.789	5.2	0.	7.0721e-003
47420	14.739	5.15	0.	6.5682e-003
47421	14.739	5.2	5.e-002	3.6413
47422	14.888	5.2	0.	7.9253e-003
47423	14.839	5.15	0.	7.0184e-003
47424	14.839	5.2	5.e-002	3.6314
47425	14.988	5.2	0.	9.4798e-003
47426	14.938	5.15	0.	7.7471e-003
47427	14.938	5.2	5.e-002	3.6214
47428	15.088	5.2	0.	1.3001e-002
47429	15.038	5.15	0.	9.0195e-003
47430	15.038	5.2	5.e-002	3.6113
47431	15.187	5.2	0.	2.6212e-002
47432	15.137	5.15	0.	1.1564e-002
47433	15.137	5.2	5.e-002	3.6012
47434	15.287	5.2	0.	0.27817
47435	15.237	5.15	0.	1.8534e-002
47436	15.237	5.2	5.e-002	3.5911
47437	15.386	5.2	0.	1.0011
47438	15.336	5.15	0.	7.3783e-002
47439	15.336	5.2	5.e-002	3.581
47440	15.486	5.2	0.	1.7372
47441	15.436	5.15	0.	0.67331
47442	15.436	5.2	5.e-002	3.5709
47443	15.585	5.2	0.	2.4613
47444	15.536	5.15	0.	1.4291
47445	15.536	5.2	5.e-002	3.5609
47446	15.685	5.2	0.	3.1713
47447	15.635	5.15	0.	2.1765
47448	15.635	5.2	5.e-002	3.5508
47449	15.785	5.2	0.	3.8672
47450	15.735	5.15	0.	2.9098
47451	15.735	5.2	5.e-002	3.5408
47452	15.884	5.2	0.	4.5493
47453	15.834	5.15	0.	3.6285
47454	15.834	5.2	5.e-002	3.5309
47455	15.984	5.2	0.	5.2181
47456	15.934	5.15	0.	4.3328
47457	15.934	5.2	5.e-002	3.5211
47458	16.083	5.2	0.	5.8741
47459	16.034	5.15	0.	5.0232
47460	16.034	5.2	5.e-002	3.5113
47461	16.183	5.2	0.	6.5179
47462	16.133	5.15	0.	5.7004
47463	16.133	5.2	5.e-002	3.5016
47464	16.282	5.2	0.	7.1501
47465	16.233	5.15	0.	6.3648
47466	16.233	5.2	5.e-002	3.4919
47467	16.382	5.2	0.	7.7715
47468	16.332	5.15	0.	7.0174
47469	16.332	5.2	5.e-002	3.4824
47470	16.482	5.2	0.	8.3825
47471	16.432	5.15	0.	7.6586
47472	16.432	5.2	5.e-002	3.473
47473	16.581	5.2	0.	8.984
47474	16.531	5.15	0.	8.2893
47475	16.531	5.2	5.e-002	3.4637
47476	16.681	5.2	0.	9.5766
47477	16.631	5.15	0.	8.9103
47478	16.631	5.2	5.e-002	3.4545
47479	16.78	5.2	0.	10.161
47480	16.731	5.15	0.	9.5222
47481	16.731	5.2	5.e-002	3.4455
47482	16.88	5.2	0.	10.738
47483	16.83	5.15	0.	10.126
47484	16.83	5.2	5.e-002	3.4365
47485	16.98	5.2	0.	11.308
47486	16.93	5.15	0.	10.722
47487	16.93	5.2	5.e-002	3.4277
47488	17.079	5.2	0.	11.872
47489	17.029	5.15	0.	11.311
47490	17.029	5.2	5.e-002	3.4189
47491	17.179	5.2	0.	12.431
47492	17.129	5.15	0.	11.894
47493	17.129	5.2	5.e-002	3.4102
47494	17.278	5.2	0.	12.985
47495	17.229	5.15	0.	12.473
47496	17.229	5.2	5.e-002	3.4017
47497	17.378	5.2	0.	13.536
47498	17.328	5.15	0.	13.046
47499	17.328	5.2	5.e-002	3.3932
47500	17.477	5.2	0.	14.083
47501	17.428	5.15	0.	13.616
47502	17.428	5.2	5.e-002	3.3849
47503	17.577	5.2	0.	14.628
47504	17.527	5.15	0.	14.183
47505	17.527	5.2	5.e-002	3.3766
47506	17.677	5.2	0.	15.171
47507	17.627	5.15	0.	14.748
47508	17.627	5.2	5.e-002	3.3685
47509	17.776	5.2	0.	15.713
47510	17.726	5.15	0.	15.311
47511	17.726	5.2	5.e-002	3.3605
47512	17.876	5.2	0.	16.255
47513	17.826	5.15	0.	15.874
47514	17.826	5.2	5.e-002	3.3526
47515	17.975	5.2	0.	16.797
47516	17.926	5.15	0.	16.437
47517	17.926	5.2	5.e-002	3.3449
47518	18.075	5.2	0.	17.341
47519	18.025	5.15	0.	17.001
47520	18.025	5.2	5.e-002	3.3372
47521	18.175	5.2	0.	17.886
47522	18.125	5.15	0.	17.567
47523	18.125	5.2	5.e-002	3.3297
47524	18.274	5.2	0.	18.434
47525	18.224	5.15	0.	18.135
47526	18.224	5.2	5.e-002	3.3223
47527	18.374	5.2	0.	18.985
47528	18.324	5.15	0.	18.706
47529	18.324	5.2	5.e-002	3.3151
47530	18.473	5.2	0.	19.541
47531	18.423	5.15	0.	19.282
47532	18.423	5.2	5.e-002	3.3079
47533	18.573	5.2	0.	20.101
47534	18.523	5.15	0.	19.862
47535	18.523	5.2	5.e-002	3.3009
47536	18.672	5.2	0.	20.667
47537	18.623	5.15	0.	20.448
47538	18.623	5.2	5.e-002	3.294
47539	18.772	5.2	0.	21.239
47540	18.722	5.15	0.	21.04
47541	18.722	5.2	5.e-002	3.2873
47542	18.872	5.2	0.	21.818
47543	18.822	5.15	0.	21.64
47544	18.822	5.2	5.e-002	3.2807
47545	18.971	5.2	0.	22.405
47546	18.921	5.15	0.	22.247
47547	18.921	5.2	5.e-002	3.2742
47548	19.071	5.2	0.	23.001
47549	19.021	5.15	0.	22.863
47550	19.021	5.2	5.e-002	3.2678
47551	19.17	5.2	0.	23.606
47552	19.121	5.15	0.	23.489
47553	19.121	5.2	5.e-002	3.2616
47554	19.27	5.2	0.	24.221
47555	19.22	5.15	0.	24.126
47556	19.22	5.2	5.e-002	3.2555
47557	19.369	5.2	0.	24.847
47558	19.32	5.15	0.	24.774
47559	19.32	5.2	5.e-002	3.2496
47560	19.469	5.2	0.	25.484
47561	19.419	5.15	0.	25.434
47562	19.419	5.2	5.e-002	3.2439
47563	19.569	5.2	0.	26.135
47564	19.519	5.15	0.	26.107
47565	19.519	5.2	5.e-002	3.2383
47566	19.668	5.2	0.	26.799
47567	19.618	5.15	0.	26.794
47568	19.618	5.2	5.e-002	3.2329
47569	19.768	5.2	0.	27.477
47570	19.718	5.15	0.	27.496
47571	19.718	5.2	5.e-002	3.2277
47572	19.867	5.2	0.	28.17
47573	19.818	5.15	0.	28.214
47574	19.818	5.2	5.e-002	3.2226
47575	19.967	5.2	0.	28.879
47576	19.917	5.15	0.	28.949
47577	19.917	5.2	5.e-002	3.2177
47578	20.067	5.2	0.	29.605
47579	20.017	5.15	0.	29.702
47580	20.017	5.2	5.e-002	3.213
47581	20.166	5.2	0.	30.35
47582	20.116	5.15	0.	30.474
47583	20.116	5.2	5.e-002	3.2085
47584	20.266	5.2	0.	31.113
47585	20.216	5.15	0.	31.266
47586	20.216	5.2	5.e-002	3.2042
47587	20.365	5.2	0.	31.897
47588	20.316	5.15	0.	32.08
47589	20.316	5.2	5.e-002	3.2001
47590	20.465	5.2	0.	32.702
47591	20.415	5.15	0.	32.915
47592	20.415	5.2	5.e-002	3.1962
47593	20.564	5.2	0.	33.529
47594	20.515	5.15	0.	33.775
47595	20.515	5.2	5.e-002	3.1925
47596	20.664	5.2	0.	34.38
47597	20.614	5.15	0.	34.66
47598	20.614	5.2	5.e-002	3.1891
47599	20.764	5.2	0.	35.256
47600	20.714	5.15	0.	35.571
47601	20.714	5.2	5.e-002	3.1859
47602	20.863	5.2	0.	36.159
47603	20.813	5.15	0.	36.51
47604	20.813	5.2	5.e-002	3.183
47605	20.963	5.2	0.	37.09
47606	20.913	5.15	0.	37.479
47607	20.913	5.2	5.e-002	3.1804
47608	21.062	5.2	0.	38.05
47609	21.013	5.15	0.	38.479
47610	21.013	5.2	5.e-002	3.178
47611	21.162	5.2	0.	39.043
47612	21.112	5.15	0.	39.513
47613	21.112	5.2	5.e-002	3.176
47614	21.262	5.2	0.	40.069
47615	21.212	5.15	0.	40.582
47616	21.212	5.2	5.e-002	3.1742
47617	21.361	5.2	0.	41.131
47618	21.311	5.15	0.	41.689
47619	21.311	5.2	5.e-002	3.1728
47620	21.461	5.2	0.	42.231
47621	21.411	5.15	0.	42.837
47622	21.411	5.2	5.e-002	3.1718
47623	21.56	5.2	0.	43.373
47624	21.51	5.15	0.	44.028
47625	21.51	5.2	5.e-002	3.1711
47626	21.66	5.2	0.	44.559
47627	21.61	5.15	0.	45.265
47628	21.61	5.2	5.e-002	3.1709
47629	21.759	5.2	0.	45.793
47630	21.71	5.15	0.	46.553
47631	21.71	5.2	5.e-002	3.1711
47632	21.859	5.2	0.	47.078
47633	21.809	5.15	0.	47.894
47634	21.809	5.2	5.e-002	3.1718
47635	21.959	5.2	0.	48.421
47636	21.909	5.15	0.	49.295
47637	21.909	5.2	5.e-002	3.173
47638	22.058	5.2	0.	49.826
47639	22.008	5.15	0.	50.759
47640	22.008	5.2	5.e-002	3.1749
47641	22.158	5.2	0.	51.299
47642	22.108	5.15	0.	52.294
47643	22.108	5.2	5.e-002	3.1774
47644	22.257	5.2	0.	52.847
47645	22.208	5.15	0.	53.906
47646	22.208	5.2	5.e-002	3.1807
47647	22.357	5.2	0.	54.479
47648	22.307	5.15	0.	55.603
47649	22.307	5.2	5.e-002	3.1849
47650	22.456	5.2	0.	56.205
47651	22.407	5.15	0.	57.394
47652	22.407	5.2	5.e-002	3.19
47653	22.556	5.2	0.	58.037
47654	22.506	5.15	0.	59.292
47655	22.506	5.2	5.e-002	3.1963
47656	22.656	5.2	0.	59.988
47657	22.606	5.15	0.	61.308
47658	22.606	5.2	5.e-002	3.204
47659	22.755	5.2	0.	62.075
47660	22.705	5.15	0.	63.457
47661	22.705	5.2	5.e-002	3.2132
47662	22.855	5.2	0.	64.317
47663	22.805	5.15	0.	65.758
47664	22.805	5.2	5.e-002	3.2244
47665	22.954	5.2	0.	66.737
47666	22.905	5.15	0.	68.23
47667	22.905	5.2	5.e-002	3.2379
47668	23.054	5.2	0.	69.361
47669	23.004	5.15	0.	70.897
47670	23.004	5.2	5.e-002	3.2541
47671	23.154	5.2	0.	72.219
47672	23.104	5.15	0.	73.785
47673	23.104	5.2	5.e-002	3.2737
47674	23.253	5.2	0.	75.346
47675	23.203	5.15	0.	76.926
47676	23.203	5.2	5.e-002	3.2975
47677	23.353	5.2	0.	78.78
47678	23.303	5.15	0.	80.351
47679	23.303	5.2	5.e-002	3.3262
47680	23.452	5.2	0.	82.558
47681	23.403	5.15	0.	84.093
47682	23.403	5.2	5.e-002	3.3609
47683	23.552	5.2	0.	86.716
47684	23.502	5.15	0.	88.186
47685	23.502	5.2	5.e-002	3.4027
47686	23.651	5.2	0.	91.282
47687	23.602	5.15	0.	92.657
47688	23.602	5.2	5.e-002	3.4522
47689	23.751	5.2	0.	96.284
47690	23.701	5.15	0.	97.521
47691	23.701	5.2	5.e-002	3.5105
47692	23.851	5.2	0.	101.77
47693	23.801	5.15	0.	102.81
47694	23.801	5.2	5.e-002	3.5793
47695	23.9	5.15	0.	108.58
47696	23.9	5.2	5.e-002	3.7249
47697	23.95	5.2	0.	106.6
47698	8.316	5.1	0.	864.71
47699	8.2662	5.05	0.	1064.2
47700	8.2662	5.1	5.e-002	47.95
47701	8.2165	5.1	0.	628.85
47702	8.4156	5.1	0.	686.32
47703	8.3658	5.05	0.	829.84
47704	8.3658	5.1	5.e-002	37.801
47705	8.5152	5.1	0.	562.9
47706	8.4654	5.05	0.	682.3
47707	8.4654	5.1	5.e-002	36.324
47708	8.6148	5.1	0.	462.73
47709	8.565	5.05	0.	560.42
47710	8.565	5.1	5.e-002	34.467
47711	8.7144	5.1	0.	381.76
47712	8.6646	5.05	0.	459.52
47713	8.6646	5.1	5.e-002	32.244
47714	8.8139	5.1	0.	316.92
47715	8.7642	5.05	0.	377.37
47716	8.7642	5.1	5.e-002	29.796
47717	8.9135	5.1	0.	265.05
47718	8.8637	5.05	0.	311.08
47719	8.8637	5.1	5.e-002	27.266
47720	9.0131	5.1	0.	223.29
47721	8.9633	5.05	0.	257.69
47722	8.9633	5.1	5.e-002	24.758
47723	9.1127	5.1	0.	189.29
47724	9.0629	5.05	0.	214.52
47725	9.0629	5.1	5.e-002	22.342
47726	9.2123	5.1	0.	161.2
47727	9.1625	5.05	0.	179.31
47728	9.1625	5.1	5.e-002	20.062
47729	9.3118	5.1	0.	137.63
47730	9.2621	5.05	0.	150.29
47731	9.2621	5.1	5.e-002	17.938
47732	9.4114	5.1	0.	117.54
47733	9.3616	5.05	0.	126.05
47734	9.3616	5.1	5.e-002	15.982
47735	9.511	5.1	0.	100.17
47736	9.4612	5.05	0.	105.55
47737	9.4612	5.1	5.e-002	14.194
47738	9.6106	5.1	0.	84.96
47739	9.5608	5.05	0.	87.995
47740	9.5608	5.1	5.e-002	12.57
47741	9.7102	5.1	0.	71.498
47742	9.6604	5.05	0.	72.783
47743	9.6604	5.1	5.e-002	11.105
47744	9.8097	5.1	0.	59.491
47745	9.76	5.05	0.	59.478
47746	9.76	5.1	5.e-002	9.7906
47747	9.9093	5.1	0.	48.721
47748	9.8595	5.05	0.	47.755
47749	9.8595	5.1	5.e-002	8.6187
47750	10.009	5.1	0.	39.032
47751	9.9591	5.05	0.	37.378
47752	9.9591	5.1	5.e-002	7.5819
47753	10.108	5.1	0.	30.313
47754	10.059	5.05	0.	28.182
47755	10.059	5.1	5.e-002	6.6732
47756	10.208	5.1	0.	22.494
47757	10.158	5.05	0.	20.075
47758	10.158	5.1	5.e-002	5.886
47759	10.308	5.1	0.	15.558
47760	10.258	5.05	0.	13.063
47761	10.258	5.1	5.e-002	5.2147
47762	10.407	5.1	0.	9.5891
47763	10.357	5.05	0.	7.3743
47764	10.357	5.1	5.e-002	4.654
47765	10.507	5.1	0.	4.9533
47766	10.457	5.05	0.	3.5829
47767	10.457	5.1	5.e-002	4.1981
47768	10.606	5.1	0.	2.2625
47769	10.557	5.05	0.	1.7682
47770	10.557	5.1	5.e-002	3.8407
47771	10.706	5.1	0.	1.1422
47772	10.656	5.05	0.	0.99834
47773	10.656	5.1	5.e-002	3.5738
47774	10.806	5.1	0.	0.67009
47775	10.756	5.05	0.	0.63003
47776	10.756	5.1	5.e-002	3.387
47777	10.905	5.1	0.	0.43558
47778	10.855	5.05	0.	0.42817
47779	10.855	5.1	5.e-002	3.2683
47780	11.005	5.1	0.	0.30276
47781	10.955	5.05	0.	0.30615
47782	10.955	5.1	5.e-002	3.2045
47783	11.104	5.1	0.	0.22044
47784	11.055	5.05	0.	0.22717
47785	11.055	5.1	5.e-002	3.1828
47786	11.204	5.1	0.	0.16613
47787	11.154	5.05	0.	0.1734
47788	11.154	5.1	5.e-002	3.1912
47789	11.303	5.1	0.	0.12863
47790	11.254	5.05	0.	0.13544
47791	11.254	5.1	5.e-002	3.2201
47792	11.403	5.1	0.	0.10182
47793	11.353	5.05	0.	0.10783
47794	11.353	5.1	5.e-002	3.2618
47795	11.503	5.1	0.	8.2113e-002
47796	11.453	5.05	0.	8.7274e-002
47797	11.453	5.1	5.e-002	3.3105
47798	11.602	5.1	0.	6.7268e-002
47799	11.552	5.05	0.	7.1654e-002
47800	11.552	5.1	5.e-002	3.362
47801	11.702	5.1	0.	5.5883e-002
47802	11.652	5.05	0.	5.9578e-002
47803	11.652	5.1	5.e-002	3.4134
47804	11.801	5.1	0.	4.7005e-002
47805	11.752	5.05	0.	5.0095e-002
47806	11.752	5.1	5.e-002	3.4627
47807	11.901	5.1	0.	3.9993e-002
47808	11.851	5.05	0.	4.2571e-002
47809	11.851	5.1	5.e-002	3.5088
47810	12.001	5.1	0.	3.4377e-002
47811	11.951	5.05	0.	3.6536e-002
47812	11.951	5.1	5.e-002	3.551
47813	12.1	5.1	0.	2.9818e-002
47814	12.05	5.05	0.	3.1626e-002
47815	12.05	5.1	5.e-002	3.589
47816	12.2	5.1	0.	2.608e-002
47817	12.15	5.05	0.	2.7594e-002
47818	12.15	5.1	5.e-002	3.6226
47819	12.299	5.1	0.	2.2993e-002
47820	12.249	5.05	0.	2.4255e-002
47821	12.249	5.1	5.e-002	3.6518
47822	12.399	5.1	0.	2.043e-002
47823	12.349	5.05	0.	2.1484e-002
47824	12.349	5.1	5.e-002	3.6769
47825	12.498	5.1	0.	1.8264e-002
47826	12.449	5.05	0.	1.9165e-002
47827	12.449	5.1	5.e-002	3.6981
47828	12.598	5.1	0.	1.6419e-002
47829	12.548	5.05	0.	1.7174e-002
47830	12.548	5.1	5.e-002	3.7158
47831	12.698	5.1	0.	1.4855e-002
47832	12.648	5.05	0.	1.5486e-002
47833	12.648	5.1	5.e-002	3.7299
47834	12.797	5.1	0.	1.3521e-002
47835	12.747	5.05	0.	1.4055e-002
47836	12.747	5.1	5.e-002	3.7409
47837	12.897	5.1	0.	1.2374e-002
47838	12.847	5.05	0.	1.2823e-002
47839	12.847	5.1	5.e-002	3.7493
47840	12.996	5.1	0.	1.1383e-002
47841	12.947	5.05	0.	1.1766e-002
47842	12.947	5.1	5.e-002	3.7551
47843	13.096	5.1	0.	1.0516e-002
47844	13.046	5.05	0.	1.0847e-002
47845	13.046	5.1	5.e-002	3.7586
47846	13.195	5.1	0.	9.7649e-003
47847	13.146	5.05	0.	1.004e-002
47848	13.146	5.1	5.e-002	3.7602
47849	13.295	5.1	0.	9.1246e-003
47850	13.245	5.05	0.	9.3526e-003
47851	13.245	5.1	5.e-002	3.7599
47852	13.395	5.1	0.	8.5709e-003
47853	13.345	5.05	0.	8.7687e-003
47854	13.345	5.1	5.e-002	3.7582
47855	13.494	5.1	0.	8.0844e-003
47856	13.444	5.05	0.	8.2555e-003
47857	13.444	5.1	5.e-002	3.7551
47858	13.594	5.1	0.	7.6615e-003
47859	13.544	5.05	0.	7.8075e-003
47860	13.544	5.1	5.e-002	3.7508
47861	13.693	5.1	0.	7.296e-003
47862	13.644	5.05	0.	7.4217e-003
47863	13.644	5.1	5.e-002	3.7454
47864	13.793	5.1	0.	6.9823e-003
47865	13.743	5.05	0.	7.0879e-003
47866	13.743	5.1	5.e-002	3.7392
47867	13.893	5.1	0.	6.7543e-003
47868	13.843	5.05	0.	6.8155e-003
47869	13.843	5.1	5.e-002	3.7322
47870	13.992	5.1	0.	6.519e-003
47871	13.942	5.05	0.	6.5957e-003
47872	13.942	5.1	5.e-002	3.7246
47873	14.092	5.1	0.	6.3336e-003
47874	14.042	5.05	0.	6.3902e-003
47875	14.042	5.1	5.e-002	3.7164
47876	14.191	5.1	0.	6.1986e-003
47877	14.142	5.05	0.	6.2312e-003
47878	14.142	5.1	5.e-002	3.7077
47879	14.291	5.1	0.	6.112e-003
47880	14.241	5.05	0.	6.1233e-003
47881	14.241	5.1	5.e-002	3.6986
47882	14.39	5.1	0.	6.0716e-003
47883	14.341	5.05	0.	6.056e-003
47884	14.341	5.1	5.e-002	3.6891
47885	14.49	5.1	0.	6.083e-003
47886	14.44	5.05	0.	6.0336e-003
47887	14.44	5.1	5.e-002	3.6794
47888	14.59	5.1	0.	6.1498e-003
47889	14.54	5.05	0.	6.0578e-003
47890	14.54	5.1	5.e-002	3.6695
47891	14.689	5.1	0.	6.2952e-003
47892	14.639	5.05	0.	6.1313e-003
47893	14.639	5.1	5.e-002	3.6593
47894	14.789	5.1	0.	6.5573e-003
47895	14.739	5.05	0.	6.2884e-003
47896	14.739	5.1	5.e-002	3.6491
47897	14.888	5.1	0.	6.9726e-003
47898	14.839	5.05	0.	6.5529e-003
47899	14.839	5.1	5.e-002	3.6387
47900	14.988	5.1	0.	7.6252e-003
47901	14.938	5.05	0.	6.9459e-003
47902	14.938	5.1	5.e-002	3.6283
47903	15.088	5.1	0.	8.711e-003
47904	15.038	5.05	0.	7.55e-003
47905	15.038	5.1	5.e-002	3.6179
47906	15.187	5.1	0.	1.0726e-002
47907	15.137	5.05	0.	8.5188e-003
47908	15.137	5.1	5.e-002	3.6074
47909	15.287	5.1	0.	1.5384e-002
47910	15.237	5.05	0.	1.023e-002
47911	15.237	5.1	5.e-002	3.597
47912	15.386	5.1	0.	3.4951e-002
47913	15.336	5.05	0.	1.3809e-002
47914	15.336	5.1	5.e-002	3.5866
47915	15.486	5.1	0.	0.38906
47916	15.436	5.05	0.	2.5079e-002
47917	15.436	5.1	5.e-002	3.5763
47918	15.585	5.1	0.	1.154
47919	15.536	5.05	0.	0.18263
47920	15.536	5.1	5.e-002	3.566
47921	15.685	5.1	0.	1.9233
47922	15.635	5.05	0.	0.92289
47923	15.635	5.1	5.e-002	3.5558
47924	15.785	5.1	0.	2.6792
47925	15.735	5.05	0.	1.7117
47926	15.735	5.1	5.e-002	3.5456
47927	15.884	5.1	0.	3.42
47928	15.834	5.05	0.	2.4885
47929	15.834	5.1	5.e-002	3.5355
47930	15.984	5.1	0.	4.146
47931	15.934	5.05	0.	3.2501
47932	15.934	5.1	5.e-002	3.5255
47933	16.083	5.1	0.	4.8576
47934	16.034	5.05	0.	3.9964
47935	16.034	5.1	5.e-002	3.5155
47936	16.183	5.1	0.	5.5556
47937	16.133	5.05	0.	4.728
47938	16.133	5.1	5.e-002	3.5057
47939	16.282	5.1	0.	6.2404
47940	16.233	5.05	0.	5.4454
47941	16.233	5.1	5.e-002	3.4959
47942	16.382	5.1	0.	6.913
47943	16.332	5.05	0.	6.1494
47944	16.332	5.1	5.e-002	3.4863
47945	16.482	5.1	0.	7.574
47946	16.432	5.05	0.	6.8409
47947	16.432	5.1	5.e-002	3.4768
47948	16.581	5.1	0.	8.2243
47949	16.531	5.05	0.	7.5206
47950	16.531	5.1	5.e-002	3.4674
47951	16.681	5.1	0.	8.8647
47952	16.631	5.05	0.	8.1893
47953	16.631	5.1	5.e-002	3.4581
47954	16.78	5.1	0.	9.4959
47955	16.731	5.05	0.	8.848
47956	16.731	5.1	5.e-002	3.449
47957	16.88	5.1	0.	10.119
47958	16.83	5.05	0.	9.4975
47959	16.83	5.1	5.e-002	3.4399
47960	16.98	5.1	0.	10.734
47961	16.93	5.05	0.	10.139
47962	16.93	5.1	5.e-002	3.431
47963	17.079	5.1	0.	11.343
47964	17.029	5.05	0.	10.772
47965	17.029	5.1	5.e-002	3.4222
47966	17.179	5.1	0.	11.945
47967	17.129	5.05	0.	11.399
47968	17.129	5.1	5.e-002	3.4135
47969	17.278	5.1	0.	12.543
47970	17.229	5.05	0.	12.02
47971	17.229	5.1	5.e-002	3.4049
47972	17.378	5.1	0.	13.136
47973	17.328	5.05	0.	12.637
47974	17.328	5.1	5.e-002	3.3964
47975	17.477	5.1	0.	13.726
47976	17.428	5.05	0.	13.249
47977	17.428	5.1	5.e-002	3.388
47978	17.577	5.1	0.	14.313
47979	17.527	5.05	0.	13.858
47980	17.527	5.1	5.e-002	3.3797
47981	17.677	5.1	0.	14.898
47982	17.627	5.05	0.	14.465
47983	17.627	5.1	5.e-002	3.3716
47984	17.776	5.1	0.	15.483
47985	17.726	5.05	0.	15.07
47986	17.726	5.1	5.e-002	3.3636
47987	17.876	5.1	0.	16.067
47988	17.826	5.05	0.	15.675
47989	17.826	5.1	5.e-002	3.3557
47990	17.975	5.1	0.	16.652
47991	17.926	5.05	0.	16.28
47992	17.926	5.1	5.e-002	3.348
47993	18.075	5.1	0.	17.238
47994	18.025	5.05	0.	16.886
47995	18.025	5.1	5.e-002	3.3403
47996	18.175	5.1	0.	17.827
47997	18.125	5.05	0.	17.495
47998	18.125	5.1	5.e-002	3.3328
47999	18.274	5.1	0.	18.418
48000	18.224	5.05	0.	18.106
48001	18.224	5.1	5.e-002	3.3255
48002	18.374	5.1	0.	19.014
48003	18.324	5.05	0.	18.721
48004	18.324	5.1	5.e-002	3.3183
48005	18.473	5.1	0.	19.614
48006	18.423	5.05	0.	19.341
48007	18.423	5.1	5.e-002	3.3112
48008	18.573	5.1	0.	20.22
48009	18.523	5.05	0.	19.966
48010	18.523	5.1	5.e-002	3.3042
48011	18.672	5.1	0.	20.833
48012	18.623	5.05	0.	20.597
48013	18.623	5.1	5.e-002	3.2973
48014	18.772	5.1	0.	21.452
48015	18.722	5.05	0.	21.236
48016	18.722	5.1	5.e-002	3.2906
48017	18.872	5.1	0.	22.08
48018	18.822	5.05	0.	21.884
48019	18.822	5.1	5.e-002	3.2841
48020	18.971	5.1	0.	22.717
48021	18.921	5.05	0.	22.54
48022	18.921	5.1	5.e-002	3.2776
48023	19.071	5.1	0.	23.364
48024	19.021	5.05	0.	23.207
48025	19.021	5.1	5.e-002	3.2713
48026	19.17	5.1	0.	24.022
48027	19.121	5.05	0.	23.885
48028	19.121	5.1	5.e-002	3.2652
48029	19.27	5.1	0.	24.691
48030	19.22	5.05	0.	24.574
48031	19.22	5.1	5.e-002	3.2592
48032	19.369	5.1	0.	25.373
48033	19.32	5.05	0.	25.277
48034	19.32	5.1	5.e-002	3.2534
48035	19.469	5.1	0.	26.069
48036	19.419	5.05	0.	25.994
48037	19.419	5.1	5.e-002	3.2478
48038	19.569	5.1	0.	26.779
48039	19.519	5.05	0.	26.726
48040	19.519	5.1	5.e-002	3.2423
48041	19.668	5.1	0.	27.505
48042	19.618	5.05	0.	27.474
48043	19.618	5.1	5.e-002	3.237
48044	19.768	5.1	0.	28.248
48045	19.718	5.05	0.	28.239
48046	19.718	5.1	5.e-002	3.2319
48047	19.867	5.1	0.	29.008
48048	19.818	5.05	0.	29.023
48049	19.818	5.1	5.e-002	3.227
48050	19.967	5.1	0.	29.787
48051	19.917	5.05	0.	29.826
48052	19.917	5.1	5.e-002	3.2223
48053	20.067	5.1	0.	30.586
48054	20.017	5.05	0.	30.649
48055	20.017	5.1	5.e-002	3.2178
48056	20.166	5.1	0.	31.406
48057	20.116	5.05	0.	31.495
48058	20.116	5.1	5.e-002	3.2134
48059	20.266	5.1	0.	32.248
48060	20.216	5.05	0.	32.364
48061	20.216	5.1	5.e-002	3.2093
48062	20.365	5.1	0.	33.114
48063	20.316	5.05	0.	33.257
48064	20.316	5.1	5.e-002	3.2054
48065	20.465	5.1	0.	34.005
48066	20.415	5.05	0.	34.177
48067	20.415	5.1	5.e-002	3.2017
48068	20.564	5.1	0.	34.922
48069	20.515	5.05	0.	35.123
48070	20.515	5.1	5.e-002	3.1983
48071	20.664	5.1	0.	35.867
48072	20.614	5.05	0.	36.099
48073	20.614	5.1	5.e-002	3.1952
48074	20.764	5.1	0.	36.841
48075	20.714	5.05	0.	37.106
48076	20.714	5.1	5.e-002	3.1922
48077	20.863	5.1	0.	37.847
48078	20.813	5.05	0.	38.145
48079	20.813	5.1	5.e-002	3.1896
48080	20.963	5.1	0.	38.885
48081	20.913	5.05	0.	39.219
48082	20.913	5.1	5.e-002	3.1873
48083	21.062	5.1	0.	39.959
48084	21.013	5.05	0.	40.329
48085	21.013	5.1	5.e-002	3.1853
48086	21.162	5.1	0.	41.071
48087	21.112	5.05	0.	41.478
48088	21.112	5.1	5.e-002	3.1836
48089	21.262	5.1	0.	42.222
48090	21.212	5.05	0.	42.669
48091	21.212	5.1	5.e-002	3.1822
48092	21.361	5.1	0.	43.415
48093	21.311	5.05	0.	43.903
48094	21.311	5.1	5.e-002	3.1812
48095	21.461	5.1	0.	44.654
48096	21.411	5.05	0.	45.184
48097	21.411	5.1	5.e-002	3.1807
48098	21.56	5.1	0.	45.941
48099	21.51	5.05	0.	46.516
48100	21.51	5.1	5.e-002	3.1805
48101	21.66	5.1	0.	47.28
48102	21.61	5.05	0.	47.901
48103	21.61	5.1	5.e-002	3.1808
48104	21.759	5.1	0.	48.676
48105	21.71	5.05	0.	49.344
48106	21.71	5.1	5.e-002	3.1816
48107	21.859	5.1	0.	50.133
48108	21.809	5.05	0.	50.85
48109	21.809	5.1	5.e-002	3.1829
48110	21.959	5.1	0.	51.655
48111	21.909	5.05	0.	52.423
48112	21.909	5.1	5.e-002	3.1848
48113	22.058	5.1	0.	53.25
48114	22.008	5.05	0.	54.07
48115	22.008	5.1	5.e-002	3.1874
48116	22.158	5.1	0.	54.924
48117	22.108	5.05	0.	55.797
48118	22.108	5.1	5.e-002	3.1907
48119	22.257	5.1	0.	56.685
48120	22.208	5.05	0.	57.611
48121	22.208	5.1	5.e-002	3.1948
48122	22.357	5.1	0.	58.542
48123	22.307	5.05	0.	59.522
48124	22.307	5.1	5.e-002	3.1999
48125	22.456	5.1	0.	60.506
48126	22.407	5.05	0.	61.538
48127	22.407	5.1	5.e-002	3.2061
48128	22.556	5.1	0.	62.588
48129	22.506	5.05	0.	63.672
48130	22.506	5.1	5.e-002	3.2135
48131	22.656	5.1	0.	64.802
48132	22.606	5.05	0.	65.936
48133	22.606	5.1	5.e-002	3.2223
48134	22.755	5.1	0.	67.165
48135	22.705	5.05	0.	68.344
48136	22.705	5.1	5.e-002	3.2328
48137	22.855	5.1	0.	69.696
48138	22.805	5.05	0.	70.915
48139	22.805	5.1	5.e-002	3.2452
48140	22.954	5.1	0.	72.414
48141	22.905	5.05	0.	73.666
48142	22.905	5.1	5.e-002	3.26
48143	23.054	5.1	0.	75.345
48144	23.004	5.05	0.	76.619
48145	23.004	5.1	5.e-002	3.2776
48146	23.154	5.1	0.	78.515
48147	23.104	5.05	0.	79.797
48148	23.104	5.1	5.e-002	3.2983
48149	23.253	5.1	0.	81.951
48150	23.203	5.05	0.	83.225
48151	23.203	5.1	5.e-002	3.323
48152	23.353	5.1	0.	85.683
48153	23.303	5.05	0.	86.929
48154	23.303	5.1	5.e-002	3.3522
48155	23.452	5.1	0.	89.737
48156	23.403	5.05	0.	90.934
48157	23.403	5.1	5.e-002	3.3866
48158	23.552	5.1	0.	94.14
48159	23.502	5.05	0.	95.263
48160	23.502	5.1	5.e-002	3.4269
48161	23.651	5.1	0.	98.906
48162	23.602	5.05	0.	99.932
48163	23.602	5.1	5.e-002	3.4736
48164	23.751	5.1	0.	104.05
48165	23.701	5.05	0.	104.95
48166	23.701	5.1	5.e-002	3.5272
48167	23.851	5.1	0.	109.62
48168	23.801	5.05	0.	110.33
48169	23.801	5.1	5.e-002	3.589
48170	23.9	5.05	0.	116.14
48171	23.9	5.1	5.e-002	3.7209
48172	23.95	5.1	0.	114.59
48173	8.316	5.	0.	1018.8
48174	8.2662	4.95	0.	1242.7
48175	8.2662	5.	5.e-002	53.1
48176	8.2165	5.	0.	742.93
48177	8.4156	5.	0.	815.53
48178	8.3658	4.95	0.	976.59
48179	8.3658	5.	5.e-002	41.24
48180	8.5152	5.	0.	670.6
48181	8.4654	4.95	0.	804.98
48182	8.4654	5.	5.e-002	39.229
48183	8.6148	5.	0.	549.36
48184	8.565	4.95	0.	659.52
48185	8.565	5.	5.e-002	36.815
48186	8.7144	5.	0.	448.74
48187	8.6646	4.95	0.	536.44
48188	8.6646	5.	5.e-002	34.061
48189	8.8139	5.	0.	366.49
48190	8.7642	4.95	0.	434.51
48191	8.7642	5.	5.e-002	31.155
48192	8.9135	5.	0.	299.85
48193	8.8637	4.95	0.	351.35
48194	8.8637	5.	5.e-002	28.263
48195	9.0131	5.	0.	245.98
48196	8.9633	4.95	0.	284.08
48197	8.9633	5.	5.e-002	25.488
48198	9.1127	5.	0.	202.34
48199	9.0629	4.95	0.	229.84
48200	9.0629	5.	5.e-002	22.887
48201	9.2123	5.	0.	166.76
48202	9.1625	4.95	0.	186.04
48203	9.1625	5.	5.e-002	20.486
48204	9.3118	5.	0.	137.49
48205	9.2621	4.95	0.	150.48
48206	9.2621	5.	5.e-002	18.29
48207	9.4114	5.	0.	113.16
48208	9.3616	4.95	0.	121.41
48209	9.3616	5.	5.e-002	16.297
48210	9.511	5.	0.	92.719
48211	9.4612	4.95	0.	97.412
48212	9.4612	5.	5.e-002	14.496
48213	9.6106	5.	0.	75.346
48214	9.5608	4.95	0.	77.412
48215	9.5608	5.	5.e-002	12.876
48216	9.7102	5.	0.	60.434
48217	9.6604	4.95	0.	60.584
48218	9.6604	5.	5.e-002	11.425
48219	9.8097	5.	0.	47.53
48220	9.76	4.95	0.	46.311
48221	9.76	5.	5.e-002	10.131
48222	9.9093	5.	0.	36.303
48223	9.8595	4.95	0.	34.149
48224	9.8595	5.	5.e-002	8.984
48225	10.009	5.	0.	26.529
48226	9.9591	4.95	0.	23.809
48227	9.9591	5.	5.e-002	7.9733
48228	10.108	5.	0.	18.094
48229	10.059	4.95	0.	15.2
48230	10.059	5.	5.e-002	7.0902
48231	10.208	5.	0.	11.068
48232	10.158	4.95	0.	8.5493
48233	10.158	5.	5.e-002	6.3266
48234	10.308	5.	0.	5.8536
48235	10.258	4.95	0.	4.3451
48236	10.258	5.	5.e-002	5.675
48237	10.407	5.	0.	2.8903
48238	10.357	4.95	0.	2.298
48239	10.357	5.	5.e-002	5.1283
48240	10.507	5.	0.	1.5604
48241	10.457	4.95	0.	1.3578
48242	10.457	5.	5.e-002	4.6792
48243	10.606	5.	0.	0.94728
48244	10.557	4.95	0.	0.87837
48245	10.557	5.	5.e-002	4.3199
48246	10.706	5.	0.	0.62575
48247	10.656	4.95	0.	0.60488
48248	10.656	5.	5.e-002	4.0417
48249	10.806	5.	0.	0.43781
48250	10.756	4.95	0.	0.43527
48251	10.756	5.	5.e-002	3.8347
48252	10.905	5.	0.	0.31912
48253	10.855	4.95	0.	0.32357
48254	10.855	5.	5.e-002	3.6885
48255	11.005	5.	0.	0.23991
48256	10.955	4.95	0.	0.24671
48257	10.955	5.	5.e-002	3.5921
48258	11.104	5.	0.	0.18479
48259	11.055	4.95	0.	0.19202
48260	11.055	5.	5.e-002	3.5351
48261	11.204	5.	0.	0.1452
48262	11.154	4.95	0.	0.15201
48263	11.154	5.	5.e-002	3.508
48264	11.303	5.	0.	0.11605
48265	11.254	4.95	0.	0.12213
48266	11.254	5.	5.e-002	3.5027
48267	11.403	5.	0.	9.413e-002
48268	11.353	4.95	0.	9.9426e-002
48269	11.353	5.	5.e-002	3.5123
48270	11.503	5.	0.	7.7351e-002
48271	11.453	4.95	0.	8.1889e-002
48272	11.453	5.	5.e-002	3.5318
48273	11.602	5.	0.	6.4307e-002
48274	11.552	4.95	0.	6.8166e-002
48275	11.552	5.	5.e-002	3.557
48276	11.702	5.	0.	5.4025e-002
48277	11.652	4.95	0.	5.729e-002
48278	11.652	5.	5.e-002	3.5851
48279	11.801	5.	0.	4.5829e-002
48280	11.752	4.95	0.	4.8572e-002
48281	11.752	5.	5.e-002	3.614
48282	11.901	5.	0.	3.9238e-002
48283	11.851	4.95	0.	4.1537e-002
48284	11.851	5.	5.e-002	3.642
48285	12.001	5.	0.	3.388e-002
48286	11.951	4.95	0.	3.5813e-002
48287	11.951	5.	5.e-002	3.6685
48288	12.1	5.	0.	2.9476e-002
48289	12.05	4.95	0.	3.11e-002
48290	12.05	5.	5.e-002	3.6927
48291	12.2	5.	0.	2.5829e-002
48292	12.15	4.95	0.	2.7193e-002
48293	12.15	5.	5.e-002	3.7142
48294	12.299	5.	0.	2.2796e-002
48295	12.249	4.95	0.	2.3933e-002
48296	12.249	5.	5.e-002	3.7329
48297	12.399	5.	0.	2.0261e-002
48298	12.349	4.95	0.	2.1211e-002
48299	12.349	5.	5.e-002	3.7488
48300	12.498	5.	0.	1.811e-002
48301	12.449	4.95	0.	1.8923e-002
48302	12.449	5.	5.e-002	3.762
48303	12.598	5.	0.	1.6271e-002
48304	12.548	4.95	0.	1.6952e-002
48305	12.548	5.	5.e-002	3.7726
48306	12.698	5.	0.	1.471e-002
48307	12.648	4.95	0.	1.5277e-002
48308	12.648	5.	5.e-002	3.7805
48309	12.797	5.	0.	1.3378e-002
48310	12.747	4.95	0.	1.3855e-002
48311	12.747	5.	5.e-002	3.7862
48312	12.897	5.	0.	1.2233e-002
48313	12.847	4.95	0.	1.2632e-002
48314	12.847	5.	5.e-002	3.7898
48315	12.996	5.	0.	1.1245e-002
48316	12.947	4.95	0.	1.1583e-002
48317	12.947	5.	5.e-002	3.7914
48318	13.096	5.	0.	1.0383e-002
48319	13.046	4.95	0.	1.0673e-002
48320	13.046	5.	5.e-002	3.7914
48321	13.195	5.	0.	9.6383e-003
48322	13.146	4.95	0.	9.8761e-003
48323	13.146	5.	5.e-002	3.7897
48324	13.295	5.	0.	9.0046e-003
48325	13.245	4.95	0.	9.1986e-003
48326	13.245	5.	5.e-002	3.7866
48327	13.395	5.	0.	8.4591e-003
48328	13.345	4.95	0.	8.6252e-003
48329	13.345	5.	5.e-002	3.7823
48330	13.494	5.	0.	7.9647e-003
48331	13.444	4.95	0.	8.1236e-003
48332	13.444	5.	5.e-002	3.777
48333	13.594	5.	0.	7.569e-003
48334	13.544	4.95	0.	7.6871e-003
48335	13.544	5.	5.e-002	3.7707
48336	13.693	5.	0.	7.2131e-003
48337	13.644	4.95	0.	7.3122e-003
48338	13.644	5.	5.e-002	3.7637
48339	13.793	5.	0.	6.9143e-003
48340	13.743	4.95	0.	6.9905e-003
48341	13.743	5.	5.e-002	3.7559
48342	13.893	5.	0.	6.672e-003
48343	13.843	4.95	0.	6.7284e-003
48344	13.843	5.	5.e-002	3.7475
48345	13.992	5.	0.	6.4624e-003
48346	13.942	4.95	0.	6.5185e-003
48347	13.942	5.	5.e-002	3.7386
48348	14.092	5.	0.	6.282e-003
48349	14.042	4.95	0.	6.3205e-003
48350	14.042	5.	5.e-002	3.7293
48351	14.191	5.	0.	6.1489e-003
48352	14.142	4.95	0.	6.1667e-003
48353	14.142	5.	5.e-002	3.7197
48354	14.291	5.	0.	6.0594e-003
48355	14.241	4.95	0.	6.0615e-003
48356	14.241	5.	5.e-002	3.7097
48357	14.39	5.	0.	6.0096e-003
48358	14.341	4.95	0.	5.9911e-003
48359	14.341	5.	5.e-002	3.6994
48360	14.49	5.	0.	6.0001e-003
48361	14.44	4.95	0.	5.9591e-003
48362	14.44	5.	5.e-002	3.689
48363	14.59	5.	0.	6.0321e-003
48364	14.54	4.95	0.	5.964e-003
48365	14.54	5.	5.e-002	3.6784
48366	14.689	5.	0.	6.1206e-003
48367	14.639	4.95	0.	6.0052e-003
48368	14.639	5.	5.e-002	3.6677
48369	14.789	5.	0.	6.2874e-003
48370	14.739	4.95	0.	6.1102e-003
48371	14.739	5.	5.e-002	3.6569
48372	14.888	5.	0.	6.5447e-003
48373	14.839	4.95	0.	6.289e-003
48374	14.839	5.	5.e-002	3.6461
48375	14.988	5.	0.	6.9221e-003
48376	14.938	4.95	0.	6.5438e-003
48377	14.938	5.	5.e-002	3.6353
48378	15.088	5.	0.	7.4877e-003
48379	15.038	4.95	0.	6.912e-003
48380	15.038	5.	5.e-002	3.6244
48381	15.187	5.	0.	8.3749e-003
48382	15.137	4.95	0.	7.4528e-003
48383	15.137	5.	5.e-002	3.6137
48384	15.287	5.	0.	9.8783e-003
48385	15.237	4.95	0.	8.2879e-003
48386	15.237	5.	5.e-002	3.6029
48387	15.386	5.	0.	1.28e-002
48388	15.336	4.95	0.	9.6595e-003
48389	15.336	5.	5.e-002	3.5923
48390	15.486	5.	0.	2.0653e-002
48391	15.436	4.95	0.	1.2185e-002
48392	15.436	5.	5.e-002	3.5817
48393	15.585	5.	0.	8.2375e-002
48394	15.536	4.95	0.	1.8385e-002
48395	15.536	5.	5.e-002	3.5711
48396	15.685	5.	0.	0.72339
48397	15.635	4.95	0.	5.1689e-002
48398	15.635	5.	5.e-002	3.5606
48399	15.785	5.	0.	1.5296
48400	15.735	4.95	0.	0.56783
48401	15.735	5.	5.e-002	3.5503
48402	15.884	5.	0.	2.3267
48403	15.834	4.95	0.	1.3882
48404	15.834	5.	5.e-002	3.54
48405	15.984	5.	0.	3.1086
48406	15.934	4.95	0.	2.204
48407	15.934	5.	5.e-002	3.5298
48408	16.083	5.	0.	3.8749
48409	16.034	4.95	0.	3.0047
48410	16.034	5.	5.e-002	3.5197
48411	16.183	5.	0.	4.626
48412	16.133	4.95	0.	3.7895
48413	16.133	5.	5.e-002	3.5097
48414	16.282	5.	0.	5.3627
48415	16.233	4.95	0.	4.5589
48416	16.233	5.	5.e-002	3.4998
48417	16.382	5.	0.	6.0857
48418	16.332	4.95	0.	5.3135
48419	16.332	5.	5.e-002	3.4901
48420	16.482	5.	0.	6.7959
48421	16.432	4.95	0.	6.0542
48422	16.432	5.	5.e-002	3.4805
48423	16.581	5.	0.	7.4942
48424	16.531	4.95	0.	6.782
48425	16.531	5.	5.e-002	3.471
48426	16.681	5.	0.	8.1815
48427	16.631	4.95	0.	7.4977
48428	16.631	5.	5.e-002	3.4616
48429	16.78	5.	0.	8.8586
48430	16.731	4.95	0.	8.2023
48431	16.731	5.	5.e-002	3.4524
48432	16.88	5.	0.	9.5265
48433	16.83	4.95	0.	8.8969
48434	16.83	5.	5.e-002	3.4433
48435	16.98	5.	0.	10.186
48436	16.93	4.95	0.	9.5821
48437	16.93	5.	5.e-002	3.4343
48438	17.079	5.	0.	10.838
48439	17.029	4.95	0.	10.259
48440	17.029	5.	5.e-002	3.4254
48441	17.179	5.	0.	11.484
48442	17.129	4.95	0.	10.929
48443	17.129	5.	5.e-002	3.4167
48444	17.278	5.	0.	12.124
48445	17.229	4.95	0.	11.593
48446	17.229	5.	5.e-002	3.408
48447	17.378	5.	0.	12.759
48448	17.328	4.95	0.	12.251
48449	17.328	5.	5.e-002	3.3995
48450	17.477	5.	0.	13.391
48451	17.428	4.95	0.	12.905
48452	17.428	5.	5.e-002	3.3911
48453	17.577	5.	0.	14.02
48454	17.527	4.95	0.	13.555
48455	17.527	5.	5.e-002	3.3828
48456	17.677	5.	0.	14.647
48457	17.627	4.95	0.	14.203
48458	17.627	5.	5.e-002	3.3746
48459	17.776	5.	0.	15.273
48460	17.726	4.95	0.	14.849
48461	17.726	5.	5.e-002	3.3666
48462	17.876	5.	0.	15.899
48463	17.826	4.95	0.	15.495
48464	17.826	5.	5.e-002	3.3587
48465	17.975	5.	0.	16.525
48466	17.926	4.95	0.	16.142
48467	17.926	5.	5.e-002	3.351
48468	18.075	5.	0.	17.154
48469	18.025	4.95	0.	16.79
48470	18.025	5.	5.e-002	3.3434
48471	18.175	5.	0.	17.785
48472	18.125	4.95	0.	17.44
48473	18.125	5.	5.e-002	3.3359
48474	18.274	5.	0.	18.42
48475	18.224	4.95	0.	18.093
48476	18.224	5.	5.e-002	3.3285
48477	18.374	5.	0.	19.059
48478	18.324	4.95	0.	18.751
48479	18.324	5.	5.e-002	3.3214
48480	18.473	5.	0.	19.703
48481	18.423	4.95	0.	19.414
48482	18.423	5.	5.e-002	3.3143
48483	18.573	5.	0.	20.354
48484	18.523	4.95	0.	20.084
48485	18.523	5.	5.e-002	3.3073
48486	18.672	5.	0.	21.013
48487	18.623	4.95	0.	20.76
48488	18.623	5.	5.e-002	3.3005
48489	18.772	5.	0.	21.68
48490	18.722	4.95	0.	21.446
48491	18.722	5.	5.e-002	3.2939
48492	18.872	5.	0.	22.356
48493	18.822	4.95	0.	22.14
48494	18.822	5.	5.e-002	3.2874
48495	18.971	5.	0.	23.042
48496	18.921	4.95	0.	22.845
48497	18.921	5.	5.e-002	3.281
48498	19.071	5.	0.	23.739
48499	19.021	4.95	0.	23.561
48500	19.021	5.	5.e-002	3.2748
48501	19.17	5.	0.	24.449
48502	19.121	4.95	0.	24.29
48503	19.121	5.	5.e-002	3.2687
48504	19.27	5.	0.	25.173
48505	19.22	4.95	0.	25.032
48506	19.22	5.	5.e-002	3.2629
48507	19.369	5.	0.	25.91
48508	19.32	4.95	0.	25.789
48509	19.32	5.	5.e-002	3.2571
48510	19.469	5.	0.	26.663
48511	19.419	4.95	0.	26.562
48512	19.419	5.	5.e-002	3.2516
48513	19.569	5.	0.	27.433
48514	19.519	4.95	0.	27.352
48515	19.519	5.	5.e-002	3.2462
48516	19.668	5.	0.	28.221
48517	19.618	4.95	0.	28.16
48518	19.618	5.	5.e-002	3.2411
48519	19.768	5.	0.	29.027
48520	19.718	4.95	0.	28.987
48521	19.718	5.	5.e-002	3.2361
48522	19.867	5.	0.	29.854
48523	19.818	4.95	0.	29.835
48524	19.818	5.	5.e-002	3.2313
48525	19.967	5.	0.	30.702
48526	19.917	4.95	0.	30.706
48527	19.917	5.	5.e-002	3.2268
48528	20.067	5.	0.	31.573
48529	20.017	4.95	0.	31.599
48530	20.017	5.	5.e-002	3.2224
48531	20.166	5.	0.	32.467
48532	20.116	4.95	0.	32.518
48533	20.116	5.	5.e-002	3.2182
48534	20.266	5.	0.	33.388
48535	20.216	4.95	0.	33.462
48536	20.216	5.	5.e-002	3.2143
48537	20.365	5.	0.	34.335
48538	20.316	4.95	0.	34.435
48539	20.316	5.	5.e-002	3.2106
48540	20.465	5.	0.	35.311
48541	20.415	4.95	0.	35.437
48542	20.415	5.	5.e-002	3.2071
48543	20.564	5.	0.	36.317
48544	20.515	4.95	0.	36.47
48545	20.515	5.	5.e-002	3.2039
48546	20.664	5.	0.	37.355
48547	20.614	4.95	0.	37.536
48548	20.614	5.	5.e-002	3.201
48549	20.764	5.	0.	38.426
48550	20.714	4.95	0.	38.637
48551	20.714	5.	5.e-002	3.1984
48552	20.863	5.	0.	39.534
48553	20.813	4.95	0.	39.775
48554	20.813	5.	5.e-002	3.196
48555	20.963	5.	0.	40.679
48556	20.913	4.95	0.	40.952
48557	20.913	5.	5.e-002	3.194
48558	21.062	5.	0.	41.865
48559	21.013	4.95	0.	42.17
48560	21.013	5.	5.e-002	3.1923
48561	21.162	5.	0.	43.094
48562	21.112	4.95	0.	43.433
48563	21.112	5.	5.e-002	3.191
48564	21.262	5.	0.	44.368
48565	21.212	4.95	0.	44.742
48566	21.212	5.	5.e-002	3.19
48567	21.361	5.	0.	45.691
48568	21.311	4.95	0.	46.102
48569	21.311	5.	5.e-002	3.1894
48570	21.461	5.	0.	47.065
48571	21.411	4.95	0.	47.514
48572	21.411	5.	5.e-002	3.1893
48573	21.56	5.	0.	48.495
48574	21.51	4.95	0.	48.983
48575	21.51	5.	5.e-002	3.1896
48576	21.66	5.	0.	49.985
48577	21.61	4.95	0.	50.513
48578	21.61	5.	5.e-002	3.1903
48579	21.759	5.	0.	51.538
48580	21.71	4.95	0.	52.107
48581	21.71	5.	5.e-002	3.1917
48582	21.859	5.	0.	53.161
48583	21.809	4.95	0.	53.772
48584	21.809	5.	5.e-002	3.1936
48585	21.959	5.	0.	54.859
48586	21.909	4.95	0.	55.513
48587	21.909	5.	5.e-002	3.1961
48588	22.058	5.	0.	56.638
48589	22.008	4.95	0.	57.335
48590	22.008	5.	5.e-002	3.1994
48591	22.158	5.	0.	58.505
48592	22.108	4.95	0.	59.246
48593	22.108	5.	5.e-002	3.2034
48594	22.257	5.	0.	60.469
48595	22.208	4.95	0.	61.254
48596	22.208	5.	5.e-002	3.2084
48597	22.357	5.	0.	62.539
48598	22.307	4.95	0.	63.367
48599	22.307	5.	5.e-002	3.2143
48600	22.456	5.	0.	64.726
48601	22.407	4.95	0.	65.594
48602	22.407	5.	5.e-002	3.2214
48603	22.556	5.	0.	67.042
48604	22.506	4.95	0.	67.949
48605	22.506	5.	5.e-002	3.2297
48606	22.656	5.	0.	69.5
48607	22.606	4.95	0.	70.442
48608	22.606	5.	5.e-002	3.2395
48609	22.755	5.	0.	72.115
48610	22.705	4.95	0.	73.088
48611	22.705	5.	5.e-002	3.2511
48612	22.855	5.	0.	74.906
48613	22.805	4.95	0.	75.902
48614	22.805	5.	5.e-002	3.2646
48615	22.954	5.	0.	77.89
48616	22.905	4.95	0.	78.902
48617	22.905	5.	5.e-002	3.2804
48618	23.054	5.	0.	81.09
48619	23.004	4.95	0.	82.106
48620	23.004	5.	5.e-002	3.2988
48621	23.154	5.	0.	84.525
48622	23.104	4.95	0.	85.534
48623	23.104	5.	5.e-002	3.3203
48624	23.253	5.	0.	88.22
48625	23.203	4.95	0.	89.205
48626	23.203	5.	5.e-002	3.3454
48627	23.353	5.	0.	92.196
48628	23.303	4.95	0.	93.141
48629	23.303	5.	5.e-002	3.3746
48630	23.452	5.	0.	96.472
48631	23.403	4.95	0.	97.359
48632	23.403	5.	5.e-002	3.4083
48633	23.552	5.	0.	101.07
48634	23.502	4.95	0.	101.87
48635	23.502	5.	5.e-002	3.447
48636	23.651	5.	0.	105.98
48637	23.602	4.95	0.	106.7
48638	23.602	5.	5.e-002	3.4909
48639	23.751	5.	0.	111.24
48640	23.701	4.95	0.	111.83
48641	23.701	5.	5.e-002	3.5403
48642	23.851	5.	0.	116.86
48643	23.801	4.95	0.	117.29
48644	23.801	5.	5.e-002	3.5963
48645	23.9	4.95	0.	123.12
48646	23.9	5.	5.e-002	3.7163
48647	23.95	5.	0.	121.95
48648	8.316	4.9	0.	1189.
48649	8.2662	4.85	0.	1443.1
48650	8.2662	4.9	5.e-002	59.544
48651	8.2165	4.9	0.	871.27
48652	8.4156	4.9	0.	955.06
48653	8.3658	4.85	0.	1137.4
48654	8.3658	4.9	5.e-002	45.699
48655	8.5152	4.9	0.	784.12
48656	8.4654	4.85	0.	935.53
48657	8.4654	4.9	5.e-002	42.934
48658	8.6148	4.9	0.	638.26
48659	8.565	4.85	0.	761.5
48660	8.565	4.9	5.e-002	39.74
48661	8.7144	4.9	0.	515.39
48662	8.6646	4.85	0.	612.65
48663	8.6646	4.9	5.e-002	36.272
48664	8.8139	4.9	0.	413.95
48665	8.7642	4.85	0.	488.61
48666	8.7642	4.9	5.e-002	32.78
48667	8.9135	4.9	0.	331.4
48668	8.8637	4.85	0.	387.24
48669	8.8637	4.9	5.e-002	29.446
48670	9.0131	4.9	0.	264.76
48671	8.9633	4.85	0.	305.46
48672	8.9633	4.9	5.e-002	26.36
48673	9.1127	4.9	0.	211.15
48674	9.0629	4.85	0.	239.96
48675	9.0629	4.9	5.e-002	23.55
48676	9.2123	4.9	0.	167.98
48677	9.1625	4.85	0.	187.63
48678	9.1625	4.9	5.e-002	21.017
48679	9.3118	4.9	0.	133.08
48680	9.2621	4.85	0.	145.78
48681	9.2621	4.9	5.e-002	18.743
48682	9.4114	4.9	0.	104.69
48683	9.3616	4.85	0.	112.19
48684	9.3616	4.9	5.e-002	16.708
48685	9.511	4.9	0.	81.408
48686	9.4612	4.85	0.	85.078
48687	9.4612	4.9	5.e-002	14.889
48688	9.6106	4.9	0.	62.17
48689	9.5608	4.85	0.	63.067
48690	9.5608	4.9	5.e-002	13.267
48691	9.7102	4.9	0.	46.165
48692	9.6604	4.85	0.	45.121
48693	9.6604	4.9	5.e-002	11.824
48694	9.8097	4.9	0.	32.818
48695	9.76	4.85	0.	30.526
48696	9.76	4.9	5.e-002	10.545
48697	9.9093	4.9	0.	21.782
48698	9.8595	4.85	0.	18.922
48699	9.8595	4.9	5.e-002	9.4142
48700	10.009	4.9	0.	13.023
48701	9.9591	4.85	0.	10.434
48702	9.9591	4.9	5.e-002	8.4211
48703	10.108	4.9	0.	6.915
48704	10.059	4.85	0.	5.3706
48705	10.059	4.9	5.e-002	7.5543
48706	10.208	4.9	0.	3.5835
48707	10.158	4.85	0.	2.9396
48708	10.158	4.9	5.e-002	6.8043
48709	10.308	4.9	0.	2.0342
48710	10.258	4.85	0.	1.7878
48711	10.258	4.9	5.e-002	6.1622
48712	10.407	4.9	0.	1.2755
48713	10.357	4.85	0.	1.1796
48714	10.357	4.9	5.e-002	5.6196
48715	10.507	4.9	0.	0.85908
48716	10.457	4.85	0.	0.82324
48717	10.457	4.9	5.e-002	5.1682
48718	10.606	4.9	0.	0.60808
48719	10.557	4.85	0.	0.59763
48720	10.557	4.9	5.e-002	4.7996
48721	10.706	4.9	0.	0.44612
48722	10.656	4.85	0.	0.44667
48723	10.656	4.9	5.e-002	4.505
48724	10.806	4.9	0.	0.33631
48725	10.756	4.85	0.	0.34148
48726	10.756	4.9	5.e-002	4.2753
48727	10.905	4.9	0.	0.25905
48728	10.855	4.85	0.	0.26586
48729	10.855	4.9	5.e-002	4.1013
48730	11.005	4.9	0.	0.20313
48731	10.955	4.85	0.	0.21019
48732	10.955	4.9	5.e-002	3.9736
48733	11.104	4.9	0.	0.1617
48734	11.055	4.85	0.	0.16839
48735	11.055	4.9	5.e-002	3.8836
48736	11.204	4.9	0.	0.13041
48737	11.154	4.85	0.	0.13645
48738	11.154	4.9	5.e-002	3.8234
48739	11.303	4.9	0.	0.10642
48740	11.254	4.85	0.	0.11172
48741	11.254	4.9	5.e-002	3.7858
48742	11.403	4.9	0.	8.7769e-002
48743	11.353	4.85	0.	9.2363e-002
48744	11.353	4.9	5.e-002	3.7652
48745	11.503	4.9	0.	7.3091e-002
48746	11.453	4.85	0.	7.7027e-002
48747	11.453	4.9	5.e-002	3.7566
48748	11.602	4.9	0.	6.1413e-002
48749	11.552	4.85	0.	6.4766e-002
48750	11.552	4.9	5.e-002	3.7565
48751	11.702	4.9	0.	5.2024e-002
48752	11.652	4.85	0.	5.4871e-002
48753	11.652	4.9	5.e-002	3.7617
48754	11.801	4.9	0.	4.4416e-002
48755	11.752	4.85	0.	4.6814e-002
48756	11.752	4.9	5.e-002	3.7702
48757	11.901	4.9	0.	3.8214e-002
48758	11.851	4.85	0.	4.0228e-002
48759	11.851	4.9	5.e-002	3.7802
48760	12.001	4.9	0.	3.3112e-002
48761	11.951	4.85	0.	3.481e-002
48762	11.951	4.9	5.e-002	3.7907
48763	12.1	4.9	0.	2.8879e-002
48764	12.05	4.85	0.	3.0308e-002
48765	12.05	4.9	5.e-002	3.8009
48766	12.2	4.9	0.	2.5347e-002
48767	12.15	4.85	0.	2.6547e-002
48768	12.15	4.9	5.e-002	3.81
48769	12.299	4.9	0.	2.2389e-002
48770	12.249	4.85	0.	2.3389e-002
48771	12.249	4.9	5.e-002	3.8179
48772	12.399	4.9	0.	1.9907e-002
48773	12.349	4.85	0.	2.074e-002
48774	12.349	4.9	5.e-002	3.8243
48775	12.498	4.9	0.	1.7793e-002
48776	12.449	4.85	0.	1.8505e-002
48777	12.449	4.9	5.e-002	3.8291
48778	12.598	4.9	0.	1.5981e-002
48779	12.548	4.85	0.	1.6575e-002
48780	12.548	4.9	5.e-002	3.8323
48781	12.698	4.9	0.	1.4441e-002
48782	12.648	4.85	0.	1.4932e-002
48783	12.648	4.9	5.e-002	3.8339
48784	12.797	4.9	0.	1.3126e-002
48785	12.747	4.85	0.	1.3537e-002
48786	12.747	4.9	5.e-002	3.8339
48787	12.897	4.9	0.	1.1996e-002
48788	12.847	4.85	0.	1.2337e-002
48789	12.847	4.9	5.e-002	3.8324
48790	12.996	4.9	0.	1.1023e-002
48791	12.947	4.85	0.	1.1309e-002
48792	12.947	4.9	5.e-002	3.8297
48793	13.096	4.9	0.	1.0175e-002
48794	13.046	4.85	0.	1.0418e-002
48795	13.046	4.9	5.e-002	3.8257
48796	13.195	4.9	0.	9.4439e-003
48797	13.146	4.85	0.	9.6374e-003
48798	13.146	4.9	5.e-002	3.8206
48799	13.295	4.9	0.	8.8438e-003
48800	13.245	4.85	0.	8.9801e-003
48801	13.245	4.9	5.e-002	3.8145
48802	13.395	4.9	0.	8.2938e-003
48803	13.345	4.85	0.	8.4239e-003
48804	13.345	4.9	5.e-002	3.8075
48805	13.494	4.9	0.	7.8309e-003
48806	13.444	4.85	0.	7.9394e-003
48807	13.444	4.9	5.e-002	3.7999
48808	13.594	4.9	0.	7.4315e-003
48809	13.544	4.85	0.	7.5193e-003
48810	13.544	4.9	5.e-002	3.7915
48811	13.693	4.9	0.	7.0894e-003
48812	13.644	4.85	0.	7.1603e-003
48813	13.644	4.9	5.e-002	3.7825
48814	13.793	4.9	0.	6.8032e-003
48815	13.743	4.85	0.	6.8529e-003
48816	13.743	4.9	5.e-002	3.7731
48817	13.893	4.9	0.	6.5723e-003
48818	13.843	4.85	0.	6.6051e-003
48819	13.843	4.9	5.e-002	3.7633
48820	13.992	4.9	0.	6.3728e-003
48821	13.942	4.85	0.	6.4077e-003
48822	13.942	4.9	5.e-002	3.7531
48823	14.092	4.9	0.	6.2004e-003
48824	14.042	4.85	0.	6.2202e-003
48825	14.042	4.9	5.e-002	3.7427
48826	14.191	4.9	0.	6.0736e-003
48827	14.142	4.85	0.	6.0746e-003
48828	14.142	4.9	5.e-002	3.7319
48829	14.291	4.9	0.	5.9867e-003
48830	14.241	4.85	0.	5.9754e-003
48831	14.241	4.9	5.e-002	3.721
48832	14.39	4.9	0.	5.9335e-003
48833	14.341	4.85	0.	5.9075e-003
48834	14.341	4.9	5.e-002	3.7099
48835	14.49	4.9	0.	5.9156e-003
48836	14.44	4.85	0.	5.8728e-003
48837	14.44	4.9	5.e-002	3.6987
48838	14.59	4.9	0.	5.9297e-003
48839	14.54	4.85	0.	5.8705e-003
48840	14.54	4.9	5.e-002	3.6875
48841	14.689	4.9	0.	5.9882e-003
48842	14.639	4.85	0.	5.8945e-003
48843	14.639	4.9	5.e-002	3.6762
48844	14.789	4.9	0.	6.1072e-003
48845	14.739	4.85	0.	5.9713e-003
48846	14.739	4.9	5.e-002	3.6648
48847	14.888	4.9	0.	6.2876e-003
48848	14.839	4.85	0.	6.1056e-003
48849	14.839	4.9	5.e-002	3.6535
48850	14.988	4.9	0.	6.5414e-003
48851	14.938	4.85	0.	6.2894e-003
48852	14.938	4.9	5.e-002	3.6422
48853	15.088	4.9	0.	6.9015e-003
48854	15.038	4.85	0.	6.5452e-003
48855	15.038	4.9	5.e-002	3.631
48856	15.187	4.9	0.	7.4265e-003
48857	15.137	4.85	0.	6.9025e-003
48858	15.137	4.9	5.e-002	3.6199
48859	15.287	4.9	0.	8.2193e-003
48860	15.237	4.85	0.	7.4203e-003
48861	15.237	4.9	5.e-002	3.6088
48862	15.386	4.9	0.	9.4738e-003
48863	15.336	4.85	0.	8.187e-003
48864	15.336	4.9	5.e-002	3.5978
48865	15.486	4.9	0.	1.1733e-002
48866	15.436	4.85	0.	9.3623e-003
48867	15.436	4.9	5.e-002	3.587
48868	15.585	4.9	0.	1.6924e-002
48869	15.536	4.85	0.	1.1457e-002
48870	15.536	4.9	5.e-002	3.5762
48871	15.685	4.9	0.	3.9223e-002
48872	15.635	4.85	0.	1.6075e-002
48873	15.635	4.9	5.e-002	3.5655
48874	15.785	4.9	0.	0.44241
48875	15.735	4.85	0.	3.3642e-002
48876	15.735	4.9	5.e-002	3.5549
48877	15.884	4.9	0.	1.274
48878	15.834	4.85	0.	0.35887
48879	15.834	4.9	5.e-002	3.5444
48880	15.984	4.9	0.	2.1082
48881	15.934	4.85	0.	1.1992
48882	15.934	4.9	5.e-002	3.5341
48883	16.083	4.9	0.	2.9274
48884	16.034	4.85	0.	2.0502
48885	16.034	4.9	5.e-002	3.5238
48886	16.183	4.9	0.	3.7305
48887	16.133	4.85	0.	2.8865
48888	16.133	4.9	5.e-002	3.5136
48889	16.282	4.9	0.	4.5179
48890	16.233	4.85	0.	3.7065
48891	16.233	4.9	5.e-002	3.5036
48892	16.382	4.9	0.	5.2904
48893	16.332	4.85	0.	4.5106
48894	16.332	4.9	5.e-002	3.4938
48895	16.482	4.9	0.	6.0488
48896	16.432	4.85	0.	5.2995
48897	16.432	4.9	5.e-002	3.4841
48898	16.581	4.9	0.	6.7941
48899	16.531	4.85	0.	6.0742
48900	16.531	4.9	5.e-002	3.4745
48901	16.681	4.9	0.	7.5273
48902	16.631	4.85	0.	6.8359
48903	16.631	4.9	5.e-002	3.465
48904	16.78	4.9	0.	8.2494
48905	16.731	4.85	0.	7.5854
48906	16.731	4.9	5.e-002	3.4557
48907	16.88	4.9	0.	8.9614
48908	16.83	4.85	0.	8.3239
48909	16.83	4.9	5.e-002	3.4465
48910	16.98	4.9	0.	9.6644
48911	16.93	4.85	0.	9.0523
48912	16.93	4.9	5.e-002	3.4375
48913	17.079	4.9	0.	10.359
48914	17.029	4.85	0.	9.7719
48915	17.029	4.9	5.e-002	3.4285
48916	17.179	4.9	0.	11.047
48917	17.129	4.85	0.	10.484
48918	17.129	4.9	5.e-002	3.4197
48919	17.278	4.9	0.	11.729
48920	17.229	4.85	0.	11.188
48921	17.229	4.9	5.e-002	3.411
48922	17.378	4.9	0.	12.405
48923	17.328	4.85	0.	11.887
48924	17.328	4.9	5.e-002	3.4025
48925	17.477	4.9	0.	13.078
48926	17.428	4.85	0.	12.582
48927	17.428	4.9	5.e-002	3.394
48928	17.577	4.9	0.	13.748
48929	17.527	4.85	0.	13.273
48930	17.527	4.9	5.e-002	3.3857
48931	17.677	4.9	0.	14.415
48932	17.627	4.85	0.	13.961
48933	17.627	4.9	5.e-002	3.3775
48934	17.776	4.9	0.	15.082
48935	17.726	4.85	0.	14.647
48936	17.726	4.9	5.e-002	3.3695
48937	17.876	4.9	0.	15.749
48938	17.826	4.85	0.	15.334
48939	17.826	4.9	5.e-002	3.3616
48940	17.975	4.9	0.	16.416
48941	17.926	4.85	0.	16.02
48942	17.926	4.9	5.e-002	3.3539
48943	18.075	4.9	0.	17.086
48944	18.025	4.85	0.	16.709
48945	18.025	4.9	5.e-002	3.3463
48946	18.175	4.9	0.	17.759
48947	18.125	4.85	0.	17.4
48948	18.125	4.9	5.e-002	3.3388
48949	18.274	4.9	0.	18.436
48950	18.224	4.85	0.	18.095
48951	18.224	4.9	5.e-002	3.3315
48952	18.374	4.9	0.	19.118
48953	18.324	4.85	0.	18.795
48954	18.324	4.9	5.e-002	3.3243
48955	18.473	4.9	0.	19.806
48956	18.423	4.85	0.	19.5
48957	18.423	4.9	5.e-002	3.3173
48958	18.573	4.9	0.	20.501
48959	18.523	4.85	0.	20.213
48960	18.523	4.9	5.e-002	3.3104
48961	18.672	4.9	0.	21.205
48962	18.623	4.85	0.	20.934
48963	18.623	4.9	5.e-002	3.3036
48964	18.772	4.9	0.	21.917
48965	18.722	4.85	0.	21.664
48966	18.722	4.9	5.e-002	3.297
48967	18.872	4.9	0.	22.641
48968	18.822	4.85	0.	22.405
48969	18.822	4.9	5.e-002	3.2906
48970	18.971	4.9	0.	23.376
48971	18.921	4.85	0.	23.157
48972	18.921	4.9	5.e-002	3.2842
48973	19.071	4.9	0.	24.123
48974	19.021	4.85	0.	23.922
48975	19.021	4.9	5.e-002	3.2781
48976	19.17	4.9	0.	24.884
48977	19.121	4.85	0.	24.701
48978	19.121	4.9	5.e-002	3.2721
48979	19.27	4.9	0.	25.661
48980	19.22	4.85	0.	25.495
48981	19.22	4.9	5.e-002	3.2663
48982	19.369	4.9	0.	26.453
48983	19.32	4.85	0.	26.305
48984	19.32	4.9	5.e-002	3.2607
48985	19.469	4.9	0.	27.263
48986	19.419	4.85	0.	27.133
48987	19.419	4.9	5.e-002	3.2553
48988	19.569	4.9	0.	28.091
48989	19.519	4.85	0.	27.98
48990	19.519	4.9	5.e-002	3.25
48991	19.668	4.9	0.	28.939
48992	19.618	4.85	0.	28.847
48993	19.618	4.9	5.e-002	3.245
48994	19.768	4.9	0.	29.809
48995	19.718	4.85	0.	29.735
48996	19.718	4.9	5.e-002	3.2401
48997	19.867	4.9	0.	30.701
48998	19.818	4.85	0.	30.647
48999	19.818	4.9	5.e-002	3.2355
49000	19.967	4.9	0.	31.617
49001	19.917	4.85	0.	31.583
49002	19.917	4.9	5.e-002	3.2311
49003	20.067	4.9	0.	32.558
49004	20.017	4.85	0.	32.546
49005	20.017	4.9	5.e-002	3.2268
49006	20.166	4.9	0.	33.527
49007	20.116	4.85	0.	33.536
49008	20.116	4.9	5.e-002	3.2228
49009	20.266	4.9	0.	34.524
49010	20.216	4.85	0.	34.555
49011	20.216	4.9	5.e-002	3.2191
49012	20.365	4.9	0.	35.551
49013	20.316	4.85	0.	35.605
49014	20.316	4.9	5.e-002	3.2156
49015	20.465	4.9	0.	36.611
49016	20.415	4.85	0.	36.688
49017	20.415	4.9	5.e-002	3.2123
49018	20.564	4.9	0.	37.704
49019	20.515	4.85	0.	37.806
49020	20.515	4.9	5.e-002	3.2094
49021	20.664	4.9	0.	38.834
49022	20.614	4.85	0.	38.96
49023	20.614	4.9	5.e-002	3.2067
49024	20.764	4.9	0.	40.001
49025	20.714	4.85	0.	40.154
49026	20.714	4.9	5.e-002	3.2043
49027	20.863	4.9	0.	41.209
49028	20.813	4.85	0.	41.388
49029	20.813	4.9	5.e-002	3.2022
49030	20.963	4.9	0.	42.459
49031	20.913	4.85	0.	42.666
49032	20.913	4.9	5.e-002	3.2005
49033	21.062	4.9	0.	43.755
49034	21.013	4.85	0.	43.991
49035	21.013	4.9	5.e-002	3.1991
49036	21.162	4.9	0.	45.098
49037	21.112	4.85	0.	45.364
49038	21.112	4.9	5.e-002	3.1981
49039	21.262	4.9	0.	46.493
49040	21.212	4.85	0.	46.789
49041	21.212	4.9	5.e-002	3.1975
49042	21.361	4.9	0.	47.942
49043	21.311	4.85	0.	48.27
49044	21.311	4.9	5.e-002	3.1973
49045	21.461	4.9	0.	49.449
49046	21.411	4.85	0.	49.81
49047	21.411	4.9	5.e-002	3.1975
49048	21.56	4.9	0.	51.018
49049	21.51	4.85	0.	51.412
49050	21.51	4.9	5.e-002	3.1983
49051	21.66	4.9	0.	52.653
49052	21.61	4.85	0.	53.082
49053	21.61	4.9	5.e-002	3.1996
49054	21.759	4.9	0.	54.36
49055	21.71	4.85	0.	54.823
49056	21.71	4.9	5.e-002	3.2014
49057	21.859	4.9	0.	56.143
49058	21.809	4.85	0.	56.641
49059	21.809	4.9	5.e-002	3.2039
49060	21.959	4.9	0.	58.008
49061	21.909	4.85	0.	58.542
49062	21.909	4.9	5.e-002	3.207
49063	22.058	4.9	0.	59.963
49064	22.008	4.85	0.	60.531
49065	22.008	4.9	5.e-002	3.2109
49066	22.158	4.9	0.	62.014
49067	22.108	4.85	0.	62.617
49068	22.108	4.9	5.e-002	3.2156
49069	22.257	4.9	0.	64.17
49070	22.208	4.85	0.	64.807
49071	22.208	4.9	5.e-002	3.2213
49072	22.357	4.9	0.	66.441
49073	22.307	4.85	0.	67.11
49074	22.307	4.9	5.e-002	3.228
49075	22.456	4.9	0.	68.836
49076	22.407	4.85	0.	69.535
49077	22.407	4.9	5.e-002	3.2358
49078	22.556	4.9	0.	71.368
49079	22.506	4.85	0.	72.093
49080	22.506	4.9	5.e-002	3.245
49081	22.656	4.9	0.	74.048
49082	22.606	4.85	0.	74.796
49083	22.606	4.9	5.e-002	3.2557
49084	22.755	4.9	0.	76.893
49085	22.705	4.85	0.	77.657
49086	22.705	4.9	5.e-002	3.268
49087	22.855	4.9	0.	79.916
49088	22.805	4.85	0.	80.691
49089	22.805	4.9	5.e-002	3.2824
49090	22.954	4.9	0.	83.134
49091	22.905	4.85	0.	83.911
49092	22.905	4.9	5.e-002	3.2989
49093	23.054	4.9	0.	86.566
49094	23.004	4.85	0.	87.334
49095	23.004	4.9	5.e-002	3.318
49096	23.154	4.9	0.	90.228
49097	23.104	4.85	0.	90.976
49098	23.104	4.9	5.e-002	3.3399
49099	23.253	4.9	0.	94.14
49100	23.203	4.85	0.	94.853
49101	23.203	4.9	5.e-002	3.3651
49102	23.353	4.9	0.	98.316
49103	23.303	4.85	0.	98.981
49104	23.303	4.9	5.e-002	3.394
49105	23.452	4.9	0.	102.77
49106	23.403	4.85	0.	103.37
49107	23.403	4.9	5.e-002	3.4268
49108	23.552	4.9	0.	107.51
49109	23.502	4.85	0.	108.04
49110	23.502	4.9	5.e-002	3.4638
49111	23.651	4.9	0.	112.55
49112	23.602	4.85	0.	112.98
49113	23.602	4.9	5.e-002	3.5051
49114	23.751	4.9	0.	117.89
49115	23.701	4.85	0.	118.21
49116	23.701	4.9	5.e-002	3.5509
49117	23.851	4.9	0.	123.55
49118	23.801	4.85	0.	123.73
49119	23.801	4.9	5.e-002	3.6019
49120	23.9	4.85	0.	129.57
49121	23.9	4.9	5.e-002	3.7114
49122	23.95	4.9	0.	128.76
49123	8.316	4.8	0.	1378.7
49124	8.2662	4.75	0.	1671.5
49125	8.2662	4.8	5.e-002	67.748
49126	8.2165	4.8	0.	1017.7
49127	8.4156	4.8	0.	1105.9
49128	8.3658	4.75	0.	1314.7
49129	8.3658	4.8	5.e-002	51.508
49130	8.5152	4.8	0.	902.41
49131	8.4654	4.75	0.	1073.3
49132	8.4654	4.8	5.e-002	47.63
49133	8.6148	4.8	0.	727.05
49134	8.565	4.75	0.	863.8
49135	8.565	4.8	5.e-002	43.33
49136	8.7144	4.8	0.	578.7
49137	8.6646	4.75	0.	684.64
49138	8.6646	4.8	5.e-002	38.905
49139	8.8139	4.8	0.	456.24
49140	8.7642	4.75	0.	536.04
49141	8.7642	4.8	5.e-002	34.679
49142	8.9135	4.8	0.	356.93
49143	8.8637	4.75	0.	415.46
49144	8.8637	4.8	5.e-002	30.825
49145	9.0131	4.8	0.	277.32
49146	8.9633	4.75	0.	319.08
49147	8.9633	4.8	5.e-002	27.389
49148	9.1127	4.8	0.	213.93
49149	9.0629	4.75	0.	242.73
49150	9.0629	4.8	5.e-002	24.354
49151	9.2123	4.8	0.	163.56
49152	9.1625	4.75	0.	182.54
49153	9.1625	4.8	5.e-002	21.678
49154	9.3118	4.8	0.	123.51
49155	9.2621	4.75	0.	135.14
49156	9.2621	4.8	5.e-002	19.318
49157	9.4114	4.8	0.	91.581
49158	9.3616	4.75	0.	97.788
49159	9.3616	4.8	5.e-002	17.232
49160	9.511	4.8	0.	66.042
49161	9.4612	4.75	0.	68.34
49162	9.4612	4.8	5.e-002	15.386
49163	9.6106	4.8	0.	45.599
49164	9.5608	4.75	0.	45.201
49165	9.5608	4.8	5.e-002	13.753
49166	9.7102	4.8	0.	29.385
49167	9.6604	4.75	0.	27.379
49168	9.6604	4.8	5.e-002	12.308
49169	9.8097	4.8	0.	17.057
49170	9.76	4.75	0.	14.67
49171	9.76	4.8	5.e-002	11.031
49172	9.9093	4.8	0.	8.8663
49173	9.8595	4.75	0.	7.2977
49174	9.8595	4.8	5.e-002	9.9069
49175	10.009	4.8	0.	4.6004
49176	9.9591	4.75	0.	3.9141
49177	9.9591	4.8	5.e-002	8.9203
49178	10.108	4.8	0.	2.6476
49179	10.059	4.75	0.	2.3691
49180	10.059	4.8	5.e-002	8.059
49181	10.208	4.8	0.	1.6837
49182	10.158	4.75	0.	1.5667
49183	10.158	4.8	5.e-002	7.312
49184	10.308	4.8	0.	1.1474
49185	10.258	4.75	0.	1.0983
49186	10.258	4.8	5.e-002	6.6694
49187	10.407	4.8	0.	0.81962
49188	10.357	4.75	0.	0.80119
49189	10.357	4.8	5.e-002	6.1218
49190	10.507	4.8	0.	0.60538
49191	10.457	4.75	0.	0.60137
49192	10.457	4.8	5.e-002	5.6603
49193	10.606	4.8	0.	0.45846
49194	10.557	4.75	0.	0.46122
49195	10.557	4.8	5.e-002	5.2765
49196	10.706	4.8	0.	0.35408
49197	10.656	4.75	0.	0.35982
49198	10.656	4.8	5.e-002	4.9616
49199	10.806	4.8	0.	0.27787
49200	10.756	4.75	0.	0.28467
49201	10.756	4.8	5.e-002	4.7073
49202	10.905	4.8	0.	0.22103
49203	10.855	4.75	0.	0.22792
49204	10.855	4.8	5.e-002	4.5051
49205	11.005	4.8	0.	0.17791
49206	10.955	4.75	0.	0.1844
49207	10.955	4.8	5.e-002	4.3471
49208	11.104	4.8	0.	0.14468
49209	11.055	4.75	0.	0.15059
49210	11.055	4.8	5.e-002	4.2259
49211	11.204	4.8	0.	0.11875
49212	11.154	4.75	0.	0.12399
49213	11.154	4.8	5.e-002	4.1344
49214	11.303	4.8	0.	9.8323e-002
49215	11.254	4.75	0.	0.10289
49216	11.254	4.8	5.e-002	4.0665
49217	11.403	4.8	0.	8.2065e-002
49218	11.353	4.75	0.	8.601e-002
49219	11.353	4.8	5.e-002	4.0172
49220	11.503	4.8	0.	6.901e-002
49221	11.453	4.75	0.	7.2391e-002
49222	11.453	4.8	5.e-002	3.982
49223	11.602	4.8	0.	5.8443e-002
49224	11.552	4.75	0.	6.1326e-002
49225	11.552	4.8	5.e-002	3.9574
49226	11.702	4.8	0.	4.9821e-002
49227	11.652	4.75	0.	5.2272e-002
49228	11.652	4.8	5.e-002	3.9405
49229	11.801	4.8	0.	4.2744e-002
49230	11.752	4.75	0.	4.4812e-002
49231	11.752	4.8	5.e-002	3.929
49232	11.901	4.8	0.	3.6914e-002
49233	11.851	4.75	0.	3.8651e-002
49234	11.851	4.8	5.e-002	3.9212
49235	12.001	4.8	0.	3.2076e-002
49236	11.951	4.75	0.	3.3541e-002
49237	11.951	4.8	5.e-002	3.9159
49238	12.1	4.8	0.	2.8031e-002
49239	12.05	4.75	0.	2.9262e-002
49240	12.05	4.8	5.e-002	3.912
49241	12.2	4.8	0.	2.4634e-002
49242	12.15	4.75	0.	2.5666e-002
49243	12.15	4.8	5.e-002	3.9087
49244	12.299	4.8	0.	2.1776e-002
49245	12.249	4.75	0.	2.2633e-002
49246	12.249	4.8	5.e-002	3.9056
49247	12.399	4.8	0.	1.9368e-002
49248	12.349	4.75	0.	2.0078e-002
49249	12.349	4.8	5.e-002	3.9023
49250	12.498	4.8	0.	1.7312e-002
49251	12.449	4.75	0.	1.7918e-002
49252	12.449	4.8	5.e-002	3.8986
49253	12.598	4.8	0.	1.5546e-002
49254	12.548	4.75	0.	1.6047e-002
49255	12.548	4.8	5.e-002	3.8942
49256	12.698	4.8	0.	1.4045e-002
49257	12.648	4.75	0.	1.4454e-002
49258	12.648	4.8	5.e-002	3.8891
49259	12.797	4.8	0.	1.2763e-002
49260	12.747	4.75	0.	1.3102e-002
49261	12.747	4.8	5.e-002	3.8832
49262	12.897	4.8	0.	1.1662e-002
49263	12.847	4.75	0.	1.1939e-002
49264	12.847	4.8	5.e-002	3.8766
49265	12.996	4.8	0.	1.0714e-002
49266	12.947	4.75	0.	1.0941e-002
49267	12.947	4.8	5.e-002	3.8693
49268	13.096	4.8	0.	9.89e-003
49269	13.046	4.75	0.	1.0082e-002
49270	13.046	4.8	5.e-002	3.8613
49271	13.195	4.8	0.	9.1815e-003
49272	13.146	4.75	0.	9.3308e-003
49273	13.146	4.8	5.e-002	3.8526
49274	13.295	4.8	0.	8.5837e-003
49275	13.245	4.75	0.	8.6973e-003
49276	13.245	4.8	5.e-002	3.8433
49277	13.395	4.8	0.	8.0727e-003
49278	13.345	4.75	0.	8.1653e-003
49279	13.345	4.8	5.e-002	3.8336
49280	13.494	4.8	0.	7.6298e-003
49281	13.444	4.75	0.	7.7032e-003
49282	13.444	4.8	5.e-002	3.8234
49283	13.594	4.8	0.	7.2489e-003
49284	13.544	4.75	0.	7.3046e-003
49285	13.544	4.8	5.e-002	3.8129
49286	13.693	4.8	0.	6.9236e-003
49287	13.644	4.75	0.	6.9655e-003
49288	13.644	4.8	5.e-002	3.802
49289	13.793	4.8	0.	6.6536e-003
49290	13.743	4.75	0.	6.6765e-003
49291	13.743	4.8	5.e-002	3.7908
49292	13.893	4.8	0.	6.4382e-003
49293	13.843	4.75	0.	6.4466e-003
49294	13.843	4.8	5.e-002	3.7794
49295	13.992	4.8	0.	6.2519e-003
49296	13.942	4.75	0.	6.2639e-003
49297	13.942	4.8	5.e-002	3.7679
49298	14.092	4.8	0.	6.0904e-003
49299	14.042	4.75	0.	6.0907e-003
49300	14.042	4.8	5.e-002	3.7562
49301	14.191	4.8	0.	5.9716e-003
49302	14.142	4.75	0.	5.957e-003
49303	14.142	4.8	5.e-002	3.7444
49304	14.291	4.8	0.	5.8908e-003
49305	14.241	4.75	0.	5.8666e-003
49306	14.241	4.8	5.e-002	3.7325
49307	14.39	4.8	0.	5.8408e-003
49308	14.341	4.75	0.	5.8052e-003
49309	14.341	4.8	5.e-002	3.7205
49310	14.49	4.8	0.	5.8214e-003
49311	14.44	4.75	0.	5.7735e-003
49312	14.44	4.8	5.e-002	3.7086
49313	14.59	4.8	0.	5.8287e-003
49314	14.54	4.75	0.	5.7702e-003
49315	14.54	4.8	5.e-002	3.6966
49316	14.689	4.8	0.	5.871e-003
49317	14.639	4.75	0.	5.7874e-003
49318	14.639	4.8	5.e-002	3.6847
49319	14.789	4.8	0.	5.9636e-003
49320	14.739	4.75	0.	5.8489e-003
49321	14.739	4.8	5.e-002	3.6728
49322	14.888	4.8	0.	6.1024e-003
49323	14.839	4.75	0.	5.9581e-003
49324	14.839	4.8	5.e-002	3.6609
49325	14.988	4.8	0.	6.2906e-003
49326	14.938	4.75	0.	6.1023e-003
49327	14.938	4.8	5.e-002	3.6492
49328	15.088	4.8	0.	6.5481e-003
49329	15.038	4.75	0.	6.2965e-003
49330	15.038	4.8	5.e-002	3.6376
49331	15.187	4.8	0.	6.9073e-003
49332	15.137	4.75	0.	6.5576e-003
49333	15.137	4.8	5.e-002	3.626
49334	15.287	4.8	0.	7.4173e-003
49335	15.237	4.75	0.	6.9225e-003
49336	15.237	4.8	5.e-002	3.6146
49337	15.386	4.8	0.	8.1465e-003
49338	15.336	4.75	0.	7.4304e-003
49339	15.336	4.8	5.e-002	3.6033
49340	15.486	4.8	0.	9.2718e-003
49341	15.436	4.75	0.	8.1335e-003
49342	15.436	4.8	5.e-002	3.5922
49343	15.585	4.8	0.	1.1242e-002
49344	15.536	4.75	0.	9.2312e-003
49345	15.536	4.8	5.e-002	3.5811
49346	15.685	4.8	0.	1.5461e-002
49347	15.635	4.75	0.	1.1133e-002
49348	15.635	4.8	5.e-002	3.5702
49349	15.785	4.8	0.	3.0358e-002
49350	15.735	4.75	0.	1.5148e-002
49351	15.735	4.8	5.e-002	3.5594
49352	15.884	4.8	0.	0.301
49353	15.834	4.75	0.	2.8906e-002
49354	15.834	4.8	5.e-002	3.5487
49355	15.984	4.8	0.	1.1494
49356	15.934	4.75	0.	0.27795
49357	15.934	4.8	5.e-002	3.5382
49358	16.083	4.8	0.	2.0173
49359	16.034	4.75	0.	1.1374
49360	16.034	4.8	5.e-002	3.5278
49361	16.183	4.8	0.	2.8705
49362	16.133	4.75	0.	2.0209
49363	16.133	4.8	5.e-002	3.5175
49364	16.282	4.8	0.	3.7073
49365	16.233	4.75	0.	2.8896
49366	16.233	4.8	5.e-002	3.5074
49367	16.382	4.8	0.	4.5279
49368	16.332	4.75	0.	3.7416
49369	16.332	4.8	5.e-002	3.4974
49370	16.482	4.8	0.	5.3333
49371	16.432	4.75	0.	4.5774
49372	16.432	4.8	5.e-002	3.4875
49373	16.581	4.8	0.	6.1245
49374	16.531	4.75	0.	5.398
49375	16.531	4.8	5.e-002	3.4778
49376	16.681	4.8	0.	6.9026
49377	16.631	4.75	0.	6.2043
49378	16.631	4.8	5.e-002	3.4683
49379	16.78	4.8	0.	7.6686
49380	16.731	4.75	0.	6.9975
49381	16.731	4.8	5.e-002	3.4589
49382	16.88	4.8	0.	8.4236
49383	16.83	4.75	0.	7.7788
49384	16.83	4.8	5.e-002	3.4496
49385	16.98	4.8	0.	9.1688
49386	16.93	4.75	0.	8.5492
49387	16.93	4.8	5.e-002	3.4405
49388	17.079	4.8	0.	9.9053
49389	17.029	4.75	0.	9.31
49390	17.029	4.8	5.e-002	3.4316
49391	17.179	4.8	0.	10.634
49392	17.129	4.75	0.	10.062
49393	17.129	4.8	5.e-002	3.4227
49394	17.278	4.8	0.	11.356
49395	17.229	4.75	0.	10.807
49396	17.229	4.8	5.e-002	3.4139
49397	17.378	4.8	0.	12.073
49398	17.328	4.75	0.	11.546
49399	17.328	4.8	5.e-002	3.4053
49400	17.477	4.8	0.	12.786
49401	17.428	4.75	0.	12.28
49402	17.428	4.8	5.e-002	3.3969
49403	17.577	4.8	0.	13.495
49404	17.527	4.75	0.	13.01
49405	17.527	4.8	5.e-002	3.3885
49406	17.677	4.8	0.	14.203
49407	17.627	4.75	0.	13.737
49408	17.627	4.8	5.e-002	3.3803
49409	17.776	4.8	0.	14.909
49410	17.726	4.75	0.	14.463
49411	17.726	4.8	5.e-002	3.3723
49412	17.876	4.8	0.	15.615
49413	17.826	4.75	0.	15.188
49414	17.826	4.8	5.e-002	3.3644
49415	17.975	4.8	0.	16.323
49416	17.926	4.75	0.	15.915
49417	17.926	4.8	5.e-002	3.3567
49418	18.075	4.8	0.	17.033
49419	18.025	4.75	0.	16.642
49420	18.025	4.8	5.e-002	3.3491
49421	18.175	4.8	0.	17.747
49422	18.125	4.75	0.	17.374
49423	18.125	4.8	5.e-002	3.3416
49424	18.274	4.8	0.	18.465
49425	18.224	4.75	0.	18.109
49426	18.224	4.8	5.e-002	3.3343
49427	18.374	4.8	0.	19.188
49428	18.324	4.75	0.	18.849
49429	18.324	4.8	5.e-002	3.3272
49430	18.473	4.8	0.	19.919
49431	18.423	4.75	0.	19.597
49432	18.423	4.8	5.e-002	3.3202
49433	18.573	4.8	0.	20.657
49434	18.523	4.75	0.	20.352
49435	18.523	4.8	5.e-002	3.3133
49436	18.672	4.8	0.	21.405
49437	18.623	4.75	0.	21.116
49438	18.623	4.8	5.e-002	3.3066
49439	18.772	4.8	0.	22.163
49440	18.722	4.75	0.	21.89
49441	18.722	4.8	5.e-002	3.3
49442	18.872	4.8	0.	22.933
49443	18.822	4.75	0.	22.676
49444	18.822	4.8	5.e-002	3.2936
49445	18.971	4.8	0.	23.715
49446	18.921	4.75	0.	23.474
49447	18.921	4.8	5.e-002	3.2874
49448	19.071	4.8	0.	24.511
49449	19.021	4.75	0.	24.286
49450	19.021	4.8	5.e-002	3.2813
49451	19.17	4.8	0.	25.323
49452	19.121	4.75	0.	25.114
49453	19.121	4.8	5.e-002	3.2754
49454	19.27	4.8	0.	26.151
49455	19.22	4.75	0.	25.958
49456	19.22	4.8	5.e-002	3.2697
49457	19.369	4.8	0.	26.997
49458	19.32	4.75	0.	26.821
49459	19.32	4.8	5.e-002	3.2641
49460	19.469	4.8	0.	27.862
49461	19.419	4.75	0.	27.702
49462	19.419	4.8	5.e-002	3.2588
49463	19.569	4.8	0.	28.748
49464	19.519	4.75	0.	28.605
49465	19.519	4.8	5.e-002	3.2537
49466	19.668	4.8	0.	29.655
49467	19.618	4.75	0.	29.529
49468	19.618	4.8	5.e-002	3.2487
49469	19.768	4.8	0.	30.587
49470	19.718	4.75	0.	30.478
49471	19.718	4.8	5.e-002	3.244
49472	19.867	4.8	0.	31.543
49473	19.818	4.75	0.	31.451
49474	19.818	4.8	5.e-002	3.2395
49475	19.967	4.8	0.	32.525
49476	19.917	4.75	0.	32.452
49477	19.917	4.8	5.e-002	3.2352
49478	20.067	4.8	0.	33.536
49479	20.017	4.75	0.	33.482
49480	20.017	4.8	5.e-002	3.2311
49481	20.166	4.8	0.	34.577
49482	20.116	4.75	0.	34.541
49483	20.116	4.8	5.e-002	3.2273
49484	20.266	4.8	0.	35.649
49485	20.216	4.75	0.	35.633
49486	20.216	4.8	5.e-002	3.2237
49487	20.365	4.8	0.	36.755
49488	20.316	4.75	0.	36.759
49489	20.316	4.8	5.e-002	3.2204
49490	20.465	4.8	0.	37.897
49491	20.415	4.75	0.	37.921
49492	20.415	4.8	5.e-002	3.2173
49493	20.564	4.8	0.	39.076
49494	20.515	4.75	0.	39.122
49495	20.515	4.8	5.e-002	3.2146
49496	20.664	4.8	0.	40.295
49497	20.614	4.75	0.	40.363
49498	20.614	4.8	5.e-002	3.2121
49499	20.764	4.8	0.	41.556
49500	20.714	4.75	0.	41.646
49501	20.714	4.8	5.e-002	3.21
49502	20.863	4.8	0.	42.861
49503	20.813	4.75	0.	42.975
49504	20.813	4.8	5.e-002	3.2082
49505	20.963	4.8	0.	44.213
49506	20.913	4.75	0.	44.351
49507	20.913	4.8	5.e-002	3.2067
49508	21.062	4.8	0.	45.616
49509	21.013	4.75	0.	45.778
49510	21.013	4.8	5.e-002	3.2056
49511	21.162	4.8	0.	47.071
49512	21.112	4.75	0.	47.259
49513	21.112	4.8	5.e-002	3.205
49514	21.262	4.8	0.	48.583
49515	21.212	4.75	0.	48.797
49516	21.212	4.8	5.e-002	3.2047
49517	21.361	4.8	0.	50.154
49518	21.311	4.75	0.	50.395
49519	21.311	4.8	5.e-002	3.2049
49520	21.461	4.8	0.	51.789
49521	21.411	4.75	0.	52.057
49522	21.411	4.8	5.e-002	3.2055
49523	21.56	4.8	0.	53.492
49524	21.51	4.75	0.	53.788
49525	21.51	4.8	5.e-002	3.2067
49526	21.66	4.8	0.	55.268
49527	21.61	4.75	0.	55.592
49528	21.61	4.8	5.e-002	3.2084
49529	21.759	4.8	0.	57.121
49530	21.71	4.75	0.	57.473
49531	21.71	4.8	5.e-002	3.2107
49532	21.859	4.8	0.	59.057
49533	21.809	4.75	0.	59.437
49534	21.809	4.8	5.e-002	3.2137
49535	21.959	4.8	0.	61.082
49536	21.909	4.75	0.	61.49
49537	21.909	4.8	5.e-002	3.2174
49538	22.058	4.8	0.	63.203
49539	22.008	4.75	0.	63.639
49540	22.008	4.8	5.e-002	3.2219
49541	22.158	4.8	0.	65.428
49542	22.108	4.75	0.	65.889
49543	22.108	4.8	5.e-002	3.2272
49544	22.257	4.8	0.	67.764
49545	22.208	4.75	0.	68.25
49546	22.208	4.8	5.e-002	3.2335
49547	22.357	4.8	0.	70.221
49548	22.307	4.75	0.	70.73
49549	22.307	4.8	5.e-002	3.2409
49550	22.456	4.8	0.	72.809
49551	22.407	4.75	0.	73.337
49552	22.407	4.8	5.e-002	3.2494
49553	22.556	4.8	0.	75.539
49554	22.506	4.75	0.	76.082
49555	22.506	4.8	5.e-002	3.2593
49556	22.656	4.8	0.	78.422
49557	22.606	4.75	0.	78.976
49558	22.606	4.8	5.e-002	3.2707
49559	22.755	4.8	0.	81.471
49560	22.705	4.75	0.	82.031
49561	22.705	4.8	5.e-002	3.2837
49562	22.855	4.8	0.	84.701
49563	22.805	4.75	0.	85.259
49564	22.805	4.8	5.e-002	3.2987
49565	22.954	4.8	0.	88.124
49566	22.905	4.75	0.	88.673
49567	22.905	4.8	5.e-002	3.3158
49568	23.054	4.8	0.	91.757
49569	23.004	4.75	0.	92.287
49570	23.004	4.8	5.e-002	3.3352
49571	23.154	4.8	0.	95.613
49572	23.104	4.75	0.	96.113
49573	23.104	4.8	5.e-002	3.3574
49574	23.253	4.8	0.	99.706
49575	23.203	4.75	0.	100.16
49576	23.203	4.8	5.e-002	3.3825
49577	23.353	4.8	0.	104.05
49578	23.303	4.75	0.	104.45
49579	23.303	4.8	5.e-002	3.4108
49580	23.452	4.8	0.	108.65
49581	23.403	4.75	0.	108.99
49582	23.403	4.8	5.e-002	3.4425
49583	23.552	4.8	0.	113.51
49584	23.502	4.75	0.	113.77
49585	23.502	4.8	5.e-002	3.4778
49586	23.651	4.8	0.	118.64
49587	23.602	4.75	0.	118.82
49588	23.602	4.8	5.e-002	3.5167
49589	23.751	4.8	0.	124.05
49590	23.701	4.75	0.	124.11
49591	23.701	4.8	5.e-002	3.5594
49592	23.851	4.8	0.	129.74
49593	23.801	4.75	0.	129.68
49594	23.801	4.8	5.e-002	3.6063
49595	23.9	4.75	0.	135.53
49596	23.9	4.8	5.e-002	3.7064
49597	23.95	4.8	0.	135.04
49598	8.316	4.7	0.	1592.5
49599	8.2662	4.65	0.	1936.7
49600	8.2662	4.7	5.e-002	78.467
49601	8.2165	4.7	0.	1187.6
49602	8.4156	4.7	0.	1268.7
49603	8.3658	4.65	0.	1510.8
49604	8.3658	4.7	5.e-002	59.174
49605	8.5152	4.7	0.	1023.3
49606	8.4654	4.65	0.	1216.4
49607	8.4654	4.7	5.e-002	53.579
49608	8.6148	4.7	0.	812.08
49609	8.565	4.65	0.	961.95
49610	8.565	4.7	5.e-002	47.681
49611	8.7144	4.7	0.	634.58
49612	8.6646	4.65	0.	747.28
49613	8.6646	4.7	5.e-002	41.99
49614	8.8139	4.7	0.	489.5
49615	8.7642	4.65	0.	572.01
49616	8.7642	4.7	5.e-002	36.869
49617	8.9135	4.7	0.	373.19
49618	8.8637	4.65	0.	432.08
49619	8.8637	4.7	5.e-002	32.424
49620	9.0131	4.7	0.	281.13
49621	8.9633	4.65	0.	321.96
49622	8.9633	4.7	5.e-002	28.609
49623	9.1127	4.7	0.	208.82
49624	9.0629	4.65	0.	236.06
49625	9.0629	4.7	5.e-002	25.331
49626	9.2123	4.7	0.	152.23
49627	9.1625	4.65	0.	169.36
49628	9.1625	4.7	5.e-002	22.498
49629	9.3118	4.7	0.	108.03
49630	9.2621	4.65	0.	117.74
49631	9.2621	4.7	5.e-002	20.036
49632	9.4114	4.7	0.	73.559
49633	9.3616	4.65	0.	77.924
49634	9.3616	4.7	5.e-002	17.884
49635	9.511	4.7	0.	46.888
49636	9.4612	4.65	0.	47.581
49637	9.4612	4.7	5.e-002	15.996
49638	9.6106	4.7	0.	26.877
49639	9.5608	4.65	0.	25.509
49640	9.5608	4.7	5.e-002	14.336
49641	9.7102	4.7	0.	13.474
49642	9.6604	4.65	0.	11.929
49643	9.6604	4.7	5.e-002	12.874
49644	9.8097	4.7	0.	6.5652
49645	9.76	4.65	0.	5.8041
49646	9.76	4.7	5.e-002	11.587
49647	9.9093	4.7	0.	3.6188
49648	9.8595	4.65	0.	3.308
49649	9.8595	4.7	5.e-002	10.456
49650	10.009	4.7	0.	2.258
49651	9.9591	4.65	0.	2.1249
49652	9.9591	4.7	5.e-002	9.4638
49653	10.108	4.7	0.	1.5287
49654	10.059	4.65	0.	1.4699
49655	10.059	4.7	5.e-002	8.5966
49656	10.208	4.7	0.	1.0909
49657	10.158	4.65	0.	1.0663
49658	10.158	4.7	5.e-002	7.8422
49659	10.308	4.7	0.	0.80683
49660	10.258	4.65	0.	0.79885
49661	10.258	4.7	5.e-002	7.1897
49662	10.407	4.7	0.	0.61233
49663	10.357	4.65	0.	0.61266
49664	10.357	4.7	5.e-002	6.6291
49665	10.507	4.7	0.	0.47387
49666	10.457	4.65	0.	0.47828
49667	10.457	4.7	5.e-002	6.1512
49668	10.606	4.7	0.	0.37243
49669	10.557	4.65	0.	0.37865
49670	10.557	4.7	5.e-002	5.7473
49671	10.706	4.7	0.	0.29644
49672	10.656	4.65	0.	0.30324
49673	10.656	4.7	5.e-002	5.4091
49674	10.806	4.7	0.	0.23852
49675	10.756	4.65	0.	0.24524
49676	10.756	4.7	5.e-002	5.1287
49677	10.905	4.7	0.	0.19373
49678	10.855	4.65	0.	0.20004
49679	10.855	4.7	5.e-002	4.8983
49680	11.005	4.7	0.	0.15869
49681	10.955	4.65	0.	0.16442
49682	10.955	4.7	5.e-002	4.7108
49683	11.104	4.7	0.	0.13098
49684	11.055	4.65	0.	0.1361
49685	11.055	4.7	5.e-002	4.5596
49686	11.204	4.7	0.	0.10886
49687	11.154	4.65	0.	0.11336
49688	11.154	4.7	5.e-002	4.4386
49689	11.303	4.7	0.	9.1087e-002
49690	11.254	4.65	0.	9.4982e-002
49691	11.254	4.7	5.e-002	4.3421
49692	11.403	4.7	0.	7.6697e-002
49693	11.353	4.65	0.	8.0055e-002
49694	11.353	4.7	5.e-002	4.2657
49695	11.503	4.7	0.	6.4966e-002
49696	11.453	4.65	0.	6.7842e-002
49697	11.453	4.7	5.e-002	4.2052
49698	11.602	4.7	0.	5.5346e-002
49699	11.552	4.65	0.	5.7798e-002
49700	11.552	4.7	5.e-002	4.1572
49701	11.702	4.7	0.	4.7406e-002
49702	11.652	4.65	0.	4.9492e-002
49703	11.652	4.7	5.e-002	4.119
49704	11.801	4.7	0.	4.0826e-002
49705	11.752	4.65	0.	4.2582e-002
49706	11.752	4.7	5.e-002	4.0883
49707	11.901	4.7	0.	3.536e-002
49708	11.851	4.65	0.	3.6832e-002
49709	11.851	4.7	5.e-002	4.0631
49710	12.001	4.7	0.	3.0791e-002
49711	11.951	4.65	0.	3.2031e-002
49712	11.951	4.7	5.e-002	4.0422
49713	12.1	4.7	0.	2.6949e-002
49714	12.05	4.65	0.	2.7987e-002
49715	12.05	4.7	5.e-002	4.0244
49716	12.2	4.7	0.	2.3707e-002
49717	12.15	4.65	0.	2.4573e-002
49718	12.15	4.7	5.e-002	4.0088
49719	12.299	4.7	0.	2.0969e-002
49720	12.249	4.65	0.	2.1683e-002
49721	12.249	4.7	5.e-002	3.9947
49722	12.399	4.7	0.	1.8656e-002
49723	12.349	4.65	0.	1.9242e-002
49724	12.349	4.7	5.e-002	3.9817
49725	12.498	4.7	0.	1.6676e-002
49726	12.449	4.65	0.	1.7174e-002
49727	12.449	4.7	5.e-002	3.9693
49728	12.598	4.7	0.	1.4974e-002
49729	12.548	4.65	0.	1.5381e-002
49730	12.548	4.7	5.e-002	3.9573
49731	12.698	4.7	0.	1.3527e-002
49732	12.648	4.65	0.	1.3853e-002
49733	12.648	4.7	5.e-002	3.9455
49734	12.797	4.7	0.	1.229e-002
49735	12.747	4.65	0.	1.2568e-002
49736	12.747	4.7	5.e-002	3.9337
49737	12.897	4.7	0.	1.1231e-002
49738	12.847	4.65	0.	1.1442e-002
49739	12.847	4.7	5.e-002	3.9218
49740	12.996	4.7	0.	1.032e-002
49741	12.947	4.65	0.	1.0491e-002
49742	12.947	4.7	5.e-002	3.9098
49743	13.096	4.7	0.	9.5294e-003
49744	13.046	4.65	0.	9.6689e-003
49745	13.046	4.7	5.e-002	3.8977
49746	13.195	4.7	0.	8.852e-003
49747	13.146	4.65	0.	8.9546e-003
49748	13.146	4.7	5.e-002	3.8853
49749	13.295	4.7	0.	8.283e-003
49750	13.245	4.65	0.	8.3535e-003
49751	13.245	4.7	5.e-002	3.8728
49752	13.395	4.7	0.	7.7986e-003
49753	13.345	4.65	0.	7.8526e-003
49754	13.345	4.7	5.e-002	3.8602
49755	13.494	4.7	0.	7.3798e-003
49756	13.444	4.65	0.	7.4183e-003
49757	13.444	4.7	5.e-002	3.8475
49758	13.594	4.7	0.	7.0219e-003
49759	13.544	4.65	0.	7.046e-003
49760	13.544	4.7	5.e-002	3.8347
49761	13.693	4.7	0.	6.7182e-003
49762	13.644	4.65	0.	6.731e-003
49763	13.644	4.7	5.e-002	3.8218
49764	13.793	4.7	0.	6.4685e-003
49765	13.743	4.65	0.	6.4647e-003
49766	13.743	4.7	5.e-002	3.8088
49767	13.893	4.7	0.	6.2705e-003
49768	13.843	4.65	0.	6.2552e-003
49769	13.843	4.7	5.e-002	3.7958
49770	13.992	4.7	0.	6.1e-003
49771	13.942	4.65	0.	6.0909e-003
49772	13.942	4.7	5.e-002	3.7829
49773	14.092	4.7	0.	5.9539e-003
49774	14.042	4.65	0.	5.9347e-003
49775	14.042	4.7	5.e-002	3.7699
49776	14.191	4.7	0.	5.848e-003
49777	14.142	4.65	0.	5.816e-003
49778	14.142	4.7	5.e-002	3.757
49779	14.291	4.7	0.	5.7766e-003
49780	14.241	4.65	0.	5.7383e-003
49781	14.241	4.7	5.e-002	3.7441
49782	14.39	4.7	0.	5.7329e-003
49783	14.341	4.65	0.	5.6863e-003
49784	14.341	4.7	5.e-002	3.7312
49785	14.49	4.7	0.	5.7168e-003
49786	14.44	4.65	0.	5.6615e-003
49787	14.44	4.7	5.e-002	3.7184
49788	14.59	4.7	0.	5.7231e-003
49789	14.54	4.65	0.	5.6611e-003
49790	14.54	4.7	5.e-002	3.7058
49791	14.689	4.7	0.	5.7593e-003
49792	14.639	4.65	0.	5.6775e-003
49793	14.639	4.7	5.e-002	3.6932
49794	14.789	4.7	0.	5.8374e-003
49795	14.739	4.65	0.	5.7329e-003
49796	14.739	4.7	5.e-002	3.6807
49797	14.888	4.7	0.	5.9521e-003
49798	14.839	4.65	0.	5.8278e-003
49799	14.839	4.7	5.e-002	3.6683
49800	14.988	4.7	0.	6.1029e-003
49801	14.938	4.65	0.	5.9496e-003
49802	14.938	4.7	5.e-002	3.6561
49803	15.088	4.7	0.	6.302e-003
49804	15.038	4.65	0.	6.1079e-003
49805	15.038	4.7	5.e-002	3.644
49806	15.187	4.7	0.	6.5714e-003
49807	15.137	4.65	0.	6.3135e-003
49808	15.137	4.7	5.e-002	3.6321
49809	15.287	4.7	0.	6.9387e-003
49810	15.237	4.65	0.	6.5928e-003
49811	15.237	4.7	5.e-002	3.6203
49812	15.386	4.7	0.	7.4294e-003
49813	15.336	4.65	0.	6.9658e-003
49814	15.336	4.7	5.e-002	3.6088
49815	15.486	4.7	0.	8.1237e-003
49816	15.436	4.65	0.	7.4442e-003
49817	15.436	4.7	5.e-002	3.5973
49818	15.585	4.7	0.	9.1994e-003
49819	15.536	4.65	0.	8.138e-003
49820	15.536	4.7	5.e-002	3.586
49821	15.685	4.7	0.	1.1048e-002
49822	15.635	4.65	0.	9.21e-003
49823	15.635	4.7	5.e-002	3.5748
49824	15.785	4.7	0.	1.4932e-002
49825	15.735	4.65	0.	1.1046e-002
49826	15.735	4.7	5.e-002	3.5638
49827	15.884	4.7	0.	2.8145e-002
49828	15.834	4.65	0.	1.4933e-002
49829	15.834	4.7	5.e-002	3.5529
49830	15.984	4.7	0.	0.27387
49831	15.934	4.65	0.	2.8516e-002
49832	15.934	4.7	5.e-002	3.5422
49833	16.083	4.7	0.	1.1486
49834	16.034	4.65	0.	0.30095
49835	16.034	4.7	5.e-002	3.5317
49836	16.183	4.7	0.	2.0478
49837	16.133	4.65	0.	1.1961
49838	16.133	4.7	5.e-002	3.5212
49839	16.282	4.7	0.	2.9319
49840	16.233	4.65	0.	2.1097
49841	16.233	4.7	5.e-002	3.5109
49842	16.382	4.7	0.	3.7993
49843	16.332	4.65	0.	3.0078
49844	16.332	4.7	5.e-002	3.5009
49845	16.482	4.7	0.	4.6503
49846	16.432	4.65	0.	3.889
49847	16.432	4.7	5.e-002	3.4909
49848	16.581	4.7	0.	5.4861
49849	16.531	4.65	0.	4.7538
49850	16.531	4.7	5.e-002	3.4811
49851	16.681	4.7	0.	6.3077
49852	16.631	4.65	0.	5.6034
49853	16.631	4.7	5.e-002	3.4715
49854	16.78	4.7	0.	7.1163
49855	16.731	4.65	0.	6.439
49856	16.731	4.7	5.e-002	3.462
49857	16.88	4.7	0.	7.9132
49858	16.83	4.65	0.	7.2617
49859	16.83	4.7	5.e-002	3.4526
49860	16.98	4.7	0.	8.6994
49861	16.93	4.65	0.	8.0729
49862	16.93	4.7	5.e-002	3.4435
49863	17.079	4.7	0.	9.4762
49864	17.029	4.65	0.	8.8737
49865	17.029	4.7	5.e-002	3.4344
49866	17.179	4.7	0.	10.245
49867	17.129	4.65	0.	9.6654
49868	17.129	4.7	5.e-002	3.4255
49869	17.278	4.7	0.	11.007
49870	17.229	4.65	0.	10.449
49871	17.229	4.7	5.e-002	3.4167
49872	17.378	4.7	0.	11.762
49873	17.328	4.65	0.	11.227
49874	17.328	4.7	5.e-002	3.4081
49875	17.477	4.7	0.	12.514
49876	17.428	4.65	0.	11.999
49877	17.428	4.7	5.e-002	3.3996
49878	17.577	4.7	0.	13.262
49879	17.527	4.65	0.	12.767
49880	17.527	4.7	5.e-002	3.3913
49881	17.677	4.7	0.	14.008
49882	17.627	4.65	0.	13.532
49883	17.627	4.7	5.e-002	3.383
49884	17.776	4.7	0.	14.752
49885	17.726	4.65	0.	14.295
49886	17.726	4.7	5.e-002	3.375
49887	17.876	4.7	0.	15.498
49888	17.826	4.65	0.	15.059
49889	17.826	4.7	5.e-002	3.3671
49890	17.975	4.7	0.	16.244
49891	17.926	4.65	0.	15.823
49892	17.926	4.7	5.e-002	3.3594
49893	18.075	4.7	0.	16.993
49894	18.025	4.65	0.	16.589
49895	18.025	4.7	5.e-002	3.3517
49896	18.175	4.7	0.	17.746
49897	18.125	4.65	0.	17.359
49898	18.125	4.7	5.e-002	3.3443
49899	18.274	4.7	0.	18.504
49900	18.224	4.65	0.	18.133
49901	18.224	4.7	5.e-002	3.337
49902	18.374	4.7	0.	19.269
49903	18.324	4.65	0.	18.913
49904	18.324	4.7	5.e-002	3.3299
49905	18.473	4.7	0.	20.04
49906	18.423	4.65	0.	19.701
49907	18.423	4.7	5.e-002	3.3229
49908	18.573	4.7	0.	20.821
49909	18.523	4.65	0.	20.497
49910	18.523	4.7	5.e-002	3.3161
49911	18.672	4.7	0.	21.612
49912	18.623	4.65	0.	21.303
49913	18.623	4.7	5.e-002	3.3094
49914	18.772	4.7	0.	22.414
49915	18.722	4.65	0.	22.12
49916	18.722	4.7	5.e-002	3.3029
49917	18.872	4.7	0.	23.228
49918	18.822	4.65	0.	22.949
49919	18.822	4.7	5.e-002	3.2965
49920	18.971	4.7	0.	24.057
49921	18.921	4.65	0.	23.792
49922	18.921	4.7	5.e-002	3.2904
49923	19.071	4.7	0.	24.901
49924	19.021	4.65	0.	24.651
49925	19.021	4.7	5.e-002	3.2843
49926	19.17	4.7	0.	25.761
49927	19.121	4.65	0.	25.526
49928	19.121	4.7	5.e-002	3.2785
49929	19.27	4.7	0.	26.64
49930	19.22	4.65	0.	26.419
49931	19.22	4.7	5.e-002	3.2729
49932	19.369	4.7	0.	27.538
49933	19.32	4.65	0.	27.332
49934	19.32	4.7	5.e-002	3.2674
49935	19.469	4.7	0.	28.457
49936	19.419	4.65	0.	28.266
49937	19.419	4.7	5.e-002	3.2622
49938	19.569	4.7	0.	29.398
49939	19.519	4.65	0.	29.222
49940	19.519	4.7	5.e-002	3.2571
49941	19.668	4.7	0.	30.364
49942	19.618	4.65	0.	30.203
49943	19.618	4.7	5.e-002	3.2523
49944	19.768	4.7	0.	31.355
49945	19.718	4.65	0.	31.209
49946	19.718	4.7	5.e-002	3.2477
49947	19.867	4.7	0.	32.374
49948	19.818	4.65	0.	32.243
49949	19.818	4.7	5.e-002	3.2433
49950	19.967	4.7	0.	33.421
49951	19.917	4.65	0.	33.307
49952	19.917	4.7	5.e-002	3.2392
49953	20.067	4.7	0.	34.5
49954	20.017	4.65	0.	34.401
49955	20.017	4.7	5.e-002	3.2352
49956	20.166	4.7	0.	35.611
49957	20.116	4.65	0.	35.529
49958	20.116	4.7	5.e-002	3.2316
49959	20.266	4.7	0.	36.757
49960	20.216	4.65	0.	36.691
49961	20.216	4.7	5.e-002	3.2282
49962	20.365	4.7	0.	37.939
49963	20.316	4.65	0.	37.891
49964	20.316	4.7	5.e-002	3.225
49965	20.465	4.7	0.	39.16
49966	20.415	4.65	0.	39.13
49967	20.415	4.7	5.e-002	3.2221
49968	20.564	4.7	0.	40.422
49969	20.515	4.65	0.	40.41
49970	20.515	4.7	5.e-002	3.2196
49971	20.664	4.7	0.	41.728
49972	20.614	4.65	0.	41.734
49973	20.614	4.7	5.e-002	3.2174
49974	20.764	4.7	0.	43.079
49975	20.714	4.65	0.	43.105
49976	20.714	4.7	5.e-002	3.2155
49977	20.863	4.7	0.	44.479
49978	20.813	4.65	0.	44.524
49979	20.813	4.7	5.e-002	3.2139
49980	20.963	4.7	0.	45.931
49981	20.913	4.65	0.	45.996
49982	20.913	4.7	5.e-002	3.2127
49983	21.062	4.7	0.	47.436
49984	21.013	4.65	0.	47.522
49985	21.013	4.7	5.e-002	3.2119
49986	21.162	4.7	0.	49.
49987	21.112	4.65	0.	49.106
49988	21.112	4.7	5.e-002	3.2115
49989	21.262	4.7	0.	50.624
49990	21.212	4.65	0.	50.752
49991	21.212	4.7	5.e-002	3.2116
49992	21.361	4.7	0.	52.313
49993	21.311	4.65	0.	52.463
49994	21.311	4.7	5.e-002	3.2121
49995	21.461	4.7	0.	54.072
49996	21.411	4.65	0.	54.243
49997	21.411	4.7	5.e-002	3.2132
49998	21.56	4.7	0.	55.903
49999	21.51	4.65	0.	56.096
50000	21.51	4.7	5.e-002	3.2147
50001	21.66	4.7	0.	57.812
50002	21.61	4.65	0.	58.028
50003	21.61	4.7	5.e-002	3.2169
50004	21.759	4.7	0.	59.805
50005	21.71	4.65	0.	60.042
50006	21.71	4.7	5.e-002	3.2196
50007	21.859	4.7	0.	61.886
50008	21.809	4.65	0.	62.145
50009	21.809	4.7	5.e-002	3.2231
50010	21.959	4.7	0.	64.062
50011	21.909	4.65	0.	64.341
50012	21.909	4.7	5.e-002	3.2273
50013	22.058	4.7	0.	66.34
50014	22.008	4.65	0.	66.639
50015	22.008	4.7	5.e-002	3.2323
50016	22.158	4.7	0.	68.727
50017	22.108	4.65	0.	69.043
50018	22.108	4.7	5.e-002	3.2382
50019	22.257	4.7	0.	71.231
50020	22.208	4.65	0.	71.563
50021	22.208	4.7	5.e-002	3.245
50022	22.357	4.7	0.	73.86
50023	22.307	4.65	0.	74.206
50024	22.307	4.7	5.e-002	3.253
50025	22.456	4.7	0.	76.625
50026	22.407	4.65	0.	76.98
50027	22.407	4.7	5.e-002	3.2621
50028	22.556	4.7	0.	79.534
50029	22.506	4.65	0.	79.896
50030	22.506	4.7	5.e-002	3.2726
50031	22.656	4.7	0.	82.6
50032	22.606	4.65	0.	82.963
50033	22.606	4.7	5.e-002	3.2846
50034	22.755	4.7	0.	85.832
50035	22.705	4.65	0.	86.191
50036	22.705	4.7	5.e-002	3.2982
50037	22.855	4.7	0.	89.244
50038	22.805	4.65	0.	89.592
50039	22.805	4.7	5.e-002	3.3136
50040	22.954	4.7	0.	92.847
50041	22.905	4.65	0.	93.176
50042	22.905	4.7	5.e-002	3.331
50043	23.054	4.7	0.	96.653
50044	23.004	4.65	0.	96.955
50045	23.004	4.7	5.e-002	3.3507
50046	23.154	4.7	0.	100.67
50047	23.104	4.65	0.	100.94
50048	23.104	4.7	5.e-002	3.3728
50049	23.253	4.7	0.	104.92
50050	23.203	4.65	0.	105.14
50051	23.203	4.7	5.e-002	3.3977
50052	23.353	4.7	0.	109.4
50053	23.303	4.65	0.	109.56
50054	23.303	4.7	5.e-002	3.4253
50055	23.452	4.7	0.	114.12
50056	23.403	4.65	0.	114.21
50057	23.403	4.7	5.e-002	3.456
50058	23.552	4.7	0.	119.08
50059	23.502	4.65	0.	119.1
50060	23.502	4.7	5.e-002	3.4897
50061	23.651	4.7	0.	124.29
50062	23.602	4.65	0.	124.22
50063	23.602	4.7	5.e-002	3.5265
50064	23.751	4.7	0.	129.74
50065	23.701	4.65	0.	129.57
50066	23.701	4.7	5.e-002	3.5664
50067	23.851	4.7	0.	135.46
50068	23.801	4.65	0.	135.18
50069	23.801	4.7	5.e-002	3.6098
50070	23.9	4.65	0.	141.03
50071	23.9	4.7	5.e-002	3.7014
50072	23.95	4.7	0.	140.85
50073	8.316	4.6	0.	1836.7
50074	8.2662	4.55	0.	2251.1
50075	8.2662	4.6	5.e-002	93.011
50076	8.2165	4.6	0.	1389.2
50077	8.4156	4.6	0.	1443.1
50078	8.3658	4.55	0.	1727.3
50079	8.3658	4.6	5.e-002	69.46
50080	8.5152	4.6	0.	1142.6
50081	8.4654	4.55	0.	1359.3
50082	8.4654	4.6	5.e-002	61.116
50083	8.6148	4.6	0.	887.46
50084	8.565	4.55	0.	1048.1
50085	8.565	4.6	5.e-002	52.895
50086	8.7144	4.6	0.	677.26
50087	8.6646	4.55	0.	793.
50088	8.6646	4.6	5.e-002	45.562
50089	8.8139	4.6	0.	508.91
50090	8.7642	4.55	0.	590.46
50091	8.7642	4.6	5.e-002	39.392
50092	8.9135	4.6	0.	376.54
50093	8.8637	4.55	0.	432.7
50094	8.8637	4.6	5.e-002	34.296
50095	9.0131	4.6	0.	273.62
50096	8.9633	4.55	0.	311.16
50097	8.9633	4.6	5.e-002	30.068
50098	9.1127	4.6	0.	194.14
50099	9.0629	4.55	0.	218.1
50100	9.0629	4.6	5.e-002	26.52
50101	9.2123	4.6	0.	133.03
50102	9.1625	4.55	0.	147.13
50103	9.1625	4.6	5.e-002	23.503
50104	9.3118	4.6	0.	86.285
50105	9.2621	4.55	0.	93.314
50106	9.2621	4.6	5.e-002	20.913
50107	9.4114	4.6	0.	51.046
50108	9.3616	4.55	0.	53.199
50109	9.3616	4.6	5.e-002	18.671
50110	9.511	4.6	0.	25.965
50111	9.4612	4.55	0.	25.406
50112	9.4612	4.6	5.e-002	16.719
50113	9.6106	4.6	0.	11.489
50114	9.5608	4.55	0.	10.668
50115	9.5608	4.6	5.e-002	15.013
50116	9.7102	4.6	0.	5.5567
50117	9.6604	4.55	0.	5.2002
50118	9.6604	4.6	5.e-002	13.517
50119	9.8097	4.6	0.	3.214
50120	9.76	4.55	0.	3.0677
50121	9.76	4.6	5.e-002	12.204
50122	9.9093	4.6	0.	2.0942
50123	9.8595	4.55	0.	2.0302
50124	9.8595	4.6	5.e-002	11.052
50125	10.009	4.6	0.	1.4656
50126	9.9591	4.55	0.	1.4379
50127	9.9591	4.6	5.e-002	10.042
50128	10.108	4.6	0.	1.0734
50129	10.059	4.55	0.	1.0632
50130	10.059	4.6	5.e-002	9.1583
50131	10.208	4.6	0.	0.81074
50132	10.158	4.55	0.	0.80955
50133	10.158	4.6	5.e-002	8.387
50134	10.308	4.6	0.	0.62614
50135	10.258	4.55	0.	0.62956
50136	10.258	4.6	5.e-002	7.7164
50137	10.407	4.6	0.	0.49177
50138	10.357	4.55	0.	0.49744
50139	10.357	4.6	5.e-002	7.1361
50140	10.507	4.6	0.	0.39138
50141	10.457	4.55	0.	0.39799
50142	10.457	4.6	5.e-002	6.6366
50143	10.606	4.6	0.	0.31487
50144	10.557	4.55	0.	0.32167
50145	10.557	4.6	5.e-002	6.209
50146	10.706	4.6	0.	0.25563
50147	10.656	4.55	0.	0.2622
50148	10.656	4.6	5.e-002	5.8453
50149	10.806	4.6	0.	0.20918
50150	10.756	4.55	0.	0.2153
50151	10.756	4.6	5.e-002	5.5377
50152	10.905	4.6	0.	0.17238
50153	10.855	4.55	0.	0.17793
50154	10.855	4.6	5.e-002	5.2791
50155	11.005	4.6	0.	0.14298
50156	10.955	4.55	0.	0.14793
50157	10.955	4.6	5.e-002	5.0629
50158	11.104	4.6	0.	0.11929
50159	11.055	4.55	0.	0.12366
50160	11.055	4.6	5.e-002	4.883
50161	11.204	4.6	0.	0.10005
50162	11.154	4.55	0.	0.10387
50163	11.154	4.6	5.e-002	4.7339
50164	11.303	4.6	0.	8.4369e-002
50165	11.254	4.55	0.	8.7664e-002
50166	11.254	4.6	5.e-002	4.6105
50167	11.403	4.6	0.	7.1506e-002
50168	11.353	4.55	0.	7.4341e-002
50169	11.353	4.6	5.e-002	4.5085
50170	11.503	4.6	0.	6.0901e-002
50171	11.453	4.55	0.	6.3323e-002
50172	11.453	4.6	5.e-002	4.424
50173	11.602	4.6	0.	5.2115e-002
50174	11.552	4.55	0.	5.4177e-002
50175	11.552	4.6	5.e-002	4.3539
50176	11.702	4.6	0.	4.4798e-002
50177	11.652	4.55	0.	4.6549e-002
50178	11.652	4.6	5.e-002	4.2953
50179	11.801	4.6	0.	3.8689e-002
50180	11.752	4.55	0.	4.0157e-002
50181	11.752	4.6	5.e-002	4.246
50182	11.901	4.6	0.	3.3582e-002
50183	11.851	4.55	0.	3.4806e-002
50184	11.851	4.6	5.e-002	4.2041
50185	12.001	4.6	0.	2.9289e-002
50186	11.951	4.55	0.	3.0315e-002
50187	11.951	4.6	5.e-002	4.1681
50188	12.1	4.6	0.	2.5662e-002
50189	12.05	4.55	0.	2.6516e-002
50190	12.05	4.6	5.e-002	4.1368
50191	12.2	4.6	0.	2.259e-002
50192	12.15	4.55	0.	2.3298e-002
50193	12.15	4.6	5.e-002	4.109
50194	12.299	4.6	0.	1.9989e-002
50195	12.249	4.55	0.	2.0564e-002
50196	12.249	4.6	5.e-002	4.0842
50197	12.399	4.6	0.	1.7788e-002
50198	12.349	4.55	0.	1.8254e-002
50199	12.349	4.6	5.e-002	4.0615
50200	12.498	4.6	0.	1.5901e-002
50201	12.449	4.55	0.	1.6294e-002
50202	12.449	4.6	5.e-002	4.0406
50203	12.598	4.6	0.	1.4278e-002
50204	12.548	4.55	0.	1.4586e-002
50205	12.548	4.6	5.e-002	4.021
50206	12.698	4.6	0.	1.2898e-002
50207	12.648	4.55	0.	1.3142e-002
50208	12.648	4.6	5.e-002	4.0024
50209	12.797	4.6	0.	1.1721e-002
50210	12.747	4.55	0.	1.1914e-002
50211	12.747	4.6	5.e-002	3.9846
50212	12.897	4.6	0.	1.0713e-002
50213	12.847	4.55	0.	1.086e-002
50214	12.847	4.6	5.e-002	3.9674
50215	12.996	4.6	0.	9.8486e-003
50216	12.947	4.55	0.	9.9609e-003
50217	12.947	4.6	5.e-002	3.9507
50218	13.096	4.6	0.	9.1006e-003
50219	13.046	4.55	0.	9.1881e-003
50220	13.046	4.6	5.e-002	3.9344
50221	13.195	4.6	0.	8.4612e-003
50222	13.146	4.55	0.	8.5162e-003
50223	13.146	4.6	5.e-002	3.9184
50224	13.295	4.6	0.	7.927e-003
50225	13.245	4.55	0.	7.9552e-003
50226	13.245	4.6	5.e-002	3.9026
50227	13.395	4.6	0.	7.475e-003
50228	13.345	4.55	0.	7.4907e-003
50229	13.345	4.6	5.e-002	3.8871
50230	13.494	4.6	0.	7.0862e-003
50231	13.444	4.55	0.	7.0895e-003
50232	13.444	4.6	5.e-002	3.8718
50233	13.594	4.6	0.	6.7559e-003
50234	13.544	4.55	0.	6.7476e-003
50235	13.544	4.6	5.e-002	3.8566
50236	13.693	4.6	0.	6.4776e-003
50237	13.644	4.55	0.	6.4611e-003
50238	13.644	4.6	5.e-002	3.8417
50239	13.793	4.6	0.	6.2507e-003
50240	13.743	4.55	0.	6.221e-003
50241	13.743	4.6	5.e-002	3.8269
50242	13.893	4.6	0.	6.0742e-003
50243	13.843	4.55	0.	6.0348e-003
50244	13.843	4.6	5.e-002	3.8123
50245	13.992	4.6	0.	5.9235e-003
50246	13.942	4.55	0.	5.8928e-003
50247	13.942	4.6	5.e-002	3.7979
50248	14.092	4.6	0.	5.7941e-003
50249	14.042	4.55	0.	5.7559e-003
50250	14.042	4.6	5.e-002	3.7837
50251	14.191	4.6	0.	5.7031e-003
50252	14.142	4.55	0.	5.6538e-003
50253	14.142	4.6	5.e-002	3.7696
50254	14.291	4.6	0.	5.6443e-003
50255	14.241	4.55	0.	5.591e-003
50256	14.241	4.6	5.e-002	3.7556
50257	14.39	4.6	0.	5.6108e-003
50258	14.341	4.55	0.	5.5512e-003
50259	14.341	4.6	5.e-002	3.7419
50260	14.49	4.6	0.	5.6012e-003
50261	14.44	4.55	0.	5.5375e-003
50262	14.44	4.6	5.e-002	3.7283
50263	14.59	4.6	0.	5.6105e-003
50264	14.54	4.55	0.	5.5427e-003
50265	14.54	4.6	5.e-002	3.7149
50266	14.689	4.6	0.	5.6458e-003
50267	14.639	4.55	0.	5.5631e-003
50268	14.639	4.6	5.e-002	3.7016
50269	14.789	4.6	0.	5.7179e-003
50270	14.739	4.55	0.	5.6173e-003
50271	14.739	4.6	5.e-002	3.6885
50272	14.888	4.6	0.	5.8197e-003
50273	14.839	4.55	0.	5.7071e-003
50274	14.839	4.6	5.e-002	3.6756
50275	14.988	4.6	0.	5.9491e-003
50276	14.938	4.55	0.	5.8151e-003
50277	14.938	4.6	5.e-002	3.6629
50278	15.088	4.6	0.	6.1141e-003
50279	15.038	4.55	0.	5.9529e-003
50280	15.038	4.6	5.e-002	3.6504
50281	15.187	4.6	0.	6.3301e-003
50282	15.137	4.55	0.	6.1246e-003
50283	15.137	4.6	5.e-002	3.6381
50284	15.287	4.6	0.	6.6161e-003
50285	15.237	4.55	0.	6.3522e-003
50286	15.237	4.6	5.e-002	3.626
50287	15.386	4.6	0.	6.9785e-003
50288	15.336	4.55	0.	6.6465e-003
50289	15.336	4.6	5.e-002	3.6141
50290	15.486	4.6	0.	7.4594e-003
50291	15.436	4.55	0.	7.e-003
50292	15.436	4.6	5.e-002	3.6023
50293	15.585	4.6	0.	8.1544e-003
50294	15.536	4.55	0.	7.4894e-003
50295	15.536	4.6	5.e-002	3.5908
50296	15.685	4.6	0.	9.2209e-003
50297	15.635	4.55	0.	8.1924e-003
50298	15.635	4.6	5.e-002	3.5793
50299	15.785	4.6	0.	1.1058e-002
50300	15.735	4.55	0.	9.2692e-003
50301	15.735	4.6	5.e-002	3.5681
50302	15.884	4.6	0.	1.4998e-002
50303	15.834	4.55	0.	1.1147e-002
50304	15.834	4.6	5.e-002	3.557
50305	15.984	4.6	0.	2.9462e-002
50306	15.934	4.55	0.	1.5278e-002
50307	15.934	4.6	5.e-002	3.5461
50308	16.083	4.6	0.	0.34765
50309	16.034	4.55	0.	3.1923e-002
50310	16.034	4.6	5.e-002	3.5354
50311	16.183	4.6	0.	1.2652
50312	16.133	4.55	0.	0.4297
50313	16.133	4.6	5.e-002	3.5248
50314	16.282	4.6	0.	2.1933
50315	16.233	4.55	0.	1.3691
50316	16.233	4.6	5.e-002	3.5144
50317	16.382	4.6	0.	3.1055
50318	16.332	4.55	0.	2.3103
50319	16.332	4.6	5.e-002	3.5042
50320	16.482	4.6	0.	4.0006
50321	16.432	4.55	0.	3.2349
50322	16.432	4.6	5.e-002	3.4941
50323	16.581	4.6	0.	4.8795
50324	16.531	4.55	0.	4.1425
50325	16.531	4.6	5.e-002	3.4842
50326	16.681	4.6	0.	5.7432
50327	16.631	4.55	0.	5.0339
50328	16.631	4.6	5.e-002	3.4745
50329	16.78	4.6	0.	6.593
50330	16.731	4.55	0.	5.9103
50331	16.731	4.6	5.e-002	3.4649
50332	16.88	4.6	0.	7.4302
50333	16.83	4.55	0.	6.773
50334	16.83	4.6	5.e-002	3.4555
50335	16.98	4.6	0.	8.256
50336	16.93	4.55	0.	7.6233
50337	16.93	4.6	5.e-002	3.4463
50338	17.079	4.6	0.	9.0719
50339	17.029	4.55	0.	8.4627
50340	17.029	4.6	5.e-002	3.4372
50341	17.179	4.6	0.	9.879
50342	17.129	4.55	0.	9.2924
50343	17.129	4.6	5.e-002	3.4282
50344	17.278	4.6	0.	10.679
50345	17.229	4.55	0.	10.114
50346	17.229	4.6	5.e-002	3.4194
50347	17.378	4.6	0.	11.472
50348	17.328	4.55	0.	10.928
50349	17.328	4.6	5.e-002	3.4108
50350	17.477	4.6	0.	12.261
50351	17.428	4.55	0.	11.737
50352	17.428	4.6	5.e-002	3.4022
50353	17.577	4.6	0.	13.046
50354	17.527	4.55	0.	12.542
50355	17.527	4.6	5.e-002	3.3939
50356	17.677	4.6	0.	13.829
50357	17.627	4.55	0.	13.343
50358	17.627	4.6	5.e-002	3.3856
50359	17.776	4.6	0.	14.611
50360	17.726	4.55	0.	14.143
50361	17.726	4.6	5.e-002	3.3776
50362	17.876	4.6	0.	15.394
50363	17.826	4.55	0.	14.943
50364	17.826	4.6	5.e-002	3.3697
50365	17.975	4.6	0.	16.178
50366	17.926	4.55	0.	15.744
50367	17.926	4.6	5.e-002	3.3619
50368	18.075	4.6	0.	16.965
50369	18.025	4.55	0.	16.547
50370	18.025	4.6	5.e-002	3.3543
50371	18.175	4.6	0.	17.756
50372	18.125	4.55	0.	17.354
50373	18.125	4.6	5.e-002	3.3469
50374	18.274	4.6	0.	18.553
50375	18.224	4.55	0.	18.166
50376	18.224	4.6	5.e-002	3.3396
50377	18.374	4.6	0.	19.356
50378	18.324	4.55	0.	18.984
50379	18.324	4.6	5.e-002	3.3325
50380	18.473	4.6	0.	20.168
50381	18.423	4.55	0.	19.811
50382	18.423	4.6	5.e-002	3.3255
50383	18.573	4.6	0.	20.989
50384	18.523	4.55	0.	20.646
50385	18.523	4.6	5.e-002	3.3188
50386	18.672	4.6	0.	21.821
50387	18.623	4.55	0.	21.492
50388	18.623	4.6	5.e-002	3.3121
50389	18.772	4.6	0.	22.666
50390	18.722	4.55	0.	22.35
50391	18.722	4.6	5.e-002	3.3056
50392	18.872	4.6	0.	23.524
50393	18.822	4.55	0.	23.222
50394	18.822	4.6	5.e-002	3.2993
50395	18.971	4.6	0.	24.397
50396	18.921	4.55	0.	24.109
50397	18.921	4.6	5.e-002	3.2932
50398	19.071	4.6	0.	25.287
50399	19.021	4.55	0.	25.012
50400	19.021	4.6	5.e-002	3.2873
50401	19.17	4.6	0.	26.195
50402	19.121	4.55	0.	25.933
50403	19.121	4.6	5.e-002	3.2815
50404	19.27	4.6	0.	27.123
50405	19.22	4.55	0.	26.873
50406	19.22	4.6	5.e-002	3.2759
50407	19.369	4.6	0.	28.071
50408	19.32	4.55	0.	27.834
50409	19.32	4.6	5.e-002	3.2706
50410	19.469	4.6	0.	29.043
50411	19.419	4.55	0.	28.819
50412	19.419	4.6	5.e-002	3.2654
50413	19.569	4.6	0.	30.038
50414	19.519	4.55	0.	29.827
50415	19.519	4.6	5.e-002	3.2605
50416	19.668	4.6	0.	31.06
50417	19.618	4.55	0.	30.862
50418	19.618	4.6	5.e-002	3.2557
50419	19.768	4.6	0.	32.109
50420	19.718	4.55	0.	31.925
50421	19.718	4.6	5.e-002	3.2512
50422	19.867	4.6	0.	33.188
50423	19.818	4.55	0.	33.017
50424	19.818	4.6	5.e-002	3.247
50425	19.967	4.6	0.	34.299
50426	19.917	4.55	0.	34.141
50427	19.917	4.6	5.e-002	3.2429
50428	20.067	4.6	0.	35.443
50429	20.017	4.55	0.	35.298
50430	20.017	4.6	5.e-002	3.2392
50431	20.166	4.6	0.	36.622
50432	20.116	4.55	0.	36.491
50433	20.116	4.6	5.e-002	3.2357
50434	20.266	4.6	0.	37.838
50435	20.216	4.55	0.	37.722
50436	20.216	4.6	5.e-002	3.2324
50437	20.365	4.6	0.	39.095
50438	20.316	4.55	0.	38.992
50439	20.316	4.6	5.e-002	3.2294
50440	20.465	4.6	0.	40.393
50441	20.415	4.55	0.	40.305
50442	20.415	4.6	5.e-002	3.2267
50443	20.564	4.6	0.	41.735
50444	20.515	4.55	0.	41.662
50445	20.515	4.6	5.e-002	3.2244
50446	20.664	4.6	0.	43.125
50447	20.614	4.55	0.	43.067
50448	20.614	4.6	5.e-002	3.2224
50449	20.764	4.6	0.	44.563
50450	20.714	4.55	0.	44.521
50451	20.714	4.6	5.e-002	3.2207
50452	20.863	4.6	0.	46.055
50453	20.813	4.55	0.	46.028
50454	20.813	4.6	5.e-002	3.2194
50455	20.963	4.6	0.	47.601
50456	20.913	4.55	0.	47.591
50457	20.913	4.6	5.e-002	3.2184
50458	21.062	4.6	0.	49.206
50459	21.013	4.55	0.	49.212
50460	21.013	4.6	5.e-002	3.2179
50461	21.162	4.6	0.	50.873
50462	21.112	4.55	0.	50.895
50463	21.112	4.6	5.e-002	3.2178
50464	21.262	4.6	0.	52.605
50465	21.212	4.55	0.	52.644
50466	21.212	4.6	5.e-002	3.2182
50467	21.361	4.6	0.	54.407
50468	21.311	4.55	0.	54.463
50469	21.311	4.6	5.e-002	3.219
50470	21.461	4.6	0.	56.282
50471	21.411	4.55	0.	56.354
50472	21.411	4.6	5.e-002	3.2204
50473	21.56	4.6	0.	58.236
50474	21.51	4.55	0.	58.324
50475	21.51	4.6	5.e-002	3.2224
50476	21.66	4.6	0.	60.272
50477	21.61	4.55	0.	60.376
50478	21.61	4.6	5.e-002	3.2249
50479	21.759	4.6	0.	62.396
50480	21.71	4.55	0.	62.516
50481	21.71	4.6	5.e-002	3.2281
50482	21.859	4.6	0.	64.614
50483	21.809	4.55	0.	64.749
50484	21.809	4.6	5.e-002	3.232
50485	21.959	4.6	0.	66.932
50486	21.909	4.55	0.	67.08
50487	21.909	4.6	5.e-002	3.2366
50488	22.058	4.6	0.	69.356
50489	22.008	4.55	0.	69.516
50490	22.008	4.6	5.e-002	3.2421
50491	22.158	4.6	0.	71.894
50492	22.108	4.55	0.	72.064
50493	22.108	4.6	5.e-002	3.2485
50494	22.257	4.6	0.	74.552
50495	22.208	4.55	0.	74.731
50496	22.208	4.6	5.e-002	3.2559
50497	22.357	4.6	0.	77.34
50498	22.307	4.55	0.	77.523
50499	22.307	4.6	5.e-002	3.2643
50500	22.456	4.6	0.	80.265
50501	22.407	4.55	0.	80.45
50502	22.407	4.6	5.e-002	3.274
50503	22.556	4.6	0.	83.338
50504	22.506	4.55	0.	83.521
50505	22.506	4.6	5.e-002	3.285
50506	22.656	4.6	0.	86.567
50507	22.606	4.55	0.	86.743
50508	22.606	4.6	5.e-002	3.2974
50509	22.755	4.6	0.	89.963
50510	22.705	4.55	0.	90.126
50511	22.705	4.6	5.e-002	3.3114
50512	22.855	4.6	0.	93.535
50513	22.805	4.55	0.	93.679
50514	22.805	4.6	5.e-002	3.3271
50515	22.954	4.6	0.	97.295
50516	22.905	4.55	0.	97.413
50517	22.905	4.6	5.e-002	3.3448
50518	23.054	4.6	0.	101.25
50519	23.004	4.55	0.	101.33
50520	23.004	4.6	5.e-002	3.3646
50521	23.154	4.6	0.	105.41
50522	23.104	4.55	0.	105.45
50523	23.104	4.6	5.e-002	3.3866
50524	23.253	4.6	0.	109.79
50525	23.203	4.55	0.	109.78
50526	23.203	4.6	5.e-002	3.411
50527	23.353	4.6	0.	114.38
50528	23.303	4.55	0.	114.31
50529	23.303	4.6	5.e-002	3.438
50530	23.452	4.6	0.	119.2
50531	23.403	4.55	0.	119.06
50532	23.403	4.6	5.e-002	3.4676
50533	23.552	4.6	0.	124.24
50534	23.502	4.55	0.	124.03
50535	23.502	4.6	5.e-002	3.4999
50536	23.651	4.6	0.	129.51
50537	23.602	4.55	0.	129.22
50538	23.602	4.6	5.e-002	3.5347
50539	23.751	4.6	0.	135.01
50540	23.701	4.55	0.	134.62
50541	23.701	4.6	5.e-002	3.5722
50542	23.851	4.6	0.	140.74
50543	23.801	4.55	0.	140.25
50544	23.801	4.6	5.e-002	3.6126
50545	23.9	4.55	0.	146.11
50546	23.9	4.6	5.e-002	3.6966
50547	23.95	4.6	0.	146.21
50548	8.316	4.5	0.	2118.5
50549	8.2662	4.45	0.	2634.6
50550	8.2662	4.5	5.e-002	113.73
50551	8.2165	4.5	0.	1635.4
50552	8.4156	4.5	0.	1625.5
50553	8.3658	4.45	0.	1962.2
50554	8.3658	4.5	5.e-002	83.756
50555	8.5152	4.5	0.	1251.5
50556	8.4654	4.45	0.	1489.5
50557	8.4654	4.5	5.e-002	70.663
50558	8.6148	4.5	0.	943.88
50559	8.565	4.45	0.	1109.
50560	8.565	4.5	5.e-002	59.079
50561	8.7144	4.5	0.	699.
50562	8.6646	4.45	0.	811.4
50563	8.6646	4.5	5.e-002	49.689
50564	8.8139	4.5	0.	508.88
50565	8.7642	4.45	0.	584.38
50566	8.7642	4.5	5.e-002	42.336
50567	8.9135	4.5	0.	363.29
50568	8.8637	4.45	0.	413.08
50569	8.8637	4.5	5.e-002	36.52
50570	9.0131	4.5	0.	252.58
50571	8.9633	4.45	0.	284.37
50572	8.9633	4.5	5.e-002	31.824
50573	9.1127	4.5	0.	168.77
50574	9.0629	4.45	0.	187.84
50575	9.0629	4.5	5.e-002	27.952
50576	9.2123	4.5	0.	105.66
50577	9.1625	4.45	0.	115.74
50578	9.1625	4.5	5.e-002	24.706
50579	9.3118	4.5	0.	58.96
50580	9.2621	4.45	0.	62.819
50581	9.2621	4.5	5.e-002	21.949
50582	9.4114	4.5	0.	26.986
50583	9.3616	4.45	0.	27.256
50584	9.3616	4.5	5.e-002	19.586
50585	9.511	4.5	0.	10.79
50586	9.4612	4.45	0.	10.436
50587	9.4612	4.5	5.e-002	17.544
50588	9.6106	4.5	0.	5.1975
50589	9.5608	4.45	0.	5.0424
50590	9.5608	4.5	5.e-002	15.77
50591	9.7102	4.5	0.	3.073
50592	9.6604	4.45	0.	3.0096
50593	9.6604	4.5	5.e-002	14.223
50594	9.8097	4.5	0.	2.0428
50595	9.76	4.45	0.	2.0163
50596	9.76	4.5	5.e-002	12.869
50597	9.9093	4.5	0.	1.4537
50598	9.8595	4.45	0.	1.4441
50599	9.8595	4.5	5.e-002	11.684
50600	10.009	4.5	0.	1.0799
50601	9.9591	4.45	0.	1.0788
50602	9.9591	4.5	5.e-002	10.645
50603	10.108	4.5	0.	0.82598
50604	10.059	4.45	0.	0.82928
50605	10.059	4.5	5.e-002	9.7345
50606	10.208	4.5	0.	0.64506
50607	10.158	4.45	0.	0.65063
50608	10.158	4.5	5.e-002	8.9382
50609	10.308	4.5	0.	0.51171
50610	10.258	4.45	0.	0.5183
50611	10.258	4.5	5.e-002	8.243
50612	10.407	4.5	0.	0.41091
50613	10.357	4.45	0.	0.4178
50614	10.357	4.5	5.e-002	7.6378
50615	10.507	4.5	0.	0.33322
50616	10.457	4.45	0.	0.34
50617	10.457	4.5	5.e-002	7.1126
50618	10.606	4.5	0.	0.27242
50619	10.557	4.45	0.	0.27884
50620	10.557	4.5	5.e-002	6.6586
50621	10.706	4.5	0.	0.22426
50622	10.656	4.45	0.	0.23019
50623	10.656	4.5	5.e-002	6.2677
50624	10.806	4.5	0.	0.18575
50625	10.756	4.45	0.	0.19112
50626	10.756	4.5	5.e-002	5.9323
50627	10.905	4.5	0.	0.1547
50628	10.855	4.45	0.	0.15949
50629	10.855	4.5	5.e-002	5.6458
50630	11.005	4.5	0.	0.1295
50631	10.955	4.45	0.	0.13372
50632	10.955	4.5	5.e-002	5.4017
50633	11.104	4.5	0.	0.10889
50634	11.055	4.45	0.	0.11261
50635	11.055	4.5	5.e-002	5.1944
50636	11.204	4.5	0.	9.196e-002
50637	11.154	4.45	0.	9.518e-002
50638	11.154	4.5	5.e-002	5.0187
50639	11.303	4.5	0.	7.7995e-002
50640	11.254	4.45	0.	8.0764e-002
50641	11.254	4.5	5.e-002	4.8698
50642	11.403	4.5	0.	6.6427e-002
50643	11.353	4.45	0.	6.8801e-002
50644	11.353	4.5	5.e-002	4.7436
50645	11.503	4.5	0.	5.6804e-002
50646	11.453	4.45	0.	5.8824e-002
50647	11.453	4.5	5.e-002	4.6365
50648	11.602	4.5	0.	4.8768e-002
50649	11.552	4.45	0.	5.0482e-002
50650	11.552	4.5	5.e-002	4.5454
50651	11.702	4.5	0.	4.203e-002
50652	11.652	4.45	0.	4.3478e-002
50653	11.652	4.5	5.e-002	4.4675
50654	11.801	4.5	0.	3.637e-002
50655	11.752	4.45	0.	3.7577e-002
50656	11.752	4.5	5.e-002	4.4006
50657	11.901	4.5	0.	3.1615e-002
50658	11.851	4.45	0.	3.2614e-002
50659	11.851	4.5	5.e-002	4.3426
50660	12.001	4.5	0.	2.7603e-002
50661	11.951	4.45	0.	2.8432e-002
50662	11.951	4.5	5.e-002	4.2921
50663	12.1	4.5	0.	2.4201e-002
50664	12.05	4.45	0.	2.4884e-002
50665	12.05	4.5	5.e-002	4.2477
50666	12.2	4.5	0.	2.1312e-002
50667	12.15	4.45	0.	2.187e-002
50668	12.15	4.5	5.e-002	4.2082
50669	12.299	4.5	0.	1.8862e-002
50670	12.249	4.45	0.	1.9306e-002
50671	12.249	4.5	5.e-002	4.1728
50672	12.399	4.5	0.	1.6786e-002
50673	12.349	4.45	0.	1.7137e-002
50674	12.349	4.5	5.e-002	4.1408
50675	12.498	4.5	0.	1.5006e-002
50676	12.449	4.45	0.	1.5298e-002
50677	12.449	4.5	5.e-002	4.1115
50678	12.598	4.5	0.	1.3473e-002
50679	12.548	4.45	0.	1.3698e-002
50680	12.548	4.5	5.e-002	4.0845
50681	12.698	4.5	0.	1.2172e-002
50682	12.648	4.45	0.	1.2337e-002
50683	12.648	4.5	5.e-002	4.0592
50684	12.797	4.5	0.	1.1065e-002
50685	12.747	4.45	0.	1.1187e-002
50686	12.747	4.5	5.e-002	4.0355
50687	12.897	4.5	0.	1.0118e-002
50688	12.847	4.45	0.	1.0202e-002
50689	12.847	4.5	5.e-002	4.013
50690	12.996	4.5	0.	9.3087e-003
50691	12.947	4.45	0.	9.3651e-003
50692	12.947	4.5	5.e-002	3.9916
50693	13.096	4.5	0.	8.6103e-003
50694	13.046	4.45	0.	8.6473e-003
50695	13.046	4.5	5.e-002	3.9712
50696	13.195	4.5	0.	8.0154e-003
50697	13.146	4.45	0.	8.0253e-003
50698	13.146	4.5	5.e-002	3.9514
50699	13.295	4.5	0.	7.5228e-003
50700	13.245	4.45	0.	7.5103e-003
50701	13.245	4.5	5.e-002	3.9324
50702	13.395	4.5	0.	7.108e-003
50703	13.345	4.45	0.	7.0862e-003
50704	13.345	4.5	5.e-002	3.9139
50705	13.494	4.5	0.	6.7528e-003
50706	13.444	4.45	0.	6.7236e-003
50707	13.444	4.5	5.e-002	3.896
50708	13.594	4.5	0.	6.4539e-003
50709	13.544	4.45	0.	6.4155e-003
50710	13.544	4.5	5.e-002	3.8786
50711	13.693	4.5	0.	6.2049e-003
50712	13.644	4.45	0.	6.1614e-003
50713	13.644	4.5	5.e-002	3.8616
50714	13.793	4.5	0.	6.0048e-003
50715	13.743	4.45	0.	5.9501e-003
50716	13.743	4.5	5.e-002	3.8449
50717	13.893	4.5	0.	5.8524e-003
50718	13.843	4.45	0.	5.7903e-003
50719	13.843	4.5	5.e-002	3.8287
50720	13.992	4.5	0.	5.7235e-003
50721	13.942	4.45	0.	5.672e-003
50722	13.942	4.5	5.e-002	3.8129
50723	14.092	4.5	0.	5.6134e-003
50724	14.042	4.45	0.	5.5567e-003
50725	14.042	4.5	5.e-002	3.7973
50726	14.191	4.5	0.	5.5391e-003
50727	14.142	4.45	0.	5.4739e-003
50728	14.142	4.5	5.e-002	3.7821
50729	14.291	4.5	0.	5.4948e-003
50730	14.241	4.45	0.	5.4281e-003
50731	14.241	4.5	5.e-002	3.7671
50732	14.39	4.5	0.	5.4745e-003
50733	14.341	4.45	0.	5.4034e-003
50734	14.341	4.5	5.e-002	3.7524
50735	14.49	4.5	0.	5.4752e-003
50736	14.44	4.45	0.	5.4017e-003
50737	14.44	4.5	5.e-002	3.738
50738	14.59	4.5	0.	5.4911e-003
50739	14.54	4.45	0.	5.4168e-003
50740	14.54	4.5	5.e-002	3.7238
50741	14.689	4.5	0.	5.5301e-003
50742	14.639	4.45	0.	5.4433e-003
50743	14.639	4.5	5.e-002	3.7099
50744	14.789	4.5	0.	5.6018e-003
50745	14.739	4.45	0.	5.5011e-003
50746	14.739	4.5	5.e-002	3.6962
50747	14.888	4.5	0.	5.6975e-003
50748	14.839	4.45	0.	5.5899e-003
50749	14.839	4.5	5.e-002	3.6827
50750	14.988	4.5	0.	5.8137e-003
50751	14.938	4.45	0.	5.6921e-003
50752	14.938	4.5	5.e-002	3.6696
50753	15.088	4.5	0.	5.9581e-003
50754	15.038	4.45	0.	5.8172e-003
50755	15.038	4.5	5.e-002	3.6566
50756	15.187	4.5	0.	6.1413e-003
50757	15.137	4.45	0.	5.9685e-003
50758	15.137	4.5	5.e-002	3.6439
50759	15.287	4.5	0.	6.3771e-003
50760	15.237	4.45	0.	6.1635e-003
50761	15.237	4.5	5.e-002	3.6314
50762	15.386	4.5	0.	6.6623e-003
50763	15.336	4.45	0.	6.409e-003
50764	15.336	4.5	5.e-002	3.6192
50765	15.486	4.5	0.	7.0238e-003
50766	15.436	4.45	0.	6.6865e-003
50767	15.436	4.5	5.e-002	3.6072
50768	15.585	4.5	0.	7.5195e-003
50769	15.536	4.45	0.	7.0583e-003
50770	15.536	4.5	5.e-002	3.5953
50771	15.685	4.5	0.	8.2266e-003
50772	15.635	4.45	0.	7.5631e-003
50773	15.635	4.5	5.e-002	3.5837
50774	15.785	4.5	0.	9.3193e-003
50775	15.735	4.45	0.	8.2839e-003
50776	15.735	4.5	5.e-002	3.5722
50777	15.884	4.5	0.	1.1248e-002
50778	15.834	4.45	0.	9.4079e-003
50779	15.834	4.5	5.e-002	3.561
50780	15.984	4.5	0.	1.5645e-002
50781	15.934	4.45	0.	1.1433e-002
50782	15.934	4.5	5.e-002	3.5499
50783	16.083	4.5	0.	3.5917e-002
50784	16.034	4.45	0.	1.6311e-002
50785	16.034	4.5	5.e-002	3.539
50786	16.183	4.5	0.	0.53389
50787	16.133	4.45	0.	4.4416e-002
50788	16.133	4.5	5.e-002	3.5283
50789	16.282	4.5	0.	1.4933
50790	16.233	4.45	0.	0.6746
50791	16.233	4.5	5.e-002	3.5177
50792	16.382	4.5	0.	2.4476
50793	16.332	4.45	0.	1.6506
50794	16.332	4.5	5.e-002	3.5074
50795	16.482	4.5	0.	3.3849
50796	16.432	4.45	0.	2.6163
50797	16.432	4.5	5.e-002	3.4972
50798	16.581	4.5	0.	4.3052
50799	16.531	4.45	0.	3.5648
50800	16.531	4.5	5.e-002	3.4872
50801	16.681	4.5	0.	5.2094
50802	16.631	4.45	0.	4.4962
50803	16.631	4.5	5.e-002	3.4774
50804	16.78	4.5	0.	6.0988
50805	16.731	4.45	0.	5.4118
50806	16.731	4.5	5.e-002	3.4678
50807	16.88	4.5	0.	6.9748
50808	16.83	4.45	0.	6.3128
50809	16.83	4.5	5.e-002	3.4583
50810	16.98	4.5	0.	7.8388
50811	16.93	4.45	0.	7.2008
50812	16.93	4.5	5.e-002	3.449
50813	17.079	4.5	0.	8.6921
50814	17.029	4.45	0.	8.0771
50815	17.029	4.5	5.e-002	3.4399
50816	17.179	4.5	0.	9.5362
50817	17.129	4.45	0.	8.9432
50818	17.129	4.5	5.e-002	3.4309
50819	17.278	4.5	0.	10.373
50820	17.229	4.45	0.	9.8005
50821	17.229	4.5	5.e-002	3.422
50822	17.378	4.5	0.	11.202
50823	17.328	4.45	0.	10.65
50824	17.328	4.5	5.e-002	3.4133
50825	17.477	4.5	0.	12.027
50826	17.428	4.45	0.	11.495
50827	17.428	4.5	5.e-002	3.4047
50828	17.577	4.5	0.	12.848
50829	17.527	4.45	0.	12.334
50830	17.527	4.5	5.e-002	3.3963
50831	17.677	4.5	0.	13.667
50832	17.627	4.45	0.	13.171
50833	17.627	4.5	5.e-002	3.3881
50834	17.776	4.5	0.	14.485
50835	17.726	4.45	0.	14.006
50836	17.726	4.5	5.e-002	3.38
50837	17.876	4.5	0.	15.303
50838	17.826	4.45	0.	14.84
50839	17.826	4.5	5.e-002	3.3721
50840	17.975	4.5	0.	16.123
50841	17.926	4.45	0.	15.676
50842	17.926	4.5	5.e-002	3.3644
50843	18.075	4.5	0.	16.946
50844	18.025	4.45	0.	16.515
50845	18.025	4.5	5.e-002	3.3568
50846	18.175	4.5	0.	17.774
50847	18.125	4.45	0.	17.357
50848	18.125	4.5	5.e-002	3.3493
50849	18.274	4.5	0.	18.608
50850	18.224	4.45	0.	18.206
50851	18.224	4.5	5.e-002	3.3421
50852	18.374	4.5	0.	19.449
50853	18.324	4.45	0.	19.061
50854	18.324	4.5	5.e-002	3.335
50855	18.473	4.5	0.	20.299
50856	18.423	4.45	0.	19.924
50857	18.423	4.5	5.e-002	3.3281
50858	18.573	4.5	0.	21.16
50859	18.523	4.45	0.	20.798
50860	18.523	4.5	5.e-002	3.3213
50861	18.672	4.5	0.	22.032
50862	18.623	4.45	0.	21.682
50863	18.623	4.5	5.e-002	3.3147
50864	18.772	4.5	0.	22.917
50865	18.722	4.45	0.	22.58
50866	18.722	4.5	5.e-002	3.3082
50867	18.872	4.5	0.	23.818
50868	18.822	4.45	0.	23.492
50869	18.822	4.5	5.e-002	3.302
50870	18.971	4.5	0.	24.734
50871	18.921	4.45	0.	24.42
50872	18.921	4.5	5.e-002	3.2959
50873	19.071	4.5	0.	25.668
50874	19.021	4.45	0.	25.366
50875	19.021	4.5	5.e-002	3.29
50876	19.17	4.5	0.	26.622
50877	19.121	4.45	0.	26.331
50878	19.121	4.5	5.e-002	3.2843
50879	19.27	4.5	0.	27.596
50880	19.22	4.45	0.	27.317
50881	19.22	4.5	5.e-002	3.2788
50882	19.369	4.5	0.	28.593
50883	19.32	4.45	0.	28.325
50884	19.32	4.5	5.e-002	3.2735
50885	19.469	4.5	0.	29.615
50886	19.419	4.45	0.	29.358
50887	19.419	4.5	5.e-002	3.2685
50888	19.569	4.5	0.	30.663
50889	19.519	4.45	0.	30.416
50890	19.519	4.5	5.e-002	3.2636
50891	19.668	4.5	0.	31.739
50892	19.618	4.45	0.	31.503
50893	19.618	4.5	5.e-002	3.259
50894	19.768	4.5	0.	32.844
50895	19.718	4.45	0.	32.619
50896	19.718	4.5	5.e-002	3.2546
50897	19.867	4.5	0.	33.981
50898	19.818	4.45	0.	33.767
50899	19.818	4.5	5.e-002	3.2505
50900	19.967	4.5	0.	35.152
50901	19.917	4.45	0.	34.949
50902	19.917	4.5	5.e-002	3.2466
50903	20.067	4.5	0.	36.359
50904	20.017	4.45	0.	36.167
50905	20.017	4.5	5.e-002	3.2429
50906	20.166	4.5	0.	37.603
50907	20.116	4.45	0.	37.423
50908	20.116	4.5	5.e-002	3.2395
50909	20.266	4.5	0.	38.888
50910	20.216	4.45	0.	38.718
50911	20.216	4.5	5.e-002	3.2364
50912	20.365	4.5	0.	40.215
50913	20.316	4.45	0.	40.057
50914	20.316	4.5	5.e-002	3.2336
50915	20.465	4.5	0.	41.587
50916	20.415	4.45	0.	41.44
50917	20.415	4.5	5.e-002	3.2311
50918	20.564	4.5	0.	43.007
50919	20.515	4.45	0.	42.872
50920	20.515	4.5	5.e-002	3.2289
50921	20.664	4.5	0.	44.477
50922	20.614	4.45	0.	44.353
50923	20.614	4.5	5.e-002	3.2271
50924	20.764	4.5	0.	45.999
50925	20.714	4.45	0.	45.887
50926	20.714	4.5	5.e-002	3.2256
50927	20.863	4.5	0.	47.577
50928	20.813	4.45	0.	47.477
50929	20.813	4.5	5.e-002	3.2245
50930	20.963	4.5	0.	49.215
50931	20.913	4.45	0.	49.127
50932	20.913	4.5	5.e-002	3.2239
50933	21.062	4.5	0.	50.915
50934	21.013	4.45	0.	50.838
50935	21.013	4.5	5.e-002	3.2236
50936	21.162	4.5	0.	52.68
50937	21.112	4.45	0.	52.616
50938	21.112	4.5	5.e-002	3.2238
50939	21.262	4.5	0.	54.515
50940	21.212	4.45	0.	54.463
50941	21.212	4.5	5.e-002	3.2245
50942	21.361	4.5	0.	56.424
50943	21.311	4.45	0.	56.383
50944	21.311	4.5	5.e-002	3.2256
50945	21.461	4.5	0.	58.41
50946	21.411	4.45	0.	58.38
50947	21.411	4.5	5.e-002	3.2273
50948	21.56	4.5	0.	60.479
50949	21.51	4.45	0.	60.46
50950	21.51	4.5	5.e-002	3.2296
50951	21.66	4.5	0.	62.634
50952	21.61	4.45	0.	62.626
50953	21.61	4.5	5.e-002	3.2325
50954	21.759	4.5	0.	64.882
50955	21.71	4.45	0.	64.883
50956	21.71	4.5	5.e-002	3.2361
50957	21.859	4.5	0.	67.228
50958	21.809	4.45	0.	67.237
50959	21.809	4.5	5.e-002	3.2404
50960	21.959	4.5	0.	69.678
50961	21.909	4.45	0.	69.693
50962	21.909	4.5	5.e-002	3.2454
50963	22.058	4.5	0.	72.237
50964	22.008	4.45	0.	72.258
50965	22.008	4.5	5.e-002	3.2513
50966	22.158	4.5	0.	74.914
50967	22.108	4.45	0.	74.938
50968	22.108	4.5	5.e-002	3.2581
50969	22.257	4.5	0.	77.714
50970	22.208	4.45	0.	77.739
50971	22.208	4.5	5.e-002	3.266
50972	22.357	4.5	0.	80.646
50973	22.307	4.45	0.	80.669
50974	22.307	4.5	5.e-002	3.2749
50975	22.456	4.5	0.	83.718
50976	22.407	4.45	0.	83.734
50977	22.407	4.5	5.e-002	3.285
50978	22.556	4.5	0.	86.937
50979	22.506	4.45	0.	86.944
50980	22.506	4.5	5.e-002	3.2963
50981	22.656	4.5	0.	90.312
50982	22.606	4.45	0.	90.305
50983	22.606	4.5	5.e-002	3.3091
50984	22.755	4.5	0.	93.853
50985	22.705	4.45	0.	93.825
50986	22.705	4.5	5.e-002	3.3234
50987	22.855	4.5	0.	97.566
50988	22.805	4.45	0.	97.513
50989	22.805	4.5	5.e-002	3.3394
50990	22.954	4.5	0.	101.46
50991	22.905	4.45	0.	101.38
50992	22.905	4.5	5.e-002	3.3572
50993	23.054	4.5	0.	105.55
50994	23.004	4.45	0.	105.42
50995	23.004	4.5	5.e-002	3.377
50996	23.154	4.5	0.	109.83
50997	23.104	4.45	0.	109.66
50998	23.104	4.5	5.e-002	3.3988
50999	23.253	4.5	0.	114.31
51000	23.203	4.45	0.	114.09
51001	23.203	4.5	5.e-002	3.4228
51002	23.353	4.5	0.	119.
51003	23.303	4.45	0.	118.72
51004	23.303	4.5	5.e-002	3.449
51005	23.452	4.5	0.	123.9
51006	23.403	4.45	0.	123.56
51007	23.403	4.5	5.e-002	3.4776
51008	23.552	4.5	0.	129.02
51009	23.502	4.45	0.	128.59
51010	23.502	4.5	5.e-002	3.5085
51011	23.651	4.5	0.	134.33
51012	23.602	4.45	0.	133.83
51013	23.602	4.5	5.e-002	3.5416
51014	23.751	4.5	0.	139.87
51015	23.701	4.45	0.	139.27
51016	23.701	4.5	5.e-002	3.577
51017	23.851	4.5	0.	145.62
51018	23.801	4.45	0.	144.93
51019	23.801	4.5	5.e-002	3.6148
51020	23.9	4.45	0.	150.78
51021	23.9	4.5	5.e-002	3.6918
51022	23.95	4.5	0.	151.16
51023	8.316	4.4	0.	2446.9
51024	8.2662	4.35	0.	3110.6
51025	8.2662	4.4	5.e-002	145.61
51026	8.2165	4.4	0.	1944.8
51027	8.4156	4.4	0.	1805.1
51028	8.3658	4.35	0.	2196.8
51029	8.3658	4.4	5.e-002	103.29
51030	8.5152	4.4	0.	1333.2
51031	8.4654	4.35	0.	1581.1
51032	8.4654	4.4	5.e-002	82.784
51033	8.6148	4.4	0.	967.22
51034	8.565	4.35	0.	1124.1
51035	8.565	4.4	5.e-002	66.324
51036	8.7144	4.4	0.	690.25
51037	8.6646	4.35	0.	790.01
51038	8.6646	4.4	5.e-002	54.552
51039	8.8139	4.4	0.	483.78
51040	8.7642	4.35	0.	547.3
51041	8.7642	4.4	5.e-002	45.844
51042	8.9135	4.4	0.	330.56
51043	8.8637	4.35	0.	370.43
51044	8.8637	4.4	5.e-002	39.178
51045	9.0131	4.4	0.	216.88
51046	8.9633	4.35	0.	240.88
51047	8.9633	4.4	5.e-002	33.902
51048	9.1127	4.4	0.	132.69
51049	9.0629	4.35	0.	145.8
51050	9.0629	4.4	5.e-002	29.622
51051	9.2123	4.4	0.	71.258
51052	9.1625	4.35	0.	76.85
51053	9.1625	4.4	5.e-002	26.084
51054	9.3118	4.4	0.	30.056
51055	9.2621	4.35	0.	31.095
51056	9.2621	4.4	5.e-002	23.118
51057	9.4114	4.4	0.	10.957
51058	9.3616	4.35	0.	10.89
51059	9.3616	4.4	5.e-002	20.601
51060	9.511	4.4	0.	5.1798
51061	9.4612	4.35	0.	5.1321
51062	9.4612	4.4	5.e-002	18.446
51063	9.6106	4.4	0.	3.0725
51064	9.5608	4.35	0.	3.0539
51065	9.5608	4.4	5.e-002	16.586
51066	9.7102	4.4	0.	2.0556
51067	9.6604	4.35	0.	2.0501
51068	9.6604	4.4	5.e-002	14.972
51069	9.8097	4.4	0.	1.473
51070	9.76	4.35	0.	1.4739
51071	9.76	4.4	5.e-002	13.566
51072	9.9093	4.4	0.	1.1021
51073	9.8595	4.35	0.	1.1063
51074	9.8595	4.4	5.e-002	12.337
51075	10.009	4.4	0.	0.84895
51076	9.9591	4.35	0.	0.85498
51077	9.9591	4.4	5.e-002	11.26
51078	10.108	4.4	0.	0.66765
51079	10.059	4.35	0.	0.67451
51080	10.059	4.4	5.e-002	10.316
51081	10.208	4.4	0.	0.5332
51082	10.158	4.35	0.	0.54034
51083	10.158	4.4	5.e-002	9.4881
51084	10.308	4.4	0.	0.43089
51085	10.258	4.35	0.	0.43793
51086	10.258	4.4	5.e-002	8.7632
51087	10.407	4.4	0.	0.35149
51088	10.357	4.35	0.	0.35821
51089	10.357	4.4	5.e-002	8.1291
51090	10.507	4.4	0.	0.28892
51091	10.457	4.35	0.	0.2952
51092	10.457	4.4	5.e-002	7.5754
51093	10.606	4.4	0.	0.23901
51094	10.557	4.35	0.	0.24476
51095	10.557	4.4	5.e-002	7.0932
51096	10.706	4.4	0.	0.1988
51097	10.656	4.35	0.	0.204
51098	10.656	4.4	5.e-002	6.6741
51099	10.806	4.4	0.	0.16615
51100	10.756	4.35	0.	0.1708
51101	10.756	4.4	5.e-002	6.3109
51102	10.905	4.4	0.	0.13947
51103	10.855	4.35	0.	0.14357
51104	10.855	4.4	5.e-002	5.9967
51105	11.005	4.4	0.	0.11755
51106	10.955	4.35	0.	0.12114
51107	10.955	4.4	5.e-002	5.7256
51108	11.104	4.4	0.	9.9435e-002
51109	11.055	4.35	0.	0.10258
51110	11.055	4.4	5.e-002	5.4921
51111	11.204	4.4	0.	8.4396e-002
51112	11.154	4.35	0.	8.7105e-002
51113	11.154	4.4	5.e-002	5.2912
51114	11.303	4.4	0.	7.1885e-002
51115	11.254	4.35	0.	7.4202e-002
51116	11.254	4.4	5.e-002	5.1182
51117	11.403	4.4	0.	6.1441e-002
51118	11.353	4.35	0.	6.3417e-002
51119	11.353	4.4	5.e-002	4.9694
51120	11.503	4.4	0.	5.2692e-002
51121	11.453	4.35	0.	5.4364e-002
51122	11.453	4.4	5.e-002	4.841
51123	11.602	4.4	0.	4.534e-002
51124	11.552	4.35	0.	4.675e-002
51125	11.552	4.4	5.e-002	4.7302
51126	11.702	4.4	0.	3.9143e-002
51127	11.652	4.35	0.	4.0325e-002
51128	11.652	4.4	5.e-002	4.6341
51129	11.801	4.4	0.	3.3914e-002
51130	11.752	4.35	0.	3.4889e-002
51131	11.752	4.4	5.e-002	4.5505
51132	11.901	4.4	0.	2.9505e-002
51133	11.851	4.35	0.	3.03e-002
51134	11.851	4.4	5.e-002	4.4773
51135	12.001	4.4	0.	2.5774e-002
51136	11.951	4.35	0.	2.6426e-002
51137	11.951	4.4	5.e-002	4.413
51138	12.1	4.4	0.	2.2602e-002
51139	12.05	4.35	0.	2.313e-002
51140	12.05	4.4	5.e-002	4.356
51141	12.2	4.4	0.	1.9904e-002
51142	12.15	4.35	0.	2.0327e-002
51143	12.15	4.4	5.e-002	4.3053
51144	12.299	4.4	0.	1.7605e-002
51145	12.249	4.35	0.	1.794e-002
51146	12.249	4.4	5.e-002	4.2598
51147	12.399	4.4	0.	1.5675e-002
51148	12.349	4.35	0.	1.592e-002
51149	12.349	4.4	5.e-002	4.2186
51150	12.498	4.4	0.	1.4012e-002
51151	12.449	4.35	0.	1.421e-002
51152	12.449	4.4	5.e-002	4.1812
51153	12.598	4.4	0.	1.258e-002
51154	12.548	4.35	0.	1.2722e-002
51155	12.548	4.4	5.e-002	4.1469
51156	12.698	4.4	0.	1.1367e-002
51157	12.648	4.35	0.	1.1459e-002
51158	12.648	4.4	5.e-002	4.1152
51159	12.797	4.4	0.	1.0337e-002
51160	12.747	4.35	0.	1.0394e-002
51161	12.747	4.4	5.e-002	4.0857
51162	12.897	4.4	0.	9.4597e-003
51163	12.847	4.35	0.	9.4854e-003
51164	12.847	4.4	5.e-002	4.058
51165	12.996	4.4	0.	8.7122e-003
51166	12.947	4.35	0.	8.7167e-003
51167	12.947	4.4	5.e-002	4.0321
51168	13.096	4.4	0.	8.0692e-003
51169	13.046	4.35	0.	8.0594e-003
51170	13.046	4.4	5.e-002	4.0075
51171	13.195	4.4	0.	7.5257e-003
51172	13.146	4.35	0.	7.493e-003
51173	13.146	4.4	5.e-002	3.9842
51174	13.295	4.4	0.	7.0779e-003
51175	13.245	4.35	0.	7.0277e-003
51176	13.245	4.4	5.e-002	3.9618
51177	13.395	4.4	0.	6.7049e-003
51178	13.345	4.35	0.	6.6486e-003
51179	13.345	4.4	5.e-002	3.9405
51180	13.494	4.4	0.	6.3885e-003
51181	13.444	4.35	0.	6.3276e-003
51182	13.444	4.4	5.e-002	3.92
51183	13.594	4.4	0.	6.1244e-003
51184	13.544	4.35	0.	6.0573e-003
51185	13.544	4.4	5.e-002	3.9003
51186	13.693	4.4	0.	5.9072e-003
51187	13.644	4.35	0.	5.8375e-003
51188	13.644	4.4	5.e-002	3.8812
51189	13.793	4.4	0.	5.7356e-003
51190	13.743	4.35	0.	5.6576e-003
51191	13.743	4.4	5.e-002	3.8628
51192	13.893	4.4	0.	5.6094e-003
51193	13.843	4.35	0.	5.5265e-003
51194	13.843	4.4	5.e-002	3.8449
51195	13.992	4.4	0.	5.504e-003
51196	13.942	4.35	0.	5.4338e-003
51197	13.942	4.4	5.e-002	3.8276
51198	14.092	4.4	0.	5.4156e-003
51199	14.042	4.35	0.	5.3418e-003
51200	14.042	4.4	5.e-002	3.8108
51201	14.191	4.4	0.	5.3609e-003
51202	14.142	4.35	0.	5.281e-003
51203	14.142	4.4	5.e-002	3.7943
51204	14.291	4.4	0.	5.3342e-003
51205	14.241	4.35	0.	5.2536e-003
51206	14.241	4.4	5.e-002	3.7783
51207	14.39	4.4	0.	5.3278e-003
51208	14.341	4.35	0.	5.2456e-003
51209	14.341	4.4	5.e-002	3.7627
51210	14.49	4.4	0.	5.3401e-003
51211	14.44	4.35	0.	5.2573e-003
51212	14.44	4.4	5.e-002	3.7475
51213	14.59	4.4	0.	5.3654e-003
51214	14.54	4.35	0.	5.2843e-003
51215	14.54	4.4	5.e-002	3.7326
51216	14.689	4.4	0.	5.4105e-003
51217	14.639	4.35	0.	5.3191e-003
51218	14.639	4.4	5.e-002	3.718
51219	14.789	4.4	0.	5.4851e-003
51220	14.739	4.35	0.	5.3833e-003
51221	14.739	4.4	5.e-002	3.7037
51222	14.888	4.4	0.	5.5801e-003
51223	14.839	4.35	0.	5.4743e-003
51224	14.839	4.4	5.e-002	3.6897
51225	14.988	4.4	0.	5.6909e-003
51226	14.938	4.35	0.	5.5759e-003
51227	14.938	4.4	5.e-002	3.676
51228	15.088	4.4	0.	5.8228e-003
51229	15.038	4.35	0.	5.6944e-003
51230	15.038	4.4	5.e-002	3.6627
51231	15.187	4.4	0.	5.9855e-003
51232	15.137	4.35	0.	5.8337e-003
51233	15.137	4.4	5.e-002	3.6496
51234	15.287	4.4	0.	6.1898e-003
51235	15.237	4.35	0.	6.0079e-003
51236	15.237	4.4	5.e-002	3.6367
51237	15.386	4.4	0.	6.4269e-003
51238	15.336	4.35	0.	6.2222e-003
51239	15.336	4.4	5.e-002	3.6242
51240	15.486	4.4	0.	6.7136e-003
51241	15.436	4.35	0.	6.4514e-003
51242	15.436	4.4	5.e-002	3.6119
51243	15.585	4.4	0.	7.0921e-003
51244	15.536	4.35	0.	6.7483e-003
51245	15.536	4.4	5.e-002	3.5998
51246	15.685	4.4	0.	7.6044e-003
51247	15.635	4.35	0.	7.1366e-003
51248	15.635	4.4	5.e-002	3.5879
51249	15.785	4.4	0.	8.339e-003
51250	15.735	4.35	0.	7.6598e-003
51251	15.735	4.4	5.e-002	3.5762
51252	15.884	4.4	0.	9.4966e-003
51253	15.834	4.35	0.	8.4171e-003
51254	15.834	4.4	5.e-002	3.5648
51255	15.984	4.4	0.	1.1643e-002
51256	15.934	4.35	0.	9.6305e-003
51257	15.934	4.4	5.e-002	3.5535
51258	16.083	4.4	0.	1.7201e-002
51259	16.034	4.35	0.	1.1969e-002
51260	16.034	4.4	5.e-002	3.5425
51261	16.183	4.4	0.	6.2296e-002
51262	16.133	4.35	0.	1.8691e-002
51263	16.133	4.4	5.e-002	3.5316
51264	16.282	4.4	0.	0.83584
51265	16.233	4.35	0.	0.1164
51266	16.233	4.4	5.e-002	3.5209
51267	16.382	4.4	0.	1.8268
51268	16.332	4.35	0.	1.0312
51269	16.332	4.4	5.e-002	3.5105
51270	16.482	4.4	0.	2.8041
51271	16.432	4.35	0.	2.0342
51272	16.432	4.4	5.e-002	3.5002
51273	16.581	4.4	0.	3.764
51274	16.531	4.35	0.	3.0214
51275	16.531	4.4	5.e-002	3.4901
51276	16.681	4.4	0.	4.7069
51277	16.631	4.35	0.	3.991
51278	16.631	4.4	5.e-002	3.4802
51279	16.78	4.4	0.	5.6342
51280	16.731	4.35	0.	4.9439
51281	16.731	4.4	5.e-002	3.4705
51282	16.88	4.4	0.	6.5474
51283	16.83	4.35	0.	5.8815
51284	16.83	4.4	5.e-002	3.4609
51285	16.98	4.4	0.	7.4478
51286	16.93	4.35	0.	6.8053
51287	16.93	4.4	5.e-002	3.4516
51288	17.079	4.4	0.	8.3369
51289	17.029	4.35	0.	7.7168
51290	17.029	4.4	5.e-002	3.4424
51291	17.179	4.4	0.	9.2164
51292	17.129	4.35	0.	8.6175
51293	17.129	4.4	5.e-002	3.4333
51294	17.278	4.4	0.	10.088
51295	17.229	4.35	0.	9.5091
51296	17.229	4.4	5.e-002	3.4244
51297	17.378	4.4	0.	10.952
51298	17.328	4.35	0.	10.393
51299	17.328	4.4	5.e-002	3.4157
51300	17.477	4.4	0.	11.811
51301	17.428	4.35	0.	11.271
51302	17.428	4.4	5.e-002	3.4071
51303	17.577	4.4	0.	12.666
51304	17.527	4.35	0.	12.144
51305	17.527	4.4	5.e-002	3.3986
51306	17.677	4.4	0.	13.519
51307	17.627	4.35	0.	13.013
51308	17.627	4.4	5.e-002	3.3904
51309	17.776	4.4	0.	14.371
51310	17.726	4.35	0.	13.882
51311	17.726	4.4	5.e-002	3.3823
51312	17.876	4.4	0.	15.224
51313	17.826	4.35	0.	14.75
51314	17.826	4.4	5.e-002	3.3744
51315	17.975	4.4	0.	16.078
51316	17.926	4.35	0.	15.619
51317	17.926	4.4	5.e-002	3.3666
51318	18.075	4.4	0.	16.936
51319	18.025	4.35	0.	16.491
51320	18.025	4.4	5.e-002	3.359
51321	18.175	4.4	0.	17.799
51322	18.125	4.35	0.	17.368
51323	18.125	4.4	5.e-002	3.3516
51324	18.274	4.4	0.	18.669
51325	18.224	4.35	0.	18.25
51326	18.224	4.4	5.e-002	3.3444
51327	18.374	4.4	0.	19.546
51328	18.324	4.35	0.	19.14
51329	18.324	4.4	5.e-002	3.3374
51330	18.473	4.4	0.	20.433
51331	18.423	4.35	0.	20.039
51332	18.423	4.4	5.e-002	3.3304
51333	18.573	4.4	0.	21.331
51334	18.523	4.35	0.	20.949
51335	18.523	4.4	5.e-002	3.3237
51336	18.672	4.4	0.	22.241
51337	18.623	4.35	0.	21.871
51338	18.623	4.4	5.e-002	3.3171
51339	18.772	4.4	0.	23.166
51340	18.722	4.35	0.	22.806
51341	18.722	4.4	5.e-002	3.3107
51342	18.872	4.4	0.	24.106
51343	18.822	4.35	0.	23.757
51344	18.822	4.4	5.e-002	3.3045
51345	18.971	4.4	0.	25.063
51346	18.921	4.35	0.	24.724
51347	18.921	4.4	5.e-002	3.2985
51348	19.071	4.4	0.	26.04
51349	19.021	4.35	0.	25.711
51350	19.021	4.4	5.e-002	3.2926
51351	19.17	4.4	0.	27.037
51352	19.121	4.35	0.	26.718
51353	19.121	4.4	5.e-002	3.287
51354	19.27	4.4	0.	28.057
51355	19.22	4.35	0.	27.747
51356	19.22	4.4	5.e-002	3.2816
51357	19.369	4.4	0.	29.101
51358	19.32	4.35	0.	28.8
51359	19.32	4.4	5.e-002	3.2764
51360	19.469	4.4	0.	30.17
51361	19.419	4.35	0.	29.878
51362	19.419	4.4	5.e-002	3.2714
51363	19.569	4.4	0.	31.268
51364	19.519	4.35	0.	30.985
51365	19.519	4.4	5.e-002	3.2666
51366	19.668	4.4	0.	32.395
51367	19.618	4.35	0.	32.121
51368	19.618	4.4	5.e-002	3.2621
51369	19.768	4.4	0.	33.554
51370	19.718	4.35	0.	33.289
51371	19.718	4.4	5.e-002	3.2578
51372	19.867	4.4	0.	34.747
51373	19.818	4.35	0.	34.49
51374	19.818	4.4	5.e-002	3.2538
51375	19.967	4.4	0.	35.976
51376	19.917	4.35	0.	35.727
51377	19.917	4.4	5.e-002	3.25
51378	20.067	4.4	0.	37.243
51379	20.017	4.35	0.	37.002
51380	20.017	4.4	5.e-002	3.2464
51381	20.166	4.4	0.	38.55
51382	20.116	4.35	0.	38.318
51383	20.116	4.4	5.e-002	3.2432
51384	20.266	4.4	0.	39.9
51385	20.216	4.35	0.	39.676
51386	20.216	4.4	5.e-002	3.2402
51387	20.365	4.4	0.	41.294
51388	20.316	4.35	0.	41.079
51389	20.316	4.4	5.e-002	3.2376
51390	20.465	4.4	0.	42.737
51391	20.415	4.35	0.	42.529
51392	20.415	4.4	5.e-002	3.2352
51393	20.564	4.4	0.	44.23
51394	20.515	4.35	0.	44.031
51395	20.515	4.4	5.e-002	3.2332
51396	20.664	4.4	0.	45.776
51397	20.614	4.35	0.	45.585
51398	20.614	4.4	5.e-002	3.2316
51399	20.764	4.4	0.	47.378
51400	20.714	4.35	0.	47.195
51401	20.714	4.4	5.e-002	3.2303
51402	20.863	4.4	0.	49.039
51403	20.813	4.35	0.	48.864
51404	20.813	4.4	5.e-002	3.2295
51405	20.963	4.4	0.	50.763
51406	20.913	4.35	0.	50.595
51407	20.913	4.4	5.e-002	3.229
51408	21.062	4.4	0.	52.552
51409	21.013	4.35	0.	52.393
51410	21.013	4.4	5.e-002	3.229
51411	21.162	4.4	0.	54.411
51412	21.112	4.35	0.	54.259
51413	21.112	4.4	5.e-002	3.2294
51414	21.262	4.4	0.	56.343
51415	21.212	4.35	0.	56.198
51416	21.212	4.4	5.e-002	3.2304
51417	21.361	4.4	0.	58.352
51418	21.311	4.35	0.	58.214
51419	21.311	4.4	5.e-002	3.2318
51420	21.461	4.4	0.	60.443
51421	21.411	4.35	0.	60.31
51422	21.411	4.4	5.e-002	3.2338
51423	21.56	4.4	0.	62.62
51424	21.51	4.35	0.	62.492
51425	21.51	4.4	5.e-002	3.2364
51426	21.66	4.4	0.	64.887
51427	21.61	4.35	0.	64.764
51428	21.61	4.4	5.e-002	3.2397
51429	21.759	4.4	0.	67.25
51430	21.71	4.35	0.	67.131
51431	21.71	4.4	5.e-002	3.2436
51432	21.859	4.4	0.	69.715
51433	21.809	4.35	0.	69.598
51434	21.809	4.4	5.e-002	3.2482
51435	21.959	4.4	0.	72.286
51436	21.909	4.35	0.	72.17
51437	21.909	4.4	5.e-002	3.2536
51438	22.058	4.4	0.	74.971
51439	22.008	4.35	0.	74.853
51440	22.008	4.4	5.e-002	3.2599
51441	22.158	4.4	0.	77.775
51442	22.108	4.35	0.	77.654
51443	22.108	4.4	5.e-002	3.2671
51444	22.257	4.4	0.	80.705
51445	22.208	4.35	0.	80.578
51446	22.208	4.4	5.e-002	3.2754
51447	22.357	4.4	0.	83.768
51448	22.307	4.35	0.	83.632
51449	22.307	4.4	5.e-002	3.2846
51450	22.456	4.4	0.	86.971
51451	22.407	4.35	0.	86.822
51452	22.407	4.4	5.e-002	3.2951
51453	22.556	4.4	0.	90.322
51454	22.506	4.35	0.	90.156
51455	22.506	4.4	5.e-002	3.3068
51456	22.656	4.4	0.	93.827
51457	22.606	4.35	0.	93.641
51458	22.606	4.4	5.e-002	3.3199
51459	22.755	4.4	0.	97.495
51460	22.705	4.35	0.	97.284
51461	22.705	4.4	5.e-002	3.3344
51462	22.855	4.4	0.	101.33
51463	22.805	4.35	0.	101.09
51464	22.805	4.4	5.e-002	3.3506
51465	22.954	4.4	0.	105.35
51466	22.905	4.35	0.	105.07
51467	22.905	4.4	5.e-002	3.3684
51468	23.054	4.4	0.	109.54
51469	23.004	4.35	0.	109.22
51470	23.004	4.4	5.e-002	3.388
51471	23.154	4.4	0.	113.93
51472	23.104	4.35	0.	113.56
51473	23.104	4.4	5.e-002	3.4096
51474	23.253	4.4	0.	118.51
51475	23.203	4.35	0.	118.08
51476	23.203	4.4	5.e-002	3.4331
51477	23.353	4.4	0.	123.28
51478	23.303	4.35	0.	122.79
51479	23.303	4.4	5.e-002	3.4586
51480	23.452	4.4	0.	128.25
51481	23.403	4.35	0.	127.7
51482	23.403	4.4	5.e-002	3.4863
51483	23.552	4.4	0.	133.42
51484	23.502	4.35	0.	132.79
51485	23.502	4.4	5.e-002	3.5159
51486	23.651	4.4	0.	138.78
51487	23.602	4.35	0.	138.08
51488	23.602	4.4	5.e-002	3.5475
51489	23.751	4.4	0.	144.34
51490	23.701	4.35	0.	143.55
51491	23.701	4.4	5.e-002	3.5811
51492	23.851	4.4	0.	150.1
51493	23.801	4.35	0.	149.22
51494	23.801	4.4	5.e-002	3.6166
51495	23.9	4.35	0.	155.08
51496	23.9	4.4	5.e-002	3.6873
51497	23.95	4.4	0.	155.7
51498	8.316	4.3	0.	2816.5
51499	8.2662	4.25	0.	3736.8
51500	8.2662	4.3	5.e-002	198.58
51501	8.2165	4.3	0.	2369.
51502	8.4156	4.3	0.	1949.2
51503	8.3658	4.25	0.	2366.9
51504	8.3658	4.3	5.e-002	135.27
51505	8.5152	4.3	0.	1359.3
51506	8.4654	4.25	0.	1585.7
51507	8.4654	4.3	5.e-002	97.358
51508	8.6148	4.3	0.	939.07
51509	8.565	4.25	0.	1068.8
51510	8.565	4.3	5.e-002	75.033
51511	8.7144	4.3	0.	641.67
51512	8.6646	4.25	0.	718.63
51513	8.6646	4.3	5.e-002	60.418
51514	8.8139	4.3	0.	429.97
51515	8.7642	4.25	0.	476.63
51516	8.7642	4.3	5.e-002	50.028
51517	8.9135	4.3	0.	277.71
51518	8.8637	4.25	0.	305.52
51519	8.8637	4.3	5.e-002	42.252
51520	9.0131	4.3	0.	167.41
51521	8.9633	4.25	0.	182.84
51522	8.9633	4.3	5.e-002	36.24
51523	9.1127	4.3	0.	88.014
51524	9.0629	4.25	0.	95.036
51525	9.0629	4.3	5.e-002	31.458
51526	9.2123	4.3	0.	35.138
51527	9.1625	4.25	0.	36.825
51528	9.1625	4.3	5.e-002	27.574
51529	9.3118	4.3	0.	11.71
51530	9.2621	4.25	0.	11.806
51531	9.2621	4.3	5.e-002	24.365
51532	9.4114	4.3	0.	5.3568
51533	9.3616	4.25	0.	5.3605
51534	9.3616	4.3	5.e-002	21.674
51535	9.511	4.3	0.	3.1515
51536	9.4612	4.25	0.	3.1534
51537	9.4612	4.3	5.e-002	19.39
51538	9.6106	4.3	0.	2.1054
51539	9.5608	4.25	0.	2.1092
51540	9.5608	4.3	5.e-002	17.433
51541	9.7102	4.3	0.	1.5107
51542	9.6604	4.25	0.	1.5162
51543	9.6604	4.3	5.e-002	15.744
51544	9.8097	4.3	0.	1.1336
51545	9.76	4.25	0.	1.1401
51546	9.76	4.3	5.e-002	14.276
51547	9.9093	4.3	0.	0.87659
51548	9.8595	4.25	0.	0.88367
51549	9.8595	4.3	5.e-002	12.996
51550	10.009	4.3	0.	0.69242
51551	9.9591	4.25	0.	0.69974
51552	9.9591	4.3	5.e-002	11.875
51553	10.108	4.3	0.	0.55557
51554	10.059	4.25	0.	0.56283
51555	10.059	4.3	5.e-002	10.892
51556	10.208	4.3	0.	0.45107
51557	10.158	4.25	0.	0.45809
51558	10.158	4.3	5.e-002	10.029
51559	10.308	4.3	0.	0.36963
51560	10.258	4.25	0.	0.37625
51561	10.258	4.3	5.e-002	9.2709
51562	10.407	4.3	0.	0.30515
51563	10.357	4.25	0.	0.31128
51564	10.357	4.3	5.e-002	8.6053
51565	10.507	4.3	0.	0.25344
51566	10.457	4.25	0.	0.25906
51567	10.457	4.3	5.e-002	8.0214
51568	10.606	4.3	0.	0.21156
51569	10.557	4.25	0.	0.21664
51570	10.557	4.3	5.e-002	7.5099
51571	10.706	4.3	0.	0.17736
51572	10.656	4.25	0.	0.1819
51573	10.656	4.3	5.e-002	7.0623
51574	10.806	4.3	0.	0.14925
51575	10.756	4.25	0.	0.15327
51576	10.756	4.3	5.e-002	6.6714
51577	10.905	4.3	0.	0.12603
51578	10.855	4.25	0.	0.12955
51579	10.855	4.3	5.e-002	6.3303
51580	11.005	4.3	0.	0.10677
51581	10.955	4.25	0.	0.10983
51582	10.955	4.3	5.e-002	6.0333
51583	11.104	4.3	0.	9.0715e-002
51584	11.055	4.25	0.	9.3379e-002
51585	11.055	4.3	5.e-002	5.7748
51586	11.204	4.3	0.	7.7275e-002
51587	11.154	4.25	0.	7.9558e-002
51588	11.154	4.3	5.e-002	5.5501
51589	11.303	4.3	0.	6.6018e-002
51590	11.254	4.25	0.	6.7956e-002
51591	11.254	4.3	5.e-002	5.3545
51592	11.403	4.3	0.	5.6563e-002
51593	11.353	4.25	0.	5.8204e-002
51594	11.353	4.3	5.e-002	5.1844
51595	11.503	4.3	0.	4.8599e-002
51596	11.453	4.25	0.	4.9975e-002
51597	11.453	4.3	5.e-002	5.0362
51598	11.602	4.3	0.	4.1876e-002
51599	11.552	4.25	0.	4.3025e-002
51600	11.552	4.3	5.e-002	4.9068
51601	11.702	4.3	0.	3.6184e-002
51602	11.652	4.25	0.	3.7138e-002
51603	11.652	4.3	5.e-002	4.7937
51604	11.801	4.3	0.	3.1366e-002
51605	11.752	4.25	0.	3.214e-002
51606	11.752	4.3	5.e-002	4.6944
51607	11.901	4.3	0.	2.7295e-002
51608	11.851	4.25	0.	2.7913e-002
51609	11.851	4.3	5.e-002	4.6068
51610	12.001	4.3	0.	2.3842e-002
51611	11.951	4.25	0.	2.4339e-002
51612	11.951	4.3	5.e-002	4.5295
51613	12.1	4.3	0.	2.0904e-002
51614	12.05	4.25	0.	2.1295e-002
51615	12.05	4.3	5.e-002	4.4607
51616	12.2	4.3	0.	1.8402e-002
51617	12.15	4.25	0.	1.8703e-002
51618	12.15	4.3	5.e-002	4.3993
51619	12.299	4.3	0.	1.6279e-002
51620	12.249	4.25	0.	1.6497e-002
51621	12.249	4.3	5.e-002	4.3441
51622	12.399	4.3	0.	1.4482e-002
51623	12.349	4.25	0.	1.4633e-002
51624	12.349	4.3	5.e-002	4.2943
51625	12.498	4.3	0.	1.2943e-002
51626	12.449	4.25	0.	1.3057e-002
51627	12.449	4.3	5.e-002	4.2491
51628	12.598	4.3	0.	1.1619e-002
51629	12.548	4.25	0.	1.1686e-002
51630	12.548	4.3	5.e-002	4.2078
51631	12.698	4.3	0.	1.0501e-002
51632	12.648	4.25	0.	1.0526e-002
51633	12.648	4.3	5.e-002	4.1698
51634	12.797	4.3	0.	9.5557e-003
51635	12.747	4.25	0.	9.5529e-003
51636	12.747	4.3	5.e-002	4.1347
51637	12.897	4.3	0.	8.7531e-003
51638	12.847	4.25	0.	8.7259e-003
51639	12.847	4.3	5.e-002	4.102
51640	12.996	4.3	0.	8.0727e-003
51641	12.947	4.25	0.	8.0288e-003
51642	12.947	4.3	5.e-002	4.0716
51643	13.096	4.3	0.	7.4904e-003
51644	13.046	4.25	0.	7.4373e-003
51645	13.046	4.3	5.e-002	4.043
51646	13.195	4.3	0.	7.0007e-003
51647	13.146	4.25	0.	6.9296e-003
51648	13.146	4.3	5.e-002	4.0161
51649	13.295	4.3	0.	6.6029e-003
51650	13.245	4.25	0.	6.5173e-003
51651	13.245	4.3	5.e-002	3.9906
51652	13.395	4.3	0.	6.2748e-003
51653	13.345	4.25	0.	6.1873e-003
51654	13.345	4.3	5.e-002	3.9664
51655	13.494	4.3	0.	5.999e-003
51656	13.444	4.25	0.	5.9094e-003
51657	13.444	4.3	5.e-002	3.9434
51658	13.594	4.3	0.	5.7722e-003
51659	13.544	4.25	0.	5.68e-003
51660	13.544	4.3	5.e-002	3.9214
51661	13.693	4.3	0.	5.589e-003
51662	13.644	4.25	0.	5.496e-003
51663	13.644	4.3	5.e-002	3.9004
51664	13.793	4.3	0.	5.4489e-003
51665	13.743	4.25	0.	5.3494e-003
51666	13.743	4.3	5.e-002	3.8802
51667	13.893	4.3	0.	5.3508e-003
51668	13.843	4.25	0.	5.2485e-003
51669	13.843	4.3	5.e-002	3.8607
51670	13.992	4.3	0.	5.2709e-003
51671	13.942	4.25	0.	5.183e-003
51672	13.942	4.3	5.e-002	3.842
51673	14.092	4.3	0.	5.206e-003
51674	14.042	4.25	0.	5.1162e-003
51675	14.042	4.3	5.e-002	3.8239
51676	14.191	4.3	0.	5.1721e-003
51677	14.142	4.25	0.	5.0779e-003
51678	14.142	4.3	5.e-002	3.8063
51679	14.291	4.3	0.	5.163e-003
51680	14.241	4.25	0.	5.0704e-003
51681	14.241	4.3	5.e-002	3.7893
51682	14.39	4.3	0.	5.1727e-003
51683	14.341	4.25	0.	5.0799e-003
51684	14.341	4.3	5.e-002	3.7728
51685	14.49	4.3	0.	5.1988e-003
51686	14.44	4.25	0.	5.1072e-003
51687	14.44	4.3	5.e-002	3.7567
51688	14.59	4.3	0.	5.235e-003
51689	14.54	4.25	0.	5.1469e-003
51690	14.54	4.3	5.e-002	3.741
51691	14.689	4.3	0.	5.2887e-003
51692	14.639	4.25	0.	5.1929e-003
51693	14.639	4.3	5.e-002	3.7258
51694	14.789	4.3	0.	5.3691e-003
51695	14.739	4.25	0.	5.2648e-003
51696	14.739	4.3	5.e-002	3.7109
51697	14.888	4.3	0.	5.4664e-003
51698	14.839	4.25	0.	5.3607e-003
51699	14.839	4.3	5.e-002	3.6964
51700	14.988	4.3	0.	5.5753e-003
51701	14.938	4.25	0.	5.464e-003
51702	14.938	4.3	5.e-002	3.6823
51703	15.088	4.3	0.	5.701e-003
51704	15.038	4.25	0.	5.581e-003
51705	15.038	4.3	5.e-002	3.6685
51706	15.187	4.3	0.	5.8514e-003
51707	15.137	4.25	0.	5.7127e-003
51708	15.137	4.3	5.e-002	3.655
51709	15.287	4.3	0.	6.0352e-003
51710	15.237	4.25	0.	5.875e-003
51711	15.237	4.3	5.e-002	3.6418
51712	15.386	4.3	0.	6.2409e-003
51713	15.336	4.25	0.	6.0678e-003
51714	15.336	4.3	5.e-002	3.629
51715	15.486	4.3	0.	6.4792e-003
51716	15.436	4.25	0.	6.2661e-003
51717	15.436	4.3	5.e-002	3.6164
51718	15.585	4.3	0.	6.7839e-003
51719	15.536	4.25	0.	6.5138e-003
51720	15.536	4.3	5.e-002	3.604
51721	15.685	4.3	0.	7.1783e-003
51722	15.635	4.25	0.	6.8271e-003
51723	15.635	4.3	5.e-002	3.5919
51724	15.785	4.3	0.	7.7128e-003
51725	15.735	4.25	0.	7.2307e-003
51726	15.735	4.3	5.e-002	3.58
51727	15.884	4.3	0.	8.4925e-003
51728	15.834	4.25	0.	7.7815e-003
51729	15.834	4.3	5.e-002	3.5684
51730	15.984	4.3	0.	9.7691e-003
51731	15.934	4.25	0.	8.5941e-003
51732	15.934	4.3	5.e-002	3.557
51733	16.083	4.3	0.	1.2367e-002
51734	16.034	4.25	0.	9.9661e-003
51735	16.034	4.3	5.e-002	3.5458
51736	16.183	4.3	0.	2.0934e-002
51737	16.133	4.25	0.	1.2967e-002
51738	16.133	4.3	5.e-002	3.5347
51739	16.282	4.3	0.	0.24916
51740	16.233	4.25	0.	2.5256e-002
51741	16.233	4.3	5.e-002	3.5239
51742	16.382	4.3	0.	1.2448
51743	16.332	4.25	0.	0.46098
51744	16.332	4.3	5.e-002	3.5134
51745	16.482	4.3	0.	2.2591
51746	16.432	4.25	0.	1.4896
51747	16.432	4.3	5.e-002	3.503
51748	16.581	4.3	0.	3.2564
51749	16.531	4.25	0.	2.513
51750	16.531	4.3	5.e-002	3.4928
51751	16.681	4.3	0.	4.2362
51752	16.631	4.25	0.	3.5187
51753	16.631	4.3	5.e-002	3.4828
51754	16.78	4.3	0.	5.1995
51755	16.731	4.25	0.	4.507
51756	16.731	4.3	5.e-002	3.473
51757	16.88	4.3	0.	6.1479
51758	16.83	4.25	0.	5.4793
51759	16.83	4.3	5.e-002	3.4634
51760	16.98	4.3	0.	7.083
51761	16.93	4.25	0.	6.437
51762	16.93	4.3	5.e-002	3.454
51763	17.079	4.3	0.	8.0062
51764	17.029	4.25	0.	7.3818
51765	17.029	4.3	5.e-002	3.4447
51766	17.179	4.3	0.	8.9192
51767	17.129	4.25	0.	8.3154
51768	17.129	4.3	5.e-002	3.4356
51769	17.278	4.3	0.	9.8235
51770	17.229	4.25	0.	9.2393
51771	17.229	4.3	5.e-002	3.4267
51772	17.378	4.3	0.	10.721
51773	17.328	4.25	0.	10.155
51774	17.328	4.3	5.e-002	3.4179
51775	17.477	4.3	0.	11.612
51776	17.428	4.25	0.	11.065
51777	17.428	4.3	5.e-002	3.4093
51778	17.577	4.3	0.	12.5
51779	17.527	4.25	0.	11.969
51780	17.527	4.3	5.e-002	3.4009
51781	17.677	4.3	0.	13.385
51782	17.627	4.25	0.	12.871
51783	17.627	4.3	5.e-002	3.3926
51784	17.776	4.3	0.	14.27
51785	17.726	4.25	0.	13.77
51786	17.726	4.3	5.e-002	3.3845
51787	17.876	4.3	0.	15.155
51788	17.826	4.25	0.	14.67
51789	17.826	4.3	5.e-002	3.3766
51790	17.975	4.3	0.	16.042
51791	17.926	4.25	0.	15.571
51792	17.926	4.3	5.e-002	3.3688
51793	18.075	4.3	0.	16.933
51794	18.025	4.25	0.	16.475
51795	18.025	4.3	5.e-002	3.3612
51796	18.175	4.3	0.	17.829
51797	18.125	4.25	0.	17.384
51798	18.125	4.3	5.e-002	3.3538
51799	18.274	4.3	0.	18.732
51800	18.224	4.25	0.	18.299
51801	18.224	4.3	5.e-002	3.3466
51802	18.374	4.3	0.	19.644
51803	18.324	4.25	0.	19.222
51804	18.324	4.3	5.e-002	3.3396
51805	18.473	4.3	0.	20.566
51806	18.423	4.25	0.	20.154
51807	18.423	4.3	5.e-002	3.3327
51808	18.573	4.3	0.	21.499
51809	18.523	4.25	0.	21.098
51810	18.523	4.3	5.e-002	3.3259
51811	18.672	4.3	0.	22.446
51812	18.623	4.25	0.	22.055
51813	18.623	4.3	5.e-002	3.3194
51814	18.772	4.3	0.	23.408
51815	18.722	4.25	0.	23.026
51816	18.722	4.3	5.e-002	3.313
51817	18.872	4.3	0.	24.386
51818	18.822	4.25	0.	24.013
51819	18.822	4.3	5.e-002	3.3069
51820	18.971	4.3	0.	25.383
51821	18.921	4.25	0.	25.018
51822	18.921	4.3	5.e-002	3.3009
51823	19.071	4.3	0.	26.4
51824	19.021	4.25	0.	26.043
51825	19.021	4.3	5.e-002	3.2951
51826	19.17	4.3	0.	27.438
51827	19.121	4.25	0.	27.09
51828	19.121	4.3	5.e-002	3.2895
51829	19.27	4.3	0.	28.501
51830	19.22	4.25	0.	28.16
51831	19.22	4.3	5.e-002	3.2842
51832	19.369	4.3	0.	29.589
51833	19.32	4.25	0.	29.255
51834	19.32	4.3	5.e-002	3.279
51835	19.469	4.3	0.	30.704
51836	19.419	4.25	0.	30.377
51837	19.419	4.3	5.e-002	3.2741
51838	19.569	4.3	0.	31.849
51839	19.519	4.25	0.	31.529
51840	19.519	4.3	5.e-002	3.2694
51841	19.668	4.3	0.	33.026
51842	19.618	4.25	0.	32.712
51843	19.618	4.3	5.e-002	3.265
51844	19.768	4.3	0.	34.236
51845	19.718	4.25	0.	33.928
51846	19.718	4.3	5.e-002	3.2608
51847	19.867	4.3	0.	35.481
51848	19.818	4.25	0.	35.18
51849	19.818	4.3	5.e-002	3.2568
51850	19.967	4.3	0.	36.765
51851	19.917	4.25	0.	36.469
51852	19.917	4.3	5.e-002	3.2532
51853	20.067	4.3	0.	38.089
51854	20.017	4.25	0.	37.799
51855	20.017	4.3	5.e-002	3.2498
51856	20.166	4.3	0.	39.455
51857	20.116	4.25	0.	39.171
51858	20.116	4.3	5.e-002	3.2466
51859	20.266	4.3	0.	40.867
51860	20.216	4.25	0.	40.587
51861	20.216	4.3	5.e-002	3.2438
51862	20.365	4.3	0.	42.326
51863	20.316	4.25	0.	42.052
51864	20.316	4.3	5.e-002	3.2413
51865	20.465	4.3	0.	43.835
51866	20.415	4.25	0.	43.566
51867	20.415	4.3	5.e-002	3.2391
51868	20.564	4.3	0.	45.397
51869	20.515	4.25	0.	45.133
51870	20.515	4.3	5.e-002	3.2373
51871	20.664	4.3	0.	47.016
51872	20.614	4.25	0.	46.756
51873	20.614	4.3	5.e-002	3.2358
51874	20.764	4.3	0.	48.693
51875	20.714	4.25	0.	48.437
51876	20.714	4.3	5.e-002	3.2348
51877	20.863	4.3	0.	50.432
51878	20.813	4.25	0.	50.181
51879	20.813	4.3	5.e-002	3.2341
51880	20.963	4.3	0.	52.237
51881	20.913	4.25	0.	51.989
51882	20.913	4.3	5.e-002	3.2338
51883	21.062	4.3	0.	54.111
51884	21.013	4.25	0.	53.867
51885	21.013	4.3	5.e-002	3.234
51886	21.162	4.3	0.	56.058
51887	21.112	4.25	0.	55.816
51888	21.112	4.3	5.e-002	3.2347
51889	21.262	4.3	0.	58.08
51890	21.212	4.25	0.	57.841
51891	21.212	4.3	5.e-002	3.2359
51892	21.361	4.3	0.	60.184
51893	21.311	4.25	0.	59.946
51894	21.311	4.3	5.e-002	3.2376
51895	21.461	4.3	0.	62.372
51896	21.411	4.25	0.	62.135
51897	21.411	4.3	5.e-002	3.2399
51898	21.56	4.3	0.	64.649
51899	21.51	4.25	0.	64.413
51900	21.51	4.3	5.e-002	3.2428
51901	21.66	4.3	0.	67.02
51902	21.61	4.25	0.	66.783
51903	21.61	4.3	5.e-002	3.2463
51904	21.759	4.3	0.	69.49
51905	21.71	4.25	0.	69.251
51906	21.71	4.3	5.e-002	3.2506
51907	21.859	4.3	0.	72.064
51908	21.809	4.25	0.	71.821
51909	21.809	4.3	5.e-002	3.2555
51910	21.959	4.3	0.	74.748
51911	21.909	4.25	0.	74.5
51912	21.909	4.3	5.e-002	3.2613
51913	22.058	4.3	0.	77.547
51914	22.008	4.25	0.	77.291
51915	22.008	4.3	5.e-002	3.2679
51916	22.158	4.3	0.	80.467
51917	22.108	4.25	0.	80.202
51918	22.108	4.3	5.e-002	3.2755
51919	22.257	4.3	0.	83.515
51920	22.208	4.25	0.	83.237
51921	22.208	4.3	5.e-002	3.284
51922	22.357	4.3	0.	86.696
51923	22.307	4.25	0.	86.403
51924	22.307	4.3	5.e-002	3.2936
51925	22.456	4.3	0.	90.017
51926	22.407	4.25	0.	89.706
51927	22.407	4.3	5.e-002	3.3044
51928	22.556	4.3	0.	93.485
51929	22.506	4.25	0.	93.152
51930	22.506	4.3	5.e-002	3.3163
51931	22.656	4.3	0.	97.106
51932	22.606	4.25	0.	96.747
51933	22.606	4.3	5.e-002	3.3296
51934	22.755	4.3	0.	100.89
51935	22.705	4.25	0.	100.5
51936	22.705	4.3	5.e-002	3.3443
51937	22.855	4.3	0.	104.83
51938	22.805	4.25	0.	104.41
51939	22.805	4.3	5.e-002	3.3606
51940	22.954	4.3	0.	108.95
51941	22.905	4.25	0.	108.48
51942	22.905	4.3	5.e-002	3.3784
51943	23.054	4.3	0.	113.24
51944	23.004	4.25	0.	112.73
51945	23.004	4.3	5.e-002	3.3979
51946	23.154	4.3	0.	117.72
51947	23.104	4.25	0.	117.15
51948	23.104	4.3	5.e-002	3.4191
51949	23.253	4.3	0.	122.37
51950	23.203	4.25	0.	121.75
51951	23.203	4.3	5.e-002	3.4422
51952	23.353	4.3	0.	127.22
51953	23.303	4.25	0.	126.54
51954	23.303	4.3	5.e-002	3.467
51955	23.452	4.3	0.	132.24
51956	23.403	4.25	0.	131.5
51957	23.403	4.3	5.e-002	3.4938
51958	23.552	4.3	0.	137.46
51959	23.502	4.25	0.	136.64
51960	23.502	4.3	5.e-002	3.5223
51961	23.651	4.3	0.	142.85
51962	23.602	4.25	0.	141.97
51963	23.602	4.3	5.e-002	3.5525
51964	23.751	4.3	0.	148.44
51965	23.701	4.25	0.	147.47
51966	23.701	4.3	5.e-002	3.5845
51967	23.851	4.3	0.	154.21
51968	23.801	4.25	0.	153.15
51969	23.801	4.3	5.e-002	3.618
51970	23.9	4.25	0.	159.01
51971	23.9	4.3	5.e-002	3.683
51972	23.95	4.3	0.	159.87
51973	8.316	4.2	0.	3217.2
51974	8.2662	4.15	0.	4317.3
51975	8.2662	4.2	5.e-002	304.34
51976	8.2165	4.2	0.	2877.3
51977	8.4156	4.2	0.	1982.8
51978	8.3658	4.15	0.	2384.2
51979	8.3658	4.2	5.e-002	174.36
51980	8.5152	4.2	0.	1286.2
51981	8.4654	4.15	0.	1443.9
51982	8.4654	4.2	5.e-002	113.94
51983	8.6148	4.2	0.	842.89
51984	8.565	4.15	0.	928.26
51985	8.565	4.2	5.e-002	86.469
51986	8.7144	4.2	0.	549.66
51987	8.6646	4.15	0.	598.67
51988	8.6646	4.2	5.e-002	67.23
51989	8.8139	4.2	0.	349.12
51990	8.7642	4.15	0.	378.13
51991	8.7642	4.2	5.e-002	54.667
51992	8.9135	4.2	0.	208.19
51993	8.8637	4.15	0.	224.61
51994	8.8637	4.2	5.e-002	45.51
51995	9.0131	4.2	0.	108.39
51996	8.9633	4.15	0.	116.32
51997	8.9633	4.2	5.e-002	38.646
51998	9.1127	4.2	0.	41.948
51999	9.0629	4.15	0.	44.155
52000	9.0629	4.2	5.e-002	33.318
52001	9.2123	4.2	0.	12.828
52002	9.1625	4.15	0.	12.987
52003	9.1625	4.2	5.e-002	29.074
52004	9.3118	4.2	0.	5.6281
52005	9.2621	4.15	0.	5.6366
52006	9.2621	4.2	5.e-002	25.617
52007	9.4114	4.2	0.	3.2655
52008	9.3616	4.15	0.	3.2665
52009	9.3616	4.2	5.e-002	22.75
52010	9.511	4.2	0.	2.1704
52011	9.4612	4.15	0.	2.1729
52012	9.4612	4.2	5.e-002	20.337
52013	9.6106	4.2	0.	1.5556
52014	9.5608	4.15	0.	1.56
52015	9.5608	4.2	5.e-002	18.282
52016	9.7102	4.2	0.	1.1684
52017	9.6604	4.15	0.	1.1742
52018	9.6604	4.2	5.e-002	16.514
52019	9.8097	4.2	0.	0.90567
52020	9.76	4.15	0.	0.91223
52021	9.76	4.2	5.e-002	14.983
52022	9.9093	4.2	0.	0.7177
52023	9.8595	4.15	0.	0.72464
52024	9.8595	4.2	5.e-002	13.648
52025	10.009	4.2	0.	0.57798
52026	9.9591	4.15	0.	0.58499
52027	9.9591	4.2	5.e-002	12.48
52028	10.108	4.2	0.	0.4711
52029	10.059	4.15	0.	0.47794
52030	10.059	4.2	5.e-002	11.455
52031	10.208	4.2	0.	0.38754
52032	10.158	4.15	0.	0.39406
52033	10.158	4.2	5.e-002	10.554
52034	10.308	4.2	0.	0.32112
52035	10.258	4.15	0.	0.3272
52036	10.258	4.2	5.e-002	9.7609
52037	10.407	4.2	0.	0.26764
52038	10.357	4.15	0.	0.27321
52039	10.357	4.2	5.e-002	9.0624
52040	10.507	4.2	0.	0.22412
52041	10.457	4.15	0.	0.22917
52042	10.457	4.2	5.e-002	8.4474
52043	10.606	4.2	0.	0.18841
52044	10.557	4.15	0.	0.19294
52045	10.557	4.2	5.e-002	7.9062
52046	10.706	4.2	0.	0.15892
52047	10.656	4.15	0.	0.16293
52048	10.656	4.2	5.e-002	7.4303
52049	10.806	4.2	0.	0.13444
52050	10.756	4.15	0.	0.13796
52051	10.756	4.2	5.e-002	7.0122
52052	10.905	4.2	0.	0.11403
52053	10.855	4.15	0.	0.1171
52054	10.855	4.2	5.e-002	6.6452
52055	11.005	4.2	0.	9.6967e-002
52056	10.955	4.15	0.	9.9612e-002
52057	10.955	4.2	5.e-002	6.3233
52058	11.104	4.2	0.	8.2638e-002
52059	11.055	4.15	0.	8.4925e-002
52060	11.055	4.2	5.e-002	6.0413
52061	11.204	4.2	0.	7.0568e-002
52062	11.154	4.15	0.	7.2511e-002
52063	11.154	4.2	5.e-002	5.7941
52064	11.303	4.2	0.	6.0404e-002
52065	11.254	4.15	0.	6.2036e-002
52066	11.254	4.2	5.e-002	5.5774
52067	11.403	4.2	0.	5.1825e-002
52068	11.353	4.15	0.	5.3193e-002
52069	11.353	4.2	5.e-002	5.3874
52070	11.503	4.2	0.	4.4568e-002
52071	11.453	4.15	0.	4.5702e-002
52072	11.453	4.2	5.e-002	5.2207
52073	11.602	4.2	0.	3.8422e-002
52074	11.552	4.15	0.	3.9356e-002
52075	11.552	4.2	5.e-002	5.0742
52076	11.702	4.2	0.	3.3203e-002
52077	11.652	4.15	0.	3.3966e-002
52078	11.652	4.2	5.e-002	4.9451
52079	11.801	4.2	0.	2.8776e-002
52080	11.752	4.15	0.	2.9381e-002
52081	11.752	4.2	5.e-002	4.8312
52082	11.901	4.2	0.	2.503e-002
52083	11.851	4.15	0.	2.5499e-002
52084	11.851	4.2	5.e-002	4.7303
52085	12.001	4.2	0.	2.1851e-002
52086	11.951	4.15	0.	2.2215e-002
52087	11.951	4.2	5.e-002	4.6406
52088	12.1	4.2	0.	1.9144e-002
52089	12.05	4.15	0.	1.9417e-002
52090	12.05	4.2	5.e-002	4.5608
52091	12.2	4.2	0.	1.6839e-002
52092	12.15	4.15	0.	1.7036e-002
52093	12.15	4.2	5.e-002	4.4893
52094	12.299	4.2	0.	1.4885e-002
52095	12.249	4.15	0.	1.5011e-002
52096	12.249	4.2	5.e-002	4.425
52097	12.399	4.2	0.	1.3235e-002
52098	12.349	4.15	0.	1.3305e-002
52099	12.349	4.2	5.e-002	4.3669
52100	12.498	4.2	0.	1.1824e-002
52101	12.449	4.15	0.	1.1865e-002
52102	12.449	4.2	5.e-002	4.3143
52103	12.598	4.2	0.	1.0612e-002
52104	12.548	4.15	0.	1.0615e-002
52105	12.548	4.2	5.e-002	4.2664
52106	12.698	4.2	0.	9.5937e-003
52107	12.648	4.15	0.	9.5608e-003
52108	12.648	4.2	5.e-002	4.2224
52109	12.797	4.2	0.	8.7365e-003
52110	12.747	4.15	0.	8.6819e-003
52111	12.747	4.2	5.e-002	4.1819
52112	12.897	4.2	0.	8.0127e-003
52113	12.847	4.15	0.	7.9385e-003
52114	12.847	4.2	5.e-002	4.1445
52115	12.996	4.2	0.	7.4027e-003
52116	12.947	4.15	0.	7.3178e-003
52117	12.947	4.2	5.e-002	4.1098
52118	13.096	4.2	0.	6.8842e-003
52119	13.046	4.15	0.	6.7939e-003
52120	13.046	4.2	5.e-002	4.0774
52121	13.195	4.2	0.	6.4524e-003
52122	13.146	4.15	0.	6.3477e-003
52123	13.146	4.2	5.e-002	4.047
52124	13.295	4.2	0.	6.1067e-003
52125	13.245	4.15	0.	5.9906e-003
52126	13.245	4.2	5.e-002	4.0185
52127	13.395	4.2	0.	5.8258e-003
52128	13.345	4.15	0.	5.7107e-003
52129	13.345	4.2	5.e-002	3.9916
52130	13.494	4.2	0.	5.5934e-003
52131	13.444	4.15	0.	5.4786e-003
52132	13.444	4.2	5.e-002	3.9661
52133	13.594	4.2	0.	5.406e-003
52134	13.544	4.15	0.	5.2912e-003
52135	13.544	4.2	5.e-002	3.942
52136	13.693	4.2	0.	5.2578e-003
52137	13.644	4.15	0.	5.1443e-003
52138	13.644	4.2	5.e-002	3.919
52139	13.793	4.2	0.	5.1497e-003
52140	13.743	4.15	0.	5.0318e-003
52141	13.743	4.2	5.e-002	3.897
52142	13.893	4.2	0.	5.0809e-003
52143	13.843	4.15	0.	4.9619e-003
52144	13.843	4.2	5.e-002	3.876
52145	13.992	4.2	0.	5.028e-003
52146	13.942	4.15	0.	4.9254e-003
52147	13.942	4.2	5.e-002	3.8559
52148	14.092	4.2	0.	4.9874e-003
52149	14.042	4.15	0.	4.8843e-003
52150	14.042	4.2	5.e-002	3.8366
52151	14.191	4.2	0.	4.9751e-003
52152	14.142	4.15	0.	4.8687e-003
52153	14.142	4.2	5.e-002	3.8179
52154	14.291	4.2	0.	4.9858e-003
52155	14.241	4.15	0.	4.8817e-003
52156	14.241	4.2	5.e-002	3.7999
52157	14.39	4.2	0.	5.0126e-003
52158	14.341	4.15	0.	4.9101e-003
52159	14.341	4.2	5.e-002	3.7824
52160	14.49	4.2	0.	5.0532e-003
52161	14.44	4.15	0.	4.9533e-003
52162	14.44	4.2	5.e-002	3.7656
52163	14.59	4.2	0.	5.1023e-003
52164	14.54	4.15	0.	5.0071e-003
52165	14.54	4.2	5.e-002	3.7492
52166	14.689	4.2	0.	5.1662e-003
52167	14.639	4.15	0.	5.0646e-003
52168	14.639	4.2	5.e-002	3.7333
52169	14.789	4.2	0.	5.2535e-003
52170	14.739	4.15	0.	5.1462e-003
52171	14.739	4.2	5.e-002	3.7179
52172	14.888	4.2	0.	5.3551e-003
52173	14.839	4.15	0.	5.2488e-003
52174	14.839	4.2	5.e-002	3.7028
52175	14.988	4.2	0.	5.4662e-003
52176	14.938	4.15	0.	5.3559e-003
52177	14.938	4.2	5.e-002	3.6883
52178	15.088	4.2	0.	5.589e-003
52179	15.038	4.15	0.	5.4746e-003
52180	15.038	4.2	5.e-002	3.6741
52181	15.187	4.2	0.	5.7323e-003
52182	15.137	4.15	0.	5.603e-003
52183	15.137	4.2	5.e-002	3.6602
52184	15.287	4.2	0.	5.9032e-003
52185	15.237	4.15	0.	5.7582e-003
52186	15.237	4.2	5.e-002	3.6467
52187	15.386	4.2	0.	6.088e-003
52188	15.336	4.15	0.	5.9371e-003
52189	15.336	4.2	5.e-002	3.6335
52190	15.486	4.2	0.	6.2947e-003
52191	15.436	4.15	0.	6.1144e-003
52192	15.436	4.2	5.e-002	3.6207
52193	15.585	4.2	0.	6.5494e-003
52194	15.536	4.15	0.	6.3285e-003
52195	15.536	4.2	5.e-002	3.6081
52196	15.685	4.2	0.	6.8685e-003
52197	15.635	4.15	0.	6.5921e-003
52198	15.635	4.2	5.e-002	3.5957
52199	15.785	4.2	0.	7.281e-003
52200	15.735	4.15	0.	6.9185e-003
52201	15.735	4.2	5.e-002	3.5836
52202	15.884	4.2	0.	7.8455e-003
52203	15.834	4.15	0.	7.3416e-003
52204	15.834	4.2	5.e-002	3.5718
52205	15.984	4.2	0.	8.6936e-003
52206	15.934	4.15	0.	7.9274e-003
52207	15.934	4.2	5.e-002	3.5602
52208	16.083	4.2	0.	1.0195e-002
52209	16.034	4.15	0.	8.8274e-003
52210	16.034	4.2	5.e-002	3.5489
52211	16.183	4.2	0.	1.3765e-002
52212	16.133	4.15	0.	1.0517e-002
52213	16.133	4.2	5.e-002	3.5377
52214	16.282	4.2	0.	3.4534e-002
52215	16.233	4.15	0.	1.5059e-002
52216	16.233	4.2	5.e-002	3.5268
52217	16.382	4.2	0.	0.70495
52218	16.332	4.15	0.	6.9202e-002
52219	16.332	4.2	5.e-002	3.5161
52220	16.482	4.2	0.	1.7507
52221	16.432	4.15	0.	0.98432
52222	16.432	4.2	5.e-002	3.5056
52223	16.581	4.2	0.	2.7832
52224	16.531	4.15	0.	2.0405
52225	16.531	4.2	5.e-002	3.4954
52226	16.681	4.2	0.	3.7977
52227	16.631	4.15	0.	3.08
52228	16.631	4.2	5.e-002	3.4853
52229	16.78	4.2	0.	4.7951
52230	16.731	4.15	0.	4.1016
52231	16.731	4.2	5.e-002	3.4754
52232	16.88	4.2	0.	5.7768
52233	16.83	4.15	0.	5.1064
52234	16.83	4.2	5.e-002	3.4658
52235	16.98	4.2	0.	6.7445
52236	16.93	4.15	0.	6.0961
52237	16.93	4.2	5.e-002	3.4563
52238	17.079	4.2	0.	7.6998
52239	17.029	4.15	0.	7.0723
52240	17.029	4.2	5.e-002	3.447
52241	17.179	4.2	0.	8.6445
52242	17.129	4.15	0.	8.0367
52243	17.129	4.2	5.e-002	3.4378
52244	17.278	4.2	0.	9.58
52245	17.229	4.15	0.	8.991
52246	17.229	4.2	5.e-002	3.4288
52247	17.378	4.2	0.	10.508
52248	17.328	4.15	0.	9.937
52249	17.328	4.2	5.e-002	3.42
52250	17.477	4.2	0.	11.431
52251	17.428	4.15	0.	10.876
52252	17.428	4.2	5.e-002	3.4114
52253	17.577	4.2	0.	12.349
52254	17.527	4.15	0.	11.81
52255	17.527	4.2	5.e-002	3.4029
52256	17.677	4.2	0.	13.265
52257	17.627	4.15	0.	12.741
52258	17.627	4.2	5.e-002	3.3946
52259	17.776	4.2	0.	14.18
52260	17.726	4.15	0.	13.671
52261	17.726	4.2	5.e-002	3.3865
52262	17.876	4.2	0.	15.095
52263	17.826	4.15	0.	14.6
52264	17.826	4.2	5.e-002	3.3786
52265	17.975	4.2	0.	16.013
52266	17.926	4.15	0.	15.531
52267	17.926	4.2	5.e-002	3.3708
52268	18.075	4.2	0.	16.936
52269	18.025	4.15	0.	16.465
52270	18.025	4.2	5.e-002	3.3632
52271	18.175	4.2	0.	17.863
52272	18.125	4.15	0.	17.404
52273	18.125	4.2	5.e-002	3.3558
52274	18.274	4.2	0.	18.798
52275	18.224	4.15	0.	18.349
52276	18.224	4.2	5.e-002	3.3486
52277	18.374	4.2	0.	19.742
52278	18.324	4.15	0.	19.303
52279	18.324	4.2	5.e-002	3.3416
52280	18.473	4.2	0.	20.697
52281	18.423	4.15	0.	20.267
52282	18.423	4.2	5.e-002	3.3347
52283	18.573	4.2	0.	21.664
52284	18.523	4.15	0.	21.243
52285	18.523	4.2	5.e-002	3.328
52286	18.672	4.2	0.	22.645
52287	18.623	4.15	0.	22.233
52288	18.623	4.2	5.e-002	3.3215
52289	18.772	4.2	0.	23.642
52290	18.722	4.15	0.	23.237
52291	18.722	4.2	5.e-002	3.3152
52292	18.872	4.2	0.	24.656
52293	18.822	4.15	0.	24.259
52294	18.822	4.2	5.e-002	3.3091
52295	18.971	4.2	0.	25.69
52296	18.921	4.15	0.	25.299
52297	18.921	4.2	5.e-002	3.3031
52298	19.071	4.2	0.	26.744
52299	19.021	4.15	0.	26.361
52300	19.021	4.2	5.e-002	3.2974
52301	19.17	4.2	0.	27.822
52302	19.121	4.15	0.	27.445
52303	19.121	4.2	5.e-002	3.2919
52304	19.27	4.2	0.	28.925
52305	19.22	4.15	0.	28.553
52306	19.22	4.2	5.e-002	3.2866
52307	19.369	4.2	0.	30.055
52308	19.32	4.15	0.	29.688
52309	19.32	4.2	5.e-002	3.2815
52310	19.469	4.2	0.	31.214
52311	19.419	4.15	0.	30.851
52312	19.419	4.2	5.e-002	3.2767
52313	19.569	4.2	0.	32.403
52314	19.519	4.15	0.	32.046
52315	19.519	4.2	5.e-002	3.272
52316	19.668	4.2	0.	33.626
52317	19.618	4.15	0.	33.272
52318	19.618	4.2	5.e-002	3.2677
52319	19.768	4.2	0.	34.884
52320	19.718	4.15	0.	34.534
52321	19.718	4.2	5.e-002	3.2636
52322	19.867	4.2	0.	36.179
52323	19.818	4.15	0.	35.833
52324	19.818	4.2	5.e-002	3.2597
52325	19.967	4.2	0.	37.515
52326	19.917	4.15	0.	37.172
52327	19.917	4.2	5.e-002	3.2562
52328	20.067	4.2	0.	38.892
52329	20.017	4.15	0.	38.552
52330	20.017	4.2	5.e-002	3.2529
52331	20.166	4.2	0.	40.315
52332	20.116	4.15	0.	39.977
52333	20.116	4.2	5.e-002	3.2499
52334	20.266	4.2	0.	41.784
52335	20.216	4.15	0.	41.449
52336	20.216	4.2	5.e-002	3.2472
52337	20.365	4.2	0.	43.303
52338	20.316	4.15	0.	42.97
52339	20.316	4.2	5.e-002	3.2448
52340	20.465	4.2	0.	44.876
52341	20.415	4.15	0.	44.544
52342	20.415	4.2	5.e-002	3.2428
52343	20.564	4.2	0.	46.503
52344	20.515	4.15	0.	46.173
52345	20.515	4.2	5.e-002	3.2411
52346	20.664	4.2	0.	48.189
52347	20.614	4.15	0.	47.86
52348	20.614	4.2	5.e-002	3.2398
52349	20.764	4.2	0.	49.937
52350	20.714	4.15	0.	49.608
52351	20.714	4.2	5.e-002	3.2389
52352	20.863	4.2	0.	51.75
52353	20.813	4.15	0.	51.421
52354	20.813	4.2	5.e-002	3.2384
52355	20.963	4.2	0.	53.63
52356	20.913	4.15	0.	53.301
52357	20.913	4.2	5.e-002	3.2383
52358	21.062	4.2	0.	55.583
52359	21.013	4.15	0.	55.253
52360	21.013	4.2	5.e-002	3.2387
52361	21.162	4.2	0.	57.611
52362	21.112	4.15	0.	57.28
52363	21.112	4.2	5.e-002	3.2396
52364	21.262	4.2	0.	59.719
52365	21.212	4.15	0.	59.385
52366	21.212	4.2	5.e-002	3.2411
52367	21.361	4.2	0.	61.909
52368	21.311	4.15	0.	61.573
52369	21.311	4.2	5.e-002	3.243
52370	21.461	4.2	0.	64.188
52371	21.411	4.15	0.	63.847
52372	21.411	4.2	5.e-002	3.2456
52373	21.56	4.2	0.	66.558
52374	21.51	4.15	0.	66.212
52375	21.51	4.2	5.e-002	3.2487
52376	21.66	4.2	0.	69.025
52377	21.61	4.15	0.	68.673
52378	21.61	4.2	5.e-002	3.2525
52379	21.759	4.2	0.	71.593
52380	21.71	4.15	0.	71.234
52381	21.71	4.2	5.e-002	3.2571
52382	21.859	4.2	0.	74.268
52383	21.809	4.15	0.	73.899
52384	21.809	4.2	5.e-002	3.2623
52385	21.959	4.2	0.	77.054
52386	21.909	4.15	0.	76.675
52387	21.909	4.2	5.e-002	3.2684
52388	22.058	4.2	0.	79.957
52389	22.008	4.15	0.	79.565
52390	22.008	4.2	5.e-002	3.2753
52391	22.158	4.2	0.	82.982
52392	22.108	4.15	0.	82.575
52393	22.108	4.2	5.e-002	3.2831
52394	22.257	4.2	0.	86.136
52395	22.208	4.15	0.	85.711
52396	22.208	4.2	5.e-002	3.292
52397	22.357	4.2	0.	89.423
52398	22.307	4.15	0.	88.978
52399	22.307	4.2	5.e-002	3.3018
52400	22.456	4.2	0.	92.85
52401	22.407	4.15	0.	92.381
52402	22.407	4.2	5.e-002	3.3128
52403	22.556	4.2	0.	96.422
52404	22.506	4.15	0.	95.926
52405	22.506	4.2	5.e-002	3.325
52406	22.656	4.2	0.	100.15
52407	22.606	4.15	0.	99.618
52408	22.606	4.2	5.e-002	3.3385
52409	22.755	4.2	0.	104.02
52410	22.705	4.15	0.	103.46
52411	22.705	4.2	5.e-002	3.3533
52412	22.855	4.2	0.	108.07
52413	22.805	4.15	0.	107.46
52414	22.805	4.2	5.e-002	3.3696
52415	22.954	4.2	0.	112.27
52416	22.905	4.15	0.	111.63
52417	22.905	4.2	5.e-002	3.3873
52418	23.054	4.2	0.	116.65
52419	23.004	4.15	0.	115.96
52420	23.004	4.2	5.e-002	3.4066
52421	23.154	4.2	0.	121.2
52422	23.104	4.15	0.	120.45
52423	23.104	4.2	5.e-002	3.4275
52424	23.253	4.2	0.	125.92
52425	23.203	4.15	0.	125.12
52426	23.203	4.2	5.e-002	3.4501
52427	23.353	4.2	0.	130.82
52428	23.303	4.15	0.	129.96
52429	23.303	4.2	5.e-002	3.4744
52430	23.452	4.2	0.	135.9
52431	23.403	4.15	0.	134.97
52432	23.403	4.2	5.e-002	3.5003
52433	23.552	4.2	0.	141.16
52434	23.502	4.15	0.	140.16
52435	23.502	4.2	5.e-002	3.5278
52436	23.651	4.2	0.	146.58
52437	23.602	4.15	0.	145.51
52438	23.602	4.2	5.e-002	3.5568
52439	23.751	4.2	0.	152.19
52440	23.701	4.15	0.	151.04
52441	23.701	4.2	5.e-002	3.5874
52442	23.851	4.2	0.	157.96
52443	23.801	4.15	0.	156.74
52444	23.801	4.2	5.e-002	3.6192
52445	23.9	4.15	0.	162.59
52446	23.9	4.2	5.e-002	3.679
52447	23.95	4.2	0.	163.68
52448	8.316	4.1	0.	3402.7
52449	8.2662	4.05	0.	4146.5
52450	8.2662	4.1	5.e-002	622.59
52451	8.2165	4.1	0.	4043.3
52452	8.4156	4.1	0.	1838.3
52453	8.3658	4.05	0.	1995.4
52454	8.3658	4.1	5.e-002	249.19
52455	8.5152	4.1	0.	1082.9
52456	8.4654	4.05	0.	1162.6
52457	8.4654	4.1	5.e-002	136.57
52458	8.6148	4.1	0.	681.38
52459	8.565	4.05	0.	725.61
52460	8.565	4.1	5.e-002	97.841
52461	8.7144	4.1	0.	424.7
52462	8.6646	4.05	0.	451.99
52463	8.6646	4.1	5.e-002	74.154
52464	8.8139	4.1	0.	251.43
52465	8.7642	4.05	0.	268.14
52466	8.7642	4.1	5.e-002	58.994
52467	8.9135	4.1	0.	130.75
52468	8.8637	4.05	0.	139.76
52469	8.8637	4.1	5.e-002	48.484
52470	9.0131	4.1	0.	49.995
52471	8.9633	4.05	0.	53.081
52472	8.9633	4.1	5.e-002	40.833
52473	9.1127	4.1	0.	14.075
52474	9.0629	4.05	0.	14.258
52475	9.0629	4.1	5.e-002	35.024
52476	9.2123	4.1	0.	5.8915
52477	9.1625	4.05	0.	5.862
52478	9.1625	4.1	5.e-002	30.469
52479	9.3118	4.1	0.	3.3685
52480	9.2621	4.05	0.	3.3475
52481	9.2621	4.1	5.e-002	26.799
52482	9.4114	4.1	0.	2.2279
52483	9.3616	4.05	0.	2.2188
52484	9.3616	4.1	5.e-002	23.78
52485	9.511	4.1	0.	1.5956
52486	9.4612	4.05	0.	1.5936
52487	9.4612	4.1	5.e-002	21.252
52488	9.6106	4.1	0.	1.2002
52489	9.5608	4.05	0.	1.2025
52490	9.5608	4.1	5.e-002	19.106
52491	9.7102	4.1	0.	0.93279
52492	9.6604	4.05	0.	0.93753
52493	9.6604	4.1	5.e-002	17.264
52494	9.8097	4.1	0.	0.74172
52495	9.76	4.05	0.	0.74774
52496	9.76	4.1	5.e-002	15.67
52497	9.9093	4.1	0.	0.5996
52498	9.8595	4.05	0.	0.6062
52499	9.8595	4.1	5.e-002	14.281
52500	10.009	4.1	0.	0.49066
52501	9.9591	4.05	0.	0.49738
52502	9.9591	4.1	5.e-002	13.066
52503	10.108	4.1	0.	0.4052
52504	10.059	4.05	0.	0.41176
52505	10.059	4.1	5.e-002	11.998
52506	10.208	4.1	0.	0.33699
52507	10.158	4.05	0.	0.3432
52508	10.158	4.1	5.e-002	11.058
52509	10.308	4.1	0.	0.28181
52510	10.258	4.05	0.	0.28755
52511	10.258	4.1	5.e-002	10.228
52512	10.407	4.1	0.	0.2367
52513	10.357	4.05	0.	0.24192
52514	10.357	4.1	5.e-002	9.4966
52515	10.507	4.1	0.	0.19952
52516	10.457	4.05	0.	0.20421
52517	10.457	4.1	5.e-002	8.8503
52518	10.606	4.1	0.	0.16866
52519	10.557	4.05	0.	0.17282
52520	10.557	4.1	5.e-002	8.2797
52521	10.706	4.1	0.	0.14292
52522	10.656	4.05	0.	0.14658
52523	10.656	4.1	5.e-002	7.7761
52524	10.806	4.1	0.	0.12137
52525	10.756	4.05	0.	0.12456
52526	10.756	4.1	5.e-002	7.3318
52527	10.905	4.1	0.	0.10327
52528	10.855	4.05	0.	0.10601
52529	10.855	4.1	5.e-002	6.9399
52530	11.005	4.1	0.	8.804e-002
52531	10.955	4.05	0.	9.0384e-002
52532	10.955	4.1	5.e-002	6.5946
52533	11.104	4.1	0.	7.5174e-002
52534	11.055	4.05	0.	7.7183e-002
52535	11.055	4.1	5.e-002	6.2903
52536	11.204	4.1	0.	6.4282e-002
52537	11.154	4.05	0.	6.597e-002
52538	11.154	4.1	5.e-002	6.0221
52539	11.303	4.1	0.	5.507e-002
52540	11.254	4.05	0.	5.6471e-002
52541	11.254	4.1	5.e-002	5.7858
52542	11.403	4.1	0.	4.7268e-002
52543	11.353	4.05	0.	4.8427e-002
52544	11.353	4.1	5.e-002	5.5774
52545	11.503	4.1	0.	4.065e-002
52546	11.453	4.05	0.	4.1596e-002
52547	11.453	4.1	5.e-002	5.3936
52548	11.602	4.1	0.	3.5031e-002
52549	11.552	4.05	0.	3.5796e-002
52550	11.552	4.1	5.e-002	5.2312
52551	11.702	4.1	0.	3.0252e-002
52552	11.652	4.05	0.	3.0864e-002
52553	11.652	4.1	5.e-002	5.0874
52554	11.801	4.1	0.	2.6193e-002
52555	11.752	4.05	0.	2.6662e-002
52556	11.752	4.1	5.e-002	4.9599
52557	11.901	4.1	0.	2.2757e-002
52558	11.851	4.05	0.	2.3105e-002
52559	11.851	4.1	5.e-002	4.8466
52560	12.001	4.1	0.	1.9841e-002
52561	11.951	4.05	0.	2.0099e-002
52562	11.951	4.1	5.e-002	4.7456
52563	12.1	4.1	0.	1.736e-002
52564	12.05	4.05	0.	1.7538e-002
52565	12.05	4.1	5.e-002	4.6554
52566	12.2	4.1	0.	1.5249e-002
52567	12.15	4.05	0.	1.5362e-002
52568	12.15	4.1	5.e-002	4.5745
52569	12.299	4.1	0.	1.3465e-002
52570	12.249	4.05	0.	1.3514e-002
52571	12.249	4.1	5.e-002	4.5017
52572	12.399	4.1	0.	1.1963e-002
52573	12.349	4.05	0.	1.1964e-002
52574	12.349	4.1	5.e-002	4.4359
52575	12.498	4.1	0.	1.068e-002
52576	12.449	4.05	0.	1.0661e-002
52577	12.449	4.1	5.e-002	4.3764
52578	12.598	4.1	0.	9.5832e-003
52579	12.548	4.05	0.	9.5313e-003
52580	12.548	4.1	5.e-002	4.3222
52581	12.698	4.1	0.	8.6659e-003
52582	12.648	4.05	0.	8.5844e-003
52583	12.648	4.1	5.e-002	4.2725
52584	12.797	4.1	0.	7.898e-003
52585	12.747	4.05	0.	7.8009e-003
52586	12.747	4.1	5.e-002	4.227
52587	12.897	4.1	0.	7.2553e-003
52588	12.847	4.05	0.	7.1426e-003
52589	12.847	4.1	5.e-002	4.185
52590	12.996	4.1	0.	6.7187e-003
52591	12.947	4.05	0.	6.5984e-003
52592	12.947	4.1	5.e-002	4.1463
52593	13.096	4.1	0.	6.2655e-003
52594	13.046	4.05	0.	6.1435e-003
52595	13.046	4.1	5.e-002	4.1102
52596	13.195	4.1	0.	5.8926e-003
52597	13.146	4.05	0.	5.7594e-003
52598	13.146	4.1	5.e-002	4.0766
52599	13.295	4.1	0.	5.6e-003
52600	13.245	4.05	0.	5.4582e-003
52601	13.245	4.1	5.e-002	4.0451
52602	13.395	4.1	0.	5.3678e-003
52603	13.345	4.05	0.	5.2294e-003
52604	13.345	4.1	5.e-002	4.0156
52605	13.494	4.1	0.	5.1797e-003
52606	13.444	4.05	0.	5.0438e-003
52607	13.444	4.1	5.e-002	3.9879
52608	13.594	4.1	0.	5.032e-003
52609	13.544	4.05	0.	4.8976e-003
52610	13.544	4.1	5.e-002	3.9616
52611	13.693	4.1	0.	4.9201e-003
52612	13.644	4.05	0.	4.7893e-003
52613	13.644	4.1	5.e-002	3.9367
52614	13.793	4.1	0.	4.8451e-003
52615	13.743	4.05	0.	4.7124e-003
52616	13.743	4.1	5.e-002	3.9131
52617	13.893	4.1	0.	4.807e-003
52618	13.843	4.05	0.	4.6733e-003
52619	13.843	4.1	5.e-002	3.8906
52620	13.992	4.1	0.	4.7818e-003
52621	13.942	4.05	0.	4.6658e-003
52622	13.942	4.1	5.e-002	3.8692
52623	14.092	4.1	0.	4.7653e-003
52624	14.042	4.05	0.	4.6505e-003
52625	14.042	4.1	5.e-002	3.8487
52626	14.191	4.1	0.	4.7745e-003
52627	14.142	4.05	0.	4.6579e-003
52628	14.142	4.1	5.e-002	3.8289
52629	14.291	4.1	0.	4.8049e-003
52630	14.241	4.05	0.	4.6924e-003
52631	14.241	4.1	5.e-002	3.8099
52632	14.39	4.1	0.	4.8494e-003
52633	14.341	4.05	0.	4.7389e-003
52634	14.341	4.1	5.e-002	3.7917
52635	14.49	4.1	0.	4.9055e-003
52636	14.44	4.05	0.	4.7992e-003
52637	14.44	4.1	5.e-002	3.774
52638	14.59	4.1	0.	4.9675e-003
52639	14.54	4.05	0.	4.8671e-003
52640	14.54	4.1	5.e-002	3.757
52641	14.689	4.1	0.	5.0424e-003
52642	14.639	4.05	0.	4.9373e-003
52643	14.639	4.1	5.e-002	3.7405
52644	14.789	4.1	0.	5.1391e-003
52645	14.739	4.05	0.	5.029e-003
52646	14.739	4.1	5.e-002	3.7245
52647	14.888	4.1	0.	5.2469e-003
52648	14.839	4.05	0.	5.1396e-003
52649	14.839	4.1	5.e-002	3.709
52650	14.988	4.1	0.	5.3614e-003
52651	14.938	4.05	0.	5.2526e-003
52652	14.938	4.1	5.e-002	3.694
52653	15.088	4.1	0.	5.4855e-003
52654	15.038	4.05	0.	5.3734e-003
52655	15.038	4.1	5.e-002	3.6793
52656	15.187	4.1	0.	5.6256e-003
52657	15.137	4.05	0.	5.5027e-003
52658	15.137	4.1	5.e-002	3.6651
52659	15.287	4.1	0.	5.7884e-003
52660	15.237	4.05	0.	5.6534e-003
52661	15.237	4.1	5.e-002	3.6513
52662	15.386	4.1	0.	5.9593e-003
52663	15.336	4.05	0.	5.8244e-003
52664	15.336	4.1	5.e-002	3.6378
52665	15.486	4.1	0.	6.1433e-003
52666	15.436	4.05	0.	5.9868e-003
52667	15.436	4.1	5.e-002	3.6247
52668	15.585	4.1	0.	6.365e-003
52669	15.536	4.05	0.	6.179e-003
52670	15.536	4.1	5.e-002	3.6118
52671	15.685	4.1	0.	6.6336e-003
52672	15.635	4.05	0.	6.4087e-003
52673	15.635	4.1	5.e-002	3.5993
52674	15.785	4.1	0.	6.9657e-003
52675	15.735	4.05	0.	6.6809e-003
52676	15.735	4.1	5.e-002	3.587
52677	15.884	4.1	0.	7.3984e-003
52678	15.834	4.05	0.	7.0209e-003
52679	15.834	4.1	5.e-002	3.575
52680	15.984	4.1	0.	8.0041e-003
52681	15.934	4.05	0.	7.4666e-003
52682	15.934	4.1	5.e-002	3.5633
52683	16.083	4.1	0.	8.9775e-003
52684	16.034	4.05	0.	8.1011e-003
52685	16.034	4.1	5.e-002	3.5518
52686	16.183	4.1	0.	1.0916e-002
52687	16.133	4.05	0.	9.1762e-003
52688	16.133	4.1	5.e-002	3.5405
52689	16.282	4.1	0.	1.7131e-002
52690	16.233	4.05	0.	1.1508e-002
52691	16.233	4.1	5.e-002	3.5295
52692	16.382	4.1	0.	0.22871
52693	16.332	4.05	0.	2.1559e-002
52694	16.332	4.1	5.e-002	3.5187
52695	16.482	4.1	0.	1.2801
52696	16.432	4.05	0.	0.52231
52697	16.432	4.1	5.e-002	3.5081
52698	16.581	4.1	0.	2.345
52699	16.531	4.05	0.	1.6045
52700	16.531	4.1	5.e-002	3.4977
52701	16.681	4.1	0.	3.392
52702	16.631	4.05	0.	2.6755
52703	16.631	4.1	5.e-002	3.4876
52704	16.78	4.1	0.	4.4212
52705	16.731	4.05	0.	3.7281
52706	16.731	4.1	5.e-002	3.4777
52707	16.88	4.1	0.	5.4342
52708	16.83	4.05	0.	4.7633
52709	16.83	4.1	5.e-002	3.4679
52710	16.98	4.1	0.	6.4324
52711	16.93	4.05	0.	5.7827
52712	16.93	4.1	5.e-002	3.4584
52713	17.079	4.1	0.	7.4179
52714	17.029	4.05	0.	6.7882
52715	17.029	4.1	5.e-002	3.449
52716	17.179	4.1	0.	8.3921
52717	17.129	4.05	0.	7.7813
52718	17.129	4.1	5.e-002	3.4398
52719	17.278	4.1	0.	9.3569
52720	17.229	4.05	0.	8.764
52721	17.229	4.1	5.e-002	3.4308
52722	17.378	4.1	0.	10.314
52723	17.328	4.05	0.	9.738
52724	17.328	4.1	5.e-002	3.422
52725	17.477	4.1	0.	11.265
52726	17.428	4.05	0.	10.705
52727	17.428	4.1	5.e-002	3.4133
52728	17.577	4.1	0.	12.212
52729	17.527	4.05	0.	11.667
52730	17.527	4.1	5.e-002	3.4048
52731	17.677	4.1	0.	13.157
52732	17.627	4.05	0.	12.625
52733	17.627	4.1	5.e-002	3.3965
52734	17.776	4.1	0.	14.1
52735	17.726	4.05	0.	13.582
52736	17.726	4.1	5.e-002	3.3884
52737	17.876	4.1	0.	15.044
52738	17.826	4.05	0.	14.539
52739	17.826	4.1	5.e-002	3.3805
52740	17.975	4.1	0.	15.991
52741	17.926	4.05	0.	15.497
52742	17.926	4.1	5.e-002	3.3727
52743	18.075	4.1	0.	16.943
52744	18.025	4.05	0.	16.459
52745	18.025	4.1	5.e-002	3.3651
52746	18.175	4.1	0.	17.9
52747	18.125	4.05	0.	17.426
52748	18.125	4.1	5.e-002	3.3577
52749	18.274	4.1	0.	18.864
52750	18.224	4.05	0.	18.401
52751	18.224	4.1	5.e-002	3.3505
52752	18.374	4.1	0.	19.839
52753	18.324	4.05	0.	19.384
52754	18.324	4.1	5.e-002	3.3435
52755	18.473	4.1	0.	20.824
52756	18.423	4.05	0.	20.377
52757	18.423	4.1	5.e-002	3.3367
52758	18.573	4.1	0.	21.822
52759	18.523	4.05	0.	21.383
52760	18.523	4.1	5.e-002	3.33
52761	18.672	4.1	0.	22.835
52762	18.623	4.05	0.	22.403
52763	18.623	4.1	5.e-002	3.3235
52764	18.772	4.1	0.	23.865
52765	18.722	4.05	0.	23.438
52766	18.722	4.1	5.e-002	3.3172
52767	18.872	4.1	0.	24.913
52768	18.822	4.05	0.	24.492
52769	18.822	4.1	5.e-002	3.3111
52770	18.971	4.1	0.	25.981
52771	18.921	4.05	0.	25.566
52772	18.921	4.1	5.e-002	3.3052
52773	19.071	4.1	0.	27.072
52774	19.021	4.05	0.	26.661
52775	19.021	4.1	5.e-002	3.2995
52776	19.17	4.1	0.	28.186
52777	19.121	4.05	0.	27.779
52778	19.121	4.1	5.e-002	3.294
52779	19.27	4.1	0.	29.327
52780	19.22	4.05	0.	28.924
52781	19.22	4.1	5.e-002	3.2888
52782	19.369	4.1	0.	30.496
52783	19.32	4.05	0.	30.095
52784	19.32	4.1	5.e-002	3.2838
52785	19.469	4.1	0.	31.695
52786	19.419	4.05	0.	31.297
52787	19.419	4.1	5.e-002	3.279
52788	19.569	4.1	0.	32.926
52789	19.519	4.05	0.	32.531
52790	19.519	4.1	5.e-002	3.2745
52791	19.668	4.1	0.	34.192
52792	19.618	4.05	0.	33.799
52793	19.618	4.1	5.e-002	3.2702
52794	19.768	4.1	0.	35.495
52795	19.718	4.05	0.	35.103
52796	19.718	4.1	5.e-002	3.2662
52797	19.867	4.1	0.	36.837
52798	19.818	4.05	0.	36.446
52799	19.818	4.1	5.e-002	3.2624
52800	19.967	4.1	0.	38.221
52801	19.917	4.05	0.	37.83
52802	19.917	4.1	5.e-002	3.2589
52803	20.067	4.1	0.	39.648
52804	20.017	4.05	0.	39.258
52805	20.017	4.1	5.e-002	3.2558
52806	20.166	4.1	0.	41.123
52807	20.116	4.05	0.	40.732
52808	20.116	4.1	5.e-002	3.2529
52809	20.266	4.1	0.	42.647
52810	20.216	4.05	0.	42.255
52811	20.216	4.1	5.e-002	3.2503
52812	20.365	4.1	0.	44.222
52813	20.316	4.05	0.	43.83
52814	20.316	4.1	5.e-002	3.2481
52815	20.465	4.1	0.	45.853
52816	20.415	4.05	0.	45.459
52817	20.415	4.1	5.e-002	3.2461
52818	20.564	4.1	0.	47.541
52819	20.515	4.05	0.	47.145
52820	20.515	4.1	5.e-002	3.2446
52821	20.664	4.1	0.	49.29
52822	20.614	4.05	0.	48.891
52823	20.614	4.1	5.e-002	3.2435
52824	20.764	4.1	0.	51.104
52825	20.714	4.05	0.	50.701
52826	20.714	4.1	5.e-002	3.2427
52827	20.863	4.1	0.	52.984
52828	20.813	4.05	0.	52.578
52829	20.813	4.1	5.e-002	3.2424
52830	20.963	4.1	0.	54.936
52831	20.913	4.05	0.	54.525
52832	20.913	4.1	5.e-002	3.2425
52833	21.062	4.1	0.	56.961
52834	21.013	4.05	0.	56.546
52835	21.013	4.1	5.e-002	3.2431
52836	21.162	4.1	0.	59.065
52837	21.112	4.05	0.	58.644
52838	21.112	4.1	5.e-002	3.2442
52839	21.262	4.1	0.	61.25
52840	21.212	4.05	0.	60.822
52841	21.212	4.1	5.e-002	3.2459
52842	21.361	4.1	0.	63.522
52843	21.311	4.05	0.	63.086
52844	21.311	4.1	5.e-002	3.248
52845	21.461	4.1	0.	65.883
52846	21.411	4.05	0.	65.439
52847	21.411	4.1	5.e-002	3.2508
52848	21.56	4.1	0.	68.338
52849	21.51	4.05	0.	67.884
52850	21.51	4.1	5.e-002	3.2542
52851	21.66	4.1	0.	70.893
52852	21.61	4.05	0.	70.428
52853	21.61	4.1	5.e-002	3.2583
52854	21.759	4.1	0.	73.551
52855	21.71	4.05	0.	73.073
52856	21.71	4.1	5.e-002	3.263
52857	21.859	4.1	0.	76.317
52858	21.809	4.05	0.	75.825
52859	21.809	4.1	5.e-002	3.2686
52860	21.959	4.1	0.	79.196
52861	21.909	4.05	0.	78.687
52862	21.909	4.1	5.e-002	3.2749
52863	22.058	4.1	0.	82.193
52864	22.008	4.05	0.	81.666
52865	22.008	4.1	5.e-002	3.2821
52866	22.158	4.1	0.	85.313
52867	22.108	4.05	0.	84.766
52868	22.108	4.1	5.e-002	3.2902
52869	22.257	4.1	0.	88.562
52870	22.208	4.05	0.	87.992
52871	22.208	4.1	5.e-002	3.2992
52872	22.357	4.1	0.	91.944
52873	22.307	4.05	0.	91.349
52874	22.307	4.1	5.e-002	3.3093
52875	22.456	4.1	0.	95.465
52876	22.407	4.05	0.	94.841
52877	22.407	4.1	5.e-002	3.3205
52878	22.556	4.1	0.	99.129
52879	22.506	4.05	0.	98.474
52880	22.506	4.1	5.e-002	3.3329
52881	22.656	4.1	0.	102.94
52882	22.606	4.05	0.	102.25
52883	22.606	4.1	5.e-002	3.3465
52884	22.755	4.1	0.	106.91
52885	22.705	4.05	0.	106.18
52886	22.705	4.1	5.e-002	3.3613
52887	22.855	4.1	0.	111.03
52888	22.805	4.05	0.	110.26
52889	22.805	4.1	5.e-002	3.3776
52890	22.954	4.1	0.	115.32
52891	22.905	4.05	0.	114.5
52892	22.905	4.1	5.e-002	3.3952
52893	23.054	4.1	0.	119.76
52894	23.004	4.05	0.	118.9
52895	23.004	4.1	5.e-002	3.4143
52896	23.154	4.1	0.	124.38
52897	23.104	4.05	0.	123.46
52898	23.104	4.1	5.e-002	3.435
52899	23.253	4.1	0.	129.16
52900	23.203	4.05	0.	128.18
52901	23.203	4.1	5.e-002	3.4571
52902	23.353	4.1	0.	134.11
52903	23.303	4.05	0.	133.07
52904	23.303	4.1	5.e-002	3.4808
52905	23.452	4.1	0.	139.23
52906	23.403	4.05	0.	138.13
52907	23.403	4.1	5.e-002	3.5059
52908	23.552	4.1	0.	144.52
52909	23.502	4.05	0.	143.35
52910	23.502	4.1	5.e-002	3.5325
52911	23.651	4.1	0.	149.97
52912	23.602	4.05	0.	148.73
52913	23.602	4.1	5.e-002	3.5604
52914	23.751	4.1	0.	155.59
52915	23.701	4.05	0.	154.27
52916	23.701	4.1	5.e-002	3.5899
52917	23.851	4.1	0.	161.37
52918	23.801	4.05	0.	159.99
52919	23.801	4.1	5.e-002	3.6202
52920	23.9	4.05	0.	165.83
52921	23.9	4.1	5.e-002	3.6753
52922	23.95	4.1	0.	167.14
52923	8.316	4.	0.	2856.6
52924	8.2662	3.95	0.	2699.3
52925	8.2662	4.	5.e-002	1046.6
52926	8.2165	4.	0.	2410.4
52927	8.4156	4.	0.	1332.6
52928	8.3658	3.95	0.	1381.9
52929	8.3658	4.	5.e-002	243.38
52930	8.5152	4.	0.	808.08
52931	8.4654	3.95	0.	848.13
52932	8.4654	4.	5.e-002	159.28
52933	8.6148	4.	0.	495.96
52934	8.565	3.95	0.	527.04
52935	8.565	4.	5.e-002	105.97
52936	8.7144	4.	0.	294.2
52937	8.6646	3.95	0.	315.9
52938	8.6646	4.	5.e-002	79.021
52939	8.8139	4.	0.	154.83
52940	8.7642	3.95	0.	168.85
52941	8.7642	4.	5.e-002	62.071
52942	8.9135	4.	0.	59.795
52943	8.8637	3.95	0.	66.394
52944	8.8637	4.	5.e-002	50.69
52945	9.0131	4.	0.	15.311
52946	8.9633	3.95	0.	15.823
52947	8.9633	4.	5.e-002	42.541
52948	9.1127	4.	0.	6.0331
52949	9.0629	3.95	0.	5.9434
52950	9.0629	4.	5.e-002	36.429
52951	9.2123	4.	0.	3.4089
52952	9.1625	3.95	0.	3.3507
52953	9.1625	4.	5.e-002	31.671
52954	9.3118	4.	0.	2.2532
52955	9.2621	3.95	0.	2.2248
52956	9.2621	4.	5.e-002	27.856
52957	9.4114	4.	0.	1.6184
52958	9.3616	3.95	0.	1.6069
52959	9.3616	4.	5.e-002	24.725
52960	9.511	4.	0.	1.2227
52961	9.4612	3.95	0.	1.2203
52962	9.4612	4.	5.e-002	22.106
52963	9.6106	4.	0.	0.95494
52964	9.5608	3.95	0.	0.9576
52965	9.5608	4.	5.e-002	19.885
52966	9.7102	4.	0.	0.76319
52967	9.6604	3.95	0.	0.76852
52968	9.6604	4.	5.e-002	17.977
52969	9.8097	4.	0.	0.62005
52970	9.76	3.95	0.	0.62668
52971	9.76	4.	5.e-002	16.326
52972	9.9093	4.	0.	0.50983
52973	9.8595	3.95	0.	0.51694
52974	9.8595	4.	5.e-002	14.885
52975	10.009	4.	0.	0.42293
52976	9.9591	3.95	0.	0.43004
52977	9.9591	4.	5.e-002	13.623
52978	10.108	4.	0.	0.35317
52979	10.059	3.95	0.	0.35998
52980	10.059	4.	5.e-002	12.513
52981	10.208	4.	0.	0.2964
52982	10.158	3.95	0.	0.30274
52983	10.158	4.	5.e-002	11.534
52984	10.308	4.	0.	0.24973
52985	10.258	3.95	0.	0.2555
52986	10.258	4.	5.e-002	10.67
52987	10.407	4.	0.	0.21106
52988	10.357	3.95	0.	0.21622
52989	10.357	4.	5.e-002	9.9047
52990	10.507	4.	0.	0.1788
52991	10.457	3.95	0.	0.18339
52992	10.457	4.	5.e-002	9.2278
52993	10.606	4.	0.	0.15177
52994	10.557	3.95	0.	0.15579
52995	10.557	4.	5.e-002	8.6286
52996	10.706	4.	0.	0.12904
52997	10.656	3.95	0.	0.13252
52998	10.656	4.	5.e-002	8.0982
52999	10.806	4.	0.	0.10986
53000	10.756	3.95	0.	0.11286
53001	10.756	4.	5.e-002	7.6287
53002	10.905	4.	0.	9.3658e-002
53003	10.855	3.95	0.	9.6213e-002
53004	10.855	4.	5.e-002	7.2134
53005	11.005	4.	0.	7.9954e-002
53006	10.955	3.95	0.	8.211e-002
53007	10.955	4.	5.e-002	6.8459
53008	11.104	4.	0.	6.8325e-002
53009	11.055	3.95	0.	7.0152e-002
53010	11.055	4.	5.e-002	6.5208
53011	11.204	4.	0.	5.8441e-002
53012	11.154	3.95	0.	5.9957e-002
53013	11.154	4.	5.e-002	6.2333
53014	11.303	4.	0.	5.0058e-002
53015	11.254	3.95	0.	5.1299e-002
53016	11.254	4.	5.e-002	5.9788
53017	11.403	4.	0.	4.2943e-002
53018	11.353	3.95	0.	4.3953e-002
53019	11.353	4.	5.e-002	5.7535
53020	11.503	4.	0.	3.6896e-002
53021	11.453	3.95	0.	3.7705e-002
53022	11.453	4.	5.e-002	5.5539
53023	11.602	4.	0.	3.1756e-002
53024	11.552	3.95	0.	3.2396e-002
53025	11.552	4.	5.e-002	5.3769
53026	11.702	4.	0.	2.7379e-002
53027	11.652	3.95	0.	2.7879e-002
53028	11.652	4.	5.e-002	5.2196
53029	11.801	4.	0.	2.3662e-002
53030	11.752	3.95	0.	2.4031e-002
53031	11.752	4.	5.e-002	5.0797
53032	11.901	4.	0.	2.0491e-002
53033	11.851	3.95	0.	2.0776e-002
53034	11.851	4.	5.e-002	4.955
53035	12.001	4.	0.	1.7855e-002
53036	11.951	3.95	0.	1.803e-002
53037	11.951	4.	5.e-002	4.8436
53038	12.1	4.	0.	1.559e-002
53039	12.05	3.95	0.	1.5695e-002
53040	12.05	4.	5.e-002	4.7438
53041	12.2	4.	0.	1.3669e-002
53042	12.15	3.95	0.	1.3716e-002
53043	12.15	4.	5.e-002	4.6543
53044	12.299	4.	0.	1.2048e-002
53045	12.249	3.95	0.	1.204e-002
53046	12.249	4.	5.e-002	4.5736
53047	12.399	4.	0.	1.0691e-002
53048	12.349	3.95	0.	1.064e-002
53049	12.349	4.	5.e-002	4.5007
53050	12.498	4.	0.	9.5371e-003
53051	12.449	3.95	0.	9.4709e-003
53052	12.449	4.	5.e-002	4.4347
53053	12.598	4.	0.	8.5534e-003
53054	12.548	3.95	0.	8.4599e-003
53055	12.548	4.	5.e-002	4.3747
53056	12.698	4.	0.	7.7369e-003
53057	12.648	3.95	0.	7.6174e-003
53058	12.648	4.	5.e-002	4.3198
53059	12.797	4.	0.	7.0602e-003
53060	12.747	3.95	0.	6.9285e-003
53061	12.747	4.	5.e-002	4.2695
53062	12.897	4.	0.	6.498e-003
53063	12.847	3.95	0.	6.3551e-003
53064	12.847	4.	5.e-002	4.2233
53065	12.996	4.	0.	6.0334e-003
53066	12.947	3.95	0.	5.8858e-003
53067	12.947	4.	5.e-002	4.1807
53068	13.096	4.	0.	5.6459e-003
53069	13.046	3.95	0.	5.4993e-003
53070	13.046	4.	5.e-002	4.1413
53071	13.195	4.	0.	5.3321e-003
53072	13.146	3.95	0.	5.1766e-003
53073	13.146	4.	5.e-002	4.1046
53074	13.295	4.	0.	5.0934e-003
53075	13.245	3.95	0.	4.9315e-003
53076	13.245	4.	5.e-002	4.0704
53077	13.395	4.	0.	4.9101e-003
53078	13.345	3.95	0.	4.7532e-003
53079	13.345	4.	5.e-002	4.0384
53080	13.494	4.	0.	4.7654e-003
53081	13.444	3.95	0.	4.6137e-003
53082	13.444	4.	5.e-002	4.0084
53083	13.594	4.	0.	4.6578e-003
53084	13.544	3.95	0.	4.5085e-003
53085	13.544	4.	5.e-002	3.9802
53086	13.693	4.	0.	4.5838e-003
53087	13.644	3.95	0.	4.4391e-003
53088	13.644	4.	5.e-002	3.9536
53089	13.793	4.	0.	4.542e-003
53090	13.743	3.95	0.	4.3959e-003
53091	13.743	4.	5.e-002	3.9283
53092	13.893	4.	0.	4.5331e-003
53093	13.843	3.95	0.	4.3882e-003
53094	13.843	4.	5.e-002	3.9044
53095	13.992	4.	0.	4.5349e-003
53096	13.942	3.95	0.	4.4089e-003
53097	13.942	4.	5.e-002	3.8817
53098	14.092	4.	0.	4.5431e-003
53099	14.042	3.95	0.	4.4191e-003
53100	14.042	4.	5.e-002	3.8601
53101	14.191	4.	0.	4.5754e-003
53102	14.142	3.95	0.	4.4495e-003
53103	14.142	4.	5.e-002	3.8393
53104	14.291	4.	0.	4.6256e-003
53105	14.241	3.95	0.	4.5054e-003
53106	14.241	4.	5.e-002	3.8194
53107	14.39	4.	0.	4.6876e-003
53108	14.341	3.95	0.	4.5705e-003
53109	14.341	4.	5.e-002	3.8004
53110	14.49	4.	0.	4.7594e-003
53111	14.44	3.95	0.	4.6472e-003
53112	14.44	4.	5.e-002	3.782
53113	14.59	4.	0.	4.8352e-003
53114	14.54	3.95	0.	4.7298e-003
53115	14.54	4.	5.e-002	3.7643
53116	14.689	4.	0.	4.922e-003
53117	14.639	3.95	0.	4.8127e-003
53118	14.639	4.	5.e-002	3.7473
53119	14.789	4.	0.	5.0274e-003
53120	14.739	3.95	0.	4.915e-003
53121	14.739	4.	5.e-002	3.7307
53122	14.888	4.	0.	5.143e-003
53123	14.839	3.95	0.	5.0342e-003
53124	14.839	4.	5.e-002	3.7147
53125	14.988	4.	0.	5.2622e-003
53126	14.938	3.95	0.	5.1543e-003
53127	14.938	4.	5.e-002	3.6993
53128	15.088	4.	0.	5.388e-003
53129	15.038	3.95	0.	5.2784e-003
53130	15.038	4.	5.e-002	3.6843
53131	15.187	4.	0.	5.5278e-003
53132	15.137	3.95	0.	5.4095e-003
53133	15.137	4.	5.e-002	3.6697
53134	15.287	4.	0.	5.6863e-003
53135	15.237	3.95	0.	5.5592e-003
53136	15.237	4.	5.e-002	3.6556
53137	15.386	4.	0.	5.8485e-003
53138	15.336	3.95	0.	5.725e-003
53139	15.336	4.	5.e-002	3.6418
53140	15.486	4.	0.	6.0186e-003
53141	15.436	3.95	0.	5.8777e-003
53142	15.436	4.	5.e-002	3.6285
53143	15.585	4.	0.	6.2179e-003
53144	15.536	3.95	0.	6.0552e-003
53145	15.536	4.	5.e-002	3.6154
53146	15.685	4.	0.	6.4496e-003
53147	15.635	3.95	0.	6.2602e-003
53148	15.635	4.	5.e-002	3.6026
53149	15.785	4.	0.	6.7264e-003
53150	15.735	3.95	0.	6.4958e-003
53151	15.735	4.	5.e-002	3.5902
53152	15.884	4.	0.	7.0721e-003
53153	15.834	3.95	0.	6.779e-003
53154	15.834	4.	5.e-002	3.578
53155	15.984	4.	0.	7.5281e-003
53156	15.934	3.95	0.	7.1315e-003
53157	15.934	4.	5.e-002	3.5661
53158	16.083	4.	0.	8.2067e-003
53159	16.034	3.95	0.	7.6032e-003
53160	16.034	4.	5.e-002	3.5545
53161	16.183	4.	0.	9.4103e-003
53162	16.133	3.95	0.	8.3416e-003
53163	16.133	4.	5.e-002	3.5431
53164	16.282	4.	0.	1.2341e-002
53165	16.233	3.95	0.	9.738e-003
53166	16.233	4.	5.e-002	3.5319
53167	16.382	4.	0.	3.4591e-002
53168	16.332	3.95	0.	1.3807e-002
53169	16.332	4.	5.e-002	3.521
53170	16.482	4.	0.	0.8485
53171	16.432	3.95	0.	0.13704
53172	16.432	4.	5.e-002	3.5104
53173	16.581	4.	0.	1.9424
53174	16.531	3.95	0.	1.2059
53175	16.531	4.	5.e-002	3.5
53176	16.681	4.	0.	3.0195
53177	16.631	3.95	0.	2.3056
53178	16.631	4.	5.e-002	3.4897
53179	16.78	4.	0.	4.0784
53180	16.731	3.95	0.	3.3869
53181	16.731	4.	5.e-002	3.4797
53182	16.88	4.	0.	5.1203
53183	16.83	3.95	0.	4.4502
53184	16.83	4.	5.e-002	3.4699
53185	16.98	4.	0.	6.147
53186	16.93	3.95	0.	5.4971
53187	16.93	4.	5.e-002	3.4604
53188	17.079	4.	0.	7.1603
53189	17.029	3.95	0.	6.5295
53190	17.029	4.	5.e-002	3.451
53191	17.179	4.	0.	8.162
53192	17.129	3.95	0.	7.5492
53193	17.129	4.	5.e-002	3.4417
53194	17.278	4.	0.	9.1539
53195	17.229	3.95	0.	8.5581
53196	17.229	4.	5.e-002	3.4327
53197	17.378	4.	0.	10.138
53198	17.328	3.95	0.	9.5579
53199	17.328	4.	5.e-002	3.4238
53200	17.477	4.	0.	11.116
53201	17.428	3.95	0.	10.551
53202	17.428	4.	5.e-002	3.4151
53203	17.577	4.	0.	12.089
53204	17.527	3.95	0.	11.538
53205	17.527	4.	5.e-002	3.4066
53206	17.677	4.	0.	13.06
53207	17.627	3.95	0.	12.522
53208	17.627	4.	5.e-002	3.3983
53209	17.776	4.	0.	14.03
53210	17.726	3.95	0.	13.504
53211	17.726	4.	5.e-002	3.3902
53212	17.876	4.	0.	15.001
53213	17.826	3.95	0.	14.486
53214	17.826	4.	5.e-002	3.3822
53215	17.975	4.	0.	15.975
53216	17.926	3.95	0.	15.47
53217	17.926	4.	5.e-002	3.3744
53218	18.075	4.	0.	16.953
53219	18.025	3.95	0.	16.458
53220	18.025	4.	5.e-002	3.3669
53221	18.175	4.	0.	17.937
53222	18.125	3.95	0.	17.451
53223	18.125	4.	5.e-002	3.3595
53224	18.274	4.	0.	18.93
53225	18.224	3.95	0.	18.451
53226	18.224	4.	5.e-002	3.3523
53227	18.374	4.	0.	19.932
53228	18.324	3.95	0.	19.461
53229	18.324	4.	5.e-002	3.3453
53230	18.473	4.	0.	20.946
53231	18.423	3.95	0.	20.481
53232	18.423	4.	5.e-002	3.3384
53233	18.573	4.	0.	21.973
53234	18.523	3.95	0.	21.515
53235	18.523	4.	5.e-002	3.3318
53236	18.672	4.	0.	23.016
53237	18.623	3.95	0.	22.563
53238	18.623	4.	5.e-002	3.3253
53239	18.772	4.	0.	24.076
53240	18.722	3.95	0.	23.628
53241	18.722	4.	5.e-002	3.3191
53242	18.872	4.	0.	25.155
53243	18.822	3.95	0.	24.711
53244	18.822	4.	5.e-002	3.313
53245	18.971	4.	0.	26.255
53246	18.921	3.95	0.	25.814
53247	18.921	4.	5.e-002	3.3072
53248	19.071	4.	0.	27.379
53249	19.021	3.95	0.	26.941
53250	19.021	4.	5.e-002	3.3015
53251	19.17	4.	0.	28.527
53252	19.121	3.95	0.	28.091
53253	19.121	4.	5.e-002	3.2961
53254	19.27	4.	0.	29.703
53255	19.22	3.95	0.	29.269
53256	19.22	4.	5.e-002	3.2909
53257	19.369	4.	0.	30.908
53258	19.32	3.95	0.	30.475
53259	19.32	4.	5.e-002	3.2859
53260	19.469	4.	0.	32.144
53261	19.419	3.95	0.	31.712
53262	19.419	4.	5.e-002	3.2812
53263	19.569	4.	0.	33.415
53264	19.519	3.95	0.	32.982
53265	19.519	4.	5.e-002	3.2767
53266	19.668	4.	0.	34.721
53267	19.618	3.95	0.	34.288
53268	19.618	4.	5.e-002	3.2725
53269	19.768	4.	0.	36.065
53270	19.718	3.95	0.	35.631
53271	19.718	4.	5.e-002	3.2686
53272	19.867	4.	0.	37.45
53273	19.818	3.95	0.	37.015
53274	19.818	4.	5.e-002	3.2649
53275	19.967	4.	0.	38.879
53276	19.917	3.95	0.	38.441
53277	19.917	4.	5.e-002	3.2615
53278	20.067	4.	0.	40.353
53279	20.017	3.95	0.	39.913
53280	20.017	4.	5.e-002	3.2584
53281	20.166	4.	0.	41.876
53282	20.116	3.95	0.	41.432
53283	20.116	4.	5.e-002	3.2556
53284	20.266	4.	0.	43.449
53285	20.216	3.95	0.	43.002
53286	20.216	4.	5.e-002	3.2532
53287	20.365	4.	0.	45.077
53288	20.316	3.95	0.	44.625
53289	20.316	4.	5.e-002	3.251
53290	20.465	4.	0.	46.762
53291	20.415	3.95	0.	46.305
53292	20.415	4.	5.e-002	3.2492
53293	20.564	4.	0.	48.506
53294	20.515	3.95	0.	48.044
53295	20.515	4.	5.e-002	3.2478
53296	20.664	4.	0.	50.314
53297	20.614	3.95	0.	49.845
53298	20.614	4.	5.e-002	3.2468
53299	20.764	4.	0.	52.187
53300	20.714	3.95	0.	51.712
53301	20.714	4.	5.e-002	3.2462
53302	20.863	4.	0.	54.13
53303	20.813	3.95	0.	53.647
53304	20.813	4.	5.e-002	3.2461
53305	20.963	4.	0.	56.146
53306	20.913	3.95	0.	55.655
53307	20.913	4.	5.e-002	3.2464
53308	21.062	4.	0.	58.239
53309	21.013	3.95	0.	57.738
53310	21.013	4.	5.e-002	3.2471
53311	21.162	4.	0.	60.412
53312	21.112	3.95	0.	59.901
53313	21.112	4.	5.e-002	3.2484
53314	21.262	4.	0.	62.669
53315	21.212	3.95	0.	62.147
53316	21.212	4.	5.e-002	3.2503
53317	21.361	4.	0.	65.014
53318	21.311	3.95	0.	64.48
53319	21.311	4.	5.e-002	3.2526
53320	21.461	4.	0.	67.451
53321	21.411	3.95	0.	66.903
53322	21.411	4.	5.e-002	3.2556
53323	21.56	4.	0.	69.984
53324	21.51	3.95	0.	69.422
53325	21.51	4.	5.e-002	3.2592
53326	21.66	4.	0.	72.618
53327	21.61	3.95	0.	72.04
53328	21.61	4.	5.e-002	3.2635
53329	21.759	4.	0.	75.357
53330	21.71	3.95	0.	74.761
53331	21.71	4.	5.e-002	3.2685
53332	21.859	4.	0.	78.205
53333	21.809	3.95	0.	77.591
53334	21.809	4.	5.e-002	3.2743
53335	21.959	4.	0.	81.168
53336	21.909	3.95	0.	80.532
53337	21.909	4.	5.e-002	3.2808
53338	22.058	4.	0.	84.249
53339	22.008	3.95	0.	83.591
53340	22.008	4.	5.e-002	3.2882
53341	22.158	4.	0.	87.454
53342	22.108	3.95	0.	86.771
53343	22.108	4.	5.e-002	3.2965
53344	22.257	4.	0.	90.787
53345	22.208	3.95	0.	90.076
53346	22.208	4.	5.e-002	3.3058
53347	22.357	4.	0.	94.254
53348	22.307	3.95	0.	93.512
53349	22.307	4.	5.e-002	3.3161
53350	22.456	4.	0.	97.857
53351	22.407	3.95	0.	97.083
53352	22.407	4.	5.e-002	3.3274
53353	22.556	4.	0.	101.6
53354	22.506	3.95	0.	100.79
53355	22.506	4.	5.e-002	3.3399
53356	22.656	4.	0.	105.5
53357	22.606	3.95	0.	104.65
53358	22.606	4.	5.e-002	3.3536
53359	22.755	4.	0.	109.54
53360	22.705	3.95	0.	108.65
53361	22.705	4.	5.e-002	3.3685
53362	22.855	4.	0.	113.73
53363	22.805	3.95	0.	112.8
53364	22.805	4.	5.e-002	3.3847
53365	22.954	4.	0.	118.08
53366	22.905	3.95	0.	117.1
53367	22.905	4.	5.e-002	3.4023
53368	23.054	4.	0.	122.59
53369	23.004	3.95	0.	121.56
53370	23.004	4.	5.e-002	3.4212
53371	23.154	4.	0.	127.26
53372	23.104	3.95	0.	126.17
53373	23.104	4.	5.e-002	3.4415
53374	23.253	4.	0.	132.1
53375	23.203	3.95	0.	130.95
53376	23.203	4.	5.e-002	3.4632
53377	23.353	4.	0.	137.09
53378	23.303	3.95	0.	135.88
53379	23.303	4.	5.e-002	3.4863
53380	23.452	4.	0.	142.25
53381	23.403	3.95	0.	140.97
53382	23.403	4.	5.e-002	3.5108
53383	23.552	4.	0.	147.56
53384	23.502	3.95	0.	146.22
53385	23.502	4.	5.e-002	3.5366
53386	23.651	4.	0.	153.03
53387	23.602	3.95	0.	151.63
53388	23.602	4.	5.e-002	3.5636
53389	23.751	4.	0.	158.67
53390	23.701	3.95	0.	157.19
53391	23.701	4.	5.e-002	3.592
53392	23.851	4.	0.	164.45
53393	23.801	3.95	0.	162.91
53394	23.801	4.	5.e-002	3.621
53395	23.9	3.95	0.	168.75
53396	23.9	4.	5.e-002	3.6718
53397	23.95	4.	0.	170.27
53398	8.316	3.9	0.	1379.6
53399	8.2662	3.85	0.	1405.
53400	8.2662	3.9	5.e-002	514.89
53401	8.4156	3.9	0.	925.08
53402	8.3658	3.85	0.	995.79
53403	8.3658	3.9	5.e-002	285.3
53404	8.5152	3.9	0.	574.19
53405	8.4654	3.85	0.	635.8
53406	8.4654	3.9	5.e-002	156.06
53407	8.6148	3.9	0.	348.85
53408	8.565	3.85	0.	395.
53409	8.565	3.9	5.e-002	108.36
53410	8.7144	3.9	0.	190.18
53411	8.6646	3.85	0.	222.44
53412	8.6646	3.9	5.e-002	80.48
53413	8.8139	3.9	0.	78.056
53414	8.7642	3.85	0.	97.869
53415	8.7642	3.9	5.e-002	63.388
53416	8.9135	3.9	0.	17.362
53417	8.8637	3.85	0.	20.845
53418	8.8637	3.9	5.e-002	51.881
53419	9.0131	3.9	0.	5.9847
53420	8.9633	3.85	0.	5.9071
53421	8.9633	3.9	5.e-002	43.646
53422	9.1127	3.9	0.	3.3425
53423	9.0629	3.85	0.	3.2504
53424	9.0629	3.9	5.e-002	37.46
53425	9.2123	3.9	0.	2.2271
53426	9.1625	3.85	0.	2.1819
53427	9.1625	3.9	5.e-002	32.635
53428	9.3118	3.9	0.	1.6159
53429	9.2621	3.85	0.	1.5972
53430	9.2621	3.9	5.e-002	28.756
53431	9.4114	3.9	0.	1.2328
53432	9.3616	3.85	0.	1.2282
53433	9.3616	3.9	5.e-002	25.563
53434	9.511	3.9	0.	0.97145
53435	9.4612	3.85	0.	0.97415
53436	9.4612	3.9	5.e-002	22.885
53437	9.6106	3.9	0.	0.78259
53438	9.5608	3.85	0.	0.78908
53439	9.5608	3.9	5.e-002	20.606
53440	9.7102	3.9	0.	0.6403
53441	9.6604	3.85	0.	0.64856
53442	9.6604	3.9	5.e-002	18.644
53443	9.8097	3.9	0.	0.52975
53444	9.76	3.85	0.	0.53861
53445	9.76	3.9	5.e-002	16.942
53446	9.9093	3.9	0.	0.44185
53447	9.8595	3.85	0.	0.45064
53448	9.8595	3.9	5.e-002	15.454
53449	10.009	3.9	0.	0.37071
53450	9.9591	3.85	0.	0.37906
53451	9.9591	3.9	5.e-002	14.148
53452	10.108	3.9	0.	0.31237
53453	10.059	3.85	0.	0.32008
53454	10.059	3.9	5.e-002	12.997
53455	10.208	3.9	0.	0.26405
53456	10.158	3.85	0.	0.27102
53457	10.158	3.9	5.e-002	11.98
53458	10.308	3.9	0.	0.22375
53459	10.258	3.85	0.	0.22994
53460	10.258	3.9	5.e-002	11.081
53461	10.407	3.9	0.	0.18996
53462	10.357	3.85	0.	0.19539
53463	10.357	3.9	5.e-002	10.284
53464	10.507	3.9	0.	0.1615
53465	10.457	3.85	0.	0.16623
53466	10.457	3.9	5.e-002	9.5773
53467	10.606	3.9	0.	0.13745
53468	10.557	3.85	0.	0.14153
53469	10.557	3.9	5.e-002	8.9507
53470	10.706	3.9	0.	0.11708
53471	10.656	3.85	0.	0.12057
53472	10.656	3.9	5.e-002	8.3949
53473	10.806	3.9	0.	9.9809e-002
53474	10.756	3.85	0.	0.10277
53475	10.756	3.9	5.e-002	7.9018
53476	10.905	3.9	0.	8.5148e-002
53477	10.855	3.85	0.	8.7638e-002
53478	10.855	3.9	5.e-002	7.4643
53479	11.005	3.9	0.	7.2702e-002
53480	10.955	3.85	0.	7.4777e-002
53481	10.955	3.9	5.e-002	7.0763
53482	11.104	3.9	0.	6.2107e-002
53483	11.055	3.85	0.	6.3845e-002
53484	11.055	3.9	5.e-002	6.7321
53485	11.204	3.9	0.	5.3081e-002
53486	11.154	3.85	0.	5.4503e-002
53487	11.154	3.9	5.e-002	6.4267
53488	11.303	3.9	0.	4.5412e-002
53489	11.254	3.85	0.	4.656e-002
53490	11.254	3.9	5.e-002	6.1556
53491	11.403	3.9	0.	3.8896e-002
53492	11.353	3.85	0.	3.9817e-002
53493	11.353	3.9	5.e-002	5.9148
53494	11.503	3.9	0.	3.3355e-002
53495	11.453	3.85	0.	3.4079e-002
53496	11.453	3.9	5.e-002	5.7009
53497	11.602	3.9	0.	2.8643e-002
53498	11.552	3.85	0.	2.9204e-002
53499	11.552	3.9	5.e-002	5.5106
53500	11.702	3.9	0.	2.4634e-002
53501	11.652	3.85	0.	2.5059e-002
53502	11.652	3.9	5.e-002	5.3411
53503	11.801	3.9	0.	2.1231e-002
53504	11.752	3.85	0.	2.1532e-002
53505	11.752	3.9	5.e-002	5.1899
53506	11.901	3.9	0.	1.8359e-002
53507	11.851	3.85	0.	1.8556e-002
53508	11.851	3.9	5.e-002	5.0548
53509	12.001	3.9	0.	1.593e-002
53510	11.951	3.85	0.	1.605e-002
53511	11.951	3.9	5.e-002	4.9339
53512	12.1	3.9	0.	1.3871e-002
53513	12.05	3.85	0.	1.3926e-002
53514	12.05	3.9	5.e-002	4.8255
53515	12.2	3.9	0.	1.2129e-002
53516	12.15	3.85	0.	1.213e-002
53517	12.15	3.9	5.e-002	4.728
53518	12.299	3.9	0.	1.0667e-002
53519	12.249	3.85	0.	1.0618e-002
53520	12.249	3.9	5.e-002	4.6401
53521	12.399	3.9	0.	9.4493e-003
53522	12.349	3.85	0.	9.3616e-003
53523	12.349	3.9	5.e-002	4.5607
53524	12.498	3.9	0.	8.4192e-003
53525	12.449	3.85	0.	8.3196e-003
53526	12.449	3.9	5.e-002	4.4887
53527	12.598	3.9	0.	7.5455e-003
53528	12.548	3.85	0.	7.4223e-003
53529	12.548	3.9	5.e-002	4.4234
53530	12.698	3.9	0.	6.8271e-003
53531	12.648	3.85	0.	6.6817e-003
53532	12.648	3.9	5.e-002	4.3637
53533	12.797	3.9	0.	6.2387e-003
53534	12.747	3.85	0.	6.0839e-003
53535	12.747	3.9	5.e-002	4.3091
53536	12.897	3.9	0.	5.7558e-003
53537	12.847	3.85	0.	5.5904e-003
53538	12.847	3.9	5.e-002	4.2589
53539	12.996	3.9	0.	5.3625e-003
53540	12.947	3.85	0.	5.1961e-003
53541	12.947	3.9	5.e-002	4.2128
53542	13.096	3.9	0.	5.0391e-003
53543	13.046	3.85	0.	4.8752e-003
53544	13.046	3.9	5.e-002	4.1702
53545	13.195	3.9	0.	4.7835e-003
53546	13.146	3.85	0.	4.6123e-003
53547	13.146	3.9	5.e-002	4.1307
53548	13.295	3.9	0.	4.5975e-003
53549	13.245	3.85	0.	4.4216e-003
53550	13.245	3.9	5.e-002	4.0939
53551	13.395	3.9	0.	4.4619e-003
53552	13.345	3.85	0.	4.292e-003
53553	13.345	3.9	5.e-002	4.0596
53554	13.494	3.9	0.	4.3609e-003
53555	13.444	3.85	0.	4.1973e-003
53556	13.444	3.9	5.e-002	4.0276
53557	13.594	3.9	0.	4.293e-003
53558	13.544	3.85	0.	4.1323e-003
53559	13.544	3.9	5.e-002	3.9975
53560	13.693	3.9	0.	4.2537e-003
53561	13.644	3.85	0.	4.0997e-003
53562	13.644	3.9	5.e-002	3.9693
53563	13.793	3.9	0.	4.2439e-003
53564	13.743	3.85	0.	4.0891e-003
53565	13.743	3.9	5.e-002	3.9426
53566	13.893	3.9	0.	4.2652e-003
53567	13.843	3.85	0.	4.1124e-003
53568	13.843	3.9	5.e-002	3.9173
53569	13.992	3.9	0.	4.2939e-003
53570	13.942	3.85	0.	4.1598e-003
53571	13.942	3.9	5.e-002	3.8934
53572	14.092	3.9	0.	4.3259e-003
53573	14.042	3.85	0.	4.1952e-003
53574	14.042	3.9	5.e-002	3.8708
53575	14.191	3.9	0.	4.3794e-003
53576	14.142	3.85	0.	4.2485e-003
53577	14.142	3.9	5.e-002	3.849
53578	14.291	3.9	0.	4.4498e-003
53579	14.241	3.85	0.	4.3245e-003
53580	14.241	3.9	5.e-002	3.8283
53581	14.39	3.9	0.	4.5293e-003
53582	14.341	3.85	0.	4.4078e-003
53583	14.341	3.9	5.e-002	3.8085
53584	14.49	3.9	0.	4.6166e-003
53585	14.44	3.85	0.	4.5003e-003
53586	14.44	3.9	5.e-002	3.7894
53587	14.59	3.9	0.	4.706e-003
53588	14.54	3.85	0.	4.5978e-003
53589	14.54	3.9	5.e-002	3.7712
53590	14.689	3.9	0.	4.8042e-003
53591	14.639	3.85	0.	4.693e-003
53592	14.639	3.9	5.e-002	3.7535
53593	14.789	3.9	0.	4.9201e-003
53594	14.739	3.85	0.	4.8057e-003
53595	14.739	3.9	5.e-002	3.7365
53596	14.888	3.9	0.	5.0437e-003
53597	14.839	3.85	0.	4.9342e-003
53598	14.839	3.9	5.e-002	3.7201
53599	14.988	3.9	0.	5.1685e-003
53600	14.938	3.85	0.	5.0608e-003
53601	14.938	3.9	5.e-002	3.7042
53602	15.088	3.9	0.	5.2977e-003
53603	15.038	3.85	0.	5.1905e-003
53604	15.038	3.9	5.e-002	3.6889
53605	15.187	3.9	0.	5.4385e-003
53606	15.137	3.85	0.	5.3242e-003
53607	15.137	3.9	5.e-002	3.674
53608	15.287	3.9	0.	5.5954e-003
53609	15.237	3.85	0.	5.4746e-003
53610	15.237	3.9	5.e-002	3.6595
53611	15.386	3.9	0.	5.7515e-003
53612	15.336	3.85	0.	5.6375e-003
53613	15.336	3.9	5.e-002	3.6456
53614	15.486	3.9	0.	5.9113e-003
53615	15.436	3.85	0.	5.7838e-003
53616	15.436	3.9	5.e-002	3.632
53617	15.585	3.9	0.	6.0939e-003
53618	15.536	3.85	0.	5.9508e-003
53619	15.536	3.9	5.e-002	3.6187
53620	15.685	3.9	0.	6.3016e-003
53621	15.635	3.85	0.	6.1383e-003
53622	15.635	3.9	5.e-002	3.6057
53623	15.785	3.9	0.	6.5414e-003
53624	15.735	3.85	0.	6.3482e-003
53625	15.735	3.9	5.e-002	3.5931
53626	15.884	3.9	0.	6.8268e-003
53627	15.834	3.85	0.	6.592e-003
53628	15.834	3.9	5.e-002	3.5808
53629	15.984	3.9	0.	7.1839e-003
53630	15.934	3.85	0.	6.8812e-003
53631	15.934	3.9	5.e-002	3.5687
53632	16.083	3.9	0.	7.6838e-003
53633	16.034	3.85	0.	7.2458e-003
53634	16.034	3.9	5.e-002	3.557
53635	16.183	3.9	0.	8.4945e-003
53636	16.133	3.85	0.	7.7825e-003
53637	16.133	3.9	5.e-002	3.5455
53638	16.282	3.9	0.	1.0159e-002
53639	16.233	3.85	0.	8.695e-003
53640	16.233	3.9	5.e-002	3.5342
53641	16.382	3.9	0.	1.6693e-002
53642	16.332	3.85	0.	1.0829e-002
53643	16.332	3.9	5.e-002	3.5232
53644	16.482	3.9	0.	0.45919
53645	16.432	3.85	0.	2.6344e-002
53646	16.432	3.9	5.e-002	3.5125
53647	16.581	3.9	0.	1.576
53648	16.531	3.85	0.	0.84556
53649	16.531	3.9	5.e-002	3.502
53650	16.681	3.9	0.	2.6808
53651	16.631	3.85	0.	1.9709
53652	16.631	3.9	5.e-002	3.4917
53653	16.78	3.9	0.	3.7669
53654	16.731	3.85	0.	3.0784
53655	16.731	3.9	5.e-002	3.4816
53656	16.88	3.9	0.	4.8354
53657	16.83	3.85	0.	4.1674
53658	16.83	3.9	5.e-002	3.4718
53659	16.98	3.9	0.	5.8881
53660	16.93	3.85	0.	5.2394
53661	16.93	3.9	5.e-002	3.4622
53662	17.079	3.9	0.	6.927
53663	17.029	3.85	0.	6.2964
53664	17.029	3.9	5.e-002	3.4527
53665	17.179	3.9	0.	7.954
53666	17.129	3.85	0.	7.3403
53667	17.129	3.9	5.e-002	3.4434
53668	17.278	3.9	0.	8.9708
53669	17.229	3.85	0.	8.373
53670	17.229	3.9	5.e-002	3.4344
53671	17.378	3.9	0.	9.9795
53672	17.328	3.85	0.	9.3965
53673	17.328	3.9	5.e-002	3.4255
53674	17.477	3.9	0.	10.982
53675	17.428	3.85	0.	10.413
53676	17.428	3.9	5.e-002	3.4168
53677	17.577	3.9	0.	11.98
53678	17.527	3.85	0.	11.423
53679	17.527	3.9	5.e-002	3.4082
53680	17.677	3.9	0.	12.975
53681	17.627	3.85	0.	12.43
53682	17.627	3.9	5.e-002	3.3999
53683	17.776	3.9	0.	13.969
53684	17.726	3.85	0.	13.435
53685	17.726	3.9	5.e-002	3.3917
53686	17.876	3.9	0.	14.964
53687	17.826	3.85	0.	14.441
53688	17.826	3.9	5.e-002	3.3838
53689	17.975	3.9	0.	15.963
53690	17.926	3.85	0.	15.448
53691	17.926	3.9	5.e-002	3.376
53692	18.075	3.9	0.	16.965
53693	18.025	3.85	0.	16.459
53694	18.025	3.9	5.e-002	3.3684
53695	18.175	3.9	0.	17.975
53696	18.125	3.85	0.	17.476
53697	18.125	3.9	5.e-002	3.3611
53698	18.274	3.9	0.	18.993
53699	18.224	3.85	0.	18.5
53700	18.224	3.9	5.e-002	3.3539
53701	18.374	3.9	0.	20.02
53702	18.324	3.85	0.	19.534
53703	18.324	3.9	5.e-002	3.3469
53704	18.473	3.9	0.	21.061
53705	18.423	3.85	0.	20.579
53706	18.423	3.9	5.e-002	3.3401
53707	18.573	3.9	0.	22.115
53708	18.523	3.85	0.	21.638
53709	18.523	3.9	5.e-002	3.3334
53710	18.672	3.9	0.	23.185
53711	18.623	3.85	0.	22.712
53712	18.623	3.9	5.e-002	3.327
53713	18.772	3.9	0.	24.273
53714	18.722	3.85	0.	23.803
53715	18.722	3.9	5.e-002	3.3208
53716	18.872	3.9	0.	25.38
53717	18.822	3.85	0.	24.913
53718	18.822	3.9	5.e-002	3.3147
53719	18.971	3.9	0.	26.51
53720	18.921	3.85	0.	26.044
53721	18.921	3.9	5.e-002	3.3089
53722	19.071	3.9	0.	27.664
53723	19.021	3.85	0.	27.199
53724	19.021	3.9	5.e-002	3.3033
53725	19.17	3.9	0.	28.843
53726	19.121	3.85	0.	28.379
53727	19.121	3.9	5.e-002	3.2979
53728	19.27	3.9	0.	30.051
53729	19.22	3.85	0.	29.586
53730	19.22	3.9	5.e-002	3.2928
53731	19.369	3.9	0.	31.289
53732	19.32	3.85	0.	30.823
53733	19.32	3.9	5.e-002	3.2878
53734	19.469	3.9	0.	32.56
53735	19.419	3.85	0.	32.093
53736	19.419	3.9	5.e-002	3.2832
53737	19.569	3.9	0.	33.866
53738	19.519	3.85	0.	33.396
53739	19.519	3.9	5.e-002	3.2788
53740	19.668	3.9	0.	35.209
53741	19.618	3.85	0.	34.736
53742	19.618	3.9	5.e-002	3.2746
53743	19.768	3.9	0.	36.591
53744	19.718	3.85	0.	36.115
53745	19.718	3.9	5.e-002	3.2707
53746	19.867	3.9	0.	38.016
53747	19.818	3.85	0.	37.536
53748	19.818	3.9	5.e-002	3.2672
53749	19.967	3.9	0.	39.486
53750	19.917	3.85	0.	39.
53751	19.917	3.9	5.e-002	3.2638
53752	20.067	3.9	0.	41.002
53753	20.017	3.85	0.	40.512
53754	20.017	3.9	5.e-002	3.2608
53755	20.166	3.9	0.	42.569
53756	20.116	3.85	0.	42.072
53757	20.116	3.9	5.e-002	3.2581
53758	20.266	3.9	0.	44.189
53759	20.216	3.85	0.	43.685
53760	20.216	3.9	5.e-002	3.2558
53761	20.365	3.9	0.	45.864
53762	20.316	3.85	0.	45.353
53763	20.316	3.9	5.e-002	3.2538
53764	20.465	3.9	0.	47.598
53765	20.415	3.85	0.	47.079
53766	20.415	3.9	5.e-002	3.2521
53767	20.564	3.9	0.	49.393
53768	20.515	3.85	0.	48.865
53769	20.515	3.9	5.e-002	3.2508
53770	20.664	3.9	0.	51.254
53771	20.614	3.85	0.	50.716
53772	20.614	3.9	5.e-002	3.2499
53773	20.764	3.9	0.	53.182
53774	20.714	3.85	0.	52.634
53775	20.714	3.9	5.e-002	3.2494
53776	20.863	3.9	0.	55.183
53777	20.813	3.85	0.	54.623
53778	20.813	3.9	5.e-002	3.2494
53779	20.963	3.9	0.	57.258
53780	20.913	3.85	0.	56.686
53781	20.913	3.9	5.e-002	3.2499
53782	21.062	3.9	0.	59.411
53783	21.013	3.85	0.	58.826
53784	21.013	3.9	5.e-002	3.2508
53785	21.162	3.9	0.	61.647
53786	21.112	3.85	0.	61.047
53787	21.112	3.9	5.e-002	3.2522
53788	21.262	3.9	0.	63.968
53789	21.212	3.85	0.	63.354
53790	21.212	3.9	5.e-002	3.2542
53791	21.361	3.9	0.	66.38
53792	21.311	3.85	0.	65.748
53793	21.311	3.9	5.e-002	3.2568
53794	21.461	3.9	0.	68.885
53795	21.411	3.85	0.	68.236
53796	21.411	3.9	5.e-002	3.26
53797	21.56	3.9	0.	71.488
53798	21.51	3.85	0.	70.82
53799	21.51	3.9	5.e-002	3.2638
53800	21.66	3.9	0.	74.193
53801	21.61	3.85	0.	73.505
53802	21.61	3.9	5.e-002	3.2683
53803	21.759	3.9	0.	77.005
53804	21.71	3.85	0.	76.294
53805	21.71	3.9	5.e-002	3.2735
53806	21.859	3.9	0.	79.927
53807	21.809	3.85	0.	79.193
53808	21.809	3.9	5.e-002	3.2794
53809	21.959	3.9	0.	82.964
53810	21.909	3.85	0.	82.204
53811	21.909	3.9	5.e-002	3.2861
53812	22.058	3.9	0.	86.121
53813	22.008	3.85	0.	85.333
53814	22.008	3.9	5.e-002	3.2937
53815	22.158	3.9	0.	89.401
53816	22.108	3.85	0.	88.584
53817	22.108	3.9	5.e-002	3.3022
53818	22.257	3.9	0.	92.809
53819	22.208	3.85	0.	91.96
53820	22.208	3.9	5.e-002	3.3117
53821	22.357	3.9	0.	96.35
53822	22.307	3.85	0.	95.466
53823	22.307	3.9	5.e-002	3.3221
53824	22.456	3.9	0.	100.03
53825	22.407	3.85	0.	99.106
53826	22.407	3.9	5.e-002	3.3336
53827	22.556	3.9	0.	103.84
53828	22.506	3.85	0.	102.88
53829	22.506	3.9	5.e-002	3.3462
53830	22.656	3.9	0.	107.8
53831	22.606	3.85	0.	106.8
53832	22.606	3.9	5.e-002	3.3599
53833	22.755	3.9	0.	111.91
53834	22.705	3.85	0.	110.86
53835	22.705	3.9	5.e-002	3.3748
53836	22.855	3.9	0.	116.17
53837	22.805	3.85	0.	115.07
53838	22.805	3.9	5.e-002	3.391
53839	22.954	3.9	0.	120.58
53840	22.905	3.85	0.	119.43
53841	22.905	3.9	5.e-002	3.4084
53842	23.054	3.9	0.	125.14
53843	23.004	3.85	0.	123.94
53844	23.004	3.9	5.e-002	3.4271
53845	23.154	3.9	0.	129.86
53846	23.104	3.85	0.	128.6
53847	23.104	3.9	5.e-002	3.4471
53848	23.253	3.9	0.	134.73
53849	23.203	3.85	0.	133.42
53850	23.203	3.9	5.e-002	3.4685
53851	23.353	3.9	0.	139.76
53852	23.303	3.85	0.	138.39
53853	23.303	3.9	5.e-002	3.4911
53854	23.452	3.9	0.	144.95
53855	23.403	3.85	0.	143.51
53856	23.403	3.9	5.e-002	3.515
53857	23.552	3.9	0.	150.29
53858	23.502	3.85	0.	148.79
53859	23.502	3.9	5.e-002	3.5401
53860	23.651	3.9	0.	155.78
53861	23.602	3.85	0.	154.21
53862	23.602	3.9	5.e-002	3.5663
53863	23.751	3.9	0.	161.43
53864	23.701	3.85	0.	159.78
53865	23.701	3.9	5.e-002	3.5937
53866	23.851	3.9	0.	167.21
53867	23.801	3.85	0.	165.52
53868	23.801	3.9	5.e-002	3.6216
53869	23.9	3.85	0.	171.36
53870	23.9	3.9	5.e-002	3.6687
53871	23.95	3.9	0.	173.07
53872	8.316	3.8	0.	1040.5
53873	8.2662	3.75	0.	1146.5
53874	8.2662	3.8	5.e-002	279.25
53875	8.4156	3.8	0.	729.36
53876	8.3658	3.75	0.	840.35
53877	8.3658	3.8	5.e-002	206.96
53878	8.5152	3.8	0.	467.27
53879	8.4654	3.75	0.	560.29
53880	8.4654	3.8	5.e-002	144.36
53881	8.6148	3.8	0.	272.64
53882	8.565	3.75	0.	342.93
53883	8.565	3.8	5.e-002	102.95
53884	8.7144	3.8	0.	130.56
53885	8.6646	3.75	0.	180.87
53886	8.6646	3.8	5.e-002	78.742
53887	8.8139	3.8	0.	31.468
53888	8.7642	3.75	0.	60.754
53889	8.7642	3.8	5.e-002	62.943
53890	8.9135	3.8	0.	5.9201
53891	8.8637	3.75	0.	6.489
53892	8.8637	3.8	5.e-002	52.07
53893	9.0131	3.8	0.	3.1753
53894	8.9633	3.75	0.	3.0921
53895	8.9633	3.8	5.e-002	44.146
53896	9.1127	3.8	0.	2.153
53897	9.0629	3.75	0.	2.1088
53898	9.0629	3.8	5.e-002	38.114
53899	9.2123	3.8	0.	1.5937
53900	9.1625	3.75	0.	1.5794
53901	9.1625	3.8	5.e-002	33.355
53902	9.3118	3.8	0.	1.2362
53903	9.2621	3.75	0.	1.2372
53904	9.2621	3.8	5.e-002	29.492
53905	9.4114	3.8	0.	0.98736
53906	9.3616	3.75	0.	0.99599
53907	9.3616	3.8	5.e-002	26.286
53908	9.511	3.8	0.	0.80423
53909	9.4612	3.75	0.	0.81628
53910	9.4612	3.8	5.e-002	23.579
53911	9.6106	3.8	0.	0.66403
53912	9.5608	3.75	0.	0.67727
53913	9.5608	3.8	5.e-002	21.261
53914	9.7102	3.8	0.	0.55353
53915	9.6604	3.75	0.	0.56674
53916	9.6604	3.8	5.e-002	19.257
53917	9.8097	3.8	0.	0.46454
53918	9.76	3.75	0.	0.47707
53919	9.76	3.8	5.e-002	17.511
53920	9.9093	3.8	0.	0.39174
53921	9.8595	3.75	0.	0.40325
53922	9.8595	3.8	5.e-002	15.98
53923	10.009	3.8	0.	0.33147
53924	9.9591	3.75	0.	0.34183
53925	9.9591	3.8	5.e-002	14.633
53926	10.108	3.8	0.	0.28112
53927	10.059	3.75	0.	0.2903
53928	10.059	3.8	5.e-002	13.444
53929	10.208	3.8	0.	0.23881
53930	10.158	3.75	0.	0.24685
53931	10.158	3.8	5.e-002	12.392
53932	10.308	3.8	0.	0.20311
53933	10.258	3.75	0.	0.21007
53934	10.258	3.8	5.e-002	11.459
53935	10.407	3.8	0.	0.1729
53936	10.357	3.75	0.	0.17887
53937	10.357	3.8	5.e-002	10.632
53938	10.507	3.8	0.	0.14726
53939	10.457	3.75	0.	0.15237
53940	10.457	3.8	5.e-002	9.8971
53941	10.606	3.8	0.	0.12547
53942	10.557	3.75	0.	0.1298
53943	10.557	3.8	5.e-002	9.2446
53944	10.706	3.8	0.	0.10693
53945	10.656	3.75	0.	0.11058
53946	10.656	3.8	5.e-002	8.6649
53947	10.806	3.8	0.	9.1147e-002
53948	10.756	3.75	0.	9.4208e-002
53949	10.756	3.8	5.e-002	8.1497
53950	10.905	3.8	0.	7.7714e-002
53951	10.855	3.75	0.	8.0252e-002
53952	10.855	3.8	5.e-002	7.6919
53953	11.005	3.8	0.	6.6287e-002
53954	10.955	3.75	0.	6.8378e-002
53955	10.955	3.8	5.e-002	7.285
53956	11.104	3.8	0.	5.6544e-002
53957	11.055	3.75	0.	5.8275e-002
53958	11.055	3.8	5.e-002	6.9233
53959	11.204	3.8	0.	4.8235e-002
53960	11.154	3.75	0.	4.9636e-002
53961	11.154	3.8	5.e-002	6.6017
53962	11.303	3.8	0.	4.1173e-002
53963	11.254	3.75	0.	4.2291e-002
53964	11.254	3.8	5.e-002	6.3155
53965	11.403	3.8	0.	3.5173e-002
53966	11.353	3.75	0.	3.6058e-002
53967	11.353	3.8	5.e-002	6.0608
53968	11.503	3.8	0.	3.0073e-002
53969	11.453	3.75	0.	3.076e-002
53970	11.453	3.8	5.e-002	5.8339
53971	11.602	3.8	0.	2.5742e-002
53972	11.552	3.75	0.	2.6265e-002
53973	11.552	3.8	5.e-002	5.6317
53974	11.702	3.8	0.	2.206e-002
53975	11.652	3.75	0.	2.2449e-002
53976	11.652	3.8	5.e-002	5.4512
53977	11.801	3.8	0.	1.8942e-002
53978	11.752	3.75	0.	1.9208e-002
53979	11.752	3.8	5.e-002	5.2899
53980	11.901	3.8	0.	1.6317e-002
53981	11.851	3.75	0.	1.6481e-002
53982	11.851	3.8	5.e-002	5.1455
53983	12.001	3.8	0.	1.4105e-002
53984	11.951	3.75	0.	1.4194e-002
53985	11.951	3.8	5.e-002	5.016
53986	12.1	3.8	0.	1.2236e-002
53987	12.05	3.75	0.	1.2263e-002
53988	12.05	3.8	5.e-002	4.8998
53989	12.2	3.8	0.	1.0662e-002
53990	12.15	3.75	0.	1.0638e-002
53991	12.15	3.8	5.e-002	4.7952
53992	12.299	3.8	0.	9.3488e-003
53993	12.249	3.75	0.	9.2764e-003
53994	12.249	3.8	5.e-002	4.7008
53995	12.399	3.8	0.	8.2626e-003
53996	12.349	3.75	0.	8.154e-003
53997	12.349	3.8	5.e-002	4.6155
53998	12.498	3.8	0.	7.3487e-003
53999	12.449	3.75	0.	7.2314e-003
54000	12.449	3.8	5.e-002	4.5382
54001	12.598	3.8	0.	6.5805e-003
54002	12.548	3.75	0.	6.4404e-003
54003	12.548	3.8	5.e-002	4.468
54004	12.698	3.8	0.	5.9571e-003
54005	12.648	3.75	0.	5.7961e-003
54006	12.648	3.8	5.e-002	4.4039
54007	12.797	3.8	0.	5.4514e-003
54008	12.747	3.75	0.	5.2835e-003
54009	12.747	3.8	5.e-002	4.3453
54010	12.897	3.8	0.	5.0441e-003
54011	12.847	3.75	0.	4.8669e-003
54012	12.847	3.8	5.e-002	4.2916
54013	12.996	3.8	0.	4.72e-003
54014	12.947	3.75	0.	4.5426e-003
54015	12.947	3.8	5.e-002	4.2423
54016	13.096	3.8	0.	4.4579e-003
54017	13.046	3.75	0.	4.2841e-003
54018	13.046	3.8	5.e-002	4.1968
54019	13.195	3.8	0.	4.2582e-003
54020	13.146	3.75	0.	4.0786e-003
54021	13.146	3.8	5.e-002	4.1546
54022	13.295	3.8	0.	4.1226e-003
54023	13.245	3.75	0.	3.9385e-003
54024	13.245	3.8	5.e-002	4.1155
54025	13.395	3.8	0.	4.0328e-003
54026	13.345	3.75	0.	3.8557e-003
54027	13.345	3.8	5.e-002	4.0791
54028	13.494	3.8	0.	3.9731e-003
54029	13.444	3.75	0.	3.8028e-003
54030	13.444	3.8	5.e-002	4.0452
54031	13.594	3.8	0.	3.9425e-003
54032	13.544	3.75	0.	3.7762e-003
54033	13.544	3.8	5.e-002	4.0135
54034	13.693	3.8	0.	3.9379e-003
54035	13.644	3.75	0.	3.7781e-003
54036	13.644	3.8	5.e-002	3.9837
54037	13.793	3.8	0.	3.9597e-003
54038	13.743	3.75	0.	3.7997e-003
54039	13.743	3.8	5.e-002	3.9556
54040	13.893	3.8	0.	4.0085e-003
54041	13.843	3.75	0.	3.8515e-003
54042	13.843	3.8	5.e-002	3.9292
54043	13.992	3.8	0.	4.0622e-003
54044	13.942	3.75	0.	3.9249e-003
54045	13.942	3.8	5.e-002	3.9042
54046	14.092	3.8	0.	4.1185e-003
54047	14.042	3.75	0.	3.9835e-003
54048	14.042	3.8	5.e-002	3.8805
54049	14.191	3.8	0.	4.1938e-003
54050	14.142	3.75	0.	4.0585e-003
54051	14.142	3.8	5.e-002	3.858
54052	14.291	3.8	0.	4.2824e-003
54053	14.241	3.75	0.	4.1536e-003
54054	14.241	3.8	5.e-002	3.8365
54055	14.39	3.8	0.	4.3784e-003
54056	14.341	3.75	0.	4.254e-003
54057	14.341	3.8	5.e-002	3.8159
54058	14.49	3.8	0.	4.4808e-003
54059	14.44	3.75	0.	4.3624e-003
54060	14.44	3.8	5.e-002	3.7963
54061	14.59	3.8	0.	4.5839e-003
54062	14.54	3.75	0.	4.4731e-003
54063	14.54	3.8	5.e-002	3.7774
54064	14.689	3.8	0.	4.6934e-003
54065	14.639	3.75	0.	4.5804e-003
54066	14.639	3.8	5.e-002	3.7593
54067	14.789	3.8	0.	4.8184e-003
54068	14.739	3.75	0.	4.7036e-003
54069	14.739	3.8	5.e-002	3.7418
54070	14.888	3.8	0.	4.9498e-003
54071	14.839	3.75	0.	4.8407e-003
54072	14.839	3.8	5.e-002	3.725
54073	14.988	3.8	0.	5.0812e-003
54074	14.938	3.75	0.	4.9739e-003
54075	14.938	3.8	5.e-002	3.7087
54076	15.088	3.8	0.	5.2154e-003
54077	15.038	3.75	0.	5.1096e-003
54078	15.038	3.8	5.e-002	3.6931
54079	15.187	3.8	0.	5.3584e-003
54080	15.137	3.75	0.	5.2469e-003
54081	15.137	3.8	5.e-002	3.6779
54082	15.287	3.8	0.	5.5147e-003
54083	15.237	3.75	0.	5.3983e-003
54084	15.237	3.8	5.e-002	3.6632
54085	15.386	3.8	0.	5.6677e-003
54086	15.336	3.75	0.	5.5613e-003
54087	15.336	3.8	5.e-002	3.649
54088	15.486	3.8	0.	5.821e-003
54089	15.436	3.75	0.	5.7036e-003
54090	15.436	3.8	5.e-002	3.6351
54091	15.585	3.8	0.	5.9924e-003
54092	15.536	3.75	0.	5.8634e-003
54093	15.536	3.8	5.e-002	3.6216
54094	15.685	3.8	0.	6.1814e-003
54095	15.635	3.75	0.	6.0385e-003
54096	15.635	3.8	5.e-002	3.6085
54097	15.785	3.8	0.	6.3939e-003
54098	15.735	3.75	0.	6.2295e-003
54099	15.735	3.8	5.e-002	3.5957
54100	15.884	3.8	0.	6.6385e-003
54101	15.834	3.75	0.	6.4444e-003
54102	15.834	3.8	5.e-002	3.5833
54103	15.984	3.8	0.	6.9284e-003
54104	15.934	3.75	0.	6.6895e-003
54105	15.934	3.8	5.e-002	3.5711
54106	16.083	3.8	0.	7.3117e-003
54107	16.034	3.75	0.	6.9813e-003
54108	16.034	3.8	5.e-002	3.5592
54109	16.183	3.8	0.	7.8885e-003
54110	16.133	3.75	0.	7.3867e-003
54111	16.133	3.8	5.e-002	3.5476
54112	16.282	3.8	0.	8.9353e-003
54113	16.233	3.75	0.	8.0214e-003
54114	16.233	3.8	5.e-002	3.5363
54115	16.382	3.8	0.	1.1937e-002
54116	16.332	3.75	0.	9.291e-003
54117	16.332	3.8	5.e-002	3.5252
54118	16.482	3.8	0.	0.13448
54119	16.432	3.75	0.	1.451e-002
54120	16.432	3.8	5.e-002	3.5144
54121	16.581	3.8	0.	1.2465
54122	16.531	3.75	0.	0.52481
54123	16.531	3.8	5.e-002	3.5038
54124	16.681	3.8	0.	2.3763
54125	16.631	3.75	0.	1.672
54126	16.631	3.8	5.e-002	3.4935
54127	16.78	3.8	0.	3.487
54128	16.731	3.75	0.	2.8031
54129	16.731	3.8	5.e-002	3.4833
54130	16.88	3.8	0.	4.5797
54131	16.83	3.75	0.	3.9152
54132	16.83	3.8	5.e-002	3.4734
54133	16.98	3.8	0.	5.6561
54134	16.93	3.75	0.	5.0098
54135	16.93	3.8	5.e-002	3.4638
54136	17.079	3.8	0.	6.7182
54137	17.029	3.75	0.	6.089
54138	17.029	3.8	5.e-002	3.4543
54139	17.179	3.8	0.	7.768
54140	17.129	3.75	0.	7.1547
54141	17.129	3.8	5.e-002	3.445
54142	17.278	3.8	0.	8.8075
54143	17.229	3.75	0.	8.2088
54144	17.229	3.8	5.e-002	3.4359
54145	17.378	3.8	0.	9.8384
54146	17.328	3.75	0.	9.2535
54147	17.328	3.8	5.e-002	3.427
54148	17.477	3.8	0.	10.863
54149	17.428	3.75	0.	10.291
54150	17.428	3.8	5.e-002	3.4182
54151	17.577	3.8	0.	11.883
54152	17.527	3.75	0.	11.322
54153	17.527	3.8	5.e-002	3.4097
54154	17.677	3.8	0.	12.9
54155	17.627	3.75	0.	12.35
54156	17.627	3.8	5.e-002	3.4013
54157	17.776	3.8	0.	13.916
54158	17.726	3.75	0.	13.376
54159	17.726	3.8	5.e-002	3.3932
54160	17.876	3.8	0.	14.934
54161	17.826	3.75	0.	14.402
54162	17.826	3.8	5.e-002	3.3852
54163	17.975	3.8	0.	15.954
54164	17.926	3.75	0.	15.43
54165	17.926	3.8	5.e-002	3.3774
54166	18.075	3.8	0.	16.979
54167	18.025	3.75	0.	16.463
54168	18.025	3.8	5.e-002	3.3699
54169	18.175	3.8	0.	18.011
54170	18.125	3.75	0.	17.501
54171	18.125	3.8	5.e-002	3.3625
54172	18.274	3.8	0.	19.052
54173	18.224	3.75	0.	18.547
54174	18.224	3.8	5.e-002	3.3553
54175	18.374	3.8	0.	20.103
54176	18.324	3.75	0.	19.602
54177	18.324	3.8	5.e-002	3.3484
54178	18.473	3.8	0.	21.167
54179	18.423	3.75	0.	20.67
54180	18.423	3.8	5.e-002	3.3415
54181	18.573	3.8	0.	22.245
54182	18.523	3.75	0.	21.751
54183	18.523	3.8	5.e-002	3.3349
54184	18.672	3.8	0.	23.34
54185	18.623	3.75	0.	22.848
54186	18.623	3.8	5.e-002	3.3285
54187	18.772	3.8	0.	24.453
54188	18.722	3.75	0.	23.962
54189	18.722	3.8	5.e-002	3.3223
54190	18.872	3.8	0.	25.587
54191	18.822	3.75	0.	25.097
54192	18.822	3.8	5.e-002	3.3163
54193	18.971	3.8	0.	26.743
54194	18.921	3.75	0.	26.253
54195	18.921	3.8	5.e-002	3.3105
54196	19.071	3.8	0.	27.924
54197	19.021	3.75	0.	27.433
54198	19.021	3.8	5.e-002	3.3049
54199	19.17	3.8	0.	29.132
54200	19.121	3.75	0.	28.639
54201	19.121	3.8	5.e-002	3.2996
54202	19.27	3.8	0.	30.369
54203	19.22	3.75	0.	29.874
54204	19.22	3.8	5.e-002	3.2945
54205	19.369	3.8	0.	31.637
54206	19.32	3.75	0.	31.139
54207	19.32	3.8	5.e-002	3.2896
54208	19.469	3.8	0.	32.939
54209	19.419	3.75	0.	32.437
54210	19.419	3.8	5.e-002	3.285
54211	19.569	3.8	0.	34.277
54212	19.519	3.75	0.	33.771
54213	19.519	3.8	5.e-002	3.2806
54214	19.668	3.8	0.	35.653
54215	19.618	3.75	0.	35.142
54216	19.618	3.8	5.e-002	3.2765
54217	19.768	3.8	0.	37.07
54218	19.718	3.75	0.	36.553
54219	19.718	3.8	5.e-002	3.2727
54220	19.867	3.8	0.	38.531
54221	19.818	3.75	0.	38.006
54222	19.818	3.8	5.e-002	3.2692
54223	19.967	3.8	0.	40.037
54224	19.917	3.75	0.	39.506
54225	19.917	3.8	5.e-002	3.2659
54226	20.067	3.8	0.	41.593
54227	20.017	3.75	0.	41.053
54228	20.017	3.8	5.e-002	3.263
54229	20.166	3.8	0.	43.199
54230	20.116	3.75	0.	42.65
54231	20.116	3.8	5.e-002	3.2604
54232	20.266	3.8	0.	44.86
54233	20.216	3.75	0.	44.301
54234	20.216	3.8	5.e-002	3.2581
54235	20.365	3.8	0.	46.578
54236	20.316	3.75	0.	46.009
54237	20.316	3.8	5.e-002	3.2562
54238	20.465	3.8	0.	48.357
54239	20.415	3.75	0.	47.776
54240	20.415	3.8	5.e-002	3.2546
54241	20.564	3.8	0.	50.199
54242	20.515	3.75	0.	49.605
54243	20.515	3.8	5.e-002	3.2534
54244	20.664	3.8	0.	52.107
54245	20.614	3.75	0.	51.501
54246	20.614	3.8	5.e-002	3.2527
54247	20.764	3.8	0.	54.085
54248	20.714	3.75	0.	53.465
54249	20.714	3.8	5.e-002	3.2523
54250	20.863	3.8	0.	56.136
54251	20.813	3.75	0.	55.501
54252	20.813	3.8	5.e-002	3.2524
54253	20.963	3.8	0.	58.264
54254	20.913	3.75	0.	57.613
54255	20.913	3.8	5.e-002	3.253
54256	21.062	3.8	0.	60.472
54257	21.013	3.75	0.	59.803
54258	21.013	3.8	5.e-002	3.2541
54259	21.162	3.8	0.	62.764
54260	21.112	3.75	0.	62.077
54261	21.112	3.8	5.e-002	3.2557
54262	21.262	3.8	0.	65.144
54263	21.212	3.75	0.	64.437
54264	21.212	3.8	5.e-002	3.2578
54265	21.361	3.8	0.	67.615
54266	21.311	3.75	0.	66.887
54267	21.311	3.8	5.e-002	3.2605
54268	21.461	3.8	0.	70.181
54269	21.411	3.75	0.	69.432
54270	21.411	3.8	5.e-002	3.2639
54271	21.56	3.8	0.	72.846
54272	21.51	3.75	0.	72.074
54273	21.51	3.8	5.e-002	3.2679
54274	21.66	3.8	0.	75.615
54275	21.61	3.75	0.	74.817
54276	21.61	3.8	5.e-002	3.2725
54277	21.759	3.8	0.	78.491
54278	21.71	3.75	0.	77.667
54279	21.71	3.8	5.e-002	3.2779
54280	21.859	3.8	0.	81.478
54281	21.809	3.75	0.	80.626
54282	21.809	3.8	5.e-002	3.284
54283	21.959	3.8	0.	84.581
54284	21.909	3.75	0.	83.699
54285	21.909	3.8	5.e-002	3.2909
54286	22.058	3.8	0.	87.804
54287	22.008	3.75	0.	86.89
54288	22.008	3.8	5.e-002	3.2987
54289	22.158	3.8	0.	91.15
54290	22.108	3.75	0.	90.202
54291	22.108	3.8	5.e-002	3.3073
54292	22.257	3.8	0.	94.624
54293	22.208	3.75	0.	93.64
54294	22.208	3.8	5.e-002	3.3169
54295	22.357	3.8	0.	98.229
54296	22.307	3.75	0.	97.206
54297	22.307	3.8	5.e-002	3.3275
54298	22.456	3.8	0.	101.97
54299	22.407	3.75	0.	100.91
54300	22.407	3.8	5.e-002	3.3391
54301	22.556	3.8	0.	105.85
54302	22.506	3.75	0.	104.74
54303	22.506	3.8	5.e-002	3.3517
54304	22.656	3.8	0.	109.87
54305	22.606	3.75	0.	108.72
54306	22.606	3.8	5.e-002	3.3655
54307	22.755	3.8	0.	114.03
54308	22.705	3.75	0.	112.83
54309	22.705	3.8	5.e-002	3.3804
54310	22.855	3.8	0.	118.34
54311	22.805	3.75	0.	117.09
54312	22.805	3.8	5.e-002	3.3965
54313	22.954	3.8	0.	122.8
54314	22.905	3.75	0.	121.5
54315	22.905	3.8	5.e-002	3.4138
54316	23.054	3.8	0.	127.41
54317	23.004	3.75	0.	126.05
54318	23.004	3.8	5.e-002	3.4323
54319	23.154	3.8	0.	132.17
54320	23.104	3.75	0.	130.75
54321	23.104	3.8	5.e-002	3.4521
54322	23.253	3.8	0.	137.08
54323	23.203	3.75	0.	135.61
54324	23.203	3.8	5.e-002	3.4731
54325	23.353	3.8	0.	142.14
54326	23.303	3.75	0.	140.61
54327	23.303	3.8	5.e-002	3.4952
54328	23.452	3.8	0.	147.35
54329	23.403	3.75	0.	145.76
54330	23.403	3.8	5.e-002	3.5186
54331	23.552	3.8	0.	152.71
54332	23.502	3.75	0.	151.05
54333	23.502	3.8	5.e-002	3.5431
54334	23.651	3.8	0.	158.22
54335	23.602	3.75	0.	156.49
54336	23.602	3.8	5.e-002	3.5685
54337	23.751	3.8	0.	163.87
54338	23.701	3.75	0.	162.08
54339	23.701	3.8	5.e-002	3.5952
54340	23.851	3.8	0.	169.66
54341	23.801	3.75	0.	167.82
54342	23.801	3.8	5.e-002	3.6221
54343	23.9	3.75	0.	173.65
54344	23.9	3.8	5.e-002	3.6658
54345	23.95	3.8	0.	175.56
54346	8.316	3.7	0.	952.06
54347	8.2662	3.65	0.	1053.6
54348	8.2662	3.7	5.e-002	170.19
54349	8.4156	3.7	0.	685.72
54350	8.3658	3.65	0.	799.56
54351	8.3658	3.7	5.e-002	148.75
54352	8.5152	3.7	0.	445.97
54353	8.4654	3.65	0.	550.54
54354	8.4654	3.7	5.e-002	118.33
54355	8.6148	3.7	0.	256.64
54356	8.565	3.65	0.	342.37
54357	8.565	3.7	5.e-002	92.75
54358	8.7144	3.7	0.	112.88
54359	8.6646	3.65	0.	178.79
54360	8.6646	3.7	5.e-002	74.157
54361	8.8139	3.7	0.	12.02
54362	8.7642	3.65	0.	53.104
54363	8.7642	3.7	5.e-002	60.974
54364	8.9135	3.7	0.	3.0039
54365	8.8637	3.65	0.	3.0786
54366	8.8637	3.7	5.e-002	51.356
54367	9.0131	3.7	0.	2.0734
54368	8.9633	3.65	0.	2.0552
54369	8.9633	3.7	5.e-002	44.094
54370	9.1127	3.7	0.	1.5794
54371	9.0629	3.65	0.	1.5863
54372	9.0629	3.7	5.e-002	38.416
54373	9.2123	3.7	0.	1.2521
54374	9.1625	3.65	0.	1.2712
54375	9.1625	3.7	5.e-002	33.843
54376	9.3118	3.7	0.	1.0166
54377	9.2621	3.65	0.	1.0402
54378	9.2621	3.7	5.e-002	30.069
54379	9.4114	3.7	0.	0.83845
54380	9.3616	3.65	0.	0.86282
54381	9.3616	3.7	5.e-002	26.895
54382	9.511	3.7	0.	0.69904
54383	9.4612	3.65	0.	0.7224
54384	9.4612	3.7	5.e-002	24.185
54385	9.6106	3.7	0.	0.58717
54386	9.5608	3.65	0.	0.60868
54387	9.5608	3.7	5.e-002	21.847
54388	9.7102	3.7	0.	0.49573
54389	9.6604	3.65	0.	0.51506
54390	9.6604	3.7	5.e-002	19.811
54391	9.8097	3.7	0.	0.41997
54392	9.76	3.65	0.	0.43705
54393	9.76	3.7	5.e-002	18.029
54394	9.9093	3.7	0.	0.35662
54395	9.8595	3.65	0.	0.37152
54396	9.8595	3.7	5.e-002	16.46
54397	10.009	3.7	0.	0.30326
54398	9.9591	3.65	0.	0.31615
54399	9.9591	3.7	5.e-002	15.076
54400	10.108	3.7	0.	0.25811
54401	10.059	3.65	0.	0.26917
54402	10.059	3.7	5.e-002	13.851
54403	10.208	3.7	0.	0.21978
54404	10.158	3.65	0.	0.22921
54405	10.158	3.7	5.e-002	12.766
54406	10.308	3.7	0.	0.18719
54407	10.258	3.65	0.	0.19518
54408	10.258	3.7	5.e-002	11.802
54409	10.407	3.7	0.	0.15945
54410	10.357	3.65	0.	0.16618
54411	10.357	3.7	5.e-002	10.946
54412	10.507	3.7	0.	0.13581
54413	10.457	3.65	0.	0.14147
54414	10.457	3.7	5.e-002	10.185
54415	10.606	3.7	0.	0.11566
54416	10.557	3.65	0.	0.12039
54417	10.557	3.7	5.e-002	9.5086
54418	10.706	3.7	0.	9.8469e-002
54419	10.656	3.65	0.	0.10241
54420	10.656	3.7	5.e-002	8.9069
54421	10.806	3.7	0.	8.3816e-002
54422	10.756	3.65	0.	8.7079e-002
54423	10.756	3.7	5.e-002	8.3715
54424	10.905	3.7	0.	7.1333e-002
54425	10.855	3.65	0.	7.4012e-002
54426	10.855	3.7	5.e-002	7.8951
54427	11.005	3.7	0.	6.0711e-002
54428	10.955	3.65	0.	6.2899e-002
54429	10.955	3.7	5.e-002	7.4711
54430	11.104	3.7	0.	5.1655e-002
54431	11.055	3.65	0.	5.3451e-002
54432	11.055	3.7	5.e-002	7.0937
54433	11.204	3.7	0.	4.3933e-002
54434	11.154	3.65	0.	4.5377e-002
54435	11.154	3.7	5.e-002	6.7575
54436	11.303	3.7	0.	3.7377e-002
54437	11.254	3.65	0.	3.8522e-002
54438	11.254	3.7	5.e-002	6.4579
54439	11.403	3.7	0.	3.1814e-002
54440	11.353	3.65	0.	3.2714e-002
54441	11.353	3.7	5.e-002	6.1908
54442	11.503	3.7	0.	2.7093e-002
54443	11.453	3.65	0.	2.7788e-002
54444	11.453	3.7	5.e-002	5.9525
54445	11.602	3.7	0.	2.3092e-002
54446	11.552	3.65	0.	2.3617e-002
54447	11.552	3.7	5.e-002	5.7397
54448	11.702	3.7	0.	1.9697e-002
54449	11.652	3.65	0.	2.0086e-002
54450	11.652	3.7	5.e-002	5.5494
54451	11.801	3.7	0.	1.6831e-002
54452	11.752	3.65	0.	1.7095e-002
54453	11.752	3.7	5.e-002	5.3791
54454	11.901	3.7	0.	1.4429e-002
54455	11.851	3.65	0.	1.4588e-002
54456	11.851	3.7	5.e-002	5.2265
54457	12.001	3.7	0.	1.2413e-002
54458	11.951	3.65	0.	1.2497e-002
54459	11.951	3.7	5.e-002	5.0894
54460	12.1	3.7	0.	1.0717e-002
54461	12.05	3.65	0.	1.0738e-002
54462	12.05	3.7	5.e-002	4.9663
54463	12.2	3.7	0.	9.2963e-003
54464	12.15	3.65	0.	9.2673e-003
54465	12.15	3.7	5.e-002	4.8554
54466	12.299	3.7	0.	8.1184e-003
54467	12.249	3.65	0.	8.042e-003
54468	12.249	3.7	5.e-002	4.7552
54469	12.399	3.7	0.	7.1541e-003
54470	12.349	3.65	0.	7.041e-003
54471	12.349	3.7	5.e-002	4.6647
54472	12.498	3.7	0.	6.3497e-003
54473	12.449	3.65	0.	6.2281e-003
54474	12.449	3.7	5.e-002	4.5826
54475	12.598	3.7	0.	5.6786e-003
54476	12.548	3.65	0.	5.5345e-003
54477	12.548	3.7	5.e-002	4.5081
54478	12.698	3.7	0.	5.1417e-003
54479	12.648	3.65	0.	4.9777e-003
54480	12.648	3.7	5.e-002	4.4401
54481	12.797	3.7	0.	4.7152e-003
54482	12.747	3.65	0.	4.5435e-003
54483	12.747	3.7	5.e-002	4.378
54484	12.897	3.7	0.	4.3792e-003
54485	12.847	3.65	0.	4.1994e-003
54486	12.847	3.7	5.e-002	4.3211
54487	12.996	3.7	0.	4.1183e-003
54488	12.947	3.65	0.	3.9381e-003
54489	12.947	3.7	5.e-002	4.2688
54490	13.096	3.7	0.	3.9146e-003
54491	13.046	3.65	0.	3.7379e-003
54492	13.046	3.7	5.e-002	4.2207
54493	13.195	3.7	0.	3.7672e-003
54494	13.146	3.65	0.	3.5849e-003
54495	13.146	3.7	5.e-002	4.1762
54496	13.295	3.7	0.	3.6786e-003
54497	13.245	3.65	0.	3.4922e-003
54498	13.245	3.7	5.e-002	4.135
54499	13.395	3.7	0.	3.6315e-003
54500	13.345	3.65	0.	3.4527e-003
54501	13.345	3.7	5.e-002	4.0968
54502	13.494	3.7	0.	3.6106e-003
54503	13.444	3.65	0.	3.4383e-003
54504	13.444	3.7	5.e-002	4.0611
54505	13.594	3.7	0.	3.6156e-003
54506	13.544	3.65	0.	3.4476e-003
54507	13.544	3.7	5.e-002	4.0279
54508	13.693	3.7	0.	3.643e-003
54509	13.644	3.65	0.	3.4813e-003
54510	13.644	3.7	5.e-002	3.9967
54511	13.793	3.7	0.	3.6938e-003
54512	13.743	3.65	0.	3.5322e-003
54513	13.743	3.7	5.e-002	3.9675
54514	13.893	3.7	0.	3.7697e-003
54515	13.843	3.65	0.	3.6102e-003
54516	13.843	3.7	5.e-002	3.9399
54517	13.992	3.7	0.	3.8474e-003
54518	13.942	3.65	0.	3.708e-003
54519	13.942	3.7	5.e-002	3.914
54520	14.092	3.7	0.	3.9244e-003
54521	14.042	3.65	0.	3.7882e-003
54522	14.042	3.7	5.e-002	3.8894
54523	14.191	3.7	0.	4.0188e-003
54524	14.142	3.65	0.	3.8825e-003
54525	14.142	3.7	5.e-002	3.8661
54526	14.291	3.7	0.	4.1253e-003
54527	14.241	3.65	0.	3.995e-003
54528	14.241	3.7	5.e-002	3.8438
54529	14.39	3.7	0.	4.2379e-003
54530	14.341	3.65	0.	4.112e-003
54531	14.341	3.7	5.e-002	3.8227
54532	14.49	3.7	0.	4.3544e-003
54533	14.44	3.65	0.	4.2345e-003
54534	14.44	3.7	5.e-002	3.8024
54535	14.59	3.7	0.	4.469e-003
54536	14.54	3.65	0.	4.3579e-003
54537	14.54	3.7	5.e-002	3.7831
54538	14.689	3.7	0.	4.5897e-003
54539	14.639	3.65	0.	4.4762e-003
54540	14.639	3.7	5.e-002	3.7645
54541	14.789	3.7	0.	4.7248e-003
54542	14.739	3.65	0.	4.6095e-003
54543	14.739	3.7	5.e-002	3.7466
54544	14.888	3.7	0.	4.8637e-003
54545	14.839	3.65	0.	4.7554e-003
54546	14.839	3.7	5.e-002	3.7294
54547	14.988	3.7	0.	5.001e-003
54548	14.938	3.65	0.	4.8947e-003
54549	14.938	3.7	5.e-002	3.7128
54550	15.088	3.7	0.	5.1398e-003
54551	15.038	3.65	0.	5.0364e-003
54552	15.038	3.7	5.e-002	3.6968
54553	15.187	3.7	0.	5.2854e-003
54554	15.137	3.65	0.	5.1774e-003
54555	15.137	3.7	5.e-002	3.6814
54556	15.287	3.7	0.	5.4433e-003
54557	15.237	3.65	0.	5.3308e-003
54558	15.237	3.7	5.e-002	3.6664
54559	15.386	3.7	0.	5.5956e-003
54560	15.336	3.65	0.	5.4942e-003
54561	15.336	3.7	5.e-002	3.652
54562	15.486	3.7	0.	5.7443e-003
54563	15.436	3.65	0.	5.635e-003
54564	15.436	3.7	5.e-002	3.638
54565	15.585	3.7	0.	5.9076e-003
54566	15.536	3.65	0.	5.7887e-003
54567	15.536	3.7	5.e-002	3.6243
54568	15.685	3.7	0.	6.0842e-003
54569	15.635	3.65	0.	5.9563e-003
54570	15.635	3.7	5.e-002	3.611
54571	15.785	3.7	0.	6.2767e-003
54572	15.735	3.65	0.	6.1331e-003
54573	15.735	3.7	5.e-002	3.5981
54574	15.884	3.7	0.	6.4903e-003
54575	15.834	3.65	0.	6.3275e-003
54576	15.834	3.7	5.e-002	3.5855
54577	15.984	3.7	0.	6.7332e-003
54578	15.934	3.65	0.	6.5403e-003
54579	15.934	3.7	5.e-002	3.5732
54580	16.083	3.7	0.	7.0365e-003
54581	16.034	3.65	0.	6.7813e-003
54582	16.034	3.7	5.e-002	3.5612
54583	16.183	3.7	0.	7.4663e-003
54584	16.133	3.65	0.	7.0987e-003
54585	16.133	3.7	5.e-002	3.5495
54586	16.282	3.7	0.	8.1699e-003
54587	16.233	3.65	0.	7.561e-003
54588	16.233	3.7	5.e-002	3.5381
54589	16.382	3.7	0.	9.8149e-003
54590	16.332	3.65	0.	8.3723e-003
54591	16.332	3.7	5.e-002	3.527
54592	16.482	3.7	0.	2.536e-002
54593	16.432	3.65	0.	1.0841e-002
54594	16.432	3.7	5.e-002	3.5161
54595	16.581	3.7	0.	0.95439
54596	16.531	3.65	0.	0.24748
54597	16.531	3.7	5.e-002	3.5054
54598	16.681	3.7	0.	2.1064
54599	16.631	3.65	0.	1.4091
54600	16.631	3.7	5.e-002	3.495
54601	16.78	3.7	0.	3.2392
54602	16.731	3.65	0.	2.5612
54603	16.731	3.7	5.e-002	3.4849
54604	16.88	3.7	0.	4.3535
54605	16.83	3.65	0.	3.6938
54606	16.83	3.7	5.e-002	3.4749
54607	16.98	3.7	0.	5.451
54608	16.93	3.65	0.	4.8084
54609	16.93	3.7	5.e-002	3.4652
54610	17.079	3.7	0.	6.5339
54611	17.029	3.65	0.	5.9072
54612	17.029	3.7	5.e-002	3.4557
54613	17.179	3.7	0.	7.6041
54614	17.129	3.65	0.	6.9922
54615	17.129	3.7	5.e-002	3.4464
54616	17.278	3.7	0.	8.6636
54617	17.229	3.65	0.	8.0654
54618	17.229	3.7	5.e-002	3.4372
54619	17.378	3.7	0.	9.7145
54620	17.328	3.65	0.	9.1288
54621	17.328	3.7	5.e-002	3.4283
54622	17.477	3.7	0.	10.759
54623	17.428	3.65	0.	10.184
54624	17.428	3.7	5.e-002	3.4195
54625	17.577	3.7	0.	11.798
54626	17.527	3.65	0.	11.234
54627	17.527	3.7	5.e-002	3.411
54628	17.677	3.7	0.	12.835
54629	17.627	3.65	0.	12.281
54630	17.627	3.7	5.e-002	3.4026
54631	17.776	3.7	0.	13.871
54632	17.726	3.65	0.	13.325
54633	17.726	3.7	5.e-002	3.3944
54634	17.876	3.7	0.	14.908
54635	17.826	3.65	0.	14.37
54636	17.826	3.7	5.e-002	3.3865
54637	17.975	3.7	0.	15.948
54638	17.926	3.65	0.	15.416
54639	17.926	3.7	5.e-002	3.3787
54640	18.075	3.7	0.	16.994
54641	18.025	3.65	0.	16.467
54642	18.025	3.7	5.e-002	3.3711
54643	18.175	3.7	0.	18.046
54644	18.125	3.65	0.	17.524
54645	18.125	3.7	5.e-002	3.3637
54646	18.274	3.7	0.	19.107
54647	18.224	3.65	0.	18.589
54648	18.224	3.7	5.e-002	3.3566
54649	18.374	3.7	0.	20.179
54650	18.324	3.65	0.	19.664
54651	18.324	3.7	5.e-002	3.3496
54652	18.473	3.7	0.	21.264
54653	18.423	3.65	0.	20.751
54654	18.423	3.7	5.e-002	3.3428
54655	18.573	3.7	0.	22.364
54656	18.523	3.65	0.	21.853
54657	18.523	3.7	5.e-002	3.3362
54658	18.672	3.7	0.	23.48
54659	18.623	3.65	0.	22.97
54660	18.623	3.7	5.e-002	3.3298
54661	18.772	3.7	0.	24.616
54662	18.722	3.65	0.	24.105
54663	18.722	3.7	5.e-002	3.3236
54664	18.872	3.7	0.	25.773
54665	18.822	3.65	0.	25.261
54666	18.822	3.7	5.e-002	3.3177
54667	18.971	3.7	0.	26.953
54668	18.921	3.65	0.	26.439
54669	18.921	3.7	5.e-002	3.3119
54670	19.071	3.7	0.	28.158
54671	19.021	3.65	0.	27.642
54672	19.021	3.7	5.e-002	3.3063
54673	19.17	3.7	0.	29.392
54674	19.121	3.65	0.	28.871
54675	19.121	3.7	5.e-002	3.301
54676	19.27	3.7	0.	30.654
54677	19.22	3.65	0.	30.13
54678	19.22	3.7	5.e-002	3.296
54679	19.369	3.7	0.	31.95
54680	19.32	3.65	0.	31.42
54681	19.32	3.7	5.e-002	3.2911
54682	19.469	3.7	0.	33.279
54683	19.419	3.65	0.	32.744
54684	19.419	3.7	5.e-002	3.2865
54685	19.569	3.7	0.	34.646
54686	19.519	3.65	0.	34.103
54687	19.519	3.7	5.e-002	3.2822
54688	19.668	3.7	0.	36.052
54689	19.618	3.65	0.	35.502
54690	19.618	3.7	5.e-002	3.2782
54691	19.768	3.7	0.	37.499
54692	19.718	3.65	0.	36.941
54693	19.718	3.7	5.e-002	3.2744
54694	19.867	3.7	0.	38.992
54695	19.818	3.65	0.	38.424
54696	19.818	3.7	5.e-002	3.271
54697	19.967	3.7	0.	40.531
54698	19.917	3.65	0.	39.954
54699	19.917	3.7	5.e-002	3.2678
54700	20.067	3.7	0.	42.121
54701	20.017	3.65	0.	41.532
54702	20.017	3.7	5.e-002	3.2649
54703	20.166	3.7	0.	43.763
54704	20.116	3.65	0.	43.162
54705	20.116	3.7	5.e-002	3.2624
54706	20.266	3.7	0.	45.461
54707	20.216	3.65	0.	44.847
54708	20.216	3.7	5.e-002	3.2602
54709	20.365	3.7	0.	47.217
54710	20.316	3.65	0.	46.59
54711	20.316	3.7	5.e-002	3.2584
54712	20.465	3.7	0.	49.035
54713	20.415	3.65	0.	48.393
54714	20.415	3.7	5.e-002	3.2569
54715	20.564	3.7	0.	50.918
54716	20.515	3.65	0.	50.261
54717	20.515	3.7	5.e-002	3.2558
54718	20.664	3.7	0.	52.869
54719	20.614	3.65	0.	52.195
54720	20.614	3.7	5.e-002	3.2551
54721	20.764	3.7	0.	54.891
54722	20.714	3.65	0.	54.199
54723	20.714	3.7	5.e-002	3.2549
54724	20.863	3.7	0.	56.987
54725	20.813	3.65	0.	56.277
54726	20.813	3.7	5.e-002	3.2551
54727	20.963	3.7	0.	59.162
54728	20.913	3.65	0.	58.432
54729	20.913	3.7	5.e-002	3.2558
54730	21.062	3.7	0.	61.418
54731	21.013	3.65	0.	60.667
54732	21.013	3.7	5.e-002	3.257
54733	21.162	3.7	0.	63.76
54734	21.112	3.65	0.	62.987
54735	21.112	3.7	5.e-002	3.2587
54736	21.262	3.7	0.	66.191
54737	21.212	3.65	0.	65.394
54738	21.212	3.7	5.e-002	3.261
54739	21.361	3.7	0.	68.714
54740	21.311	3.65	0.	67.892
54741	21.311	3.7	5.e-002	3.2639
54742	21.461	3.7	0.	71.334
54743	21.411	3.65	0.	70.486
54744	21.411	3.7	5.e-002	3.2673
54745	21.56	3.7	0.	74.054
54746	21.51	3.65	0.	73.178
54747	21.51	3.7	5.e-002	3.2715
54748	21.66	3.7	0.	76.878
54749	21.61	3.65	0.	75.974
54750	21.61	3.7	5.e-002	3.2763
54751	21.759	3.7	0.	79.811
54752	21.71	3.65	0.	78.875
54753	21.71	3.7	5.e-002	3.2818
54754	21.859	3.7	0.	82.855
54755	21.809	3.65	0.	81.887
54756	21.809	3.7	5.e-002	3.288
54757	21.959	3.7	0.	86.015
54758	21.909	3.65	0.	85.013
54759	21.909	3.7	5.e-002	3.2951
54760	22.058	3.7	0.	89.295
54761	22.008	3.65	0.	88.257
54762	22.008	3.7	5.e-002	3.303
54763	22.158	3.7	0.	92.699
54764	22.108	3.65	0.	91.623
54765	22.108	3.7	5.e-002	3.3118
54766	22.257	3.7	0.	96.229
54767	22.208	3.65	0.	95.113
54768	22.208	3.7	5.e-002	3.3215
54769	22.357	3.7	0.	99.89
54770	22.307	3.65	0.	98.732
54771	22.307	3.7	5.e-002	3.3322
54772	22.456	3.7	0.	103.68
54773	22.407	3.65	0.	102.48
54774	22.407	3.7	5.e-002	3.3438
54775	22.556	3.7	0.	107.62
54776	22.506	3.65	0.	106.37
54777	22.506	3.7	5.e-002	3.3565
54778	22.656	3.7	0.	111.69
54779	22.606	3.65	0.	110.39
54780	22.606	3.7	5.e-002	3.3703
54781	22.755	3.7	0.	115.9
54782	22.705	3.65	0.	114.55
54783	22.705	3.7	5.e-002	3.3852
54784	22.855	3.7	0.	120.25
54785	22.805	3.65	0.	118.85
54786	22.805	3.7	5.e-002	3.4012
54787	22.954	3.7	0.	124.75
54788	22.905	3.65	0.	123.3
54789	22.905	3.7	5.e-002	3.4184
54790	23.054	3.7	0.	129.4
54791	23.004	3.65	0.	127.89
54792	23.004	3.7	5.e-002	3.4368
54793	23.154	3.7	0.	134.2
54794	23.104	3.65	0.	132.63
54795	23.104	3.7	5.e-002	3.4563
54796	23.253	3.7	0.	139.14
54797	23.203	3.65	0.	137.51
54798	23.203	3.7	5.e-002	3.477
54799	23.353	3.7	0.	144.22
54800	23.303	3.65	0.	142.54
54801	23.303	3.7	5.e-002	3.4988
54802	23.452	3.7	0.	149.46
54803	23.403	3.65	0.	147.71
54804	23.403	3.7	5.e-002	3.5216
54805	23.552	3.7	0.	154.83
54806	23.502	3.65	0.	153.02
54807	23.502	3.7	5.e-002	3.5456
54808	23.651	3.7	0.	160.35
54809	23.602	3.65	0.	158.48
54810	23.602	3.7	5.e-002	3.5705
54811	23.751	3.7	0.	166.02
54812	23.701	3.65	0.	164.07
54813	23.701	3.7	5.e-002	3.5965
54814	23.851	3.7	0.	171.81
54815	23.801	3.65	0.	169.81
54816	23.801	3.7	5.e-002	3.6225
54817	23.9	3.65	0.	175.65
54818	23.9	3.7	5.e-002	3.6633
54819	23.95	3.7	0.	177.73
54820	8.316	3.6	0.	902.56
54821	8.2662	3.55	0.	989.24
54822	8.2662	3.6	5.e-002	107.17
54823	8.4156	3.6	0.	673.14
54824	8.3658	3.55	0.	776.7
54825	8.3658	3.6	5.e-002	105.63
54826	8.5152	3.6	0.	455.19
54827	8.4654	3.55	0.	557.75
54828	8.4654	3.6	5.e-002	94.034
54829	8.6148	3.6	0.	270.2
54830	8.565	3.55	0.	360.66
54831	8.565	3.6	5.e-002	80.134
54832	8.7144	3.6	0.	122.26
54833	8.6646	3.55	0.	196.5
54834	8.6646	3.6	5.e-002	67.786
54835	8.8139	3.6	0.	8.6595
54836	8.7642	3.55	0.	64.931
54837	8.7642	3.6	5.e-002	57.803
54838	8.9135	3.6	0.	2.0342
54839	8.8637	3.55	0.	2.0433
54840	8.8637	3.6	5.e-002	49.892
54841	9.0131	3.6	0.	1.6081
54842	8.9633	3.55	0.	1.6363
54843	8.9633	3.6	5.e-002	43.563
54844	9.1127	3.6	0.	1.3077
54845	9.0629	3.55	0.	1.3499
54846	9.0629	3.6	5.e-002	38.404
54847	9.2123	3.6	0.	1.0795
54848	9.1625	3.55	0.	1.1243
54849	9.1625	3.6	5.e-002	34.117
54850	9.3118	3.6	0.	0.90056
54851	9.2621	3.55	0.	0.94325
54852	9.2621	3.6	5.e-002	30.494
54853	9.4114	3.6	0.	0.757
54854	9.3616	3.55	0.	0.79574
54855	9.3616	3.6	5.e-002	27.39
54856	9.511	3.6	0.	0.63965
54857	9.4612	3.55	0.	0.67388
54858	9.4612	3.6	5.e-002	24.703
54859	9.6106	3.6	0.	0.54236
54860	9.5608	3.55	0.	0.57212
54861	9.5608	3.6	5.e-002	22.359
54862	9.7102	3.6	0.	0.46087
54863	9.6604	3.55	0.	0.48645
54864	9.6604	3.6	5.e-002	20.302
54865	9.8097	3.6	0.	0.39212
54866	9.76	3.55	0.	0.41393
54867	9.76	3.6	5.e-002	18.49
54868	9.9093	3.6	0.	0.33386
54869	9.8595	3.55	0.	0.35233
54870	9.8595	3.6	5.e-002	16.889
54871	10.009	3.6	0.	0.28431
54872	9.9591	3.55	0.	0.2999
54873	9.9591	3.6	5.e-002	15.472
54874	10.108	3.6	0.	0.24209
54875	10.059	3.55	0.	0.25519
54876	10.059	3.6	5.e-002	14.215
54877	10.208	3.6	0.	0.20609
54878	10.158	3.55	0.	0.21706
54879	10.158	3.6	5.e-002	13.098
54880	10.308	3.6	0.	0.17538
54881	10.258	3.55	0.	0.18453
54882	10.258	3.6	5.e-002	12.106
54883	10.407	3.6	0.	0.1492
54884	10.357	3.55	0.	0.1568
54885	10.357	3.6	5.e-002	11.224
54886	10.507	3.6	0.	0.12687
54887	10.457	3.55	0.	0.13318
54888	10.457	3.6	5.e-002	10.44
54889	10.606	3.6	0.	0.10782
54890	10.557	3.55	0.	0.11305
54891	10.557	3.6	5.e-002	9.7413
54892	10.706	3.6	0.	9.1581e-002
54893	10.656	3.55	0.	9.5892e-002
54894	10.656	3.6	5.e-002	9.1197
54895	10.806	3.6	0.	7.7746e-002
54896	10.756	3.55	0.	8.1292e-002
54897	10.756	3.6	5.e-002	8.5662
54898	10.905	3.6	0.	6.5972e-002
54899	10.855	3.55	0.	6.8866e-002
54900	10.855	3.6	5.e-002	8.0732
54901	11.005	3.6	0.	5.5967e-002
54902	10.955	3.55	0.	5.8319e-002
54903	10.955	3.6	5.e-002	7.634
54904	11.104	3.6	0.	4.7448e-002
54905	11.055	3.55	0.	4.937e-002
54906	11.055	3.6	5.e-002	7.2427
54907	11.204	3.6	0.	4.0197e-002
54908	11.154	3.55	0.	4.1739e-002
54909	11.154	3.6	5.e-002	6.8937
54910	11.303	3.6	0.	3.4053e-002
54911	11.254	3.55	0.	3.5274e-002
54912	11.254	3.6	5.e-002	6.5823
54913	11.403	3.6	0.	2.8852e-002
54914	11.353	3.55	0.	2.9813e-002
54915	11.353	3.6	5.e-002	6.3044
54916	11.503	3.6	0.	2.445e-002
54917	11.453	3.55	0.	2.5193e-002
54918	11.453	3.6	5.e-002	6.0561
54919	11.602	3.6	0.	2.0728e-002
54920	11.552	3.55	0.	2.1293e-002
54921	11.552	3.6	5.e-002	5.834
54922	11.702	3.6	0.	1.7582e-002
54923	11.652	3.55	0.	1.8003e-002
54924	11.652	3.6	5.e-002	5.6353
54925	11.801	3.6	0.	1.4936e-002
54926	11.752	3.55	0.	1.5226e-002
54927	11.752	3.6	5.e-002	5.4572
54928	11.901	3.6	0.	1.2728e-002
54929	11.851	3.55	0.	1.291e-002
54930	11.851	3.6	5.e-002	5.2974
54931	12.001	3.6	0.	1.0883e-002
54932	11.951	3.55	0.	1.0988e-002
54933	11.951	3.6	5.e-002	5.1538
54934	12.1	3.6	0.	9.3403e-003
54935	12.05	3.55	0.	9.3798e-003
54936	12.05	3.6	5.e-002	5.0246
54937	12.2	3.6	0.	8.0567e-003
54938	12.15	3.55	0.	8.0426e-003
54939	12.15	3.6	5.e-002	4.9082
54940	12.299	3.6	0.	7.0018e-003
54941	12.249	3.55	0.	6.9385e-003
54942	12.249	3.6	5.e-002	4.8031
54943	12.399	3.6	0.	6.1468e-003
54944	12.349	3.55	0.	6.0457e-003
54945	12.349	3.6	5.e-002	4.7079
54946	12.498	3.6	0.	5.44e-003
54947	12.449	3.55	0.	5.3291e-003
54948	12.449	3.6	5.e-002	4.6217
54949	12.598	3.6	0.	4.8566e-003
54950	12.548	3.55	0.	4.7223e-003
54951	12.548	3.6	5.e-002	4.5434
54952	12.698	3.6	0.	4.3991e-003
54953	12.648	3.55	0.	4.2437e-003
54954	12.648	3.6	5.e-002	4.472
54955	12.797	3.6	0.	4.0444e-003
54956	12.747	3.55	0.	3.8803e-003
54957	12.747	3.6	5.e-002	4.4068
54958	12.897	3.6	0.	3.7725e-003
54959	12.847	3.55	0.	3.5998e-003
54960	12.847	3.6	5.e-002	4.3471
54961	12.996	3.6	0.	3.5697e-003
54962	12.947	3.55	0.	3.3959e-003
54963	12.947	3.6	5.e-002	4.2923
54964	13.096	3.6	0.	3.4183e-003
54965	13.046	3.55	0.	3.2476e-003
54966	13.046	3.6	5.e-002	4.2419
54967	13.195	3.6	0.	3.3186e-003
54968	13.146	3.55	0.	3.1412e-003
54969	13.146	3.6	5.e-002	4.1953
54970	13.295	3.6	0.	3.2737e-003
54971	13.245	3.55	0.	3.0916e-003
54972	13.245	3.6	5.e-002	4.1523
54973	13.395	3.6	0.	3.2656e-003
54974	13.345	3.55	0.	3.0907e-003
54975	13.345	3.6	5.e-002	4.1124
54976	13.494	3.6	0.	3.2803e-003
54977	13.444	3.55	0.	3.1112e-003
54978	13.444	3.6	5.e-002	4.0752
54979	13.594	3.6	0.	3.3174e-003
54980	13.544	3.55	0.	3.1531e-003
54981	13.544	3.6	5.e-002	4.0406
54982	13.693	3.6	0.	3.3738e-003
54983	13.644	3.55	0.	3.2148e-003
54984	13.644	3.6	5.e-002	4.0083
54985	13.793	3.6	0.	3.4512e-003
54986	13.743	3.55	0.	3.2917e-003
54987	13.743	3.6	5.e-002	3.9779
54988	13.893	3.6	0.	3.5505e-003
54989	13.843	3.55	0.	3.3936e-003
54990	13.843	3.6	5.e-002	3.9494
54991	13.992	3.6	0.	3.6503e-003
54992	13.942	3.55	0.	3.5132e-003
54993	13.942	3.6	5.e-002	3.9226
54994	14.092	3.6	0.	3.7474e-003
54995	14.042	3.55	0.	3.6128e-003
54996	14.042	3.6	5.e-002	3.8972
54997	14.191	3.6	0.	3.8595e-003
54998	14.142	3.55	0.	3.7244e-003
54999	14.142	3.6	5.e-002	3.8732
55000	14.291	3.6	0.	3.9821e-003
55001	14.241	3.55	0.	3.8534e-003
55002	14.241	3.6	5.e-002	3.8503
55003	14.39	3.6	0.	4.1087e-003
55004	14.341	3.55	0.	3.9847e-003
55005	14.341	3.6	5.e-002	3.8286
55006	14.49	3.6	0.	4.2379e-003
55007	14.44	3.55	0.	4.1197e-003
55008	14.44	3.6	5.e-002	3.8079
55009	14.59	3.6	0.	4.3648e-003
55010	14.54	3.55	0.	4.2545e-003
55011	14.54	3.6	5.e-002	3.788
55012	14.689	3.6	0.	4.4954e-003
55013	14.639	3.55	0.	4.3833e-003
55014	14.639	3.6	5.e-002	3.769
55015	14.789	3.6	0.	4.6393e-003
55016	14.739	3.55	0.	4.5252e-003
55017	14.739	3.6	5.e-002	3.7508
55018	14.888	3.6	0.	4.7856e-003
55019	14.839	3.55	0.	4.6786e-003
55020	14.839	3.6	5.e-002	3.7333
55021	14.988	3.6	0.	4.9291e-003
55022	14.938	3.55	0.	4.8248e-003
55023	14.938	3.6	5.e-002	3.7164
55024	15.088	3.6	0.	5.0729e-003
55025	15.038	3.55	0.	4.9716e-003
55026	15.038	3.6	5.e-002	3.7002
55027	15.187	3.6	0.	5.2217e-003
55028	15.137	3.55	0.	5.1167e-003
55029	15.137	3.6	5.e-002	3.6845
55030	15.287	3.6	0.	5.3806e-003
55031	15.237	3.55	0.	5.272e-003
55032	15.237	3.6	5.e-002	3.6693
55033	15.386	3.6	0.	5.5324e-003
55034	15.336	3.55	0.	5.4363e-003
55035	15.336	3.6	5.e-002	3.6547
55036	15.486	3.6	0.	5.6781e-003
55037	15.436	3.55	0.	5.5759e-003
55038	15.436	3.6	5.e-002	3.6405
55039	15.585	3.6	0.	5.8361e-003
55040	15.536	3.55	0.	5.7265e-003
55041	15.536	3.6	5.e-002	3.6267
55042	15.685	3.6	0.	6.0036e-003
55043	15.635	3.55	0.	5.888e-003
55044	15.635	3.6	5.e-002	3.6132
55045	15.785	3.6	0.	6.182e-003
55046	15.735	3.55	0.	6.0555e-003
55047	15.735	3.6	5.e-002	3.6002
55048	15.884	3.6	0.	6.3745e-003
55049	15.834	3.55	0.	6.2347e-003
55050	15.834	3.6	5.e-002	3.5875
55051	15.984	3.6	0.	6.583e-003
55052	15.934	3.55	0.	6.4245e-003
55053	15.934	3.6	5.e-002	3.5751
55054	16.083	3.6	0.	6.832e-003
55055	16.034	3.55	0.	6.629e-003
55056	16.034	3.6	5.e-002	3.563
55057	16.183	3.6	0.	7.1634e-003
55058	16.133	3.55	0.	6.8867e-003
55059	16.133	3.6	5.e-002	3.5512
55060	16.282	3.6	0.	7.6564e-003
55061	16.233	3.55	0.	7.2344e-003
55062	16.233	3.6	5.e-002	3.5397
55063	16.382	3.6	0.	8.644e-003
55064	16.332	3.55	0.	7.7796e-003
55065	16.332	3.6	5.e-002	3.5285
55066	16.482	3.6	0.	1.3593e-002
55067	16.432	3.55	0.	9.1208e-003
55068	16.432	3.6	5.e-002	3.5176
55069	16.581	3.6	0.	0.70014
55070	16.531	3.55	0.	5.2107e-002
55071	16.531	3.6	5.e-002	3.5068
55072	16.681	3.6	0.	1.8715
55073	16.631	3.55	0.	1.1829
55074	16.631	3.6	5.e-002	3.4964
55075	16.78	3.6	0.	3.0238
55076	16.731	3.55	0.	2.3531
55077	16.731	3.6	5.e-002	3.4862
55078	16.88	3.6	0.	4.1569
55079	16.83	3.55	0.	3.5035
55080	16.83	3.6	5.e-002	3.4762
55081	16.98	3.6	0.	5.273
55082	16.93	3.55	0.	4.6355
55083	16.93	3.6	5.e-002	3.4665
55084	17.079	3.6	0.	6.374
55085	17.029	3.55	0.	5.7513
55086	17.029	3.6	5.e-002	3.4569
55087	17.179	3.6	0.	7.4621
55088	17.129	3.55	0.	6.8529
55089	17.129	3.6	5.e-002	3.4476
55090	17.278	3.6	0.	8.5392
55091	17.229	3.55	0.	7.9425
55092	17.229	3.6	5.e-002	3.4384
55093	17.378	3.6	0.	9.6076
55094	17.328	3.55	0.	9.0222
55095	17.328	3.6	5.e-002	3.4294
55096	17.477	3.6	0.	10.669
55097	17.428	3.55	0.	10.094
55098	17.428	3.6	5.e-002	3.4207
55099	17.577	3.6	0.	11.726
55100	17.527	3.55	0.	11.16
55101	17.527	3.6	5.e-002	3.4121
55102	17.677	3.6	0.	12.78
55103	17.627	3.55	0.	12.222
55104	17.627	3.6	5.e-002	3.4037
55105	17.776	3.6	0.	13.833
55106	17.726	3.55	0.	13.282
55107	17.726	3.6	5.e-002	3.3956
55108	17.876	3.6	0.	14.887
55109	17.826	3.55	0.	14.343
55110	17.826	3.6	5.e-002	3.3876
55111	17.975	3.6	0.	15.945
55112	17.926	3.55	0.	15.406
55113	17.926	3.6	5.e-002	3.3798
55114	18.075	3.6	0.	17.007
55115	18.025	3.55	0.	16.473
55116	18.025	3.6	5.e-002	3.3722
55117	18.175	3.6	0.	18.077
55118	18.125	3.55	0.	17.546
55119	18.125	3.6	5.e-002	3.3648
55120	18.274	3.6	0.	19.156
55121	18.224	3.55	0.	18.627
55122	18.224	3.6	5.e-002	3.3577
55123	18.374	3.6	0.	20.247
55124	18.324	3.55	0.	19.719
55125	18.324	3.6	5.e-002	3.3507
55126	18.473	3.6	0.	21.35
55127	18.423	3.55	0.	20.823
55128	18.423	3.6	5.e-002	3.3439
55129	18.573	3.6	0.	22.469
55130	18.523	3.55	0.	21.942
55131	18.523	3.6	5.e-002	3.3374
55132	18.672	3.6	0.	23.605
55133	18.623	3.55	0.	23.076
55134	18.623	3.6	5.e-002	3.331
55135	18.772	3.6	0.	24.76
55136	18.722	3.55	0.	24.23
55137	18.722	3.6	5.e-002	3.3248
55138	18.872	3.6	0.	25.937
55139	18.822	3.55	0.	25.404
55140	18.822	3.6	5.e-002	3.3189
55141	18.971	3.6	0.	27.138
55142	18.921	3.55	0.	26.601
55143	18.921	3.6	5.e-002	3.3131
55144	19.071	3.6	0.	28.365
55145	19.021	3.55	0.	27.824
55146	19.021	3.6	5.e-002	3.3076
55147	19.17	3.6	0.	29.62
55148	19.121	3.55	0.	29.073
55149	19.121	3.6	5.e-002	3.3023
55150	19.27	3.6	0.	30.906
55151	19.22	3.55	0.	30.353
55152	19.22	3.6	5.e-002	3.2973
55153	19.369	3.6	0.	32.224
55154	19.32	3.55	0.	31.664
55155	19.32	3.6	5.e-002	3.2925
55156	19.469	3.6	0.	33.578
55157	19.419	3.55	0.	33.01
55158	19.419	3.6	5.e-002	3.2879
55159	19.569	3.6	0.	34.97
55160	19.519	3.55	0.	34.392
55161	19.519	3.6	5.e-002	3.2837
55162	19.668	3.6	0.	36.401
55163	19.618	3.55	0.	35.814
55164	19.618	3.6	5.e-002	3.2796
55165	19.768	3.6	0.	37.876
55166	19.718	3.55	0.	37.278
55167	19.718	3.6	5.e-002	3.276
55168	19.867	3.6	0.	39.396
55169	19.818	3.55	0.	38.786
55170	19.818	3.6	5.e-002	3.2726
55171	19.967	3.6	0.	40.965
55172	19.917	3.55	0.	40.342
55173	19.917	3.6	5.e-002	3.2694
55174	20.067	3.6	0.	42.584
55175	20.017	3.55	0.	41.948
55176	20.017	3.6	5.e-002	3.2666
55177	20.166	3.6	0.	44.257
55178	20.116	3.55	0.	43.606
55179	20.116	3.6	5.e-002	3.2642
55180	20.266	3.6	0.	45.987
55181	20.216	3.55	0.	45.32
55182	20.216	3.6	5.e-002	3.262
55183	20.365	3.6	0.	47.777
55184	20.316	3.55	0.	47.093
55185	20.316	3.6	5.e-002	3.2603
55186	20.465	3.6	0.	49.629
55187	20.415	3.55	0.	48.928
55188	20.415	3.6	5.e-002	3.2588
55189	20.564	3.6	0.	51.548
55190	20.515	3.55	0.	50.828
55191	20.515	3.6	5.e-002	3.2579
55192	20.664	3.6	0.	53.535
55193	20.614	3.55	0.	52.796
55194	20.614	3.6	5.e-002	3.2573
55195	20.764	3.6	0.	55.596
55196	20.714	3.55	0.	54.835
55197	20.714	3.6	5.e-002	3.2571
55198	20.863	3.6	0.	57.732
55199	20.813	3.55	0.	56.949
55200	20.813	3.6	5.e-002	3.2574
55201	20.963	3.6	0.	59.947
55202	20.913	3.55	0.	59.141
55203	20.913	3.6	5.e-002	3.2582
55204	21.062	3.6	0.	62.246
55205	21.013	3.55	0.	61.414
55206	21.013	3.6	5.e-002	3.2595
55207	21.162	3.6	0.	64.63
55208	21.112	3.55	0.	63.773
55209	21.112	3.6	5.e-002	3.2614
55210	21.262	3.6	0.	67.105
55211	21.212	3.55	0.	66.22
55212	21.212	3.6	5.e-002	3.2638
55213	21.361	3.6	0.	69.674
55214	21.311	3.55	0.	68.76
55215	21.311	3.6	5.e-002	3.2667
55216	21.461	3.6	0.	72.34
55217	21.411	3.55	0.	71.396
55218	21.411	3.6	5.e-002	3.2703
55219	21.56	3.6	0.	75.107
55220	21.51	3.55	0.	74.131
55221	21.51	3.6	5.e-002	3.2746
55222	21.66	3.6	0.	77.979
55223	21.61	3.55	0.	76.97
55224	21.61	3.6	5.e-002	3.2795
55225	21.759	3.6	0.	80.96
55226	21.71	3.55	0.	79.917
55227	21.71	3.6	5.e-002	3.2852
55228	21.859	3.6	0.	84.054
55229	21.809	3.55	0.	82.973
55230	21.809	3.6	5.e-002	3.2915
55231	21.959	3.6	0.	87.263
55232	21.909	3.55	0.	86.145
55233	21.909	3.6	5.e-002	3.2987
55234	22.058	3.6	0.	90.592
55235	22.008	3.55	0.	89.434
55236	22.008	3.6	5.e-002	3.3067
55237	22.158	3.6	0.	94.045
55238	22.108	3.55	0.	92.844
55239	22.108	3.6	5.e-002	3.3156
55240	22.257	3.6	0.	97.623
55241	22.208	3.55	0.	96.379
55242	22.208	3.6	5.e-002	3.3254
55243	22.357	3.6	0.	101.33
55244	22.307	3.55	0.	100.04
55245	22.307	3.6	5.e-002	3.3362
55246	22.456	3.6	0.	105.17
55247	22.407	3.55	0.	103.84
55248	22.407	3.6	5.e-002	3.3479
55249	22.556	3.6	0.	109.15
55250	22.506	3.55	0.	107.76
55251	22.506	3.6	5.e-002	3.3607
55252	22.656	3.6	0.	113.26
55253	22.606	3.55	0.	111.82
55254	22.606	3.6	5.e-002	3.3745
55255	22.755	3.6	0.	117.51
55256	22.705	3.55	0.	116.02
55257	22.705	3.6	5.e-002	3.3893
55258	22.855	3.6	0.	121.91
55259	22.805	3.55	0.	120.36
55260	22.805	3.6	5.e-002	3.4053
55261	22.954	3.6	0.	126.44
55262	22.905	3.55	0.	124.84
55263	22.905	3.6	5.e-002	3.4224
55264	23.054	3.6	0.	131.12
55265	23.004	3.55	0.	129.46
55266	23.004	3.6	5.e-002	3.4406
55267	23.154	3.6	0.	135.95
55268	23.104	3.55	0.	134.23
55269	23.104	3.6	5.e-002	3.4598
55270	23.253	3.6	0.	140.91
55271	23.203	3.55	0.	139.13
55272	23.203	3.6	5.e-002	3.4803
55273	23.353	3.6	0.	146.02
55274	23.303	3.55	0.	144.18
55275	23.303	3.6	5.e-002	3.5017
55276	23.452	3.6	0.	151.27
55277	23.403	3.55	0.	149.37
55278	23.403	3.6	5.e-002	3.5242
55279	23.552	3.6	0.	156.66
55280	23.502	3.55	0.	154.7
55281	23.502	3.6	5.e-002	3.5477
55282	23.651	3.6	0.	162.19
55283	23.602	3.55	0.	160.17
55284	23.602	3.6	5.e-002	3.5721
55285	23.751	3.6	0.	167.86
55286	23.701	3.55	0.	165.77
55287	23.701	3.6	5.e-002	3.5975
55288	23.851	3.6	0.	173.66
55289	23.801	3.55	0.	171.52
55290	23.801	3.6	5.e-002	3.6229
55291	23.9	3.55	0.	177.35
55292	23.9	3.6	5.e-002	3.6611
55293	23.95	3.6	0.	179.61
55294	8.316	3.5	0.	863.44
55295	8.2662	3.45	0.	936.01
55296	8.2662	3.5	5.e-002	72.497
55297	8.4156	3.5	0.	666.66
55298	8.3658	3.45	0.	757.99
55299	8.3658	3.5	5.e-002	76.568
55300	8.5152	3.5	0.	469.52
55301	8.4654	3.45	0.	564.97
55302	8.4654	3.5	5.e-002	74.126
55303	8.6148	3.5	0.	292.16
55304	8.565	3.45	0.	381.05
55305	8.565	3.5	5.e-002	67.988
55306	8.7144	3.5	0.	142.85
55307	8.6646	3.45	0.	219.54
55308	8.6646	3.5	5.e-002	60.814
55309	8.8139	3.5	0.	22.002
55310	8.7642	3.45	0.	84.652
55311	8.7642	3.5	5.e-002	53.977
55312	8.9135	3.5	0.	1.6602
55313	8.8637	3.45	0.	1.6663
55314	8.8637	3.5	5.e-002	47.916
55315	9.0131	3.5	0.	1.4045
55316	8.9633	3.45	0.	1.4489
55317	8.9633	3.5	5.e-002	42.667
55318	9.1127	3.5	0.	1.1852
55319	9.0629	3.45	0.	1.2429
55320	9.0629	3.5	5.e-002	38.135
55321	9.2123	3.5	0.	1.0016
55322	9.1625	3.45	0.	1.0608
55323	9.1625	3.5	5.e-002	34.206
55324	9.3118	3.5	0.	0.84851
55325	9.2621	3.45	0.	0.90377
55326	9.2621	3.5	5.e-002	30.779
55327	9.4114	3.5	0.	0.72028
55328	9.3616	3.45	0.	0.76961
55329	9.3616	3.5	5.e-002	27.775
55330	9.511	3.5	0.	0.61228
55331	9.4612	3.45	0.	0.65517
55332	9.4612	3.5	5.e-002	25.13
55333	9.6106	3.5	0.	0.52087
55334	9.5608	3.45	0.	0.55756
55335	9.5608	3.5	5.e-002	22.793
55336	9.7102	3.5	0.	0.44323
55337	9.6604	3.45	0.	0.47427
55338	9.6604	3.5	5.e-002	20.725
55339	9.8097	3.5	0.	0.37713
55340	9.76	3.45	0.	0.40319
55341	9.76	3.5	5.e-002	18.891
55342	9.9093	3.5	0.	0.32079
55343	9.8595	3.45	0.	0.34257
55344	9.8595	3.5	5.e-002	17.263
55345	10.009	3.5	0.	0.27275
55346	9.9591	3.45	0.	0.29088
55347	9.9591	3.5	5.e-002	15.816
55348	10.108	3.5	0.	0.23177
55349	10.059	3.45	0.	0.24682
55350	10.059	3.5	5.e-002	14.531
55351	10.208	3.5	0.	0.19682
55352	10.158	3.45	0.	0.20929
55353	10.158	3.5	5.e-002	13.387
55354	10.308	3.5	0.	0.16704
55355	10.258	3.45	0.	0.17734
55356	10.258	3.5	5.e-002	12.37
55357	10.407	3.5	0.	0.1417
55358	10.357	3.45	0.	0.15019
55359	10.357	3.5	5.e-002	11.465
55360	10.507	3.5	0.	0.12012
55361	10.457	3.45	0.	0.12712
55362	10.457	3.5	5.e-002	10.659
55363	10.606	3.5	0.	0.10175
55364	10.557	3.45	0.	0.10752
55365	10.557	3.5	5.e-002	9.9412
55366	10.706	3.5	0.	8.6133e-002
55367	10.656	3.45	0.	9.0866e-002
55368	10.656	3.5	5.e-002	9.3021
55369	10.806	3.5	0.	7.2856e-002
55370	10.756	3.45	0.	7.6736e-002
55371	10.756	3.5	5.e-002	8.7328
55372	10.905	3.5	0.	6.1587e-002
55373	10.855	3.45	0.	6.4749e-002
55374	10.855	3.5	5.e-002	8.2254
55375	11.005	3.5	0.	5.2037e-002
55376	10.955	3.45	0.	5.4603e-002
55377	10.955	3.5	5.e-002	7.7731
55378	11.104	3.5	0.	4.3926e-002
55379	11.055	3.45	0.	4.6023e-002
55380	11.055	3.5	5.e-002	7.3697
55381	11.204	3.5	0.	3.704e-002
55382	11.154	3.45	0.	3.8725e-002
55383	11.154	3.5	5.e-002	7.0098
55384	11.303	3.5	0.	3.1223e-002
55385	11.254	3.45	0.	3.2563e-002
55386	11.254	3.5	5.e-002	6.6884
55387	11.403	3.5	0.	2.6313e-002
55388	11.353	3.45	0.	2.7375e-002
55389	11.353	3.5	5.e-002	6.4011
55390	11.503	3.5	0.	2.2172e-002
55391	11.453	3.45	0.	2.3e-002
55392	11.453	3.5	5.e-002	6.1443
55393	11.602	3.5	0.	1.8683e-002
55394	11.552	3.45	0.	1.9321e-002
55395	11.552	3.5	5.e-002	5.9144
55396	11.702	3.5	0.	1.5744e-002
55397	11.652	3.45	0.	1.6228e-002
55398	11.652	3.5	5.e-002	5.7086
55399	11.801	3.5	0.	1.3283e-002
55400	11.752	3.45	0.	1.3628e-002
55401	11.752	3.5	5.e-002	5.5238
55402	11.901	3.5	0.	1.1241e-002
55403	11.851	3.45	0.	1.1471e-002
55404	11.851	3.5	5.e-002	5.3579
55405	12.001	3.5	0.	9.5449e-003
55406	11.951	3.45	0.	9.6912e-003
55407	11.951	3.5	5.e-002	5.2088
55408	12.1	3.5	0.	8.1337e-003
55409	12.05	3.45	0.	8.2109e-003
55410	12.05	3.5	5.e-002	5.0745
55411	12.2	3.5	0.	6.9684e-003
55412	12.15	3.45	0.	6.9882e-003
55413	12.15	3.5	5.e-002	4.9534
55414	12.299	3.5	0.	6.02e-003
55415	12.249	3.45	0.	5.9866e-003
55416	12.249	3.5	5.e-002	4.844
55417	12.399	3.5	0.	5.2602e-003
55418	12.349	3.45	0.	5.1859e-003
55419	12.349	3.5	5.e-002	4.745
55420	12.498	3.5	0.	4.6389e-003
55421	12.449	3.45	0.	4.553e-003
55422	12.449	3.5	5.e-002	4.6552
55423	12.598	3.5	0.	4.1328e-003
55424	12.548	3.45	0.	4.0206e-003
55425	12.548	3.5	5.e-002	4.5737
55426	12.698	3.5	0.	3.7449e-003
55427	12.648	3.45	0.	3.6094e-003
55428	12.648	3.5	5.e-002	4.4993
55429	12.797	3.5	0.	3.4528e-003
55430	12.747	3.45	0.	3.3067e-003
55431	12.747	3.5	5.e-002	4.4315
55432	12.897	3.5	0.	3.2378e-003
55433	12.847	3.45	0.	3.081e-003
55434	12.847	3.5	5.e-002	4.3694
55435	12.996	3.5	0.	3.0862e-003
55436	12.947	3.45	0.	2.9269e-003
55437	12.947	3.5	5.e-002	4.3124
55438	13.096	3.5	0.	2.981e-003
55439	13.046	3.45	0.	2.8232e-003
55440	13.046	3.5	5.e-002	4.2601
55441	13.195	3.5	0.	2.9231e-003
55442	13.146	3.45	0.	2.7574e-003
55443	13.146	3.5	5.e-002	4.2118
55444	13.295	3.5	0.	2.9162e-003
55445	13.245	3.45	0.	2.7448e-003
55446	13.245	3.5	5.e-002	4.1671
55447	13.395	3.5	0.	2.9426e-003
55448	13.345	3.45	0.	2.7774e-003
55449	13.345	3.5	5.e-002	4.1258
55450	13.494	3.5	0.	2.9892e-003
55451	13.444	3.45	0.	2.8282e-003
55452	13.444	3.5	5.e-002	4.0874
55453	13.594	3.5	0.	3.0548e-003
55454	13.544	3.45	0.	2.8977e-003
55455	13.544	3.5	5.e-002	4.0516
55456	13.693	3.5	0.	3.1362e-003
55457	13.644	3.45	0.	2.9845e-003
55458	13.644	3.5	5.e-002	4.0182
55459	13.793	3.5	0.	3.237e-003
55460	13.743	3.45	0.	3.0837e-003
55461	13.743	3.5	5.e-002	3.9869
55462	13.893	3.5	0.	3.3585e-003
55463	13.843	3.45	0.	3.2069e-003
55464	13.843	3.5	5.e-002	3.9576
55465	13.992	3.5	0.	3.4774e-003
55466	13.942	3.45	0.	3.3449e-003
55467	13.942	3.5	5.e-002	3.93
55468	14.092	3.5	0.	3.5911e-003
55469	14.042	3.45	0.	3.4612e-003
55470	14.042	3.5	5.e-002	3.904
55471	14.191	3.5	0.	3.7193e-003
55472	14.142	3.45	0.	3.5882e-003
55473	14.142	3.5	5.e-002	3.8793
55474	14.291	3.5	0.	3.8566e-003
55475	14.241	3.45	0.	3.7309e-003
55476	14.241	3.5	5.e-002	3.8559
55477	14.39	3.5	0.	3.996e-003
55478	14.341	3.45	0.	3.8744e-003
55479	14.341	3.5	5.e-002	3.8337
55480	14.49	3.5	0.	4.1364e-003
55481	14.44	3.45	0.	4.0212e-003
55482	14.44	3.5	5.e-002	3.8125
55483	14.59	3.5	0.	4.2729e-003
55484	14.54	3.45	0.	4.1656e-003
55485	14.54	3.5	5.e-002	3.7923
55486	14.689	3.5	0.	4.4127e-003
55487	14.639	3.45	0.	4.3036e-003
55488	14.639	3.5	5.e-002	3.773
55489	14.789	3.5	0.	4.564e-003
55490	14.739	3.45	0.	4.4531e-003
55491	14.739	3.5	5.e-002	3.7544
55492	14.888	3.5	0.	4.7172e-003
55493	14.839	3.45	0.	4.6129e-003
55494	14.839	3.5	5.e-002	3.7366
55495	14.988	3.5	0.	4.8666e-003
55496	14.938	3.45	0.	4.7653e-003
55497	14.938	3.5	5.e-002	3.7195
55498	15.088	3.5	0.	5.0145e-003
55499	15.038	3.45	0.	4.9159e-003
55500	15.038	3.5	5.e-002	3.703
55501	15.187	3.5	0.	5.1662e-003
55502	15.137	3.45	0.	5.0649e-003
55503	15.137	3.5	5.e-002	3.6871
55504	15.287	3.5	0.	5.3269e-003
55505	15.237	3.45	0.	5.2227e-003
55506	15.237	3.5	5.e-002	3.6718
55507	15.386	3.5	0.	5.479e-003
55508	15.336	3.45	0.	5.3878e-003
55509	15.336	3.5	5.e-002	3.657
55510	15.486	3.5	0.	5.6235e-003
55511	15.436	3.45	0.	5.5273e-003
55512	15.436	3.5	5.e-002	3.6426
55513	15.585	3.5	0.	5.7776e-003
55514	15.536	3.45	0.	5.676e-003
55515	15.536	3.5	5.e-002	3.6287
55516	15.685	3.5	0.	5.939e-003
55517	15.635	3.45	0.	5.833e-003
55518	15.635	3.5	5.e-002	3.6151
55519	15.785	3.5	0.	6.1073e-003
55520	15.735	3.45	0.	5.9941e-003
55521	15.735	3.5	5.e-002	3.602
55522	15.884	3.5	0.	6.2832e-003
55523	15.834	3.45	0.	6.1618e-003
55524	15.834	3.5	5.e-002	3.5892
55525	15.984	3.5	0.	6.4678e-003
55526	15.934	3.45	0.	6.3347e-003
55527	15.934	3.5	5.e-002	3.5767
55528	16.083	3.5	0.	6.6778e-003
55529	16.034	3.45	0.	6.5138e-003
55530	16.034	3.5	5.e-002	3.5645
55531	16.183	3.5	0.	6.9418e-003
55532	16.133	3.45	0.	6.7285e-003
55533	16.133	3.5	5.e-002	3.5527
55534	16.282	3.5	0.	7.3022e-003
55535	16.233	3.45	0.	7.0008e-003
55536	16.233	3.5	5.e-002	3.5411
55537	16.382	3.5	0.	7.9284e-003
55538	16.332	3.45	0.	7.3819e-003
55539	16.332	3.5	5.e-002	3.5298
55540	16.482	3.5	0.	1.0147e-002
55541	16.432	3.45	0.	8.1608e-003
55542	16.432	3.5	5.e-002	3.5188
55543	16.581	3.5	0.	0.48423
55544	16.531	3.45	0.	1.5582e-002
55545	16.531	3.5	5.e-002	3.5081
55546	16.681	3.5	0.	1.6721
55547	16.631	3.45	0.	0.99361
55548	16.631	3.5	5.e-002	3.4976
55549	16.78	3.5	0.	2.8409
55550	16.731	3.45	0.	2.1792
55551	16.731	3.5	5.e-002	3.4873
55552	16.88	3.5	0.	3.9903
55553	16.83	3.45	0.	3.3446
55554	16.83	3.5	5.e-002	3.4773
55555	16.98	3.5	0.	5.1221
55556	16.93	3.45	0.	4.4911
55557	16.93	3.5	5.e-002	3.4675
55558	17.079	3.5	0.	6.2386
55559	17.029	3.45	0.	5.6212
55560	17.029	3.5	5.e-002	3.458
55561	17.179	3.5	0.	7.3419
55562	17.129	3.45	0.	6.7368
55563	17.129	3.5	5.e-002	3.4486
55564	17.278	3.5	0.	8.4341
55565	17.229	3.45	0.	7.8402
55566	17.229	3.5	5.e-002	3.4394
55567	17.378	3.5	0.	9.5173
55568	17.328	3.45	0.	8.9335
55569	17.328	3.5	5.e-002	3.4304
55570	17.477	3.5	0.	10.594
55571	17.428	3.45	0.	10.019
55572	17.428	3.5	5.e-002	3.4217
55573	17.577	3.5	0.	11.665
55574	17.527	3.45	0.	11.098
55575	17.527	3.5	5.e-002	3.413
55576	17.677	3.5	0.	12.734
55577	17.627	3.45	0.	12.174
55578	17.627	3.5	5.e-002	3.4047
55579	17.776	3.5	0.	13.801
55580	17.726	3.45	0.	13.247
55581	17.726	3.5	5.e-002	3.3965
55582	17.876	3.5	0.	14.871
55583	17.826	3.45	0.	14.321
55584	17.826	3.5	5.e-002	3.3885
55585	17.975	3.5	0.	15.943
55586	17.926	3.45	0.	15.397
55587	17.926	3.5	5.e-002	3.3808
55588	18.075	3.5	0.	17.02
55589	18.025	3.45	0.	16.478
55590	18.025	3.5	5.e-002	3.3732
55591	18.175	3.5	0.	18.105
55592	18.125	3.45	0.	17.565
55593	18.125	3.5	5.e-002	3.3658
55594	18.274	3.5	0.	19.2
55595	18.224	3.45	0.	18.66
55596	18.224	3.5	5.e-002	3.3586
55597	18.374	3.5	0.	20.305
55598	18.324	3.45	0.	19.766
55599	18.324	3.5	5.e-002	3.3517
55600	18.473	3.5	0.	21.424
55601	18.423	3.45	0.	20.884
55602	18.423	3.5	5.e-002	3.3449
55603	18.573	3.5	0.	22.559
55604	18.523	3.45	0.	22.017
55605	18.523	3.5	5.e-002	3.3383
55606	18.672	3.5	0.	23.712
55607	18.623	3.45	0.	23.167
55608	18.623	3.5	5.e-002	3.332
55609	18.772	3.5	0.	24.884
55610	18.722	3.45	0.	24.336
55611	18.722	3.5	5.e-002	3.3258
55612	18.872	3.5	0.	26.078
55613	18.822	3.45	0.	25.525
55614	18.822	3.5	5.e-002	3.3199
55615	18.971	3.5	0.	27.297
55616	18.921	3.45	0.	26.738
55617	18.921	3.5	5.e-002	3.3142
55618	19.071	3.5	0.	28.542
55619	19.021	3.45	0.	27.977
55620	19.021	3.5	5.e-002	3.3086
55621	19.17	3.5	0.	29.816
55622	19.121	3.45	0.	29.244
55623	19.121	3.5	5.e-002	3.3034
55624	19.27	3.5	0.	31.121
55625	19.22	3.45	0.	30.54
55626	19.22	3.5	5.e-002	3.2984
55627	19.369	3.5	0.	32.459
55628	19.32	3.45	0.	31.869
55629	19.32	3.5	5.e-002	3.2936
55630	19.469	3.5	0.	33.834
55631	19.419	3.45	0.	33.234
55632	19.419	3.5	5.e-002	3.2891
55633	19.569	3.5	0.	35.247
55634	19.519	3.45	0.	34.635
55635	19.519	3.5	5.e-002	3.2849
55636	19.668	3.5	0.	36.701
55637	19.618	3.45	0.	36.077
55638	19.618	3.5	5.e-002	3.2809
55639	19.768	3.5	0.	38.198
55640	19.718	3.45	0.	37.562
55641	19.718	3.5	5.e-002	3.2773
55642	19.867	3.5	0.	39.742
55643	19.818	3.45	0.	39.091
55644	19.818	3.5	5.e-002	3.2739
55645	19.967	3.5	0.	41.335
55646	19.917	3.45	0.	40.669
55647	19.917	3.5	5.e-002	3.2708
55648	20.067	3.5	0.	42.98
55649	20.017	3.45	0.	42.297
55650	20.017	3.5	5.e-002	3.2681
55651	20.166	3.5	0.	44.68
55652	20.116	3.45	0.	43.979
55653	20.116	3.5	5.e-002	3.2656
55654	20.266	3.5	0.	46.437
55655	20.216	3.45	0.	45.718
55656	20.216	3.5	5.e-002	3.2636
55657	20.365	3.5	0.	48.255
55658	20.316	3.45	0.	47.517
55659	20.316	3.5	5.e-002	3.2619
55660	20.465	3.5	0.	50.137
55661	20.415	3.45	0.	49.378
55662	20.415	3.5	5.e-002	3.2605
55663	20.564	3.5	0.	52.086
55664	20.515	3.45	0.	51.304
55665	20.515	3.5	5.e-002	3.2596
55666	20.664	3.5	0.	54.105
55667	20.614	3.45	0.	53.3
55668	20.614	3.5	5.e-002	3.2591
55669	20.764	3.5	0.	56.197
55670	20.714	3.45	0.	55.368
55671	20.714	3.5	5.e-002	3.259
55672	20.863	3.5	0.	58.367
55673	20.813	3.45	0.	57.512
55674	20.813	3.5	5.e-002	3.2594
55675	20.963	3.5	0.	60.617
55676	20.913	3.45	0.	59.735
55677	20.913	3.5	5.e-002	3.2603
55678	21.062	3.5	0.	62.951
55679	21.013	3.45	0.	62.041
55680	21.013	3.5	5.e-002	3.2617
55681	21.162	3.5	0.	65.372
55682	21.112	3.45	0.	64.432
55683	21.112	3.5	5.e-002	3.2636
55684	21.262	3.5	0.	67.884
55685	21.212	3.45	0.	66.913
55686	21.212	3.5	5.e-002	3.2661
55687	21.361	3.5	0.	70.491
55688	21.311	3.45	0.	69.487
55689	21.311	3.5	5.e-002	3.2692
55690	21.461	3.5	0.	73.196
55691	21.411	3.45	0.	72.158
55692	21.411	3.5	5.e-002	3.2729
55693	21.56	3.5	0.	76.003
55694	21.51	3.45	0.	74.93
55695	21.51	3.5	5.e-002	3.2772
55696	21.66	3.5	0.	78.916
55697	21.61	3.45	0.	77.805
55698	21.61	3.5	5.e-002	3.2823
55699	21.759	3.5	0.	81.938
55700	21.71	3.45	0.	80.788
55701	21.71	3.5	5.e-002	3.288
55702	21.859	3.5	0.	85.072
55703	21.809	3.45	0.	83.882
55704	21.809	3.5	5.e-002	3.2945
55705	21.959	3.5	0.	88.323
55706	21.909	3.45	0.	87.09
55707	21.909	3.5	5.e-002	3.3018
55708	22.058	3.5	0.	91.693
55709	22.008	3.45	0.	90.417
55710	22.008	3.5	5.e-002	3.3099
55711	22.158	3.5	0.	95.186
55712	22.108	3.45	0.	93.864
55713	22.108	3.5	5.e-002	3.3189
55714	22.257	3.5	0.	98.805
55715	22.208	3.45	0.	97.436
55716	22.208	3.5	5.e-002	3.3288
55717	22.357	3.5	0.	102.55
55718	22.307	3.45	0.	101.13
55719	22.307	3.5	5.e-002	3.3396
55720	22.456	3.5	0.	106.43
55721	22.407	3.45	0.	104.96
55722	22.407	3.5	5.e-002	3.3514
55723	22.556	3.5	0.	110.44
55724	22.506	3.45	0.	108.92
55725	22.506	3.5	5.e-002	3.3641
55726	22.656	3.5	0.	114.59
55727	22.606	3.45	0.	113.02
55728	22.606	3.5	5.e-002	3.3779
55729	22.755	3.5	0.	118.88
55730	22.705	3.45	0.	117.25
55731	22.705	3.5	5.e-002	3.3928
55732	22.855	3.5	0.	123.3
55733	22.805	3.45	0.	121.62
55734	22.805	3.5	5.e-002	3.4087
55735	22.954	3.5	0.	127.87
55736	22.905	3.45	0.	126.13
55737	22.905	3.5	5.e-002	3.4256
55738	23.054	3.5	0.	132.57
55739	23.004	3.45	0.	130.77
55740	23.004	3.5	5.e-002	3.4437
55741	23.154	3.5	0.	137.42
55742	23.104	3.45	0.	135.56
55743	23.104	3.5	5.e-002	3.4628
55744	23.253	3.5	0.	142.41
55745	23.203	3.45	0.	140.48
55746	23.203	3.5	5.e-002	3.483
55747	23.353	3.5	0.	147.53
55748	23.303	3.45	0.	145.55
55749	23.303	3.5	5.e-002	3.5042
55750	23.452	3.5	0.	152.8
55751	23.403	3.45	0.	150.75
55752	23.403	3.5	5.e-002	3.5263
55753	23.552	3.5	0.	158.2
55754	23.502	3.45	0.	156.09
55755	23.502	3.5	5.e-002	3.5494
55756	23.651	3.5	0.	163.74
55757	23.602	3.45	0.	161.57
55758	23.602	3.5	5.e-002	3.5734
55759	23.751	3.5	0.	169.42
55760	23.701	3.45	0.	167.17
55761	23.701	3.5	5.e-002	3.5983
55762	23.851	3.5	0.	175.21
55763	23.801	3.45	0.	172.93
55764	23.801	3.5	5.e-002	3.6231
55765	23.9	3.45	0.	178.76
55766	23.9	3.5	5.e-002	3.6593
55767	23.95	3.5	0.	181.18
55768	8.316	3.4	0.	830.67
55769	8.2662	3.35	0.	893.85
55770	8.2662	3.4	5.e-002	50.987
55771	8.4156	3.4	0.	659.84
55772	8.3658	3.35	0.	741.1
55773	8.3658	3.4	5.e-002	57.191
55774	8.5152	3.4	0.	481.27
55775	8.4654	3.35	0.	568.99
55776	8.4654	3.4	5.e-002	59.155
55777	8.6148	3.4	0.	312.93
55778	8.565	3.35	0.	397.65
55779	8.565	3.4	5.e-002	57.697
55780	8.7144	3.4	0.	164.94
55781	8.6646	3.35	0.	240.7
55782	8.6646	3.4	5.e-002	54.293
55783	8.8139	3.4	0.	40.824
55784	8.7642	3.35	0.	104.81
55785	8.7642	3.4	5.e-002	50.091
55786	8.9135	3.4	0.	1.4782
55787	8.8637	3.35	0.	1.5423
55788	8.8637	3.4	5.e-002	45.746
55789	9.0131	3.4	0.	1.3019
55790	8.9633	3.35	0.	1.3422
55791	8.9633	3.4	5.e-002	41.571
55792	9.1127	3.4	0.	1.1296
55793	9.0629	3.35	0.	1.1881
55794	9.0629	3.4	5.e-002	37.693
55795	9.2123	3.4	0.	0.9717
55796	9.1625	3.35	0.	1.0352
55797	9.1625	3.4	5.e-002	34.151
55798	9.3118	3.4	0.	0.83194
55799	9.2621	3.35	0.	0.89312
55800	9.2621	3.4	5.e-002	30.945
55801	9.4114	3.4	0.	0.71021
55802	9.3616	3.35	0.	0.76568
55803	9.3616	3.4	5.e-002	28.058
55804	9.511	3.4	0.	0.60508
55805	9.4612	3.35	0.	0.65362
55806	9.4612	3.4	5.e-002	25.468
55807	9.6106	3.4	0.	0.51473
55808	9.5608	3.35	0.	0.5563
55809	9.5608	3.4	5.e-002	23.149
55810	9.7102	3.4	0.	0.43733
55811	9.6604	3.35	0.	0.47243
55812	9.6604	3.4	5.e-002	21.076
55813	9.8097	3.4	0.	0.37117
55814	9.76	3.35	0.	0.40053
55815	9.76	3.4	5.e-002	19.226
55816	9.9093	3.4	0.	0.31475
55817	9.8595	3.35	0.	0.33915
55818	9.8595	3.4	5.e-002	17.576
55819	10.009	3.4	0.	0.26668
55820	9.9591	3.35	0.	0.2869
55821	9.9591	3.4	5.e-002	16.105
55822	10.108	3.4	0.	0.22578
55823	10.059	3.35	0.	0.24248
55824	10.059	3.4	5.e-002	14.796
55825	10.208	3.4	0.	0.19101
55826	10.158	3.35	0.	0.20479
55827	10.158	3.4	5.e-002	13.629
55828	10.308	3.4	0.	0.16149
55829	10.258	3.35	0.	0.17283
55830	10.258	3.4	5.e-002	12.59
55831	10.407	3.4	0.	0.13646
55832	10.357	3.35	0.	0.14578
55833	10.357	3.4	5.e-002	11.665
55834	10.507	3.4	0.	0.11523
55835	10.457	3.35	0.	0.1229
55836	10.457	3.4	5.e-002	10.841
55837	10.606	3.4	0.	9.7226e-002
55838	10.557	3.35	0.	0.10353
55839	10.557	3.4	5.e-002	10.107
55840	10.706	3.4	0.	8.1971e-002
55841	10.656	3.35	0.	8.7142e-002
55842	10.656	3.4	5.e-002	9.4531
55843	10.806	3.4	0.	6.9051e-002
55844	10.756	3.35	0.	7.3291e-002
55845	10.756	3.4	5.e-002	8.8705
55846	10.905	3.4	0.	5.8123e-002
55847	10.855	3.35	0.	6.1583e-002
55848	10.855	3.4	5.e-002	8.351
55849	11.005	3.4	0.	4.8892e-002
55850	10.955	3.35	0.	5.171e-002
55851	10.955	3.4	5.e-002	7.8877
55852	11.104	3.4	0.	4.1079e-002
55853	11.055	3.35	0.	4.3387e-002
55854	11.055	3.4	5.e-002	7.4744
55855	11.204	3.4	0.	3.4466e-002
55856	11.154	3.35	0.	3.6333e-002
55857	11.154	3.4	5.e-002	7.1053
55858	11.303	3.4	0.	2.89e-002
55859	11.254	3.35	0.	3.0395e-002
55860	11.254	3.4	5.e-002	6.7756
55861	11.403	3.4	0.	2.4218e-002
55862	11.353	3.35	0.	2.5414e-002
55863	11.353	3.4	5.e-002	6.4807
55864	11.503	3.4	0.	2.0283e-002
55865	11.453	3.35	0.	2.1228e-002
55866	11.453	3.4	5.e-002	6.2169
55867	11.602	3.4	0.	1.698e-002
55868	11.552	3.35	0.	1.7721e-002
55869	11.552	3.4	5.e-002	5.9806
55870	11.702	3.4	0.	1.4209e-002
55871	11.652	3.35	0.	1.4783e-002
55872	11.652	3.4	5.e-002	5.7688
55873	11.801	3.4	0.	1.1899e-002
55874	11.752	3.35	0.	1.2324e-002
55875	11.752	3.4	5.e-002	5.5787
55876	11.901	3.4	0.	9.9917e-003
55877	11.851	3.35	0.	1.0293e-002
55878	11.851	3.4	5.e-002	5.4078
55879	12.001	3.4	0.	8.4177e-003
55880	11.951	3.35	0.	8.6282e-003
55881	11.951	3.4	5.e-002	5.2541
55882	12.1	3.4	0.	7.1171e-003
55883	12.05	3.35	0.	7.2513e-003
55884	12.05	3.4	5.e-002	5.1156
55885	12.2	3.4	0.	6.0507e-003
55886	12.15	3.35	0.	6.1217e-003
55887	12.15	3.4	5.e-002	4.9907
55888	12.299	3.4	0.	5.1905e-003
55889	12.249	3.35	0.	5.2035e-003
55890	12.249	3.4	5.e-002	4.8778
55891	12.399	3.4	0.	4.5112e-003
55892	12.349	3.35	0.	4.4785e-003
55893	12.349	3.4	5.e-002	4.7756
55894	12.498	3.4	0.	3.9625e-003
55895	12.449	3.35	0.	3.913e-003
55896	12.449	3.4	5.e-002	4.6829
55897	12.598	3.4	0.	3.5211e-003
55898	12.548	3.35	0.	3.4425e-003
55899	12.548	3.4	5.e-002	4.5987
55900	12.698	3.4	0.	3.1916e-003
55901	12.648	3.35	0.	3.0864e-003
55902	12.648	3.4	5.e-002	4.522
55903	12.797	3.4	0.	2.9524e-003
55904	12.747	3.35	0.	2.8338e-003
55905	12.747	3.4	5.e-002	4.4519
55906	12.897	3.4	0.	2.7851e-003
55907	12.847	3.35	0.	2.6529e-003
55908	12.847	3.4	5.e-002	4.3879
55909	12.996	3.4	0.	2.6767e-003
55910	12.947	3.35	0.	2.5397e-003
55911	12.947	3.4	5.e-002	4.3291
55912	13.096	3.4	0.	2.6106e-003
55913	13.046	3.35	0.	2.4735e-003
55914	13.046	3.4	5.e-002	4.2752
55915	13.195	3.4	0.	2.5883e-003
55916	13.146	3.35	0.	2.4412e-003
55917	13.146	3.4	5.e-002	4.2254
55918	13.295	3.4	0.	2.6139e-003
55919	13.245	3.35	0.	2.4584e-003
55920	13.245	3.4	5.e-002	4.1794
55921	13.395	3.4	0.	2.6696e-003
55922	13.345	3.35	0.	2.5189e-003
55923	13.345	3.4	5.e-002	4.1369
55924	13.494	3.4	0.	2.7422e-003
55925	13.444	3.35	0.	2.5949e-003
55926	13.444	3.4	5.e-002	4.0975
55927	13.594	3.4	0.	2.832e-003
55928	13.544	3.35	0.	2.6865e-003
55929	13.544	3.4	5.e-002	4.0607
55930	13.693	3.4	0.	2.9358e-003
55931	13.644	3.35	0.	2.7945e-003
55932	13.644	3.4	5.e-002	4.0265
55933	13.793	3.4	0.	3.0567e-003
55934	13.743	3.35	0.	2.9122e-003
55935	13.743	3.4	5.e-002	3.9944
55936	13.893	3.4	0.	3.1957e-003
55937	13.843	3.35	0.	3.0524e-003
55938	13.843	3.4	5.e-002	3.9644
55939	13.992	3.4	0.	3.3305e-003
55940	13.942	3.35	0.	3.2056e-003
55941	13.942	3.4	5.e-002	3.9362
55942	14.092	3.4	0.	3.4597e-003
55943	14.042	3.35	0.	3.3361e-003
55944	14.042	3.4	5.e-002	3.9096
55945	14.191	3.4	0.	3.6009e-003
55946	14.142	3.35	0.	3.4757e-003
55947	14.142	3.4	5.e-002	3.8844
55948	14.291	3.4	0.	3.7494e-003
55949	14.241	3.35	0.	3.6298e-003
55950	14.241	3.4	5.e-002	3.8606
55951	14.39	3.4	0.	3.9e-003
55952	14.341	3.35	0.	3.7841e-003
55953	14.341	3.4	5.e-002	3.838
55954	14.49	3.4	0.	4.0506e-003
55955	14.44	3.35	0.	3.9393e-003
55956	14.44	3.4	5.e-002	3.8164
55957	14.59	3.4	0.	4.1962e-003
55958	14.54	3.35	0.	4.0929e-003
55959	14.54	3.4	5.e-002	3.7959
55960	14.689	3.4	0.	4.3438e-003
55961	14.639	3.35	0.	4.238e-003
55962	14.639	3.4	5.e-002	3.7762
55963	14.789	3.4	0.	4.5017e-003
55964	14.739	3.35	0.	4.3934e-003
55965	14.739	3.4	5.e-002	3.7574
55966	14.888	3.4	0.	4.6605e-003
55967	14.839	3.35	0.	4.5593e-003
55968	14.839	3.4	5.e-002	3.7394
55969	14.988	3.4	0.	4.8141e-003
55970	14.938	3.35	0.	4.7165e-003
55971	14.938	3.4	5.e-002	3.7221
55972	15.088	3.4	0.	4.9657e-003
55973	15.038	3.35	0.	4.8708e-003
55974	15.038	3.4	5.e-002	3.7054
55975	15.187	3.4	0.	5.1208e-003
55976	15.137	3.35	0.	5.0228e-003
55977	15.137	3.4	5.e-002	3.6893
55978	15.287	3.4	0.	5.283e-003
55979	15.237	3.35	0.	5.1831e-003
55980	15.237	3.4	5.e-002	3.6738
55981	15.386	3.4	0.	5.4355e-003
55982	15.336	3.35	0.	5.3488e-003
55983	15.336	3.4	5.e-002	3.6589
55984	15.486	3.4	0.	5.5793e-003
55985	15.436	3.35	0.	5.4891e-003
55986	15.436	3.4	5.e-002	3.6444
55987	15.585	3.4	0.	5.7309e-003
55988	15.536	3.35	0.	5.6359e-003
55989	15.536	3.4	5.e-002	3.6304
55990	15.685	3.4	0.	5.8877e-003
55991	15.635	3.35	0.	5.7904e-003
55992	15.635	3.4	5.e-002	3.6167
55993	15.785	3.4	0.	6.0483e-003
55994	15.735	3.35	0.	5.9463e-003
55995	15.735	3.4	5.e-002	3.6035
55996	15.884	3.4	0.	6.2129e-003
55997	15.834	3.35	0.	6.1063e-003
55998	15.834	3.4	5.e-002	3.5906
55999	15.984	3.4	0.	6.3799e-003
56000	15.934	3.35	0.	6.2673e-003
56001	15.934	3.4	5.e-002	3.578
56002	16.083	3.4	0.	6.5623e-003
56003	16.034	3.35	0.	6.428e-003
56004	16.034	3.4	5.e-002	3.5658
56005	16.183	3.4	0.	6.7804e-003
56006	16.133	3.35	0.	6.6135e-003
56007	16.133	3.4	5.e-002	3.5538
56008	16.282	3.4	0.	7.0538e-003
56009	16.233	3.35	0.	6.8339e-003
56010	16.233	3.4	5.e-002	3.5422
56011	16.382	3.4	0.	7.4652e-003
56012	16.332	3.35	0.	7.1102e-003
56013	16.332	3.4	5.e-002	3.5309
56014	16.482	3.4	0.	8.5891e-003
56015	16.432	3.35	0.	7.5801e-003
56016	16.432	3.4	5.e-002	3.5199
56017	16.581	3.4	0.	0.30708
56018	16.531	3.35	0.	1.0121e-002
56019	16.531	3.4	5.e-002	3.5091
56020	16.681	3.4	0.	1.5083
56021	16.631	3.35	0.	0.8416
56022	16.631	3.4	5.e-002	3.4985
56023	16.78	3.4	0.	2.6909
56024	16.731	3.35	0.	2.0398
56025	16.731	3.4	5.e-002	3.4882
56026	16.88	3.4	0.	3.8536
56027	16.83	3.35	0.	3.2172
56028	16.83	3.4	5.e-002	3.4782
56029	16.98	3.4	0.	4.9985
56030	16.93	3.35	0.	4.3755
56031	16.93	3.4	5.e-002	3.4684
56032	17.079	3.4	0.	6.1278
56033	17.029	3.35	0.	5.517
56034	17.029	3.4	5.e-002	3.4588
56035	17.179	3.4	0.	7.2437
56036	17.129	3.35	0.	6.644
56037	17.129	3.4	5.e-002	3.4494
56038	17.278	3.4	0.	8.3483
56039	17.229	3.35	0.	7.7585
56040	17.229	3.4	5.e-002	3.4402
56041	17.378	3.4	0.	9.4437
56042	17.328	3.35	0.	8.8627
56043	17.328	3.4	5.e-002	3.4312
56044	17.477	3.4	0.	10.532
56045	17.428	3.35	0.	9.9589
56046	17.428	3.4	5.e-002	3.4225
56047	17.577	3.4	0.	11.616
56048	17.527	3.35	0.	11.049
56049	17.527	3.4	5.e-002	3.4139
56050	17.677	3.4	0.	12.696
56051	17.627	3.35	0.	12.135
56052	17.627	3.4	5.e-002	3.4054
56053	17.776	3.4	0.	13.776
56054	17.726	3.35	0.	13.22
56055	17.726	3.4	5.e-002	3.3973
56056	17.876	3.4	0.	14.857
56057	17.826	3.35	0.	14.304
56058	17.826	3.4	5.e-002	3.3893
56059	17.975	3.4	0.	15.942
56060	17.926	3.35	0.	15.391
56061	17.926	3.4	5.e-002	3.3815
56062	18.075	3.4	0.	17.032
56063	18.025	3.35	0.	16.483
56064	18.025	3.4	5.e-002	3.3739
56065	18.175	3.4	0.	18.129
56066	18.125	3.35	0.	17.581
56067	18.125	3.4	5.e-002	3.3666
56068	18.274	3.4	0.	19.236
56069	18.224	3.35	0.	18.687
56070	18.224	3.4	5.e-002	3.3594
56071	18.374	3.4	0.	20.354
56072	18.324	3.35	0.	19.804
56073	18.324	3.4	5.e-002	3.3525
56074	18.473	3.4	0.	21.487
56075	18.423	3.35	0.	20.934
56076	18.423	3.4	5.e-002	3.3457
56077	18.573	3.4	0.	22.635
56078	18.523	3.35	0.	22.079
56079	18.523	3.4	5.e-002	3.3391
56080	18.672	3.4	0.	23.801
56081	18.623	3.35	0.	23.24
56082	18.623	3.4	5.e-002	3.3328
56083	18.772	3.4	0.	24.987
56084	18.722	3.35	0.	24.421
56085	18.722	3.4	5.e-002	3.3266
56086	18.872	3.4	0.	26.195
56087	18.822	3.35	0.	25.623
56088	18.822	3.4	5.e-002	3.3207
56089	18.971	3.4	0.	27.428
56090	18.921	3.35	0.	26.849
56091	18.921	3.4	5.e-002	3.315
56092	19.071	3.4	0.	28.689
56093	19.021	3.35	0.	28.101
56094	19.021	3.4	5.e-002	3.3095
56095	19.17	3.4	0.	29.978
56096	19.121	3.35	0.	29.381
56097	19.121	3.4	5.e-002	3.3043
56098	19.27	3.4	0.	31.299
56099	19.22	3.35	0.	30.692
56100	19.22	3.4	5.e-002	3.2993
56101	19.369	3.4	0.	32.654
56102	19.32	3.35	0.	32.035
56103	19.32	3.4	5.e-002	3.2945
56104	19.469	3.4	0.	34.045
56105	19.419	3.35	0.	33.415
56106	19.419	3.4	5.e-002	3.2901
56107	19.569	3.4	0.	35.476
56108	19.519	3.35	0.	34.832
56109	19.519	3.4	5.e-002	3.2859
56110	19.668	3.4	0.	36.948
56111	19.618	3.35	0.	36.289
56112	19.618	3.4	5.e-002	3.2819
56113	19.768	3.4	0.	38.465
56114	19.718	3.35	0.	37.79
56115	19.718	3.4	5.e-002	3.2783
56116	19.867	3.4	0.	40.028
56117	19.818	3.35	0.	39.337
56118	19.818	3.4	5.e-002	3.275
56119	19.967	3.4	0.	41.641
56120	19.917	3.35	0.	40.932
56121	19.917	3.4	5.e-002	3.272
56122	20.067	3.4	0.	43.307
56123	20.017	3.35	0.	42.579
56124	20.017	3.4	5.e-002	3.2692
56125	20.166	3.4	0.	45.028
56126	20.116	3.35	0.	44.28
56127	20.116	3.4	5.e-002	3.2669
56128	20.266	3.4	0.	46.808
56129	20.216	3.35	0.	46.039
56130	20.216	3.4	5.e-002	3.2649
56131	20.365	3.4	0.	48.649
56132	20.316	3.35	0.	47.857
56133	20.316	3.4	5.e-002	3.2632
56134	20.465	3.4	0.	50.555
56135	20.415	3.35	0.	49.74
56136	20.415	3.4	5.e-002	3.2619
56137	20.564	3.4	0.	52.529
56138	20.515	3.35	0.	51.688
56139	20.515	3.4	5.e-002	3.261
56140	20.664	3.4	0.	54.574
56141	20.614	3.35	0.	53.707
56142	20.614	3.4	5.e-002	3.2606
56143	20.764	3.4	0.	56.693
56144	20.714	3.35	0.	55.798
56145	20.714	3.4	5.e-002	3.2606
56146	20.863	3.4	0.	58.89
56147	20.813	3.35	0.	57.966
56148	20.813	3.4	5.e-002	3.261
56149	20.963	3.4	0.	61.168
56150	20.913	3.35	0.	60.214
56151	20.913	3.4	5.e-002	3.262
56152	21.062	3.4	0.	63.531
56153	21.013	3.35	0.	62.545
56154	21.013	3.4	5.e-002	3.2634
56155	21.162	3.4	0.	65.982
56156	21.112	3.35	0.	64.962
56157	21.112	3.4	5.e-002	3.2654
56158	21.262	3.4	0.	68.525
56159	21.212	3.35	0.	67.47
56160	21.212	3.4	5.e-002	3.268
56161	21.361	3.4	0.	71.163
56162	21.311	3.35	0.	70.072
56163	21.311	3.4	5.e-002	3.2712
56164	21.461	3.4	0.	73.9
56165	21.411	3.35	0.	72.771
56166	21.411	3.4	5.e-002	3.275
56167	21.56	3.4	0.	76.74
56168	21.51	3.35	0.	75.571
56169	21.51	3.4	5.e-002	3.2794
56170	21.66	3.4	0.	79.685
56171	21.61	3.35	0.	78.475
56172	21.61	3.4	5.e-002	3.2845
56173	21.759	3.4	0.	82.74
56174	21.71	3.35	0.	81.487
56175	21.71	3.4	5.e-002	3.2903
56176	21.859	3.4	0.	85.908
56177	21.809	3.35	0.	84.611
56178	21.809	3.4	5.e-002	3.2969
56179	21.959	3.4	0.	89.192
56180	21.909	3.35	0.	87.849
56181	21.909	3.4	5.e-002	3.3043
56182	22.058	3.4	0.	92.595
56183	22.008	3.35	0.	91.205
56184	22.008	3.4	5.e-002	3.3125
56185	22.158	3.4	0.	96.121
56186	22.108	3.35	0.	94.682
56187	22.108	3.4	5.e-002	3.3215
56188	22.257	3.4	0.	99.772
56189	22.208	3.35	0.	98.282
56190	22.208	3.4	5.e-002	3.3315
56191	22.357	3.4	0.	103.55
56192	22.307	3.35	0.	102.01
56193	22.307	3.4	5.e-002	3.3423
56194	22.456	3.4	0.	107.46
56195	22.407	3.35	0.	105.87
56196	22.407	3.4	5.e-002	3.3541
56197	22.556	3.4	0.	111.5
56198	22.506	3.35	0.	109.85
56199	22.506	3.4	5.e-002	3.3669
56200	22.656	3.4	0.	115.68
56201	22.606	3.35	0.	113.97
56202	22.606	3.4	5.e-002	3.3807
56203	22.755	3.4	0.	119.99
56204	22.705	3.35	0.	118.23
56205	22.705	3.4	5.e-002	3.3955
56206	22.855	3.4	0.	124.44
56207	22.805	3.35	0.	122.62
56208	22.805	3.4	5.e-002	3.4114
56209	22.954	3.4	0.	129.03
56210	22.905	3.35	0.	127.15
56211	22.905	3.4	5.e-002	3.4283
56212	23.054	3.4	0.	133.76
56213	23.004	3.35	0.	131.81
56214	23.004	3.4	5.e-002	3.4462
56215	23.154	3.4	0.	138.62
56216	23.104	3.35	0.	136.62
56217	23.104	3.4	5.e-002	3.4652
56218	23.253	3.4	0.	143.63
56219	23.203	3.35	0.	141.56
56220	23.203	3.4	5.e-002	3.4852
56221	23.353	3.4	0.	148.77
56222	23.303	3.35	0.	146.64
56223	23.303	3.4	5.e-002	3.5061
56224	23.452	3.4	0.	154.05
56225	23.403	3.35	0.	151.85
56226	23.403	3.4	5.e-002	3.528
56227	23.552	3.4	0.	159.46
56228	23.502	3.35	0.	157.2
56229	23.502	3.4	5.e-002	3.5508
56230	23.651	3.4	0.	165.
56231	23.602	3.35	0.	162.68
56232	23.602	3.4	5.e-002	3.5744
56233	23.751	3.4	0.	170.68
56234	23.701	3.35	0.	168.3
56235	23.701	3.4	5.e-002	3.599
56236	23.851	3.4	0.	176.48
56237	23.801	3.35	0.	174.05
56238	23.801	3.4	5.e-002	3.6233
56239	23.9	3.35	0.	179.88
56240	23.9	3.4	5.e-002	3.6578
56241	23.95	3.4	0.	182.47
56242	8.316	3.3	0.	804.81
56243	8.2662	3.25	0.	862.8
56244	8.2662	3.3	5.e-002	37.166
56245	8.4156	3.3	0.	652.94
56246	8.3658	3.25	0.	727.28
56247	8.3658	3.3	5.e-002	44.273
56248	8.5152	3.3	0.	489.12
56249	8.4654	3.25	0.	570.41
56250	8.4654	3.3	5.e-002	48.466
56251	8.6148	3.3	0.	329.26
56252	8.565	3.25	0.	409.33
56253	8.565	3.3	5.e-002	49.75
56254	8.7144	3.3	0.	183.92
56255	8.6646	3.25	0.	257.13
56256	8.6646	3.3	5.e-002	48.871
56257	8.8139	3.3	0.	58.389
56258	8.7642	3.25	0.	121.62
56259	8.7642	3.3	5.e-002	46.645
56260	8.9135	3.3	0.	1.3551
56261	8.8637	3.25	0.	6.3682
56262	8.8637	3.3	5.e-002	43.705
56263	9.0131	3.3	0.	1.2345
56264	8.9633	3.25	0.	1.2637
56265	8.9633	3.3	5.e-002	40.467
56266	9.1127	3.3	0.	1.0999
56267	9.0629	3.25	0.	1.1527
56268	9.0629	3.3	5.e-002	37.187
56269	9.2123	3.3	0.	0.96219
56270	9.1625	3.25	0.	1.0242
56271	9.1625	3.3	5.e-002	34.012
56272	9.3118	3.3	0.	0.83177
56273	9.2621	3.25	0.	0.89396
56274	9.2621	3.3	5.e-002	31.021
56275	9.4114	3.3	0.	0.71334
56276	9.3616	3.25	0.	0.77105
56277	9.3616	3.3	5.e-002	28.252
56278	9.511	3.3	0.	0.60848
56279	9.4612	3.25	0.	0.65968
56280	9.4612	3.3	5.e-002	25.72
56281	9.6106	3.3	0.	0.51708
56282	9.5608	3.25	0.	0.56128
56283	9.5608	3.3	5.e-002	23.424
56284	9.7102	3.3	0.	0.43824
56285	9.6604	3.25	0.	0.47573
56286	9.6604	3.3	5.e-002	21.352
56287	9.8097	3.3	0.	0.37071
56288	9.76	3.25	0.	0.40214
56289	9.76	3.3	5.e-002	19.491
56290	9.9093	3.3	0.	0.31316
56291	9.8595	3.25	0.	0.33932
56292	9.8595	3.3	5.e-002	17.824
56293	10.009	3.3	0.	0.26426
56294	9.9591	3.25	0.	0.28595
56295	9.9591	3.3	5.e-002	16.335
56296	10.108	3.3	0.	0.2228
56297	10.059	3.25	0.	0.24072
56298	10.059	3.3	5.e-002	15.006
56299	10.208	3.3	0.	0.18771
56300	10.158	3.25	0.	0.2025
56301	10.158	3.3	5.e-002	13.82
56302	10.308	3.3	0.	0.15805
56303	10.258	3.25	0.	0.17023
56304	10.258	3.3	5.e-002	12.764
56305	10.407	3.3	0.	0.13301
56306	10.357	3.25	0.	0.14303
56307	10.357	3.3	5.e-002	11.823
56308	10.507	3.3	0.	0.11186
56309	10.457	3.25	0.	0.12012
56310	10.457	3.3	5.e-002	10.984
56311	10.606	3.3	0.	9.4009e-002
56312	10.557	3.25	0.	0.10081
56313	10.557	3.3	5.e-002	10.237
56314	10.706	3.3	0.	7.8942e-002
56315	10.656	3.25	0.	8.4542e-002
56316	10.656	3.3	5.e-002	9.5717
56317	10.806	3.3	0.	6.6229e-002
56318	10.756	3.25	0.	7.0837e-002
56319	10.756	3.3	5.e-002	8.9785
56320	10.905	3.3	0.	5.5515e-002
56321	10.855	3.25	0.	5.9293e-002
56322	10.855	3.3	5.e-002	8.4494
56323	11.005	3.3	0.	4.6498e-002
56324	10.955	3.25	0.	4.9591e-002
56325	10.955	3.3	5.e-002	7.9775
56326	11.104	3.3	0.	3.8891e-002
56327	11.055	3.25	0.	4.144e-002
56328	11.055	3.3	5.e-002	7.5562
56329	11.204	3.3	0.	3.2474e-002
56330	11.154	3.25	0.	3.4552e-002
56331	11.154	3.3	5.e-002	7.18
56332	11.303	3.3	0.	2.7091e-002
56333	11.254	3.25	0.	2.8772e-002
56334	11.254	3.3	5.e-002	6.8437
56335	11.403	3.3	0.	2.2578e-002
56336	11.353	3.25	0.	2.3939e-002
56337	11.353	3.3	5.e-002	6.5429
56338	11.503	3.3	0.	1.8798e-002
56339	11.453	3.25	0.	1.9889e-002
56340	11.453	3.3	5.e-002	6.2736
56341	11.602	3.3	0.	1.5637e-002
56342	11.552	3.25	0.	1.6508e-002
56343	11.552	3.3	5.e-002	6.0323
56344	11.702	3.3	0.	1.2995e-002
56345	11.652	3.25	0.	1.3686e-002
56346	11.652	3.3	5.e-002	5.8159
56347	11.801	3.3	0.	1.0802e-002
56348	11.752	3.25	0.	1.1331e-002
56349	11.752	3.3	5.e-002	5.6216
56350	11.901	3.3	0.	9.0006e-003
56351	11.851	3.25	0.	9.3955e-003
56352	11.851	3.3	5.e-002	5.4468
56353	12.001	3.3	0.	7.5223e-003
56354	11.951	3.25	0.	7.8168e-003
56355	11.951	3.3	5.e-002	5.2895
56356	12.1	3.3	0.	6.3078e-003
56357	12.05	3.25	0.	6.5175e-003
56358	12.05	3.3	5.e-002	5.1478
56359	12.2	3.3	0.	5.319e-003
56360	12.15	3.25	0.	5.4584e-003
56361	12.15	3.3	5.e-002	5.0199
56362	12.299	3.3	0.	4.5297e-003
56363	12.249	3.25	0.	4.6036e-003
56364	12.249	3.3	5.e-002	4.9043
56365	12.399	3.3	0.	3.9131e-003
56366	12.349	3.25	0.	3.9362e-003
56367	12.349	3.3	5.e-002	4.7995
56368	12.498	3.3	0.	3.4211e-003
56369	12.449	3.25	0.	3.422e-003
56370	12.449	3.3	5.e-002	4.7046
56371	12.598	3.3	0.	3.0319e-003
56372	12.548	3.25	0.	2.999e-003
56373	12.548	3.3	5.e-002	4.6183
56374	12.698	3.3	0.	2.7492e-003
56375	12.648	3.25	0.	2.6847e-003
56376	12.648	3.3	5.e-002	4.5397
56377	12.797	3.3	0.	2.552e-003
56378	12.747	3.25	0.	2.4707e-003
56379	12.747	3.3	5.e-002	4.468
56380	12.897	3.3	0.	2.4226e-003
56381	12.847	3.25	0.	2.324e-003
56382	12.847	3.3	5.e-002	4.4024
56383	12.996	3.3	0.	2.3495e-003
56384	12.947	3.25	0.	2.2425e-003
56385	12.947	3.3	5.e-002	4.3422
56386	13.096	3.3	0.	2.3152e-003
56387	13.046	3.25	0.	2.2051e-003
56388	13.046	3.3	5.e-002	4.287
56389	13.195	3.3	0.	2.3207e-003
56390	13.146	3.25	0.	2.1984e-003
56391	13.146	3.3	5.e-002	4.2361
56392	13.295	3.3	0.	2.3714e-003
56393	13.245	3.25	0.	2.2393e-003
56394	13.245	3.3	5.e-002	4.1891
56395	13.395	3.3	0.	2.4509e-003
56396	13.345	3.25	0.	2.3202e-003
56397	13.345	3.3	5.e-002	4.1456
56398	13.494	3.3	0.	2.5449e-003
56399	13.444	3.25	0.	2.4157e-003
56400	13.444	3.3	5.e-002	4.1054
56401	13.594	3.3	0.	2.6538e-003
56402	13.544	3.25	0.	2.5242e-003
56403	13.544	3.3	5.e-002	4.0679
56404	13.693	3.3	0.	2.7749e-003
56405	13.644	3.25	0.	2.6487e-003
56406	13.644	3.3	5.e-002	4.033
56407	13.793	3.3	0.	2.9112e-003
56408	13.743	3.25	0.	2.7806e-003
56409	13.743	3.3	5.e-002	4.0003
56410	13.893	3.3	0.	3.0649e-003
56411	13.843	3.25	0.	2.9333e-003
56412	13.843	3.3	5.e-002	3.9697
56413	13.992	3.3	0.	3.2132e-003
56414	13.942	3.25	0.	3.0991e-003
56415	13.942	3.3	5.e-002	3.941
56416	14.092	3.3	0.	3.3536e-003
56417	14.042	3.25	0.	3.2399e-003
56418	14.042	3.3	5.e-002	3.914
56419	14.191	3.3	0.	3.5057e-003
56420	14.142	3.25	0.	3.3894e-003
56421	14.142	3.3	5.e-002	3.8884
56422	14.291	3.3	0.	3.6654e-003
56423	14.241	3.25	0.	3.5522e-003
56424	14.241	3.3	5.e-002	3.8642
56425	14.39	3.3	0.	3.8241e-003
56426	14.341	3.25	0.	3.7145e-003
56427	14.341	3.3	5.e-002	3.8413
56428	14.49	3.3	0.	3.9819e-003
56429	14.44	3.25	0.	3.8765e-003
56430	14.44	3.3	5.e-002	3.8195
56431	14.59	3.3	0.	4.1347e-003
56432	14.54	3.25	0.	4.0363e-003
56433	14.54	3.3	5.e-002	3.7987
56434	14.689	3.3	0.	4.2876e-003
56435	14.639	3.25	0.	4.1873e-003
56436	14.639	3.3	5.e-002	3.7788
56437	14.789	3.3	0.	4.4508e-003
56438	14.739	3.25	0.	4.3477e-003
56439	14.739	3.3	5.e-002	3.7598
56440	14.888	3.3	0.	4.615e-003
56441	14.839	3.25	0.	4.5179e-003
56442	14.839	3.3	5.e-002	3.7415
56443	14.988	3.3	0.	4.7728e-003
56444	14.938	3.25	0.	4.6789e-003
56445	14.938	3.3	5.e-002	3.7241
56446	15.088	3.3	0.	4.9274e-003
56447	15.038	3.25	0.	4.8364e-003
56448	15.038	3.3	5.e-002	3.7072
56449	15.187	3.3	0.	5.0846e-003
56450	15.137	3.25	0.	4.9902e-003
56451	15.137	3.3	5.e-002	3.691
56452	15.287	3.3	0.	5.2485e-003
56453	15.237	3.25	0.	5.1527e-003
56454	15.237	3.3	5.e-002	3.6754
56455	15.386	3.3	0.	5.402e-003
56456	15.336	3.25	0.	5.3196e-003
56457	15.336	3.3	5.e-002	3.6604
56458	15.486	3.3	0.	5.5454e-003
56459	15.436	3.25	0.	5.4599e-003
56460	15.436	3.3	5.e-002	3.6458
56461	15.585	3.3	0.	5.6953e-003
56462	15.536	3.25	0.	5.6062e-003
56463	15.536	3.3	5.e-002	3.6317
56464	15.685	3.3	0.	5.8491e-003
56465	15.635	3.25	0.	5.759e-003
56466	15.635	3.3	5.e-002	3.6179
56467	15.785	3.3	0.	6.0045e-003
56468	15.735	3.25	0.	5.9113e-003
56469	15.735	3.3	5.e-002	3.6046
56470	15.884	3.3	0.	6.1612e-003
56471	15.834	3.25	0.	6.066e-003
56472	15.834	3.3	5.e-002	3.5917
56473	15.984	3.3	0.	6.3161e-003
56474	15.934	3.25	0.	6.2195e-003
56475	15.934	3.3	5.e-002	3.5791
56476	16.083	3.3	0.	6.4796e-003
56477	16.034	3.25	0.	6.3668e-003
56478	16.034	3.3	5.e-002	3.5668
56479	16.183	3.3	0.	6.6657e-003
56480	16.133	3.25	0.	6.5329e-003
56481	16.133	3.3	5.e-002	3.5548
56482	16.282	3.3	0.	6.8805e-003
56483	16.233	3.25	0.	6.7194e-003
56484	16.233	3.3	5.e-002	3.5431
56485	16.382	3.3	0.	7.1621e-003
56486	16.332	3.25	0.	6.9288e-003
56487	16.332	3.3	5.e-002	3.5317
56488	16.482	3.3	0.	7.7576e-003
56489	16.432	3.25	0.	7.2215e-003
56490	16.432	3.3	5.e-002	3.5207
56491	16.581	3.3	0.	0.1691
56492	16.531	3.25	0.	8.2445e-003
56493	16.531	3.3	5.e-002	3.5099
56494	16.681	3.3	0.	1.3806
56495	16.631	3.25	0.	0.72718
56496	16.631	3.3	5.e-002	3.4993
56497	16.78	3.3	0.	2.574
56498	16.731	3.25	0.	1.9349
56499	16.731	3.3	5.e-002	3.489
56500	16.88	3.3	0.	3.7472
56501	16.83	3.25	0.	3.1214
56502	16.83	3.3	5.e-002	3.4789
56503	16.98	3.3	0.	4.9023
56504	16.93	3.25	0.	4.2886
56505	16.93	3.3	5.e-002	3.4691
56506	17.079	3.3	0.	6.0416
56507	17.029	3.25	0.	5.4388
56508	17.029	3.3	5.e-002	3.4595
56509	17.179	3.3	0.	7.1673
56510	17.129	3.25	0.	6.5743
56511	17.129	3.3	5.e-002	3.4501
56512	17.278	3.3	0.	8.2816
56513	17.229	3.25	0.	7.6972
56514	17.229	3.3	5.e-002	3.4409
56515	17.378	3.3	0.	9.3866
56516	17.328	3.25	0.	8.8097
56517	17.328	3.3	5.e-002	3.4319
56518	17.477	3.3	0.	10.485
56519	17.428	3.25	0.	9.9141
56520	17.428	3.3	5.e-002	3.4231
56521	17.577	3.3	0.	11.578
56522	17.527	3.25	0.	11.012
56523	17.527	3.3	5.e-002	3.4145
56524	17.677	3.3	0.	12.668
56525	17.627	3.25	0.	12.107
56526	17.627	3.3	5.e-002	3.4061
56527	17.776	3.3	0.	13.757
56528	17.726	3.25	0.	13.199
56529	17.726	3.3	5.e-002	3.3979
56530	17.876	3.3	0.	14.848
56531	17.826	3.25	0.	14.292
56532	17.826	3.3	5.e-002	3.3899
56533	17.975	3.3	0.	15.942
56534	17.926	3.25	0.	15.387
56535	17.926	3.3	5.e-002	3.3821
56536	18.075	3.3	0.	17.041
56537	18.025	3.25	0.	16.487
56538	18.025	3.3	5.e-002	3.3746
56539	18.175	3.3	0.	18.148
56540	18.125	3.25	0.	17.593
56541	18.125	3.3	5.e-002	3.3672
56542	18.274	3.3	0.	19.265
56543	18.224	3.25	0.	18.708
56544	18.224	3.3	5.e-002	3.36
56545	18.374	3.3	0.	20.393
56546	18.324	3.25	0.	19.833
56547	18.324	3.3	5.e-002	3.3531
56548	18.473	3.3	0.	21.536
56549	18.423	3.25	0.	20.972
56550	18.423	3.3	5.e-002	3.3463
56551	18.573	3.3	0.	22.694
56552	18.523	3.25	0.	22.125
56553	18.523	3.3	5.e-002	3.3398
56554	18.672	3.3	0.	23.87
56555	18.623	3.25	0.	23.296
56556	18.623	3.3	5.e-002	3.3334
56557	18.772	3.3	0.	25.068
56558	18.722	3.25	0.	24.486
56559	18.722	3.3	5.e-002	3.3273
56560	18.872	3.3	0.	26.287
56561	18.822	3.25	0.	25.698
56562	18.822	3.3	5.e-002	3.3214
56563	18.971	3.3	0.	27.532
56564	18.921	3.25	0.	26.933
56565	18.921	3.3	5.e-002	3.3157
56566	19.071	3.3	0.	28.804
56567	19.021	3.25	0.	28.195
56568	19.021	3.3	5.e-002	3.3102
56569	19.17	3.3	0.	30.105
56570	19.121	3.25	0.	29.485
56571	19.121	3.3	5.e-002	3.305
56572	19.27	3.3	0.	31.439
56573	19.22	3.25	0.	30.806
56574	19.22	3.3	5.e-002	3.3
56575	19.369	3.3	0.	32.806
56576	19.32	3.25	0.	32.161
56577	19.32	3.3	5.e-002	3.2953
56578	19.469	3.3	0.	34.211
56579	19.419	3.25	0.	33.551
56580	19.419	3.3	5.e-002	3.2908
56581	19.569	3.3	0.	35.655
56582	19.519	3.25	0.	34.98
56583	19.519	3.3	5.e-002	3.2866
56584	19.668	3.3	0.	37.142
56585	19.618	3.25	0.	36.45
56586	19.618	3.3	5.e-002	3.2827
56587	19.768	3.3	0.	38.673
56588	19.718	3.25	0.	37.963
56589	19.718	3.3	5.e-002	3.2791
56590	19.867	3.3	0.	40.252
56591	19.818	3.25	0.	39.523
56592	19.818	3.3	5.e-002	3.2758
56593	19.967	3.3	0.	41.881
56594	19.917	3.25	0.	41.131
56595	19.917	3.3	5.e-002	3.2728
56596	20.067	3.3	0.	43.563
56597	20.017	3.25	0.	42.792
56598	20.017	3.3	5.e-002	3.2702
56599	20.166	3.3	0.	45.301
56600	20.116	3.25	0.	44.507
56601	20.116	3.3	5.e-002	3.2678
56602	20.266	3.3	0.	47.098
56603	20.216	3.25	0.	46.281
56604	20.216	3.3	5.e-002	3.2658
56605	20.365	3.3	0.	48.958
56606	20.316	3.25	0.	48.115
56607	20.316	3.3	5.e-002	3.2642
56608	20.465	3.3	0.	50.882
56609	20.415	3.25	0.	50.013
56610	20.415	3.3	5.e-002	3.263
56611	20.564	3.3	0.	52.876
56612	20.515	3.25	0.	51.978
56613	20.515	3.3	5.e-002	3.2621
56614	20.664	3.3	0.	54.941
56615	20.614	3.25	0.	54.013
56616	20.614	3.3	5.e-002	3.2617
56617	20.764	3.3	0.	57.081
56618	20.714	3.25	0.	56.122
56619	20.714	3.3	5.e-002	3.2618
56620	20.863	3.3	0.	59.299
56621	20.813	3.25	0.	58.308
56622	20.813	3.3	5.e-002	3.2623
56623	20.963	3.3	0.	61.599
56624	20.913	3.25	0.	60.574
56625	20.913	3.3	5.e-002	3.2633
56626	21.062	3.3	0.	63.985
56627	21.013	3.25	0.	62.924
56628	21.013	3.3	5.e-002	3.2648
56629	21.162	3.3	0.	66.459
56630	21.112	3.25	0.	65.362
56631	21.112	3.3	5.e-002	3.2669
56632	21.262	3.3	0.	69.026
56633	21.212	3.25	0.	67.89
56634	21.212	3.3	5.e-002	3.2695
56635	21.361	3.3	0.	71.688
56636	21.311	3.25	0.	70.512
56637	21.311	3.3	5.e-002	3.2727
56638	21.461	3.3	0.	74.45
56639	21.411	3.25	0.	73.232
56640	21.411	3.3	5.e-002	3.2766
56641	21.56	3.3	0.	77.314
56642	21.51	3.25	0.	76.053
56643	21.51	3.3	5.e-002	3.2811
56644	21.66	3.3	0.	80.285
56645	21.61	3.25	0.	78.979
56646	21.61	3.3	5.e-002	3.2863
56647	21.759	3.3	0.	83.366
56648	21.71	3.25	0.	82.013
56649	21.71	3.3	5.e-002	3.2922
56650	21.859	3.3	0.	86.559
56651	21.809	3.25	0.	85.159
56652	21.809	3.3	5.e-002	3.2988
56653	21.959	3.3	0.	89.869
56654	21.909	3.25	0.	88.419
56655	21.909	3.3	5.e-002	3.3062
56656	22.058	3.3	0.	93.298
56657	22.008	3.25	0.	91.797
56658	22.008	3.3	5.e-002	3.3145
56659	22.158	3.3	0.	96.849
56660	22.108	3.25	0.	95.295
56661	22.108	3.3	5.e-002	3.3236
56662	22.257	3.3	0.	100.53
56663	22.208	3.25	0.	98.918
56664	22.208	3.3	5.e-002	3.3336
56665	22.357	3.3	0.	104.33
56666	22.307	3.25	0.	102.67
56667	22.307	3.3	5.e-002	3.3445
56668	22.456	3.3	0.	108.26
56669	22.407	3.25	0.	106.54
56670	22.407	3.3	5.e-002	3.3563
56671	22.556	3.3	0.	112.33
56672	22.506	3.25	0.	110.55
56673	22.506	3.3	5.e-002	3.3691
56674	22.656	3.3	0.	116.53
56675	22.606	3.25	0.	114.69
56676	22.606	3.3	5.e-002	3.3829
56677	22.755	3.3	0.	120.86
56678	22.705	3.25	0.	118.96
56679	22.705	3.3	5.e-002	3.3977
56680	22.855	3.3	0.	125.33
56681	22.805	3.25	0.	123.37
56682	22.805	3.3	5.e-002	3.4135
56683	22.954	3.3	0.	129.94
56684	22.905	3.25	0.	127.92
56685	22.905	3.3	5.e-002	3.4303
56686	23.054	3.3	0.	134.68
56687	23.004	3.25	0.	132.6
56688	23.004	3.3	5.e-002	3.4481
56689	23.154	3.3	0.	139.56
56690	23.104	3.25	0.	137.41
56691	23.104	3.3	5.e-002	3.467
56692	23.253	3.3	0.	144.57
56693	23.203	3.25	0.	142.36
56694	23.203	3.3	5.e-002	3.4868
56695	23.353	3.3	0.	149.72
56696	23.303	3.25	0.	147.45
56697	23.303	3.3	5.e-002	3.5076
56698	23.452	3.3	0.	155.01
56699	23.403	3.25	0.	152.68
56700	23.403	3.3	5.e-002	3.5293
56701	23.552	3.3	0.	160.43
56702	23.502	3.25	0.	158.03
56703	23.502	3.3	5.e-002	3.5519
56704	23.651	3.3	0.	165.98
56705	23.602	3.25	0.	163.52
56706	23.602	3.3	5.e-002	3.5752
56707	23.751	3.3	0.	171.67
56708	23.701	3.25	0.	169.13
56709	23.701	3.3	5.e-002	3.5995
56710	23.851	3.3	0.	177.46
56711	23.801	3.25	0.	174.89
56712	23.801	3.3	5.e-002	3.6235
56713	23.9	3.25	0.	180.72
56714	23.9	3.3	5.e-002	3.6566
56715	23.95	3.3	0.	183.46
56716	8.316	3.2	0.	786.21
56717	8.2662	3.15	0.	842.47
56718	8.2662	3.2	5.e-002	28.12
56719	8.4156	3.2	0.	647.07
56720	8.3658	3.15	0.	717.57
56721	8.3658	3.2	5.e-002	35.884
56722	8.5152	3.2	0.	493.76
56723	8.4654	3.15	0.	570.52
56724	8.4654	3.2	5.e-002	41.308
56725	8.6148	3.2	0.	340.55
56726	8.565	3.15	0.	416.52
56727	8.565	3.2	5.e-002	44.176
56728	8.7144	3.2	0.	197.94
56729	8.6646	3.15	0.	268.05
56730	8.6646	3.2	5.e-002	44.876
56731	8.8139	3.2	0.	72.074
56732	8.7642	3.15	0.	133.36
56733	8.7642	3.2	5.e-002	43.987
56734	8.9135	3.2	0.	1.2546
56735	8.8637	3.15	0.	16.774
56736	8.8637	3.2	5.e-002	42.061
56737	9.0131	3.2	0.	1.1833
56738	8.9633	3.15	0.	1.2044
56739	8.9633	3.2	5.e-002	39.536
56740	9.1127	3.2	0.	1.0802
56741	9.0629	3.15	0.	1.1276
56742	9.0629	3.2	5.e-002	36.729
56743	9.2123	3.2	0.	0.95952
56744	9.1625	3.15	0.	1.0183
56745	9.1625	3.2	5.e-002	33.852
56746	9.3118	3.2	0.	0.83675
56747	9.2621	3.15	0.	0.89738
56748	9.2621	3.2	5.e-002	31.041
56749	9.4114	3.2	0.	0.72065
56750	9.3616	3.15	0.	0.77793
56751	9.3616	3.2	5.e-002	28.374
56752	9.511	3.2	0.	0.61542
56753	9.4612	3.15	0.	0.66687
56754	9.4612	3.2	5.e-002	25.893
56755	9.6106	3.2	0.	0.52252
56756	9.5608	3.15	0.	0.56733
56757	9.5608	3.2	5.e-002	23.618
56758	9.7102	3.2	0.	0.44189
56759	9.6604	3.15	0.	0.48017
56760	9.6604	3.2	5.e-002	21.55
56761	9.8097	3.2	0.	0.3727
56762	9.76	3.15	0.	0.40498
56763	9.76	3.2	5.e-002	19.683
56764	9.9093	3.2	0.	0.31378
56765	9.8595	3.15	0.	0.34078
56766	9.8595	3.2	5.e-002	18.005
56767	10.009	3.2	0.	0.26384
56768	9.9591	3.15	0.	0.28633
56769	9.9591	3.2	5.e-002	16.502
56770	10.108	3.2	0.	0.22164
56771	10.059	3.15	0.	0.24031
56772	10.059	3.2	5.e-002	15.158
56773	10.208	3.2	0.	0.18605
56774	10.158	3.15	0.	0.20152
56775	10.158	3.2	5.e-002	13.959
56776	10.308	3.2	0.	0.15609
56777	10.258	3.15	0.	0.1689
56778	10.258	3.2	5.e-002	12.89
56779	10.407	3.2	0.	0.1309
56780	10.357	3.15	0.	0.14149
56781	10.357	3.2	5.e-002	11.937
56782	10.507	3.2	0.	0.10971
56783	10.457	3.15	0.	0.11848
56784	10.457	3.2	5.e-002	11.088
56785	10.606	3.2	0.	9.189e-002
56786	10.557	3.15	0.	9.9149e-002
56787	10.557	3.2	5.e-002	10.331
56788	10.706	3.2	0.	7.6899e-002
56789	10.656	3.15	0.	8.2906e-002
56790	10.656	3.2	5.e-002	9.6571
56791	10.806	3.2	0.	6.4295e-002
56792	10.756	3.15	0.	6.9268e-002
56793	10.756	3.2	5.e-002	9.0561
56794	10.905	3.2	0.	5.3705e-002
56795	10.855	3.15	0.	5.781e-002
56796	10.855	3.2	5.e-002	8.5201
56797	11.005	3.2	0.	4.482e-002
56798	10.955	3.15	0.	4.8207e-002
56799	10.955	3.2	5.e-002	8.0418
56800	11.104	3.2	0.	3.7346e-002
56801	11.055	3.15	0.	4.0158e-002
56802	11.055	3.2	5.e-002	7.6149
56803	11.204	3.2	0.	3.1058e-002
56804	11.154	3.15	0.	3.3373e-002
56805	11.154	3.2	5.e-002	7.2336
56806	11.303	3.2	0.	2.5799e-002
56807	11.254	3.15	0.	2.7692e-002
56808	11.254	3.2	5.e-002	6.8926
56809	11.403	3.2	0.	2.1402e-002
56810	11.353	3.15	0.	2.2953e-002
56811	11.353	3.2	5.e-002	6.5875
56812	11.503	3.2	0.	1.773e-002
56813	11.453	3.15	0.	1.8993e-002
56814	11.453	3.2	5.e-002	6.3143
56815	11.602	3.2	0.	1.4669e-002
56816	11.552	3.15	0.	1.5694e-002
56817	11.552	3.2	5.e-002	6.0694
56818	11.702	3.2	0.	1.2118e-002
56819	11.652	3.15	0.	1.2948e-002
56820	11.652	3.2	5.e-002	5.8497
56821	11.801	3.2	0.	1.0007e-002
56822	11.752	3.15	0.	1.0662e-002
56823	11.752	3.2	5.e-002	5.6523
56824	11.901	3.2	0.	8.2822e-003
56825	11.851	3.15	0.	8.7902e-003
56826	11.851	3.2	5.e-002	5.4748
56827	12.001	3.2	0.	6.8726e-003
56828	11.951	3.15	0.	7.2683e-003
56829	11.951	3.2	5.e-002	5.315
56830	12.1	3.2	0.	5.7202e-003
56831	12.05	3.15	0.	6.0217e-003
56832	12.05	3.2	5.e-002	5.1709
56833	12.2	3.2	0.	4.7877e-003
56834	12.15	3.15	0.	5.0098e-003
56835	12.15	3.2	5.e-002	5.0409
56836	12.299	3.2	0.	4.0485e-003
56837	12.249	3.15	0.	4.1977e-003
56838	12.249	3.2	5.e-002	4.9233
56839	12.399	3.2	0.	3.4781e-003
56840	12.349	3.15	0.	3.569e-003
56841	12.349	3.2	5.e-002	4.8168
56842	12.498	3.2	0.	3.0282e-003
56843	12.449	3.15	0.	3.09e-003
56844	12.449	3.2	5.e-002	4.7202
56845	12.598	3.2	0.	2.6761e-003
56846	12.548	3.15	0.	2.6985e-003
56847	12.548	3.2	5.e-002	4.6325
56848	12.698	3.2	0.	2.4271e-003
56849	12.648	3.15	0.	2.4127e-003
56850	12.648	3.2	5.e-002	4.5525
56851	12.797	3.2	0.	2.2606e-003
56852	12.747	3.15	0.	2.2247e-003
56853	12.747	3.2	5.e-002	4.4795
56854	12.897	3.2	0.	2.1592e-003
56855	12.847	3.15	0.	2.1014e-003
56856	12.847	3.2	5.e-002	4.4128
56857	12.996	3.2	0.	2.1113e-003
56858	12.947	3.15	0.	2.0415e-003
56859	12.947	3.2	5.e-002	4.3517
56860	13.096	3.2	0.	2.0995e-003
56861	13.046	3.15	0.	2.0228e-003
56862	13.046	3.2	5.e-002	4.2956
56863	13.195	3.2	0.	2.1265e-003
56864	13.146	3.15	0.	2.0336e-003
56865	13.146	3.2	5.e-002	4.2439
56866	13.295	3.2	0.	2.1963e-003
56867	13.245	3.15	0.	2.0909e-003
56868	13.245	3.2	5.e-002	4.1961
56869	13.395	3.2	0.	2.2919e-003
56870	13.345	3.15	0.	2.1856e-003
56871	13.345	3.2	5.e-002	4.152
56872	13.494	3.2	0.	2.4008e-003
56873	13.444	3.15	0.	2.2944e-003
56874	13.444	3.2	5.e-002	4.1111
56875	13.594	3.2	0.	2.5239e-003
56876	13.544	3.15	0.	2.4142e-003
56877	13.544	3.2	5.e-002	4.073
56878	13.693	3.2	0.	2.6584e-003
56879	13.644	3.15	0.	2.5498e-003
56880	13.644	3.2	5.e-002	4.0376
56881	13.793	3.2	0.	2.806e-003
56882	13.743	3.15	0.	2.6918e-003
56883	13.743	3.2	5.e-002	4.0046
56884	13.893	3.2	0.	2.9702e-003
56885	13.843	3.15	0.	2.8532e-003
56886	13.843	3.2	5.e-002	3.9736
56887	13.992	3.2	0.	3.128e-003
56888	13.942	3.15	0.	3.0263e-003
56889	13.942	3.2	5.e-002	3.9445
56890	14.092	3.2	0.	3.2774e-003
56891	14.042	3.15	0.	3.1751e-003
56892	14.042	3.2	5.e-002	3.9172
56893	14.191	3.2	0.	3.4371e-003
56894	14.142	3.15	0.	3.3313e-003
56895	14.142	3.2	5.e-002	3.8913
56896	14.291	3.2	0.	3.6023e-003
56897	14.241	3.15	0.	3.4994e-003
56898	14.241	3.2	5.e-002	3.8669
56899	14.39	3.2	0.	3.7676e-003
56900	14.341	3.15	0.	3.6666e-003
56901	14.341	3.2	5.e-002	3.8437
56902	14.49	3.2	0.	3.9314e-003
56903	14.44	3.15	0.	3.8344e-003
56904	14.44	3.2	5.e-002	3.8216
56905	14.59	3.2	0.	4.0891e-003
56906	14.54	3.15	0.	3.9981e-003
56907	14.54	3.2	5.e-002	3.8007
56908	14.689	3.2	0.	4.2475e-003
56909	14.639	3.15	0.	4.1529e-003
56910	14.639	3.2	5.e-002	3.7806
56911	14.789	3.2	0.	4.4147e-003
56912	14.739	3.15	0.	4.3172e-003
56913	14.739	3.2	5.e-002	3.7615
56914	14.888	3.2	0.	4.5816e-003
56915	14.839	3.15	0.	4.4899e-003
56916	14.839	3.2	5.e-002	3.7431
56917	14.988	3.2	0.	4.7421e-003
56918	14.938	3.15	0.	4.6535e-003
56919	14.938	3.2	5.e-002	3.7255
56920	15.088	3.2	0.	4.8988e-003
56921	15.038	3.15	0.	4.813e-003
56922	15.038	3.2	5.e-002	3.7086
56923	15.187	3.2	0.	5.058e-003
56924	15.137	3.15	0.	4.9684e-003
56925	15.137	3.2	5.e-002	3.6923
56926	15.287	3.2	0.	5.2236e-003
56927	15.237	3.15	0.	5.1326e-003
56928	15.237	3.2	5.e-002	3.6766
56929	15.386	3.2	0.	5.3773e-003
56930	15.336	3.15	0.	5.3e-003
56931	15.336	3.2	5.e-002	3.6614
56932	15.486	3.2	0.	5.5206e-003
56933	15.436	3.15	0.	5.4401e-003
56934	15.436	3.2	5.e-002	3.6468
56935	15.585	3.2	0.	5.67e-003
56936	15.536	3.15	0.	5.5865e-003
56937	15.536	3.2	5.e-002	3.6326
56938	15.685	3.2	0.	5.8216e-003
56939	15.635	3.15	0.	5.7379e-003
56940	15.635	3.2	5.e-002	3.6188
56941	15.785	3.2	0.	5.9735e-003
56942	15.735	3.15	0.	5.8884e-003
56943	15.735	3.2	5.e-002	3.6054
56944	15.884	3.2	0.	6.1254e-003
56945	15.834	3.15	0.	6.0393e-003
56946	15.834	3.2	5.e-002	3.5924
56947	15.984	3.2	0.	6.2718e-003
56948	15.934	3.15	0.	6.1882e-003
56949	15.934	3.2	5.e-002	3.5798
56950	16.083	3.2	0.	6.4222e-003
56951	16.034	3.15	0.	6.3276e-003
56952	16.034	3.2	5.e-002	3.5675
56953	16.183	3.2	0.	6.589e-003
56954	16.133	3.15	0.	6.4813e-003
56955	16.133	3.2	5.e-002	3.5555
56956	16.282	3.2	0.	6.768e-003
56957	16.233	3.15	0.	6.6478e-003
56958	16.233	3.2	5.e-002	3.5438
56959	16.382	3.2	0.	6.9697e-003
56960	16.332	3.15	0.	6.8175e-003
56961	16.332	3.2	5.e-002	3.5324
56962	16.482	3.2	0.	7.2908e-003
56963	16.432	3.15	0.	7.0113e-003
56964	16.432	3.2	5.e-002	3.5213
56965	16.581	3.2	0.	7.0924e-002
56966	16.531	3.15	0.	7.4204e-003
56967	16.531	3.2	5.e-002	3.5104
56968	16.681	3.2	0.	1.2892
56969	16.631	3.15	0.	0.65067
56970	16.631	3.2	5.e-002	3.4998
56971	16.78	3.2	0.	2.4904
56972	16.731	3.15	0.	1.8649
56973	16.731	3.2	5.e-002	3.4895
56974	16.88	3.2	0.	3.6711
56975	16.83	3.15	0.	3.0576
56976	16.83	3.2	5.e-002	3.4794
56977	16.98	3.2	0.	4.8335
56978	16.93	3.15	0.	4.2307
56979	16.93	3.2	5.e-002	3.4696
56980	17.079	3.2	0.	5.98
56981	17.029	3.15	0.	5.3867
56982	17.029	3.2	5.e-002	3.46
56983	17.179	3.2	0.	7.1127
56984	17.129	3.15	0.	6.5278
56985	17.129	3.2	5.e-002	3.4505
56986	17.278	3.2	0.	8.234
56987	17.229	3.15	0.	7.6563
56988	17.229	3.2	5.e-002	3.4413
56989	17.378	3.2	0.	9.3459
56990	17.328	3.15	0.	8.7744
56991	17.328	3.2	5.e-002	3.4323
56992	17.477	3.2	0.	10.451
56993	17.428	3.15	0.	9.8842
56994	17.428	3.2	5.e-002	3.4235
56995	17.577	3.2	0.	11.55
56996	17.527	3.15	0.	10.988
56997	17.527	3.2	5.e-002	3.4149
56998	17.677	3.2	0.	12.647
56999	17.627	3.15	0.	12.088
57000	17.627	3.2	5.e-002	3.4065
57001	17.776	3.2	0.	13.743
57002	17.726	3.15	0.	13.186
57003	17.726	3.2	5.e-002	3.3983
57004	17.876	3.2	0.	14.841
57005	17.826	3.15	0.	14.284
57006	17.826	3.2	5.e-002	3.3903
57007	17.975	3.2	0.	15.942
57008	17.926	3.15	0.	15.384
57009	17.926	3.2	5.e-002	3.3826
57010	18.075	3.2	0.	17.048
57011	18.025	3.15	0.	16.49
57012	18.025	3.2	5.e-002	3.375
57013	18.175	3.2	0.	18.162
57014	18.125	3.15	0.	17.601
57015	18.125	3.2	5.e-002	3.3676
57016	18.274	3.2	0.	19.286
57017	18.224	3.15	0.	18.722
57018	18.224	3.2	5.e-002	3.3604
57019	18.374	3.2	0.	20.421
57020	18.324	3.15	0.	19.853
57021	18.324	3.2	5.e-002	3.3535
57022	18.473	3.2	0.	21.571
57023	18.423	3.15	0.	20.997
57024	18.423	3.2	5.e-002	3.3468
57025	18.573	3.2	0.	22.737
57026	18.523	3.15	0.	22.156
57027	18.523	3.2	5.e-002	3.3402
57028	18.672	3.2	0.	23.921
57029	18.623	3.15	0.	23.333
57030	18.623	3.2	5.e-002	3.3339
57031	18.772	3.2	0.	25.126
57032	18.722	3.15	0.	24.529
57033	18.722	3.2	5.e-002	3.3277
57034	18.872	3.2	0.	26.353
57035	18.822	3.15	0.	25.747
57036	18.822	3.2	5.e-002	3.3218
57037	18.971	3.2	0.	27.606
57038	18.921	3.15	0.	26.989
57039	18.921	3.2	5.e-002	3.3162
57040	19.071	3.2	0.	28.886
57041	19.021	3.15	0.	28.258
57042	19.021	3.2	5.e-002	3.3107
57043	19.17	3.2	0.	30.196
57044	19.121	3.15	0.	29.555
57045	19.121	3.2	5.e-002	3.3055
57046	19.27	3.2	0.	31.539
57047	19.22	3.15	0.	30.883
57048	19.22	3.2	5.e-002	3.3005
57049	19.369	3.2	0.	32.916
57050	19.32	3.15	0.	32.245
57051	19.32	3.2	5.e-002	3.2958
57052	19.469	3.2	0.	34.33
57053	19.419	3.15	0.	33.643
57054	19.419	3.2	5.e-002	3.2914
57055	19.569	3.2	0.	35.784
57056	19.519	3.15	0.	35.079
57057	19.519	3.2	5.e-002	3.2872
57058	19.668	3.2	0.	37.281
57059	19.618	3.15	0.	36.557
57060	19.618	3.2	5.e-002	3.2833
57061	19.768	3.2	0.	38.823
57062	19.718	3.15	0.	38.079
57063	19.718	3.2	5.e-002	3.2797
57064	19.867	3.2	0.	40.412
57065	19.818	3.15	0.	39.647
57066	19.818	3.2	5.e-002	3.2765
57067	19.967	3.2	0.	42.053
57068	19.917	3.15	0.	41.264
57069	19.917	3.2	5.e-002	3.2735
57070	20.067	3.2	0.	43.746
57071	20.017	3.15	0.	42.934
57072	20.017	3.2	5.e-002	3.2708
57073	20.166	3.2	0.	45.497
57074	20.116	3.15	0.	44.659
57075	20.116	3.2	5.e-002	3.2685
57076	20.266	3.2	0.	47.307
57077	20.216	3.15	0.	46.442
57078	20.216	3.2	5.e-002	3.2666
57079	20.365	3.2	0.	49.179
57080	20.316	3.15	0.	48.287
57081	20.316	3.2	5.e-002	3.265
57082	20.465	3.2	0.	51.117
57083	20.415	3.15	0.	50.195
57084	20.415	3.2	5.e-002	3.2637
57085	20.564	3.2	0.	53.124
57086	20.515	3.15	0.	52.171
57087	20.515	3.2	5.e-002	3.2629
57088	20.664	3.2	0.	55.204
57089	20.614	3.15	0.	54.218
57090	20.614	3.2	5.e-002	3.2626
57091	20.764	3.2	0.	57.359
57092	20.714	3.15	0.	56.339
57093	20.714	3.2	5.e-002	3.2627
57094	20.863	3.2	0.	59.592
57095	20.813	3.15	0.	58.537
57096	20.813	3.2	5.e-002	3.2632
57097	20.963	3.2	0.	61.908
57098	20.913	3.15	0.	60.815
57099	20.913	3.2	5.e-002	3.2642
57100	21.062	3.2	0.	64.31
57101	21.013	3.15	0.	63.178
57102	21.013	3.2	5.e-002	3.2658
57103	21.162	3.2	0.	66.801
57104	21.112	3.15	0.	65.629
57105	21.112	3.2	5.e-002	3.2679
57106	21.262	3.2	0.	69.384
57107	21.212	3.15	0.	68.17
57108	21.212	3.2	5.e-002	3.2706
57109	21.361	3.2	0.	72.064
57110	21.311	3.15	0.	70.806
57111	21.311	3.2	5.e-002	3.2738
57112	21.461	3.2	0.	74.844
57113	21.411	3.15	0.	73.54
57114	21.411	3.2	5.e-002	3.2777
57115	21.56	3.2	0.	77.726
57116	21.51	3.15	0.	76.376
57117	21.51	3.2	5.e-002	3.2823
57118	21.66	3.2	0.	80.715
57119	21.61	3.15	0.	79.316
57120	21.61	3.2	5.e-002	3.2875
57121	21.759	3.2	0.	83.814
57122	21.71	3.15	0.	82.365
57123	21.71	3.2	5.e-002	3.2935
57124	21.859	3.2	0.	87.026
57125	21.809	3.15	0.	85.525
57126	21.809	3.2	5.e-002	3.3001
57127	21.959	3.2	0.	90.354
57128	21.909	3.15	0.	88.799
57129	21.909	3.2	5.e-002	3.3076
57130	22.058	3.2	0.	93.801
57131	22.008	3.15	0.	92.192
57132	22.008	3.2	5.e-002	3.3159
57133	22.158	3.2	0.	97.37
57134	22.108	3.15	0.	95.705
57135	22.108	3.2	5.e-002	3.325
57136	22.257	3.2	0.	101.06
57137	22.208	3.15	0.	99.342
57138	22.208	3.2	5.e-002	3.335
57139	22.357	3.2	0.	104.89
57140	22.307	3.15	0.	103.1
57141	22.307	3.2	5.e-002	3.346
57142	22.456	3.2	0.	108.84
57143	22.407	3.15	0.	106.99
57144	22.407	3.2	5.e-002	3.3578
57145	22.556	3.2	0.	112.92
57146	22.506	3.15	0.	111.01
57147	22.506	3.2	5.e-002	3.3706
57148	22.656	3.2	0.	117.13
57149	22.606	3.15	0.	115.17
57150	22.606	3.2	5.e-002	3.3844
57151	22.755	3.2	0.	121.48
57152	22.705	3.15	0.	119.45
57153	22.705	3.2	5.e-002	3.3992
57154	22.855	3.2	0.	125.96
57155	22.805	3.15	0.	123.87
57156	22.805	3.2	5.e-002	3.415
57157	22.954	3.2	0.	130.58
57158	22.905	3.15	0.	128.43
57159	22.905	3.2	5.e-002	3.4318
57160	23.054	3.2	0.	135.33
57161	23.004	3.15	0.	133.12
57162	23.004	3.2	5.e-002	3.4495
57163	23.154	3.2	0.	140.22
57164	23.104	3.15	0.	137.94
57165	23.104	3.2	5.e-002	3.4683
57166	23.253	3.2	0.	145.25
57167	23.203	3.15	0.	142.9
57168	23.203	3.2	5.e-002	3.488
57169	23.353	3.2	0.	150.41
57170	23.303	3.15	0.	148.
57171	23.303	3.2	5.e-002	3.5087
57172	23.452	3.2	0.	155.7
57173	23.403	3.15	0.	153.22
57174	23.403	3.2	5.e-002	3.5302
57175	23.552	3.2	0.	161.12
57176	23.502	3.15	0.	158.58
57177	23.502	3.2	5.e-002	3.5526
57178	23.651	3.2	0.	166.68
57179	23.602	3.15	0.	164.08
57180	23.602	3.2	5.e-002	3.5758
57181	23.751	3.2	0.	172.36
57182	23.701	3.15	0.	169.69
57183	23.701	3.2	5.e-002	3.5998
57184	23.851	3.2	0.	178.16
57185	23.801	3.15	0.	175.45
57186	23.801	3.2	5.e-002	3.6236
57187	23.9	3.15	0.	181.28
57188	23.9	3.2	5.e-002	3.6557
57189	23.95	3.2	0.	184.17
57190	8.316	3.1	0.	775.04
57191	8.2662	3.05	0.	832.42
57192	8.2662	3.1	5.e-002	22.746
57193	8.4156	3.1	0.	643.19
57194	8.3658	3.05	0.	712.59
57195	8.3658	3.1	5.e-002	31.073
57196	8.5152	3.1	0.	496.1
57197	8.4654	3.05	0.	570.33
57198	8.4654	3.1	5.e-002	37.175
57199	8.6148	3.1	0.	347.07
57200	8.565	3.05	0.	419.91
57201	8.565	3.1	5.e-002	40.882
57202	8.7144	3.1	0.	206.4
57203	8.6646	3.05	0.	273.45
57204	8.6646	3.1	5.e-002	42.447
57205	8.8139	3.1	0.	80.628
57206	8.7642	3.05	0.	139.33
57207	8.7642	3.1	5.e-002	42.324
57208	8.9135	3.1	0.	1.1785
57209	8.8637	3.05	0.	22.266
57210	8.8637	3.1	5.e-002	41.003
57211	9.0131	3.1	0.	1.1488
57212	8.9633	3.05	0.	1.1711
57213	8.9633	3.1	5.e-002	38.919
57214	9.1127	3.1	0.	1.0675
57215	9.0629	3.05	0.	1.1138
57216	9.0629	3.1	5.e-002	36.413
57217	9.2123	3.1	0.	0.95859
57218	9.1625	3.05	0.	1.0152
57219	9.1625	3.1	5.e-002	33.73
57220	9.3118	3.1	0.	0.84123
57221	9.2621	3.05	0.	0.89966
57222	9.2621	3.1	5.e-002	31.037
57223	9.4114	3.1	0.	0.72679
57224	9.3616	3.05	0.	0.7822
57225	9.3616	3.1	5.e-002	28.438
57226	9.511	3.1	0.	0.62127
57227	9.4612	3.05	0.	0.67133
57228	9.4612	3.1	5.e-002	25.993
57229	9.6106	3.1	0.	0.52725
57230	9.5608	3.05	0.	0.57115
57231	9.5608	3.1	5.e-002	23.734
57232	9.7102	3.1	0.	0.44528
57233	9.6604	3.05	0.	0.48306
57234	9.6604	3.1	5.e-002	21.669
57235	9.8097	3.1	0.	0.37484
57236	9.76	3.05	0.	0.40693
57237	9.76	3.1	5.e-002	19.799
57238	9.9093	3.1	0.	0.31488
57239	9.8595	3.05	0.	0.34193
57240	9.8595	3.1	5.e-002	18.114
57241	10.009	3.1	0.	0.26413
57242	9.9591	3.05	0.	0.28683
57243	9.9591	3.1	5.e-002	16.603
57244	10.108	3.1	0.	0.22134
57245	10.059	3.05	0.	0.24033
57246	10.059	3.1	5.e-002	15.251
57247	10.208	3.1	0.	0.18536
57248	10.158	3.05	0.	0.20121
57249	10.158	3.1	5.e-002	14.043
57250	10.308	3.1	0.	0.15514
57251	10.258	3.05	0.	0.16836
57252	10.258	3.1	5.e-002	12.966
57253	10.407	3.1	0.	0.12979
57254	10.357	3.05	0.	0.14081
57255	10.357	3.1	5.e-002	12.006
57256	10.507	3.1	0.	0.10853
57257	10.457	3.05	0.	0.11772
57258	10.457	3.1	5.e-002	11.15
57259	10.606	3.1	0.	9.0694e-002
57260	10.557	3.05	0.	9.8361e-002
57261	10.557	3.1	5.e-002	10.388
57262	10.706	3.1	0.	7.5726e-002
57263	10.656	3.05	0.	8.212e-002
57264	10.656	3.1	5.e-002	9.7086
57265	10.806	3.1	0.	6.3169e-002
57266	10.756	3.05	0.	6.8504e-002
57267	10.756	3.1	5.e-002	9.1028
57268	10.905	3.1	0.	5.2641e-002
57269	10.855	3.05	0.	5.7083e-002
57270	10.855	3.1	5.e-002	8.5626
57271	11.005	3.1	0.	4.3827e-002
57272	10.955	3.05	0.	4.7523e-002
57273	10.955	3.1	5.e-002	8.0806
57274	11.104	3.1	0.	3.6426e-002
57275	11.055	3.05	0.	3.9522e-002
57276	11.055	3.1	5.e-002	7.6503
57277	11.204	3.1	0.	3.0213e-002
57278	11.154	3.05	0.	3.2785e-002
57279	11.154	3.1	5.e-002	7.2658
57280	11.303	3.1	0.	2.5024e-002
57281	11.254	3.05	0.	2.7153e-002
57282	11.254	3.1	5.e-002	6.9219
57283	11.403	3.1	0.	2.0695e-002
57284	11.353	3.05	0.	2.2461e-002
57285	11.353	3.1	5.e-002	6.6143
57286	11.503	3.1	0.	1.7086e-002
57287	11.453	3.05	0.	1.8543e-002
57288	11.453	3.1	5.e-002	6.3387
57289	11.602	3.1	0.	1.4084e-002
57290	11.552	3.05	0.	1.5286e-002
57291	11.552	3.1	5.e-002	6.0917
57292	11.702	3.1	0.	1.1588e-002
57293	11.652	3.05	0.	1.2577e-002
57294	11.652	3.1	5.e-002	5.87
57295	11.801	3.1	0.	9.5272e-003
57296	11.752	3.05	0.	1.0326e-002
57297	11.752	3.1	5.e-002	5.6708
57298	11.901	3.1	0.	7.8467e-003
57299	11.851	3.05	0.	8.4856e-003
57300	11.851	3.1	5.e-002	5.4916
57301	12.001	3.1	0.	6.4779e-003
57302	11.951	3.05	0.	6.9919e-003
57303	11.951	3.1	5.e-002	5.3302
57304	12.1	3.1	0.	5.3633e-003
57305	12.05	3.05	0.	5.7717e-003
57306	12.05	3.1	5.e-002	5.1848
57307	12.2	3.1	0.	4.4646e-003
57308	12.15	3.05	0.	4.7835e-003
57309	12.15	3.1	5.e-002	5.0535
57310	12.299	3.1	0.	3.7567e-003
57311	12.249	3.05	0.	3.9931e-003
57312	12.249	3.1	5.e-002	4.9347
57313	12.399	3.1	0.	3.2141e-003
57314	12.349	3.05	0.	3.3837e-003
57315	12.349	3.1	5.e-002	4.8272
57316	12.498	3.1	0.	2.7888e-003
57317	12.449	3.05	0.	2.9223e-003
57318	12.449	3.1	5.e-002	4.7296
57319	12.598	3.1	0.	2.4596e-003
57320	12.548	3.05	0.	2.5466e-003
57321	12.548	3.1	5.e-002	4.641
57322	12.698	3.1	0.	2.2313e-003
57323	12.648	3.05	0.	2.2756e-003
57324	12.648	3.1	5.e-002	4.5602
57325	12.797	3.1	0.	2.0835e-003
57326	12.747	3.05	0.	2.1002e-003
57327	12.747	3.1	5.e-002	4.4865
57328	12.897	3.1	0.	1.9992e-003
57329	12.847	3.05	0.	1.9896e-003
57330	12.847	3.1	5.e-002	4.4191
57331	12.996	3.1	0.	1.9663e-003
57332	12.947	3.05	0.	1.9395e-003
57333	12.947	3.1	5.e-002	4.3574
57334	13.096	3.1	0.	1.9682e-003
57335	13.046	3.05	0.	1.931e-003
57336	13.046	3.1	5.e-002	4.3007
57337	13.195	3.1	0.	2.0076e-003
57338	13.146	3.05	0.	1.95e-003
57339	13.146	3.1	5.e-002	4.2485
57340	13.295	3.1	0.	2.0885e-003
57341	13.245	3.05	0.	2.0155e-003
57342	13.245	3.1	5.e-002	4.2003
57343	13.395	3.1	0.	2.1951e-003
57344	13.345	3.05	0.	2.1179e-003
57345	13.345	3.1	5.e-002	4.1558
57346	13.494	3.1	0.	2.3138e-003
57347	13.444	3.05	0.	2.2329e-003
57348	13.444	3.1	5.e-002	4.1145
57349	13.594	3.1	0.	2.445e-003
57350	13.544	3.05	0.	2.36e-003
57351	13.544	3.1	5.e-002	4.0762
57352	13.693	3.1	0.	2.5873e-003
57353	13.644	3.05	0.	2.4989e-003
57354	13.644	3.1	5.e-002	4.0405
57355	13.793	3.1	0.	2.7424e-003
57356	13.743	3.05	0.	2.6466e-003
57357	13.743	3.1	5.e-002	4.0071
57358	13.893	3.1	0.	2.9121e-003
57359	13.843	3.05	0.	2.8128e-003
57360	13.843	3.1	5.e-002	3.9759
57361	13.992	3.1	0.	3.0757e-003
57362	13.942	3.05	0.	2.989e-003
57363	13.942	3.1	5.e-002	3.9466
57364	14.092	3.1	0.	3.2307e-003
57365	14.042	3.05	0.	3.143e-003
57366	14.042	3.1	5.e-002	3.9191
57367	14.191	3.1	0.	3.3949e-003
57368	14.142	3.05	0.	3.301e-003
57369	14.142	3.1	5.e-002	3.8931
57370	14.291	3.1	0.	3.5647e-003
57371	14.241	3.05	0.	3.4732e-003
57372	14.241	3.1	5.e-002	3.8685
57373	14.39	3.1	0.	3.7341e-003
57374	14.341	3.05	0.	3.6433e-003
57375	14.341	3.1	5.e-002	3.8452
57376	14.49	3.1	0.	3.9016e-003
57377	14.44	3.05	0.	3.8122e-003
57378	14.44	3.1	5.e-002	3.823
57379	14.59	3.1	0.	4.0621e-003
57380	14.54	3.05	0.	3.9784e-003
57381	14.54	3.1	5.e-002	3.8019
57382	14.689	3.1	0.	4.2226e-003
57383	14.639	3.05	0.	4.136e-003
57384	14.639	3.1	5.e-002	3.7817
57385	14.789	3.1	0.	4.3923e-003
57386	14.739	3.05	0.	4.3006e-003
57387	14.739	3.1	5.e-002	3.7625
57388	14.888	3.1	0.	4.5616e-003
57389	14.839	3.05	0.	4.476e-003
57390	14.839	3.1	5.e-002	3.7441
57391	14.988	3.1	0.	4.7241e-003
57392	14.938	3.05	0.	4.6414e-003
57393	14.938	3.1	5.e-002	3.7264
57394	15.088	3.1	0.	4.8824e-003
57395	15.038	3.05	0.	4.8013e-003
57396	15.038	3.1	5.e-002	3.7094
57397	15.187	3.1	0.	5.0428e-003
57398	15.137	3.05	0.	4.9583e-003
57399	15.137	3.1	5.e-002	3.693
57400	15.287	3.1	0.	5.2088e-003
57401	15.237	3.05	0.	5.1223e-003
57402	15.237	3.1	5.e-002	3.6773
57403	15.386	3.1	0.	5.3627e-003
57404	15.336	3.05	0.	5.2908e-003
57405	15.336	3.1	5.e-002	3.6621
57406	15.486	3.1	0.	5.506e-003
57407	15.436	3.05	0.	5.4298e-003
57408	15.436	3.1	5.e-002	3.6474
57409	15.585	3.1	0.	5.6546e-003
57410	15.536	3.05	0.	5.5768e-003
57411	15.536	3.1	5.e-002	3.6332
57412	15.685	3.1	0.	5.8052e-003
57413	15.635	3.05	0.	5.7273e-003
57414	15.635	3.1	5.e-002	3.6193
57415	15.785	3.1	0.	5.9551e-003
57416	15.735	3.05	0.	5.877e-003
57417	15.735	3.1	5.e-002	3.6059
57418	15.884	3.1	0.	6.1036e-003
57419	15.834	3.05	0.	6.0268e-003
57420	15.834	3.1	5.e-002	3.5929
57421	15.984	3.1	0.	6.2462e-003
57422	15.934	3.05	0.	6.1728e-003
57423	15.934	3.1	5.e-002	3.5802
57424	16.083	3.1	0.	6.3899e-003
57425	16.034	3.05	0.	6.3084e-003
57426	16.034	3.1	5.e-002	3.5679
57427	16.183	3.1	0.	6.5447e-003
57428	16.133	3.05	0.	6.4573e-003
57429	16.133	3.1	5.e-002	3.5559
57430	16.282	3.1	0.	6.7033e-003
57431	16.233	3.05	0.	6.6125e-003
57432	16.233	3.1	5.e-002	3.5441
57433	16.382	3.1	0.	6.8636e-003
57434	16.332	3.05	0.	6.7642e-003
57435	16.332	3.1	5.e-002	3.5328
57436	16.482	3.1	0.	7.0503e-003
57437	16.432	3.05	0.	6.9139e-003
57438	16.432	3.1	5.e-002	3.5216
57439	16.581	3.1	0.	1.6269e-002
57440	16.531	3.05	0.	7.088e-003
57441	16.531	3.1	5.e-002	3.5108
57442	16.681	3.1	0.	1.2343
57443	16.631	3.05	0.	0.61232
57444	16.631	3.1	5.e-002	3.5002
57445	16.78	3.1	0.	2.4402
57446	16.731	3.05	0.	1.8299
57447	16.731	3.1	5.e-002	3.4898
57448	16.88	3.1	0.	3.6254
57449	16.83	3.05	0.	3.0256
57450	16.83	3.1	5.e-002	3.4797
57451	16.98	3.1	0.	4.7922
57452	16.93	3.05	0.	4.2017
57453	16.93	3.1	5.e-002	3.4699
57454	17.079	3.1	0.	5.943
57455	17.029	3.05	0.	5.3606
57456	17.029	3.1	5.e-002	3.4603
57457	17.179	3.1	0.	7.08
57458	17.129	3.05	0.	6.5046
57459	17.129	3.1	5.e-002	3.4508
57460	17.278	3.1	0.	8.2054
57461	17.229	3.05	0.	7.6359
57462	17.229	3.1	5.e-002	3.4416
57463	17.378	3.1	0.	9.3215
57464	17.328	3.05	0.	8.7568
57465	17.328	3.1	5.e-002	3.4326
57466	17.477	3.1	0.	10.43
57467	17.428	3.05	0.	9.8693
57468	17.428	3.1	5.e-002	3.4238
57469	17.577	3.1	0.	11.534
57470	17.527	3.05	0.	10.976
57471	17.527	3.1	5.e-002	3.4152
57472	17.677	3.1	0.	12.635
57473	17.627	3.05	0.	12.078
57474	17.627	3.1	5.e-002	3.4067
57475	17.776	3.1	0.	13.735
57476	17.726	3.05	0.	13.179
57477	17.726	3.1	5.e-002	3.3986
57478	17.876	3.1	0.	14.837
57479	17.826	3.05	0.	14.28
57480	17.826	3.1	5.e-002	3.3906
57481	17.975	3.1	0.	15.942
57482	17.926	3.05	0.	15.383
57483	17.926	3.1	5.e-002	3.3828
57484	18.075	3.1	0.	17.052
57485	18.025	3.05	0.	16.491
57486	18.025	3.1	5.e-002	3.3752
57487	18.175	3.1	0.	18.17
57488	18.125	3.05	0.	17.605
57489	18.125	3.1	5.e-002	3.3679
57490	18.274	3.1	0.	19.298
57491	18.224	3.05	0.	18.729
57492	18.224	3.1	5.e-002	3.3607
57493	18.374	3.1	0.	20.438
57494	18.324	3.05	0.	19.863
57495	18.324	3.1	5.e-002	3.3538
57496	18.473	3.1	0.	21.592
57497	18.423	3.05	0.	21.01
57498	18.423	3.1	5.e-002	3.347
57499	18.573	3.1	0.	22.763
57500	18.523	3.05	0.	22.172
57501	18.523	3.1	5.e-002	3.3405
57502	18.672	3.1	0.	23.951
57503	18.623	3.05	0.	23.352
57504	18.623	3.1	5.e-002	3.3341
57505	18.772	3.1	0.	25.161
57506	18.722	3.05	0.	24.551
57507	18.722	3.1	5.e-002	3.328
57508	18.872	3.1	0.	26.393
57509	18.822	3.05	0.	25.772
57510	18.822	3.1	5.e-002	3.3221
57511	18.971	3.1	0.	27.651
57512	18.921	3.05	0.	27.018
57513	18.921	3.1	5.e-002	3.3164
57514	19.071	3.1	0.	28.936
57515	19.021	3.05	0.	28.289
57516	19.021	3.1	5.e-002	3.311
57517	19.17	3.1	0.	30.252
57518	19.121	3.05	0.	29.59
57519	19.121	3.1	5.e-002	3.3058
57520	19.27	3.1	0.	31.599
57521	19.22	3.05	0.	30.922
57522	19.22	3.1	5.e-002	3.3008
57523	19.369	3.1	0.	32.982
57524	19.32	3.05	0.	32.287
57525	19.32	3.1	5.e-002	3.2961
57526	19.469	3.1	0.	34.402
57527	19.419	3.05	0.	33.689
57528	19.419	3.1	5.e-002	3.2917
57529	19.569	3.1	0.	35.862
57530	19.519	3.05	0.	35.129
57531	19.519	3.1	5.e-002	3.2875
57532	19.668	3.1	0.	37.365
57533	19.618	3.05	0.	36.611
57534	19.618	3.1	5.e-002	3.2836
57535	19.768	3.1	0.	38.913
57536	19.718	3.05	0.	38.137
57537	19.718	3.1	5.e-002	3.2801
57538	19.867	3.1	0.	40.509
57539	19.818	3.05	0.	39.709
57540	19.818	3.1	5.e-002	3.2768
57541	19.967	3.1	0.	42.156
57542	19.917	3.05	0.	41.331
57543	19.917	3.1	5.e-002	3.2739
57544	20.067	3.1	0.	43.857
57545	20.017	3.05	0.	43.006
57546	20.017	3.1	5.e-002	3.2712
57547	20.166	3.1	0.	45.615
57548	20.116	3.05	0.	44.735
57549	20.116	3.1	5.e-002	3.2689
57550	20.266	3.1	0.	47.432
57551	20.216	3.05	0.	46.523
57552	20.216	3.1	5.e-002	3.267
57553	20.365	3.1	0.	49.312
57554	20.316	3.05	0.	48.373
57555	20.316	3.1	5.e-002	3.2654
57556	20.465	3.1	0.	51.259
57557	20.415	3.05	0.	50.287
57558	20.415	3.1	5.e-002	3.2642
57559	20.564	3.1	0.	53.274
57560	20.515	3.05	0.	52.268
57561	20.515	3.1	5.e-002	3.2634
57562	20.664	3.1	0.	55.362
57563	20.614	3.05	0.	54.321
57564	20.614	3.1	5.e-002	3.2631
57565	20.764	3.1	0.	57.526
57566	20.714	3.05	0.	56.447
57567	20.714	3.1	5.e-002	3.2632
57568	20.863	3.1	0.	59.769
57569	20.813	3.05	0.	58.651
57570	20.813	3.1	5.e-002	3.2637
57571	20.963	3.1	0.	62.094
57572	20.913	3.05	0.	60.936
57573	20.913	3.1	5.e-002	3.2648
57574	21.062	3.1	0.	64.506
57575	21.013	3.05	0.	63.305
57576	21.013	3.1	5.e-002	3.2664
57577	21.162	3.1	0.	67.006
57578	21.112	3.05	0.	65.762
57579	21.112	3.1	5.e-002	3.2685
57580	21.262	3.1	0.	69.6
57581	21.212	3.05	0.	68.31
57582	21.212	3.1	5.e-002	3.2712
57583	21.361	3.1	0.	72.29
57584	21.311	3.05	0.	70.953
57585	21.311	3.1	5.e-002	3.2745
57586	21.461	3.1	0.	75.08
57587	21.411	3.05	0.	73.694
57588	21.411	3.1	5.e-002	3.2784
57589	21.56	3.1	0.	77.973
57590	21.51	3.05	0.	76.537
57591	21.51	3.1	5.e-002	3.283
57592	21.66	3.1	0.	80.973
57593	21.61	3.05	0.	79.484
57594	21.61	3.1	5.e-002	3.2883
57595	21.759	3.1	0.	84.083
57596	21.71	3.05	0.	82.54
57597	21.71	3.1	5.e-002	3.2942
57598	21.859	3.1	0.	87.306
57599	21.809	3.05	0.	85.708
57600	21.809	3.1	5.e-002	3.3009
57601	21.959	3.1	0.	90.645
57602	21.909	3.05	0.	88.99
57603	21.909	3.1	5.e-002	3.3084
57604	22.058	3.1	0.	94.103
57605	22.008	3.05	0.	92.39
57606	22.008	3.1	5.e-002	3.3168
57607	22.158	3.1	0.	97.683
57608	22.108	3.05	0.	95.91
57609	22.108	3.1	5.e-002	3.3259
57610	22.257	3.1	0.	101.39
57611	22.208	3.05	0.	99.554
57612	22.208	3.1	5.e-002	3.3359
57613	22.357	3.1	0.	105.22
57614	22.307	3.05	0.	103.32
57615	22.307	3.1	5.e-002	3.3469
57616	22.456	3.1	0.	109.18
57617	22.407	3.05	0.	107.22
57618	22.407	3.1	5.e-002	3.3587
57619	22.556	3.1	0.	113.27
57620	22.506	3.05	0.	111.25
57621	22.506	3.1	5.e-002	3.3715
57622	22.656	3.1	0.	117.49
57623	22.606	3.05	0.	115.4
57624	22.606	3.1	5.e-002	3.3853
57625	22.755	3.1	0.	121.85
57626	22.705	3.05	0.	119.7
57627	22.705	3.1	5.e-002	3.4001
57628	22.855	3.1	0.	126.34
57629	22.805	3.05	0.	124.12
57630	22.805	3.1	5.e-002	3.4159
57631	22.954	3.1	0.	130.97
57632	22.905	3.05	0.	128.68
57633	22.905	3.1	5.e-002	3.4326
57634	23.054	3.1	0.	135.73
57635	23.004	3.05	0.	133.38
57636	23.004	3.1	5.e-002	3.4503
57637	23.154	3.1	0.	140.62
57638	23.104	3.05	0.	138.2
57639	23.104	3.1	5.e-002	3.469
57640	23.253	3.1	0.	145.65
57641	23.203	3.05	0.	143.17
57642	23.203	3.1	5.e-002	3.4887
57643	23.353	3.1	0.	150.81
57644	23.303	3.05	0.	148.27
57645	23.303	3.1	5.e-002	3.5093
57646	23.452	3.1	0.	156.11
57647	23.403	3.05	0.	153.5
57648	23.403	3.1	5.e-002	3.5308
57649	23.552	3.1	0.	161.54
57650	23.502	3.05	0.	158.86
57651	23.502	3.1	5.e-002	3.5531
57652	23.651	3.1	0.	167.09
57653	23.602	3.05	0.	164.35
57654	23.602	3.1	5.e-002	3.5761
57655	23.751	3.1	0.	172.78
57656	23.701	3.05	0.	169.97
57657	23.701	3.1	5.e-002	3.6001
57658	23.851	3.1	0.	178.58
57659	23.801	3.05	0.	175.73
57660	23.801	3.1	5.e-002	3.6236
57661	23.9	3.05	0.	181.56
57662	23.9	3.1	5.e-002	3.6552
57663	23.95	3.1	0.	184.6
57664	8.316	3.	0.	771.32
57665	8.2662	2.95	0.	832.42
57666	8.2662	3.	5.e-002	20.912
57667	8.4156	3.	0.	641.84
57668	8.3658	2.95	0.	712.59
57669	8.3658	3.	5.e-002	29.49
57670	8.5152	3.	0.	496.81
57671	8.4654	2.95	0.	570.33
57672	8.4654	3.	5.e-002	35.821
57673	8.6148	3.	0.	349.19
57674	8.565	2.95	0.	419.91
57675	8.565	3.	5.e-002	39.793
57676	8.7144	3.	0.	209.22
57677	8.6646	2.95	0.	273.45
57678	8.6646	3.	5.e-002	41.633
57679	8.8139	3.	0.	83.526
57680	8.7642	2.95	0.	139.34
57681	8.7642	3.	5.e-002	41.759
57682	8.9135	3.	0.	1.1482
57683	8.8637	2.95	0.	22.266
57684	8.8637	3.	5.e-002	40.639
57685	9.0131	3.	0.	1.1363
57686	8.9633	2.95	0.	1.1711
57687	8.9633	3.	5.e-002	38.704
57688	9.1127	3.	0.	1.0629
57689	9.0629	2.95	0.	1.1138
57690	9.0629	3.	5.e-002	36.301
57691	9.2123	3.	0.	0.9583
57692	9.1625	2.95	0.	1.0152
57693	9.1625	3.	5.e-002	33.685
57694	9.3118	3.	0.	0.84292
57695	9.2621	2.95	0.	0.89966
57696	9.2621	3.	5.e-002	31.033
57697	9.4114	3.	0.	0.7291
57698	9.3616	2.95	0.	0.7822
57699	9.3616	3.	5.e-002	28.458
57700	9.511	3.	0.	0.62349
57701	9.4612	2.95	0.	0.67133
57702	9.4612	3.	5.e-002	26.026
57703	9.6106	3.	0.	0.52907
57704	9.5608	2.95	0.	0.57115
57705	9.5608	3.	5.e-002	23.772
57706	9.7102	3.	0.	0.44662
57707	9.6604	2.95	0.	0.48306
57708	9.6604	3.	5.e-002	21.709
57709	9.8097	3.	0.	0.37572
57710	9.76	2.95	0.	0.40693
57711	9.76	3.	5.e-002	19.838
57712	9.9093	3.	0.	0.31537
57713	9.8595	2.95	0.	0.34193
57714	9.8595	3.	5.e-002	18.151
57715	10.009	3.	0.	0.26433
57716	9.9591	2.95	0.	0.28683
57717	9.9591	3.	5.e-002	16.637
57718	10.108	3.	0.	0.22132
57719	10.059	2.95	0.	0.24033
57720	10.059	3.	5.e-002	15.282
57721	10.208	3.	0.	0.18517
57722	10.158	2.95	0.	0.20121
57723	10.158	3.	5.e-002	14.072
57724	10.308	3.	0.	0.15485
57725	10.258	2.95	0.	0.16835
57726	10.258	3.	5.e-002	12.992
57727	10.407	3.	0.	0.12945
57728	10.357	2.95	0.	0.14081
57729	10.357	3.	5.e-002	12.029
57730	10.507	3.	0.	0.10816
57731	10.457	2.95	0.	0.11772
57732	10.457	3.	5.e-002	11.171
57733	10.606	3.	0.	9.0308e-002
57734	10.557	2.95	0.	9.8361e-002
57735	10.557	3.	5.e-002	10.407
57736	10.706	3.	0.	7.5344e-002
57737	10.656	2.95	0.	8.212e-002
57738	10.656	3.	5.e-002	9.7258
57739	10.806	3.	0.	6.28e-002
57740	10.756	2.95	0.	6.8505e-002
57741	10.756	3.	5.e-002	9.1185
57742	10.905	3.	0.	5.2291e-002
57743	10.855	2.95	0.	5.7083e-002
57744	10.855	3.	5.e-002	8.5768
57745	11.005	3.	0.	4.3498e-002
57746	10.955	2.95	0.	4.7523e-002
57747	10.955	3.	5.e-002	8.0936
57748	11.104	3.	0.	3.6121e-002
57749	11.055	2.95	0.	3.9523e-002
57750	11.055	3.	5.e-002	7.6621
57751	11.204	3.	0.	2.9931e-002
57752	11.154	2.95	0.	3.2785e-002
57753	11.154	3.	5.e-002	7.2766
57754	11.303	3.	0.	2.4766e-002
57755	11.254	2.95	0.	2.7153e-002
57756	11.254	3.	5.e-002	6.9318
57757	11.403	3.	0.	2.0459e-002
57758	11.353	2.95	0.	2.2461e-002
57759	11.353	3.	5.e-002	6.6233
57760	11.503	3.	0.	1.6872e-002
57761	11.453	2.95	0.	1.8543e-002
57762	11.453	3.	5.e-002	6.3469
57763	11.602	3.	0.	1.3889e-002
57764	11.552	2.95	0.	1.5286e-002
57765	11.552	3.	5.e-002	6.0991
57766	11.702	3.	0.	1.141e-002
57767	11.652	2.95	0.	1.2577e-002
57768	11.652	3.	5.e-002	5.8768
57769	11.801	3.	0.	9.3663e-003
57770	11.752	2.95	0.	1.0326e-002
57771	11.752	3.	5.e-002	5.677
57772	11.901	3.	0.	7.7012e-003
57773	11.851	2.95	0.	8.4852e-003
57774	11.851	3.	5.e-002	5.4972
57775	12.001	3.	0.	6.3462e-003
57776	11.951	2.95	0.	6.9928e-003
57777	11.951	3.	5.e-002	5.3354
57778	12.1	3.	0.	5.2439e-003
57779	12.05	2.95	0.	5.7717e-003
57780	12.05	3.	5.e-002	5.1894
57781	12.2	3.	0.	4.3567e-003
57782	12.15	2.95	0.	4.7836e-003
57783	12.15	3.	5.e-002	5.0577
57784	12.299	3.	0.	3.6586e-003
57785	12.249	2.95	0.	3.9933e-003
57786	12.249	3.	5.e-002	4.9385
57787	12.399	3.	0.	3.1251e-003
57788	12.349	2.95	0.	3.3837e-003
57789	12.349	3.	5.e-002	4.8306
57790	12.498	3.	0.	2.7086e-003
57791	12.449	2.95	0.	2.9227e-003
57792	12.449	3.	5.e-002	4.7328
57793	12.598	3.	0.	2.3871e-003
57794	12.548	2.95	0.	2.5465e-003
57795	12.548	3.	5.e-002	4.6438
57796	12.698	3.	0.	2.1656e-003
57797	12.648	2.95	0.	2.2758e-003
57798	12.648	3.	5.e-002	4.5628
57799	12.797	3.	0.	2.0245e-003
57800	12.747	2.95	0.	2.1002e-003
57801	12.747	3.	5.e-002	4.4889
57802	12.897	3.	0.	1.9454e-003
57803	12.847	2.95	0.	1.99e-003
57804	12.847	3.	5.e-002	4.4213
57805	12.996	3.	0.	1.9175e-003
57806	12.947	2.95	0.	1.9393e-003
57807	12.947	3.	5.e-002	4.3593
57808	13.096	3.	0.	1.9242e-003
57809	13.046	2.95	0.	1.9312e-003
57810	13.046	3.	5.e-002	4.3024
57811	13.195	3.	0.	1.9677e-003
57812	13.146	2.95	0.	1.9503e-003
57813	13.146	3.	5.e-002	4.2501
57814	13.295	3.	0.	2.0532e-003
57815	13.245	2.95	0.	2.0157e-003
57816	13.245	3.	5.e-002	4.2017
57817	13.395	3.	0.	2.1626e-003
57818	13.345	2.95	0.	2.1181e-003
57819	13.345	3.	5.e-002	4.157
57820	13.494	3.	0.	2.2851e-003
57821	13.444	2.95	0.	2.2328e-003
57822	13.444	3.	5.e-002	4.1157
57823	13.594	3.	0.	2.4188e-003
57824	13.544	2.95	0.	2.3607e-003
57825	13.544	3.	5.e-002	4.0772
57826	13.693	3.	0.	2.5623e-003
57827	13.644	2.95	0.	2.499e-003
57828	13.644	3.	5.e-002	4.0414
57829	13.793	3.	0.	2.7204e-003
57830	13.743	2.95	0.	2.6466e-003
57831	13.743	3.	5.e-002	4.008
57832	13.893	3.	0.	2.8925e-003
57833	13.843	2.95	0.	2.8128e-003
57834	13.843	3.	5.e-002	3.9767
57835	13.992	3.	0.	3.0585e-003
57836	13.942	2.95	0.	2.9891e-003
57837	13.942	3.	5.e-002	3.9473
57838	14.092	3.	0.	3.215e-003
57839	14.042	2.95	0.	3.1427e-003
57840	14.042	3.	5.e-002	3.9197
57841	14.191	3.	0.	3.3806e-003
57842	14.142	2.95	0.	3.301e-003
57843	14.142	3.	5.e-002	3.8936
57844	14.291	3.	0.	3.5528e-003
57845	14.241	2.95	0.	3.4734e-003
57846	14.241	3.	5.e-002	3.869
57847	14.39	3.	0.	3.7222e-003
57848	14.341	2.95	0.	3.6432e-003
57849	14.341	3.	5.e-002	3.8456
57850	14.49	3.	0.	3.8895e-003
57851	14.44	2.95	0.	3.8124e-003
57852	14.44	3.	5.e-002	3.8234
57853	14.59	3.	0.	4.0526e-003
57854	14.54	2.95	0.	3.9786e-003
57855	14.54	3.	5.e-002	3.8023
57856	14.689	3.	0.	4.2141e-003
57857	14.639	2.95	0.	4.1359e-003
57858	14.639	3.	5.e-002	3.7821
57859	14.789	3.	0.	4.3843e-003
57860	14.739	2.95	0.	4.3008e-003
57861	14.739	3.	5.e-002	3.7629
57862	14.888	3.	0.	4.5556e-003
57863	14.839	2.95	0.	4.4761e-003
57864	14.839	3.	5.e-002	3.7444
57865	14.988	3.	0.	4.7184e-003
57866	14.938	2.95	0.	4.6413e-003
57867	14.938	3.	5.e-002	3.7267
57868	15.088	3.	0.	4.8769e-003
57869	15.038	2.95	0.	4.8015e-003
57870	15.038	3.	5.e-002	3.7097
57871	15.187	3.	0.	5.0376e-003
57872	15.137	2.95	0.	4.9587e-003
57873	15.137	3.	5.e-002	3.6933
57874	15.287	3.	0.	5.2041e-003
57875	15.237	2.95	0.	5.1222e-003
57876	15.237	3.	5.e-002	3.6775
57877	15.386	3.	0.	5.3579e-003
57878	15.336	2.95	0.	5.291e-003
57879	15.336	3.	5.e-002	3.6623
57880	15.486	3.	0.	5.5007e-003
57881	15.436	2.95	0.	5.43e-003
57882	15.436	3.	5.e-002	3.6476
57883	15.585	3.	0.	5.6498e-003
57884	15.536	2.95	0.	5.5769e-003
57885	15.536	3.	5.e-002	3.6334
57886	15.685	3.	0.	5.7997e-003
57887	15.635	2.95	0.	5.7272e-003
57888	15.635	3.	5.e-002	3.6195
57889	15.785	3.	0.	5.9498e-003
57890	15.735	2.95	0.	5.8769e-003
57891	15.735	3.	5.e-002	3.6061
57892	15.884	3.	0.	6.0977e-003
57893	15.834	2.95	0.	6.0271e-003
57894	15.834	3.	5.e-002	3.5931
57895	15.984	3.	0.	6.2375e-003
57896	15.934	2.95	0.	6.1729e-003
57897	15.934	3.	5.e-002	3.5804
57898	16.083	3.	0.	6.3796e-003
57899	16.034	2.95	0.	6.3084e-003
57900	16.034	3.	5.e-002	3.5681
57901	16.183	3.	0.	6.5307e-003
57902	16.133	2.95	0.	6.457e-003
57903	16.133	3.	5.e-002	3.556
57904	16.282	3.	0.	6.682e-003
57905	16.233	2.95	0.	6.613e-003
57906	16.233	3.	5.e-002	3.5443
57907	16.382	3.	0.	6.8289e-003
57908	16.332	2.95	0.	6.7638e-003
57909	16.332	3.	5.e-002	3.5329
57910	16.482	3.	0.	6.9749e-003
57911	16.432	2.95	0.	6.9138e-003
57912	16.432	3.	5.e-002	3.5217
57913	16.581	3.	0.	7.1224e-003
57914	16.531	2.95	0.	7.0875e-003
57915	16.531	3.	5.e-002	3.5109
57916	16.681	3.	0.	1.2159
57917	16.631	2.95	0.	0.61232
57918	16.631	3.	5.e-002	3.5003
57919	16.78	3.	0.	2.4234
57920	16.731	2.95	0.	1.8299
57921	16.731	3.	5.e-002	3.4899
57922	16.88	3.	0.	3.6101
57923	16.83	2.95	0.	3.0256
57924	16.83	3.	5.e-002	3.4798
57925	16.98	3.	0.	4.7784
57926	16.93	2.95	0.	4.2017
57927	16.93	3.	5.e-002	3.47
57928	17.079	3.	0.	5.9306
57929	17.029	2.95	0.	5.3606
57930	17.029	3.	5.e-002	3.4604
57931	17.179	3.	0.	7.0691
57932	17.129	2.95	0.	6.5046
57933	17.129	3.	5.e-002	3.4509
57934	17.278	3.	0.	8.1959
57935	17.229	2.95	0.	7.6359
57936	17.229	3.	5.e-002	3.4417
57937	17.378	3.	0.	9.3133
57938	17.328	2.95	0.	8.7568
57939	17.328	3.	5.e-002	3.4327
57940	17.477	3.	0.	10.424
57941	17.428	2.95	0.	9.8693
57942	17.428	3.	5.e-002	3.4239
57943	17.577	3.	0.	11.529
57944	17.527	2.95	0.	10.976
57945	17.527	3.	5.e-002	3.4153
57946	17.677	3.	0.	12.631
57947	17.627	2.95	0.	12.078
57948	17.627	3.	5.e-002	3.4069
57949	17.776	3.	0.	13.733
57950	17.726	2.95	0.	13.179
57951	17.726	3.	5.e-002	3.3987
57952	17.876	3.	0.	14.835
57953	17.826	2.95	0.	14.28
57954	17.826	3.	5.e-002	3.3907
57955	17.975	3.	0.	15.942
57956	17.926	2.95	0.	15.383
57957	17.926	3.	5.e-002	3.3829
57958	18.075	3.	0.	17.054
57959	18.025	2.95	0.	16.491
57960	18.025	3.	5.e-002	3.3753
57961	18.175	3.	0.	18.173
57962	18.125	2.95	0.	17.605
57963	18.125	3.	5.e-002	3.368
57964	18.274	3.	0.	19.303
57965	18.224	2.95	0.	18.729
57966	18.224	3.	5.e-002	3.3608
57967	18.374	3.	0.	20.444
57968	18.324	2.95	0.	19.863
57969	18.324	3.	5.e-002	3.3539
57970	18.473	3.	0.	21.599
57971	18.423	2.95	0.	21.01
57972	18.423	3.	5.e-002	3.3471
57973	18.573	3.	0.	22.771
57974	18.523	2.95	0.	22.172
57975	18.523	3.	5.e-002	3.3406
57976	18.672	3.	0.	23.961
57977	18.623	2.95	0.	23.352
57978	18.623	3.	5.e-002	3.3342
57979	18.772	3.	0.	25.172
57980	18.722	2.95	0.	24.551
57981	18.722	3.	5.e-002	3.3281
57982	18.872	3.	0.	26.407
57983	18.822	2.95	0.	25.772
57984	18.822	3.	5.e-002	3.3222
57985	18.971	3.	0.	27.666
57986	18.921	2.95	0.	27.018
57987	18.921	3.	5.e-002	3.3165
57988	19.071	3.	0.	28.953
57989	19.021	2.95	0.	28.289
57990	19.021	3.	5.e-002	3.3111
57991	19.17	3.	0.	30.27
57992	19.121	2.95	0.	29.59
57993	19.121	3.	5.e-002	3.3059
57994	19.27	3.	0.	31.619
57995	19.22	2.95	0.	30.922
57996	19.22	3.	5.e-002	3.3009
57997	19.369	3.	0.	33.004
57998	19.32	2.95	0.	32.287
57999	19.32	3.	5.e-002	3.2962
58000	19.469	3.	0.	34.426
58001	19.419	2.95	0.	33.689
58002	19.419	3.	5.e-002	3.2918
58003	19.569	3.	0.	35.888
58004	19.519	2.95	0.	35.129
58005	19.519	3.	5.e-002	3.2876
58006	19.668	3.	0.	37.393
58007	19.618	2.95	0.	36.611
58008	19.618	3.	5.e-002	3.2838
58009	19.768	3.	0.	38.943
58010	19.718	2.95	0.	38.137
58011	19.718	3.	5.e-002	3.2802
58012	19.867	3.	0.	40.541
58013	19.818	2.95	0.	39.709
58014	19.818	3.	5.e-002	3.277
58015	19.967	3.	0.	42.191
58016	19.917	2.95	0.	41.331
58017	19.917	3.	5.e-002	3.274
58018	20.067	3.	0.	43.894
58019	20.017	2.95	0.	43.006
58020	20.017	3.	5.e-002	3.2714
58021	20.166	3.	0.	45.654
58022	20.116	2.95	0.	44.735
58023	20.116	3.	5.e-002	3.269
58024	20.266	3.	0.	47.474
58025	20.216	2.95	0.	46.523
58026	20.216	3.	5.e-002	3.2671
58027	20.365	3.	0.	49.357
58028	20.316	2.95	0.	48.373
58029	20.316	3.	5.e-002	3.2655
58030	20.465	3.	0.	51.306
58031	20.415	2.95	0.	50.287
58032	20.415	3.	5.e-002	3.2643
58033	20.564	3.	0.	53.324
58034	20.515	2.95	0.	52.268
58035	20.515	3.	5.e-002	3.2636
58036	20.664	3.	0.	55.415
58037	20.614	2.95	0.	54.321
58038	20.614	3.	5.e-002	3.2632
58039	20.764	3.	0.	57.582
58040	20.714	2.95	0.	56.447
58041	20.714	3.	5.e-002	3.2634
58042	20.863	3.	0.	59.828
58043	20.813	2.95	0.	58.651
58044	20.813	3.	5.e-002	3.2639
58045	20.963	3.	0.	62.156
58046	20.913	2.95	0.	60.936
58047	20.913	3.	5.e-002	3.265
58048	21.062	3.	0.	64.571
58049	21.013	2.95	0.	63.305
58050	21.013	3.	5.e-002	3.2666
58051	21.162	3.	0.	67.075
58052	21.112	2.95	0.	65.762
58053	21.112	3.	5.e-002	3.2687
58054	21.262	3.	0.	69.672
58055	21.212	2.95	0.	68.31
58056	21.212	3.	5.e-002	3.2714
58057	21.361	3.	0.	72.366
58058	21.311	2.95	0.	70.953
58059	21.311	3.	5.e-002	3.2747
58060	21.461	3.	0.	75.159
58061	21.411	2.95	0.	73.694
58062	21.411	3.	5.e-002	3.2787
58063	21.56	3.	0.	78.056
58064	21.51	2.95	0.	76.537
58065	21.51	3.	5.e-002	3.2832
58066	21.66	3.	0.	81.059
58067	21.61	2.95	0.	79.484
58068	21.61	3.	5.e-002	3.2885
58069	21.759	3.	0.	84.173
58070	21.71	2.95	0.	82.54
58071	21.71	3.	5.e-002	3.2945
58072	21.859	3.	0.	87.399
58073	21.809	2.95	0.	85.708
58074	21.809	3.	5.e-002	3.3012
58075	21.959	3.	0.	90.742
58076	21.909	2.95	0.	88.99
58077	21.909	3.	5.e-002	3.3087
58078	22.058	3.	0.	94.203
58079	22.008	2.95	0.	92.39
58080	22.008	3.	5.e-002	3.317
58081	22.158	3.	0.	97.787
58082	22.108	2.95	0.	95.91
58083	22.108	3.	5.e-002	3.3262
58084	22.257	3.	0.	101.49
58085	22.208	2.95	0.	99.554
58086	22.208	3.	5.e-002	3.3362
58087	22.357	3.	0.	105.33
58088	22.307	2.95	0.	103.32
58089	22.307	3.	5.e-002	3.3472
58090	22.456	3.	0.	109.29
58091	22.407	2.95	0.	107.22
58092	22.407	3.	5.e-002	3.359
58093	22.556	3.	0.	113.39
58094	22.506	2.95	0.	111.25
58095	22.506	3.	5.e-002	3.3718
58096	22.656	3.	0.	117.61
58097	22.606	2.95	0.	115.4
58098	22.606	3.	5.e-002	3.3856
58099	22.755	3.	0.	121.97
58100	22.705	2.95	0.	119.7
58101	22.705	3.	5.e-002	3.4004
58102	22.855	3.	0.	126.47
58103	22.805	2.95	0.	124.12
58104	22.805	3.	5.e-002	3.4161
58105	22.954	3.	0.	131.09
58106	22.905	2.95	0.	128.68
58107	22.905	3.	5.e-002	3.4329
58108	23.054	3.	0.	135.86
58109	23.004	2.95	0.	133.38
58110	23.004	3.	5.e-002	3.4506
58111	23.154	3.	0.	140.75
58112	23.104	2.95	0.	138.2
58113	23.104	3.	5.e-002	3.4693
58114	23.253	3.	0.	145.79
58115	23.203	2.95	0.	143.17
58116	23.203	3.	5.e-002	3.4889
58117	23.353	3.	0.	150.95
58118	23.303	2.95	0.	148.27
58119	23.303	3.	5.e-002	3.5095
58120	23.452	3.	0.	156.25
58121	23.403	2.95	0.	153.5
58122	23.403	3.	5.e-002	3.5309
58123	23.552	3.	0.	161.68
58124	23.502	2.95	0.	158.86
58125	23.502	3.	5.e-002	3.5532
58126	23.651	3.	0.	167.23
58127	23.602	2.95	0.	164.35
58128	23.602	3.	5.e-002	3.5762
58129	23.751	3.	0.	172.92
58130	23.701	2.95	0.	169.97
58131	23.701	3.	5.e-002	3.6001
58132	23.851	3.	0.	178.72
58133	23.801	2.95	0.	175.73
58134	23.801	3.	5.e-002	3.6237
58135	23.9	2.95	0.	181.56
58136	23.9	3.	5.e-002	3.655
58137	23.95	3.	0.	184.74
58138	8.316	2.9	0.	775.04
58139	8.2662	2.85	0.	842.47
58140	8.2662	2.9	5.e-002	22.746
58141	8.4156	2.9	0.	643.19
58142	8.3658	2.85	0.	717.57
58143	8.3658	2.9	5.e-002	31.073
58144	8.5152	2.9	0.	496.1
58145	8.4654	2.85	0.	570.52
58146	8.4654	2.9	5.e-002	37.176
58147	8.6148	2.9	0.	347.07
58148	8.565	2.85	0.	416.52
58149	8.565	2.9	5.e-002	40.882
58150	8.7144	2.9	0.	206.4
58151	8.6646	2.85	0.	268.05
58152	8.6646	2.9	5.e-002	42.447
58153	8.8139	2.9	0.	80.628
58154	8.7642	2.85	0.	133.36
58155	8.7642	2.9	5.e-002	42.324
58156	8.9135	2.9	0.	1.1785
58157	8.8637	2.85	0.	16.774
58158	8.8637	2.9	5.e-002	41.003
58159	9.0131	2.9	0.	1.1488
58160	8.9633	2.85	0.	1.2044
58161	8.9633	2.9	5.e-002	38.92
58162	9.1127	2.9	0.	1.0675
58163	9.0629	2.85	0.	1.1276
58164	9.0629	2.9	5.e-002	36.413
58165	9.2123	2.9	0.	0.95859
58166	9.1625	2.85	0.	1.0183
58167	9.1625	2.9	5.e-002	33.731
58168	9.3118	2.9	0.	0.84123
58169	9.2621	2.85	0.	0.89738
58170	9.2621	2.9	5.e-002	31.037
58171	9.4114	2.9	0.	0.72679
58172	9.3616	2.85	0.	0.77793
58173	9.3616	2.9	5.e-002	28.438
58174	9.511	2.9	0.	0.62127
58175	9.4612	2.85	0.	0.66687
58176	9.4612	2.9	5.e-002	25.994
58177	9.6106	2.9	0.	0.52725
58178	9.5608	2.85	0.	0.56733
58179	9.5608	2.9	5.e-002	23.734
58180	9.7102	2.9	0.	0.44528
58181	9.6604	2.85	0.	0.48017
58182	9.6604	2.9	5.e-002	21.669
58183	9.8097	2.9	0.	0.37484
58184	9.76	2.85	0.	0.40498
58185	9.76	2.9	5.e-002	19.799
58186	9.9093	2.9	0.	0.31488
58187	9.8595	2.85	0.	0.34078
58188	9.8595	2.9	5.e-002	18.114
58189	10.009	2.9	0.	0.26413
58190	9.9591	2.85	0.	0.28633
58191	9.9591	2.9	5.e-002	16.603
58192	10.108	2.9	0.	0.22134
58193	10.059	2.85	0.	0.24031
58194	10.059	2.9	5.e-002	15.251
58195	10.208	2.9	0.	0.18536
58196	10.158	2.85	0.	0.20153
58197	10.158	2.9	5.e-002	14.043
58198	10.308	2.9	0.	0.15514
58199	10.258	2.85	0.	0.1689
58200	10.258	2.9	5.e-002	12.966
58201	10.407	2.9	0.	0.12979
58202	10.357	2.85	0.	0.14149
58203	10.357	2.9	5.e-002	12.006
58204	10.507	2.9	0.	0.10853
58205	10.457	2.85	0.	0.11848
58206	10.457	2.9	5.e-002	11.15
58207	10.606	2.9	0.	9.0694e-002
58208	10.557	2.85	0.	9.9149e-002
58209	10.557	2.9	5.e-002	10.388
58210	10.706	2.9	0.	7.5726e-002
58211	10.656	2.85	0.	8.2906e-002
58212	10.656	2.9	5.e-002	9.7086
58213	10.806	2.9	0.	6.3169e-002
58214	10.756	2.85	0.	6.9268e-002
58215	10.756	2.9	5.e-002	9.1029
58216	10.905	2.9	0.	5.2641e-002
58217	10.855	2.85	0.	5.781e-002
58218	10.855	2.9	5.e-002	8.5627
58219	11.005	2.9	0.	4.3827e-002
58220	10.955	2.85	0.	4.8207e-002
58221	10.955	2.9	5.e-002	8.0806
58222	11.104	2.9	0.	3.6426e-002
58223	11.055	2.85	0.	4.0158e-002
58224	11.055	2.9	5.e-002	7.6503
58225	11.204	2.9	0.	3.0212e-002
58226	11.154	2.85	0.	3.3373e-002
58227	11.154	2.9	5.e-002	7.2658
58228	11.303	2.9	0.	2.5024e-002
58229	11.254	2.85	0.	2.7692e-002
58230	11.254	2.9	5.e-002	6.922
58231	11.403	2.9	0.	2.0695e-002
58232	11.353	2.85	0.	2.2954e-002
58233	11.353	2.9	5.e-002	6.6143
58234	11.503	2.9	0.	1.7086e-002
58235	11.453	2.85	0.	1.8993e-002
58236	11.453	2.9	5.e-002	6.3387
58237	11.602	2.9	0.	1.4084e-002
58238	11.552	2.85	0.	1.5694e-002
58239	11.552	2.9	5.e-002	6.0917
58240	11.702	2.9	0.	1.1588e-002
58241	11.652	2.85	0.	1.2948e-002
58242	11.652	2.9	5.e-002	5.87
58243	11.801	2.9	0.	9.5271e-003
58244	11.752	2.85	0.	1.0663e-002
58245	11.752	2.9	5.e-002	5.6708
58246	11.901	2.9	0.	7.8472e-003
58247	11.851	2.85	0.	8.7899e-003
58248	11.851	2.9	5.e-002	5.4916
58249	12.001	2.9	0.	6.4788e-003
58250	11.951	2.85	0.	7.2689e-003
58251	11.951	2.9	5.e-002	5.3302
58252	12.1	2.9	0.	5.3634e-003
58253	12.05	2.85	0.	6.0218e-003
58254	12.05	2.9	5.e-002	5.1848
58255	12.2	2.9	0.	4.4649e-003
58256	12.15	2.85	0.	5.0096e-003
58257	12.15	2.9	5.e-002	5.0535
58258	12.299	2.9	0.	3.7569e-003
58259	12.249	2.85	0.	4.198e-003
58260	12.249	2.9	5.e-002	4.9347
58261	12.399	2.9	0.	3.2144e-003
58262	12.349	2.85	0.	3.5691e-003
58263	12.349	2.9	5.e-002	4.8272
58264	12.498	2.9	0.	2.7891e-003
58265	12.449	2.85	0.	3.0901e-003
58266	12.449	2.9	5.e-002	4.7296
58267	12.598	2.9	0.	2.4597e-003
58268	12.548	2.85	0.	2.6981e-003
58269	12.548	2.9	5.e-002	4.641
58270	12.698	2.9	0.	2.2315e-003
58271	12.648	2.85	0.	2.4131e-003
58272	12.648	2.9	5.e-002	4.5602
58273	12.797	2.9	0.	2.0838e-003
58274	12.747	2.85	0.	2.2247e-003
58275	12.747	2.9	5.e-002	4.4865
58276	12.897	2.9	0.	1.9994e-003
58277	12.847	2.85	0.	2.1022e-003
58278	12.847	2.9	5.e-002	4.4191
58279	12.996	2.9	0.	1.9663e-003
58280	12.947	2.85	0.	2.0413e-003
58281	12.947	2.9	5.e-002	4.3574
58282	13.096	2.9	0.	1.9687e-003
58283	13.046	2.85	0.	2.0229e-003
58284	13.046	2.9	5.e-002	4.3007
58285	13.195	2.9	0.	2.008e-003
58286	13.146	2.85	0.	2.0336e-003
58287	13.146	2.9	5.e-002	4.2485
58288	13.295	2.9	0.	2.0889e-003
58289	13.245	2.85	0.	2.0904e-003
58290	13.245	2.9	5.e-002	4.2003
58291	13.395	2.9	0.	2.1954e-003
58292	13.345	2.85	0.	2.1862e-003
58293	13.345	2.9	5.e-002	4.1558
58294	13.494	2.9	0.	2.3144e-003
58295	13.444	2.85	0.	2.2942e-003
58296	13.444	2.9	5.e-002	4.1145
58297	13.594	2.9	0.	2.4459e-003
58298	13.544	2.85	0.	2.415e-003
58299	13.544	2.9	5.e-002	4.0762
58300	13.693	2.9	0.	2.5875e-003
58301	13.644	2.85	0.	2.5497e-003
58302	13.644	2.9	5.e-002	4.0405
58303	13.793	2.9	0.	2.7424e-003
58304	13.743	2.85	0.	2.6921e-003
58305	13.743	2.9	5.e-002	4.0071
58306	13.893	2.9	0.	2.9123e-003
58307	13.843	2.85	0.	2.8532e-003
58308	13.843	2.9	5.e-002	3.9759
58309	13.992	2.9	0.	3.0756e-003
58310	13.942	2.85	0.	3.0261e-003
58311	13.942	2.9	5.e-002	3.9466
58312	14.092	2.9	0.	3.2306e-003
58313	14.042	2.85	0.	3.1752e-003
58314	14.042	2.9	5.e-002	3.9191
58315	14.191	2.9	0.	3.3952e-003
58316	14.142	2.85	0.	3.3309e-003
58317	14.142	2.9	5.e-002	3.8931
58318	14.291	2.9	0.	3.5648e-003
58319	14.241	2.85	0.	3.5e-003
58320	14.241	2.9	5.e-002	3.8685
58321	14.39	2.9	0.	3.7342e-003
58322	14.341	2.85	0.	3.6666e-003
58323	14.341	2.9	5.e-002	3.8452
58324	14.49	2.9	0.	3.902e-003
58325	14.44	2.85	0.	3.8348e-003
58326	14.44	2.9	5.e-002	3.823
58327	14.59	2.9	0.	4.0622e-003
58328	14.54	2.85	0.	3.9983e-003
58329	14.54	2.9	5.e-002	3.8019
58330	14.689	2.9	0.	4.2227e-003
58331	14.639	2.85	0.	4.1525e-003
58332	14.639	2.9	5.e-002	3.7817
58333	14.789	2.9	0.	4.3926e-003
58334	14.739	2.85	0.	4.3173e-003
58335	14.739	2.9	5.e-002	3.7625
58336	14.888	2.9	0.	4.5616e-003
58337	14.839	2.85	0.	4.49e-003
58338	14.839	2.9	5.e-002	3.7441
58339	14.988	2.9	0.	4.7242e-003
58340	14.938	2.85	0.	4.6536e-003
58341	14.938	2.9	5.e-002	3.7264
58342	15.088	2.9	0.	4.8831e-003
58343	15.038	2.85	0.	4.8134e-003
58344	15.038	2.9	5.e-002	3.7094
58345	15.187	2.9	0.	5.0432e-003
58346	15.137	2.85	0.	4.9694e-003
58347	15.137	2.9	5.e-002	3.6931
58348	15.287	2.9	0.	5.209e-003
58349	15.237	2.85	0.	5.1327e-003
58350	15.237	2.9	5.e-002	3.6773
58351	15.386	2.9	0.	5.3631e-003
58352	15.336	2.85	0.	5.3004e-003
58353	15.336	2.9	5.e-002	3.6621
58354	15.486	2.9	0.	5.5062e-003
58355	15.436	2.85	0.	5.4401e-003
58356	15.436	2.9	5.e-002	3.6474
58357	15.585	2.9	0.	5.6545e-003
58358	15.536	2.85	0.	5.5869e-003
58359	15.536	2.9	5.e-002	3.6332
58360	15.685	2.9	0.	5.805e-003
58361	15.635	2.85	0.	5.7377e-003
58362	15.635	2.9	5.e-002	3.6194
58363	15.785	2.9	0.	5.9553e-003
58364	15.735	2.85	0.	5.8886e-003
58365	15.735	2.9	5.e-002	3.6059
58366	15.884	2.9	0.	6.1039e-003
58367	15.834	2.85	0.	6.0396e-003
58368	15.834	2.9	5.e-002	3.5929
58369	15.984	2.9	0.	6.2463e-003
58370	15.934	2.85	0.	6.1881e-003
58371	15.934	2.9	5.e-002	3.5803
58372	16.083	2.9	0.	6.3896e-003
58373	16.034	2.85	0.	6.3276e-003
58374	16.034	2.9	5.e-002	3.5679
58375	16.183	2.9	0.	6.5448e-003
58376	16.133	2.85	0.	6.4815e-003
58377	16.133	2.9	5.e-002	3.5559
58378	16.282	2.9	0.	6.7035e-003
58379	16.233	2.85	0.	6.6478e-003
58380	16.233	2.9	5.e-002	3.5441
58381	16.382	2.9	0.	6.8632e-003
58382	16.332	2.85	0.	6.8171e-003
58383	16.332	2.9	5.e-002	3.5328
58384	16.482	2.9	0.	7.0498e-003
58385	16.432	2.85	0.	7.0117e-003
58386	16.432	2.9	5.e-002	3.5216
58387	16.581	2.9	0.	1.6268e-002
58388	16.531	2.85	0.	7.4205e-003
58389	16.531	2.9	5.e-002	3.5108
58390	16.681	2.9	0.	1.2342
58391	16.631	2.85	0.	0.65066
58392	16.631	2.9	5.e-002	3.5002
58393	16.78	2.9	0.	2.4402
58394	16.731	2.85	0.	1.8649
58395	16.731	2.9	5.e-002	3.4898
58396	16.88	2.9	0.	3.6254
58397	16.83	2.85	0.	3.0576
58398	16.83	2.9	5.e-002	3.4798
58399	16.98	2.9	0.	4.7922
58400	16.93	2.85	0.	4.2307
58401	16.93	2.9	5.e-002	3.4699
58402	17.079	2.9	0.	5.943
58403	17.029	2.85	0.	5.3867
58404	17.029	2.9	5.e-002	3.4603
58405	17.179	2.9	0.	7.08
58406	17.129	2.85	0.	6.5278
58407	17.129	2.9	5.e-002	3.4508
58408	17.278	2.9	0.	8.2054
58409	17.229	2.85	0.	7.6563
58410	17.229	2.9	5.e-002	3.4416
58411	17.378	2.9	0.	9.3215
58412	17.328	2.85	0.	8.7744
58413	17.328	2.9	5.e-002	3.4326
58414	17.477	2.9	0.	10.43
58415	17.428	2.85	0.	9.8842
58416	17.428	2.9	5.e-002	3.4238
58417	17.577	2.9	0.	11.534
58418	17.527	2.85	0.	10.988
58419	17.527	2.9	5.e-002	3.4152
58420	17.677	2.9	0.	12.635
58421	17.627	2.85	0.	12.088
58422	17.627	2.9	5.e-002	3.4068
58423	17.776	2.9	0.	13.735
58424	17.726	2.85	0.	13.186
58425	17.726	2.9	5.e-002	3.3986
58426	17.876	2.9	0.	14.837
58427	17.826	2.85	0.	14.284
58428	17.826	2.9	5.e-002	3.3906
58429	17.975	2.9	0.	15.942
58430	17.926	2.85	0.	15.384
58431	17.926	2.9	5.e-002	3.3828
58432	18.075	2.9	0.	17.052
58433	18.025	2.85	0.	16.49
58434	18.025	2.9	5.e-002	3.3752
58435	18.175	2.9	0.	18.17
58436	18.125	2.85	0.	17.601
58437	18.125	2.9	5.e-002	3.3679
58438	18.274	2.9	0.	19.298
58439	18.224	2.85	0.	18.722
58440	18.224	2.9	5.e-002	3.3607
58441	18.374	2.9	0.	20.438
58442	18.324	2.85	0.	19.853
58443	18.324	2.9	5.e-002	3.3538
58444	18.473	2.9	0.	21.592
58445	18.423	2.85	0.	20.997
58446	18.423	2.9	5.e-002	3.347
58447	18.573	2.9	0.	22.763
58448	18.523	2.85	0.	22.156
58449	18.523	2.9	5.e-002	3.3405
58450	18.672	2.9	0.	23.951
58451	18.623	2.85	0.	23.333
58452	18.623	2.9	5.e-002	3.3341
58453	18.772	2.9	0.	25.161
58454	18.722	2.85	0.	24.529
58455	18.722	2.9	5.e-002	3.328
58456	18.872	2.9	0.	26.393
58457	18.822	2.85	0.	25.747
58458	18.822	2.9	5.e-002	3.3221
58459	18.971	2.9	0.	27.651
58460	18.921	2.85	0.	26.989
58461	18.921	2.9	5.e-002	3.3164
58462	19.071	2.9	0.	28.936
58463	19.021	2.85	0.	28.258
58464	19.021	2.9	5.e-002	3.311
58465	19.17	2.9	0.	30.252
58466	19.121	2.85	0.	29.555
58467	19.121	2.9	5.e-002	3.3058
58468	19.27	2.9	0.	31.599
58469	19.22	2.85	0.	30.883
58470	19.22	2.9	5.e-002	3.3008
58471	19.369	2.9	0.	32.982
58472	19.32	2.85	0.	32.245
58473	19.32	2.9	5.e-002	3.2961
58474	19.469	2.9	0.	34.402
58475	19.419	2.85	0.	33.643
58476	19.419	2.9	5.e-002	3.2917
58477	19.569	2.9	0.	35.862
58478	19.519	2.85	0.	35.079
58479	19.519	2.9	5.e-002	3.2875
58480	19.668	2.9	0.	37.365
58481	19.618	2.85	0.	36.557
58482	19.618	2.9	5.e-002	3.2837
58483	19.768	2.9	0.	38.913
58484	19.718	2.85	0.	38.079
58485	19.718	2.9	5.e-002	3.2801
58486	19.867	2.9	0.	40.509
58487	19.818	2.85	0.	39.647
58488	19.818	2.9	5.e-002	3.2768
58489	19.967	2.9	0.	42.156
58490	19.917	2.85	0.	41.264
58491	19.917	2.9	5.e-002	3.2739
58492	20.067	2.9	0.	43.857
58493	20.017	2.85	0.	42.934
58494	20.017	2.9	5.e-002	3.2712
58495	20.166	2.9	0.	45.615
58496	20.116	2.85	0.	44.659
58497	20.116	2.9	5.e-002	3.2689
58498	20.266	2.9	0.	47.432
58499	20.216	2.85	0.	46.442
58500	20.216	2.9	5.e-002	3.267
58501	20.365	2.9	0.	49.312
58502	20.316	2.85	0.	48.287
58503	20.316	2.9	5.e-002	3.2654
58504	20.465	2.9	0.	51.259
58505	20.415	2.85	0.	50.195
58506	20.415	2.9	5.e-002	3.2642
58507	20.564	2.9	0.	53.274
58508	20.515	2.85	0.	52.171
58509	20.515	2.9	5.e-002	3.2634
58510	20.664	2.9	0.	55.362
58511	20.614	2.85	0.	54.218
58512	20.614	2.9	5.e-002	3.2631
58513	20.764	2.9	0.	57.526
58514	20.714	2.85	0.	56.339
58515	20.714	2.9	5.e-002	3.2632
58516	20.863	2.9	0.	59.769
58517	20.813	2.85	0.	58.537
58518	20.813	2.9	5.e-002	3.2638
58519	20.963	2.9	0.	62.094
58520	20.913	2.85	0.	60.815
58521	20.913	2.9	5.e-002	3.2648
58522	21.062	2.9	0.	64.506
58523	21.013	2.85	0.	63.178
58524	21.013	2.9	5.e-002	3.2664
58525	21.162	2.9	0.	67.006
58526	21.112	2.85	0.	65.629
58527	21.112	2.9	5.e-002	3.2685
58528	21.262	2.9	0.	69.6
58529	21.212	2.85	0.	68.17
58530	21.212	2.9	5.e-002	3.2712
58531	21.361	2.9	0.	72.29
58532	21.311	2.85	0.	70.806
58533	21.311	2.9	5.e-002	3.2745
58534	21.461	2.9	0.	75.08
58535	21.411	2.85	0.	73.54
58536	21.411	2.9	5.e-002	3.2784
58537	21.56	2.9	0.	77.973
58538	21.51	2.85	0.	76.376
58539	21.51	2.9	5.e-002	3.283
58540	21.66	2.9	0.	80.973
58541	21.61	2.85	0.	79.316
58542	21.61	2.9	5.e-002	3.2883
58543	21.759	2.9	0.	84.083
58544	21.71	2.85	0.	82.364
58545	21.71	2.9	5.e-002	3.2942
58546	21.859	2.9	0.	87.306
58547	21.809	2.85	0.	85.525
58548	21.809	2.9	5.e-002	3.301
58549	21.959	2.9	0.	90.645
58550	21.909	2.85	0.	88.799
58551	21.909	2.9	5.e-002	3.3084
58552	22.058	2.9	0.	94.103
58553	22.008	2.85	0.	92.192
58554	22.008	2.9	5.e-002	3.3168
58555	22.158	2.9	0.	97.683
58556	22.108	2.85	0.	95.705
58557	22.108	2.9	5.e-002	3.3259
58558	22.257	2.9	0.	101.39
58559	22.208	2.85	0.	99.342
58560	22.208	2.9	5.e-002	3.3359
58561	22.357	2.9	0.	105.22
58562	22.307	2.85	0.	103.1
58563	22.307	2.9	5.e-002	3.3469
58564	22.456	2.9	0.	109.18
58565	22.407	2.85	0.	106.99
58566	22.407	2.9	5.e-002	3.3587
58567	22.556	2.9	0.	113.27
58568	22.506	2.85	0.	111.01
58569	22.506	2.9	5.e-002	3.3716
58570	22.656	2.9	0.	117.49
58571	22.606	2.85	0.	115.17
58572	22.606	2.9	5.e-002	3.3853
58573	22.755	2.9	0.	121.85
58574	22.705	2.85	0.	119.45
58575	22.705	2.9	5.e-002	3.4001
58576	22.855	2.9	0.	126.34
58577	22.805	2.85	0.	123.87
58578	22.805	2.9	5.e-002	3.4159
58579	22.954	2.9	0.	130.97
58580	22.905	2.85	0.	128.43
58581	22.905	2.9	5.e-002	3.4326
58582	23.054	2.9	0.	135.73
58583	23.004	2.85	0.	133.12
58584	23.004	2.9	5.e-002	3.4503
58585	23.154	2.9	0.	140.62
58586	23.104	2.85	0.	137.94
58587	23.104	2.9	5.e-002	3.469
58588	23.253	2.9	0.	145.65
58589	23.203	2.85	0.	142.9
58590	23.203	2.9	5.e-002	3.4887
58591	23.353	2.9	0.	150.81
58592	23.303	2.85	0.	148.
58593	23.303	2.9	5.e-002	3.5093
58594	23.452	2.9	0.	156.11
58595	23.403	2.85	0.	153.22
58596	23.403	2.9	5.e-002	3.5308
58597	23.552	2.9	0.	161.54
58598	23.502	2.85	0.	158.58
58599	23.502	2.9	5.e-002	3.5531
58600	23.651	2.9	0.	167.09
58601	23.602	2.85	0.	164.08
58602	23.602	2.9	5.e-002	3.5761
58603	23.751	2.9	0.	172.78
58604	23.701	2.85	0.	169.69
58605	23.701	2.9	5.e-002	3.6001
58606	23.851	2.9	0.	178.58
58607	23.801	2.85	0.	175.45
58608	23.801	2.9	5.e-002	3.6236
58609	23.9	2.85	0.	181.28
58610	23.9	2.9	5.e-002	3.6552
58611	23.95	2.9	0.	184.6
58612	8.316	2.8	0.	786.21
58613	8.2662	2.75	0.	862.8
58614	8.2662	2.8	5.e-002	28.121
58615	8.4156	2.8	0.	647.07
58616	8.3658	2.75	0.	727.28
58617	8.3658	2.8	5.e-002	35.885
58618	8.5152	2.8	0.	493.76
58619	8.4654	2.75	0.	570.41
58620	8.4654	2.8	5.e-002	41.309
58621	8.6148	2.8	0.	340.55
58622	8.565	2.75	0.	409.33
58623	8.565	2.8	5.e-002	44.177
58624	8.7144	2.8	0.	197.94
58625	8.6646	2.75	0.	257.13
58626	8.6646	2.8	5.e-002	44.877
58627	8.8139	2.8	0.	72.074
58628	8.7642	2.75	0.	121.62
58629	8.7642	2.8	5.e-002	43.988
58630	8.9135	2.8	0.	1.2546
58631	8.8637	2.75	0.	6.3683
58632	8.8637	2.8	5.e-002	42.062
58633	9.0131	2.8	0.	1.1833
58634	8.9633	2.75	0.	1.2637
58635	8.9633	2.8	5.e-002	39.536
58636	9.1127	2.8	0.	1.0802
58637	9.0629	2.75	0.	1.1527
58638	9.0629	2.8	5.e-002	36.729
58639	9.2123	2.8	0.	0.95952
58640	9.1625	2.75	0.	1.0242
58641	9.1625	2.8	5.e-002	33.853
58642	9.3118	2.8	0.	0.83675
58643	9.2621	2.75	0.	0.89396
58644	9.2621	2.8	5.e-002	31.041
58645	9.4114	2.8	0.	0.72065
58646	9.3616	2.75	0.	0.77105
58647	9.3616	2.8	5.e-002	28.374
58648	9.511	2.8	0.	0.61542
58649	9.4612	2.75	0.	0.65968
58650	9.4612	2.8	5.e-002	25.894
58651	9.6106	2.8	0.	0.52252
58652	9.5608	2.75	0.	0.56128
58653	9.5608	2.8	5.e-002	23.618
58654	9.7102	2.8	0.	0.44189
58655	9.6604	2.75	0.	0.47573
58656	9.6604	2.8	5.e-002	21.55
58657	9.8097	2.8	0.	0.3727
58658	9.76	2.75	0.	0.40214
58659	9.76	2.8	5.e-002	19.683
58660	9.9093	2.8	0.	0.31378
58661	9.8595	2.75	0.	0.33932
58662	9.8595	2.8	5.e-002	18.005
58663	10.009	2.8	0.	0.26384
58664	9.9591	2.75	0.	0.28595
58665	9.9591	2.8	5.e-002	16.502
58666	10.108	2.8	0.	0.22164
58667	10.059	2.75	0.	0.24072
58668	10.059	2.8	5.e-002	15.158
58669	10.208	2.8	0.	0.18605
58670	10.158	2.75	0.	0.2025
58671	10.158	2.8	5.e-002	13.959
58672	10.308	2.8	0.	0.15609
58673	10.258	2.75	0.	0.17023
58674	10.258	2.8	5.e-002	12.89
58675	10.407	2.8	0.	0.1309
58676	10.357	2.75	0.	0.14303
58677	10.357	2.8	5.e-002	11.937
58678	10.507	2.8	0.	0.10971
58679	10.457	2.75	0.	0.12013
58680	10.457	2.8	5.e-002	11.088
58681	10.606	2.8	0.	9.1889e-002
58682	10.557	2.75	0.	0.10081
58683	10.557	2.8	5.e-002	10.331
58684	10.706	2.8	0.	7.6899e-002
58685	10.656	2.75	0.	8.4541e-002
58686	10.656	2.8	5.e-002	9.6571
58687	10.806	2.8	0.	6.4295e-002
58688	10.756	2.75	0.	7.0837e-002
58689	10.756	2.8	5.e-002	9.0561
58690	10.905	2.8	0.	5.3705e-002
58691	10.855	2.75	0.	5.9293e-002
58692	10.855	2.8	5.e-002	8.5201
58693	11.005	2.8	0.	4.482e-002
58694	10.955	2.75	0.	4.9591e-002
58695	10.955	2.8	5.e-002	8.0419
58696	11.104	2.8	0.	3.7346e-002
58697	11.055	2.75	0.	4.1441e-002
58698	11.055	2.8	5.e-002	7.615
58699	11.204	2.8	0.	3.1059e-002
58700	11.154	2.75	0.	3.4552e-002
58701	11.154	2.8	5.e-002	7.2336
58702	11.303	2.8	0.	2.5799e-002
58703	11.254	2.75	0.	2.8772e-002
58704	11.254	2.8	5.e-002	6.8926
58705	11.403	2.8	0.	2.1403e-002
58706	11.353	2.75	0.	2.3939e-002
58707	11.353	2.8	5.e-002	6.5875
58708	11.503	2.8	0.	1.773e-002
58709	11.453	2.75	0.	1.9889e-002
58710	11.453	2.8	5.e-002	6.3143
58711	11.602	2.8	0.	1.4669e-002
58712	11.552	2.75	0.	1.6508e-002
58713	11.552	2.8	5.e-002	6.0694
58714	11.702	2.8	0.	1.2118e-002
58715	11.652	2.75	0.	1.3686e-002
58716	11.652	2.8	5.e-002	5.8497
58717	11.801	2.8	0.	1.0007e-002
58718	11.752	2.75	0.	1.1331e-002
58719	11.752	2.8	5.e-002	5.6523
58720	11.901	2.8	0.	8.2821e-003
58721	11.851	2.75	0.	9.3959e-003
58722	11.851	2.8	5.e-002	5.4748
58723	12.001	2.8	0.	6.8725e-003
58724	11.951	2.75	0.	7.8173e-003
58725	11.951	2.8	5.e-002	5.315
58726	12.1	2.8	0.	5.72e-003
58727	12.05	2.75	0.	6.5174e-003
58728	12.05	2.8	5.e-002	5.1709
58729	12.2	2.8	0.	4.7874e-003
58730	12.15	2.75	0.	5.4584e-003
58731	12.15	2.8	5.e-002	5.0409
58732	12.299	2.8	0.	4.0486e-003
58733	12.249	2.75	0.	4.6038e-003
58734	12.249	2.8	5.e-002	4.9233
58735	12.399	2.8	0.	3.4779e-003
58736	12.349	2.75	0.	3.9362e-003
58737	12.349	2.8	5.e-002	4.8168
58738	12.498	2.8	0.	3.0276e-003
58739	12.449	2.75	0.	3.4217e-003
58740	12.449	2.8	5.e-002	4.7202
58741	12.598	2.8	0.	2.6759e-003
58742	12.548	2.75	0.	2.999e-003
58743	12.548	2.8	5.e-002	4.6325
58744	12.698	2.8	0.	2.4274e-003
58745	12.648	2.75	0.	2.6849e-003
58746	12.648	2.8	5.e-002	4.5525
58747	12.797	2.8	0.	2.2612e-003
58748	12.747	2.75	0.	2.4712e-003
58749	12.747	2.8	5.e-002	4.4796
58750	12.897	2.8	0.	2.1597e-003
58751	12.847	2.75	0.	2.3246e-003
58752	12.847	2.8	5.e-002	4.4129
58753	12.996	2.8	0.	2.1112e-003
58754	12.947	2.75	0.	2.243e-003
58755	12.947	2.8	5.e-002	4.3517
58756	13.096	2.8	0.	2.0991e-003
58757	13.046	2.75	0.	2.2049e-003
58758	13.046	2.8	5.e-002	4.2956
58759	13.195	2.8	0.	2.1257e-003
58760	13.146	2.75	0.	2.1979e-003
58761	13.146	2.8	5.e-002	4.2439
58762	13.295	2.8	0.	2.1959e-003
58763	13.245	2.75	0.	2.2392e-003
58764	13.245	2.8	5.e-002	4.1961
58765	13.395	2.8	0.	2.292e-003
58766	13.345	2.75	0.	2.3206e-003
58767	13.345	2.8	5.e-002	4.152
58768	13.494	2.8	0.	2.4007e-003
58769	13.444	2.75	0.	2.4153e-003
58770	13.444	2.8	5.e-002	4.1111
58771	13.594	2.8	0.	2.5238e-003
58772	13.544	2.75	0.	2.5244e-003
58773	13.544	2.8	5.e-002	4.0731
58774	13.693	2.8	0.	2.6584e-003
58775	13.644	2.75	0.	2.6486e-003
58776	13.644	2.8	5.e-002	4.0377
58777	13.793	2.8	0.	2.8063e-003
58778	13.743	2.75	0.	2.781e-003
58779	13.743	2.8	5.e-002	4.0046
58780	13.893	2.8	0.	2.9698e-003
58781	13.843	2.75	0.	2.9332e-003
58782	13.843	2.8	5.e-002	3.9736
58783	13.992	2.8	0.	3.1279e-003
58784	13.942	2.75	0.	3.0986e-003
58785	13.942	2.8	5.e-002	3.9445
58786	14.092	2.8	0.	3.2773e-003
58787	14.042	2.75	0.	3.2404e-003
58788	14.042	2.8	5.e-002	3.9172
58789	14.191	2.8	0.	3.4371e-003
58790	14.142	2.75	0.	3.3892e-003
58791	14.142	2.8	5.e-002	3.8913
58792	14.291	2.8	0.	3.6028e-003
58793	14.241	2.75	0.	3.5527e-003
58794	14.241	2.8	5.e-002	3.8669
58795	14.39	2.8	0.	3.7679e-003
58796	14.341	2.75	0.	3.7139e-003
58797	14.341	2.8	5.e-002	3.8437
58798	14.49	2.8	0.	3.9315e-003
58799	14.44	2.75	0.	3.8768e-003
58800	14.44	2.8	5.e-002	3.8217
58801	14.59	2.8	0.	4.0889e-003
58802	14.54	2.75	0.	4.0363e-003
58803	14.54	2.8	5.e-002	3.8007
58804	14.689	2.8	0.	4.2471e-003
58805	14.639	2.75	0.	4.1869e-003
58806	14.639	2.8	5.e-002	3.7807
58807	14.789	2.8	0.	4.4146e-003
58808	14.739	2.75	0.	4.3478e-003
58809	14.739	2.8	5.e-002	3.7615
58810	14.888	2.8	0.	4.5819e-003
58811	14.839	2.75	0.	4.5181e-003
58812	14.839	2.8	5.e-002	3.7431
58813	14.988	2.8	0.	4.7426e-003
58814	14.938	2.75	0.	4.679e-003
58815	14.938	2.8	5.e-002	3.7255
58816	15.088	2.8	0.	4.8995e-003
58817	15.038	2.75	0.	4.8365e-003
58818	15.038	2.8	5.e-002	3.7086
58819	15.187	2.8	0.	5.0587e-003
58820	15.137	2.75	0.	4.9907e-003
58821	15.137	2.8	5.e-002	3.6923
58822	15.287	2.8	0.	5.2239e-003
58823	15.237	2.75	0.	5.1533e-003
58824	15.237	2.8	5.e-002	3.6766
58825	15.386	2.8	0.	5.3774e-003
58826	15.336	2.75	0.	5.3203e-003
58827	15.336	2.8	5.e-002	3.6615
58828	15.486	2.8	0.	5.5209e-003
58829	15.436	2.75	0.	5.4597e-003
58830	15.436	2.8	5.e-002	3.6468
58831	15.585	2.8	0.	5.6704e-003
58832	15.536	2.75	0.	5.6065e-003
58833	15.536	2.8	5.e-002	3.6326
58834	15.685	2.8	0.	5.8218e-003
58835	15.635	2.75	0.	5.7588e-003
58836	15.635	2.8	5.e-002	3.6188
58837	15.785	2.8	0.	5.9738e-003
58838	15.735	2.75	0.	5.9113e-003
58839	15.735	2.8	5.e-002	3.6054
58840	15.884	2.8	0.	6.1252e-003
58841	15.834	2.75	0.	6.0662e-003
58842	15.834	2.8	5.e-002	3.5925
58843	15.984	2.8	0.	6.2716e-003
58844	15.934	2.75	0.	6.2193e-003
58845	15.934	2.8	5.e-002	3.5798
58846	16.083	2.8	0.	6.4227e-003
58847	16.034	2.75	0.	6.3667e-003
58848	16.034	2.8	5.e-002	3.5675
58849	16.183	2.8	0.	6.589e-003
58850	16.133	2.75	0.	6.5328e-003
58851	16.133	2.8	5.e-002	3.5555
58852	16.282	2.8	0.	6.7676e-003
58853	16.233	2.75	0.	6.7197e-003
58854	16.233	2.8	5.e-002	3.5438
58855	16.382	2.8	0.	6.9702e-003
58856	16.332	2.75	0.	6.9289e-003
58857	16.332	2.8	5.e-002	3.5324
58858	16.482	2.8	0.	7.2919e-003
58859	16.432	2.75	0.	7.2218e-003
58860	16.432	2.8	5.e-002	3.5213
58861	16.581	2.8	0.	7.0918e-002
58862	16.531	2.75	0.	8.2448e-003
58863	16.531	2.8	5.e-002	3.5104
58864	16.681	2.8	0.	1.2892
58865	16.631	2.75	0.	0.72718
58866	16.631	2.8	5.e-002	3.4999
58867	16.78	2.8	0.	2.4904
58868	16.731	2.75	0.	1.9349
58869	16.731	2.8	5.e-002	3.4895
58870	16.88	2.8	0.	3.6711
58871	16.83	2.75	0.	3.1214
58872	16.83	2.8	5.e-002	3.4795
58873	16.98	2.8	0.	4.8335
58874	16.93	2.75	0.	4.2886
58875	16.93	2.8	5.e-002	3.4696
58876	17.079	2.8	0.	5.9799
58877	17.029	2.75	0.	5.4388
58878	17.029	2.8	5.e-002	3.46
58879	17.179	2.8	0.	7.1127
58880	17.129	2.75	0.	6.5743
58881	17.129	2.8	5.e-002	3.4506
58882	17.278	2.8	0.	8.2339
58883	17.229	2.75	0.	7.6972
58884	17.229	2.8	5.e-002	3.4413
58885	17.378	2.8	0.	9.3459
58886	17.328	2.75	0.	8.8097
58887	17.328	2.8	5.e-002	3.4324
58888	17.477	2.8	0.	10.451
58889	17.428	2.75	0.	9.914
58890	17.428	2.8	5.e-002	3.4235
58891	17.577	2.8	0.	11.55
58892	17.527	2.75	0.	11.012
58893	17.527	2.8	5.e-002	3.4149
58894	17.677	2.8	0.	12.647
58895	17.627	2.75	0.	12.107
58896	17.627	2.8	5.e-002	3.4065
58897	17.776	2.8	0.	13.743
58898	17.726	2.75	0.	13.199
58899	17.726	2.8	5.e-002	3.3983
58900	17.876	2.8	0.	14.841
58901	17.826	2.75	0.	14.292
58902	17.826	2.8	5.e-002	3.3903
58903	17.975	2.8	0.	15.942
58904	17.926	2.75	0.	15.387
58905	17.926	2.8	5.e-002	3.3826
58906	18.075	2.8	0.	17.048
58907	18.025	2.75	0.	16.487
58908	18.025	2.8	5.e-002	3.375
58909	18.175	2.8	0.	18.162
58910	18.125	2.75	0.	17.593
58911	18.125	2.8	5.e-002	3.3676
58912	18.274	2.8	0.	19.286
58913	18.224	2.75	0.	18.708
58914	18.224	2.8	5.e-002	3.3605
58915	18.374	2.8	0.	20.421
58916	18.324	2.75	0.	19.833
58917	18.324	2.8	5.e-002	3.3535
58918	18.473	2.8	0.	21.571
58919	18.423	2.75	0.	20.972
58920	18.423	2.8	5.e-002	3.3468
58921	18.573	2.8	0.	22.737
58922	18.523	2.75	0.	22.125
58923	18.523	2.8	5.e-002	3.3402
58924	18.672	2.8	0.	23.921
58925	18.623	2.75	0.	23.296
58926	18.623	2.8	5.e-002	3.3339
58927	18.772	2.8	0.	25.126
58928	18.722	2.75	0.	24.486
58929	18.722	2.8	5.e-002	3.3277
58930	18.872	2.8	0.	26.353
58931	18.822	2.75	0.	25.698
58932	18.822	2.8	5.e-002	3.3219
58933	18.971	2.8	0.	27.606
58934	18.921	2.75	0.	26.933
58935	18.921	2.8	5.e-002	3.3162
58936	19.071	2.8	0.	28.886
58937	19.021	2.75	0.	28.195
58938	19.021	2.8	5.e-002	3.3107
58939	19.17	2.8	0.	30.196
58940	19.121	2.75	0.	29.485
58941	19.121	2.8	5.e-002	3.3055
58942	19.27	2.8	0.	31.539
58943	19.22	2.75	0.	30.806
58944	19.22	2.8	5.e-002	3.3005
58945	19.369	2.8	0.	32.916
58946	19.32	2.75	0.	32.161
58947	19.32	2.8	5.e-002	3.2958
58948	19.469	2.8	0.	34.33
58949	19.419	2.75	0.	33.551
58950	19.419	2.8	5.e-002	3.2914
58951	19.569	2.8	0.	35.784
58952	19.519	2.75	0.	34.98
58953	19.519	2.8	5.e-002	3.2872
58954	19.668	2.8	0.	37.281
58955	19.618	2.75	0.	36.45
58956	19.618	2.8	5.e-002	3.2833
58957	19.768	2.8	0.	38.823
58958	19.718	2.75	0.	37.963
58959	19.718	2.8	5.e-002	3.2797
58960	19.867	2.8	0.	40.412
58961	19.818	2.75	0.	39.523
58962	19.818	2.8	5.e-002	3.2765
58963	19.967	2.8	0.	42.053
58964	19.917	2.75	0.	41.131
58965	19.917	2.8	5.e-002	3.2735
58966	20.067	2.8	0.	43.746
58967	20.017	2.75	0.	42.792
58968	20.017	2.8	5.e-002	3.2708
58969	20.166	2.8	0.	45.497
58970	20.116	2.75	0.	44.507
58971	20.116	2.8	5.e-002	3.2685
58972	20.266	2.8	0.	47.307
58973	20.216	2.75	0.	46.281
58974	20.216	2.8	5.e-002	3.2666
58975	20.365	2.8	0.	49.179
58976	20.316	2.75	0.	48.115
58977	20.316	2.8	5.e-002	3.265
58978	20.465	2.8	0.	51.117
58979	20.415	2.75	0.	50.013
58980	20.415	2.8	5.e-002	3.2637
58981	20.564	2.8	0.	53.124
58982	20.515	2.75	0.	51.978
58983	20.515	2.8	5.e-002	3.2629
58984	20.664	2.8	0.	55.204
58985	20.614	2.75	0.	54.013
58986	20.614	2.8	5.e-002	3.2626
58987	20.764	2.8	0.	57.359
58988	20.714	2.75	0.	56.122
58989	20.714	2.8	5.e-002	3.2627
58990	20.863	2.8	0.	59.592
58991	20.813	2.75	0.	58.308
58992	20.813	2.8	5.e-002	3.2632
58993	20.963	2.8	0.	61.908
58994	20.913	2.75	0.	60.574
58995	20.913	2.8	5.e-002	3.2643
58996	21.062	2.8	0.	64.31
58997	21.013	2.75	0.	62.924
58998	21.013	2.8	5.e-002	3.2658
58999	21.162	2.8	0.	66.801
59000	21.112	2.75	0.	65.362
59001	21.112	2.8	5.e-002	3.2679
59002	21.262	2.8	0.	69.384
59003	21.212	2.75	0.	67.89
59004	21.212	2.8	5.e-002	3.2706
59005	21.361	2.8	0.	72.064
59006	21.311	2.75	0.	70.512
59007	21.311	2.8	5.e-002	3.2739
59008	21.461	2.8	0.	74.844
59009	21.411	2.75	0.	73.232
59010	21.411	2.8	5.e-002	3.2777
59011	21.56	2.8	0.	77.726
59012	21.51	2.75	0.	76.053
59013	21.51	2.8	5.e-002	3.2823
59014	21.66	2.8	0.	80.715
59015	21.61	2.75	0.	78.979
59016	21.61	2.8	5.e-002	3.2875
59017	21.759	2.8	0.	83.814
59018	21.71	2.75	0.	82.013
59019	21.71	2.8	5.e-002	3.2935
59020	21.859	2.8	0.	87.026
59021	21.809	2.75	0.	85.159
59022	21.809	2.8	5.e-002	3.3001
59023	21.959	2.8	0.	90.354
59024	21.909	2.75	0.	88.419
59025	21.909	2.8	5.e-002	3.3076
59026	22.058	2.8	0.	93.801
59027	22.008	2.75	0.	91.797
59028	22.008	2.8	5.e-002	3.3159
59029	22.158	2.8	0.	97.37
59030	22.108	2.75	0.	95.295
59031	22.108	2.8	5.e-002	3.325
59032	22.257	2.8	0.	101.06
59033	22.208	2.75	0.	98.918
59034	22.208	2.8	5.e-002	3.3351
59035	22.357	2.8	0.	104.89
59036	22.307	2.75	0.	102.67
59037	22.307	2.8	5.e-002	3.346
59038	22.456	2.8	0.	108.84
59039	22.407	2.75	0.	106.54
59040	22.407	2.8	5.e-002	3.3578
59041	22.556	2.8	0.	112.92
59042	22.506	2.75	0.	110.55
59043	22.506	2.8	5.e-002	3.3706
59044	22.656	2.8	0.	117.13
59045	22.606	2.75	0.	114.69
59046	22.606	2.8	5.e-002	3.3844
59047	22.755	2.8	0.	121.48
59048	22.705	2.75	0.	118.96
59049	22.705	2.8	5.e-002	3.3992
59050	22.855	2.8	0.	125.96
59051	22.805	2.75	0.	123.37
59052	22.805	2.8	5.e-002	3.415
59053	22.954	2.8	0.	130.58
59054	22.905	2.75	0.	127.92
59055	22.905	2.8	5.e-002	3.4318
59056	23.054	2.8	0.	135.33
59057	23.004	2.75	0.	132.6
59058	23.004	2.8	5.e-002	3.4495
59059	23.154	2.8	0.	140.22
59060	23.104	2.75	0.	137.41
59061	23.104	2.8	5.e-002	3.4683
59062	23.253	2.8	0.	145.25
59063	23.203	2.75	0.	142.36
59064	23.203	2.8	5.e-002	3.488
59065	23.353	2.8	0.	150.41
59066	23.303	2.75	0.	147.45
59067	23.303	2.8	5.e-002	3.5087
59068	23.452	2.8	0.	155.7
59069	23.403	2.75	0.	152.68
59070	23.403	2.8	5.e-002	3.5302
59071	23.552	2.8	0.	161.12
59072	23.502	2.75	0.	158.03
59073	23.502	2.8	5.e-002	3.5526
59074	23.651	2.8	0.	166.68
59075	23.602	2.75	0.	163.52
59076	23.602	2.8	5.e-002	3.5758
59077	23.751	2.8	0.	172.36
59078	23.701	2.75	0.	169.13
59079	23.701	2.8	5.e-002	3.5998
59080	23.851	2.8	0.	178.16
59081	23.801	2.75	0.	174.89
59082	23.801	2.8	5.e-002	3.6236
59083	23.9	2.75	0.	180.72
59084	23.9	2.8	5.e-002	3.6557
59085	23.95	2.8	0.	184.17
59086	8.316	2.7	0.	804.81
59087	8.2662	2.65	0.	893.85
59088	8.2662	2.7	5.e-002	37.168
59089	8.4156	2.7	0.	652.94
59090	8.3658	2.65	0.	741.1
59091	8.3658	2.7	5.e-002	44.275
59092	8.5152	2.7	0.	489.12
59093	8.4654	2.65	0.	568.99
59094	8.4654	2.7	5.e-002	48.467
59095	8.6148	2.7	0.	329.26
59096	8.565	2.65	0.	397.65
59097	8.565	2.7	5.e-002	49.752
59098	8.7144	2.7	0.	183.93
59099	8.6646	2.65	0.	240.7
59100	8.6646	2.7	5.e-002	48.872
59101	8.8139	2.7	0.	58.389
59102	8.7642	2.65	0.	104.81
59103	8.7642	2.7	5.e-002	46.646
59104	8.9135	2.7	0.	1.3551
59105	8.8637	2.65	0.	1.5423
59106	8.8637	2.7	5.e-002	43.705
59107	9.0131	2.7	0.	1.2345
59108	8.9633	2.65	0.	1.3422
59109	8.9633	2.7	5.e-002	40.467
59110	9.1127	2.7	0.	1.0999
59111	9.0629	2.65	0.	1.1881
59112	9.0629	2.7	5.e-002	37.187
59113	9.2123	2.7	0.	0.96219
59114	9.1625	2.65	0.	1.0352
59115	9.1625	2.7	5.e-002	34.012
59116	9.3118	2.7	0.	0.83177
59117	9.2621	2.65	0.	0.89312
59118	9.2621	2.7	5.e-002	31.021
59119	9.4114	2.7	0.	0.71334
59120	9.3616	2.65	0.	0.76567
59121	9.3616	2.7	5.e-002	28.253
59122	9.511	2.7	0.	0.60848
59123	9.4612	2.65	0.	0.65362
59124	9.4612	2.7	5.e-002	25.721
59125	9.6106	2.7	0.	0.51708
59126	9.5608	2.65	0.	0.5563
59127	9.5608	2.7	5.e-002	23.424
59128	9.7102	2.7	0.	0.43824
59129	9.6604	2.65	0.	0.47243
59130	9.6604	2.7	5.e-002	21.352
59131	9.8097	2.7	0.	0.37071
59132	9.76	2.65	0.	0.40053
59133	9.76	2.7	5.e-002	19.491
59134	9.9093	2.7	0.	0.31316
59135	9.8595	2.65	0.	0.33915
59136	9.8595	2.7	5.e-002	17.825
59137	10.009	2.7	0.	0.26426
59138	9.9591	2.65	0.	0.2869
59139	9.9591	2.7	5.e-002	16.335
59140	10.108	2.7	0.	0.2228
59141	10.059	2.65	0.	0.24248
59142	10.059	2.7	5.e-002	15.006
59143	10.208	2.7	0.	0.18771
59144	10.158	2.65	0.	0.20478
59145	10.158	2.7	5.e-002	13.82
59146	10.308	2.7	0.	0.15805
59147	10.258	2.65	0.	0.17283
59148	10.258	2.7	5.e-002	12.764
59149	10.407	2.7	0.	0.13301
59150	10.357	2.65	0.	0.14578
59151	10.357	2.7	5.e-002	11.823
59152	10.507	2.7	0.	0.11186
59153	10.457	2.65	0.	0.1229
59154	10.457	2.7	5.e-002	10.984
59155	10.606	2.7	0.	9.401e-002
59156	10.557	2.65	0.	0.10353
59157	10.557	2.7	5.e-002	10.237
59158	10.706	2.7	0.	7.8941e-002
59159	10.656	2.65	0.	8.7142e-002
59160	10.656	2.7	5.e-002	9.5718
59161	10.806	2.7	0.	6.6229e-002
59162	10.756	2.65	0.	7.3291e-002
59163	10.756	2.7	5.e-002	8.9785
59164	10.905	2.7	0.	5.5515e-002
59165	10.855	2.65	0.	6.1583e-002
59166	10.855	2.7	5.e-002	8.4495
59167	11.005	2.7	0.	4.6498e-002
59168	10.955	2.65	0.	5.171e-002
59169	10.955	2.7	5.e-002	7.9775
59170	11.104	2.7	0.	3.8891e-002
59171	11.055	2.65	0.	4.3387e-002
59172	11.055	2.7	5.e-002	7.5563
59173	11.204	2.7	0.	3.2474e-002
59174	11.154	2.65	0.	3.6333e-002
59175	11.154	2.7	5.e-002	7.1801
59176	11.303	2.7	0.	2.7091e-002
59177	11.254	2.65	0.	3.0396e-002
59178	11.254	2.7	5.e-002	6.8438
59179	11.403	2.7	0.	2.2578e-002
59180	11.353	2.65	0.	2.5414e-002
59181	11.353	2.7	5.e-002	6.543
59182	11.503	2.7	0.	1.8798e-002
59183	11.453	2.65	0.	2.1228e-002
59184	11.453	2.7	5.e-002	6.2737
59185	11.602	2.7	0.	1.5637e-002
59186	11.552	2.65	0.	1.7721e-002
59187	11.552	2.7	5.e-002	6.0324
59188	11.702	2.7	0.	1.2995e-002
59189	11.652	2.65	0.	1.4784e-002
59190	11.652	2.7	5.e-002	5.816
59191	11.801	2.7	0.	1.0802e-002
59192	11.752	2.65	0.	1.2324e-002
59193	11.752	2.7	5.e-002	5.6216
59194	11.901	2.7	0.	9.0016e-003
59195	11.851	2.65	0.	1.0294e-002
59196	11.851	2.7	5.e-002	5.4468
59197	12.001	2.7	0.	7.5227e-003
59198	11.951	2.65	0.	8.629e-003
59199	11.951	2.7	5.e-002	5.2896
59200	12.1	2.7	0.	6.3077e-003
59201	12.05	2.65	0.	7.2511e-003
59202	12.05	2.7	5.e-002	5.1479
59203	12.2	2.7	0.	5.3194e-003
59204	12.15	2.65	0.	6.1219e-003
59205	12.15	2.7	5.e-002	5.0199
59206	12.299	2.7	0.	4.5297e-003
59207	12.249	2.65	0.	5.2039e-003
59208	12.249	2.7	5.e-002	4.9043
59209	12.399	2.7	0.	3.913e-003
59210	12.349	2.65	0.	4.4785e-003
59211	12.349	2.7	5.e-002	4.7996
59212	12.498	2.7	0.	3.4215e-003
59213	12.449	2.65	0.	3.9128e-003
59214	12.449	2.7	5.e-002	4.7047
59215	12.598	2.7	0.	3.0322e-003
59216	12.548	2.65	0.	3.4427e-003
59217	12.548	2.7	5.e-002	4.6184
59218	12.698	2.7	0.	2.7496e-003
59219	12.648	2.65	0.	3.0862e-003
59220	12.648	2.7	5.e-002	4.5398
59221	12.797	2.7	0.	2.5525e-003
59222	12.747	2.65	0.	2.8347e-003
59223	12.747	2.7	5.e-002	4.468
59224	12.897	2.7	0.	2.4233e-003
59225	12.847	2.65	0.	2.653e-003
59226	12.847	2.7	5.e-002	4.4024
59227	12.996	2.7	0.	2.3499e-003
59228	12.947	2.65	0.	2.5402e-003
59229	12.947	2.7	5.e-002	4.3423
59230	13.096	2.7	0.	2.315e-003
59231	13.046	2.65	0.	2.4735e-003
59232	13.046	2.7	5.e-002	4.2871
59233	13.195	2.7	0.	2.321e-003
59234	13.146	2.65	0.	2.4411e-003
59235	13.146	2.7	5.e-002	4.2362
59236	13.295	2.7	0.	2.3721e-003
59237	13.245	2.65	0.	2.4593e-003
59238	13.245	2.7	5.e-002	4.1892
59239	13.395	2.7	0.	2.4508e-003
59240	13.345	2.65	0.	2.5189e-003
59241	13.345	2.7	5.e-002	4.1457
59242	13.494	2.7	0.	2.5448e-003
59243	13.444	2.65	0.	2.595e-003
59244	13.444	2.7	5.e-002	4.1054
59245	13.594	2.7	0.	2.6541e-003
59246	13.544	2.65	0.	2.6864e-003
59247	13.544	2.7	5.e-002	4.0679
59248	13.693	2.7	0.	2.7751e-003
59249	13.644	2.65	0.	2.7946e-003
59250	13.644	2.7	5.e-002	4.033
59251	13.793	2.7	0.	2.9112e-003
59252	13.743	2.65	0.	2.9125e-003
59253	13.743	2.7	5.e-002	4.0004
59254	13.893	2.7	0.	3.0647e-003
59255	13.843	2.65	0.	3.0519e-003
59256	13.843	2.7	5.e-002	3.9698
59257	13.992	2.7	0.	3.2133e-003
59258	13.942	2.65	0.	3.2055e-003
59259	13.942	2.7	5.e-002	3.941
59260	14.092	2.7	0.	3.3541e-003
59261	14.042	2.65	0.	3.3366e-003
59262	14.042	2.7	5.e-002	3.914
59263	14.191	2.7	0.	3.5062e-003
59264	14.142	2.65	0.	3.4759e-003
59265	14.142	2.7	5.e-002	3.8885
59266	14.291	2.7	0.	3.6648e-003
59267	14.241	2.65	0.	3.6299e-003
59268	14.241	2.7	5.e-002	3.8643
59269	14.39	2.7	0.	3.8235e-003
59270	14.341	2.65	0.	3.7836e-003
59271	14.341	2.7	5.e-002	3.8413
59272	14.49	2.7	0.	3.982e-003
59273	14.44	2.65	0.	3.9394e-003
59274	14.44	2.7	5.e-002	3.8195
59275	14.59	2.7	0.	4.1345e-003
59276	14.54	2.65	0.	4.0931e-003
59277	14.54	2.7	5.e-002	3.7987
59278	14.689	2.7	0.	4.2876e-003
59279	14.639	2.65	0.	4.2374e-003
59280	14.639	2.7	5.e-002	3.7788
59281	14.789	2.7	0.	4.4512e-003
59282	14.739	2.65	0.	4.3937e-003
59283	14.739	2.7	5.e-002	3.7598
59284	14.888	2.7	0.	4.615e-003
59285	14.839	2.65	0.	4.5596e-003
59286	14.839	2.7	5.e-002	3.7416
59287	14.988	2.7	0.	4.7726e-003
59288	14.938	2.65	0.	4.7165e-003
59289	14.938	2.7	5.e-002	3.7241
59290	15.088	2.7	0.	4.9274e-003
59291	15.038	2.65	0.	4.871e-003
59292	15.038	2.7	5.e-002	3.7073
59293	15.187	2.7	0.	5.085e-003
59294	15.137	2.65	0.	5.0226e-003
59295	15.137	2.7	5.e-002	3.6911
59296	15.287	2.7	0.	5.2494e-003
59297	15.237	2.65	0.	5.1835e-003
59298	15.237	2.7	5.e-002	3.6755
59299	15.386	2.7	0.	5.4024e-003
59300	15.336	2.65	0.	5.3497e-003
59301	15.336	2.7	5.e-002	3.6604
59302	15.486	2.7	0.	5.5452e-003
59303	15.436	2.65	0.	5.4887e-003
59304	15.436	2.7	5.e-002	3.6458
59305	15.585	2.7	0.	5.6951e-003
59306	15.536	2.65	0.	5.636e-003
59307	15.536	2.7	5.e-002	3.6317
59308	15.685	2.7	0.	5.8487e-003
59309	15.635	2.65	0.	5.7906e-003
59310	15.635	2.7	5.e-002	3.618
59311	15.785	2.7	0.	6.0044e-003
59312	15.735	2.65	0.	5.946e-003
59313	15.735	2.7	5.e-002	3.6046
59314	15.884	2.7	0.	6.1614e-003
59315	15.834	2.65	0.	6.1067e-003
59316	15.834	2.7	5.e-002	3.5917
59317	15.984	2.7	0.	6.316e-003
59318	15.934	2.65	0.	6.2675e-003
59319	15.934	2.7	5.e-002	3.5791
59320	16.083	2.7	0.	6.479e-003
59321	16.034	2.65	0.	6.428e-003
59322	16.034	2.7	5.e-002	3.5668
59323	16.183	2.7	0.	6.6658e-003
59324	16.133	2.65	0.	6.6132e-003
59325	16.133	2.7	5.e-002	3.5548
59326	16.282	2.7	0.	6.8813e-003
59327	16.233	2.65	0.	6.8351e-003
59328	16.233	2.7	5.e-002	3.5431
59329	16.382	2.7	0.	7.1621e-003
59330	16.332	2.65	0.	7.1101e-003
59331	16.332	2.7	5.e-002	3.5318
59332	16.482	2.7	0.	7.7571e-003
59333	16.432	2.65	0.	7.5806e-003
59334	16.432	2.7	5.e-002	3.5207
59335	16.581	2.7	0.	0.16909
59336	16.531	2.65	0.	1.0121e-002
59337	16.531	2.7	5.e-002	3.5099
59338	16.681	2.7	0.	1.3806
59339	16.631	2.65	0.	0.84159
59340	16.631	2.7	5.e-002	3.4993
59341	16.78	2.7	0.	2.574
59342	16.731	2.65	0.	2.0398
59343	16.731	2.7	5.e-002	3.489
59344	16.88	2.7	0.	3.7472
59345	16.83	2.65	0.	3.2171
59346	16.83	2.7	5.e-002	3.4789
59347	16.98	2.7	0.	4.9023
59348	16.93	2.65	0.	4.3755
59349	16.93	2.7	5.e-002	3.4691
59350	17.079	2.7	0.	6.0416
59351	17.029	2.65	0.	5.517
59352	17.029	2.7	5.e-002	3.4595
59353	17.179	2.7	0.	7.1673
59354	17.129	2.65	0.	6.6439
59355	17.129	2.7	5.e-002	3.4501
59356	17.278	2.7	0.	8.2816
59357	17.229	2.65	0.	7.7585
59358	17.229	2.7	5.e-002	3.4409
59359	17.378	2.7	0.	9.3866
59360	17.328	2.65	0.	8.8627
59361	17.328	2.7	5.e-002	3.4319
59362	17.477	2.7	0.	10.485
59363	17.428	2.65	0.	9.9589
59364	17.428	2.7	5.e-002	3.4231
59365	17.577	2.7	0.	11.578
59366	17.527	2.65	0.	11.049
59367	17.527	2.7	5.e-002	3.4145
59368	17.677	2.7	0.	12.668
59369	17.627	2.65	0.	12.135
59370	17.627	2.7	5.e-002	3.4061
59371	17.776	2.7	0.	13.757
59372	17.726	2.65	0.	13.22
59373	17.726	2.7	5.e-002	3.3979
59374	17.876	2.7	0.	14.848
59375	17.826	2.65	0.	14.304
59376	17.826	2.7	5.e-002	3.3899
59377	17.975	2.7	0.	15.942
59378	17.926	2.65	0.	15.391
59379	17.926	2.7	5.e-002	3.3821
59380	18.075	2.7	0.	17.041
59381	18.025	2.65	0.	16.483
59382	18.025	2.7	5.e-002	3.3746
59383	18.175	2.7	0.	18.148
59384	18.125	2.65	0.	17.581
59385	18.125	2.7	5.e-002	3.3672
59386	18.274	2.7	0.	19.265
59387	18.224	2.65	0.	18.687
59388	18.224	2.7	5.e-002	3.36
59389	18.374	2.7	0.	20.393
59390	18.324	2.65	0.	19.804
59391	18.324	2.7	5.e-002	3.3531
59392	18.473	2.7	0.	21.536
59393	18.423	2.65	0.	20.934
59394	18.423	2.7	5.e-002	3.3463
59395	18.573	2.7	0.	22.694
59396	18.523	2.65	0.	22.078
59397	18.523	2.7	5.e-002	3.3398
59398	18.672	2.7	0.	23.87
59399	18.623	2.65	0.	23.24
59400	18.623	2.7	5.e-002	3.3334
59401	18.772	2.7	0.	25.068
59402	18.722	2.65	0.	24.421
59403	18.722	2.7	5.e-002	3.3273
59404	18.872	2.7	0.	26.287
59405	18.822	2.65	0.	25.623
59406	18.822	2.7	5.e-002	3.3214
59407	18.971	2.7	0.	27.532
59408	18.921	2.65	0.	26.849
59409	18.921	2.7	5.e-002	3.3157
59410	19.071	2.7	0.	28.804
59411	19.021	2.65	0.	28.101
59412	19.021	2.7	5.e-002	3.3102
59413	19.17	2.7	0.	30.105
59414	19.121	2.65	0.	29.381
59415	19.121	2.7	5.e-002	3.305
59416	19.27	2.7	0.	31.438
59417	19.22	2.65	0.	30.692
59418	19.22	2.7	5.e-002	3.3
59419	19.369	2.7	0.	32.806
59420	19.32	2.65	0.	32.035
59421	19.32	2.7	5.e-002	3.2953
59422	19.469	2.7	0.	34.211
59423	19.419	2.65	0.	33.415
59424	19.419	2.7	5.e-002	3.2908
59425	19.569	2.7	0.	35.655
59426	19.519	2.65	0.	34.832
59427	19.519	2.7	5.e-002	3.2866
59428	19.668	2.7	0.	37.142
59429	19.618	2.65	0.	36.289
59430	19.618	2.7	5.e-002	3.2827
59431	19.768	2.7	0.	38.673
59432	19.718	2.65	0.	37.79
59433	19.718	2.7	5.e-002	3.2792
59434	19.867	2.7	0.	40.252
59435	19.818	2.65	0.	39.337
59436	19.818	2.7	5.e-002	3.2759
59437	19.967	2.7	0.	41.881
59438	19.917	2.65	0.	40.932
59439	19.917	2.7	5.e-002	3.2728
59440	20.067	2.7	0.	43.563
59441	20.017	2.65	0.	42.579
59442	20.017	2.7	5.e-002	3.2702
59443	20.166	2.7	0.	45.301
59444	20.116	2.65	0.	44.28
59445	20.116	2.7	5.e-002	3.2678
59446	20.266	2.7	0.	47.098
59447	20.216	2.65	0.	46.039
59448	20.216	2.7	5.e-002	3.2659
59449	20.365	2.7	0.	48.958
59450	20.316	2.65	0.	47.857
59451	20.316	2.7	5.e-002	3.2642
59452	20.465	2.7	0.	50.882
59453	20.415	2.65	0.	49.74
59454	20.415	2.7	5.e-002	3.263
59455	20.564	2.7	0.	52.876
59456	20.515	2.65	0.	51.688
59457	20.515	2.7	5.e-002	3.2621
59458	20.664	2.7	0.	54.941
59459	20.614	2.65	0.	53.707
59460	20.614	2.7	5.e-002	3.2618
59461	20.764	2.7	0.	57.081
59462	20.714	2.65	0.	55.798
59463	20.714	2.7	5.e-002	3.2618
59464	20.863	2.7	0.	59.299
59465	20.813	2.65	0.	57.966
59466	20.813	2.7	5.e-002	3.2623
59467	20.963	2.7	0.	61.599
59468	20.913	2.65	0.	60.214
59469	20.913	2.7	5.e-002	3.2633
59470	21.062	2.7	0.	63.985
59471	21.013	2.65	0.	62.545
59472	21.013	2.7	5.e-002	3.2648
59473	21.162	2.7	0.	66.459
59474	21.112	2.65	0.	64.962
59475	21.112	2.7	5.e-002	3.2669
59476	21.262	2.7	0.	69.026
59477	21.212	2.65	0.	67.47
59478	21.212	2.7	5.e-002	3.2695
59479	21.361	2.7	0.	71.688
59480	21.311	2.65	0.	70.072
59481	21.311	2.7	5.e-002	3.2728
59482	21.461	2.7	0.	74.45
59483	21.411	2.65	0.	72.771
59484	21.411	2.7	5.e-002	3.2766
59485	21.56	2.7	0.	77.314
59486	21.51	2.65	0.	75.571
59487	21.51	2.7	5.e-002	3.2811
59488	21.66	2.7	0.	80.285
59489	21.61	2.65	0.	78.475
59490	21.61	2.7	5.e-002	3.2863
59491	21.759	2.7	0.	83.366
59492	21.71	2.65	0.	81.487
59493	21.71	2.7	5.e-002	3.2922
59494	21.859	2.7	0.	86.559
59495	21.809	2.65	0.	84.611
59496	21.809	2.7	5.e-002	3.2988
59497	21.959	2.7	0.	89.869
59498	21.909	2.65	0.	87.849
59499	21.909	2.7	5.e-002	3.3062
59500	22.058	2.7	0.	93.298
59501	22.008	2.65	0.	91.205
59502	22.008	2.7	5.e-002	3.3145
59503	22.158	2.7	0.	96.849
59504	22.108	2.65	0.	94.682
59505	22.108	2.7	5.e-002	3.3236
59506	22.257	2.7	0.	100.53
59507	22.208	2.65	0.	98.282
59508	22.208	2.7	5.e-002	3.3336
59509	22.357	2.7	0.	104.33
59510	22.307	2.65	0.	102.01
59511	22.307	2.7	5.e-002	3.3445
59512	22.456	2.7	0.	108.26
59513	22.407	2.65	0.	105.87
59514	22.407	2.7	5.e-002	3.3563
59515	22.556	2.7	0.	112.33
59516	22.506	2.65	0.	109.85
59517	22.506	2.7	5.e-002	3.3691
59518	22.656	2.7	0.	116.53
59519	22.606	2.65	0.	113.97
59520	22.606	2.7	5.e-002	3.3829
59521	22.755	2.7	0.	120.86
59522	22.705	2.65	0.	118.23
59523	22.705	2.7	5.e-002	3.3977
59524	22.855	2.7	0.	125.33
59525	22.805	2.65	0.	122.62
59526	22.805	2.7	5.e-002	3.4135
59527	22.954	2.7	0.	129.94
59528	22.905	2.65	0.	127.15
59529	22.905	2.7	5.e-002	3.4303
59530	23.054	2.7	0.	134.68
59531	23.004	2.65	0.	131.81
59532	23.004	2.7	5.e-002	3.4482
59533	23.154	2.7	0.	139.56
59534	23.104	2.65	0.	136.62
59535	23.104	2.7	5.e-002	3.467
59536	23.253	2.7	0.	144.57
59537	23.203	2.65	0.	141.56
59538	23.203	2.7	5.e-002	3.4868
59539	23.353	2.7	0.	149.72
59540	23.303	2.65	0.	146.64
59541	23.303	2.7	5.e-002	3.5076
59542	23.452	2.7	0.	155.01
59543	23.403	2.65	0.	151.85
59544	23.403	2.7	5.e-002	3.5293
59545	23.552	2.7	0.	160.43
59546	23.502	2.65	0.	157.2
59547	23.502	2.7	5.e-002	3.5519
59548	23.651	2.7	0.	165.98
59549	23.602	2.65	0.	162.68
59550	23.602	2.7	5.e-002	3.5752
59551	23.751	2.7	0.	171.67
59552	23.701	2.65	0.	168.3
59553	23.701	2.7	5.e-002	3.5995
59554	23.851	2.7	0.	177.46
59555	23.801	2.65	0.	174.05
59556	23.801	2.7	5.e-002	3.6235
59557	23.9	2.65	0.	179.88
59558	23.9	2.7	5.e-002	3.6566
59559	23.95	2.7	0.	183.46
59560	8.316	2.6	0.	830.67
59561	8.2662	2.55	0.	936.01
59562	8.2662	2.6	5.e-002	50.988
59563	8.4156	2.6	0.	659.84
59564	8.3658	2.55	0.	757.99
59565	8.3658	2.6	5.e-002	57.192
59566	8.5152	2.6	0.	481.27
59567	8.4654	2.55	0.	564.97
59568	8.4654	2.6	5.e-002	59.157
59569	8.6148	2.6	0.	312.93
59570	8.565	2.55	0.	381.05
59571	8.565	2.6	5.e-002	57.698
59572	8.7144	2.6	0.	164.94
59573	8.6646	2.55	0.	219.54
59574	8.6646	2.6	5.e-002	54.294
59575	8.8139	2.6	0.	40.824
59576	8.7642	2.55	0.	84.652
59577	8.7642	2.6	5.e-002	50.092
59578	8.9135	2.6	0.	1.4782
59579	8.8637	2.55	0.	1.6663
59580	8.8637	2.6	5.e-002	45.747
59581	9.0131	2.6	0.	1.3019
59582	8.9633	2.55	0.	1.4489
59583	8.9633	2.6	5.e-002	41.571
59584	9.1127	2.6	0.	1.1296
59585	9.0629	2.55	0.	1.2429
59586	9.0629	2.6	5.e-002	37.693
59587	9.2123	2.6	0.	0.9717
59588	9.1625	2.55	0.	1.0608
59589	9.1625	2.6	5.e-002	34.151
59590	9.3118	2.6	0.	0.83194
59591	9.2621	2.55	0.	0.90377
59592	9.2621	2.6	5.e-002	30.945
59593	9.4114	2.6	0.	0.71021
59594	9.3616	2.55	0.	0.76961
59595	9.3616	2.6	5.e-002	28.059
59596	9.511	2.6	0.	0.60508
59597	9.4612	2.55	0.	0.65517
59598	9.4612	2.6	5.e-002	25.468
59599	9.6106	2.6	0.	0.51473
59600	9.5608	2.55	0.	0.55756
59601	9.5608	2.6	5.e-002	23.149
59602	9.7102	2.6	0.	0.43733
59603	9.6604	2.55	0.	0.47427
59604	9.6604	2.6	5.e-002	21.076
59605	9.8097	2.6	0.	0.37117
59606	9.76	2.55	0.	0.40319
59607	9.76	2.6	5.e-002	19.226
59608	9.9093	2.6	0.	0.31475
59609	9.8595	2.55	0.	0.34256
59610	9.8595	2.6	5.e-002	17.576
59611	10.009	2.6	0.	0.26668
59612	9.9591	2.55	0.	0.29088
59613	9.9591	2.6	5.e-002	16.106
59614	10.108	2.6	0.	0.22578
59615	10.059	2.55	0.	0.24682
59616	10.059	2.6	5.e-002	14.796
59617	10.208	2.6	0.	0.19101
59618	10.158	2.55	0.	0.20929
59619	10.158	2.6	5.e-002	13.629
59620	10.308	2.6	0.	0.16149
59621	10.258	2.55	0.	0.17734
59622	10.258	2.6	5.e-002	12.59
59623	10.407	2.6	0.	0.13646
59624	10.357	2.55	0.	0.15019
59625	10.357	2.6	5.e-002	11.665
59626	10.507	2.6	0.	0.11523
59627	10.457	2.55	0.	0.12712
59628	10.457	2.6	5.e-002	10.841
59629	10.606	2.6	0.	9.7225e-002
59630	10.557	2.55	0.	0.10752
59631	10.557	2.6	5.e-002	10.107
59632	10.706	2.6	0.	8.1971e-002
59633	10.656	2.55	0.	9.0865e-002
59634	10.656	2.6	5.e-002	9.4532
59635	10.806	2.6	0.	6.9051e-002
59636	10.756	2.55	0.	7.6736e-002
59637	10.756	2.6	5.e-002	8.8705
59638	10.905	2.6	0.	5.8122e-002
59639	10.855	2.55	0.	6.4749e-002
59640	10.855	2.6	5.e-002	8.3511
59641	11.005	2.6	0.	4.8891e-002
59642	10.955	2.55	0.	5.4604e-002
59643	10.955	2.6	5.e-002	7.8878
59644	11.104	2.6	0.	4.1078e-002
59645	11.055	2.55	0.	4.6022e-002
59646	11.055	2.6	5.e-002	7.4745
59647	11.204	2.6	0.	3.4466e-002
59648	11.154	2.55	0.	3.8726e-002
59649	11.154	2.6	5.e-002	7.1054
59650	11.303	2.6	0.	2.89e-002
59651	11.254	2.55	0.	3.2563e-002
59652	11.254	2.6	5.e-002	6.7756
59653	11.403	2.6	0.	2.4218e-002
59654	11.353	2.55	0.	2.7375e-002
59655	11.353	2.6	5.e-002	6.4808
59656	11.503	2.6	0.	2.0282e-002
59657	11.453	2.55	0.	2.3e-002
59658	11.453	2.6	5.e-002	6.217
59659	11.602	2.6	0.	1.698e-002
59660	11.552	2.55	0.	1.9321e-002
59661	11.552	2.6	5.e-002	5.9807
59662	11.702	2.6	0.	1.4209e-002
59663	11.652	2.55	0.	1.6228e-002
59664	11.652	2.6	5.e-002	5.7689
59665	11.801	2.6	0.	1.1898e-002
59666	11.752	2.55	0.	1.3628e-002
59667	11.752	2.6	5.e-002	5.5788
59668	11.901	2.6	0.	9.9916e-003
59669	11.851	2.55	0.	1.1471e-002
59670	11.851	2.6	5.e-002	5.4078
59671	12.001	2.6	0.	8.4179e-003
59672	11.951	2.55	0.	9.6911e-003
59673	11.951	2.6	5.e-002	5.2541
59674	12.1	2.6	0.	7.1172e-003
59675	12.05	2.55	0.	8.211e-003
59676	12.05	2.6	5.e-002	5.1157
59677	12.2	2.6	0.	6.0508e-003
59678	12.15	2.55	0.	6.9886e-003
59679	12.15	2.6	5.e-002	4.9908
59680	12.299	2.6	0.	5.1909e-003
59681	12.249	2.55	0.	5.9867e-003
59682	12.249	2.6	5.e-002	4.8778
59683	12.399	2.6	0.	4.5111e-003
59684	12.349	2.55	0.	5.1865e-003
59685	12.349	2.6	5.e-002	4.7756
59686	12.498	2.6	0.	3.9621e-003
59687	12.449	2.55	0.	4.5528e-003
59688	12.449	2.6	5.e-002	4.6829
59689	12.598	2.6	0.	3.5207e-003
59690	12.548	2.55	0.	4.0212e-003
59691	12.548	2.6	5.e-002	4.5988
59692	12.698	2.6	0.	3.1919e-003
59693	12.648	2.55	0.	3.6093e-003
59694	12.648	2.6	5.e-002	4.522
59695	12.797	2.6	0.	2.9529e-003
59696	12.747	2.55	0.	3.3076e-003
59697	12.747	2.6	5.e-002	4.452
59698	12.897	2.6	0.	2.785e-003
59699	12.847	2.55	0.	3.0808e-003
59700	12.847	2.6	5.e-002	4.3879
59701	12.996	2.6	0.	2.6768e-003
59702	12.947	2.55	0.	2.9269e-003
59703	12.947	2.6	5.e-002	4.3292
59704	13.096	2.6	0.	2.6107e-003
59705	13.046	2.55	0.	2.8237e-003
59706	13.046	2.6	5.e-002	4.2752
59707	13.195	2.6	0.	2.5887e-003
59708	13.146	2.55	0.	2.7578e-003
59709	13.146	2.6	5.e-002	4.2254
59710	13.295	2.6	0.	2.6141e-003
59711	13.245	2.55	0.	2.7454e-003
59712	13.245	2.6	5.e-002	4.1795
59713	13.395	2.6	0.	2.6699e-003
59714	13.345	2.55	0.	2.7775e-003
59715	13.345	2.6	5.e-002	4.1369
59716	13.494	2.6	0.	2.7423e-003
59717	13.444	2.55	0.	2.8285e-003
59718	13.444	2.6	5.e-002	4.0975
59719	13.594	2.6	0.	2.8317e-003
59720	13.544	2.55	0.	2.8972e-003
59721	13.544	2.6	5.e-002	4.0608
59722	13.693	2.6	0.	2.9359e-003
59723	13.644	2.55	0.	2.9846e-003
59724	13.644	2.6	5.e-002	4.0265
59725	13.793	2.6	0.	3.0564e-003
59726	13.743	2.55	0.	3.0839e-003
59727	13.743	2.6	5.e-002	3.9945
59728	13.893	2.6	0.	3.1953e-003
59729	13.843	2.55	0.	3.2066e-003
59730	13.843	2.6	5.e-002	3.9644
59731	13.992	2.6	0.	3.3308e-003
59732	13.942	2.55	0.	3.3447e-003
59733	13.942	2.6	5.e-002	3.9362
59734	14.092	2.6	0.	3.46e-003
59735	14.042	2.55	0.	3.4616e-003
59736	14.042	2.6	5.e-002	3.9096
59737	14.191	2.6	0.	3.6008e-003
59738	14.142	2.55	0.	3.5885e-003
59739	14.142	2.6	5.e-002	3.8845
59740	14.291	2.6	0.	3.7496e-003
59741	14.241	2.55	0.	3.731e-003
59742	14.241	2.6	5.e-002	3.8606
59743	14.39	2.6	0.	3.9002e-003
59744	14.341	2.55	0.	3.8747e-003
59745	14.341	2.6	5.e-002	3.838
59746	14.49	2.6	0.	4.0509e-003
59747	14.44	2.55	0.	4.0213e-003
59748	14.44	2.6	5.e-002	3.8165
59749	14.59	2.6	0.	4.1961e-003
59750	14.54	2.55	0.	4.1661e-003
59751	14.54	2.6	5.e-002	3.7959
59752	14.689	2.6	0.	4.3435e-003
59753	14.639	2.55	0.	4.3035e-003
59754	14.639	2.6	5.e-002	3.7763
59755	14.789	2.6	0.	4.5019e-003
59756	14.739	2.55	0.	4.4532e-003
59757	14.739	2.6	5.e-002	3.7575
59758	14.888	2.6	0.	4.6608e-003
59759	14.839	2.55	0.	4.6133e-003
59760	14.839	2.6	5.e-002	3.7394
59761	14.988	2.6	0.	4.8146e-003
59762	14.938	2.55	0.	4.7657e-003
59763	14.938	2.6	5.e-002	3.7221
59764	15.088	2.6	0.	4.9657e-003
59765	15.038	2.55	0.	4.9161e-003
59766	15.038	2.6	5.e-002	3.7054
59767	15.187	2.6	0.	5.1206e-003
59768	15.137	2.55	0.	5.0649e-003
59769	15.137	2.6	5.e-002	3.6894
59770	15.287	2.6	0.	5.2835e-003
59771	15.237	2.55	0.	5.2235e-003
59772	15.237	2.6	5.e-002	3.6739
59773	15.386	2.6	0.	5.4357e-003
59774	15.336	2.55	0.	5.3883e-003
59775	15.336	2.6	5.e-002	3.6589
59776	15.486	2.6	0.	5.5792e-003
59777	15.436	2.55	0.	5.5273e-003
59778	15.436	2.6	5.e-002	3.6445
59779	15.585	2.6	0.	5.7313e-003
59780	15.536	2.55	0.	5.6761e-003
59781	15.536	2.6	5.e-002	3.6304
59782	15.685	2.6	0.	5.8879e-003
59783	15.635	2.55	0.	5.8337e-003
59784	15.635	2.6	5.e-002	3.6167
59785	15.785	2.6	0.	6.0485e-003
59786	15.735	2.55	0.	5.994e-003
59787	15.735	2.6	5.e-002	3.6035
59788	15.884	2.6	0.	6.2134e-003
59789	15.834	2.55	0.	6.1621e-003
59790	15.834	2.6	5.e-002	3.5906
59791	15.984	2.6	0.	6.3802e-003
59792	15.934	2.55	0.	6.3348e-003
59793	15.934	2.6	5.e-002	3.5781
59794	16.083	2.6	0.	6.5627e-003
59795	16.034	2.55	0.	6.5143e-003
59796	16.034	2.6	5.e-002	3.5658
59797	16.183	2.6	0.	6.7812e-003
59798	16.133	2.55	0.	6.7285e-003
59799	16.133	2.6	5.e-002	3.5539
59800	16.282	2.6	0.	7.0542e-003
59801	16.233	2.55	0.	7.0016e-003
59802	16.233	2.6	5.e-002	3.5423
59803	16.382	2.6	0.	7.4656e-003
59804	16.332	2.55	0.	7.3814e-003
59805	16.332	2.6	5.e-002	3.5309
59806	16.482	2.6	0.	8.5898e-003
59807	16.432	2.55	0.	8.1616e-003
59808	16.432	2.6	5.e-002	3.5199
59809	16.581	2.6	0.	0.30707
59810	16.531	2.55	0.	1.5582e-002
59811	16.531	2.6	5.e-002	3.5091
59812	16.681	2.6	0.	1.5083
59813	16.631	2.55	0.	0.9936
59814	16.631	2.6	5.e-002	3.4986
59815	16.78	2.6	0.	2.6909
59816	16.731	2.55	0.	2.1792
59817	16.731	2.6	5.e-002	3.4883
59818	16.88	2.6	0.	3.8536
59819	16.83	2.55	0.	3.3445
59820	16.83	2.6	5.e-002	3.4783
59821	16.98	2.6	0.	4.9985
59822	16.93	2.55	0.	4.4911
59823	16.93	2.6	5.e-002	3.4685
59824	17.079	2.6	0.	6.1278
59825	17.029	2.55	0.	5.6212
59826	17.029	2.6	5.e-002	3.4588
59827	17.179	2.6	0.	7.2437
59828	17.129	2.55	0.	6.7368
59829	17.129	2.6	5.e-002	3.4495
59830	17.278	2.6	0.	8.3483
59831	17.229	2.55	0.	7.8402
59832	17.229	2.6	5.e-002	3.4403
59833	17.378	2.6	0.	9.4437
59834	17.328	2.55	0.	8.9335
59835	17.328	2.6	5.e-002	3.4313
59836	17.477	2.6	0.	10.532
59837	17.428	2.55	0.	10.019
59838	17.428	2.6	5.e-002	3.4225
59839	17.577	2.6	0.	11.616
59840	17.527	2.55	0.	11.098
59841	17.527	2.6	5.e-002	3.4139
59842	17.677	2.6	0.	12.696
59843	17.627	2.55	0.	12.174
59844	17.627	2.6	5.e-002	3.4055
59845	17.776	2.6	0.	13.776
59846	17.726	2.55	0.	13.247
59847	17.726	2.6	5.e-002	3.3973
59848	17.876	2.6	0.	14.857
59849	17.826	2.55	0.	14.321
59850	17.826	2.6	5.e-002	3.3893
59851	17.975	2.6	0.	15.942
59852	17.926	2.55	0.	15.397
59853	17.926	2.6	5.e-002	3.3816
59854	18.075	2.6	0.	17.032
59855	18.025	2.55	0.	16.478
59856	18.025	2.6	5.e-002	3.374
59857	18.175	2.6	0.	18.129
59858	18.125	2.55	0.	17.565
59859	18.125	2.6	5.e-002	3.3666
59860	18.274	2.6	0.	19.236
59861	18.224	2.55	0.	18.66
59862	18.224	2.6	5.e-002	3.3594
59863	18.374	2.6	0.	20.354
59864	18.324	2.55	0.	19.766
59865	18.324	2.6	5.e-002	3.3525
59866	18.473	2.6	0.	21.487
59867	18.423	2.55	0.	20.884
59868	18.423	2.6	5.e-002	3.3457
59869	18.573	2.6	0.	22.635
59870	18.523	2.55	0.	22.017
59871	18.523	2.6	5.e-002	3.3392
59872	18.672	2.6	0.	23.801
59873	18.623	2.55	0.	23.167
59874	18.623	2.6	5.e-002	3.3328
59875	18.772	2.6	0.	24.987
59876	18.722	2.55	0.	24.336
59877	18.722	2.6	5.e-002	3.3267
59878	18.872	2.6	0.	26.195
59879	18.822	2.55	0.	25.525
59880	18.822	2.6	5.e-002	3.3207
59881	18.971	2.6	0.	27.428
59882	18.921	2.55	0.	26.738
59883	18.921	2.6	5.e-002	3.315
59884	19.071	2.6	0.	28.689
59885	19.021	2.55	0.	27.977
59886	19.021	2.6	5.e-002	3.3095
59887	19.17	2.6	0.	29.978
59888	19.121	2.55	0.	29.244
59889	19.121	2.6	5.e-002	3.3043
59890	19.27	2.6	0.	31.299
59891	19.22	2.55	0.	30.54
59892	19.22	2.6	5.e-002	3.2993
59893	19.369	2.6	0.	32.654
59894	19.32	2.55	0.	31.869
59895	19.32	2.6	5.e-002	3.2946
59896	19.469	2.6	0.	34.045
59897	19.419	2.55	0.	33.234
59898	19.419	2.6	5.e-002	3.2901
59899	19.569	2.6	0.	35.476
59900	19.519	2.55	0.	34.635
59901	19.519	2.6	5.e-002	3.2859
59902	19.668	2.6	0.	36.948
59903	19.618	2.55	0.	36.077
59904	19.618	2.6	5.e-002	3.2819
59905	19.768	2.6	0.	38.464
59906	19.718	2.55	0.	37.562
59907	19.718	2.6	5.e-002	3.2783
59908	19.867	2.6	0.	40.028
59909	19.818	2.55	0.	39.091
59910	19.818	2.6	5.e-002	3.275
59911	19.967	2.6	0.	41.641
59912	19.917	2.55	0.	40.669
59913	19.917	2.6	5.e-002	3.272
59914	20.067	2.6	0.	43.307
59915	20.017	2.55	0.	42.297
59916	20.017	2.6	5.e-002	3.2693
59917	20.166	2.6	0.	45.028
59918	20.116	2.55	0.	43.979
59919	20.116	2.6	5.e-002	3.2669
59920	20.266	2.6	0.	46.808
59921	20.216	2.55	0.	45.718
59922	20.216	2.6	5.e-002	3.2649
59923	20.365	2.6	0.	48.649
59924	20.316	2.55	0.	47.517
59925	20.316	2.6	5.e-002	3.2632
59926	20.465	2.6	0.	50.555
59927	20.415	2.55	0.	49.378
59928	20.415	2.6	5.e-002	3.2619
59929	20.564	2.6	0.	52.529
59930	20.515	2.55	0.	51.304
59931	20.515	2.6	5.e-002	3.261
59932	20.664	2.6	0.	54.574
59933	20.614	2.55	0.	53.3
59934	20.614	2.6	5.e-002	3.2606
59935	20.764	2.6	0.	56.693
59936	20.714	2.55	0.	55.368
59937	20.714	2.6	5.e-002	3.2606
59938	20.863	2.6	0.	58.89
59939	20.813	2.55	0.	57.512
59940	20.813	2.6	5.e-002	3.261
59941	20.963	2.6	0.	61.168
59942	20.913	2.55	0.	59.735
59943	20.913	2.6	5.e-002	3.262
59944	21.062	2.6	0.	63.531
59945	21.013	2.55	0.	62.041
59946	21.013	2.6	5.e-002	3.2635
59947	21.162	2.6	0.	65.982
59948	21.112	2.55	0.	64.432
59949	21.112	2.6	5.e-002	3.2655
59950	21.262	2.6	0.	68.525
59951	21.212	2.55	0.	66.913
59952	21.212	2.6	5.e-002	3.268
59953	21.361	2.6	0.	71.163
59954	21.311	2.55	0.	69.487
59955	21.311	2.6	5.e-002	3.2712
59956	21.461	2.6	0.	73.9
59957	21.411	2.55	0.	72.158
59958	21.411	2.6	5.e-002	3.275
59959	21.56	2.6	0.	76.74
59960	21.51	2.55	0.	74.93
59961	21.51	2.6	5.e-002	3.2794
59962	21.66	2.6	0.	79.685
59963	21.61	2.55	0.	77.805
59964	21.61	2.6	5.e-002	3.2845
59965	21.759	2.6	0.	82.74
59966	21.71	2.55	0.	80.788
59967	21.71	2.6	5.e-002	3.2904
59968	21.859	2.6	0.	85.908
59969	21.809	2.55	0.	83.882
59970	21.809	2.6	5.e-002	3.2969
59971	21.959	2.6	0.	89.192
59972	21.909	2.55	0.	87.09
59973	21.909	2.6	5.e-002	3.3043
59974	22.058	2.6	0.	92.595
59975	22.008	2.55	0.	90.417
59976	22.008	2.6	5.e-002	3.3125
59977	22.158	2.6	0.	96.121
59978	22.108	2.55	0.	93.864
59979	22.108	2.6	5.e-002	3.3215
59980	22.257	2.6	0.	99.772
59981	22.208	2.55	0.	97.436
59982	22.208	2.6	5.e-002	3.3315
59983	22.357	2.6	0.	103.55
59984	22.307	2.55	0.	101.13
59985	22.307	2.6	5.e-002	3.3423
59986	22.456	2.6	0.	107.46
59987	22.407	2.55	0.	104.96
59988	22.407	2.6	5.e-002	3.3541
59989	22.556	2.6	0.	111.5
59990	22.506	2.55	0.	108.92
59991	22.506	2.6	5.e-002	3.3669
59992	22.656	2.6	0.	115.68
59993	22.606	2.55	0.	113.02
59994	22.606	2.6	5.e-002	3.3807
59995	22.755	2.6	0.	119.99
59996	22.705	2.55	0.	117.25
59997	22.705	2.6	5.e-002	3.3955
59998	22.855	2.6	0.	124.44
59999	22.805	2.55	0.	121.62
60000	22.805	2.6	5.e-002	3.4114
60001	22.954	2.6	0.	129.03
60002	22.905	2.55	0.	126.13
60003	22.905	2.6	5.e-002	3.4283
60004	23.054	2.6	0.	133.76
60005	23.004	2.55	0.	130.77
60006	23.004	2.6	5.e-002	3.4462
60007	23.154	2.6	0.	138.62
60008	23.104	2.55	0.	135.56
60009	23.104	2.6	5.e-002	3.4652
60010	23.253	2.6	0.	143.63
60011	23.203	2.55	0.	140.48
60012	23.203	2.6	5.e-002	3.4852
60013	23.353	2.6	0.	148.77
60014	23.303	2.55	0.	145.55
60015	23.303	2.6	5.e-002	3.5061
60016	23.452	2.6	0.	154.04
60017	23.403	2.55	0.	150.75
60018	23.403	2.6	5.e-002	3.528
60019	23.552	2.6	0.	159.46
60020	23.502	2.55	0.	156.09
60021	23.502	2.6	5.e-002	3.5508
60022	23.651	2.6	0.	165.
60023	23.602	2.55	0.	161.57
60024	23.602	2.6	5.e-002	3.5744
60025	23.751	2.6	0.	170.68
60026	23.701	2.55	0.	167.17
60027	23.701	2.6	5.e-002	3.599
60028	23.851	2.6	0.	176.48
60029	23.801	2.55	0.	172.93
60030	23.801	2.6	5.e-002	3.6233
60031	23.9	2.55	0.	178.76
60032	23.9	2.6	5.e-002	3.6578
60033	23.95	2.6	0.	182.47
60034	8.316	2.5	0.	863.45
60035	8.2662	2.45	0.	989.24
60036	8.2662	2.5	5.e-002	72.499
60037	8.4156	2.5	0.	666.66
60038	8.3658	2.45	0.	776.71
60039	8.3658	2.5	5.e-002	76.57
60040	8.5152	2.5	0.	469.53
60041	8.4654	2.45	0.	557.76
60042	8.4654	2.5	5.e-002	74.128
60043	8.6148	2.5	0.	292.16
60044	8.565	2.45	0.	360.66
60045	8.565	2.5	5.e-002	67.99
60046	8.7144	2.5	0.	142.85
60047	8.6646	2.45	0.	196.5
60048	8.6646	2.5	5.e-002	60.816
60049	8.8139	2.5	0.	22.003
60050	8.7642	2.45	0.	64.931
60051	8.7642	2.5	5.e-002	53.979
60052	8.9135	2.5	0.	1.6602
60053	8.8637	2.45	0.	2.0433
60054	8.8637	2.5	5.e-002	47.917
60055	9.0131	2.5	0.	1.4045
60056	8.9633	2.45	0.	1.6363
60057	8.9633	2.5	5.e-002	42.668
60058	9.1127	2.5	0.	1.1852
60059	9.0629	2.45	0.	1.3499
60060	9.0629	2.5	5.e-002	38.135
60061	9.2123	2.5	0.	1.0016
60062	9.1625	2.45	0.	1.1243
60063	9.1625	2.5	5.e-002	34.206
60064	9.3118	2.5	0.	0.84851
60065	9.2621	2.45	0.	0.94325
60066	9.2621	2.5	5.e-002	30.779
60067	9.4114	2.5	0.	0.72028
60068	9.3616	2.45	0.	0.79573
60069	9.3616	2.5	5.e-002	27.775
60070	9.511	2.5	0.	0.61228
60071	9.4612	2.45	0.	0.67387
60072	9.4612	2.5	5.e-002	25.13
60073	9.6106	2.5	0.	0.52087
60074	9.5608	2.45	0.	0.57212
60075	9.5608	2.5	5.e-002	22.794
60076	9.7102	2.5	0.	0.44323
60077	9.6604	2.45	0.	0.48645
60078	9.6604	2.5	5.e-002	20.725
60079	9.8097	2.5	0.	0.37713
60080	9.76	2.45	0.	0.41393
60081	9.76	2.5	5.e-002	18.891
60082	9.9093	2.5	0.	0.32079
60083	9.8595	2.45	0.	0.35233
60084	9.8595	2.5	5.e-002	17.263
60085	10.009	2.5	0.	0.27275
60086	9.9591	2.45	0.	0.2999
60087	9.9591	2.5	5.e-002	15.817
60088	10.108	2.5	0.	0.23177
60089	10.059	2.45	0.	0.25519
60090	10.059	2.5	5.e-002	14.531
60091	10.208	2.5	0.	0.19682
60092	10.158	2.45	0.	0.21706
60093	10.158	2.5	5.e-002	13.387
60094	10.308	2.5	0.	0.16704
60095	10.258	2.45	0.	0.18453
60096	10.258	2.5	5.e-002	12.37
60097	10.407	2.5	0.	0.1417
60098	10.357	2.45	0.	0.1568
60099	10.357	2.5	5.e-002	11.465
60100	10.507	2.5	0.	0.12012
60101	10.457	2.45	0.	0.13318
60102	10.457	2.5	5.e-002	10.659
60103	10.606	2.5	0.	0.10175
60104	10.557	2.45	0.	0.11305
60105	10.557	2.5	5.e-002	9.9412
60106	10.706	2.5	0.	8.6132e-002
60107	10.656	2.45	0.	9.5892e-002
60108	10.656	2.5	5.e-002	9.3022
60109	10.806	2.5	0.	7.2857e-002
60110	10.756	2.45	0.	8.1292e-002
60111	10.756	2.5	5.e-002	8.7329
60112	10.905	2.5	0.	6.1587e-002
60113	10.855	2.45	0.	6.8867e-002
60114	10.855	2.5	5.e-002	8.2255
60115	11.005	2.5	0.	5.2037e-002
60116	10.955	2.45	0.	5.8319e-002
60117	10.955	2.5	5.e-002	7.7732
60118	11.104	2.5	0.	4.3926e-002
60119	11.055	2.45	0.	4.9371e-002
60120	11.055	2.5	5.e-002	7.3698
60121	11.204	2.5	0.	3.704e-002
60122	11.154	2.45	0.	4.1739e-002
60123	11.154	2.5	5.e-002	7.0099
60124	11.303	2.5	0.	3.1223e-002
60125	11.254	2.45	0.	3.5274e-002
60126	11.254	2.5	5.e-002	6.6884
60127	11.403	2.5	0.	2.6314e-002
60128	11.353	2.45	0.	2.9813e-002
60129	11.353	2.5	5.e-002	6.4012
60130	11.503	2.5	0.	2.2172e-002
60131	11.453	2.45	0.	2.5193e-002
60132	11.453	2.5	5.e-002	6.1444
60133	11.602	2.5	0.	1.8683e-002
60134	11.552	2.45	0.	2.1294e-002
60135	11.552	2.5	5.e-002	5.9145
60136	11.702	2.5	0.	1.5745e-002
60137	11.652	2.45	0.	1.8003e-002
60138	11.652	2.5	5.e-002	5.7086
60139	11.801	2.5	0.	1.3283e-002
60140	11.752	2.45	0.	1.5226e-002
60141	11.752	2.5	5.e-002	5.5239
60142	11.901	2.5	0.	1.1241e-002
60143	11.851	2.45	0.	1.291e-002
60144	11.851	2.5	5.e-002	5.358
60145	12.001	2.5	0.	9.5447e-003
60146	11.951	2.45	0.	1.0988e-002
60147	11.951	2.5	5.e-002	5.2089
60148	12.1	2.5	0.	8.1341e-003
60149	12.05	2.45	0.	9.3802e-003
60150	12.05	2.5	5.e-002	5.0746
60151	12.2	2.5	0.	6.9687e-003
60152	12.15	2.45	0.	8.0432e-003
60153	12.15	2.5	5.e-002	4.9535
60154	12.299	2.5	0.	6.0202e-003
60155	12.249	2.45	0.	6.9387e-003
60156	12.249	2.5	5.e-002	4.8441
60157	12.399	2.5	0.	5.2608e-003
60158	12.349	2.45	0.	6.0462e-003
60159	12.349	2.5	5.e-002	4.745
60160	12.498	2.5	0.	4.6398e-003
60161	12.449	2.45	0.	5.3295e-003
60162	12.449	2.5	5.e-002	4.6553
60163	12.598	2.5	0.	4.1337e-003
60164	12.548	2.45	0.	4.7232e-003
60165	12.548	2.5	5.e-002	4.5737
60166	12.698	2.5	0.	3.7454e-003
60167	12.648	2.45	0.	4.2443e-003
60168	12.648	2.5	5.e-002	4.4994
60169	12.797	2.5	0.	3.453e-003
60170	12.747	2.45	0.	3.8803e-003
60171	12.747	2.5	5.e-002	4.4315
60172	12.897	2.5	0.	3.2375e-003
60173	12.847	2.45	0.	3.5997e-003
60174	12.847	2.5	5.e-002	4.3694
60175	12.996	2.5	0.	3.0865e-003
60176	12.947	2.45	0.	3.3958e-003
60177	12.947	2.5	5.e-002	4.3125
60178	13.096	2.5	0.	2.9816e-003
60179	13.046	2.45	0.	3.2482e-003
60180	13.046	2.5	5.e-002	4.2601
60181	13.195	2.5	0.	2.9237e-003
60182	13.146	2.45	0.	3.1412e-003
60183	13.146	2.5	5.e-002	4.2118
60184	13.295	2.5	0.	2.9166e-003
60185	13.245	2.45	0.	3.0919e-003
60186	13.245	2.5	5.e-002	4.1672
60187	13.395	2.5	0.	2.9427e-003
60188	13.345	2.45	0.	3.0906e-003
60189	13.345	2.5	5.e-002	4.1258
60190	13.494	2.5	0.	2.9889e-003
60191	13.444	2.45	0.	3.1112e-003
60192	13.444	2.5	5.e-002	4.0874
60193	13.594	2.5	0.	3.0547e-003
60194	13.544	2.45	0.	3.1533e-003
60195	13.544	2.5	5.e-002	4.0517
60196	13.693	2.5	0.	3.1364e-003
60197	13.644	2.45	0.	3.2151e-003
60198	13.644	2.5	5.e-002	4.0183
60199	13.793	2.5	0.	3.2372e-003
60200	13.743	2.45	0.	3.2916e-003
60201	13.743	2.5	5.e-002	3.987
60202	13.893	2.5	0.	3.3585e-003
60203	13.843	2.45	0.	3.3938e-003
60204	13.843	2.5	5.e-002	3.9576
60205	13.992	2.5	0.	3.4774e-003
60206	13.942	2.45	0.	3.5133e-003
60207	13.942	2.5	5.e-002	3.9301
60208	14.092	2.5	0.	3.5916e-003
60209	14.042	2.45	0.	3.6133e-003
60210	14.042	2.5	5.e-002	3.904
60211	14.191	2.5	0.	3.7198e-003
60212	14.142	2.45	0.	3.7247e-003
60213	14.142	2.5	5.e-002	3.8794
60214	14.291	2.5	0.	3.8569e-003
60215	14.241	2.45	0.	3.8543e-003
60216	14.241	2.5	5.e-002	3.856
60217	14.39	2.5	0.	3.9963e-003
60218	14.341	2.45	0.	3.9849e-003
60219	14.341	2.5	5.e-002	3.8338
60220	14.49	2.5	0.	4.1367e-003
60221	14.44	2.45	0.	4.1205e-003
60222	14.44	2.5	5.e-002	3.8126
60223	14.59	2.5	0.	4.2734e-003
60224	14.54	2.45	0.	4.2551e-003
60225	14.54	2.5	5.e-002	3.7924
60226	14.689	2.5	0.	4.413e-003
60227	14.639	2.45	0.	4.3834e-003
60228	14.639	2.5	5.e-002	3.773
60229	14.789	2.5	0.	4.5643e-003
60230	14.739	2.45	0.	4.5256e-003
60231	14.739	2.5	5.e-002	3.7545
60232	14.888	2.5	0.	4.7177e-003
60233	14.839	2.45	0.	4.6787e-003
60234	14.839	2.5	5.e-002	3.7366
60235	14.988	2.5	0.	4.8667e-003
60236	14.938	2.45	0.	4.8253e-003
60237	14.938	2.5	5.e-002	3.7195
60238	15.088	2.5	0.	5.0147e-003
60239	15.038	2.45	0.	4.9714e-003
60240	15.038	2.5	5.e-002	3.7031
60241	15.187	2.5	0.	5.1672e-003
60242	15.137	2.45	0.	5.117e-003
60243	15.137	2.5	5.e-002	3.6872
60244	15.287	2.5	0.	5.3277e-003
60245	15.237	2.45	0.	5.2729e-003
60246	15.237	2.5	5.e-002	3.6718
60247	15.386	2.5	0.	5.4793e-003
60248	15.336	2.45	0.	5.4366e-003
60249	15.336	2.5	5.e-002	3.657
60250	15.486	2.5	0.	5.6236e-003
60251	15.436	2.45	0.	5.5761e-003
60252	15.436	2.5	5.e-002	3.6427
60253	15.585	2.5	0.	5.778e-003
60254	15.536	2.45	0.	5.727e-003
60255	15.536	2.5	5.e-002	3.6287
60256	15.685	2.5	0.	5.9394e-003
60257	15.635	2.45	0.	5.8882e-003
60258	15.635	2.5	5.e-002	3.6152
60259	15.785	2.5	0.	6.1073e-003
60260	15.735	2.45	0.	6.0563e-003
60261	15.735	2.5	5.e-002	3.602
60262	15.884	2.5	0.	6.2832e-003
60263	15.834	2.45	0.	6.2348e-003
60264	15.834	2.5	5.e-002	3.5892
60265	15.984	2.5	0.	6.4682e-003
60266	15.934	2.45	0.	6.4244e-003
60267	15.934	2.5	5.e-002	3.5768
60268	16.083	2.5	0.	6.678e-003
60269	16.034	2.45	0.	6.6297e-003
60270	16.034	2.5	5.e-002	3.5646
60271	16.183	2.5	0.	6.9418e-003
60272	16.133	2.45	0.	6.8867e-003
60273	16.133	2.5	5.e-002	3.5527
60274	16.282	2.5	0.	7.3021e-003
60275	16.233	2.45	0.	7.2344e-003
60276	16.233	2.5	5.e-002	3.5411
60277	16.382	2.5	0.	7.9282e-003
60278	16.332	2.45	0.	7.7797e-003
60279	16.332	2.5	5.e-002	3.5299
60280	16.482	2.5	0.	1.0148e-002
60281	16.432	2.45	0.	9.1212e-003
60282	16.432	2.5	5.e-002	3.5188
60283	16.581	2.5	0.	0.48421
60284	16.531	2.45	0.	5.2101e-002
60285	16.531	2.5	5.e-002	3.5081
60286	16.681	2.5	0.	1.6721
60287	16.631	2.45	0.	1.1829
60288	16.631	2.5	5.e-002	3.4976
60289	16.78	2.5	0.	2.8409
60290	16.731	2.45	0.	2.3531
60291	16.731	2.5	5.e-002	3.4874
60292	16.88	2.5	0.	3.9902
60293	16.83	2.45	0.	3.5035
60294	16.83	2.5	5.e-002	3.4774
60295	16.98	2.5	0.	5.1221
60296	16.93	2.45	0.	4.6355
60297	16.93	2.5	5.e-002	3.4676
60298	17.079	2.5	0.	6.2386
60299	17.029	2.45	0.	5.7512
60300	17.029	2.5	5.e-002	3.458
60301	17.179	2.5	0.	7.3419
60302	17.129	2.45	0.	6.8529
60303	17.129	2.5	5.e-002	3.4486
60304	17.278	2.5	0.	8.4341
60305	17.229	2.45	0.	7.9425
60306	17.229	2.5	5.e-002	3.4394
60307	17.378	2.5	0.	9.5173
60308	17.328	2.45	0.	9.0222
60309	17.328	2.5	5.e-002	3.4305
60310	17.477	2.5	0.	10.594
60311	17.428	2.45	0.	10.094
60312	17.428	2.5	5.e-002	3.4217
60313	17.577	2.5	0.	11.665
60314	17.527	2.45	0.	11.16
60315	17.527	2.5	5.e-002	3.4131
60316	17.677	2.5	0.	12.734
60317	17.627	2.45	0.	12.222
60318	17.627	2.5	5.e-002	3.4047
60319	17.776	2.5	0.	13.801
60320	17.726	2.45	0.	13.282
60321	17.726	2.5	5.e-002	3.3965
60322	17.876	2.5	0.	14.87
60323	17.826	2.45	0.	14.343
60324	17.826	2.5	5.e-002	3.3886
60325	17.975	2.5	0.	15.943
60326	17.926	2.45	0.	15.406
60327	17.926	2.5	5.e-002	3.3808
60328	18.075	2.5	0.	17.02
60329	18.025	2.45	0.	16.473
60330	18.025	2.5	5.e-002	3.3732
60331	18.175	2.5	0.	18.105
60332	18.125	2.45	0.	17.546
60333	18.125	2.5	5.e-002	3.3658
60334	18.274	2.5	0.	19.2
60335	18.224	2.45	0.	18.627
60336	18.224	2.5	5.e-002	3.3587
60337	18.374	2.5	0.	20.305
60338	18.324	2.45	0.	19.719
60339	18.324	2.5	5.e-002	3.3517
60340	18.473	2.5	0.	21.424
60341	18.423	2.45	0.	20.823
60342	18.423	2.5	5.e-002	3.3449
60343	18.573	2.5	0.	22.559
60344	18.523	2.45	0.	21.942
60345	18.523	2.5	5.e-002	3.3384
60346	18.672	2.5	0.	23.712
60347	18.623	2.45	0.	23.076
60348	18.623	2.5	5.e-002	3.332
60349	18.772	2.5	0.	24.884
60350	18.722	2.45	0.	24.23
60351	18.722	2.5	5.e-002	3.3258
60352	18.872	2.5	0.	26.078
60353	18.822	2.45	0.	25.404
60354	18.822	2.5	5.e-002	3.3199
60355	18.971	2.5	0.	27.297
60356	18.921	2.45	0.	26.601
60357	18.921	2.5	5.e-002	3.3142
60358	19.071	2.5	0.	28.542
60359	19.021	2.45	0.	27.824
60360	19.021	2.5	5.e-002	3.3087
60361	19.17	2.5	0.	29.816
60362	19.121	2.45	0.	29.073
60363	19.121	2.5	5.e-002	3.3034
60364	19.27	2.5	0.	31.121
60365	19.22	2.45	0.	30.353
60366	19.22	2.5	5.e-002	3.2984
60367	19.369	2.5	0.	32.459
60368	19.32	2.45	0.	31.664
60369	19.32	2.5	5.e-002	3.2936
60370	19.469	2.5	0.	33.834
60371	19.419	2.45	0.	33.01
60372	19.419	2.5	5.e-002	3.2891
60373	19.569	2.5	0.	35.247
60374	19.519	2.45	0.	34.392
60375	19.519	2.5	5.e-002	3.2849
60376	19.668	2.5	0.	36.701
60377	19.618	2.45	0.	35.814
60378	19.618	2.5	5.e-002	3.2809
60379	19.768	2.5	0.	38.198
60380	19.718	2.45	0.	37.278
60381	19.718	2.5	5.e-002	3.2773
60382	19.867	2.5	0.	39.742
60383	19.818	2.45	0.	38.786
60384	19.818	2.5	5.e-002	3.2739
60385	19.967	2.5	0.	41.335
60386	19.917	2.45	0.	40.342
60387	19.917	2.5	5.e-002	3.2708
60388	20.067	2.5	0.	42.98
60389	20.017	2.45	0.	41.948
60390	20.017	2.5	5.e-002	3.2681
60391	20.166	2.5	0.	44.68
60392	20.116	2.45	0.	43.606
60393	20.116	2.5	5.e-002	3.2657
60394	20.266	2.5	0.	46.437
60395	20.216	2.45	0.	45.32
60396	20.216	2.5	5.e-002	3.2636
60397	20.365	2.5	0.	48.255
60398	20.316	2.45	0.	47.093
60399	20.316	2.5	5.e-002	3.2619
60400	20.465	2.5	0.	50.137
60401	20.415	2.45	0.	48.928
60402	20.415	2.5	5.e-002	3.2605
60403	20.564	2.5	0.	52.086
60404	20.515	2.45	0.	50.828
60405	20.515	2.5	5.e-002	3.2596
60406	20.664	2.5	0.	54.105
60407	20.614	2.45	0.	52.796
60408	20.614	2.5	5.e-002	3.2591
60409	20.764	2.5	0.	56.197
60410	20.714	2.45	0.	54.835
60411	20.714	2.5	5.e-002	3.259
60412	20.863	2.5	0.	58.367
60413	20.813	2.45	0.	56.949
60414	20.813	2.5	5.e-002	3.2594
60415	20.963	2.5	0.	60.617
60416	20.913	2.45	0.	59.14
60417	20.913	2.5	5.e-002	3.2603
60418	21.062	2.5	0.	62.951
60419	21.013	2.45	0.	61.414
60420	21.013	2.5	5.e-002	3.2617
60421	21.162	2.5	0.	65.372
60422	21.112	2.45	0.	63.773
60423	21.112	2.5	5.e-002	3.2636
60424	21.262	2.5	0.	67.884
60425	21.212	2.45	0.	66.22
60426	21.212	2.5	5.e-002	3.2661
60427	21.361	2.5	0.	70.491
60428	21.311	2.45	0.	68.76
60429	21.311	2.5	5.e-002	3.2692
60430	21.461	2.5	0.	73.196
60431	21.411	2.45	0.	71.396
60432	21.411	2.5	5.e-002	3.2729
60433	21.56	2.5	0.	76.003
60434	21.51	2.45	0.	74.131
60435	21.51	2.5	5.e-002	3.2772
60436	21.66	2.5	0.	78.916
60437	21.61	2.45	0.	76.97
60438	21.61	2.5	5.e-002	3.2823
60439	21.759	2.5	0.	81.938
60440	21.71	2.45	0.	79.917
60441	21.71	2.5	5.e-002	3.288
60442	21.859	2.5	0.	85.072
60443	21.809	2.45	0.	82.973
60444	21.809	2.5	5.e-002	3.2945
60445	21.959	2.5	0.	88.323
60446	21.909	2.45	0.	86.145
60447	21.909	2.5	5.e-002	3.3018
60448	22.058	2.5	0.	91.693
60449	22.008	2.45	0.	89.434
60450	22.008	2.5	5.e-002	3.3099
60451	22.158	2.5	0.	95.186
60452	22.108	2.45	0.	92.844
60453	22.108	2.5	5.e-002	3.3189
60454	22.257	2.5	0.	98.805
60455	22.208	2.45	0.	96.379
60456	22.208	2.5	5.e-002	3.3288
60457	22.357	2.5	0.	102.55
60458	22.307	2.45	0.	100.04
60459	22.307	2.5	5.e-002	3.3396
60460	22.456	2.5	0.	106.43
60461	22.407	2.45	0.	103.84
60462	22.407	2.5	5.e-002	3.3514
60463	22.556	2.5	0.	110.44
60464	22.506	2.45	0.	107.76
60465	22.506	2.5	5.e-002	3.3641
60466	22.656	2.5	0.	114.59
60467	22.606	2.45	0.	111.82
60468	22.606	2.5	5.e-002	3.3779
60469	22.755	2.5	0.	118.88
60470	22.705	2.45	0.	116.02
60471	22.705	2.5	5.e-002	3.3928
60472	22.855	2.5	0.	123.3
60473	22.805	2.45	0.	120.36
60474	22.805	2.5	5.e-002	3.4087
60475	22.954	2.5	0.	127.87
60476	22.905	2.45	0.	124.84
60477	22.905	2.5	5.e-002	3.4257
60478	23.054	2.5	0.	132.57
60479	23.004	2.45	0.	129.46
60480	23.004	2.5	5.e-002	3.4437
60481	23.154	2.5	0.	137.42
60482	23.104	2.45	0.	134.23
60483	23.104	2.5	5.e-002	3.4628
60484	23.253	2.5	0.	142.41
60485	23.203	2.45	0.	139.13
60486	23.203	2.5	5.e-002	3.483
60487	23.353	2.5	0.	147.53
60488	23.303	2.45	0.	144.18
60489	23.303	2.5	5.e-002	3.5042
60490	23.452	2.5	0.	152.8
60491	23.403	2.45	0.	149.37
60492	23.403	2.5	5.e-002	3.5263
60493	23.552	2.5	0.	158.2
60494	23.502	2.45	0.	154.7
60495	23.502	2.5	5.e-002	3.5495
60496	23.651	2.5	0.	163.74
60497	23.602	2.45	0.	160.17
60498	23.602	2.5	5.e-002	3.5734
60499	23.751	2.5	0.	169.42
60500	23.701	2.45	0.	165.77
60501	23.701	2.5	5.e-002	3.5983
60502	23.851	2.5	0.	175.21
60503	23.801	2.45	0.	171.52
60504	23.801	2.5	5.e-002	3.6231
60505	23.9	2.45	0.	177.35
60506	23.9	2.5	5.e-002	3.6593
60507	23.95	2.5	0.	181.18
60508	8.316	2.4	0.	902.56
60509	8.2662	2.35	0.	1053.6
60510	8.2662	2.4	5.e-002	107.17
60511	8.4156	2.4	0.	673.14
60512	8.3658	2.35	0.	799.56
60513	8.3658	2.4	5.e-002	105.63
60514	8.5152	2.4	0.	455.19
60515	8.4654	2.35	0.	550.55
60516	8.4654	2.4	5.e-002	94.037
60517	8.6148	2.4	0.	270.2
60518	8.565	2.35	0.	342.37
60519	8.565	2.4	5.e-002	80.136
60520	8.7144	2.4	0.	122.26
60521	8.6646	2.35	0.	178.79
60522	8.6646	2.4	5.e-002	67.788
60523	8.8139	2.4	0.	8.6595
60524	8.7642	2.35	0.	53.104
60525	8.7642	2.4	5.e-002	57.804
60526	8.9135	2.4	0.	2.0342
60527	8.8637	2.35	0.	3.0786
60528	8.8637	2.4	5.e-002	49.893
60529	9.0131	2.4	0.	1.6081
60530	8.9633	2.35	0.	2.0552
60531	8.9633	2.4	5.e-002	43.564
60532	9.1127	2.4	0.	1.3077
60533	9.0629	2.35	0.	1.5863
60534	9.0629	2.4	5.e-002	38.405
60535	9.2123	2.4	0.	1.0795
60536	9.1625	2.35	0.	1.2712
60537	9.1625	2.4	5.e-002	34.118
60538	9.3118	2.4	0.	0.90056
60539	9.2621	2.35	0.	1.0402
60540	9.2621	2.4	5.e-002	30.494
60541	9.4114	2.4	0.	0.757
60542	9.3616	2.35	0.	0.86282
60543	9.3616	2.4	5.e-002	27.39
60544	9.511	2.4	0.	0.63965
60545	9.4612	2.35	0.	0.72239
60546	9.4612	2.4	5.e-002	24.703
60547	9.6106	2.4	0.	0.54236
60548	9.5608	2.35	0.	0.60868
60549	9.5608	2.4	5.e-002	22.359
60550	9.7102	2.4	0.	0.46087
60551	9.6604	2.35	0.	0.51506
60552	9.6604	2.4	5.e-002	20.302
60553	9.8097	2.4	0.	0.39212
60554	9.76	2.35	0.	0.43705
60555	9.76	2.4	5.e-002	18.49
60556	9.9093	2.4	0.	0.33386
60557	9.8595	2.35	0.	0.37152
60558	9.8595	2.4	5.e-002	16.89
60559	10.009	2.4	0.	0.28431
60560	9.9591	2.35	0.	0.31615
60561	9.9591	2.4	5.e-002	15.472
60562	10.108	2.4	0.	0.24209
60563	10.059	2.35	0.	0.26917
60564	10.059	2.4	5.e-002	14.215
60565	10.208	2.4	0.	0.20609
60566	10.158	2.35	0.	0.22921
60567	10.158	2.4	5.e-002	13.099
60568	10.308	2.4	0.	0.17538
60569	10.258	2.35	0.	0.19518
60570	10.258	2.4	5.e-002	12.107
60571	10.407	2.4	0.	0.1492
60572	10.357	2.35	0.	0.16618
60573	10.357	2.4	5.e-002	11.224
60574	10.507	2.4	0.	0.12687
60575	10.457	2.35	0.	0.14147
60576	10.457	2.4	5.e-002	10.44
60577	10.606	2.4	0.	0.10782
60578	10.557	2.35	0.	0.12039
60579	10.557	2.4	5.e-002	9.7414
60580	10.706	2.4	0.	9.1582e-002
60581	10.656	2.35	0.	0.10241
60582	10.656	2.4	5.e-002	9.1198
60583	10.806	2.4	0.	7.7746e-002
60584	10.756	2.35	0.	8.7079e-002
60585	10.756	2.4	5.e-002	8.5663
60586	10.905	2.4	0.	6.5972e-002
60587	10.855	2.35	0.	7.4012e-002
60588	10.855	2.4	5.e-002	8.0733
60589	11.005	2.4	0.	5.5967e-002
60590	10.955	2.35	0.	6.2899e-002
60591	10.955	2.4	5.e-002	7.6341
60592	11.104	2.4	0.	4.7448e-002
60593	11.055	2.35	0.	5.345e-002
60594	11.055	2.4	5.e-002	7.2427
60595	11.204	2.4	0.	4.0197e-002
60596	11.154	2.35	0.	4.5377e-002
60597	11.154	2.4	5.e-002	6.8938
60598	11.303	2.4	0.	3.4054e-002
60599	11.254	2.35	0.	3.8522e-002
60600	11.254	2.4	5.e-002	6.5824
60601	11.403	2.4	0.	2.8852e-002
60602	11.353	2.35	0.	3.2715e-002
60603	11.353	2.4	5.e-002	6.3044
60604	11.503	2.4	0.	2.445e-002
60605	11.453	2.35	0.	2.7787e-002
60606	11.453	2.4	5.e-002	6.0561
60607	11.602	2.4	0.	2.0728e-002
60608	11.552	2.35	0.	2.3617e-002
60609	11.552	2.4	5.e-002	5.8341
60610	11.702	2.4	0.	1.7582e-002
60611	11.652	2.35	0.	2.0086e-002
60612	11.652	2.4	5.e-002	5.6354
60613	11.801	2.4	0.	1.4936e-002
60614	11.752	2.35	0.	1.7095e-002
60615	11.752	2.4	5.e-002	5.4573
60616	11.901	2.4	0.	1.2728e-002
60617	11.851	2.35	0.	1.4589e-002
60618	11.851	2.4	5.e-002	5.2975
60619	12.001	2.4	0.	1.0884e-002
60620	11.951	2.35	0.	1.2497e-002
60621	11.951	2.4	5.e-002	5.1539
60622	12.1	2.4	0.	9.3409e-003
60623	12.05	2.35	0.	1.0739e-002
60624	12.05	2.4	5.e-002	5.0247
60625	12.2	2.4	0.	8.0573e-003
60626	12.15	2.35	0.	9.2673e-003
60627	12.15	2.4	5.e-002	4.9083
60628	12.299	2.4	0.	7.0023e-003
60629	12.249	2.35	0.	8.0427e-003
60630	12.249	2.4	5.e-002	4.8031
60631	12.399	2.4	0.	6.1471e-003
60632	12.349	2.35	0.	7.0416e-003
60633	12.349	2.4	5.e-002	4.708
60634	12.498	2.4	0.	5.4404e-003
60635	12.449	2.35	0.	6.2281e-003
60636	12.449	2.4	5.e-002	4.6218
60637	12.598	2.4	0.	4.8573e-003
60638	12.548	2.35	0.	5.535e-003
60639	12.548	2.4	5.e-002	4.5435
60640	12.698	2.4	0.	4.3993e-003
60641	12.648	2.35	0.	4.9781e-003
60642	12.648	2.4	5.e-002	4.472
60643	12.797	2.4	0.	4.0442e-003
60644	12.747	2.35	0.	4.5434e-003
60645	12.747	2.4	5.e-002	4.4068
60646	12.897	2.4	0.	3.7726e-003
60647	12.847	2.35	0.	4.1994e-003
60648	12.847	2.4	5.e-002	4.3471
60649	12.996	2.4	0.	3.57e-003
60650	12.947	2.35	0.	3.9381e-003
60651	12.947	2.4	5.e-002	4.2923
60652	13.096	2.4	0.	3.4184e-003
60653	13.046	2.35	0.	3.7384e-003
60654	13.046	2.4	5.e-002	4.242
60655	13.195	2.4	0.	3.3184e-003
60656	13.146	2.35	0.	3.5843e-003
60657	13.146	2.4	5.e-002	4.1954
60658	13.295	2.4	0.	3.2734e-003
60659	13.245	2.35	0.	3.4922e-003
60660	13.245	2.4	5.e-002	4.1523
60661	13.395	2.4	0.	3.2655e-003
60662	13.345	2.35	0.	3.4529e-003
60663	13.345	2.4	5.e-002	4.1124
60664	13.494	2.4	0.	3.2809e-003
60665	13.444	2.35	0.	3.4383e-003
60666	13.444	2.4	5.e-002	4.0753
60667	13.594	2.4	0.	3.318e-003
60668	13.544	2.35	0.	3.4481e-003
60669	13.544	2.4	5.e-002	4.0407
60670	13.693	2.4	0.	3.3739e-003
60671	13.644	2.35	0.	3.4815e-003
60672	13.644	2.4	5.e-002	4.0083
60673	13.793	2.4	0.	3.4511e-003
60674	13.743	2.35	0.	3.5319e-003
60675	13.743	2.4	5.e-002	3.978
60676	13.893	2.4	0.	3.5508e-003
60677	13.843	2.35	0.	3.6103e-003
60678	13.843	2.4	5.e-002	3.9495
60679	13.992	2.4	0.	3.6509e-003
60680	13.942	2.35	0.	3.708e-003
60681	13.942	2.4	5.e-002	3.9226
60682	14.092	2.4	0.	3.7477e-003
60683	14.042	2.35	0.	3.7886e-003
60684	14.042	2.4	5.e-002	3.8973
60685	14.191	2.4	0.	3.8601e-003
60686	14.142	2.35	0.	3.8826e-003
60687	14.142	2.4	5.e-002	3.8732
60688	14.291	2.4	0.	3.9829e-003
60689	14.241	2.35	0.	3.9958e-003
60690	14.241	2.4	5.e-002	3.8504
60691	14.39	2.4	0.	4.1094e-003
60692	14.341	2.35	0.	4.1121e-003
60693	14.341	2.4	5.e-002	3.8287
60694	14.49	2.4	0.	4.2389e-003
60695	14.44	2.35	0.	4.2345e-003
60696	14.44	2.4	5.e-002	3.8079
60697	14.59	2.4	0.	4.3649e-003
60698	14.54	2.35	0.	4.3579e-003
60699	14.54	2.4	5.e-002	3.7881
60700	14.689	2.4	0.	4.4956e-003
60701	14.639	2.35	0.	4.4761e-003
60702	14.639	2.4	5.e-002	3.7691
60703	14.789	2.4	0.	4.6394e-003
60704	14.739	2.35	0.	4.6098e-003
60705	14.739	2.4	5.e-002	3.7508
60706	14.888	2.4	0.	4.7856e-003
60707	14.839	2.35	0.	4.7554e-003
60708	14.839	2.4	5.e-002	3.7333
60709	14.988	2.4	0.	4.9293e-003
60710	14.938	2.35	0.	4.8953e-003
60711	14.938	2.4	5.e-002	3.7165
60712	15.088	2.4	0.	5.0729e-003
60713	15.038	2.35	0.	5.0365e-003
60714	15.038	2.4	5.e-002	3.7002
60715	15.187	2.4	0.	5.2219e-003
60716	15.137	2.35	0.	5.1776e-003
60717	15.137	2.4	5.e-002	3.6845
60718	15.287	2.4	0.	5.3809e-003
60719	15.237	2.35	0.	5.3314e-003
60720	15.237	2.4	5.e-002	3.6694
60721	15.386	2.4	0.	5.5325e-003
60722	15.336	2.35	0.	5.4941e-003
60723	15.336	2.4	5.e-002	3.6547
60724	15.486	2.4	0.	5.6786e-003
60725	15.436	2.35	0.	5.6345e-003
60726	15.436	2.4	5.e-002	3.6405
60727	15.585	2.4	0.	5.8363e-003
60728	15.536	2.35	0.	5.7892e-003
60729	15.536	2.4	5.e-002	3.6267
60730	15.685	2.4	0.	6.0042e-003
60731	15.635	2.35	0.	5.956e-003
60732	15.635	2.4	5.e-002	3.6133
60733	15.785	2.4	0.	6.1828e-003
60734	15.735	2.35	0.	6.1336e-003
60735	15.735	2.4	5.e-002	3.6002
60736	15.884	2.4	0.	6.3746e-003
60737	15.834	2.35	0.	6.3275e-003
60738	15.834	2.4	5.e-002	3.5875
60739	15.984	2.4	0.	6.5833e-003
60740	15.934	2.35	0.	6.5408e-003
60741	15.934	2.4	5.e-002	3.5752
60742	16.083	2.4	0.	6.8325e-003
60743	16.034	2.35	0.	6.7812e-003
60744	16.034	2.4	5.e-002	3.5631
60745	16.183	2.4	0.	7.1633e-003
60746	16.133	2.35	0.	7.0996e-003
60747	16.133	2.4	5.e-002	3.5513
60748	16.282	2.4	0.	7.6566e-003
60749	16.233	2.35	0.	7.5604e-003
60750	16.233	2.4	5.e-002	3.5398
60751	16.382	2.4	0.	8.6447e-003
60752	16.332	2.35	0.	8.372e-003
60753	16.332	2.4	5.e-002	3.5286
60754	16.482	2.4	0.	1.3594e-002
60755	16.432	2.35	0.	1.0841e-002
60756	16.432	2.4	5.e-002	3.5176
60757	16.581	2.4	0.	0.70012
60758	16.531	2.35	0.	0.24746
60759	16.531	2.4	5.e-002	3.5069
60760	16.681	2.4	0.	1.8715
60761	16.631	2.35	0.	1.4091
60762	16.631	2.4	5.e-002	3.4964
60763	16.78	2.4	0.	3.0237
60764	16.731	2.35	0.	2.5612
60765	16.731	2.4	5.e-002	3.4862
60766	16.88	2.4	0.	4.1569
60767	16.83	2.35	0.	3.6938
60768	16.83	2.4	5.e-002	3.4763
60769	16.98	2.4	0.	5.273
60770	16.93	2.35	0.	4.8084
60771	16.93	2.4	5.e-002	3.4665
60772	17.079	2.4	0.	6.374
60773	17.029	2.35	0.	5.9072
60774	17.029	2.4	5.e-002	3.457
60775	17.179	2.4	0.	7.462
60776	17.129	2.35	0.	6.9922
60777	17.129	2.4	5.e-002	3.4476
60778	17.278	2.4	0.	8.5392
60779	17.229	2.35	0.	8.0653
60780	17.229	2.4	5.e-002	3.4384
60781	17.378	2.4	0.	9.6075
60782	17.328	2.35	0.	9.1288
60783	17.328	2.4	5.e-002	3.4295
60784	17.477	2.4	0.	10.669
60785	17.428	2.35	0.	10.184
60786	17.428	2.4	5.e-002	3.4207
60787	17.577	2.4	0.	11.726
60788	17.527	2.35	0.	11.234
60789	17.527	2.4	5.e-002	3.4121
60790	17.677	2.4	0.	12.78
60791	17.627	2.35	0.	12.281
60792	17.627	2.4	5.e-002	3.4038
60793	17.776	2.4	0.	13.833
60794	17.726	2.35	0.	13.325
60795	17.726	2.4	5.e-002	3.3956
60796	17.876	2.4	0.	14.887
60797	17.826	2.35	0.	14.37
60798	17.826	2.4	5.e-002	3.3876
60799	17.975	2.4	0.	15.945
60800	17.926	2.35	0.	15.416
60801	17.926	2.4	5.e-002	3.3798
60802	18.075	2.4	0.	17.007
60803	18.025	2.35	0.	16.467
60804	18.025	2.4	5.e-002	3.3723
60805	18.175	2.4	0.	18.077
60806	18.125	2.35	0.	17.524
60807	18.125	2.4	5.e-002	3.3649
60808	18.274	2.4	0.	19.156
60809	18.224	2.35	0.	18.589
60810	18.224	2.4	5.e-002	3.3577
60811	18.374	2.4	0.	20.246
60812	18.324	2.35	0.	19.664
60813	18.324	2.4	5.e-002	3.3508
60814	18.473	2.4	0.	21.35
60815	18.423	2.35	0.	20.751
60816	18.423	2.4	5.e-002	3.344
60817	18.573	2.4	0.	22.469
60818	18.523	2.35	0.	21.852
60819	18.523	2.4	5.e-002	3.3374
60820	18.672	2.4	0.	23.605
60821	18.623	2.35	0.	22.97
60822	18.623	2.4	5.e-002	3.331
60823	18.772	2.4	0.	24.76
60824	18.722	2.35	0.	24.105
60825	18.722	2.4	5.e-002	3.3248
60826	18.872	2.4	0.	25.937
60827	18.822	2.35	0.	25.261
60828	18.822	2.4	5.e-002	3.3189
60829	18.971	2.4	0.	27.138
60830	18.921	2.35	0.	26.439
60831	18.921	2.4	5.e-002	3.3132
60832	19.071	2.4	0.	28.365
60833	19.021	2.35	0.	27.642
60834	19.021	2.4	5.e-002	3.3076
60835	19.17	2.4	0.	29.62
60836	19.121	2.35	0.	28.871
60837	19.121	2.4	5.e-002	3.3023
60838	19.27	2.4	0.	30.906
60839	19.22	2.35	0.	30.13
60840	19.22	2.4	5.e-002	3.2973
60841	19.369	2.4	0.	32.224
60842	19.32	2.35	0.	31.42
60843	19.32	2.4	5.e-002	3.2925
60844	19.469	2.4	0.	33.578
60845	19.419	2.35	0.	32.744
60846	19.419	2.4	5.e-002	3.288
60847	19.569	2.4	0.	34.97
60848	19.519	2.35	0.	34.103
60849	19.519	2.4	5.e-002	3.2837
60850	19.668	2.4	0.	36.401
60851	19.618	2.35	0.	35.502
60852	19.618	2.4	5.e-002	3.2797
60853	19.768	2.4	0.	37.876
60854	19.718	2.35	0.	36.941
60855	19.718	2.4	5.e-002	3.276
60856	19.867	2.4	0.	39.396
60857	19.818	2.35	0.	38.424
60858	19.818	2.4	5.e-002	3.2726
60859	19.967	2.4	0.	40.965
60860	19.917	2.35	0.	39.953
60861	19.917	2.4	5.e-002	3.2695
60862	20.067	2.4	0.	42.584
60863	20.017	2.35	0.	41.532
60864	20.017	2.4	5.e-002	3.2667
60865	20.166	2.4	0.	44.257
60866	20.116	2.35	0.	43.162
60867	20.116	2.4	5.e-002	3.2642
60868	20.266	2.4	0.	45.987
60869	20.216	2.35	0.	44.847
60870	20.216	2.4	5.e-002	3.2621
60871	20.365	2.4	0.	47.777
60872	20.316	2.35	0.	46.59
60873	20.316	2.4	5.e-002	3.2603
60874	20.465	2.4	0.	49.629
60875	20.415	2.35	0.	48.393
60876	20.415	2.4	5.e-002	3.2589
60877	20.564	2.4	0.	51.548
60878	20.515	2.35	0.	50.261
60879	20.515	2.4	5.e-002	3.2579
60880	20.664	2.4	0.	53.535
60881	20.614	2.35	0.	52.195
60882	20.614	2.4	5.e-002	3.2573
60883	20.764	2.4	0.	55.596
60884	20.714	2.35	0.	54.199
60885	20.714	2.4	5.e-002	3.2571
60886	20.863	2.4	0.	57.732
60887	20.813	2.35	0.	56.277
60888	20.813	2.4	5.e-002	3.2575
60889	20.963	2.4	0.	59.947
60890	20.913	2.35	0.	58.432
60891	20.913	2.4	5.e-002	3.2582
60892	21.062	2.4	0.	62.246
60893	21.013	2.35	0.	60.667
60894	21.013	2.4	5.e-002	3.2595
60895	21.162	2.4	0.	64.63
60896	21.112	2.35	0.	62.987
60897	21.112	2.4	5.e-002	3.2614
60898	21.262	2.4	0.	67.105
60899	21.212	2.35	0.	65.394
60900	21.212	2.4	5.e-002	3.2638
60901	21.361	2.4	0.	69.674
60902	21.311	2.35	0.	67.892
60903	21.311	2.4	5.e-002	3.2667
60904	21.461	2.4	0.	72.34
60905	21.411	2.35	0.	70.486
60906	21.411	2.4	5.e-002	3.2704
60907	21.56	2.4	0.	75.107
60908	21.51	2.35	0.	73.178
60909	21.51	2.4	5.e-002	3.2746
60910	21.66	2.4	0.	77.979
60911	21.61	2.35	0.	75.974
60912	21.61	2.4	5.e-002	3.2795
60913	21.759	2.4	0.	80.96
60914	21.71	2.35	0.	78.875
60915	21.71	2.4	5.e-002	3.2852
60916	21.859	2.4	0.	84.054
60917	21.809	2.35	0.	81.887
60918	21.809	2.4	5.e-002	3.2916
60919	21.959	2.4	0.	87.263
60920	21.909	2.35	0.	85.013
60921	21.909	2.4	5.e-002	3.2987
60922	22.058	2.4	0.	90.592
60923	22.008	2.35	0.	88.257
60924	22.008	2.4	5.e-002	3.3068
60925	22.158	2.4	0.	94.045
60926	22.108	2.35	0.	91.623
60927	22.108	2.4	5.e-002	3.3157
60928	22.257	2.4	0.	97.623
60929	22.208	2.35	0.	95.113
60930	22.208	2.4	5.e-002	3.3255
60931	22.357	2.4	0.	101.33
60932	22.307	2.35	0.	98.732
60933	22.307	2.4	5.e-002	3.3362
60934	22.456	2.4	0.	105.17
60935	22.407	2.35	0.	102.48
60936	22.407	2.4	5.e-002	3.3479
60937	22.556	2.4	0.	109.15
60938	22.506	2.35	0.	106.37
60939	22.506	2.4	5.e-002	3.3607
60940	22.656	2.4	0.	113.26
60941	22.606	2.35	0.	110.39
60942	22.606	2.4	5.e-002	3.3745
60943	22.755	2.4	0.	117.51
60944	22.705	2.35	0.	114.55
60945	22.705	2.4	5.e-002	3.3893
60946	22.855	2.4	0.	121.91
60947	22.805	2.35	0.	118.85
60948	22.805	2.4	5.e-002	3.4053
60949	22.954	2.4	0.	126.44
60950	22.905	2.35	0.	123.3
60951	22.905	2.4	5.e-002	3.4224
60952	23.054	2.4	0.	131.12
60953	23.004	2.35	0.	127.89
60954	23.004	2.4	5.e-002	3.4406
60955	23.154	2.4	0.	135.95
60956	23.104	2.35	0.	132.63
60957	23.104	2.4	5.e-002	3.4599
60958	23.253	2.4	0.	140.91
60959	23.203	2.35	0.	137.51
60960	23.203	2.4	5.e-002	3.4803
60961	23.353	2.4	0.	146.02
60962	23.303	2.35	0.	142.54
60963	23.303	2.4	5.e-002	3.5017
60964	23.452	2.4	0.	151.27
60965	23.403	2.35	0.	147.71
60966	23.403	2.4	5.e-002	3.5242
60967	23.552	2.4	0.	156.66
60968	23.502	2.35	0.	153.02
60969	23.502	2.4	5.e-002	3.5477
60970	23.651	2.4	0.	162.19
60971	23.602	2.35	0.	158.48
60972	23.602	2.4	5.e-002	3.5721
60973	23.751	2.4	0.	167.86
60974	23.701	2.35	0.	164.07
60975	23.701	2.4	5.e-002	3.5975
60976	23.851	2.4	0.	173.66
60977	23.801	2.35	0.	169.81
60978	23.801	2.4	5.e-002	3.6229
60979	23.9	2.35	0.	175.65
60980	23.9	2.4	5.e-002	3.6611
60981	23.95	2.4	0.	179.61
60982	8.316	2.3	0.	952.07
60983	8.2662	2.25	0.	1146.5
60984	8.2662	2.3	5.e-002	170.19
60985	8.4156	2.3	0.	685.72
60986	8.3658	2.25	0.	840.35
60987	8.3658	2.3	5.e-002	148.75
60988	8.5152	2.3	0.	445.97
60989	8.4654	2.25	0.	560.29
60990	8.4654	2.3	5.e-002	118.34
60991	8.6148	2.3	0.	256.64
60992	8.565	2.25	0.	342.93
60993	8.565	2.3	5.e-002	92.752
60994	8.7144	2.3	0.	112.88
60995	8.6646	2.25	0.	180.87
60996	8.6646	2.3	5.e-002	74.158
60997	8.8139	2.3	0.	12.02
60998	8.7642	2.25	0.	60.754
60999	8.7642	2.3	5.e-002	60.975
61000	8.9135	2.3	0.	3.0039
61001	8.8637	2.25	0.	6.489
61002	8.8637	2.3	5.e-002	51.357
61003	9.0131	2.3	0.	2.0734
61004	8.9633	2.25	0.	3.0921
61005	8.9633	2.3	5.e-002	44.095
61006	9.1127	2.3	0.	1.5794
61007	9.0629	2.25	0.	2.1088
61008	9.0629	2.3	5.e-002	38.417
61009	9.2123	2.3	0.	1.2521
61010	9.1625	2.25	0.	1.5794
61011	9.1625	2.3	5.e-002	33.843
61012	9.3118	2.3	0.	1.0166
61013	9.2621	2.25	0.	1.2372
61014	9.2621	2.3	5.e-002	30.069
61015	9.4114	2.3	0.	0.83845
61016	9.3616	2.25	0.	0.99599
61017	9.3616	2.3	5.e-002	26.895
61018	9.511	2.3	0.	0.69904
61019	9.4612	2.25	0.	0.81627
61020	9.4612	2.3	5.e-002	24.185
61021	9.6106	2.3	0.	0.58717
61022	9.5608	2.25	0.	0.67727
61023	9.5608	2.3	5.e-002	21.847
61024	9.7102	2.3	0.	0.49573
61025	9.6604	2.25	0.	0.56674
61026	9.6604	2.3	5.e-002	19.811
61027	9.8097	2.3	0.	0.41997
61028	9.76	2.25	0.	0.47707
61029	9.76	2.3	5.e-002	18.029
61030	9.9093	2.3	0.	0.35662
61031	9.8595	2.25	0.	0.40325
61032	9.8595	2.3	5.e-002	16.461
61033	10.009	2.3	0.	0.30326
61034	9.9591	2.25	0.	0.34183
61035	9.9591	2.3	5.e-002	15.076
61036	10.108	2.3	0.	0.25811
61037	10.059	2.25	0.	0.2903
61038	10.059	2.3	5.e-002	13.851
61039	10.208	2.3	0.	0.21978
61040	10.158	2.25	0.	0.24685
61041	10.158	2.3	5.e-002	12.766
61042	10.308	2.3	0.	0.18719
61043	10.258	2.25	0.	0.21007
61044	10.258	2.3	5.e-002	11.802
61045	10.407	2.3	0.	0.15945
61046	10.357	2.25	0.	0.17887
61047	10.357	2.3	5.e-002	10.946
61048	10.507	2.3	0.	0.13581
61049	10.457	2.25	0.	0.15237
61050	10.457	2.3	5.e-002	10.185
61051	10.606	2.3	0.	0.11566
61052	10.557	2.25	0.	0.1298
61053	10.557	2.3	5.e-002	9.5087
61054	10.706	2.3	0.	9.8469e-002
61055	10.656	2.25	0.	0.11058
61056	10.656	2.3	5.e-002	8.907
61057	10.806	2.3	0.	8.3816e-002
61058	10.756	2.25	0.	9.4208e-002
61059	10.756	2.3	5.e-002	8.3716
61060	10.905	2.3	0.	7.1332e-002
61061	10.855	2.25	0.	8.0252e-002
61062	10.855	2.3	5.e-002	7.8952
61063	11.005	2.3	0.	6.0711e-002
61064	10.955	2.25	0.	6.8377e-002
61065	10.955	2.3	5.e-002	7.4712
61066	11.104	2.3	0.	5.1655e-002
61067	11.055	2.25	0.	5.8275e-002
61068	11.055	2.3	5.e-002	7.0938
61069	11.204	2.3	0.	4.3933e-002
61070	11.154	2.25	0.	4.9636e-002
61071	11.154	2.3	5.e-002	6.7576
61072	11.303	2.3	0.	3.7377e-002
61073	11.254	2.25	0.	4.2291e-002
61074	11.254	2.3	5.e-002	6.458
61075	11.403	2.3	0.	3.1814e-002
61076	11.353	2.25	0.	3.6059e-002
61077	11.353	2.3	5.e-002	6.1909
61078	11.503	2.3	0.	2.7093e-002
61079	11.453	2.25	0.	3.076e-002
61080	11.453	2.3	5.e-002	5.9526
61081	11.602	2.3	0.	2.3091e-002
61082	11.552	2.25	0.	2.6265e-002
61083	11.552	2.3	5.e-002	5.7397
61084	11.702	2.3	0.	1.9697e-002
61085	11.652	2.25	0.	2.2449e-002
61086	11.652	2.3	5.e-002	5.5495
61087	11.801	2.3	0.	1.6832e-002
61088	11.752	2.25	0.	1.9208e-002
61089	11.752	2.3	5.e-002	5.3792
61090	11.901	2.3	0.	1.443e-002
61091	11.851	2.25	0.	1.6481e-002
61092	11.851	2.3	5.e-002	5.2266
61093	12.001	2.3	0.	1.2413e-002
61094	11.951	2.25	0.	1.4195e-002
61095	11.951	2.3	5.e-002	5.0895
61096	12.1	2.3	0.	1.0717e-002
61097	12.05	2.25	0.	1.2263e-002
61098	12.05	2.3	5.e-002	4.9664
61099	12.2	2.3	0.	9.2964e-003
61100	12.15	2.25	0.	1.0638e-002
61101	12.15	2.3	5.e-002	4.8555
61102	12.299	2.3	0.	8.1192e-003
61103	12.249	2.25	0.	9.2767e-003
61104	12.249	2.3	5.e-002	4.7553
61105	12.399	2.3	0.	7.1544e-003
61106	12.349	2.25	0.	8.1545e-003
61107	12.349	2.3	5.e-002	4.6648
61108	12.498	2.3	0.	6.3498e-003
61109	12.449	2.25	0.	7.2315e-003
61110	12.449	2.3	5.e-002	4.5827
61111	12.598	2.3	0.	5.6789e-003
61112	12.548	2.25	0.	6.4407e-003
61113	12.548	2.3	5.e-002	4.5081
61114	12.698	2.3	0.	5.1419e-003
61115	12.648	2.25	0.	5.7961e-003
61116	12.648	2.3	5.e-002	4.4402
61117	12.797	2.3	0.	4.7154e-003
61118	12.747	2.25	0.	5.2828e-003
61119	12.747	2.3	5.e-002	4.378
61120	12.897	2.3	0.	4.3791e-003
61121	12.847	2.25	0.	4.8675e-003
61122	12.847	2.3	5.e-002	4.3211
61123	12.996	2.3	0.	4.1186e-003
61124	12.947	2.25	0.	4.5419e-003
61125	12.947	2.3	5.e-002	4.2689
61126	13.096	2.3	0.	3.9144e-003
61127	13.046	2.25	0.	4.2844e-003
61128	13.046	2.3	5.e-002	4.2208
61129	13.195	2.3	0.	3.7667e-003
61130	13.146	2.25	0.	4.0782e-003
61131	13.146	2.3	5.e-002	4.1763
61132	13.295	2.3	0.	3.6789e-003
61133	13.245	2.25	0.	3.9383e-003
61134	13.245	2.3	5.e-002	4.1351
61135	13.395	2.3	0.	3.6318e-003
61136	13.345	2.25	0.	3.8564e-003
61137	13.345	2.3	5.e-002	4.0968
61138	13.494	2.3	0.	3.6106e-003
61139	13.444	2.25	0.	3.8027e-003
61140	13.444	2.3	5.e-002	4.0612
61141	13.594	2.3	0.	3.6157e-003
61142	13.544	2.25	0.	3.7771e-003
61143	13.544	2.3	5.e-002	4.028
61144	13.693	2.3	0.	3.6429e-003
61145	13.644	2.25	0.	3.7782e-003
61146	13.644	2.3	5.e-002	3.9968
61147	13.793	2.3	0.	3.6938e-003
61148	13.743	2.25	0.	3.7998e-003
61149	13.743	2.3	5.e-002	3.9675
61150	13.893	2.3	0.	3.7696e-003
61151	13.843	2.25	0.	3.8514e-003
61152	13.843	2.3	5.e-002	3.94
61153	13.992	2.3	0.	3.8472e-003
61154	13.942	2.25	0.	3.9254e-003
61155	13.942	2.3	5.e-002	3.9141
61156	14.092	2.3	0.	3.9245e-003
61157	14.042	2.25	0.	3.9838e-003
61158	14.042	2.3	5.e-002	3.8895
61159	14.191	2.3	0.	4.019e-003
61160	14.142	2.25	0.	4.058e-003
61161	14.142	2.3	5.e-002	3.8661
61162	14.291	2.3	0.	4.1254e-003
61163	14.241	2.25	0.	4.1535e-003
61164	14.241	2.3	5.e-002	3.8439
61165	14.39	2.3	0.	4.2373e-003
61166	14.341	2.25	0.	4.254e-003
61167	14.341	2.3	5.e-002	3.8227
61168	14.49	2.3	0.	4.3534e-003
61169	14.44	2.25	0.	4.3622e-003
61170	14.44	2.3	5.e-002	3.8025
61171	14.59	2.3	0.	4.4687e-003
61172	14.54	2.25	0.	4.4725e-003
61173	14.54	2.3	5.e-002	3.7831
61174	14.689	2.3	0.	4.5897e-003
61175	14.639	2.25	0.	4.5804e-003
61176	14.639	2.3	5.e-002	3.7645
61177	14.789	2.3	0.	4.7251e-003
61178	14.739	2.25	0.	4.7033e-003
61179	14.739	2.3	5.e-002	3.7466
61180	14.888	2.3	0.	4.8643e-003
61181	14.839	2.25	0.	4.8411e-003
61182	14.839	2.3	5.e-002	3.7294
61183	14.988	2.3	0.	5.0016e-003
61184	14.938	2.25	0.	4.9741e-003
61185	14.938	2.3	5.e-002	3.7129
61186	15.088	2.3	0.	5.1401e-003
61187	15.038	2.25	0.	5.1098e-003
61188	15.038	2.3	5.e-002	3.6969
61189	15.187	2.3	0.	5.286e-003
61190	15.137	2.25	0.	5.2468e-003
61191	15.137	2.3	5.e-002	3.6815
61192	15.287	2.3	0.	5.4434e-003
61193	15.237	2.25	0.	5.3986e-003
61194	15.237	2.3	5.e-002	3.6665
61195	15.386	2.3	0.	5.5948e-003
61196	15.336	2.25	0.	5.561e-003
61197	15.336	2.3	5.e-002	3.6521
61198	15.486	2.3	0.	5.7438e-003
61199	15.436	2.25	0.	5.7031e-003
61200	15.436	2.3	5.e-002	3.638
61201	15.585	2.3	0.	5.9075e-003
61202	15.536	2.25	0.	5.8631e-003
61203	15.536	2.3	5.e-002	3.6244
61204	15.685	2.3	0.	6.0838e-003
61205	15.635	2.25	0.	6.0384e-003
61206	15.635	2.3	5.e-002	3.6111
61207	15.785	2.3	0.	6.2763e-003
61208	15.735	2.25	0.	6.229e-003
61209	15.735	2.3	5.e-002	3.5982
61210	15.884	2.3	0.	6.4907e-003
61211	15.834	2.25	0.	6.4444e-003
61212	15.834	2.3	5.e-002	3.5856
61213	15.984	2.3	0.	6.7333e-003
61214	15.934	2.25	0.	6.6896e-003
61215	15.934	2.3	5.e-002	3.5733
61216	16.083	2.3	0.	7.0369e-003
61217	16.034	2.25	0.	6.981e-003
61218	16.034	2.3	5.e-002	3.5613
61219	16.183	2.3	0.	7.4666e-003
61220	16.133	2.25	0.	7.3867e-003
61221	16.133	2.3	5.e-002	3.5496
61222	16.282	2.3	0.	8.1689e-003
61223	16.233	2.25	0.	8.0221e-003
61224	16.233	2.3	5.e-002	3.5382
61225	16.382	2.3	0.	9.8146e-003
61226	16.332	2.25	0.	9.29e-003
61227	16.332	2.3	5.e-002	3.527
61228	16.482	2.3	0.	2.5359e-002
61229	16.432	2.25	0.	1.4511e-002
61230	16.432	2.3	5.e-002	3.5161
61231	16.581	2.3	0.	0.95437
61232	16.531	2.25	0.	0.52478
61233	16.531	2.3	5.e-002	3.5055
61234	16.681	2.3	0.	2.1064
61235	16.631	2.25	0.	1.6719
61236	16.631	2.3	5.e-002	3.4951
61237	16.78	2.3	0.	3.2392
61238	16.731	2.25	0.	2.803
61239	16.731	2.3	5.e-002	3.4849
61240	16.88	2.3	0.	4.3535
61241	16.83	2.25	0.	3.9151
61242	16.83	2.3	5.e-002	3.475
61243	16.98	2.3	0.	5.451
61244	16.93	2.25	0.	5.0098
61245	16.93	2.3	5.e-002	3.4653
61246	17.079	2.3	0.	6.5339
61247	17.029	2.25	0.	6.0889
61248	17.029	2.3	5.e-002	3.4557
61249	17.179	2.3	0.	7.6041
61250	17.129	2.25	0.	7.1546
61251	17.129	2.3	5.e-002	3.4464
61252	17.278	2.3	0.	8.6636
61253	17.229	2.25	0.	8.2088
61254	17.229	2.3	5.e-002	3.4373
61255	17.378	2.3	0.	9.7145
61256	17.328	2.25	0.	9.2535
61257	17.328	2.3	5.e-002	3.4283
61258	17.477	2.3	0.	10.759
61259	17.428	2.25	0.	10.291
61260	17.428	2.3	5.e-002	3.4196
61261	17.577	2.3	0.	11.798
61262	17.527	2.25	0.	11.322
61263	17.527	2.3	5.e-002	3.411
61264	17.677	2.3	0.	12.835
61265	17.627	2.25	0.	12.35
61266	17.627	2.3	5.e-002	3.4026
61267	17.776	2.3	0.	13.871
61268	17.726	2.25	0.	13.376
61269	17.726	2.3	5.e-002	3.3945
61270	17.876	2.3	0.	14.908
61271	17.826	2.25	0.	14.402
61272	17.826	2.3	5.e-002	3.3865
61273	17.975	2.3	0.	15.948
61274	17.926	2.25	0.	15.43
61275	17.926	2.3	5.e-002	3.3788
61276	18.075	2.3	0.	16.994
61277	18.025	2.25	0.	16.463
61278	18.025	2.3	5.e-002	3.3712
61279	18.175	2.3	0.	18.046
61280	18.125	2.25	0.	17.501
61281	18.125	2.3	5.e-002	3.3638
61282	18.274	2.3	0.	19.107
61283	18.224	2.25	0.	18.547
61284	18.224	2.3	5.e-002	3.3566
61285	18.374	2.3	0.	20.179
61286	18.324	2.25	0.	19.602
61287	18.324	2.3	5.e-002	3.3497
61288	18.473	2.3	0.	21.264
61289	18.423	2.25	0.	20.67
61290	18.423	2.3	5.e-002	3.3429
61291	18.573	2.3	0.	22.364
61292	18.523	2.25	0.	21.751
61293	18.523	2.3	5.e-002	3.3363
61294	18.672	2.3	0.	23.48
61295	18.623	2.25	0.	22.848
61296	18.623	2.3	5.e-002	3.3299
61297	18.772	2.3	0.	24.616
61298	18.722	2.25	0.	23.962
61299	18.722	2.3	5.e-002	3.3237
61300	18.872	2.3	0.	25.773
61301	18.822	2.25	0.	25.097
61302	18.822	2.3	5.e-002	3.3177
61303	18.971	2.3	0.	26.953
61304	18.921	2.25	0.	26.253
61305	18.921	2.3	5.e-002	3.3119
61306	19.071	2.3	0.	28.158
61307	19.021	2.25	0.	27.433
61308	19.021	2.3	5.e-002	3.3064
61309	19.17	2.3	0.	29.392
61310	19.121	2.25	0.	28.639
61311	19.121	2.3	5.e-002	3.3011
61312	19.27	2.3	0.	30.654
61313	19.22	2.25	0.	29.874
61314	19.22	2.3	5.e-002	3.296
61315	19.369	2.3	0.	31.95
61316	19.32	2.25	0.	31.139
61317	19.32	2.3	5.e-002	3.2912
61318	19.469	2.3	0.	33.279
61319	19.419	2.25	0.	32.437
61320	19.419	2.3	5.e-002	3.2866
61321	19.569	2.3	0.	34.646
61322	19.519	2.25	0.	33.771
61323	19.519	2.3	5.e-002	3.2823
61324	19.668	2.3	0.	36.052
61325	19.618	2.25	0.	35.142
61326	19.618	2.3	5.e-002	3.2782
61327	19.768	2.3	0.	37.499
61328	19.718	2.25	0.	36.553
61329	19.718	2.3	5.e-002	3.2745
61330	19.867	2.3	0.	38.992
61331	19.818	2.25	0.	38.006
61332	19.818	2.3	5.e-002	3.271
61333	19.967	2.3	0.	40.531
61334	19.917	2.25	0.	39.506
61335	19.917	2.3	5.e-002	3.2678
61336	20.067	2.3	0.	42.121
61337	20.017	2.25	0.	41.053
61338	20.017	2.3	5.e-002	3.265
61339	20.166	2.3	0.	43.763
61340	20.116	2.25	0.	42.65
61341	20.116	2.3	5.e-002	3.2624
61342	20.266	2.3	0.	45.461
61343	20.216	2.25	0.	44.301
61344	20.216	2.3	5.e-002	3.2602
61345	20.365	2.3	0.	47.217
61346	20.316	2.25	0.	46.009
61347	20.316	2.3	5.e-002	3.2584
61348	20.465	2.3	0.	49.035
61349	20.415	2.25	0.	47.776
61350	20.415	2.3	5.e-002	3.2569
61351	20.564	2.3	0.	50.918
61352	20.515	2.25	0.	49.605
61353	20.515	2.3	5.e-002	3.2558
61354	20.664	2.3	0.	52.869
61355	20.614	2.25	0.	51.501
61356	20.614	2.3	5.e-002	3.2551
61357	20.764	2.3	0.	54.891
61358	20.714	2.25	0.	53.465
61359	20.714	2.3	5.e-002	3.2549
61360	20.863	2.3	0.	56.987
61361	20.813	2.25	0.	55.501
61362	20.813	2.3	5.e-002	3.2551
61363	20.963	2.3	0.	59.162
61364	20.913	2.25	0.	57.613
61365	20.913	2.3	5.e-002	3.2558
61366	21.062	2.3	0.	61.418
61367	21.013	2.25	0.	59.803
61368	21.013	2.3	5.e-002	3.257
61369	21.162	2.3	0.	63.76
61370	21.112	2.25	0.	62.077
61371	21.112	2.3	5.e-002	3.2587
61372	21.262	2.3	0.	66.191
61373	21.212	2.25	0.	64.437
61374	21.212	2.3	5.e-002	3.261
61375	21.361	2.3	0.	68.714
61376	21.311	2.25	0.	66.887
61377	21.311	2.3	5.e-002	3.2639
61378	21.461	2.3	0.	71.334
61379	21.411	2.25	0.	69.432
61380	21.411	2.3	5.e-002	3.2674
61381	21.56	2.3	0.	74.054
61382	21.51	2.25	0.	72.074
61383	21.51	2.3	5.e-002	3.2715
61384	21.66	2.3	0.	76.878
61385	21.61	2.25	0.	74.817
61386	21.61	2.3	5.e-002	3.2763
61387	21.759	2.3	0.	79.811
61388	21.71	2.25	0.	77.667
61389	21.71	2.3	5.e-002	3.2818
61390	21.859	2.3	0.	82.855
61391	21.809	2.25	0.	80.626
61392	21.809	2.3	5.e-002	3.2881
61393	21.959	2.3	0.	86.015
61394	21.909	2.25	0.	83.699
61395	21.909	2.3	5.e-002	3.2951
61396	22.058	2.3	0.	89.295
61397	22.008	2.25	0.	86.89
61398	22.008	2.3	5.e-002	3.303
61399	22.158	2.3	0.	92.699
61400	22.108	2.25	0.	90.202
61401	22.108	2.3	5.e-002	3.3118
61402	22.257	2.3	0.	96.229
61403	22.208	2.25	0.	93.64
61404	22.208	2.3	5.e-002	3.3215
61405	22.357	2.3	0.	99.89
61406	22.307	2.25	0.	97.206
61407	22.307	2.3	5.e-002	3.3322
61408	22.456	2.3	0.	103.68
61409	22.407	2.25	0.	100.91
61410	22.407	2.3	5.e-002	3.3439
61411	22.556	2.3	0.	107.62
61412	22.506	2.25	0.	104.74
61413	22.506	2.3	5.e-002	3.3565
61414	22.656	2.3	0.	111.69
61415	22.606	2.25	0.	108.72
61416	22.606	2.3	5.e-002	3.3703
61417	22.755	2.3	0.	115.9
61418	22.705	2.25	0.	112.83
61419	22.705	2.3	5.e-002	3.3852
61420	22.855	2.3	0.	120.25
61421	22.805	2.25	0.	117.09
61422	22.805	2.3	5.e-002	3.4013
61423	22.954	2.3	0.	124.75
61424	22.905	2.25	0.	121.5
61425	22.905	2.3	5.e-002	3.4184
61426	23.054	2.3	0.	129.4
61427	23.004	2.25	0.	126.05
61428	23.004	2.3	5.e-002	3.4368
61429	23.154	2.3	0.	134.2
61430	23.104	2.25	0.	130.75
61431	23.104	2.3	5.e-002	3.4563
61432	23.253	2.3	0.	139.14
61433	23.203	2.25	0.	135.61
61434	23.203	2.3	5.e-002	3.477
61435	23.353	2.3	0.	144.22
61436	23.303	2.25	0.	140.61
61437	23.303	2.3	5.e-002	3.4988
61438	23.452	2.3	0.	149.46
61439	23.403	2.25	0.	145.76
61440	23.403	2.3	5.e-002	3.5217
61441	23.552	2.3	0.	154.83
61442	23.502	2.25	0.	151.05
61443	23.502	2.3	5.e-002	3.5456
61444	23.651	2.3	0.	160.35
61445	23.602	2.25	0.	156.49
61446	23.602	2.3	5.e-002	3.5705
61447	23.751	2.3	0.	166.02
61448	23.701	2.25	0.	162.08
61449	23.701	2.3	5.e-002	3.5965
61450	23.851	2.3	0.	171.81
61451	23.801	2.25	0.	167.82
61452	23.801	2.3	5.e-002	3.6225
61453	23.9	2.25	0.	173.65
61454	23.9	2.3	5.e-002	3.6633
61455	23.95	2.3	0.	177.73
61456	8.316	2.2	0.	1040.5
61457	8.2662	2.15	0.	1405.
61458	8.2662	2.2	5.e-002	279.25
61459	8.4156	2.2	0.	729.36
61460	8.3658	2.15	0.	995.79
61461	8.3658	2.2	5.e-002	206.96
61462	8.5152	2.2	0.	467.27
61463	8.4654	2.15	0.	635.8
61464	8.4654	2.2	5.e-002	144.37
61465	8.6148	2.2	0.	272.64
61466	8.565	2.15	0.	395.
61467	8.565	2.2	5.e-002	102.95
61468	8.7144	2.2	0.	130.56
61469	8.6646	2.15	0.	222.44
61470	8.6646	2.2	5.e-002	78.744
61471	8.8139	2.2	0.	31.468
61472	8.7642	2.15	0.	97.869
61473	8.7642	2.2	5.e-002	62.945
61474	8.9135	2.2	0.	5.92
61475	8.8637	2.15	0.	20.845
61476	8.8637	2.2	5.e-002	52.071
61477	9.0131	2.2	0.	3.1753
61478	8.9633	2.15	0.	5.9071
61479	8.9633	2.2	5.e-002	44.146
61480	9.1127	2.2	0.	2.153
61481	9.0629	2.15	0.	3.2504
61482	9.0629	2.2	5.e-002	38.114
61483	9.2123	2.2	0.	1.5937
61484	9.1625	2.15	0.	2.1819
61485	9.1625	2.2	5.e-002	33.355
61486	9.3118	2.2	0.	1.2362
61487	9.2621	2.15	0.	1.5972
61488	9.2621	2.2	5.e-002	29.493
61489	9.4114	2.2	0.	0.98736
61490	9.3616	2.15	0.	1.2281
61491	9.3616	2.2	5.e-002	26.287
61492	9.511	2.2	0.	0.80423
61493	9.4612	2.15	0.	0.97415
61494	9.4612	2.2	5.e-002	23.579
61495	9.6106	2.2	0.	0.66403
61496	9.5608	2.15	0.	0.78908
61497	9.5608	2.2	5.e-002	21.261
61498	9.7102	2.2	0.	0.55353
61499	9.6604	2.15	0.	0.64856
61500	9.6604	2.2	5.e-002	19.257
61501	9.8097	2.2	0.	0.46454
61502	9.76	2.15	0.	0.53861
61503	9.76	2.2	5.e-002	17.511
61504	9.9093	2.2	0.	0.39174
61505	9.8595	2.15	0.	0.45064
61506	9.8595	2.2	5.e-002	15.981
61507	10.009	2.2	0.	0.33146
61508	9.9591	2.15	0.	0.37906
61509	9.9591	2.2	5.e-002	14.634
61510	10.108	2.2	0.	0.28112
61511	10.059	2.15	0.	0.32007
61512	10.059	2.2	5.e-002	13.444
61513	10.208	2.2	0.	0.23881
61514	10.158	2.15	0.	0.27102
61515	10.158	2.2	5.e-002	12.392
61516	10.308	2.2	0.	0.20311
61517	10.258	2.15	0.	0.22994
61518	10.258	2.2	5.e-002	11.459
61519	10.407	2.2	0.	0.1729
61520	10.357	2.15	0.	0.19539
61521	10.357	2.2	5.e-002	10.632
61522	10.507	2.2	0.	0.14726
61523	10.457	2.15	0.	0.16623
61524	10.457	2.2	5.e-002	9.8972
61525	10.606	2.2	0.	0.12547
61526	10.557	2.15	0.	0.14153
61527	10.557	2.2	5.e-002	9.2447
61528	10.706	2.2	0.	0.10693
61529	10.656	2.15	0.	0.12057
61530	10.656	2.2	5.e-002	8.665
61531	10.806	2.2	0.	9.1147e-002
61532	10.756	2.15	0.	0.10277
61533	10.756	2.2	5.e-002	8.1498
61534	10.905	2.2	0.	7.7714e-002
61535	10.855	2.15	0.	8.7638e-002
61536	10.855	2.2	5.e-002	7.692
61537	11.005	2.2	0.	6.6287e-002
61538	10.955	2.15	0.	7.4777e-002
61539	10.955	2.2	5.e-002	7.2851
61540	11.104	2.2	0.	5.6544e-002
61541	11.055	2.15	0.	6.3844e-002
61542	11.055	2.2	5.e-002	6.9234
61543	11.204	2.2	0.	4.8235e-002
61544	11.154	2.15	0.	5.4503e-002
61545	11.154	2.2	5.e-002	6.6018
61546	11.303	2.2	0.	4.1173e-002
61547	11.254	2.15	0.	4.656e-002
61548	11.254	2.2	5.e-002	6.3156
61549	11.403	2.2	0.	3.5173e-002
61550	11.353	2.15	0.	3.9817e-002
61551	11.353	2.2	5.e-002	6.0609
61552	11.503	2.2	0.	3.0073e-002
61553	11.453	2.15	0.	3.4078e-002
61554	11.453	2.2	5.e-002	5.834
61555	11.602	2.2	0.	2.5741e-002
61556	11.552	2.15	0.	2.9205e-002
61557	11.552	2.2	5.e-002	5.6318
61558	11.702	2.2	0.	2.2059e-002
61559	11.652	2.15	0.	2.5059e-002
61560	11.652	2.2	5.e-002	5.4513
61561	11.801	2.2	0.	1.8941e-002
61562	11.752	2.15	0.	2.1532e-002
61563	11.752	2.2	5.e-002	5.29
61564	11.901	2.2	0.	1.6318e-002
61565	11.851	2.15	0.	1.8555e-002
61566	11.851	2.2	5.e-002	5.1456
61567	12.001	2.2	0.	1.4105e-002
61568	11.951	2.15	0.	1.605e-002
61569	11.951	2.2	5.e-002	5.0161
61570	12.1	2.2	0.	1.2236e-002
61571	12.05	2.15	0.	1.3926e-002
61572	12.05	2.2	5.e-002	4.8999
61573	12.2	2.2	0.	1.0662e-002
61574	12.15	2.15	0.	1.2131e-002
61575	12.15	2.2	5.e-002	4.7953
61576	12.299	2.2	0.	9.3488e-003
61577	12.249	2.15	0.	1.0618e-002
61578	12.249	2.2	5.e-002	4.7009
61579	12.399	2.2	0.	8.2629e-003
61580	12.349	2.15	0.	9.3622e-003
61581	12.349	2.2	5.e-002	4.6156
61582	12.498	2.2	0.	7.349e-003
61583	12.449	2.15	0.	8.3198e-003
61584	12.449	2.2	5.e-002	4.5383
61585	12.598	2.2	0.	6.5805e-003
61586	12.548	2.15	0.	7.4224e-003
61587	12.548	2.2	5.e-002	4.4681
61588	12.698	2.2	0.	5.9561e-003
61589	12.648	2.15	0.	6.6819e-003
61590	12.648	2.2	5.e-002	4.404
61591	12.797	2.2	0.	5.4512e-003
61592	12.747	2.15	0.	6.0832e-003
61593	12.747	2.2	5.e-002	4.3454
61594	12.897	2.2	0.	5.0441e-003
61595	12.847	2.15	0.	5.5909e-003
61596	12.847	2.2	5.e-002	4.2917
61597	12.996	2.2	0.	4.7195e-003
61598	12.947	2.15	0.	5.196e-003
61599	12.947	2.2	5.e-002	4.2424
61600	13.096	2.2	0.	4.458e-003
61601	13.046	2.15	0.	4.8753e-003
61602	13.046	2.2	5.e-002	4.1968
61603	13.195	2.2	0.	4.2581e-003
61604	13.146	2.15	0.	4.613e-003
61605	13.146	2.2	5.e-002	4.1547
61606	13.295	2.2	0.	4.1228e-003
61607	13.245	2.15	0.	4.4217e-003
61608	13.245	2.2	5.e-002	4.1156
61609	13.395	2.2	0.	4.0331e-003
61610	13.345	2.15	0.	4.2928e-003
61611	13.345	2.2	5.e-002	4.0792
61612	13.494	2.2	0.	3.974e-003
61613	13.444	2.15	0.	4.1971e-003
61614	13.444	2.2	5.e-002	4.0453
61615	13.594	2.2	0.	3.9434e-003
61616	13.544	2.15	0.	4.1332e-003
61617	13.544	2.2	5.e-002	4.0135
61618	13.693	2.2	0.	3.9382e-003
61619	13.644	2.15	0.	4.0995e-003
61620	13.644	2.2	5.e-002	3.9838
61621	13.793	2.2	0.	3.9598e-003
61622	13.743	2.15	0.	4.0896e-003
61623	13.743	2.2	5.e-002	3.9557
61624	13.893	2.2	0.	4.009e-003
61625	13.843	2.15	0.	4.1125e-003
61626	13.843	2.2	5.e-002	3.9293
61627	13.992	2.2	0.	4.0633e-003
61628	13.942	2.15	0.	4.1607e-003
61629	13.942	2.2	5.e-002	3.9043
61630	14.092	2.2	0.	4.1182e-003
61631	14.042	2.15	0.	4.1954e-003
61632	14.042	2.2	5.e-002	3.8806
61633	14.191	2.2	0.	4.193e-003
61634	14.142	2.15	0.	4.2481e-003
61635	14.142	2.2	5.e-002	3.8581
61636	14.291	2.2	0.	4.2823e-003
61637	14.241	2.15	0.	4.3246e-003
61638	14.241	2.2	5.e-002	3.8366
61639	14.39	2.2	0.	4.3788e-003
61640	14.341	2.15	0.	4.4078e-003
61641	14.341	2.2	5.e-002	3.816
61642	14.49	2.2	0.	4.4809e-003
61643	14.44	2.15	0.	4.5007e-003
61644	14.44	2.2	5.e-002	3.7963
61645	14.59	2.2	0.	4.5835e-003
61646	14.54	2.15	0.	4.5974e-003
61647	14.54	2.2	5.e-002	3.7775
61648	14.689	2.2	0.	4.6931e-003
61649	14.639	2.15	0.	4.6936e-003
61650	14.639	2.2	5.e-002	3.7593
61651	14.789	2.2	0.	4.8183e-003
61652	14.739	2.15	0.	4.8055e-003
61653	14.739	2.2	5.e-002	3.7419
61654	14.888	2.2	0.	4.9498e-003
61655	14.839	2.15	0.	4.9342e-003
61656	14.839	2.2	5.e-002	3.725
61657	14.988	2.2	0.	5.0811e-003
61658	14.938	2.15	0.	5.0609e-003
61659	14.938	2.2	5.e-002	3.7088
61660	15.088	2.2	0.	5.2151e-003
61661	15.038	2.15	0.	5.1909e-003
61662	15.038	2.2	5.e-002	3.6931
61663	15.187	2.2	0.	5.358e-003
61664	15.137	2.15	0.	5.3242e-003
61665	15.137	2.2	5.e-002	3.678
61666	15.287	2.2	0.	5.5146e-003
61667	15.237	2.15	0.	5.4748e-003
61668	15.237	2.2	5.e-002	3.6633
61669	15.386	2.2	0.	5.6676e-003
61670	15.336	2.15	0.	5.6378e-003
61671	15.336	2.2	5.e-002	3.649
61672	15.486	2.2	0.	5.8207e-003
61673	15.436	2.15	0.	5.7844e-003
61674	15.436	2.2	5.e-002	3.6352
61675	15.585	2.2	0.	5.992e-003
61676	15.536	2.15	0.	5.9512e-003
61677	15.536	2.2	5.e-002	3.6217
61678	15.685	2.2	0.	6.1812e-003
61679	15.635	2.15	0.	6.1382e-003
61680	15.635	2.2	5.e-002	3.6086
61681	15.785	2.2	0.	6.3939e-003
61682	15.735	2.15	0.	6.3491e-003
61683	15.735	2.2	5.e-002	3.5958
61684	15.884	2.2	0.	6.6382e-003
61685	15.834	2.15	0.	6.5916e-003
61686	15.834	2.2	5.e-002	3.5833
61687	15.984	2.2	0.	6.9281e-003
61688	15.934	2.15	0.	6.8814e-003
61689	15.934	2.2	5.e-002	3.5712
61690	16.083	2.2	0.	7.3111e-003
61691	16.034	2.15	0.	7.2461e-003
61692	16.034	2.2	5.e-002	3.5593
61693	16.183	2.2	0.	7.8888e-003
61694	16.133	2.15	0.	7.7822e-003
61695	16.133	2.2	5.e-002	3.5477
61696	16.282	2.2	0.	8.9361e-003
61697	16.233	2.15	0.	8.6958e-003
61698	16.233	2.2	5.e-002	3.5363
61699	16.382	2.2	0.	1.1937e-002
61700	16.332	2.15	0.	1.083e-002
61701	16.332	2.2	5.e-002	3.5253
61702	16.482	2.2	0.	0.13446
61703	16.432	2.15	0.	2.6344e-002
61704	16.432	2.2	5.e-002	3.5144
61705	16.581	2.2	0.	1.2465
61706	16.531	2.15	0.	0.84553
61707	16.531	2.2	5.e-002	3.5039
61708	16.681	2.2	0.	2.3763
61709	16.631	2.15	0.	1.9709
61710	16.631	2.2	5.e-002	3.4935
61711	16.78	2.2	0.	3.487
61712	16.731	2.15	0.	3.0784
61713	16.731	2.2	5.e-002	3.4834
61714	16.88	2.2	0.	4.5797
61715	16.83	2.15	0.	4.1674
61716	16.83	2.2	5.e-002	3.4735
61717	16.98	2.2	0.	5.6561
61718	16.93	2.15	0.	5.2394
61719	16.93	2.2	5.e-002	3.4638
61720	17.079	2.2	0.	6.7182
61721	17.029	2.15	0.	6.2964
61722	17.029	2.2	5.e-002	3.4543
61723	17.179	2.2	0.	7.768
61724	17.129	2.15	0.	7.3403
61725	17.129	2.2	5.e-002	3.445
61726	17.278	2.2	0.	8.8074
61727	17.229	2.15	0.	8.373
61728	17.229	2.2	5.e-002	3.4359
61729	17.378	2.2	0.	9.8384
61730	17.328	2.15	0.	9.3965
61731	17.328	2.2	5.e-002	3.427
61732	17.477	2.2	0.	10.863
61733	17.428	2.15	0.	10.413
61734	17.428	2.2	5.e-002	3.4183
61735	17.577	2.2	0.	11.883
61736	17.527	2.15	0.	11.423
61737	17.527	2.2	5.e-002	3.4097
61738	17.677	2.2	0.	12.9
61739	17.627	2.15	0.	12.43
61740	17.627	2.2	5.e-002	3.4014
61741	17.776	2.2	0.	13.916
61742	17.726	2.15	0.	13.435
61743	17.726	2.2	5.e-002	3.3932
61744	17.876	2.2	0.	14.934
61745	17.826	2.15	0.	14.441
61746	17.826	2.2	5.e-002	3.3853
61747	17.975	2.2	0.	15.954
61748	17.926	2.15	0.	15.448
61749	17.926	2.2	5.e-002	3.3775
61750	18.075	2.2	0.	16.979
61751	18.025	2.15	0.	16.459
61752	18.025	2.2	5.e-002	3.3699
61753	18.175	2.2	0.	18.011
61754	18.125	2.15	0.	17.476
61755	18.125	2.2	5.e-002	3.3625
61756	18.274	2.2	0.	19.052
61757	18.224	2.15	0.	18.5
61758	18.224	2.2	5.e-002	3.3554
61759	18.374	2.2	0.	20.103
61760	18.324	2.15	0.	19.534
61761	18.324	2.2	5.e-002	3.3484
61762	18.473	2.2	0.	21.167
61763	18.423	2.15	0.	20.579
61764	18.423	2.2	5.e-002	3.3416
61765	18.573	2.2	0.	22.245
61766	18.523	2.15	0.	21.638
61767	18.523	2.2	5.e-002	3.335
61768	18.672	2.2	0.	23.34
61769	18.623	2.15	0.	22.712
61770	18.623	2.2	5.e-002	3.3285
61771	18.772	2.2	0.	24.453
61772	18.722	2.15	0.	23.803
61773	18.722	2.2	5.e-002	3.3223
61774	18.872	2.2	0.	25.587
61775	18.822	2.15	0.	24.913
61776	18.822	2.2	5.e-002	3.3163
61777	18.971	2.2	0.	26.743
61778	18.921	2.15	0.	26.044
61779	18.921	2.2	5.e-002	3.3105
61780	19.071	2.2	0.	27.924
61781	19.021	2.15	0.	27.199
61782	19.021	2.2	5.e-002	3.3049
61783	19.17	2.2	0.	29.132
61784	19.121	2.15	0.	28.379
61785	19.121	2.2	5.e-002	3.2996
61786	19.27	2.2	0.	30.369
61787	19.22	2.15	0.	29.586
61788	19.22	2.2	5.e-002	3.2945
61789	19.369	2.2	0.	31.637
61790	19.32	2.15	0.	30.823
61791	19.32	2.2	5.e-002	3.2896
61792	19.469	2.2	0.	32.939
61793	19.419	2.15	0.	32.093
61794	19.419	2.2	5.e-002	3.285
61795	19.569	2.2	0.	34.277
61796	19.519	2.15	0.	33.396
61797	19.519	2.2	5.e-002	3.2806
61798	19.668	2.2	0.	35.653
61799	19.618	2.15	0.	34.736
61800	19.618	2.2	5.e-002	3.2765
61801	19.768	2.2	0.	37.07
61802	19.718	2.15	0.	36.115
61803	19.718	2.2	5.e-002	3.2727
61804	19.867	2.2	0.	38.531
61805	19.818	2.15	0.	37.536
61806	19.818	2.2	5.e-002	3.2692
61807	19.967	2.2	0.	40.037
61808	19.917	2.15	0.	39.
61809	19.917	2.2	5.e-002	3.266
61810	20.067	2.2	0.	41.593
61811	20.017	2.15	0.	40.512
61812	20.017	2.2	5.e-002	3.263
61813	20.166	2.2	0.	43.199
61814	20.116	2.15	0.	42.072
61815	20.116	2.2	5.e-002	3.2604
61816	20.266	2.2	0.	44.86
61817	20.216	2.15	0.	43.685
61818	20.216	2.2	5.e-002	3.2582
61819	20.365	2.2	0.	46.578
61820	20.316	2.15	0.	45.353
61821	20.316	2.2	5.e-002	3.2562
61822	20.465	2.2	0.	48.357
61823	20.415	2.15	0.	47.079
61824	20.415	2.2	5.e-002	3.2546
61825	20.564	2.2	0.	50.199
61826	20.515	2.15	0.	48.865
61827	20.515	2.2	5.e-002	3.2535
61828	20.664	2.2	0.	52.107
61829	20.614	2.15	0.	50.716
61830	20.614	2.2	5.e-002	3.2527
61831	20.764	2.2	0.	54.085
61832	20.714	2.15	0.	52.634
61833	20.714	2.2	5.e-002	3.2524
61834	20.863	2.2	0.	56.136
61835	20.813	2.15	0.	54.623
61836	20.813	2.2	5.e-002	3.2525
61837	20.963	2.2	0.	58.264
61838	20.913	2.15	0.	56.686
61839	20.913	2.2	5.e-002	3.253
61840	21.062	2.2	0.	60.472
61841	21.013	2.15	0.	58.826
61842	21.013	2.2	5.e-002	3.2541
61843	21.162	2.2	0.	62.764
61844	21.112	2.15	0.	61.047
61845	21.112	2.2	5.e-002	3.2557
61846	21.262	2.2	0.	65.144
61847	21.212	2.15	0.	63.353
61848	21.212	2.2	5.e-002	3.2579
61849	21.361	2.2	0.	67.615
61850	21.311	2.15	0.	65.748
61851	21.311	2.2	5.e-002	3.2606
61852	21.461	2.2	0.	70.181
61853	21.411	2.15	0.	68.236
61854	21.411	2.2	5.e-002	3.2639
61855	21.56	2.2	0.	72.846
61856	21.51	2.15	0.	70.82
61857	21.51	2.2	5.e-002	3.2679
61858	21.66	2.2	0.	75.615
61859	21.61	2.15	0.	73.505
61860	21.61	2.2	5.e-002	3.2725
61861	21.759	2.2	0.	78.491
61862	21.71	2.15	0.	76.294
61863	21.71	2.2	5.e-002	3.2779
61864	21.859	2.2	0.	81.478
61865	21.809	2.15	0.	79.193
61866	21.809	2.2	5.e-002	3.284
61867	21.959	2.2	0.	84.581
61868	21.909	2.15	0.	82.204
61869	21.909	2.2	5.e-002	3.2909
61870	22.058	2.2	0.	87.804
61871	22.008	2.15	0.	85.333
61872	22.008	2.2	5.e-002	3.2987
61873	22.158	2.2	0.	91.15
61874	22.108	2.15	0.	88.584
61875	22.108	2.2	5.e-002	3.3073
61876	22.257	2.2	0.	94.624
61877	22.208	2.15	0.	91.96
61878	22.208	2.2	5.e-002	3.3169
61879	22.357	2.2	0.	98.229
61880	22.307	2.15	0.	95.466
61881	22.307	2.2	5.e-002	3.3275
61882	22.456	2.2	0.	101.97
61883	22.407	2.15	0.	99.106
61884	22.407	2.2	5.e-002	3.3391
61885	22.556	2.2	0.	105.85
61886	22.506	2.15	0.	102.88
61887	22.506	2.2	5.e-002	3.3517
61888	22.656	2.2	0.	109.87
61889	22.606	2.15	0.	106.8
61890	22.606	2.2	5.e-002	3.3655
61891	22.755	2.2	0.	114.03
61892	22.705	2.15	0.	110.86
61893	22.705	2.2	5.e-002	3.3804
61894	22.855	2.2	0.	118.34
61895	22.805	2.15	0.	115.07
61896	22.805	2.2	5.e-002	3.3965
61897	22.954	2.2	0.	122.8
61898	22.905	2.15	0.	119.43
61899	22.905	2.2	5.e-002	3.4138
61900	23.054	2.2	0.	127.41
61901	23.004	2.15	0.	123.94
61902	23.004	2.2	5.e-002	3.4323
61903	23.154	2.2	0.	132.17
61904	23.104	2.15	0.	128.6
61905	23.104	2.2	5.e-002	3.4521
61906	23.253	2.2	0.	137.08
61907	23.203	2.15	0.	133.42
61908	23.203	2.2	5.e-002	3.4731
61909	23.353	2.2	0.	142.14
61910	23.303	2.15	0.	138.39
61911	23.303	2.2	5.e-002	3.4952
61912	23.452	2.2	0.	147.35
61913	23.403	2.15	0.	143.51
61914	23.403	2.2	5.e-002	3.5186
61915	23.552	2.2	0.	152.71
61916	23.502	2.15	0.	148.79
61917	23.502	2.2	5.e-002	3.5431
61918	23.651	2.2	0.	158.22
61919	23.602	2.15	0.	154.21
61920	23.602	2.2	5.e-002	3.5685
61921	23.751	2.2	0.	163.87
61922	23.701	2.15	0.	159.78
61923	23.701	2.2	5.e-002	3.5952
61924	23.851	2.2	0.	169.66
61925	23.801	2.15	0.	165.52
61926	23.801	2.2	5.e-002	3.6221
61927	23.9	2.15	0.	171.36
61928	23.9	2.2	5.e-002	3.6658
61929	23.95	2.2	0.	175.56
61930	8.316	2.1	0.	1379.7
61931	8.2662	2.05	0.	2699.3
61932	8.2662	2.1	5.e-002	514.89
61933	8.4156	2.1	0.	925.08
61934	8.3658	2.05	0.	1381.9
61935	8.3658	2.1	5.e-002	285.3
61936	8.5152	2.1	0.	574.19
61937	8.4654	2.05	0.	848.13
61938	8.4654	2.1	5.e-002	156.06
61939	8.6148	2.1	0.	348.85
61940	8.565	2.05	0.	527.04
61941	8.565	2.1	5.e-002	108.36
61942	8.7144	2.1	0.	190.18
61943	8.6646	2.05	0.	315.9
61944	8.6646	2.1	5.e-002	80.481
61945	8.8139	2.1	0.	78.056
61946	8.7642	2.05	0.	168.85
61947	8.7642	2.1	5.e-002	63.389
61948	8.9135	2.1	0.	17.362
61949	8.8637	2.05	0.	66.394
61950	8.8637	2.1	5.e-002	51.882
61951	9.0131	2.1	0.	5.9847
61952	8.9633	2.05	0.	15.823
61953	8.9633	2.1	5.e-002	43.646
61954	9.1127	2.1	0.	3.3425
61955	9.0629	2.05	0.	5.9434
61956	9.0629	2.1	5.e-002	37.461
61957	9.2123	2.1	0.	2.2271
61958	9.1625	2.05	0.	3.3507
61959	9.1625	2.1	5.e-002	32.635
61960	9.3118	2.1	0.	1.6159
61961	9.2621	2.05	0.	2.2248
61962	9.2621	2.1	5.e-002	28.756
61963	9.4114	2.1	0.	1.2328
61964	9.3616	2.05	0.	1.6069
61965	9.3616	2.1	5.e-002	25.563
61966	9.511	2.1	0.	0.97145
61967	9.4612	2.05	0.	1.2203
61968	9.4612	2.1	5.e-002	22.885
61969	9.6106	2.1	0.	0.78259
61970	9.5608	2.05	0.	0.95759
61971	9.5608	2.1	5.e-002	20.606
61972	9.7102	2.1	0.	0.6403
61973	9.6604	2.05	0.	0.76852
61974	9.6604	2.1	5.e-002	18.644
61975	9.8097	2.1	0.	0.52975
61976	9.76	2.05	0.	0.62668
61977	9.76	2.1	5.e-002	16.942
61978	9.9093	2.1	0.	0.44185
61979	9.8595	2.05	0.	0.51694
61980	9.8595	2.1	5.e-002	15.454
61981	10.009	2.1	0.	0.37071
61982	9.9591	2.05	0.	0.43004
61983	9.9591	2.1	5.e-002	14.148
61984	10.108	2.1	0.	0.31237
61985	10.059	2.05	0.	0.35998
61986	10.059	2.1	5.e-002	12.997
61987	10.208	2.1	0.	0.26405
61988	10.158	2.05	0.	0.30274
61989	10.158	2.1	5.e-002	11.981
61990	10.308	2.1	0.	0.22375
61991	10.258	2.05	0.	0.2555
61992	10.258	2.1	5.e-002	11.081
61993	10.407	2.1	0.	0.18996
61994	10.357	2.05	0.	0.21622
61995	10.357	2.1	5.e-002	10.284
61996	10.507	2.1	0.	0.1615
61997	10.457	2.05	0.	0.18339
61998	10.457	2.1	5.e-002	9.5774
61999	10.606	2.1	0.	0.13745
62000	10.557	2.05	0.	0.15579
62001	10.557	2.1	5.e-002	8.9509
62002	10.706	2.1	0.	0.11708
62003	10.656	2.05	0.	0.13252
62004	10.656	2.1	5.e-002	8.395
62005	10.806	2.1	0.	9.9809e-002
62006	10.756	2.05	0.	0.11286
62007	10.756	2.1	5.e-002	7.9019
62008	10.905	2.1	0.	8.5148e-002
62009	10.855	2.05	0.	9.6212e-002
62010	10.855	2.1	5.e-002	7.4644
62011	11.005	2.1	0.	7.2702e-002
62012	10.955	2.05	0.	8.211e-002
62013	10.955	2.1	5.e-002	7.0764
62014	11.104	2.1	0.	6.2107e-002
62015	11.055	2.05	0.	7.0151e-002
62016	11.055	2.1	5.e-002	6.7322
62017	11.204	2.1	0.	5.3081e-002
62018	11.154	2.05	0.	5.9957e-002
62019	11.154	2.1	5.e-002	6.4268
62020	11.303	2.1	0.	4.5413e-002
62021	11.254	2.05	0.	5.13e-002
62022	11.254	2.1	5.e-002	6.1557
62023	11.403	2.1	0.	3.8896e-002
62024	11.353	2.05	0.	4.3954e-002
62025	11.353	2.1	5.e-002	5.9149
62026	11.503	2.1	0.	3.3355e-002
62027	11.453	2.05	0.	3.7705e-002
62028	11.453	2.1	5.e-002	5.701
62029	11.602	2.1	0.	2.8643e-002
62030	11.552	2.05	0.	3.2396e-002
62031	11.552	2.1	5.e-002	5.5107
62032	11.702	2.1	0.	2.4634e-002
62033	11.652	2.05	0.	2.7879e-002
62034	11.652	2.1	5.e-002	5.3412
62035	11.801	2.1	0.	2.1231e-002
62036	11.752	2.05	0.	2.4031e-002
62037	11.752	2.1	5.e-002	5.19
62038	11.901	2.1	0.	1.8359e-002
62039	11.851	2.05	0.	2.0777e-002
62040	11.851	2.1	5.e-002	5.0549
62041	12.001	2.1	0.	1.5931e-002
62042	11.951	2.05	0.	1.803e-002
62043	11.951	2.1	5.e-002	4.934
62044	12.1	2.1	0.	1.3871e-002
62045	12.05	2.05	0.	1.5695e-002
62046	12.05	2.1	5.e-002	4.8256
62047	12.2	2.1	0.	1.2129e-002
62048	12.15	2.05	0.	1.3715e-002
62049	12.15	2.1	5.e-002	4.7281
62050	12.299	2.1	0.	1.0668e-002
62051	12.249	2.05	0.	1.2041e-002
62052	12.249	2.1	5.e-002	4.6402
62053	12.399	2.1	0.	9.4499e-003
62054	12.349	2.05	0.	1.0641e-002
62055	12.349	2.1	5.e-002	4.5608
62056	12.498	2.1	0.	8.4193e-003
62057	12.449	2.05	0.	9.4712e-003
62058	12.449	2.1	5.e-002	4.4889
62059	12.598	2.1	0.	7.5459e-003
62060	12.548	2.05	0.	8.4599e-003
62061	12.548	2.1	5.e-002	4.4235
62062	12.698	2.1	0.	6.8277e-003
62063	12.648	2.05	0.	7.6182e-003
62064	12.648	2.1	5.e-002	4.3638
62065	12.797	2.1	0.	6.2387e-003
62066	12.747	2.05	0.	6.9287e-003
62067	12.747	2.1	5.e-002	4.3092
62068	12.897	2.1	0.	5.756e-003
62069	12.847	2.05	0.	6.3548e-003
62070	12.847	2.1	5.e-002	4.2591
62071	12.996	2.1	0.	5.363e-003
62072	12.947	2.05	0.	5.8865e-003
62073	12.947	2.1	5.e-002	4.2129
62074	13.096	2.1	0.	5.0397e-003
62075	13.046	2.05	0.	5.4993e-003
62076	13.046	2.1	5.e-002	4.1703
62077	13.195	2.1	0.	4.7845e-003
62078	13.146	2.05	0.	5.1773e-003
62079	13.146	2.1	5.e-002	4.1308
62080	13.295	2.1	0.	4.5983e-003
62081	13.245	2.05	0.	4.9323e-003
62082	13.245	2.1	5.e-002	4.094
62083	13.395	2.1	0.	4.4621e-003
62084	13.345	2.05	0.	4.7538e-003
62085	13.345	2.1	5.e-002	4.0597
62086	13.494	2.1	0.	4.3607e-003
62087	13.444	2.05	0.	4.6135e-003
62088	13.444	2.1	5.e-002	4.0277
62089	13.594	2.1	0.	4.2929e-003
62090	13.544	2.05	0.	4.5094e-003
62091	13.544	2.1	5.e-002	3.9976
62092	13.693	2.1	0.	4.2538e-003
62093	13.644	2.05	0.	4.4394e-003
62094	13.644	2.1	5.e-002	3.9694
62095	13.793	2.1	0.	4.2444e-003
62096	13.743	2.05	0.	4.3957e-003
62097	13.743	2.1	5.e-002	3.9427
62098	13.893	2.1	0.	4.2657e-003
62099	13.843	2.05	0.	4.3885e-003
62100	13.843	2.1	5.e-002	3.9174
62101	13.992	2.1	0.	4.2938e-003
62102	13.942	2.05	0.	4.409e-003
62103	13.942	2.1	5.e-002	3.8935
62104	14.092	2.1	0.	4.3259e-003
62105	14.042	2.05	0.	4.4192e-003
62106	14.042	2.1	5.e-002	3.8709
62107	14.191	2.1	0.	4.3799e-003
62108	14.142	2.05	0.	4.4498e-003
62109	14.142	2.1	5.e-002	3.8491
62110	14.291	2.1	0.	4.45e-003
62111	14.241	2.05	0.	4.5052e-003
62112	14.241	2.1	5.e-002	3.8284
62113	14.39	2.1	0.	4.5293e-003
62114	14.341	2.05	0.	4.5705e-003
62115	14.341	2.1	5.e-002	3.8086
62116	14.49	2.1	0.	4.6165e-003
62117	14.44	2.05	0.	4.6473e-003
62118	14.44	2.1	5.e-002	3.7895
62119	14.59	2.1	0.	4.7065e-003
62120	14.54	2.05	0.	4.7299e-003
62121	14.54	2.1	5.e-002	3.7712
62122	14.689	2.1	0.	4.8048e-003
62123	14.639	2.05	0.	4.8132e-003
62124	14.639	2.1	5.e-002	3.7536
62125	14.789	2.1	0.	4.9201e-003
62126	14.739	2.05	0.	4.9147e-003
62127	14.739	2.1	5.e-002	3.7366
62128	14.888	2.1	0.	5.0438e-003
62129	14.839	2.05	0.	5.0348e-003
62130	14.839	2.1	5.e-002	3.7202
62131	14.988	2.1	0.	5.169e-003
62132	14.938	2.05	0.	5.1543e-003
62133	14.938	2.1	5.e-002	3.7043
62134	15.088	2.1	0.	5.2983e-003
62135	15.038	2.05	0.	5.2792e-003
62136	15.038	2.1	5.e-002	3.689
62137	15.187	2.1	0.	5.4392e-003
62138	15.137	2.05	0.	5.4098e-003
62139	15.137	2.1	5.e-002	3.6741
62140	15.287	2.1	0.	5.5959e-003
62141	15.237	2.05	0.	5.5593e-003
62142	15.237	2.1	5.e-002	3.6596
62143	15.386	2.1	0.	5.7524e-003
62144	15.336	2.05	0.	5.7254e-003
62145	15.336	2.1	5.e-002	3.6456
62146	15.486	2.1	0.	5.9125e-003
62147	15.436	2.05	0.	5.8782e-003
62148	15.436	2.1	5.e-002	3.632
62149	15.585	2.1	0.	6.0946e-003
62150	15.536	2.05	0.	6.0552e-003
62151	15.536	2.1	5.e-002	3.6187
62152	15.685	2.1	0.	6.3026e-003
62153	15.635	2.05	0.	6.2601e-003
62154	15.635	2.1	5.e-002	3.6058
62155	15.785	2.1	0.	6.542e-003
62156	15.735	2.05	0.	6.497e-003
62157	15.735	2.1	5.e-002	3.5932
62158	15.884	2.1	0.	6.827e-003
62159	15.834	2.05	0.	6.7793e-003
62160	15.834	2.1	5.e-002	3.5809
62161	15.984	2.1	0.	7.1848e-003
62162	15.934	2.05	0.	7.1321e-003
62163	15.934	2.1	5.e-002	3.5688
62164	16.083	2.1	0.	7.6845e-003
62165	16.034	2.05	0.	7.6037e-003
62166	16.034	2.1	5.e-002	3.557
62167	16.183	2.1	0.	8.4947e-003
62168	16.133	2.05	0.	8.3429e-003
62169	16.133	2.1	5.e-002	3.5455
62170	16.282	2.1	0.	1.0159e-002
62171	16.233	2.05	0.	9.7379e-003
62172	16.233	2.1	5.e-002	3.5343
62173	16.382	2.1	0.	1.6693e-002
62174	16.332	2.05	0.	1.3807e-002
62175	16.332	2.1	5.e-002	3.5233
62176	16.482	2.1	0.	0.45916
62177	16.432	2.05	0.	0.13702
62178	16.432	2.1	5.e-002	3.5125
62179	16.581	2.1	0.	1.576
62180	16.531	2.05	0.	1.2059
62181	16.531	2.1	5.e-002	3.502
62182	16.681	2.1	0.	2.6808
62183	16.631	2.05	0.	2.3055
62184	16.631	2.1	5.e-002	3.4917
62185	16.78	2.1	0.	3.7668
62186	16.731	2.05	0.	3.3868
62187	16.731	2.1	5.e-002	3.4817
62188	16.88	2.1	0.	4.8353
62189	16.83	2.05	0.	4.4502
62190	16.83	2.1	5.e-002	3.4719
62191	16.98	2.1	0.	5.8881
62192	16.93	2.05	0.	5.4971
62193	16.93	2.1	5.e-002	3.4622
62194	17.079	2.1	0.	6.927
62195	17.029	2.05	0.	6.5295
62196	17.029	2.1	5.e-002	3.4528
62197	17.179	2.1	0.	7.954
62198	17.129	2.05	0.	7.5492
62199	17.129	2.1	5.e-002	3.4435
62200	17.278	2.1	0.	8.9708
62201	17.229	2.05	0.	8.558
62202	17.229	2.1	5.e-002	3.4344
62203	17.378	2.1	0.	9.9795
62204	17.328	2.05	0.	9.5579
62205	17.328	2.1	5.e-002	3.4255
62206	17.477	2.1	0.	10.982
62207	17.428	2.05	0.	10.551
62208	17.428	2.1	5.e-002	3.4168
62209	17.577	2.1	0.	11.98
62210	17.527	2.05	0.	11.538
62211	17.527	2.1	5.e-002	3.4083
62212	17.677	2.1	0.	12.975
62213	17.627	2.05	0.	12.522
62214	17.627	2.1	5.e-002	3.3999
62215	17.776	2.1	0.	13.969
62216	17.726	2.05	0.	13.504
62217	17.726	2.1	5.e-002	3.3918
62218	17.876	2.1	0.	14.964
62219	17.826	2.05	0.	14.486
62220	17.826	2.1	5.e-002	3.3838
62221	17.975	2.1	0.	15.963
62222	17.926	2.05	0.	15.47
62223	17.926	2.1	5.e-002	3.3761
62224	18.075	2.1	0.	16.965
62225	18.025	2.05	0.	16.458
62226	18.025	2.1	5.e-002	3.3685
62227	18.175	2.1	0.	17.975
62228	18.125	2.05	0.	17.451
62229	18.125	2.1	5.e-002	3.3611
62230	18.274	2.1	0.	18.992
62231	18.224	2.05	0.	18.451
62232	18.224	2.1	5.e-002	3.3539
62233	18.374	2.1	0.	20.02
62234	18.324	2.05	0.	19.461
62235	18.324	2.1	5.e-002	3.3469
62236	18.473	2.1	0.	21.061
62237	18.423	2.05	0.	20.481
62238	18.423	2.1	5.e-002	3.3401
62239	18.573	2.1	0.	22.115
62240	18.523	2.05	0.	21.515
62241	18.523	2.1	5.e-002	3.3335
62242	18.672	2.1	0.	23.185
62243	18.623	2.05	0.	22.563
62244	18.623	2.1	5.e-002	3.3271
62245	18.772	2.1	0.	24.273
62246	18.722	2.05	0.	23.628
62247	18.722	2.1	5.e-002	3.3208
62248	18.872	2.1	0.	25.38
62249	18.822	2.05	0.	24.711
62250	18.822	2.1	5.e-002	3.3148
62251	18.971	2.1	0.	26.51
62252	18.921	2.05	0.	25.814
62253	18.921	2.1	5.e-002	3.309
62254	19.071	2.1	0.	27.664
62255	19.021	2.05	0.	26.941
62256	19.021	2.1	5.e-002	3.3033
62257	19.17	2.1	0.	28.843
62258	19.121	2.05	0.	28.091
62259	19.121	2.1	5.e-002	3.2979
62260	19.27	2.1	0.	30.051
62261	19.22	2.05	0.	29.269
62262	19.22	2.1	5.e-002	3.2928
62263	19.369	2.1	0.	31.289
62264	19.32	2.05	0.	30.475
62265	19.32	2.1	5.e-002	3.2879
62266	19.469	2.1	0.	32.56
62267	19.419	2.05	0.	31.712
62268	19.419	2.1	5.e-002	3.2832
62269	19.569	2.1	0.	33.866
62270	19.519	2.05	0.	32.982
62271	19.519	2.1	5.e-002	3.2788
62272	19.668	2.1	0.	35.209
62273	19.618	2.05	0.	34.288
62274	19.618	2.1	5.e-002	3.2746
62275	19.768	2.1	0.	36.591
62276	19.718	2.05	0.	35.631
62277	19.718	2.1	5.e-002	3.2708
62278	19.867	2.1	0.	38.016
62279	19.818	2.05	0.	37.015
62280	19.818	2.1	5.e-002	3.2672
62281	19.967	2.1	0.	39.486
62282	19.917	2.05	0.	38.441
62283	19.917	2.1	5.e-002	3.2639
62284	20.067	2.1	0.	41.002
62285	20.017	2.05	0.	39.913
62286	20.017	2.1	5.e-002	3.2609
62287	20.166	2.1	0.	42.569
62288	20.116	2.05	0.	41.432
62289	20.116	2.1	5.e-002	3.2582
62290	20.266	2.1	0.	44.189
62291	20.216	2.05	0.	43.002
62292	20.216	2.1	5.e-002	3.2558
62293	20.365	2.1	0.	45.864
62294	20.316	2.05	0.	44.625
62295	20.316	2.1	5.e-002	3.2538
62296	20.465	2.1	0.	47.598
62297	20.415	2.05	0.	46.305
62298	20.415	2.1	5.e-002	3.2521
62299	20.564	2.1	0.	49.393
62300	20.515	2.05	0.	48.044
62301	20.515	2.1	5.e-002	3.2508
62302	20.664	2.1	0.	51.254
62303	20.614	2.05	0.	49.845
62304	20.614	2.1	5.e-002	3.2499
62305	20.764	2.1	0.	53.182
62306	20.714	2.05	0.	51.712
62307	20.714	2.1	5.e-002	3.2495
62308	20.863	2.1	0.	55.183
62309	20.813	2.05	0.	53.647
62310	20.813	2.1	5.e-002	3.2494
62311	20.963	2.1	0.	57.257
62312	20.913	2.05	0.	55.655
62313	20.913	2.1	5.e-002	3.2499
62314	21.062	2.1	0.	59.411
62315	21.013	2.05	0.	57.738
62316	21.013	2.1	5.e-002	3.2508
62317	21.162	2.1	0.	61.647
62318	21.112	2.05	0.	59.901
62319	21.112	2.1	5.e-002	3.2523
62320	21.262	2.1	0.	63.968
62321	21.212	2.05	0.	62.147
62322	21.212	2.1	5.e-002	3.2543
62323	21.361	2.1	0.	66.38
62324	21.311	2.05	0.	64.48
62325	21.311	2.1	5.e-002	3.2568
62326	21.461	2.1	0.	68.885
62327	21.411	2.05	0.	66.903
62328	21.411	2.1	5.e-002	3.26
62329	21.56	2.1	0.	71.488
62330	21.51	2.05	0.	69.422
62331	21.51	2.1	5.e-002	3.2638
62332	21.66	2.1	0.	74.193
62333	21.61	2.05	0.	72.04
62334	21.61	2.1	5.e-002	3.2683
62335	21.759	2.1	0.	77.005
62336	21.71	2.05	0.	74.761
62337	21.71	2.1	5.e-002	3.2735
62338	21.859	2.1	0.	79.927
62339	21.809	2.05	0.	77.591
62340	21.809	2.1	5.e-002	3.2794
62341	21.959	2.1	0.	82.964
62342	21.909	2.05	0.	80.532
62343	21.909	2.1	5.e-002	3.2862
62344	22.058	2.1	0.	86.121
62345	22.008	2.05	0.	83.591
62346	22.008	2.1	5.e-002	3.2938
62347	22.158	2.1	0.	89.401
62348	22.108	2.05	0.	86.771
62349	22.108	2.1	5.e-002	3.3023
62350	22.257	2.1	0.	92.809
62351	22.208	2.05	0.	90.076
62352	22.208	2.1	5.e-002	3.3117
62353	22.357	2.1	0.	96.35
62354	22.307	2.05	0.	93.512
62355	22.307	2.1	5.e-002	3.3222
62356	22.456	2.1	0.	100.03
62357	22.407	2.05	0.	97.083
62358	22.407	2.1	5.e-002	3.3336
62359	22.556	2.1	0.	103.84
62360	22.506	2.05	0.	100.79
62361	22.506	2.1	5.e-002	3.3462
62362	22.656	2.1	0.	107.8
62363	22.606	2.05	0.	104.65
62364	22.606	2.1	5.e-002	3.3599
62365	22.755	2.1	0.	111.91
62366	22.705	2.05	0.	108.65
62367	22.705	2.1	5.e-002	3.3749
62368	22.855	2.1	0.	116.17
62369	22.805	2.05	0.	112.8
62370	22.805	2.1	5.e-002	3.391
62371	22.954	2.1	0.	120.58
62372	22.905	2.05	0.	117.1
62373	22.905	2.1	5.e-002	3.4084
62374	23.054	2.1	0.	125.14
62375	23.004	2.05	0.	121.56
62376	23.004	2.1	5.e-002	3.4271
62377	23.154	2.1	0.	129.86
62378	23.104	2.05	0.	126.17
62379	23.104	2.1	5.e-002	3.4472
62380	23.253	2.1	0.	134.73
62381	23.203	2.05	0.	130.95
62382	23.203	2.1	5.e-002	3.4685
62383	23.353	2.1	0.	139.76
62384	23.303	2.05	0.	135.88
62385	23.303	2.1	5.e-002	3.4911
62386	23.452	2.1	0.	144.95
62387	23.403	2.05	0.	140.97
62388	23.403	2.1	5.e-002	3.515
62389	23.552	2.1	0.	150.29
62390	23.502	2.05	0.	146.22
62391	23.502	2.1	5.e-002	3.5401
62392	23.651	2.1	0.	155.78
62393	23.602	2.05	0.	151.63
62394	23.602	2.1	5.e-002	3.5663
62395	23.751	2.1	0.	161.43
62396	23.701	2.05	0.	157.19
62397	23.701	2.1	5.e-002	3.5937
62398	23.851	2.1	0.	167.21
62399	23.801	2.05	0.	162.91
62400	23.801	2.1	5.e-002	3.6216
62401	23.9	2.05	0.	168.75
62402	23.9	2.1	5.e-002	3.6687
62403	23.95	2.1	0.	173.07
62404	8.316	2.	0.	2856.6
62405	8.2662	1.95	0.	4146.5
62406	8.2662	2.	5.e-002	1046.6
62407	8.2165	2.	0.	2410.4
62408	8.4156	2.	0.	1332.6
62409	8.3658	1.95	0.	1995.4
62410	8.3658	2.	5.e-002	243.38
62411	8.5152	2.	0.	808.08
62412	8.4654	1.95	0.	1162.6
62413	8.4654	2.	5.e-002	159.28
62414	8.6148	2.	0.	495.96
62415	8.565	1.95	0.	725.61
62416	8.565	2.	5.e-002	105.98
62417	8.7144	2.	0.	294.2
62418	8.6646	1.95	0.	451.99
62419	8.6646	2.	5.e-002	79.022
62420	8.8139	2.	0.	154.83
62421	8.7642	1.95	0.	268.14
62422	8.7642	2.	5.e-002	62.072
62423	8.9135	2.	0.	59.795
62424	8.8637	1.95	0.	139.76
62425	8.8637	2.	5.e-002	50.69
62426	9.0131	2.	0.	15.311
62427	8.9633	1.95	0.	53.081
62428	8.9633	2.	5.e-002	42.542
62429	9.1127	2.	0.	6.0331
62430	9.0629	1.95	0.	14.257
62431	9.0629	2.	5.e-002	36.429
62432	9.2123	2.	0.	3.4089
62433	9.1625	1.95	0.	5.862
62434	9.1625	2.	5.e-002	31.671
62435	9.3118	2.	0.	2.2532
62436	9.2621	1.95	0.	3.3475
62437	9.2621	2.	5.e-002	27.856
62438	9.4114	2.	0.	1.6184
62439	9.3616	1.95	0.	2.2188
62440	9.3616	2.	5.e-002	24.725
62441	9.511	2.	0.	1.2227
62442	9.4612	1.95	0.	1.5936
62443	9.4612	2.	5.e-002	22.107
62444	9.6106	2.	0.	0.95494
62445	9.5608	1.95	0.	1.2025
62446	9.5608	2.	5.e-002	19.885
62447	9.7102	2.	0.	0.76319
62448	9.6604	1.95	0.	0.93752
62449	9.6604	2.	5.e-002	17.978
62450	9.8097	2.	0.	0.62005
62451	9.76	1.95	0.	0.74774
62452	9.76	2.	5.e-002	16.326
62453	9.9093	2.	0.	0.50983
62454	9.8595	1.95	0.	0.6062
62455	9.8595	2.	5.e-002	14.886
62456	10.009	2.	0.	0.42293
62457	9.9591	1.95	0.	0.49738
62458	9.9591	2.	5.e-002	13.624
62459	10.108	2.	0.	0.35317
62460	10.059	1.95	0.	0.41176
62461	10.059	2.	5.e-002	12.514
62462	10.208	2.	0.	0.2964
62463	10.158	1.95	0.	0.3432
62464	10.158	2.	5.e-002	11.535
62465	10.308	2.	0.	0.24973
62466	10.258	1.95	0.	0.28755
62467	10.258	2.	5.e-002	10.67
62468	10.407	2.	0.	0.21106
62469	10.357	1.95	0.	0.24192
62470	10.357	2.	5.e-002	9.9048
62471	10.507	2.	0.	0.1788
62472	10.457	1.95	0.	0.20421
62473	10.457	2.	5.e-002	9.2278
62474	10.606	2.	0.	0.15177
62475	10.557	1.95	0.	0.17282
62476	10.557	2.	5.e-002	8.6287
62477	10.706	2.	0.	0.12904
62478	10.656	1.95	0.	0.14658
62479	10.656	2.	5.e-002	8.0982
62480	10.806	2.	0.	0.10986
62481	10.756	1.95	0.	0.12456
62482	10.756	2.	5.e-002	7.6289
62483	10.905	2.	0.	9.3658e-002
62484	10.855	1.95	0.	0.10601
62485	10.855	2.	5.e-002	7.2135
62486	11.005	2.	0.	7.9954e-002
62487	10.955	1.95	0.	9.0384e-002
62488	10.955	2.	5.e-002	6.846
62489	11.104	2.	0.	6.8324e-002
62490	11.055	1.95	0.	7.7182e-002
62491	11.055	2.	5.e-002	6.5209
62492	11.204	2.	0.	5.8441e-002
62493	11.154	1.95	0.	6.597e-002
62494	11.154	2.	5.e-002	6.2334
62495	11.303	2.	0.	5.0059e-002
62496	11.254	1.95	0.	5.6471e-002
62497	11.254	2.	5.e-002	5.9789
62498	11.403	2.	0.	4.2943e-002
62499	11.353	1.95	0.	4.8428e-002
62500	11.353	2.	5.e-002	5.7536
62501	11.503	2.	0.	3.6896e-002
62502	11.453	1.95	0.	4.1596e-002
62503	11.453	2.	5.e-002	5.554
62504	11.602	2.	0.	3.1756e-002
62505	11.552	1.95	0.	3.5796e-002
62506	11.552	2.	5.e-002	5.377
62507	11.702	2.	0.	2.7379e-002
62508	11.652	1.95	0.	3.0864e-002
62509	11.652	2.	5.e-002	5.2197
62510	11.801	2.	0.	2.3663e-002
62511	11.752	1.95	0.	2.6663e-002
62512	11.752	2.	5.e-002	5.0798
62513	11.901	2.	0.	2.052e-002
62514	11.851	1.95	0.	2.3106e-002
62515	11.851	2.	5.e-002	4.9551
62516	12.001	2.	0.	1.7855e-002
62517	11.951	1.95	0.	2.0099e-002
62518	11.951	2.	5.e-002	4.8437
62519	12.1	2.	0.	1.559e-002
62520	12.05	1.95	0.	1.7538e-002
62521	12.05	2.	5.e-002	4.744
62522	12.2	2.	0.	1.3669e-002
62523	12.15	1.95	0.	1.5362e-002
62524	12.15	2.	5.e-002	4.6544
62525	12.299	2.	0.	1.2049e-002
62526	12.249	1.95	0.	1.3515e-002
62527	12.249	2.	5.e-002	4.5737
62528	12.399	2.	0.	1.0692e-002
62529	12.349	1.95	0.	1.1964e-002
62530	12.349	2.	5.e-002	4.5008
62531	12.498	2.	0.	9.5373e-003
62532	12.449	1.95	0.	1.0661e-002
62533	12.449	2.	5.e-002	4.4348
62534	12.598	2.	0.	8.5537e-003
62535	12.548	1.95	0.	9.5315e-003
62536	12.548	2.	5.e-002	4.3748
62537	12.698	2.	0.	7.7373e-003
62538	12.648	1.95	0.	8.585e-003
62539	12.648	2.	5.e-002	4.3199
62540	12.797	2.	0.	7.06e-003
62541	12.747	1.95	0.	7.8011e-003
62542	12.747	2.	5.e-002	4.2696
62543	12.897	2.	0.	6.4981e-003
62544	12.847	1.95	0.	7.1429e-003
62545	12.847	2.	5.e-002	4.2234
62546	12.996	2.	0.	6.0335e-003
62547	12.947	1.95	0.	6.5992e-003
62548	12.947	2.	5.e-002	4.1808
62549	13.096	2.	0.	5.6459e-003
62550	13.046	1.95	0.	6.1434e-003
62551	13.046	2.	5.e-002	4.1414
62552	13.195	2.	0.	5.3326e-003
62553	13.146	1.95	0.	5.7596e-003
62554	13.146	2.	5.e-002	4.1047
62555	13.295	2.	0.	5.0939e-003
62556	13.245	1.95	0.	5.459e-003
62557	13.245	2.	5.e-002	4.0705
62558	13.395	2.	0.	4.9102e-003
62559	13.345	1.95	0.	5.2297e-003
62560	13.345	2.	5.e-002	4.0385
62561	13.494	2.	0.	4.7663e-003
62562	13.444	1.95	0.	5.044e-003
62563	13.444	2.	5.e-002	4.0085
62564	13.594	2.	0.	4.6592e-003
62565	13.544	1.95	0.	4.8985e-003
62566	13.544	2.	5.e-002	3.9803
62567	13.693	2.	0.	4.5839e-003
62568	13.644	1.95	0.	4.7899e-003
62569	13.644	2.	5.e-002	3.9537
62570	13.793	2.	0.	4.5417e-003
62571	13.743	1.95	0.	4.7121e-003
62572	13.743	2.	5.e-002	3.9284
62573	13.893	2.	0.	4.5331e-003
62574	13.843	1.95	0.	4.6737e-003
62575	13.843	2.	5.e-002	3.9045
62576	13.992	2.	0.	4.5352e-003
62577	13.942	1.95	0.	4.6656e-003
62578	13.942	2.	5.e-002	3.8818
62579	14.092	2.	0.	4.5435e-003
62580	14.042	1.95	0.	4.6506e-003
62581	14.042	2.	5.e-002	3.8602
62582	14.191	2.	0.	4.575e-003
62583	14.142	1.95	0.	4.6581e-003
62584	14.142	2.	5.e-002	3.8394
62585	14.291	2.	0.	4.6253e-003
62586	14.241	1.95	0.	4.6923e-003
62587	14.241	2.	5.e-002	3.8195
62588	14.39	2.	0.	4.6877e-003
62589	14.341	1.95	0.	4.7393e-003
62590	14.341	2.	5.e-002	3.8005
62591	14.49	2.	0.	4.7597e-003
62592	14.44	1.95	0.	4.7994e-003
62593	14.44	2.	5.e-002	3.7821
62594	14.59	2.	0.	4.8354e-003
62595	14.54	1.95	0.	4.8674e-003
62596	14.54	2.	5.e-002	3.7644
62597	14.689	2.	0.	4.9216e-003
62598	14.639	1.95	0.	4.9381e-003
62599	14.639	2.	5.e-002	3.7474
62600	14.789	2.	0.	5.0277e-003
62601	14.739	1.95	0.	5.0288e-003
62602	14.739	2.	5.e-002	3.7308
62603	14.888	2.	0.	5.1435e-003
62604	14.839	1.95	0.	5.1405e-003
62605	14.839	2.	5.e-002	3.7148
62606	14.988	2.	0.	5.2625e-003
62607	14.938	1.95	0.	5.2529e-003
62608	14.938	2.	5.e-002	3.6994
62609	15.088	2.	0.	5.3886e-003
62610	15.038	1.95	0.	5.3736e-003
62611	15.038	2.	5.e-002	3.6844
62612	15.187	2.	0.	5.5276e-003
62613	15.137	1.95	0.	5.5031e-003
62614	15.137	2.	5.e-002	3.6698
62615	15.287	2.	0.	5.6862e-003
62616	15.237	1.95	0.	5.6536e-003
62617	15.237	2.	5.e-002	3.6556
62618	15.386	2.	0.	5.8485e-003
62619	15.336	1.95	0.	5.8245e-003
62620	15.336	2.	5.e-002	3.6419
62621	15.486	2.	0.	6.0178e-003
62622	15.436	1.95	0.	5.9864e-003
62623	15.436	2.	5.e-002	3.6285
62624	15.585	2.	0.	6.2169e-003
62625	15.536	1.95	0.	6.179e-003
62626	15.536	2.	5.e-002	3.6155
62627	15.685	2.	0.	6.4496e-003
62628	15.635	1.95	0.	6.4085e-003
62629	15.635	2.	5.e-002	3.6027
62630	15.785	2.	0.	6.7273e-003
62631	15.735	1.95	0.	6.6809e-003
62632	15.735	2.	5.e-002	3.5903
62633	15.884	2.	0.	7.0728e-003
62634	15.834	1.95	0.	7.0216e-003
62635	15.834	2.	5.e-002	3.5781
62636	15.984	2.	0.	7.5284e-003
62637	15.934	1.95	0.	7.466e-003
62638	15.934	2.	5.e-002	3.5662
62639	16.083	2.	0.	8.2078e-003
62640	16.034	1.95	0.	8.1016e-003
62641	16.034	2.	5.e-002	3.5546
62642	16.183	2.	0.	9.4112e-003
62643	16.133	1.95	0.	9.1765e-003
62644	16.133	2.	5.e-002	3.5432
62645	16.282	2.	0.	1.2341e-002
62646	16.233	1.95	0.	1.1508e-002
62647	16.233	2.	5.e-002	3.532
62648	16.382	2.	0.	3.4589e-002
62649	16.332	1.95	0.	2.1558e-002
62650	16.332	2.	5.e-002	3.5211
62651	16.482	2.	0.	0.84846
62652	16.432	1.95	0.	0.52228
62653	16.432	2.	5.e-002	3.5105
62654	16.581	2.	0.	1.9424
62655	16.531	1.95	0.	1.6045
62656	16.531	2.	5.e-002	3.5
62657	16.681	2.	0.	3.0195
62658	16.631	1.95	0.	2.6754
62659	16.631	2.	5.e-002	3.4898
62660	16.78	2.	0.	4.0783
62661	16.731	1.95	0.	3.728
62662	16.731	2.	5.e-002	3.4798
62663	16.88	2.	0.	5.1202
62664	16.83	1.95	0.	4.7633
62665	16.83	2.	5.e-002	3.47
62666	16.98	2.	0.	6.1469
62667	16.93	1.95	0.	5.7827
62668	16.93	2.	5.e-002	3.4604
62669	17.079	2.	0.	7.1602
62670	17.029	1.95	0.	6.7881
62671	17.029	2.	5.e-002	3.451
62672	17.179	2.	0.	8.1619
62673	17.129	1.95	0.	7.7813
62674	17.129	2.	5.e-002	3.4418
62675	17.278	2.	0.	9.1539
62676	17.229	1.95	0.	8.764
62677	17.229	2.	5.e-002	3.4327
62678	17.378	2.	0.	10.138
62679	17.328	1.95	0.	9.738
62680	17.328	2.	5.e-002	3.4239
62681	17.477	2.	0.	11.116
62682	17.428	1.95	0.	10.705
62683	17.428	2.	5.e-002	3.4152
62684	17.577	2.	0.	12.089
62685	17.527	1.95	0.	11.667
62686	17.527	2.	5.e-002	3.4067
62687	17.677	2.	0.	13.06
62688	17.627	1.95	0.	12.625
62689	17.627	2.	5.e-002	3.3983
62690	17.776	2.	0.	14.03
62691	17.726	1.95	0.	13.582
62692	17.726	2.	5.e-002	3.3902
62693	17.876	2.	0.	15.001
62694	17.826	1.95	0.	14.539
62695	17.826	2.	5.e-002	3.3823
62696	17.975	2.	0.	15.975
62697	17.926	1.95	0.	15.497
62698	17.926	2.	5.e-002	3.3745
62699	18.075	2.	0.	16.953
62700	18.025	1.95	0.	16.459
62701	18.025	2.	5.e-002	3.3669
62702	18.175	2.	0.	17.937
62703	18.125	1.95	0.	17.426
62704	18.125	2.	5.e-002	3.3595
62705	18.274	2.	0.	18.93
62706	18.224	1.95	0.	18.401
62707	18.224	2.	5.e-002	3.3523
62708	18.374	2.	0.	19.932
62709	18.324	1.95	0.	19.384
62710	18.324	2.	5.e-002	3.3453
62711	18.473	2.	0.	20.946
62712	18.423	1.95	0.	20.377
62713	18.423	2.	5.e-002	3.3385
62714	18.573	2.	0.	21.973
62715	18.523	1.95	0.	21.383
62716	18.523	2.	5.e-002	3.3319
62717	18.672	2.	0.	23.016
62718	18.623	1.95	0.	22.403
62719	18.623	2.	5.e-002	3.3254
62720	18.772	2.	0.	24.076
62721	18.722	1.95	0.	23.438
62722	18.722	2.	5.e-002	3.3191
62723	18.872	2.	0.	25.155
62724	18.822	1.95	0.	24.492
62725	18.822	2.	5.e-002	3.3131
62726	18.971	2.	0.	26.255
62727	18.921	1.95	0.	25.565
62728	18.921	2.	5.e-002	3.3072
62729	19.071	2.	0.	27.379
62730	19.021	1.95	0.	26.661
62731	19.021	2.	5.e-002	3.3015
62732	19.17	2.	0.	28.527
62733	19.121	1.95	0.	27.779
62734	19.121	2.	5.e-002	3.2961
62735	19.27	2.	0.	29.703
62736	19.22	1.95	0.	28.923
62737	19.22	2.	5.e-002	3.2909
62738	19.369	2.	0.	30.908
62739	19.32	1.95	0.	30.095
62740	19.32	2.	5.e-002	3.2859
62741	19.469	2.	0.	32.144
62742	19.419	1.95	0.	31.297
62743	19.419	2.	5.e-002	3.2812
62744	19.569	2.	0.	33.415
62745	19.519	1.95	0.	32.531
62746	19.519	2.	5.e-002	3.2768
62747	19.668	2.	0.	34.721
62748	19.618	1.95	0.	33.799
62749	19.618	2.	5.e-002	3.2725
62750	19.768	2.	0.	36.065
62751	19.718	1.95	0.	35.103
62752	19.718	2.	5.e-002	3.2686
62753	19.867	2.	0.	37.45
62754	19.818	1.95	0.	36.446
62755	19.818	2.	5.e-002	3.2649
62756	19.967	2.	0.	38.879
62757	19.917	1.95	0.	37.83
62758	19.917	2.	5.e-002	3.2616
62759	20.067	2.	0.	40.353
62760	20.017	1.95	0.	39.258
62761	20.017	2.	5.e-002	3.2584
62762	20.166	2.	0.	41.876
62763	20.116	1.95	0.	40.732
62764	20.116	2.	5.e-002	3.2557
62765	20.266	2.	0.	43.449
62766	20.216	1.95	0.	42.255
62767	20.216	2.	5.e-002	3.2532
62768	20.365	2.	0.	45.077
62769	20.316	1.95	0.	43.83
62770	20.316	2.	5.e-002	3.2511
62771	20.465	2.	0.	46.762
62772	20.415	1.95	0.	45.459
62773	20.415	2.	5.e-002	3.2493
62774	20.564	2.	0.	48.506
62775	20.515	1.95	0.	47.145
62776	20.515	2.	5.e-002	3.2479
62777	20.664	2.	0.	50.314
62778	20.614	1.95	0.	48.891
62779	20.614	2.	5.e-002	3.2469
62780	20.764	2.	0.	52.187
62781	20.714	1.95	0.	50.701
62782	20.714	2.	5.e-002	3.2463
62783	20.863	2.	0.	54.13
62784	20.813	1.95	0.	52.578
62785	20.813	2.	5.e-002	3.2461
62786	20.963	2.	0.	56.146
62787	20.913	1.95	0.	54.525
62788	20.913	2.	5.e-002	3.2464
62789	21.062	2.	0.	58.239
62790	21.013	1.95	0.	56.546
62791	21.013	2.	5.e-002	3.2472
62792	21.162	2.	0.	60.412
62793	21.112	1.95	0.	58.643
62794	21.112	2.	5.e-002	3.2485
62795	21.262	2.	0.	62.669
62796	21.212	1.95	0.	60.822
62797	21.212	2.	5.e-002	3.2503
62798	21.361	2.	0.	65.014
62799	21.311	1.95	0.	63.086
62800	21.311	2.	5.e-002	3.2527
62801	21.461	2.	0.	67.451
62802	21.411	1.95	0.	65.439
62803	21.411	2.	5.e-002	3.2556
62804	21.56	2.	0.	69.984
62805	21.51	1.95	0.	67.884
62806	21.51	2.	5.e-002	3.2592
62807	21.66	2.	0.	72.618
62808	21.61	1.95	0.	70.428
62809	21.61	2.	5.e-002	3.2635
62810	21.759	2.	0.	75.356
62811	21.71	1.95	0.	73.073
62812	21.71	2.	5.e-002	3.2685
62813	21.859	2.	0.	78.205
62814	21.809	1.95	0.	75.824
62815	21.809	2.	5.e-002	3.2743
62816	21.959	2.	0.	81.168
62817	21.909	1.95	0.	78.687
62818	21.909	2.	5.e-002	3.2808
62819	22.058	2.	0.	84.249
62820	22.008	1.95	0.	81.666
62821	22.008	2.	5.e-002	3.2882
62822	22.158	2.	0.	87.454
62823	22.108	1.95	0.	84.766
62824	22.108	2.	5.e-002	3.2965
62825	22.257	2.	0.	90.787
62826	22.208	1.95	0.	87.992
62827	22.208	2.	5.e-002	3.3058
62828	22.357	2.	0.	94.254
62829	22.307	1.95	0.	91.349
62830	22.307	2.	5.e-002	3.3161
62831	22.456	2.	0.	97.857
62832	22.407	1.95	0.	94.841
62833	22.407	2.	5.e-002	3.3275
62834	22.556	2.	0.	101.6
62835	22.506	1.95	0.	98.474
62836	22.506	2.	5.e-002	3.3399
62837	22.656	2.	0.	105.49
62838	22.606	1.95	0.	102.25
62839	22.606	2.	5.e-002	3.3536
62840	22.755	2.	0.	109.54
62841	22.705	1.95	0.	106.18
62842	22.705	2.	5.e-002	3.3685
62843	22.855	2.	0.	113.73
62844	22.805	1.95	0.	110.26
62845	22.805	2.	5.e-002	3.3847
62846	22.954	2.	0.	118.08
62847	22.905	1.95	0.	114.5
62848	22.905	2.	5.e-002	3.4023
62849	23.054	2.	0.	122.59
62850	23.004	1.95	0.	118.9
62851	23.004	2.	5.e-002	3.4212
62852	23.154	2.	0.	127.26
62853	23.104	1.95	0.	123.46
62854	23.104	2.	5.e-002	3.4415
62855	23.253	2.	0.	132.1
62856	23.203	1.95	0.	128.18
62857	23.203	2.	5.e-002	3.4632
62858	23.353	2.	0.	137.09
62859	23.303	1.95	0.	133.07
62860	23.303	2.	5.e-002	3.4863
62861	23.452	2.	0.	142.25
62862	23.403	1.95	0.	138.13
62863	23.403	2.	5.e-002	3.5108
62864	23.552	2.	0.	147.56
62865	23.502	1.95	0.	143.35
62866	23.502	2.	5.e-002	3.5366
62867	23.651	2.	0.	153.03
62868	23.602	1.95	0.	148.73
62869	23.602	2.	5.e-002	3.5636
62870	23.751	2.	0.	158.67
62871	23.701	1.95	0.	154.27
62872	23.701	2.	5.e-002	3.592
62873	23.851	2.	0.	164.45
62874	23.801	1.95	0.	159.99
62875	23.801	2.	5.e-002	3.621
62876	23.9	1.95	0.	165.83
62877	23.9	2.	5.e-002	3.6718
62878	23.95	2.	0.	170.27
62879	8.316	1.9	0.	3402.7
62880	8.2662	1.85	0.	4317.3
62881	8.2662	1.9	5.e-002	622.59
62882	8.2165	1.9	0.	4043.3
62883	8.4156	1.9	0.	1838.3
62884	8.3658	1.85	0.	2384.2
62885	8.3658	1.9	5.e-002	249.19
62886	8.5152	1.9	0.	1082.9
62887	8.4654	1.85	0.	1443.9
62888	8.4654	1.9	5.e-002	136.57
62889	8.6148	1.9	0.	681.38
62890	8.565	1.85	0.	928.26
62891	8.565	1.9	5.e-002	97.842
62892	8.7144	1.9	0.	424.7
62893	8.6646	1.85	0.	598.67
62894	8.6646	1.9	5.e-002	74.154
62895	8.8139	1.9	0.	251.43
62896	8.7642	1.85	0.	378.13
62897	8.7642	1.9	5.e-002	58.994
62898	8.9135	1.9	0.	130.75
62899	8.8637	1.85	0.	224.61
62900	8.8637	1.9	5.e-002	48.485
62901	9.0131	1.9	0.	49.995
62902	8.9633	1.85	0.	116.32
62903	8.9633	1.9	5.e-002	40.833
62904	9.1127	1.9	0.	14.075
62905	9.0629	1.85	0.	44.155
62906	9.0629	1.9	5.e-002	35.025
62907	9.2123	1.9	0.	5.8915
62908	9.1625	1.85	0.	12.987
62909	9.1625	1.9	5.e-002	30.469
62910	9.3118	1.9	0.	3.3684
62911	9.2621	1.85	0.	5.6366
62912	9.2621	1.9	5.e-002	26.8
62913	9.4114	1.9	0.	2.2279
62914	9.3616	1.85	0.	3.2665
62915	9.3616	1.9	5.e-002	23.78
62916	9.511	1.9	0.	1.5955
62917	9.4612	1.85	0.	2.1729
62918	9.4612	1.9	5.e-002	21.252
62919	9.6106	1.9	0.	1.2002
62920	9.5608	1.85	0.	1.56
62921	9.5608	1.9	5.e-002	19.106
62922	9.7102	1.9	0.	0.93279
62923	9.6604	1.85	0.	1.1742
62924	9.6604	1.9	5.e-002	17.264
62925	9.8097	1.9	0.	0.74172
62926	9.76	1.85	0.	0.91223
62927	9.76	1.9	5.e-002	15.67
62928	9.9093	1.9	0.	0.5996
62929	9.8595	1.85	0.	0.72464
62930	9.8595	1.9	5.e-002	14.281
62931	10.009	1.9	0.	0.49065
62932	9.9591	1.85	0.	0.58499
62933	9.9591	1.9	5.e-002	13.066
62934	10.108	1.9	0.	0.4052
62935	10.059	1.85	0.	0.47794
62936	10.059	1.9	5.e-002	11.998
62937	10.208	1.9	0.	0.33699
62938	10.158	1.85	0.	0.39406
62939	10.158	1.9	5.e-002	11.058
62940	10.308	1.9	0.	0.28181
62941	10.258	1.85	0.	0.3272
62942	10.258	1.9	5.e-002	10.229
62943	10.407	1.9	0.	0.2367
62944	10.357	1.85	0.	0.27321
62945	10.357	1.9	5.e-002	9.4966
62946	10.507	1.9	0.	0.19952
62947	10.457	1.85	0.	0.22917
62948	10.457	1.9	5.e-002	8.8504
62949	10.606	1.9	0.	0.16866
62950	10.557	1.85	0.	0.19294
62951	10.557	1.9	5.e-002	8.2798
62952	10.706	1.9	0.	0.14292
62953	10.656	1.85	0.	0.16293
62954	10.656	1.9	5.e-002	7.7762
62955	10.806	1.9	0.	0.12137
62956	10.756	1.85	0.	0.13797
62957	10.756	1.9	5.e-002	7.3319
62958	10.905	1.9	0.	0.10327
62959	10.855	1.85	0.	0.1171
62960	10.855	1.9	5.e-002	6.9401
62961	11.005	1.9	0.	8.804e-002
62962	10.955	1.85	0.	9.9613e-002
62963	10.955	1.9	5.e-002	6.5947
62964	11.104	1.9	0.	7.5175e-002
62965	11.055	1.85	0.	8.4925e-002
62966	11.055	1.9	5.e-002	6.2904
62967	11.204	1.9	0.	6.4282e-002
62968	11.154	1.85	0.	7.2511e-002
62969	11.154	1.9	5.e-002	6.0223
62970	11.303	1.9	0.	5.507e-002
62971	11.254	1.85	0.	6.2036e-002
62972	11.254	1.9	5.e-002	5.786
62973	11.403	1.9	0.	4.7268e-002
62974	11.353	1.85	0.	5.3194e-002
62975	11.353	1.9	5.e-002	5.5776
62976	11.503	1.9	0.	4.065e-002
62977	11.453	1.85	0.	4.5702e-002
62978	11.453	1.9	5.e-002	5.3937
62979	11.602	1.9	0.	3.5031e-002
62980	11.552	1.85	0.	3.9356e-002
62981	11.552	1.9	5.e-002	5.2313
62982	11.702	1.9	0.	3.0252e-002
62983	11.652	1.85	0.	3.3967e-002
62984	11.652	1.9	5.e-002	5.0875
62985	11.801	1.9	0.	2.6192e-002
62986	11.752	1.85	0.	2.9382e-002
62987	11.752	1.9	5.e-002	4.96
62988	11.901	1.9	0.	2.2757e-002
62989	11.851	1.85	0.	2.5499e-002
62990	11.851	1.9	5.e-002	4.8467
62991	12.001	1.9	0.	1.9842e-002
62992	11.951	1.85	0.	2.2216e-002
62993	11.951	1.9	5.e-002	4.7457
62994	12.1	1.9	0.	1.736e-002
62995	12.05	1.85	0.	1.9418e-002
62996	12.05	1.9	5.e-002	4.6555
62997	12.2	1.9	0.	1.525e-002
62998	12.15	1.85	0.	1.7036e-002
62999	12.15	1.9	5.e-002	4.5746
63000	12.299	1.9	0.	1.3465e-002
63001	12.249	1.85	0.	1.5011e-002
63002	12.249	1.9	5.e-002	4.5018
63003	12.399	1.9	0.	1.1963e-002
63004	12.349	1.85	0.	1.3304e-002
63005	12.349	1.9	5.e-002	4.4361
63006	12.498	1.9	0.	1.068e-002
63007	12.449	1.85	0.	1.1865e-002
63008	12.449	1.9	5.e-002	4.3765
63009	12.598	1.9	0.	9.5836e-003
63010	12.548	1.85	0.	1.0615e-002
63011	12.548	1.9	5.e-002	4.3223
63012	12.698	1.9	0.	8.6662e-003
63013	12.648	1.85	0.	9.5611e-003
63014	12.648	1.9	5.e-002	4.2727
63015	12.797	1.9	0.	7.8986e-003
63016	12.747	1.85	0.	8.6822e-003
63017	12.747	1.9	5.e-002	4.2272
63018	12.897	1.9	0.	7.2563e-003
63019	12.847	1.85	0.	7.9388e-003
63020	12.847	1.9	5.e-002	4.1852
63021	12.996	1.9	0.	6.7193e-003
63022	12.947	1.85	0.	7.3186e-003
63023	12.947	1.9	5.e-002	4.1464
63024	13.096	1.9	0.	6.2657e-003
63025	13.046	1.85	0.	6.7944e-003
63026	13.046	1.9	5.e-002	4.1103
63027	13.195	1.9	0.	5.8931e-003
63028	13.146	1.85	0.	6.3479e-003
63029	13.146	1.9	5.e-002	4.0767
63030	13.295	1.9	0.	5.6006e-003
63031	13.245	1.85	0.	5.9911e-003
63032	13.245	1.9	5.e-002	4.0453
63033	13.395	1.9	0.	5.3682e-003
63034	13.345	1.85	0.	5.7113e-003
63035	13.345	1.9	5.e-002	4.0157
63036	13.494	1.9	0.	5.1799e-003
63037	13.444	1.85	0.	5.4791e-003
63038	13.444	1.9	5.e-002	3.988
63039	13.594	1.9	0.	5.0321e-003
63040	13.544	1.85	0.	5.2914e-003
63041	13.544	1.9	5.e-002	3.9617
63042	13.693	1.9	0.	4.9203e-003
63043	13.644	1.85	0.	5.1445e-003
63044	13.644	1.9	5.e-002	3.9368
63045	13.793	1.9	0.	4.8457e-003
63046	13.743	1.85	0.	5.0326e-003
63047	13.743	1.9	5.e-002	3.9133
63048	13.893	1.9	0.	4.8072e-003
63049	13.843	1.85	0.	4.9624e-003
63050	13.843	1.9	5.e-002	3.8907
63051	13.992	1.9	0.	4.7815e-003
63052	13.942	1.85	0.	4.9256e-003
63053	13.942	1.9	5.e-002	3.8693
63054	14.092	1.9	0.	4.7651e-003
63055	14.042	1.85	0.	4.8843e-003
63056	14.042	1.9	5.e-002	3.8488
63057	14.191	1.9	0.	4.7749e-003
63058	14.142	1.85	0.	4.8685e-003
63059	14.142	1.9	5.e-002	3.829
63060	14.291	1.9	0.	4.8056e-003
63061	14.241	1.85	0.	4.8826e-003
63062	14.241	1.9	5.e-002	3.81
63063	14.39	1.9	0.	4.8499e-003
63064	14.341	1.85	0.	4.9101e-003
63065	14.341	1.9	5.e-002	3.7918
63066	14.49	1.9	0.	4.9058e-003
63067	14.44	1.85	0.	4.9534e-003
63068	14.44	1.9	5.e-002	3.7741
63069	14.59	1.9	0.	4.9686e-003
63070	14.54	1.85	0.	5.0077e-003
63071	14.54	1.9	5.e-002	3.7571
63072	14.689	1.9	0.	5.0436e-003
63073	14.639	1.85	0.	5.0653e-003
63074	14.639	1.9	5.e-002	3.7406
63075	14.789	1.9	0.	5.1396e-003
63076	14.739	1.85	0.	5.146e-003
63077	14.739	1.9	5.e-002	3.7246
63078	14.888	1.9	0.	5.2477e-003
63079	14.839	1.85	0.	5.2497e-003
63080	14.839	1.9	5.e-002	3.7091
63081	14.988	1.9	0.	5.3616e-003
63082	14.938	1.85	0.	5.3564e-003
63083	14.938	1.9	5.e-002	3.6941
63084	15.088	1.9	0.	5.4855e-003
63085	15.038	1.85	0.	5.4741e-003
63086	15.038	1.9	5.e-002	3.6794
63087	15.187	1.9	0.	5.6263e-003
63088	15.137	1.85	0.	5.604e-003
63089	15.137	1.9	5.e-002	3.6652
63090	15.287	1.9	0.	5.7888e-003
63091	15.237	1.85	0.	5.7584e-003
63092	15.237	1.9	5.e-002	3.6514
63093	15.386	1.9	0.	5.959e-003
63094	15.336	1.85	0.	5.9373e-003
63095	15.336	1.9	5.e-002	3.6379
63096	15.486	1.9	0.	6.1437e-003
63097	15.436	1.85	0.	6.1137e-003
63098	15.436	1.9	5.e-002	3.6248
63099	15.585	1.9	0.	6.3658e-003
63100	15.536	1.85	0.	6.3293e-003
63101	15.536	1.9	5.e-002	3.6119
63102	15.685	1.9	0.	6.6334e-003
63103	15.635	1.85	0.	6.5929e-003
63104	15.635	1.9	5.e-002	3.5994
63105	15.785	1.9	0.	6.9654e-003
63106	15.735	1.85	0.	6.9177e-003
63107	15.735	1.9	5.e-002	3.5871
63108	15.884	1.9	0.	7.3977e-003
63109	15.834	1.85	0.	7.3425e-003
63110	15.834	1.9	5.e-002	3.5751
63111	15.984	1.9	0.	8.0037e-003
63112	15.934	1.85	0.	7.9269e-003
63113	15.934	1.9	5.e-002	3.5634
63114	16.083	1.9	0.	8.9771e-003
63115	16.034	1.85	0.	8.8282e-003
63116	16.034	1.9	5.e-002	3.5519
63117	16.183	1.9	0.	1.0916e-002
63118	16.133	1.85	0.	1.0517e-002
63119	16.133	1.9	5.e-002	3.5406
63120	16.282	1.9	0.	1.7131e-002
63121	16.233	1.85	0.	1.5059e-002
63122	16.233	1.9	5.e-002	3.5295
63123	16.382	1.9	0.	0.22868
63124	16.332	1.85	0.	6.9192e-002
63125	16.332	1.9	5.e-002	3.5188
63126	16.482	1.9	0.	1.28
63127	16.432	1.85	0.	0.98428
63128	16.432	1.9	5.e-002	3.5082
63129	16.581	1.9	0.	2.3449
63130	16.531	1.85	0.	2.0404
63131	16.531	1.9	5.e-002	3.4978
63132	16.681	1.9	0.	3.3919
63133	16.631	1.85	0.	3.08
63134	16.631	1.9	5.e-002	3.4877
63135	16.78	1.9	0.	4.4212
63136	16.731	1.85	0.	4.1016
63137	16.731	1.9	5.e-002	3.4777
63138	16.88	1.9	0.	5.4341
63139	16.83	1.85	0.	5.1064
63140	16.83	1.9	5.e-002	3.468
63141	16.98	1.9	0.	6.4324
63142	16.93	1.85	0.	6.096
63143	16.93	1.9	5.e-002	3.4585
63144	17.079	1.9	0.	7.4178
63145	17.029	1.85	0.	7.0722
63146	17.029	1.9	5.e-002	3.4491
63147	17.179	1.9	0.	8.3921
63148	17.129	1.85	0.	8.0367
63149	17.129	1.9	5.e-002	3.4399
63150	17.278	1.9	0.	9.3569
63151	17.229	1.85	0.	8.991
63152	17.229	1.9	5.e-002	3.4309
63153	17.378	1.9	0.	10.314
63154	17.328	1.85	0.	9.937
63155	17.328	1.9	5.e-002	3.4221
63156	17.477	1.9	0.	11.265
63157	17.428	1.85	0.	10.876
63158	17.428	1.9	5.e-002	3.4134
63159	17.577	1.9	0.	12.212
63160	17.527	1.85	0.	11.81
63161	17.527	1.9	5.e-002	3.4049
63162	17.677	1.9	0.	13.157
63163	17.627	1.85	0.	12.741
63164	17.627	1.9	5.e-002	3.3966
63165	17.776	1.9	0.	14.1
63166	17.726	1.85	0.	13.671
63167	17.726	1.9	5.e-002	3.3885
63168	17.876	1.9	0.	15.044
63169	17.826	1.85	0.	14.6
63170	17.826	1.9	5.e-002	3.3805
63171	17.975	1.9	0.	15.991
63172	17.926	1.85	0.	15.53
63173	17.926	1.9	5.e-002	3.3728
63174	18.075	1.9	0.	16.943
63175	18.025	1.85	0.	16.465
63176	18.025	1.9	5.e-002	3.3652
63177	18.175	1.9	0.	17.9
63178	18.125	1.85	0.	17.404
63179	18.125	1.9	5.e-002	3.3578
63180	18.274	1.9	0.	18.864
63181	18.224	1.85	0.	18.349
63182	18.224	1.9	5.e-002	3.3506
63183	18.374	1.9	0.	19.839
63184	18.324	1.85	0.	19.303
63185	18.324	1.9	5.e-002	3.3436
63186	18.473	1.9	0.	20.824
63187	18.423	1.85	0.	20.267
63188	18.423	1.9	5.e-002	3.3367
63189	18.573	1.9	0.	21.822
63190	18.523	1.85	0.	21.243
63191	18.523	1.9	5.e-002	3.3301
63192	18.672	1.9	0.	22.835
63193	18.623	1.85	0.	22.233
63194	18.623	1.9	5.e-002	3.3236
63195	18.772	1.9	0.	23.865
63196	18.722	1.85	0.	23.237
63197	18.722	1.9	5.e-002	3.3173
63198	18.872	1.9	0.	24.913
63199	18.822	1.85	0.	24.259
63200	18.822	1.9	5.e-002	3.3112
63201	18.971	1.9	0.	25.981
63202	18.921	1.85	0.	25.299
63203	18.921	1.9	5.e-002	3.3053
63204	19.071	1.9	0.	27.072
63205	19.021	1.85	0.	26.361
63206	19.021	1.9	5.e-002	3.2996
63207	19.17	1.9	0.	28.186
63208	19.121	1.85	0.	27.445
63209	19.121	1.9	5.e-002	3.2941
63210	19.27	1.9	0.	29.327
63211	19.22	1.85	0.	28.553
63212	19.22	1.9	5.e-002	3.2889
63213	19.369	1.9	0.	30.496
63214	19.32	1.85	0.	29.688
63215	19.32	1.9	5.e-002	3.2838
63216	19.469	1.9	0.	31.695
63217	19.419	1.85	0.	30.851
63218	19.419	1.9	5.e-002	3.2791
63219	19.569	1.9	0.	32.926
63220	19.519	1.85	0.	32.046
63221	19.519	1.9	5.e-002	3.2745
63222	19.668	1.9	0.	34.192
63223	19.618	1.85	0.	33.272
63224	19.618	1.9	5.e-002	3.2702
63225	19.768	1.9	0.	35.495
63226	19.718	1.85	0.	34.534
63227	19.718	1.9	5.e-002	3.2662
63228	19.867	1.9	0.	36.837
63229	19.818	1.85	0.	35.833
63230	19.818	1.9	5.e-002	3.2625
63231	19.967	1.9	0.	38.221
63232	19.917	1.85	0.	37.172
63233	19.917	1.9	5.e-002	3.259
63234	20.067	1.9	0.	39.648
63235	20.017	1.85	0.	38.552
63236	20.017	1.9	5.e-002	3.2558
63237	20.166	1.9	0.	41.123
63238	20.116	1.85	0.	39.977
63239	20.116	1.9	5.e-002	3.2529
63240	20.266	1.9	0.	42.647
63241	20.216	1.85	0.	41.449
63242	20.216	1.9	5.e-002	3.2503
63243	20.365	1.9	0.	44.222
63244	20.316	1.85	0.	42.97
63245	20.316	1.9	5.e-002	3.2481
63246	20.465	1.9	0.	45.853
63247	20.415	1.85	0.	44.544
63248	20.415	1.9	5.e-002	3.2462
63249	20.564	1.9	0.	47.541
63250	20.515	1.85	0.	46.173
63251	20.515	1.9	5.e-002	3.2446
63252	20.664	1.9	0.	49.29
63253	20.614	1.85	0.	47.86
63254	20.614	1.9	5.e-002	3.2435
63255	20.764	1.9	0.	51.104
63256	20.714	1.85	0.	49.608
63257	20.714	1.9	5.e-002	3.2428
63258	20.863	1.9	0.	52.984
63259	20.813	1.85	0.	51.421
63260	20.813	1.9	5.e-002	3.2424
63261	20.963	1.9	0.	54.935
63262	20.913	1.85	0.	53.301
63263	20.913	1.9	5.e-002	3.2426
63264	21.062	1.9	0.	56.961
63265	21.013	1.85	0.	55.253
63266	21.013	1.9	5.e-002	3.2431
63267	21.162	1.9	0.	59.065
63268	21.112	1.85	0.	57.28
63269	21.112	1.9	5.e-002	3.2442
63270	21.262	1.9	0.	61.25
63271	21.212	1.85	0.	59.385
63272	21.212	1.9	5.e-002	3.2459
63273	21.361	1.9	0.	63.521
63274	21.311	1.85	0.	61.573
63275	21.311	1.9	5.e-002	3.2481
63276	21.461	1.9	0.	65.883
63277	21.411	1.85	0.	63.847
63278	21.411	1.9	5.e-002	3.2508
63279	21.56	1.9	0.	68.338
63280	21.51	1.85	0.	66.212
63281	21.51	1.9	5.e-002	3.2542
63282	21.66	1.9	0.	70.893
63283	21.61	1.85	0.	68.673
63284	21.61	1.9	5.e-002	3.2583
63285	21.759	1.9	0.	73.551
63286	21.71	1.85	0.	71.234
63287	21.71	1.9	5.e-002	3.2631
63288	21.859	1.9	0.	76.317
63289	21.809	1.85	0.	73.899
63290	21.809	1.9	5.e-002	3.2686
63291	21.959	1.9	0.	79.196
63292	21.909	1.85	0.	76.675
63293	21.909	1.9	5.e-002	3.2749
63294	22.058	1.9	0.	82.193
63295	22.008	1.85	0.	79.565
63296	22.008	1.9	5.e-002	3.2821
63297	22.158	1.9	0.	85.313
63298	22.108	1.85	0.	82.575
63299	22.108	1.9	5.e-002	3.2902
63300	22.257	1.9	0.	88.562
63301	22.208	1.85	0.	85.711
63302	22.208	1.9	5.e-002	3.2992
63303	22.357	1.9	0.	91.944
63304	22.307	1.85	0.	88.977
63305	22.307	1.9	5.e-002	3.3093
63306	22.456	1.9	0.	95.465
63307	22.407	1.85	0.	92.381
63308	22.407	1.9	5.e-002	3.3205
63309	22.556	1.9	0.	99.129
63310	22.506	1.85	0.	95.926
63311	22.506	1.9	5.e-002	3.3329
63312	22.656	1.9	0.	102.94
63313	22.606	1.85	0.	99.618
63314	22.606	1.9	5.e-002	3.3465
63315	22.755	1.9	0.	106.91
63316	22.705	1.85	0.	103.46
63317	22.705	1.9	5.e-002	3.3614
63318	22.855	1.9	0.	111.03
63319	22.805	1.85	0.	107.46
63320	22.805	1.9	5.e-002	3.3776
63321	22.954	1.9	0.	115.32
63322	22.905	1.85	0.	111.63
63323	22.905	1.9	5.e-002	3.3953
63324	23.054	1.9	0.	119.76
63325	23.004	1.85	0.	115.96
63326	23.004	1.9	5.e-002	3.4144
63327	23.154	1.9	0.	124.38
63328	23.104	1.85	0.	120.45
63329	23.104	1.9	5.e-002	3.435
63330	23.253	1.9	0.	129.16
63331	23.203	1.85	0.	125.12
63332	23.203	1.9	5.e-002	3.4571
63333	23.353	1.9	0.	134.11
63334	23.303	1.85	0.	129.96
63335	23.303	1.9	5.e-002	3.4808
63336	23.452	1.9	0.	139.23
63337	23.403	1.85	0.	134.97
63338	23.403	1.9	5.e-002	3.5059
63339	23.552	1.9	0.	144.52
63340	23.502	1.85	0.	140.16
63341	23.502	1.9	5.e-002	3.5325
63342	23.651	1.9	0.	149.97
63343	23.602	1.85	0.	145.51
63344	23.602	1.9	5.e-002	3.5604
63345	23.751	1.9	0.	155.59
63346	23.701	1.85	0.	151.04
63347	23.701	1.9	5.e-002	3.5899
63348	23.851	1.9	0.	161.37
63349	23.801	1.85	0.	156.74
63350	23.801	1.9	5.e-002	3.6202
63351	23.9	1.85	0.	162.59
63352	23.9	1.9	5.e-002	3.6753
63353	23.95	1.9	0.	167.14
63354	8.316	1.8	0.	3217.2
63355	8.2662	1.75	0.	3736.8
63356	8.2662	1.8	5.e-002	304.34
63357	8.2165	1.8	0.	2877.3
63358	8.4156	1.8	0.	1982.8
63359	8.3658	1.75	0.	2366.9
63360	8.3658	1.8	5.e-002	174.36
63361	8.5152	1.8	0.	1286.2
63362	8.4654	1.75	0.	1585.7
63363	8.4654	1.8	5.e-002	113.94
63364	8.6148	1.8	0.	842.89
63365	8.565	1.75	0.	1068.8
63366	8.565	1.8	5.e-002	86.469
63367	8.7144	1.8	0.	549.66
63368	8.6646	1.75	0.	718.63
63369	8.6646	1.8	5.e-002	67.23
63370	8.8139	1.8	0.	349.12
63371	8.7642	1.75	0.	476.63
63372	8.7642	1.8	5.e-002	54.668
63373	8.9135	1.8	0.	208.19
63374	8.8637	1.75	0.	305.52
63375	8.8637	1.8	5.e-002	45.51
63376	9.0131	1.8	0.	108.39
63377	8.9633	1.75	0.	182.84
63378	8.9633	1.8	5.e-002	38.647
63379	9.1127	1.8	0.	41.948
63380	9.0629	1.75	0.	95.036
63381	9.0629	1.8	5.e-002	33.318
63382	9.2123	1.8	0.	12.828
63383	9.1625	1.75	0.	36.825
63384	9.1625	1.8	5.e-002	29.074
63385	9.3118	1.8	0.	5.6281
63386	9.2621	1.75	0.	11.806
63387	9.2621	1.8	5.e-002	25.617
63388	9.4114	1.8	0.	3.2655
63389	9.3616	1.75	0.	5.3605
63390	9.3616	1.8	5.e-002	22.75
63391	9.511	1.8	0.	2.1704
63392	9.4612	1.75	0.	3.1534
63393	9.4612	1.8	5.e-002	20.337
63394	9.6106	1.8	0.	1.5556
63395	9.5608	1.75	0.	2.1092
63396	9.5608	1.8	5.e-002	18.282
63397	9.7102	1.8	0.	1.1684
63398	9.6604	1.75	0.	1.5162
63399	9.6604	1.8	5.e-002	16.514
63400	9.8097	1.8	0.	0.90567
63401	9.76	1.75	0.	1.1401
63402	9.76	1.8	5.e-002	14.983
63403	9.9093	1.8	0.	0.7177
63404	9.8595	1.75	0.	0.88367
63405	9.8595	1.8	5.e-002	13.648
63406	10.009	1.8	0.	0.57798
63407	9.9591	1.75	0.	0.69974
63408	9.9591	1.8	5.e-002	12.48
63409	10.108	1.8	0.	0.4711
63410	10.059	1.75	0.	0.56283
63411	10.059	1.8	5.e-002	11.455
63412	10.208	1.8	0.	0.38754
63413	10.158	1.75	0.	0.45809
63414	10.158	1.8	5.e-002	10.554
63415	10.308	1.8	0.	0.32112
63416	10.258	1.75	0.	0.37625
63417	10.258	1.8	5.e-002	9.761
63418	10.407	1.8	0.	0.26764
63419	10.357	1.75	0.	0.31128
63420	10.357	1.8	5.e-002	9.0624
63421	10.507	1.8	0.	0.22412
63422	10.457	1.75	0.	0.25906
63423	10.457	1.8	5.e-002	8.4474
63424	10.606	1.8	0.	0.18841
63425	10.557	1.75	0.	0.21664
63426	10.557	1.8	5.e-002	7.9063
63427	10.706	1.8	0.	0.15892
63428	10.656	1.75	0.	0.1819
63429	10.656	1.8	5.e-002	7.4304
63430	10.806	1.8	0.	0.13444
63431	10.756	1.75	0.	0.15327
63432	10.756	1.8	5.e-002	7.0123
63433	10.905	1.8	0.	0.11403
63434	10.855	1.75	0.	0.12955
63435	10.855	1.8	5.e-002	6.6453
63436	11.005	1.8	0.	9.6968e-002
63437	10.955	1.75	0.	0.10983
63438	10.955	1.8	5.e-002	6.3234
63439	11.104	1.8	0.	8.2638e-002
63440	11.055	1.75	0.	9.3379e-002
63441	11.055	1.8	5.e-002	6.0414
63442	11.204	1.8	0.	7.0568e-002
63443	11.154	1.75	0.	7.9559e-002
63444	11.154	1.8	5.e-002	5.7942
63445	11.303	1.8	0.	6.0404e-002
63446	11.254	1.75	0.	6.7957e-002
63447	11.254	1.8	5.e-002	5.5775
63448	11.403	1.8	0.	5.1825e-002
63449	11.353	1.75	0.	5.8204e-002
63450	11.353	1.8	5.e-002	5.3876
63451	11.503	1.8	0.	4.4568e-002
63452	11.453	1.75	0.	4.9975e-002
63453	11.453	1.8	5.e-002	5.2209
63454	11.602	1.8	0.	3.8423e-002
63455	11.552	1.75	0.	4.3025e-002
63456	11.552	1.8	5.e-002	5.0743
63457	11.702	1.8	0.	3.3204e-002
63458	11.652	1.75	0.	3.7138e-002
63459	11.652	1.8	5.e-002	4.9453
63460	11.801	1.8	0.	2.8776e-002
63461	11.752	1.75	0.	3.214e-002
63462	11.752	1.8	5.e-002	4.8313
63463	11.901	1.8	0.	2.503e-002
63464	11.851	1.75	0.	2.7913e-002
63465	11.851	1.8	5.e-002	4.7304
63466	12.001	1.8	0.	2.1851e-002
63467	11.951	1.75	0.	2.4339e-002
63468	11.951	1.8	5.e-002	4.6408
63469	12.1	1.8	0.	1.9144e-002
63470	12.05	1.75	0.	2.1295e-002
63471	12.05	1.8	5.e-002	4.5609
63472	12.2	1.8	0.	1.6839e-002
63473	12.15	1.75	0.	1.8703e-002
63474	12.15	1.8	5.e-002	4.4894
63475	12.299	1.8	0.	1.4885e-002
63476	12.249	1.75	0.	1.6497e-002
63477	12.249	1.8	5.e-002	4.4251
63478	12.399	1.8	0.	1.3236e-002
63479	12.349	1.75	0.	1.4633e-002
63480	12.349	1.8	5.e-002	4.3671
63481	12.498	1.8	0.	1.1824e-002
63482	12.449	1.75	0.	1.3057e-002
63483	12.449	1.8	5.e-002	4.3145
63484	12.598	1.8	0.	1.0613e-002
63485	12.548	1.75	0.	1.1686e-002
63486	12.548	1.8	5.e-002	4.2665
63487	12.698	1.8	0.	9.594e-003
63488	12.648	1.75	0.	1.0526e-002
63489	12.648	1.8	5.e-002	4.2225
63490	12.797	1.8	0.	8.7365e-003
63491	12.747	1.75	0.	9.5534e-003
63492	12.747	1.8	5.e-002	4.1821
63493	12.897	1.8	0.	8.0129e-003
63494	12.847	1.75	0.	8.7255e-003
63495	12.847	1.8	5.e-002	4.1447
63496	12.996	1.8	0.	7.4034e-003
63497	12.947	1.75	0.	8.0292e-003
63498	12.947	1.8	5.e-002	4.1099
63499	13.096	1.8	0.	6.8847e-003
63500	13.046	1.75	0.	7.4375e-003
63501	13.046	1.8	5.e-002	4.0775
63502	13.195	1.8	0.	6.4526e-003
63503	13.146	1.75	0.	6.93e-003
63504	13.146	1.8	5.e-002	4.0472
63505	13.295	1.8	0.	6.1072e-003
63506	13.245	1.75	0.	6.5175e-003
63507	13.245	1.8	5.e-002	4.0186
63508	13.395	1.8	0.	5.8264e-003
63509	13.345	1.75	0.	6.1878e-003
63510	13.345	1.8	5.e-002	3.9917
63511	13.494	1.8	0.	5.5938e-003
63512	13.444	1.75	0.	5.9098e-003
63513	13.444	1.8	5.e-002	3.9662
63514	13.594	1.8	0.	5.4063e-003
63515	13.544	1.75	0.	5.681e-003
63516	13.544	1.8	5.e-002	3.9421
63517	13.693	1.8	0.	5.2587e-003
63518	13.644	1.75	0.	5.4964e-003
63519	13.644	1.8	5.e-002	3.9191
63520	13.793	1.8	0.	5.1505e-003
63521	13.743	1.75	0.	5.3503e-003
63522	13.743	1.8	5.e-002	3.8971
63523	13.893	1.8	0.	5.0814e-003
63524	13.843	1.75	0.	5.2486e-003
63525	13.843	1.8	5.e-002	3.8761
63526	13.992	1.8	0.	5.0286e-003
63527	13.942	1.75	0.	5.1837e-003
63528	13.942	1.8	5.e-002	3.856
63529	14.092	1.8	0.	4.9874e-003
63530	14.042	1.75	0.	5.117e-003
63531	14.042	1.8	5.e-002	3.8367
63532	14.191	1.8	0.	4.9755e-003
63533	14.142	1.75	0.	5.0775e-003
63534	14.142	1.8	5.e-002	3.818
63535	14.291	1.8	0.	4.9861e-003
63536	14.241	1.75	0.	5.0706e-003
63537	14.241	1.8	5.e-002	3.8
63538	14.39	1.8	0.	5.0122e-003
63539	14.341	1.75	0.	5.0801e-003
63540	14.341	1.8	5.e-002	3.7826
63541	14.49	1.8	0.	5.0536e-003
63542	14.44	1.75	0.	5.1075e-003
63543	14.44	1.8	5.e-002	3.7657
63544	14.59	1.8	0.	5.1024e-003
63545	14.54	1.75	0.	5.1478e-003
63546	14.54	1.8	5.e-002	3.7494
63547	14.689	1.8	0.	5.1655e-003
63548	14.639	1.75	0.	5.1929e-003
63549	14.639	1.8	5.e-002	3.7335
63550	14.789	1.8	0.	5.2536e-003
63551	14.739	1.75	0.	5.2647e-003
63552	14.739	1.8	5.e-002	3.718
63553	14.888	1.8	0.	5.3558e-003
63554	14.839	1.75	0.	5.3611e-003
63555	14.839	1.8	5.e-002	3.703
63556	14.988	1.8	0.	5.466e-003
63557	14.938	1.75	0.	5.4644e-003
63558	14.938	1.8	5.e-002	3.6884
63559	15.088	1.8	0.	5.5894e-003
63560	15.038	1.75	0.	5.5811e-003
63561	15.038	1.8	5.e-002	3.6742
63562	15.187	1.8	0.	5.7327e-003
63563	15.137	1.75	0.	5.7133e-003
63564	15.137	1.8	5.e-002	3.6603
63565	15.287	1.8	0.	5.9032e-003
63566	15.237	1.75	0.	5.8751e-003
63567	15.237	1.8	5.e-002	3.6468
63568	15.386	1.8	0.	6.0878e-003
63569	15.336	1.75	0.	6.068e-003
63570	15.336	1.8	5.e-002	3.6336
63571	15.486	1.8	0.	6.2944e-003
63572	15.436	1.75	0.	6.2663e-003
63573	15.436	1.8	5.e-002	3.6208
63574	15.585	1.8	0.	6.5503e-003
63575	15.536	1.75	0.	6.514e-003
63576	15.536	1.8	5.e-002	3.6081
63577	15.685	1.8	0.	6.8688e-003
63578	15.635	1.75	0.	6.8276e-003
63579	15.635	1.8	5.e-002	3.5958
63580	15.785	1.8	0.	7.2814e-003
63581	15.735	1.75	0.	7.2302e-003
63582	15.735	1.8	5.e-002	3.5837
63583	15.884	1.8	0.	7.8467e-003
63584	15.834	1.75	0.	7.7827e-003
63585	15.834	1.8	5.e-002	3.5719
63586	15.984	1.8	0.	8.6944e-003
63587	15.934	1.75	0.	8.594e-003
63588	15.934	1.8	5.e-002	3.5603
63589	16.083	1.8	0.	1.0195e-002
63590	16.034	1.75	0.	9.9667e-003
63591	16.034	1.8	5.e-002	3.549
63592	16.183	1.8	0.	1.3765e-002
63593	16.133	1.75	0.	1.2967e-002
63594	16.133	1.8	5.e-002	3.5378
63595	16.282	1.8	0.	3.4532e-002
63596	16.233	1.75	0.	2.5257e-002
63597	16.233	1.8	5.e-002	3.5269
63598	16.382	1.8	0.	0.70491
63599	16.332	1.75	0.	0.46094
63600	16.332	1.8	5.e-002	3.5162
63601	16.482	1.8	0.	1.7507
63602	16.432	1.75	0.	1.4896
63603	16.432	1.8	5.e-002	3.5057
63604	16.581	1.8	0.	2.7832
63605	16.531	1.75	0.	2.513
63606	16.531	1.8	5.e-002	3.4955
63607	16.681	1.8	0.	3.7977
63608	16.631	1.75	0.	3.5187
63609	16.631	1.8	5.e-002	3.4854
63610	16.78	1.8	0.	4.795
63611	16.731	1.75	0.	4.507
63612	16.731	1.8	5.e-002	3.4755
63613	16.88	1.8	0.	5.7768
63614	16.83	1.75	0.	5.4792
63615	16.83	1.8	5.e-002	3.4658
63616	16.98	1.8	0.	6.7444
63617	16.93	1.75	0.	6.4369
63618	16.93	1.8	5.e-002	3.4564
63619	17.079	1.8	0.	7.6998
63620	17.029	1.75	0.	7.3818
63621	17.029	1.8	5.e-002	3.447
63622	17.179	1.8	0.	8.6444
63623	17.129	1.75	0.	8.3154
63624	17.129	1.8	5.e-002	3.4379
63625	17.278	1.8	0.	9.58
63626	17.229	1.75	0.	9.2393
63627	17.229	1.8	5.e-002	3.4289
63628	17.378	1.8	0.	10.508
63629	17.328	1.75	0.	10.155
63630	17.328	1.8	5.e-002	3.4201
63631	17.477	1.8	0.	11.431
63632	17.428	1.75	0.	11.065
63633	17.428	1.8	5.e-002	3.4115
63634	17.577	1.8	0.	12.349
63635	17.527	1.75	0.	11.969
63636	17.527	1.8	5.e-002	3.403
63637	17.677	1.8	0.	13.265
63638	17.627	1.75	0.	12.87
63639	17.627	1.8	5.e-002	3.3947
63640	17.776	1.8	0.	14.18
63641	17.726	1.75	0.	13.77
63642	17.726	1.8	5.e-002	3.3866
63643	17.876	1.8	0.	15.095
63644	17.826	1.75	0.	14.67
63645	17.826	1.8	5.e-002	3.3787
63646	17.975	1.8	0.	16.013
63647	17.926	1.75	0.	15.571
63648	17.926	1.8	5.e-002	3.3709
63649	18.075	1.8	0.	16.935
63650	18.025	1.75	0.	16.475
63651	18.025	1.8	5.e-002	3.3633
63652	18.175	1.8	0.	17.863
63653	18.125	1.75	0.	17.384
63654	18.125	1.8	5.e-002	3.3559
63655	18.274	1.8	0.	18.798
63656	18.224	1.75	0.	18.299
63657	18.224	1.8	5.e-002	3.3487
63658	18.374	1.8	0.	19.742
63659	18.324	1.75	0.	19.222
63660	18.324	1.8	5.e-002	3.3417
63661	18.473	1.8	0.	20.697
63662	18.423	1.75	0.	20.154
63663	18.423	1.8	5.e-002	3.3348
63664	18.573	1.8	0.	21.664
63665	18.523	1.75	0.	21.098
63666	18.523	1.8	5.e-002	3.3281
63667	18.672	1.8	0.	22.645
63668	18.623	1.75	0.	22.055
63669	18.623	1.8	5.e-002	3.3216
63670	18.772	1.8	0.	23.642
63671	18.722	1.75	0.	23.026
63672	18.722	1.8	5.e-002	3.3153
63673	18.872	1.8	0.	24.656
63674	18.822	1.75	0.	24.013
63675	18.822	1.8	5.e-002	3.3091
63676	18.971	1.8	0.	25.689
63677	18.921	1.75	0.	25.018
63678	18.921	1.8	5.e-002	3.3032
63679	19.071	1.8	0.	26.744
63680	19.021	1.75	0.	26.043
63681	19.021	1.8	5.e-002	3.2974
63682	19.17	1.8	0.	27.822
63683	19.121	1.75	0.	27.09
63684	19.121	1.8	5.e-002	3.2919
63685	19.27	1.8	0.	28.925
63686	19.22	1.75	0.	28.16
63687	19.22	1.8	5.e-002	3.2866
63688	19.369	1.8	0.	30.055
63689	19.32	1.75	0.	29.255
63690	19.32	1.8	5.e-002	3.2815
63691	19.469	1.8	0.	31.213
63692	19.419	1.75	0.	30.377
63693	19.419	1.8	5.e-002	3.2767
63694	19.569	1.8	0.	32.403
63695	19.519	1.75	0.	31.529
63696	19.519	1.8	5.e-002	3.2721
63697	19.668	1.8	0.	33.626
63698	19.618	1.75	0.	32.712
63699	19.618	1.8	5.e-002	3.2677
63700	19.768	1.8	0.	34.884
63701	19.718	1.75	0.	33.928
63702	19.718	1.8	5.e-002	3.2636
63703	19.867	1.8	0.	36.179
63704	19.818	1.75	0.	35.18
63705	19.818	1.8	5.e-002	3.2598
63706	19.967	1.8	0.	37.515
63707	19.917	1.75	0.	36.469
63708	19.917	1.8	5.e-002	3.2562
63709	20.067	1.8	0.	38.892
63710	20.017	1.75	0.	37.799
63711	20.017	1.8	5.e-002	3.2529
63712	20.166	1.8	0.	40.315
63713	20.116	1.75	0.	39.171
63714	20.116	1.8	5.e-002	3.2499
63715	20.266	1.8	0.	41.784
63716	20.216	1.75	0.	40.587
63717	20.216	1.8	5.e-002	3.2472
63718	20.365	1.8	0.	43.303
63719	20.316	1.75	0.	42.052
63720	20.316	1.8	5.e-002	3.2449
63721	20.465	1.8	0.	44.876
63722	20.415	1.75	0.	43.566
63723	20.415	1.8	5.e-002	3.2428
63724	20.564	1.8	0.	46.503
63725	20.515	1.75	0.	45.133
63726	20.515	1.8	5.e-002	3.2411
63727	20.664	1.8	0.	48.189
63728	20.614	1.75	0.	46.756
63729	20.614	1.8	5.e-002	3.2398
63730	20.764	1.8	0.	49.937
63731	20.714	1.75	0.	48.437
63732	20.714	1.8	5.e-002	3.2389
63733	20.863	1.8	0.	51.75
63734	20.813	1.75	0.	50.181
63735	20.813	1.8	5.e-002	3.2384
63736	20.963	1.8	0.	53.63
63737	20.913	1.75	0.	51.989
63738	20.913	1.8	5.e-002	3.2384
63739	21.062	1.8	0.	55.583
63740	21.013	1.75	0.	53.867
63741	21.013	1.8	5.e-002	3.2388
63742	21.162	1.8	0.	57.611
63743	21.112	1.75	0.	55.816
63744	21.112	1.8	5.e-002	3.2397
63745	21.262	1.8	0.	59.719
63746	21.212	1.75	0.	57.841
63747	21.212	1.8	5.e-002	3.2411
63748	21.361	1.8	0.	61.909
63749	21.311	1.75	0.	59.946
63750	21.311	1.8	5.e-002	3.2431
63751	21.461	1.8	0.	64.188
63752	21.411	1.75	0.	62.135
63753	21.411	1.8	5.e-002	3.2456
63754	21.56	1.8	0.	66.558
63755	21.51	1.75	0.	64.413
63756	21.51	1.8	5.e-002	3.2488
63757	21.66	1.8	0.	69.025
63758	21.61	1.75	0.	66.783
63759	21.61	1.8	5.e-002	3.2526
63760	21.759	1.8	0.	71.593
63761	21.71	1.75	0.	69.251
63762	21.71	1.8	5.e-002	3.2571
63763	21.859	1.8	0.	74.267
63764	21.809	1.75	0.	71.821
63765	21.809	1.8	5.e-002	3.2623
63766	21.959	1.8	0.	77.054
63767	21.909	1.75	0.	74.5
63768	21.909	1.8	5.e-002	3.2684
63769	22.058	1.8	0.	79.957
63770	22.008	1.75	0.	77.291
63771	22.008	1.8	5.e-002	3.2753
63772	22.158	1.8	0.	82.982
63773	22.108	1.75	0.	80.202
63774	22.108	1.8	5.e-002	3.2832
63775	22.257	1.8	0.	86.136
63776	22.208	1.75	0.	83.237
63777	22.208	1.8	5.e-002	3.292
63778	22.357	1.8	0.	89.423
63779	22.307	1.75	0.	86.403
63780	22.307	1.8	5.e-002	3.3019
63781	22.456	1.8	0.	92.85
63782	22.407	1.75	0.	89.706
63783	22.407	1.8	5.e-002	3.3129
63784	22.556	1.8	0.	96.422
63785	22.506	1.75	0.	93.152
63786	22.506	1.8	5.e-002	3.325
63787	22.656	1.8	0.	100.15
63788	22.606	1.75	0.	96.747
63789	22.606	1.8	5.e-002	3.3385
63790	22.755	1.8	0.	104.02
63791	22.705	1.75	0.	100.5
63792	22.705	1.8	5.e-002	3.3533
63793	22.855	1.8	0.	108.07
63794	22.805	1.75	0.	104.41
63795	22.805	1.8	5.e-002	3.3696
63796	22.954	1.8	0.	112.27
63797	22.905	1.75	0.	108.48
63798	22.905	1.8	5.e-002	3.3873
63799	23.054	1.8	0.	116.65
63800	23.004	1.75	0.	112.73
63801	23.004	1.8	5.e-002	3.4066
63802	23.154	1.8	0.	121.2
63803	23.104	1.75	0.	117.15
63804	23.104	1.8	5.e-002	3.4275
63805	23.253	1.8	0.	125.92
63806	23.203	1.75	0.	121.75
63807	23.203	1.8	5.e-002	3.4501
63808	23.353	1.8	0.	130.82
63809	23.303	1.75	0.	126.54
63810	23.303	1.8	5.e-002	3.4744
63811	23.452	1.8	0.	135.9
63812	23.403	1.75	0.	131.5
63813	23.403	1.8	5.e-002	3.5003
63814	23.552	1.8	0.	141.16
63815	23.502	1.75	0.	136.64
63816	23.502	1.8	5.e-002	3.5278
63817	23.651	1.8	0.	146.58
63818	23.602	1.75	0.	141.97
63819	23.602	1.8	5.e-002	3.5568
63820	23.751	1.8	0.	152.19
63821	23.701	1.75	0.	147.47
63822	23.701	1.8	5.e-002	3.5874
63823	23.851	1.8	0.	157.96
63824	23.801	1.75	0.	153.15
63825	23.801	1.8	5.e-002	3.6192
63826	23.9	1.75	0.	159.01
63827	23.9	1.8	5.e-002	3.679
63828	23.95	1.8	0.	163.68
63829	8.316	1.7	0.	2816.5
63830	8.2662	1.65	0.	3110.6
63831	8.2662	1.7	5.e-002	198.58
63832	8.2165	1.7	0.	2369.
63833	8.4156	1.7	0.	1949.2
63834	8.3658	1.65	0.	2196.8
63835	8.3658	1.7	5.e-002	135.27
63836	8.5152	1.7	0.	1359.3
63837	8.4654	1.65	0.	1581.1
63838	8.4654	1.7	5.e-002	97.358
63839	8.6148	1.7	0.	939.07
63840	8.565	1.65	0.	1124.1
63841	8.565	1.7	5.e-002	75.033
63842	8.7144	1.7	0.	641.67
63843	8.6646	1.65	0.	790.01
63844	8.6646	1.7	5.e-002	60.418
63845	8.8139	1.7	0.	429.97
63846	8.7642	1.65	0.	547.3
63847	8.7642	1.7	5.e-002	50.028
63848	8.9135	1.7	0.	277.71
63849	8.8637	1.65	0.	370.43
63850	8.8637	1.7	5.e-002	42.252
63851	9.0131	1.7	0.	167.41
63852	8.9633	1.65	0.	240.88
63853	8.9633	1.7	5.e-002	36.24
63854	9.1127	1.7	0.	88.014
63855	9.0629	1.65	0.	145.79
63856	9.0629	1.7	5.e-002	31.458
63857	9.2123	1.7	0.	35.138
63858	9.1625	1.65	0.	76.849
63859	9.1625	1.7	5.e-002	27.574
63860	9.3118	1.7	0.	11.71
63861	9.2621	1.65	0.	31.094
63862	9.2621	1.7	5.e-002	24.365
63863	9.4114	1.7	0.	5.3568
63864	9.3616	1.65	0.	10.89
63865	9.3616	1.7	5.e-002	21.674
63866	9.511	1.7	0.	3.1515
63867	9.4612	1.65	0.	5.1321
63868	9.4612	1.7	5.e-002	19.39
63869	9.6106	1.7	0.	2.1053
63870	9.5608	1.65	0.	3.0539
63871	9.5608	1.7	5.e-002	17.433
63872	9.7102	1.7	0.	1.5107
63873	9.6604	1.65	0.	2.0501
63874	9.6604	1.7	5.e-002	15.744
63875	9.8097	1.7	0.	1.1336
63876	9.76	1.65	0.	1.4739
63877	9.76	1.7	5.e-002	14.276
63878	9.9093	1.7	0.	0.87658
63879	9.8595	1.65	0.	1.1063
63880	9.8595	1.7	5.e-002	12.996
63881	10.009	1.7	0.	0.69242
63882	9.9591	1.65	0.	0.85497
63883	9.9591	1.7	5.e-002	11.875
63884	10.108	1.7	0.	0.55556
63885	10.059	1.65	0.	0.67451
63886	10.059	1.7	5.e-002	10.892
63887	10.208	1.7	0.	0.45107
63888	10.158	1.65	0.	0.54034
63889	10.158	1.7	5.e-002	10.029
63890	10.308	1.7	0.	0.36963
63891	10.258	1.65	0.	0.43793
63892	10.258	1.7	5.e-002	9.271
63893	10.407	1.7	0.	0.30515
63894	10.357	1.65	0.	0.35821
63895	10.357	1.7	5.e-002	8.6054
63896	10.507	1.7	0.	0.25344
63897	10.457	1.65	0.	0.2952
63898	10.457	1.7	5.e-002	8.0215
63899	10.606	1.7	0.	0.21156
63900	10.557	1.65	0.	0.24476
63901	10.557	1.7	5.e-002	7.51
63902	10.706	1.7	0.	0.17736
63903	10.656	1.65	0.	0.204
63904	10.656	1.7	5.e-002	7.0624
63905	10.806	1.7	0.	0.14925
63906	10.756	1.65	0.	0.1708
63907	10.756	1.7	5.e-002	6.6715
63908	10.905	1.7	0.	0.12603
63909	10.855	1.65	0.	0.14357
63910	10.855	1.7	5.e-002	6.3305
63911	11.005	1.7	0.	0.10677
63912	10.955	1.65	0.	0.12114
63913	10.955	1.7	5.e-002	6.0334
63914	11.104	1.7	0.	9.0715e-002
63915	11.055	1.65	0.	0.10258
63916	11.055	1.7	5.e-002	5.775
63917	11.204	1.7	0.	7.7276e-002
63918	11.154	1.65	0.	8.7106e-002
63919	11.154	1.7	5.e-002	5.5502
63920	11.303	1.7	0.	6.6019e-002
63921	11.254	1.65	0.	7.4203e-002
63922	11.254	1.7	5.e-002	5.3547
63923	11.403	1.7	0.	5.6563e-002
63924	11.353	1.65	0.	6.3417e-002
63925	11.353	1.7	5.e-002	5.1845
63926	11.503	1.7	0.	4.8599e-002
63927	11.453	1.65	0.	5.4364e-002
63928	11.453	1.7	5.e-002	5.0363
63929	11.602	1.7	0.	4.1876e-002
63930	11.552	1.65	0.	4.6751e-002
63931	11.552	1.7	5.e-002	4.907
63932	11.702	1.7	0.	3.6185e-002
63933	11.652	1.65	0.	4.0326e-002
63934	11.652	1.7	5.e-002	4.7939
63935	11.801	1.7	0.	3.1366e-002
63936	11.752	1.65	0.	3.4889e-002
63937	11.752	1.7	5.e-002	4.6945
63938	11.901	1.7	0.	2.7295e-002
63939	11.851	1.65	0.	3.0301e-002
63940	11.851	1.7	5.e-002	4.607
63941	12.001	1.7	0.	2.3843e-002
63942	11.951	1.65	0.	2.6426e-002
63943	11.951	1.7	5.e-002	4.5296
63944	12.1	1.7	0.	2.0904e-002
63945	12.05	1.65	0.	2.3131e-002
63946	12.05	1.7	5.e-002	4.4609
63947	12.2	1.7	0.	1.8402e-002
63948	12.15	1.65	0.	2.0327e-002
63949	12.15	1.7	5.e-002	4.3994
63950	12.299	1.7	0.	1.6279e-002
63951	12.249	1.65	0.	1.794e-002
63952	12.249	1.7	5.e-002	4.3443
63953	12.399	1.7	0.	1.4483e-002
63954	12.349	1.65	0.	1.5921e-002
63955	12.349	1.7	5.e-002	4.2944
63956	12.498	1.7	0.	1.2943e-002
63957	12.449	1.65	0.	1.421e-002
63958	12.449	1.7	5.e-002	4.2492
63959	12.598	1.7	0.	1.1619e-002
63960	12.548	1.65	0.	1.2722e-002
63961	12.548	1.7	5.e-002	4.2079
63962	12.698	1.7	0.	1.0502e-002
63963	12.648	1.65	0.	1.1459e-002
63964	12.648	1.7	5.e-002	4.1699
63965	12.797	1.7	0.	9.556e-003
63966	12.747	1.65	0.	1.0395e-002
63967	12.747	1.7	5.e-002	4.1348
63968	12.897	1.7	0.	8.753e-003
63969	12.847	1.65	0.	9.4855e-003
63970	12.847	1.7	5.e-002	4.1022
63971	12.996	1.7	0.	8.0726e-003
63972	12.947	1.65	0.	8.717e-003
63973	12.947	1.7	5.e-002	4.0717
63974	13.096	1.7	0.	7.4906e-003
63975	13.046	1.65	0.	8.0599e-003
63976	13.046	1.7	5.e-002	4.0432
63977	13.195	1.7	0.	7.0012e-003
63978	13.146	1.65	0.	7.4939e-003
63979	13.146	1.7	5.e-002	4.0163
63980	13.295	1.7	0.	6.6031e-003
63981	13.245	1.65	0.	7.0274e-003
63982	13.245	1.7	5.e-002	3.9907
63983	13.395	1.7	0.	6.2751e-003
63984	13.345	1.65	0.	6.6494e-003
63985	13.345	1.7	5.e-002	3.9665
63986	13.494	1.7	0.	6.e-003
63987	13.444	1.65	0.	6.3277e-003
63988	13.444	1.7	5.e-002	3.9436
63989	13.594	1.7	0.	5.7733e-003
63990	13.544	1.65	0.	6.0587e-003
63991	13.544	1.7	5.e-002	3.9216
63992	13.693	1.7	0.	5.5895e-003
63993	13.644	1.65	0.	5.8377e-003
63994	13.644	1.7	5.e-002	3.9005
63995	13.793	1.7	0.	5.4492e-003
63996	13.743	1.65	0.	5.6583e-003
63997	13.743	1.7	5.e-002	3.8803
63998	13.893	1.7	0.	5.3511e-003
63999	13.843	1.65	0.	5.5268e-003
64000	13.843	1.7	5.e-002	3.8609
64001	13.992	1.7	0.	5.2719e-003
64002	13.942	1.65	0.	5.4341e-003
64003	13.942	1.7	5.e-002	3.8421
64004	14.092	1.7	0.	5.2065e-003
64005	14.042	1.65	0.	5.3428e-003
64006	14.042	1.7	5.e-002	3.824
64007	14.191	1.7	0.	5.1715e-003
64008	14.142	1.65	0.	5.2813e-003
64009	14.142	1.7	5.e-002	3.8064
64010	14.291	1.7	0.	5.163e-003
64011	14.241	1.65	0.	5.254e-003
64012	14.241	1.7	5.e-002	3.7894
64013	14.39	1.7	0.	5.1735e-003
64014	14.341	1.65	0.	5.246e-003
64015	14.341	1.7	5.e-002	3.7729
64016	14.49	1.7	0.	5.1996e-003
64017	14.44	1.65	0.	5.258e-003
64018	14.44	1.7	5.e-002	3.7568
64019	14.59	1.7	0.	5.2359e-003
64020	14.54	1.65	0.	5.2848e-003
64021	14.54	1.7	5.e-002	3.7412
64022	14.689	1.7	0.	5.2895e-003
64023	14.639	1.65	0.	5.3198e-003
64024	14.639	1.7	5.e-002	3.7259
64025	14.789	1.7	0.	5.3693e-003
64026	14.739	1.65	0.	5.3837e-003
64027	14.739	1.7	5.e-002	3.711
64028	14.888	1.7	0.	5.4666e-003
64029	14.839	1.65	0.	5.4749e-003
64030	14.839	1.7	5.e-002	3.6965
64031	14.988	1.7	0.	5.5761e-003
64032	14.938	1.65	0.	5.5762e-003
64033	14.938	1.7	5.e-002	3.6824
64034	15.088	1.7	0.	5.7013e-003
64035	15.038	1.65	0.	5.6952e-003
64036	15.038	1.7	5.e-002	3.6686
64037	15.187	1.7	0.	5.8517e-003
64038	15.137	1.65	0.	5.834e-003
64039	15.137	1.7	5.e-002	3.6551
64040	15.287	1.7	0.	6.0355e-003
64041	15.237	1.65	0.	6.0084e-003
64042	15.237	1.7	5.e-002	3.6419
64043	15.386	1.7	0.	6.2415e-003
64044	15.336	1.65	0.	6.2222e-003
64045	15.336	1.7	5.e-002	3.6291
64046	15.486	1.7	0.	6.48e-003
64047	15.436	1.65	0.	6.4524e-003
64048	15.436	1.7	5.e-002	3.6165
64049	15.585	1.7	0.	6.7837e-003
64050	15.536	1.65	0.	6.7485e-003
64051	15.536	1.7	5.e-002	3.6041
64052	15.685	1.7	0.	7.1781e-003
64053	15.635	1.65	0.	7.1368e-003
64054	15.635	1.7	5.e-002	3.592
64055	15.785	1.7	0.	7.7131e-003
64056	15.735	1.65	0.	7.66e-003
64057	15.735	1.7	5.e-002	3.5801
64058	15.884	1.7	0.	8.4925e-003
64059	15.834	1.65	0.	8.4176e-003
64060	15.834	1.7	5.e-002	3.5685
64061	15.984	1.7	0.	9.7688e-003
64062	15.934	1.65	0.	9.631e-003
64063	15.934	1.7	5.e-002	3.5571
64064	16.083	1.7	0.	1.2367e-002
64065	16.034	1.65	0.	1.1969e-002
64066	16.034	1.7	5.e-002	3.5459
64067	16.183	1.7	0.	2.0935e-002
64068	16.133	1.65	0.	1.8691e-002
64069	16.133	1.7	5.e-002	3.5348
64070	16.282	1.7	0.	0.24913
64071	16.233	1.65	0.	0.11638
64072	16.233	1.7	5.e-002	3.524
64073	16.382	1.7	0.	1.2447
64074	16.332	1.65	0.	1.0312
64075	16.332	1.7	5.e-002	3.5135
64076	16.482	1.7	0.	2.259
64077	16.432	1.65	0.	2.0341
64078	16.432	1.7	5.e-002	3.5031
64079	16.581	1.7	0.	3.2564
64080	16.531	1.65	0.	3.0213
64081	16.531	1.7	5.e-002	3.4929
64082	16.681	1.7	0.	4.2361
64083	16.631	1.65	0.	3.9909
64084	16.631	1.7	5.e-002	3.4829
64085	16.78	1.7	0.	5.1995
64086	16.731	1.65	0.	4.9438
64087	16.731	1.7	5.e-002	3.4731
64088	16.88	1.7	0.	6.1479
64089	16.83	1.65	0.	5.8815
64090	16.83	1.7	5.e-002	3.4635
64091	16.98	1.7	0.	7.0829
64092	16.93	1.65	0.	6.8052
64093	16.93	1.7	5.e-002	3.4541
64094	17.079	1.7	0.	8.0061
64095	17.029	1.65	0.	7.7167
64096	17.029	1.7	5.e-002	3.4448
64097	17.179	1.7	0.	8.9191
64098	17.129	1.65	0.	8.6175
64099	17.129	1.7	5.e-002	3.4357
64100	17.278	1.7	0.	9.8234
64101	17.229	1.65	0.	9.509
64102	17.229	1.7	5.e-002	3.4268
64103	17.378	1.7	0.	10.721
64104	17.328	1.65	0.	10.393
64105	17.328	1.7	5.e-002	3.418
64106	17.477	1.7	0.	11.612
64107	17.428	1.65	0.	11.27
64108	17.428	1.7	5.e-002	3.4094
64109	17.577	1.7	0.	12.5
64110	17.527	1.65	0.	12.143
64111	17.527	1.7	5.e-002	3.401
64112	17.677	1.7	0.	13.385
64113	17.627	1.65	0.	13.013
64114	17.627	1.7	5.e-002	3.3927
64115	17.776	1.7	0.	14.27
64116	17.726	1.65	0.	13.882
64117	17.726	1.7	5.e-002	3.3846
64118	17.876	1.7	0.	15.155
64119	17.826	1.65	0.	14.75
64120	17.826	1.7	5.e-002	3.3766
64121	17.975	1.7	0.	16.042
64122	17.926	1.65	0.	15.619
64123	17.926	1.7	5.e-002	3.3689
64124	18.075	1.7	0.	16.933
64125	18.025	1.65	0.	16.491
64126	18.025	1.7	5.e-002	3.3613
64127	18.175	1.7	0.	17.829
64128	18.125	1.65	0.	17.368
64129	18.125	1.7	5.e-002	3.3539
64130	18.274	1.7	0.	18.732
64131	18.224	1.65	0.	18.25
64132	18.224	1.7	5.e-002	3.3467
64133	18.374	1.7	0.	19.644
64134	18.324	1.65	0.	19.14
64135	18.324	1.7	5.e-002	3.3396
64136	18.473	1.7	0.	20.566
64137	18.423	1.65	0.	20.039
64138	18.423	1.7	5.e-002	3.3327
64139	18.573	1.7	0.	21.499
64140	18.523	1.65	0.	20.949
64141	18.523	1.7	5.e-002	3.326
64142	18.672	1.7	0.	22.446
64143	18.623	1.65	0.	21.87
64144	18.623	1.7	5.e-002	3.3195
64145	18.772	1.7	0.	23.408
64146	18.722	1.65	0.	22.806
64147	18.722	1.7	5.e-002	3.3131
64148	18.872	1.7	0.	24.386
64149	18.822	1.65	0.	23.757
64150	18.822	1.7	5.e-002	3.3069
64151	18.971	1.7	0.	25.383
64152	18.921	1.65	0.	24.724
64153	18.921	1.7	5.e-002	3.301
64154	19.071	1.7	0.	26.4
64155	19.021	1.65	0.	25.711
64156	19.021	1.7	5.e-002	3.2952
64157	19.17	1.7	0.	27.438
64158	19.121	1.65	0.	26.718
64159	19.121	1.7	5.e-002	3.2896
64160	19.27	1.7	0.	28.501
64161	19.22	1.65	0.	27.747
64162	19.22	1.7	5.e-002	3.2842
64163	19.369	1.7	0.	29.589
64164	19.32	1.65	0.	28.8
64165	19.32	1.7	5.e-002	3.2791
64166	19.469	1.7	0.	30.704
64167	19.419	1.65	0.	29.878
64168	19.419	1.7	5.e-002	3.2742
64169	19.569	1.7	0.	31.849
64170	19.519	1.65	0.	30.985
64171	19.519	1.7	5.e-002	3.2695
64172	19.668	1.7	0.	33.026
64173	19.618	1.65	0.	32.121
64174	19.618	1.7	5.e-002	3.265
64175	19.768	1.7	0.	34.236
64176	19.718	1.65	0.	33.288
64177	19.718	1.7	5.e-002	3.2608
64178	19.867	1.7	0.	35.481
64179	19.818	1.65	0.	34.49
64180	19.818	1.7	5.e-002	3.2569
64181	19.967	1.7	0.	36.765
64182	19.917	1.65	0.	35.727
64183	19.917	1.7	5.e-002	3.2532
64184	20.067	1.7	0.	38.089
64185	20.017	1.65	0.	37.002
64186	20.017	1.7	5.e-002	3.2498
64187	20.166	1.7	0.	39.455
64188	20.116	1.65	0.	38.317
64189	20.116	1.7	5.e-002	3.2467
64190	20.266	1.7	0.	40.867
64191	20.216	1.65	0.	39.676
64192	20.216	1.7	5.e-002	3.2439
64193	20.365	1.7	0.	42.326
64194	20.316	1.65	0.	41.079
64195	20.316	1.7	5.e-002	3.2414
64196	20.465	1.7	0.	43.835
64197	20.415	1.65	0.	42.529
64198	20.415	1.7	5.e-002	3.2392
64199	20.564	1.7	0.	45.397
64200	20.515	1.65	0.	44.031
64201	20.515	1.7	5.e-002	3.2373
64202	20.664	1.7	0.	47.016
64203	20.614	1.65	0.	45.585
64204	20.614	1.7	5.e-002	3.2359
64205	20.764	1.7	0.	48.693
64206	20.714	1.65	0.	47.195
64207	20.714	1.7	5.e-002	3.2348
64208	20.863	1.7	0.	50.432
64209	20.813	1.65	0.	48.864
64210	20.813	1.7	5.e-002	3.2341
64211	20.963	1.7	0.	52.237
64212	20.913	1.65	0.	50.595
64213	20.913	1.7	5.e-002	3.2339
64214	21.062	1.7	0.	54.111
64215	21.013	1.65	0.	52.392
64216	21.013	1.7	5.e-002	3.2341
64217	21.162	1.7	0.	56.058
64218	21.112	1.65	0.	54.259
64219	21.112	1.7	5.e-002	3.2348
64220	21.262	1.7	0.	58.08
64221	21.212	1.65	0.	56.198
64222	21.212	1.7	5.e-002	3.2359
64223	21.361	1.7	0.	60.184
64224	21.311	1.65	0.	58.213
64225	21.311	1.7	5.e-002	3.2376
64226	21.461	1.7	0.	62.372
64227	21.411	1.65	0.	60.31
64228	21.411	1.7	5.e-002	3.2399
64229	21.56	1.7	0.	64.649
64230	21.51	1.65	0.	62.492
64231	21.51	1.7	5.e-002	3.2428
64232	21.66	1.7	0.	67.02
64233	21.61	1.65	0.	64.764
64234	21.61	1.7	5.e-002	3.2464
64235	21.759	1.7	0.	69.49
64236	21.71	1.65	0.	67.131
64237	21.71	1.7	5.e-002	3.2506
64238	21.859	1.7	0.	72.064
64239	21.809	1.65	0.	69.598
64240	21.809	1.7	5.e-002	3.2556
64241	21.959	1.7	0.	74.748
64242	21.909	1.65	0.	72.17
64243	21.909	1.7	5.e-002	3.2613
64244	22.058	1.7	0.	77.547
64245	22.008	1.65	0.	74.853
64246	22.008	1.7	5.e-002	3.268
64247	22.158	1.7	0.	80.467
64248	22.108	1.65	0.	77.654
64249	22.108	1.7	5.e-002	3.2755
64250	22.257	1.7	0.	83.515
64251	22.208	1.65	0.	80.578
64252	22.208	1.7	5.e-002	3.284
64253	22.357	1.7	0.	86.696
64254	22.307	1.65	0.	83.631
64255	22.307	1.7	5.e-002	3.2936
64256	22.456	1.7	0.	90.017
64257	22.407	1.65	0.	86.822
64258	22.407	1.7	5.e-002	3.3044
64259	22.556	1.7	0.	93.485
64260	22.506	1.65	0.	90.156
64261	22.506	1.7	5.e-002	3.3164
64262	22.656	1.7	0.	97.106
64263	22.606	1.65	0.	93.641
64264	22.606	1.7	5.e-002	3.3297
64265	22.755	1.7	0.	100.89
64266	22.705	1.65	0.	97.283
64267	22.705	1.7	5.e-002	3.3444
64268	22.855	1.7	0.	104.83
64269	22.805	1.65	0.	101.09
64270	22.805	1.7	5.e-002	3.3606
64271	22.954	1.7	0.	108.95
64272	22.905	1.65	0.	105.07
64273	22.905	1.7	5.e-002	3.3784
64274	23.054	1.7	0.	113.24
64275	23.004	1.65	0.	109.22
64276	23.004	1.7	5.e-002	3.3979
64277	23.154	1.7	0.	117.72
64278	23.104	1.65	0.	113.56
64279	23.104	1.7	5.e-002	3.4191
64280	23.253	1.7	0.	122.37
64281	23.203	1.65	0.	118.08
64282	23.203	1.7	5.e-002	3.4422
64283	23.353	1.7	0.	127.22
64284	23.303	1.65	0.	122.79
64285	23.303	1.7	5.e-002	3.4671
64286	23.452	1.7	0.	132.24
64287	23.403	1.65	0.	127.7
64288	23.403	1.7	5.e-002	3.4938
64289	23.552	1.7	0.	137.46
64290	23.502	1.65	0.	132.79
64291	23.502	1.7	5.e-002	3.5223
64292	23.651	1.7	0.	142.85
64293	23.602	1.65	0.	138.08
64294	23.602	1.7	5.e-002	3.5525
64295	23.751	1.7	0.	148.44
64296	23.701	1.65	0.	143.55
64297	23.701	1.7	5.e-002	3.5845
64298	23.851	1.7	0.	154.21
64299	23.801	1.65	0.	149.22
64300	23.801	1.7	5.e-002	3.618
64301	23.9	1.65	0.	155.08
64302	23.9	1.7	5.e-002	3.683
64303	23.95	1.7	0.	159.87
64304	8.316	1.6	0.	2446.9
64305	8.2662	1.55	0.	2634.6
64306	8.2662	1.6	5.e-002	145.61
64307	8.2165	1.6	0.	1944.8
64308	8.4156	1.6	0.	1805.1
64309	8.3658	1.55	0.	1962.2
64310	8.3658	1.6	5.e-002	103.29
64311	8.5152	1.6	0.	1333.2
64312	8.4654	1.55	0.	1489.5
64313	8.4654	1.6	5.e-002	82.784
64314	8.6148	1.6	0.	967.22
64315	8.565	1.55	0.	1109.
64316	8.565	1.6	5.e-002	66.324
64317	8.7144	1.6	0.	690.25
64318	8.6646	1.55	0.	811.4
64319	8.6646	1.6	5.e-002	54.552
64320	8.8139	1.6	0.	483.78
64321	8.7642	1.55	0.	584.38
64322	8.7642	1.6	5.e-002	45.844
64323	8.9135	1.6	0.	330.56
64324	8.8637	1.55	0.	413.08
64325	8.8637	1.6	5.e-002	39.178
64326	9.0131	1.6	0.	216.88
64327	8.9633	1.55	0.	284.37
64328	8.9633	1.6	5.e-002	33.902
64329	9.1127	1.6	0.	132.69
64330	9.0629	1.55	0.	187.84
64331	9.0629	1.6	5.e-002	29.621
64332	9.2123	1.6	0.	71.258
64333	9.1625	1.55	0.	115.74
64334	9.1625	1.6	5.e-002	26.084
64335	9.3118	1.6	0.	30.056
64336	9.2621	1.55	0.	62.819
64337	9.2621	1.6	5.e-002	23.118
64338	9.4114	1.6	0.	10.957
64339	9.3616	1.55	0.	27.255
64340	9.3616	1.6	5.e-002	20.601
64341	9.511	1.6	0.	5.1798
64342	9.4612	1.55	0.	10.436
64343	9.4612	1.6	5.e-002	18.446
64344	9.6106	1.6	0.	3.0725
64345	9.5608	1.55	0.	5.0424
64346	9.5608	1.6	5.e-002	16.586
64347	9.7102	1.6	0.	2.0556
64348	9.6604	1.55	0.	3.0096
64349	9.6604	1.6	5.e-002	14.972
64350	9.8097	1.6	0.	1.473
64351	9.76	1.55	0.	2.0163
64352	9.76	1.6	5.e-002	13.566
64353	9.9093	1.6	0.	1.1021
64354	9.8595	1.55	0.	1.4441
64355	9.8595	1.6	5.e-002	12.336
64356	10.009	1.6	0.	0.84895
64357	9.9591	1.55	0.	1.0788
64358	9.9591	1.6	5.e-002	11.26
64359	10.108	1.6	0.	0.66765
64360	10.059	1.55	0.	0.82928
64361	10.059	1.6	5.e-002	10.316
64362	10.208	1.6	0.	0.5332
64363	10.158	1.55	0.	0.65063
64364	10.158	1.6	5.e-002	9.4881
64365	10.308	1.6	0.	0.43088
64366	10.258	1.55	0.	0.5183
64367	10.258	1.6	5.e-002	8.7632
64368	10.407	1.6	0.	0.35149
64369	10.357	1.55	0.	0.4178
64370	10.357	1.6	5.e-002	8.1291
64371	10.507	1.6	0.	0.28892
64372	10.457	1.55	0.	0.34
64373	10.457	1.6	5.e-002	7.5755
64374	10.606	1.6	0.	0.23901
64375	10.557	1.55	0.	0.27884
64376	10.557	1.6	5.e-002	7.0932
64377	10.706	1.6	0.	0.1988
64378	10.656	1.55	0.	0.23019
64379	10.656	1.6	5.e-002	6.6742
64380	10.806	1.6	0.	0.16615
64381	10.756	1.55	0.	0.19112
64382	10.756	1.6	5.e-002	6.311
64383	10.905	1.6	0.	0.13947
64384	10.855	1.55	0.	0.15949
64385	10.855	1.6	5.e-002	5.9968
64386	11.005	1.6	0.	0.11755
64387	10.955	1.55	0.	0.13372
64388	10.955	1.6	5.e-002	5.7257
64389	11.104	1.6	0.	9.9436e-002
64390	11.055	1.55	0.	0.11261
64391	11.055	1.6	5.e-002	5.4923
64392	11.204	1.6	0.	8.4397e-002
64393	11.154	1.55	0.	9.5181e-002
64394	11.154	1.6	5.e-002	5.2913
64395	11.303	1.6	0.	7.1886e-002
64396	11.254	1.55	0.	8.0764e-002
64397	11.254	1.6	5.e-002	5.1184
64398	11.403	1.6	0.	6.1442e-002
64399	11.353	1.55	0.	6.8802e-002
64400	11.353	1.6	5.e-002	4.9695
64401	11.503	1.6	0.	5.2692e-002
64402	11.453	1.55	0.	5.8825e-002
64403	11.453	1.6	5.e-002	4.8412
64404	11.602	1.6	0.	4.5342e-002
64405	11.552	1.55	0.	5.0483e-002
64406	11.552	1.6	5.e-002	4.7304
64407	11.702	1.6	0.	3.9144e-002
64408	11.652	1.55	0.	4.3479e-002
64409	11.652	1.6	5.e-002	4.6343
64410	11.801	1.6	0.	3.3914e-002
64411	11.752	1.55	0.	3.7578e-002
64412	11.752	1.6	5.e-002	4.5506
64413	11.901	1.6	0.	2.9505e-002
64414	11.851	1.55	0.	3.2614e-002
64415	11.851	1.6	5.e-002	4.4775
64416	12.001	1.6	0.	2.5774e-002
64417	11.951	1.55	0.	2.8433e-002
64418	11.951	1.6	5.e-002	4.4131
64419	12.1	1.6	0.	2.2603e-002
64420	12.05	1.55	0.	2.4885e-002
64421	12.05	1.6	5.e-002	4.3562
64422	12.2	1.6	0.	1.9905e-002
64423	12.15	1.55	0.	2.187e-002
64424	12.15	1.6	5.e-002	4.3055
64425	12.299	1.6	0.	1.7605e-002
64426	12.249	1.55	0.	1.9307e-002
64427	12.249	1.6	5.e-002	4.26
64428	12.399	1.6	0.	1.5676e-002
64429	12.349	1.55	0.	1.7137e-002
64430	12.349	1.6	5.e-002	4.2188
64431	12.498	1.6	0.	1.4012e-002
64432	12.449	1.55	0.	1.5298e-002
64433	12.449	1.6	5.e-002	4.1814
64434	12.598	1.6	0.	1.2581e-002
64435	12.548	1.55	0.	1.3699e-002
64436	12.548	1.6	5.e-002	4.1471
64437	12.698	1.6	0.	1.1368e-002
64438	12.648	1.55	0.	1.2337e-002
64439	12.648	1.6	5.e-002	4.1154
64440	12.797	1.6	0.	1.0338e-002
64441	12.747	1.55	0.	1.1188e-002
64442	12.747	1.6	5.e-002	4.0858
64443	12.897	1.6	0.	9.4602e-003
64444	12.847	1.55	0.	1.0203e-002
64445	12.847	1.6	5.e-002	4.0582
64446	12.996	1.6	0.	8.7131e-003
64447	12.947	1.55	0.	9.3658e-003
64448	12.947	1.6	5.e-002	4.0322
64449	13.096	1.6	0.	8.0705e-003
64450	13.046	1.55	0.	8.6483e-003
64451	13.046	1.6	5.e-002	4.0077
64452	13.195	1.6	0.	7.5259e-003
64453	13.146	1.55	0.	8.026e-003
64454	13.146	1.6	5.e-002	3.9843
64455	13.295	1.6	0.	7.0783e-003
64456	13.245	1.55	0.	7.5105e-003
64457	13.245	1.6	5.e-002	3.962
64458	13.395	1.6	0.	6.7055e-003
64459	13.345	1.55	0.	7.0865e-003
64460	13.345	1.6	5.e-002	3.9406
64461	13.494	1.6	0.	6.389e-003
64462	13.444	1.55	0.	6.724e-003
64463	13.444	1.6	5.e-002	3.9201
64464	13.594	1.6	0.	6.1248e-003
64465	13.544	1.55	0.	6.4167e-003
64466	13.544	1.6	5.e-002	3.9004
64467	13.693	1.6	0.	5.9075e-003
64468	13.644	1.55	0.	6.1617e-003
64469	13.644	1.6	5.e-002	3.8813
64470	13.793	1.6	0.	5.7363e-003
64471	13.743	1.55	0.	5.9507e-003
64472	13.743	1.6	5.e-002	3.8629
64473	13.893	1.6	0.	5.6096e-003
64474	13.843	1.55	0.	5.7906e-003
64475	13.843	1.6	5.e-002	3.8451
64476	13.992	1.6	0.	5.5044e-003
64477	13.942	1.55	0.	5.6724e-003
64478	13.942	1.6	5.e-002	3.8278
64479	14.092	1.6	0.	5.4164e-003
64480	14.042	1.55	0.	5.5571e-003
64481	14.042	1.6	5.e-002	3.8109
64482	14.191	1.6	0.	5.3622e-003
64483	14.142	1.55	0.	5.4751e-003
64484	14.142	1.6	5.e-002	3.7945
64485	14.291	1.6	0.	5.335e-003
64486	14.241	1.55	0.	5.4297e-003
64487	14.241	1.6	5.e-002	3.7785
64488	14.39	1.6	0.	5.3283e-003
64489	14.341	1.55	0.	5.4043e-003
64490	14.341	1.6	5.e-002	3.7629
64491	14.49	1.6	0.	5.3406e-003
64492	14.44	1.55	0.	5.402e-003
64493	14.44	1.6	5.e-002	3.7476
64494	14.59	1.6	0.	5.3657e-003
64495	14.54	1.55	0.	5.417e-003
64496	14.54	1.6	5.e-002	3.7327
64497	14.689	1.6	0.	5.4109e-003
64498	14.639	1.55	0.	5.4437e-003
64499	14.639	1.6	5.e-002	3.7181
64500	14.789	1.6	0.	5.4859e-003
64501	14.739	1.55	0.	5.5019e-003
64502	14.739	1.6	5.e-002	3.7038
64503	14.888	1.6	0.	5.5808e-003
64504	14.839	1.55	0.	5.5903e-003
64505	14.839	1.6	5.e-002	3.6898
64506	14.988	1.6	0.	5.6913e-003
64507	14.938	1.55	0.	5.6929e-003
64508	14.938	1.6	5.e-002	3.6762
64509	15.088	1.6	0.	5.8236e-003
64510	15.038	1.55	0.	5.8177e-003
64511	15.038	1.6	5.e-002	3.6628
64512	15.187	1.6	0.	5.986e-003
64513	15.137	1.55	0.	5.9687e-003
64514	15.137	1.6	5.e-002	3.6497
64515	15.287	1.6	0.	6.1899e-003
64516	15.237	1.55	0.	6.1643e-003
64517	15.237	1.6	5.e-002	3.6369
64518	15.386	1.6	0.	6.4274e-003
64519	15.336	1.55	0.	6.4093e-003
64520	15.336	1.6	5.e-002	3.6243
64521	15.486	1.6	0.	6.7142e-003
64522	15.436	1.55	0.	6.687e-003
64523	15.436	1.6	5.e-002	3.612
64524	15.585	1.6	0.	7.0926e-003
64525	15.536	1.55	0.	7.0583e-003
64526	15.536	1.6	5.e-002	3.5999
64527	15.685	1.6	0.	7.605e-003
64528	15.635	1.55	0.	7.5639e-003
64529	15.635	1.6	5.e-002	3.588
64530	15.785	1.6	0.	8.3393e-003
64531	15.735	1.55	0.	8.2842e-003
64532	15.735	1.6	5.e-002	3.5763
64533	15.884	1.6	0.	9.4977e-003
64534	15.834	1.55	0.	9.4081e-003
64535	15.834	1.6	5.e-002	3.5649
64536	15.984	1.6	0.	1.1644e-002
64537	15.934	1.55	0.	1.1434e-002
64538	15.934	1.6	5.e-002	3.5536
64539	16.083	1.6	0.	1.7202e-002
64540	16.034	1.55	0.	1.631e-002
64541	16.034	1.6	5.e-002	3.5426
64542	16.183	1.6	0.	6.2289e-002
64543	16.133	1.55	0.	4.4412e-002
64544	16.133	1.6	5.e-002	3.5317
64545	16.282	1.6	0.	0.8358
64546	16.233	1.55	0.	0.67456
64547	16.233	1.6	5.e-002	3.521
64548	16.382	1.6	0.	1.8267
64549	16.332	1.55	0.	1.6506
64550	16.332	1.6	5.e-002	3.5106
64551	16.482	1.6	0.	2.8041
64552	16.432	1.55	0.	2.6163
64553	16.432	1.6	5.e-002	3.5003
64554	16.581	1.6	0.	3.7639
64555	16.531	1.55	0.	3.5647
64556	16.531	1.6	5.e-002	3.4902
64557	16.681	1.6	0.	4.7069
64558	16.631	1.55	0.	4.4962
64559	16.631	1.6	5.e-002	3.4803
64560	16.78	1.6	0.	5.6342
64561	16.731	1.55	0.	5.4117
64562	16.731	1.6	5.e-002	3.4706
64563	16.88	1.6	0.	6.5473
64564	16.83	1.55	0.	6.3128
64565	16.83	1.6	5.e-002	3.461
64566	16.98	1.6	0.	7.4477
64567	16.93	1.55	0.	7.2007
64568	16.93	1.6	5.e-002	3.4517
64569	17.079	1.6	0.	8.3369
64570	17.029	1.55	0.	8.077
64571	17.029	1.6	5.e-002	3.4425
64572	17.179	1.6	0.	9.2163
64573	17.129	1.55	0.	8.9431
64574	17.129	1.6	5.e-002	3.4334
64575	17.278	1.6	0.	10.087
64576	17.229	1.55	0.	9.8004
64577	17.229	1.6	5.e-002	3.4245
64578	17.378	1.6	0.	10.952
64579	17.328	1.55	0.	10.65
64580	17.328	1.6	5.e-002	3.4158
64581	17.477	1.6	0.	11.811
64582	17.428	1.55	0.	11.494
64583	17.428	1.6	5.e-002	3.4072
64584	17.577	1.6	0.	12.666
64585	17.527	1.55	0.	12.334
64586	17.527	1.6	5.e-002	3.3987
64587	17.677	1.6	0.	13.519
64588	17.627	1.55	0.	13.171
64589	17.627	1.6	5.e-002	3.3905
64590	17.776	1.6	0.	14.371
64591	17.726	1.55	0.	14.006
64592	17.726	1.6	5.e-002	3.3824
64593	17.876	1.6	0.	15.224
64594	17.826	1.55	0.	14.84
64595	17.826	1.6	5.e-002	3.3745
64596	17.975	1.6	0.	16.078
64597	17.926	1.55	0.	15.676
64598	17.926	1.6	5.e-002	3.3667
64599	18.075	1.6	0.	16.936
64600	18.025	1.55	0.	16.515
64601	18.025	1.6	5.e-002	3.3591
64602	18.175	1.6	0.	17.799
64603	18.125	1.55	0.	17.357
64604	18.125	1.6	5.e-002	3.3517
64605	18.274	1.6	0.	18.668
64606	18.224	1.55	0.	18.206
64607	18.224	1.6	5.e-002	3.3445
64608	18.374	1.6	0.	19.546
64609	18.324	1.55	0.	19.061
64610	18.324	1.6	5.e-002	3.3374
64611	18.473	1.6	0.	20.433
64612	18.423	1.55	0.	19.924
64613	18.423	1.6	5.e-002	3.3305
64614	18.573	1.6	0.	21.331
64615	18.523	1.55	0.	20.798
64616	18.523	1.6	5.e-002	3.3238
64617	18.672	1.6	0.	22.241
64618	18.623	1.55	0.	21.682
64619	18.623	1.6	5.e-002	3.3172
64620	18.772	1.6	0.	23.166
64621	18.722	1.55	0.	22.58
64622	18.722	1.6	5.e-002	3.3108
64623	18.872	1.6	0.	24.106
64624	18.822	1.55	0.	23.492
64625	18.822	1.6	5.e-002	3.3046
64626	18.971	1.6	0.	25.063
64627	18.921	1.55	0.	24.42
64628	18.921	1.6	5.e-002	3.2986
64629	19.071	1.6	0.	26.04
64630	19.021	1.55	0.	25.366
64631	19.021	1.6	5.e-002	3.2927
64632	19.17	1.6	0.	27.037
64633	19.121	1.55	0.	26.331
64634	19.121	1.6	5.e-002	3.2871
64635	19.27	1.6	0.	28.057
64636	19.22	1.55	0.	27.317
64637	19.22	1.6	5.e-002	3.2816
64638	19.369	1.6	0.	29.1
64639	19.32	1.55	0.	28.325
64640	19.32	1.6	5.e-002	3.2764
64641	19.469	1.6	0.	30.17
64642	19.419	1.55	0.	29.358
64643	19.419	1.6	5.e-002	3.2714
64644	19.569	1.6	0.	31.268
64645	19.519	1.55	0.	30.416
64646	19.519	1.6	5.e-002	3.2667
64647	19.668	1.6	0.	32.395
64648	19.618	1.55	0.	31.503
64649	19.618	1.6	5.e-002	3.2621
64650	19.768	1.6	0.	33.554
64651	19.718	1.55	0.	32.619
64652	19.718	1.6	5.e-002	3.2578
64653	19.867	1.6	0.	34.747
64654	19.818	1.55	0.	33.767
64655	19.818	1.6	5.e-002	3.2538
64656	19.967	1.6	0.	35.976
64657	19.917	1.55	0.	34.949
64658	19.917	1.6	5.e-002	3.25
64659	20.067	1.6	0.	37.243
64660	20.017	1.55	0.	36.167
64661	20.017	1.6	5.e-002	3.2465
64662	20.166	1.6	0.	38.55
64663	20.116	1.55	0.	37.422
64664	20.116	1.6	5.e-002	3.2432
64665	20.266	1.6	0.	39.9
64666	20.216	1.55	0.	38.718
64667	20.216	1.6	5.e-002	3.2403
64668	20.365	1.6	0.	41.294
64669	20.316	1.55	0.	40.057
64670	20.316	1.6	5.e-002	3.2376
64671	20.465	1.6	0.	42.737
64672	20.415	1.55	0.	41.44
64673	20.415	1.6	5.e-002	3.2353
64674	20.564	1.6	0.	44.23
64675	20.515	1.55	0.	42.871
64676	20.515	1.6	5.e-002	3.2333
64677	20.664	1.6	0.	45.776
64678	20.614	1.55	0.	44.353
64679	20.614	1.6	5.e-002	3.2317
64680	20.764	1.6	0.	47.378
64681	20.714	1.55	0.	45.887
64682	20.714	1.6	5.e-002	3.2304
64683	20.863	1.6	0.	49.039
64684	20.813	1.55	0.	47.477
64685	20.813	1.6	5.e-002	3.2295
64686	20.963	1.6	0.	50.763
64687	20.913	1.55	0.	49.127
64688	20.913	1.6	5.e-002	3.229
64689	21.062	1.6	0.	52.552
64690	21.013	1.55	0.	50.838
64691	21.013	1.6	5.e-002	3.229
64692	21.162	1.6	0.	54.411
64693	21.112	1.55	0.	52.616
64694	21.112	1.6	5.e-002	3.2295
64695	21.262	1.6	0.	56.343
64696	21.212	1.55	0.	54.463
64697	21.212	1.6	5.e-002	3.2304
64698	21.361	1.6	0.	58.352
64699	21.311	1.55	0.	56.383
64700	21.311	1.6	5.e-002	3.2318
64701	21.461	1.6	0.	60.443
64702	21.411	1.55	0.	58.38
64703	21.411	1.6	5.e-002	3.2339
64704	21.56	1.6	0.	62.62
64705	21.51	1.55	0.	60.46
64706	21.51	1.6	5.e-002	3.2365
64707	21.66	1.6	0.	64.887
64708	21.61	1.55	0.	62.626
64709	21.61	1.6	5.e-002	3.2397
64710	21.759	1.6	0.	67.25
64711	21.71	1.55	0.	64.883
64712	21.71	1.6	5.e-002	3.2436
64713	21.859	1.6	0.	69.715
64714	21.809	1.55	0.	67.237
64715	21.809	1.6	5.e-002	3.2482
64716	21.959	1.6	0.	72.286
64717	21.909	1.55	0.	69.693
64718	21.909	1.6	5.e-002	3.2537
64719	22.058	1.6	0.	74.971
64720	22.008	1.55	0.	72.258
64721	22.008	1.6	5.e-002	3.26
64722	22.158	1.6	0.	77.775
64723	22.108	1.55	0.	74.938
64724	22.108	1.6	5.e-002	3.2672
64725	22.257	1.6	0.	80.705
64726	22.208	1.55	0.	77.739
64727	22.208	1.6	5.e-002	3.2754
64728	22.357	1.6	0.	83.768
64729	22.307	1.55	0.	80.669
64730	22.307	1.6	5.e-002	3.2847
64731	22.456	1.6	0.	86.971
64732	22.407	1.55	0.	83.734
64733	22.407	1.6	5.e-002	3.2951
64734	22.556	1.6	0.	90.322
64735	22.506	1.55	0.	86.944
64736	22.506	1.6	5.e-002	3.3068
64737	22.656	1.6	0.	93.827
64738	22.606	1.55	0.	90.304
64739	22.606	1.6	5.e-002	3.3199
64740	22.755	1.6	0.	97.495
64741	22.705	1.55	0.	93.825
64742	22.705	1.6	5.e-002	3.3344
64743	22.855	1.6	0.	101.33
64744	22.805	1.55	0.	97.513
64745	22.805	1.6	5.e-002	3.3506
64746	22.954	1.6	0.	105.35
64747	22.905	1.55	0.	101.38
64748	22.905	1.6	5.e-002	3.3684
64749	23.054	1.6	0.	109.54
64750	23.004	1.55	0.	105.42
64751	23.004	1.6	5.e-002	3.388
64752	23.154	1.6	0.	113.93
64753	23.104	1.55	0.	109.66
64754	23.104	1.6	5.e-002	3.4096
64755	23.253	1.6	0.	118.51
64756	23.203	1.55	0.	114.09
64757	23.203	1.6	5.e-002	3.4331
64758	23.353	1.6	0.	123.28
64759	23.303	1.55	0.	118.72
64760	23.303	1.6	5.e-002	3.4587
64761	23.452	1.6	0.	128.25
64762	23.403	1.55	0.	123.56
64763	23.403	1.6	5.e-002	3.4863
64764	23.552	1.6	0.	133.42
64765	23.502	1.55	0.	128.59
64766	23.502	1.6	5.e-002	3.5159
64767	23.651	1.6	0.	138.78
64768	23.602	1.55	0.	133.83
64769	23.602	1.6	5.e-002	3.5475
64770	23.751	1.6	0.	144.34
64771	23.701	1.55	0.	139.27
64772	23.701	1.6	5.e-002	3.5811
64773	23.851	1.6	0.	150.1
64774	23.801	1.55	0.	144.93
64775	23.801	1.6	5.e-002	3.6166
64776	23.9	1.55	0.	150.78
64777	23.9	1.6	5.e-002	3.6873
64778	23.95	1.6	0.	155.7
64779	8.316	1.5	0.	2118.5
64780	8.2662	1.45	0.	2251.1
64781	8.2662	1.5	5.e-002	113.73
64782	8.2165	1.5	0.	1635.4
64783	8.4156	1.5	0.	1625.5
64784	8.3658	1.45	0.	1727.3
64785	8.3658	1.5	5.e-002	83.756
64786	8.5152	1.5	0.	1251.5
64787	8.4654	1.45	0.	1359.3
64788	8.4654	1.5	5.e-002	70.663
64789	8.6148	1.5	0.	943.88
64790	8.565	1.45	0.	1048.1
64791	8.565	1.5	5.e-002	59.079
64792	8.7144	1.5	0.	699.
64793	8.6646	1.45	0.	793.
64794	8.6646	1.5	5.e-002	49.689
64795	8.8139	1.5	0.	508.88
64796	8.7642	1.45	0.	590.46
64797	8.7642	1.5	5.e-002	42.335
64798	8.9135	1.5	0.	363.28
64799	8.8637	1.45	0.	432.7
64800	8.8637	1.5	5.e-002	36.52
64801	9.0131	1.5	0.	252.58
64802	8.9633	1.45	0.	311.16
64803	8.9633	1.5	5.e-002	31.824
64804	9.1127	1.5	0.	168.77
64805	9.0629	1.45	0.	218.1
64806	9.0629	1.5	5.e-002	27.952
64807	9.2123	1.5	0.	105.66
64808	9.1625	1.45	0.	147.13
64809	9.1625	1.5	5.e-002	24.706
64810	9.3118	1.5	0.	58.96
64811	9.2621	1.45	0.	93.313
64812	9.2621	1.5	5.e-002	21.949
64813	9.4114	1.5	0.	26.986
64814	9.3616	1.45	0.	53.199
64815	9.3616	1.5	5.e-002	19.586
64816	9.511	1.5	0.	10.79
64817	9.4612	1.45	0.	25.406
64818	9.4612	1.5	5.e-002	17.544
64819	9.6106	1.5	0.	5.1974
64820	9.5608	1.45	0.	10.667
64821	9.5608	1.5	5.e-002	15.77
64822	9.7102	1.5	0.	3.073
64823	9.6604	1.45	0.	5.2002
64824	9.6604	1.5	5.e-002	14.223
64825	9.8097	1.5	0.	2.0428
64826	9.76	1.45	0.	3.0677
64827	9.76	1.5	5.e-002	12.869
64828	9.9093	1.5	0.	1.4537
64829	9.8595	1.45	0.	2.0301
64830	9.8595	1.5	5.e-002	11.684
64831	10.009	1.5	0.	1.0799
64832	9.9591	1.45	0.	1.4378
64833	9.9591	1.5	5.e-002	10.645
64834	10.108	1.5	0.	0.82597
64835	10.059	1.45	0.	1.0632
64836	10.059	1.5	5.e-002	9.7345
64837	10.208	1.5	0.	0.64506
64838	10.158	1.45	0.	0.80955
64839	10.158	1.5	5.e-002	8.9382
64840	10.308	1.5	0.	0.51171
64841	10.258	1.45	0.	0.62955
64842	10.258	1.5	5.e-002	8.243
64843	10.407	1.5	0.	0.41091
64844	10.357	1.45	0.	0.49744
64845	10.357	1.5	5.e-002	7.6378
64846	10.507	1.5	0.	0.33322
64847	10.457	1.45	0.	0.39799
64848	10.457	1.5	5.e-002	7.1127
64849	10.606	1.5	0.	0.27242
64850	10.557	1.45	0.	0.32167
64851	10.557	1.5	5.e-002	6.6587
64852	10.706	1.5	0.	0.22426
64853	10.656	1.45	0.	0.2622
64854	10.656	1.5	5.e-002	6.2678
64855	10.806	1.5	0.	0.18575
64856	10.756	1.45	0.	0.2153
64857	10.756	1.5	5.e-002	5.9324
64858	10.905	1.5	0.	0.1547
64859	10.855	1.45	0.	0.17793
64860	10.855	1.5	5.e-002	5.6459
64861	11.005	1.5	0.	0.1295
64862	10.955	1.45	0.	0.14793
64863	10.955	1.5	5.e-002	5.4018
64864	11.104	1.5	0.	0.10889
64865	11.055	1.45	0.	0.12366
64866	11.055	1.5	5.e-002	5.1945
64867	11.204	1.5	0.	9.196e-002
64868	11.154	1.45	0.	0.10387
64869	11.154	1.5	5.e-002	5.0188
64870	11.303	1.5	0.	7.7995e-002
64871	11.254	1.45	0.	8.7664e-002
64872	11.254	1.5	5.e-002	4.8699
64873	11.403	1.5	0.	6.6428e-002
64874	11.353	1.45	0.	7.4342e-002
64875	11.353	1.5	5.e-002	4.7437
64876	11.503	1.5	0.	5.6805e-002
64877	11.453	1.45	0.	6.3323e-002
64878	11.453	1.5	5.e-002	4.6367
64879	11.602	1.5	0.	4.8769e-002
64880	11.552	1.45	0.	5.4177e-002
64881	11.552	1.5	5.e-002	4.5456
64882	11.702	1.5	0.	4.203e-002
64883	11.652	1.45	0.	4.6549e-002
64884	11.652	1.5	5.e-002	4.4677
64885	11.801	1.5	0.	3.637e-002
64886	11.752	1.45	0.	4.0158e-002
64887	11.752	1.5	5.e-002	4.4008
64888	11.901	1.5	0.	3.1616e-002
64889	11.851	1.45	0.	3.4806e-002
64890	11.851	1.5	5.e-002	4.3428
64891	12.001	1.5	0.	2.7604e-002
64892	11.951	1.45	0.	3.0315e-002
64893	11.951	1.5	5.e-002	4.2923
64894	12.1	1.5	0.	2.4201e-002
64895	12.05	1.45	0.	2.6517e-002
64896	12.05	1.5	5.e-002	4.2479
64897	12.2	1.5	0.	2.1312e-002
64898	12.15	1.45	0.	2.3297e-002
64899	12.15	1.5	5.e-002	4.2084
64900	12.299	1.5	0.	1.8862e-002
64901	12.249	1.45	0.	2.0565e-002
64902	12.249	1.5	5.e-002	4.173
64903	12.399	1.5	0.	1.6786e-002
64904	12.349	1.45	0.	1.8254e-002
64905	12.349	1.5	5.e-002	4.141
64906	12.498	1.5	0.	1.5006e-002
64907	12.449	1.45	0.	1.6294e-002
64908	12.449	1.5	5.e-002	4.1117
64909	12.598	1.5	0.	1.3474e-002
64910	12.548	1.45	0.	1.4586e-002
64911	12.548	1.5	5.e-002	4.0846
64912	12.698	1.5	0.	1.2173e-002
64913	12.648	1.45	0.	1.3142e-002
64914	12.648	1.5	5.e-002	4.0594
64915	12.797	1.5	0.	1.1065e-002
64916	12.747	1.45	0.	1.1914e-002
64917	12.747	1.5	5.e-002	4.0357
64918	12.897	1.5	0.	1.0118e-002
64919	12.847	1.45	0.	1.086e-002
64920	12.847	1.5	5.e-002	4.0132
64921	12.996	1.5	0.	9.3094e-003
64922	12.947	1.45	0.	9.9617e-003
64923	12.947	1.5	5.e-002	3.9918
64924	13.096	1.5	0.	8.6106e-003
64925	13.046	1.45	0.	9.1882e-003
64926	13.046	1.5	5.e-002	3.9714
64927	13.195	1.5	0.	8.0161e-003
64928	13.146	1.45	0.	8.5163e-003
64929	13.146	1.5	5.e-002	3.9516
64930	13.295	1.5	0.	7.523e-003
64931	13.245	1.45	0.	7.9559e-003
64932	13.245	1.5	5.e-002	3.9325
64933	13.395	1.5	0.	7.1082e-003
64934	13.345	1.45	0.	7.4903e-003
64935	13.345	1.5	5.e-002	3.9141
64936	13.494	1.5	0.	6.7539e-003
64937	13.444	1.45	0.	7.0899e-003
64938	13.444	1.5	5.e-002	3.8962
64939	13.594	1.5	0.	6.455e-003
64940	13.544	1.45	0.	6.7489e-003
64941	13.544	1.5	5.e-002	3.8787
64942	13.693	1.5	0.	6.2056e-003
64943	13.644	1.45	0.	6.4618e-003
64944	13.644	1.5	5.e-002	3.8617
64945	13.793	1.5	0.	6.005e-003
64946	13.743	1.45	0.	6.2215e-003
64947	13.743	1.5	5.e-002	3.8451
64948	13.893	1.5	0.	5.8528e-003
64949	13.843	1.45	0.	6.0351e-003
64950	13.843	1.5	5.e-002	3.8289
64951	13.992	1.5	0.	5.7241e-003
64952	13.942	1.45	0.	5.8929e-003
64953	13.942	1.5	5.e-002	3.813
64954	14.092	1.5	0.	5.6143e-003
64955	14.042	1.45	0.	5.756e-003
64956	14.042	1.5	5.e-002	3.7975
64957	14.191	1.5	0.	5.5406e-003
64958	14.142	1.45	0.	5.6545e-003
64959	14.142	1.5	5.e-002	3.7822
64960	14.291	1.5	0.	5.4965e-003
64961	14.241	1.45	0.	5.5918e-003
64962	14.241	1.5	5.e-002	3.7673
64963	14.39	1.5	0.	5.4752e-003
64964	14.341	1.45	0.	5.5522e-003
64965	14.341	1.5	5.e-002	3.7525
64966	14.49	1.5	0.	5.4752e-003
64967	14.44	1.45	0.	5.5377e-003
64968	14.44	1.5	5.e-002	3.7381
64969	14.59	1.5	0.	5.4915e-003
64970	14.54	1.45	0.	5.5432e-003
64971	14.54	1.5	5.e-002	3.724
64972	14.689	1.5	0.	5.5309e-003
64973	14.639	1.45	0.	5.5635e-003
64974	14.639	1.5	5.e-002	3.71
64975	14.789	1.5	0.	5.6022e-003
64976	14.739	1.45	0.	5.6183e-003
64977	14.739	1.5	5.e-002	3.6963
64978	14.888	1.5	0.	5.698e-003
64979	14.839	1.45	0.	5.7075e-003
64980	14.839	1.5	5.e-002	3.6829
64981	14.988	1.5	0.	5.8146e-003
64982	14.938	1.45	0.	5.8161e-003
64983	14.938	1.5	5.e-002	3.6697
64984	15.088	1.5	0.	5.9579e-003
64985	15.038	1.45	0.	5.9529e-003
64986	15.038	1.5	5.e-002	3.6568
64987	15.187	1.5	0.	6.1417e-003
64988	15.137	1.45	0.	6.1245e-003
64989	15.137	1.5	5.e-002	3.644
64990	15.287	1.5	0.	6.378e-003
64991	15.237	1.45	0.	6.3529e-003
64992	15.237	1.5	5.e-002	3.6316
64993	15.386	1.5	0.	6.6627e-003
64994	15.336	1.45	0.	6.6468e-003
64995	15.336	1.5	5.e-002	3.6193
64996	15.486	1.5	0.	7.0238e-003
64997	15.436	1.45	0.	7.0004e-003
64998	15.436	1.5	5.e-002	3.6073
64999	15.585	1.5	0.	7.5197e-003
65000	15.536	1.45	0.	7.4897e-003
65001	15.536	1.5	5.e-002	3.5955
65002	15.685	1.5	0.	8.2272e-003
65003	15.635	1.45	0.	8.1921e-003
65004	15.635	1.5	5.e-002	3.5838
65005	15.785	1.5	0.	9.3194e-003
65006	15.735	1.45	0.	9.2694e-003
65007	15.735	1.5	5.e-002	3.5724
65008	15.884	1.5	0.	1.1247e-002
65009	15.834	1.45	0.	1.1147e-002
65010	15.834	1.5	5.e-002	3.5611
65011	15.984	1.5	0.	1.5644e-002
65012	15.934	1.45	0.	1.5278e-002
65013	15.934	1.5	5.e-002	3.55
65014	16.083	1.5	0.	3.5914e-002
65015	16.034	1.45	0.	3.1921e-002
65016	16.034	1.5	5.e-002	3.5391
65017	16.183	1.5	0.	0.53384
65018	16.133	1.45	0.	0.42966
65019	16.133	1.5	5.e-002	3.5284
65020	16.282	1.5	0.	1.4932
65021	16.233	1.45	0.	1.3691
65022	16.233	1.5	5.e-002	3.5179
65023	16.382	1.5	0.	2.4475
65024	16.332	1.45	0.	2.3102
65025	16.332	1.5	5.e-002	3.5075
65026	16.482	1.5	0.	3.3849
65027	16.432	1.45	0.	3.2349
65028	16.432	1.5	5.e-002	3.4973
65029	16.581	1.5	0.	4.3052
65030	16.531	1.45	0.	4.1425
65031	16.531	1.5	5.e-002	3.4874
65032	16.681	1.5	0.	5.2094
65033	16.631	1.45	0.	5.0338
65034	16.631	1.5	5.e-002	3.4775
65035	16.78	1.5	0.	6.0988
65036	16.731	1.45	0.	5.9102
65037	16.731	1.5	5.e-002	3.4679
65038	16.88	1.5	0.	6.9748
65039	16.83	1.45	0.	6.773
65040	16.83	1.5	5.e-002	3.4584
65041	16.98	1.5	0.	7.8388
65042	16.93	1.45	0.	7.6233
65043	16.93	1.5	5.e-002	3.4491
65044	17.079	1.5	0.	8.6921
65045	17.029	1.45	0.	8.4626
65046	17.029	1.5	5.e-002	3.44
65047	17.179	1.5	0.	9.5362
65048	17.129	1.45	0.	9.2923
65049	17.129	1.5	5.e-002	3.4309
65050	17.278	1.5	0.	10.372
65051	17.229	1.45	0.	10.114
65052	17.229	1.5	5.e-002	3.4221
65053	17.378	1.5	0.	11.202
65054	17.328	1.45	0.	10.928
65055	17.328	1.5	5.e-002	3.4134
65056	17.477	1.5	0.	12.027
65057	17.428	1.45	0.	11.737
65058	17.428	1.5	5.e-002	3.4048
65059	17.577	1.5	0.	12.848
65060	17.527	1.45	0.	12.542
65061	17.527	1.5	5.e-002	3.3964
65062	17.677	1.5	0.	13.667
65063	17.627	1.45	0.	13.343
65064	17.627	1.5	5.e-002	3.3882
65065	17.776	1.5	0.	14.485
65066	17.726	1.45	0.	14.143
65067	17.726	1.5	5.e-002	3.3801
65068	17.876	1.5	0.	15.303
65069	17.826	1.45	0.	14.943
65070	17.826	1.5	5.e-002	3.3722
65071	17.975	1.5	0.	16.123
65072	17.926	1.45	0.	15.744
65073	17.926	1.5	5.e-002	3.3644
65074	18.075	1.5	0.	16.946
65075	18.025	1.45	0.	16.547
65076	18.025	1.5	5.e-002	3.3568
65077	18.175	1.5	0.	17.774
65078	18.125	1.45	0.	17.354
65079	18.125	1.5	5.e-002	3.3494
65080	18.274	1.5	0.	18.608
65081	18.224	1.45	0.	18.166
65082	18.224	1.5	5.e-002	3.3421
65083	18.374	1.5	0.	19.449
65084	18.324	1.45	0.	18.984
65085	18.324	1.5	5.e-002	3.3351
65086	18.473	1.5	0.	20.299
65087	18.423	1.45	0.	19.811
65088	18.423	1.5	5.e-002	3.3281
65089	18.573	1.5	0.	21.16
65090	18.523	1.45	0.	20.646
65091	18.523	1.5	5.e-002	3.3214
65092	18.672	1.5	0.	22.032
65093	18.623	1.45	0.	21.492
65094	18.623	1.5	5.e-002	3.3148
65095	18.772	1.5	0.	22.917
65096	18.722	1.45	0.	22.35
65097	18.722	1.5	5.e-002	3.3083
65098	18.872	1.5	0.	23.818
65099	18.822	1.45	0.	23.222
65100	18.822	1.5	5.e-002	3.3021
65101	18.971	1.5	0.	24.734
65102	18.921	1.45	0.	24.109
65103	18.921	1.5	5.e-002	3.296
65104	19.071	1.5	0.	25.668
65105	19.021	1.45	0.	25.012
65106	19.021	1.5	5.e-002	3.2901
65107	19.17	1.5	0.	26.622
65108	19.121	1.45	0.	25.932
65109	19.121	1.5	5.e-002	3.2844
65110	19.27	1.5	0.	27.596
65111	19.22	1.45	0.	26.873
65112	19.22	1.5	5.e-002	3.2789
65113	19.369	1.5	0.	28.593
65114	19.32	1.45	0.	27.834
65115	19.32	1.5	5.e-002	3.2736
65116	19.469	1.5	0.	29.615
65117	19.419	1.45	0.	28.819
65118	19.419	1.5	5.e-002	3.2685
65119	19.569	1.5	0.	30.663
65120	19.519	1.45	0.	29.827
65121	19.519	1.5	5.e-002	3.2637
65122	19.668	1.5	0.	31.739
65123	19.618	1.45	0.	30.862
65124	19.618	1.5	5.e-002	3.259
65125	19.768	1.5	0.	32.844
65126	19.718	1.45	0.	31.925
65127	19.718	1.5	5.e-002	3.2547
65128	19.867	1.5	0.	33.981
65129	19.818	1.45	0.	33.017
65130	19.818	1.5	5.e-002	3.2505
65131	19.967	1.5	0.	35.152
65132	19.917	1.45	0.	34.141
65133	19.917	1.5	5.e-002	3.2466
65134	20.067	1.5	0.	36.359
65135	20.017	1.45	0.	35.298
65136	20.017	1.5	5.e-002	3.243
65137	20.166	1.5	0.	37.603
65138	20.116	1.45	0.	36.491
65139	20.116	1.5	5.e-002	3.2396
65140	20.266	1.5	0.	38.888
65141	20.216	1.45	0.	37.722
65142	20.216	1.5	5.e-002	3.2365
65143	20.365	1.5	0.	40.215
65144	20.316	1.45	0.	38.992
65145	20.316	1.5	5.e-002	3.2337
65146	20.465	1.5	0.	41.587
65147	20.415	1.45	0.	40.305
65148	20.415	1.5	5.e-002	3.2312
65149	20.564	1.5	0.	43.007
65150	20.515	1.45	0.	41.662
65151	20.515	1.5	5.e-002	3.229
65152	20.664	1.5	0.	44.477
65153	20.614	1.45	0.	43.067
65154	20.614	1.5	5.e-002	3.2272
65155	20.764	1.5	0.	45.999
65156	20.714	1.45	0.	44.521
65157	20.714	1.5	5.e-002	3.2257
65158	20.863	1.5	0.	47.577
65159	20.813	1.45	0.	46.028
65160	20.813	1.5	5.e-002	3.2246
65161	20.963	1.5	0.	49.215
65162	20.913	1.45	0.	47.591
65163	20.913	1.5	5.e-002	3.2239
65164	21.062	1.5	0.	50.914
65165	21.013	1.45	0.	49.212
65166	21.013	1.5	5.e-002	3.2236
65167	21.162	1.5	0.	52.68
65168	21.112	1.45	0.	50.895
65169	21.112	1.5	5.e-002	3.2238
65170	21.262	1.5	0.	54.515
65171	21.212	1.45	0.	52.644
65172	21.212	1.5	5.e-002	3.2245
65173	21.361	1.5	0.	56.424
65174	21.311	1.45	0.	54.463
65175	21.311	1.5	5.e-002	3.2257
65176	21.461	1.5	0.	58.41
65177	21.411	1.45	0.	56.354
65178	21.411	1.5	5.e-002	3.2274
65179	21.56	1.5	0.	60.478
65180	21.51	1.45	0.	58.324
65181	21.51	1.5	5.e-002	3.2296
65182	21.66	1.5	0.	62.634
65183	21.61	1.45	0.	60.376
65184	21.61	1.5	5.e-002	3.2325
65185	21.759	1.5	0.	64.882
65186	21.71	1.45	0.	62.516
65187	21.71	1.5	5.e-002	3.2361
65188	21.859	1.5	0.	67.228
65189	21.809	1.45	0.	64.749
65190	21.809	1.5	5.e-002	3.2404
65191	21.959	1.5	0.	69.678
65192	21.909	1.45	0.	67.08
65193	21.909	1.5	5.e-002	3.2454
65194	22.058	1.5	0.	72.237
65195	22.008	1.45	0.	69.516
65196	22.008	1.5	5.e-002	3.2514
65197	22.158	1.5	0.	74.914
65198	22.108	1.45	0.	72.064
65199	22.108	1.5	5.e-002	3.2582
65200	22.257	1.5	0.	77.714
65201	22.208	1.45	0.	74.73
65202	22.208	1.5	5.e-002	3.266
65203	22.357	1.5	0.	80.646
65204	22.307	1.45	0.	77.523
65205	22.307	1.5	5.e-002	3.2749
65206	22.456	1.5	0.	83.718
65207	22.407	1.45	0.	80.45
65208	22.407	1.5	5.e-002	3.285
65209	22.556	1.5	0.	86.937
65210	22.506	1.45	0.	83.52
65211	22.506	1.5	5.e-002	3.2964
65212	22.656	1.5	0.	90.312
65213	22.606	1.45	0.	86.742
65214	22.606	1.5	5.e-002	3.3091
65215	22.755	1.5	0.	93.852
65216	22.705	1.45	0.	90.126
65217	22.705	1.5	5.e-002	3.3235
65218	22.855	1.5	0.	97.566
65219	22.805	1.45	0.	93.679
65220	22.805	1.5	5.e-002	3.3395
65221	22.954	1.5	0.	101.46
65222	22.905	1.45	0.	97.412
65223	22.905	1.5	5.e-002	3.3573
65224	23.054	1.5	0.	105.55
65225	23.004	1.45	0.	101.33
65226	23.004	1.5	5.e-002	3.377
65227	23.154	1.5	0.	109.83
65228	23.104	1.45	0.	105.45
65229	23.104	1.5	5.e-002	3.3988
65230	23.253	1.5	0.	114.31
65231	23.203	1.45	0.	109.78
65232	23.203	1.5	5.e-002	3.4228
65233	23.353	1.5	0.	119.
65234	23.303	1.45	0.	114.31
65235	23.303	1.5	5.e-002	3.449
65236	23.452	1.5	0.	123.9
65237	23.403	1.45	0.	119.06
65238	23.403	1.5	5.e-002	3.4776
65239	23.552	1.5	0.	129.02
65240	23.502	1.45	0.	124.03
65241	23.502	1.5	5.e-002	3.5085
65242	23.651	1.5	0.	134.33
65243	23.602	1.45	0.	129.22
65244	23.602	1.5	5.e-002	3.5416
65245	23.751	1.5	0.	139.87
65246	23.701	1.45	0.	134.62
65247	23.701	1.5	5.e-002	3.577
65248	23.851	1.5	0.	145.62
65249	23.801	1.45	0.	140.25
65250	23.801	1.5	5.e-002	3.6148
65251	23.9	1.45	0.	146.11
65252	23.9	1.5	5.e-002	3.6918
65253	23.95	1.5	0.	151.16
65254	8.316	1.4	0.	1836.7
65255	8.2662	1.35	0.	1936.7
65256	8.2662	1.4	5.e-002	93.011
65257	8.2165	1.4	0.	1389.2
65258	8.4156	1.4	0.	1443.1
65259	8.3658	1.35	0.	1510.8
65260	8.3658	1.4	5.e-002	69.46
65261	8.5152	1.4	0.	1142.6
65262	8.4654	1.35	0.	1216.4
65263	8.4654	1.4	5.e-002	61.116
65264	8.6148	1.4	0.	887.46
65265	8.565	1.35	0.	961.95
65266	8.565	1.4	5.e-002	52.895
65267	8.7144	1.4	0.	677.26
65268	8.6646	1.35	0.	747.28
65269	8.6646	1.4	5.e-002	45.562
65270	8.8139	1.4	0.	508.91
65271	8.7642	1.35	0.	572.01
65272	8.7642	1.4	5.e-002	39.392
65273	8.9135	1.4	0.	376.54
65274	8.8637	1.35	0.	432.08
65275	8.8637	1.4	5.e-002	34.296
65276	9.0131	1.4	0.	273.62
65277	8.9633	1.35	0.	321.96
65278	8.9633	1.4	5.e-002	30.068
65279	9.1127	1.4	0.	194.14
65280	9.0629	1.35	0.	236.06
65281	9.0629	1.4	5.e-002	26.519
65282	9.2123	1.4	0.	133.03
65283	9.1625	1.35	0.	169.36
65284	9.1625	1.4	5.e-002	23.503
65285	9.3118	1.4	0.	86.285
65286	9.2621	1.35	0.	117.74
65287	9.2621	1.4	5.e-002	20.913
65288	9.4114	1.4	0.	51.045
65289	9.3616	1.35	0.	77.924
65290	9.3616	1.4	5.e-002	18.671
65291	9.511	1.4	0.	25.964
65292	9.4612	1.35	0.	47.581
65293	9.4612	1.4	5.e-002	16.719
65294	9.6106	1.4	0.	11.489
65295	9.5608	1.35	0.	25.509
65296	9.5608	1.4	5.e-002	15.013
65297	9.7102	1.4	0.	5.5567
65298	9.6604	1.35	0.	11.929
65299	9.6604	1.4	5.e-002	13.517
65300	9.8097	1.4	0.	3.214
65301	9.76	1.35	0.	5.8041
65302	9.76	1.4	5.e-002	12.204
65303	9.9093	1.4	0.	2.0941
65304	9.8595	1.35	0.	3.308
65305	9.8595	1.4	5.e-002	11.052
65306	10.009	1.4	0.	1.4656
65307	9.9591	1.35	0.	2.1249
65308	9.9591	1.4	5.e-002	10.042
65309	10.108	1.4	0.	1.0733
65310	10.059	1.35	0.	1.4699
65311	10.059	1.4	5.e-002	9.1582
65312	10.208	1.4	0.	0.81074
65313	10.158	1.35	0.	1.0662
65314	10.158	1.4	5.e-002	8.3869
65315	10.308	1.4	0.	0.62614
65316	10.258	1.35	0.	0.79885
65317	10.258	1.4	5.e-002	7.7164
65318	10.407	1.4	0.	0.49177
65319	10.357	1.35	0.	0.61266
65320	10.357	1.4	5.e-002	7.1361
65321	10.507	1.4	0.	0.39138
65322	10.457	1.35	0.	0.47828
65323	10.457	1.4	5.e-002	6.6366
65324	10.606	1.4	0.	0.31487
65325	10.557	1.35	0.	0.37865
65326	10.557	1.4	5.e-002	6.2091
65327	10.706	1.4	0.	0.25563
65328	10.656	1.35	0.	0.30324
65329	10.656	1.4	5.e-002	5.8453
65330	10.806	1.4	0.	0.20918
65331	10.756	1.35	0.	0.24524
65332	10.756	1.4	5.e-002	5.5377
65333	10.905	1.4	0.	0.17238
65334	10.855	1.35	0.	0.20003
65335	10.855	1.4	5.e-002	5.2792
65336	11.005	1.4	0.	0.14298
65337	10.955	1.35	0.	0.16442
65338	10.955	1.4	5.e-002	5.063
65339	11.104	1.4	0.	0.11929
65340	11.055	1.35	0.	0.1361
65341	11.055	1.4	5.e-002	4.8832
65342	11.204	1.4	0.	0.10005
65343	11.154	1.35	0.	0.11336
65344	11.154	1.4	5.e-002	4.7341
65345	11.303	1.4	0.	8.4369e-002
65346	11.254	1.35	0.	9.4982e-002
65347	11.254	1.4	5.e-002	4.6107
65348	11.403	1.4	0.	7.1507e-002
65349	11.353	1.35	0.	8.0055e-002
65350	11.353	1.4	5.e-002	4.5086
65351	11.503	1.4	0.	6.0901e-002
65352	11.453	1.35	0.	6.7842e-002
65353	11.453	1.4	5.e-002	4.4242
65354	11.602	1.4	0.	5.2115e-002
65355	11.552	1.35	0.	5.7799e-002
65356	11.552	1.4	5.e-002	4.354
65357	11.702	1.4	0.	4.4799e-002
65358	11.652	1.35	0.	4.9492e-002
65359	11.652	1.4	5.e-002	4.2955
65360	11.801	1.4	0.	3.8689e-002
65361	11.752	1.35	0.	4.2583e-002
65362	11.752	1.4	5.e-002	4.2462
65363	11.901	1.4	0.	3.3582e-002
65364	11.851	1.35	0.	3.6832e-002
65365	11.851	1.4	5.e-002	4.2043
65366	12.001	1.4	0.	2.9289e-002
65367	11.951	1.35	0.	3.2031e-002
65368	11.951	1.4	5.e-002	4.1683
65369	12.1	1.4	0.	2.5662e-002
65370	12.05	1.35	0.	2.7988e-002
65371	12.05	1.4	5.e-002	4.1369
65372	12.2	1.4	0.	2.259e-002
65373	12.15	1.35	0.	2.4573e-002
65374	12.15	1.4	5.e-002	4.1092
65375	12.299	1.4	0.	1.9989e-002
65376	12.249	1.35	0.	2.1683e-002
65377	12.249	1.4	5.e-002	4.0844
65378	12.399	1.4	0.	1.7788e-002
65379	12.349	1.35	0.	1.9243e-002
65380	12.349	1.4	5.e-002	4.0617
65381	12.498	1.4	0.	1.5902e-002
65382	12.449	1.35	0.	1.7175e-002
65383	12.449	1.4	5.e-002	4.0408
65384	12.598	1.4	0.	1.4279e-002
65385	12.548	1.35	0.	1.5382e-002
65386	12.548	1.4	5.e-002	4.0212
65387	12.698	1.4	0.	1.2898e-002
65388	12.648	1.35	0.	1.3853e-002
65389	12.648	1.4	5.e-002	4.0026
65390	12.797	1.4	0.	1.1721e-002
65391	12.747	1.35	0.	1.2567e-002
65392	12.747	1.4	5.e-002	3.9848
65393	12.897	1.4	0.	1.0713e-002
65394	12.847	1.35	0.	1.1443e-002
65395	12.847	1.4	5.e-002	3.9676
65396	12.996	1.4	0.	9.8487e-003
65397	12.947	1.35	0.	1.0492e-002
65398	12.947	1.4	5.e-002	3.9509
65399	13.096	1.4	0.	9.1005e-003
65400	13.046	1.35	0.	9.6696e-003
65401	13.046	1.4	5.e-002	3.9346
65402	13.195	1.4	0.	8.4614e-003
65403	13.146	1.35	0.	8.9549e-003
65404	13.146	1.4	5.e-002	3.9186
65405	13.295	1.4	0.	7.9272e-003
65406	13.245	1.35	0.	8.3543e-003
65407	13.245	1.4	5.e-002	3.9028
65408	13.395	1.4	0.	7.475e-003
65409	13.345	1.35	0.	7.8526e-003
65410	13.345	1.4	5.e-002	3.8872
65411	13.494	1.4	0.	7.0868e-003
65412	13.444	1.35	0.	7.4186e-003
65413	13.444	1.4	5.e-002	3.8719
65414	13.594	1.4	0.	6.7568e-003
65415	13.544	1.35	0.	7.047e-003
65416	13.544	1.4	5.e-002	3.8568
65417	13.693	1.4	0.	6.4781e-003
65418	13.644	1.35	0.	6.7316e-003
65419	13.644	1.4	5.e-002	3.8419
65420	13.793	1.4	0.	6.2512e-003
65421	13.743	1.35	0.	6.4654e-003
65422	13.743	1.4	5.e-002	3.8271
65423	13.893	1.4	0.	6.0743e-003
65424	13.843	1.35	0.	6.2553e-003
65425	13.843	1.4	5.e-002	3.8125
65426	13.992	1.4	0.	5.9232e-003
65427	13.942	1.35	0.	6.0915e-003
65428	13.942	1.4	5.e-002	3.7981
65429	14.092	1.4	0.	5.7941e-003
65430	14.042	1.35	0.	5.9349e-003
65431	14.042	1.4	5.e-002	3.7839
65432	14.191	1.4	0.	5.7031e-003
65433	14.142	1.35	0.	5.8161e-003
65434	14.142	1.4	5.e-002	3.7697
65435	14.291	1.4	0.	5.6445e-003
65436	14.241	1.35	0.	5.7385e-003
65437	14.241	1.4	5.e-002	3.7558
65438	14.39	1.4	0.	5.6112e-003
65439	14.341	1.35	0.	5.6866e-003
65440	14.341	1.4	5.e-002	3.742
65441	14.49	1.4	0.	5.6018e-003
65442	14.44	1.35	0.	5.6624e-003
65443	14.44	1.4	5.e-002	3.7284
65444	14.59	1.4	0.	5.611e-003
65445	14.54	1.35	0.	5.6612e-003
65446	14.54	1.4	5.e-002	3.715
65447	14.689	1.4	0.	5.6464e-003
65448	14.639	1.35	0.	5.6779e-003
65449	14.639	1.4	5.e-002	3.7018
65450	14.789	1.4	0.	5.7188e-003
65451	14.739	1.35	0.	5.7331e-003
65452	14.739	1.4	5.e-002	3.6887
65453	14.888	1.4	0.	5.8205e-003
65454	14.839	1.35	0.	5.8289e-003
65455	14.839	1.4	5.e-002	3.6757
65456	14.988	1.4	0.	5.9492e-003
65457	14.938	1.35	0.	5.9503e-003
65458	14.938	1.4	5.e-002	3.6631
65459	15.088	1.4	0.	6.1142e-003
65460	15.038	1.35	0.	6.1085e-003
65461	15.038	1.4	5.e-002	3.6506
65462	15.187	1.4	0.	6.3302e-003
65463	15.137	1.35	0.	6.3142e-003
65464	15.137	1.4	5.e-002	3.6382
65465	15.287	1.4	0.	6.6162e-003
65466	15.237	1.35	0.	6.5929e-003
65467	15.237	1.4	5.e-002	3.6261
65468	15.386	1.4	0.	6.9788e-003
65469	15.336	1.35	0.	6.9665e-003
65470	15.336	1.4	5.e-002	3.6142
65471	15.486	1.4	0.	7.46e-003
65472	15.436	1.35	0.	7.445e-003
65473	15.436	1.4	5.e-002	3.6025
65474	15.585	1.4	0.	8.1542e-003
65475	15.536	1.35	0.	8.1385e-003
65476	15.536	1.4	5.e-002	3.5909
65477	15.685	1.4	0.	9.2205e-003
65478	15.635	1.35	0.	9.2099e-003
65479	15.635	1.4	5.e-002	3.5795
65480	15.785	1.4	0.	1.1058e-002
65481	15.735	1.35	0.	1.1046e-002
65482	15.735	1.4	5.e-002	3.5682
65483	15.884	1.4	0.	1.4999e-002
65484	15.834	1.35	0.	1.4934e-002
65485	15.834	1.4	5.e-002	3.5572
65486	15.984	1.4	0.	2.9462e-002
65487	15.934	1.35	0.	2.8516e-002
65488	15.934	1.4	5.e-002	3.5463
65489	16.083	1.4	0.	0.3476
65490	16.034	1.35	0.	0.30091
65491	16.034	1.4	5.e-002	3.5355
65492	16.183	1.4	0.	1.2651
65493	16.133	1.35	0.	1.1961
65494	16.133	1.4	5.e-002	3.5249
65495	16.282	1.4	0.	2.1932
65496	16.233	1.35	0.	2.1096
65497	16.233	1.4	5.e-002	3.5145
65498	16.382	1.4	0.	3.1054
65499	16.332	1.35	0.	3.0077
65500	16.332	1.4	5.e-002	3.5043
65501	16.482	1.4	0.	4.0006
65502	16.432	1.35	0.	3.8889
65503	16.432	1.4	5.e-002	3.4943
65504	16.581	1.4	0.	4.8794
65505	16.531	1.35	0.	4.7538
65506	16.531	1.4	5.e-002	3.4844
65507	16.681	1.4	0.	5.7431
65508	16.631	1.35	0.	5.6034
65509	16.631	1.4	5.e-002	3.4746
65510	16.78	1.4	0.	6.5929
65511	16.731	1.35	0.	6.4389
65512	16.731	1.4	5.e-002	3.465
65513	16.88	1.4	0.	7.4301
65514	16.83	1.35	0.	7.2617
65515	16.83	1.4	5.e-002	3.4557
65516	16.98	1.4	0.	8.256
65517	16.93	1.35	0.	8.0728
65518	16.93	1.4	5.e-002	3.4464
65519	17.079	1.4	0.	9.0718
65520	17.029	1.35	0.	8.8736
65521	17.029	1.4	5.e-002	3.4373
65522	17.179	1.4	0.	9.8789
65523	17.129	1.35	0.	9.6654
65524	17.129	1.4	5.e-002	3.4284
65525	17.278	1.4	0.	10.679
65526	17.229	1.35	0.	10.449
65527	17.229	1.4	5.e-002	3.4195
65528	17.378	1.4	0.	11.472
65529	17.328	1.35	0.	11.227
65530	17.328	1.4	5.e-002	3.4109
65531	17.477	1.4	0.	12.261
65532	17.428	1.35	0.	11.999
65533	17.428	1.4	5.e-002	3.4023
65534	17.577	1.4	0.	13.046
65535	17.527	1.35	0.	12.767
65536	17.527	1.4	5.e-002	3.3939
65537	17.677	1.4	0.	13.829
65538	17.627	1.35	0.	13.532
65539	17.627	1.4	5.e-002	3.3857
65540	17.776	1.4	0.	14.611
65541	17.726	1.35	0.	14.295
65542	17.726	1.4	5.e-002	3.3776
65543	17.876	1.4	0.	15.394
65544	17.826	1.35	0.	15.059
65545	17.826	1.4	5.e-002	3.3697
65546	17.975	1.4	0.	16.178
65547	17.926	1.35	0.	15.823
65548	17.926	1.4	5.e-002	3.362
65549	18.075	1.4	0.	16.965
65550	18.025	1.35	0.	16.589
65551	18.025	1.4	5.e-002	3.3544
65552	18.175	1.4	0.	17.756
65553	18.125	1.35	0.	17.359
65554	18.125	1.4	5.e-002	3.347
65555	18.274	1.4	0.	18.553
65556	18.224	1.35	0.	18.133
65557	18.224	1.4	5.e-002	3.3397
65558	18.374	1.4	0.	19.356
65559	18.324	1.35	0.	18.913
65560	18.324	1.4	5.e-002	3.3326
65561	18.473	1.4	0.	20.168
65562	18.423	1.35	0.	19.701
65563	18.423	1.4	5.e-002	3.3256
65564	18.573	1.4	0.	20.989
65565	18.523	1.35	0.	20.497
65566	18.523	1.4	5.e-002	3.3188
65567	18.672	1.4	0.	21.821
65568	18.623	1.35	0.	21.303
65569	18.623	1.4	5.e-002	3.3122
65570	18.772	1.4	0.	22.666
65571	18.722	1.35	0.	22.12
65572	18.722	1.4	5.e-002	3.3057
65573	18.872	1.4	0.	23.524
65574	18.822	1.35	0.	22.949
65575	18.822	1.4	5.e-002	3.2994
65576	18.971	1.4	0.	24.397
65577	18.921	1.35	0.	23.792
65578	18.921	1.4	5.e-002	3.2933
65579	19.071	1.4	0.	25.287
65580	19.021	1.35	0.	24.651
65581	19.021	1.4	5.e-002	3.2873
65582	19.17	1.4	0.	26.195
65583	19.121	1.35	0.	25.526
65584	19.121	1.4	5.e-002	3.2816
65585	19.27	1.4	0.	27.123
65586	19.22	1.35	0.	26.419
65587	19.22	1.4	5.e-002	3.276
65588	19.369	1.4	0.	28.071
65589	19.32	1.35	0.	27.332
65590	19.32	1.4	5.e-002	3.2706
65591	19.469	1.4	0.	29.043
65592	19.419	1.35	0.	28.265
65593	19.419	1.4	5.e-002	3.2655
65594	19.569	1.4	0.	30.038
65595	19.519	1.35	0.	29.222
65596	19.519	1.4	5.e-002	3.2605
65597	19.668	1.4	0.	31.06
65598	19.618	1.35	0.	30.203
65599	19.618	1.4	5.e-002	3.2558
65600	19.768	1.4	0.	32.109
65601	19.718	1.35	0.	31.209
65602	19.718	1.4	5.e-002	3.2513
65603	19.867	1.4	0.	33.188
65604	19.818	1.35	0.	32.243
65605	19.818	1.4	5.e-002	3.247
65606	19.967	1.4	0.	34.299
65607	19.917	1.35	0.	33.306
65608	19.917	1.4	5.e-002	3.243
65609	20.067	1.4	0.	35.443
65610	20.017	1.35	0.	34.401
65611	20.017	1.4	5.e-002	3.2392
65612	20.166	1.4	0.	36.622
65613	20.116	1.35	0.	35.529
65614	20.116	1.4	5.e-002	3.2357
65615	20.266	1.4	0.	37.838
65616	20.216	1.35	0.	36.691
65617	20.216	1.4	5.e-002	3.2325
65618	20.365	1.4	0.	39.095
65619	20.316	1.35	0.	37.891
65620	20.316	1.4	5.e-002	3.2295
65621	20.465	1.4	0.	40.393
65622	20.415	1.35	0.	39.13
65623	20.415	1.4	5.e-002	3.2268
65624	20.564	1.4	0.	41.735
65625	20.515	1.35	0.	40.41
65626	20.515	1.4	5.e-002	3.2244
65627	20.664	1.4	0.	43.125
65628	20.614	1.35	0.	41.734
65629	20.614	1.4	5.e-002	3.2224
65630	20.764	1.4	0.	44.563
65631	20.714	1.35	0.	43.105
65632	20.714	1.4	5.e-002	3.2207
65633	20.863	1.4	0.	46.055
65634	20.813	1.35	0.	44.524
65635	20.813	1.4	5.e-002	3.2194
65636	20.963	1.4	0.	47.601
65637	20.913	1.35	0.	45.996
65638	20.913	1.4	5.e-002	3.2185
65639	21.062	1.4	0.	49.206
65640	21.013	1.35	0.	47.522
65641	21.013	1.4	5.e-002	3.2179
65642	21.162	1.4	0.	50.873
65643	21.112	1.35	0.	49.106
65644	21.112	1.4	5.e-002	3.2179
65645	21.262	1.4	0.	52.605
65646	21.212	1.35	0.	50.752
65647	21.212	1.4	5.e-002	3.2182
65648	21.361	1.4	0.	54.407
65649	21.311	1.35	0.	52.463
65650	21.311	1.4	5.e-002	3.2191
65651	21.461	1.4	0.	56.282
65652	21.411	1.35	0.	54.243
65653	21.411	1.4	5.e-002	3.2205
65654	21.56	1.4	0.	58.236
65655	21.51	1.35	0.	56.096
65656	21.51	1.4	5.e-002	3.2224
65657	21.66	1.4	0.	60.272
65658	21.61	1.35	0.	58.028
65659	21.61	1.4	5.e-002	3.2249
65660	21.759	1.4	0.	62.396
65661	21.71	1.35	0.	60.042
65662	21.71	1.4	5.e-002	3.2281
65663	21.859	1.4	0.	64.614
65664	21.809	1.35	0.	62.144
65665	21.809	1.4	5.e-002	3.232
65666	21.959	1.4	0.	66.932
65667	21.909	1.35	0.	64.341
65668	21.909	1.4	5.e-002	3.2367
65669	22.058	1.4	0.	69.356
65670	22.008	1.35	0.	66.639
65671	22.008	1.4	5.e-002	3.2421
65672	22.158	1.4	0.	71.894
65673	22.108	1.35	0.	69.043
65674	22.108	1.4	5.e-002	3.2485
65675	22.257	1.4	0.	74.552
65676	22.208	1.35	0.	71.563
65677	22.208	1.4	5.e-002	3.2559
65678	22.357	1.4	0.	77.34
65679	22.307	1.35	0.	74.206
65680	22.307	1.4	5.e-002	3.2644
65681	22.456	1.4	0.	80.265
65682	22.407	1.35	0.	76.98
65683	22.407	1.4	5.e-002	3.274
65684	22.556	1.4	0.	83.338
65685	22.506	1.35	0.	79.896
65686	22.506	1.4	5.e-002	3.285
65687	22.656	1.4	0.	86.567
65688	22.606	1.35	0.	82.963
65689	22.606	1.4	5.e-002	3.2974
65690	22.755	1.4	0.	89.963
65691	22.705	1.35	0.	86.191
65692	22.705	1.4	5.e-002	3.3114
65693	22.855	1.4	0.	93.535
65694	22.805	1.35	0.	89.592
65695	22.805	1.4	5.e-002	3.3272
65696	22.954	1.4	0.	97.295
65697	22.905	1.35	0.	93.176
65698	22.905	1.4	5.e-002	3.3448
65699	23.054	1.4	0.	101.25
65700	23.004	1.35	0.	96.955
65701	23.004	1.4	5.e-002	3.3646
65702	23.154	1.4	0.	105.41
65703	23.104	1.35	0.	100.94
65704	23.104	1.4	5.e-002	3.3866
65705	23.253	1.4	0.	109.79
65706	23.203	1.35	0.	105.14
65707	23.203	1.4	5.e-002	3.411
65708	23.353	1.4	0.	114.38
65709	23.303	1.35	0.	109.56
65710	23.303	1.4	5.e-002	3.438
65711	23.452	1.4	0.	119.2
65712	23.403	1.35	0.	114.21
65713	23.403	1.4	5.e-002	3.4676
65714	23.552	1.4	0.	124.24
65715	23.502	1.35	0.	119.1
65716	23.502	1.4	5.e-002	3.4999
65717	23.651	1.4	0.	129.51
65718	23.602	1.35	0.	124.22
65719	23.602	1.4	5.e-002	3.5347
65720	23.751	1.4	0.	135.01
65721	23.701	1.35	0.	129.57
65722	23.701	1.4	5.e-002	3.5722
65723	23.851	1.4	0.	140.74
65724	23.801	1.35	0.	135.17
65725	23.801	1.4	5.e-002	3.6126
65726	23.9	1.35	0.	141.03
65727	23.9	1.4	5.e-002	3.6966
65728	23.95	1.4	0.	146.21
65729	8.316	1.3	0.	1592.5
65730	8.2662	1.25	0.	1671.5
65731	8.2662	1.3	5.e-002	78.467
65732	8.2165	1.3	0.	1187.6
65733	8.4156	1.3	0.	1268.7
65734	8.3658	1.25	0.	1314.7
65735	8.3658	1.3	5.e-002	59.174
65736	8.5152	1.3	0.	1023.3
65737	8.4654	1.25	0.	1073.3
65738	8.4654	1.3	5.e-002	53.579
65739	8.6148	1.3	0.	812.08
65740	8.565	1.25	0.	863.8
65741	8.565	1.3	5.e-002	47.681
65742	8.7144	1.3	0.	634.58
65743	8.6646	1.25	0.	684.64
65744	8.6646	1.3	5.e-002	41.99
65745	8.8139	1.3	0.	489.5
65746	8.7642	1.25	0.	536.04
65747	8.7642	1.3	5.e-002	36.869
65748	8.9135	1.3	0.	373.19
65749	8.8637	1.25	0.	415.46
65750	8.8637	1.3	5.e-002	32.424
65751	9.0131	1.3	0.	281.13
65752	8.9633	1.25	0.	319.08
65753	8.9633	1.3	5.e-002	28.609
65754	9.1127	1.3	0.	208.82
65755	9.0629	1.25	0.	242.73
65756	9.0629	1.3	5.e-002	25.33
65757	9.2123	1.3	0.	152.23
65758	9.1625	1.25	0.	182.54
65759	9.1625	1.3	5.e-002	22.498
65760	9.3118	1.3	0.	108.02
65761	9.2621	1.25	0.	135.14
65762	9.2621	1.3	5.e-002	20.036
65763	9.4114	1.3	0.	73.559
65764	9.3616	1.25	0.	97.788
65765	9.3616	1.3	5.e-002	17.884
65766	9.511	1.3	0.	46.888
65767	9.4612	1.25	0.	68.34
65768	9.4612	1.3	5.e-002	15.996
65769	9.6106	1.3	0.	26.877
65770	9.5608	1.25	0.	45.2
65771	9.5608	1.3	5.e-002	14.336
65772	9.7102	1.3	0.	13.474
65773	9.6604	1.25	0.	27.379
65774	9.6604	1.3	5.e-002	12.874
65775	9.8097	1.3	0.	6.5651
65776	9.76	1.25	0.	14.67
65777	9.76	1.3	5.e-002	11.587
65778	9.9093	1.3	0.	3.6188
65779	9.8595	1.25	0.	7.2976
65780	9.8595	1.3	5.e-002	10.456
65781	10.009	1.3	0.	2.258
65782	9.9591	1.25	0.	3.9141
65783	9.9591	1.3	5.e-002	9.4637
65784	10.108	1.3	0.	1.5287
65785	10.059	1.25	0.	2.369
65786	10.059	1.3	5.e-002	8.5965
65787	10.208	1.3	0.	1.0909
65788	10.158	1.25	0.	1.5667
65789	10.158	1.3	5.e-002	7.8422
65790	10.308	1.3	0.	0.80682
65791	10.258	1.25	0.	1.0983
65792	10.258	1.3	5.e-002	7.1896
65793	10.407	1.3	0.	0.61232
65794	10.357	1.25	0.	0.80119
65795	10.357	1.3	5.e-002	6.629
65796	10.507	1.3	0.	0.47387
65797	10.457	1.25	0.	0.60136
65798	10.457	1.3	5.e-002	6.1512
65799	10.606	1.3	0.	0.37243
65800	10.557	1.25	0.	0.46122
65801	10.557	1.3	5.e-002	5.7473
65802	10.706	1.3	0.	0.29644
65803	10.656	1.25	0.	0.35982
65804	10.656	1.3	5.e-002	5.4092
65805	10.806	1.3	0.	0.23852
65806	10.756	1.25	0.	0.28467
65807	10.756	1.3	5.e-002	5.1287
65808	10.905	1.3	0.	0.19373
65809	10.855	1.25	0.	0.22792
65810	10.855	1.3	5.e-002	4.8984
65811	11.005	1.3	0.	0.15869
65812	10.955	1.25	0.	0.1844
65813	10.955	1.3	5.e-002	4.711
65814	11.104	1.3	0.	0.13098
65815	11.055	1.25	0.	0.15059
65816	11.055	1.3	5.e-002	4.5598
65817	11.204	1.3	0.	0.10886
65818	11.154	1.25	0.	0.12399
65819	11.154	1.3	5.e-002	4.4387
65820	11.303	1.3	0.	9.1087e-002
65821	11.254	1.25	0.	0.10289
65822	11.254	1.3	5.e-002	4.3423
65823	11.403	1.3	0.	7.6697e-002
65824	11.353	1.25	0.	8.6011e-002
65825	11.353	1.3	5.e-002	4.2659
65826	11.503	1.3	0.	6.4967e-002
65827	11.453	1.25	0.	7.2391e-002
65828	11.453	1.3	5.e-002	4.2054
65829	11.602	1.3	0.	5.5347e-002
65830	11.552	1.25	0.	6.1327e-002
65831	11.552	1.3	5.e-002	4.1574
65832	11.702	1.3	0.	4.7407e-002
65833	11.652	1.25	0.	5.2273e-002
65834	11.652	1.3	5.e-002	4.1192
65835	11.801	1.3	0.	4.0827e-002
65836	11.752	1.25	0.	4.4813e-002
65837	11.752	1.3	5.e-002	4.0885
65838	11.901	1.3	0.	3.5361e-002
65839	11.851	1.25	0.	3.8651e-002
65840	11.851	1.3	5.e-002	4.0633
65841	12.001	1.3	0.	3.0792e-002
65842	11.951	1.25	0.	3.3541e-002
65843	11.951	1.3	5.e-002	4.0424
65844	12.1	1.3	0.	2.6949e-002
65845	12.05	1.25	0.	2.9262e-002
65846	12.05	1.3	5.e-002	4.0246
65847	12.2	1.3	0.	2.3707e-002
65848	12.15	1.25	0.	2.5666e-002
65849	12.15	1.3	5.e-002	4.009
65850	12.299	1.3	0.	2.0969e-002
65851	12.249	1.25	0.	2.2633e-002
65852	12.249	1.3	5.e-002	3.9949
65853	12.399	1.3	0.	1.8657e-002
65854	12.349	1.25	0.	2.0079e-002
65855	12.349	1.3	5.e-002	3.9819
65856	12.498	1.3	0.	1.6677e-002
65857	12.449	1.25	0.	1.7918e-002
65858	12.449	1.3	5.e-002	3.9695
65859	12.598	1.3	0.	1.4975e-002
65860	12.548	1.25	0.	1.6048e-002
65861	12.548	1.3	5.e-002	3.9575
65862	12.698	1.3	0.	1.3528e-002
65863	12.648	1.25	0.	1.4454e-002
65864	12.648	1.3	5.e-002	3.9457
65865	12.797	1.3	0.	1.2292e-002
65866	12.747	1.25	0.	1.3102e-002
65867	12.747	1.3	5.e-002	3.9339
65868	12.897	1.3	0.	1.1231e-002
65869	12.847	1.25	0.	1.1939e-002
65870	12.847	1.3	5.e-002	3.922
65871	12.996	1.3	0.	1.0321e-002
65872	12.947	1.25	0.	1.0941e-002
65873	12.947	1.3	5.e-002	3.91
65874	13.096	1.3	0.	9.5305e-003
65875	13.046	1.25	0.	1.0083e-002
65876	13.046	1.3	5.e-002	3.8979
65877	13.195	1.3	0.	8.853e-003
65878	13.146	1.25	0.	9.3314e-003
65879	13.146	1.3	5.e-002	3.8855
65880	13.295	1.3	0.	8.2836e-003
65881	13.245	1.25	0.	8.6979e-003
65882	13.245	1.3	5.e-002	3.873
65883	13.395	1.3	0.	7.7991e-003
65884	13.345	1.25	0.	8.1659e-003
65885	13.345	1.3	5.e-002	3.8604
65886	13.494	1.3	0.	7.3806e-003
65887	13.444	1.25	0.	7.7036e-003
65888	13.444	1.3	5.e-002	3.8477
65889	13.594	1.3	0.	7.0226e-003
65890	13.544	1.25	0.	7.3052e-003
65891	13.544	1.3	5.e-002	3.8348
65892	13.693	1.3	0.	6.7189e-003
65893	13.644	1.25	0.	6.966e-003
65894	13.644	1.3	5.e-002	3.8219
65895	13.793	1.3	0.	6.4687e-003
65896	13.743	1.25	0.	6.6772e-003
65897	13.743	1.3	5.e-002	3.809
65898	13.893	1.3	0.	6.271e-003
65899	13.843	1.25	0.	6.4468e-003
65900	13.843	1.3	5.e-002	3.796
65901	13.992	1.3	0.	6.1011e-003
65902	13.942	1.25	0.	6.2649e-003
65903	13.942	1.3	5.e-002	3.7831
65904	14.092	1.3	0.	5.9543e-003
65905	14.042	1.25	0.	6.0909e-003
65906	14.042	1.3	5.e-002	3.7701
65907	14.191	1.3	0.	5.8483e-003
65908	14.142	1.25	0.	5.9574e-003
65909	14.142	1.3	5.e-002	3.7572
65910	14.291	1.3	0.	5.777e-003
65911	14.241	1.25	0.	5.8673e-003
65912	14.241	1.3	5.e-002	3.7442
65913	14.39	1.3	0.	5.7336e-003
65914	14.341	1.25	0.	5.8063e-003
65915	14.341	1.3	5.e-002	3.7314
65916	14.49	1.3	0.	5.7173e-003
65917	14.44	1.25	0.	5.7743e-003
65918	14.44	1.3	5.e-002	3.7186
65919	14.59	1.3	0.	5.7233e-003
65920	14.54	1.25	0.	5.7698e-003
65921	14.54	1.3	5.e-002	3.7059
65922	14.689	1.3	0.	5.7594e-003
65923	14.639	1.25	0.	5.7878e-003
65924	14.639	1.3	5.e-002	3.6933
65925	14.789	1.3	0.	5.8377e-003
65926	14.739	1.25	0.	5.8494e-003
65927	14.739	1.3	5.e-002	3.6808
65928	14.888	1.3	0.	5.9531e-003
65929	14.839	1.25	0.	5.9584e-003
65930	14.839	1.3	5.e-002	3.6685
65931	14.988	1.3	0.	6.104e-003
65932	14.938	1.25	0.	6.1026e-003
65933	14.938	1.3	5.e-002	3.6563
65934	15.088	1.3	0.	6.3032e-003
65935	15.038	1.25	0.	6.2975e-003
65936	15.038	1.3	5.e-002	3.6442
65937	15.187	1.3	0.	6.572e-003
65938	15.137	1.25	0.	6.5583e-003
65939	15.137	1.3	5.e-002	3.6323
65940	15.287	1.3	0.	6.9394e-003
65941	15.237	1.25	0.	6.9225e-003
65942	15.237	1.3	5.e-002	3.6205
65943	15.386	1.3	0.	7.4306e-003
65944	15.336	1.25	0.	7.4312e-003
65945	15.336	1.3	5.e-002	3.6089
65946	15.486	1.3	0.	8.1243e-003
65947	15.436	1.25	0.	8.1336e-003
65948	15.436	1.3	5.e-002	3.5975
65949	15.585	1.3	0.	9.1999e-003
65950	15.536	1.25	0.	9.2313e-003
65951	15.536	1.3	5.e-002	3.5861
65952	15.685	1.3	0.	1.1048e-002
65953	15.635	1.25	0.	1.1133e-002
65954	15.635	1.3	5.e-002	3.575
65955	15.785	1.3	0.	1.4932e-002
65956	15.735	1.25	0.	1.5147e-002
65957	15.735	1.3	5.e-002	3.564
65958	15.884	1.3	0.	2.8145e-002
65959	15.834	1.25	0.	2.8907e-002
65960	15.834	1.3	5.e-002	3.5531
65961	15.984	1.3	0.	0.27383
65962	15.934	1.25	0.	0.27791
65963	15.934	1.3	5.e-002	3.5424
65964	16.083	1.3	0.	1.1485
65965	16.034	1.25	0.	1.1374
65966	16.034	1.3	5.e-002	3.5318
65967	16.183	1.3	0.	2.0477
65968	16.133	1.25	0.	2.0208
65969	16.133	1.3	5.e-002	3.5213
65970	16.282	1.3	0.	2.9319
65971	16.233	1.25	0.	2.8895
65972	16.233	1.3	5.e-002	3.5111
65973	16.382	1.3	0.	3.7992
65974	16.332	1.25	0.	3.7416
65975	16.332	1.3	5.e-002	3.501
65976	16.482	1.3	0.	4.6503
65977	16.432	1.25	0.	4.5774
65978	16.432	1.3	5.e-002	3.491
65979	16.581	1.3	0.	5.4861
65980	16.531	1.25	0.	5.3979
65981	16.531	1.3	5.e-002	3.4812
65982	16.681	1.3	0.	6.3077
65983	16.631	1.25	0.	6.2042
65984	16.631	1.3	5.e-002	3.4716
65985	16.78	1.3	0.	7.1163
65986	16.731	1.25	0.	6.9974
65987	16.731	1.3	5.e-002	3.4621
65988	16.88	1.3	0.	7.9131
65989	16.83	1.25	0.	7.7787
65990	16.83	1.3	5.e-002	3.4528
65991	16.98	1.3	0.	8.6993
65992	16.93	1.25	0.	8.5491
65993	16.93	1.3	5.e-002	3.4436
65994	17.079	1.3	0.	9.4761
65995	17.029	1.25	0.	9.31
65996	17.029	1.3	5.e-002	3.4345
65997	17.179	1.3	0.	10.245
65998	17.129	1.25	0.	10.062
65999	17.129	1.3	5.e-002	3.4256
66000	17.278	1.3	0.	11.007
66001	17.229	1.25	0.	10.807
66002	17.229	1.3	5.e-002	3.4169
66003	17.378	1.3	0.	11.762
66004	17.328	1.25	0.	11.546
66005	17.328	1.3	5.e-002	3.4082
66006	17.477	1.3	0.	12.514
66007	17.428	1.25	0.	12.28
66008	17.428	1.3	5.e-002	3.3997
66009	17.577	1.3	0.	13.262
66010	17.527	1.25	0.	13.01
66011	17.527	1.3	5.e-002	3.3914
66012	17.677	1.3	0.	14.008
66013	17.627	1.25	0.	13.737
66014	17.627	1.3	5.e-002	3.3832
66015	17.776	1.3	0.	14.752
66016	17.726	1.25	0.	14.463
66017	17.726	1.3	5.e-002	3.3751
66018	17.876	1.3	0.	15.498
66019	17.826	1.25	0.	15.188
66020	17.826	1.3	5.e-002	3.3672
66021	17.975	1.3	0.	16.244
66022	17.926	1.25	0.	15.914
66023	17.926	1.3	5.e-002	3.3595
66024	18.075	1.3	0.	16.993
66025	18.025	1.25	0.	16.642
66026	18.025	1.3	5.e-002	3.3519
66027	18.175	1.3	0.	17.746
66028	18.125	1.25	0.	17.373
66029	18.125	1.3	5.e-002	3.3444
66030	18.274	1.3	0.	18.504
66031	18.224	1.25	0.	18.109
66032	18.224	1.3	5.e-002	3.3371
66033	18.374	1.3	0.	19.268
66034	18.324	1.25	0.	18.849
66035	18.324	1.3	5.e-002	3.33
66036	18.473	1.3	0.	20.04
66037	18.423	1.25	0.	19.597
66038	18.423	1.3	5.e-002	3.323
66039	18.573	1.3	0.	20.821
66040	18.523	1.25	0.	20.352
66041	18.523	1.3	5.e-002	3.3162
66042	18.672	1.3	0.	21.612
66043	18.623	1.25	0.	21.116
66044	18.623	1.3	5.e-002	3.3095
66045	18.772	1.3	0.	22.414
66046	18.722	1.25	0.	21.89
66047	18.722	1.3	5.e-002	3.303
66048	18.872	1.3	0.	23.228
66049	18.822	1.25	0.	22.676
66050	18.822	1.3	5.e-002	3.2966
66051	18.971	1.3	0.	24.057
66052	18.921	1.25	0.	23.474
66053	18.921	1.3	5.e-002	3.2904
66054	19.071	1.3	0.	24.901
66055	19.021	1.25	0.	24.286
66056	19.021	1.3	5.e-002	3.2844
66057	19.17	1.3	0.	25.761
66058	19.121	1.25	0.	25.114
66059	19.121	1.3	5.e-002	3.2786
66060	19.27	1.3	0.	26.64
66061	19.22	1.25	0.	25.958
66062	19.22	1.3	5.e-002	3.2729
66063	19.369	1.3	0.	27.538
66064	19.32	1.25	0.	26.82
66065	19.32	1.3	5.e-002	3.2675
66066	19.469	1.3	0.	28.457
66067	19.419	1.25	0.	27.702
66068	19.419	1.3	5.e-002	3.2622
66069	19.569	1.3	0.	29.398
66070	19.519	1.25	0.	28.605
66071	19.519	1.3	5.e-002	3.2572
66072	19.668	1.3	0.	30.364
66073	19.618	1.25	0.	29.529
66074	19.618	1.3	5.e-002	3.2524
66075	19.768	1.3	0.	31.355
66076	19.718	1.25	0.	30.478
66077	19.718	1.3	5.e-002	3.2478
66078	19.867	1.3	0.	32.374
66079	19.818	1.25	0.	31.451
66080	19.818	1.3	5.e-002	3.2434
66081	19.967	1.3	0.	33.421
66082	19.917	1.25	0.	32.452
66083	19.917	1.3	5.e-002	3.2392
66084	20.067	1.3	0.	34.5
66085	20.017	1.25	0.	33.482
66086	20.017	1.3	5.e-002	3.2353
66087	20.166	1.3	0.	35.611
66088	20.116	1.25	0.	34.541
66089	20.116	1.3	5.e-002	3.2316
66090	20.266	1.3	0.	36.757
66091	20.216	1.25	0.	35.633
66092	20.216	1.3	5.e-002	3.2282
66093	20.365	1.3	0.	37.939
66094	20.316	1.25	0.	36.759
66095	20.316	1.3	5.e-002	3.2251
66096	20.465	1.3	0.	39.16
66097	20.415	1.25	0.	37.921
66098	20.415	1.3	5.e-002	3.2222
66099	20.564	1.3	0.	40.422
66100	20.515	1.25	0.	39.122
66101	20.515	1.3	5.e-002	3.2196
66102	20.664	1.3	0.	41.728
66103	20.614	1.25	0.	40.362
66104	20.614	1.3	5.e-002	3.2174
66105	20.764	1.3	0.	43.079
66106	20.714	1.25	0.	41.646
66107	20.714	1.3	5.e-002	3.2155
66108	20.863	1.3	0.	44.479
66109	20.813	1.25	0.	42.975
66110	20.813	1.3	5.e-002	3.2139
66111	20.963	1.3	0.	45.931
66112	20.913	1.25	0.	44.351
66113	20.913	1.3	5.e-002	3.2128
66114	21.062	1.3	0.	47.436
66115	21.013	1.25	0.	45.778
66116	21.013	1.3	5.e-002	3.212
66117	21.162	1.3	0.	49.
66118	21.112	1.25	0.	47.259
66119	21.112	1.3	5.e-002	3.2116
66120	21.262	1.3	0.	50.624
66121	21.212	1.25	0.	48.797
66122	21.212	1.3	5.e-002	3.2117
66123	21.361	1.3	0.	52.313
66124	21.311	1.25	0.	50.395
66125	21.311	1.3	5.e-002	3.2122
66126	21.461	1.3	0.	54.072
66127	21.411	1.25	0.	52.057
66128	21.411	1.3	5.e-002	3.2132
66129	21.56	1.3	0.	55.903
66130	21.51	1.25	0.	53.788
66131	21.51	1.3	5.e-002	3.2148
66132	21.66	1.3	0.	57.812
66133	21.61	1.25	0.	55.592
66134	21.61	1.3	5.e-002	3.2169
66135	21.759	1.3	0.	59.805
66136	21.71	1.25	0.	57.473
66137	21.71	1.3	5.e-002	3.2197
66138	21.859	1.3	0.	61.886
66139	21.809	1.25	0.	59.437
66140	21.809	1.3	5.e-002	3.2231
66141	21.959	1.3	0.	64.062
66142	21.909	1.25	0.	61.49
66143	21.909	1.3	5.e-002	3.2273
66144	22.058	1.3	0.	66.34
66145	22.008	1.25	0.	63.638
66146	22.008	1.3	5.e-002	3.2323
66147	22.158	1.3	0.	68.727
66148	22.108	1.25	0.	65.889
66149	22.108	1.3	5.e-002	3.2382
66150	22.257	1.3	0.	71.231
66151	22.208	1.25	0.	68.25
66152	22.208	1.3	5.e-002	3.2451
66153	22.357	1.3	0.	73.86
66154	22.307	1.25	0.	70.729
66155	22.307	1.3	5.e-002	3.253
66156	22.456	1.3	0.	76.625
66157	22.407	1.25	0.	73.337
66158	22.407	1.3	5.e-002	3.2622
66159	22.556	1.3	0.	79.534
66160	22.506	1.25	0.	76.082
66161	22.506	1.3	5.e-002	3.2726
66162	22.656	1.3	0.	82.6
66163	22.606	1.25	0.	78.976
66164	22.606	1.3	5.e-002	3.2846
66165	22.755	1.3	0.	85.832
66166	22.705	1.25	0.	82.031
66167	22.705	1.3	5.e-002	3.2982
66168	22.855	1.3	0.	89.244
66169	22.805	1.25	0.	85.259
66170	22.805	1.3	5.e-002	3.3136
66171	22.954	1.3	0.	92.847
66172	22.905	1.25	0.	88.673
66173	22.905	1.3	5.e-002	3.3311
66174	23.054	1.3	0.	96.653
66175	23.004	1.25	0.	92.286
66176	23.004	1.3	5.e-002	3.3507
66177	23.154	1.3	0.	100.67
66178	23.104	1.25	0.	96.113
66179	23.104	1.3	5.e-002	3.3729
66180	23.253	1.3	0.	104.92
66181	23.203	1.25	0.	100.16
66182	23.203	1.3	5.e-002	3.3977
66183	23.353	1.3	0.	109.4
66184	23.303	1.25	0.	104.45
66185	23.303	1.3	5.e-002	3.4253
66186	23.452	1.3	0.	114.12
66187	23.403	1.25	0.	108.99
66188	23.403	1.3	5.e-002	3.456
66189	23.552	1.3	0.	119.08
66190	23.502	1.25	0.	113.77
66191	23.502	1.3	5.e-002	3.4898
66192	23.651	1.3	0.	124.29
66193	23.602	1.25	0.	118.82
66194	23.602	1.3	5.e-002	3.5265
66195	23.751	1.3	0.	129.74
66196	23.701	1.25	0.	124.11
66197	23.701	1.3	5.e-002	3.5664
66198	23.851	1.3	0.	135.46
66199	23.801	1.25	0.	129.68
66200	23.801	1.3	5.e-002	3.6098
66201	23.9	1.25	0.	135.53
66202	23.9	1.3	5.e-002	3.7014
66203	23.95	1.3	0.	140.85
66204	8.316	1.2	0.	1378.7
66205	8.2662	1.15	0.	1443.1
66206	8.2662	1.2	5.e-002	67.748
66207	8.2165	1.2	0.	1017.7
66208	8.4156	1.2	0.	1105.9
66209	8.3658	1.15	0.	1137.4
66210	8.3658	1.2	5.e-002	51.508
66211	8.5152	1.2	0.	902.41
66212	8.4654	1.15	0.	935.53
66213	8.4654	1.2	5.e-002	47.63
66214	8.6148	1.2	0.	727.05
66215	8.565	1.15	0.	761.5
66216	8.565	1.2	5.e-002	43.33
66217	8.7144	1.2	0.	578.7
66218	8.6646	1.15	0.	612.65
66219	8.6646	1.2	5.e-002	38.905
66220	8.8139	1.2	0.	456.24
66221	8.7642	1.15	0.	488.61
66222	8.7642	1.2	5.e-002	34.679
66223	8.9135	1.2	0.	356.93
66224	8.8637	1.15	0.	387.24
66225	8.8637	1.2	5.e-002	30.825
66226	9.0131	1.2	0.	277.32
66227	8.9633	1.15	0.	305.46
66228	8.9633	1.2	5.e-002	27.389
66229	9.1127	1.2	0.	213.93
66230	9.0629	1.15	0.	239.96
66231	9.0629	1.2	5.e-002	24.354
66232	9.2123	1.2	0.	163.56
66233	9.1625	1.15	0.	187.63
66234	9.1625	1.2	5.e-002	21.678
66235	9.3118	1.2	0.	123.51
66236	9.2621	1.15	0.	145.78
66237	9.2621	1.2	5.e-002	19.317
66238	9.4114	1.2	0.	91.58
66239	9.3616	1.15	0.	112.19
66240	9.3616	1.2	5.e-002	17.231
66241	9.511	1.2	0.	66.042
66242	9.4612	1.15	0.	85.078
66243	9.4612	1.2	5.e-002	15.386
66244	9.6106	1.2	0.	45.599
66245	9.5608	1.15	0.	63.066
66246	9.5608	1.2	5.e-002	13.752
66247	9.7102	1.2	0.	29.385
66248	9.6604	1.15	0.	45.121
66249	9.6604	1.2	5.e-002	12.307
66250	9.8097	1.2	0.	17.057
66251	9.76	1.15	0.	30.526
66252	9.76	1.2	5.e-002	11.031
66253	9.9093	1.2	0.	8.8662
66254	9.8595	1.15	0.	18.922
66255	9.8595	1.2	5.e-002	9.9068
66256	10.009	1.2	0.	4.6003
66257	9.9591	1.15	0.	10.434
66258	9.9591	1.2	5.e-002	8.9202
66259	10.108	1.2	0.	2.6476
66260	10.059	1.15	0.	5.3705
66261	10.059	1.2	5.e-002	8.0589
66262	10.208	1.2	0.	1.6837
66263	10.158	1.15	0.	2.9396
66264	10.158	1.2	5.e-002	7.312
66265	10.308	1.2	0.	1.1474
66266	10.258	1.15	0.	1.7877
66267	10.258	1.2	5.e-002	6.6693
66268	10.407	1.2	0.	0.81961
66269	10.357	1.15	0.	1.1796
66270	10.357	1.2	5.e-002	6.1217
66271	10.507	1.2	0.	0.60538
66272	10.457	1.15	0.	0.82324
66273	10.457	1.2	5.e-002	5.6603
66274	10.606	1.2	0.	0.45846
66275	10.557	1.15	0.	0.59763
66276	10.557	1.2	5.e-002	5.2765
66277	10.706	1.2	0.	0.35408
66278	10.656	1.15	0.	0.44667
66279	10.656	1.2	5.e-002	4.9616
66280	10.806	1.2	0.	0.27787
66281	10.756	1.15	0.	0.34148
66282	10.756	1.2	5.e-002	4.7073
66283	10.905	1.2	0.	0.22103
66284	10.855	1.15	0.	0.26586
66285	10.855	1.2	5.e-002	4.5052
66286	11.005	1.2	0.	0.17791
66287	10.955	1.15	0.	0.21019
66288	10.955	1.2	5.e-002	4.3473
66289	11.104	1.2	0.	0.14468
66290	11.055	1.15	0.	0.16839
66291	11.055	1.2	5.e-002	4.226
66292	11.204	1.2	0.	0.11875
66293	11.154	1.15	0.	0.13645
66294	11.154	1.2	5.e-002	4.1345
66295	11.303	1.2	0.	9.8323e-002
66296	11.254	1.15	0.	0.11172
66297	11.254	1.2	5.e-002	4.0667
66298	11.403	1.2	0.	8.2066e-002
66299	11.353	1.15	0.	9.2363e-002
66300	11.353	1.2	5.e-002	4.0174
66301	11.503	1.2	0.	6.9011e-002
66302	11.453	1.15	0.	7.7027e-002
66303	11.453	1.2	5.e-002	3.9822
66304	11.602	1.2	0.	5.8444e-002
66305	11.552	1.15	0.	6.4767e-002
66306	11.552	1.2	5.e-002	3.9576
66307	11.702	1.2	0.	4.9821e-002
66308	11.652	1.15	0.	5.4871e-002
66309	11.652	1.2	5.e-002	3.9407
66310	11.801	1.2	0.	4.2745e-002
66311	11.752	1.15	0.	4.6815e-002
66312	11.752	1.2	5.e-002	3.9292
66313	11.901	1.2	0.	3.6915e-002
66314	11.851	1.15	0.	4.0228e-002
66315	11.851	1.2	5.e-002	3.9214
66316	12.001	1.2	0.	3.2076e-002
66317	11.951	1.15	0.	3.4811e-002
66318	11.951	1.2	5.e-002	3.9161
66319	12.1	1.2	0.	2.8031e-002
66320	12.05	1.15	0.	3.0308e-002
66321	12.05	1.2	5.e-002	3.9122
66322	12.2	1.2	0.	2.4634e-002
66323	12.15	1.15	0.	2.6547e-002
66324	12.15	1.2	5.e-002	3.9089
66325	12.299	1.2	0.	2.1777e-002
66326	12.249	1.15	0.	2.339e-002
66327	12.249	1.2	5.e-002	3.9058
66328	12.399	1.2	0.	1.9368e-002
66329	12.349	1.15	0.	2.074e-002
66330	12.349	1.2	5.e-002	3.9025
66331	12.498	1.2	0.	1.7312e-002
66332	12.449	1.15	0.	1.8506e-002
66333	12.449	1.2	5.e-002	3.8988
66334	12.598	1.2	0.	1.5546e-002
66335	12.548	1.15	0.	1.6575e-002
66336	12.548	1.2	5.e-002	3.8944
66337	12.698	1.2	0.	1.4045e-002
66338	12.648	1.15	0.	1.4932e-002
66339	12.648	1.2	5.e-002	3.8893
66340	12.797	1.2	0.	1.2763e-002
66341	12.747	1.15	0.	1.3538e-002
66342	12.747	1.2	5.e-002	3.8834
66343	12.897	1.2	0.	1.1662e-002
66344	12.847	1.15	0.	1.2337e-002
66345	12.847	1.2	5.e-002	3.8768
66346	12.996	1.2	0.	1.0714e-002
66347	12.947	1.15	0.	1.1309e-002
66348	12.947	1.2	5.e-002	3.8695
66349	13.096	1.2	0.	9.8904e-003
66350	13.046	1.15	0.	1.0419e-002
66351	13.046	1.2	5.e-002	3.8615
66352	13.195	1.2	0.	9.1817e-003
66353	13.146	1.15	0.	9.6374e-003
66354	13.146	1.2	5.e-002	3.8528
66355	13.295	1.2	0.	8.5843e-003
66356	13.245	1.15	0.	8.9806e-003
66357	13.245	1.2	5.e-002	3.8435
66358	13.395	1.2	0.	8.0733e-003
66359	13.345	1.15	0.	8.425e-003
66360	13.345	1.2	5.e-002	3.8338
66361	13.494	1.2	0.	7.6298e-003
66362	13.444	1.15	0.	7.9396e-003
66363	13.444	1.2	5.e-002	3.8236
66364	13.594	1.2	0.	7.2493e-003
66365	13.544	1.15	0.	7.5199e-003
66366	13.544	1.2	5.e-002	3.8131
66367	13.693	1.2	0.	6.9241e-003
66368	13.644	1.15	0.	7.1609e-003
66369	13.644	1.2	5.e-002	3.8022
66370	13.793	1.2	0.	6.6543e-003
66371	13.743	1.15	0.	6.8533e-003
66372	13.743	1.2	5.e-002	3.791
66373	13.893	1.2	0.	6.4388e-003
66374	13.843	1.15	0.	6.6057e-003
66375	13.843	1.2	5.e-002	3.7796
66376	13.992	1.2	0.	6.2521e-003
66377	13.942	1.15	0.	6.4081e-003
66378	13.942	1.2	5.e-002	3.7681
66379	14.092	1.2	0.	6.0908e-003
66380	14.042	1.15	0.	6.2208e-003
66381	14.042	1.2	5.e-002	3.7564
66382	14.191	1.2	0.	5.9725e-003
66383	14.142	1.15	0.	6.0754e-003
66384	14.142	1.2	5.e-002	3.7446
66385	14.291	1.2	0.	5.8922e-003
66386	14.241	1.15	0.	5.9757e-003
66387	14.241	1.2	5.e-002	3.7327
66388	14.39	1.2	0.	5.8421e-003
66389	14.341	1.15	0.	5.9085e-003
66390	14.341	1.2	5.e-002	3.7207
66391	14.49	1.2	0.	5.8215e-003
66392	14.44	1.15	0.	5.8736e-003
66393	14.44	1.2	5.e-002	3.7088
66394	14.59	1.2	0.	5.8286e-003
66395	14.54	1.15	0.	5.8703e-003
66396	14.54	1.2	5.e-002	3.6968
66397	14.689	1.2	0.	5.8719e-003
66398	14.639	1.15	0.	5.8955e-003
66399	14.639	1.2	5.e-002	3.6849
66400	14.789	1.2	0.	5.9641e-003
66401	14.739	1.15	0.	5.9718e-003
66402	14.739	1.2	5.e-002	3.6729
66403	14.888	1.2	0.	6.102e-003
66404	14.839	1.15	0.	6.1055e-003
66405	14.839	1.2	5.e-002	3.6611
66406	14.988	1.2	0.	6.2909e-003
66407	14.938	1.15	0.	6.289e-003
66408	14.938	1.2	5.e-002	3.6494
66409	15.088	1.2	0.	6.5487e-003
66410	15.038	1.15	0.	6.5458e-003
66411	15.038	1.2	5.e-002	3.6377
66412	15.187	1.2	0.	6.9074e-003
66413	15.137	1.15	0.	6.9025e-003
66414	15.137	1.2	5.e-002	3.6262
66415	15.287	1.2	0.	7.4175e-003
66416	15.237	1.15	0.	7.4206e-003
66417	15.237	1.2	5.e-002	3.6148
66418	15.386	1.2	0.	8.1462e-003
66419	15.336	1.15	0.	8.1874e-003
66420	15.336	1.2	5.e-002	3.6035
66421	15.486	1.2	0.	9.2715e-003
66422	15.436	1.15	0.	9.362e-003
66423	15.436	1.2	5.e-002	3.5923
66424	15.585	1.2	0.	1.1241e-002
66425	15.536	1.15	0.	1.1457e-002
66426	15.536	1.2	5.e-002	3.5813
66427	15.685	1.2	0.	1.5461e-002
66428	15.635	1.15	0.	1.6075e-002
66429	15.635	1.2	5.e-002	3.5703
66430	15.785	1.2	0.	3.0356e-002
66431	15.735	1.15	0.	3.3638e-002
66432	15.735	1.2	5.e-002	3.5595
66433	15.884	1.2	0.	0.30096
66434	15.834	1.15	0.	0.35882
66435	15.834	1.2	5.e-002	3.5489
66436	15.984	1.2	0.	1.1494
66437	15.934	1.15	0.	1.1991
66438	15.934	1.2	5.e-002	3.5383
66439	16.083	1.2	0.	2.0172
66440	16.034	1.15	0.	2.0502
66441	16.034	1.2	5.e-002	3.5279
66442	16.183	1.2	0.	2.8705
66443	16.133	1.15	0.	2.8865
66444	16.133	1.2	5.e-002	3.5176
66445	16.282	1.2	0.	3.7072
66446	16.233	1.15	0.	3.7065
66447	16.233	1.2	5.e-002	3.5075
66448	16.382	1.2	0.	4.5279
66449	16.332	1.15	0.	4.5105
66450	16.332	1.2	5.e-002	3.4975
66451	16.482	1.2	0.	5.3333
66452	16.432	1.15	0.	5.2994
66453	16.432	1.2	5.e-002	3.4877
66454	16.581	1.2	0.	6.1245
66455	16.531	1.15	0.	6.0742
66456	16.531	1.2	5.e-002	3.478
66457	16.681	1.2	0.	6.9025
66458	16.631	1.15	0.	6.8358
66459	16.631	1.2	5.e-002	3.4684
66460	16.78	1.2	0.	7.6685
66461	16.731	1.15	0.	7.5853
66462	16.731	1.2	5.e-002	3.459
66463	16.88	1.2	0.	8.4236
66464	16.83	1.15	0.	8.3238
66465	16.83	1.2	5.e-002	3.4498
66466	16.98	1.2	0.	9.1687
66467	16.93	1.15	0.	9.0523
66468	16.93	1.2	5.e-002	3.4407
66469	17.079	1.2	0.	9.9052
66470	17.029	1.15	0.	9.7718
66471	17.029	1.2	5.e-002	3.4317
66472	17.179	1.2	0.	10.634
66473	17.129	1.15	0.	10.483
66474	17.129	1.2	5.e-002	3.4228
66475	17.278	1.2	0.	11.356
66476	17.229	1.15	0.	11.188
66477	17.229	1.2	5.e-002	3.4141
66478	17.378	1.2	0.	12.073
66479	17.328	1.15	0.	11.887
66480	17.328	1.2	5.e-002	3.4055
66481	17.477	1.2	0.	12.786
66482	17.428	1.15	0.	12.582
66483	17.428	1.2	5.e-002	3.397
66484	17.577	1.2	0.	13.495
66485	17.527	1.15	0.	13.273
66486	17.527	1.2	5.e-002	3.3886
66487	17.677	1.2	0.	14.203
66488	17.627	1.15	0.	13.961
66489	17.627	1.2	5.e-002	3.3805
66490	17.776	1.2	0.	14.909
66491	17.726	1.15	0.	14.647
66492	17.726	1.2	5.e-002	3.3724
66493	17.876	1.2	0.	15.615
66494	17.826	1.15	0.	15.334
66495	17.826	1.2	5.e-002	3.3645
66496	17.975	1.2	0.	16.323
66497	17.926	1.15	0.	16.02
66498	17.926	1.2	5.e-002	3.3568
66499	18.075	1.2	0.	17.033
66500	18.025	1.15	0.	16.709
66501	18.025	1.2	5.e-002	3.3492
66502	18.175	1.2	0.	17.746
66503	18.125	1.15	0.	17.4
66504	18.125	1.2	5.e-002	3.3417
66505	18.274	1.2	0.	18.465
66506	18.224	1.15	0.	18.095
66507	18.224	1.2	5.e-002	3.3344
66508	18.374	1.2	0.	19.188
66509	18.324	1.15	0.	18.795
66510	18.324	1.2	5.e-002	3.3273
66511	18.473	1.2	0.	19.919
66512	18.423	1.15	0.	19.5
66513	18.423	1.2	5.e-002	3.3202
66514	18.573	1.2	0.	20.657
66515	18.523	1.15	0.	20.213
66516	18.523	1.2	5.e-002	3.3134
66517	18.672	1.2	0.	21.405
66518	18.623	1.15	0.	20.934
66519	18.623	1.2	5.e-002	3.3067
66520	18.772	1.2	0.	22.163
66521	18.722	1.15	0.	21.664
66522	18.722	1.2	5.e-002	3.3001
66523	18.872	1.2	0.	22.933
66524	18.822	1.15	0.	22.405
66525	18.822	1.2	5.e-002	3.2937
66526	18.971	1.2	0.	23.715
66527	18.921	1.15	0.	23.157
66528	18.921	1.2	5.e-002	3.2875
66529	19.071	1.2	0.	24.511
66530	19.021	1.15	0.	23.922
66531	19.021	1.2	5.e-002	3.2813
66532	19.17	1.2	0.	25.323
66533	19.121	1.15	0.	24.701
66534	19.121	1.2	5.e-002	3.2754
66535	19.27	1.2	0.	26.151
66536	19.22	1.15	0.	25.495
66537	19.22	1.2	5.e-002	3.2697
66538	19.369	1.2	0.	26.997
66539	19.32	1.15	0.	26.305
66540	19.32	1.2	5.e-002	3.2642
66541	19.469	1.2	0.	27.862
66542	19.419	1.15	0.	27.133
66543	19.419	1.2	5.e-002	3.2589
66544	19.569	1.2	0.	28.748
66545	19.519	1.15	0.	27.98
66546	19.519	1.2	5.e-002	3.2537
66547	19.668	1.2	0.	29.655
66548	19.618	1.15	0.	28.847
66549	19.618	1.2	5.e-002	3.2488
66550	19.768	1.2	0.	30.587
66551	19.718	1.15	0.	29.735
66552	19.718	1.2	5.e-002	3.2441
66553	19.867	1.2	0.	31.543
66554	19.818	1.15	0.	30.647
66555	19.818	1.2	5.e-002	3.2396
66556	19.967	1.2	0.	32.525
66557	19.917	1.15	0.	31.583
66558	19.917	1.2	5.e-002	3.2353
66559	20.067	1.2	0.	33.536
66560	20.017	1.15	0.	32.546
66561	20.017	1.2	5.e-002	3.2312
66562	20.166	1.2	0.	34.577
66563	20.116	1.15	0.	33.535
66564	20.116	1.2	5.e-002	3.2274
66565	20.266	1.2	0.	35.649
66566	20.216	1.15	0.	34.555
66567	20.216	1.2	5.e-002	3.2238
66568	20.365	1.2	0.	36.755
66569	20.316	1.15	0.	35.605
66570	20.316	1.2	5.e-002	3.2205
66571	20.465	1.2	0.	37.897
66572	20.415	1.15	0.	36.688
66573	20.415	1.2	5.e-002	3.2174
66574	20.564	1.2	0.	39.076
66575	20.515	1.15	0.	37.806
66576	20.515	1.2	5.e-002	3.2146
66577	20.664	1.2	0.	40.295
66578	20.614	1.15	0.	38.96
66579	20.614	1.2	5.e-002	3.2122
66580	20.764	1.2	0.	41.555
66581	20.714	1.15	0.	40.154
66582	20.714	1.2	5.e-002	3.21
66583	20.863	1.2	0.	42.861
66584	20.813	1.15	0.	41.388
66585	20.813	1.2	5.e-002	3.2082
66586	20.963	1.2	0.	44.213
66587	20.913	1.15	0.	42.666
66588	20.913	1.2	5.e-002	3.2068
66589	21.062	1.2	0.	45.616
66590	21.013	1.15	0.	43.991
66591	21.013	1.2	5.e-002	3.2057
66592	21.162	1.2	0.	47.071
66593	21.112	1.15	0.	45.364
66594	21.112	1.2	5.e-002	3.205
66595	21.262	1.2	0.	48.583
66596	21.212	1.15	0.	46.789
66597	21.212	1.2	5.e-002	3.2047
66598	21.361	1.2	0.	50.154
66599	21.311	1.15	0.	48.27
66600	21.311	1.2	5.e-002	3.2049
66601	21.461	1.2	0.	51.789
66602	21.411	1.15	0.	49.81
66603	21.411	1.2	5.e-002	3.2056
66604	21.56	1.2	0.	53.492
66605	21.51	1.15	0.	51.412
66606	21.51	1.2	5.e-002	3.2067
66607	21.66	1.2	0.	55.268
66608	21.61	1.15	0.	53.081
66609	21.61	1.2	5.e-002	3.2085
66610	21.759	1.2	0.	57.121
66611	21.71	1.15	0.	54.823
66612	21.71	1.2	5.e-002	3.2108
66613	21.859	1.2	0.	59.057
66614	21.809	1.15	0.	56.641
66615	21.809	1.2	5.e-002	3.2138
66616	21.959	1.2	0.	61.082
66617	21.909	1.15	0.	58.542
66618	21.909	1.2	5.e-002	3.2174
66619	22.058	1.2	0.	63.203
66620	22.008	1.15	0.	60.531
66621	22.008	1.2	5.e-002	3.2219
66622	22.158	1.2	0.	65.428
66623	22.108	1.15	0.	62.617
66624	22.108	1.2	5.e-002	3.2272
66625	22.257	1.2	0.	67.764
66626	22.208	1.15	0.	64.807
66627	22.208	1.2	5.e-002	3.2335
66628	22.357	1.2	0.	70.221
66629	22.307	1.15	0.	67.11
66630	22.307	1.2	5.e-002	3.2409
66631	22.456	1.2	0.	72.809
66632	22.407	1.15	0.	69.535
66633	22.407	1.2	5.e-002	3.2495
66634	22.556	1.2	0.	75.539
66635	22.506	1.15	0.	72.093
66636	22.506	1.2	5.e-002	3.2593
66637	22.656	1.2	0.	78.422
66638	22.606	1.15	0.	74.796
66639	22.606	1.2	5.e-002	3.2707
66640	22.755	1.2	0.	81.471
66641	22.705	1.15	0.	77.657
66642	22.705	1.2	5.e-002	3.2837
66643	22.855	1.2	0.	84.701
66644	22.805	1.15	0.	80.69
66645	22.805	1.2	5.e-002	3.2987
66646	22.954	1.2	0.	88.124
66647	22.905	1.15	0.	83.911
66648	22.905	1.2	5.e-002	3.3158
66649	23.054	1.2	0.	91.757
66650	23.004	1.15	0.	87.334
66651	23.004	1.2	5.e-002	3.3352
66652	23.154	1.2	0.	95.613
66653	23.104	1.15	0.	90.976
66654	23.104	1.2	5.e-002	3.3574
66655	23.253	1.2	0.	99.706
66656	23.203	1.15	0.	94.853
66657	23.203	1.2	5.e-002	3.3825
66658	23.353	1.2	0.	104.05
66659	23.303	1.15	0.	98.981
66660	23.303	1.2	5.e-002	3.4108
66661	23.452	1.2	0.	108.65
66662	23.403	1.15	0.	103.37
66663	23.403	1.2	5.e-002	3.4425
66664	23.552	1.2	0.	113.51
66665	23.502	1.15	0.	108.04
66666	23.502	1.2	5.e-002	3.4779
66667	23.651	1.2	0.	118.64
66668	23.602	1.15	0.	112.98
66669	23.602	1.2	5.e-002	3.5167
66670	23.751	1.2	0.	124.05
66671	23.701	1.15	0.	118.21
66672	23.701	1.2	5.e-002	3.5594
66673	23.851	1.2	0.	129.74
66674	23.801	1.15	0.	123.73
66675	23.801	1.2	5.e-002	3.6063
66676	23.9	1.15	0.	129.57
66677	23.9	1.2	5.e-002	3.7064
66678	23.95	1.2	0.	135.04
66679	8.316	1.1	0.	1189.
66680	8.2662	1.05	0.	1242.7
66681	8.2662	1.1	5.e-002	59.544
66682	8.2165	1.1	0.	871.27
66683	8.4156	1.1	0.	955.06
66684	8.3658	1.05	0.	976.59
66685	8.3658	1.1	5.e-002	45.699
66686	8.5152	1.1	0.	784.12
66687	8.4654	1.05	0.	804.98
66688	8.4654	1.1	5.e-002	42.934
66689	8.6148	1.1	0.	638.26
66690	8.565	1.05	0.	659.52
66691	8.565	1.1	5.e-002	39.74
66692	8.7144	1.1	0.	515.39
66693	8.6646	1.05	0.	536.44
66694	8.6646	1.1	5.e-002	36.272
66695	8.8139	1.1	0.	413.95
66696	8.7642	1.05	0.	434.51
66697	8.7642	1.1	5.e-002	32.78
66698	8.9135	1.1	0.	331.4
66699	8.8637	1.05	0.	351.35
66700	8.8637	1.1	5.e-002	29.446
66701	9.0131	1.1	0.	264.76
66702	8.9633	1.05	0.	284.08
66703	8.9633	1.1	5.e-002	26.359
66704	9.1127	1.1	0.	211.15
66705	9.0629	1.05	0.	229.84
66706	9.0629	1.1	5.e-002	23.55
66707	9.2123	1.1	0.	167.98
66708	9.1625	1.05	0.	186.04
66709	9.1625	1.1	5.e-002	21.017
66710	9.3118	1.1	0.	133.08
66711	9.2621	1.05	0.	150.48
66712	9.2621	1.1	5.e-002	18.743
66713	9.4114	1.1	0.	104.69
66714	9.3616	1.05	0.	121.41
66715	9.3616	1.1	5.e-002	16.707
66716	9.511	1.1	0.	81.407
66717	9.4612	1.05	0.	97.411
66718	9.4612	1.1	5.e-002	14.889
66719	9.6106	1.1	0.	62.169
66720	9.5608	1.05	0.	77.412
66721	9.5608	1.1	5.e-002	13.267
66722	9.7102	1.1	0.	46.165
66723	9.6604	1.05	0.	60.584
66724	9.6604	1.1	5.e-002	11.824
66725	9.8097	1.1	0.	32.818
66726	9.76	1.05	0.	46.311
66727	9.76	1.1	5.e-002	10.544
66728	9.9093	1.1	0.	21.782
66729	9.8595	1.05	0.	34.148
66730	9.8595	1.1	5.e-002	9.4141
66731	10.009	1.1	0.	13.023
66732	9.9591	1.05	0.	23.809
66733	9.9591	1.1	5.e-002	8.421
66734	10.108	1.1	0.	6.9149
66735	10.059	1.05	0.	15.2
66736	10.059	1.1	5.e-002	7.5542
66737	10.208	1.1	0.	3.5835
66738	10.158	1.05	0.	8.5492
66739	10.158	1.1	5.e-002	6.8042
66740	10.308	1.1	0.	2.0342
66741	10.258	1.05	0.	4.345
66742	10.258	1.1	5.e-002	6.1622
66743	10.407	1.1	0.	1.2754
66744	10.357	1.05	0.	2.298
66745	10.357	1.1	5.e-002	5.6196
66746	10.507	1.1	0.	0.85907
66747	10.457	1.05	0.	1.3578
66748	10.457	1.1	5.e-002	5.1682
66749	10.606	1.1	0.	0.60808
66750	10.557	1.05	0.	0.87837
66751	10.557	1.1	5.e-002	4.7996
66752	10.706	1.1	0.	0.44612
66753	10.656	1.05	0.	0.60487
66754	10.656	1.1	5.e-002	4.5051
66755	10.806	1.1	0.	0.3363
66756	10.756	1.05	0.	0.43526
66757	10.756	1.1	5.e-002	4.2754
66758	10.905	1.1	0.	0.25905
66759	10.855	1.05	0.	0.32357
66760	10.855	1.1	5.e-002	4.1014
66761	11.005	1.1	0.	0.20313
66762	10.955	1.05	0.	0.24671
66763	10.955	1.1	5.e-002	3.9737
66764	11.104	1.1	0.	0.1617
66765	11.055	1.05	0.	0.19202
66766	11.055	1.1	5.e-002	3.8838
66767	11.204	1.1	0.	0.13041
66768	11.154	1.05	0.	0.15201
66769	11.154	1.1	5.e-002	3.8235
66770	11.303	1.1	0.	0.10642
66771	11.254	1.05	0.	0.12213
66772	11.254	1.1	5.e-002	3.786
66773	11.403	1.1	0.	8.7769e-002
66774	11.353	1.05	0.	9.9427e-002
66775	11.353	1.1	5.e-002	3.7654
66776	11.503	1.1	0.	7.3091e-002
66777	11.453	1.05	0.	8.1889e-002
66778	11.453	1.1	5.e-002	3.7568
66779	11.602	1.1	0.	6.1413e-002
66780	11.552	1.05	0.	6.8166e-002
66781	11.552	1.1	5.e-002	3.7567
66782	11.702	1.1	0.	5.2024e-002
66783	11.652	1.05	0.	5.729e-002
66784	11.652	1.1	5.e-002	3.7619
66785	11.801	1.1	0.	4.4416e-002
66786	11.752	1.05	0.	4.8572e-002
66787	11.752	1.1	5.e-002	3.7704
66788	11.901	1.1	0.	3.8214e-002
66789	11.851	1.05	0.	4.1537e-002
66790	11.851	1.1	5.e-002	3.7805
66791	12.001	1.1	0.	3.3112e-002
66792	11.951	1.05	0.	3.5813e-002
66793	11.951	1.1	5.e-002	3.791
66794	12.1	1.1	0.	2.888e-002
66795	12.05	1.05	0.	3.1101e-002
66796	12.05	1.1	5.e-002	3.8011
66797	12.2	1.1	0.	2.5347e-002
66798	12.15	1.05	0.	2.7193e-002
66799	12.15	1.1	5.e-002	3.8103
66800	12.299	1.1	0.	2.239e-002
66801	12.249	1.05	0.	2.3934e-002
66802	12.249	1.1	5.e-002	3.8182
66803	12.399	1.1	0.	1.9907e-002
66804	12.349	1.05	0.	2.1211e-002
66805	12.349	1.1	5.e-002	3.8245
66806	12.498	1.1	0.	1.7793e-002
66807	12.449	1.05	0.	1.8923e-002
66808	12.449	1.1	5.e-002	3.8293
66809	12.598	1.1	0.	1.5981e-002
66810	12.548	1.05	0.	1.6952e-002
66811	12.548	1.1	5.e-002	3.8325
66812	12.698	1.1	0.	1.4442e-002
66813	12.648	1.05	0.	1.5277e-002
66814	12.648	1.1	5.e-002	3.8341
66815	12.797	1.1	0.	1.3126e-002
66816	12.747	1.05	0.	1.3856e-002
66817	12.747	1.1	5.e-002	3.8341
66818	12.897	1.1	0.	1.1997e-002
66819	12.847	1.05	0.	1.2632e-002
66820	12.847	1.1	5.e-002	3.8327
66821	12.996	1.1	0.	1.1024e-002
66822	12.947	1.05	0.	1.1584e-002
66823	12.947	1.1	5.e-002	3.8299
66824	13.096	1.1	0.	1.0176e-002
66825	13.046	1.05	0.	1.0674e-002
66826	13.046	1.1	5.e-002	3.8259
66827	13.195	1.1	0.	9.4444e-003
66828	13.146	1.05	0.	9.8762e-003
66829	13.146	1.1	5.e-002	3.8208
66830	13.295	1.1	0.	8.8438e-003
66831	13.245	1.05	0.	9.199e-003
66832	13.245	1.1	5.e-002	3.8147
66833	13.395	1.1	0.	8.2944e-003
66834	13.345	1.05	0.	8.6259e-003
66835	13.345	1.1	5.e-002	3.8077
66836	13.494	1.1	0.	7.8315e-003
66837	13.444	1.05	0.	8.1237e-003
66838	13.444	1.1	5.e-002	3.8001
66839	13.594	1.1	0.	7.4323e-003
66840	13.544	1.05	0.	7.6879e-003
66841	13.544	1.1	5.e-002	3.7917
66842	13.693	1.1	0.	7.0898e-003
66843	13.644	1.05	0.	7.3129e-003
66844	13.644	1.1	5.e-002	3.7827
66845	13.793	1.1	0.	6.8035e-003
66846	13.743	1.05	0.	6.9908e-003
66847	13.743	1.1	5.e-002	3.7733
66848	13.893	1.1	0.	6.5727e-003
66849	13.843	1.05	0.	6.7292e-003
66850	13.843	1.1	5.e-002	3.7635
66851	13.992	1.1	0.	6.3736e-003
66852	13.942	1.05	0.	6.5192e-003
66853	13.942	1.1	5.e-002	3.7533
66854	14.092	1.1	0.	6.2014e-003
66855	14.042	1.05	0.	6.3217e-003
66856	14.042	1.1	5.e-002	3.7428
66857	14.191	1.1	0.	6.0738e-003
66858	14.142	1.05	0.	6.1675e-003
66859	14.142	1.1	5.e-002	3.7321
66860	14.291	1.1	0.	5.9867e-003
66861	14.241	1.05	0.	6.0618e-003
66862	14.241	1.1	5.e-002	3.7212
66863	14.39	1.1	0.	5.9341e-003
66864	14.341	1.05	0.	5.9914e-003
66865	14.341	1.1	5.e-002	3.7101
66866	14.49	1.1	0.	5.916e-003
66867	14.44	1.05	0.	5.9593e-003
66868	14.44	1.1	5.e-002	3.6989
66869	14.59	1.1	0.	5.9305e-003
66870	14.54	1.05	0.	5.9647e-003
66871	14.54	1.1	5.e-002	3.6877
66872	14.689	1.1	0.	5.9887e-003
66873	14.639	1.05	0.	6.0056e-003
66874	14.639	1.1	5.e-002	3.6764
66875	14.789	1.1	0.	6.1071e-003
66876	14.739	1.05	0.	6.11e-003
66877	14.739	1.1	5.e-002	3.665
66878	14.888	1.1	0.	6.2875e-003
66879	14.839	1.05	0.	6.2894e-003
66880	14.839	1.1	5.e-002	3.6537
66881	14.988	1.1	0.	6.5414e-003
66882	14.938	1.05	0.	6.5437e-003
66883	14.938	1.1	5.e-002	3.6424
66884	15.088	1.1	0.	6.9016e-003
66885	15.038	1.05	0.	6.9122e-003
66886	15.038	1.1	5.e-002	3.6312
66887	15.187	1.1	0.	7.4267e-003
66888	15.137	1.05	0.	7.4528e-003
66889	15.137	1.1	5.e-002	3.62
66890	15.287	1.1	0.	8.2198e-003
66891	15.237	1.05	0.	8.2887e-003
66892	15.237	1.1	5.e-002	3.609
66893	15.386	1.1	0.	9.4742e-003
66894	15.336	1.05	0.	9.6597e-003
66895	15.336	1.1	5.e-002	3.598
66896	15.486	1.1	0.	1.1733e-002
66897	15.436	1.05	0.	1.2185e-002
66898	15.436	1.1	5.e-002	3.5871
66899	15.585	1.1	0.	1.6924e-002
66900	15.536	1.05	0.	1.8384e-002
66901	15.536	1.1	5.e-002	3.5763
66902	15.685	1.1	0.	3.9218e-002
66903	15.635	1.05	0.	5.1684e-002
66904	15.635	1.1	5.e-002	3.5656
66905	15.785	1.1	0.	0.44235
66906	15.735	1.05	0.	0.56777
66907	15.735	1.1	5.e-002	3.555
66908	15.884	1.1	0.	1.274
66909	15.834	1.05	0.	1.3881
66910	15.834	1.1	5.e-002	3.5446
66911	15.984	1.1	0.	2.1081
66912	15.934	1.05	0.	2.204
66913	15.934	1.1	5.e-002	3.5342
66914	16.083	1.1	0.	2.9273
66915	16.034	1.05	0.	3.0046
66916	16.034	1.1	5.e-002	3.524
66917	16.183	1.1	0.	3.7305
66918	16.133	1.05	0.	3.7895
66919	16.133	1.1	5.e-002	3.5138
66920	16.282	1.1	0.	4.5179
66921	16.233	1.05	0.	4.5588
66922	16.233	1.1	5.e-002	3.5038
66923	16.382	1.1	0.	5.2903
66924	16.332	1.05	0.	5.3134
66925	16.332	1.1	5.e-002	3.4939
66926	16.482	1.1	0.	6.0487
66927	16.432	1.05	0.	6.0542
66928	16.432	1.1	5.e-002	3.4842
66929	16.581	1.1	0.	6.794
66930	16.531	1.05	0.	6.7819
66931	16.531	1.1	5.e-002	3.4746
66932	16.681	1.1	0.	7.5272
66933	16.631	1.05	0.	7.4976
66934	16.631	1.1	5.e-002	3.4651
66935	16.78	1.1	0.	8.2494
66936	16.731	1.05	0.	8.2023
66937	16.731	1.1	5.e-002	3.4558
66938	16.88	1.1	0.	8.9614
66939	16.83	1.05	0.	8.8968
66940	16.83	1.1	5.e-002	3.4466
66941	16.98	1.1	0.	9.6643
66942	16.93	1.05	0.	9.5821
66943	16.93	1.1	5.e-002	3.4376
66944	17.079	1.1	0.	10.359
66945	17.029	1.05	0.	10.259
66946	17.029	1.1	5.e-002	3.4287
66947	17.179	1.1	0.	11.047
66948	17.129	1.05	0.	10.929
66949	17.129	1.1	5.e-002	3.4199
66950	17.278	1.1	0.	11.729
66951	17.229	1.05	0.	11.593
66952	17.229	1.1	5.e-002	3.4112
66953	17.378	1.1	0.	12.405
66954	17.328	1.05	0.	12.251
66955	17.328	1.1	5.e-002	3.4026
66956	17.477	1.1	0.	13.078
66957	17.428	1.05	0.	12.905
66958	17.428	1.1	5.e-002	3.3942
66959	17.577	1.1	0.	13.748
66960	17.527	1.05	0.	13.555
66961	17.527	1.1	5.e-002	3.3858
66962	17.677	1.1	0.	14.415
66963	17.627	1.05	0.	14.203
66964	17.627	1.1	5.e-002	3.3776
66965	17.776	1.1	0.	15.082
66966	17.726	1.05	0.	14.849
66967	17.726	1.1	5.e-002	3.3696
66968	17.876	1.1	0.	15.749
66969	17.826	1.05	0.	15.495
66970	17.826	1.1	5.e-002	3.3617
66971	17.975	1.1	0.	16.416
66972	17.926	1.05	0.	16.142
66973	17.926	1.1	5.e-002	3.354
66974	18.075	1.1	0.	17.086
66975	18.025	1.05	0.	16.79
66976	18.025	1.1	5.e-002	3.3464
66977	18.175	1.1	0.	17.759
66978	18.125	1.05	0.	17.44
66979	18.125	1.1	5.e-002	3.3389
66980	18.274	1.1	0.	18.436
66981	18.224	1.05	0.	18.093
66982	18.224	1.1	5.e-002	3.3316
66983	18.374	1.1	0.	19.118
66984	18.324	1.05	0.	18.751
66985	18.324	1.1	5.e-002	3.3244
66986	18.473	1.1	0.	19.806
66987	18.423	1.05	0.	19.414
66988	18.423	1.1	5.e-002	3.3174
66989	18.573	1.1	0.	20.501
66990	18.523	1.05	0.	20.084
66991	18.523	1.1	5.e-002	3.3105
66992	18.672	1.1	0.	21.205
66993	18.623	1.05	0.	20.76
66994	18.623	1.1	5.e-002	3.3037
66995	18.772	1.1	0.	21.917
66996	18.722	1.05	0.	21.445
66997	18.722	1.1	5.e-002	3.2971
66998	18.872	1.1	0.	22.641
66999	18.822	1.05	0.	22.14
67000	18.822	1.1	5.e-002	3.2907
67001	18.971	1.1	0.	23.376
67002	18.921	1.05	0.	22.845
67003	18.921	1.1	5.e-002	3.2843
67004	19.071	1.1	0.	24.123
67005	19.021	1.05	0.	23.561
67006	19.021	1.1	5.e-002	3.2782
67007	19.17	1.1	0.	24.884
67008	19.121	1.05	0.	24.29
67009	19.121	1.1	5.e-002	3.2722
67010	19.27	1.1	0.	25.661
67011	19.22	1.05	0.	25.032
67012	19.22	1.1	5.e-002	3.2664
67013	19.369	1.1	0.	26.453
67014	19.32	1.05	0.	25.789
67015	19.32	1.1	5.e-002	3.2608
67016	19.469	1.1	0.	27.263
67017	19.419	1.05	0.	26.562
67018	19.419	1.1	5.e-002	3.2553
67019	19.569	1.1	0.	28.091
67020	19.519	1.05	0.	27.352
67021	19.519	1.1	5.e-002	3.2501
67022	19.668	1.1	0.	28.939
67023	19.618	1.05	0.	28.16
67024	19.618	1.1	5.e-002	3.245
67025	19.768	1.1	0.	29.809
67026	19.718	1.05	0.	28.987
67027	19.718	1.1	5.e-002	3.2402
67028	19.867	1.1	0.	30.701
67029	19.818	1.05	0.	29.835
67030	19.818	1.1	5.e-002	3.2356
67031	19.967	1.1	0.	31.617
67032	19.917	1.05	0.	30.706
67033	19.917	1.1	5.e-002	3.2311
67034	20.067	1.1	0.	32.558
67035	20.017	1.05	0.	31.599
67036	20.017	1.1	5.e-002	3.2269
67037	20.166	1.1	0.	33.527
67038	20.116	1.05	0.	32.518
67039	20.116	1.1	5.e-002	3.2229
67040	20.266	1.1	0.	34.524
67041	20.216	1.05	0.	33.462
67042	20.216	1.1	5.e-002	3.2192
67043	20.365	1.1	0.	35.551
67044	20.316	1.05	0.	34.435
67045	20.316	1.1	5.e-002	3.2157
67046	20.465	1.1	0.	36.611
67047	20.415	1.05	0.	35.437
67048	20.415	1.1	5.e-002	3.2124
67049	20.564	1.1	0.	37.704
67050	20.515	1.05	0.	36.47
67051	20.515	1.1	5.e-002	3.2094
67052	20.664	1.1	0.	38.834
67053	20.614	1.05	0.	37.536
67054	20.614	1.1	5.e-002	3.2067
67055	20.764	1.1	0.	40.001
67056	20.714	1.05	0.	38.637
67057	20.714	1.1	5.e-002	3.2043
67058	20.863	1.1	0.	41.209
67059	20.813	1.05	0.	39.775
67060	20.813	1.1	5.e-002	3.2023
67061	20.963	1.1	0.	42.459
67062	20.913	1.05	0.	40.952
67063	20.913	1.1	5.e-002	3.2005
67064	21.062	1.1	0.	43.755
67065	21.013	1.05	0.	42.17
67066	21.013	1.1	5.e-002	3.1991
67067	21.162	1.1	0.	45.098
67068	21.112	1.05	0.	43.433
67069	21.112	1.1	5.e-002	3.1981
67070	21.262	1.1	0.	46.493
67071	21.212	1.05	0.	44.742
67072	21.212	1.1	5.e-002	3.1975
67073	21.361	1.1	0.	47.942
67074	21.311	1.05	0.	46.101
67075	21.311	1.1	5.e-002	3.1973
67076	21.461	1.1	0.	49.449
67077	21.411	1.05	0.	47.514
67078	21.411	1.1	5.e-002	3.1976
67079	21.56	1.1	0.	51.018
67080	21.51	1.05	0.	48.983
67081	21.51	1.1	5.e-002	3.1983
67082	21.66	1.1	0.	52.653
67083	21.61	1.05	0.	50.512
67084	21.61	1.1	5.e-002	3.1996
67085	21.759	1.1	0.	54.36
67086	21.71	1.05	0.	52.107
67087	21.71	1.1	5.e-002	3.2015
67088	21.859	1.1	0.	56.143
67089	21.809	1.05	0.	53.772
67090	21.809	1.1	5.e-002	3.2039
67091	21.959	1.1	0.	58.008
67092	21.909	1.05	0.	55.513
67093	21.909	1.1	5.e-002	3.207
67094	22.058	1.1	0.	59.963
67095	22.008	1.05	0.	57.335
67096	22.008	1.1	5.e-002	3.2109
67097	22.158	1.1	0.	62.014
67098	22.108	1.05	0.	59.246
67099	22.108	1.1	5.e-002	3.2157
67100	22.257	1.1	0.	64.17
67101	22.208	1.05	0.	61.254
67102	22.208	1.1	5.e-002	3.2213
67103	22.357	1.1	0.	66.441
67104	22.307	1.05	0.	63.366
67105	22.307	1.1	5.e-002	3.228
67106	22.456	1.1	0.	68.836
67107	22.407	1.05	0.	65.594
67108	22.407	1.1	5.e-002	3.2359
67109	22.556	1.1	0.	71.368
67110	22.506	1.05	0.	67.949
67111	22.506	1.1	5.e-002	3.245
67112	22.656	1.1	0.	74.048
67113	22.606	1.05	0.	70.442
67114	22.606	1.1	5.e-002	3.2557
67115	22.755	1.1	0.	76.892
67116	22.705	1.05	0.	73.088
67117	22.705	1.1	5.e-002	3.2681
67118	22.855	1.1	0.	79.916
67119	22.805	1.05	0.	75.902
67120	22.805	1.1	5.e-002	3.2824
67121	22.954	1.1	0.	83.134
67122	22.905	1.05	0.	78.902
67123	22.905	1.1	5.e-002	3.2989
67124	23.054	1.1	0.	86.566
67125	23.004	1.05	0.	82.106
67126	23.004	1.1	5.e-002	3.318
67127	23.154	1.1	0.	90.228
67128	23.104	1.05	0.	85.534
67129	23.104	1.1	5.e-002	3.3399
67130	23.253	1.1	0.	94.14
67131	23.203	1.05	0.	89.205
67132	23.203	1.1	5.e-002	3.3652
67133	23.353	1.1	0.	98.316
67134	23.303	1.05	0.	93.141
67135	23.303	1.1	5.e-002	3.394
67136	23.452	1.1	0.	102.77
67137	23.403	1.05	0.	97.359
67138	23.403	1.1	5.e-002	3.4268
67139	23.552	1.1	0.	107.51
67140	23.502	1.05	0.	101.87
67141	23.502	1.1	5.e-002	3.4638
67142	23.651	1.1	0.	112.55
67143	23.602	1.05	0.	106.7
67144	23.602	1.1	5.e-002	3.5051
67145	23.751	1.1	0.	117.89
67146	23.701	1.05	0.	111.83
67147	23.701	1.1	5.e-002	3.5509
67148	23.851	1.1	0.	123.55
67149	23.801	1.05	0.	117.29
67150	23.801	1.1	5.e-002	3.6019
67151	23.9	1.05	0.	123.12
67152	23.9	1.1	5.e-002	3.7114
67153	23.95	1.1	0.	128.76
67154	8.316	1.	0.	1018.8
67155	8.2662	0.95	0.	1064.2
67156	8.2662	1.	5.e-002	53.1
67157	8.2165	1.	0.	742.93
67158	8.4156	1.	0.	815.53
67159	8.3658	0.95	0.	829.84
67160	8.3658	1.	5.e-002	41.24
67161	8.5152	1.	0.	670.6
67162	8.4654	0.95	0.	682.3
67163	8.4654	1.	5.e-002	39.229
67164	8.6148	1.	0.	549.36
67165	8.565	0.95	0.	560.42
67166	8.565	1.	5.e-002	36.815
67167	8.7144	1.	0.	448.74
67168	8.6646	0.95	0.	459.52
67169	8.6646	1.	5.e-002	34.061
67170	8.8139	1.	0.	366.49
67171	8.7642	0.95	0.	377.37
67172	8.7642	1.	5.e-002	31.155
67173	8.9135	1.	0.	299.85
67174	8.8637	0.95	0.	311.08
67175	8.8637	1.	5.e-002	28.263
67176	9.0131	1.	0.	245.98
67177	8.9633	0.95	0.	257.69
67178	8.9633	1.	5.e-002	25.488
67179	9.1127	1.	0.	202.34
67180	9.0629	0.95	0.	214.52
67181	9.0629	1.	5.e-002	22.887
67182	9.2123	1.	0.	166.76
67183	9.1625	0.95	0.	179.31
67184	9.1625	1.	5.e-002	20.486
67185	9.3118	1.	0.	137.49
67186	9.2621	0.95	0.	150.29
67187	9.2621	1.	5.e-002	18.29
67188	9.4114	1.	0.	113.16
67189	9.3616	0.95	0.	126.05
67190	9.3616	1.	5.e-002	16.297
67191	9.511	1.	0.	92.719
67192	9.4612	0.95	0.	105.55
67193	9.4612	1.	5.e-002	14.496
67194	9.6106	1.	0.	75.346
67195	9.5608	0.95	0.	87.995
67196	9.5608	1.	5.e-002	12.876
67197	9.7102	1.	0.	60.434
67198	9.6604	0.95	0.	72.783
67199	9.6604	1.	5.e-002	11.425
67200	9.8097	1.	0.	47.53
67201	9.76	0.95	0.	59.478
67202	9.76	1.	5.e-002	10.131
67203	9.9093	1.	0.	36.303
67204	9.8595	0.95	0.	47.755
67205	9.8595	1.	5.e-002	8.9839
67206	10.009	1.	0.	26.528
67207	9.9591	0.95	0.	37.377
67208	9.9591	1.	5.e-002	7.9732
67209	10.108	1.	0.	18.094
67210	10.059	0.95	0.	28.182
67211	10.059	1.	5.e-002	7.0901
67212	10.208	1.	0.	11.068
67213	10.158	0.95	0.	20.075
67214	10.158	1.	5.e-002	6.3265
67215	10.308	1.	0.	5.8535
67216	10.258	0.95	0.	13.063
67217	10.258	1.	5.e-002	5.6749
67218	10.407	1.	0.	2.8902
67219	10.357	0.95	0.	7.3742
67220	10.357	1.	5.e-002	5.1283
67221	10.507	1.	0.	1.5603
67222	10.457	0.95	0.	3.5829
67223	10.457	1.	5.e-002	4.6792
67224	10.606	1.	0.	0.94728
67225	10.557	0.95	0.	1.7682
67226	10.557	1.	5.e-002	4.3199
67227	10.706	1.	0.	0.62575
67228	10.656	0.95	0.	0.99833
67229	10.656	1.	5.e-002	4.0417
67230	10.806	1.	0.	0.43781
67231	10.756	0.95	0.	0.63002
67232	10.756	1.	5.e-002	3.8348
67233	10.905	1.	0.	0.31912
67234	10.855	0.95	0.	0.42816
67235	10.855	1.	5.e-002	3.6885
67236	11.005	1.	0.	0.23991
67237	10.955	0.95	0.	0.30615
67238	10.955	1.	5.e-002	3.5922
67239	11.104	1.	0.	0.18479
67240	11.055	0.95	0.	0.22717
67241	11.055	1.	5.e-002	3.5353
67242	11.204	1.	0.	0.1452
67243	11.154	0.95	0.	0.1734
67244	11.154	1.	5.e-002	3.5082
67245	11.303	1.	0.	0.11605
67246	11.254	0.95	0.	0.13544
67247	11.254	1.	5.e-002	3.5028
67248	11.403	1.	0.	9.413e-002
67249	11.353	0.95	0.	0.10783
67250	11.353	1.	5.e-002	3.5125
67251	11.503	1.	0.	7.7351e-002
67252	11.453	0.95	0.	8.7273e-002
67253	11.453	1.	5.e-002	3.532
67254	11.602	1.	0.	6.4308e-002
67255	11.552	0.95	0.	7.1654e-002
67256	11.552	1.	5.e-002	3.5572
67257	11.702	1.	0.	5.4025e-002
67258	11.652	0.95	0.	5.9578e-002
67259	11.652	1.	5.e-002	3.5853
67260	11.801	1.	0.	4.5829e-002
67261	11.752	0.95	0.	5.0095e-002
67262	11.752	1.	5.e-002	3.6142
67263	11.901	1.	0.	3.9239e-002
67264	11.851	0.95	0.	4.2572e-002
67265	11.851	1.	5.e-002	3.6423
67266	12.001	1.	0.	3.388e-002
67267	11.951	0.95	0.	3.6537e-002
67268	11.951	1.	5.e-002	3.6687
67269	12.1	1.	0.	2.9477e-002
67270	12.05	0.95	0.	3.1626e-002
67271	12.05	1.	5.e-002	3.6929
67272	12.2	1.	0.	2.583e-002
67273	12.15	0.95	0.	2.7594e-002
67274	12.15	1.	5.e-002	3.7144
67275	12.299	1.	0.	2.2796e-002
67276	12.249	0.95	0.	2.4256e-002
67277	12.249	1.	5.e-002	3.7332
67278	12.399	1.	0.	2.0261e-002
67279	12.349	0.95	0.	2.1484e-002
67280	12.349	1.	5.e-002	3.7491
67281	12.498	1.	0.	1.811e-002
67282	12.449	0.95	0.	1.9165e-002
67283	12.449	1.	5.e-002	3.7623
67284	12.598	1.	0.	1.6271e-002
67285	12.548	0.95	0.	1.7174e-002
67286	12.548	1.	5.e-002	3.7728
67287	12.698	1.	0.	1.4711e-002
67288	12.648	0.95	0.	1.5486e-002
67289	12.648	1.	5.e-002	3.7808
67290	12.797	1.	0.	1.3378e-002
67291	12.747	0.95	0.	1.4055e-002
67292	12.747	1.	5.e-002	3.7864
67293	12.897	1.	0.	1.2233e-002
67294	12.847	0.95	0.	1.2823e-002
67295	12.847	1.	5.e-002	3.79
67296	12.996	1.	0.	1.1245e-002
67297	12.947	0.95	0.	1.1766e-002
67298	12.947	1.	5.e-002	3.7917
67299	13.096	1.	0.	1.0383e-002
67300	13.046	0.95	0.	1.0847e-002
67301	13.046	1.	5.e-002	3.7916
67302	13.195	1.	0.	9.6383e-003
67303	13.146	0.95	0.	1.0041e-002
67304	13.146	1.	5.e-002	3.7899
67305	13.295	1.	0.	9.0048e-003
67306	13.245	0.95	0.	9.3529e-003
67307	13.245	1.	5.e-002	3.7868
67308	13.395	1.	0.	8.4592e-003
67309	13.345	0.95	0.	8.7689e-003
67310	13.345	1.	5.e-002	3.7825
67311	13.494	1.	0.	7.9646e-003
67312	13.444	0.95	0.	8.2553e-003
67313	13.444	1.	5.e-002	3.7772
67314	13.594	1.	0.	7.5697e-003
67315	13.544	0.95	0.	7.808e-003
67316	13.544	1.	5.e-002	3.7709
67317	13.693	1.	0.	7.2137e-003
67318	13.644	0.95	0.	7.4217e-003
67319	13.644	1.	5.e-002	3.7639
67320	13.793	1.	0.	6.9152e-003
67321	13.743	0.95	0.	7.0881e-003
67322	13.743	1.	5.e-002	3.7561
67323	13.893	1.	0.	6.673e-003
67324	13.843	0.95	0.	6.8159e-003
67325	13.843	1.	5.e-002	3.7477
67326	13.992	1.	0.	6.4635e-003
67327	13.942	0.95	0.	6.596e-003
67328	13.942	1.	5.e-002	3.7388
67329	14.092	1.	0.	6.283e-003
67330	14.042	0.95	0.	6.3906e-003
67331	14.042	1.	5.e-002	3.7296
67332	14.191	1.	0.	6.1497e-003
67333	14.142	0.95	0.	6.2313e-003
67334	14.142	1.	5.e-002	3.7199
67335	14.291	1.	0.	6.0599e-003
67336	14.241	0.95	0.	6.124e-003
67337	14.241	1.	5.e-002	3.7099
67338	14.39	1.	0.	6.0094e-003
67339	14.341	0.95	0.	6.056e-003
67340	14.341	1.	5.e-002	3.6996
67341	14.49	1.	0.	6.0005e-003
67342	14.44	0.95	0.	6.0337e-003
67343	14.44	1.	5.e-002	3.6892
67344	14.59	1.	0.	6.0324e-003
67345	14.54	0.95	0.	6.0578e-003
67346	14.54	1.	5.e-002	3.6786
67347	14.689	1.	0.	6.1203e-003
67348	14.639	0.95	0.	6.1311e-003
67349	14.639	1.	5.e-002	3.6679
67350	14.789	1.	0.	6.2878e-003
67351	14.739	0.95	0.	6.2887e-003
67352	14.739	1.	5.e-002	3.6571
67353	14.888	1.	0.	6.5451e-003
67354	14.839	0.95	0.	6.5528e-003
67355	14.839	1.	5.e-002	3.6463
67356	14.988	1.	0.	6.9222e-003
67357	14.938	0.95	0.	6.946e-003
67358	14.938	1.	5.e-002	3.6354
67359	15.088	1.	0.	7.4878e-003
67360	15.038	0.95	0.	7.55e-003
67361	15.038	1.	5.e-002	3.6246
67362	15.187	1.	0.	8.3754e-003
67363	15.137	0.95	0.	8.5187e-003
67364	15.137	1.	5.e-002	3.6138
67365	15.287	1.	0.	9.8789e-003
67366	15.237	0.95	0.	1.0231e-002
67367	15.237	1.	5.e-002	3.6031
67368	15.386	1.	0.	1.28e-002
67369	15.336	0.95	0.	1.3809e-002
67370	15.336	1.	5.e-002	3.5924
67371	15.486	1.	0.	2.0652e-002
67372	15.436	0.95	0.	2.508e-002
67373	15.436	1.	5.e-002	3.5818
67374	15.585	1.	0.	8.236e-002
67375	15.536	0.95	0.	0.18259
67376	15.536	1.	5.e-002	3.5713
67377	15.685	1.	0.	0.72334
67378	15.635	0.95	0.	0.92284
67379	15.635	1.	5.e-002	3.5608
67380	15.785	1.	0.	1.5296
67381	15.735	0.95	0.	1.7117
67382	15.735	1.	5.e-002	3.5504
67383	15.884	1.	0.	2.3267
67384	15.834	0.95	0.	2.4885
67385	15.834	1.	5.e-002	3.5402
67386	15.984	1.	0.	3.1085
67387	15.934	0.95	0.	3.2501
67388	15.934	1.	5.e-002	3.53
67389	16.083	1.	0.	3.8748
67390	16.034	0.95	0.	3.9964
67391	16.034	1.	5.e-002	3.5199
67392	16.183	1.	0.	4.6259
67393	16.133	0.95	0.	4.7279
67394	16.133	1.	5.e-002	3.5099
67395	16.282	1.	0.	5.3626
67396	16.233	0.95	0.	5.4453
67397	16.233	1.	5.e-002	3.5
67398	16.382	1.	0.	6.0856
67399	16.332	0.95	0.	6.1494
67400	16.332	1.	5.e-002	3.4903
67401	16.482	1.	0.	6.7958
67402	16.432	0.95	0.	6.8408
67403	16.432	1.	5.e-002	3.4806
67404	16.581	1.	0.	7.4941
67405	16.531	0.95	0.	7.5205
67406	16.531	1.	5.e-002	3.4711
67407	16.681	1.	0.	8.1814
67408	16.631	0.95	0.	8.1893
67409	16.631	1.	5.e-002	3.4618
67410	16.78	1.	0.	8.8585
67411	16.731	0.95	0.	8.848
67412	16.731	1.	5.e-002	3.4525
67413	16.88	1.	0.	9.5264
67414	16.83	0.95	0.	9.4975
67415	16.83	1.	5.e-002	3.4434
67416	16.98	1.	0.	10.186
67417	16.93	0.95	0.	10.139
67418	16.93	1.	5.e-002	3.4344
67419	17.079	1.	0.	10.838
67420	17.029	0.95	0.	10.772
67421	17.029	1.	5.e-002	3.4256
67422	17.179	1.	0.	11.484
67423	17.129	0.95	0.	11.399
67424	17.129	1.	5.e-002	3.4168
67425	17.278	1.	0.	12.124
67426	17.229	0.95	0.	12.02
67427	17.229	1.	5.e-002	3.4081
67428	17.378	1.	0.	12.759
67429	17.328	0.95	0.	12.637
67430	17.328	1.	5.e-002	3.3996
67431	17.477	1.	0.	13.391
67432	17.428	0.95	0.	13.249
67433	17.428	1.	5.e-002	3.3912
67434	17.577	1.	0.	14.02
67435	17.527	0.95	0.	13.858
67436	17.527	1.	5.e-002	3.3829
67437	17.677	1.	0.	14.647
67438	17.627	0.95	0.	14.465
67439	17.627	1.	5.e-002	3.3747
67440	17.776	1.	0.	15.273
67441	17.726	0.95	0.	15.07
67442	17.726	1.	5.e-002	3.3667
67443	17.876	1.	0.	15.899
67444	17.826	0.95	0.	15.675
67445	17.826	1.	5.e-002	3.3588
67446	17.975	1.	0.	16.525
67447	17.926	0.95	0.	16.28
67448	17.926	1.	5.e-002	3.3511
67449	18.075	1.	0.	17.154
67450	18.025	0.95	0.	16.886
67451	18.025	1.	5.e-002	3.3435
67452	18.175	1.	0.	17.785
67453	18.125	0.95	0.	17.495
67454	18.125	1.	5.e-002	3.336
67455	18.274	1.	0.	18.419
67456	18.224	0.95	0.	18.106
67457	18.224	1.	5.e-002	3.3286
67458	18.374	1.	0.	19.059
67459	18.324	0.95	0.	18.721
67460	18.324	1.	5.e-002	3.3215
67461	18.473	1.	0.	19.703
67462	18.423	0.95	0.	19.341
67463	18.423	1.	5.e-002	3.3144
67464	18.573	1.	0.	20.354
67465	18.523	0.95	0.	19.966
67466	18.523	1.	5.e-002	3.3074
67467	18.672	1.	0.	21.013
67468	18.623	0.95	0.	20.597
67469	18.623	1.	5.e-002	3.3006
67470	18.772	1.	0.	21.679
67471	18.722	0.95	0.	21.236
67472	18.722	1.	5.e-002	3.294
67473	18.872	1.	0.	22.355
67474	18.822	0.95	0.	21.884
67475	18.822	1.	5.e-002	3.2875
67476	18.971	1.	0.	23.042
67477	18.921	0.95	0.	22.54
67478	18.921	1.	5.e-002	3.2811
67479	19.071	1.	0.	23.739
67480	19.021	0.95	0.	23.207
67481	19.021	1.	5.e-002	3.2749
67482	19.17	1.	0.	24.449
67483	19.121	0.95	0.	23.884
67484	19.121	1.	5.e-002	3.2688
67485	19.27	1.	0.	25.173
67486	19.22	0.95	0.	24.574
67487	19.22	1.	5.e-002	3.2629
67488	19.369	1.	0.	25.91
67489	19.32	0.95	0.	25.277
67490	19.32	1.	5.e-002	3.2572
67491	19.469	1.	0.	26.663
67492	19.419	0.95	0.	25.994
67493	19.419	1.	5.e-002	3.2517
67494	19.569	1.	0.	27.433
67495	19.519	0.95	0.	26.726
67496	19.519	1.	5.e-002	3.2463
67497	19.668	1.	0.	28.221
67498	19.618	0.95	0.	27.474
67499	19.618	1.	5.e-002	3.2412
67500	19.768	1.	0.	29.027
67501	19.718	0.95	0.	28.239
67502	19.718	1.	5.e-002	3.2362
67503	19.867	1.	0.	29.854
67504	19.818	0.95	0.	29.023
67505	19.818	1.	5.e-002	3.2314
67506	19.967	1.	0.	30.702
67507	19.917	0.95	0.	29.826
67508	19.917	1.	5.e-002	3.2268
67509	20.067	1.	0.	31.573
67510	20.017	0.95	0.	30.649
67511	20.017	1.	5.e-002	3.2225
67512	20.166	1.	0.	32.467
67513	20.116	0.95	0.	31.495
67514	20.116	1.	5.e-002	3.2183
67515	20.266	1.	0.	33.388
67516	20.216	0.95	0.	32.364
67517	20.216	1.	5.e-002	3.2144
67518	20.365	1.	0.	34.335
67519	20.316	0.95	0.	33.257
67520	20.316	1.	5.e-002	3.2107
67521	20.465	1.	0.	35.311
67522	20.415	0.95	0.	34.176
67523	20.415	1.	5.e-002	3.2072
67524	20.564	1.	0.	36.317
67525	20.515	0.95	0.	35.123
67526	20.515	1.	5.e-002	3.204
67527	20.664	1.	0.	37.354
67528	20.614	0.95	0.	36.099
67529	20.614	1.	5.e-002	3.2011
67530	20.764	1.	0.	38.426
67531	20.714	0.95	0.	37.106
67532	20.714	1.	5.e-002	3.1984
67533	20.863	1.	0.	39.534
67534	20.813	0.95	0.	38.145
67535	20.813	1.	5.e-002	3.1961
67536	20.963	1.	0.	40.679
67537	20.913	0.95	0.	39.219
67538	20.913	1.	5.e-002	3.1941
67539	21.062	1.	0.	41.865
67540	21.013	0.95	0.	40.329
67541	21.013	1.	5.e-002	3.1923
67542	21.162	1.	0.	43.094
67543	21.112	0.95	0.	41.478
67544	21.112	1.	5.e-002	3.191
67545	21.262	1.	0.	44.368
67546	21.212	0.95	0.	42.669
67547	21.212	1.	5.e-002	3.19
67548	21.361	1.	0.	45.691
67549	21.311	0.95	0.	43.903
67550	21.311	1.	5.e-002	3.1895
67551	21.461	1.	0.	47.065
67552	21.411	0.95	0.	45.184
67553	21.411	1.	5.e-002	3.1893
67554	21.56	1.	0.	48.495
67555	21.51	0.95	0.	46.516
67556	21.51	1.	5.e-002	3.1896
67557	21.66	1.	0.	49.985
67558	21.61	0.95	0.	47.901
67559	21.61	1.	5.e-002	3.1904
67560	21.759	1.	0.	51.538
67561	21.71	0.95	0.	49.344
67562	21.71	1.	5.e-002	3.1917
67563	21.859	1.	0.	53.161
67564	21.809	0.95	0.	50.85
67565	21.809	1.	5.e-002	3.1936
67566	21.959	1.	0.	54.859
67567	21.909	0.95	0.	52.423
67568	21.909	1.	5.e-002	3.1962
67569	22.058	1.	0.	56.638
67570	22.008	0.95	0.	54.07
67571	22.008	1.	5.e-002	3.1994
67572	22.158	1.	0.	58.505
67573	22.108	0.95	0.	55.797
67574	22.108	1.	5.e-002	3.2035
67575	22.257	1.	0.	60.469
67576	22.208	0.95	0.	57.611
67577	22.208	1.	5.e-002	3.2084
67578	22.357	1.	0.	62.539
67579	22.307	0.95	0.	59.522
67580	22.307	1.	5.e-002	3.2144
67581	22.456	1.	0.	64.726
67582	22.407	0.95	0.	61.538
67583	22.407	1.	5.e-002	3.2214
67584	22.556	1.	0.	67.042
67585	22.506	0.95	0.	63.672
67586	22.506	1.	5.e-002	3.2297
67587	22.656	1.	0.	69.5
67588	22.606	0.95	0.	65.936
67589	22.606	1.	5.e-002	3.2396
67590	22.755	1.	0.	72.115
67591	22.705	0.95	0.	68.344
67592	22.705	1.	5.e-002	3.2511
67593	22.855	1.	0.	74.906
67594	22.805	0.95	0.	70.915
67595	22.805	1.	5.e-002	3.2646
67596	22.954	1.	0.	77.89
67597	22.905	0.95	0.	73.666
67598	22.905	1.	5.e-002	3.2804
67599	23.054	1.	0.	81.089
67600	23.004	0.95	0.	76.619
67601	23.004	1.	5.e-002	3.2988
67602	23.154	1.	0.	84.525
67603	23.104	0.95	0.	79.797
67604	23.104	1.	5.e-002	3.3203
67605	23.253	1.	0.	88.22
67606	23.203	0.95	0.	83.225
67607	23.203	1.	5.e-002	3.3454
67608	23.353	1.	0.	92.195
67609	23.303	0.95	0.	86.929
67610	23.303	1.	5.e-002	3.3746
67611	23.452	1.	0.	96.472
67612	23.403	0.95	0.	90.934
67613	23.403	1.	5.e-002	3.4083
67614	23.552	1.	0.	101.06
67615	23.502	0.95	0.	95.262
67616	23.502	1.	5.e-002	3.447
67617	23.651	1.	0.	105.98
67618	23.602	0.95	0.	99.932
67619	23.602	1.	5.e-002	3.4909
67620	23.751	1.	0.	111.24
67621	23.701	0.95	0.	104.95
67622	23.701	1.	5.e-002	3.5403
67623	23.851	1.	0.	116.86
67624	23.801	0.95	0.	110.33
67625	23.801	1.	5.e-002	3.5963
67626	23.9	0.95	0.	116.14
67627	23.9	1.	5.e-002	3.7163
67628	23.95	1.	0.	121.95
67629	8.316	0.9	0.	864.71
67630	8.2662	0.85	0.	903.44
67631	8.2662	0.9	5.e-002	47.95
67632	8.2165	0.9	0.	628.85
67633	8.4156	0.9	0.	686.32
67634	8.3658	0.85	0.	695.21
67635	8.3658	0.9	5.e-002	37.801
67636	8.5152	0.9	0.	562.9
67637	8.4654	0.85	0.	567.52
67638	8.4654	0.9	5.e-002	36.324
67639	8.6148	0.9	0.	462.73
67640	8.565	0.85	0.	465.78
67641	8.565	0.9	5.e-002	34.467
67642	8.7144	0.9	0.	381.76
67643	8.6646	0.85	0.	384.39
67644	8.6646	0.9	5.e-002	32.244
67645	8.8139	0.9	0.	316.92
67646	8.7642	0.85	0.	320.03
67647	8.7642	0.9	5.e-002	29.796
67648	8.9135	0.9	0.	265.05
67649	8.8637	0.85	0.	269.18
67650	8.8637	0.9	5.e-002	27.266
67651	9.0131	0.9	0.	223.29
67652	8.9633	0.85	0.	228.67
67653	8.9633	0.9	5.e-002	24.758
67654	9.1127	0.9	0.	189.29
67655	9.0629	0.85	0.	195.92
67656	9.0629	0.9	5.e-002	22.343
67657	9.2123	0.9	0.	161.2
67658	9.1625	0.85	0.	168.94
67659	9.1625	0.9	5.e-002	20.062
67660	9.3118	0.9	0.	137.63
67661	9.2621	0.85	0.	146.26
67662	9.2621	0.9	5.e-002	17.938
67663	9.4114	0.9	0.	117.54
67664	9.3616	0.85	0.	126.84
67665	9.3616	0.9	5.e-002	15.982
67666	9.511	0.9	0.	100.17
67667	9.4612	0.85	0.	109.91
67668	9.4612	0.9	5.e-002	14.194
67669	9.6106	0.9	0.	84.96
67670	9.5608	0.85	0.	94.945
67671	9.5608	0.9	5.e-002	12.57
67672	9.7102	0.9	0.	71.498
67673	9.6604	0.85	0.	81.56
67674	9.6604	0.9	5.e-002	11.105
67675	9.8097	0.9	0.	59.491
67676	9.76	0.85	0.	69.49
67677	9.76	0.9	5.e-002	9.7905
67678	9.9093	0.9	0.	48.721
67679	9.8595	0.85	0.	58.543
67680	9.8595	0.9	5.e-002	8.6187
67681	10.009	0.9	0.	39.032
67682	9.9591	0.85	0.	48.582
67683	9.9591	0.9	5.e-002	7.5819
67684	10.108	0.9	0.	30.313
67685	10.059	0.85	0.	39.511
67686	10.059	0.9	5.e-002	6.6731
67687	10.208	0.9	0.	22.494
67688	10.158	0.85	0.	31.259
67689	10.158	0.9	5.e-002	5.8859
67690	10.308	0.9	0.	15.557
67691	10.258	0.85	0.	23.782
67692	10.258	0.9	5.e-002	5.2147
67693	10.407	0.9	0.	9.589
67694	10.357	0.85	0.	17.06
67695	10.357	0.9	5.e-002	4.6539
67696	10.507	0.9	0.	4.9532
67697	10.457	0.85	0.	11.13
67698	10.457	0.9	5.e-002	4.198
67699	10.606	0.9	0.	2.2625
67700	10.557	0.85	0.	6.1847
67701	10.557	0.9	5.e-002	3.8407
67702	10.706	0.9	0.	1.1422
67703	10.656	0.85	0.	2.8036
67704	10.656	0.9	5.e-002	3.5738
67705	10.806	0.9	0.	0.67008
67706	10.756	0.85	0.	1.2724
67707	10.756	0.9	5.e-002	3.3871
67708	10.905	0.9	0.	0.43558
67709	10.855	0.85	0.	0.68924
67710	10.855	0.9	5.e-002	3.2684
67711	11.005	0.9	0.	0.30275
67712	10.955	0.85	0.	0.42802
67713	10.955	0.9	5.e-002	3.2046
67714	11.104	0.9	0.	0.22044
67715	11.055	0.85	0.	0.28957
67716	11.055	0.9	5.e-002	3.1829
67717	11.204	0.9	0.	0.16613
67718	11.154	0.85	0.	0.20733
67719	11.154	0.9	5.e-002	3.1914
67720	11.303	0.9	0.	0.12863
67721	11.254	0.85	0.	0.15462
67722	11.254	0.9	5.e-002	3.2203
67723	11.403	0.9	0.	0.10182
67724	11.353	0.85	0.	0.11895
67725	11.353	0.9	5.e-002	3.262
67726	11.503	0.9	0.	8.2113e-002
67727	11.453	0.85	0.	9.3812e-002
67728	11.453	0.9	5.e-002	3.3107
67729	11.602	0.9	0.	6.7268e-002
67730	11.552	0.85	0.	7.5525e-002
67731	11.552	0.9	5.e-002	3.3622
67732	11.702	0.9	0.	5.5883e-002
67733	11.652	0.85	0.	6.1869e-002
67734	11.652	0.9	5.e-002	3.4136
67735	11.801	0.9	0.	4.7005e-002
67736	11.752	0.85	0.	5.1445e-002
67737	11.752	0.9	5.e-002	3.463
67738	11.901	0.9	0.	3.9994e-002
67739	11.851	0.85	0.	4.336e-002
67740	11.851	0.9	5.e-002	3.5091
67741	12.001	0.9	0.	3.4377e-002
67742	11.951	0.85	0.	3.6994e-002
67743	11.951	0.9	5.e-002	3.5513
67744	12.1	0.9	0.	2.9818e-002
67745	12.05	0.85	0.	3.1892e-002
67746	12.05	0.9	5.e-002	3.5893
67747	12.2	0.9	0.	2.608e-002
67748	12.15	0.85	0.	2.7754e-002
67749	12.15	0.9	5.e-002	3.6228
67750	12.299	0.9	0.	2.2994e-002
67751	12.249	0.85	0.	2.4362e-002
67752	12.249	0.9	5.e-002	3.6521
67753	12.399	0.9	0.	2.043e-002
67754	12.349	0.85	0.	2.1566e-002
67755	12.349	0.9	5.e-002	3.6772
67756	12.498	0.9	0.	1.8265e-002
67757	12.449	0.85	0.	1.924e-002
67758	12.449	0.9	5.e-002	3.6984
67759	12.598	0.9	0.	1.6419e-002
67760	12.548	0.85	0.	1.7251e-002
67761	12.548	0.9	5.e-002	3.716
67762	12.698	0.9	0.	1.4855e-002
67763	12.648	0.85	0.	1.5569e-002
67764	12.648	0.9	5.e-002	3.7301
67765	12.797	0.9	0.	1.3521e-002
67766	12.747	0.85	0.	1.4144e-002
67767	12.747	0.9	5.e-002	3.7412
67768	12.897	0.9	0.	1.2374e-002
67769	12.847	0.85	0.	1.2918e-002
67770	12.847	0.9	5.e-002	3.7495
67771	12.996	0.9	0.	1.1383e-002
67772	12.947	0.85	0.	1.1864e-002
67773	12.947	0.9	5.e-002	3.7553
67774	13.096	0.9	0.	1.0516e-002
67775	13.046	0.85	0.	1.0946e-002
67776	13.046	0.9	5.e-002	3.7589
67777	13.195	0.9	0.	9.7653e-003
67778	13.146	0.85	0.	1.0139e-002
67779	13.146	0.9	5.e-002	3.7604
67780	13.295	0.9	0.	9.125e-003
67781	13.245	0.85	0.	9.4482e-003
67782	13.245	0.9	5.e-002	3.7602
67783	13.395	0.9	0.	8.5709e-003
67784	13.345	0.85	0.	8.8594e-003
67785	13.345	0.9	5.e-002	3.7584
67786	13.494	0.9	0.	8.0846e-003
67787	13.444	0.85	0.	8.3392e-003
67788	13.444	0.9	5.e-002	3.7553
67789	13.594	0.9	0.	7.6619e-003
67790	13.544	0.85	0.	7.8832e-003
67791	13.544	0.9	5.e-002	3.751
67792	13.693	0.9	0.	7.2962e-003
67793	13.644	0.85	0.	7.4886e-003
67794	13.644	0.9	5.e-002	3.7457
67795	13.793	0.9	0.	6.9823e-003
67796	13.743	0.85	0.	7.1462e-003
67797	13.743	0.9	5.e-002	3.7394
67798	13.893	0.9	0.	6.7543e-003
67799	13.843	0.85	0.	6.8656e-003
67800	13.843	0.9	5.e-002	3.7324
67801	13.992	0.9	0.	6.5186e-003
67802	13.942	0.85	0.	6.6384e-003
67803	13.942	0.9	5.e-002	3.7248
67804	14.092	0.9	0.	6.333e-003
67805	14.042	0.85	0.	6.4384e-003
67806	14.042	0.9	5.e-002	3.7166
67807	14.191	0.9	0.	6.1986e-003
67808	14.142	0.85	0.	6.2663e-003
67809	14.142	0.9	5.e-002	3.7079
67810	14.291	0.9	0.	6.1121e-003
67811	14.241	0.85	0.	6.1629e-003
67812	14.241	0.9	5.e-002	3.6988
67813	14.39	0.9	0.	6.0717e-003
67814	14.341	0.85	0.	6.1047e-003
67815	14.341	0.9	5.e-002	3.6893
67816	14.49	0.9	0.	6.0826e-003
67817	14.44	0.85	0.	6.1039e-003
67818	14.44	0.9	5.e-002	3.6796
67819	14.59	0.9	0.	6.1494e-003
67820	14.54	0.85	0.	6.1657e-003
67821	14.54	0.9	5.e-002	3.6697
67822	14.689	0.9	0.	6.2957e-003
67823	14.639	0.85	0.	6.3035e-003
67824	14.639	0.9	5.e-002	3.6595
67825	14.789	0.9	0.	6.5571e-003
67826	14.739	0.85	0.	6.5691e-003
67827	14.739	0.9	5.e-002	3.6492
67828	14.888	0.9	0.	6.9722e-003
67829	14.839	0.85	0.	7.0181e-003
67830	14.839	0.9	5.e-002	3.6389
67831	14.988	0.9	0.	7.6252e-003
67832	14.938	0.85	0.	7.747e-003
67833	14.938	0.9	5.e-002	3.6285
67834	15.088	0.9	0.	8.7107e-003
67835	15.038	0.85	0.	9.0196e-003
67836	15.038	0.9	5.e-002	3.6181
67837	15.187	0.9	0.	1.0726e-002
67838	15.137	0.85	0.	1.1565e-002
67839	15.137	0.9	5.e-002	3.6076
67840	15.287	0.9	0.	1.5384e-002
67841	15.237	0.85	0.	1.8534e-002
67842	15.237	0.9	5.e-002	3.5972
67843	15.386	0.9	0.	3.495e-002
67844	15.336	0.85	0.	7.3772e-002
67845	15.336	0.9	5.e-002	3.5868
67846	15.486	0.9	0.	0.38901
67847	15.436	0.85	0.	0.67326
67848	15.436	0.9	5.e-002	3.5765
67849	15.585	0.9	0.	1.1539
67850	15.536	0.85	0.	1.429
67851	15.536	0.9	5.e-002	3.5662
67852	15.685	0.9	0.	1.9233
67853	15.635	0.85	0.	2.1764
67854	15.635	0.9	5.e-002	3.5559
67855	15.785	0.9	0.	2.6791
67856	15.735	0.85	0.	2.9098
67857	15.735	0.9	5.e-002	3.5458
67858	15.884	0.9	0.	3.42
67859	15.834	0.85	0.	3.6284
67860	15.834	0.9	5.e-002	3.5356
67861	15.984	0.9	0.	4.1459
67862	15.934	0.85	0.	4.3328
67863	15.934	0.9	5.e-002	3.5256
67864	16.083	0.9	0.	4.8576
67865	16.034	0.85	0.	5.0232
67866	16.034	0.9	5.e-002	3.5157
67867	16.183	0.9	0.	5.5555
67868	16.133	0.85	0.	5.7003
67869	16.133	0.9	5.e-002	3.5058
67870	16.282	0.9	0.	6.2404
67871	16.233	0.85	0.	6.3648
67872	16.233	0.9	5.e-002	3.4961
67873	16.382	0.9	0.	6.9129
67874	16.332	0.85	0.	7.0173
67875	16.332	0.9	5.e-002	3.4865
67876	16.482	0.9	0.	7.574
67877	16.432	0.85	0.	7.6585
67878	16.432	0.9	5.e-002	3.477
67879	16.581	0.9	0.	8.2243
67880	16.531	0.85	0.	8.2893
67881	16.531	0.9	5.e-002	3.4676
67882	16.681	0.9	0.	8.8646
67883	16.631	0.85	0.	8.9102
67884	16.631	0.9	5.e-002	3.4583
67885	16.78	0.9	0.	9.4958
67886	16.731	0.85	0.	9.5221
67887	16.731	0.9	5.e-002	3.4491
67888	16.88	0.9	0.	10.119
67889	16.83	0.85	0.	10.126
67890	16.83	0.9	5.e-002	3.4401
67891	16.98	0.9	0.	10.734
67892	16.93	0.85	0.	10.722
67893	16.93	0.9	5.e-002	3.4312
67894	17.079	0.9	0.	11.342
67895	17.029	0.85	0.	11.311
67896	17.029	0.9	5.e-002	3.4223
67897	17.179	0.9	0.	11.945
67898	17.129	0.85	0.	11.894
67899	17.129	0.9	5.e-002	3.4136
67900	17.278	0.9	0.	12.543
67901	17.229	0.85	0.	12.472
67902	17.229	0.9	5.e-002	3.405
67903	17.378	0.9	0.	13.136
67904	17.328	0.85	0.	13.046
67905	17.328	0.9	5.e-002	3.3965
67906	17.477	0.9	0.	13.726
67907	17.428	0.85	0.	13.616
67908	17.428	0.9	5.e-002	3.3881
67909	17.577	0.9	0.	14.313
67910	17.527	0.85	0.	14.183
67911	17.527	0.9	5.e-002	3.3799
67912	17.677	0.9	0.	14.898
67913	17.627	0.85	0.	14.748
67914	17.627	0.9	5.e-002	3.3717
67915	17.776	0.9	0.	15.483
67916	17.726	0.85	0.	15.311
67917	17.726	0.9	5.e-002	3.3637
67918	17.876	0.9	0.	16.067
67919	17.826	0.85	0.	15.874
67920	17.826	0.9	5.e-002	3.3558
67921	17.975	0.9	0.	16.652
67922	17.926	0.85	0.	16.437
67923	17.926	0.9	5.e-002	3.3481
67924	18.075	0.9	0.	17.238
67925	18.025	0.85	0.	17.001
67926	18.025	0.9	5.e-002	3.3405
67927	18.175	0.9	0.	17.827
67928	18.125	0.85	0.	17.567
67929	18.125	0.9	5.e-002	3.333
67930	18.274	0.9	0.	18.418
67931	18.224	0.85	0.	18.135
67932	18.224	0.9	5.e-002	3.3256
67933	18.374	0.9	0.	19.014
67934	18.324	0.85	0.	18.706
67935	18.324	0.9	5.e-002	3.3184
67936	18.473	0.9	0.	19.614
67937	18.423	0.85	0.	19.282
67938	18.423	0.9	5.e-002	3.3113
67939	18.573	0.9	0.	20.22
67940	18.523	0.85	0.	19.862
67941	18.523	0.9	5.e-002	3.3043
67942	18.672	0.9	0.	20.833
67943	18.623	0.85	0.	20.448
67944	18.623	0.9	5.e-002	3.2974
67945	18.772	0.9	0.	21.452
67946	18.722	0.85	0.	21.04
67947	18.722	0.9	5.e-002	3.2907
67948	18.872	0.9	0.	22.08
67949	18.822	0.85	0.	21.639
67950	18.822	0.9	5.e-002	3.2842
67951	18.971	0.9	0.	22.717
67952	18.921	0.85	0.	22.247
67953	18.921	0.9	5.e-002	3.2777
67954	19.071	0.9	0.	23.364
67955	19.021	0.85	0.	22.863
67956	19.021	0.9	5.e-002	3.2714
67957	19.17	0.9	0.	24.022
67958	19.121	0.85	0.	23.489
67959	19.121	0.9	5.e-002	3.2653
67960	19.27	0.9	0.	24.691
67961	19.22	0.85	0.	24.126
67962	19.22	0.9	5.e-002	3.2593
67963	19.369	0.9	0.	25.373
67964	19.32	0.85	0.	24.774
67965	19.32	0.9	5.e-002	3.2535
67966	19.469	0.9	0.	26.069
67967	19.419	0.85	0.	25.434
67968	19.419	0.9	5.e-002	3.2479
67969	19.569	0.9	0.	26.779
67970	19.519	0.85	0.	26.107
67971	19.519	0.9	5.e-002	3.2424
67972	19.668	0.9	0.	27.505
67973	19.618	0.85	0.	26.794
67974	19.618	0.9	5.e-002	3.2371
67975	19.768	0.9	0.	28.248
67976	19.718	0.85	0.	27.496
67977	19.718	0.9	5.e-002	3.232
67978	19.867	0.9	0.	29.008
67979	19.818	0.85	0.	28.214
67980	19.818	0.9	5.e-002	3.2271
67981	19.967	0.9	0.	29.787
67982	19.917	0.85	0.	28.949
67983	19.917	0.9	5.e-002	3.2224
67984	20.067	0.9	0.	30.586
67985	20.017	0.85	0.	29.702
67986	20.017	0.9	5.e-002	3.2178
67987	20.166	0.9	0.	31.406
67988	20.116	0.85	0.	30.474
67989	20.116	0.9	5.e-002	3.2135
67990	20.266	0.9	0.	32.248
67991	20.216	0.85	0.	31.266
67992	20.216	0.9	5.e-002	3.2094
67993	20.365	0.9	0.	33.114
67994	20.316	0.85	0.	32.08
67995	20.316	0.9	5.e-002	3.2055
67996	20.465	0.9	0.	34.004
67997	20.415	0.85	0.	32.915
67998	20.415	0.9	5.e-002	3.2018
67999	20.564	0.9	0.	34.922
68000	20.515	0.85	0.	33.775
68001	20.515	0.9	5.e-002	3.1984
68002	20.664	0.9	0.	35.866
68003	20.614	0.85	0.	34.66
68004	20.614	0.9	5.e-002	3.1952
68005	20.764	0.9	0.	36.841
68006	20.714	0.85	0.	35.571
68007	20.714	0.9	5.e-002	3.1923
68008	20.863	0.9	0.	37.847
68009	20.813	0.85	0.	36.51
68010	20.813	0.9	5.e-002	3.1897
68011	20.963	0.9	0.	38.885
68012	20.913	0.85	0.	37.479
68013	20.913	0.9	5.e-002	3.1874
68014	21.062	0.9	0.	39.959
68015	21.013	0.85	0.	38.479
68016	21.013	0.9	5.e-002	3.1853
68017	21.162	0.9	0.	41.071
68018	21.112	0.85	0.	39.513
68019	21.112	0.9	5.e-002	3.1836
68020	21.262	0.9	0.	42.221
68021	21.212	0.85	0.	40.582
68022	21.212	0.9	5.e-002	3.1823
68023	21.361	0.9	0.	43.415
68024	21.311	0.85	0.	41.689
68025	21.311	0.9	5.e-002	3.1813
68026	21.461	0.9	0.	44.653
68027	21.411	0.85	0.	42.837
68028	21.411	0.9	5.e-002	3.1807
68029	21.56	0.9	0.	45.941
68030	21.51	0.85	0.	44.028
68031	21.51	0.9	5.e-002	3.1805
68032	21.66	0.9	0.	47.28
68033	21.61	0.85	0.	45.265
68034	21.61	0.9	5.e-002	3.1808
68035	21.759	0.9	0.	48.676
68036	21.71	0.85	0.	46.553
68037	21.71	0.9	5.e-002	3.1816
68038	21.859	0.9	0.	50.132
68039	21.809	0.85	0.	47.894
68040	21.809	0.9	5.e-002	3.1829
68041	21.959	0.9	0.	51.655
68042	21.909	0.85	0.	49.295
68043	21.909	0.9	5.e-002	3.1848
68044	22.058	0.9	0.	53.25
68045	22.008	0.85	0.	50.759
68046	22.008	0.9	5.e-002	3.1874
68047	22.158	0.9	0.	54.924
68048	22.108	0.85	0.	52.294
68049	22.108	0.9	5.e-002	3.1907
68050	22.257	0.9	0.	56.685
68051	22.208	0.85	0.	53.906
68052	22.208	0.9	5.e-002	3.1949
68053	22.357	0.9	0.	58.542
68054	22.307	0.85	0.	55.603
68055	22.307	0.9	5.e-002	3.2
68056	22.456	0.9	0.	60.506
68057	22.407	0.85	0.	57.394
68058	22.407	0.9	5.e-002	3.2061
68059	22.556	0.9	0.	62.588
68060	22.506	0.85	0.	59.292
68061	22.506	0.9	5.e-002	3.2135
68062	22.656	0.9	0.	64.802
68063	22.606	0.85	0.	61.308
68064	22.606	0.9	5.e-002	3.2223
68065	22.755	0.9	0.	67.165
68066	22.705	0.85	0.	63.457
68067	22.705	0.9	5.e-002	3.2328
68068	22.855	0.9	0.	69.695
68069	22.805	0.85	0.	65.758
68070	22.805	0.9	5.e-002	3.2453
68071	22.954	0.9	0.	72.414
68072	22.905	0.85	0.	68.23
68073	22.905	0.9	5.e-002	3.26
68074	23.054	0.9	0.	75.345
68075	23.004	0.85	0.	70.897
68076	23.004	0.9	5.e-002	3.2776
68077	23.154	0.9	0.	78.515
68078	23.104	0.85	0.	73.785
68079	23.104	0.9	5.e-002	3.2984
68080	23.253	0.9	0.	81.951
68081	23.203	0.85	0.	76.926
68082	23.203	0.9	5.e-002	3.323
68083	23.353	0.9	0.	85.682
68084	23.303	0.85	0.	80.351
68085	23.303	0.9	5.e-002	3.3522
68086	23.452	0.9	0.	89.737
68087	23.403	0.85	0.	84.093
68088	23.403	0.9	5.e-002	3.3866
68089	23.552	0.9	0.	94.14
68090	23.502	0.85	0.	88.186
68091	23.502	0.9	5.e-002	3.4269
68092	23.651	0.9	0.	98.906
68093	23.602	0.85	0.	92.657
68094	23.602	0.9	5.e-002	3.4736
68095	23.751	0.9	0.	104.05
68096	23.701	0.85	0.	97.521
68097	23.701	0.9	5.e-002	3.5272
68098	23.851	0.9	0.	109.62
68099	23.801	0.85	0.	102.81
68100	23.801	0.9	5.e-002	3.589
68101	23.9	0.85	0.	108.58
68102	23.9	0.9	5.e-002	3.7209
68103	23.95	0.9	0.	114.59
68104	8.316	0.8	0.	723.91
68105	8.2662	0.75	0.	757.1
68106	8.2662	0.8	5.e-002	43.804
68107	8.2165	0.8	0.	526.31
68108	8.4156	0.8	0.	566.53
68109	8.3658	0.75	0.	571.17
68110	8.3658	0.8	5.e-002	35.167
68111	8.5152	0.8	0.	461.63
68112	8.4654	0.75	0.	460.64
68113	8.4654	0.8	5.e-002	34.082
68114	8.6148	0.8	0.	380.09
68115	8.565	0.75	0.	376.83
68116	8.565	0.8	5.e-002	32.629
68117	8.7144	0.8	0.	316.77
68118	8.6646	0.75	0.	313.04
68119	8.6646	0.8	5.e-002	30.798
68120	8.8139	0.8	0.	267.72
68121	8.7642	0.75	0.	264.78
68122	8.7642	0.8	5.e-002	28.697
68123	8.9135	0.8	0.	229.33
68124	8.8637	0.75	0.	227.9
68125	8.8637	0.8	5.e-002	26.452
68126	9.0131	0.8	0.	198.69
68127	8.9633	0.75	0.	199.05
68128	8.9633	0.8	5.e-002	24.162
68129	9.1127	0.8	0.	173.62
68130	9.0629	0.75	0.	175.73
68131	9.0629	0.8	5.e-002	21.904
68132	9.2123	0.8	0.	152.55
68133	9.1625	0.75	0.	156.24
68134	9.1625	0.8	5.e-002	19.728
68135	9.3118	0.8	0.	134.39
68136	9.2621	0.75	0.	139.4
68137	9.2621	0.8	5.e-002	17.67
68138	9.4114	0.8	0.	118.41
68139	9.3616	0.75	0.	124.45
68140	9.3616	0.8	5.e-002	15.747
68141	9.511	0.8	0.	104.09
68142	9.4612	0.75	0.	110.92
68143	9.4612	0.8	5.e-002	13.969
68144	9.6106	0.8	0.	91.11
68145	9.5608	0.75	0.	98.482
68146	9.5608	0.8	5.e-002	12.34
68147	9.7102	0.8	0.	79.236
68148	9.6604	0.75	0.	86.955
68149	9.6604	0.8	5.e-002	10.858
68150	9.8097	0.8	0.	68.318
68151	9.76	0.75	0.	76.219
68152	9.76	0.8	5.e-002	9.5194
68153	9.9093	0.8	0.	58.254
68154	9.8595	0.75	0.	66.202
68155	9.8595	0.8	5.e-002	8.3185
68156	10.009	0.8	0.	48.972
68157	9.9591	0.75	0.	56.86
68158	9.9591	0.8	5.e-002	7.25
68159	10.108	0.8	0.	40.423
68160	10.059	0.75	0.	48.167
68161	10.059	0.8	5.e-002	6.3086
68162	10.208	0.8	0.	32.573
68163	10.158	0.75	0.	40.105
68164	10.158	0.8	5.e-002	5.4895
68165	10.308	0.8	0.	25.396
68166	10.258	0.75	0.	32.661
68167	10.258	0.8	5.e-002	4.7889
68168	10.407	0.8	0.	18.879
68169	10.357	0.75	0.	25.824
68170	10.357	0.8	5.e-002	4.2035
68171	10.507	0.8	0.	13.034
68172	10.457	0.75	0.	19.587
68173	10.457	0.8	5.e-002	3.7304
68174	10.606	0.8	0.	7.9383
68175	10.557	0.75	0.	13.954
68176	10.557	0.8	5.e-002	3.3659
68177	10.706	0.8	0.	3.9077
68178	10.656	0.75	0.	8.9604
68179	10.656	0.8	5.e-002	3.1036
68180	10.806	0.8	0.	1.6197
68181	10.756	0.75	0.	4.7713
68182	10.756	0.8	5.e-002	2.9338
68183	10.905	0.8	0.	0.77128
68184	10.855	0.75	0.	1.9596
68185	10.855	0.8	5.e-002	2.8426
68186	11.005	0.8	0.	0.44422
68187	10.955	0.75	0.	0.82731
68188	10.955	0.8	5.e-002	2.8134
68189	11.104	0.8	0.	0.28798
68190	11.055	0.75	0.	0.44138
68191	11.055	0.8	5.e-002	2.8298
68192	11.204	0.8	0.	0.20098
68193	11.154	0.75	0.	0.27497
68194	11.154	0.8	5.e-002	2.8768
68195	11.303	0.8	0.	0.14749
68196	11.254	0.75	0.	0.18777
68197	11.254	0.8	5.e-002	2.9424
68198	11.403	0.8	0.	0.11232
68199	11.353	0.75	0.	0.13613
68200	11.353	0.8	5.e-002	3.0178
68201	11.503	0.8	0.	8.8034e-002
68202	11.453	0.75	0.	0.10298
68203	11.453	0.8	5.e-002	3.0967
68204	11.602	0.8	0.	7.0621e-002
68205	11.552	0.75	0.	8.0461e-002
68206	11.552	0.8	5.e-002	3.1749
68207	11.702	0.8	0.	5.7729e-002
68208	11.652	0.75	0.	6.4497e-002
68209	11.652	0.8	5.e-002	3.2497
68210	11.801	0.8	0.	4.8025e-002
68211	11.752	0.75	0.	5.2794e-002
68212	11.752	0.8	5.e-002	3.3194
68213	11.901	0.8	0.	4.0524e-002
68214	11.851	0.75	0.	4.4e-002
68215	11.851	0.8	5.e-002	3.3831
68216	12.001	0.8	0.	3.4634e-002
68217	11.951	0.75	0.	3.7248e-002
68218	11.951	0.8	5.e-002	3.4406
68219	12.1	0.8	0.	2.9927e-002
68220	12.05	0.75	0.	3.1946e-002
68221	12.05	0.8	5.e-002	3.4919
68222	12.2	0.8	0.	2.6116e-002
68223	12.15	0.75	0.	2.7714e-002
68224	12.15	0.8	5.e-002	3.537
68225	12.299	0.8	0.	2.3001e-002
68226	12.249	0.75	0.	2.4287e-002
68227	12.249	0.8	5.e-002	3.5762
68228	12.399	0.8	0.	2.0433e-002
68229	12.349	0.75	0.	2.149e-002
68230	12.349	0.8	5.e-002	3.6099
68231	12.498	0.8	0.	1.8275e-002
68232	12.449	0.75	0.	1.9178e-002
68233	12.449	0.8	5.e-002	3.6387
68234	12.598	0.8	0.	1.6442e-002
68235	12.548	0.75	0.	1.7211e-002
68236	12.548	0.8	5.e-002	3.6629
68237	12.698	0.8	0.	1.4893e-002
68238	12.648	0.75	0.	1.5552e-002
68239	12.648	0.8	5.e-002	3.6828
68240	12.797	0.8	0.	1.3571e-002
68241	12.747	0.75	0.	1.4149e-002
68242	12.747	0.8	5.e-002	3.6989
68243	12.897	0.8	0.	1.2434e-002
68244	12.847	0.75	0.	1.294e-002
68245	12.847	0.8	5.e-002	3.7116
68246	12.996	0.8	0.	1.145e-002
68247	12.947	0.75	0.	1.19e-002
68248	12.947	0.8	5.e-002	3.7212
68249	13.096	0.8	0.	1.0588e-002
68250	13.046	0.75	0.	1.0992e-002
68251	13.046	0.8	5.e-002	3.7282
68252	13.195	0.8	0.	9.8373e-003
68253	13.146	0.75	0.	1.019e-002
68254	13.146	0.8	5.e-002	3.7327
68255	13.295	0.8	0.	9.1951e-003
68256	13.245	0.75	0.	9.5008e-003
68257	13.245	0.8	5.e-002	3.7351
68258	13.395	0.8	0.	8.6373e-003
68259	13.345	0.75	0.	8.9101e-003
68260	13.345	0.8	5.e-002	3.7357
68261	13.494	0.8	0.	8.1447e-003
68262	13.444	0.75	0.	8.3855e-003
68263	13.444	0.8	5.e-002	3.7346
68264	13.594	0.8	0.	7.7142e-003
68265	13.544	0.75	0.	7.9232e-003
68266	13.544	0.8	5.e-002	3.7321
68267	13.693	0.8	0.	7.3404e-003
68268	13.644	0.75	0.	7.5203e-003
68269	13.644	0.8	5.e-002	3.7284
68270	13.793	0.8	0.	7.0237e-003
68271	13.743	0.75	0.	7.1697e-003
68272	13.743	0.8	5.e-002	3.7236
68273	13.893	0.8	0.	6.765e-003
68274	13.843	0.75	0.	6.881e-003
68275	13.843	0.8	5.e-002	3.7178
68276	13.992	0.8	0.	6.5422e-003
68277	13.942	0.75	0.	6.6469e-003
68278	13.942	0.8	5.e-002	3.7114
68279	14.092	0.8	0.	6.3538e-003
68280	14.042	0.75	0.	6.4328e-003
68281	14.042	0.8	5.e-002	3.7042
68282	14.191	0.8	0.	6.2118e-003
68283	14.142	0.75	0.	6.272e-003
68284	14.142	0.8	5.e-002	3.6964
68285	14.291	0.8	0.	6.1481e-003
68286	14.241	0.75	0.	6.1787e-003
68287	14.241	0.8	5.e-002	3.6881
68288	14.39	0.8	0.	6.1392e-003
68289	14.341	0.75	0.	6.1438e-003
68290	14.341	0.8	5.e-002	3.6793
68291	14.49	0.8	0.	6.198e-003
68292	14.44	0.75	0.	6.1873e-003
68293	14.44	0.8	5.e-002	3.6703
68294	14.59	0.8	0.	6.3175e-003
68295	14.54	0.75	0.	6.3312e-003
68296	14.54	0.8	5.e-002	3.6609
68297	14.689	0.8	0.	6.5882e-003
68298	14.639	0.75	0.	6.6065e-003
68299	14.639	0.8	5.e-002	3.6513
68300	14.789	0.8	0.	7.0728e-003
68301	14.739	0.75	0.	7.1518e-003
68302	14.739	0.8	5.e-002	3.6415
68303	14.888	0.8	0.	7.9252e-003
68304	14.839	0.75	0.	8.1922e-003
68305	14.839	0.8	5.e-002	3.6316
68306	14.988	0.8	0.	9.4796e-003
68307	14.938	0.75	0.	1.031e-002
68308	14.938	0.8	5.e-002	3.6216
68309	15.088	0.8	0.	1.3001e-002
68310	15.038	0.75	0.	1.6283e-002
68311	15.038	0.8	5.e-002	3.6115
68312	15.187	0.8	0.	2.6211e-002
68313	15.137	0.75	0.	6.9222e-002
68314	15.137	0.8	5.e-002	3.6014
68315	15.287	0.8	0.	0.27813
68316	15.237	0.75	0.	0.65687
68317	15.237	0.8	5.e-002	3.5913
68318	15.386	0.8	0.	1.0011
68319	15.336	0.75	0.	1.3773
68320	15.336	0.8	5.e-002	3.5812
68321	15.486	0.8	0.	1.7372
68322	15.436	0.75	0.	2.0892
68323	15.436	0.8	5.e-002	3.5711
68324	15.585	0.8	0.	2.4612
68325	15.536	0.75	0.	2.7881
68326	15.536	0.8	5.e-002	3.561
68327	15.685	0.8	0.	3.1712
68328	15.635	0.75	0.	3.4734
68329	15.635	0.8	5.e-002	3.551
68330	15.785	0.8	0.	3.8672
68331	15.735	0.75	0.	4.1452
68332	15.735	0.8	5.e-002	3.541
68333	15.884	0.8	0.	4.5493
68334	15.834	0.75	0.	4.8038
68335	15.834	0.8	5.e-002	3.5311
68336	15.984	0.8	0.	5.2181
68337	15.934	0.75	0.	5.4497
68338	15.934	0.8	5.e-002	3.5213
68339	16.083	0.8	0.	5.874
68340	16.034	0.75	0.	6.0834
68341	16.034	0.8	5.e-002	3.5115
68342	16.183	0.8	0.	6.5179
68343	16.133	0.75	0.	6.7053
68344	16.133	0.8	5.e-002	3.5017
68345	16.282	0.8	0.	7.1501
68346	16.233	0.75	0.	7.3161
68347	16.233	0.8	5.e-002	3.4921
68348	16.382	0.8	0.	7.7714
68349	16.332	0.75	0.	7.9164
68350	16.332	0.8	5.e-002	3.4826
68351	16.482	0.8	0.	8.3824
68352	16.432	0.75	0.	8.5067
68353	16.432	0.8	5.e-002	3.4732
68354	16.581	0.8	0.	8.9839
68355	16.531	0.75	0.	9.0877
68356	16.531	0.8	5.e-002	3.4639
68357	16.681	0.8	0.	9.5765
68358	16.631	0.75	0.	9.6601
68359	16.631	0.8	5.e-002	3.4547
68360	16.78	0.8	0.	10.161
68361	16.731	0.75	0.	10.224
68362	16.731	0.8	5.e-002	3.4456
68363	16.88	0.8	0.	10.738
68364	16.83	0.75	0.	10.781
68365	16.83	0.8	5.e-002	3.4367
68366	16.98	0.8	0.	11.308
68367	16.93	0.75	0.	11.332
68368	16.93	0.8	5.e-002	3.4278
68369	17.079	0.8	0.	11.872
68370	17.029	0.75	0.	11.876
68371	17.029	0.8	5.e-002	3.419
68372	17.179	0.8	0.	12.431
68373	17.129	0.75	0.	12.415
68374	17.129	0.8	5.e-002	3.4103
68375	17.278	0.8	0.	12.985
68376	17.229	0.75	0.	12.949
68377	17.229	0.8	5.e-002	3.4018
68378	17.378	0.8	0.	13.536
68379	17.328	0.75	0.	13.479
68380	17.328	0.8	5.e-002	3.3934
68381	17.477	0.8	0.	14.083
68382	17.428	0.75	0.	14.006
68383	17.428	0.8	5.e-002	3.385
68384	17.577	0.8	0.	14.628
68385	17.527	0.75	0.	14.53
68386	17.527	0.8	5.e-002	3.3767
68387	17.677	0.8	0.	15.171
68388	17.627	0.75	0.	15.053
68389	17.627	0.8	5.e-002	3.3686
68390	17.776	0.8	0.	15.713
68391	17.726	0.75	0.	15.574
68392	17.726	0.8	5.e-002	3.3606
68393	17.876	0.8	0.	16.255
68394	17.826	0.75	0.	16.094
68395	17.826	0.8	5.e-002	3.3527
68396	17.975	0.8	0.	16.797
68397	17.926	0.75	0.	16.614
68398	17.926	0.8	5.e-002	3.345
68399	18.075	0.8	0.	17.341
68400	18.025	0.75	0.	17.135
68401	18.025	0.8	5.e-002	3.3373
68402	18.175	0.8	0.	17.886
68403	18.125	0.75	0.	17.658
68404	18.125	0.8	5.e-002	3.3298
68405	18.274	0.8	0.	18.434
68406	18.224	0.75	0.	18.182
68407	18.224	0.8	5.e-002	3.3225
68408	18.374	0.8	0.	18.985
68409	18.324	0.75	0.	18.709
68410	18.324	0.8	5.e-002	3.3152
68411	18.473	0.8	0.	19.541
68412	18.423	0.75	0.	19.24
68413	18.423	0.8	5.e-002	3.3081
68414	18.573	0.8	0.	20.101
68415	18.523	0.75	0.	19.775
68416	18.523	0.8	5.e-002	3.301
68417	18.672	0.8	0.	20.667
68418	18.623	0.75	0.	20.314
68419	18.623	0.8	5.e-002	3.2941
68420	18.772	0.8	0.	21.239
68421	18.722	0.75	0.	20.859
68422	18.722	0.8	5.e-002	3.2874
68423	18.872	0.8	0.	21.818
68424	18.822	0.75	0.	21.411
68425	18.822	0.8	5.e-002	3.2808
68426	18.971	0.8	0.	22.405
68427	18.921	0.75	0.	21.968
68428	18.921	0.8	5.e-002	3.2743
68429	19.071	0.8	0.	23.001
68430	19.021	0.75	0.	22.534
68431	19.021	0.8	5.e-002	3.2679
68432	19.17	0.8	0.	23.606
68433	19.121	0.75	0.	23.108
68434	19.121	0.8	5.e-002	3.2617
68435	19.27	0.8	0.	24.221
68436	19.22	0.75	0.	23.691
68437	19.22	0.8	5.e-002	3.2556
68438	19.369	0.8	0.	24.847
68439	19.32	0.75	0.	24.283
68440	19.32	0.8	5.e-002	3.2497
68441	19.469	0.8	0.	25.484
68442	19.419	0.75	0.	24.886
68443	19.419	0.8	5.e-002	3.244
68444	19.569	0.8	0.	26.135
68445	19.519	0.75	0.	25.5
68446	19.519	0.8	5.e-002	3.2384
68447	19.668	0.8	0.	26.798
68448	19.618	0.75	0.	26.126
68449	19.618	0.8	5.e-002	3.233
68450	19.768	0.8	0.	27.476
68451	19.718	0.75	0.	26.765
68452	19.718	0.8	5.e-002	3.2277
68453	19.867	0.8	0.	28.17
68454	19.818	0.75	0.	27.417
68455	19.818	0.8	5.e-002	3.2227
68456	19.967	0.8	0.	28.879
68457	19.917	0.75	0.	28.084
68458	19.917	0.8	5.e-002	3.2178
68459	20.067	0.8	0.	29.605
68460	20.017	0.75	0.	28.765
68461	20.017	0.8	5.e-002	3.2131
68462	20.166	0.8	0.	30.35
68463	20.116	0.75	0.	29.463
68464	20.116	0.8	5.e-002	3.2086
68465	20.266	0.8	0.	31.113
68466	20.216	0.75	0.	30.178
68467	20.216	0.8	5.e-002	3.2043
68468	20.365	0.8	0.	31.897
68469	20.316	0.75	0.	30.911
68470	20.316	0.8	5.e-002	3.2002
68471	20.465	0.8	0.	32.702
68472	20.415	0.75	0.	31.663
68473	20.415	0.8	5.e-002	3.1963
68474	20.564	0.8	0.	33.529
68475	20.515	0.75	0.	32.434
68476	20.515	0.8	5.e-002	3.1926
68477	20.664	0.8	0.	34.38
68478	20.614	0.75	0.	33.227
68479	20.614	0.8	5.e-002	3.1892
68480	20.764	0.8	0.	35.256
68481	20.714	0.75	0.	34.042
68482	20.714	0.8	5.e-002	3.186
68483	20.863	0.8	0.	36.159
68484	20.813	0.75	0.	34.88
68485	20.813	0.8	5.e-002	3.1831
68486	20.963	0.8	0.	37.09
68487	20.913	0.75	0.	35.744
68488	20.913	0.8	5.e-002	3.1804
68489	21.062	0.8	0.	38.05
68490	21.013	0.75	0.	36.633
68491	21.013	0.8	5.e-002	3.1781
68492	21.162	0.8	0.	39.043
68493	21.112	0.75	0.	37.551
68494	21.112	0.8	5.e-002	3.176
68495	21.262	0.8	0.	40.069
68496	21.212	0.75	0.	38.498
68497	21.212	0.8	5.e-002	3.1743
68498	21.361	0.8	0.	41.131
68499	21.311	0.75	0.	39.476
68500	21.311	0.8	5.e-002	3.1729
68501	21.461	0.8	0.	42.231
68502	21.411	0.75	0.	40.489
68503	21.411	0.8	5.e-002	3.1718
68504	21.56	0.8	0.	43.373
68505	21.51	0.75	0.	41.537
68506	21.51	0.8	5.e-002	3.1712
68507	21.66	0.8	0.	44.559
68508	21.61	0.75	0.	42.624
68509	21.61	0.8	5.e-002	3.1709
68510	21.759	0.8	0.	45.792
68511	21.71	0.75	0.	43.753
68512	21.71	0.8	5.e-002	3.1712
68513	21.859	0.8	0.	47.078
68514	21.809	0.75	0.	44.927
68515	21.809	0.8	5.e-002	3.1719
68516	21.959	0.8	0.	48.421
68517	21.909	0.75	0.	46.15
68518	21.909	0.8	5.e-002	3.1731
68519	22.058	0.8	0.	49.826
68520	22.008	0.75	0.	47.428
68521	22.008	0.8	5.e-002	3.1749
68522	22.158	0.8	0.	51.299
68523	22.108	0.75	0.	48.764
68524	22.108	0.8	5.e-002	3.1775
68525	22.257	0.8	0.	52.847
68526	22.208	0.75	0.	50.166
68527	22.208	0.8	5.e-002	3.1807
68528	22.357	0.8	0.	54.479
68529	22.307	0.75	0.	51.64
68530	22.307	0.8	5.e-002	3.1849
68531	22.456	0.8	0.	56.205
68532	22.407	0.75	0.	53.196
68533	22.407	0.8	5.e-002	3.19
68534	22.556	0.8	0.	58.037
68535	22.506	0.75	0.	54.843
68536	22.506	0.8	5.e-002	3.1963
68537	22.656	0.8	0.	59.988
68538	22.606	0.75	0.	56.594
68539	22.606	0.8	5.e-002	3.204
68540	22.755	0.8	0.	62.075
68541	22.705	0.75	0.	58.464
68542	22.705	0.8	5.e-002	3.2132
68543	22.855	0.8	0.	64.317
68544	22.805	0.75	0.	60.469
68545	22.805	0.8	5.e-002	3.2244
68546	22.954	0.8	0.	66.737
68547	22.905	0.75	0.	62.632
68548	22.905	0.8	5.e-002	3.2379
68549	23.054	0.8	0.	69.36
68550	23.004	0.75	0.	64.976
68551	23.004	0.8	5.e-002	3.2541
68552	23.154	0.8	0.	72.219
68553	23.104	0.75	0.	67.531
68554	23.104	0.8	5.e-002	3.2737
68555	23.253	0.8	0.	75.346
68556	23.203	0.75	0.	70.333
68557	23.203	0.8	5.e-002	3.2975
68558	23.353	0.8	0.	78.78
68559	23.303	0.75	0.	73.421
68560	23.303	0.8	5.e-002	3.3262
68561	23.452	0.8	0.	82.558
68562	23.403	0.75	0.	76.838
68563	23.403	0.8	5.e-002	3.361
68564	23.552	0.8	0.	86.716
68565	23.502	0.75	0.	80.631
68566	23.502	0.8	5.e-002	3.4027
68567	23.651	0.8	0.	91.282
68568	23.602	0.75	0.	84.842
68569	23.602	0.8	5.e-002	3.4522
68570	23.751	0.8	0.	96.284
68571	23.701	0.75	0.	89.501
68572	23.701	0.8	5.e-002	3.5105
68573	23.851	0.8	0.	101.77
68574	23.801	0.75	0.	94.648
68575	23.801	0.8	5.e-002	3.5793
68576	23.9	0.75	0.	100.37
68577	23.9	0.8	5.e-002	3.7249
68578	23.95	0.8	0.	106.6
68579	8.316	0.7	0.	594.47
68580	8.2662	0.65	0.	622.91
68581	8.2662	0.7	5.e-002	40.481
68582	8.2165	0.7	0.	433.34
68583	8.4156	0.7	0.	455.58
68584	8.3658	0.65	0.	456.7
68585	8.3658	0.7	5.e-002	33.202
68586	8.5152	0.7	0.	367.43
68587	8.4654	0.65	0.	361.89
68588	8.4654	0.7	5.e-002	32.414
68589	8.6148	0.7	0.	302.96
68590	8.565	0.65	0.	294.8
68591	8.565	0.7	5.e-002	31.252
68592	8.7144	0.7	0.	255.76
68593	8.6646	0.65	0.	247.29
68594	8.6646	0.7	5.e-002	29.701
68595	8.8139	0.7	0.	220.98
68596	8.7642	0.65	0.	213.64
68597	8.7642	0.7	5.e-002	27.851
68598	8.9135	0.7	0.	194.64
68599	8.8637	0.65	0.	189.16
68600	8.8637	0.7	5.e-002	25.818
68601	9.0131	0.7	0.	173.87
68602	8.9633	0.65	0.	170.48
68603	8.9633	0.7	5.e-002	23.697
68604	9.1127	0.7	0.	156.7
68605	9.0629	0.65	0.	155.32
68606	9.0629	0.7	5.e-002	21.564
68607	9.2123	0.7	0.	141.85
68608	9.1625	0.65	0.	142.27
68609	9.1625	0.7	5.e-002	19.476
68610	9.3118	0.7	0.	128.54
68611	9.2621	0.65	0.	130.48
68612	9.2621	0.7	5.e-002	17.472
68613	9.4114	0.7	0.	116.28
68614	9.3616	0.65	0.	119.45
68615	9.3616	0.7	5.e-002	15.579
68616	9.511	0.7	0.	104.79
68617	9.4612	0.65	0.	108.93
68618	9.4612	0.7	5.e-002	13.81
68619	9.6106	0.7	0.	93.944
68620	9.5608	0.65	0.	98.804
68621	9.5608	0.7	5.e-002	12.175
68622	9.7102	0.7	0.	83.654
68623	9.6604	0.65	0.	89.034
68624	9.6604	0.7	5.e-002	10.676
68625	9.8097	0.7	0.	73.894
68626	9.76	0.65	0.	79.625
68627	9.76	0.7	5.e-002	9.3129
68628	9.9093	0.7	0.	64.658
68629	9.8595	0.65	0.	70.602
68630	9.8595	0.7	5.e-002	8.0818
68631	10.009	0.7	0.	55.952
68632	9.9591	0.65	0.	61.996
68633	9.9591	0.7	5.e-002	6.9793
68634	10.108	0.7	0.	47.783
68635	10.059	0.65	0.	53.84
68636	10.059	0.7	5.e-002	6.0012
68637	10.208	0.7	0.	40.158
68638	10.158	0.65	0.	46.16
68639	10.158	0.7	5.e-002	5.1443
68640	10.308	0.7	0.	33.083
68641	10.258	0.65	0.	38.974
68642	10.258	0.7	5.e-002	4.4061
68643	10.407	0.7	0.	26.558
68644	10.357	0.65	0.	32.297
68645	10.357	0.7	5.e-002	3.7857
68646	10.507	0.7	0.	20.582
68647	10.457	0.65	0.	26.134
68648	10.457	0.7	5.e-002	3.2836
68649	10.606	0.7	0.	15.156
68650	10.557	0.65	0.	20.485
68651	10.557	0.7	5.e-002	2.9003
68652	10.706	0.7	0.	10.292
68653	10.656	0.65	0.	15.35
68654	10.656	0.7	5.e-002	2.6339
68655	10.806	0.7	0.	6.0546
68656	10.756	0.65	0.	10.731
68657	10.756	0.7	5.e-002	2.4765
68658	10.905	0.7	0.	2.7376
68659	10.855	0.65	0.	6.657
68660	10.855	0.7	5.e-002	2.4127
68661	11.005	0.7	0.	1.022
68662	10.955	0.65	0.	3.2789
68663	10.955	0.7	5.e-002	2.4213
68664	11.104	0.7	0.	0.47668
68665	11.055	0.65	0.	1.185
68666	11.055	0.7	5.e-002	2.4799
68667	11.204	0.7	0.	0.27717
68668	11.154	0.65	0.	0.48762
68669	11.154	0.7	5.e-002	2.569
68670	11.303	0.7	0.	0.18247
68671	11.254	0.65	0.	0.26597
68672	11.254	0.7	5.e-002	2.674
68673	11.403	0.7	0.	0.12957
68674	11.353	0.65	0.	0.1699
68675	11.353	0.7	5.e-002	2.7846
68676	11.503	0.7	0.	9.6849e-002
68677	11.453	0.65	0.	0.11886
68678	11.453	0.7	5.e-002	2.8944
68679	11.602	0.7	0.	7.5162e-002
68680	11.552	0.65	0.	8.8227e-002
68681	11.552	0.7	5.e-002	2.9992
68682	11.702	0.7	0.	6.0049e-002
68683	11.652	0.65	0.	6.8305e-002
68684	11.652	0.7	5.e-002	3.0969
68685	11.801	0.7	0.	4.9115e-002
68686	11.752	0.65	0.	5.4593e-002
68687	11.752	0.7	5.e-002	3.1863
68688	11.901	0.7	0.	4.0972e-002
68689	11.851	0.65	0.	4.4764e-002
68690	11.851	0.7	5.e-002	3.2669
68691	12.001	0.7	0.	3.4748e-002
68692	11.951	0.65	0.	3.7484e-002
68693	11.951	0.7	5.e-002	3.3389
68694	12.1	0.7	0.	2.9881e-002
68695	12.05	0.65	0.	3.1927e-002
68696	12.05	0.7	5.e-002	3.4025
68697	12.2	0.7	0.	2.6005e-002
68698	12.15	0.65	0.	2.7586e-002
68699	12.15	0.7	5.e-002	3.4583
68700	12.299	0.7	0.	2.2876e-002
68701	12.249	0.65	0.	2.413e-002
68702	12.249	0.7	5.e-002	3.5067
68703	12.399	0.7	0.	2.032e-002
68704	12.349	0.65	0.	2.1343e-002
68705	12.349	0.7	5.e-002	3.5485
68706	12.498	0.7	0.	1.8188e-002
68707	12.449	0.65	0.	1.906e-002
68708	12.449	0.7	5.e-002	3.5842
68709	12.598	0.7	0.	1.6384e-002
68710	12.548	0.65	0.	1.7128e-002
68711	12.548	0.7	5.e-002	3.6143
68712	12.698	0.7	0.	1.4862e-002
68713	12.648	0.65	0.	1.5504e-002
68714	12.648	0.7	5.e-002	3.6394
68715	12.797	0.7	0.	1.3565e-002
68716	12.747	0.65	0.	1.4131e-002
68717	12.747	0.7	5.e-002	3.6601
68718	12.897	0.7	0.	1.2448e-002
68719	12.847	0.65	0.	1.2948e-002
68720	12.847	0.7	5.e-002	3.6768
68721	12.996	0.7	0.	1.1478e-002
68722	12.947	0.65	0.	1.1928e-002
68723	12.947	0.7	5.e-002	3.6899
68724	13.096	0.7	0.	1.0625e-002
68725	13.046	0.65	0.	1.1033e-002
68726	13.046	0.7	5.e-002	3.6999
68727	13.195	0.7	0.	9.8797e-003
68728	13.146	0.65	0.	1.0237e-002
68729	13.146	0.7	5.e-002	3.7071
68730	13.295	0.7	0.	9.2377e-003
68731	13.245	0.65	0.	9.5503e-003
68732	13.245	0.7	5.e-002	3.7119
68733	13.395	0.7	0.	8.676e-003
68734	13.345	0.65	0.	8.9563e-003
68735	13.345	0.7	5.e-002	3.7145
68736	13.494	0.7	0.	8.1774e-003
68737	13.444	0.65	0.	8.4248e-003
68738	13.444	0.7	5.e-002	3.7153
68739	13.594	0.7	0.	7.7386e-003
68740	13.544	0.65	0.	7.9533e-003
68741	13.544	0.7	5.e-002	3.7144
68742	13.693	0.7	0.	7.355e-003
68743	13.644	0.65	0.	7.5376e-003
68744	13.644	0.7	5.e-002	3.7122
68745	13.793	0.7	0.	7.0285e-003
68746	13.743	0.65	0.	7.1738e-003
68747	13.743	0.7	5.e-002	3.7086
68748	13.893	0.7	0.	6.7605e-003
68749	13.843	0.65	0.	6.8719e-003
68750	13.843	0.7	5.e-002	3.704
68751	13.992	0.7	0.	6.5315e-003
68752	13.942	0.65	0.	6.6273e-003
68753	13.942	0.7	5.e-002	3.6986
68754	14.092	0.7	0.	6.3417e-003
68755	14.042	0.65	0.	6.4074e-003
68756	14.042	0.7	5.e-002	3.6923
68757	14.191	0.7	0.	6.2172e-003
68758	14.142	0.65	0.	6.2512e-003
68759	14.142	0.7	5.e-002	3.6853
68760	14.291	0.7	0.	6.1644e-003
68761	14.241	0.65	0.	6.1782e-003
68762	14.241	0.7	5.e-002	3.6777
68763	14.39	0.7	0.	6.1946e-003
68764	14.341	0.65	0.	6.1965e-003
68765	14.341	0.7	5.e-002	3.6697
68766	14.49	0.7	0.	6.3411e-003
68767	14.44	0.65	0.	6.3548e-003
68768	14.44	0.7	5.e-002	3.6612
68769	14.59	0.7	0.	6.6642e-003
68770	14.54	0.65	0.	6.7436e-003
68771	14.54	0.7	5.e-002	3.6524
68772	14.689	0.7	0.	7.3117e-003
68773	14.639	0.65	0.	7.5918e-003
68774	14.639	0.7	5.e-002	3.6433
68775	14.789	0.7	0.	8.6576e-003
68776	14.739	0.65	0.	9.6977e-003
68777	14.739	0.7	5.e-002	3.6339
68778	14.888	0.7	0.	1.202e-002
68779	14.839	0.65	0.	1.7888e-002
68780	14.839	0.7	5.e-002	3.6244
68781	14.988	0.7	0.	2.8258e-002
68782	14.938	0.65	0.	0.23036
68783	14.938	0.7	5.e-002	3.6148
68784	15.088	0.7	0.	0.39473
68785	15.038	0.65	0.	0.90072
68786	15.038	0.7	5.e-002	3.605
68787	15.187	0.7	0.	1.0933
68788	15.137	0.65	0.	1.5802
68789	15.137	0.7	5.e-002	3.5952
68790	15.287	0.7	0.	1.7906
68791	15.237	0.65	0.	2.2493
68792	15.237	0.7	5.e-002	3.5854
68793	15.386	0.7	0.	2.476
68794	15.336	0.65	0.	2.9066
68795	15.336	0.7	5.e-002	3.5756
68796	15.486	0.7	0.	3.1487
68797	15.436	0.65	0.	3.5515
68798	15.436	0.7	5.e-002	3.5657
68799	15.585	0.7	0.	3.8084
68800	15.536	0.65	0.	4.1844
68801	15.536	0.7	5.e-002	3.5559
68802	15.685	0.7	0.	4.4554
68803	15.635	0.65	0.	4.8053
68804	15.635	0.7	5.e-002	3.546
68805	15.785	0.7	0.	5.0899
68806	15.735	0.65	0.	5.4145
68807	15.735	0.7	5.e-002	3.5362
68808	15.884	0.7	0.	5.7123
68809	15.834	0.65	0.	6.0124
68810	15.834	0.7	5.e-002	3.5265
68811	15.984	0.7	0.	6.3232
68812	15.934	0.65	0.	6.5992
68813	15.934	0.7	5.e-002	3.5168
68814	16.083	0.7	0.	6.9228
68815	16.034	0.65	0.	7.1755
68816	16.034	0.7	5.e-002	3.5071
68817	16.183	0.7	0.	7.5119
68818	16.133	0.65	0.	7.7417
68819	16.133	0.7	5.e-002	3.4976
68820	16.282	0.7	0.	8.0908
68821	16.233	0.65	0.	8.2983
68822	16.233	0.7	5.e-002	3.4881
68823	16.382	0.7	0.	8.6602
68824	16.332	0.65	0.	8.8457
68825	16.332	0.7	5.e-002	3.4787
68826	16.482	0.7	0.	9.2206
68827	16.432	0.65	0.	9.3845
68828	16.432	0.7	5.e-002	3.4694
68829	16.581	0.7	0.	9.7726
68830	16.531	0.65	0.	9.9153
68831	16.531	0.7	5.e-002	3.4602
68832	16.681	0.7	0.	10.317
68833	16.631	0.65	0.	10.438
68834	16.631	0.7	5.e-002	3.451
68835	16.78	0.7	0.	10.854
68836	16.731	0.65	0.	10.955
68837	16.731	0.7	5.e-002	3.442
68838	16.88	0.7	0.	11.384
68839	16.83	0.65	0.	11.464
68840	16.83	0.7	5.e-002	3.4332
68841	16.98	0.7	0.	11.909
68842	16.93	0.65	0.	11.968
68843	16.93	0.7	5.e-002	3.4244
68844	17.079	0.7	0.	12.428
68845	17.029	0.65	0.	12.467
68846	17.029	0.7	5.e-002	3.4156
68847	17.179	0.7	0.	12.942
68848	17.129	0.65	0.	12.961
68849	17.129	0.7	5.e-002	3.407
68850	17.278	0.7	0.	13.453
68851	17.229	0.65	0.	13.451
68852	17.229	0.7	5.e-002	3.3985
68853	17.378	0.7	0.	13.96
68854	17.328	0.65	0.	13.937
68855	17.328	0.7	5.e-002	3.3901
68856	17.477	0.7	0.	14.464
68857	17.428	0.65	0.	14.421
68858	17.428	0.7	5.e-002	3.3817
68859	17.577	0.7	0.	14.965
68860	17.527	0.65	0.	14.902
68861	17.527	0.7	5.e-002	3.3735
68862	17.677	0.7	0.	15.466
68863	17.627	0.65	0.	15.381
68864	17.627	0.7	5.e-002	3.3654
68865	17.776	0.7	0.	15.965
68866	17.726	0.65	0.	15.859
68867	17.726	0.7	5.e-002	3.3574
68868	17.876	0.7	0.	16.464
68869	17.826	0.65	0.	16.336
68870	17.826	0.7	5.e-002	3.3495
68871	17.975	0.7	0.	16.963
68872	17.926	0.65	0.	16.813
68873	17.926	0.7	5.e-002	3.3418
68874	18.075	0.7	0.	17.463
68875	18.025	0.65	0.	17.291
68876	18.025	0.7	5.e-002	3.3341
68877	18.175	0.7	0.	17.965
68878	18.125	0.65	0.	17.77
68879	18.125	0.7	5.e-002	3.3266
68880	18.274	0.7	0.	18.469
68881	18.224	0.65	0.	18.25
68882	18.224	0.7	5.e-002	3.3192
68883	18.374	0.7	0.	18.976
68884	18.324	0.65	0.	18.733
68885	18.324	0.7	5.e-002	3.3119
68886	18.473	0.7	0.	19.486
68887	18.423	0.65	0.	19.218
68888	18.423	0.7	5.e-002	3.3048
68889	18.573	0.7	0.	20.
68890	18.523	0.65	0.	19.707
68891	18.523	0.7	5.e-002	3.2977
68892	18.672	0.7	0.	20.519
68893	18.623	0.65	0.	20.2
68894	18.623	0.7	5.e-002	3.2907
68895	18.772	0.7	0.	21.043
68896	18.722	0.65	0.	20.698
68897	18.722	0.7	5.e-002	3.2839
68898	18.872	0.7	0.	21.573
68899	18.822	0.65	0.	21.2
68900	18.822	0.7	5.e-002	3.2772
68901	18.971	0.7	0.	22.11
68902	18.921	0.65	0.	21.708
68903	18.921	0.7	5.e-002	3.2707
68904	19.071	0.7	0.	22.654
68905	19.021	0.65	0.	22.223
68906	19.021	0.7	5.e-002	3.2642
68907	19.17	0.7	0.	23.205
68908	19.121	0.65	0.	22.744
68909	19.121	0.7	5.e-002	3.2579
68910	19.27	0.7	0.	23.766
68911	19.22	0.65	0.	23.273
68912	19.22	0.7	5.e-002	3.2518
68913	19.369	0.7	0.	24.335
68914	19.32	0.65	0.	23.81
68915	19.32	0.7	5.e-002	3.2458
68916	19.469	0.7	0.	24.915
68917	19.419	0.65	0.	24.356
68918	19.419	0.7	5.e-002	3.2399
68919	19.569	0.7	0.	25.505
68920	19.519	0.65	0.	24.91
68921	19.519	0.7	5.e-002	3.2342
68922	19.668	0.7	0.	26.106
68923	19.618	0.65	0.	25.475
68924	19.618	0.7	5.e-002	3.2287
68925	19.768	0.7	0.	26.719
68926	19.718	0.65	0.	26.05
68927	19.718	0.7	5.e-002	3.2233
68928	19.867	0.7	0.	27.345
68929	19.818	0.65	0.	26.637
68930	19.818	0.7	5.e-002	3.2181
68931	19.967	0.7	0.	27.985
68932	19.917	0.65	0.	27.235
68933	19.917	0.7	5.e-002	3.2131
68934	20.067	0.7	0.	28.638
68935	20.017	0.65	0.	27.846
68936	20.017	0.7	5.e-002	3.2082
68937	20.166	0.7	0.	29.307
68938	20.116	0.65	0.	28.469
68939	20.116	0.7	5.e-002	3.2035
68940	20.266	0.7	0.	29.991
68941	20.216	0.65	0.	29.107
68942	20.216	0.7	5.e-002	3.199
68943	20.365	0.7	0.	30.692
68944	20.316	0.65	0.	29.759
68945	20.316	0.7	5.e-002	3.1947
68946	20.465	0.7	0.	31.411
68947	20.415	0.65	0.	30.427
68948	20.415	0.7	5.e-002	3.1906
68949	20.564	0.7	0.	32.149
68950	20.515	0.65	0.	31.111
68951	20.515	0.7	5.e-002	3.1867
68952	20.664	0.7	0.	32.906
68953	20.614	0.65	0.	31.812
68954	20.614	0.7	5.e-002	3.183
68955	20.764	0.7	0.	33.683
68956	20.714	0.65	0.	32.531
68957	20.714	0.7	5.e-002	3.1795
68958	20.863	0.7	0.	34.483
68959	20.813	0.65	0.	33.268
68960	20.813	0.7	5.e-002	3.1763
68961	20.963	0.7	0.	35.305
68962	20.913	0.65	0.	34.026
68963	20.913	0.7	5.e-002	3.1734
68964	21.062	0.7	0.	36.152
68965	21.013	0.65	0.	34.805
68966	21.013	0.7	5.e-002	3.1706
68967	21.162	0.7	0.	37.025
68968	21.112	0.65	0.	35.606
68969	21.112	0.7	5.e-002	3.1682
68970	21.262	0.7	0.	37.925
68971	21.212	0.65	0.	36.431
68972	21.212	0.7	5.e-002	3.1661
68973	21.361	0.7	0.	38.855
68974	21.311	0.65	0.	37.281
68975	21.311	0.7	5.e-002	3.1643
68976	21.461	0.7	0.	39.816
68977	21.411	0.65	0.	38.157
68978	21.411	0.7	5.e-002	3.1627
68979	21.56	0.7	0.	40.81
68980	21.51	0.65	0.	39.062
68981	21.51	0.7	5.e-002	3.1616
68982	21.66	0.7	0.	41.841
68983	21.61	0.65	0.	39.998
68984	21.61	0.7	5.e-002	3.1608
68985	21.759	0.7	0.	42.911
68986	21.71	0.65	0.	40.967
68987	21.71	0.7	5.e-002	3.1604
68988	21.859	0.7	0.	44.023
68989	21.809	0.65	0.	41.972
68990	21.809	0.7	5.e-002	3.1605
68991	21.959	0.7	0.	45.182
68992	21.909	0.65	0.	43.017
68993	21.909	0.7	5.e-002	3.161
68994	22.058	0.7	0.	46.391
68995	22.008	0.65	0.	44.104
68996	22.008	0.7	5.e-002	3.1621
68997	22.158	0.7	0.	47.657
68998	22.108	0.65	0.	45.238
68999	22.108	0.7	5.e-002	3.1637
69000	22.257	0.7	0.	48.986
69001	22.208	0.65	0.	46.425
69002	22.208	0.7	5.e-002	3.1661
69003	22.357	0.7	0.	50.385
69004	22.307	0.65	0.	47.67
69005	22.307	0.7	5.e-002	3.1692
69006	22.456	0.7	0.	51.862
69007	22.407	0.65	0.	48.981
69008	22.407	0.7	5.e-002	3.1732
69009	22.556	0.7	0.	53.43
69010	22.506	0.65	0.	50.368
69011	22.506	0.7	5.e-002	3.1783
69012	22.656	0.7	0.	55.1
69013	22.606	0.65	0.	51.84
69014	22.606	0.7	5.e-002	3.1846
69015	22.755	0.7	0.	56.888
69016	22.705	0.65	0.	53.412
69017	22.705	0.7	5.e-002	3.1924
69018	22.855	0.7	0.	58.814
69019	22.805	0.65	0.	55.099
69020	22.805	0.7	5.e-002	3.202
69021	22.954	0.7	0.	60.901
69022	22.905	0.65	0.	56.923
69023	22.905	0.7	5.e-002	3.2138
69024	23.054	0.7	0.	63.176
69025	23.004	0.65	0.	58.908
69026	23.004	0.7	5.e-002	3.2284
69027	23.154	0.7	0.	65.674
69028	23.104	0.65	0.	61.084
69029	23.104	0.7	5.e-002	3.2463
69030	23.253	0.7	0.	68.435
69031	23.203	0.65	0.	63.492
69032	23.203	0.7	5.e-002	3.2686
69033	23.353	0.7	0.	71.504
69034	23.303	0.65	0.	66.175
69035	23.303	0.7	5.e-002	3.2962
69036	23.452	0.7	0.	74.933
69037	23.403	0.65	0.	69.19
69038	23.403	0.7	5.e-002	3.3305
69039	23.552	0.7	0.	78.774
69040	23.502	0.65	0.	72.596
69041	23.502	0.7	5.e-002	3.3731
69042	23.651	0.7	0.	83.074
69043	23.602	0.65	0.	76.461
69044	23.602	0.7	5.e-002	3.4254
69045	23.751	0.7	0.	87.876
69046	23.701	0.65	0.	80.837
69047	23.701	0.7	5.e-002	3.4889
69048	23.851	0.7	0.	93.251
69049	23.801	0.65	0.	85.786
69050	23.801	0.7	5.e-002	3.5662
69051	23.9	0.65	0.	91.419
69052	23.9	0.7	5.e-002	3.728
69053	23.95	0.7	0.	97.906
69054	8.316	0.6	0.	475.03
69055	8.2662	0.55	0.	499.24
69056	8.2662	0.6	5.e-002	37.878
69057	8.2165	0.6	0.	348.5
69058	8.4156	0.6	0.	353.33
69059	8.3658	0.55	0.	351.38
69060	8.3658	0.6	5.e-002	31.832
69061	8.5152	0.6	0.	281.25
69062	8.4654	0.55	0.	272.07
69063	8.4654	0.6	5.e-002	31.27
69064	8.6148	0.6	0.	232.98
69065	8.565	0.55	0.	221.33
69066	8.565	0.6	5.e-002	30.305
69067	8.7144	0.6	0.	200.62
69068	8.6646	0.55	0.	189.07
69069	8.6646	0.6	5.e-002	28.936
69070	8.8139	0.6	0.	178.52
69071	8.7642	0.55	0.	168.44
69072	8.7642	0.6	5.e-002	27.253
69073	8.9135	0.6	0.	162.59
69074	8.8637	0.55	0.	154.55
69075	8.8637	0.6	5.e-002	25.364
69076	9.0131	0.6	0.	150.16
69077	8.9633	0.55	0.	144.26
69078	8.9633	0.6	5.e-002	23.362
69079	9.1127	0.6	0.	139.58
69080	9.0629	0.55	0.	135.69
69081	9.0629	0.6	5.e-002	21.322
69082	9.2123	0.6	0.	129.91
69083	9.1625	0.55	0.	127.8
69084	9.1625	0.6	5.e-002	19.3
69085	9.3118	0.6	0.	120.64
69086	9.2621	0.55	0.	120.05
69087	9.2621	0.6	5.e-002	17.34
69088	9.4114	0.6	0.	111.54
69089	9.3616	0.55	0.	112.19
69090	9.3616	0.6	5.e-002	15.469
69091	9.511	0.6	0.	102.51
69092	9.4612	0.55	0.	104.17
69093	9.4612	0.6	5.e-002	13.708
69094	9.6106	0.6	0.	93.571
69095	9.5608	0.55	0.	96.019
69096	9.5608	0.6	5.e-002	12.067
69097	9.7102	0.6	0.	84.762
69098	9.6604	0.55	0.	87.817
69099	9.6604	0.6	5.e-002	10.553
69100	9.8097	0.6	0.	76.15
69101	9.76	0.55	0.	79.66
69102	9.76	0.6	5.e-002	9.1664
69103	9.9093	0.6	0.	67.804
69104	9.8595	0.55	0.	71.642
69105	9.8595	0.6	5.e-002	7.9065
69106	10.009	0.6	0.	59.786
69107	9.9591	0.55	0.	63.85
69108	9.9591	0.6	5.e-002	6.7704
69109	10.108	0.6	0.	52.148
69110	10.059	0.55	0.	56.354
69111	10.059	0.6	5.e-002	5.7551
69112	10.208	0.6	0.	44.929
69113	10.158	0.55	0.	49.213
69114	10.158	0.6	5.e-002	4.8575
69115	10.308	0.6	0.	38.161
69116	10.258	0.55	0.	42.47
69117	10.258	0.6	5.e-002	4.0763
69118	10.407	0.6	0.	31.862
69119	10.357	0.55	0.	36.153
69120	10.357	0.6	5.e-002	3.4119
69121	10.507	0.6	0.	26.041
69122	10.457	0.55	0.	30.283
69123	10.457	0.6	5.e-002	2.8682
69124	10.606	0.6	0.	20.702
69125	10.557	0.55	0.	24.867
69126	10.557	0.6	5.e-002	2.4515
69127	10.706	0.6	0.	15.843
69128	10.656	0.55	0.	19.907
69129	10.656	0.6	5.e-002	2.168
69130	10.806	0.6	0.	11.46
69131	10.756	0.55	0.	15.398
69132	10.756	0.6	5.e-002	2.0163
69133	10.905	0.6	0.	7.5593
69134	10.855	0.55	0.	11.335
69135	10.855	0.6	5.e-002	1.9807
69136	11.005	0.6	0.	4.1944
69137	10.955	0.55	0.	7.712
69138	10.955	0.6	5.e-002	2.0321
69139	11.104	0.6	0.	1.6677
69140	11.055	0.55	0.	4.5505
69141	11.055	0.6	5.e-002	2.1389
69142	11.204	0.6	0.	0.57709
69143	11.154	0.55	0.	2.0014
69144	11.154	0.6	5.e-002	2.2746
69145	11.303	0.6	0.	0.27765
69146	11.254	0.55	0.	0.64163
69147	11.254	0.6	5.e-002	2.4214
69148	11.403	0.6	0.	0.16734
69149	11.353	0.55	0.	0.27447
69150	11.353	0.6	5.e-002	2.5682
69151	11.503	0.6	0.	0.1137
69152	11.453	0.55	0.	0.15737
69153	11.453	0.6	5.e-002	2.7087
69154	11.602	0.6	0.	8.3116e-002
69155	11.552	0.55	0.	0.10467
69156	11.552	0.6	5.e-002	2.8394
69157	11.702	0.6	0.	6.3853e-002
69158	11.652	0.55	0.	7.5856e-002
69159	11.652	0.6	5.e-002	2.9589
69160	11.801	0.6	0.	5.0883e-002
69161	11.752	0.55	0.	5.8146e-002
69162	11.752	0.6	5.e-002	3.0667
69163	11.901	0.6	0.	4.1721e-002
69164	11.851	0.55	0.	4.6414e-002
69165	11.851	0.6	5.e-002	3.1628
69166	12.001	0.6	0.	3.4993e-002
69167	11.951	0.55	0.	3.8207e-002
69168	11.951	0.6	5.e-002	3.248
69169	12.1	0.6	0.	2.989e-002
69170	12.05	0.55	0.	3.2204e-002
69171	12.05	0.6	5.e-002	3.3229
69172	12.2	0.6	0.	2.592e-002
69173	12.15	0.55	0.	2.7664e-002
69174	12.15	0.6	5.e-002	3.3882
69175	12.299	0.6	0.	2.277e-002
69176	12.249	0.55	0.	2.4133e-002
69177	12.249	0.6	5.e-002	3.4449
69178	12.399	0.6	0.	2.023e-002
69179	12.349	0.55	0.	2.1334e-002
69180	12.349	0.6	5.e-002	3.4937
69181	12.498	0.6	0.	1.8128e-002
69182	12.449	0.55	0.	1.907e-002
69183	12.449	0.6	5.e-002	3.5355
69184	12.598	0.6	0.	1.6359e-002
69185	12.548	0.55	0.	1.7169e-002
69186	12.548	0.6	5.e-002	3.571
69187	12.698	0.6	0.	1.4871e-002
69188	12.648	0.55	0.	1.5576e-002
69189	12.648	0.6	5.e-002	3.6007
69190	12.797	0.6	0.	1.3601e-002
69191	12.747	0.55	0.	1.4231e-002
69192	12.747	0.6	5.e-002	3.6253
69193	12.897	0.6	0.	1.2505e-002
69194	12.847	0.55	0.	1.307e-002
69195	12.847	0.6	5.e-002	3.6455
69196	12.996	0.6	0.	1.155e-002
69197	12.947	0.55	0.	1.2063e-002
69198	12.947	0.6	5.e-002	3.6617
69199	13.096	0.6	0.	1.0705e-002
69200	13.046	0.55	0.	1.1174e-002
69201	13.046	0.6	5.e-002	3.6743
69202	13.195	0.6	0.	9.96e-003
69203	13.146	0.55	0.	1.0378e-002
69204	13.146	0.6	5.e-002	3.6839
69205	13.295	0.6	0.	9.3137e-003
69206	13.245	0.55	0.	9.6831e-003
69207	13.245	0.6	5.e-002	3.6907
69208	13.395	0.6	0.	8.7428e-003
69209	13.345	0.55	0.	9.0751e-003
69210	13.345	0.6	5.e-002	3.6951
69211	13.494	0.6	0.	8.2312e-003
69212	13.444	0.55	0.	8.5242e-003
69213	13.444	0.6	5.e-002	3.6975
69214	13.594	0.6	0.	7.7757e-003
69215	13.544	0.55	0.	8.0284e-003
69216	13.544	0.6	5.e-002	3.6981
69217	13.693	0.6	0.	7.3725e-003
69218	13.644	0.55	0.	7.585e-003
69219	13.644	0.6	5.e-002	3.6971
69220	13.793	0.6	0.	7.0259e-003
69221	13.743	0.55	0.	7.1909e-003
69222	13.743	0.6	5.e-002	3.6947
69223	13.893	0.6	0.	6.7398e-003
69224	13.843	0.55	0.	6.8593e-003
69225	13.843	0.6	5.e-002	3.6911
69226	13.992	0.6	0.	6.4969e-003
69227	13.942	0.55	0.	6.5863e-003
69228	13.942	0.6	5.e-002	3.6865
69229	14.092	0.6	0.	6.3039e-003
69230	14.042	0.55	0.	6.3489e-003
69231	14.042	0.6	5.e-002	3.6811
69232	14.191	0.6	0.	6.1954e-003
69233	14.142	0.55	0.	6.1974e-003
69234	14.142	0.6	5.e-002	3.6748
69235	14.291	0.6	0.	6.1974e-003
69236	14.241	0.55	0.	6.1825e-003
69237	14.241	0.6	5.e-002	3.6679
69238	14.39	0.6	0.	6.371e-003
69239	14.341	0.55	0.	6.3994e-003
69240	14.341	0.6	5.e-002	3.6604
69241	14.49	0.6	0.	6.8745e-003
69242	14.44	0.55	0.	7.2097e-003
69243	14.44	0.6	5.e-002	3.6525
69244	14.59	0.6	0.	8.2086e-003
69245	14.54	0.55	0.	1.0779e-002
69246	14.54	0.6	5.e-002	3.6441
69247	14.689	0.6	0.	1.3251e-002
69248	14.639	0.55	0.	0.17204
69249	14.639	0.6	5.e-002	3.6355
69250	14.789	0.6	0.	0.15584
69251	14.739	0.55	0.	0.80164
69252	14.739	0.6	5.e-002	3.6265
69253	14.888	0.6	0.	0.79904
69254	14.839	0.55	0.	1.4367
69255	14.839	0.6	5.e-002	3.6173
69256	14.988	0.6	0.	1.4578
69257	14.938	0.55	0.	2.0633
69258	14.938	0.6	5.e-002	3.6081
69259	15.088	0.6	0.	2.1074
69260	15.038	0.55	0.	2.6804
69261	15.038	0.6	5.e-002	3.5987
69262	15.187	0.6	0.	2.7461
69263	15.137	0.55	0.	3.2874
69264	15.137	0.6	5.e-002	3.5891
69265	15.287	0.6	0.	3.3738
69266	15.237	0.55	0.	3.8842
69267	15.237	0.6	5.e-002	3.5795
69268	15.386	0.6	0.	3.9901
69269	15.336	0.55	0.	4.4708
69270	15.336	0.6	5.e-002	3.57
69271	15.486	0.6	0.	4.5952
69272	15.436	0.55	0.	5.0471
69273	15.436	0.6	5.e-002	3.5604
69274	15.585	0.6	0.	5.1892
69275	15.536	0.55	0.	5.6132
69276	15.536	0.6	5.e-002	3.5507
69277	15.685	0.6	0.	5.7724
69278	15.635	0.55	0.	6.1693
69279	15.635	0.6	5.e-002	3.541
69280	15.785	0.6	0.	6.345
69281	15.735	0.55	0.	6.7155
69282	15.735	0.6	5.e-002	3.5314
69283	15.884	0.6	0.	6.9074
69284	15.834	0.55	0.	7.2523
69285	15.834	0.6	5.e-002	3.5218
69286	15.984	0.6	0.	7.4598
69287	15.934	0.55	0.	7.7798
69288	15.934	0.6	5.e-002	3.5123
69289	16.083	0.6	0.	8.0027
69290	16.034	0.55	0.	8.2984
69291	16.034	0.6	5.e-002	3.5028
69292	16.183	0.6	0.	8.5365
69293	16.133	0.55	0.	8.8085
69294	16.133	0.6	5.e-002	3.4933
69295	16.282	0.6	0.	9.0617
69296	16.233	0.55	0.	9.3104
69297	16.233	0.6	5.e-002	3.484
69298	16.382	0.6	0.	9.5787
69299	16.332	0.55	0.	9.8046
69300	16.332	0.6	5.e-002	3.4747
69301	16.482	0.6	0.	10.088
69302	16.432	0.55	0.	10.291
69303	16.432	0.6	5.e-002	3.4655
69304	16.581	0.6	0.	10.59
69305	16.531	0.55	0.	10.771
69306	16.531	0.6	5.e-002	3.4564
69307	16.681	0.6	0.	11.085
69308	16.631	0.55	0.	11.245
69309	16.631	0.6	5.e-002	3.4473
69310	16.78	0.6	0.	11.574
69311	16.731	0.55	0.	11.713
69312	16.731	0.6	5.e-002	3.4384
69313	16.88	0.6	0.	12.058
69314	16.83	0.55	0.	12.175
69315	16.83	0.6	5.e-002	3.4296
69316	16.98	0.6	0.	12.536
69317	16.93	0.55	0.	12.632
69318	16.93	0.6	5.e-002	3.4208
69319	17.079	0.6	0.	13.01
69320	17.029	0.55	0.	13.085
69321	17.029	0.6	5.e-002	3.4122
69322	17.179	0.6	0.	13.479
69323	17.129	0.55	0.	13.533
69324	17.129	0.6	5.e-002	3.4036
69325	17.278	0.6	0.	13.945
69326	17.229	0.55	0.	13.978
69327	17.229	0.6	5.e-002	3.3951
69328	17.378	0.6	0.	14.408
69329	17.328	0.55	0.	14.42
69330	17.328	0.6	5.e-002	3.3867
69331	17.477	0.6	0.	14.868
69332	17.428	0.55	0.	14.86
69333	17.428	0.6	5.e-002	3.3784
69334	17.577	0.6	0.	15.327
69335	17.527	0.55	0.	15.297
69336	17.527	0.6	5.e-002	3.3702
69337	17.677	0.6	0.	15.784
69338	17.627	0.55	0.	15.733
69339	17.627	0.6	5.e-002	3.3621
69340	17.776	0.6	0.	16.24
69341	17.726	0.55	0.	16.168
69342	17.726	0.6	5.e-002	3.3542
69343	17.876	0.6	0.	16.696
69344	17.826	0.55	0.	16.602
69345	17.826	0.6	5.e-002	3.3463
69346	17.975	0.6	0.	17.152
69347	17.926	0.55	0.	17.035
69348	17.926	0.6	5.e-002	3.3385
69349	18.075	0.6	0.	17.608
69350	18.025	0.55	0.	17.47
69351	18.025	0.6	5.e-002	3.3308
69352	18.175	0.6	0.	18.066
69353	18.125	0.55	0.	17.905
69354	18.125	0.6	5.e-002	3.3233
69355	18.274	0.6	0.	18.525
69356	18.224	0.55	0.	18.341
69357	18.224	0.6	5.e-002	3.3159
69358	18.374	0.6	0.	18.987
69359	18.324	0.55	0.	18.779
69360	18.324	0.6	5.e-002	3.3086
69361	18.473	0.6	0.	19.452
69362	18.423	0.55	0.	19.219
69363	18.423	0.6	5.e-002	3.3014
69364	18.573	0.6	0.	19.919
69365	18.523	0.55	0.	19.662
69366	18.523	0.6	5.e-002	3.2943
69367	18.672	0.6	0.	20.391
69368	18.623	0.55	0.	20.108
69369	18.623	0.6	5.e-002	3.2873
69370	18.772	0.6	0.	20.867
69371	18.722	0.55	0.	20.558
69372	18.722	0.6	5.e-002	3.2804
69373	18.872	0.6	0.	21.348
69374	18.822	0.55	0.	21.012
69375	18.822	0.6	5.e-002	3.2736
69376	18.971	0.6	0.	21.834
69377	18.921	0.55	0.	21.47
69378	18.921	0.6	5.e-002	3.267
69379	19.071	0.6	0.	22.326
69380	19.021	0.55	0.	21.934
69381	19.021	0.6	5.e-002	3.2605
69382	19.17	0.6	0.	22.825
69383	19.121	0.55	0.	22.403
69384	19.121	0.6	5.e-002	3.2541
69385	19.27	0.6	0.	23.331
69386	19.22	0.55	0.	22.878
69387	19.22	0.6	5.e-002	3.2478
69388	19.369	0.6	0.	23.844
69389	19.32	0.55	0.	23.36
69390	19.32	0.6	5.e-002	3.2417
69391	19.469	0.6	0.	24.365
69392	19.419	0.55	0.	23.848
69393	19.419	0.6	5.e-002	3.2358
69394	19.569	0.6	0.	24.895
69395	19.519	0.55	0.	24.344
69396	19.519	0.6	5.e-002	3.2299
69397	19.668	0.6	0.	25.434
69398	19.618	0.55	0.	24.847
69399	19.618	0.6	5.e-002	3.2243
69400	19.768	0.6	0.	25.982
69401	19.718	0.55	0.	25.359
69402	19.718	0.6	5.e-002	3.2188
69403	19.867	0.6	0.	26.541
69404	19.818	0.55	0.	25.88
69405	19.818	0.6	5.e-002	3.2134
69406	19.967	0.6	0.	27.111
69407	19.917	0.55	0.	26.41
69408	19.917	0.6	5.e-002	3.2082
69409	20.067	0.6	0.	27.692
69410	20.017	0.55	0.	26.95
69411	20.017	0.6	5.e-002	3.2032
69412	20.166	0.6	0.	28.285
69413	20.116	0.55	0.	27.5
69414	20.116	0.6	5.e-002	3.1983
69415	20.266	0.6	0.	28.891
69416	20.216	0.55	0.	28.061
69417	20.216	0.6	5.e-002	3.1936
69418	20.365	0.6	0.	29.51
69419	20.316	0.55	0.	28.634
69420	20.316	0.6	5.e-002	3.1891
69421	20.465	0.6	0.	30.143
69422	20.415	0.55	0.	29.218
69423	20.415	0.6	5.e-002	3.1847
69424	20.564	0.6	0.	30.791
69425	20.515	0.55	0.	29.815
69426	20.515	0.6	5.e-002	3.1806
69427	20.664	0.6	0.	31.454
69428	20.614	0.55	0.	30.425
69429	20.614	0.6	5.e-002	3.1766
69430	20.764	0.6	0.	32.134
69431	20.714	0.55	0.	31.048
69432	20.714	0.6	5.e-002	3.1729
69433	20.863	0.6	0.	32.83
69434	20.813	0.55	0.	31.686
69435	20.813	0.6	5.e-002	3.1694
69436	20.963	0.6	0.	33.545
69437	20.913	0.55	0.	32.339
69438	20.913	0.6	5.e-002	3.1661
69439	21.062	0.6	0.	34.278
69440	21.013	0.55	0.	33.008
69441	21.013	0.6	5.e-002	3.163
69442	21.162	0.6	0.	35.032
69443	21.112	0.55	0.	33.694
69444	21.112	0.6	5.e-002	3.1602
69445	21.262	0.6	0.	35.807
69446	21.212	0.55	0.	34.397
69447	21.212	0.6	5.e-002	3.1577
69448	21.361	0.6	0.	36.605
69449	21.311	0.55	0.	35.119
69450	21.311	0.6	5.e-002	3.1554
69451	21.461	0.6	0.	37.426
69452	21.411	0.55	0.	35.861
69453	21.411	0.6	5.e-002	3.1534
69454	21.56	0.6	0.	38.274
69455	21.51	0.55	0.	36.624
69456	21.51	0.6	5.e-002	3.1518
69457	21.66	0.6	0.	39.149
69458	21.61	0.55	0.	37.41
69459	21.61	0.6	5.e-002	3.1504
69460	21.759	0.6	0.	40.054
69461	21.71	0.55	0.	38.22
69462	21.71	0.6	5.e-002	3.1494
69463	21.859	0.6	0.	40.992
69464	21.809	0.55	0.	39.056
69465	21.809	0.6	5.e-002	3.1488
69466	21.959	0.6	0.	41.965
69467	21.909	0.55	0.	39.921
69468	21.909	0.6	5.e-002	3.1486
69469	22.058	0.6	0.	42.978
69470	22.008	0.55	0.	40.818
69471	22.008	0.6	5.e-002	3.1488
69472	22.158	0.6	0.	44.034
69473	22.108	0.55	0.	41.749
69474	22.108	0.6	5.e-002	3.1496
69475	22.257	0.6	0.	45.139
69476	22.208	0.55	0.	42.719
69477	22.208	0.6	5.e-002	3.151
69478	22.357	0.6	0.	46.298
69479	22.307	0.55	0.	43.732
69480	22.307	0.6	5.e-002	3.153
69481	22.456	0.6	0.	47.519
69482	22.407	0.55	0.	44.794
69483	22.407	0.6	5.e-002	3.1558
69484	22.556	0.6	0.	48.812
69485	22.506	0.55	0.	45.913
69486	22.506	0.6	5.e-002	3.1595
69487	22.656	0.6	0.	50.187
69488	22.606	0.55	0.	47.097
69489	22.606	0.6	5.e-002	3.1643
69490	22.755	0.6	0.	51.659
69491	22.705	0.55	0.	48.358
69492	22.705	0.6	5.e-002	3.1705
69493	22.855	0.6	0.	53.245
69494	22.805	0.55	0.	49.71
69495	22.805	0.6	5.e-002	3.1782
69496	22.954	0.6	0.	54.967
69497	22.905	0.55	0.	51.17
69498	22.905	0.6	5.e-002	3.188
69499	23.054	0.6	0.	56.853
69500	23.004	0.55	0.	52.763
69501	23.004	0.6	5.e-002	3.2004
69502	23.154	0.6	0.	58.939
69503	23.104	0.55	0.	54.517
69504	23.104	0.6	5.e-002	3.216
69505	23.253	0.6	0.	61.267
69506	23.203	0.55	0.	56.472
69507	23.203	0.6	5.e-002	3.236
69508	23.353	0.6	0.	63.894
69509	23.303	0.55	0.	58.677
69510	23.303	0.6	5.e-002	3.2616
69511	23.452	0.6	0.	66.883
69512	23.403	0.55	0.	61.196
69513	23.403	0.6	5.e-002	3.2945
69514	23.552	0.6	0.	70.308
69515	23.502	0.55	0.	64.107
69516	23.502	0.6	5.e-002	3.3369
69517	23.651	0.6	0.	74.243
69518	23.602	0.55	0.	67.504
69519	23.602	0.6	5.e-002	3.3912
69520	23.751	0.6	0.	78.762
69521	23.701	0.55	0.	71.478
69522	23.701	0.6	5.e-002	3.4603
69523	23.851	0.6	0.	83.967
69524	23.801	0.55	0.	76.132
69525	23.801	0.6	5.e-002	3.5479
69526	23.9	0.55	0.	81.622
69527	23.9	0.6	5.e-002	3.7294
69528	23.95	0.6	0.	88.411
69529	8.316	0.5	0.	364.89
69530	8.2662	0.45	0.	385.13
69531	8.2662	0.5	5.e-002	35.962
69532	8.2165	0.5	0.	270.78
69533	8.4156	0.5	0.	260.4
69534	8.3658	0.45	0.	255.72
69535	8.3658	0.5	5.e-002	31.041
69536	8.5152	0.5	0.	204.73
69537	8.4654	0.45	0.	193.03
69538	8.4654	0.5	5.e-002	30.634
69539	8.6148	0.5	0.	172.17
69540	8.565	0.45	0.	158.75
69541	8.565	0.5	5.e-002	29.772
69542	8.7144	0.5	0.	153.26
69543	8.6646	0.45	0.	140.5
69544	8.6646	0.5	5.e-002	28.492
69545	8.8139	0.5	0.	141.94
69546	8.7642	0.45	0.	130.84
69547	8.7642	0.5	5.e-002	26.894
69548	8.9135	0.5	0.	134.41
69549	8.8637	0.45	0.	125.25
69550	8.8637	0.5	5.e-002	25.086
69551	9.0131	0.5	0.	128.48
69552	8.9633	0.45	0.	121.23
69553	8.9633	0.5	5.e-002	23.156
69554	9.1127	0.5	0.	122.94
69555	9.0629	0.45	0.	117.43
69556	9.0629	0.5	5.e-002	21.175
69557	9.2123	0.5	0.	117.2
69558	9.1625	0.45	0.	113.21
69559	9.1625	0.5	5.e-002	19.199
69560	9.3118	0.5	0.	111.03
69561	9.2621	0.45	0.	108.35
69562	9.2621	0.5	5.e-002	17.268
69563	9.4114	0.5	0.	104.39
69564	9.3616	0.45	0.	102.81
69565	9.3616	0.5	5.e-002	15.414
69566	9.511	0.5	0.	97.339
69567	9.4612	0.45	0.	96.679
69568	9.4612	0.5	5.e-002	13.657
69569	9.6106	0.5	0.	90.005
69570	9.5608	0.45	0.	90.103
69571	9.5608	0.5	5.e-002	12.011
69572	9.7102	0.5	0.	82.515
69573	9.6604	0.45	0.	83.234
69574	9.6604	0.5	5.e-002	10.483
69575	9.8097	0.5	0.	74.999
69576	9.76	0.45	0.	76.221
69577	9.76	0.5	5.e-002	9.0765
69578	9.9093	0.5	0.	67.572
69579	9.8595	0.45	0.	69.2
69580	9.8595	0.5	5.e-002	7.7908
69581	10.009	0.5	0.	60.332
69582	9.9591	0.45	0.	62.283
69583	9.9591	0.5	5.e-002	6.6243
69584	10.108	0.5	0.	53.357
69585	10.059	0.45	0.	55.564
69586	10.059	0.5	5.e-002	5.574
69587	10.208	0.5	0.	46.709
69588	10.158	0.45	0.	49.116
69589	10.158	0.5	5.e-002	4.6368
69590	10.308	0.5	0.	40.432
69591	10.258	0.45	0.	42.991
69592	10.258	0.5	5.e-002	3.8109
69593	10.407	0.5	0.	34.556
69594	10.357	0.45	0.	37.23
69595	10.357	0.5	5.e-002	3.0969
69596	10.507	0.5	0.	29.1
69597	10.457	0.45	0.	31.855
69598	10.457	0.5	5.e-002	2.4999
69599	10.606	0.5	0.	24.072
69600	10.557	0.45	0.	26.88
69601	10.557	0.5	5.e-002	2.032
69602	10.706	0.5	0.	19.472
69603	10.656	0.45	0.	22.31
69604	10.656	0.5	5.e-002	1.712
69605	10.806	0.5	0.	15.294
69606	10.756	0.45	0.	18.141
69607	10.756	0.5	5.e-002	1.5547
69608	10.905	0.5	0.	11.529
69609	10.855	0.45	0.	14.365
69610	10.855	0.5	5.e-002	1.5488
69611	11.005	0.5	0.	8.1678
69612	10.955	0.45	0.	10.971
69613	10.955	0.5	5.e-002	1.6522
69614	11.104	0.5	0.	5.2084
69615	11.055	0.45	0.	7.9457
69616	11.055	0.5	5.e-002	1.8155
69617	11.204	0.5	0.	2.6948
69618	11.154	0.45	0.	5.2797
69619	11.154	0.5	5.e-002	2.0028
69620	11.303	0.5	0.	0.93036
69621	11.254	0.45	0.	2.9839
69622	11.254	0.5	5.e-002	2.1932
69623	11.403	0.5	0.	0.3189
69624	11.353	0.45	0.	1.1897
69625	11.353	0.5	5.e-002	2.3758
69626	11.503	0.5	0.	0.16287
69627	11.453	0.45	0.	0.3604
69628	11.453	0.5	5.e-002	2.5455
69629	11.602	0.5	0.	0.103
69630	11.552	0.45	0.	0.1633
69631	11.552	0.5	5.e-002	2.7003
69632	11.702	0.5	0.	7.2879e-002
69633	11.652	0.45	0.	9.8613e-002
69634	11.652	0.5	5.e-002	2.8395
69635	11.801	0.5	0.	5.5253e-002
69636	11.752	0.45	0.	6.8544e-002
69637	11.752	0.5	5.e-002	2.9636
69638	11.901	0.5	0.	4.3926e-002
69639	11.851	0.45	0.	5.1702e-002
69640	11.851	0.5	5.e-002	3.0734
69641	12.001	0.5	0.	3.6148e-002
69642	11.951	0.45	0.	4.1154e-002
69643	11.951	0.5	5.e-002	3.17
69644	12.1	0.5	0.	3.0532e-002
69645	12.05	0.45	0.	3.4014e-002
69646	12.05	0.5	5.e-002	3.2545
69647	12.2	0.5	0.	2.6319e-002
69648	12.15	0.45	0.	2.8906e-002
69649	12.15	0.5	5.e-002	3.3281
69650	12.299	0.5	0.	2.3064e-002
69651	12.249	0.45	0.	2.5091e-002
69652	12.249	0.5	5.e-002	3.3918
69653	12.399	0.5	0.	2.0487e-002
69654	12.349	0.45	0.	2.2154e-002
69655	12.349	0.5	5.e-002	3.4467
69656	12.498	0.5	0.	1.8382e-002
69657	12.449	0.45	0.	1.9825e-002
69658	12.449	0.5	5.e-002	3.4936
69659	12.598	0.5	0.	1.6625e-002
69660	12.548	0.45	0.	1.7894e-002
69661	12.548	0.5	5.e-002	3.5335
69662	12.698	0.5	0.	1.5124e-002
69663	12.648	0.45	0.	1.6288e-002
69664	12.648	0.5	5.e-002	3.5671
69665	12.797	0.5	0.	1.3892e-002
69666	12.747	0.45	0.	1.4934e-002
69667	12.747	0.5	5.e-002	3.5951
69668	12.897	0.5	0.	1.2802e-002
69669	12.847	0.45	0.	1.377e-002
69670	12.847	0.5	5.e-002	3.6182
69671	12.996	0.5	0.	1.1846e-002
69672	12.947	0.45	0.	1.2741e-002
69673	12.947	0.5	5.e-002	3.6369
69674	13.096	0.5	0.	1.0992e-002
69675	13.046	0.45	0.	1.183e-002
69676	13.046	0.5	5.e-002	3.6518
69677	13.195	0.5	0.	1.0232e-002
69678	13.146	0.45	0.	1.1005e-002
69679	13.146	0.5	5.e-002	3.6633
69680	13.295	0.5	0.	9.5616e-003
69681	13.245	0.45	0.	1.0273e-002
69682	13.245	0.5	5.e-002	3.6718
69683	13.395	0.5	0.	8.9605e-003
69684	13.345	0.45	0.	9.6189e-003
69685	13.345	0.5	5.e-002	3.6778
69686	13.494	0.5	0.	8.4119e-003
69687	13.444	0.45	0.	9.0142e-003
69688	13.444	0.5	5.e-002	3.6815
69689	13.594	0.5	0.	7.914e-003
69690	13.544	0.45	0.	8.4544e-003
69691	13.544	0.5	5.e-002	3.6833
69692	13.693	0.5	0.	7.4641e-003
69693	13.644	0.45	0.	7.94e-003
69694	13.644	0.5	5.e-002	3.6833
69695	13.793	0.5	0.	7.0674e-003
69696	13.743	0.45	0.	7.4643e-003
69697	13.743	0.5	5.e-002	3.6819
69698	13.893	0.5	0.	6.7288e-003
69699	13.843	0.45	0.	7.0402e-003
69700	13.843	0.5	5.e-002	3.6791
69701	13.992	0.5	0.	6.4388e-003
69702	13.942	0.45	0.	6.6635e-003
69703	13.942	0.5	5.e-002	3.6753
69704	14.092	0.5	0.	6.2211e-003
69705	14.042	0.45	0.	6.3261e-003
69706	14.042	0.5	5.e-002	3.6705
69707	14.191	0.5	0.	6.1615e-003
69708	14.142	0.45	0.	6.165e-003
69709	14.142	0.5	5.e-002	3.6649
69710	14.291	0.5	0.	6.5055e-003
69711	14.241	0.45	0.	1.4634e-002
69712	14.241	0.5	5.e-002	3.6585
69713	14.39	0.5	0.	9.3485e-003
69714	14.341	0.45	0.	0.56677
69715	14.341	0.5	5.e-002	3.6516
69716	14.49	0.5	0.	0.30353
69717	14.44	0.45	0.	1.145
69718	14.44	0.5	5.e-002	3.6441
69719	14.59	0.5	0.	0.91407
69720	14.54	0.45	0.	1.7188
69721	14.54	0.5	5.e-002	3.6362
69722	14.689	0.5	0.	1.5206
69723	14.639	0.45	0.	2.2872
69724	14.639	0.5	5.e-002	3.6279
69725	14.789	0.5	0.	2.1201
69726	14.739	0.45	0.	2.8494
69727	14.739	0.5	5.e-002	3.6193
69728	14.888	0.5	0.	2.7115
69729	14.839	0.45	0.	3.4047
69730	14.839	0.5	5.e-002	3.6105
69731	14.988	0.5	0.	3.2943
69732	14.938	0.45	0.	3.9527
69733	14.938	0.5	5.e-002	3.6015
69734	15.088	0.5	0.	3.8684
69735	15.038	0.45	0.	4.4929
69736	15.038	0.5	5.e-002	3.5924
69737	15.187	0.5	0.	4.4333
69738	15.137	0.45	0.	5.0251
69739	15.137	0.5	5.e-002	3.5831
69740	15.287	0.5	0.	4.9891
69741	15.237	0.45	0.	5.5492
69742	15.237	0.5	5.e-002	3.5737
69743	15.386	0.5	0.	5.5356
69744	15.336	0.45	0.	6.0651
69745	15.336	0.5	5.e-002	3.5644
69746	15.486	0.5	0.	6.0729
69747	15.436	0.45	0.	6.5727
69748	15.436	0.5	5.e-002	3.555
69749	15.585	0.5	0.	6.6011
69750	15.536	0.45	0.	7.072
69751	15.536	0.5	5.e-002	3.5455
69752	15.685	0.5	0.	7.1204
69753	15.635	0.45	0.	7.5633
69754	15.635	0.5	5.e-002	3.536
69755	15.785	0.5	0.	7.6309
69756	15.735	0.45	0.	8.0466
69757	15.735	0.5	5.e-002	3.5266
69758	15.884	0.5	0.	8.1329
69759	15.834	0.45	0.	8.5222
69760	15.834	0.5	5.e-002	3.5171
69761	15.984	0.5	0.	8.6267
69762	15.934	0.45	0.	8.9902
69763	15.934	0.5	5.e-002	3.5077
69764	16.083	0.5	0.	9.1125
69765	16.034	0.45	0.	9.4509
69766	16.034	0.5	5.e-002	3.4984
69767	16.183	0.5	0.	9.5908
69768	16.133	0.45	0.	9.9046
69769	16.133	0.5	5.e-002	3.489
69770	16.282	0.5	0.	10.062
69771	16.233	0.45	0.	10.352
69772	16.233	0.5	5.e-002	3.4798
69773	16.382	0.5	0.	10.526
69774	16.332	0.45	0.	10.792
69775	16.332	0.5	5.e-002	3.4706
69776	16.482	0.5	0.	10.984
69777	16.432	0.45	0.	11.227
69778	16.432	0.5	5.e-002	3.4615
69779	16.581	0.5	0.	11.436
69780	16.531	0.45	0.	11.656
69781	16.531	0.5	5.e-002	3.4525
69782	16.681	0.5	0.	11.882
69783	16.631	0.45	0.	12.08
69784	16.631	0.5	5.e-002	3.4435
69785	16.78	0.5	0.	12.322
69786	16.731	0.45	0.	12.498
69787	16.731	0.5	5.e-002	3.4346
69788	16.88	0.5	0.	12.758
69789	16.83	0.45	0.	12.913
69790	16.83	0.5	5.e-002	3.4259
69791	16.98	0.5	0.	13.19
69792	16.93	0.45	0.	13.323
69793	16.93	0.5	5.e-002	3.4172
69794	17.079	0.5	0.	13.618
69795	17.029	0.45	0.	13.729
69796	17.029	0.5	5.e-002	3.4086
69797	17.179	0.5	0.	14.042
69798	17.129	0.45	0.	14.132
69799	17.129	0.5	5.e-002	3.4001
69800	17.278	0.5	0.	14.463
69801	17.229	0.45	0.	14.532
69802	17.229	0.5	5.e-002	3.3917
69803	17.378	0.5	0.	14.882
69804	17.328	0.45	0.	14.93
69805	17.328	0.5	5.e-002	3.3833
69806	17.477	0.5	0.	15.299
69807	17.428	0.45	0.	15.325
69808	17.428	0.5	5.e-002	3.375
69809	17.577	0.5	0.	15.713
69810	17.527	0.45	0.	15.718
69811	17.527	0.5	5.e-002	3.3668
69812	17.677	0.5	0.	16.127
69813	17.627	0.45	0.	16.111
69814	17.627	0.5	5.e-002	3.3587
69815	17.776	0.5	0.	16.539
69816	17.726	0.45	0.	16.502
69817	17.726	0.5	5.e-002	3.3508
69818	17.876	0.5	0.	16.952
69819	17.826	0.45	0.	16.892
69820	17.826	0.5	5.e-002	3.3429
69821	17.975	0.5	0.	17.364
69822	17.926	0.45	0.	17.283
69823	17.926	0.5	5.e-002	3.3351
69824	18.075	0.5	0.	17.777
69825	18.025	0.45	0.	17.673
69826	18.025	0.5	5.e-002	3.3275
69827	18.175	0.5	0.	18.191
69828	18.125	0.45	0.	18.064
69829	18.125	0.5	5.e-002	3.3199
69830	18.274	0.5	0.	18.606
69831	18.224	0.45	0.	18.456
69832	18.224	0.5	5.e-002	3.3125
69833	18.374	0.5	0.	19.022
69834	18.324	0.45	0.	18.85
69835	18.324	0.5	5.e-002	3.3051
69836	18.473	0.5	0.	19.441
69837	18.423	0.45	0.	19.245
69838	18.423	0.5	5.e-002	3.2978
69839	18.573	0.5	0.	19.863
69840	18.523	0.45	0.	19.642
69841	18.523	0.5	5.e-002	3.2907
69842	18.672	0.5	0.	20.287
69843	18.623	0.45	0.	20.041
69844	18.623	0.5	5.e-002	3.2837
69845	18.772	0.5	0.	20.715
69846	18.722	0.45	0.	20.444
69847	18.722	0.5	5.e-002	3.2767
69848	18.872	0.5	0.	21.147
69849	18.822	0.45	0.	20.849
69850	18.822	0.5	5.e-002	3.2699
69851	18.971	0.5	0.	21.583
69852	18.921	0.45	0.	21.258
69853	18.921	0.5	5.e-002	3.2632
69854	19.071	0.5	0.	22.023
69855	19.021	0.45	0.	21.671
69856	19.021	0.5	5.e-002	3.2566
69857	19.17	0.5	0.	22.469
69858	19.121	0.45	0.	22.088
69859	19.121	0.5	5.e-002	3.2501
69860	19.27	0.5	0.	22.92
69861	19.22	0.45	0.	22.51
69862	19.22	0.5	5.e-002	3.2438
69863	19.369	0.5	0.	23.377
69864	19.32	0.45	0.	22.936
69865	19.32	0.5	5.e-002	3.2376
69866	19.469	0.5	0.	23.84
69867	19.419	0.45	0.	23.368
69868	19.419	0.5	5.e-002	3.2315
69869	19.569	0.5	0.	24.31
69870	19.519	0.45	0.	23.805
69871	19.519	0.5	5.e-002	3.2256
69872	19.668	0.5	0.	24.787
69873	19.618	0.45	0.	24.248
69874	19.618	0.5	5.e-002	3.2197
69875	19.768	0.5	0.	25.272
69876	19.718	0.45	0.	24.698
69877	19.718	0.5	5.e-002	3.2141
69878	19.867	0.5	0.	25.764
69879	19.818	0.45	0.	25.154
69880	19.818	0.5	5.e-002	3.2086
69881	19.967	0.5	0.	26.265
69882	19.917	0.45	0.	25.617
69883	19.917	0.5	5.e-002	3.2032
69884	20.067	0.5	0.	26.774
69885	20.017	0.45	0.	26.087
69886	20.017	0.5	5.e-002	3.198
69887	20.166	0.5	0.	27.292
69888	20.116	0.45	0.	26.564
69889	20.116	0.5	5.e-002	3.193
69890	20.266	0.5	0.	27.82
69891	20.216	0.45	0.	27.05
69892	20.216	0.5	5.e-002	3.1881
69893	20.365	0.5	0.	28.358
69894	20.316	0.45	0.	27.543
69895	20.316	0.5	5.e-002	3.1833
69896	20.465	0.5	0.	28.907
69897	20.415	0.45	0.	28.045
69898	20.415	0.5	5.e-002	3.1787
69899	20.564	0.5	0.	29.466
69900	20.515	0.45	0.	28.556
69901	20.515	0.5	5.e-002	3.1743
69902	20.664	0.5	0.	30.037
69903	20.614	0.45	0.	29.077
69904	20.614	0.5	5.e-002	3.1701
69905	20.764	0.5	0.	30.619
69906	20.714	0.45	0.	29.606
69907	20.714	0.5	5.e-002	3.1661
69908	20.863	0.5	0.	31.214
69909	20.813	0.45	0.	30.146
69910	20.813	0.5	5.e-002	3.1623
69911	20.963	0.5	0.	31.822
69912	20.913	0.45	0.	30.696
69913	20.913	0.5	5.e-002	3.1587
69914	21.062	0.5	0.	32.444
69915	21.013	0.45	0.	31.258
69916	21.013	0.5	5.e-002	3.1553
69917	21.162	0.5	0.	33.08
69918	21.112	0.45	0.	31.83
69919	21.112	0.5	5.e-002	3.1521
69920	21.262	0.5	0.	33.731
69921	21.212	0.45	0.	32.414
69922	21.212	0.5	5.e-002	3.1491
69923	21.361	0.5	0.	34.398
69924	21.311	0.45	0.	33.01
69925	21.311	0.5	5.e-002	3.1464
69926	21.461	0.5	0.	35.083
69927	21.411	0.45	0.	33.62
69928	21.411	0.5	5.e-002	3.1439
69929	21.56	0.5	0.	35.785
69930	21.51	0.45	0.	34.243
69931	21.51	0.5	5.e-002	3.1417
69932	21.66	0.5	0.	36.506
69933	21.61	0.45	0.	34.881
69934	21.61	0.5	5.e-002	3.1398
69935	21.759	0.5	0.	37.248
69936	21.71	0.45	0.	35.535
69937	21.71	0.5	5.e-002	3.1382
69938	21.859	0.5	0.	38.013
69939	21.809	0.45	0.	36.205
69940	21.809	0.5	5.e-002	3.1368
69941	21.959	0.5	0.	38.802
69942	21.909	0.45	0.	36.894
69943	21.909	0.5	5.e-002	3.1359
69944	22.058	0.5	0.	39.619
69945	22.008	0.45	0.	37.602
69946	22.008	0.5	5.e-002	3.1353
69947	22.158	0.5	0.	40.465
69948	22.108	0.45	0.	38.332
69949	22.108	0.5	5.e-002	3.1351
69950	22.257	0.5	0.	41.345
69951	22.208	0.45	0.	39.087
69952	22.208	0.5	5.e-002	3.1355
69953	22.357	0.5	0.	42.263
69954	22.307	0.45	0.	39.87
69955	22.307	0.5	5.e-002	3.1363
69956	22.456	0.5	0.	43.225
69957	22.407	0.45	0.	40.684
69958	22.407	0.5	5.e-002	3.1378
69959	22.556	0.5	0.	44.237
69960	22.506	0.45	0.	41.534
69961	22.506	0.5	5.e-002	3.1401
69962	22.656	0.5	0.	45.309
69963	22.606	0.45	0.	42.427
69964	22.606	0.5	5.e-002	3.1432
69965	22.755	0.5	0.	46.452
69966	22.705	0.45	0.	43.371
69967	22.705	0.5	5.e-002	3.1475
69968	22.855	0.5	0.	47.68
69969	22.805	0.45	0.	44.377
69970	22.805	0.5	5.e-002	3.1531
69971	22.954	0.5	0.	49.013
69972	22.905	0.45	0.	45.459
69973	22.905	0.5	5.e-002	3.1605
69974	23.054	0.5	0.	50.474
69975	23.004	0.45	0.	46.635
69976	23.004	0.5	5.e-002	3.1702
69977	23.154	0.5	0.	52.098
69978	23.104	0.45	0.	47.93
69979	23.104	0.5	5.e-002	3.1829
69980	23.253	0.5	0.	53.929
69981	23.203	0.45	0.	49.381
69982	23.203	0.5	5.e-002	3.1996
69983	23.353	0.5	0.	56.025
69984	23.303	0.45	0.	51.034
69985	23.303	0.5	5.e-002	3.2219
69986	23.452	0.5	0.	58.463
69987	23.403	0.45	0.	52.955
69988	23.403	0.5	5.e-002	3.2518
69989	23.552	0.5	0.	61.34
69990	23.502	0.45	0.	55.236
69991	23.502	0.5	5.e-002	3.2923
69992	23.651	0.5	0.	64.767
69993	23.602	0.45	0.	57.998
69994	23.602	0.5	5.e-002	3.3473
69995	23.751	0.5	0.	68.869
69996	23.701	0.45	0.	61.387
69997	23.701	0.5	5.e-002	3.4214
69998	23.851	0.5	0.	73.805
69999	23.801	0.45	0.	65.579
70000	23.801	0.5	5.e-002	3.5214
70001	23.9	0.45	0.	70.818
70002	23.9	0.5	5.e-002	3.7277
70003	23.95	0.5	0.	77.974
70004	8.316	0.4	0.	264.24
70005	8.2662	0.35	0.	280.4
70006	8.2662	0.4	5.e-002	34.779
70007	8.2165	0.4	0.	199.52
70008	8.4156	0.4	0.	178.79
70009	8.3658	0.35	0.	171.95
70010	8.3658	0.4	5.e-002	30.875
70011	8.5152	0.4	0.	140.69
70012	8.4654	0.35	0.	128.36
70013	8.4654	0.4	5.e-002	30.519
70014	8.6148	0.4	0.	123.08
70015	8.565	0.35	0.	110.24
70016	8.565	0.4	5.e-002	29.647
70017	8.7144	0.4	0.	115.52
70018	8.6646	0.35	0.	103.72
70019	8.6646	0.4	5.e-002	28.357
70020	8.8139	0.4	0.	112.45
70021	8.7642	0.35	0.	102.08
70022	8.7642	0.4	5.e-002	26.766
70023	8.9135	0.4	0.	110.87
70024	8.8637	0.35	0.	101.94
70025	8.8637	0.4	5.e-002	24.98
70026	9.0131	0.4	0.	109.3
70027	8.9633	0.35	0.	101.68
70028	8.9633	0.4	5.e-002	23.078
70029	9.1127	0.4	0.	107.04
70030	9.0629	0.35	0.	100.6
70031	9.0629	0.4	5.e-002	21.126
70032	9.2123	0.4	0.	103.85
70033	9.1625	0.35	0.	98.455
70034	9.1625	0.4	5.e-002	19.173
70035	9.3118	0.4	0.	99.722
70036	9.2621	0.35	0.	95.261
70037	9.2621	0.4	5.e-002	17.259
70038	9.4114	0.4	0.	94.781
70039	9.3616	0.35	0.	91.145
70040	9.3616	0.4	5.e-002	15.414
70041	9.511	0.4	0.	89.191
70042	9.4612	0.35	0.	86.286
70043	9.4612	0.4	5.e-002	13.658
70044	9.6106	0.4	0.	83.133
70045	9.5608	0.35	0.	80.878
70046	9.5608	0.4	5.e-002	12.006
70047	9.7102	0.4	0.	76.784
70048	9.6604	0.35	0.	75.106
70049	9.6604	0.4	5.e-002	10.466
70050	9.8097	0.4	0.	70.3
70051	9.76	0.35	0.	69.136
70052	9.76	0.4	5.e-002	9.0422
70053	9.9093	0.4	0.	63.817
70054	9.8595	0.35	0.	63.109
70055	9.8595	0.4	5.e-002	7.7349
70056	10.009	0.4	0.	57.444
70057	9.9591	0.35	0.	57.141
70058	9.9591	0.4	5.e-002	6.5426
70059	10.108	0.4	0.	51.269
70060	10.059	0.35	0.	51.326
70061	10.059	0.4	5.e-002	5.4623
70062	10.208	0.4	0.	45.359
70063	10.158	0.35	0.	45.734
70064	10.158	0.4	5.e-002	4.4902
70065	10.308	0.4	0.	39.761
70066	10.258	0.35	0.	40.418
70067	10.258	0.4	5.e-002	3.6231
70068	10.407	0.4	0.	34.51
70069	10.357	0.35	0.	35.414
70070	10.357	0.4	5.e-002	2.8596
70071	10.507	0.4	0.	29.624
70072	10.457	0.35	0.	30.744
70073	10.457	0.4	5.e-002	2.2028
70074	10.606	0.4	0.	25.113
70075	10.557	0.35	0.	26.422
70076	10.557	0.4	5.e-002	1.6655
70077	10.706	0.4	0.	20.979
70078	10.656	0.35	0.	22.449
70079	10.656	0.4	5.e-002	1.2792
70080	10.806	0.4	0.	17.217
70081	10.756	0.35	0.	18.825
70082	10.756	0.4	5.e-002	1.0933
70083	10.905	0.4	0.	13.818
70084	10.855	0.35	0.	15.539
70085	10.855	0.4	5.e-002	1.1215
70086	11.005	0.4	0.	10.768
70087	10.955	0.35	0.	12.582
70088	10.955	0.4	5.e-002	1.2932
70089	11.104	0.4	0.	8.0522
70090	11.055	0.35	0.	9.9389
70091	11.055	0.4	5.e-002	1.5242
70092	11.204	0.4	0.	5.6573
70093	11.154	0.35	0.	7.5937
70094	11.154	0.4	5.e-002	1.7666
70095	11.303	0.4	0.	3.5746
70096	11.254	0.35	0.	5.531
70097	11.254	0.4	5.e-002	1.9997
70098	11.403	0.4	0.	1.8256
70099	11.353	0.35	0.	3.7372
70100	11.353	0.4	5.e-002	2.2153
70101	11.503	0.4	0.	0.61156
70102	11.453	0.35	0.	2.2077
70103	11.453	0.4	5.e-002	2.411
70104	11.602	0.4	0.	0.20828
70105	11.552	0.35	0.	0.98559
70106	11.552	0.4	5.e-002	2.5862
70107	11.702	0.4	0.	0.10946
70108	11.652	0.35	0.	0.30851
70109	11.652	0.4	5.e-002	2.742
70110	11.801	0.4	0.	7.1744e-002
70111	11.752	0.35	0.	0.13164
70112	11.752	0.4	5.e-002	2.8796
70113	11.901	0.4	0.	5.2696e-002
70114	11.851	0.35	0.	7.9146e-002
70115	11.851	0.4	5.e-002	3.0005
70116	12.001	0.4	0.	4.1457e-002
70117	11.951	0.35	0.	5.6101e-002
70118	11.951	0.4	5.e-002	3.1064
70119	12.1	0.4	0.	3.4135e-002
70120	12.05	0.35	0.	4.3506e-002
70121	12.05	0.4	5.e-002	3.1988
70122	12.2	0.4	0.	2.9027e-002
70123	12.15	0.35	0.	3.5678e-002
70124	12.15	0.4	5.e-002	3.2789
70125	12.299	0.4	0.	2.5281e-002
70126	12.249	0.35	0.	3.0384e-002
70127	12.249	0.4	5.e-002	3.3482
70128	12.399	0.4	0.	2.2424e-002
70129	12.349	0.35	0.	2.6586e-002
70130	12.349	0.4	5.e-002	3.4078
70131	12.498	0.4	0.	2.0153e-002
70132	12.449	0.35	0.	2.3731e-002
70133	12.449	0.4	5.e-002	3.4589
70134	12.598	0.4	0.	1.829e-002
70135	12.548	0.35	0.	2.1467e-002
70136	12.548	0.4	5.e-002	3.5023
70137	12.698	0.4	0.	1.6742e-002
70138	12.648	0.35	0.	1.9643e-002
70139	12.648	0.4	5.e-002	3.5389
70140	12.797	0.4	0.	1.5428e-002
70141	12.747	0.35	0.	1.8145e-002
70142	12.747	0.4	5.e-002	3.5695
70143	12.897	0.4	0.	1.4289e-002
70144	12.847	0.35	0.	1.688e-002
70145	12.847	0.4	5.e-002	3.5948
70146	12.996	0.4	0.	1.3288e-002
70147	12.947	0.35	0.	1.5804e-002
70148	12.947	0.4	5.e-002	3.6156
70149	13.096	0.4	0.	1.2383e-002
70150	13.046	0.35	0.	1.4875e-002
70151	13.046	0.4	5.e-002	3.6322
70152	13.195	0.4	0.	1.157e-002
70153	13.146	0.35	0.	1.407e-002
70154	13.146	0.4	5.e-002	3.6453
70155	13.295	0.4	0.	1.0844e-002
70156	13.245	0.35	0.	1.3415e-002
70157	13.245	0.4	5.e-002	3.6551
70158	13.395	0.4	0.	1.0183e-002
70159	13.345	0.35	0.	1.2927e-002
70160	13.345	0.4	5.e-002	3.6623
70161	13.494	0.4	0.	9.5688e-003
70162	13.444	0.35	0.	1.2679e-002
70163	13.444	0.4	5.e-002	3.6671
70164	13.594	0.4	0.	9.0015e-003
70165	13.544	0.35	0.	1.2883e-002
70166	13.544	0.4	5.e-002	3.6698
70167	13.693	0.4	0.	8.4809e-003
70168	13.644	0.35	0.	1.4949e-002
70169	13.644	0.4	5.e-002	3.6707
70170	13.793	0.4	0.	8.0175e-003
70171	13.743	0.35	0.	7.2709e-002
70172	13.743	0.4	5.e-002	3.67
70173	13.893	0.4	0.	7.6584e-003
70174	13.843	0.35	0.	0.5212
70175	13.843	0.4	5.e-002	3.6679
70176	13.992	0.4	0.	8.2984e-003
70177	13.942	0.35	0.	1.0065
70178	13.942	0.4	5.e-002	3.6647
70179	14.092	0.4	0.	0.42915
70180	14.042	0.35	0.	1.4971
70181	14.042	0.4	5.e-002	3.6605
70182	14.191	0.4	0.	0.96687
70183	14.142	0.35	0.	1.9904
70184	14.142	0.4	5.e-002	3.6553
70185	14.291	0.4	0.	1.5042
70186	14.241	0.35	0.	2.4844
70187	14.241	0.4	5.e-002	3.6495
70188	14.39	0.4	0.	2.0396
70189	14.341	0.35	0.	2.9777
70190	14.341	0.4	5.e-002	3.6429
70191	14.49	0.4	0.	2.572
70192	14.44	0.35	0.	3.4691
70193	14.44	0.4	5.e-002	3.6358
70194	14.59	0.4	0.	3.1003
70195	14.54	0.35	0.	3.9576
70196	14.54	0.4	5.e-002	3.6283
70197	14.689	0.4	0.	3.6237
70198	14.639	0.35	0.	4.4424
70199	14.639	0.4	5.e-002	3.6203
70200	14.789	0.4	0.	4.1416
70201	14.739	0.35	0.	4.9228
70202	14.739	0.4	5.e-002	3.612
70203	14.888	0.4	0.	4.6534
70204	14.839	0.35	0.	5.3982
70205	14.839	0.4	5.e-002	3.6035
70206	14.988	0.4	0.	5.1588
70207	14.938	0.35	0.	5.8682
70208	14.938	0.4	5.e-002	3.5947
70209	15.088	0.4	0.	5.6572
70210	15.038	0.35	0.	6.3324
70211	15.038	0.4	5.e-002	3.5859
70212	15.187	0.4	0.	6.1487
70213	15.137	0.35	0.	6.7906
70214	15.137	0.4	5.e-002	3.5768
70215	15.287	0.4	0.	6.633
70216	15.237	0.35	0.	7.2426
70217	15.237	0.4	5.e-002	3.5677
70218	15.386	0.4	0.	7.11
70219	15.336	0.35	0.	7.6883
70220	15.336	0.4	5.e-002	3.5586
70221	15.486	0.4	0.	7.5797
70222	15.436	0.35	0.	8.1276
70223	15.436	0.4	5.e-002	3.5493
70224	15.585	0.4	0.	8.0422
70225	15.536	0.35	0.	8.5605
70226	15.536	0.4	5.e-002	3.54
70227	15.685	0.4	0.	8.4976
70228	15.635	0.35	0.	8.9872
70229	15.635	0.4	5.e-002	3.5307
70230	15.785	0.4	0.	8.9461
70231	15.735	0.35	0.	9.4077
70232	15.735	0.4	5.e-002	3.5214
70233	15.884	0.4	0.	9.3877
70234	15.834	0.35	0.	9.8221
70235	15.834	0.4	5.e-002	3.5121
70236	15.984	0.4	0.	9.8227
70237	15.934	0.35	0.	10.231
70238	15.934	0.4	5.e-002	3.5029
70239	16.083	0.4	0.	10.251
70240	16.034	0.35	0.	10.633
70241	16.034	0.4	5.e-002	3.4936
70242	16.183	0.4	0.	10.674
70243	16.133	0.35	0.	11.031
70244	16.133	0.4	5.e-002	3.4844
70245	16.282	0.4	0.	11.091
70246	16.233	0.35	0.	11.423
70247	16.233	0.4	5.e-002	3.4752
70248	16.382	0.4	0.	11.502
70249	16.332	0.35	0.	11.81
70250	16.332	0.4	5.e-002	3.4662
70251	16.482	0.4	0.	11.908
70252	16.432	0.35	0.	12.192
70253	16.432	0.4	5.e-002	3.4571
70254	16.581	0.4	0.	12.309
70255	16.531	0.35	0.	12.57
70256	16.531	0.4	5.e-002	3.4482
70257	16.681	0.4	0.	12.706
70258	16.631	0.35	0.	12.944
70259	16.631	0.4	5.e-002	3.4393
70260	16.78	0.4	0.	13.098
70261	16.731	0.35	0.	13.313
70262	16.731	0.4	5.e-002	3.4305
70263	16.88	0.4	0.	13.486
70264	16.83	0.35	0.	13.68
70265	16.83	0.4	5.e-002	3.4219
70266	16.98	0.4	0.	13.871
70267	16.93	0.35	0.	14.043
70268	16.93	0.4	5.e-002	3.4132
70269	17.079	0.4	0.	14.253
70270	17.029	0.35	0.	14.402
70271	17.029	0.4	5.e-002	3.4047
70272	17.179	0.4	0.	14.632
70273	17.129	0.35	0.	14.76
70274	17.129	0.4	5.e-002	3.3962
70275	17.278	0.4	0.	15.008
70276	17.229	0.35	0.	15.115
70277	17.229	0.4	5.e-002	3.3878
70278	17.378	0.4	0.	15.383
70279	17.328	0.35	0.	15.468
70280	17.328	0.4	5.e-002	3.3795
70281	17.477	0.4	0.	15.755
70282	17.428	0.35	0.	15.819
70283	17.428	0.4	5.e-002	3.3712
70284	17.577	0.4	0.	16.126
70285	17.527	0.35	0.	16.168
70286	17.527	0.4	5.e-002	3.3631
70287	17.677	0.4	0.	16.496
70288	17.627	0.35	0.	16.517
70289	17.627	0.4	5.e-002	3.355
70290	17.776	0.4	0.	16.865
70291	17.726	0.35	0.	16.865
70292	17.726	0.4	5.e-002	3.347
70293	17.876	0.4	0.	17.234
70294	17.826	0.35	0.	17.212
70295	17.826	0.4	5.e-002	3.3392
70296	17.975	0.4	0.	17.603
70297	17.926	0.35	0.	17.559
70298	17.926	0.4	5.e-002	3.3314
70299	18.075	0.4	0.	17.972
70300	18.025	0.35	0.	17.906
70301	18.025	0.4	5.e-002	3.3237
70302	18.175	0.4	0.	18.341
70303	18.125	0.35	0.	18.253
70304	18.125	0.4	5.e-002	3.3161
70305	18.274	0.4	0.	18.712
70306	18.224	0.35	0.	18.601
70307	18.224	0.4	5.e-002	3.3086
70308	18.374	0.4	0.	19.084
70309	18.324	0.35	0.	18.95
70310	18.324	0.4	5.e-002	3.3013
70311	18.473	0.4	0.	19.457
70312	18.423	0.35	0.	19.3
70313	18.423	0.4	5.e-002	3.294
70314	18.573	0.4	0.	19.833
70315	18.523	0.35	0.	19.652
70316	18.523	0.4	5.e-002	3.2868
70317	18.672	0.4	0.	20.21
70318	18.623	0.35	0.	20.005
70319	18.623	0.4	5.e-002	3.2797
70320	18.772	0.4	0.	20.59
70321	18.722	0.35	0.	20.36
70322	18.722	0.4	5.e-002	3.2727
70323	18.872	0.4	0.	20.973
70324	18.822	0.35	0.	20.718
70325	18.822	0.4	5.e-002	3.2658
70326	18.971	0.4	0.	21.359
70327	18.921	0.35	0.	21.078
70328	18.921	0.4	5.e-002	3.259
70329	19.071	0.4	0.	21.749
70330	19.021	0.35	0.	21.44
70331	19.021	0.4	5.e-002	3.2523
70332	19.17	0.4	0.	22.142
70333	19.121	0.35	0.	21.806
70334	19.121	0.4	5.e-002	3.2458
70335	19.27	0.4	0.	22.539
70336	19.22	0.35	0.	22.175
70337	19.22	0.4	5.e-002	3.2394
70338	19.369	0.4	0.	22.941
70339	19.32	0.35	0.	22.547
70340	19.32	0.4	5.e-002	3.233
70341	19.469	0.4	0.	23.347
70342	19.419	0.35	0.	22.923
70343	19.419	0.4	5.e-002	3.2269
70344	19.569	0.4	0.	23.757
70345	19.519	0.35	0.	23.303
70346	19.519	0.4	5.e-002	3.2208
70347	19.668	0.4	0.	24.173
70348	19.618	0.35	0.	23.686
70349	19.618	0.4	5.e-002	3.2149
70350	19.768	0.4	0.	24.594
70351	19.718	0.35	0.	24.074
70352	19.718	0.4	5.e-002	3.2091
70353	19.867	0.4	0.	25.021
70354	19.818	0.35	0.	24.466
70355	19.818	0.4	5.e-002	3.2034
70356	19.967	0.4	0.	25.454
70357	19.917	0.35	0.	24.863
70358	19.917	0.4	5.e-002	3.1979
70359	20.067	0.4	0.	25.893
70360	20.017	0.35	0.	25.265
70361	20.017	0.4	5.e-002	3.1925
70362	20.166	0.4	0.	26.337
70363	20.116	0.35	0.	25.671
70364	20.116	0.4	5.e-002	3.1872
70365	20.266	0.4	0.	26.789
70366	20.216	0.35	0.	26.083
70367	20.216	0.4	5.e-002	3.1821
70368	20.365	0.4	0.	27.247
70369	20.316	0.35	0.	26.499
70370	20.316	0.4	5.e-002	3.1772
70371	20.465	0.4	0.	27.712
70372	20.415	0.35	0.	26.921
70373	20.415	0.4	5.e-002	3.1724
70374	20.564	0.4	0.	28.185
70375	20.515	0.35	0.	27.348
70376	20.515	0.4	5.e-002	3.1677
70377	20.664	0.4	0.	28.665
70378	20.614	0.35	0.	27.781
70379	20.614	0.4	5.e-002	3.1633
70380	20.764	0.4	0.	29.153
70381	20.714	0.35	0.	28.219
70382	20.714	0.4	5.e-002	3.159
70383	20.863	0.4	0.	29.648
70384	20.813	0.35	0.	28.664
70385	20.813	0.4	5.e-002	3.1549
70386	20.963	0.4	0.	30.152
70387	20.913	0.35	0.	29.114
70388	20.913	0.4	5.e-002	3.1509
70389	21.062	0.4	0.	30.664
70390	21.013	0.35	0.	29.57
70391	21.013	0.4	5.e-002	3.1471
70392	21.162	0.4	0.	31.185
70393	21.112	0.35	0.	30.032
70394	21.112	0.4	5.e-002	3.1436
70395	21.262	0.4	0.	31.716
70396	21.212	0.35	0.	30.5
70397	21.212	0.4	5.e-002	3.1402
70398	21.361	0.4	0.	32.255
70399	21.311	0.35	0.	30.975
70400	21.311	0.4	5.e-002	3.137
70401	21.461	0.4	0.	32.805
70402	21.411	0.35	0.	31.456
70403	21.411	0.4	5.e-002	3.1341
70404	21.56	0.4	0.	33.365
70405	21.51	0.35	0.	31.943
70406	21.51	0.4	5.e-002	3.1314
70407	21.66	0.4	0.	33.937
70408	21.61	0.35	0.	32.438
70409	21.61	0.4	5.e-002	3.1288
70410	21.759	0.4	0.	34.52
70411	21.71	0.35	0.	32.94
70412	21.71	0.4	5.e-002	3.1266
70413	21.859	0.4	0.	35.115
70414	21.809	0.35	0.	33.45
70415	21.809	0.4	5.e-002	3.1245
70416	21.959	0.4	0.	35.724
70417	21.909	0.35	0.	33.967
70418	21.909	0.4	5.e-002	3.1228
70419	22.058	0.4	0.	36.348
70420	22.008	0.35	0.	34.493
70421	22.008	0.4	5.e-002	3.1214
70422	22.158	0.4	0.	36.989
70423	22.108	0.35	0.	35.029
70424	22.108	0.4	5.e-002	3.1202
70425	22.257	0.4	0.	37.648
70426	22.208	0.35	0.	35.575
70427	22.208	0.4	5.e-002	3.1195
70428	22.357	0.4	0.	38.329
70429	22.307	0.35	0.	36.133
70430	22.307	0.4	5.e-002	3.1192
70431	22.456	0.4	0.	39.034
70432	22.407	0.35	0.	36.705
70433	22.407	0.4	5.e-002	3.1193
70434	22.556	0.4	0.	39.768
70435	22.506	0.35	0.	37.293
70436	22.506	0.4	5.e-002	3.12
70437	22.656	0.4	0.	40.536
70438	22.606	0.35	0.	37.9
70439	22.606	0.4	5.e-002	3.1214
70440	22.755	0.4	0.	41.346
70441	22.705	0.35	0.	38.531
70442	22.705	0.4	5.e-002	3.1236
70443	22.855	0.4	0.	42.209
70444	22.805	0.35	0.	39.192
70445	22.805	0.4	5.e-002	3.1268
70446	22.954	0.4	0.	43.137
70447	22.905	0.35	0.	39.892
70448	22.905	0.4	5.e-002	3.1315
70449	23.054	0.4	0.	44.151
70450	23.004	0.35	0.	40.643
70451	23.004	0.4	5.e-002	3.1379
70452	23.154	0.4	0.	45.276
70453	23.104	0.35	0.	41.461
70454	23.104	0.4	5.e-002	3.1469
70455	23.253	0.4	0.	46.551
70456	23.203	0.35	0.	42.373
70457	23.203	0.4	5.e-002	3.1594
70458	23.353	0.4	0.	48.03
70459	23.303	0.35	0.	43.415
70460	23.303	0.4	5.e-002	3.1768
70461	23.452	0.4	0.	49.793
70462	23.403	0.35	0.	44.646
70463	23.403	0.4	5.e-002	3.2017
70464	23.552	0.4	0.	51.954
70465	23.502	0.35	0.	46.151
70466	23.502	0.4	5.e-002	3.2376
70467	23.651	0.4	0.	54.666
70468	23.602	0.35	0.	48.067
70469	23.602	0.4	5.e-002	3.29
70470	23.751	0.4	0.	58.132
70471	23.701	0.35	0.	50.593
70472	23.701	0.4	5.e-002	3.3669
70473	23.851	0.4	0.	62.62
70474	23.801	0.35	0.	54.022
70475	23.801	0.4	5.e-002	3.4808
70476	23.9	0.35	0.	58.786
70477	23.9	0.4	5.e-002	3.7199
70478	23.95	0.4	0.	66.391
70479	8.316	0.3	0.	175.06
70480	8.2662	0.25	0.	186.96
70481	8.2662	0.3	5.e-002	34.515
70482	8.2165	0.3	0.	134.42
70483	8.4156	0.3	0.	113.04
70484	8.3658	0.25	0.	106.42
70485	8.3658	0.3	5.e-002	31.471
70486	8.5152	0.3	0.	93.395
70487	8.4654	0.25	0.	84.19
70488	8.4654	0.3	5.e-002	30.97
70489	8.6148	0.3	0.	88.443
70490	8.565	0.25	0.	79.51
70491	8.565	0.3	5.e-002	29.928
70492	8.7144	0.3	0.	88.839
70493	8.6646	0.25	0.	80.465
70494	8.6646	0.3	5.e-002	28.521
70495	8.8139	0.3	0.	90.635
70496	8.7642	0.25	0.	82.74
70497	8.7642	0.3	5.e-002	26.864
70498	8.9135	0.3	0.	92.084
70499	8.8637	0.25	0.	84.572
70500	8.8637	0.3	5.e-002	25.048
70501	9.0131	0.3	0.	92.481
70502	8.9633	0.25	0.	85.309
70503	8.9633	0.3	5.e-002	23.138
70504	9.1127	0.3	0.	91.624
70505	9.0629	0.25	0.	84.791
70506	9.0629	0.3	5.e-002	21.186
70507	9.2123	0.3	0.	89.553
70508	9.1625	0.25	0.	83.084
70509	9.1625	0.3	5.e-002	19.238
70510	9.3118	0.3	0.	86.424
70511	9.2621	0.25	0.	80.352
70512	9.2621	0.3	5.e-002	17.327
70513	9.4114	0.3	0.	82.436
70514	9.3616	0.25	0.	76.796
70515	9.3616	0.3	5.e-002	15.482
70516	9.511	0.3	0.	77.798
70517	9.4612	0.25	0.	72.62
70518	9.4612	0.3	5.e-002	13.723
70519	9.6106	0.3	0.	72.709
70520	9.5608	0.25	0.	68.012
70521	9.5608	0.3	5.e-002	12.063
70522	9.7102	0.3	0.	67.343
70523	9.6604	0.25	0.	63.141
70524	9.6604	0.3	5.e-002	10.511
70525	9.8097	0.3	0.	61.852
70526	9.76	0.25	0.	58.147
70527	9.76	0.3	5.e-002	9.072
70528	9.9093	0.3	0.	56.36
70529	9.8595	0.25	0.	53.148
70530	9.8595	0.3	5.e-002	7.7468
70531	10.009	0.3	0.	50.967
70532	9.9591	0.25	0.	48.236
70533	9.9591	0.3	5.e-002	6.5338
70534	10.108	0.3	0.	45.748
70535	10.059	0.25	0.	43.482
70536	10.059	0.3	5.e-002	5.4297
70537	10.208	0.3	0.	40.762
70538	10.158	0.25	0.	38.938
70539	10.158	0.3	5.e-002	4.43
70540	10.308	0.3	0.	36.047
70541	10.258	0.25	0.	34.642
70542	10.258	0.3	5.e-002	3.53
70543	10.407	0.3	0.	31.633
70544	10.357	0.25	0.	30.618
70545	10.357	0.3	5.e-002	2.7252
70546	10.507	0.3	0.	27.532
70547	10.457	0.25	0.	26.88
70548	10.457	0.3	5.e-002	2.0136
70549	10.606	0.3	0.	23.752
70550	10.557	0.25	0.	23.433
70551	10.557	0.3	5.e-002	1.3994
70552	10.706	0.3	0.	20.293
70553	10.656	0.25	0.	20.277
70554	10.656	0.3	5.e-002	0.90856
70555	10.806	0.3	0.	17.148
70556	10.756	0.25	0.	17.406
70557	10.756	0.3	5.e-002	0.63689
70558	10.905	0.3	0.	14.309
70559	10.855	0.25	0.	14.812
70560	10.855	0.3	5.e-002	0.70759
70561	11.005	0.3	0.	11.761
70562	10.955	0.25	0.	12.482
70563	10.955	0.3	5.e-002	0.97751
70564	11.104	0.3	0.	9.4915
70565	11.055	0.25	0.	10.403
70566	11.055	0.3	5.e-002	1.2847
70567	11.204	0.3	0.	7.4844
70568	11.154	0.25	0.	8.5619
70569	11.154	0.3	5.e-002	1.5794
70570	11.303	0.3	0.	5.7237
70571	11.254	0.25	0.	6.9426
70572	11.254	0.3	5.e-002	1.849
70573	11.403	0.3	0.	4.194
70574	11.353	0.25	0.	5.5305
70575	11.353	0.3	5.e-002	2.0911
70576	11.503	0.3	0.	2.8815
70577	11.453	0.25	0.	4.3108
70578	11.453	0.3	5.e-002	2.3066
70579	11.602	0.3	0.	1.7776
70580	11.552	0.25	0.	3.2694
70581	11.552	0.3	5.e-002	2.4973
70582	11.702	0.3	0.	0.89599
70583	11.652	0.25	0.	2.3929
70584	11.652	0.3	5.e-002	2.6653
70585	11.801	0.3	0.	0.33624
70586	11.752	0.25	0.	1.6698
70587	11.752	0.3	5.e-002	2.8128
70588	11.901	0.3	0.	0.14268
70589	11.851	0.25	0.	1.0917
70590	11.851	0.3	5.e-002	2.9417
70591	12.001	0.3	0.	8.475e-002
70592	11.951	0.25	0.	0.65615
70593	11.951	0.3	5.e-002	3.0543
70594	12.1	0.3	0.	6.0464e-002
70595	12.05	0.25	0.	0.36849
70596	12.05	0.3	5.e-002	3.1522
70597	12.2	0.3	0.	4.7611e-002
70598	12.15	0.25	0.	0.21706
70599	12.15	0.3	5.e-002	3.237
70600	12.299	0.3	0.	3.9815e-002
70601	12.249	0.25	0.	0.14907
70602	12.249	0.3	5.e-002	3.3102
70603	12.399	0.3	0.	3.4667e-002
70604	12.349	0.25	0.	0.11826
70605	12.349	0.3	5.e-002	3.3731
70606	12.498	0.3	0.	3.1059e-002
70607	12.449	0.25	0.	0.10469
70608	12.449	0.3	5.e-002	3.427
70609	12.598	0.3	0.	2.8445e-002
70610	12.548	0.25	0.	0.10182
70611	12.548	0.3	5.e-002	3.4729
70612	12.698	0.3	0.	2.6559e-002
70613	12.648	0.25	0.	0.11001
70614	12.648	0.3	5.e-002	3.5116
70615	12.797	0.3	0.	2.5255e-002
70616	12.747	0.25	0.	0.13781
70617	12.747	0.3	5.e-002	3.544
70618	12.897	0.3	0.	2.4503e-002
70619	12.847	0.25	0.	0.21191
70620	12.847	0.3	5.e-002	3.5709
70621	12.996	0.3	0.	2.4411e-002
70622	12.947	0.25	0.	0.36778
70623	12.947	0.3	5.e-002	3.593
70624	13.096	0.3	0.	2.536e-002
70625	13.046	0.25	0.	0.59692
70626	13.046	0.3	5.e-002	3.6108
70627	13.195	0.3	0.	2.8668e-002
70628	13.146	0.25	0.	0.87259
70629	13.146	0.3	5.e-002	3.6249
70630	13.295	0.3	0.	4.0866e-002
70631	13.245	0.25	0.	1.1801
70632	13.245	0.3	5.e-002	3.6357
70633	13.395	0.3	0.	0.13849
70634	13.345	0.25	0.	1.5119
70635	13.345	0.3	5.e-002	3.6437
70636	13.494	0.3	0.	0.47982
70637	13.444	0.25	0.	1.8628
70638	13.444	0.3	5.e-002	3.6492
70639	13.594	0.3	0.	0.88233
70640	13.544	0.25	0.	2.2291
70641	13.544	0.3	5.e-002	3.6525
70642	13.693	0.3	0.	1.3026
70643	13.644	0.25	0.	2.6077
70644	13.644	0.3	5.e-002	3.654
70645	13.793	0.3	0.	1.7339
70646	13.743	0.25	0.	2.9961
70647	13.743	0.3	5.e-002	3.6538
70648	13.893	0.3	0.	2.1729
70649	13.843	0.25	0.	3.3919
70650	13.843	0.3	5.e-002	3.6522
70651	13.992	0.3	0.	2.6173
70652	13.942	0.25	0.	3.7934
70653	13.942	0.3	5.e-002	3.6494
70654	14.092	0.3	0.	3.0651
70655	14.042	0.25	0.	4.1986
70656	14.042	0.3	5.e-002	3.6456
70657	14.191	0.3	0.	3.5147
70658	14.142	0.25	0.	4.6063
70659	14.142	0.3	5.e-002	3.6408
70660	14.291	0.3	0.	3.9648
70661	14.241	0.25	0.	5.0151
70662	14.241	0.3	5.e-002	3.6352
70663	14.39	0.3	0.	4.4142
70664	14.341	0.25	0.	5.424
70665	14.341	0.3	5.e-002	3.629
70666	14.49	0.3	0.	4.8618
70667	14.44	0.25	0.	5.8319
70668	14.44	0.3	5.e-002	3.6222
70669	14.59	0.3	0.	5.3069
70670	14.54	0.25	0.	6.2382
70671	14.54	0.3	5.e-002	3.6149
70672	14.689	0.3	0.	5.7487
70673	14.639	0.25	0.	6.642
70674	14.639	0.3	5.e-002	3.6072
70675	14.789	0.3	0.	6.1867
70676	14.739	0.25	0.	7.043
70677	14.739	0.3	5.e-002	3.5991
70678	14.888	0.3	0.	6.6204
70679	14.839	0.25	0.	7.4405
70680	14.839	0.3	5.e-002	3.5908
70681	14.988	0.3	0.	7.0494
70682	14.938	0.25	0.	7.8343
70683	14.938	0.3	5.e-002	3.5823
70684	15.088	0.3	0.	7.4734
70685	15.038	0.25	0.	8.224
70686	15.038	0.3	5.e-002	3.5736
70687	15.187	0.3	0.	7.8922
70688	15.137	0.25	0.	8.6095
70689	15.137	0.3	5.e-002	3.5647
70690	15.287	0.3	0.	8.3057
70691	15.237	0.25	0.	8.9905
70692	15.237	0.3	5.e-002	3.5557
70693	15.386	0.3	0.	8.7138
70694	15.336	0.25	0.	9.367
70695	15.336	0.3	5.e-002	3.5468
70696	15.486	0.3	0.	9.1164
70697	15.436	0.25	0.	9.7389
70698	15.436	0.3	5.e-002	3.5377
70699	15.585	0.3	0.	9.5136
70700	15.536	0.25	0.	10.106
70701	15.536	0.3	5.e-002	3.5285
70702	15.685	0.3	0.	9.9054
70703	15.635	0.25	0.	10.469
70704	15.635	0.3	5.e-002	3.5194
70705	15.785	0.3	0.	10.292
70706	15.735	0.25	0.	10.827
70707	15.735	0.3	5.e-002	3.5102
70708	15.884	0.3	0.	10.673
70709	15.834	0.25	0.	11.181
70710	15.834	0.3	5.e-002	3.501
70711	15.984	0.3	0.	11.05
70712	15.934	0.25	0.	11.53
70713	15.934	0.3	5.e-002	3.4919
70714	16.083	0.3	0.	11.421
70715	16.034	0.25	0.	11.876
70716	16.034	0.3	5.e-002	3.4828
70717	16.183	0.3	0.	11.788
70718	16.133	0.25	0.	12.217
70719	16.133	0.3	5.e-002	3.4736
70720	16.282	0.3	0.	12.151
70721	16.233	0.25	0.	12.554
70722	16.233	0.3	5.e-002	3.4646
70723	16.382	0.3	0.	12.509
70724	16.332	0.25	0.	12.888
70725	16.332	0.3	5.e-002	3.4556
70726	16.482	0.3	0.	12.863
70727	16.432	0.25	0.	13.218
70728	16.432	0.3	5.e-002	3.4467
70729	16.581	0.3	0.	13.214
70730	16.531	0.25	0.	13.545
70731	16.531	0.3	5.e-002	3.4378
70732	16.681	0.3	0.	13.561
70733	16.631	0.25	0.	13.869
70734	16.631	0.3	5.e-002	3.429
70735	16.78	0.3	0.	13.904
70736	16.731	0.25	0.	14.19
70737	16.731	0.3	5.e-002	3.4203
70738	16.88	0.3	0.	14.245
70739	16.83	0.25	0.	14.509
70740	16.83	0.3	5.e-002	3.4117
70741	16.98	0.3	0.	14.583
70742	16.93	0.25	0.	14.825
70743	16.93	0.3	5.e-002	3.4032
70744	17.079	0.3	0.	14.919
70745	17.029	0.25	0.	15.139
70746	17.029	0.3	5.e-002	3.3946
70747	17.179	0.3	0.	15.252
70748	17.129	0.25	0.	15.451
70749	17.129	0.3	5.e-002	3.3862
70750	17.278	0.3	0.	15.584
70751	17.229	0.25	0.	15.761
70752	17.229	0.3	5.e-002	3.3779
70753	17.378	0.3	0.	15.914
70754	17.328	0.25	0.	16.07
70755	17.328	0.3	5.e-002	3.3696
70756	17.477	0.3	0.	16.242
70757	17.428	0.25	0.	16.377
70758	17.428	0.3	5.e-002	3.3614
70759	17.577	0.3	0.	16.569
70760	17.527	0.25	0.	16.683
70761	17.527	0.3	5.e-002	3.3532
70762	17.677	0.3	0.	16.896
70763	17.627	0.25	0.	16.989
70764	17.627	0.3	5.e-002	3.3452
70765	17.776	0.3	0.	17.222
70766	17.726	0.25	0.	17.293
70767	17.726	0.3	5.e-002	3.3372
70768	17.876	0.3	0.	17.547
70769	17.826	0.25	0.	17.598
70770	17.826	0.3	5.e-002	3.3294
70771	17.975	0.3	0.	17.873
70772	17.926	0.25	0.	17.902
70773	17.926	0.3	5.e-002	3.3216
70774	18.075	0.3	0.	18.198
70775	18.025	0.25	0.	18.206
70776	18.025	0.3	5.e-002	3.3139
70777	18.175	0.3	0.	18.524
70778	18.125	0.25	0.	18.51
70779	18.125	0.3	5.e-002	3.3064
70780	18.274	0.3	0.	18.851
70781	18.224	0.25	0.	18.815
70782	18.224	0.3	5.e-002	3.2989
70783	18.374	0.3	0.	19.178
70784	18.324	0.25	0.	19.12
70785	18.324	0.3	5.e-002	3.2915
70786	18.473	0.3	0.	19.506
70787	18.423	0.25	0.	19.426
70788	18.423	0.3	5.e-002	3.2842
70789	18.573	0.3	0.	19.836
70790	18.523	0.25	0.	19.733
70791	18.523	0.3	5.e-002	3.277
70792	18.672	0.3	0.	20.167
70793	18.623	0.25	0.	20.041
70794	18.623	0.3	5.e-002	3.2699
70795	18.772	0.3	0.	20.5
70796	18.722	0.25	0.	20.35
70797	18.722	0.3	5.e-002	3.2629
70798	18.872	0.3	0.	20.835
70799	18.822	0.25	0.	20.66
70800	18.822	0.3	5.e-002	3.2559
70801	18.971	0.3	0.	21.172
70802	18.921	0.25	0.	20.972
70803	18.921	0.3	5.e-002	3.2491
70804	19.071	0.3	0.	21.511
70805	19.021	0.25	0.	21.286
70806	19.021	0.3	5.e-002	3.2424
70807	19.17	0.3	0.	21.852
70808	19.121	0.25	0.	21.601
70809	19.121	0.3	5.e-002	3.2358
70810	19.27	0.3	0.	22.196
70811	19.22	0.25	0.	21.918
70812	19.22	0.3	5.e-002	3.2293
70813	19.369	0.3	0.	22.543
70814	19.32	0.25	0.	22.238
70815	19.32	0.3	5.e-002	3.2229
70816	19.469	0.3	0.	22.893
70817	19.419	0.25	0.	22.559
70818	19.419	0.3	5.e-002	3.2166
70819	19.569	0.3	0.	23.246
70820	19.519	0.25	0.	22.882
70821	19.519	0.3	5.e-002	3.2105
70822	19.668	0.3	0.	23.602
70823	19.618	0.25	0.	23.208
70824	19.618	0.3	5.e-002	3.2044
70825	19.768	0.3	0.	23.961
70826	19.718	0.25	0.	23.536
70827	19.718	0.3	5.e-002	3.1986
70828	19.867	0.3	0.	24.324
70829	19.818	0.25	0.	23.866
70830	19.818	0.3	5.e-002	3.1928
70831	19.967	0.3	0.	24.69
70832	19.917	0.25	0.	24.199
70833	19.917	0.3	5.e-002	3.1871
70834	20.067	0.3	0.	25.059
70835	20.017	0.25	0.	24.534
70836	20.017	0.3	5.e-002	3.1816
70837	20.166	0.3	0.	25.433
70838	20.116	0.25	0.	24.871
70839	20.116	0.3	5.e-002	3.1762
70840	20.266	0.3	0.	25.81
70841	20.216	0.25	0.	25.211
70842	20.216	0.3	5.e-002	3.171
70843	20.365	0.3	0.	26.19
70844	20.316	0.25	0.	25.553
70845	20.316	0.3	5.e-002	3.1659
70846	20.465	0.3	0.	26.575
70847	20.415	0.25	0.	25.897
70848	20.415	0.3	5.e-002	3.1609
70849	20.564	0.3	0.	26.963
70850	20.515	0.25	0.	26.243
70851	20.515	0.3	5.e-002	3.1561
70852	20.664	0.3	0.	27.355
70853	20.614	0.25	0.	26.591
70854	20.614	0.3	5.e-002	3.1514
70855	20.764	0.3	0.	27.75
70856	20.714	0.25	0.	26.941
70857	20.714	0.3	5.e-002	3.1469
70858	20.863	0.3	0.	28.149
70859	20.813	0.25	0.	27.293
70860	20.813	0.3	5.e-002	3.1425
70861	20.963	0.3	0.	28.552
70862	20.913	0.25	0.	27.646
70863	20.913	0.3	5.e-002	3.1383
70864	21.062	0.3	0.	28.959
70865	21.013	0.25	0.	28.001
70866	21.013	0.3	5.e-002	3.1342
70867	21.162	0.3	0.	29.369
70868	21.112	0.25	0.	28.357
70869	21.112	0.3	5.e-002	3.1304
70870	21.262	0.3	0.	29.782
70871	21.212	0.25	0.	28.714
70872	21.212	0.3	5.e-002	3.1267
70873	21.361	0.3	0.	30.199
70874	21.311	0.25	0.	29.072
70875	21.311	0.3	5.e-002	3.1231
70876	21.461	0.3	0.	30.62
70877	21.411	0.25	0.	29.43
70878	21.411	0.3	5.e-002	3.1198
70879	21.56	0.3	0.	31.043
70880	21.51	0.25	0.	29.788
70881	21.51	0.3	5.e-002	3.1166
70882	21.66	0.3	0.	31.47
70883	21.61	0.25	0.	30.145
70884	21.61	0.3	5.e-002	3.1136
70885	21.759	0.3	0.	31.9
70886	21.71	0.25	0.	30.502
70887	21.71	0.3	5.e-002	3.1108
70888	21.859	0.3	0.	32.333
70889	21.809	0.25	0.	30.858
70890	21.809	0.3	5.e-002	3.1081
70891	21.959	0.3	0.	32.769
70892	21.909	0.25	0.	31.213
70893	21.909	0.3	5.e-002	3.1057
70894	22.058	0.3	0.	33.209
70895	22.008	0.25	0.	31.565
70896	22.008	0.3	5.e-002	3.1035
70897	22.158	0.3	0.	33.652
70898	22.108	0.25	0.	31.915
70899	22.108	0.3	5.e-002	3.1015
70900	22.257	0.3	0.	34.099
70901	22.208	0.25	0.	32.263
70902	22.208	0.3	5.e-002	3.0998
70903	22.357	0.3	0.	34.551
70904	22.307	0.25	0.	32.607
70905	22.307	0.3	5.e-002	3.0983
70906	22.456	0.3	0.	35.009
70907	22.407	0.25	0.	32.949
70908	22.407	0.3	5.e-002	3.0972
70909	22.556	0.3	0.	35.474
70910	22.506	0.25	0.	33.287
70911	22.506	0.3	5.e-002	3.0964
70912	22.656	0.3	0.	35.948
70913	22.606	0.25	0.	33.622
70914	22.606	0.3	5.e-002	3.096
70915	22.755	0.3	0.	36.435
70916	22.705	0.25	0.	33.954
70917	22.705	0.3	5.e-002	3.0962
70918	22.855	0.3	0.	36.938
70919	22.805	0.25	0.	34.285
70920	22.805	0.3	5.e-002	3.097
70921	22.954	0.3	0.	37.466
70922	22.905	0.25	0.	34.616
70923	22.905	0.3	5.e-002	3.0988
70924	23.054	0.3	0.	38.028
70925	23.004	0.25	0.	34.953
70926	23.004	0.3	5.e-002	3.1017
70927	23.154	0.3	0.	38.64
70928	23.104	0.25	0.	35.3
70929	23.104	0.3	5.e-002	3.1065
70930	23.253	0.3	0.	39.326
70931	23.203	0.25	0.	35.67
70932	23.203	0.3	5.e-002	3.1138
70933	23.353	0.3	0.	40.126
70934	23.303	0.25	0.	36.08
70935	23.303	0.3	5.e-002	3.125
70936	23.452	0.3	0.	41.103
70937	23.403	0.25	0.	36.563
70938	23.403	0.3	5.e-002	3.1423
70939	23.552	0.3	0.	42.363
70940	23.502	0.25	0.	37.176
70941	23.502	0.3	5.e-002	3.1698
70942	23.651	0.3	0.	44.082
70943	23.602	0.25	0.	38.027
70944	23.602	0.3	5.e-002	3.2142
70945	23.751	0.3	0.	46.551
70946	23.701	0.25	0.	39.314
70947	23.701	0.3	5.e-002	3.2881
70948	23.851	0.3	0.	50.238
70949	23.801	0.25	0.	41.433
70950	23.801	0.3	5.e-002	3.4136
70951	23.9	0.25	0.	45.18
70952	23.9	0.3	5.e-002	3.699
70953	23.95	0.3	0.	53.353
70954	8.316	0.2	0.	104.79
70955	8.2662	0.15	0.	115.13
70956	8.2662	0.2	5.e-002	35.737
70957	8.2165	0.2	0.	76.975
70958	8.4156	0.2	0.	72.09
70959	8.3658	0.15	0.	75.528
70960	8.3658	0.2	5.e-002	33.082
70961	8.5152	0.2	0.	68.175
70962	8.4654	0.15	0.	70.825
70963	8.4654	0.2	5.e-002	32.126
70964	8.6148	0.2	0.	70.585
70965	8.565	0.15	0.	72.371
70966	8.565	0.2	5.e-002	30.741
70967	8.7144	0.2	0.	73.867
70968	8.6646	0.15	0.	74.246
70969	8.6646	0.2	5.e-002	29.134
70970	8.8139	0.2	0.	76.352
70971	8.7642	0.15	0.	75.168
70972	8.7642	0.2	5.e-002	27.365
70973	8.9135	0.2	0.	77.545
70974	8.8637	0.15	0.	74.873
70975	8.8637	0.2	5.e-002	25.486
70976	9.0131	0.2	0.	77.402
70977	8.9633	0.15	0.	73.448
70978	8.9633	0.2	5.e-002	23.54
70979	9.1127	0.2	0.	76.057
70980	9.0629	0.15	0.	71.082
70981	9.0629	0.2	5.e-002	21.566
70982	9.2123	0.2	0.	73.709
70983	9.1625	0.15	0.	67.989
70984	9.1625	0.2	5.e-002	19.6
70985	9.3118	0.2	0.	70.571
70986	9.2621	0.15	0.	64.368
70987	9.2621	0.2	5.e-002	17.674
70988	9.4114	0.2	0.	66.846
70989	9.3616	0.15	0.	60.399
70990	9.3616	0.2	5.e-002	15.813
70991	9.511	0.2	0.	62.719
70992	9.4612	0.15	0.	56.231
70993	9.4612	0.2	5.e-002	14.036
70994	9.6106	0.2	0.	58.348
70995	9.5608	0.15	0.	51.988
70996	9.5608	0.2	5.e-002	12.358
70997	9.7102	0.2	0.	53.865
70998	9.6604	0.15	0.	47.767
70999	9.6604	0.2	5.e-002	10.786
71000	9.8097	0.2	0.	49.378
71001	9.76	0.15	0.	43.645
71002	9.76	0.2	5.e-002	9.3252
71003	9.9093	0.2	0.	44.972
71004	9.8595	0.15	0.	39.677
71005	9.8595	0.2	5.e-002	7.9777
71006	10.009	0.2	0.	40.71
71007	9.9591	0.15	0.	35.902
71008	9.9591	0.2	5.e-002	6.7416
71009	10.108	0.2	0.	36.64
71010	10.059	0.15	0.	32.348
71011	10.059	0.2	5.e-002	5.6137
71012	10.208	0.2	0.	32.795
71013	10.158	0.15	0.	29.031
71014	10.158	0.2	5.e-002	4.5892
71015	10.308	0.2	0.	29.196
71016	10.258	0.15	0.	25.957
71017	10.258	0.2	5.e-002	3.6625
71018	10.407	0.2	0.	25.854
71019	10.357	0.15	0.	23.129
71020	10.357	0.2	5.e-002	2.8274
71021	10.507	0.2	0.	22.774
71022	10.457	0.15	0.	20.543
71023	10.457	0.2	5.e-002	2.0775
71024	10.606	0.2	0.	19.955
71025	10.557	0.15	0.	18.192
71026	10.557	0.2	5.e-002	1.407
71027	10.706	0.2	0.	17.39
71028	10.656	0.15	0.	16.067
71029	10.656	0.2	5.e-002	0.81232
71030	10.806	0.2	0.	15.072
71031	10.756	0.15	0.	14.156
71032	10.756	0.2	5.e-002	0.30925
71033	10.905	0.2	0.	12.989
71034	10.855	0.15	0.	12.448
71035	10.855	0.2	5.e-002	0.28224
71036	11.005	0.2	0.	11.13
71037	10.955	0.15	0.	10.931
71038	10.955	0.2	5.e-002	0.67045
71039	11.104	0.2	0.	9.4807
71040	11.055	0.15	0.	9.5913
71041	11.055	0.2	5.e-002	1.0389
71042	11.204	0.2	0.	8.0288
71043	11.154	0.15	0.	8.417
71044	11.154	0.2	5.e-002	1.3687
71045	11.303	0.2	0.	6.7602
71046	11.254	0.15	0.	7.3959
71047	11.254	0.2	5.e-002	1.661
71048	11.403	0.2	0.	5.6616
71049	11.353	0.15	0.	6.516
71050	11.353	0.2	5.e-002	1.919
71051	11.503	0.2	0.	4.7199
71052	11.453	0.15	0.	5.7659
71053	11.453	0.2	5.e-002	2.1463
71054	11.602	0.2	0.	3.9223
71055	11.552	0.15	0.	5.1349
71056	11.552	0.2	5.e-002	2.3458
71057	11.702	0.2	0.	3.2568
71058	11.652	0.15	0.	4.6127
71059	11.652	0.2	5.e-002	2.5207
71060	11.801	0.2	0.	2.7118
71061	11.752	0.15	0.	4.1894
71062	11.752	0.2	5.e-002	2.6735
71063	11.901	0.2	0.	2.2761
71064	11.851	0.15	0.	3.8561
71065	11.851	0.2	5.e-002	2.8067
71066	12.001	0.2	0.	1.9394
71067	11.951	0.15	0.	3.6041
71068	11.951	0.2	5.e-002	2.9225
71069	12.1	0.2	0.	1.6915
71070	12.05	0.15	0.	3.4254
71071	12.05	0.2	5.e-002	3.0229
71072	12.2	0.2	0.	1.5231
71073	12.15	0.15	0.	3.3128
71074	12.15	0.2	5.e-002	3.1097
71075	12.299	0.2	0.	1.4254
71076	12.249	0.15	0.	3.2593
71077	12.249	0.2	5.e-002	3.1844
71078	12.399	0.2	0.	1.3909
71079	12.349	0.15	0.	3.2589
71080	12.349	0.2	5.e-002	3.2484
71081	12.498	0.2	0.	1.4126
71082	12.449	0.15	0.	3.3059
71083	12.449	0.2	5.e-002	3.303
71084	12.598	0.2	0.	1.4848
71085	12.548	0.15	0.	3.395
71086	12.548	0.2	5.e-002	3.3494
71087	12.698	0.2	0.	1.602
71088	12.648	0.15	0.	3.5216
71089	12.648	0.2	5.e-002	3.3883
71090	12.797	0.2	0.	1.7593
71091	12.747	0.15	0.	3.6813
71092	12.747	0.2	5.e-002	3.4208
71093	12.897	0.2	0.	1.9521
71094	12.847	0.15	0.	3.8702
71095	12.847	0.2	5.e-002	3.4477
71096	12.996	0.2	0.	2.1758
71097	12.947	0.15	0.	4.0848
71098	12.947	0.2	5.e-002	3.4696
71099	13.096	0.2	0.	2.4265
71100	13.046	0.15	0.	4.3216
71101	13.046	0.2	5.e-002	3.4872
71102	13.195	0.2	0.	2.7003
71103	13.146	0.15	0.	4.5777
71104	13.146	0.2	5.e-002	3.5009
71105	13.295	0.2	0.	2.9939
71106	13.245	0.15	0.	4.8504
71107	13.245	0.2	5.e-002	3.5113
71108	13.395	0.2	0.	3.3042
71109	13.345	0.15	0.	5.1373
71110	13.345	0.2	5.e-002	3.5189
71111	13.494	0.2	0.	3.6284
71112	13.444	0.15	0.	5.436
71113	13.444	0.2	5.e-002	3.5239
71114	13.594	0.2	0.	3.9642
71115	13.544	0.15	0.	5.7446
71116	13.544	0.2	5.e-002	3.5268
71117	13.693	0.2	0.	4.3093
71118	13.644	0.15	0.	6.0613
71119	13.644	0.2	5.e-002	3.5278
71120	13.793	0.2	0.	4.6619
71121	13.743	0.15	0.	6.3845
71122	13.743	0.2	5.e-002	3.5271
71123	13.893	0.2	0.	5.0201
71124	13.843	0.15	0.	6.7129
71125	13.843	0.2	5.e-002	3.525
71126	13.992	0.2	0.	5.3825
71127	13.942	0.15	0.	7.0451
71128	13.942	0.2	5.e-002	3.5218
71129	14.092	0.2	0.	5.7477
71130	14.042	0.15	0.	7.38
71131	14.042	0.2	5.e-002	3.5175
71132	14.191	0.2	0.	6.1147
71133	14.142	0.15	0.	7.7167
71134	14.142	0.2	5.e-002	3.5123
71135	14.291	0.2	0.	6.4823
71136	14.241	0.15	0.	8.0543
71137	14.241	0.2	5.e-002	3.5063
71138	14.39	0.2	0.	6.8499
71139	14.341	0.15	0.	8.3921
71140	14.341	0.2	5.e-002	3.4997
71141	14.49	0.2	0.	7.2165
71142	14.44	0.15	0.	8.7295
71143	14.44	0.2	5.e-002	3.4925
71144	14.59	0.2	0.	7.5816
71145	14.54	0.15	0.	9.0659
71146	14.54	0.2	5.e-002	3.4849
71147	14.689	0.2	0.	7.9447
71148	14.639	0.15	0.	9.4008
71149	14.639	0.2	5.e-002	3.4769
71150	14.789	0.2	0.	8.3053
71151	14.739	0.15	0.	9.7339
71152	14.739	0.2	5.e-002	3.4685
71153	14.888	0.2	0.	8.6631
71154	14.839	0.15	0.	10.065
71155	14.839	0.2	5.e-002	3.4599
71156	14.988	0.2	0.	9.0177
71157	14.938	0.15	0.	10.393
71158	14.938	0.2	5.e-002	3.4512
71159	15.088	0.2	0.	9.369
71160	15.038	0.15	0.	10.719
71161	15.038	0.2	5.e-002	3.4422
71162	15.187	0.2	0.	9.7168
71163	15.137	0.15	0.	11.043
71164	15.137	0.2	5.e-002	3.4332
71165	15.287	0.2	0.	10.061
71166	15.237	0.15	0.	11.363
71167	15.237	0.2	5.e-002	3.4241
71168	15.386	0.2	0.	10.401
71169	15.336	0.15	0.	11.68
71170	15.336	0.2	5.e-002	3.415
71171	15.486	0.2	0.	10.738
71172	15.436	0.15	0.	11.995
71173	15.436	0.2	5.e-002	3.4058
71174	15.585	0.2	0.	11.071
71175	15.536	0.15	0.	12.306
71176	15.536	0.2	5.e-002	3.3965
71177	15.685	0.2	0.	11.4
71178	15.635	0.15	0.	12.615
71179	15.635	0.2	5.e-002	3.3873
71180	15.785	0.2	0.	11.726
71181	15.735	0.15	0.	12.92
71182	15.735	0.2	5.e-002	3.3781
71183	15.884	0.2	0.	12.048
71184	15.834	0.15	0.	13.223
71185	15.834	0.2	5.e-002	3.3689
71186	15.984	0.2	0.	12.366
71187	15.934	0.15	0.	13.523
71188	15.934	0.2	5.e-002	3.3598
71189	16.083	0.2	0.	12.681
71190	16.034	0.15	0.	13.82
71191	16.034	0.2	5.e-002	3.3507
71192	16.183	0.2	0.	12.993
71193	16.133	0.15	0.	14.114
71194	16.133	0.2	5.e-002	3.3416
71195	16.282	0.2	0.	13.302
71196	16.233	0.15	0.	14.406
71197	16.233	0.2	5.e-002	3.3326
71198	16.382	0.2	0.	13.608
71199	16.332	0.15	0.	14.696
71200	16.332	0.2	5.e-002	3.3237
71201	16.482	0.2	0.	13.911
71202	16.432	0.15	0.	14.983
71203	16.432	0.2	5.e-002	3.3149
71204	16.581	0.2	0.	14.212
71205	16.531	0.15	0.	15.268
71206	16.531	0.2	5.e-002	3.3062
71207	16.681	0.2	0.	14.51
71208	16.631	0.15	0.	15.551
71209	16.631	0.2	5.e-002	3.2976
71210	16.78	0.2	0.	14.806
71211	16.731	0.15	0.	15.833
71212	16.731	0.2	5.e-002	3.289
71213	16.88	0.2	0.	15.1
71214	16.83	0.15	0.	16.113
71215	16.83	0.2	5.e-002	3.2806
71216	16.98	0.2	0.	15.392
71217	16.93	0.15	0.	16.391
71218	16.93	0.2	5.e-002	3.2722
71219	17.079	0.2	0.	15.682
71220	17.029	0.15	0.	16.667
71221	17.029	0.2	5.e-002	3.264
71222	17.179	0.2	0.	15.971
71223	17.129	0.15	0.	16.943
71224	17.129	0.2	5.e-002	3.2558
71225	17.278	0.2	0.	16.258
71226	17.229	0.15	0.	17.217
71227	17.229	0.2	5.e-002	3.2477
71228	17.378	0.2	0.	16.544
71229	17.328	0.15	0.	17.491
71230	17.328	0.2	5.e-002	3.2397
71231	17.477	0.2	0.	16.83
71232	17.428	0.15	0.	17.763
71233	17.428	0.2	5.e-002	3.2318
71234	17.577	0.2	0.	17.114
71235	17.527	0.15	0.	18.035
71236	17.527	0.2	5.e-002	3.2239
71237	17.677	0.2	0.	17.398
71238	17.627	0.15	0.	18.306
71239	17.627	0.2	5.e-002	3.2162
71240	17.776	0.2	0.	17.681
71241	17.726	0.15	0.	18.577
71242	17.726	0.2	5.e-002	3.2086
71243	17.876	0.2	0.	17.965
71244	17.826	0.15	0.	18.847
71245	17.826	0.2	5.e-002	3.2011
71246	17.975	0.2	0.	18.248
71247	17.926	0.15	0.	19.118
71248	17.926	0.2	5.e-002	3.1938
71249	18.075	0.2	0.	18.531
71250	18.025	0.15	0.	19.388
71251	18.025	0.2	5.e-002	3.1865
71252	18.175	0.2	0.	18.814
71253	18.125	0.15	0.	19.658
71254	18.125	0.2	5.e-002	3.1793
71255	18.274	0.2	0.	19.097
71256	18.224	0.15	0.	19.928
71257	18.224	0.2	5.e-002	3.1723
71258	18.374	0.2	0.	19.381
71259	18.324	0.15	0.	20.199
71260	18.324	0.2	5.e-002	3.1654
71261	18.473	0.2	0.	19.666
71262	18.423	0.15	0.	20.469
71263	18.423	0.2	5.e-002	3.1585
71264	18.573	0.2	0.	19.951
71265	18.523	0.15	0.	20.741
71266	18.523	0.2	5.e-002	3.1518
71267	18.672	0.2	0.	20.237
71268	18.623	0.15	0.	21.012
71269	18.623	0.2	5.e-002	3.1452
71270	18.772	0.2	0.	20.524
71271	18.722	0.15	0.	21.284
71272	18.722	0.2	5.e-002	3.1387
71273	18.872	0.2	0.	20.812
71274	18.822	0.15	0.	21.556
71275	18.822	0.2	5.e-002	3.1323
71276	18.971	0.2	0.	21.101
71277	18.921	0.15	0.	21.83
71278	18.921	0.2	5.e-002	3.126
71279	19.071	0.2	0.	21.391
71280	19.021	0.15	0.	22.103
71281	19.021	0.2	5.e-002	3.1199
71282	19.17	0.2	0.	21.682
71283	19.121	0.15	0.	22.377
71284	19.121	0.2	5.e-002	3.1139
71285	19.27	0.2	0.	21.975
71286	19.22	0.15	0.	22.652
71287	19.22	0.2	5.e-002	3.108
71288	19.369	0.2	0.	22.269
71289	19.32	0.15	0.	22.927
71290	19.32	0.2	5.e-002	3.1022
71291	19.469	0.2	0.	22.564
71292	19.419	0.15	0.	23.203
71293	19.419	0.2	5.e-002	3.0966
71294	19.569	0.2	0.	22.861
71295	19.519	0.15	0.	23.479
71296	19.519	0.2	5.e-002	3.0912
71297	19.668	0.2	0.	23.159
71298	19.618	0.15	0.	23.756
71299	19.618	0.2	5.e-002	3.0858
71300	19.768	0.2	0.	23.458
71301	19.718	0.15	0.	24.033
71302	19.718	0.2	5.e-002	3.0807
71303	19.867	0.2	0.	23.759
71304	19.818	0.15	0.	24.31
71305	19.818	0.2	5.e-002	3.0757
71306	19.967	0.2	0.	24.061
71307	19.917	0.15	0.	24.587
71308	19.917	0.2	5.e-002	3.0708
71309	20.067	0.2	0.	24.364
71310	20.017	0.15	0.	24.864
71311	20.017	0.2	5.e-002	3.0661
71312	20.166	0.2	0.	24.668
71313	20.116	0.15	0.	25.141
71314	20.116	0.2	5.e-002	3.0615
71315	20.266	0.2	0.	24.973
71316	20.216	0.15	0.	25.418
71317	20.216	0.2	5.e-002	3.0571
71318	20.365	0.2	0.	25.279
71319	20.316	0.15	0.	25.693
71320	20.316	0.2	5.e-002	3.0529
71321	20.465	0.2	0.	25.585
71322	20.415	0.15	0.	25.968
71323	20.415	0.2	5.e-002	3.0488
71324	20.564	0.2	0.	25.892
71325	20.515	0.15	0.	26.242
71326	20.515	0.2	5.e-002	3.0449
71327	20.664	0.2	0.	26.199
71328	20.614	0.15	0.	26.514
71329	20.614	0.2	5.e-002	3.0412
71330	20.764	0.2	0.	26.506
71331	20.714	0.15	0.	26.783
71332	20.714	0.2	5.e-002	3.0376
71333	20.863	0.2	0.	26.813
71334	20.813	0.15	0.	27.051
71335	20.813	0.2	5.e-002	3.0343
71336	20.963	0.2	0.	27.119
71337	20.913	0.15	0.	27.316
71338	20.913	0.2	5.e-002	3.0311
71339	21.062	0.2	0.	27.425
71340	21.013	0.15	0.	27.577
71341	21.013	0.2	5.e-002	3.0281
71342	21.162	0.2	0.	27.728
71343	21.112	0.15	0.	27.835
71344	21.112	0.2	5.e-002	3.0254
71345	21.262	0.2	0.	28.03
71346	21.212	0.15	0.	28.088
71347	21.212	0.2	5.e-002	3.0228
71348	21.361	0.2	0.	28.33
71349	21.311	0.15	0.	28.336
71350	21.311	0.2	5.e-002	3.0204
71351	21.461	0.2	0.	28.627
71352	21.411	0.15	0.	28.578
71353	21.411	0.2	5.e-002	3.0182
71354	21.56	0.2	0.	28.921
71355	21.51	0.15	0.	28.813
71356	21.51	0.2	5.e-002	3.0162
71357	21.66	0.2	0.	29.21
71358	21.61	0.15	0.	29.041
71359	21.61	0.2	5.e-002	3.0144
71360	21.759	0.2	0.	29.495
71361	21.71	0.15	0.	29.259
71362	21.71	0.2	5.e-002	3.0128
71363	21.859	0.2	0.	29.774
71364	21.809	0.15	0.	29.468
71365	21.809	0.2	5.e-002	3.0114
71366	21.959	0.2	0.	30.046
71367	21.909	0.15	0.	29.666
71368	21.909	0.2	5.e-002	3.0102
71369	22.058	0.2	0.	30.312
71370	22.008	0.15	0.	29.852
71371	22.008	0.2	5.e-002	3.0093
71372	22.158	0.2	0.	30.569
71373	22.108	0.15	0.	30.023
71374	22.108	0.2	5.e-002	3.0085
71375	22.257	0.2	0.	30.817
71376	22.208	0.15	0.	30.178
71377	22.208	0.2	5.e-002	3.008
71378	22.357	0.2	0.	31.054
71379	22.307	0.15	0.	30.316
71380	22.307	0.2	5.e-002	3.0077
71381	22.456	0.2	0.	31.28
71382	22.407	0.15	0.	30.433
71383	22.407	0.2	5.e-002	3.0076
71384	22.556	0.2	0.	31.492
71385	22.506	0.15	0.	30.528
71386	22.506	0.2	5.e-002	3.0078
71387	22.656	0.2	0.	31.69
71388	22.606	0.15	0.	30.598
71389	22.606	0.2	5.e-002	3.0082
71390	22.755	0.2	0.	31.873
71391	22.705	0.15	0.	30.639
71392	22.705	0.2	5.e-002	3.009
71393	22.855	0.2	0.	32.039
71394	22.805	0.15	0.	30.648
71395	22.805	0.2	5.e-002	3.0101
71396	22.954	0.2	0.	32.188
71397	22.905	0.15	0.	30.621
71398	22.905	0.2	5.e-002	3.0118
71399	23.054	0.2	0.	32.32
71400	23.004	0.15	0.	30.552
71401	23.004	0.2	5.e-002	3.0141
71402	23.154	0.2	0.	32.437
71403	23.104	0.15	0.	30.437
71404	23.104	0.2	5.e-002	3.0174
71405	23.253	0.2	0.	32.544
71406	23.203	0.15	0.	30.27
71407	23.203	0.2	5.e-002	3.0222
71408	23.353	0.2	0.	32.653
71409	23.303	0.15	0.	30.046
71410	23.303	0.2	5.e-002	3.0293
71411	23.452	0.2	0.	32.791
71412	23.403	0.15	0.	29.761
71413	23.403	0.2	5.e-002	3.0405
71414	23.552	0.2	0.	33.011
71415	23.502	0.15	0.	29.417
71416	23.502	0.2	5.e-002	3.0589
71417	23.651	0.2	0.	33.438
71418	23.602	0.15	0.	29.035
71419	23.602	0.2	5.e-002	3.0911
71420	23.751	0.2	0.	34.36
71421	23.701	0.15	0.	28.686
71422	23.701	0.2	5.e-002	3.1523
71423	23.851	0.2	0.	36.494
71424	23.801	0.15	0.	28.605
71425	23.801	0.2	5.e-002	3.2802
71426	23.9	0.15	0.	29.782
71427	23.9	0.2	5.e-002	3.632
71428	23.95	0.2	0.	38.264
71429	8.316	0.1	0.	77.013
71430	8.2662	0.1	5.e-002	41.228
71431	8.2662	5.e-002	0.	35.615
71432	8.2165	0.1	0.	40.131
71433	8.4156	0.1	0.	72.567
71434	8.3658	0.1	5.e-002	38.509
71435	8.3658	5.e-002	0.	24.006
71436	8.5152	0.1	0.	74.554
71437	8.4654	0.1	5.e-002	37.091
71438	8.4654	5.e-002	0.	25.956
71439	8.6148	0.1	0.	75.749
71440	8.565	0.1	5.e-002	35.674
71441	8.565	5.e-002	0.	28.769
71442	8.7144	0.1	0.	75.271
71443	8.6646	0.1	5.e-002	34.107
71444	8.6646	5.e-002	0.	30.347
71445	8.8139	0.1	0.	73.407
71446	8.7642	0.1	5.e-002	32.369
71447	8.7642	5.e-002	0.	30.876
71448	8.9135	0.1	0.	70.498
71449	8.8637	0.1	5.e-002	30.478
71450	8.8637	5.e-002	0.	30.598
71451	9.0131	0.1	0.	66.866
71452	8.9633	0.1	5.e-002	28.472
71453	8.9633	5.e-002	0.	29.734
71454	9.1127	0.1	0.	62.775
71455	9.0629	0.1	5.e-002	26.395
71456	9.0629	5.e-002	0.	28.461
71457	9.2123	0.1	0.	58.436
71458	9.1625	0.1	5.e-002	24.291
71459	9.1625	5.e-002	0.	26.917
71460	9.3118	0.1	0.	54.012
71461	9.2621	0.1	5.e-002	22.199
71462	9.2621	5.e-002	0.	25.211
71463	9.4114	0.1	0.	49.628
71464	9.3616	0.1	5.e-002	20.153
71465	9.3616	5.e-002	0.	23.425
71466	9.511	0.1	0.	45.371
71467	9.4612	0.1	5.e-002	18.18
71468	9.4612	5.e-002	0.	21.621
71469	9.6106	0.1	0.	41.303
71470	9.5608	0.1	5.e-002	16.301
71471	9.5608	5.e-002	0.	19.845
71472	9.7102	0.1	0.	37.464
71473	9.6604	0.1	5.e-002	14.529
71474	9.6604	5.e-002	0.	18.13
71475	9.8097	0.1	0.	33.88
71476	9.76	0.1	5.e-002	12.875
71477	9.76	5.e-002	0.	16.498
71478	9.9093	0.1	0.	30.56
71479	9.8595	0.1	5.e-002	11.342
71480	9.8595	5.e-002	0.	14.964
71481	10.009	0.1	0.	27.507
71482	9.9591	0.1	5.e-002	9.9306
71483	9.9591	5.e-002	0.	13.535
71484	10.108	0.1	0.	24.716
71485	10.059	0.1	5.e-002	8.6401
71486	10.059	5.e-002	0.	12.216
71487	10.208	0.1	0.	22.18
71488	10.158	0.1	5.e-002	7.4663
71489	10.158	5.e-002	0.	11.006
71490	10.308	0.1	0.	19.885
71491	10.258	0.1	5.e-002	6.4039
71492	10.258	5.e-002	0.	9.9025
71493	10.407	0.1	0.	17.818
71494	10.357	0.1	5.e-002	5.4465
71495	10.357	5.e-002	0.	8.9028
71496	10.507	0.1	0.	15.966
71497	10.457	0.1	5.e-002	4.5871
71498	10.457	5.e-002	0.	8.0018
71499	10.606	0.1	0.	14.313
71500	10.557	0.1	5.e-002	3.8187
71501	10.557	5.e-002	0.	7.1938
71502	10.706	0.1	0.	12.844
71503	10.656	0.1	5.e-002	3.134
71504	10.656	5.e-002	0.	6.4731
71505	10.806	0.1	0.	11.546
71506	10.756	0.1	5.e-002	2.5261
71507	10.756	5.e-002	0.	5.8339
71508	10.905	0.1	0.	10.405
71509	10.855	0.1	5.e-002	1.9882
71510	10.855	5.e-002	0.	5.2704
71511	11.005	0.1	0.	9.4093
71512	10.955	0.1	5.e-002	1.5138
71513	10.955	5.e-002	0.	4.777
71514	11.104	0.1	0.	8.5457
71515	11.055	0.1	5.e-002	1.0971
71516	11.055	5.e-002	0.	4.3484
71517	11.204	0.1	0.	7.8035
71518	11.154	0.1	5.e-002	0.73257
71519	11.154	5.e-002	0.	3.9793
71520	11.303	0.1	0.	7.1721
71521	11.254	0.1	5.e-002	0.41647
71522	11.254	5.e-002	0.	3.6651
71523	11.403	0.1	0.	6.642
71524	11.353	0.1	5.e-002	0.15324
71525	11.353	5.e-002	0.	3.401
71526	11.503	0.1	0.	6.2039
71527	11.453	0.1	5.e-002	0.13594
71528	11.453	5.e-002	0.	3.1828
71529	11.602	0.1	0.	5.8497
71530	11.552	0.1	5.e-002	0.32763
71531	11.552	5.e-002	0.	3.0065
71532	11.702	0.1	0.	5.5713
71533	11.652	0.1	5.e-002	0.50228
71534	11.652	5.e-002	0.	2.8681
71535	11.801	0.1	0.	5.3617
71536	11.752	0.1	5.e-002	0.65275
71537	11.752	5.e-002	0.	2.7642
71538	11.901	0.1	0.	5.2143
71539	11.851	0.1	5.e-002	0.78072
71540	11.851	5.e-002	0.	2.6913
71541	12.001	0.1	0.	5.1229
71542	11.951	0.1	5.e-002	0.88857
71543	11.951	5.e-002	0.	2.6464
71544	12.1	0.1	0.	5.0819
71545	12.05	0.1	5.e-002	0.97857
71546	12.05	5.e-002	0.	2.6266
71547	12.2	0.1	0.	5.0862
71548	12.15	0.1	5.e-002	1.0528
71549	12.15	5.e-002	0.	2.6292
71550	12.299	0.1	0.	5.131
71551	12.249	0.1	5.e-002	1.1132
71552	12.249	5.e-002	0.	2.6519
71553	12.399	0.1	0.	5.2121
71554	12.349	0.1	5.e-002	1.1614
71555	12.349	5.e-002	0.	2.6925
71556	12.498	0.1	0.	5.3256
71557	12.449	0.1	5.e-002	1.1991
71558	12.449	5.e-002	0.	2.749
71559	12.598	0.1	0.	5.4678
71560	12.548	0.1	5.e-002	1.2276
71561	12.548	5.e-002	0.	2.8197
71562	12.698	0.1	0.	5.6355
71563	12.648	0.1	5.e-002	1.2481
71564	12.648	5.e-002	0.	2.9028
71565	12.797	0.1	0.	5.8257
71566	12.747	0.1	5.e-002	1.2615
71567	12.747	5.e-002	0.	2.997
71568	12.897	0.1	0.	6.0357
71569	12.847	0.1	5.e-002	1.269
71570	12.847	5.e-002	0.	3.101
71571	12.996	0.1	0.	6.263
71572	12.947	0.1	5.e-002	1.2715
71573	12.947	5.e-002	0.	3.2135
71574	13.096	0.1	0.	6.5053
71575	13.046	0.1	5.e-002	1.2695
71576	13.046	5.e-002	0.	3.3334
71577	13.195	0.1	0.	6.7606
71578	13.146	0.1	5.e-002	1.2638
71579	13.146	5.e-002	0.	3.4597
71580	13.295	0.1	0.	7.027
71581	13.245	0.1	5.e-002	1.2551
71582	13.245	5.e-002	0.	3.5916
71583	13.395	0.1	0.	7.3028
71584	13.345	0.1	5.e-002	1.2437
71585	13.345	5.e-002	0.	3.7282
71586	13.494	0.1	0.	7.5866
71587	13.444	0.1	5.e-002	1.2303
71588	13.444	5.e-002	0.	3.8688
71589	13.594	0.1	0.	7.8769
71590	13.544	0.1	5.e-002	1.2151
71591	13.544	5.e-002	0.	4.0128
71592	13.693	0.1	0.	8.1725
71593	13.644	0.1	5.e-002	1.1985
71594	13.644	5.e-002	0.	4.1594
71595	13.793	0.1	0.	8.4724
71596	13.743	0.1	5.e-002	1.1809
71597	13.743	5.e-002	0.	4.3082
71598	13.893	0.1	0.	8.7755
71599	13.843	0.1	5.e-002	1.1624
71600	13.843	5.e-002	0.	4.4588
71601	13.992	0.1	0.	9.081
71602	13.942	0.1	5.e-002	1.1434
71603	13.942	5.e-002	0.	4.6107
71604	14.092	0.1	0.	9.3881
71605	14.042	0.1	5.e-002	1.124
71606	14.042	5.e-002	0.	4.7634
71607	14.191	0.1	0.	9.6962
71608	14.142	0.1	5.e-002	1.1044
71609	14.142	5.e-002	0.	4.9167
71610	14.291	0.1	0.	10.005
71611	14.241	0.1	5.e-002	1.0847
71612	14.241	5.e-002	0.	5.0704
71613	14.39	0.1	0.	10.313
71614	14.341	0.1	5.e-002	1.065
71615	14.341	5.e-002	0.	5.2241
71616	14.49	0.1	0.	10.621
71617	14.44	0.1	5.e-002	1.0455
71618	14.44	5.e-002	0.	5.3776
71619	14.59	0.1	0.	10.928
71620	14.54	0.1	5.e-002	1.0262
71621	14.54	5.e-002	0.	5.5307
71622	14.689	0.1	0.	11.233
71623	14.639	0.1	5.e-002	1.0073
71624	14.639	5.e-002	0.	5.6833
71625	14.789	0.1	0.	11.537
71626	14.739	0.1	5.e-002	0.98875
71627	14.739	5.e-002	0.	5.8353
71628	14.888	0.1	0.	11.84
71629	14.839	0.1	5.e-002	0.97072
71630	14.839	5.e-002	0.	5.9865
71631	14.988	0.1	0.	12.14
71632	14.938	0.1	5.e-002	0.95319
71633	14.938	5.e-002	0.	6.1369
71634	15.088	0.1	0.	12.439
71635	15.038	0.1	5.e-002	0.9362
71636	15.038	5.e-002	0.	6.2864
71637	15.187	0.1	0.	12.735
71638	15.137	0.1	5.e-002	0.91979
71639	15.137	5.e-002	0.	6.4349
71640	15.287	0.1	0.	13.03
71641	15.237	0.1	5.e-002	0.90396
71642	15.237	5.e-002	0.	6.5825
71643	15.386	0.1	0.	13.322
71644	15.336	0.1	5.e-002	0.88882
71645	15.336	5.e-002	0.	6.729
71646	15.486	0.1	0.	13.612
71647	15.436	0.1	5.e-002	0.87428
71648	15.436	5.e-002	0.	6.8745
71649	15.585	0.1	0.	13.899
71650	15.536	0.1	5.e-002	0.86035
71651	15.536	5.e-002	0.	7.0189
71652	15.685	0.1	0.	14.185
71653	15.635	0.1	5.e-002	0.84705
71654	15.635	5.e-002	0.	7.1624
71655	15.785	0.1	0.	14.468
71656	15.735	0.1	5.e-002	0.8344
71657	15.735	5.e-002	0.	7.3049
71658	15.884	0.1	0.	14.749
71659	15.834	0.1	5.e-002	0.82242
71660	15.834	5.e-002	0.	7.4464
71661	15.984	0.1	0.	15.028
71662	15.934	0.1	5.e-002	0.81108
71663	15.934	5.e-002	0.	7.5869
71664	16.083	0.1	0.	15.305
71665	16.034	0.1	5.e-002	0.80036
71666	16.034	5.e-002	0.	7.7266
71667	16.183	0.1	0.	15.58
71668	16.133	0.1	5.e-002	0.79027
71669	16.133	5.e-002	0.	7.8654
71670	16.282	0.1	0.	15.853
71671	16.233	0.1	5.e-002	0.78086
71672	16.233	5.e-002	0.	8.0035
71673	16.382	0.1	0.	16.125
71674	16.332	0.1	5.e-002	0.77208
71675	16.332	5.e-002	0.	8.1407
71676	16.482	0.1	0.	16.395
71677	16.432	0.1	5.e-002	0.76397
71678	16.432	5.e-002	0.	8.2773
71679	16.581	0.1	0.	16.664
71680	16.531	0.1	5.e-002	0.75645
71681	16.531	5.e-002	0.	8.4132
71682	16.681	0.1	0.	16.931
71683	16.631	0.1	5.e-002	0.74959
71684	16.631	5.e-002	0.	8.5485
71685	16.78	0.1	0.	17.197
71686	16.731	0.1	5.e-002	0.74332
71687	16.731	5.e-002	0.	8.6833
71688	16.88	0.1	0.	17.461
71689	16.83	0.1	5.e-002	0.73774
71690	16.83	5.e-002	0.	8.8176
71691	16.98	0.1	0.	17.725
71692	16.93	0.1	5.e-002	0.73273
71693	16.93	5.e-002	0.	8.9515
71694	17.079	0.1	0.	17.987
71695	17.029	0.1	5.e-002	0.72829
71696	17.029	5.e-002	0.	9.085
71697	17.179	0.1	0.	18.249
71698	17.129	0.1	5.e-002	0.72446
71699	17.129	5.e-002	0.	9.2182
71700	17.278	0.1	0.	18.51
71701	17.229	0.1	5.e-002	0.72122
71702	17.229	5.e-002	0.	9.3512
71703	17.378	0.1	0.	18.77
71704	17.328	0.1	5.e-002	0.71858
71705	17.328	5.e-002	0.	9.484
71706	17.477	0.1	0.	19.03
71707	17.428	0.1	5.e-002	0.71651
71708	17.428	5.e-002	0.	9.6166
71709	17.577	0.1	0.	19.289
71710	17.527	0.1	5.e-002	0.71501
71711	17.527	5.e-002	0.	9.7491
71712	17.677	0.1	0.	19.548
71713	17.627	0.1	5.e-002	0.71412
71714	17.627	5.e-002	0.	9.8816
71715	17.776	0.1	0.	19.807
71716	17.726	0.1	5.e-002	0.71386
71717	17.726	5.e-002	0.	10.014
71718	17.876	0.1	0.	20.065
71719	17.826	0.1	5.e-002	0.71415
71720	17.826	5.e-002	0.	10.147
71721	17.975	0.1	0.	20.323
71722	17.926	0.1	5.e-002	0.71508
71723	17.926	5.e-002	0.	10.279
71724	18.075	0.1	0.	20.581
71725	18.025	0.1	5.e-002	0.71656
71726	18.025	5.e-002	0.	10.412
71727	18.175	0.1	0.	20.839
71728	18.125	0.1	5.e-002	0.71865
71729	18.125	5.e-002	0.	10.545
71730	18.274	0.1	0.	21.097
71731	18.224	0.1	5.e-002	0.72142
71732	18.224	5.e-002	0.	10.679
71733	18.374	0.1	0.	21.355
71734	18.324	0.1	5.e-002	0.72477
71735	18.324	5.e-002	0.	10.812
71736	18.473	0.1	0.	21.613
71737	18.423	0.1	5.e-002	0.7287
71738	18.423	5.e-002	0.	10.946
71739	18.573	0.1	0.	21.871
71740	18.523	0.1	5.e-002	0.73325
71741	18.523	5.e-002	0.	11.08
71742	18.672	0.1	0.	22.129
71743	18.623	0.1	5.e-002	0.73843
71744	18.623	5.e-002	0.	11.214
71745	18.772	0.1	0.	22.388
71746	18.722	0.1	5.e-002	0.74426
71747	18.722	5.e-002	0.	11.349
71748	18.872	0.1	0.	22.646
71749	18.822	0.1	5.e-002	0.75074
71750	18.822	5.e-002	0.	11.484
71751	18.971	0.1	0.	22.905
71752	18.921	0.1	5.e-002	0.75787
71753	18.921	5.e-002	0.	11.619
71754	19.071	0.1	0.	23.163
71755	19.021	0.1	5.e-002	0.76567
71756	19.021	5.e-002	0.	11.755
71757	19.17	0.1	0.	23.421
71758	19.121	0.1	5.e-002	0.77417
71759	19.121	5.e-002	0.	11.891
71760	19.27	0.1	0.	23.68
71761	19.22	0.1	5.e-002	0.78341
71762	19.22	5.e-002	0.	12.028
71763	19.369	0.1	0.	23.938
71764	19.32	0.1	5.e-002	0.79334
71765	19.32	5.e-002	0.	12.165
71766	19.469	0.1	0.	24.195
71767	19.419	0.1	5.e-002	0.80405
71768	19.419	5.e-002	0.	12.302
71769	19.569	0.1	0.	24.452
71770	19.519	0.1	5.e-002	0.81549
71771	19.519	5.e-002	0.	12.439
71772	19.668	0.1	0.	24.709
71773	19.618	0.1	5.e-002	0.82771
71774	19.618	5.e-002	0.	12.576
71775	19.768	0.1	0.	24.965
71776	19.718	0.1	5.e-002	0.84077
71777	19.718	5.e-002	0.	12.714
71778	19.867	0.1	0.	25.22
71779	19.818	0.1	5.e-002	0.85464
71780	19.818	5.e-002	0.	12.851
71781	19.967	0.1	0.	25.473
71782	19.917	0.1	5.e-002	0.86933
71783	19.917	5.e-002	0.	12.989
71784	20.067	0.1	0.	25.725
71785	20.017	0.1	5.e-002	0.8849
71786	20.017	5.e-002	0.	13.127
71787	20.166	0.1	0.	25.976
71788	20.116	0.1	5.e-002	0.90138
71789	20.116	5.e-002	0.	13.264
71790	20.266	0.1	0.	26.224
71791	20.216	0.1	5.e-002	0.91877
71792	20.216	5.e-002	0.	13.401
71793	20.365	0.1	0.	26.47
71794	20.316	0.1	5.e-002	0.9371
71795	20.316	5.e-002	0.	13.538
71796	20.465	0.1	0.	26.713
71797	20.415	0.1	5.e-002	0.95642
71798	20.415	5.e-002	0.	13.674
71799	20.564	0.1	0.	26.953
71800	20.515	0.1	5.e-002	0.97676
71801	20.515	5.e-002	0.	13.809
71802	20.664	0.1	0.	27.189
71803	20.614	0.1	5.e-002	0.99817
71804	20.614	5.e-002	0.	13.944
71805	20.764	0.1	0.	27.421
71806	20.714	0.1	5.e-002	1.0207
71807	20.714	5.e-002	0.	14.077
71808	20.863	0.1	0.	27.648
71809	20.813	0.1	5.e-002	1.0443
71810	20.813	5.e-002	0.	14.21
71811	20.963	0.1	0.	27.87
71812	20.913	0.1	5.e-002	1.0691
71813	20.913	5.e-002	0.	14.34
71814	21.062	0.1	0.	28.085
71815	21.013	0.1	5.e-002	1.095
71816	21.013	5.e-002	0.	14.469
71817	21.162	0.1	0.	28.294
71818	21.112	0.1	5.e-002	1.1223
71819	21.112	5.e-002	0.	14.596
71820	21.262	0.1	0.	28.495
71821	21.212	0.1	5.e-002	1.1508
71822	21.212	5.e-002	0.	14.72
71823	21.361	0.1	0.	28.687
71824	21.311	0.1	5.e-002	1.1807
71825	21.311	5.e-002	0.	14.842
71826	21.461	0.1	0.	28.87
71827	21.411	0.1	5.e-002	1.212
71828	21.411	5.e-002	0.	14.96
71829	21.56	0.1	0.	29.041
71830	21.51	0.1	5.e-002	1.2447
71831	21.51	5.e-002	0.	15.075
71832	21.66	0.1	0.	29.201
71833	21.61	0.1	5.e-002	1.2789
71834	21.61	5.e-002	0.	15.186
71835	21.759	0.1	0.	29.347
71836	21.71	0.1	5.e-002	1.3147
71837	21.71	5.e-002	0.	15.292
71838	21.859	0.1	0.	29.477
71839	21.809	0.1	5.e-002	1.3521
71840	21.809	5.e-002	0.	15.394
71841	21.959	0.1	0.	29.591
71842	21.909	0.1	5.e-002	1.3912
71843	21.909	5.e-002	0.	15.489
71844	22.058	0.1	0.	29.686
71845	22.008	0.1	5.e-002	1.4321
71846	22.008	5.e-002	0.	15.577
71847	22.158	0.1	0.	29.759
71848	22.108	0.1	5.e-002	1.4748
71849	22.108	5.e-002	0.	15.658
71850	22.257	0.1	0.	29.809
71851	22.208	0.1	5.e-002	1.5195
71852	22.208	5.e-002	0.	15.731
71853	22.357	0.1	0.	29.832
71854	22.307	0.1	5.e-002	1.5662
71855	22.307	5.e-002	0.	15.794
71856	22.456	0.1	0.	29.825
71857	22.407	0.1	5.e-002	1.6151
71858	22.407	5.e-002	0.	15.846
71859	22.556	0.1	0.	29.784
71860	22.506	0.1	5.e-002	1.6663
71861	22.506	5.e-002	0.	15.886
71862	22.656	0.1	0.	29.704
71863	22.606	0.1	5.e-002	1.7199
71864	22.606	5.e-002	0.	15.912
71865	22.755	0.1	0.	29.58
71866	22.705	0.1	5.e-002	1.776
71867	22.705	5.e-002	0.	15.921
71868	22.855	0.1	0.	29.406
71869	22.805	0.1	5.e-002	1.8349
71870	22.805	5.e-002	0.	15.912
71871	22.954	0.1	0.	29.174
71872	22.905	0.1	5.e-002	1.8969
71873	22.905	5.e-002	0.	15.881
71874	23.054	0.1	0.	28.874
71875	23.004	0.1	5.e-002	1.9621
71876	23.004	5.e-002	0.	15.825
71877	23.154	0.1	0.	28.494
71878	23.104	0.1	5.e-002	2.0309
71879	23.104	5.e-002	0.	15.739
71880	23.253	0.1	0.	28.02
71881	23.203	0.1	5.e-002	2.104
71882	23.203	5.e-002	0.	15.616
71883	23.353	0.1	0.	27.433
71884	23.303	0.1	5.e-002	2.1821
71885	23.303	5.e-002	0.	15.448
71886	23.452	0.1	0.	26.709
71887	23.403	0.1	5.e-002	2.2664
71888	23.403	5.e-002	0.	15.224
71889	23.552	0.1	0.	25.819
71890	23.502	0.1	5.e-002	2.3593
71891	23.502	5.e-002	0.	14.926
71892	23.651	0.1	0.	24.735
71893	23.602	0.1	5.e-002	2.4656
71894	23.602	5.e-002	0.	14.53
71895	23.751	0.1	0.	23.46
71896	23.701	0.1	5.e-002	2.5975
71897	23.701	5.e-002	0.	13.992
71898	23.851	0.1	0.	22.405
71899	23.801	0.1	5.e-002	2.7916
71900	23.801	5.e-002	0.	13.27
71901	23.9	0.1	5.e-002	3.2792
71902	23.9	5.e-002	0.	12.433
71903	23.95	0.1	0.	20.281
71904	23.851	0.1	0.1	30.204
71905	23.9	0.15	0.1	20.888
71906	23.95	0.1	0.1	11.033
71907	23.9	5.e-002	0.1	19.631
71908	23.751	0.1	0.1	49.378
71909	23.801	0.15	0.1	38.94
71910	23.801	5.e-002	0.1	36.217
71911	23.651	0.1	0.1	69.358
71912	23.701	0.15	0.1	58.376
71913	23.701	5.e-002	0.1	54.33
71914	23.552	0.1	0.1	89.686
71915	23.602	0.15	0.1	78.385
71916	23.602	5.e-002	0.1	73.239
71917	23.452	0.1	0.1	110.24
71918	23.502	0.15	0.1	98.723
71919	23.502	5.e-002	0.1	92.655
71920	23.353	0.1	0.1	130.96
71921	23.403	0.15	0.1	119.29
71922	23.403	5.e-002	0.1	112.45
71923	23.253	0.1	0.1	151.81
71924	23.303	0.15	0.1	140.02
71925	23.303	5.e-002	0.1	132.53
71926	23.154	0.1	0.1	172.77
71927	23.203	0.15	0.1	160.88
71928	23.203	5.e-002	0.1	152.84
71929	23.054	0.1	0.1	193.81
71930	23.104	0.15	0.1	181.84
71931	23.104	5.e-002	0.1	173.34
71932	22.954	0.1	0.1	214.94
71933	23.004	0.15	0.1	202.9
71934	23.004	5.e-002	0.1	194.
71935	22.855	0.1	0.1	236.13
71936	22.905	0.15	0.1	224.03
71937	22.905	5.e-002	0.1	214.79
71938	22.755	0.1	0.1	257.38
71939	22.805	0.15	0.1	245.23
71940	22.805	5.e-002	0.1	235.7
71941	22.656	0.1	0.1	278.69
71942	22.705	0.15	0.1	266.5
71943	22.705	5.e-002	0.1	256.71
71944	22.556	0.1	0.1	300.05
71945	22.606	0.15	0.1	287.81
71946	22.606	5.e-002	0.1	277.82
71947	22.456	0.1	0.1	321.45
71948	22.506	0.15	0.1	309.18
71949	22.506	5.e-002	0.1	299.
71950	22.357	0.1	0.1	342.9
71951	22.407	0.15	0.1	330.59
71952	22.407	5.e-002	0.1	320.26
71953	22.257	0.1	0.1	364.38
71954	22.307	0.15	0.1	352.05
71955	22.307	5.e-002	0.1	341.6
71956	22.158	0.1	0.1	385.91
71957	22.208	0.15	0.1	373.55
71958	22.208	5.e-002	0.1	362.99
71959	22.058	0.1	0.1	407.48
71960	22.108	0.15	0.1	395.08
71961	22.108	5.e-002	0.1	384.44
71962	21.959	0.1	0.1	429.08
71963	22.008	0.15	0.1	416.66
71964	22.008	5.e-002	0.1	405.96
71965	21.859	0.1	0.1	450.72
71966	21.909	0.15	0.1	438.28
71967	21.909	5.e-002	0.1	427.52
71968	21.759	0.1	0.1	472.4
71969	21.809	0.15	0.1	459.93
71970	21.809	5.e-002	0.1	449.14
71971	21.66	0.1	0.1	494.11
71972	21.71	0.15	0.1	481.63
71973	21.71	5.e-002	0.1	470.81
71974	21.56	0.1	0.1	515.86
71975	21.61	0.15	0.1	503.35
71976	21.61	5.e-002	0.1	492.52
71977	21.461	0.1	0.1	537.64
71978	21.51	0.15	0.1	525.12
71979	21.51	5.e-002	0.1	514.29
71980	21.361	0.1	0.1	559.47
71981	21.411	0.15	0.1	546.92
71982	21.411	5.e-002	0.1	536.1
71983	21.262	0.1	0.1	581.33
71984	21.311	0.15	0.1	568.76
71985	21.311	5.e-002	0.1	557.95
71986	21.162	0.1	0.1	603.22
71987	21.212	0.15	0.1	590.64
71988	21.212	5.e-002	0.1	579.86
71989	21.062	0.1	0.1	625.16
71990	21.112	0.15	0.1	612.56
71991	21.112	5.e-002	0.1	601.81
71992	20.963	0.1	0.1	647.13
71993	21.013	0.15	0.1	634.52
71994	21.013	5.e-002	0.1	623.8
71995	20.863	0.1	0.1	669.14
71996	20.913	0.15	0.1	656.51
71997	20.913	5.e-002	0.1	645.84
71998	20.764	0.1	0.1	691.2
71999	20.813	0.15	0.1	678.55
72000	20.813	5.e-002	0.1	667.92
72001	20.664	0.1	0.1	713.29
72002	20.714	0.15	0.1	700.62
72003	20.714	5.e-002	0.1	690.05
72004	20.564	0.1	0.1	735.42
72005	20.614	0.15	0.1	722.74
72006	20.614	5.e-002	0.1	712.23
72007	20.465	0.1	0.1	757.6
72008	20.515	0.15	0.1	744.9
72009	20.515	5.e-002	0.1	734.45
72010	20.365	0.1	0.1	779.81
72011	20.415	0.15	0.1	767.1
72012	20.415	5.e-002	0.1	756.72
72013	20.266	0.1	0.1	802.08
72014	20.316	0.15	0.1	789.35
72015	20.316	5.e-002	0.1	779.03
72016	20.166	0.1	0.1	824.38
72017	20.216	0.15	0.1	811.63
72018	20.216	5.e-002	0.1	801.39
72019	20.067	0.1	0.1	846.73
72020	20.116	0.15	0.1	833.97
72021	20.116	5.e-002	0.1	823.8
72022	19.967	0.1	0.1	869.12
72023	20.017	0.15	0.1	856.35
72024	20.017	5.e-002	0.1	846.25
72025	19.867	0.1	0.1	891.56
72026	19.917	0.15	0.1	878.77
72027	19.917	5.e-002	0.1	868.75
72028	19.768	0.1	0.1	914.05
72029	19.818	0.15	0.1	901.24
72030	19.818	5.e-002	0.1	891.3
72031	19.668	0.1	0.1	936.58
72032	19.718	0.15	0.1	923.76
72033	19.718	5.e-002	0.1	913.9
72034	19.569	0.1	0.1	959.17
72035	19.618	0.15	0.1	946.32
72036	19.618	5.e-002	0.1	936.55
72037	19.469	0.1	0.1	981.8
72038	19.519	0.15	0.1	968.93
72039	19.519	5.e-002	0.1	959.25
72040	19.369	0.1	0.1	1004.5
72041	19.419	0.15	0.1	991.6
72042	19.419	5.e-002	0.1	982.
72043	19.27	0.1	0.1	1027.2
72044	19.32	0.15	0.1	1014.3
72045	19.32	5.e-002	0.1	1004.8
72046	19.17	0.1	0.1	1050.
72047	19.22	0.15	0.1	1037.1
72048	19.22	5.e-002	0.1	1027.7
72049	19.071	0.1	0.1	1072.8
72050	19.121	0.15	0.1	1059.9
72051	19.121	5.e-002	0.1	1050.6
72052	18.971	0.1	0.1	1095.7
72053	19.021	0.15	0.1	1082.7
72054	19.021	5.e-002	0.1	1073.5
72055	18.872	0.1	0.1	1118.6
72056	18.921	0.15	0.1	1105.7
72057	18.921	5.e-002	0.1	1096.5
72058	18.772	0.1	0.1	1141.6
72059	18.822	0.15	0.1	1128.6
72060	18.822	5.e-002	0.1	1119.6
72061	18.672	0.1	0.1	1164.6
72062	18.722	0.15	0.1	1151.6
72063	18.722	5.e-002	0.1	1142.7
72064	18.573	0.1	0.1	1187.7
72065	18.623	0.15	0.1	1174.7
72066	18.623	5.e-002	0.1	1165.9
72067	18.473	0.1	0.1	1210.9
72068	18.523	0.15	0.1	1197.8
72069	18.523	5.e-002	0.1	1189.1
72070	18.374	0.1	0.1	1234.1
72071	18.423	0.15	0.1	1221.
72072	18.423	5.e-002	0.1	1212.4
72073	18.274	0.1	0.1	1257.3
72074	18.324	0.15	0.1	1244.3
72075	18.324	5.e-002	0.1	1235.7
72076	18.175	0.1	0.1	1280.6
72077	18.224	0.15	0.1	1267.5
72078	18.224	5.e-002	0.1	1259.1
72079	18.075	0.1	0.1	1304.
72080	18.125	0.15	0.1	1290.9
72081	18.125	5.e-002	0.1	1282.5
72082	17.975	0.1	0.1	1327.4
72083	18.025	0.15	0.1	1314.3
72084	18.025	5.e-002	0.1	1306.
72085	17.876	0.1	0.1	1350.9
72086	17.926	0.15	0.1	1337.8
72087	17.926	5.e-002	0.1	1329.6
72088	17.776	0.1	0.1	1374.4
72089	17.826	0.15	0.1	1361.3
72090	17.826	5.e-002	0.1	1353.2
72091	17.677	0.1	0.1	1398.
72092	17.726	0.15	0.1	1384.8
72093	17.726	5.e-002	0.1	1376.9
72094	17.577	0.1	0.1	1421.7
72095	17.627	0.15	0.1	1408.5
72096	17.627	5.e-002	0.1	1400.6
72097	17.477	0.1	0.1	1445.4
72098	17.527	0.15	0.1	1432.2
72099	17.527	5.e-002	0.1	1424.4
72100	17.378	0.1	0.1	1469.2
72101	17.428	0.15	0.1	1455.9
72102	17.428	5.e-002	0.1	1448.2
72103	17.278	0.1	0.1	1493.
72104	17.328	0.15	0.1	1479.7
72105	17.328	5.e-002	0.1	1472.1
72106	17.179	0.1	0.1	1516.9
72107	17.229	0.15	0.1	1503.6
72108	17.229	5.e-002	0.1	1496.1
72109	17.079	0.1	0.1	1540.8
72110	17.129	0.15	0.1	1527.5
72111	17.129	5.e-002	0.1	1520.1
72112	16.98	0.1	0.1	1564.8
72113	17.029	0.15	0.1	1551.5
72114	17.029	5.e-002	0.1	1544.2
72115	16.88	0.1	0.1	1588.9
72116	16.93	0.15	0.1	1575.5
72117	16.93	5.e-002	0.1	1568.3
72118	16.78	0.1	0.1	1613.
72119	16.83	0.15	0.1	1599.6
72120	16.83	5.e-002	0.1	1592.5
72121	16.681	0.1	0.1	1637.2
72122	16.731	0.15	0.1	1623.8
72123	16.731	5.e-002	0.1	1616.8
72124	16.581	0.1	0.1	1661.4
72125	16.631	0.15	0.1	1648.
72126	16.631	5.e-002	0.1	1641.1
72127	16.482	0.1	0.1	1685.7
72128	16.531	0.15	0.1	1672.3
72129	16.531	5.e-002	0.1	1665.5
72130	16.382	0.1	0.1	1710.1
72131	16.432	0.15	0.1	1696.6
72132	16.432	5.e-002	0.1	1689.9
72133	16.282	0.1	0.1	1734.5
72134	16.332	0.15	0.1	1721.
72135	16.332	5.e-002	0.1	1714.5
72136	16.183	0.1	0.1	1759.
72137	16.233	0.15	0.1	1745.5
72138	16.233	5.e-002	0.1	1739.
72139	16.083	0.1	0.1	1783.6
72140	16.133	0.15	0.1	1770.
72141	16.133	5.e-002	0.1	1763.7
72142	15.984	0.1	0.1	1808.2
72143	16.034	0.15	0.1	1794.6
72144	16.034	5.e-002	0.1	1788.3
72145	15.884	0.1	0.1	1832.8
72146	15.934	0.15	0.1	1819.2
72147	15.934	5.e-002	0.1	1813.1
72148	15.785	0.1	0.1	1857.6
72149	15.834	0.15	0.1	1843.9
72150	15.834	5.e-002	0.1	1837.9
72151	15.685	0.1	0.1	1882.4
72152	15.735	0.15	0.1	1868.7
72153	15.735	5.e-002	0.1	1862.8
72154	15.585	0.1	0.1	1907.2
72155	15.635	0.15	0.1	1893.5
72156	15.635	5.e-002	0.1	1887.7
72157	15.486	0.1	0.1	1932.1
72158	15.536	0.15	0.1	1918.4
72159	15.536	5.e-002	0.1	1912.8
72160	15.386	0.1	0.1	1957.1
72161	15.436	0.15	0.1	1943.4
72162	15.436	5.e-002	0.1	1937.8
72163	15.287	0.1	0.1	1982.1
72164	15.336	0.15	0.1	1968.4
72165	15.336	5.e-002	0.1	1962.9
72166	15.187	0.1	0.1	2007.2
72167	15.237	0.15	0.1	1993.4
72168	15.237	5.e-002	0.1	1988.1
72169	15.088	0.1	0.1	2032.4
72170	15.137	0.15	0.1	2018.6
72171	15.137	5.e-002	0.1	2013.4
72172	14.988	0.1	0.1	2057.6
72173	15.038	0.15	0.1	2043.8
72174	15.038	5.e-002	0.1	2038.7
72175	14.888	0.1	0.1	2082.9
72176	14.938	0.15	0.1	2069.
72177	14.938	5.e-002	0.1	2064.
72178	14.789	0.1	0.1	2108.2
72179	14.839	0.15	0.1	2094.3
72180	14.839	5.e-002	0.1	2089.5
72181	14.689	0.1	0.1	2133.6
72182	14.739	0.15	0.1	2119.6
72183	14.739	5.e-002	0.1	2114.9
72184	14.59	0.1	0.1	2159.
72185	14.639	0.15	0.1	2145.1
72186	14.639	5.e-002	0.1	2140.5
72187	14.49	0.1	0.1	2184.5
72188	14.54	0.15	0.1	2170.5
72189	14.54	5.e-002	0.1	2166.
72190	14.39	0.1	0.1	2210.
72191	14.44	0.15	0.1	2196.
72192	14.44	5.e-002	0.1	2191.7
72193	14.291	0.1	0.1	2235.6
72194	14.341	0.15	0.1	2221.6
72195	14.341	5.e-002	0.1	2217.3
72196	14.191	0.1	0.1	2261.2
72197	14.241	0.15	0.1	2247.1
72198	14.241	5.e-002	0.1	2243.
72199	14.092	0.1	0.1	2286.8
72200	14.142	0.15	0.1	2272.8
72201	14.142	5.e-002	0.1	2268.8
72202	13.992	0.1	0.1	2312.4
72203	14.042	0.15	0.1	2298.4
72204	14.042	5.e-002	0.1	2294.5
72205	13.893	0.1	0.1	2338.1
72206	13.942	0.15	0.1	2324.1
72207	13.942	5.e-002	0.1	2320.3
72208	13.793	0.1	0.1	2363.8
72209	13.843	0.15	0.1	2349.8
72210	13.843	5.e-002	0.1	2346.2
72211	13.693	0.1	0.1	2389.5
72212	13.743	0.15	0.1	2375.5
72213	13.743	5.e-002	0.1	2372.
72214	13.594	0.1	0.1	2415.2
72215	13.644	0.15	0.1	2401.2
72216	13.644	5.e-002	0.1	2397.8
72217	13.494	0.1	0.1	2440.9
72218	13.544	0.15	0.1	2426.9
72219	13.544	5.e-002	0.1	2423.6
72220	13.395	0.1	0.1	2466.6
72221	13.444	0.15	0.1	2452.6
72222	13.444	5.e-002	0.1	2449.4
72223	13.295	0.1	0.1	2492.2
72224	13.345	0.15	0.1	2478.3
72225	13.345	5.e-002	0.1	2475.2
72226	13.195	0.1	0.1	2517.8
72227	13.245	0.15	0.1	2503.9
72228	13.245	5.e-002	0.1	2500.9
72229	13.096	0.1	0.1	2543.2
72230	13.146	0.15	0.1	2529.4
72231	13.146	5.e-002	0.1	2526.5
72232	12.996	0.1	0.1	2568.6
72233	13.046	0.15	0.1	2554.9
72234	13.046	5.e-002	0.1	2552.1
72235	12.897	0.1	0.1	2593.9
72236	12.947	0.15	0.1	2580.2
72237	12.947	5.e-002	0.1	2577.5
72238	12.797	0.1	0.1	2619.
72239	12.847	0.15	0.1	2605.5
72240	12.847	5.e-002	0.1	2602.8
72241	12.698	0.1	0.1	2643.9
72242	12.747	0.15	0.1	2630.5
72243	12.747	5.e-002	0.1	2627.9
72244	12.598	0.1	0.1	2668.6
72245	12.648	0.15	0.1	2655.4
72246	12.648	5.e-002	0.1	2652.8
72247	12.498	0.1	0.1	2693.
72248	12.548	0.15	0.1	2680.
72249	12.548	5.e-002	0.1	2677.5
72250	12.399	0.1	0.1	2717.2
72251	12.449	0.15	0.1	2704.3
72252	12.449	5.e-002	0.1	2701.8
72253	12.299	0.1	0.1	2740.9
72254	12.349	0.15	0.1	2728.3
72255	12.349	5.e-002	0.1	2725.9
72256	12.2	0.1	0.1	2764.2
72257	12.249	0.15	0.1	2751.9
72258	12.249	5.e-002	0.1	2749.5
72259	12.1	0.1	0.1	2787.
72260	12.15	0.15	0.1	2775.1
72261	12.15	5.e-002	0.1	2772.6
72262	12.001	0.1	0.1	2809.2
72263	12.05	0.15	0.1	2797.7
72264	12.05	5.e-002	0.1	2795.2
72265	11.901	0.1	0.1	2830.8
72266	11.951	0.15	0.1	2819.7
72267	11.951	5.e-002	0.1	2817.1
72268	11.801	0.1	0.1	2851.6
72269	11.851	0.15	0.1	2841.
72270	11.851	5.e-002	0.1	2838.3
72271	11.702	0.1	0.1	2871.4
72272	11.752	0.15	0.1	2861.5
72273	11.752	5.e-002	0.1	2858.6
72274	11.602	0.1	0.1	2890.3
72275	11.652	0.15	0.1	2881.
72276	11.652	5.e-002	0.1	2878.
72277	11.503	0.1	0.1	2907.9
72278	11.552	0.15	0.1	2899.5
72279	11.552	5.e-002	0.1	2896.2
72280	11.403	0.1	0.1	2924.2
72281	11.453	0.15	0.1	2916.7
72282	11.453	5.e-002	0.1	2913.2
72283	11.303	0.1	0.1	2939.
72284	11.353	0.15	0.1	2932.5
72285	11.353	5.e-002	0.1	2928.7
72286	11.204	0.1	0.1	2952.
72287	11.254	0.15	0.1	2946.6
72288	11.254	5.e-002	0.1	2942.5
72289	11.104	0.1	0.1	2963.1
72290	11.154	0.15	0.1	2959.
72291	11.154	5.e-002	0.1	2954.4
72292	11.005	0.1	0.1	2971.8
72293	11.055	0.15	0.1	2969.2
72294	11.055	5.e-002	0.1	2964.2
72295	10.905	0.1	0.1	2978.
72296	10.955	0.15	0.1	2977.1
72297	10.955	5.e-002	0.1	2971.5
72298	10.806	0.1	0.1	2981.4
72299	10.855	0.15	0.1	2982.3
72300	10.855	5.e-002	0.1	2976.1
72301	10.706	0.1	0.1	2981.4
72302	10.756	0.15	0.1	2984.5
72303	10.756	5.e-002	0.1	2977.5
72304	10.606	0.1	0.1	2977.8
72305	10.656	0.15	0.1	2983.2
72306	10.656	5.e-002	0.1	2975.4
72307	10.507	0.1	0.1	2970.1
72308	10.557	0.15	0.1	2978.1
72309	10.557	5.e-002	0.1	2969.4
72310	10.407	0.1	0.1	2957.8
72311	10.457	0.15	0.1	2968.7
72312	10.457	5.e-002	0.1	2958.9
72313	10.308	0.1	0.1	2940.2
72314	10.357	0.15	0.1	2954.5
72315	10.357	5.e-002	0.1	2943.4
72316	10.208	0.1	0.1	2917.
72317	10.258	0.15	0.1	2934.8
72318	10.258	5.e-002	0.1	2922.3
72319	10.108	0.1	0.1	2887.3
72320	10.158	0.15	0.1	2909.1
72321	10.158	5.e-002	0.1	2895.
72322	10.009	0.1	0.1	2850.5
72323	10.059	0.15	0.1	2876.7
72324	10.059	5.e-002	0.1	2860.9
72325	9.9093	0.1	0.1	2805.9
72326	9.9591	0.15	0.1	2836.9
72327	9.9591	5.e-002	0.1	2819.
72328	9.8097	0.1	0.1	2752.7
72329	9.8595	0.15	0.1	2788.9
72330	9.8595	5.e-002	0.1	2768.8
72331	9.7102	0.1	0.1	2690.
72332	9.76	0.15	0.1	2731.9
72333	9.76	5.e-002	0.1	2709.3
72334	9.6106	0.1	0.1	2617.2
72335	9.6604	0.15	0.1	2665.2
72336	9.6604	5.e-002	0.1	2639.7
72337	9.511	0.1	0.1	2533.3
72338	9.5608	0.15	0.1	2587.8
72339	9.5608	5.e-002	0.1	2559.2
72340	9.4114	0.1	0.1	2437.6
72341	9.4612	0.15	0.1	2498.9
72342	9.4612	5.e-002	0.1	2466.9
72343	9.3118	0.1	0.1	2329.3
72344	9.3616	0.15	0.1	2397.8
72345	9.3616	5.e-002	0.1	2361.9
72346	9.2123	0.1	0.1	2207.7
72347	9.2621	0.15	0.1	2283.7
72348	9.2621	5.e-002	0.1	2243.7
72349	9.1127	0.1	0.1	2072.4
72350	9.1625	0.15	0.1	2156.
72351	9.1625	5.e-002	0.1	2111.5
72352	9.0131	0.1	0.1	1922.8
72353	9.0629	0.15	0.1	2014.3
72354	9.0629	5.e-002	0.1	1964.9
72355	8.9135	0.1	0.1	1758.8
72356	8.9633	0.15	0.1	1858.2
72357	8.9633	5.e-002	0.1	1803.5
72358	8.8139	0.1	0.1	1580.4
72359	8.8637	0.15	0.1	1687.7
72360	8.8637	5.e-002	0.1	1627.3
72361	8.7144	0.1	0.1	1387.6
72362	8.7642	0.15	0.1	1503.1
72363	8.7642	5.e-002	0.1	1436.4
72364	8.6148	0.1	0.1	1181.1
72365	8.6646	0.15	0.1	1305.2
72366	8.6646	5.e-002	0.1	1231.2
72367	8.5152	0.1	0.1	961.48
72368	8.565	0.15	0.1	1095.2
72369	8.565	5.e-002	0.1	1012.2
72370	8.4156	0.1	0.1	730.13
72371	8.4654	0.15	0.1	876.37
72372	8.4654	5.e-002	0.1	779.92
72373	8.316	0.1	0.1	496.04
72374	8.3658	0.15	0.1	656.16
72375	8.3658	5.e-002	0.1	534.26
72376	8.2662	0.15	0.1	471.16
72377	8.2165	0.1	0.1	252.19
72378	8.2662	5.e-002	0.1	284.
72379	23.851	0.2	0.1	30.112
72380	23.9	0.25	0.1	21.538
72381	23.95	0.2	0.1	11.527
72382	23.751	0.2	0.1	48.467
72383	23.801	0.25	0.1	39.321
72384	23.651	0.2	0.1	67.861
72385	23.701	0.25	0.1	58.266
72386	23.552	0.2	0.1	87.808
72387	23.602	0.25	0.1	77.877
72388	23.452	0.2	0.1	108.1
72389	23.502	0.25	0.1	97.923
72390	23.353	0.2	0.1	128.63
72391	23.403	0.25	0.1	118.27
72392	23.253	0.2	0.1	149.34
72393	23.303	0.25	0.1	138.84
72394	23.154	0.2	0.1	170.18
72395	23.203	0.25	0.1	159.57
72396	23.054	0.2	0.1	191.14
72397	23.104	0.25	0.1	180.44
72398	22.954	0.2	0.1	212.19
72399	23.004	0.25	0.1	201.42
72400	22.855	0.2	0.1	233.32
72401	22.905	0.25	0.1	222.48
72402	22.755	0.2	0.1	254.52
72403	22.805	0.25	0.1	243.63
72404	22.656	0.2	0.1	275.78
72405	22.705	0.25	0.1	264.84
72406	22.556	0.2	0.1	297.1
72407	22.606	0.25	0.1	286.11
72408	22.456	0.2	0.1	318.46
72409	22.506	0.25	0.1	307.44
72410	22.357	0.2	0.1	339.88
72411	22.407	0.25	0.1	328.82
72412	22.257	0.2	0.1	361.34
72413	22.307	0.25	0.1	350.25
72414	22.158	0.2	0.1	382.85
72415	22.208	0.25	0.1	371.73
72416	22.058	0.2	0.1	404.4
72417	22.108	0.25	0.1	393.24
72418	21.959	0.2	0.1	425.98
72419	22.008	0.25	0.1	414.8
72420	21.859	0.2	0.1	447.61
72421	21.909	0.25	0.1	436.4
72422	21.759	0.2	0.1	469.28
72423	21.809	0.25	0.1	458.04
72424	21.66	0.2	0.1	490.98
72425	21.71	0.25	0.1	479.72
72426	21.56	0.2	0.1	512.73
72427	21.61	0.25	0.1	501.43
72428	21.461	0.2	0.1	534.51
72429	21.51	0.25	0.1	523.19
72430	21.361	0.2	0.1	556.33
72431	21.411	0.25	0.1	544.99
72432	21.262	0.2	0.1	578.19
72433	21.311	0.25	0.1	566.82
72434	21.162	0.2	0.1	600.08
72435	21.212	0.25	0.1	588.69
72436	21.062	0.2	0.1	622.02
72437	21.112	0.25	0.1	610.6
72438	20.963	0.2	0.1	644.
72439	21.013	0.25	0.1	632.55
72440	20.863	0.2	0.1	666.01
72441	20.913	0.25	0.1	654.55
72442	20.764	0.2	0.1	688.07
72443	20.813	0.25	0.1	676.58
72444	20.664	0.2	0.1	710.17
72445	20.714	0.25	0.1	698.65
72446	20.564	0.2	0.1	732.31
72447	20.614	0.25	0.1	720.77
72448	20.465	0.2	0.1	754.49
72449	20.515	0.25	0.1	742.93
72450	20.365	0.2	0.1	776.72
72451	20.415	0.25	0.1	765.13
72452	20.266	0.2	0.1	798.99
72453	20.316	0.25	0.1	787.38
72454	20.166	0.2	0.1	821.31
72455	20.216	0.25	0.1	809.67
72456	20.067	0.2	0.1	843.67
72457	20.116	0.25	0.1	832.
72458	19.967	0.2	0.1	866.07
72459	20.017	0.25	0.1	854.38
72460	19.867	0.2	0.1	888.53
72461	19.917	0.25	0.1	876.81
72462	19.768	0.2	0.1	911.03
72463	19.818	0.25	0.1	899.28
72464	19.668	0.2	0.1	933.57
72465	19.718	0.25	0.1	921.8
72466	19.569	0.2	0.1	956.17
72467	19.618	0.25	0.1	944.37
72468	19.469	0.2	0.1	978.81
72469	19.519	0.25	0.1	966.99
72470	19.369	0.2	0.1	1001.5
72471	19.419	0.25	0.1	989.65
72472	19.27	0.2	0.1	1024.2
72473	19.32	0.25	0.1	1012.4
72474	19.17	0.2	0.1	1047.
72475	19.22	0.25	0.1	1035.1
72476	19.071	0.2	0.1	1069.9
72477	19.121	0.25	0.1	1058.
72478	18.971	0.2	0.1	1092.8
72479	19.021	0.25	0.1	1080.8
72480	18.872	0.2	0.1	1115.7
72481	18.921	0.25	0.1	1103.7
72482	18.772	0.2	0.1	1138.7
72483	18.822	0.25	0.1	1126.7
72484	18.672	0.2	0.1	1161.8
72485	18.722	0.25	0.1	1149.7
72486	18.573	0.2	0.1	1184.9
72487	18.623	0.25	0.1	1172.8
72488	18.473	0.2	0.1	1208.1
72489	18.523	0.25	0.1	1195.9
72490	18.374	0.2	0.1	1231.3
72491	18.423	0.25	0.1	1219.1
72492	18.274	0.2	0.1	1254.5
72493	18.324	0.25	0.1	1242.4
72494	18.175	0.2	0.1	1277.9
72495	18.224	0.25	0.1	1265.7
72496	18.075	0.2	0.1	1301.2
72497	18.125	0.25	0.1	1289.
72498	17.975	0.2	0.1	1324.7
72499	18.025	0.25	0.1	1312.4
72500	17.876	0.2	0.1	1348.2
72501	17.926	0.25	0.1	1335.9
72502	17.776	0.2	0.1	1371.7
72503	17.826	0.25	0.1	1359.4
72504	17.677	0.2	0.1	1395.3
72505	17.726	0.25	0.1	1383.
72506	17.577	0.2	0.1	1419.
72507	17.627	0.25	0.1	1406.6
72508	17.477	0.2	0.1	1442.7
72509	17.527	0.25	0.1	1430.3
72510	17.378	0.2	0.1	1466.5
72511	17.428	0.25	0.1	1454.1
72512	17.278	0.2	0.1	1490.3
72513	17.328	0.25	0.1	1477.9
72514	17.179	0.2	0.1	1514.2
72515	17.229	0.25	0.1	1501.7
72516	17.079	0.2	0.1	1538.2
72517	17.129	0.25	0.1	1525.7
72518	16.98	0.2	0.1	1562.2
72519	17.029	0.25	0.1	1549.6
72520	16.88	0.2	0.1	1586.3
72521	16.93	0.25	0.1	1573.7
72522	16.78	0.2	0.1	1610.4
72523	16.83	0.25	0.1	1597.8
72524	16.681	0.2	0.1	1634.6
72525	16.731	0.25	0.1	1621.9
72526	16.581	0.2	0.1	1658.9
72527	16.631	0.25	0.1	1646.2
72528	16.482	0.2	0.1	1683.2
72529	16.531	0.25	0.1	1670.4
72530	16.382	0.2	0.1	1707.5
72531	16.432	0.25	0.1	1694.8
72532	16.282	0.2	0.1	1732.
72533	16.332	0.25	0.1	1719.2
72534	16.183	0.2	0.1	1756.5
72535	16.233	0.25	0.1	1743.7
72536	16.083	0.2	0.1	1781.
72537	16.133	0.25	0.1	1768.2
72538	15.984	0.2	0.1	1805.7
72539	16.034	0.25	0.1	1792.8
72540	15.884	0.2	0.1	1830.3
72541	15.934	0.25	0.1	1817.4
72542	15.785	0.2	0.1	1855.1
72543	15.834	0.25	0.1	1842.1
72544	15.685	0.2	0.1	1879.9
72545	15.735	0.25	0.1	1866.9
72546	15.585	0.2	0.1	1904.8
72547	15.635	0.25	0.1	1891.7
72548	15.486	0.2	0.1	1929.7
72549	15.536	0.25	0.1	1916.6
72550	15.386	0.2	0.1	1954.7
72551	15.436	0.25	0.1	1941.5
72552	15.287	0.2	0.1	1979.7
72553	15.336	0.25	0.1	1966.6
72554	15.187	0.2	0.1	2004.8
72555	15.237	0.25	0.1	1991.6
72556	15.088	0.2	0.1	2030.
72557	15.137	0.25	0.1	2016.7
72558	14.988	0.2	0.1	2055.2
72559	15.038	0.25	0.1	2041.9
72560	14.888	0.2	0.1	2080.5
72561	14.938	0.25	0.1	2067.2
72562	14.789	0.2	0.1	2105.8
72563	14.839	0.25	0.1	2092.5
72564	14.689	0.2	0.1	2131.2
72565	14.739	0.25	0.1	2117.8
72566	14.59	0.2	0.1	2156.6
72567	14.639	0.25	0.1	2143.2
72568	14.49	0.2	0.1	2182.1
72569	14.54	0.25	0.1	2168.7
72570	14.39	0.2	0.1	2207.6
72571	14.44	0.25	0.1	2194.2
72572	14.291	0.2	0.1	2233.2
72573	14.341	0.25	0.1	2219.7
72574	14.191	0.2	0.1	2258.8
72575	14.241	0.25	0.1	2245.3
72576	14.092	0.2	0.1	2284.4
72577	14.142	0.25	0.1	2270.9
72578	13.992	0.2	0.1	2310.1
72579	14.042	0.25	0.1	2296.6
72580	13.893	0.2	0.1	2335.8
72581	13.942	0.25	0.1	2322.2
72582	13.793	0.2	0.1	2361.5
72583	13.843	0.25	0.1	2348.
72584	13.693	0.2	0.1	2387.2
72585	13.743	0.25	0.1	2373.7
72586	13.594	0.2	0.1	2412.9
72587	13.644	0.25	0.1	2399.4
72588	13.494	0.2	0.1	2438.7
72589	13.544	0.25	0.1	2425.1
72590	13.395	0.2	0.1	2464.3
72591	13.444	0.25	0.1	2450.8
72592	13.295	0.2	0.1	2490.
72593	13.345	0.25	0.1	2476.5
72594	13.195	0.2	0.1	2515.6
72595	13.245	0.25	0.1	2502.1
72596	13.096	0.2	0.1	2541.1
72597	13.146	0.25	0.1	2527.7
72598	12.996	0.2	0.1	2566.5
72599	13.046	0.25	0.1	2553.2
72600	12.897	0.2	0.1	2591.8
72601	12.947	0.25	0.1	2578.6
72602	12.797	0.2	0.1	2617.
72603	12.847	0.25	0.1	2603.9
72604	12.698	0.2	0.1	2642.
72605	12.747	0.25	0.1	2629.
72606	12.598	0.2	0.1	2666.8
72607	12.648	0.25	0.1	2653.9
72608	12.498	0.2	0.1	2691.3
72609	12.548	0.25	0.1	2678.6
72610	12.399	0.2	0.1	2715.5
72611	12.449	0.25	0.1	2703.1
72612	12.299	0.2	0.1	2739.4
72613	12.349	0.25	0.1	2727.2
72614	12.2	0.2	0.1	2762.8
72615	12.249	0.25	0.1	2750.9
72616	12.1	0.2	0.1	2785.8
72617	12.15	0.25	0.1	2774.2
72618	12.001	0.2	0.1	2808.2
72619	12.05	0.25	0.1	2797.
72620	11.901	0.2	0.1	2830.
72621	11.951	0.25	0.1	2819.3
72622	11.801	0.2	0.1	2851.
72623	11.851	0.25	0.1	2840.8
72624	11.702	0.2	0.1	2871.1
72625	11.752	0.25	0.1	2861.5
72626	11.602	0.2	0.1	2890.2
72627	11.652	0.25	0.1	2881.4
72628	11.503	0.2	0.1	2908.2
72629	11.552	0.25	0.1	2900.2
72630	11.403	0.2	0.1	2924.9
72631	11.453	0.25	0.1	2917.8
72632	11.303	0.2	0.1	2940.1
72633	11.353	0.25	0.1	2934.
72634	11.204	0.2	0.1	2953.6
72635	11.254	0.25	0.1	2948.7
72636	11.104	0.2	0.1	2965.2
72637	11.154	0.25	0.1	2961.6
72638	11.005	0.2	0.1	2974.5
72639	11.055	0.25	0.1	2972.4
72640	10.905	0.2	0.1	2981.4
72641	10.955	0.25	0.1	2981.
72642	10.806	0.2	0.1	2985.4
72643	10.855	0.25	0.1	2987.
72644	10.706	0.2	0.1	2986.3
72645	10.756	0.25	0.1	2990.
72646	10.606	0.2	0.1	2983.5
72647	10.656	0.25	0.1	2989.7
72648	10.507	0.2	0.1	2976.7
72649	10.557	0.25	0.1	2985.7
72650	10.407	0.2	0.1	2965.4
72651	10.457	0.25	0.1	2977.4
72652	10.308	0.2	0.1	2949.
72653	10.357	0.25	0.1	2964.4
72654	10.208	0.2	0.1	2926.9
72655	10.258	0.25	0.1	2946.1
72656	10.108	0.2	0.1	2898.5
72657	10.158	0.25	0.1	2921.9
72658	10.009	0.2	0.1	2863.1
72659	10.059	0.25	0.1	2891.1
72660	9.9093	0.2	0.1	2819.9
72661	9.9591	0.25	0.1	2853.
72662	9.8097	0.2	0.1	2768.1
72663	9.8595	0.25	0.1	2806.8
72664	9.7102	0.2	0.1	2707.
72665	9.76	0.25	0.1	2751.7
72666	9.6106	0.2	0.1	2635.6
72667	9.6604	0.25	0.1	2686.9
72668	9.511	0.2	0.1	2553.2
72669	9.5608	0.25	0.1	2611.5
72670	9.4114	0.2	0.1	2459.
72671	9.4612	0.25	0.1	2524.7
72672	9.3118	0.2	0.1	2352.
72673	9.3616	0.25	0.1	2425.7
72674	9.2123	0.2	0.1	2231.8
72675	9.2621	0.25	0.1	2313.7
72676	9.1127	0.2	0.1	2097.7
72677	9.1625	0.25	0.1	2188.1
72678	9.0131	0.2	0.1	1949.4
72679	9.0629	0.25	0.1	2048.6
72680	8.9135	0.2	0.1	1786.9
72681	8.9633	0.25	0.1	1894.9
72682	8.8139	0.2	0.1	1610.3
72683	8.8637	0.25	0.1	1727.3
72684	8.7144	0.2	0.1	1420.5
72685	8.7642	0.25	0.1	1546.6
72686	8.6148	0.2	0.1	1219.2
72687	8.6646	0.25	0.1	1354.5
72688	8.5152	0.2	0.1	1010.
72689	8.565	0.25	0.1	1154.6
72690	8.4156	0.2	0.1	801.2
72691	8.4654	0.25	0.1	954.05
72692	8.316	0.2	0.1	621.05
72693	8.3658	0.25	0.1	768.51
72694	8.2662	0.25	0.1	644.2
72695	8.2165	0.2	0.1	407.69
72696	23.851	0.3	0.1	30.813
72697	23.9	0.35	0.1	21.988
72698	23.95	0.3	0.1	11.853
72699	23.751	0.3	0.1	49.265
72700	23.801	0.35	0.1	40.199
72701	23.651	0.3	0.1	68.452
72702	23.701	0.35	0.1	59.135
72703	23.552	0.3	0.1	88.157
72704	23.602	0.35	0.1	78.578
72705	23.452	0.3	0.1	108.24
72706	23.502	0.35	0.1	98.432
72707	23.353	0.3	0.1	128.61
72708	23.403	0.35	0.1	118.61
72709	23.253	0.3	0.1	149.19
72710	23.303	0.35	0.1	139.02
72711	23.154	0.3	0.1	169.94
72712	23.203	0.35	0.1	159.64
72713	23.054	0.3	0.1	190.81
72714	23.104	0.35	0.1	180.4
72715	22.954	0.3	0.1	211.79
72716	23.004	0.35	0.1	201.29
72717	22.855	0.3	0.1	232.87
72718	22.905	0.35	0.1	222.28
72719	22.755	0.3	0.1	254.02
72720	22.805	0.35	0.1	243.36
72721	22.656	0.3	0.1	275.24
72722	22.705	0.35	0.1	264.52
72723	22.556	0.3	0.1	296.52
72724	22.606	0.35	0.1	285.75
72725	22.456	0.3	0.1	317.85
72726	22.506	0.35	0.1	307.04
72727	22.357	0.3	0.1	339.24
72728	22.407	0.35	0.1	328.38
72729	22.257	0.3	0.1	360.68
72730	22.307	0.35	0.1	349.77
72731	22.158	0.3	0.1	382.16
72732	22.208	0.35	0.1	371.22
72733	22.058	0.3	0.1	403.69
72734	22.108	0.35	0.1	392.7
72735	21.959	0.3	0.1	425.26
72736	22.008	0.35	0.1	414.24
72737	21.859	0.3	0.1	446.86
72738	21.909	0.35	0.1	435.81
72739	21.759	0.3	0.1	468.51
72740	21.809	0.35	0.1	457.43
72741	21.66	0.3	0.1	490.2
72742	21.71	0.35	0.1	479.09
72743	21.56	0.3	0.1	511.93
72744	21.61	0.35	0.1	500.78
72745	21.461	0.3	0.1	533.7
72746	21.51	0.35	0.1	522.52
72747	21.361	0.3	0.1	555.5
72748	21.411	0.35	0.1	544.3
72749	21.262	0.3	0.1	577.35
72750	21.311	0.35	0.1	566.11
72751	21.162	0.3	0.1	599.24
72752	21.212	0.35	0.1	587.97
72753	21.062	0.3	0.1	621.16
72754	21.112	0.35	0.1	609.87
72755	20.963	0.3	0.1	643.13
72756	21.013	0.35	0.1	631.81
72757	20.863	0.3	0.1	665.14
72758	20.913	0.35	0.1	653.79
72759	20.764	0.3	0.1	687.18
72760	20.813	0.35	0.1	675.81
72761	20.664	0.3	0.1	709.28
72762	20.714	0.35	0.1	697.87
72763	20.564	0.3	0.1	731.41
72764	20.614	0.35	0.1	719.98
72765	20.465	0.3	0.1	753.58
72766	20.515	0.35	0.1	742.13
72767	20.365	0.3	0.1	775.8
72768	20.415	0.35	0.1	764.32
72769	20.266	0.3	0.1	798.07
72770	20.316	0.35	0.1	786.55
72771	20.166	0.3	0.1	820.38
72772	20.216	0.35	0.1	808.83
72773	20.067	0.3	0.1	842.73
72774	20.116	0.35	0.1	831.16
72775	19.967	0.3	0.1	865.13
72776	20.017	0.35	0.1	853.53
72777	19.867	0.3	0.1	887.58
72778	19.917	0.35	0.1	875.95
72779	19.768	0.3	0.1	910.07
72780	19.818	0.35	0.1	898.42
72781	19.668	0.3	0.1	932.61
72782	19.718	0.35	0.1	920.93
72783	19.569	0.3	0.1	955.21
72784	19.618	0.35	0.1	943.5
72785	19.469	0.3	0.1	977.84
72786	19.519	0.35	0.1	966.11
72787	19.369	0.3	0.1	1000.5
72788	19.419	0.35	0.1	988.77
72789	19.27	0.3	0.1	1023.3
72790	19.32	0.35	0.1	1011.5
72791	19.17	0.3	0.1	1046.1
72792	19.22	0.35	0.1	1034.2
72793	19.071	0.3	0.1	1068.9
72794	19.121	0.35	0.1	1057.1
72795	18.971	0.3	0.1	1091.8
72796	19.021	0.35	0.1	1079.9
72797	18.872	0.3	0.1	1114.7
72798	18.921	0.35	0.1	1102.8
72799	18.772	0.3	0.1	1137.7
72800	18.822	0.35	0.1	1125.8
72801	18.672	0.3	0.1	1160.8
72802	18.722	0.35	0.1	1148.8
72803	18.573	0.3	0.1	1183.9
72804	18.623	0.35	0.1	1171.9
72805	18.473	0.3	0.1	1207.
72806	18.523	0.35	0.1	1195.
72807	18.374	0.3	0.1	1230.3
72808	18.423	0.35	0.1	1218.2
72809	18.274	0.3	0.1	1253.5
72810	18.324	0.35	0.1	1241.4
72811	18.175	0.3	0.1	1276.8
72812	18.224	0.35	0.1	1264.7
72813	18.075	0.3	0.1	1300.2
72814	18.125	0.35	0.1	1288.1
72815	17.975	0.3	0.1	1323.7
72816	18.025	0.35	0.1	1311.5
72817	17.876	0.3	0.1	1347.1
72818	17.926	0.35	0.1	1334.9
72819	17.776	0.3	0.1	1370.7
72820	17.826	0.35	0.1	1358.4
72821	17.677	0.3	0.1	1394.3
72822	17.726	0.35	0.1	1382.
72823	17.577	0.3	0.1	1418.
72824	17.627	0.35	0.1	1405.6
72825	17.477	0.3	0.1	1441.7
72826	17.527	0.35	0.1	1429.3
72827	17.378	0.3	0.1	1465.4
72828	17.428	0.35	0.1	1453.1
72829	17.278	0.3	0.1	1489.3
72830	17.328	0.35	0.1	1476.9
72831	17.179	0.3	0.1	1513.2
72832	17.229	0.35	0.1	1500.7
72833	17.079	0.3	0.1	1537.1
72834	17.129	0.35	0.1	1524.7
72835	16.98	0.3	0.1	1561.1
72836	17.029	0.35	0.1	1548.6
72837	16.88	0.3	0.1	1585.2
72838	16.93	0.35	0.1	1572.7
72839	16.78	0.3	0.1	1609.3
72840	16.83	0.35	0.1	1596.8
72841	16.681	0.3	0.1	1633.5
72842	16.731	0.35	0.1	1620.9
72843	16.581	0.3	0.1	1657.8
72844	16.631	0.35	0.1	1645.1
72845	16.482	0.3	0.1	1682.1
72846	16.531	0.35	0.1	1669.4
72847	16.382	0.3	0.1	1706.4
72848	16.432	0.35	0.1	1693.7
72849	16.282	0.3	0.1	1730.9
72850	16.332	0.35	0.1	1718.1
72851	16.183	0.3	0.1	1755.4
72852	16.233	0.35	0.1	1742.6
72853	16.083	0.3	0.1	1779.9
72854	16.133	0.35	0.1	1767.1
72855	15.984	0.3	0.1	1804.5
72856	16.034	0.35	0.1	1791.7
72857	15.884	0.3	0.1	1829.2
72858	15.934	0.35	0.1	1816.3
72859	15.785	0.3	0.1	1853.9
72860	15.834	0.35	0.1	1841.
72861	15.685	0.3	0.1	1878.7
72862	15.735	0.35	0.1	1865.8
72863	15.585	0.3	0.1	1903.6
72864	15.635	0.35	0.1	1890.6
72865	15.486	0.3	0.1	1928.5
72866	15.536	0.35	0.1	1915.4
72867	15.386	0.3	0.1	1953.4
72868	15.436	0.35	0.1	1940.4
72869	15.287	0.3	0.1	1978.5
72870	15.336	0.35	0.1	1965.4
72871	15.187	0.3	0.1	2003.6
72872	15.237	0.35	0.1	1990.4
72873	15.088	0.3	0.1	2028.7
72874	15.137	0.35	0.1	2015.5
72875	14.988	0.3	0.1	2053.9
72876	15.038	0.35	0.1	2040.7
72877	14.888	0.3	0.1	2079.2
72878	14.938	0.35	0.1	2065.9
72879	14.789	0.3	0.1	2104.5
72880	14.839	0.35	0.1	2091.2
72881	14.689	0.3	0.1	2129.9
72882	14.739	0.35	0.1	2116.6
72883	14.59	0.3	0.1	2155.3
72884	14.639	0.35	0.1	2141.9
72885	14.49	0.3	0.1	2180.7
72886	14.54	0.35	0.1	2167.4
72887	14.39	0.3	0.1	2206.3
72888	14.44	0.35	0.1	2192.9
72889	14.291	0.3	0.1	2231.8
72890	14.341	0.35	0.1	2218.4
72891	14.191	0.3	0.1	2257.4
72892	14.241	0.35	0.1	2244.
72893	14.092	0.3	0.1	2283.1
72894	14.142	0.35	0.1	2269.6
72895	13.992	0.3	0.1	2308.7
72896	14.042	0.35	0.1	2295.2
72897	13.893	0.3	0.1	2334.4
72898	13.942	0.35	0.1	2320.9
72899	13.793	0.3	0.1	2360.1
72900	13.843	0.35	0.1	2346.6
72901	13.693	0.3	0.1	2385.8
72902	13.743	0.35	0.1	2372.3
72903	13.594	0.3	0.1	2411.6
72904	13.644	0.35	0.1	2398.
72905	13.494	0.3	0.1	2437.3
72906	13.544	0.35	0.1	2423.8
72907	13.395	0.3	0.1	2463.
72908	13.444	0.35	0.1	2449.5
72909	13.295	0.3	0.1	2488.6
72910	13.345	0.35	0.1	2475.2
72911	13.195	0.3	0.1	2514.2
72912	13.245	0.35	0.1	2500.8
72913	13.096	0.3	0.1	2539.8
72914	13.146	0.35	0.1	2526.4
72915	12.996	0.3	0.1	2565.3
72916	13.046	0.35	0.1	2552.
72917	12.897	0.3	0.1	2590.6
72918	12.947	0.35	0.1	2577.4
72919	12.797	0.3	0.1	2615.8
72920	12.847	0.35	0.1	2602.7
72921	12.698	0.3	0.1	2640.9
72922	12.747	0.35	0.1	2627.9
72923	12.598	0.3	0.1	2665.8
72924	12.648	0.35	0.1	2652.9
72925	12.498	0.3	0.1	2690.4
72926	12.548	0.35	0.1	2677.7
72927	12.399	0.3	0.1	2714.7
72928	12.449	0.35	0.1	2702.3
72929	12.299	0.3	0.1	2738.7
72930	12.349	0.35	0.1	2726.5
72931	12.2	0.3	0.1	2762.3
72932	12.249	0.35	0.1	2750.4
72933	12.1	0.3	0.1	2785.5
72934	12.15	0.35	0.1	2773.9
72935	12.001	0.3	0.1	2808.1
72936	12.05	0.35	0.1	2796.9
72937	11.901	0.3	0.1	2830.1
72938	11.951	0.35	0.1	2819.4
72939	11.801	0.3	0.1	2851.3
72940	11.851	0.35	0.1	2841.2
72941	11.702	0.3	0.1	2871.8
72942	11.752	0.35	0.1	2862.3
72943	11.602	0.3	0.1	2891.3
72944	11.652	0.35	0.1	2882.5
72945	11.503	0.3	0.1	2909.7
72946	11.552	0.35	0.1	2901.7
72947	11.403	0.3	0.1	2926.8
72948	11.453	0.35	0.1	2919.7
72949	11.303	0.3	0.1	2942.5
72950	11.353	0.35	0.1	2936.5
72951	11.204	0.3	0.1	2956.6
72952	11.254	0.35	0.1	2951.8
72953	11.104	0.3	0.1	2968.8
72954	11.154	0.35	0.1	2965.4
72955	11.005	0.3	0.1	2978.9
72956	11.055	0.35	0.1	2977.
72957	10.905	0.3	0.1	2986.6
72958	10.955	0.35	0.1	2986.4
72959	10.806	0.3	0.1	2991.6
72960	10.855	0.35	0.1	2993.4
72961	10.706	0.3	0.1	2993.5
72962	10.756	0.35	0.1	2997.5
72963	10.606	0.3	0.1	2991.9
72964	10.656	0.35	0.1	2998.4
72965	10.507	0.3	0.1	2986.3
72966	10.557	0.35	0.1	2995.6
72967	10.407	0.3	0.1	2976.4
72968	10.457	0.35	0.1	2988.8
72969	10.308	0.3	0.1	2961.5
72970	10.357	0.35	0.1	2977.5
72971	10.208	0.3	0.1	2941.1
72972	10.258	0.35	0.1	2960.9
72973	10.108	0.3	0.1	2914.4
72974	10.158	0.35	0.1	2938.6
72975	10.009	0.3	0.1	2880.9
72976	10.059	0.35	0.1	2909.9
72977	9.9093	0.3	0.1	2839.8
72978	9.9591	0.35	0.1	2874.1
72979	9.8097	0.3	0.1	2790.3
72980	9.8595	0.35	0.1	2830.4
72981	9.7102	0.3	0.1	2731.5
72982	9.76	0.35	0.1	2777.9
72983	9.6106	0.3	0.1	2662.7
72984	9.6604	0.35	0.1	2716.
72985	9.511	0.3	0.1	2582.9
72986	9.5608	0.35	0.1	2643.6
72987	9.4114	0.3	0.1	2491.3
72988	9.4612	0.35	0.1	2559.9
72989	9.3118	0.3	0.1	2387.2
72990	9.3616	0.35	0.1	2464.2
72991	9.2123	0.3	0.1	2269.9
72992	9.2621	0.35	0.1	2355.7
72993	9.1127	0.3	0.1	2138.8
72994	9.1625	0.35	0.1	2233.8
72995	9.0131	0.3	0.1	1993.9
72996	9.0629	0.35	0.1	2098.2
72997	8.9135	0.3	0.1	1835.1
72998	8.9633	0.35	0.1	1948.9
72999	8.8139	0.3	0.1	1663.3
73000	8.8637	0.35	0.1	1786.6
73001	8.7144	0.3	0.1	1480.2
73002	8.7642	0.35	0.1	1612.7
73003	8.6148	0.3	0.1	1289.1
73004	8.6646	0.35	0.1	1430.1
73005	8.5152	0.3	0.1	1096.4
73006	8.565	0.35	0.1	1244.4
73007	8.4156	0.3	0.1	915.09
73008	8.4654	0.35	0.1	1065.3
73009	8.316	0.3	0.1	776.54
73010	8.3658	0.35	0.1	909.73
73011	8.2662	0.35	0.1	820.03
73012	8.2165	0.3	0.1	554.51
73013	23.851	0.4	0.1	31.369
73014	23.9	0.45	0.1	22.246
73015	23.95	0.4	0.1	12.06
73016	23.751	0.4	0.1	50.121
73017	23.801	0.45	0.1	40.899
73018	23.651	0.4	0.1	69.342
73019	23.701	0.45	0.1	60.022
73020	23.552	0.4	0.1	88.946
73021	23.602	0.45	0.1	79.47
73022	23.452	0.4	0.1	108.89
73023	23.502	0.45	0.1	99.238
73024	23.353	0.4	0.1	129.11
73025	23.403	0.45	0.1	119.29
73026	23.253	0.4	0.1	149.56
73027	23.303	0.45	0.1	139.59
73028	23.154	0.4	0.1	170.18
73029	23.203	0.45	0.1	160.08
73030	23.054	0.4	0.1	190.95
73031	23.104	0.45	0.1	180.73
73032	22.954	0.4	0.1	211.85
73033	23.004	0.45	0.1	201.52
73034	22.855	0.4	0.1	232.84
73035	22.905	0.45	0.1	222.43
73036	22.755	0.4	0.1	253.93
73037	22.805	0.45	0.1	243.44
73038	22.656	0.4	0.1	275.09
73039	22.705	0.45	0.1	264.53
73040	22.556	0.4	0.1	296.32
73041	22.606	0.45	0.1	285.69
73042	22.456	0.4	0.1	317.61
73043	22.506	0.45	0.1	306.92
73044	22.357	0.4	0.1	338.95
73045	22.407	0.45	0.1	328.21
73046	22.257	0.4	0.1	360.35
73047	22.307	0.45	0.1	349.56
73048	22.158	0.4	0.1	381.79
73049	22.208	0.45	0.1	370.96
73050	22.058	0.4	0.1	403.29
73051	22.108	0.45	0.1	392.41
73052	21.959	0.4	0.1	424.83
73053	22.008	0.45	0.1	413.91
73054	21.859	0.4	0.1	446.41
73055	21.909	0.45	0.1	435.45
73056	21.759	0.4	0.1	468.03
73057	21.809	0.45	0.1	457.04
73058	21.66	0.4	0.1	489.69
73059	21.71	0.45	0.1	478.67
73060	21.56	0.4	0.1	511.4
73061	21.61	0.45	0.1	500.34
73062	21.461	0.4	0.1	533.15
73063	21.51	0.45	0.1	522.05
73064	21.361	0.4	0.1	554.93
73065	21.411	0.45	0.1	543.8
73066	21.262	0.4	0.1	576.76
73067	21.311	0.45	0.1	565.6
73068	21.162	0.4	0.1	598.63
73069	21.212	0.45	0.1	587.43
73070	21.062	0.4	0.1	620.54
73071	21.112	0.45	0.1	609.31
73072	20.963	0.4	0.1	642.49
73073	21.013	0.45	0.1	631.23
73074	20.863	0.4	0.1	664.48
73075	20.913	0.45	0.1	653.19
73076	20.764	0.4	0.1	686.51
73077	20.813	0.45	0.1	675.2
73078	20.664	0.4	0.1	708.59
73079	20.714	0.45	0.1	697.25
73080	20.564	0.4	0.1	730.71
73081	20.614	0.45	0.1	719.34
73082	20.465	0.4	0.1	752.88
73083	20.515	0.45	0.1	741.47
73084	20.365	0.4	0.1	775.08
73085	20.415	0.45	0.1	763.65
73086	20.266	0.4	0.1	797.34
73087	20.316	0.45	0.1	785.87
73088	20.166	0.4	0.1	819.64
73089	20.216	0.45	0.1	808.14
73090	20.067	0.4	0.1	841.98
73091	20.116	0.45	0.1	830.46
73092	19.967	0.4	0.1	864.37
73093	20.017	0.45	0.1	852.82
73094	19.867	0.4	0.1	886.81
73095	19.917	0.45	0.1	875.23
73096	19.768	0.4	0.1	909.3
73097	19.818	0.45	0.1	897.69
73098	19.668	0.4	0.1	931.83
73099	19.718	0.45	0.1	920.19
73100	19.569	0.4	0.1	954.41
73101	19.618	0.45	0.1	942.74
73102	19.469	0.4	0.1	977.04
73103	19.519	0.45	0.1	965.35
73104	19.369	0.4	0.1	999.73
73105	19.419	0.45	0.1	988.
73106	19.27	0.4	0.1	1022.5
73107	19.32	0.45	0.1	1010.7
73108	19.17	0.4	0.1	1045.2
73109	19.22	0.45	0.1	1033.5
73110	19.071	0.4	0.1	1068.1
73111	19.121	0.45	0.1	1056.3
73112	18.971	0.4	0.1	1091.
73113	19.021	0.45	0.1	1079.1
73114	18.872	0.4	0.1	1113.9
73115	18.921	0.45	0.1	1102.
73116	18.772	0.4	0.1	1136.9
73117	18.822	0.45	0.1	1125.
73118	18.672	0.4	0.1	1159.9
73119	18.722	0.45	0.1	1148.
73120	18.573	0.4	0.1	1183.
73121	18.623	0.45	0.1	1171.1
73122	18.473	0.4	0.1	1206.2
73123	18.523	0.45	0.1	1194.2
73124	18.374	0.4	0.1	1229.4
73125	18.423	0.45	0.1	1217.4
73126	18.274	0.4	0.1	1252.7
73127	18.324	0.45	0.1	1240.6
73128	18.175	0.4	0.1	1276.
73129	18.224	0.45	0.1	1263.9
73130	18.075	0.4	0.1	1299.3
73131	18.125	0.45	0.1	1287.2
73132	17.975	0.4	0.1	1322.8
73133	18.025	0.45	0.1	1310.6
73134	17.876	0.4	0.1	1346.2
73135	17.926	0.45	0.1	1334.1
73136	17.776	0.4	0.1	1369.8
73137	17.826	0.45	0.1	1357.6
73138	17.677	0.4	0.1	1393.4
73139	17.726	0.45	0.1	1381.1
73140	17.577	0.4	0.1	1417.
73141	17.627	0.45	0.1	1404.8
73142	17.477	0.4	0.1	1440.7
73143	17.527	0.45	0.1	1428.4
73144	17.378	0.4	0.1	1464.5
73145	17.428	0.45	0.1	1452.2
73146	17.278	0.4	0.1	1488.3
73147	17.328	0.45	0.1	1476.
73148	17.179	0.4	0.1	1512.2
73149	17.229	0.45	0.1	1499.8
73150	17.079	0.4	0.1	1536.2
73151	17.129	0.45	0.1	1523.7
73152	16.98	0.4	0.1	1560.2
73153	17.029	0.45	0.1	1547.7
73154	16.88	0.4	0.1	1584.2
73155	16.93	0.45	0.1	1571.7
73156	16.78	0.4	0.1	1608.4
73157	16.83	0.45	0.1	1595.8
73158	16.681	0.4	0.1	1632.5
73159	16.731	0.45	0.1	1620.
73160	16.581	0.4	0.1	1656.8
73161	16.631	0.45	0.1	1644.2
73162	16.482	0.4	0.1	1681.1
73163	16.531	0.45	0.1	1668.4
73164	16.382	0.4	0.1	1705.4
73165	16.432	0.45	0.1	1692.8
73166	16.282	0.4	0.1	1729.8
73167	16.332	0.45	0.1	1717.1
73168	16.183	0.4	0.1	1754.3
73169	16.233	0.45	0.1	1741.6
73170	16.083	0.4	0.1	1778.9
73171	16.133	0.45	0.1	1766.1
73172	15.984	0.4	0.1	1803.5
73173	16.034	0.45	0.1	1790.6
73174	15.884	0.4	0.1	1828.1
73175	15.934	0.45	0.1	1815.3
73176	15.785	0.4	0.1	1852.8
73177	15.834	0.45	0.1	1840.
73178	15.685	0.4	0.1	1877.6
73179	15.735	0.45	0.1	1864.7
73180	15.585	0.4	0.1	1902.5
73181	15.635	0.45	0.1	1889.5
73182	15.486	0.4	0.1	1927.4
73183	15.536	0.45	0.1	1914.4
73184	15.386	0.4	0.1	1952.3
73185	15.436	0.45	0.1	1939.3
73186	15.287	0.4	0.1	1977.3
73187	15.336	0.45	0.1	1964.3
73188	15.187	0.4	0.1	2002.4
73189	15.237	0.45	0.1	1989.3
73190	15.088	0.4	0.1	2027.5
73191	15.137	0.45	0.1	2014.4
73192	14.988	0.4	0.1	2052.7
73193	15.038	0.45	0.1	2039.6
73194	14.888	0.4	0.1	2078.
73195	14.938	0.45	0.1	2064.8
73196	14.789	0.4	0.1	2103.3
73197	14.839	0.45	0.1	2090.
73198	14.689	0.4	0.1	2128.6
73199	14.739	0.45	0.1	2115.4
73200	14.59	0.4	0.1	2154.
73201	14.639	0.45	0.1	2140.7
73202	14.49	0.4	0.1	2179.5
73203	14.54	0.45	0.1	2166.2
73204	14.39	0.4	0.1	2205.
73205	14.44	0.45	0.1	2191.6
73206	14.291	0.4	0.1	2230.6
73207	14.341	0.45	0.1	2217.2
73208	14.191	0.4	0.1	2256.1
73209	14.241	0.45	0.1	2242.7
73210	14.092	0.4	0.1	2281.8
73211	14.142	0.45	0.1	2268.3
73212	13.992	0.4	0.1	2307.4
73213	14.042	0.45	0.1	2294.
73214	13.893	0.4	0.1	2333.1
73215	13.942	0.45	0.1	2319.6
73216	13.793	0.4	0.1	2358.8
73217	13.843	0.45	0.1	2345.3
73218	13.693	0.4	0.1	2384.5
73219	13.743	0.45	0.1	2371.
73220	13.594	0.4	0.1	2410.3
73221	13.644	0.45	0.1	2396.8
73222	13.494	0.4	0.1	2436.
73223	13.544	0.45	0.1	2422.5
73224	13.395	0.4	0.1	2461.7
73225	13.444	0.45	0.1	2448.2
73226	13.295	0.4	0.1	2487.4
73227	13.345	0.45	0.1	2473.9
73228	13.195	0.4	0.1	2513.
73229	13.245	0.45	0.1	2499.6
73230	13.096	0.4	0.1	2538.6
73231	13.146	0.45	0.1	2525.3
73232	12.996	0.4	0.1	2564.1
73233	13.046	0.45	0.1	2550.8
73234	12.897	0.4	0.1	2589.5
73235	12.947	0.45	0.1	2576.3
73236	12.797	0.4	0.1	2614.8
73237	12.847	0.45	0.1	2601.7
73238	12.698	0.4	0.1	2639.9
73239	12.747	0.45	0.1	2627.
73240	12.598	0.4	0.1	2664.9
73241	12.648	0.45	0.1	2652.1
73242	12.498	0.4	0.1	2689.6
73243	12.548	0.45	0.1	2677.
73244	12.399	0.4	0.1	2714.1
73245	12.449	0.45	0.1	2701.7
73246	12.299	0.4	0.1	2738.3
73247	12.349	0.45	0.1	2726.1
73248	12.2	0.4	0.1	2762.
73249	12.249	0.45	0.1	2750.2
73250	12.1	0.4	0.1	2785.4
73251	12.15	0.45	0.1	2773.9
73252	12.001	0.4	0.1	2808.3
73253	12.05	0.45	0.1	2797.1
73254	11.901	0.4	0.1	2830.5
73255	11.951	0.45	0.1	2819.9
73256	11.801	0.4	0.1	2852.1
73257	11.851	0.45	0.1	2842.
73258	11.702	0.4	0.1	2872.9
73259	11.752	0.45	0.1	2863.4
73260	11.602	0.4	0.1	2892.9
73261	11.652	0.45	0.1	2884.
73262	11.503	0.4	0.1	2911.7
73263	11.552	0.45	0.1	2903.7
73264	11.403	0.4	0.1	2929.4
73265	11.453	0.45	0.1	2922.3
73266	11.303	0.4	0.1	2945.8
73267	11.353	0.45	0.1	2939.7
73268	11.204	0.4	0.1	2960.5
73269	11.254	0.45	0.1	2955.7
73270	11.104	0.4	0.1	2973.5
73271	11.154	0.45	0.1	2970.1
73272	11.005	0.4	0.1	2984.5
73273	11.055	0.45	0.1	2982.6
73274	10.905	0.4	0.1	2993.2
73275	10.955	0.45	0.1	2993.
73276	10.806	0.4	0.1	2999.3
73277	10.855	0.45	0.1	3001.1
73278	10.706	0.4	0.1	3002.4
73279	10.756	0.45	0.1	3006.5
73280	10.606	0.4	0.1	3002.1
73281	10.656	0.45	0.1	3008.8
73282	10.507	0.4	0.1	2998.1
73283	10.557	0.45	0.1	3007.6
73284	10.407	0.4	0.1	2989.9
73285	10.457	0.45	0.1	3002.6
73286	10.308	0.4	0.1	2976.9
73287	10.357	0.45	0.1	2993.1
73288	10.208	0.4	0.1	2958.5
73289	10.258	0.45	0.1	2978.7
73290	10.108	0.4	0.1	2934.1
73291	10.158	0.45	0.1	2958.8
73292	10.009	0.4	0.1	2903.1
73293	10.059	0.45	0.1	2932.7
73294	9.9093	0.4	0.1	2864.6
73295	9.9591	0.45	0.1	2899.7
73296	9.8097	0.4	0.1	2817.9
73297	9.8595	0.45	0.1	2859.1
73298	9.7102	0.4	0.1	2762.3
73299	9.76	0.45	0.1	2810.
73300	9.6106	0.4	0.1	2696.7
73301	9.6604	0.45	0.1	2751.6
73302	9.511	0.4	0.1	2620.4
73303	9.5608	0.45	0.1	2683.1
73304	9.4114	0.4	0.1	2532.6
73305	9.4612	0.45	0.1	2603.6
73306	9.3118	0.4	0.1	2432.4
73307	9.3616	0.45	0.1	2512.3
73308	9.2123	0.4	0.1	2319.2
73309	9.2621	0.45	0.1	2408.4
73310	9.1127	0.4	0.1	2192.7
73311	9.1625	0.45	0.1	2291.6
73312	9.0131	0.4	0.1	2052.7
73313	9.0629	0.45	0.1	2161.6
73314	8.9135	0.4	0.1	1899.7
73315	8.9633	0.45	0.1	2018.5
73316	8.8139	0.4	0.1	1735.
73317	8.8637	0.45	0.1	1863.5
73318	8.7144	0.4	0.1	1561.2
73319	8.7642	0.45	0.1	1698.5
73320	8.6148	0.4	0.1	1382.9
73321	8.6646	0.45	0.1	1527.6
73322	8.5152	0.4	0.1	1208.4
73323	8.565	0.45	0.1	1357.2
73324	8.4156	0.4	0.1	1050.9
73325	8.4654	0.45	0.1	1197.8
73326	8.316	0.4	0.1	939.46
73327	8.3658	0.45	0.1	1063.7
73328	8.2662	0.45	0.1	995.
73329	8.2165	0.4	0.1	692.2
73330	23.851	0.5	0.1	31.746
73331	23.9	0.55	0.1	22.38
73332	23.95	0.5	0.1	12.17
73333	23.751	0.5	0.1	50.82
73334	23.801	0.55	0.1	41.41
73335	23.651	0.5	0.1	70.191
73336	23.701	0.55	0.1	60.771
73337	23.552	0.5	0.1	89.816
73338	23.602	0.55	0.1	80.323
73339	23.452	0.5	0.1	109.7
73340	23.502	0.55	0.1	100.1
73341	23.353	0.5	0.1	129.83
73342	23.403	0.55	0.1	120.1
73343	23.253	0.5	0.1	150.17
73344	23.303	0.55	0.1	140.31
73345	23.154	0.5	0.1	170.69
73346	23.203	0.55	0.1	160.71
73347	23.054	0.5	0.1	191.36
73348	23.104	0.55	0.1	181.28
73349	22.954	0.5	0.1	212.16
73350	23.004	0.55	0.1	201.98
73351	22.855	0.5	0.1	233.08
73352	22.905	0.55	0.1	222.8
73353	22.755	0.5	0.1	254.08
73354	22.805	0.55	0.1	243.72
73355	22.656	0.5	0.1	275.17
73356	22.705	0.55	0.1	264.74
73357	22.556	0.5	0.1	296.34
73358	22.606	0.55	0.1	285.83
73359	22.456	0.5	0.1	317.57
73360	22.506	0.55	0.1	307.
73361	22.357	0.5	0.1	338.86
73362	22.407	0.55	0.1	328.24
73363	22.257	0.5	0.1	360.21
73364	22.307	0.55	0.1	349.53
73365	22.158	0.5	0.1	381.61
73366	22.208	0.55	0.1	370.88
73367	22.058	0.5	0.1	403.07
73368	22.108	0.55	0.1	392.29
73369	21.959	0.5	0.1	424.57
73370	22.008	0.55	0.1	413.74
73371	21.859	0.5	0.1	446.11
73372	21.909	0.55	0.1	435.25
73373	21.759	0.5	0.1	467.7
73374	21.809	0.55	0.1	456.79
73375	21.66	0.5	0.1	489.34
73376	21.71	0.55	0.1	478.39
73377	21.56	0.5	0.1	511.01
73378	21.61	0.55	0.1	500.03
73379	21.461	0.5	0.1	532.73
73380	21.51	0.55	0.1	521.71
73381	21.361	0.5	0.1	554.49
73382	21.411	0.55	0.1	543.43
73383	21.262	0.5	0.1	576.3
73384	21.311	0.55	0.1	565.2
73385	21.162	0.5	0.1	598.14
73386	21.212	0.55	0.1	587.01
73387	21.062	0.5	0.1	620.03
73388	21.112	0.55	0.1	608.87
73389	20.963	0.5	0.1	641.96
73390	21.013	0.55	0.1	630.77
73391	20.863	0.5	0.1	663.93
73392	20.913	0.55	0.1	652.71
73393	20.764	0.5	0.1	685.95
73394	20.813	0.55	0.1	674.69
73395	20.664	0.5	0.1	708.01
73396	20.714	0.55	0.1	696.72
73397	20.564	0.5	0.1	730.11
73398	20.614	0.55	0.1	718.79
73399	20.465	0.5	0.1	752.26
73400	20.515	0.55	0.1	740.91
73401	20.365	0.5	0.1	774.46
73402	20.415	0.55	0.1	763.07
73403	20.266	0.5	0.1	796.7
73404	20.316	0.55	0.1	785.28
73405	20.166	0.5	0.1	818.98
73406	20.216	0.55	0.1	807.54
73407	20.067	0.5	0.1	841.31
73408	20.116	0.55	0.1	829.84
73409	19.967	0.5	0.1	863.69
73410	20.017	0.55	0.1	852.19
73411	19.867	0.5	0.1	886.12
73412	19.917	0.55	0.1	874.58
73413	19.768	0.5	0.1	908.6
73414	19.818	0.55	0.1	897.03
73415	19.668	0.5	0.1	931.12
73416	19.718	0.55	0.1	919.52
73417	19.569	0.5	0.1	953.69
73418	19.618	0.55	0.1	942.06
73419	19.469	0.5	0.1	976.32
73420	19.519	0.55	0.1	964.66
73421	19.369	0.5	0.1	998.99
73422	19.419	0.55	0.1	987.3
73423	19.27	0.5	0.1	1021.7
73424	19.32	0.55	0.1	1010.
73425	19.17	0.5	0.1	1044.5
73426	19.22	0.55	0.1	1032.7
73427	19.071	0.5	0.1	1067.3
73428	19.121	0.55	0.1	1055.5
73429	18.971	0.5	0.1	1090.2
73430	19.021	0.55	0.1	1078.4
73431	18.872	0.5	0.1	1113.1
73432	18.921	0.55	0.1	1101.3
73433	18.772	0.5	0.1	1136.1
73434	18.822	0.55	0.1	1124.2
73435	18.672	0.5	0.1	1159.1
73436	18.722	0.55	0.1	1147.2
73437	18.573	0.5	0.1	1182.2
73438	18.623	0.55	0.1	1170.3
73439	18.473	0.5	0.1	1205.4
73440	18.523	0.55	0.1	1193.4
73441	18.374	0.5	0.1	1228.6
73442	18.423	0.55	0.1	1216.6
73443	18.274	0.5	0.1	1251.8
73444	18.324	0.55	0.1	1239.8
73445	18.175	0.5	0.1	1275.1
73446	18.224	0.55	0.1	1263.1
73447	18.075	0.5	0.1	1298.5
73448	18.125	0.55	0.1	1286.4
73449	17.975	0.5	0.1	1321.9
73450	18.025	0.55	0.1	1309.8
73451	17.876	0.5	0.1	1345.4
73452	17.926	0.55	0.1	1333.3
73453	17.776	0.5	0.1	1368.9
73454	17.826	0.55	0.1	1356.8
73455	17.677	0.5	0.1	1392.5
73456	17.726	0.55	0.1	1380.3
73457	17.577	0.5	0.1	1416.2
73458	17.627	0.55	0.1	1403.9
73459	17.477	0.5	0.1	1439.9
73460	17.527	0.55	0.1	1427.6
73461	17.378	0.5	0.1	1463.6
73462	17.428	0.55	0.1	1451.3
73463	17.278	0.5	0.1	1487.5
73464	17.328	0.55	0.1	1475.1
73465	17.179	0.5	0.1	1511.3
73466	17.229	0.55	0.1	1499.
73467	17.079	0.5	0.1	1535.3
73468	17.129	0.55	0.1	1522.9
73469	16.98	0.5	0.1	1559.3
73470	17.029	0.55	0.1	1546.8
73471	16.88	0.5	0.1	1583.3
73472	16.93	0.55	0.1	1570.8
73473	16.78	0.5	0.1	1607.4
73474	16.83	0.55	0.1	1594.9
73475	16.681	0.5	0.1	1631.6
73476	16.731	0.55	0.1	1619.1
73477	16.581	0.5	0.1	1655.8
73478	16.631	0.55	0.1	1643.2
73479	16.482	0.5	0.1	1680.1
73480	16.531	0.55	0.1	1667.5
73481	16.382	0.5	0.1	1704.5
73482	16.432	0.55	0.1	1691.8
73483	16.282	0.5	0.1	1728.9
73484	16.332	0.55	0.1	1716.2
73485	16.183	0.5	0.1	1753.3
73486	16.233	0.55	0.1	1740.6
73487	16.083	0.5	0.1	1777.9
73488	16.133	0.55	0.1	1765.1
73489	15.984	0.5	0.1	1802.5
73490	16.034	0.55	0.1	1789.7
73491	15.884	0.5	0.1	1827.1
73492	15.934	0.55	0.1	1814.3
73493	15.785	0.5	0.1	1851.8
73494	15.834	0.55	0.1	1838.9
73495	15.685	0.5	0.1	1876.6
73496	15.735	0.55	0.1	1863.7
73497	15.585	0.5	0.1	1901.4
73498	15.635	0.55	0.1	1888.5
73499	15.486	0.5	0.1	1926.3
73500	15.536	0.55	0.1	1913.3
73501	15.386	0.5	0.1	1951.2
73502	15.436	0.55	0.1	1938.2
73503	15.287	0.5	0.1	1976.2
73504	15.336	0.55	0.1	1963.2
73505	15.187	0.5	0.1	2001.3
73506	15.237	0.55	0.1	1988.2
73507	15.088	0.5	0.1	2026.4
73508	15.137	0.55	0.1	2013.3
73509	14.988	0.5	0.1	2051.6
73510	15.038	0.55	0.1	2038.5
73511	14.888	0.5	0.1	2076.8
73512	14.938	0.55	0.1	2063.6
73513	14.789	0.5	0.1	2102.1
73514	14.839	0.55	0.1	2088.9
73515	14.689	0.5	0.1	2127.5
73516	14.739	0.55	0.1	2114.2
73517	14.59	0.5	0.1	2152.9
73518	14.639	0.55	0.1	2139.6
73519	14.49	0.5	0.1	2178.3
73520	14.54	0.55	0.1	2165.
73521	14.39	0.5	0.1	2203.8
73522	14.44	0.55	0.1	2190.4
73523	14.291	0.5	0.1	2229.3
73524	14.341	0.55	0.1	2216.
73525	14.191	0.5	0.1	2254.9
73526	14.241	0.55	0.1	2241.5
73527	14.092	0.5	0.1	2280.5
73528	14.142	0.55	0.1	2267.1
73529	13.992	0.5	0.1	2306.2
73530	14.042	0.55	0.1	2292.7
73531	13.893	0.5	0.1	2331.9
73532	13.942	0.55	0.1	2318.4
73533	13.793	0.5	0.1	2357.6
73534	13.843	0.55	0.1	2344.1
73535	13.693	0.5	0.1	2383.3
73536	13.743	0.55	0.1	2369.8
73537	13.594	0.5	0.1	2409.
73538	13.644	0.55	0.1	2395.5
73539	13.494	0.5	0.1	2434.8
73540	13.544	0.55	0.1	2421.3
73541	13.395	0.5	0.1	2460.5
73542	13.444	0.55	0.1	2447.
73543	13.295	0.5	0.1	2486.2
73544	13.345	0.55	0.1	2472.8
73545	13.195	0.5	0.1	2511.9
73546	13.245	0.55	0.1	2498.5
73547	13.096	0.5	0.1	2537.5
73548	13.146	0.55	0.1	2524.1
73549	12.996	0.5	0.1	2563.
73550	13.046	0.55	0.1	2549.8
73551	12.897	0.5	0.1	2588.5
73552	12.947	0.55	0.1	2575.3
73553	12.797	0.5	0.1	2613.9
73554	12.847	0.55	0.1	2600.8
73555	12.698	0.5	0.1	2639.1
73556	12.747	0.55	0.1	2626.1
73557	12.598	0.5	0.1	2664.2
73558	12.648	0.55	0.1	2651.3
73559	12.498	0.5	0.1	2689.
73560	12.548	0.55	0.1	2676.4
73561	12.399	0.5	0.1	2713.7
73562	12.449	0.55	0.1	2701.2
73563	12.299	0.5	0.1	2738.
73564	12.349	0.55	0.1	2725.8
73565	12.2	0.5	0.1	2762.
73566	12.249	0.55	0.1	2750.1
73567	12.1	0.5	0.1	2785.6
73568	12.15	0.55	0.1	2774.
73569	12.001	0.5	0.1	2808.7
73570	12.05	0.55	0.1	2797.5
73571	11.901	0.5	0.1	2831.3
73572	11.951	0.55	0.1	2820.6
73573	11.801	0.5	0.1	2853.3
73574	11.851	0.55	0.1	2843.1
73575	11.702	0.5	0.1	2874.5
73576	11.752	0.55	0.1	2864.9
73577	11.602	0.5	0.1	2894.9
73578	11.652	0.55	0.1	2886.
73579	11.503	0.5	0.1	2914.3
73580	11.552	0.55	0.1	2906.2
73581	11.403	0.5	0.1	2932.6
73582	11.453	0.55	0.1	2925.5
73583	11.303	0.5	0.1	2949.7
73584	11.353	0.55	0.1	2943.6
73585	11.204	0.5	0.1	2965.2
73586	11.254	0.55	0.1	2960.3
73587	11.104	0.5	0.1	2979.1
73588	11.154	0.55	0.1	2975.6
73589	11.005	0.5	0.1	2991.1
73590	11.055	0.55	0.1	2989.2
73591	10.905	0.5	0.1	3001.
73592	10.955	0.55	0.1	3000.7
73593	10.806	0.5	0.1	3008.3
73594	10.855	0.55	0.1	3010.1
73595	10.706	0.5	0.1	3012.9
73596	10.756	0.55	0.1	3016.9
73597	10.606	0.5	0.1	3014.2
73598	10.656	0.55	0.1	3020.8
73599	10.507	0.5	0.1	3012.
73600	10.557	0.55	0.1	3021.5
73601	10.407	0.5	0.1	3005.8
73602	10.457	0.55	0.1	3018.5
73603	10.308	0.5	0.1	2995.
73604	10.357	0.55	0.1	3011.3
73605	10.208	0.5	0.1	2979.
73606	10.258	0.55	0.1	2999.4
73607	10.108	0.5	0.1	2957.4
73608	10.158	0.55	0.1	2982.3
73609	10.009	0.5	0.1	2929.3
73610	10.059	0.55	0.1	2959.3
73611	9.9093	0.5	0.1	2894.1
73612	9.9591	0.55	0.1	2929.7
73613	9.8097	0.5	0.1	2851.
73614	9.8595	0.55	0.1	2892.8
73615	9.7102	0.5	0.1	2799.2
73616	9.76	0.55	0.1	2847.8
73617	9.6106	0.5	0.1	2737.8
73618	9.6604	0.55	0.1	2793.8
73619	9.511	0.5	0.1	2666.
73620	9.5608	0.55	0.1	2730.1
73621	9.4114	0.5	0.1	2582.9
73622	9.4612	0.55	0.1	2655.8
73623	9.3118	0.5	0.1	2487.9
73624	9.3616	0.55	0.1	2570.1
73625	9.2123	0.5	0.1	2380.3
73626	9.2621	0.55	0.1	2472.4
73627	9.1127	0.5	0.1	2259.8
73628	9.1625	0.55	0.1	2362.1
73629	9.0131	0.5	0.1	2126.5
73630	9.0629	0.55	0.1	2239.1
73631	8.9135	0.5	0.1	1981.
73632	8.9633	0.55	0.1	2104.
73633	8.8139	0.5	0.1	1825.3
73634	8.8637	0.55	0.1	1958.
73635	8.7144	0.5	0.1	1662.4
73636	8.7642	0.55	0.1	1803.6
73637	8.6148	0.5	0.1	1497.8
73638	8.6646	0.55	0.1	1645.2
73639	8.5152	0.5	0.1	1340.1
73640	8.565	0.55	0.1	1489.6
73641	8.4156	0.5	0.1	1200.8
73642	8.4654	0.55	0.1	1346.2
73643	8.316	0.5	0.1	1107.1
73644	8.3658	0.55	0.1	1226.6
73645	8.2662	0.55	0.1	1172.
73646	8.2165	0.5	0.1	825.88
73647	23.851	0.6	0.1	32.
73648	23.9	0.65	0.1	22.441
73649	23.95	0.6	0.1	12.228
73650	23.751	0.6	0.1	51.366
73651	23.801	0.65	0.1	41.78
73652	23.651	0.6	0.1	70.925
73653	23.701	0.65	0.1	61.375
73654	23.552	0.6	0.1	90.639
73655	23.602	0.65	0.1	81.073
73656	23.452	0.6	0.1	110.54
73657	23.502	0.65	0.1	100.91
73658	23.353	0.6	0.1	130.63
73659	23.403	0.65	0.1	120.92
73660	23.253	0.6	0.1	150.9
73661	23.303	0.65	0.1	141.1
73662	23.154	0.6	0.1	171.35
73663	23.203	0.65	0.1	161.44
73664	23.054	0.6	0.1	191.94
73665	23.104	0.65	0.1	181.94
73666	22.954	0.6	0.1	212.65
73667	23.004	0.65	0.1	202.56
73668	22.855	0.6	0.1	233.49
73669	22.905	0.65	0.1	223.31
73670	22.755	0.6	0.1	254.42
73671	22.805	0.65	0.1	244.16
73672	22.656	0.6	0.1	275.44
73673	22.705	0.65	0.1	265.1
73674	22.556	0.6	0.1	296.53
73675	22.606	0.65	0.1	286.13
73676	22.456	0.6	0.1	317.7
73677	22.506	0.65	0.1	307.23
73678	22.357	0.6	0.1	338.94
73679	22.407	0.65	0.1	328.41
73680	22.257	0.6	0.1	360.24
73681	22.307	0.65	0.1	349.65
73682	22.158	0.6	0.1	381.59
73683	22.208	0.65	0.1	370.95
73684	22.058	0.6	0.1	402.99
73685	22.108	0.65	0.1	392.3
73686	21.959	0.6	0.1	424.45
73687	22.008	0.65	0.1	413.71
73688	21.859	0.6	0.1	445.96
73689	21.909	0.65	0.1	435.17
73690	21.759	0.6	0.1	467.51
73691	21.809	0.65	0.1	456.68
73692	21.66	0.6	0.1	489.11
73693	21.71	0.65	0.1	478.23
73694	21.56	0.6	0.1	510.75
73695	21.61	0.65	0.1	499.84
73696	21.461	0.6	0.1	532.44
73697	21.51	0.65	0.1	521.48
73698	21.361	0.6	0.1	554.17
73699	21.411	0.65	0.1	543.18
73700	21.262	0.6	0.1	575.94
73701	21.311	0.65	0.1	564.92
73702	21.162	0.6	0.1	597.76
73703	21.212	0.65	0.1	586.7
73704	21.062	0.6	0.1	619.63
73705	21.112	0.65	0.1	608.52
73706	20.963	0.6	0.1	641.53
73707	21.013	0.65	0.1	630.4
73708	20.863	0.6	0.1	663.48
73709	20.913	0.65	0.1	652.31
73710	20.764	0.6	0.1	685.48
73711	20.813	0.65	0.1	674.27
73712	20.664	0.6	0.1	707.52
73713	20.714	0.65	0.1	696.28
73714	20.564	0.6	0.1	729.61
73715	20.614	0.65	0.1	718.33
73716	20.465	0.6	0.1	751.74
73717	20.515	0.65	0.1	740.43
73718	20.365	0.6	0.1	773.91
73719	20.415	0.65	0.1	762.58
73720	20.266	0.6	0.1	796.14
73721	20.316	0.65	0.1	784.77
73722	20.166	0.6	0.1	818.41
73723	20.216	0.65	0.1	807.
73724	20.067	0.6	0.1	840.72
73725	20.116	0.65	0.1	829.29
73726	19.967	0.6	0.1	863.09
73727	20.017	0.65	0.1	851.62
73728	19.867	0.6	0.1	885.5
73729	19.917	0.65	0.1	874.01
73730	19.768	0.6	0.1	907.97
73731	19.818	0.65	0.1	896.44
73732	19.668	0.6	0.1	930.48
73733	19.718	0.65	0.1	918.92
73734	19.569	0.6	0.1	953.04
73735	19.618	0.65	0.1	941.45
73736	19.469	0.6	0.1	975.65
73737	19.519	0.65	0.1	964.03
73738	19.369	0.6	0.1	998.32
73739	19.419	0.65	0.1	986.66
73740	19.27	0.6	0.1	1021.
73741	19.32	0.65	0.1	1009.3
73742	19.17	0.6	0.1	1043.8
73743	19.22	0.65	0.1	1032.1
73744	19.071	0.6	0.1	1066.6
73745	19.121	0.65	0.1	1054.9
73746	18.971	0.6	0.1	1089.5
73747	19.021	0.65	0.1	1077.7
73748	18.872	0.6	0.1	1112.4
73749	18.921	0.65	0.1	1100.6
73750	18.772	0.6	0.1	1135.4
73751	18.822	0.65	0.1	1123.5
73752	18.672	0.6	0.1	1158.4
73753	18.722	0.65	0.1	1146.5
73754	18.573	0.6	0.1	1181.5
73755	18.623	0.65	0.1	1169.6
73756	18.473	0.6	0.1	1204.6
73757	18.523	0.65	0.1	1192.7
73758	18.374	0.6	0.1	1227.8
73759	18.423	0.65	0.1	1215.9
73760	18.274	0.6	0.1	1251.1
73761	18.324	0.65	0.1	1239.1
73762	18.175	0.6	0.1	1274.4
73763	18.224	0.65	0.1	1262.3
73764	18.075	0.6	0.1	1297.7
73765	18.125	0.65	0.1	1285.7
73766	17.975	0.6	0.1	1321.1
73767	18.025	0.65	0.1	1309.
73768	17.876	0.6	0.1	1344.6
73769	17.926	0.65	0.1	1332.5
73770	17.776	0.6	0.1	1368.1
73771	17.826	0.65	0.1	1356.
73772	17.677	0.6	0.1	1391.7
73773	17.726	0.65	0.1	1379.5
73774	17.577	0.6	0.1	1415.4
73775	17.627	0.65	0.1	1403.1
73776	17.477	0.6	0.1	1439.1
73777	17.527	0.65	0.1	1426.8
73778	17.378	0.6	0.1	1462.8
73779	17.428	0.65	0.1	1450.5
73780	17.278	0.6	0.1	1486.6
73781	17.328	0.65	0.1	1474.3
73782	17.179	0.6	0.1	1510.5
73783	17.229	0.65	0.1	1498.1
73784	17.079	0.6	0.1	1534.4
73785	17.129	0.65	0.1	1522.
73786	16.98	0.6	0.1	1558.4
73787	17.029	0.65	0.1	1546.
73788	16.88	0.6	0.1	1582.4
73789	16.93	0.65	0.1	1570.
73790	16.78	0.6	0.1	1606.5
73791	16.83	0.65	0.1	1594.1
73792	16.681	0.6	0.1	1630.7
73793	16.731	0.65	0.1	1618.2
73794	16.581	0.6	0.1	1654.9
73795	16.631	0.65	0.1	1642.4
73796	16.482	0.6	0.1	1679.2
73797	16.531	0.65	0.1	1666.6
73798	16.382	0.6	0.1	1703.5
73799	16.432	0.65	0.1	1690.9
73800	16.282	0.6	0.1	1727.9
73801	16.332	0.65	0.1	1715.3
73802	16.183	0.6	0.1	1752.4
73803	16.233	0.65	0.1	1739.7
73804	16.083	0.6	0.1	1776.9
73805	16.133	0.65	0.1	1764.2
73806	15.984	0.6	0.1	1801.5
73807	16.034	0.65	0.1	1788.7
73808	15.884	0.6	0.1	1826.1
73809	15.934	0.65	0.1	1813.3
73810	15.785	0.6	0.1	1850.8
73811	15.834	0.65	0.1	1838.
73812	15.685	0.6	0.1	1875.6
73813	15.735	0.65	0.1	1862.7
73814	15.585	0.6	0.1	1900.4
73815	15.635	0.65	0.1	1887.5
73816	15.486	0.6	0.1	1925.3
73817	15.536	0.65	0.1	1912.3
73818	15.386	0.6	0.1	1950.2
73819	15.436	0.65	0.1	1937.2
73820	15.287	0.6	0.1	1975.2
73821	15.336	0.65	0.1	1962.2
73822	15.187	0.6	0.1	2000.2
73823	15.237	0.65	0.1	1987.2
73824	15.088	0.6	0.1	2025.3
73825	15.137	0.65	0.1	2012.2
73826	14.988	0.6	0.1	2050.5
73827	15.038	0.65	0.1	2037.4
73828	14.888	0.6	0.1	2075.7
73829	14.938	0.65	0.1	2062.6
73830	14.789	0.6	0.1	2101.
73831	14.839	0.65	0.1	2087.8
73832	14.689	0.6	0.1	2126.3
73833	14.739	0.65	0.1	2113.1
73834	14.59	0.6	0.1	2151.7
73835	14.639	0.65	0.1	2138.4
73836	14.49	0.6	0.1	2177.1
73837	14.54	0.65	0.1	2163.8
73838	14.39	0.6	0.1	2202.6
73839	14.44	0.65	0.1	2189.3
73840	14.291	0.6	0.1	2228.1
73841	14.341	0.65	0.1	2214.8
73842	14.191	0.6	0.1	2253.7
73843	14.241	0.65	0.1	2240.3
73844	14.092	0.6	0.1	2279.3
73845	14.142	0.65	0.1	2265.9
73846	13.992	0.6	0.1	2305.
73847	14.042	0.65	0.1	2291.5
73848	13.893	0.6	0.1	2330.6
73849	13.942	0.65	0.1	2317.2
73850	13.793	0.6	0.1	2356.4
73851	13.843	0.65	0.1	2342.9
73852	13.693	0.6	0.1	2382.1
73853	13.743	0.65	0.1	2368.6
73854	13.594	0.6	0.1	2407.8
73855	13.644	0.65	0.1	2394.4
73856	13.494	0.6	0.1	2433.6
73857	13.544	0.65	0.1	2420.1
73858	13.395	0.6	0.1	2459.3
73859	13.444	0.65	0.1	2445.9
73860	13.295	0.6	0.1	2485.1
73861	13.345	0.65	0.1	2471.6
73862	13.195	0.6	0.1	2510.8
73863	13.245	0.65	0.1	2497.4
73864	13.096	0.6	0.1	2536.4
73865	13.146	0.65	0.1	2523.1
73866	12.996	0.6	0.1	2562.1
73867	13.046	0.65	0.1	2548.8
73868	12.897	0.6	0.1	2587.6
73869	12.947	0.65	0.1	2574.4
73870	12.797	0.6	0.1	2613.1
73871	12.847	0.65	0.1	2600.
73872	12.698	0.6	0.1	2638.4
73873	12.747	0.65	0.1	2625.4
73874	12.598	0.6	0.1	2663.6
73875	12.648	0.65	0.1	2650.7
73876	12.498	0.6	0.1	2688.6
73877	12.548	0.65	0.1	2675.9
73878	12.399	0.6	0.1	2713.4
73879	12.449	0.65	0.1	2700.9
73880	12.299	0.6	0.1	2737.9
73881	12.349	0.65	0.1	2725.7
73882	12.2	0.6	0.1	2762.1
73883	12.249	0.65	0.1	2750.2
73884	12.1	0.6	0.1	2786.
73885	12.15	0.65	0.1	2774.4
73886	12.001	0.6	0.1	2809.4
73887	12.05	0.65	0.1	2798.2
73888	11.901	0.6	0.1	2832.4
73889	11.951	0.65	0.1	2821.6
73890	11.801	0.6	0.1	2854.7
73891	11.851	0.65	0.1	2844.5
73892	11.702	0.6	0.1	2876.4
73893	11.752	0.65	0.1	2866.8
73894	11.602	0.6	0.1	2897.4
73895	11.652	0.65	0.1	2888.4
73896	11.503	0.6	0.1	2917.4
73897	11.552	0.65	0.1	2909.2
73898	11.403	0.6	0.1	2936.4
73899	11.453	0.65	0.1	2929.1
73900	11.303	0.6	0.1	2954.2
73901	11.353	0.65	0.1	2948.
73902	11.204	0.6	0.1	2970.7
73903	11.254	0.65	0.1	2965.6
73904	11.104	0.6	0.1	2985.6
73905	11.154	0.65	0.1	2981.9
73906	11.005	0.6	0.1	2998.8
73907	11.055	0.65	0.1	2996.6
73908	10.905	0.6	0.1	3009.9
73909	10.955	0.65	0.1	3009.5
73910	10.806	0.6	0.1	3018.7
73911	10.855	0.65	0.1	3020.3
73912	10.706	0.6	0.1	3024.9
73913	10.756	0.65	0.1	3028.7
73914	10.606	0.6	0.1	3028.1
73915	10.656	0.65	0.1	3034.5
73916	10.507	0.6	0.1	3027.9
73917	10.557	0.65	0.1	3037.2
73918	10.407	0.6	0.1	3024.
73919	10.457	0.65	0.1	3036.5
73920	10.308	0.6	0.1	3015.7
73921	10.357	0.65	0.1	3031.9
73922	10.208	0.6	0.1	3002.7
73923	10.258	0.65	0.1	3022.9
73924	10.108	0.6	0.1	2984.2
73925	10.158	0.65	0.1	3009.
73926	10.009	0.6	0.1	2959.6
73927	10.059	0.65	0.1	2989.6
73928	9.9093	0.6	0.1	2928.3
73929	9.9591	0.65	0.1	2964.
73930	9.8097	0.6	0.1	2889.4
73931	9.8595	0.65	0.1	2931.5
73932	9.7102	0.6	0.1	2842.2
73933	9.76	0.65	0.1	2891.3
73934	9.6106	0.6	0.1	2785.9
73935	9.6604	0.65	0.1	2842.6
73936	9.511	0.6	0.1	2719.6
73937	9.5608	0.65	0.1	2784.7
73938	9.4114	0.6	0.1	2642.6
73939	9.4612	0.65	0.1	2716.7
73940	9.3118	0.6	0.1	2554.
73941	9.3616	0.65	0.1	2637.9
73942	9.2123	0.6	0.1	2453.4
73943	9.2621	0.65	0.1	2547.6
73944	9.1127	0.6	0.1	2340.4
73945	9.1625	0.65	0.1	2445.4
73946	9.0131	0.6	0.1	2215.4
73947	9.0629	0.65	0.1	2331.2
73948	8.9135	0.6	0.1	2079.1
73949	8.9633	0.65	0.1	2205.6
73950	8.8139	0.6	0.1	1933.8
73951	8.8637	0.65	0.1	2070.
73952	8.7144	0.6	0.1	1782.7
73953	8.7642	0.65	0.1	1927.2
73954	8.6148	0.6	0.1	1631.6
73955	8.6646	0.65	0.1	1781.5
73956	8.5152	0.6	0.1	1488.2
73957	8.565	0.65	0.1	1639.3
73958	8.4156	0.6	0.1	1362.2
73959	8.4654	0.65	0.1	1508.5
73960	8.316	0.6	0.1	1280.6
73961	8.3658	0.65	0.1	1398.7
73962	8.2662	0.65	0.1	1354.3
73963	8.2165	0.6	0.1	959.23
73964	23.851	0.7	0.1	32.168
73965	23.9	0.75	0.1	22.456
73966	23.95	0.7	0.1	12.254
73967	23.751	0.7	0.1	51.787
73968	23.801	0.75	0.1	42.049
73969	23.651	0.7	0.1	71.536
73970	23.701	0.75	0.1	61.856
73971	23.552	0.7	0.1	91.37
73972	23.602	0.75	0.1	81.71
73973	23.452	0.7	0.1	111.33
73974	23.502	0.75	0.1	101.65
73975	23.353	0.7	0.1	131.43
73976	23.403	0.75	0.1	121.7
73977	23.253	0.7	0.1	151.68
73978	23.303	0.75	0.1	141.88
73979	23.154	0.7	0.1	172.07
73980	23.203	0.75	0.1	162.2
73981	23.054	0.7	0.1	192.6
73982	23.104	0.75	0.1	182.65
73983	22.954	0.7	0.1	213.25
73984	23.004	0.75	0.1	203.22
73985	22.855	0.7	0.1	234.01
73986	22.905	0.75	0.1	223.9
73987	22.755	0.7	0.1	254.88
73988	22.805	0.75	0.1	244.69
73989	22.656	0.7	0.1	275.83
73990	22.705	0.75	0.1	265.57
73991	22.556	0.7	0.1	296.86
73992	22.606	0.75	0.1	286.54
73993	22.456	0.7	0.1	317.97
73994	22.506	0.75	0.1	307.58
73995	22.357	0.7	0.1	339.15
73996	22.407	0.75	0.1	328.7
73997	22.257	0.7	0.1	360.39
73998	22.307	0.75	0.1	349.88
73999	22.158	0.7	0.1	381.69
74000	22.208	0.75	0.1	371.12
74001	22.058	0.7	0.1	403.05
74002	22.108	0.75	0.1	392.43
74003	21.959	0.7	0.1	424.46
74004	22.008	0.75	0.1	413.79
74005	21.859	0.7	0.1	445.92
74006	21.909	0.75	0.1	435.2
74007	21.759	0.7	0.1	467.43
74008	21.809	0.75	0.1	456.67
74009	21.66	0.7	0.1	488.99
74010	21.71	0.75	0.1	478.18
74011	21.56	0.7	0.1	510.59
74012	21.61	0.75	0.1	499.75
74013	21.461	0.7	0.1	532.25
74014	21.51	0.75	0.1	521.36
74015	21.361	0.7	0.1	553.95
74016	21.411	0.75	0.1	543.02
74017	21.262	0.7	0.1	575.69
74018	21.311	0.75	0.1	564.72
74019	21.162	0.7	0.1	597.48
74020	21.212	0.75	0.1	586.47
74021	21.062	0.7	0.1	619.32
74022	21.112	0.75	0.1	608.27
74023	20.963	0.7	0.1	641.2
74024	21.013	0.75	0.1	630.11
74025	20.863	0.7	0.1	663.12
74026	20.913	0.75	0.1	652.
74027	20.764	0.7	0.1	685.09
74028	20.813	0.75	0.1	673.94
74029	20.664	0.7	0.1	707.11
74030	20.714	0.75	0.1	695.92
74031	20.564	0.7	0.1	729.18
74032	20.614	0.75	0.1	717.95
74033	20.465	0.7	0.1	751.29
74034	20.515	0.75	0.1	740.03
74035	20.365	0.7	0.1	773.44
74036	20.415	0.75	0.1	762.15
74037	20.266	0.7	0.1	795.65
74038	20.316	0.75	0.1	784.32
74039	20.166	0.7	0.1	817.9
74040	20.216	0.75	0.1	806.54
74041	20.067	0.7	0.1	840.2
74042	20.116	0.75	0.1	828.81
74043	19.967	0.7	0.1	862.55
74044	20.017	0.75	0.1	851.13
74045	19.867	0.7	0.1	884.95
74046	19.917	0.75	0.1	873.49
74047	19.768	0.7	0.1	907.4
74048	19.818	0.75	0.1	895.91
74049	19.668	0.7	0.1	929.9
74050	19.718	0.75	0.1	918.38
74051	19.569	0.7	0.1	952.45
74052	19.618	0.75	0.1	940.89
74053	19.469	0.7	0.1	975.05
74054	19.519	0.75	0.1	963.46
74055	19.369	0.7	0.1	997.7
74056	19.419	0.75	0.1	986.08
74057	19.27	0.7	0.1	1020.4
74058	19.32	0.75	0.1	1008.7
74059	19.17	0.7	0.1	1043.2
74060	19.22	0.75	0.1	1031.5
74061	19.071	0.7	0.1	1066.
74062	19.121	0.75	0.1	1054.2
74063	18.971	0.7	0.1	1088.8
74064	19.021	0.75	0.1	1077.1
74065	18.872	0.7	0.1	1111.7
74066	18.921	0.75	0.1	1100.
74067	18.772	0.7	0.1	1134.7
74068	18.822	0.75	0.1	1122.9
74069	18.672	0.7	0.1	1157.7
74070	18.722	0.75	0.1	1145.9
74071	18.573	0.7	0.1	1180.8
74072	18.623	0.75	0.1	1168.9
74073	18.473	0.7	0.1	1203.9
74074	18.523	0.75	0.1	1192.
74075	18.374	0.7	0.1	1227.1
74076	18.423	0.75	0.1	1215.2
74077	18.274	0.7	0.1	1250.3
74078	18.324	0.75	0.1	1238.4
74079	18.175	0.7	0.1	1273.6
74080	18.224	0.75	0.1	1261.6
74081	18.075	0.7	0.1	1297.
74082	18.125	0.75	0.1	1285.
74083	17.975	0.7	0.1	1320.4
74084	18.025	0.75	0.1	1308.3
74085	17.876	0.7	0.1	1343.9
74086	17.926	0.75	0.1	1331.8
74087	17.776	0.7	0.1	1367.4
74088	17.826	0.75	0.1	1355.2
74089	17.677	0.7	0.1	1390.9
74090	17.726	0.75	0.1	1378.8
74091	17.577	0.7	0.1	1414.6
74092	17.627	0.75	0.1	1402.4
74093	17.477	0.7	0.1	1438.3
74094	17.527	0.75	0.1	1426.
74095	17.378	0.7	0.1	1462.
74096	17.428	0.75	0.1	1449.7
74097	17.278	0.7	0.1	1485.8
74098	17.328	0.75	0.1	1473.5
74099	17.179	0.7	0.1	1509.7
74100	17.229	0.75	0.1	1497.3
74101	17.079	0.7	0.1	1533.6
74102	17.129	0.75	0.1	1521.2
74103	16.98	0.7	0.1	1557.6
74104	17.029	0.75	0.1	1545.2
74105	16.88	0.7	0.1	1581.6
74106	16.93	0.75	0.1	1569.2
74107	16.78	0.7	0.1	1605.7
74108	16.83	0.75	0.1	1593.2
74109	16.681	0.7	0.1	1629.9
74110	16.731	0.75	0.1	1617.4
74111	16.581	0.7	0.1	1654.1
74112	16.631	0.75	0.1	1641.5
74113	16.482	0.7	0.1	1678.3
74114	16.531	0.75	0.1	1665.8
74115	16.382	0.7	0.1	1702.7
74116	16.432	0.75	0.1	1690.1
74117	16.282	0.7	0.1	1727.
74118	16.332	0.75	0.1	1714.4
74119	16.183	0.7	0.1	1751.5
74120	16.233	0.75	0.1	1738.8
74121	16.083	0.7	0.1	1776.
74122	16.133	0.75	0.1	1763.3
74123	15.984	0.7	0.1	1800.6
74124	16.034	0.75	0.1	1787.8
74125	15.884	0.7	0.1	1825.2
74126	15.934	0.75	0.1	1812.4
74127	15.785	0.7	0.1	1849.9
74128	15.834	0.75	0.1	1837.1
74129	15.685	0.7	0.1	1874.6
74130	15.735	0.75	0.1	1861.8
74131	15.585	0.7	0.1	1899.4
74132	15.635	0.75	0.1	1886.5
74133	15.486	0.7	0.1	1924.3
74134	15.536	0.75	0.1	1911.3
74135	15.386	0.7	0.1	1949.2
74136	15.436	0.75	0.1	1936.2
74137	15.287	0.7	0.1	1974.2
74138	15.336	0.75	0.1	1961.2
74139	15.187	0.7	0.1	1999.2
74140	15.237	0.75	0.1	1986.2
74141	15.088	0.7	0.1	2024.3
74142	15.137	0.75	0.1	2011.2
74143	14.988	0.7	0.1	2049.4
74144	15.038	0.75	0.1	2036.3
74145	14.888	0.7	0.1	2074.6
74146	14.938	0.75	0.1	2061.5
74147	14.789	0.7	0.1	2099.9
74148	14.839	0.75	0.1	2086.7
74149	14.689	0.7	0.1	2125.2
74150	14.739	0.75	0.1	2112.
74151	14.59	0.7	0.1	2150.6
74152	14.639	0.75	0.1	2137.4
74153	14.49	0.7	0.1	2176.
74154	14.54	0.75	0.1	2162.7
74155	14.39	0.7	0.1	2201.5
74156	14.44	0.75	0.1	2188.2
74157	14.291	0.7	0.1	2227.
74158	14.341	0.75	0.1	2213.7
74159	14.191	0.7	0.1	2252.6
74160	14.241	0.75	0.1	2239.2
74161	14.092	0.7	0.1	2278.2
74162	14.142	0.75	0.1	2264.8
74163	13.992	0.7	0.1	2303.8
74164	14.042	0.75	0.1	2290.4
74165	13.893	0.7	0.1	2329.5
74166	13.942	0.75	0.1	2316.1
74167	13.793	0.7	0.1	2355.2
74168	13.843	0.75	0.1	2341.8
74169	13.693	0.7	0.1	2380.9
74170	13.743	0.75	0.1	2367.5
74171	13.594	0.7	0.1	2406.7
74172	13.644	0.75	0.1	2393.2
74173	13.494	0.7	0.1	2432.4
74174	13.544	0.75	0.1	2419.
74175	13.395	0.7	0.1	2458.2
74176	13.444	0.75	0.1	2444.8
74177	13.295	0.7	0.1	2484.
74178	13.345	0.75	0.1	2470.6
74179	13.195	0.7	0.1	2509.7
74180	13.245	0.75	0.1	2496.4
74181	13.096	0.7	0.1	2535.5
74182	13.146	0.75	0.1	2522.1
74183	12.996	0.7	0.1	2561.1
74184	13.046	0.75	0.1	2547.9
74185	12.897	0.7	0.1	2586.8
74186	12.947	0.75	0.1	2573.6
74187	12.797	0.7	0.1	2612.3
74188	12.847	0.75	0.1	2599.2
74189	12.698	0.7	0.1	2637.7
74190	12.747	0.75	0.1	2624.7
74191	12.598	0.7	0.1	2663.1
74192	12.648	0.75	0.1	2650.2
74193	12.498	0.7	0.1	2688.2
74194	12.548	0.75	0.1	2675.5
74195	12.399	0.7	0.1	2713.2
74196	12.449	0.75	0.1	2700.7
74197	12.299	0.7	0.1	2737.9
74198	12.349	0.75	0.1	2725.7
74199	12.2	0.7	0.1	2762.4
74200	12.249	0.75	0.1	2750.4
74201	12.1	0.7	0.1	2786.6
74202	12.15	0.75	0.1	2774.9
74203	12.001	0.7	0.1	2810.3
74204	12.05	0.75	0.1	2799.
74205	11.901	0.7	0.1	2833.7
74206	11.951	0.75	0.1	2822.8
74207	11.801	0.7	0.1	2856.5
74208	11.851	0.75	0.1	2846.1
74209	11.702	0.7	0.1	2878.7
74210	11.752	0.75	0.1	2868.9
74211	11.602	0.7	0.1	2900.2
74212	11.652	0.75	0.1	2891.1
74213	11.503	0.7	0.1	2920.9
74214	11.552	0.75	0.1	2912.5
74215	11.403	0.7	0.1	2940.7
74216	11.453	0.75	0.1	2933.2
74217	11.303	0.7	0.1	2959.4
74218	11.353	0.75	0.1	2952.9
74219	11.204	0.7	0.1	2976.8
74220	11.254	0.75	0.1	2971.5
74221	11.104	0.7	0.1	2992.9
74222	11.154	0.75	0.1	2988.9
74223	11.005	0.7	0.1	3007.3
74224	11.055	0.75	0.1	3004.8
74225	10.905	0.7	0.1	3019.8
74226	10.955	0.75	0.1	3019.1
74227	10.806	0.7	0.1	3030.3
74228	10.855	0.75	0.1	3031.5
74229	10.706	0.7	0.1	3038.3
74230	10.756	0.75	0.1	3041.8
74231	10.606	0.7	0.1	3043.6
74232	10.656	0.75	0.1	3049.6
74233	10.507	0.7	0.1	3045.7
74234	10.557	0.75	0.1	3054.6
74235	10.407	0.7	0.1	3044.4
74236	10.457	0.75	0.1	3056.5
74237	10.308	0.7	0.1	3039.1
74238	10.357	0.75	0.1	3054.8
74239	10.208	0.7	0.1	3029.2
74240	10.258	0.75	0.1	3049.1
74241	10.108	0.7	0.1	3014.4
74242	10.158	0.75	0.1	3038.8
74243	10.009	0.7	0.1	2993.9
74244	10.059	0.75	0.1	3023.5
74245	9.9093	0.7	0.1	2967.
74246	9.9591	0.75	0.1	3002.4
74247	9.8097	0.7	0.1	2933.1
74248	9.8595	0.75	0.1	2974.9
74249	9.7102	0.7	0.1	2891.4
74250	9.76	0.75	0.1	2940.3
74251	9.6106	0.7	0.1	2841.1
74252	9.6604	0.75	0.1	2897.9
74253	9.511	0.7	0.1	2781.4
74254	9.5608	0.75	0.1	2846.8
74255	9.4114	0.7	0.1	2711.5
74256	9.4612	0.75	0.1	2786.3
74257	9.3118	0.7	0.1	2630.7
74258	9.3616	0.75	0.1	2715.6
74259	9.2123	0.7	0.1	2538.6
74260	9.2621	0.75	0.1	2634.2
74261	9.1127	0.7	0.1	2434.8
74262	9.1625	0.75	0.1	2541.5
74263	9.0131	0.7	0.1	2319.6
74264	9.0629	0.75	0.1	2437.7
74265	8.9135	0.7	0.1	2194.
74266	8.9633	0.75	0.1	2323.2
74267	8.8139	0.7	0.1	2060.2
74268	8.8637	0.75	0.1	2199.5
74269	8.7144	0.7	0.1	1921.4
74270	8.7642	0.75	0.1	2069.1
74271	8.6148	0.7	0.1	1783.
74272	8.6646	0.75	0.1	1936.
74273	8.5152	0.7	0.1	1651.6
74274	8.565	0.75	0.1	1805.8
74275	8.4156	0.7	0.1	1535.3
74276	8.4654	0.75	0.1	1685.1
74277	8.316	0.7	0.1	1462.1
74278	8.3658	0.75	0.1	1581.7
74279	8.2662	0.75	0.1	1545.1
74280	8.2165	0.7	0.1	1095.3
74281	23.851	0.8	0.1	32.278
74282	23.9	0.85	0.1	22.442
74283	23.95	0.8	0.1	12.26
74284	23.751	0.8	0.1	52.112
74285	23.801	0.85	0.1	42.246
74286	23.651	0.8	0.1	72.038
74287	23.701	0.85	0.1	62.239
74288	23.552	0.8	0.1	92.002
74289	23.602	0.85	0.1	82.243
74290	23.452	0.8	0.1	112.04
74291	23.502	0.85	0.1	102.29
74292	23.353	0.8	0.1	132.18
74293	23.403	0.85	0.1	122.41
74294	23.253	0.8	0.1	152.43
74295	23.303	0.85	0.1	142.62
74296	23.154	0.8	0.1	172.81
74297	23.203	0.85	0.1	162.94
74298	23.054	0.8	0.1	193.3
74299	23.104	0.85	0.1	183.37
74300	22.954	0.8	0.1	213.9
74301	23.004	0.85	0.1	203.91
74302	22.855	0.8	0.1	234.61
74303	22.905	0.85	0.1	224.55
74304	22.755	0.8	0.1	255.42
74305	22.805	0.85	0.1	245.28
74306	22.656	0.8	0.1	276.31
74307	22.705	0.85	0.1	266.11
74308	22.556	0.8	0.1	297.28
74309	22.606	0.85	0.1	287.02
74310	22.456	0.8	0.1	318.33
74311	22.506	0.85	0.1	308.01
74312	22.357	0.8	0.1	339.46
74313	22.407	0.85	0.1	329.07
74314	22.257	0.8	0.1	360.64
74315	22.307	0.85	0.1	350.2
74316	22.158	0.8	0.1	381.89
74317	22.208	0.85	0.1	371.39
74318	22.058	0.8	0.1	403.2
74319	22.108	0.85	0.1	392.65
74320	21.959	0.8	0.1	424.56
74321	22.008	0.85	0.1	413.96
74322	21.859	0.8	0.1	445.98
74323	21.909	0.85	0.1	435.33
74324	21.759	0.8	0.1	467.44
74325	21.809	0.85	0.1	456.75
74326	21.66	0.8	0.1	488.96
74327	21.71	0.85	0.1	478.22
74328	21.56	0.8	0.1	510.53
74329	21.61	0.85	0.1	499.74
74330	21.461	0.8	0.1	532.15
74331	21.51	0.85	0.1	521.32
74332	21.361	0.8	0.1	553.81
74333	21.411	0.85	0.1	542.94
74334	21.262	0.8	0.1	575.52
74335	21.311	0.85	0.1	564.61
74336	21.162	0.8	0.1	597.28
74337	21.212	0.85	0.1	586.33
74338	21.062	0.8	0.1	619.09
74339	21.112	0.85	0.1	608.09
74340	20.963	0.8	0.1	640.94
74341	21.013	0.85	0.1	629.91
74342	20.863	0.8	0.1	662.84
74343	20.913	0.85	0.1	651.77
74344	20.764	0.8	0.1	684.79
74345	20.813	0.85	0.1	673.68
74346	20.664	0.8	0.1	706.78
74347	20.714	0.85	0.1	695.64
74348	20.564	0.8	0.1	728.82
74349	20.614	0.85	0.1	717.64
74350	20.465	0.8	0.1	750.91
74351	20.515	0.85	0.1	739.69
74352	20.365	0.8	0.1	773.05
74353	20.415	0.85	0.1	761.8
74354	20.266	0.8	0.1	795.23
74355	20.316	0.85	0.1	783.95
74356	20.166	0.8	0.1	817.47
74357	20.216	0.85	0.1	806.15
74358	20.067	0.8	0.1	839.75
74359	20.116	0.85	0.1	828.39
74360	19.967	0.8	0.1	862.08
74361	20.017	0.85	0.1	850.69
74362	19.867	0.8	0.1	884.46
74363	19.917	0.85	0.1	873.04
74364	19.768	0.8	0.1	906.9
74365	19.818	0.85	0.1	895.44
74366	19.668	0.8	0.1	929.38
74367	19.718	0.85	0.1	917.89
74368	19.569	0.8	0.1	951.92
74369	19.618	0.85	0.1	940.39
74370	19.469	0.8	0.1	974.5
74371	19.519	0.85	0.1	962.95
74372	19.369	0.8	0.1	997.14
74373	19.419	0.85	0.1	985.55
74374	19.27	0.8	0.1	1019.8
74375	19.32	0.85	0.1	1008.2
74376	19.17	0.8	0.1	1042.6
74377	19.22	0.85	0.1	1030.9
74378	19.071	0.8	0.1	1065.4
74379	19.121	0.85	0.1	1053.7
74380	18.971	0.8	0.1	1088.2
74381	19.021	0.85	0.1	1076.5
74382	18.872	0.8	0.1	1111.1
74383	18.921	0.85	0.1	1099.4
74384	18.772	0.8	0.1	1134.1
74385	18.822	0.85	0.1	1122.3
74386	18.672	0.8	0.1	1157.1
74387	18.722	0.85	0.1	1145.3
74388	18.573	0.8	0.1	1180.2
74389	18.623	0.85	0.1	1168.3
74390	18.473	0.8	0.1	1203.3
74391	18.523	0.85	0.1	1191.4
74392	18.374	0.8	0.1	1226.4
74393	18.423	0.85	0.1	1214.5
74394	18.274	0.8	0.1	1249.7
74395	18.324	0.85	0.1	1237.7
74396	18.175	0.8	0.1	1273.
74397	18.224	0.85	0.1	1261.
74398	18.075	0.8	0.1	1296.3
74399	18.125	0.85	0.1	1284.3
74400	17.975	0.8	0.1	1319.7
74401	18.025	0.85	0.1	1307.7
74402	17.876	0.8	0.1	1343.2
74403	17.926	0.85	0.1	1331.1
74404	17.776	0.8	0.1	1366.7
74405	17.826	0.85	0.1	1354.6
74406	17.677	0.8	0.1	1390.2
74407	17.726	0.85	0.1	1378.1
74408	17.577	0.8	0.1	1413.8
74409	17.627	0.85	0.1	1401.7
74410	17.477	0.8	0.1	1437.5
74411	17.527	0.85	0.1	1425.3
74412	17.378	0.8	0.1	1461.3
74413	17.428	0.85	0.1	1449.
74414	17.278	0.8	0.1	1485.1
74415	17.328	0.85	0.1	1472.8
74416	17.179	0.8	0.1	1508.9
74417	17.229	0.85	0.1	1496.6
74418	17.079	0.8	0.1	1532.8
74419	17.129	0.85	0.1	1520.5
74420	16.98	0.8	0.1	1556.8
74421	17.029	0.85	0.1	1544.4
74422	16.88	0.8	0.1	1580.8
74423	16.93	0.85	0.1	1568.4
74424	16.78	0.8	0.1	1604.9
74425	16.83	0.85	0.1	1592.5
74426	16.681	0.8	0.1	1629.
74427	16.731	0.85	0.1	1616.6
74428	16.581	0.8	0.1	1653.2
74429	16.631	0.85	0.1	1640.7
74430	16.482	0.8	0.1	1677.5
74431	16.531	0.85	0.1	1665.
74432	16.382	0.8	0.1	1701.8
74433	16.432	0.85	0.1	1689.2
74434	16.282	0.8	0.1	1726.2
74435	16.332	0.85	0.1	1713.6
74436	16.183	0.8	0.1	1750.6
74437	16.233	0.85	0.1	1738.
74438	16.083	0.8	0.1	1775.1
74439	16.133	0.85	0.1	1762.4
74440	15.984	0.8	0.1	1799.7
74441	16.034	0.85	0.1	1787.
74442	15.884	0.8	0.1	1824.3
74443	15.934	0.85	0.1	1811.5
74444	15.785	0.8	0.1	1849.
74445	15.834	0.85	0.1	1836.2
74446	15.685	0.8	0.1	1873.7
74447	15.735	0.85	0.1	1860.9
74448	15.585	0.8	0.1	1898.5
74449	15.635	0.85	0.1	1885.6
74450	15.486	0.8	0.1	1923.3
74451	15.536	0.85	0.1	1910.4
74452	15.386	0.8	0.1	1948.2
74453	15.436	0.85	0.1	1935.3
74454	15.287	0.8	0.1	1973.2
74455	15.336	0.85	0.1	1960.2
74456	15.187	0.8	0.1	1998.2
74457	15.237	0.85	0.1	1985.2
74458	15.088	0.8	0.1	2023.3
74459	15.137	0.85	0.1	2010.2
74460	14.988	0.8	0.1	2048.4
74461	15.038	0.85	0.1	2035.3
74462	14.888	0.8	0.1	2073.6
74463	14.938	0.85	0.1	2060.5
74464	14.789	0.8	0.1	2098.9
74465	14.839	0.85	0.1	2085.7
74466	14.689	0.8	0.1	2124.2
74467	14.739	0.85	0.1	2111.
74468	14.59	0.8	0.1	2149.5
74469	14.639	0.85	0.1	2136.3
74470	14.49	0.8	0.1	2174.9
74471	14.54	0.85	0.1	2161.7
74472	14.39	0.8	0.1	2200.4
74473	14.44	0.85	0.1	2187.1
74474	14.291	0.8	0.1	2225.9
74475	14.341	0.85	0.1	2212.6
74476	14.191	0.8	0.1	2251.4
74477	14.241	0.85	0.1	2238.1
74478	14.092	0.8	0.1	2277.
74479	14.142	0.85	0.1	2263.7
74480	13.992	0.8	0.1	2302.7
74481	14.042	0.85	0.1	2289.3
74482	13.893	0.8	0.1	2328.4
74483	13.942	0.85	0.1	2315.
74484	13.793	0.8	0.1	2354.1
74485	13.843	0.85	0.1	2340.7
74486	13.693	0.8	0.1	2379.8
74487	13.743	0.85	0.1	2366.4
74488	13.594	0.8	0.1	2405.6
74489	13.644	0.85	0.1	2392.2
74490	13.494	0.8	0.1	2431.4
74491	13.544	0.85	0.1	2418.
74492	13.395	0.8	0.1	2457.2
74493	13.444	0.85	0.1	2443.8
74494	13.295	0.8	0.1	2483.
74495	13.345	0.85	0.1	2469.6
74496	13.195	0.8	0.1	2508.8
74497	13.245	0.85	0.1	2495.4
74498	13.096	0.8	0.1	2534.5
74499	13.146	0.85	0.1	2521.2
74500	12.996	0.8	0.1	2560.3
74501	13.046	0.85	0.1	2547.
74502	12.897	0.8	0.1	2586.
74503	12.947	0.85	0.1	2572.8
74504	12.797	0.8	0.1	2611.6
74505	12.847	0.85	0.1	2598.5
74506	12.698	0.8	0.1	2637.2
74507	12.747	0.85	0.1	2624.2
74508	12.598	0.8	0.1	2662.7
74509	12.648	0.85	0.1	2649.8
74510	12.498	0.8	0.1	2688.
74511	12.548	0.85	0.1	2675.2
74512	12.399	0.8	0.1	2713.1
74513	12.449	0.85	0.1	2700.6
74514	12.299	0.8	0.1	2738.1
74515	12.349	0.85	0.1	2725.8
74516	12.2	0.8	0.1	2762.9
74517	12.249	0.85	0.1	2750.8
74518	12.1	0.8	0.1	2787.3
74519	12.15	0.85	0.1	2775.5
74520	12.001	0.8	0.1	2811.5
74521	12.05	0.85	0.1	2800.
74522	11.901	0.8	0.1	2835.2
74523	11.951	0.85	0.1	2824.2
74524	11.801	0.8	0.1	2858.5
74525	11.851	0.85	0.1	2848.
74526	11.702	0.8	0.1	2881.3
74527	11.752	0.85	0.1	2871.3
74528	11.602	0.8	0.1	2903.4
74529	11.652	0.85	0.1	2894.1
74530	11.503	0.8	0.1	2924.8
74531	11.552	0.85	0.1	2916.2
74532	11.403	0.8	0.1	2945.4
74533	11.453	0.85	0.1	2937.7
74534	11.303	0.8	0.1	2965.1
74535	11.353	0.85	0.1	2958.3
74536	11.204	0.8	0.1	2983.6
74537	11.254	0.85	0.1	2978.
74538	11.104	0.8	0.1	3000.8
74539	11.154	0.85	0.1	2996.5
74540	11.005	0.8	0.1	3016.6
74541	11.055	0.85	0.1	3013.8
74542	10.905	0.8	0.1	3030.8
74543	10.955	0.85	0.1	3029.6
74544	10.806	0.8	0.1	3043.
74545	10.855	0.85	0.1	3043.7
74546	10.706	0.8	0.1	3053.
74547	10.756	0.85	0.1	3055.9
74548	10.606	0.8	0.1	3060.6
74549	10.656	0.85	0.1	3066.
74550	10.507	0.8	0.1	3065.3
74551	10.557	0.85	0.1	3073.5
74552	10.407	0.8	0.1	3066.8
74553	10.457	0.85	0.1	3078.3
74554	10.308	0.8	0.1	3064.8
74555	10.357	0.85	0.1	3079.8
74556	10.208	0.8	0.1	3058.6
74557	10.258	0.85	0.1	3077.7
74558	10.108	0.8	0.1	3047.8
74559	10.158	0.85	0.1	3071.5
74560	10.009	0.8	0.1	3031.9
74561	10.059	0.85	0.1	3060.7
74562	9.9093	0.8	0.1	3010.1
74563	9.9591	0.85	0.1	3044.7
74564	9.8097	0.8	0.1	2981.9
74565	9.8595	0.85	0.1	3022.9
74566	9.7102	0.8	0.1	2946.5
74567	9.76	0.85	0.1	2994.7
74568	9.6106	0.8	0.1	2903.2
74569	9.6604	0.85	0.1	2959.3
74570	9.511	0.8	0.1	2851.1
74571	9.5608	0.85	0.1	2916.1
74572	9.4114	0.8	0.1	2789.7
74573	9.4612	0.85	0.1	2864.2
74574	9.3118	0.8	0.1	2718.1
74575	9.3616	0.85	0.1	2803.
74576	9.2123	0.8	0.1	2635.9
74577	9.2621	0.85	0.1	2731.9
74578	9.1127	0.8	0.1	2542.8
74579	9.1625	0.85	0.1	2650.5
74580	9.0131	0.8	0.1	2439.1
74581	9.0629	0.85	0.1	2558.7
74582	8.9135	0.8	0.1	2325.7
74583	8.9633	0.85	0.1	2457.
74584	8.8139	0.8	0.1	2204.4
74585	8.8637	0.85	0.1	2346.5
74586	8.7144	0.8	0.1	2078.4
74587	8.7642	0.85	0.1	2229.4
74588	8.6148	0.8	0.1	1952.
74589	8.6646	0.85	0.1	2109.1
74590	8.5152	0.8	0.1	1830.9
74591	8.565	0.85	0.1	1990.1
74592	8.4156	0.8	0.1	1721.7
74593	8.4654	0.85	0.1	1877.6
74594	8.316	0.8	0.1	1654.6
74595	8.3658	0.85	0.1	1778.4
74596	8.2662	0.85	0.1	1748.
74597	8.2165	0.8	0.1	1237.
74598	23.851	0.9	0.1	32.346
74599	23.9	0.95	0.1	22.409
74600	23.95	0.9	0.1	12.253
74601	23.751	0.9	0.1	52.364
74602	23.801	0.95	0.1	42.39
74603	23.651	0.9	0.1	72.449
74604	23.701	0.95	0.1	62.544
74605	23.552	0.9	0.1	92.541
74606	23.602	0.95	0.1	82.688
74607	23.452	0.9	0.1	112.67
74608	23.502	0.95	0.1	102.85
74609	23.353	0.9	0.1	132.87
74610	23.403	0.95	0.1	123.04
74611	23.253	0.9	0.1	153.15
74612	23.303	0.95	0.1	143.31
74613	23.154	0.9	0.1	173.53
74614	23.203	0.95	0.1	163.65
74615	23.054	0.9	0.1	194.
74616	23.104	0.95	0.1	184.08
74617	22.954	0.9	0.1	214.58
74618	23.004	0.95	0.1	204.6
74619	22.855	0.9	0.1	235.25
74620	22.905	0.95	0.1	225.21
74621	22.755	0.9	0.1	256.
74622	22.805	0.95	0.1	245.91
74623	22.656	0.9	0.1	276.85
74624	22.705	0.95	0.1	266.69
74625	22.556	0.9	0.1	297.77
74626	22.606	0.95	0.1	287.55
74627	22.456	0.9	0.1	318.77
74628	22.506	0.95	0.1	308.49
74629	22.357	0.9	0.1	339.84
74630	22.407	0.95	0.1	329.5
74631	22.257	0.9	0.1	360.97
74632	22.307	0.95	0.1	350.58
74633	22.158	0.9	0.1	382.17
74634	22.208	0.95	0.1	371.73
74635	22.058	0.9	0.1	403.43
74636	22.108	0.95	0.1	392.93
74637	21.959	0.9	0.1	424.75
74638	22.008	0.95	0.1	414.2
74639	21.859	0.9	0.1	446.12
74640	21.909	0.95	0.1	435.52
74641	21.759	0.9	0.1	467.54
74642	21.809	0.95	0.1	456.9
74643	21.66	0.9	0.1	489.02
74644	21.71	0.95	0.1	478.33
74645	21.56	0.9	0.1	510.55
74646	21.61	0.95	0.1	499.81
74647	21.461	0.9	0.1	532.13
74648	21.51	0.95	0.1	521.35
74649	21.361	0.9	0.1	553.75
74650	21.411	0.95	0.1	542.93
74651	21.262	0.9	0.1	575.43
74652	21.311	0.95	0.1	564.57
74653	21.162	0.9	0.1	597.16
74654	21.212	0.95	0.1	586.25
74655	21.062	0.9	0.1	618.93
74656	21.112	0.95	0.1	607.99
74657	20.963	0.9	0.1	640.75
74658	21.013	0.95	0.1	629.77
74659	20.863	0.9	0.1	662.63
74660	20.913	0.95	0.1	651.6
74661	20.764	0.9	0.1	684.54
74662	20.813	0.95	0.1	673.48
74663	20.664	0.9	0.1	706.51
74664	20.714	0.95	0.1	695.41
74665	20.564	0.9	0.1	728.53
74666	20.614	0.95	0.1	717.39
74667	20.465	0.9	0.1	750.6
74668	20.515	0.95	0.1	739.42
74669	20.365	0.9	0.1	772.71
74670	20.415	0.95	0.1	761.5
74671	20.266	0.9	0.1	794.87
74672	20.316	0.95	0.1	783.63
74673	20.166	0.9	0.1	817.09
74674	20.216	0.95	0.1	805.81
74675	20.067	0.9	0.1	839.35
74676	20.116	0.95	0.1	828.04
74677	19.967	0.9	0.1	861.67
74678	20.017	0.95	0.1	850.32
74679	19.867	0.9	0.1	884.03
74680	19.917	0.95	0.1	872.65
74681	19.768	0.9	0.1	906.45
74682	19.818	0.95	0.1	895.03
74683	19.668	0.9	0.1	928.92
74684	19.718	0.95	0.1	917.46
74685	19.569	0.9	0.1	951.44
74686	19.618	0.95	0.1	939.95
74687	19.469	0.9	0.1	974.01
74688	19.519	0.95	0.1	962.49
74689	19.369	0.9	0.1	996.63
74690	19.419	0.95	0.1	985.08
74691	19.27	0.9	0.1	1019.3
74692	19.32	0.95	0.1	1007.7
74693	19.17	0.9	0.1	1042.
74694	19.22	0.95	0.1	1030.4
74695	19.071	0.9	0.1	1064.8
74696	19.121	0.95	0.1	1053.2
74697	18.971	0.9	0.1	1087.7
74698	19.021	0.95	0.1	1076.
74699	18.872	0.9	0.1	1110.6
74700	18.921	0.95	0.1	1098.8
74701	18.772	0.9	0.1	1133.5
74702	18.822	0.95	0.1	1121.7
74703	18.672	0.9	0.1	1156.5
74704	18.722	0.95	0.1	1144.7
74705	18.573	0.9	0.1	1179.6
74706	18.623	0.95	0.1	1167.7
74707	18.473	0.9	0.1	1202.7
74708	18.523	0.95	0.1	1190.8
74709	18.374	0.9	0.1	1225.8
74710	18.423	0.95	0.1	1213.9
74711	18.274	0.9	0.1	1249.
74712	18.324	0.95	0.1	1237.1
74713	18.175	0.9	0.1	1272.3
74714	18.224	0.95	0.1	1260.4
74715	18.075	0.9	0.1	1295.7
74716	18.125	0.95	0.1	1283.7
74717	17.975	0.9	0.1	1319.
74718	18.025	0.95	0.1	1307.
74719	17.876	0.9	0.1	1342.5
74720	17.926	0.95	0.1	1330.4
74721	17.776	0.9	0.1	1366.
74722	17.826	0.95	0.1	1353.9
74723	17.677	0.9	0.1	1389.5
74724	17.726	0.95	0.1	1377.4
74725	17.577	0.9	0.1	1413.2
74726	17.627	0.95	0.1	1401.
74727	17.477	0.9	0.1	1436.8
74728	17.527	0.95	0.1	1424.6
74729	17.378	0.9	0.1	1460.6
74730	17.428	0.95	0.1	1448.3
74731	17.278	0.9	0.1	1484.3
74732	17.328	0.95	0.1	1472.1
74733	17.179	0.9	0.1	1508.2
74734	17.229	0.95	0.1	1495.9
74735	17.079	0.9	0.1	1532.1
74736	17.129	0.95	0.1	1519.8
74737	16.98	0.9	0.1	1556.
74738	17.029	0.95	0.1	1543.7
74739	16.88	0.9	0.1	1580.1
74740	16.93	0.95	0.1	1567.7
74741	16.78	0.9	0.1	1604.1
74742	16.83	0.95	0.1	1591.7
74743	16.681	0.9	0.1	1628.3
74744	16.731	0.95	0.1	1615.8
74745	16.581	0.9	0.1	1652.5
74746	16.631	0.95	0.1	1640.
74747	16.482	0.9	0.1	1676.7
74748	16.531	0.95	0.1	1664.2
74749	16.382	0.9	0.1	1701.
74750	16.432	0.95	0.1	1688.5
74751	16.282	0.9	0.1	1725.4
74752	16.332	0.95	0.1	1712.8
74753	16.183	0.9	0.1	1749.8
74754	16.233	0.95	0.1	1737.2
74755	16.083	0.9	0.1	1774.3
74756	16.133	0.95	0.1	1761.6
74757	15.984	0.9	0.1	1798.8
74758	16.034	0.95	0.1	1786.1
74759	15.884	0.9	0.1	1823.4
74760	15.934	0.95	0.1	1810.7
74761	15.785	0.9	0.1	1848.1
74762	15.834	0.95	0.1	1835.3
74763	15.685	0.9	0.1	1872.8
74764	15.735	0.95	0.1	1860.
74765	15.585	0.9	0.1	1897.6
74766	15.635	0.95	0.1	1884.7
74767	15.486	0.9	0.1	1922.4
74768	15.536	0.95	0.1	1909.5
74769	15.386	0.9	0.1	1947.3
74770	15.436	0.95	0.1	1934.4
74771	15.287	0.9	0.1	1972.2
74772	15.336	0.95	0.1	1959.3
74773	15.187	0.9	0.1	1997.2
74774	15.237	0.95	0.1	1984.3
74775	15.088	0.9	0.1	2022.3
74776	15.137	0.95	0.1	2009.3
74777	14.988	0.9	0.1	2047.4
74778	15.038	0.95	0.1	2034.4
74779	14.888	0.9	0.1	2072.6
74780	14.938	0.95	0.1	2059.5
74781	14.789	0.9	0.1	2097.8
74782	14.839	0.95	0.1	2084.7
74783	14.689	0.9	0.1	2123.1
74784	14.739	0.95	0.1	2110.
74785	14.59	0.9	0.1	2148.5
74786	14.639	0.95	0.1	2135.3
74787	14.49	0.9	0.1	2173.9
74788	14.54	0.95	0.1	2160.7
74789	14.39	0.9	0.1	2199.3
74790	14.44	0.95	0.1	2186.1
74791	14.291	0.9	0.1	2224.8
74792	14.341	0.95	0.1	2211.5
74793	14.191	0.9	0.1	2250.4
74794	14.241	0.95	0.1	2237.1
74795	14.092	0.9	0.1	2276.
74796	14.142	0.95	0.1	2262.6
74797	13.992	0.9	0.1	2301.6
74798	14.042	0.95	0.1	2288.2
74799	13.893	0.9	0.1	2327.3
74800	13.942	0.95	0.1	2313.9
74801	13.793	0.9	0.1	2353.
74802	13.843	0.95	0.1	2339.6
74803	13.693	0.9	0.1	2378.8
74804	13.743	0.95	0.1	2365.3
74805	13.594	0.9	0.1	2404.5
74806	13.644	0.95	0.1	2391.1
74807	13.494	0.9	0.1	2430.3
74808	13.544	0.95	0.1	2416.9
74809	13.395	0.9	0.1	2456.2
74810	13.444	0.95	0.1	2442.8
74811	13.295	0.9	0.1	2482.
74812	13.345	0.95	0.1	2468.6
74813	13.195	0.9	0.1	2507.8
74814	13.245	0.95	0.1	2494.5
74815	13.096	0.9	0.1	2533.7
74816	13.146	0.95	0.1	2520.3
74817	12.996	0.9	0.1	2559.5
74818	13.046	0.95	0.1	2546.2
74819	12.897	0.9	0.1	2585.3
74820	12.947	0.95	0.1	2572.1
74821	12.797	0.9	0.1	2611.
74822	12.847	0.95	0.1	2597.9
74823	12.698	0.9	0.1	2636.7
74824	12.747	0.95	0.1	2623.7
74825	12.598	0.9	0.1	2662.3
74826	12.648	0.95	0.1	2649.4
74827	12.498	0.9	0.1	2687.8
74828	12.548	0.95	0.1	2675.
74829	12.399	0.9	0.1	2713.2
74830	12.449	0.95	0.1	2700.6
74831	12.299	0.9	0.1	2738.4
74832	12.349	0.95	0.1	2726.
74833	12.2	0.9	0.1	2763.4
74834	12.249	0.95	0.1	2751.2
74835	12.1	0.9	0.1	2788.2
74836	12.15	0.95	0.1	2776.3
74837	12.001	0.9	0.1	2812.7
74838	12.05	0.95	0.1	2801.2
74839	11.901	0.9	0.1	2836.9
74840	11.951	0.95	0.1	2825.7
74841	11.801	0.9	0.1	2860.7
74842	11.851	0.95	0.1	2850.
74843	11.702	0.9	0.1	2884.1
74844	11.752	0.95	0.1	2873.9
74845	11.602	0.9	0.1	2906.9
74846	11.652	0.95	0.1	2897.3
74847	11.503	0.9	0.1	2929.1
74848	11.552	0.95	0.1	2920.2
74849	11.403	0.9	0.1	2950.6
74850	11.453	0.95	0.1	2942.5
74851	11.303	0.9	0.1	2971.2
74852	11.353	0.95	0.1	2964.1
74853	11.204	0.9	0.1	2990.9
74854	11.254	0.95	0.1	2984.8
74855	11.104	0.9	0.1	3009.4
74856	11.154	0.95	0.1	3004.7
74857	11.005	0.9	0.1	3026.7
74858	11.055	0.95	0.1	3023.4
74859	10.905	0.9	0.1	3042.5
74860	10.955	0.95	0.1	3040.8
74861	10.806	0.9	0.1	3056.7
74862	10.855	0.95	0.1	3056.8
74863	10.706	0.9	0.1	3068.9
74864	10.756	0.95	0.1	3071.2
74865	10.606	0.9	0.1	3078.9
74866	10.656	0.95	0.1	3083.6
74867	10.507	0.9	0.1	3086.5
74868	10.557	0.95	0.1	3093.9
74869	10.407	0.9	0.1	3091.2
74870	10.457	0.95	0.1	3101.7
74871	10.308	0.9	0.1	3092.7
74872	10.357	0.95	0.1	3106.7
74873	10.208	0.9	0.1	3090.5
74874	10.258	0.95	0.1	3108.5
74875	10.108	0.9	0.1	3084.2
74876	10.158	0.95	0.1	3106.8
74877	10.009	0.9	0.1	3073.4
74878	10.059	0.95	0.1	3101.
74879	9.9093	0.9	0.1	3057.3
74880	9.9591	0.95	0.1	3090.6
74881	9.8097	0.9	0.1	3035.5
74882	9.8595	0.95	0.1	3075.2
74883	9.7102	0.9	0.1	3007.2
74884	9.76	0.95	0.1	3054.1
74885	9.6106	0.9	0.1	2971.8
74886	9.6604	0.95	0.1	3026.6
74887	9.511	0.9	0.1	2928.5
74888	9.5608	0.95	0.1	2992.2
74889	9.4114	0.9	0.1	2876.7
74890	9.4612	0.95	0.1	2950.1
74891	9.3118	0.9	0.1	2815.7
74892	9.3616	0.95	0.1	2899.8
74893	9.2123	0.9	0.1	2745.1
74894	9.2621	0.95	0.1	2840.5
74895	9.1127	0.9	0.1	2664.5
74896	9.1625	0.95	0.1	2772.1
74897	9.0131	0.9	0.1	2574.
74898	9.0629	0.95	0.1	2694.1
74899	8.9135	0.9	0.1	2474.3
74900	8.9633	0.95	0.1	2606.9
74901	8.8139	0.9	0.1	2366.9
74902	8.8637	0.95	0.1	2511.3
74903	8.7144	0.9	0.1	2254.2
74904	8.7642	0.95	0.1	2408.9
74905	8.6148	0.9	0.1	2139.8
74906	8.6646	0.95	0.1	2302.
74907	8.5152	0.9	0.1	2028.
74908	8.565	0.95	0.1	2194.1
74909	8.4156	0.9	0.1	1924.3
74910	8.4654	0.95	0.1	2089.
74911	8.316	0.9	0.1	1861.6
74912	8.3658	0.95	0.1	1992.6
74913	8.2662	0.95	0.1	1967.5
74914	8.2165	0.9	0.1	1387.3
74915	23.851	1.	0.1	32.384
74916	23.9	1.05	0.1	22.362
74917	23.95	1.	0.1	12.237
74918	23.751	1.	0.1	52.56
74919	23.801	1.05	0.1	42.495
74920	23.651	1.	0.1	72.786
74921	23.701	1.05	0.1	62.788
74922	23.552	1.	0.1	93.
74923	23.602	1.05	0.1	83.06
74924	23.452	1.	0.1	113.23
74925	23.502	1.05	0.1	103.32
74926	23.353	1.	0.1	133.49
74927	23.403	1.05	0.1	123.6
74928	23.253	1.	0.1	153.82
74929	23.303	1.05	0.1	143.92
74930	23.154	1.	0.1	174.21
74931	23.203	1.05	0.1	164.3
74932	23.054	1.	0.1	194.69
74933	23.104	1.05	0.1	184.74
74934	22.954	1.	0.1	215.25
74935	23.004	1.05	0.1	205.26
74936	22.855	1.	0.1	235.89
74937	22.905	1.05	0.1	225.86
74938	22.755	1.	0.1	256.61
74939	22.805	1.05	0.1	246.53
74940	22.656	1.	0.1	277.42
74941	22.705	1.05	0.1	267.28
74942	22.556	1.	0.1	298.3
74943	22.606	1.05	0.1	288.11
74944	22.456	1.	0.1	319.25
74945	22.506	1.05	0.1	309.01
74946	22.357	1.	0.1	340.27
74947	22.407	1.05	0.1	329.98
74948	22.257	1.	0.1	361.36
74949	22.307	1.05	0.1	351.01
74950	22.158	1.	0.1	382.51
74951	22.208	1.05	0.1	372.11
74952	22.058	1.	0.1	403.72
74953	22.108	1.05	0.1	393.27
74954	21.959	1.	0.1	425.
74955	22.008	1.05	0.1	414.5
74956	21.859	1.	0.1	446.32
74957	21.909	1.05	0.1	435.77
74958	21.759	1.	0.1	467.71
74959	21.809	1.05	0.1	457.11
74960	21.66	1.	0.1	489.14
74961	21.71	1.05	0.1	478.5
74962	21.56	1.	0.1	510.63
74963	21.61	1.05	0.1	499.94
74964	21.461	1.	0.1	532.17
74965	21.51	1.05	0.1	521.44
74966	21.361	1.	0.1	553.76
74967	21.411	1.05	0.1	542.99
74968	21.262	1.	0.1	575.4
74969	21.311	1.05	0.1	564.59
74970	21.162	1.	0.1	597.1
74971	21.212	1.05	0.1	586.24
74972	21.062	1.	0.1	618.84
74973	21.112	1.05	0.1	607.94
74974	20.963	1.	0.1	640.63
74975	21.013	1.05	0.1	629.69
74976	20.863	1.	0.1	662.47
74977	20.913	1.05	0.1	651.49
74978	20.764	1.	0.1	684.37
74979	20.813	1.05	0.1	673.34
74980	20.664	1.	0.1	706.31
74981	20.714	1.05	0.1	695.25
74982	20.564	1.	0.1	728.3
74983	20.614	1.05	0.1	717.2
74984	20.465	1.	0.1	750.34
74985	20.515	1.05	0.1	739.2
74986	20.365	1.	0.1	772.43
74987	20.415	1.05	0.1	761.26
74988	20.266	1.	0.1	794.57
74989	20.316	1.05	0.1	783.36
74990	20.166	1.	0.1	816.77
74991	20.216	1.05	0.1	805.52
74992	20.067	1.	0.1	839.01
74993	20.116	1.05	0.1	827.73
74994	19.967	1.	0.1	861.31
74995	20.017	1.05	0.1	849.99
74996	19.867	1.	0.1	883.65
74997	19.917	1.05	0.1	872.3
74998	19.768	1.	0.1	906.05
74999	19.818	1.05	0.1	894.66
75000	19.668	1.	0.1	928.51
75001	19.718	1.05	0.1	917.08
75002	19.569	1.	0.1	951.01
75003	19.618	1.05	0.1	939.55
75004	19.469	1.	0.1	973.57
75005	19.519	1.05	0.1	962.07
75006	19.369	1.	0.1	996.18
75007	19.419	1.05	0.1	984.65
75008	19.27	1.	0.1	1018.8
75009	19.32	1.05	0.1	1007.3
75010	19.17	1.	0.1	1041.6
75011	19.22	1.05	0.1	1030.
75012	19.071	1.	0.1	1064.3
75013	19.121	1.05	0.1	1052.7
75014	18.971	1.	0.1	1087.2
75015	19.021	1.05	0.1	1075.5
75016	18.872	1.	0.1	1110.
75017	18.921	1.05	0.1	1098.3
75018	18.772	1.	0.1	1133.
75019	18.822	1.05	0.1	1121.2
75020	18.672	1.	0.1	1156.
75021	18.722	1.05	0.1	1144.2
75022	18.573	1.	0.1	1179.
75023	18.623	1.05	0.1	1167.2
75024	18.473	1.	0.1	1202.1
75025	18.523	1.05	0.1	1190.3
75026	18.374	1.	0.1	1225.3
75027	18.423	1.05	0.1	1213.4
75028	18.274	1.	0.1	1248.5
75029	18.324	1.05	0.1	1236.6
75030	18.175	1.	0.1	1271.7
75031	18.224	1.05	0.1	1259.8
75032	18.075	1.	0.1	1295.
75033	18.125	1.05	0.1	1283.1
75034	17.975	1.	0.1	1318.4
75035	18.025	1.05	0.1	1306.4
75036	17.876	1.	0.1	1341.9
75037	17.926	1.05	0.1	1329.8
75038	17.776	1.	0.1	1365.4
75039	17.826	1.05	0.1	1353.3
75040	17.677	1.	0.1	1388.9
75041	17.726	1.05	0.1	1376.8
75042	17.577	1.	0.1	1412.5
75043	17.627	1.05	0.1	1400.4
75044	17.477	1.	0.1	1436.2
75045	17.527	1.05	0.1	1424.
75046	17.378	1.	0.1	1459.9
75047	17.428	1.05	0.1	1447.7
75048	17.278	1.	0.1	1483.7
75049	17.328	1.05	0.1	1471.4
75050	17.179	1.	0.1	1507.5
75051	17.229	1.05	0.1	1495.2
75052	17.079	1.	0.1	1531.4
75053	17.129	1.05	0.1	1519.1
75054	16.98	1.	0.1	1555.3
75055	17.029	1.05	0.1	1543.
75056	16.88	1.	0.1	1579.3
75057	16.93	1.05	0.1	1567.
75058	16.78	1.	0.1	1603.4
75059	16.83	1.05	0.1	1591.
75060	16.681	1.	0.1	1627.5
75061	16.731	1.05	0.1	1615.1
75062	16.581	1.	0.1	1651.7
75063	16.631	1.05	0.1	1639.2
75064	16.482	1.	0.1	1675.9
75065	16.531	1.05	0.1	1663.4
75066	16.382	1.	0.1	1700.2
75067	16.432	1.05	0.1	1687.7
75068	16.282	1.	0.1	1724.6
75069	16.332	1.05	0.1	1712.
75070	16.183	1.	0.1	1749.
75071	16.233	1.05	0.1	1736.4
75072	16.083	1.	0.1	1773.5
75073	16.133	1.05	0.1	1760.8
75074	15.984	1.	0.1	1798.
75075	16.034	1.05	0.1	1785.3
75076	15.884	1.	0.1	1822.6
75077	15.934	1.05	0.1	1809.9
75078	15.785	1.	0.1	1847.2
75079	15.834	1.05	0.1	1834.5
75080	15.685	1.	0.1	1871.9
75081	15.735	1.05	0.1	1859.2
75082	15.585	1.	0.1	1896.7
75083	15.635	1.05	0.1	1883.9
75084	15.486	1.	0.1	1921.5
75085	15.536	1.05	0.1	1908.7
75086	15.386	1.	0.1	1946.4
75087	15.436	1.05	0.1	1933.5
75088	15.287	1.	0.1	1971.3
75089	15.336	1.05	0.1	1958.4
75090	15.187	1.	0.1	1996.3
75091	15.237	1.05	0.1	1983.4
75092	15.088	1.	0.1	2021.4
75093	15.137	1.05	0.1	2008.4
75094	14.988	1.	0.1	2046.5
75095	15.038	1.05	0.1	2033.5
75096	14.888	1.	0.1	2071.6
75097	14.938	1.05	0.1	2058.6
75098	14.789	1.	0.1	2096.9
75099	14.839	1.05	0.1	2083.8
75100	14.689	1.	0.1	2122.1
75101	14.739	1.05	0.1	2109.
75102	14.59	1.	0.1	2147.5
75103	14.639	1.05	0.1	2134.3
75104	14.49	1.	0.1	2172.9
75105	14.54	1.05	0.1	2159.7
75106	14.39	1.	0.1	2198.3
75107	14.44	1.05	0.1	2185.1
75108	14.291	1.	0.1	2223.8
75109	14.341	1.05	0.1	2210.5
75110	14.191	1.	0.1	2249.3
75111	14.241	1.05	0.1	2236.
75112	14.092	1.	0.1	2274.9
75113	14.142	1.05	0.1	2261.6
75114	13.992	1.	0.1	2300.6
75115	14.042	1.05	0.1	2287.2
75116	13.893	1.	0.1	2326.2
75117	13.942	1.05	0.1	2312.9
75118	13.793	1.	0.1	2352.
75119	13.843	1.05	0.1	2338.6
75120	13.693	1.	0.1	2377.7
75121	13.743	1.05	0.1	2364.3
75122	13.594	1.	0.1	2403.5
75123	13.644	1.05	0.1	2390.1
75124	13.494	1.	0.1	2429.4
75125	13.544	1.05	0.1	2416.
75126	13.395	1.	0.1	2455.2
75127	13.444	1.05	0.1	2441.8
75128	13.295	1.	0.1	2481.1
75129	13.345	1.05	0.1	2467.7
75130	13.195	1.	0.1	2507.
75131	13.245	1.05	0.1	2493.6
75132	13.096	1.	0.1	2532.9
75133	13.146	1.05	0.1	2519.5
75134	12.996	1.	0.1	2558.8
75135	13.046	1.05	0.1	2545.5
75136	12.897	1.	0.1	2584.6
75137	12.947	1.05	0.1	2571.4
75138	12.797	1.	0.1	2610.5
75139	12.847	1.05	0.1	2597.3
75140	12.698	1.	0.1	2636.3
75141	12.747	1.05	0.1	2623.2
75142	12.598	1.	0.1	2662.1
75143	12.648	1.05	0.1	2649.1
75144	12.498	1.	0.1	2687.8
75145	12.548	1.05	0.1	2674.9
75146	12.399	1.	0.1	2713.3
75147	12.449	1.05	0.1	2700.6
75148	12.299	1.	0.1	2738.8
75149	12.349	1.05	0.1	2726.3
75150	12.2	1.	0.1	2764.1
75151	12.249	1.05	0.1	2751.8
75152	12.1	1.	0.1	2789.3
75153	12.15	1.05	0.1	2777.2
75154	12.001	1.	0.1	2814.2
75155	12.05	1.05	0.1	2802.4
75156	11.901	1.	0.1	2838.8
75157	11.951	1.05	0.1	2827.4
75158	11.801	1.	0.1	2863.1
75159	11.851	1.05	0.1	2852.2
75160	11.702	1.	0.1	2887.1
75161	11.752	1.05	0.1	2876.7
75162	11.602	1.	0.1	2910.6
75163	11.652	1.05	0.1	2900.7
75164	11.503	1.	0.1	2933.6
75165	11.552	1.05	0.1	2924.4
75166	11.403	1.	0.1	2956.
75167	11.453	1.05	0.1	2947.6
75168	11.303	1.	0.1	2977.7
75169	11.353	1.05	0.1	2970.2
75170	11.204	1.	0.1	2998.6
75171	11.254	1.05	0.1	2992.1
75172	11.104	1.	0.1	3018.6
75173	11.154	1.05	0.1	3013.3
75174	11.005	1.	0.1	3037.5
75175	11.055	1.05	0.1	3033.5
75176	10.905	1.	0.1	3055.1
75177	10.955	1.05	0.1	3052.7
75178	10.806	1.	0.1	3071.3
75179	10.855	1.05	0.1	3070.7
75180	10.706	1.	0.1	3085.8
75181	10.756	1.05	0.1	3087.3
75182	10.606	1.	0.1	3098.5
75183	10.656	1.05	0.1	3102.3
75184	10.507	1.	0.1	3109.1
75185	10.557	1.05	0.1	3115.4
75186	10.407	1.	0.1	3117.2
75187	10.457	1.05	0.1	3126.6
75188	10.308	1.	0.1	3122.5
75189	10.357	1.05	0.1	3135.3
75190	10.208	1.	0.1	3124.7
75191	10.258	1.05	0.1	3141.4
75192	10.108	1.	0.1	3123.4
75193	10.158	1.05	0.1	3144.4
75194	10.009	1.	0.1	3118.1
75195	10.059	1.05	0.1	3144.1
75196	9.9093	1.	0.1	3108.3
75197	9.9591	1.05	0.1	3139.8
75198	9.8097	1.	0.1	3093.5
75199	9.8595	1.05	0.1	3131.3
75200	9.7102	1.	0.1	3073.1
75201	9.76	1.05	0.1	3117.9
75202	9.6106	1.	0.1	3046.5
75203	9.6604	1.05	0.1	3099.2
75204	9.511	1.	0.1	3013.1
75205	9.5608	1.05	0.1	3074.6
75206	9.4114	1.	0.1	2972.2
75207	9.4612	1.05	0.1	3043.5
75208	9.3118	1.	0.1	2923.3
75209	9.3616	1.05	0.1	3005.3
75210	9.2123	1.	0.1	2865.9
75211	9.2621	1.05	0.1	2959.6
75212	9.1127	1.	0.1	2799.5
75213	9.1625	1.05	0.1	2905.8
75214	9.0131	1.	0.1	2724.1
75215	9.0629	1.05	0.1	2843.6
75216	8.9135	1.	0.1	2640.1
75217	8.9633	1.05	0.1	2773.1
75218	8.8139	1.	0.1	2548.2
75219	8.8637	1.05	0.1	2694.5
75220	8.7144	1.	0.1	2450.3
75221	8.7642	1.05	0.1	2608.7
75222	8.6148	1.	0.1	2348.4
75223	8.6646	1.05	0.1	2516.9
75224	8.5152	1.	0.1	2245.9
75225	8.565	1.05	0.1	2421.1
75226	8.4156	1.	0.1	2147.
75227	8.4654	1.05	0.1	2323.6
75228	8.316	1.	0.1	2087.7
75229	8.3658	1.05	0.1	2229.3
75230	8.2662	1.05	0.1	2208.7
75231	8.2165	1.	0.1	1549.5
75232	23.851	1.1	0.1	32.4
75233	23.9	1.15	0.1	22.308
75234	23.95	1.1	0.1	12.216
75235	23.751	1.1	0.1	52.712
75236	23.801	1.15	0.1	42.57
75237	23.651	1.1	0.1	73.063
75238	23.701	1.15	0.1	62.985
75239	23.552	1.1	0.1	93.388
75240	23.602	1.15	0.1	83.369
75241	23.452	1.1	0.1	113.71
75242	23.502	1.15	0.1	103.73
75243	23.353	1.1	0.1	134.04
75244	23.403	1.15	0.1	124.09
75245	23.253	1.1	0.1	154.42
75246	23.303	1.15	0.1	144.48
75247	23.154	1.1	0.1	174.84
75248	23.203	1.15	0.1	164.89
75249	23.054	1.1	0.1	195.33
75250	23.104	1.15	0.1	185.36
75251	22.954	1.1	0.1	215.89
75252	23.004	1.15	0.1	205.89
75253	22.855	1.1	0.1	236.52
75254	22.905	1.15	0.1	226.49
75255	22.755	1.1	0.1	257.22
75256	22.805	1.15	0.1	247.15
75257	22.656	1.1	0.1	278.
75258	22.705	1.15	0.1	267.88
75259	22.556	1.1	0.1	298.84
75260	22.606	1.15	0.1	288.68
75261	22.456	1.1	0.1	319.76
75262	22.506	1.15	0.1	309.54
75263	22.357	1.1	0.1	340.74
75264	22.407	1.15	0.1	330.47
75265	22.257	1.1	0.1	361.79
75266	22.307	1.15	0.1	351.47
75267	22.158	1.1	0.1	382.89
75268	22.208	1.15	0.1	372.53
75269	22.058	1.1	0.1	404.06
75270	22.108	1.15	0.1	393.65
75271	21.959	1.1	0.1	425.29
75272	22.008	1.15	0.1	414.83
75273	21.859	1.1	0.1	446.58
75274	21.909	1.15	0.1	436.07
75275	21.759	1.1	0.1	467.92
75276	21.809	1.15	0.1	457.36
75277	21.66	1.1	0.1	489.32
75278	21.71	1.15	0.1	478.71
75279	21.56	1.1	0.1	510.77
75280	21.61	1.15	0.1	500.12
75281	21.461	1.1	0.1	532.27
75282	21.51	1.15	0.1	521.58
75283	21.361	1.1	0.1	553.83
75284	21.411	1.15	0.1	543.09
75285	21.262	1.1	0.1	575.43
75286	21.311	1.15	0.1	564.65
75287	21.162	1.1	0.1	597.09
75288	21.212	1.15	0.1	586.27
75289	21.062	1.1	0.1	618.8
75290	21.112	1.15	0.1	607.94
75291	20.963	1.1	0.1	640.56
75292	21.013	1.15	0.1	629.66
75293	20.863	1.1	0.1	662.38
75294	20.913	1.15	0.1	651.43
75295	20.764	1.1	0.1	684.24
75296	20.813	1.15	0.1	673.25
75297	20.664	1.1	0.1	706.15
75298	20.714	1.15	0.1	695.13
75299	20.564	1.1	0.1	728.12
75300	20.614	1.15	0.1	717.06
75301	20.465	1.1	0.1	750.14
75302	20.515	1.15	0.1	739.03
75303	20.365	1.1	0.1	772.2
75304	20.415	1.15	0.1	761.06
75305	20.266	1.1	0.1	794.32
75306	20.316	1.15	0.1	783.15
75307	20.166	1.1	0.1	816.5
75308	20.216	1.15	0.1	805.28
75309	20.067	1.1	0.1	838.72
75310	20.116	1.15	0.1	827.47
75311	19.967	1.1	0.1	861.
75312	20.017	1.15	0.1	849.71
75313	19.867	1.1	0.1	883.32
75314	19.917	1.15	0.1	872.
75315	19.768	1.1	0.1	905.71
75316	19.818	1.15	0.1	894.35
75317	19.668	1.1	0.1	928.14
75318	19.718	1.15	0.1	916.75
75319	19.569	1.1	0.1	950.63
75320	19.618	1.15	0.1	939.2
75321	19.469	1.1	0.1	973.17
75322	19.519	1.15	0.1	961.7
75323	19.369	1.1	0.1	995.76
75324	19.419	1.15	0.1	984.26
75325	19.27	1.1	0.1	1018.4
75326	19.32	1.15	0.1	1006.9
75327	19.17	1.1	0.1	1041.1
75328	19.22	1.15	0.1	1029.5
75329	19.071	1.1	0.1	1063.9
75330	19.121	1.15	0.1	1052.3
75331	18.971	1.1	0.1	1086.7
75332	19.021	1.15	0.1	1075.
75333	18.872	1.1	0.1	1109.6
75334	18.921	1.15	0.1	1097.9
75335	18.772	1.1	0.1	1132.5
75336	18.822	1.15	0.1	1120.8
75337	18.672	1.1	0.1	1155.5
75338	18.722	1.15	0.1	1143.7
75339	18.573	1.1	0.1	1178.5
75340	18.623	1.15	0.1	1166.7
75341	18.473	1.1	0.1	1201.6
75342	18.523	1.15	0.1	1189.8
75343	18.374	1.1	0.1	1224.7
75344	18.423	1.15	0.1	1212.9
75345	18.274	1.1	0.1	1247.9
75346	18.324	1.15	0.1	1236.
75347	18.175	1.1	0.1	1271.2
75348	18.224	1.15	0.1	1259.3
75349	18.075	1.1	0.1	1294.5
75350	18.125	1.15	0.1	1282.5
75351	17.975	1.1	0.1	1317.9
75352	18.025	1.15	0.1	1305.9
75353	17.876	1.1	0.1	1341.3
75354	17.926	1.15	0.1	1329.3
75355	17.776	1.1	0.1	1364.8
75356	17.826	1.15	0.1	1352.7
75357	17.677	1.1	0.1	1388.3
75358	17.726	1.15	0.1	1376.2
75359	17.577	1.1	0.1	1411.9
75360	17.627	1.15	0.1	1399.8
75361	17.477	1.1	0.1	1435.5
75362	17.527	1.15	0.1	1423.4
75363	17.378	1.1	0.1	1459.3
75364	17.428	1.15	0.1	1447.1
75365	17.278	1.1	0.1	1483.
75366	17.328	1.15	0.1	1470.8
75367	17.179	1.1	0.1	1506.8
75368	17.229	1.15	0.1	1494.6
75369	17.079	1.1	0.1	1530.7
75370	17.129	1.15	0.1	1518.5
75371	16.98	1.1	0.1	1554.7
75372	17.029	1.15	0.1	1542.4
75373	16.88	1.1	0.1	1578.7
75374	16.93	1.15	0.1	1566.3
75375	16.78	1.1	0.1	1602.7
75376	16.83	1.15	0.1	1590.3
75377	16.681	1.1	0.1	1626.8
75378	16.731	1.15	0.1	1614.4
75379	16.581	1.1	0.1	1651.
75380	16.631	1.15	0.1	1638.6
75381	16.482	1.1	0.1	1675.2
75382	16.531	1.15	0.1	1662.8
75383	16.382	1.1	0.1	1699.5
75384	16.432	1.15	0.1	1687.
75385	16.282	1.1	0.1	1723.9
75386	16.332	1.15	0.1	1711.3
75387	16.183	1.1	0.1	1748.3
75388	16.233	1.15	0.1	1735.7
75389	16.083	1.1	0.1	1772.7
75390	16.133	1.15	0.1	1760.1
75391	15.984	1.1	0.1	1797.2
75392	16.034	1.15	0.1	1784.6
75393	15.884	1.1	0.1	1821.8
75394	15.934	1.15	0.1	1809.1
75395	15.785	1.1	0.1	1846.4
75396	15.834	1.15	0.1	1833.7
75397	15.685	1.1	0.1	1871.1
75398	15.735	1.15	0.1	1858.4
75399	15.585	1.1	0.1	1895.9
75400	15.635	1.15	0.1	1883.1
75401	15.486	1.1	0.1	1920.7
75402	15.536	1.15	0.1	1907.9
75403	15.386	1.1	0.1	1945.5
75404	15.436	1.15	0.1	1932.7
75405	15.287	1.1	0.1	1970.5
75406	15.336	1.15	0.1	1957.6
75407	15.187	1.1	0.1	1995.4
75408	15.237	1.15	0.1	1982.5
75409	15.088	1.1	0.1	2020.5
75410	15.137	1.15	0.1	2007.5
75411	14.988	1.1	0.1	2045.6
75412	15.038	1.15	0.1	2032.6
75413	14.888	1.1	0.1	2070.7
75414	14.938	1.15	0.1	2057.7
75415	14.789	1.1	0.1	2095.9
75416	14.839	1.15	0.1	2082.9
75417	14.689	1.1	0.1	2121.2
75418	14.739	1.15	0.1	2108.1
75419	14.59	1.1	0.1	2146.5
75420	14.639	1.15	0.1	2133.4
75421	14.49	1.1	0.1	2171.9
75422	14.54	1.15	0.1	2158.7
75423	14.39	1.1	0.1	2197.3
75424	14.44	1.15	0.1	2184.1
75425	14.291	1.1	0.1	2222.8
75426	14.341	1.15	0.1	2209.6
75427	14.191	1.1	0.1	2248.3
75428	14.241	1.15	0.1	2235.1
75429	14.092	1.1	0.1	2273.9
75430	14.142	1.15	0.1	2260.6
75431	13.992	1.1	0.1	2299.6
75432	14.042	1.15	0.1	2286.2
75433	13.893	1.1	0.1	2325.2
75434	13.942	1.15	0.1	2311.9
75435	13.793	1.1	0.1	2351.
75436	13.843	1.15	0.1	2337.6
75437	13.693	1.1	0.1	2376.7
75438	13.743	1.15	0.1	2363.4
75439	13.594	1.1	0.1	2402.6
75440	13.644	1.15	0.1	2389.2
75441	13.494	1.1	0.1	2428.4
75442	13.544	1.15	0.1	2415.
75443	13.395	1.1	0.1	2454.3
75444	13.444	1.15	0.1	2440.9
75445	13.295	1.1	0.1	2480.2
75446	13.345	1.15	0.1	2466.8
75447	13.195	1.1	0.1	2506.2
75448	13.245	1.15	0.1	2492.8
75449	13.096	1.1	0.1	2532.1
75450	13.146	1.15	0.1	2518.7
75451	12.996	1.1	0.1	2558.1
75452	13.046	1.15	0.1	2544.7
75453	12.897	1.1	0.1	2584.1
75454	12.947	1.15	0.1	2570.8
75455	12.797	1.1	0.1	2610.
75456	12.847	1.15	0.1	2596.8
75457	12.698	1.1	0.1	2636.
75458	12.747	1.15	0.1	2622.8
75459	12.598	1.1	0.1	2661.9
75460	12.648	1.15	0.1	2648.8
75461	12.498	1.1	0.1	2687.8
75462	12.548	1.15	0.1	2674.8
75463	12.399	1.1	0.1	2713.6
75464	12.449	1.15	0.1	2700.7
75465	12.299	1.1	0.1	2739.3
75466	12.349	1.15	0.1	2726.6
75467	12.2	1.1	0.1	2764.9
75468	12.249	1.15	0.1	2752.5
75469	12.1	1.1	0.1	2790.4
75470	12.15	1.15	0.1	2778.2
75471	12.001	1.1	0.1	2815.7
75472	12.05	1.15	0.1	2803.8
75473	11.901	1.1	0.1	2840.8
75474	11.951	1.15	0.1	2829.3
75475	11.801	1.1	0.1	2865.7
75476	11.851	1.15	0.1	2854.5
75477	11.702	1.1	0.1	2890.3
75478	11.752	1.15	0.1	2879.6
75479	11.602	1.1	0.1	2914.6
75480	11.652	1.15	0.1	2904.4
75481	11.503	1.1	0.1	2938.4
75482	11.552	1.15	0.1	2928.8
75483	11.403	1.1	0.1	2961.8
75484	11.453	1.15	0.1	2952.9
75485	11.303	1.1	0.1	2984.6
75486	11.353	1.15	0.1	2976.6
75487	11.204	1.1	0.1	3006.8
75488	11.254	1.15	0.1	2999.7
75489	11.104	1.1	0.1	3028.2
75490	11.154	1.15	0.1	3022.3
75491	11.005	1.1	0.1	3048.7
75492	11.055	1.15	0.1	3044.1
75493	10.905	1.1	0.1	3068.3
75494	10.955	1.15	0.1	3065.1
75495	10.806	1.1	0.1	3086.6
75496	10.855	1.15	0.1	3085.1
75497	10.706	1.1	0.1	3103.7
75498	10.756	1.15	0.1	3104.1
75499	10.606	1.1	0.1	3119.2
75500	10.656	1.15	0.1	3121.8
75501	10.507	1.1	0.1	3132.9
75502	10.557	1.15	0.1	3138.
75503	10.407	1.1	0.1	3144.6
75504	10.457	1.15	0.1	3152.6
75505	10.308	1.1	0.1	3154.1
75506	10.357	1.15	0.1	3165.4
75507	10.208	1.1	0.1	3161.
75508	10.258	1.15	0.1	3175.9
75509	10.108	1.1	0.1	3165.
75510	10.158	1.15	0.1	3184.1
75511	10.009	1.1	0.1	3165.6
75512	10.059	1.15	0.1	3189.5
75513	9.9093	1.1	0.1	3162.6
75514	9.9591	1.15	0.1	3191.9
75515	9.8097	1.1	0.1	3155.5
75516	9.8595	1.15	0.1	3190.8
75517	9.7102	1.1	0.1	3143.7
75518	9.76	1.15	0.1	3185.9
75519	9.6106	1.1	0.1	3126.8
75520	9.6604	1.15	0.1	3176.7
75521	9.511	1.1	0.1	3104.3
75522	9.5608	1.15	0.1	3162.8
75523	9.4114	1.1	0.1	3075.6
75524	9.4612	1.15	0.1	3143.7
75525	9.3118	1.1	0.1	3040.3
75526	9.3616	1.15	0.1	3119.1
75527	9.2123	1.1	0.1	2997.7
75528	9.2621	1.15	0.1	3088.3
75529	9.1127	1.1	0.1	2947.5
75530	9.1625	1.15	0.1	3051.
75531	9.0131	1.1	0.1	2889.4
75532	9.0629	1.15	0.1	3006.9
75533	8.9135	1.1	0.1	2823.4
75534	8.9633	1.15	0.1	2955.6
75535	8.8139	1.1	0.1	2749.6
75536	8.8637	1.15	0.1	2896.8
75537	8.7144	1.1	0.1	2668.5
75538	8.7642	1.15	0.1	2830.5
75539	8.6148	1.1	0.1	2581.2
75540	8.6646	1.15	0.1	2756.7
75541	8.5152	1.1	0.1	2489.
75542	8.565	1.15	0.1	2675.5
75543	8.4156	1.1	0.1	2395.
75544	8.4654	1.15	0.1	2587.3
75545	8.316	1.1	0.1	2338.7
75546	8.3658	1.15	0.1	2495.4
75547	8.2662	1.15	0.1	2478.9
75548	8.2165	1.1	0.1	1727.7
75549	23.851	1.2	0.1	32.401
75550	23.9	1.25	0.1	22.249
75551	23.95	1.2	0.1	12.19
75552	23.751	1.2	0.1	52.83
75553	23.801	1.25	0.1	42.622
75554	23.651	1.2	0.1	73.291
75555	23.701	1.25	0.1	63.143
75556	23.552	1.2	0.1	93.718
75557	23.602	1.25	0.1	83.629
75558	23.452	1.2	0.1	114.13
75559	23.502	1.25	0.1	104.08
75560	23.353	1.2	0.1	134.53
75561	23.403	1.25	0.1	124.52
75562	23.253	1.2	0.1	154.96
75563	23.303	1.25	0.1	144.97
75564	23.154	1.2	0.1	175.43
75565	23.203	1.25	0.1	165.44
75566	23.054	1.2	0.1	195.94
75567	23.104	1.25	0.1	185.94
75568	22.954	1.2	0.1	216.5
75569	23.004	1.25	0.1	206.48
75570	22.855	1.2	0.1	237.13
75571	22.905	1.25	0.1	227.08
75572	22.755	1.2	0.1	257.82
75573	22.805	1.25	0.1	247.74
75574	22.656	1.2	0.1	278.57
75575	22.705	1.25	0.1	268.46
75576	22.556	1.2	0.1	299.39
75577	22.606	1.25	0.1	289.23
75578	22.456	1.2	0.1	320.28
75579	22.506	1.25	0.1	310.08
75580	22.357	1.2	0.1	341.22
75581	22.407	1.25	0.1	330.98
75582	22.257	1.2	0.1	362.23
75583	22.307	1.25	0.1	351.94
75584	22.158	1.2	0.1	383.3
75585	22.208	1.25	0.1	372.97
75586	22.058	1.2	0.1	404.44
75587	22.108	1.25	0.1	394.05
75588	21.959	1.2	0.1	425.63
75589	22.008	1.25	0.1	415.19
75590	21.859	1.2	0.1	446.87
75591	21.909	1.25	0.1	436.39
75592	21.759	1.2	0.1	468.17
75593	21.809	1.25	0.1	457.65
75594	21.66	1.2	0.1	489.53
75595	21.71	1.25	0.1	478.96
75596	21.56	1.2	0.1	510.95
75597	21.61	1.25	0.1	500.33
75598	21.461	1.2	0.1	532.41
75599	21.51	1.25	0.1	521.76
75600	21.361	1.2	0.1	553.93
75601	21.411	1.25	0.1	543.23
75602	21.262	1.2	0.1	575.51
75603	21.311	1.25	0.1	564.76
75604	21.162	1.2	0.1	597.13
75605	21.212	1.25	0.1	586.35
75606	21.062	1.2	0.1	618.81
75607	21.112	1.25	0.1	607.98
75608	20.963	1.2	0.1	640.54
75609	21.013	1.25	0.1	629.67
75610	20.863	1.2	0.1	662.32
75611	20.913	1.25	0.1	651.41
75612	20.764	1.2	0.1	684.16
75613	20.813	1.25	0.1	673.21
75614	20.664	1.2	0.1	706.05
75615	20.714	1.25	0.1	695.05
75616	20.564	1.2	0.1	727.98
75617	20.614	1.25	0.1	716.95
75618	20.465	1.2	0.1	749.98
75619	20.515	1.25	0.1	738.91
75620	20.365	1.2	0.1	772.02
75621	20.415	1.25	0.1	760.91
75622	20.266	1.2	0.1	794.12
75623	20.316	1.25	0.1	782.97
75624	20.166	1.2	0.1	816.27
75625	20.216	1.25	0.1	805.08
75626	20.067	1.2	0.1	838.47
75627	20.116	1.25	0.1	827.25
75628	19.967	1.2	0.1	860.73
75629	20.017	1.25	0.1	849.47
75630	19.867	1.2	0.1	883.04
75631	19.917	1.25	0.1	871.74
75632	19.768	1.2	0.1	905.4
75633	19.818	1.25	0.1	894.07
75634	19.668	1.2	0.1	927.82
75635	19.718	1.25	0.1	916.45
75636	19.569	1.2	0.1	950.29
75637	19.618	1.25	0.1	938.89
75638	19.469	1.2	0.1	972.81
75639	19.519	1.25	0.1	961.38
75640	19.369	1.2	0.1	995.39
75641	19.419	1.25	0.1	983.92
75642	19.27	1.2	0.1	1018.
75643	19.32	1.25	0.1	1006.5
75644	19.17	1.2	0.1	1040.7
75645	19.22	1.25	0.1	1029.2
75646	19.071	1.2	0.1	1063.5
75647	19.121	1.25	0.1	1051.9
75648	18.971	1.2	0.1	1086.3
75649	19.021	1.25	0.1	1074.6
75650	18.872	1.2	0.1	1109.1
75651	18.921	1.25	0.1	1097.5
75652	18.772	1.2	0.1	1132.
75653	18.822	1.25	0.1	1120.3
75654	18.672	1.2	0.1	1155.
75655	18.722	1.25	0.1	1143.3
75656	18.573	1.2	0.1	1178.
75657	18.623	1.25	0.1	1166.3
75658	18.473	1.2	0.1	1201.1
75659	18.523	1.25	0.1	1189.3
75660	18.374	1.2	0.1	1224.2
75661	18.423	1.25	0.1	1212.4
75662	18.274	1.2	0.1	1247.4
75663	18.324	1.25	0.1	1235.6
75664	18.175	1.2	0.1	1270.7
75665	18.224	1.25	0.1	1258.8
75666	18.075	1.2	0.1	1294.
75667	18.125	1.25	0.1	1282.
75668	17.975	1.2	0.1	1317.3
75669	18.025	1.25	0.1	1305.4
75670	17.876	1.2	0.1	1340.7
75671	17.926	1.25	0.1	1328.8
75672	17.776	1.2	0.1	1364.2
75673	17.826	1.25	0.1	1352.2
75674	17.677	1.2	0.1	1387.7
75675	17.726	1.25	0.1	1375.7
75676	17.577	1.2	0.1	1411.3
75677	17.627	1.25	0.1	1399.2
75678	17.477	1.2	0.1	1435.
75679	17.527	1.25	0.1	1422.9
75680	17.378	1.2	0.1	1458.7
75681	17.428	1.25	0.1	1446.5
75682	17.278	1.2	0.1	1482.4
75683	17.328	1.25	0.1	1470.2
75684	17.179	1.2	0.1	1506.2
75685	17.229	1.25	0.1	1494.
75686	17.079	1.2	0.1	1530.1
75687	17.129	1.25	0.1	1517.9
75688	16.98	1.2	0.1	1554.
75689	17.029	1.25	0.1	1541.8
75690	16.88	1.2	0.1	1578.
75691	16.93	1.25	0.1	1565.7
75692	16.78	1.2	0.1	1602.1
75693	16.83	1.25	0.1	1589.7
75694	16.681	1.2	0.1	1626.2
75695	16.731	1.25	0.1	1613.8
75696	16.581	1.2	0.1	1650.3
75697	16.631	1.25	0.1	1637.9
75698	16.482	1.2	0.1	1674.5
75699	16.531	1.25	0.1	1662.1
75700	16.382	1.2	0.1	1698.8
75701	16.432	1.25	0.1	1686.3
75702	16.282	1.2	0.1	1723.1
75703	16.332	1.25	0.1	1710.6
75704	16.183	1.2	0.1	1747.5
75705	16.233	1.25	0.1	1735.
75706	16.083	1.2	0.1	1772.
75707	16.133	1.25	0.1	1759.4
75708	15.984	1.2	0.1	1796.5
75709	16.034	1.25	0.1	1783.9
75710	15.884	1.2	0.1	1821.1
75711	15.934	1.25	0.1	1808.4
75712	15.785	1.2	0.1	1845.7
75713	15.834	1.25	0.1	1833.
75714	15.685	1.2	0.1	1870.3
75715	15.735	1.25	0.1	1857.6
75716	15.585	1.2	0.1	1895.1
75717	15.635	1.25	0.1	1882.3
75718	15.486	1.2	0.1	1919.9
75719	15.536	1.25	0.1	1907.1
75720	15.386	1.2	0.1	1944.7
75721	15.436	1.25	0.1	1931.9
75722	15.287	1.2	0.1	1969.6
75723	15.336	1.25	0.1	1956.8
75724	15.187	1.2	0.1	1994.6
75725	15.237	1.25	0.1	1981.7
75726	15.088	1.2	0.1	2019.6
75727	15.137	1.25	0.1	2006.7
75728	14.988	1.2	0.1	2044.7
75729	15.038	1.25	0.1	2031.7
75730	14.888	1.2	0.1	2069.8
75731	14.938	1.25	0.1	2056.8
75732	14.789	1.2	0.1	2095.
75733	14.839	1.25	0.1	2082.
75734	14.689	1.2	0.1	2120.3
75735	14.739	1.25	0.1	2107.2
75736	14.59	1.2	0.1	2145.6
75737	14.639	1.25	0.1	2132.5
75738	14.49	1.2	0.1	2171.
75739	14.54	1.25	0.1	2157.8
75740	14.39	1.2	0.1	2196.4
75741	14.44	1.25	0.1	2183.2
75742	14.291	1.2	0.1	2221.9
75743	14.341	1.25	0.1	2208.6
75744	14.191	1.2	0.1	2247.4
75745	14.241	1.25	0.1	2234.1
75746	14.092	1.2	0.1	2273.
75747	14.142	1.25	0.1	2259.7
75748	13.992	1.2	0.1	2298.6
75749	14.042	1.25	0.1	2285.3
75750	13.893	1.2	0.1	2324.3
75751	13.942	1.25	0.1	2311.
75752	13.793	1.2	0.1	2350.
75753	13.843	1.25	0.1	2336.7
75754	13.693	1.2	0.1	2375.8
75755	13.743	1.25	0.1	2362.4
75756	13.594	1.2	0.1	2401.6
75757	13.644	1.25	0.1	2388.3
75758	13.494	1.2	0.1	2427.5
75759	13.544	1.25	0.1	2414.1
75760	13.395	1.2	0.1	2453.4
75761	13.444	1.25	0.1	2440.
75762	13.295	1.2	0.1	2479.4
75763	13.345	1.25	0.1	2466.
75764	13.195	1.2	0.1	2505.4
75765	13.245	1.25	0.1	2492.
75766	13.096	1.2	0.1	2531.4
75767	13.146	1.25	0.1	2518.
75768	12.996	1.2	0.1	2557.4
75769	13.046	1.25	0.1	2544.1
75770	12.897	1.2	0.1	2583.5
75771	12.947	1.25	0.1	2570.2
75772	12.797	1.2	0.1	2609.6
75773	12.847	1.25	0.1	2596.3
75774	12.698	1.2	0.1	2635.7
75775	12.747	1.25	0.1	2622.5
75776	12.598	1.2	0.1	2661.7
75777	12.648	1.25	0.1	2648.6
75778	12.498	1.2	0.1	2687.8
75779	12.548	1.25	0.1	2674.8
75780	12.399	1.2	0.1	2713.8
75781	12.449	1.25	0.1	2700.9
75782	12.299	1.2	0.1	2739.8
75783	12.349	1.25	0.1	2727.1
75784	12.2	1.2	0.1	2765.8
75785	12.249	1.25	0.1	2753.2
75786	12.1	1.2	0.1	2791.6
75787	12.15	1.25	0.1	2779.2
75788	12.001	1.2	0.1	2817.3
75789	12.05	1.25	0.1	2805.2
75790	11.901	1.2	0.1	2843.
75791	11.951	1.25	0.1	2831.1
75792	11.801	1.2	0.1	2868.4
75793	11.851	1.25	0.1	2856.9
75794	11.702	1.2	0.1	2893.6
75795	11.752	1.25	0.1	2882.6
75796	11.602	1.2	0.1	2918.7
75797	11.652	1.25	0.1	2908.1
75798	11.503	1.2	0.1	2943.4
75799	11.552	1.25	0.1	2933.4
75800	11.403	1.2	0.1	2967.8
75801	11.453	1.25	0.1	2958.4
75802	11.303	1.2	0.1	2991.7
75803	11.353	1.25	0.1	2983.2
75804	11.204	1.2	0.1	3015.2
75805	11.254	1.25	0.1	3007.6
75806	11.104	1.2	0.1	3038.1
75807	11.154	1.25	0.1	3031.5
75808	11.005	1.2	0.1	3060.4
75809	11.055	1.25	0.1	3055.
75810	10.905	1.2	0.1	3081.9
75811	10.955	1.25	0.1	3077.9
75812	10.806	1.2	0.1	3102.6
75813	10.855	1.25	0.1	3100.1
75814	10.706	1.2	0.1	3122.2
75815	10.756	1.25	0.1	3121.5
75816	10.606	1.2	0.1	3140.6
75817	10.656	1.25	0.1	3142.
75818	10.507	1.2	0.1	3157.7
75819	10.557	1.25	0.1	3161.4
75820	10.407	1.2	0.1	3173.3
75821	10.457	1.25	0.1	3179.7
75822	10.308	1.2	0.1	3187.1
75823	10.357	1.25	0.1	3196.6
75824	10.208	1.2	0.1	3199.
75825	10.258	1.25	0.1	3211.9
75826	10.108	1.2	0.1	3208.5
75827	10.158	1.25	0.1	3225.4
75828	10.009	1.2	0.1	3215.6
75829	10.059	1.25	0.1	3237.
75830	9.9093	1.2	0.1	3219.8
75831	9.9591	1.25	0.1	3246.3
75832	9.8097	1.2	0.1	3220.9
75833	9.8595	1.25	0.1	3253.1
75834	9.7102	1.2	0.1	3218.4
75835	9.76	1.25	0.1	3257.2
75836	9.6106	1.2	0.1	3212.1
75837	9.6604	1.25	0.1	3258.2
75838	9.511	1.2	0.1	3201.4
75839	9.5608	1.25	0.1	3255.9
75840	9.4114	1.2	0.1	3186.1
75841	9.4612	1.25	0.1	3249.9
75842	9.3118	1.2	0.1	3165.7
75843	9.3616	1.25	0.1	3240.
75844	9.2123	1.2	0.1	3139.8
75845	9.2621	1.25	0.1	3225.8
75846	9.1127	1.2	0.1	3108.
75847	9.1625	1.25	0.1	3207.1
75848	9.0131	1.2	0.1	3069.7
75849	9.0629	1.25	0.1	3183.4
75850	8.9135	1.2	0.1	3024.6
75851	8.9633	1.25	0.1	3154.2
75852	8.8139	1.2	0.1	2972.1
75853	8.8637	1.25	0.1	3118.8
75854	8.7144	1.2	0.1	2911.6
75855	8.7642	1.25	0.1	3076.3
75856	8.6148	1.2	0.1	2842.2
75857	8.6646	1.25	0.1	3025.1
75858	8.5152	1.2	0.1	2763.2
75859	8.565	1.25	0.1	2963.
75860	8.4156	1.2	0.1	2675.6
75861	8.4654	1.25	0.1	2887.8
75862	8.316	1.2	0.1	2622.6
75863	8.3658	1.25	0.1	2800.1
75864	8.2662	1.25	0.1	2787.9
75865	8.2165	1.2	0.1	1927.6
75866	23.851	1.3	0.1	32.391
75867	23.9	1.35	0.1	22.188
75868	23.95	1.3	0.1	12.162
75869	23.751	1.3	0.1	52.921
75870	23.801	1.35	0.1	42.657
75871	23.651	1.3	0.1	73.479
75872	23.701	1.35	0.1	63.27
75873	23.552	1.3	0.1	93.997
75874	23.602	1.35	0.1	83.846
75875	23.452	1.3	0.1	114.49
75876	23.502	1.35	0.1	104.38
75877	23.353	1.3	0.1	134.97
75878	23.403	1.35	0.1	124.9
75879	23.253	1.3	0.1	155.45
75880	23.303	1.35	0.1	145.41
75881	23.154	1.3	0.1	175.96
75882	23.203	1.35	0.1	165.92
75883	23.054	1.3	0.1	196.49
75884	23.104	1.35	0.1	186.46
75885	22.954	1.3	0.1	217.07
75886	23.004	1.35	0.1	207.03
75887	22.855	1.3	0.1	237.71
75888	22.905	1.35	0.1	227.64
75889	22.755	1.3	0.1	258.39
75890	22.805	1.35	0.1	248.3
75891	22.656	1.3	0.1	279.13
75892	22.705	1.35	0.1	269.01
75893	22.556	1.3	0.1	299.93
75894	22.606	1.35	0.1	289.78
75895	22.456	1.3	0.1	320.79
75896	22.506	1.35	0.1	310.6
75897	22.357	1.3	0.1	341.71
75898	22.407	1.35	0.1	331.48
75899	22.257	1.3	0.1	362.69
75900	22.307	1.35	0.1	352.42
75901	22.158	1.3	0.1	383.73
75902	22.208	1.35	0.1	373.41
75903	22.058	1.3	0.1	404.83
75904	22.108	1.35	0.1	394.46
75905	21.959	1.3	0.1	425.98
75906	22.008	1.35	0.1	415.57
75907	21.859	1.3	0.1	447.19
75908	21.909	1.35	0.1	436.74
75909	21.759	1.3	0.1	468.46
75910	21.809	1.35	0.1	457.96
75911	21.66	1.3	0.1	489.78
75912	21.71	1.35	0.1	479.24
75913	21.56	1.3	0.1	511.16
75914	21.61	1.35	0.1	500.57
75915	21.461	1.3	0.1	532.59
75916	21.51	1.35	0.1	521.96
75917	21.361	1.3	0.1	554.08
75918	21.411	1.35	0.1	543.41
75919	21.262	1.3	0.1	575.62
75920	21.311	1.35	0.1	564.9
75921	21.162	1.3	0.1	597.21
75922	21.212	1.35	0.1	586.45
75923	21.062	1.3	0.1	618.86
75924	21.112	1.35	0.1	608.06
75925	20.963	1.3	0.1	640.56
75926	21.013	1.35	0.1	629.72
75927	20.863	1.3	0.1	662.31
75928	20.913	1.35	0.1	651.43
75929	20.764	1.3	0.1	684.12
75930	20.813	1.35	0.1	673.2
75931	20.664	1.3	0.1	705.98
75932	20.714	1.35	0.1	695.02
75933	20.564	1.3	0.1	727.89
75934	20.614	1.35	0.1	716.89
75935	20.465	1.3	0.1	749.86
75936	20.515	1.35	0.1	738.82
75937	20.365	1.3	0.1	771.88
75938	20.415	1.35	0.1	760.8
75939	20.266	1.3	0.1	793.95
75940	20.316	1.35	0.1	782.84
75941	20.166	1.3	0.1	816.08
75942	20.216	1.35	0.1	804.93
75943	20.067	1.3	0.1	838.26
75944	20.116	1.35	0.1	827.07
75945	19.967	1.3	0.1	860.5
75946	20.017	1.35	0.1	849.27
75947	19.867	1.3	0.1	882.79
75948	19.917	1.35	0.1	871.52
75949	19.768	1.3	0.1	905.13
75950	19.818	1.35	0.1	893.83
75951	19.668	1.3	0.1	927.53
75952	19.718	1.35	0.1	916.19
75953	19.569	1.3	0.1	949.99
75954	19.618	1.35	0.1	938.61
75955	19.469	1.3	0.1	972.5
75956	19.519	1.35	0.1	961.09
75957	19.369	1.3	0.1	995.06
75958	19.419	1.35	0.1	983.61
75959	19.27	1.3	0.1	1017.7
75960	19.32	1.35	0.1	1006.2
75961	19.17	1.3	0.1	1040.4
75962	19.22	1.35	0.1	1028.8
75963	19.071	1.3	0.1	1063.1
75964	19.121	1.35	0.1	1051.5
75965	18.971	1.3	0.1	1085.9
75966	19.021	1.35	0.1	1074.3
75967	18.872	1.3	0.1	1108.7
75968	18.921	1.35	0.1	1097.1
75969	18.772	1.3	0.1	1131.6
75970	18.822	1.35	0.1	1120.
75971	18.672	1.3	0.1	1154.6
75972	18.722	1.35	0.1	1142.9
75973	18.573	1.3	0.1	1177.6
75974	18.623	1.35	0.1	1165.9
75975	18.473	1.3	0.1	1200.6
75976	18.523	1.35	0.1	1188.9
75977	18.374	1.3	0.1	1223.8
75978	18.423	1.35	0.1	1212.
75979	18.274	1.3	0.1	1246.9
75980	18.324	1.35	0.1	1235.1
75981	18.175	1.3	0.1	1270.2
75982	18.224	1.35	0.1	1258.3
75983	18.075	1.3	0.1	1293.5
75984	18.125	1.35	0.1	1281.6
75985	17.975	1.3	0.1	1316.8
75986	18.025	1.35	0.1	1304.9
75987	17.876	1.3	0.1	1340.2
75988	17.926	1.35	0.1	1328.3
75989	17.776	1.3	0.1	1363.7
75990	17.826	1.35	0.1	1351.7
75991	17.677	1.3	0.1	1387.2
75992	17.726	1.35	0.1	1375.2
75993	17.577	1.3	0.1	1410.8
75994	17.627	1.35	0.1	1398.7
75995	17.477	1.3	0.1	1434.4
75996	17.527	1.35	0.1	1422.3
75997	17.378	1.3	0.1	1458.1
75998	17.428	1.35	0.1	1446.
75999	17.278	1.3	0.1	1481.9
76000	17.328	1.35	0.1	1469.7
76001	17.179	1.3	0.1	1505.7
76002	17.229	1.35	0.1	1493.5
76003	17.079	1.3	0.1	1529.5
76004	17.129	1.35	0.1	1517.3
76005	16.98	1.3	0.1	1553.4
76006	17.029	1.35	0.1	1541.2
76007	16.88	1.3	0.1	1577.4
76008	16.93	1.35	0.1	1565.1
76009	16.78	1.3	0.1	1601.5
76010	16.83	1.35	0.1	1589.1
76011	16.681	1.3	0.1	1625.5
76012	16.731	1.35	0.1	1613.2
76013	16.581	1.3	0.1	1649.7
76014	16.631	1.35	0.1	1637.3
76015	16.482	1.3	0.1	1673.9
76016	16.531	1.35	0.1	1661.5
76017	16.382	1.3	0.1	1698.2
76018	16.432	1.35	0.1	1685.7
76019	16.282	1.3	0.1	1722.5
76020	16.332	1.35	0.1	1710.
76021	16.183	1.3	0.1	1746.9
76022	16.233	1.35	0.1	1734.3
76023	16.083	1.3	0.1	1771.3
76024	16.133	1.35	0.1	1758.7
76025	15.984	1.3	0.1	1795.8
76026	16.034	1.35	0.1	1783.2
76027	15.884	1.3	0.1	1820.3
76028	15.934	1.35	0.1	1807.7
76029	15.785	1.3	0.1	1844.9
76030	15.834	1.35	0.1	1832.3
76031	15.685	1.3	0.1	1869.6
76032	15.735	1.35	0.1	1856.9
76033	15.585	1.3	0.1	1894.3
76034	15.635	1.35	0.1	1881.6
76035	15.486	1.3	0.1	1919.1
76036	15.536	1.35	0.1	1906.3
76037	15.386	1.3	0.1	1944.
76038	15.436	1.35	0.1	1931.2
76039	15.287	1.3	0.1	1968.8
76040	15.336	1.35	0.1	1956.
76041	15.187	1.3	0.1	1993.8
76042	15.237	1.35	0.1	1980.9
76043	15.088	1.3	0.1	2018.8
76044	15.137	1.35	0.1	2005.9
76045	14.988	1.3	0.1	2043.9
76046	15.038	1.35	0.1	2030.9
76047	14.888	1.3	0.1	2069.
76048	14.938	1.35	0.1	2056.
76049	14.789	1.3	0.1	2094.2
76050	14.839	1.35	0.1	2081.2
76051	14.689	1.3	0.1	2119.4
76052	14.739	1.35	0.1	2106.4
76053	14.59	1.3	0.1	2144.7
76054	14.639	1.35	0.1	2131.6
76055	14.49	1.3	0.1	2170.1
76056	14.54	1.35	0.1	2157.
76057	14.39	1.3	0.1	2195.5
76058	14.44	1.35	0.1	2182.3
76059	14.291	1.3	0.1	2220.9
76060	14.341	1.35	0.1	2207.8
76061	14.191	1.3	0.1	2246.5
76062	14.241	1.35	0.1	2233.3
76063	14.092	1.3	0.1	2272.
76064	14.142	1.35	0.1	2258.8
76065	13.992	1.3	0.1	2297.7
76066	14.042	1.35	0.1	2284.4
76067	13.893	1.3	0.1	2323.4
76068	13.942	1.35	0.1	2310.1
76069	13.793	1.3	0.1	2349.1
76070	13.843	1.35	0.1	2335.8
76071	13.693	1.3	0.1	2374.9
76072	13.743	1.35	0.1	2361.6
76073	13.594	1.3	0.1	2400.7
76074	13.644	1.35	0.1	2387.4
76075	13.494	1.3	0.1	2426.6
76076	13.544	1.35	0.1	2413.3
76077	13.395	1.3	0.1	2452.6
76078	13.444	1.35	0.1	2439.2
76079	13.295	1.3	0.1	2478.6
76080	13.345	1.35	0.1	2465.2
76081	13.195	1.3	0.1	2504.6
76082	13.245	1.35	0.1	2491.2
76083	13.096	1.3	0.1	2530.7
76084	13.146	1.35	0.1	2517.3
76085	12.996	1.3	0.1	2556.8
76086	13.046	1.35	0.1	2543.5
76087	12.897	1.3	0.1	2583.
76088	12.947	1.35	0.1	2569.6
76089	12.797	1.3	0.1	2609.2
76090	12.847	1.35	0.1	2595.9
76091	12.698	1.3	0.1	2635.4
76092	12.747	1.35	0.1	2622.1
76093	12.598	1.3	0.1	2661.6
76094	12.648	1.35	0.1	2648.4
76095	12.498	1.3	0.1	2687.9
76096	12.548	1.35	0.1	2674.8
76097	12.399	1.3	0.1	2714.2
76098	12.449	1.35	0.1	2701.1
76099	12.299	1.3	0.1	2740.4
76100	12.349	1.35	0.1	2727.5
76101	12.2	1.3	0.1	2766.7
76102	12.249	1.35	0.1	2753.9
76103	12.1	1.3	0.1	2792.9
76104	12.15	1.35	0.1	2780.3
76105	12.001	1.3	0.1	2819.
76106	12.05	1.35	0.1	2806.7
76107	11.901	1.3	0.1	2845.1
76108	11.951	1.35	0.1	2833.1
76109	11.801	1.3	0.1	2871.2
76110	11.851	1.35	0.1	2859.4
76111	11.702	1.3	0.1	2897.1
76112	11.752	1.35	0.1	2885.7
76113	11.602	1.3	0.1	2922.9
76114	11.652	1.35	0.1	2911.9
76115	11.503	1.3	0.1	2948.5
76116	11.552	1.35	0.1	2938.1
76117	11.403	1.3	0.1	2973.9
76118	11.453	1.35	0.1	2964.1
76119	11.303	1.3	0.1	2999.
76120	11.353	1.35	0.1	2989.9
76121	11.204	1.3	0.1	3023.9
76122	11.254	1.35	0.1	3015.6
76123	11.104	1.3	0.1	3048.4
76124	11.154	1.35	0.1	3041.
76125	11.005	1.3	0.1	3072.4
76126	11.055	1.35	0.1	3066.1
76127	10.905	1.3	0.1	3096.
76128	10.955	1.35	0.1	3091.
76129	10.806	1.3	0.1	3119.
76130	10.855	1.35	0.1	3115.4
76131	10.706	1.3	0.1	3141.3
76132	10.756	1.35	0.1	3139.3
76133	10.606	1.3	0.1	3162.8
76134	10.656	1.35	0.1	3162.7
76135	10.507	1.3	0.1	3183.4
76136	10.557	1.35	0.1	3185.5
76137	10.407	1.3	0.1	3202.9
76138	10.457	1.35	0.1	3207.5
76139	10.308	1.3	0.1	3221.3
76140	10.357	1.35	0.1	3228.7
76141	10.208	1.3	0.1	3238.3
76142	10.258	1.35	0.1	3248.9
76143	10.108	1.3	0.1	3253.8
76144	10.158	1.35	0.1	3268.1
76145	10.009	1.3	0.1	3267.5
76146	10.059	1.35	0.1	3286.
76147	9.9093	1.3	0.1	3279.4
76148	9.9591	1.35	0.1	3302.6
76149	9.8097	1.3	0.1	3289.1
76150	9.8595	1.35	0.1	3317.8
76151	9.7102	1.3	0.1	3296.6
76152	9.76	1.35	0.1	3331.3
76153	9.6106	1.3	0.1	3301.5
76154	9.6604	1.35	0.1	3343.1
76155	9.511	1.3	0.1	3303.6
76156	9.5608	1.35	0.1	3353.1
76157	9.4114	1.3	0.1	3302.8
76158	9.4612	1.35	0.1	3361.1
76159	9.3118	1.3	0.1	3298.7
76160	9.3616	1.35	0.1	3367.1
76161	9.2123	1.3	0.1	3291.2
76162	9.2621	1.35	0.1	3371.
76163	9.1127	1.3	0.1	3280.
76164	9.1625	1.35	0.1	3372.7
76165	9.0131	1.3	0.1	3264.5
76166	9.0629	1.35	0.1	3372.
76167	8.9135	1.3	0.1	3243.9
76168	8.9633	1.35	0.1	3368.3
76169	8.8139	1.3	0.1	3217.2
76170	8.8637	1.35	0.1	3360.8
76171	8.7144	1.3	0.1	3182.4
76172	8.7642	1.35	0.1	3347.7
76173	8.6148	1.3	0.1	3136.6
76174	8.6646	1.35	0.1	3326.
76175	8.5152	1.3	0.1	3076.3
76176	8.565	1.35	0.1	3290.9
76177	8.4156	1.3	0.1	2998.9
76178	8.4654	1.35	0.1	3236.1
76179	8.316	1.3	0.1	2950.4
76180	8.3658	1.35	0.1	3157.2
76181	8.2662	1.35	0.1	3150.5
76182	8.2165	1.3	0.1	2156.7
76183	23.851	1.4	0.1	32.373
76184	23.9	1.45	0.1	22.126
76185	23.95	1.4	0.1	12.134
76186	23.751	1.4	0.1	52.992
76187	23.801	1.45	0.1	42.68
76188	23.651	1.4	0.1	73.635
76189	23.701	1.45	0.1	63.373
76190	23.552	1.4	0.1	94.235
76191	23.602	1.45	0.1	84.029
76192	23.452	1.4	0.1	114.8
76193	23.502	1.45	0.1	104.64
76194	23.353	1.4	0.1	135.34
76195	23.403	1.45	0.1	125.23
76196	23.253	1.4	0.1	155.88
76197	23.303	1.45	0.1	145.79
76198	23.154	1.4	0.1	176.43
76199	23.203	1.45	0.1	166.36
76200	23.054	1.4	0.1	197.
76201	23.104	1.45	0.1	186.93
76202	22.954	1.4	0.1	217.61
76203	23.004	1.45	0.1	207.53
76204	22.855	1.4	0.1	238.25
76205	22.905	1.45	0.1	228.16
76206	22.755	1.4	0.1	258.93
76207	22.805	1.45	0.1	248.83
76208	22.656	1.4	0.1	279.67
76209	22.705	1.45	0.1	269.54
76210	22.556	1.4	0.1	300.46
76211	22.606	1.45	0.1	290.3
76212	22.456	1.4	0.1	321.3
76213	22.506	1.45	0.1	311.11
76214	22.357	1.4	0.1	342.2
76215	22.407	1.45	0.1	331.97
76216	22.257	1.4	0.1	363.15
76217	22.307	1.45	0.1	352.88
76218	22.158	1.4	0.1	384.16
76219	22.208	1.45	0.1	373.85
76220	22.058	1.4	0.1	405.23
76221	22.108	1.45	0.1	394.88
76222	21.959	1.4	0.1	426.35
76223	22.008	1.45	0.1	415.96
76224	21.859	1.4	0.1	447.53
76225	21.909	1.45	0.1	437.09
76226	21.759	1.4	0.1	468.76
76227	21.809	1.45	0.1	458.29
76228	21.66	1.4	0.1	490.05
76229	21.71	1.45	0.1	479.53
76230	21.56	1.4	0.1	511.39
76231	21.61	1.45	0.1	500.83
76232	21.461	1.4	0.1	532.79
76233	21.51	1.45	0.1	522.19
76234	21.361	1.4	0.1	554.25
76235	21.411	1.45	0.1	543.6
76236	21.262	1.4	0.1	575.75
76237	21.311	1.45	0.1	565.07
76238	21.162	1.4	0.1	597.32
76239	21.212	1.45	0.1	586.59
76240	21.062	1.4	0.1	618.93
76241	21.112	1.45	0.1	608.16
76242	20.963	1.4	0.1	640.61
76243	21.013	1.45	0.1	629.79
76244	20.863	1.4	0.1	662.33
76245	20.913	1.45	0.1	651.48
76246	20.764	1.4	0.1	684.11
76247	20.813	1.45	0.1	673.22
76248	20.664	1.4	0.1	705.94
76249	20.714	1.45	0.1	695.01
76250	20.564	1.4	0.1	727.83
76251	20.614	1.45	0.1	716.86
76252	20.465	1.4	0.1	749.77
76253	20.515	1.45	0.1	738.76
76254	20.365	1.4	0.1	771.77
76255	20.415	1.45	0.1	760.72
76256	20.266	1.4	0.1	793.82
76257	20.316	1.45	0.1	782.73
76258	20.166	1.4	0.1	815.93
76259	20.216	1.45	0.1	804.8
76260	20.067	1.4	0.1	838.09
76261	20.116	1.45	0.1	826.92
76262	19.967	1.4	0.1	860.31
76263	20.017	1.45	0.1	849.1
76264	19.867	1.4	0.1	882.58
76265	19.917	1.45	0.1	871.34
76266	19.768	1.4	0.1	904.9
76267	19.818	1.45	0.1	893.63
76268	19.668	1.4	0.1	927.29
76269	19.718	1.45	0.1	915.97
76270	19.569	1.4	0.1	949.72
76271	19.618	1.45	0.1	938.37
76272	19.469	1.4	0.1	972.22
76273	19.519	1.45	0.1	960.83
76274	19.369	1.4	0.1	994.76
76275	19.419	1.45	0.1	983.34
76276	19.27	1.4	0.1	1017.4
76277	19.32	1.45	0.1	1005.9
76278	19.17	1.4	0.1	1040.
76279	19.22	1.45	0.1	1028.5
76280	19.071	1.4	0.1	1062.7
76281	19.121	1.45	0.1	1051.2
76282	18.971	1.4	0.1	1085.5
76283	19.021	1.45	0.1	1074.
76284	18.872	1.4	0.1	1108.3
76285	18.921	1.45	0.1	1096.8
76286	18.772	1.4	0.1	1131.2
76287	18.822	1.45	0.1	1119.6
76288	18.672	1.4	0.1	1154.2
76289	18.722	1.45	0.1	1142.5
76290	18.573	1.4	0.1	1177.2
76291	18.623	1.45	0.1	1165.5
76292	18.473	1.4	0.1	1200.2
76293	18.523	1.45	0.1	1188.5
76294	18.374	1.4	0.1	1223.3
76295	18.423	1.45	0.1	1211.6
76296	18.274	1.4	0.1	1246.5
76297	18.324	1.45	0.1	1234.7
76298	18.175	1.4	0.1	1269.7
76299	18.224	1.45	0.1	1257.9
76300	18.075	1.4	0.1	1293.
76301	18.125	1.45	0.1	1281.2
76302	17.975	1.4	0.1	1316.4
76303	18.025	1.45	0.1	1304.5
76304	17.876	1.4	0.1	1339.8
76305	17.926	1.45	0.1	1327.8
76306	17.776	1.4	0.1	1363.2
76307	17.826	1.45	0.1	1351.2
76308	17.677	1.4	0.1	1386.7
76309	17.726	1.45	0.1	1374.7
76310	17.577	1.4	0.1	1410.3
76311	17.627	1.45	0.1	1398.3
76312	17.477	1.4	0.1	1433.9
76313	17.527	1.45	0.1	1421.8
76314	17.378	1.4	0.1	1457.6
76315	17.428	1.45	0.1	1445.5
76316	17.278	1.4	0.1	1481.3
76317	17.328	1.45	0.1	1469.2
76318	17.179	1.4	0.1	1505.1
76319	17.229	1.45	0.1	1493.
76320	17.079	1.4	0.1	1529.
76321	17.129	1.45	0.1	1516.8
76322	16.98	1.4	0.1	1552.9
76323	17.029	1.45	0.1	1540.7
76324	16.88	1.4	0.1	1576.9
76325	16.93	1.45	0.1	1564.6
76326	16.78	1.4	0.1	1600.9
76327	16.83	1.45	0.1	1588.6
76328	16.681	1.4	0.1	1625.
76329	16.731	1.45	0.1	1612.6
76330	16.581	1.4	0.1	1649.1
76331	16.631	1.45	0.1	1636.7
76332	16.482	1.4	0.1	1673.3
76333	16.531	1.45	0.1	1660.9
76334	16.382	1.4	0.1	1697.5
76335	16.432	1.45	0.1	1685.1
76336	16.282	1.4	0.1	1721.9
76337	16.332	1.45	0.1	1709.4
76338	16.183	1.4	0.1	1746.2
76339	16.233	1.45	0.1	1733.7
76340	16.083	1.4	0.1	1770.6
76341	16.133	1.45	0.1	1758.1
76342	15.984	1.4	0.1	1795.1
76343	16.034	1.45	0.1	1782.6
76344	15.884	1.4	0.1	1819.7
76345	15.934	1.45	0.1	1807.1
76346	15.785	1.4	0.1	1844.3
76347	15.834	1.45	0.1	1831.6
76348	15.685	1.4	0.1	1868.9
76349	15.735	1.45	0.1	1856.2
76350	15.585	1.4	0.1	1893.6
76351	15.635	1.45	0.1	1880.9
76352	15.486	1.4	0.1	1918.4
76353	15.536	1.45	0.1	1905.7
76354	15.386	1.4	0.1	1943.2
76355	15.436	1.45	0.1	1930.4
76356	15.287	1.4	0.1	1968.1
76357	15.336	1.45	0.1	1955.3
76358	15.187	1.4	0.1	1993.
76359	15.237	1.45	0.1	1980.2
76360	15.088	1.4	0.1	2018.
76361	15.137	1.45	0.1	2005.2
76362	14.988	1.4	0.1	2043.1
76363	15.038	1.45	0.1	2030.2
76364	14.888	1.4	0.1	2068.2
76365	14.938	1.45	0.1	2055.3
76366	14.789	1.4	0.1	2093.4
76367	14.839	1.45	0.1	2080.4
76368	14.689	1.4	0.1	2118.6
76369	14.739	1.45	0.1	2105.6
76370	14.59	1.4	0.1	2143.9
76371	14.639	1.45	0.1	2130.8
76372	14.49	1.4	0.1	2169.2
76373	14.54	1.45	0.1	2156.1
76374	14.39	1.4	0.1	2194.6
76375	14.44	1.45	0.1	2181.5
76376	14.291	1.4	0.1	2220.1
76377	14.341	1.45	0.1	2206.9
76378	14.191	1.4	0.1	2245.6
76379	14.241	1.45	0.1	2232.4
76380	14.092	1.4	0.1	2271.2
76381	14.142	1.45	0.1	2258.
76382	13.992	1.4	0.1	2296.8
76383	14.042	1.45	0.1	2283.6
76384	13.893	1.4	0.1	2322.5
76385	13.942	1.45	0.1	2309.2
76386	13.793	1.4	0.1	2348.2
76387	13.843	1.45	0.1	2334.9
76388	13.693	1.4	0.1	2374.
76389	13.743	1.45	0.1	2360.7
76390	13.594	1.4	0.1	2399.9
76391	13.644	1.45	0.1	2386.6
76392	13.494	1.4	0.1	2425.8
76393	13.544	1.45	0.1	2412.5
76394	13.395	1.4	0.1	2451.8
76395	13.444	1.45	0.1	2438.4
76396	13.295	1.4	0.1	2477.8
76397	13.345	1.45	0.1	2464.4
76398	13.195	1.4	0.1	2503.9
76399	13.245	1.45	0.1	2490.5
76400	13.096	1.4	0.1	2530.1
76401	13.146	1.45	0.1	2516.7
76402	12.996	1.4	0.1	2556.3
76403	13.046	1.45	0.1	2542.9
76404	12.897	1.4	0.1	2582.5
76405	12.947	1.45	0.1	2569.1
76406	12.797	1.4	0.1	2608.8
76407	12.847	1.45	0.1	2595.5
76408	12.698	1.4	0.1	2635.2
76409	12.747	1.45	0.1	2621.9
76410	12.598	1.4	0.1	2661.6
76411	12.648	1.45	0.1	2648.3
76412	12.498	1.4	0.1	2688.
76413	12.548	1.45	0.1	2674.8
76414	12.399	1.4	0.1	2714.5
76415	12.449	1.45	0.1	2701.4
76416	12.299	1.4	0.1	2741.
76417	12.349	1.45	0.1	2728.
76418	12.2	1.4	0.1	2767.6
76419	12.249	1.45	0.1	2754.7
76420	12.1	1.4	0.1	2794.2
76421	12.15	1.45	0.1	2781.4
76422	12.001	1.4	0.1	2820.8
76423	12.05	1.45	0.1	2808.2
76424	11.901	1.4	0.1	2847.4
76425	11.951	1.45	0.1	2835.1
76426	11.801	1.4	0.1	2874.
76427	11.851	1.45	0.1	2862.
76428	11.702	1.4	0.1	2900.6
76429	11.752	1.45	0.1	2888.9
76430	11.602	1.4	0.1	2927.1
76431	11.652	1.45	0.1	2915.8
76432	11.503	1.4	0.1	2953.7
76433	11.552	1.45	0.1	2942.8
76434	11.403	1.4	0.1	2980.1
76435	11.453	1.45	0.1	2969.7
76436	11.303	1.4	0.1	3006.5
76437	11.353	1.45	0.1	2996.7
76438	11.204	1.4	0.1	3032.7
76439	11.254	1.45	0.1	3023.7
76440	11.104	1.4	0.1	3058.8
76441	11.154	1.45	0.1	3050.6
76442	11.005	1.4	0.1	3084.7
76443	11.055	1.45	0.1	3077.4
76444	10.905	1.4	0.1	3110.3
76445	10.955	1.45	0.1	3104.2
76446	10.806	1.4	0.1	3135.7
76447	10.855	1.45	0.1	3130.9
76448	10.706	1.4	0.1	3160.7
76449	10.756	1.45	0.1	3157.4
76450	10.606	1.4	0.1	3185.4
76451	10.656	1.45	0.1	3183.7
76452	10.507	1.4	0.1	3209.6
76453	10.557	1.45	0.1	3209.9
76454	10.407	1.4	0.1	3233.2
76455	10.457	1.45	0.1	3235.8
76456	10.308	1.4	0.1	3256.3
76457	10.357	1.45	0.1	3261.4
76458	10.208	1.4	0.1	3278.6
76459	10.258	1.45	0.1	3286.7
76460	10.108	1.4	0.1	3300.2
76461	10.158	1.45	0.1	3311.6
76462	10.009	1.4	0.1	3320.9
76463	10.059	1.45	0.1	3336.1
76464	9.9093	1.4	0.1	3340.8
76465	9.9591	1.45	0.1	3360.3
76466	9.8097	1.4	0.1	3359.6
76467	9.8595	1.45	0.1	3384.
76468	9.7102	1.4	0.1	3377.4
76469	9.76	1.45	0.1	3407.4
76470	9.6106	1.4	0.1	3394.1
76471	9.6604	1.45	0.1	3430.5
76472	9.511	1.4	0.1	3409.8
76473	9.5608	1.45	0.1	3453.3
76474	9.4114	1.4	0.1	3424.4
76475	9.4612	1.45	0.1	3476.1
76476	9.3118	1.4	0.1	3438.1
76477	9.3616	1.45	0.1	3499.1
76478	9.2123	1.4	0.1	3450.7
76479	9.2621	1.45	0.1	3522.5
76480	9.1127	1.4	0.1	3462.3
76481	9.1625	1.45	0.1	3546.5
76482	9.0131	1.4	0.1	3472.6
76483	9.0629	1.45	0.1	3571.3
76484	8.9135	1.4	0.1	3480.9
76485	8.9633	1.45	0.1	3596.8
76486	8.8139	1.4	0.1	3485.6
76487	8.8637	1.45	0.1	3622.2
76488	8.7144	1.4	0.1	3483.9
76489	8.7642	1.45	0.1	3645.8
76490	8.6148	1.4	0.1	3470.6
76491	8.6646	1.45	0.1	3663.4
76492	8.5152	1.4	0.1	3438.3
76493	8.565	1.45	0.1	3667.6
76494	8.4156	1.4	0.1	3378.9
76495	8.4654	1.45	0.1	3646.4
76496	8.316	1.4	0.1	3338.8
76497	8.3658	1.45	0.1	3586.7
76498	8.2662	1.45	0.1	3589.7
76499	8.2165	1.4	0.1	2426.5
76500	23.851	1.5	0.1	32.349
76501	23.9	1.55	0.1	22.064
76502	23.95	1.5	0.1	12.105
76503	23.751	1.5	0.1	53.046
76504	23.801	1.55	0.1	42.692
76505	23.651	1.5	0.1	73.764
76506	23.701	1.55	0.1	63.457
76507	23.552	1.5	0.1	94.438
76508	23.602	1.55	0.1	84.183
76509	23.452	1.5	0.1	115.07
76510	23.502	1.55	0.1	104.87
76511	23.353	1.5	0.1	135.68
76512	23.403	1.55	0.1	125.51
76513	23.253	1.5	0.1	156.27
76514	23.303	1.55	0.1	146.13
76515	23.154	1.5	0.1	176.86
76516	23.203	1.55	0.1	166.74
76517	23.054	1.5	0.1	197.47
76518	23.104	1.55	0.1	187.36
76519	22.954	1.5	0.1	218.09
76520	23.004	1.55	0.1	207.99
76521	22.855	1.5	0.1	238.75
76522	22.905	1.55	0.1	228.64
76523	22.755	1.5	0.1	259.44
76524	22.805	1.55	0.1	249.31
76525	22.656	1.5	0.1	280.18
76526	22.705	1.55	0.1	270.03
76527	22.556	1.5	0.1	300.96
76528	22.606	1.55	0.1	290.79
76529	22.456	1.5	0.1	321.79
76530	22.506	1.55	0.1	311.59
76531	22.357	1.5	0.1	342.67
76532	22.407	1.55	0.1	332.44
76533	22.257	1.5	0.1	363.6
76534	22.307	1.55	0.1	353.34
76535	22.158	1.5	0.1	384.58
76536	22.208	1.55	0.1	374.29
76537	22.058	1.5	0.1	405.62
76538	22.108	1.55	0.1	395.29
76539	21.959	1.5	0.1	426.72
76540	22.008	1.55	0.1	416.34
76541	21.859	1.5	0.1	447.87
76542	21.909	1.55	0.1	437.45
76543	21.759	1.5	0.1	469.07
76544	21.809	1.55	0.1	458.61
76545	21.66	1.5	0.1	490.33
76546	21.71	1.55	0.1	479.83
76547	21.56	1.5	0.1	511.64
76548	21.61	1.55	0.1	501.1
76549	21.461	1.5	0.1	533.01
76550	21.51	1.55	0.1	522.43
76551	21.361	1.5	0.1	554.44
76552	21.411	1.55	0.1	543.81
76553	21.262	1.5	0.1	575.91
76554	21.311	1.55	0.1	565.25
76555	21.162	1.5	0.1	597.45
76556	21.212	1.55	0.1	586.74
76557	21.062	1.5	0.1	619.04
76558	21.112	1.55	0.1	608.29
76559	20.963	1.5	0.1	640.68
76560	21.013	1.55	0.1	629.89
76561	20.863	1.5	0.1	662.38
76562	20.913	1.55	0.1	651.55
76563	20.764	1.5	0.1	684.13
76564	20.813	1.55	0.1	673.26
76565	20.664	1.5	0.1	705.94
76566	20.714	1.55	0.1	695.03
76567	20.564	1.5	0.1	727.8
76568	20.614	1.55	0.1	716.85
76569	20.465	1.5	0.1	749.72
76570	20.515	1.55	0.1	738.73
76571	20.365	1.5	0.1	771.69
76572	20.415	1.55	0.1	760.67
76573	20.266	1.5	0.1	793.72
76574	20.316	1.55	0.1	782.66
76575	20.166	1.5	0.1	815.81
76576	20.216	1.55	0.1	804.7
76577	20.067	1.5	0.1	837.95
76578	20.116	1.55	0.1	826.81
76579	19.967	1.5	0.1	860.14
76580	20.017	1.55	0.1	848.96
76581	19.867	1.5	0.1	882.4
76582	19.917	1.55	0.1	871.18
76583	19.768	1.5	0.1	904.71
76584	19.818	1.55	0.1	893.45
76585	19.668	1.5	0.1	927.07
76586	19.718	1.55	0.1	915.78
76587	19.569	1.5	0.1	949.49
76588	19.618	1.55	0.1	938.16
76589	19.469	1.5	0.1	971.97
76590	19.519	1.55	0.1	960.6
76591	19.369	1.5	0.1	994.5
76592	19.419	1.55	0.1	983.1
76593	19.27	1.5	0.1	1017.1
76594	19.32	1.55	0.1	1005.7
76595	19.17	1.5	0.1	1039.7
76596	19.22	1.55	0.1	1028.3
76597	19.071	1.5	0.1	1062.4
76598	19.121	1.55	0.1	1050.9
76599	18.971	1.5	0.1	1085.2
76600	19.021	1.55	0.1	1073.7
76601	18.872	1.5	0.1	1108.
76602	18.921	1.55	0.1	1096.4
76603	18.772	1.5	0.1	1130.9
76604	18.822	1.55	0.1	1119.3
76605	18.672	1.5	0.1	1153.8
76606	18.722	1.55	0.1	1142.2
76607	18.573	1.5	0.1	1176.8
76608	18.623	1.55	0.1	1165.1
76609	18.473	1.5	0.1	1199.9
76610	18.523	1.55	0.1	1188.1
76611	18.374	1.5	0.1	1223.
76612	18.423	1.55	0.1	1211.2
76613	18.274	1.5	0.1	1246.1
76614	18.324	1.55	0.1	1234.3
76615	18.175	1.5	0.1	1269.3
76616	18.224	1.55	0.1	1257.5
76617	18.075	1.5	0.1	1292.6
76618	18.125	1.55	0.1	1280.8
76619	17.975	1.5	0.1	1315.9
76620	18.025	1.55	0.1	1304.1
76621	17.876	1.5	0.1	1339.3
76622	17.926	1.55	0.1	1327.4
76623	17.776	1.5	0.1	1362.8
76624	17.826	1.55	0.1	1350.8
76625	17.677	1.5	0.1	1386.3
76626	17.726	1.55	0.1	1374.3
76627	17.577	1.5	0.1	1409.8
76628	17.627	1.55	0.1	1397.8
76629	17.477	1.5	0.1	1433.4
76630	17.527	1.55	0.1	1421.4
76631	17.378	1.5	0.1	1457.1
76632	17.428	1.55	0.1	1445.
76633	17.278	1.5	0.1	1480.8
76634	17.328	1.55	0.1	1468.7
76635	17.179	1.5	0.1	1504.6
76636	17.229	1.55	0.1	1492.5
76637	17.079	1.5	0.1	1528.5
76638	17.129	1.55	0.1	1516.3
76639	16.98	1.5	0.1	1552.4
76640	17.029	1.55	0.1	1540.2
76641	16.88	1.5	0.1	1576.3
76642	16.93	1.55	0.1	1564.1
76643	16.78	1.5	0.1	1600.3
76644	16.83	1.55	0.1	1588.1
76645	16.681	1.5	0.1	1624.4
76646	16.731	1.55	0.1	1612.1
76647	16.581	1.5	0.1	1648.5
76648	16.631	1.55	0.1	1636.2
76649	16.482	1.5	0.1	1672.7
76650	16.531	1.55	0.1	1660.3
76651	16.382	1.5	0.1	1697.
76652	16.432	1.55	0.1	1684.6
76653	16.282	1.5	0.1	1721.3
76654	16.332	1.55	0.1	1708.8
76655	16.183	1.5	0.1	1745.6
76656	16.233	1.55	0.1	1733.1
76657	16.083	1.5	0.1	1770.
76658	16.133	1.55	0.1	1757.5
76659	15.984	1.5	0.1	1794.5
76660	16.034	1.55	0.1	1782.
76661	15.884	1.5	0.1	1819.
76662	15.934	1.55	0.1	1806.5
76663	15.785	1.5	0.1	1843.6
76664	15.834	1.55	0.1	1831.
76665	15.685	1.5	0.1	1868.3
76666	15.735	1.55	0.1	1855.6
76667	15.585	1.5	0.1	1893.
76668	15.635	1.55	0.1	1880.3
76669	15.486	1.5	0.1	1917.7
76670	15.536	1.55	0.1	1905.
76671	15.386	1.5	0.1	1942.5
76672	15.436	1.55	0.1	1929.8
76673	15.287	1.5	0.1	1967.4
76674	15.336	1.55	0.1	1954.6
76675	15.187	1.5	0.1	1992.3
76676	15.237	1.55	0.1	1979.5
76677	15.088	1.5	0.1	2017.3
76678	15.137	1.55	0.1	2004.4
76679	14.988	1.5	0.1	2042.3
76680	15.038	1.55	0.1	2029.5
76681	14.888	1.5	0.1	2067.4
76682	14.938	1.55	0.1	2054.5
76683	14.789	1.5	0.1	2092.6
76684	14.839	1.55	0.1	2079.6
76685	14.689	1.5	0.1	2117.8
76686	14.739	1.55	0.1	2104.8
76687	14.59	1.5	0.1	2143.1
76688	14.639	1.55	0.1	2130.1
76689	14.49	1.5	0.1	2168.4
76690	14.54	1.55	0.1	2155.4
76691	14.39	1.5	0.1	2193.8
76692	14.44	1.55	0.1	2180.7
76693	14.291	1.5	0.1	2219.3
76694	14.341	1.55	0.1	2206.1
76695	14.191	1.5	0.1	2244.8
76696	14.241	1.55	0.1	2231.6
76697	14.092	1.5	0.1	2270.3
76698	14.142	1.55	0.1	2257.1
76699	13.992	1.5	0.1	2296.
76700	14.042	1.55	0.1	2282.7
76701	13.893	1.5	0.1	2321.7
76702	13.942	1.55	0.1	2308.4
76703	13.793	1.5	0.1	2347.4
76704	13.843	1.55	0.1	2334.1
76705	13.693	1.5	0.1	2373.2
76706	13.743	1.55	0.1	2359.9
76707	13.594	1.5	0.1	2399.1
76708	13.644	1.55	0.1	2385.8
76709	13.494	1.5	0.1	2425.
76710	13.544	1.55	0.1	2411.7
76711	13.395	1.5	0.1	2451.1
76712	13.444	1.55	0.1	2437.7
76713	13.295	1.5	0.1	2477.1
76714	13.345	1.55	0.1	2463.7
76715	13.195	1.5	0.1	2503.3
76716	13.245	1.55	0.1	2489.8
76717	13.096	1.5	0.1	2529.5
76718	13.146	1.55	0.1	2516.
76719	12.996	1.5	0.1	2555.7
76720	13.046	1.55	0.1	2542.3
76721	12.897	1.5	0.1	2582.1
76722	12.947	1.55	0.1	2568.7
76723	12.797	1.5	0.1	2608.5
76724	12.847	1.55	0.1	2595.1
76725	12.698	1.5	0.1	2635.
76726	12.747	1.55	0.1	2621.6
76727	12.598	1.5	0.1	2661.6
76728	12.648	1.55	0.1	2648.2
76729	12.498	1.5	0.1	2688.2
76730	12.548	1.55	0.1	2674.9
76731	12.399	1.5	0.1	2714.9
76732	12.449	1.55	0.1	2701.7
76733	12.299	1.5	0.1	2741.7
76734	12.349	1.55	0.1	2728.5
76735	12.2	1.5	0.1	2768.6
76736	12.249	1.55	0.1	2755.5
76737	12.1	1.5	0.1	2795.5
76738	12.15	1.55	0.1	2782.6
76739	12.001	1.5	0.1	2822.5
76740	12.05	1.55	0.1	2809.8
76741	11.901	1.5	0.1	2849.6
76742	11.951	1.55	0.1	2837.1
76743	11.801	1.5	0.1	2876.8
76744	11.851	1.55	0.1	2864.5
76745	11.702	1.5	0.1	2904.1
76746	11.752	1.55	0.1	2892.
76747	11.602	1.5	0.1	2931.4
76748	11.652	1.55	0.1	2919.7
76749	11.503	1.5	0.1	2958.9
76750	11.552	1.55	0.1	2947.5
76751	11.403	1.5	0.1	2986.4
76752	11.453	1.55	0.1	2975.4
76753	11.303	1.5	0.1	3013.9
76754	11.353	1.55	0.1	3003.5
76755	11.204	1.5	0.1	3041.5
76756	11.254	1.55	0.1	3031.7
76757	11.104	1.5	0.1	3069.2
76758	11.154	1.55	0.1	3060.1
76759	11.005	1.5	0.1	3097.
76760	11.055	1.55	0.1	3088.7
76761	10.905	1.5	0.1	3124.7
76762	10.955	1.55	0.1	3117.5
76763	10.806	1.5	0.1	3152.5
76764	10.855	1.55	0.1	3146.4
76765	10.706	1.5	0.1	3180.4
76766	10.756	1.55	0.1	3175.5
76767	10.606	1.5	0.1	3208.2
76768	10.656	1.55	0.1	3204.9
76769	10.507	1.5	0.1	3236.
76770	10.557	1.55	0.1	3234.4
76771	10.407	1.5	0.1	3263.9
76772	10.457	1.55	0.1	3264.2
76773	10.308	1.5	0.1	3291.7
76774	10.357	1.55	0.1	3294.3
76775	10.208	1.5	0.1	3319.5
76776	10.258	1.55	0.1	3324.8
76777	10.108	1.5	0.1	3347.4
76778	10.158	1.55	0.1	3355.6
76779	10.009	1.5	0.1	3375.3
76780	10.059	1.55	0.1	3386.8
76781	9.9093	1.5	0.1	3403.3
76782	9.9591	1.55	0.1	3418.7
76783	9.8097	1.5	0.1	3431.5
76784	9.8595	1.55	0.1	3451.3
76785	9.7102	1.5	0.1	3460.1
76786	9.76	1.55	0.1	3484.8
76787	9.6106	1.5	0.1	3489.1
76788	9.6604	1.55	0.1	3519.4
76789	9.511	1.5	0.1	3519.
76790	9.5608	1.55	0.1	3555.7
76791	9.4114	1.5	0.1	3549.9
76792	9.4612	1.55	0.1	3593.9
76793	9.3118	1.5	0.1	3582.3
76794	9.3616	1.55	0.1	3634.6
76795	9.2123	1.5	0.1	3616.6
76796	9.2621	1.55	0.1	3678.6
76797	9.1127	1.5	0.1	3653.2
76798	9.1625	1.55	0.1	3726.5
76799	9.0131	1.5	0.1	3692.5
76800	9.0629	1.55	0.1	3779.3
76801	8.9135	1.5	0.1	3734.1
76802	8.9633	1.55	0.1	3837.5
76803	8.8139	1.5	0.1	3777.
76804	8.8637	1.55	0.1	3901.4
76805	8.7144	1.5	0.1	3818.1
76806	8.7642	1.55	0.1	3969.9
76807	8.6148	1.5	0.1	3850.5
76808	8.6646	1.55	0.1	4039.6
76809	8.5152	1.5	0.1	3862.3
76810	8.565	1.55	0.1	4101.5
76811	8.4156	1.5	0.1	3836.2
76812	8.4654	1.55	0.1	4137.7
76813	8.316	1.5	0.1	3814.1
76814	8.3658	1.55	0.1	4120.3
76815	8.2662	1.55	0.1	4144.1
76816	8.2165	1.5	0.1	2755.4
76817	23.851	1.6	0.1	32.322
76818	23.9	1.65	0.1	22.005
76819	23.95	1.6	0.1	12.076
76820	23.751	1.6	0.1	53.087
76821	23.801	1.65	0.1	42.698
76822	23.651	1.6	0.1	73.872
76823	23.701	1.65	0.1	63.524
76824	23.552	1.6	0.1	94.611
76825	23.602	1.65	0.1	84.313
76826	23.452	1.6	0.1	115.31
76827	23.502	1.65	0.1	105.06
76828	23.353	1.6	0.1	135.97
76829	23.403	1.65	0.1	125.76
76830	23.253	1.6	0.1	156.61
76831	23.303	1.65	0.1	146.43
76832	23.154	1.6	0.1	177.25
76833	23.203	1.65	0.1	167.09
76834	23.054	1.6	0.1	197.89
76835	23.104	1.65	0.1	187.74
76836	22.954	1.6	0.1	218.54
76837	23.004	1.65	0.1	208.4
76838	22.855	1.6	0.1	239.21
76839	22.905	1.65	0.1	229.07
76840	22.755	1.6	0.1	259.91
76841	22.805	1.65	0.1	249.76
76842	22.656	1.6	0.1	280.65
76843	22.705	1.65	0.1	270.49
76844	22.556	1.6	0.1	301.43
76845	22.606	1.65	0.1	291.25
76846	22.456	1.6	0.1	322.25
76847	22.506	1.65	0.1	312.04
76848	22.357	1.6	0.1	343.12
76849	22.407	1.65	0.1	332.88
76850	22.257	1.6	0.1	364.03
76851	22.307	1.65	0.1	353.77
76852	22.158	1.6	0.1	385.
76853	22.208	1.65	0.1	374.7
76854	22.058	1.6	0.1	406.02
76855	22.108	1.65	0.1	395.69
76856	21.959	1.6	0.1	427.09
76857	22.008	1.65	0.1	416.72
76858	21.859	1.6	0.1	448.21
76859	21.909	1.65	0.1	437.8
76860	21.759	1.6	0.1	469.39
76861	21.809	1.65	0.1	458.94
76862	21.66	1.6	0.1	490.62
76863	21.71	1.65	0.1	480.13
76864	21.56	1.6	0.1	511.9
76865	21.61	1.65	0.1	501.38
76866	21.461	1.6	0.1	533.24
76867	21.51	1.65	0.1	522.68
76868	21.361	1.6	0.1	554.64
76869	21.411	1.65	0.1	544.03
76870	21.262	1.6	0.1	576.09
76871	21.311	1.65	0.1	565.44
76872	21.162	1.6	0.1	597.59
76873	21.212	1.65	0.1	586.91
76874	21.062	1.6	0.1	619.16
76875	21.112	1.65	0.1	608.43
76876	20.963	1.6	0.1	640.77
76877	21.013	1.65	0.1	630.
76878	20.863	1.6	0.1	662.44
76879	20.913	1.65	0.1	651.64
76880	20.764	1.6	0.1	684.17
76881	20.813	1.65	0.1	673.32
76882	20.664	1.6	0.1	705.95
76883	20.714	1.65	0.1	695.07
76884	20.564	1.6	0.1	727.79
76885	20.614	1.65	0.1	716.87
76886	20.465	1.6	0.1	749.69
76887	20.515	1.65	0.1	738.72
76888	20.365	1.6	0.1	771.64
76889	20.415	1.65	0.1	760.64
76890	20.266	1.6	0.1	793.65
76891	20.316	1.65	0.1	782.6
76892	20.166	1.6	0.1	815.71
76893	20.216	1.65	0.1	804.63
76894	20.067	1.6	0.1	837.83
76895	20.116	1.65	0.1	826.71
76896	19.967	1.6	0.1	860.01
76897	20.017	1.65	0.1	848.85
76898	19.867	1.6	0.1	882.25
76899	19.917	1.65	0.1	871.05
76900	19.768	1.6	0.1	904.54
76901	19.818	1.65	0.1	893.3
76902	19.668	1.6	0.1	926.88
76903	19.718	1.65	0.1	915.61
76904	19.569	1.6	0.1	949.29
76905	19.618	1.65	0.1	937.98
76906	19.469	1.6	0.1	971.75
76907	19.519	1.65	0.1	960.41
76908	19.369	1.6	0.1	994.27
76909	19.419	1.65	0.1	982.89
76910	19.27	1.6	0.1	1016.8
76911	19.32	1.65	0.1	1005.4
76912	19.17	1.6	0.1	1039.5
76913	19.22	1.65	0.1	1028.
76914	19.071	1.6	0.1	1062.2
76915	19.121	1.65	0.1	1050.7
76916	18.971	1.6	0.1	1084.9
76917	19.021	1.65	0.1	1073.4
76918	18.872	1.6	0.1	1107.7
76919	18.921	1.65	0.1	1096.2
76920	18.772	1.6	0.1	1130.6
76921	18.822	1.65	0.1	1119.
76922	18.672	1.6	0.1	1153.5
76923	18.722	1.65	0.1	1141.9
76924	18.573	1.6	0.1	1176.5
76925	18.623	1.65	0.1	1164.8
76926	18.473	1.6	0.1	1199.5
76927	18.523	1.65	0.1	1187.8
76928	18.374	1.6	0.1	1222.6
76929	18.423	1.65	0.1	1210.9
76930	18.274	1.6	0.1	1245.7
76931	18.324	1.65	0.1	1234.
76932	18.175	1.6	0.1	1269.
76933	18.224	1.65	0.1	1257.2
76934	18.075	1.6	0.1	1292.2
76935	18.125	1.65	0.1	1280.4
76936	17.975	1.6	0.1	1315.5
76937	18.025	1.65	0.1	1303.7
76938	17.876	1.6	0.1	1338.9
76939	17.926	1.65	0.1	1327.
76940	17.776	1.6	0.1	1362.3
76941	17.826	1.65	0.1	1350.4
76942	17.677	1.6	0.1	1385.8
76943	17.726	1.65	0.1	1373.9
76944	17.577	1.6	0.1	1409.4
76945	17.627	1.65	0.1	1397.4
76946	17.477	1.6	0.1	1433.
76947	17.527	1.65	0.1	1421.
76948	17.378	1.6	0.1	1456.7
76949	17.428	1.65	0.1	1444.6
76950	17.278	1.6	0.1	1480.4
76951	17.328	1.65	0.1	1468.3
76952	17.179	1.6	0.1	1504.2
76953	17.229	1.65	0.1	1492.
76954	17.079	1.6	0.1	1528.
76955	17.129	1.65	0.1	1515.8
76956	16.98	1.6	0.1	1551.9
76957	17.029	1.65	0.1	1539.7
76958	16.88	1.6	0.1	1575.8
76959	16.93	1.65	0.1	1563.6
76960	16.78	1.6	0.1	1599.8
76961	16.83	1.65	0.1	1587.6
76962	16.681	1.6	0.1	1623.9
76963	16.731	1.65	0.1	1611.6
76964	16.581	1.6	0.1	1648.
76965	16.631	1.65	0.1	1635.7
76966	16.482	1.6	0.1	1672.2
76967	16.531	1.65	0.1	1659.8
76968	16.382	1.6	0.1	1696.4
76969	16.432	1.65	0.1	1684.
76970	16.282	1.6	0.1	1720.7
76971	16.332	1.65	0.1	1708.3
76972	16.183	1.6	0.1	1745.1
76973	16.233	1.65	0.1	1732.6
76974	16.083	1.6	0.1	1769.5
76975	16.133	1.65	0.1	1757.
76976	15.984	1.6	0.1	1793.9
76977	16.034	1.65	0.1	1781.4
76978	15.884	1.6	0.1	1818.4
76979	15.934	1.65	0.1	1805.9
76980	15.785	1.6	0.1	1843.
76981	15.834	1.65	0.1	1830.4
76982	15.685	1.6	0.1	1867.6
76983	15.735	1.65	0.1	1855.
76984	15.585	1.6	0.1	1892.3
76985	15.635	1.65	0.1	1879.7
76986	15.486	1.6	0.1	1917.1
76987	15.536	1.65	0.1	1904.4
76988	15.386	1.6	0.1	1941.9
76989	15.436	1.65	0.1	1929.1
76990	15.287	1.6	0.1	1966.7
76991	15.336	1.65	0.1	1954.
76992	15.187	1.6	0.1	1991.6
76993	15.237	1.65	0.1	1978.8
76994	15.088	1.6	0.1	2016.6
76995	15.137	1.65	0.1	2003.8
76996	14.988	1.6	0.1	2041.6
76997	15.038	1.65	0.1	2028.8
76998	14.888	1.6	0.1	2066.7
76999	14.938	1.65	0.1	2053.8
77000	14.789	1.6	0.1	2091.9
77001	14.839	1.65	0.1	2078.9
77002	14.689	1.6	0.1	2117.1
77003	14.739	1.65	0.1	2104.1
77004	14.59	1.6	0.1	2142.3
77005	14.639	1.65	0.1	2129.3
77006	14.49	1.6	0.1	2167.7
77007	14.54	1.65	0.1	2154.6
77008	14.39	1.6	0.1	2193.
77009	14.44	1.65	0.1	2180.
77010	14.291	1.6	0.1	2218.5
77011	14.341	1.65	0.1	2205.4
77012	14.191	1.6	0.1	2244.
77013	14.241	1.65	0.1	2230.8
77014	14.092	1.6	0.1	2269.5
77015	14.142	1.65	0.1	2256.4
77016	13.992	1.6	0.1	2295.2
77017	14.042	1.65	0.1	2282.
77018	13.893	1.6	0.1	2320.9
77019	13.942	1.65	0.1	2307.6
77020	13.793	1.6	0.1	2346.6
77021	13.843	1.65	0.1	2333.4
77022	13.693	1.6	0.1	2372.5
77023	13.743	1.65	0.1	2359.2
77024	13.594	1.6	0.1	2398.3
77025	13.644	1.65	0.1	2385.
77026	13.494	1.6	0.1	2424.3
77027	13.544	1.65	0.1	2411.
77028	13.395	1.6	0.1	2450.3
77029	13.444	1.65	0.1	2437.
77030	13.295	1.6	0.1	2476.5
77031	13.345	1.65	0.1	2463.
77032	13.195	1.6	0.1	2502.6
77033	13.245	1.65	0.1	2489.2
77034	13.096	1.6	0.1	2528.9
77035	13.146	1.65	0.1	2515.5
77036	12.996	1.6	0.1	2555.3
77037	13.046	1.65	0.1	2541.8
77038	12.897	1.6	0.1	2581.7
77039	12.947	1.65	0.1	2568.2
77040	12.797	1.6	0.1	2608.2
77041	12.847	1.65	0.1	2594.8
77042	12.698	1.6	0.1	2634.8
77043	12.747	1.65	0.1	2621.4
77044	12.598	1.6	0.1	2661.5
77045	12.648	1.65	0.1	2648.1
77046	12.498	1.6	0.1	2688.4
77047	12.548	1.65	0.1	2675.
77048	12.399	1.6	0.1	2715.3
77049	12.449	1.65	0.1	2702.
77050	12.299	1.6	0.1	2742.4
77051	12.349	1.65	0.1	2729.1
77052	12.2	1.6	0.1	2769.5
77053	12.249	1.65	0.1	2756.3
77054	12.1	1.6	0.1	2796.8
77055	12.15	1.65	0.1	2783.7
77056	12.001	1.6	0.1	2824.3
77057	12.05	1.65	0.1	2811.3
77058	11.901	1.6	0.1	2851.9
77059	11.951	1.65	0.1	2839.
77060	11.801	1.6	0.1	2879.7
77061	11.851	1.65	0.1	2867.
77062	11.702	1.6	0.1	2907.6
77063	11.752	1.65	0.1	2895.1
77064	11.602	1.6	0.1	2935.7
77065	11.652	1.65	0.1	2923.5
77066	11.503	1.6	0.1	2964.
77067	11.552	1.65	0.1	2952.1
77068	11.403	1.6	0.1	2992.6
77069	11.453	1.65	0.1	2981.
77070	11.303	1.6	0.1	3021.3
77071	11.353	1.65	0.1	3010.2
77072	11.204	1.6	0.1	3050.4
77073	11.254	1.65	0.1	3039.8
77074	11.104	1.6	0.1	3079.6
77075	11.154	1.65	0.1	3069.6
77076	11.005	1.6	0.1	3109.2
77077	11.055	1.65	0.1	3099.9
77078	10.905	1.6	0.1	3139.1
77079	10.955	1.65	0.1	3130.6
77080	10.806	1.6	0.1	3169.4
77081	10.855	1.65	0.1	3161.8
77082	10.706	1.6	0.1	3200.
77083	10.756	1.65	0.1	3193.5
77084	10.606	1.6	0.1	3231.
77085	10.656	1.65	0.1	3225.9
77086	10.507	1.6	0.1	3262.6
77087	10.557	1.65	0.1	3258.9
77088	10.407	1.6	0.1	3294.6
77089	10.457	1.65	0.1	3292.6
77090	10.308	1.6	0.1	3327.3
77091	10.357	1.65	0.1	3327.2
77092	10.208	1.6	0.1	3360.7
77093	10.258	1.65	0.1	3362.8
77094	10.108	1.6	0.1	3394.9
77095	10.158	1.65	0.1	3399.6
77096	10.009	1.6	0.1	3430.1
77097	10.059	1.65	0.1	3437.7
77098	9.9093	1.6	0.1	3466.4
77099	9.9591	1.65	0.1	3477.3
77100	9.8097	1.6	0.1	3504.2
77101	9.8595	1.65	0.1	3518.8
77102	9.7102	1.6	0.1	3543.8
77103	9.76	1.65	0.1	3562.6
77104	9.6106	1.6	0.1	3585.5
77105	9.6604	1.65	0.1	3609.1
77106	9.511	1.6	0.1	3629.9
77107	9.5608	1.65	0.1	3659.
77108	9.4114	1.6	0.1	3677.7
77109	9.4612	1.65	0.1	3713.
77110	9.3118	1.6	0.1	3729.7
77111	9.3616	1.65	0.1	3772.1
77112	9.2123	1.6	0.1	3787.
77113	9.2621	1.65	0.1	3837.4
77114	9.1127	1.6	0.1	3850.5
77115	9.1625	1.65	0.1	3910.6
77116	9.0131	1.6	0.1	3921.6
77117	9.0629	1.65	0.1	3993.3
77118	8.9135	1.6	0.1	4001.2
77119	8.9633	1.65	0.1	4087.4
77120	8.8139	1.6	0.1	4089.5
77121	8.8637	1.65	0.1	4194.9
77122	8.7144	1.6	0.1	4184.9
77123	8.7642	1.65	0.1	4317.2
77124	8.6148	1.6	0.1	4281.3
77125	8.6646	1.65	0.1	4453.8
77126	8.5152	1.6	0.1	4363.1
77127	8.565	1.65	0.1	4598.6
77128	8.4156	1.6	0.1	4400.7
77129	8.4654	1.65	0.1	4732.8
77130	8.316	1.6	0.1	4418.8
77131	8.3658	1.65	0.1	4808.3
77132	8.2662	1.65	0.1	4892.3
77133	8.2165	1.6	0.1	3173.1
77134	23.851	1.7	0.1	32.292
77135	23.9	1.75	0.1	21.947
77136	23.95	1.7	0.1	12.048
77137	23.751	1.7	0.1	53.118
77138	23.801	1.75	0.1	42.697
77139	23.651	1.7	0.1	73.961
77140	23.701	1.75	0.1	63.578
77141	23.552	1.7	0.1	94.758
77142	23.602	1.75	0.1	84.422
77143	23.452	1.7	0.1	115.51
77144	23.502	1.75	0.1	105.22
77145	23.353	1.7	0.1	136.23
77146	23.403	1.75	0.1	125.97
77147	23.253	1.7	0.1	156.91
77148	23.303	1.75	0.1	146.7
77149	23.154	1.7	0.1	177.59
77150	23.203	1.75	0.1	167.4
77151	23.054	1.7	0.1	198.26
77152	23.104	1.75	0.1	188.08
77153	22.954	1.7	0.1	218.94
77154	23.004	1.75	0.1	208.77
77155	22.855	1.7	0.1	239.63
77156	22.905	1.75	0.1	229.47
77157	22.755	1.7	0.1	260.35
77158	22.805	1.75	0.1	250.18
77159	22.656	1.7	0.1	281.09
77160	22.705	1.75	0.1	270.91
77161	22.556	1.7	0.1	301.87
77162	22.606	1.75	0.1	291.67
77163	22.456	1.7	0.1	322.69
77164	22.506	1.75	0.1	312.47
77165	22.357	1.7	0.1	343.55
77166	22.407	1.75	0.1	333.3
77167	22.257	1.7	0.1	364.45
77168	22.307	1.75	0.1	354.18
77169	22.158	1.7	0.1	385.4
77170	22.208	1.75	0.1	375.1
77171	22.058	1.7	0.1	406.4
77172	22.108	1.75	0.1	396.07
77173	21.959	1.7	0.1	427.45
77174	22.008	1.75	0.1	417.08
77175	21.859	1.7	0.1	448.55
77176	21.909	1.75	0.1	438.15
77177	21.759	1.7	0.1	469.7
77178	21.809	1.75	0.1	459.26
77179	21.66	1.7	0.1	490.91
77180	21.71	1.75	0.1	480.43
77181	21.56	1.7	0.1	512.17
77182	21.61	1.75	0.1	501.65
77183	21.461	1.7	0.1	533.48
77184	21.51	1.75	0.1	522.93
77185	21.361	1.7	0.1	554.85
77186	21.411	1.75	0.1	544.26
77187	21.262	1.7	0.1	576.27
77188	21.311	1.75	0.1	565.64
77189	21.162	1.7	0.1	597.75
77190	21.212	1.75	0.1	587.08
77191	21.062	1.7	0.1	619.29
77192	21.112	1.75	0.1	608.58
77193	20.963	1.7	0.1	640.88
77194	21.013	1.75	0.1	630.13
77195	20.863	1.7	0.1	662.53
77196	20.913	1.75	0.1	651.74
77197	20.764	1.7	0.1	684.23
77198	20.813	1.75	0.1	673.4
77199	20.664	1.7	0.1	705.99
77200	20.714	1.75	0.1	695.12
77201	20.564	1.7	0.1	727.81
77202	20.614	1.75	0.1	716.9
77203	20.465	1.7	0.1	749.68
77204	20.515	1.75	0.1	738.73
77205	20.365	1.7	0.1	771.61
77206	20.415	1.75	0.1	760.62
77207	20.266	1.7	0.1	793.6
77208	20.316	1.75	0.1	782.57
77209	20.166	1.7	0.1	815.64
77210	20.216	1.75	0.1	804.58
77211	20.067	1.7	0.1	837.74
77212	20.116	1.75	0.1	826.64
77213	19.967	1.7	0.1	859.9
77214	20.017	1.75	0.1	848.76
77215	19.867	1.7	0.1	882.12
77216	19.917	1.75	0.1	870.94
77217	19.768	1.7	0.1	904.39
77218	19.818	1.75	0.1	893.18
77219	19.668	1.7	0.1	926.72
77220	19.718	1.75	0.1	915.47
77221	19.569	1.7	0.1	949.11
77222	19.618	1.75	0.1	937.83
77223	19.469	1.7	0.1	971.56
77224	19.519	1.75	0.1	960.24
77225	19.369	1.7	0.1	994.06
77226	19.419	1.75	0.1	982.71
77227	19.27	1.7	0.1	1016.6
77228	19.32	1.75	0.1	1005.2
77229	19.17	1.7	0.1	1039.2
77230	19.22	1.75	0.1	1027.8
77231	19.071	1.7	0.1	1061.9
77232	19.121	1.75	0.1	1050.5
77233	18.971	1.7	0.1	1084.7
77234	19.021	1.75	0.1	1073.2
77235	18.872	1.7	0.1	1107.4
77236	18.921	1.75	0.1	1095.9
77237	18.772	1.7	0.1	1130.3
77238	18.822	1.75	0.1	1118.7
77239	18.672	1.7	0.1	1153.2
77240	18.722	1.75	0.1	1141.6
77241	18.573	1.7	0.1	1176.2
77242	18.623	1.75	0.1	1164.5
77243	18.473	1.7	0.1	1199.2
77244	18.523	1.75	0.1	1187.5
77245	18.374	1.7	0.1	1222.3
77246	18.423	1.75	0.1	1210.6
77247	18.274	1.7	0.1	1245.4
77248	18.324	1.75	0.1	1233.7
77249	18.175	1.7	0.1	1268.6
77250	18.224	1.75	0.1	1256.8
77251	18.075	1.7	0.1	1291.9
77252	18.125	1.75	0.1	1280.1
77253	17.975	1.7	0.1	1315.2
77254	18.025	1.75	0.1	1303.3
77255	17.876	1.7	0.1	1338.5
77256	17.926	1.75	0.1	1326.7
77257	17.776	1.7	0.1	1362.
77258	17.826	1.75	0.1	1350.1
77259	17.677	1.7	0.1	1385.5
77260	17.726	1.75	0.1	1373.5
77261	17.577	1.7	0.1	1409.
77262	17.627	1.75	0.1	1397.
77263	17.477	1.7	0.1	1432.6
77264	17.527	1.75	0.1	1420.6
77265	17.378	1.7	0.1	1456.2
77266	17.428	1.75	0.1	1444.2
77267	17.278	1.7	0.1	1480.
77268	17.328	1.75	0.1	1467.9
77269	17.179	1.7	0.1	1503.7
77270	17.229	1.75	0.1	1491.6
77271	17.079	1.7	0.1	1527.6
77272	17.129	1.75	0.1	1515.4
77273	16.98	1.7	0.1	1551.4
77274	17.029	1.75	0.1	1539.3
77275	16.88	1.7	0.1	1575.4
77276	16.93	1.75	0.1	1563.2
77277	16.78	1.7	0.1	1599.4
77278	16.83	1.75	0.1	1587.1
77279	16.681	1.7	0.1	1623.4
77280	16.731	1.75	0.1	1611.2
77281	16.581	1.7	0.1	1647.5
77282	16.631	1.75	0.1	1635.2
77283	16.482	1.7	0.1	1671.7
77284	16.531	1.75	0.1	1659.4
77285	16.382	1.7	0.1	1695.9
77286	16.432	1.75	0.1	1683.6
77287	16.282	1.7	0.1	1720.2
77288	16.332	1.75	0.1	1707.8
77289	16.183	1.7	0.1	1744.5
77290	16.233	1.75	0.1	1732.1
77291	16.083	1.7	0.1	1768.9
77292	16.133	1.75	0.1	1756.5
77293	15.984	1.7	0.1	1793.4
77294	16.034	1.75	0.1	1780.9
77295	15.884	1.7	0.1	1817.9
77296	15.934	1.75	0.1	1805.4
77297	15.785	1.7	0.1	1842.4
77298	15.834	1.75	0.1	1829.9
77299	15.685	1.7	0.1	1867.1
77300	15.735	1.75	0.1	1854.5
77301	15.585	1.7	0.1	1891.7
77302	15.635	1.75	0.1	1879.1
77303	15.486	1.7	0.1	1916.5
77304	15.536	1.75	0.1	1903.8
77305	15.386	1.7	0.1	1941.3
77306	15.436	1.75	0.1	1928.6
77307	15.287	1.7	0.1	1966.1
77308	15.336	1.75	0.1	1953.4
77309	15.187	1.7	0.1	1991.
77310	15.237	1.75	0.1	1978.2
77311	15.088	1.7	0.1	2016.
77312	15.137	1.75	0.1	2003.2
77313	14.988	1.7	0.1	2041.
77314	15.038	1.75	0.1	2028.1
77315	14.888	1.7	0.1	2066.1
77316	14.938	1.75	0.1	2053.2
77317	14.789	1.7	0.1	2091.2
77318	14.839	1.75	0.1	2078.3
77319	14.689	1.7	0.1	2116.4
77320	14.739	1.75	0.1	2103.4
77321	14.59	1.7	0.1	2141.6
77322	14.639	1.75	0.1	2128.7
77323	14.49	1.7	0.1	2166.9
77324	14.54	1.75	0.1	2153.9
77325	14.39	1.7	0.1	2192.3
77326	14.44	1.75	0.1	2179.3
77327	14.291	1.7	0.1	2217.7
77328	14.341	1.75	0.1	2204.7
77329	14.191	1.7	0.1	2243.2
77330	14.241	1.75	0.1	2230.1
77331	14.092	1.7	0.1	2268.8
77332	14.142	1.75	0.1	2255.7
77333	13.992	1.7	0.1	2294.4
77334	14.042	1.75	0.1	2281.3
77335	13.893	1.7	0.1	2320.1
77336	13.942	1.75	0.1	2306.9
77337	13.793	1.7	0.1	2345.9
77338	13.843	1.75	0.1	2332.6
77339	13.693	1.7	0.1	2371.7
77340	13.743	1.75	0.1	2358.4
77341	13.594	1.7	0.1	2397.6
77342	13.644	1.75	0.1	2384.3
77343	13.494	1.7	0.1	2423.6
77344	13.544	1.75	0.1	2410.3
77345	13.395	1.7	0.1	2449.7
77346	13.444	1.75	0.1	2436.3
77347	13.295	1.7	0.1	2475.8
77348	13.345	1.75	0.1	2462.4
77349	13.195	1.7	0.1	2502.
77350	13.245	1.75	0.1	2488.6
77351	13.096	1.7	0.1	2528.4
77352	13.146	1.75	0.1	2514.9
77353	12.996	1.7	0.1	2554.8
77354	13.046	1.75	0.1	2541.3
77355	12.897	1.7	0.1	2581.3
77356	12.947	1.75	0.1	2567.8
77357	12.797	1.7	0.1	2607.9
77358	12.847	1.75	0.1	2594.4
77359	12.698	1.7	0.1	2634.7
77360	12.747	1.75	0.1	2621.2
77361	12.598	1.7	0.1	2661.6
77362	12.648	1.75	0.1	2648.1
77363	12.498	1.7	0.1	2688.6
77364	12.548	1.75	0.1	2675.1
77365	12.399	1.7	0.1	2715.7
77366	12.449	1.75	0.1	2702.2
77367	12.299	1.7	0.1	2743.
77368	12.349	1.75	0.1	2729.6
77369	12.2	1.7	0.1	2770.5
77370	12.249	1.75	0.1	2757.1
77371	12.1	1.7	0.1	2798.2
77372	12.15	1.75	0.1	2784.8
77373	12.001	1.7	0.1	2826.
77374	12.05	1.75	0.1	2812.8
77375	11.901	1.7	0.1	2854.1
77376	11.951	1.75	0.1	2841.
77377	11.801	1.7	0.1	2882.4
77378	11.851	1.75	0.1	2869.4
77379	11.702	1.7	0.1	2911.
77380	11.752	1.75	0.1	2898.2
77381	11.602	1.7	0.1	2939.9
77382	11.652	1.75	0.1	2927.2
77383	11.503	1.7	0.1	2969.1
77384	11.552	1.75	0.1	2956.7
77385	11.403	1.7	0.1	2998.7
77386	11.453	1.75	0.1	2986.5
77387	11.303	1.7	0.1	3028.6
77388	11.353	1.75	0.1	3016.8
77389	11.204	1.7	0.1	3059.
77390	11.254	1.75	0.1	3047.6
77391	11.104	1.7	0.1	3089.9
77392	11.154	1.75	0.1	3078.9
77393	11.005	1.7	0.1	3121.3
77394	11.055	1.75	0.1	3110.9
77395	10.905	1.7	0.1	3153.3
77396	10.955	1.75	0.1	3143.6
77397	10.806	1.7	0.1	3186.
77398	10.855	1.75	0.1	3177.
77399	10.706	1.7	0.1	3219.4
77400	10.756	1.75	0.1	3211.3
77401	10.606	1.7	0.1	3253.7
77402	10.656	1.75	0.1	3246.6
77403	10.507	1.7	0.1	3288.9
77404	10.557	1.75	0.1	3283.
77405	10.407	1.7	0.1	3325.2
77406	10.457	1.75	0.1	3320.7
77407	10.308	1.7	0.1	3362.7
77408	10.357	1.75	0.1	3359.8
77409	10.208	1.7	0.1	3401.7
77410	10.258	1.75	0.1	3400.5
77411	10.108	1.7	0.1	3442.2
77412	10.158	1.75	0.1	3443.2
77413	10.009	1.7	0.1	3484.7
77414	10.059	1.75	0.1	3488.1
77415	9.9093	1.7	0.1	3529.5
77416	9.9591	1.75	0.1	3535.5
77417	9.8097	1.7	0.1	3576.9
77418	9.8595	1.75	0.1	3586.
77419	9.7102	1.7	0.1	3627.6
77420	9.76	1.75	0.1	3640.1
77421	9.6106	1.7	0.1	3682.1
77422	9.6604	1.75	0.1	3698.5
77423	9.511	1.7	0.1	3741.4
77424	9.5608	1.75	0.1	3762.2
77425	9.4114	1.7	0.1	3806.5
77426	9.4612	1.75	0.1	3832.1
77427	9.3118	1.7	0.1	3878.7
77428	9.3616	1.75	0.1	3909.8
77429	9.2123	1.7	0.1	3959.7
77430	9.2621	1.75	0.1	3997.1
77431	9.1127	1.7	0.1	4051.5
77432	9.1625	1.75	0.1	4096.2
77433	9.0131	1.7	0.1	4156.7
77434	9.0629	1.75	0.1	4210.1
77435	8.9135	1.7	0.1	4278.1
77436	8.9633	1.75	0.1	4342.4
77437	8.8139	1.7	0.1	4418.6
77438	8.8637	1.75	0.1	4497.6
77439	8.7144	1.7	0.1	4580.7
77440	8.7642	1.75	0.1	4681.3
77441	8.6148	1.7	0.1	4763.2
77442	8.6646	1.75	0.1	4899.5
77443	8.5152	1.7	0.1	4955.5
77444	8.565	1.75	0.1	5156.5
77445	8.4156	1.7	0.1	5116.7
77446	8.4654	1.75	0.1	5449.7
77447	8.316	1.7	0.1	5237.6
77448	8.3658	1.75	0.1	5720.
77449	8.2662	1.75	0.1	5979.3
77450	8.2165	1.7	0.1	3749.6
77451	23.851	1.8	0.1	32.262
77452	23.9	1.85	0.1	21.893
77453	23.95	1.8	0.1	12.022
77454	23.751	1.8	0.1	53.141
77455	23.801	1.85	0.1	42.693
77456	23.651	1.8	0.1	74.035
77457	23.701	1.85	0.1	63.621
77458	23.552	1.8	0.1	94.884
77459	23.602	1.85	0.1	84.514
77460	23.452	1.8	0.1	115.69
77461	23.502	1.85	0.1	105.36
77462	23.353	1.8	0.1	136.45
77463	23.403	1.85	0.1	126.16
77464	23.253	1.8	0.1	157.18
77465	23.303	1.85	0.1	146.93
77466	23.154	1.8	0.1	177.89
77467	23.203	1.85	0.1	167.67
77468	23.054	1.8	0.1	198.6
77469	23.104	1.85	0.1	188.39
77470	22.954	1.8	0.1	219.3
77471	23.004	1.85	0.1	209.1
77472	22.855	1.8	0.1	240.02
77473	22.905	1.85	0.1	229.82
77474	22.755	1.8	0.1	260.75
77475	22.805	1.85	0.1	250.55
77476	22.656	1.8	0.1	281.5
77477	22.705	1.85	0.1	271.29
77478	22.556	1.8	0.1	302.28
77479	22.606	1.85	0.1	292.06
77480	22.456	1.8	0.1	323.09
77481	22.506	1.85	0.1	312.86
77482	22.357	1.8	0.1	343.95
77483	22.407	1.85	0.1	333.69
77484	22.257	1.8	0.1	364.84
77485	22.307	1.85	0.1	354.56
77486	22.158	1.8	0.1	385.78
77487	22.208	1.85	0.1	375.47
77488	22.058	1.8	0.1	406.76
77489	22.108	1.85	0.1	396.43
77490	21.959	1.8	0.1	427.79
77491	22.008	1.85	0.1	417.43
77492	21.859	1.8	0.1	448.87
77493	21.909	1.85	0.1	438.48
77494	21.759	1.8	0.1	470.01
77495	21.809	1.85	0.1	459.57
77496	21.66	1.8	0.1	491.19
77497	21.71	1.85	0.1	480.72
77498	21.56	1.8	0.1	512.43
77499	21.61	1.85	0.1	501.92
77500	21.461	1.8	0.1	533.72
77501	21.51	1.85	0.1	523.17
77502	21.361	1.8	0.1	555.06
77503	21.411	1.85	0.1	544.48
77504	21.262	1.8	0.1	576.46
77505	21.311	1.85	0.1	565.84
77506	21.162	1.8	0.1	597.92
77507	21.212	1.85	0.1	587.26
77508	21.062	1.8	0.1	619.43
77509	21.112	1.85	0.1	608.73
77510	20.963	1.8	0.1	641.
77511	21.013	1.85	0.1	630.26
77512	20.863	1.8	0.1	662.62
77513	20.913	1.85	0.1	651.84
77514	20.764	1.8	0.1	684.3
77515	20.813	1.85	0.1	673.49
77516	20.664	1.8	0.1	706.04
77517	20.714	1.85	0.1	695.18
77518	20.564	1.8	0.1	727.83
77519	20.614	1.85	0.1	716.94
77520	20.465	1.8	0.1	749.69
77521	20.515	1.85	0.1	738.75
77522	20.365	1.8	0.1	771.6
77523	20.415	1.85	0.1	760.63
77524	20.266	1.8	0.1	793.56
77525	20.316	1.85	0.1	782.56
77526	20.166	1.8	0.1	815.59
77527	20.216	1.85	0.1	804.54
77528	20.067	1.8	0.1	837.67
77529	20.116	1.85	0.1	826.59
77530	19.967	1.8	0.1	859.82
77531	20.017	1.85	0.1	848.69
77532	19.867	1.8	0.1	882.01
77533	19.917	1.85	0.1	870.86
77534	19.768	1.8	0.1	904.27
77535	19.818	1.85	0.1	893.08
77536	19.668	1.8	0.1	926.59
77537	19.718	1.85	0.1	915.36
77538	19.569	1.8	0.1	948.96
77539	19.618	1.85	0.1	937.69
77540	19.469	1.8	0.1	971.39
77541	19.519	1.85	0.1	960.09
77542	19.369	1.8	0.1	993.88
77543	19.419	1.85	0.1	982.54
77544	19.27	1.8	0.1	1016.4
77545	19.32	1.85	0.1	1005.1
77546	19.17	1.8	0.1	1039.
77547	19.22	1.85	0.1	1027.6
77548	19.071	1.8	0.1	1061.7
77549	19.121	1.85	0.1	1050.3
77550	18.971	1.8	0.1	1084.4
77551	19.021	1.85	0.1	1072.9
77552	18.872	1.8	0.1	1107.2
77553	18.921	1.85	0.1	1095.7
77554	18.772	1.8	0.1	1130.
77555	18.822	1.85	0.1	1118.5
77556	18.672	1.8	0.1	1152.9
77557	18.722	1.85	0.1	1141.4
77558	18.573	1.8	0.1	1175.9
77559	18.623	1.85	0.1	1164.3
77560	18.473	1.8	0.1	1198.9
77561	18.523	1.85	0.1	1187.3
77562	18.374	1.8	0.1	1222.
77563	18.423	1.85	0.1	1210.3
77564	18.274	1.8	0.1	1245.1
77565	18.324	1.85	0.1	1233.4
77566	18.175	1.8	0.1	1268.3
77567	18.224	1.85	0.1	1256.5
77568	18.075	1.8	0.1	1291.5
77569	18.125	1.85	0.1	1279.8
77570	17.975	1.8	0.1	1314.8
77571	18.025	1.85	0.1	1303.
77572	17.876	1.8	0.1	1338.2
77573	17.926	1.85	0.1	1326.4
77574	17.776	1.8	0.1	1361.6
77575	17.826	1.85	0.1	1349.7
77576	17.677	1.8	0.1	1385.1
77577	17.726	1.85	0.1	1373.2
77578	17.577	1.8	0.1	1408.6
77579	17.627	1.85	0.1	1396.7
77580	17.477	1.8	0.1	1432.2
77581	17.527	1.85	0.1	1420.2
77582	17.378	1.8	0.1	1455.9
77583	17.428	1.85	0.1	1443.9
77584	17.278	1.8	0.1	1479.6
77585	17.328	1.85	0.1	1467.5
77586	17.179	1.8	0.1	1503.3
77587	17.229	1.85	0.1	1491.2
77588	17.079	1.8	0.1	1527.1
77589	17.129	1.85	0.1	1515.
77590	16.98	1.8	0.1	1551.
77591	17.029	1.85	0.1	1538.9
77592	16.88	1.8	0.1	1574.9
77593	16.93	1.85	0.1	1562.8
77594	16.78	1.8	0.1	1598.9
77595	16.83	1.85	0.1	1586.7
77596	16.681	1.8	0.1	1623.
77597	16.731	1.85	0.1	1610.7
77598	16.581	1.8	0.1	1647.1
77599	16.631	1.85	0.1	1634.8
77600	16.482	1.8	0.1	1671.2
77601	16.531	1.85	0.1	1658.9
77602	16.382	1.8	0.1	1695.5
77603	16.432	1.85	0.1	1683.1
77604	16.282	1.8	0.1	1719.7
77605	16.332	1.85	0.1	1707.4
77606	16.183	1.8	0.1	1744.
77607	16.233	1.85	0.1	1731.6
77608	16.083	1.8	0.1	1768.4
77609	16.133	1.85	0.1	1756.
77610	15.984	1.8	0.1	1792.9
77611	16.034	1.85	0.1	1780.4
77612	15.884	1.8	0.1	1817.4
77613	15.934	1.85	0.1	1804.9
77614	15.785	1.8	0.1	1841.9
77615	15.834	1.85	0.1	1829.4
77616	15.685	1.8	0.1	1866.5
77617	15.735	1.85	0.1	1854.
77618	15.585	1.8	0.1	1891.2
77619	15.635	1.85	0.1	1878.6
77620	15.486	1.8	0.1	1915.9
77621	15.536	1.85	0.1	1903.3
77622	15.386	1.8	0.1	1940.7
77623	15.436	1.85	0.1	1928.
77624	15.287	1.8	0.1	1965.5
77625	15.336	1.85	0.1	1952.8
77626	15.187	1.8	0.1	1990.4
77627	15.237	1.85	0.1	1977.7
77628	15.088	1.8	0.1	2015.4
77629	15.137	1.85	0.1	2002.6
77630	14.988	1.8	0.1	2040.4
77631	15.038	1.85	0.1	2027.6
77632	14.888	1.8	0.1	2065.4
77633	14.938	1.85	0.1	2052.6
77634	14.789	1.8	0.1	2090.5
77635	14.839	1.85	0.1	2077.7
77636	14.689	1.8	0.1	2115.7
77637	14.739	1.85	0.1	2102.8
77638	14.59	1.8	0.1	2141.
77639	14.639	1.85	0.1	2128.
77640	14.49	1.8	0.1	2166.3
77641	14.54	1.85	0.1	2153.3
77642	14.39	1.8	0.1	2191.6
77643	14.44	1.85	0.1	2178.6
77644	14.291	1.8	0.1	2217.1
77645	14.341	1.85	0.1	2204.
77646	14.191	1.8	0.1	2242.6
77647	14.241	1.85	0.1	2229.5
77648	14.092	1.8	0.1	2268.1
77649	14.142	1.85	0.1	2255.
77650	13.992	1.8	0.1	2293.7
77651	14.042	1.85	0.1	2280.6
77652	13.893	1.8	0.1	2319.4
77653	13.942	1.85	0.1	2306.2
77654	13.793	1.8	0.1	2345.2
77655	13.843	1.85	0.1	2332.
77656	13.693	1.8	0.1	2371.
77657	13.743	1.85	0.1	2357.8
77658	13.594	1.8	0.1	2397.
77659	13.644	1.85	0.1	2383.7
77660	13.494	1.8	0.1	2423.
77661	13.544	1.85	0.1	2409.6
77662	13.395	1.8	0.1	2449.
77663	13.444	1.85	0.1	2435.7
77664	13.295	1.8	0.1	2475.2
77665	13.345	1.85	0.1	2461.8
77666	13.195	1.8	0.1	2501.5
77667	13.245	1.85	0.1	2488.1
77668	13.096	1.8	0.1	2527.9
77669	13.146	1.85	0.1	2514.4
77670	12.996	1.8	0.1	2554.4
77671	13.046	1.85	0.1	2540.9
77672	12.897	1.8	0.1	2581.
77673	12.947	1.85	0.1	2567.5
77674	12.797	1.8	0.1	2607.7
77675	12.847	1.85	0.1	2594.2
77676	12.698	1.8	0.1	2634.6
77677	12.747	1.85	0.1	2621.
77678	12.598	1.8	0.1	2661.6
77679	12.648	1.85	0.1	2648.
77680	12.498	1.8	0.1	2688.8
77681	12.548	1.85	0.1	2675.2
77682	12.399	1.8	0.1	2716.1
77683	12.449	1.85	0.1	2702.5
77684	12.299	1.8	0.1	2743.7
77685	12.349	1.85	0.1	2730.1
77686	12.2	1.8	0.1	2771.4
77687	12.249	1.85	0.1	2757.9
77688	12.1	1.8	0.1	2799.5
77689	12.15	1.85	0.1	2785.9
77690	12.001	1.8	0.1	2827.7
77691	12.05	1.85	0.1	2814.2
77692	11.901	1.8	0.1	2856.3
77693	11.951	1.85	0.1	2842.8
77694	11.801	1.8	0.1	2885.2
77695	11.851	1.85	0.1	2871.8
77696	11.702	1.8	0.1	2914.4
77697	11.752	1.85	0.1	2901.1
77698	11.602	1.8	0.1	2944.
77699	11.652	1.85	0.1	2930.9
77700	11.503	1.8	0.1	2974.1
77701	11.552	1.85	0.1	2961.1
77702	11.403	1.8	0.1	3004.7
77703	11.453	1.85	0.1	2991.9
77704	11.303	1.8	0.1	3035.8
77705	11.353	1.85	0.1	3023.2
77706	11.204	1.8	0.1	3067.5
77707	11.254	1.85	0.1	3055.2
77708	11.104	1.8	0.1	3099.9
77709	11.154	1.85	0.1	3088.
77710	11.005	1.8	0.1	3133.1
77711	11.055	1.85	0.1	3121.6
77712	10.905	1.8	0.1	3167.2
77713	10.955	1.85	0.1	3156.1
77714	10.806	1.8	0.1	3202.3
77715	10.855	1.85	0.1	3191.8
77716	10.706	1.8	0.1	3238.5
77717	10.756	1.85	0.1	3228.6
77718	10.606	1.8	0.1	3275.9
77719	10.656	1.85	0.1	3266.8
77720	10.507	1.8	0.1	3314.7
77721	10.557	1.85	0.1	3306.6
77722	10.407	1.8	0.1	3355.2
77723	10.457	1.85	0.1	3348.1
77724	10.308	1.8	0.1	3397.6
77725	10.357	1.85	0.1	3391.6
77726	10.208	1.8	0.1	3442.
77727	10.258	1.85	0.1	3437.5
77728	10.108	1.8	0.1	3488.9
77729	10.158	1.85	0.1	3486.
77730	10.009	1.8	0.1	3538.7
77731	10.059	1.85	0.1	3537.6
77732	9.9093	1.8	0.1	3591.9
77733	9.9591	1.85	0.1	3592.8
77734	9.8097	1.8	0.1	3649.
77735	9.8595	1.85	0.1	3652.2
77736	9.7102	1.8	0.1	3710.7
77737	9.76	1.85	0.1	3716.5
77738	9.6106	1.8	0.1	3778.1
77739	9.6604	1.85	0.1	3786.7
77740	9.511	1.8	0.1	3852.3
77741	9.5608	1.85	0.1	3864.
77742	9.4114	1.8	0.1	3934.7
77743	9.4612	1.85	0.1	3949.9
77744	9.3118	1.8	0.1	4027.2
77745	9.3616	1.85	0.1	4046.2
77746	9.2123	1.8	0.1	4132.4
77747	9.2621	1.85	0.1	4155.3
77748	9.1127	1.8	0.1	4253.2
77749	9.1625	1.85	0.1	4280.6
77750	9.0131	1.8	0.1	4393.8
77751	9.0629	1.85	0.1	4426.1
77752	8.9135	1.8	0.1	4559.5
77753	8.9633	1.85	0.1	4597.6
77754	8.8139	1.8	0.1	4757.2
77755	8.8637	1.85	0.1	4802.7
77756	8.7144	1.8	0.1	4996.1
77757	8.7642	1.85	0.1	5052.4
77758	8.6148	1.8	0.1	5287.2
77759	8.6646	1.85	0.1	5362.4
77760	8.5152	1.8	0.1	5641.6
77761	8.565	1.85	0.1	5756.7
77762	8.4156	1.8	0.1	6032.4
77763	8.4654	1.85	0.1	6271.9
77764	8.316	1.8	0.1	6391.3
77765	8.3658	1.85	0.1	6970.5
77766	8.2662	1.85	0.1	8079.2
77767	8.2165	1.8	0.1	4566.4
77768	23.851	1.9	0.1	32.232
77769	23.9	1.95	0.1	21.843
77770	23.95	1.9	0.1	11.997
77771	23.751	1.9	0.1	53.157
77772	23.801	1.95	0.1	42.686
77773	23.651	1.9	0.1	74.096
77774	23.701	1.95	0.1	63.656
77775	23.552	1.9	0.1	94.991
77776	23.602	1.95	0.1	84.592
77777	23.452	1.9	0.1	115.84
77778	23.502	1.95	0.1	105.48
77779	23.353	1.9	0.1	136.64
77780	23.403	1.95	0.1	126.32
77781	23.253	1.9	0.1	157.42
77782	23.303	1.95	0.1	147.13
77783	23.154	1.9	0.1	178.16
77784	23.203	1.95	0.1	167.9
77785	23.054	1.9	0.1	198.9
77786	23.104	1.95	0.1	188.66
77787	22.954	1.9	0.1	219.63
77788	23.004	1.95	0.1	209.4
77789	22.855	1.9	0.1	240.36
77790	22.905	1.95	0.1	230.14
77791	22.755	1.9	0.1	261.11
77792	22.805	1.95	0.1	250.89
77793	22.656	1.9	0.1	281.87
77794	22.705	1.95	0.1	271.64
77795	22.556	1.9	0.1	302.65
77796	22.606	1.95	0.1	292.42
77797	22.456	1.9	0.1	323.47
77798	22.506	1.95	0.1	313.22
77799	22.357	1.9	0.1	344.32
77800	22.407	1.95	0.1	334.05
77801	22.257	1.9	0.1	365.21
77802	22.307	1.95	0.1	354.92
77803	22.158	1.9	0.1	386.13
77804	22.208	1.95	0.1	375.82
77805	22.058	1.9	0.1	407.1
77806	22.108	1.95	0.1	396.77
77807	21.959	1.9	0.1	428.12
77808	22.008	1.95	0.1	417.75
77809	21.859	1.9	0.1	449.18
77810	21.909	1.95	0.1	438.79
77811	21.759	1.9	0.1	470.3
77812	21.809	1.95	0.1	459.87
77813	21.66	1.9	0.1	491.46
77814	21.71	1.95	0.1	481.
77815	21.56	1.9	0.1	512.68
77816	21.61	1.95	0.1	502.18
77817	21.461	1.9	0.1	533.95
77818	21.51	1.95	0.1	523.41
77819	21.361	1.9	0.1	555.27
77820	21.411	1.95	0.1	544.7
77821	21.262	1.9	0.1	576.65
77822	21.311	1.95	0.1	566.04
77823	21.162	1.9	0.1	598.08
77824	21.212	1.95	0.1	587.43
77825	21.062	1.9	0.1	619.57
77826	21.112	1.95	0.1	608.88
77827	20.963	1.9	0.1	641.12
77828	21.013	1.95	0.1	630.39
77829	20.863	1.9	0.1	662.72
77830	20.913	1.95	0.1	651.96
77831	20.764	1.9	0.1	684.38
77832	20.813	1.95	0.1	673.58
77833	20.664	1.9	0.1	706.1
77834	20.714	1.95	0.1	695.26
77835	20.564	1.9	0.1	727.87
77836	20.614	1.95	0.1	716.99
77837	20.465	1.9	0.1	749.71
77838	20.515	1.95	0.1	738.79
77839	20.365	1.9	0.1	771.6
77840	20.415	1.95	0.1	760.64
77841	20.266	1.9	0.1	793.55
77842	20.316	1.95	0.1	782.55
77843	20.166	1.9	0.1	815.55
77844	20.216	1.95	0.1	804.52
77845	20.067	1.9	0.1	837.62
77846	20.116	1.95	0.1	826.55
77847	19.967	1.9	0.1	859.75
77848	20.017	1.95	0.1	848.64
77849	19.867	1.9	0.1	881.93
77850	19.917	1.95	0.1	870.79
77851	19.768	1.9	0.1	904.17
77852	19.818	1.95	0.1	892.99
77853	19.668	1.9	0.1	926.47
77854	19.718	1.95	0.1	915.26
77855	19.569	1.9	0.1	948.83
77856	19.618	1.95	0.1	937.58
77857	19.469	1.9	0.1	971.25
77858	19.519	1.95	0.1	959.96
77859	19.369	1.9	0.1	993.73
77860	19.419	1.95	0.1	982.4
77861	19.27	1.9	0.1	1016.3
77862	19.32	1.95	0.1	1004.9
77863	19.17	1.9	0.1	1038.9
77864	19.22	1.95	0.1	1027.5
77865	19.071	1.9	0.1	1061.5
77866	19.121	1.95	0.1	1050.1
77867	18.971	1.9	0.1	1084.2
77868	19.021	1.95	0.1	1072.8
77869	18.872	1.9	0.1	1107.
77870	18.921	1.95	0.1	1095.5
77871	18.772	1.9	0.1	1129.8
77872	18.822	1.95	0.1	1118.3
77873	18.672	1.9	0.1	1152.7
77874	18.722	1.95	0.1	1141.1
77875	18.573	1.9	0.1	1175.7
77876	18.623	1.95	0.1	1164.1
77877	18.473	1.9	0.1	1198.7
77878	18.523	1.95	0.1	1187.
77879	18.374	1.9	0.1	1221.7
77880	18.423	1.95	0.1	1210.1
77881	18.274	1.9	0.1	1244.8
77882	18.324	1.95	0.1	1233.1
77883	18.175	1.9	0.1	1268.
77884	18.224	1.95	0.1	1256.3
77885	18.075	1.9	0.1	1291.3
77886	18.125	1.95	0.1	1279.5
77887	17.975	1.9	0.1	1314.5
77888	18.025	1.95	0.1	1302.7
77889	17.876	1.9	0.1	1337.9
77890	17.926	1.95	0.1	1326.1
77891	17.776	1.9	0.1	1361.3
77892	17.826	1.95	0.1	1349.4
77893	17.677	1.9	0.1	1384.8
77894	17.726	1.95	0.1	1372.9
77895	17.577	1.9	0.1	1408.3
77896	17.627	1.95	0.1	1396.4
77897	17.477	1.9	0.1	1431.9
77898	17.527	1.95	0.1	1419.9
77899	17.378	1.9	0.1	1455.5
77900	17.428	1.95	0.1	1443.5
77901	17.278	1.9	0.1	1479.2
77902	17.328	1.95	0.1	1467.2
77903	17.179	1.9	0.1	1503.
77904	17.229	1.95	0.1	1490.9
77905	17.079	1.9	0.1	1526.8
77906	17.129	1.95	0.1	1514.7
77907	16.98	1.9	0.1	1550.6
77908	17.029	1.95	0.1	1538.5
77909	16.88	1.9	0.1	1574.6
77910	16.93	1.95	0.1	1562.4
77911	16.78	1.9	0.1	1598.5
77912	16.83	1.95	0.1	1586.4
77913	16.681	1.9	0.1	1622.6
77914	16.731	1.95	0.1	1610.4
77915	16.581	1.9	0.1	1646.7
77916	16.631	1.95	0.1	1634.4
77917	16.482	1.9	0.1	1670.8
77918	16.531	1.95	0.1	1658.5
77919	16.382	1.9	0.1	1695.
77920	16.432	1.95	0.1	1682.7
77921	16.282	1.9	0.1	1719.3
77922	16.332	1.95	0.1	1706.9
77923	16.183	1.9	0.1	1743.6
77924	16.233	1.95	0.1	1731.2
77925	16.083	1.9	0.1	1768.
77926	16.133	1.95	0.1	1755.6
77927	15.984	1.9	0.1	1792.4
77928	16.034	1.95	0.1	1780.
77929	15.884	1.9	0.1	1816.9
77930	15.934	1.95	0.1	1804.4
77931	15.785	1.9	0.1	1841.4
77932	15.834	1.95	0.1	1828.9
77933	15.685	1.9	0.1	1866.
77934	15.735	1.95	0.1	1853.5
77935	15.585	1.9	0.1	1890.7
77936	15.635	1.95	0.1	1878.1
77937	15.486	1.9	0.1	1915.4
77938	15.536	1.95	0.1	1902.8
77939	15.386	1.9	0.1	1940.2
77940	15.436	1.95	0.1	1927.5
77941	15.287	1.9	0.1	1965.
77942	15.336	1.95	0.1	1952.3
77943	15.187	1.9	0.1	1989.9
77944	15.237	1.95	0.1	1977.1
77945	15.088	1.9	0.1	2014.8
77946	15.137	1.95	0.1	2002.1
77947	14.988	1.9	0.1	2039.8
77948	15.038	1.95	0.1	2027.
77949	14.888	1.9	0.1	2064.8
77950	14.938	1.95	0.1	2052.
77951	14.789	1.9	0.1	2090.
77952	14.839	1.95	0.1	2077.1
77953	14.689	1.9	0.1	2115.1
77954	14.739	1.95	0.1	2102.2
77955	14.59	1.9	0.1	2140.4
77956	14.639	1.95	0.1	2127.4
77957	14.49	1.9	0.1	2165.6
77958	14.54	1.95	0.1	2152.7
77959	14.39	1.9	0.1	2191.
77960	14.44	1.95	0.1	2178.
77961	14.291	1.9	0.1	2216.4
77962	14.341	1.95	0.1	2203.4
77963	14.191	1.9	0.1	2241.9
77964	14.241	1.95	0.1	2228.8
77965	14.092	1.9	0.1	2267.5
77966	14.142	1.95	0.1	2254.4
77967	13.992	1.9	0.1	2293.1
77968	14.042	1.95	0.1	2280.
77969	13.893	1.9	0.1	2318.8
77970	13.942	1.95	0.1	2305.6
77971	13.793	1.9	0.1	2344.5
77972	13.843	1.95	0.1	2331.3
77973	13.693	1.9	0.1	2370.4
77974	13.743	1.95	0.1	2357.2
77975	13.594	1.9	0.1	2396.3
77976	13.644	1.95	0.1	2383.
77977	13.494	1.9	0.1	2422.3
77978	13.544	1.95	0.1	2409.
77979	13.395	1.9	0.1	2448.5
77980	13.444	1.95	0.1	2435.1
77981	13.295	1.9	0.1	2474.7
77982	13.345	1.95	0.1	2461.3
77983	13.195	1.9	0.1	2501.
77984	13.245	1.95	0.1	2487.6
77985	13.096	1.9	0.1	2527.4
77986	13.146	1.95	0.1	2513.9
77987	12.996	1.9	0.1	2554.
77988	13.046	1.95	0.1	2540.5
77989	12.897	1.9	0.1	2580.6
77990	12.947	1.95	0.1	2567.1
77991	12.797	1.9	0.1	2607.5
77992	12.847	1.95	0.1	2593.9
77993	12.698	1.9	0.1	2634.5
77994	12.747	1.95	0.1	2620.8
77995	12.598	1.9	0.1	2661.6
77996	12.648	1.95	0.1	2648.
77997	12.498	1.9	0.1	2689.
77998	12.548	1.95	0.1	2675.3
77999	12.399	1.9	0.1	2716.5
78000	12.449	1.95	0.1	2702.8
78001	12.299	1.9	0.1	2744.3
78002	12.349	1.95	0.1	2730.6
78003	12.2	1.9	0.1	2772.4
78004	12.249	1.95	0.1	2758.6
78005	12.1	1.9	0.1	2800.7
78006	12.15	1.95	0.1	2787.
78007	12.001	1.9	0.1	2829.3
78008	12.05	1.95	0.1	2815.6
78009	11.901	1.9	0.1	2858.4
78010	11.951	1.95	0.1	2844.6
78011	11.801	1.9	0.1	2887.8
78012	11.851	1.95	0.1	2874.1
78013	11.702	1.9	0.1	2917.6
78014	11.752	1.95	0.1	2903.9
78015	11.602	1.9	0.1	2948.
78016	11.652	1.95	0.1	2934.3
78017	11.503	1.9	0.1	2978.9
78018	11.552	1.95	0.1	2965.3
78019	11.403	1.9	0.1	3010.4
78020	11.453	1.95	0.1	2996.9
78021	11.303	1.9	0.1	3042.6
78022	11.353	1.95	0.1	3029.3
78023	11.204	1.9	0.1	3075.7
78024	11.254	1.95	0.1	3062.5
78025	11.104	1.9	0.1	3109.6
78026	11.154	1.95	0.1	3096.6
78027	11.005	1.9	0.1	3144.6
78028	11.055	1.95	0.1	3131.8
78029	10.905	1.9	0.1	3180.7
78030	10.955	1.95	0.1	3168.2
78031	10.806	1.9	0.1	3218.1
78032	10.855	1.95	0.1	3206.
78033	10.706	1.9	0.1	3256.9
78034	10.756	1.95	0.1	3245.3
78035	10.606	1.9	0.1	3297.4
78036	10.656	1.95	0.1	3286.3
78037	10.507	1.9	0.1	3339.9
78038	10.557	1.95	0.1	3329.3
78039	10.407	1.9	0.1	3384.4
78040	10.457	1.95	0.1	3374.6
78041	10.308	1.9	0.1	3431.5
78042	10.357	1.95	0.1	3422.4
78043	10.208	1.9	0.1	3481.4
78044	10.258	1.95	0.1	3473.2
78045	10.108	1.9	0.1	3534.5
78046	10.158	1.95	0.1	3527.5
78047	10.009	1.9	0.1	3591.5
78048	10.059	1.95	0.1	3585.6
78049	9.9093	1.9	0.1	3652.9
78050	9.9591	1.95	0.1	3648.4
78051	9.8097	1.9	0.1	3719.5
78052	9.8595	1.95	0.1	3716.5
78053	9.7102	1.9	0.1	3792.2
78054	9.76	1.95	0.1	3790.9
78055	9.6106	1.9	0.1	3872.3
78056	9.6604	1.95	0.1	3872.7
78057	9.511	1.9	0.1	3961.1
78058	9.5608	1.95	0.1	3963.4
78059	9.4114	1.9	0.1	4060.7
78060	9.4612	1.95	0.1	4064.9
78061	9.3118	1.9	0.1	4173.5
78062	9.3616	1.95	0.1	4179.4
78063	9.2123	1.9	0.1	4302.5
78064	9.2621	1.95	0.1	4310.1
78065	9.1127	1.9	0.1	4452.2
78066	9.1625	1.95	0.1	4460.9
78067	9.0131	1.9	0.1	4628.3
78068	9.0629	1.95	0.1	4637.5
78069	8.9135	1.9	0.1	4838.9
78070	8.9633	1.95	0.1	4847.4
78071	8.8139	1.9	0.1	5095.6
78072	8.8637	1.95	0.1	5101.7
78073	8.7144	1.9	0.1	5416.2
78074	8.7642	1.95	0.1	5417.2
78075	8.6148	1.9	0.1	5829.2
78076	8.6646	1.95	0.1	5820.4
78077	8.5152	1.9	0.1	6383.8
78078	8.565	1.95	0.1	6358.7
78079	8.4156	1.9	0.1	7202.6
78080	8.4654	1.95	0.1	7123.4
78081	8.316	1.9	0.1	8574.4
78082	8.3658	1.95	0.1	8341.4
78083	8.2662	1.95	0.1	11423
78084	8.2165	1.9	0.1	6006.4
78085	23.851	2.	0.1	32.203
78086	23.9	2.05	0.1	21.796
78087	23.95	2.	0.1	11.973
78088	23.751	2.	0.1	53.168
78089	23.801	2.05	0.1	42.677
78090	23.651	2.	0.1	74.147
78091	23.701	2.05	0.1	63.684
78092	23.552	2.	0.1	95.082
78093	23.602	2.05	0.1	84.657
78094	23.452	2.	0.1	115.97
78095	23.502	2.05	0.1	105.58
78096	23.353	2.	0.1	136.81
78097	23.403	2.05	0.1	126.46
78098	23.253	2.	0.1	157.62
78099	23.303	2.05	0.1	147.3
78100	23.154	2.	0.1	178.4
78101	23.203	2.05	0.1	168.11
78102	23.054	2.	0.1	199.16
78103	23.104	2.05	0.1	188.89
78104	22.954	2.	0.1	219.92
78105	23.004	2.05	0.1	209.66
78106	22.855	2.	0.1	240.67
78107	22.905	2.05	0.1	230.42
78108	22.755	2.	0.1	261.43
78109	22.805	2.05	0.1	251.19
78110	22.656	2.	0.1	282.2
78111	22.705	2.05	0.1	271.96
78112	22.556	2.	0.1	303.
78113	22.606	2.05	0.1	292.74
78114	22.456	2.	0.1	323.81
78115	22.506	2.05	0.1	313.55
78116	22.357	2.	0.1	344.66
78117	22.407	2.05	0.1	334.38
78118	22.257	2.	0.1	365.54
78119	22.307	2.05	0.1	355.24
78120	22.158	2.	0.1	386.46
78121	22.208	2.05	0.1	376.14
78122	22.058	2.	0.1	407.42
78123	22.108	2.05	0.1	397.08
78124	21.959	2.	0.1	428.43
78125	22.008	2.05	0.1	418.05
78126	21.859	2.	0.1	449.48
78127	21.909	2.05	0.1	439.07
78128	21.759	2.	0.1	470.57
78129	21.809	2.05	0.1	460.14
78130	21.66	2.	0.1	491.72
78131	21.71	2.05	0.1	481.25
78132	21.56	2.	0.1	512.92
78133	21.61	2.05	0.1	502.42
78134	21.461	2.	0.1	534.17
78135	21.51	2.05	0.1	523.64
78136	21.361	2.	0.1	555.47
78137	21.411	2.05	0.1	544.9
78138	21.262	2.	0.1	576.83
78139	21.311	2.05	0.1	566.23
78140	21.162	2.	0.1	598.25
78141	21.212	2.05	0.1	587.6
78142	21.062	2.	0.1	619.72
78143	21.112	2.05	0.1	609.03
78144	20.963	2.	0.1	641.24
78145	21.013	2.05	0.1	630.52
78146	20.863	2.	0.1	662.82
78147	20.913	2.05	0.1	652.07
78148	20.764	2.	0.1	684.46
78149	20.813	2.05	0.1	673.67
78150	20.664	2.	0.1	706.16
78151	20.714	2.05	0.1	695.33
78152	20.564	2.	0.1	727.92
78153	20.614	2.05	0.1	717.05
78154	20.465	2.	0.1	749.73
78155	20.515	2.05	0.1	738.83
78156	20.365	2.	0.1	771.61
78157	20.415	2.05	0.1	760.66
78158	20.266	2.	0.1	793.54
78159	20.316	2.05	0.1	782.56
78160	20.166	2.	0.1	815.53
78161	20.216	2.05	0.1	804.51
78162	20.067	2.	0.1	837.58
78163	20.116	2.05	0.1	826.53
78164	19.967	2.	0.1	859.69
78165	20.017	2.05	0.1	848.6
78166	19.867	2.	0.1	881.86
78167	19.917	2.05	0.1	870.73
78168	19.768	2.	0.1	904.09
78169	19.818	2.05	0.1	892.92
78170	19.668	2.	0.1	926.37
78171	19.718	2.05	0.1	915.17
78172	19.569	2.	0.1	948.72
78173	19.618	2.05	0.1	937.48
78174	19.469	2.	0.1	971.13
78175	19.519	2.05	0.1	959.85
78176	19.369	2.	0.1	993.59
78177	19.419	2.05	0.1	982.28
78178	19.27	2.	0.1	1016.1
78179	19.32	2.05	0.1	1004.8
78180	19.17	2.	0.1	1038.7
78181	19.22	2.05	0.1	1027.3
78182	19.071	2.	0.1	1061.3
78183	19.121	2.05	0.1	1049.9
78184	18.971	2.	0.1	1084.
78185	19.021	2.05	0.1	1072.6
78186	18.872	2.	0.1	1106.8
78187	18.921	2.05	0.1	1095.3
78188	18.772	2.	0.1	1129.6
78189	18.822	2.05	0.1	1118.1
78190	18.672	2.	0.1	1152.5
78191	18.722	2.05	0.1	1140.9
78192	18.573	2.	0.1	1175.4
78193	18.623	2.05	0.1	1163.8
78194	18.473	2.	0.1	1198.4
78195	18.523	2.05	0.1	1186.8
78196	18.374	2.	0.1	1221.5
78197	18.423	2.05	0.1	1209.8
78198	18.274	2.	0.1	1244.6
78199	18.324	2.05	0.1	1232.9
78200	18.175	2.	0.1	1267.8
78201	18.224	2.05	0.1	1256.
78202	18.075	2.	0.1	1291.
78203	18.125	2.05	0.1	1279.2
78204	17.975	2.	0.1	1314.3
78205	18.025	2.05	0.1	1302.5
78206	17.876	2.	0.1	1337.6
78207	17.926	2.05	0.1	1325.8
78208	17.776	2.	0.1	1361.
78209	17.826	2.05	0.1	1349.2
78210	17.677	2.	0.1	1384.5
78211	17.726	2.05	0.1	1372.6
78212	17.577	2.	0.1	1408.
78213	17.627	2.05	0.1	1396.1
78214	17.477	2.	0.1	1431.6
78215	17.527	2.05	0.1	1419.6
78216	17.378	2.	0.1	1455.2
78217	17.428	2.05	0.1	1443.2
78218	17.278	2.	0.1	1478.9
78219	17.328	2.05	0.1	1466.9
78220	17.179	2.	0.1	1502.6
78221	17.229	2.05	0.1	1490.6
78222	17.079	2.	0.1	1526.4
78223	17.129	2.05	0.1	1514.4
78224	16.98	2.	0.1	1550.3
78225	17.029	2.05	0.1	1538.2
78226	16.88	2.	0.1	1574.2
78227	16.93	2.05	0.1	1562.1
78228	16.78	2.	0.1	1598.2
78229	16.83	2.05	0.1	1586.
78230	16.681	2.	0.1	1622.2
78231	16.731	2.05	0.1	1610.
78232	16.581	2.	0.1	1646.3
78233	16.631	2.05	0.1	1634.1
78234	16.482	2.	0.1	1670.4
78235	16.531	2.05	0.1	1658.2
78236	16.382	2.	0.1	1694.6
78237	16.432	2.05	0.1	1682.3
78238	16.282	2.	0.1	1718.9
78239	16.332	2.05	0.1	1706.6
78240	16.183	2.	0.1	1743.2
78241	16.233	2.05	0.1	1730.8
78242	16.083	2.	0.1	1767.6
78243	16.133	2.05	0.1	1755.2
78244	15.984	2.	0.1	1792.
78245	16.034	2.05	0.1	1779.6
78246	15.884	2.	0.1	1816.5
78247	15.934	2.05	0.1	1804.
78248	15.785	2.	0.1	1841.
78249	15.834	2.05	0.1	1828.5
78250	15.685	2.	0.1	1865.6
78251	15.735	2.05	0.1	1853.1
78252	15.585	2.	0.1	1890.2
78253	15.635	2.05	0.1	1877.7
78254	15.486	2.	0.1	1914.9
78255	15.536	2.05	0.1	1902.3
78256	15.386	2.	0.1	1939.7
78257	15.436	2.05	0.1	1927.1
78258	15.287	2.	0.1	1964.5
78259	15.336	2.05	0.1	1951.8
78260	15.187	2.	0.1	1989.4
78261	15.237	2.05	0.1	1976.7
78262	15.088	2.	0.1	2014.3
78263	15.137	2.05	0.1	2001.6
78264	14.988	2.	0.1	2039.3
78265	15.038	2.05	0.1	2026.5
78266	14.888	2.	0.1	2064.3
78267	14.938	2.05	0.1	2051.5
78268	14.789	2.	0.1	2089.4
78269	14.839	2.05	0.1	2076.6
78270	14.689	2.	0.1	2114.6
78271	14.739	2.05	0.1	2101.7
78272	14.59	2.	0.1	2139.8
78273	14.639	2.05	0.1	2126.9
78274	14.49	2.	0.1	2165.1
78275	14.54	2.05	0.1	2152.2
78276	14.39	2.	0.1	2190.4
78277	14.44	2.05	0.1	2177.5
78278	14.291	2.	0.1	2215.8
78279	14.341	2.05	0.1	2202.8
78280	14.191	2.	0.1	2241.3
78281	14.241	2.05	0.1	2228.3
78282	14.092	2.	0.1	2266.9
78283	14.142	2.05	0.1	2253.8
78284	13.992	2.	0.1	2292.5
78285	14.042	2.05	0.1	2279.4
78286	13.893	2.	0.1	2318.2
78287	13.942	2.05	0.1	2305.
78288	13.793	2.	0.1	2343.9
78289	13.843	2.05	0.1	2330.8
78290	13.693	2.	0.1	2369.8
78291	13.743	2.05	0.1	2356.6
78292	13.594	2.	0.1	2395.7
78293	13.644	2.05	0.1	2382.5
78294	13.494	2.	0.1	2421.8
78295	13.544	2.05	0.1	2408.5
78296	13.395	2.	0.1	2447.9
78297	13.444	2.05	0.1	2434.6
78298	13.295	2.	0.1	2474.2
78299	13.345	2.05	0.1	2460.8
78300	13.195	2.	0.1	2500.5
78301	13.245	2.05	0.1	2487.1
78302	13.096	2.	0.1	2527.
78303	13.146	2.05	0.1	2513.5
78304	12.996	2.	0.1	2553.6
78305	13.046	2.05	0.1	2540.1
78306	12.897	2.	0.1	2580.4
78307	12.947	2.05	0.1	2566.8
78308	12.797	2.	0.1	2607.3
78309	12.847	2.05	0.1	2593.7
78310	12.698	2.	0.1	2634.4
78311	12.747	2.05	0.1	2620.7
78312	12.598	2.	0.1	2661.7
78313	12.648	2.05	0.1	2647.9
78314	12.498	2.	0.1	2689.2
78315	12.548	2.05	0.1	2675.4
78316	12.399	2.	0.1	2716.9
78317	12.449	2.05	0.1	2703.1
78318	12.299	2.	0.1	2744.9
78319	12.349	2.05	0.1	2731.1
78320	12.2	2.	0.1	2773.2
78321	12.249	2.05	0.1	2759.3
78322	12.1	2.	0.1	2801.9
78323	12.15	2.05	0.1	2787.9
78324	12.001	2.	0.1	2830.9
78325	12.05	2.05	0.1	2816.9
78326	11.901	2.	0.1	2860.3
78327	11.951	2.05	0.1	2846.3
78328	11.801	2.	0.1	2890.2
78329	11.851	2.05	0.1	2876.2
78330	11.702	2.	0.1	2920.7
78331	11.752	2.05	0.1	2906.6
78332	11.602	2.	0.1	2951.7
78333	11.652	2.05	0.1	2937.6
78334	11.503	2.	0.1	2983.4
78335	11.552	2.05	0.1	2969.3
78336	11.403	2.	0.1	3015.9
78337	11.453	2.05	0.1	3001.8
78338	11.303	2.	0.1	3049.2
78339	11.353	2.05	0.1	3035.1
78340	11.204	2.	0.1	3083.5
78341	11.254	2.05	0.1	3069.4
78342	11.104	2.	0.1	3118.9
78343	11.154	2.05	0.1	3104.9
78344	11.005	2.	0.1	3155.5
78345	11.055	2.05	0.1	3141.6
78346	10.905	2.	0.1	3193.5
78347	10.955	2.05	0.1	3179.7
78348	10.806	2.	0.1	3233.2
78349	10.855	2.05	0.1	3219.5
78350	10.706	2.	0.1	3274.6
78351	10.756	2.05	0.1	3261.1
78352	10.606	2.	0.1	3318.1
78353	10.656	2.05	0.1	3304.8
78354	10.507	2.	0.1	3364.
78355	10.557	2.05	0.1	3351.
78356	10.407	2.	0.1	3412.5
78357	10.457	2.05	0.1	3399.8
78358	10.308	2.	0.1	3464.1
78359	10.357	2.05	0.1	3451.8
78360	10.208	2.	0.1	3519.3
78361	10.258	2.05	0.1	3507.5
78362	10.108	2.	0.1	3578.5
78363	10.158	2.05	0.1	3567.2
78364	10.009	2.	0.1	3642.4
78365	10.059	2.05	0.1	3631.7
78366	9.9093	2.	0.1	3711.9
78367	9.9591	2.05	0.1	3701.8
78368	9.8097	2.	0.1	3787.7
78369	9.8595	2.05	0.1	3778.3
78370	9.7102	2.	0.1	3871.1
78371	9.76	2.05	0.1	3862.4
78372	9.6106	2.	0.1	3963.5
78373	9.6604	2.05	0.1	3955.5
78374	9.511	2.	0.1	4066.7
78375	9.5608	2.05	0.1	4059.1
78376	9.4114	2.	0.1	4183.
78377	9.4612	2.05	0.1	4175.6
78378	9.3118	2.	0.1	4315.3
78379	9.3616	2.05	0.1	4307.7
78380	9.2123	2.	0.1	4467.6
78381	9.2621	2.05	0.1	4458.9
78382	9.1127	2.	0.1	4645.1
78383	9.1625	2.05	0.1	4634.
78384	9.0131	2.	0.1	4855.3
78385	9.0629	2.05	0.1	4839.8
78386	8.9135	2.	0.1	5108.9
78387	8.9633	2.05	0.1	5085.6
78388	8.8139	2.	0.1	5421.9
78389	8.8637	2.05	0.1	5385.1
78390	8.7144	2.	0.1	5820.3
78391	8.7642	2.05	0.1	5759.8
78392	8.6148	2.	0.1	6349.7
78393	8.6646	2.05	0.1	6244.7
78394	8.5152	2.	0.1	7101.
78395	8.565	2.05	0.1	6903.5
78396	8.4156	2.	0.1	8274.8
78397	8.4654	2.05	0.1	7862.6
78398	8.316	2.	0.1	11312
78399	8.3658	2.05	0.1	9430.7
78400	8.2662	2.05	0.1	13206
78401	8.2165	2.	0.1	18481
78402	23.851	2.1	0.1	32.176
78403	23.9	2.15	0.1	21.753
78404	23.95	2.1	0.1	11.952
78405	23.751	2.1	0.1	53.176
78406	23.801	2.15	0.1	42.668
78407	23.651	2.1	0.1	74.189
78408	23.701	2.15	0.1	63.706
78409	23.552	2.1	0.1	95.159
78410	23.602	2.15	0.1	84.712
78411	23.452	2.1	0.1	116.08
78412	23.502	2.15	0.1	105.67
78413	23.353	2.1	0.1	136.96
78414	23.403	2.15	0.1	126.58
78415	23.253	2.1	0.1	157.8
78416	23.303	2.15	0.1	147.46
78417	23.154	2.1	0.1	178.61
78418	23.203	2.15	0.1	168.29
78419	23.054	2.1	0.1	199.4
78420	23.104	2.15	0.1	189.1
78421	22.954	2.1	0.1	220.17
78422	23.004	2.15	0.1	209.89
78423	22.855	2.1	0.1	240.94
78424	22.905	2.15	0.1	230.67
78425	22.755	2.1	0.1	261.72
78426	22.805	2.15	0.1	251.45
78427	22.656	2.1	0.1	282.5
78428	22.705	2.15	0.1	272.24
78429	22.556	2.1	0.1	303.3
78430	22.606	2.15	0.1	293.03
78431	22.456	2.1	0.1	324.12
78432	22.506	2.15	0.1	313.84
78433	22.357	2.1	0.1	344.97
78434	22.407	2.15	0.1	334.68
78435	22.257	2.1	0.1	365.85
78436	22.307	2.15	0.1	355.54
78437	22.158	2.1	0.1	386.76
78438	22.208	2.15	0.1	376.43
78439	22.058	2.1	0.1	407.72
78440	22.108	2.15	0.1	397.36
78441	21.959	2.1	0.1	428.71
78442	22.008	2.15	0.1	418.33
78443	21.859	2.1	0.1	449.75
78444	21.909	2.15	0.1	439.34
78445	21.759	2.1	0.1	470.83
78446	21.809	2.15	0.1	460.39
78447	21.66	2.1	0.1	491.96
78448	21.71	2.15	0.1	481.49
78449	21.56	2.1	0.1	513.15
78450	21.61	2.15	0.1	502.64
78451	21.461	2.1	0.1	534.38
78452	21.51	2.15	0.1	523.85
78453	21.361	2.1	0.1	555.67
78454	21.411	2.15	0.1	545.1
78455	21.262	2.1	0.1	577.01
78456	21.311	2.15	0.1	566.4
78457	21.162	2.1	0.1	598.4
78458	21.212	2.15	0.1	587.76
78459	21.062	2.1	0.1	619.85
78460	21.112	2.15	0.1	609.18
78461	20.963	2.1	0.1	641.36
78462	21.013	2.15	0.1	630.65
78463	20.863	2.1	0.1	662.93
78464	20.913	2.15	0.1	652.18
78465	20.764	2.1	0.1	684.55
78466	20.813	2.15	0.1	673.76
78467	20.664	2.1	0.1	706.23
78468	20.714	2.15	0.1	695.41
78469	20.564	2.1	0.1	727.97
78470	20.614	2.15	0.1	717.11
78471	20.465	2.1	0.1	749.77
78472	20.515	2.15	0.1	738.87
78473	20.365	2.1	0.1	771.63
78474	20.415	2.15	0.1	760.69
78475	20.266	2.1	0.1	793.54
78476	20.316	2.15	0.1	782.57
78477	20.166	2.1	0.1	815.52
78478	20.216	2.15	0.1	804.51
78479	20.067	2.1	0.1	837.55
78480	20.116	2.15	0.1	826.51
78481	19.967	2.1	0.1	859.65
78482	20.017	2.15	0.1	848.57
78483	19.867	2.1	0.1	881.8
78484	19.917	2.15	0.1	870.69
78485	19.768	2.1	0.1	904.02
78486	19.818	2.15	0.1	892.87
78487	19.668	2.1	0.1	926.29
78488	19.718	2.15	0.1	915.1
78489	19.569	2.1	0.1	948.63
78490	19.618	2.15	0.1	937.4
78491	19.469	2.1	0.1	971.02
78492	19.519	2.15	0.1	959.76
78493	19.369	2.1	0.1	993.47
78494	19.419	2.15	0.1	982.18
78495	19.27	2.1	0.1	1016.
78496	19.32	2.15	0.1	1004.7
78497	19.17	2.1	0.1	1038.6
78498	19.22	2.15	0.1	1027.2
78499	19.071	2.1	0.1	1061.2
78500	19.121	2.15	0.1	1049.8
78501	18.971	2.1	0.1	1083.9
78502	19.021	2.15	0.1	1072.4
78503	18.872	2.1	0.1	1106.6
78504	18.921	2.15	0.1	1095.2
78505	18.772	2.1	0.1	1129.4
78506	18.822	2.15	0.1	1117.9
78507	18.672	2.1	0.1	1152.3
78508	18.722	2.15	0.1	1140.8
78509	18.573	2.1	0.1	1175.2
78510	18.623	2.15	0.1	1163.7
78511	18.473	2.1	0.1	1198.2
78512	18.523	2.15	0.1	1186.6
78513	18.374	2.1	0.1	1221.3
78514	18.423	2.15	0.1	1209.6
78515	18.274	2.1	0.1	1244.4
78516	18.324	2.15	0.1	1232.7
78517	18.175	2.1	0.1	1267.5
78518	18.224	2.15	0.1	1255.8
78519	18.075	2.1	0.1	1290.8
78520	18.125	2.15	0.1	1279.
78521	17.975	2.1	0.1	1314.
78522	18.025	2.15	0.1	1302.3
78523	17.876	2.1	0.1	1337.4
78524	17.926	2.15	0.1	1325.6
78525	17.776	2.1	0.1	1360.8
78526	17.826	2.15	0.1	1348.9
78527	17.677	2.1	0.1	1384.2
78528	17.726	2.15	0.1	1372.4
78529	17.577	2.1	0.1	1407.7
78530	17.627	2.15	0.1	1395.8
78531	17.477	2.1	0.1	1431.3
78532	17.527	2.15	0.1	1419.4
78533	17.378	2.1	0.1	1454.9
78534	17.428	2.15	0.1	1443.
78535	17.278	2.1	0.1	1478.6
78536	17.328	2.15	0.1	1466.6
78537	17.179	2.1	0.1	1502.3
78538	17.229	2.15	0.1	1490.3
78539	17.079	2.1	0.1	1526.1
78540	17.129	2.15	0.1	1514.1
78541	16.98	2.1	0.1	1550.
78542	17.029	2.15	0.1	1537.9
78543	16.88	2.1	0.1	1573.9
78544	16.93	2.15	0.1	1561.8
78545	16.78	2.1	0.1	1597.9
78546	16.83	2.15	0.1	1585.7
78547	16.681	2.1	0.1	1621.9
78548	16.731	2.15	0.1	1609.7
78549	16.581	2.1	0.1	1646.
78550	16.631	2.15	0.1	1633.7
78551	16.482	2.1	0.1	1670.1
78552	16.531	2.15	0.1	1657.8
78553	16.382	2.1	0.1	1694.3
78554	16.432	2.15	0.1	1682.
78555	16.282	2.1	0.1	1718.5
78556	16.332	2.15	0.1	1706.2
78557	16.183	2.1	0.1	1742.8
78558	16.233	2.15	0.1	1730.5
78559	16.083	2.1	0.1	1767.2
78560	16.133	2.15	0.1	1754.8
78561	15.984	2.1	0.1	1791.6
78562	16.034	2.15	0.1	1779.2
78563	15.884	2.1	0.1	1816.1
78564	15.934	2.15	0.1	1803.6
78565	15.785	2.1	0.1	1840.6
78566	15.834	2.15	0.1	1828.1
78567	15.685	2.1	0.1	1865.2
78568	15.735	2.15	0.1	1852.7
78569	15.585	2.1	0.1	1889.8
78570	15.635	2.15	0.1	1877.3
78571	15.486	2.1	0.1	1914.5
78572	15.536	2.15	0.1	1901.9
78573	15.386	2.1	0.1	1939.2
78574	15.436	2.15	0.1	1926.6
78575	15.287	2.1	0.1	1964.
78576	15.336	2.15	0.1	1951.4
78577	15.187	2.1	0.1	1988.9
78578	15.237	2.15	0.1	1976.2
78579	15.088	2.1	0.1	2013.8
78580	15.137	2.15	0.1	2001.1
78581	14.988	2.1	0.1	2038.8
78582	15.038	2.15	0.1	2026.1
78583	14.888	2.1	0.1	2063.8
78584	14.938	2.15	0.1	2051.1
78585	14.789	2.1	0.1	2088.9
78586	14.839	2.15	0.1	2076.1
78587	14.689	2.1	0.1	2114.1
78588	14.739	2.15	0.1	2101.2
78589	14.59	2.1	0.1	2139.3
78590	14.639	2.15	0.1	2126.4
78591	14.49	2.1	0.1	2164.5
78592	14.54	2.15	0.1	2151.7
78593	14.39	2.1	0.1	2189.9
78594	14.44	2.15	0.1	2177.
78595	14.291	2.1	0.1	2215.3
78596	14.341	2.15	0.1	2202.3
78597	14.191	2.1	0.1	2240.8
78598	14.241	2.15	0.1	2227.8
78599	14.092	2.1	0.1	2266.3
78600	14.142	2.15	0.1	2253.3
78601	13.992	2.1	0.1	2291.9
78602	14.042	2.15	0.1	2278.9
78603	13.893	2.1	0.1	2317.6
78604	13.942	2.15	0.1	2304.5
78605	13.793	2.1	0.1	2343.4
78606	13.843	2.15	0.1	2330.2
78607	13.693	2.1	0.1	2369.3
78608	13.743	2.15	0.1	2356.1
78609	13.594	2.1	0.1	2395.2
78610	13.644	2.15	0.1	2382.
78611	13.494	2.1	0.1	2421.3
78612	13.544	2.15	0.1	2408.
78613	13.395	2.1	0.1	2447.4
78614	13.444	2.15	0.1	2434.1
78615	13.295	2.1	0.1	2473.7
78616	13.345	2.15	0.1	2460.3
78617	13.195	2.1	0.1	2500.1
78618	13.245	2.15	0.1	2486.6
78619	13.096	2.1	0.1	2526.6
78620	13.146	2.15	0.1	2513.1
78621	12.996	2.1	0.1	2553.3
78622	13.046	2.15	0.1	2539.7
78623	12.897	2.1	0.1	2580.1
78624	12.947	2.15	0.1	2566.5
78625	12.797	2.1	0.1	2607.1
78626	12.847	2.15	0.1	2593.4
78627	12.698	2.1	0.1	2634.3
78628	12.747	2.15	0.1	2620.6
78629	12.598	2.1	0.1	2661.7
78630	12.648	2.15	0.1	2647.9
78631	12.498	2.1	0.1	2689.4
78632	12.548	2.15	0.1	2675.5
78633	12.399	2.1	0.1	2717.3
78634	12.449	2.15	0.1	2703.4
78635	12.299	2.1	0.1	2745.5
78636	12.349	2.15	0.1	2731.5
78637	12.2	2.1	0.1	2774.
78638	12.249	2.15	0.1	2760.
78639	12.1	2.1	0.1	2803.
78640	12.15	2.15	0.1	2788.9
78641	12.001	2.1	0.1	2832.3
78642	12.05	2.15	0.1	2818.1
78643	11.901	2.1	0.1	2862.2
78644	11.951	2.15	0.1	2847.9
78645	11.801	2.1	0.1	2892.6
78646	11.851	2.15	0.1	2878.2
78647	11.702	2.1	0.1	2923.5
78648	11.752	2.15	0.1	2909.1
78649	11.602	2.1	0.1	2955.2
78650	11.652	2.15	0.1	2940.7
78651	11.503	2.1	0.1	2987.7
78652	11.552	2.15	0.1	2973.
78653	11.403	2.1	0.1	3021.
78654	11.453	2.15	0.1	3006.3
78655	11.303	2.1	0.1	3055.3
78656	11.353	2.15	0.1	3040.5
78657	11.204	2.1	0.1	3090.8
78658	11.254	2.15	0.1	3075.9
78659	11.104	2.1	0.1	3127.6
78660	11.154	2.15	0.1	3112.5
78661	11.005	2.1	0.1	3165.8
78662	11.055	2.15	0.1	3150.7
78663	10.905	2.1	0.1	3205.7
78664	10.955	2.15	0.1	3190.5
78665	10.806	2.1	0.1	3247.4
78666	10.855	2.15	0.1	3232.1
78667	10.706	2.1	0.1	3291.3
78668	10.756	2.15	0.1	3276.
78669	10.606	2.1	0.1	3337.7
78670	10.656	2.15	0.1	3322.3
78671	10.507	2.1	0.1	3386.8
78672	10.557	2.15	0.1	3371.3
78673	10.407	2.1	0.1	3439.2
78674	10.457	2.15	0.1	3423.6
78675	10.308	2.1	0.1	3495.1
78676	10.357	2.15	0.1	3479.6
78677	10.208	2.1	0.1	3555.3
78678	10.258	2.15	0.1	3539.7
78679	10.108	2.1	0.1	3620.4
78680	10.158	2.15	0.1	3604.7
78681	10.009	2.1	0.1	3691.
78682	10.059	2.15	0.1	3675.3
78683	9.9093	2.1	0.1	3768.1
78684	9.9591	2.15	0.1	3752.4
78685	9.8097	2.1	0.1	3852.9
78686	9.8595	2.15	0.1	3836.9
78687	9.7102	2.1	0.1	3946.5
78688	9.76	2.15	0.1	3930.2
78689	9.6106	2.1	0.1	4050.8
78690	9.6604	2.15	0.1	4033.9
78691	9.511	2.1	0.1	4167.7
78692	9.5608	2.15	0.1	4149.9
78693	9.4114	2.1	0.1	4299.8
78694	9.4612	2.15	0.1	4280.6
78695	9.3118	2.1	0.1	4450.7
78696	9.3616	2.15	0.1	4429.
78697	9.2123	2.1	0.1	4624.7
78698	9.2621	2.15	0.1	4599.3
78699	9.1127	2.1	0.1	4828.
78700	9.1625	2.15	0.1	4796.8
78701	9.0131	2.1	0.1	5069.3
78702	9.0629	2.15	0.1	5028.8
78703	8.9135	2.1	0.1	5361.1
78704	8.9633	2.15	0.1	5305.8
78705	8.8139	2.1	0.1	5722.5
78706	8.8637	2.15	0.1	5642.9
78707	8.7144	2.1	0.1	6184.3
78708	8.7642	2.15	0.1	6063.5
78709	8.6148	2.1	0.1	6800.5
78710	8.6646	2.15	0.1	6605.2
78711	8.5152	2.1	0.1	7671.9
78712	8.565	2.15	0.1	7332.
78713	8.4156	2.1	0.1	9043.8
78714	8.4654	2.15	0.1	8360.9
78715	8.316	2.1	0.1	11448
78716	8.3658	2.15	0.1	9945.4
78717	8.2662	2.15	0.1	12477
78718	8.2165	2.1	0.1	14527
78719	23.851	2.2	0.1	32.15
78720	23.9	2.25	0.1	21.715
78721	23.95	2.2	0.1	11.932
78722	23.751	2.2	0.1	53.18
78723	23.801	2.25	0.1	42.658
78724	23.651	2.2	0.1	74.224
78725	23.701	2.25	0.1	63.723
78726	23.552	2.2	0.1	95.224
78727	23.602	2.25	0.1	84.757
78728	23.452	2.2	0.1	116.18
78729	23.502	2.25	0.1	105.75
78730	23.353	2.2	0.1	137.08
78731	23.403	2.25	0.1	126.69
78732	23.253	2.2	0.1	157.95
78733	23.303	2.25	0.1	147.59
78734	23.154	2.2	0.1	178.79
78735	23.203	2.25	0.1	168.45
78736	23.054	2.2	0.1	199.6
78737	23.104	2.25	0.1	189.28
78738	22.954	2.2	0.1	220.4
78739	23.004	2.25	0.1	210.09
78740	22.855	2.2	0.1	241.19
78741	22.905	2.25	0.1	230.89
78742	22.755	2.2	0.1	261.97
78743	22.805	2.25	0.1	251.68
78744	22.656	2.2	0.1	282.77
78745	22.705	2.25	0.1	272.48
78746	22.556	2.2	0.1	303.57
78747	22.606	2.25	0.1	293.28
78748	22.456	2.2	0.1	324.4
78749	22.506	2.25	0.1	314.1
78750	22.357	2.2	0.1	345.25
78751	22.407	2.25	0.1	334.94
78752	22.257	2.2	0.1	366.13
78753	22.307	2.25	0.1	355.8
78754	22.158	2.2	0.1	387.04
78755	22.208	2.25	0.1	376.69
78756	22.058	2.2	0.1	407.98
78757	22.108	2.25	0.1	397.61
78758	21.959	2.2	0.1	428.97
78759	22.008	2.25	0.1	418.58
78760	21.859	2.2	0.1	449.99
78761	21.909	2.25	0.1	439.58
78762	21.759	2.2	0.1	471.07
78763	21.809	2.25	0.1	460.62
78764	21.66	2.2	0.1	492.19
78765	21.71	2.25	0.1	481.71
78766	21.56	2.2	0.1	513.35
78767	21.61	2.25	0.1	502.85
78768	21.461	2.2	0.1	534.57
78769	21.51	2.25	0.1	524.04
78770	21.361	2.2	0.1	555.84
78771	21.411	2.25	0.1	545.28
78772	21.262	2.2	0.1	577.17
78773	21.311	2.25	0.1	566.57
78774	21.162	2.2	0.1	598.55
78775	21.212	2.25	0.1	587.91
78776	21.062	2.2	0.1	619.99
78777	21.112	2.25	0.1	609.31
78778	20.963	2.2	0.1	641.48
78779	21.013	2.25	0.1	630.77
78780	20.863	2.2	0.1	663.03
78781	20.913	2.25	0.1	652.28
78782	20.764	2.2	0.1	684.63
78783	20.813	2.25	0.1	673.85
78784	20.664	2.2	0.1	706.3
78785	20.714	2.25	0.1	695.48
78786	20.564	2.2	0.1	728.02
78787	20.614	2.25	0.1	717.17
78788	20.465	2.2	0.1	749.81
78789	20.515	2.25	0.1	738.92
78790	20.365	2.2	0.1	771.65
78791	20.415	2.25	0.1	760.72
78792	20.266	2.2	0.1	793.55
78793	20.316	2.25	0.1	782.59
78794	20.166	2.2	0.1	815.51
78795	20.216	2.25	0.1	804.52
78796	20.067	2.2	0.1	837.54
78797	20.116	2.25	0.1	826.5
78798	19.967	2.2	0.1	859.62
78799	20.017	2.25	0.1	848.55
78800	19.867	2.2	0.1	881.76
78801	19.917	2.25	0.1	870.65
78802	19.768	2.2	0.1	903.96
78803	19.818	2.25	0.1	892.82
78804	19.668	2.2	0.1	926.22
78805	19.718	2.25	0.1	915.05
78806	19.569	2.2	0.1	948.55
78807	19.618	2.25	0.1	937.34
78808	19.469	2.2	0.1	970.93
78809	19.519	2.25	0.1	959.68
78810	19.369	2.2	0.1	993.37
78811	19.419	2.25	0.1	982.09
78812	19.27	2.2	0.1	1015.9
78813	19.32	2.25	0.1	1004.6
78814	19.17	2.2	0.1	1038.4
78815	19.22	2.25	0.1	1027.1
78816	19.071	2.2	0.1	1061.1
78817	19.121	2.25	0.1	1049.7
78818	18.971	2.2	0.1	1083.7
78819	19.021	2.25	0.1	1072.3
78820	18.872	2.2	0.1	1106.5
78821	18.921	2.25	0.1	1095.
78822	18.772	2.2	0.1	1129.3
78823	18.822	2.25	0.1	1117.8
78824	18.672	2.2	0.1	1152.1
78825	18.722	2.25	0.1	1140.6
78826	18.573	2.2	0.1	1175.1
78827	18.623	2.25	0.1	1163.5
78828	18.473	2.2	0.1	1198.
78829	18.523	2.25	0.1	1186.5
78830	18.374	2.2	0.1	1221.1
78831	18.423	2.25	0.1	1209.5
78832	18.274	2.2	0.1	1244.2
78833	18.324	2.25	0.1	1232.5
78834	18.175	2.2	0.1	1267.3
78835	18.224	2.25	0.1	1255.7
78836	18.075	2.2	0.1	1290.5
78837	18.125	2.25	0.1	1278.8
78838	17.975	2.2	0.1	1313.8
78839	18.025	2.25	0.1	1302.1
78840	17.876	2.2	0.1	1337.1
78841	17.926	2.25	0.1	1325.4
78842	17.776	2.2	0.1	1360.5
78843	17.826	2.25	0.1	1348.7
78844	17.677	2.2	0.1	1384.
78845	17.726	2.25	0.1	1372.1
78846	17.577	2.2	0.1	1407.5
78847	17.627	2.25	0.1	1395.6
78848	17.477	2.2	0.1	1431.
78849	17.527	2.25	0.1	1419.1
78850	17.378	2.2	0.1	1454.7
78851	17.428	2.25	0.1	1442.7
78852	17.278	2.2	0.1	1478.3
78853	17.328	2.25	0.1	1466.4
78854	17.179	2.2	0.1	1502.1
78855	17.229	2.25	0.1	1490.1
78856	17.079	2.2	0.1	1525.9
78857	17.129	2.25	0.1	1513.8
78858	16.98	2.2	0.1	1549.7
78859	17.029	2.25	0.1	1537.6
78860	16.88	2.2	0.1	1573.6
78861	16.93	2.25	0.1	1561.5
78862	16.78	2.2	0.1	1597.6
78863	16.83	2.25	0.1	1585.4
78864	16.681	2.2	0.1	1621.6
78865	16.731	2.25	0.1	1609.4
78866	16.581	2.2	0.1	1645.6
78867	16.631	2.25	0.1	1633.5
78868	16.482	2.2	0.1	1669.8
78869	16.531	2.25	0.1	1657.6
78870	16.382	2.2	0.1	1694.
78871	16.432	2.25	0.1	1681.7
78872	16.282	2.2	0.1	1718.2
78873	16.332	2.25	0.1	1705.9
78874	16.183	2.2	0.1	1742.5
78875	16.233	2.25	0.1	1730.2
78876	16.083	2.2	0.1	1766.8
78877	16.133	2.25	0.1	1754.5
78878	15.984	2.2	0.1	1791.2
78879	16.034	2.25	0.1	1778.9
78880	15.884	2.2	0.1	1815.7
78881	15.934	2.25	0.1	1803.3
78882	15.785	2.2	0.1	1840.2
78883	15.834	2.25	0.1	1827.8
78884	15.685	2.2	0.1	1864.8
78885	15.735	2.25	0.1	1852.3
78886	15.585	2.2	0.1	1889.4
78887	15.635	2.25	0.1	1876.9
78888	15.486	2.2	0.1	1914.1
78889	15.536	2.25	0.1	1901.6
78890	15.386	2.2	0.1	1938.8
78891	15.436	2.25	0.1	1926.3
78892	15.287	2.2	0.1	1963.6
78893	15.336	2.25	0.1	1951.
78894	15.187	2.2	0.1	1988.5
78895	15.237	2.25	0.1	1975.9
78896	15.088	2.2	0.1	2013.4
78897	15.137	2.25	0.1	2000.7
78898	14.988	2.2	0.1	2038.4
78899	15.038	2.25	0.1	2025.7
78900	14.888	2.2	0.1	2063.4
78901	14.938	2.25	0.1	2050.7
78902	14.789	2.2	0.1	2088.5
78903	14.839	2.25	0.1	2075.7
78904	14.689	2.2	0.1	2113.6
78905	14.739	2.25	0.1	2100.8
78906	14.59	2.2	0.1	2138.8
78907	14.639	2.25	0.1	2126.
78908	14.49	2.2	0.1	2164.1
78909	14.54	2.25	0.1	2151.2
78910	14.39	2.2	0.1	2189.4
78911	14.44	2.25	0.1	2176.5
78912	14.291	2.2	0.1	2214.8
78913	14.341	2.25	0.1	2201.9
78914	14.191	2.2	0.1	2240.3
78915	14.241	2.25	0.1	2227.3
78916	14.092	2.2	0.1	2265.8
78917	14.142	2.25	0.1	2252.8
78918	13.992	2.2	0.1	2291.4
78919	14.042	2.25	0.1	2278.4
78920	13.893	2.2	0.1	2317.1
78921	13.942	2.25	0.1	2304.
78922	13.793	2.2	0.1	2342.9
78923	13.843	2.25	0.1	2329.8
78924	13.693	2.2	0.1	2368.8
78925	13.743	2.25	0.1	2355.6
78926	13.594	2.2	0.1	2394.7
78927	13.644	2.25	0.1	2381.5
78928	13.494	2.2	0.1	2420.8
78929	13.544	2.25	0.1	2407.5
78930	13.395	2.2	0.1	2447.
78931	13.444	2.25	0.1	2433.7
78932	13.295	2.2	0.1	2473.3
78933	13.345	2.25	0.1	2459.9
78934	13.195	2.2	0.1	2499.7
78935	13.245	2.25	0.1	2486.3
78936	13.096	2.2	0.1	2526.2
78937	13.146	2.25	0.1	2512.8
78938	12.996	2.2	0.1	2553.
78939	13.046	2.25	0.1	2539.4
78940	12.897	2.2	0.1	2579.9
78941	12.947	2.25	0.1	2566.2
78942	12.797	2.2	0.1	2606.9
78943	12.847	2.25	0.1	2593.2
78944	12.698	2.2	0.1	2634.2
78945	12.747	2.25	0.1	2620.5
78946	12.598	2.2	0.1	2661.7
78947	12.648	2.25	0.1	2647.9
78948	12.498	2.2	0.1	2689.5
78949	12.548	2.25	0.1	2675.6
78950	12.399	2.2	0.1	2717.6
78951	12.449	2.25	0.1	2703.6
78952	12.299	2.2	0.1	2746.
78953	12.349	2.25	0.1	2731.9
78954	12.2	2.2	0.1	2774.8
78955	12.249	2.25	0.1	2760.6
78956	12.1	2.2	0.1	2804.
78957	12.15	2.25	0.1	2789.7
78958	12.001	2.2	0.1	2833.7
78959	12.05	2.25	0.1	2819.2
78960	11.901	2.2	0.1	2863.9
78961	11.951	2.25	0.1	2849.3
78962	11.801	2.2	0.1	2894.7
78963	11.851	2.25	0.1	2880.
78964	11.702	2.2	0.1	2926.2
78965	11.752	2.25	0.1	2911.3
78966	11.602	2.2	0.1	2958.5
78967	11.652	2.25	0.1	2943.5
78968	11.503	2.2	0.1	2991.6
78969	11.552	2.25	0.1	2976.4
78970	11.403	2.2	0.1	3025.8
78971	11.453	2.25	0.1	3010.4
78972	11.303	2.2	0.1	3061.
78973	11.353	2.25	0.1	3045.5
78974	11.204	2.2	0.1	3097.6
78975	11.254	2.25	0.1	3081.8
78976	11.104	2.2	0.1	3135.6
78977	11.154	2.25	0.1	3119.6
78978	11.005	2.2	0.1	3175.3
78979	11.055	2.25	0.1	3159.
78980	10.905	2.2	0.1	3216.9
78981	10.955	2.25	0.1	3200.3
78982	10.806	2.2	0.1	3260.7
78983	10.855	2.25	0.1	3243.8
78984	10.706	2.2	0.1	3306.9
78985	10.756	2.25	0.1	3289.7
78986	10.606	2.2	0.1	3355.9
78987	10.656	2.25	0.1	3338.3
78988	10.507	2.2	0.1	3408.1
78989	10.557	2.25	0.1	3390.2
78990	10.407	2.2	0.1	3464.
78991	10.457	2.25	0.1	3445.7
78992	10.308	2.2	0.1	3524.2
78993	10.357	2.25	0.1	3505.3
78994	10.208	2.2	0.1	3589.1
78995	10.258	2.25	0.1	3569.7
78996	10.108	2.2	0.1	3659.6
78997	10.158	2.25	0.1	3639.6
78998	10.009	2.2	0.1	3736.6
78999	10.059	2.25	0.1	3715.8
79000	9.9093	2.2	0.1	3821.
79001	9.9591	2.25	0.1	3799.4
79002	9.8097	2.2	0.1	3914.2
79003	9.8595	2.25	0.1	3891.5
79004	9.7102	2.2	0.1	4017.5
79005	9.76	2.25	0.1	3993.5
79006	9.6106	2.2	0.1	4132.9
79007	9.6604	2.25	0.1	4107.1
79008	9.511	2.2	0.1	4262.6
79009	9.5608	2.25	0.1	4234.5
79010	9.4114	2.2	0.1	4409.5
79011	9.4612	2.25	0.1	4378.2
79012	9.3118	2.2	0.1	4577.3
79013	9.3616	2.25	0.1	4541.7
79014	9.2123	2.2	0.1	4771.
79015	9.2621	2.25	0.1	4729.1
79016	9.1127	2.2	0.1	4997.2
79017	9.1625	2.25	0.1	4946.1
79018	9.0131	2.2	0.1	5264.9
79019	9.0629	2.25	0.1	5200.3
79020	8.9135	2.2	0.1	5587.5
79021	8.9633	2.25	0.1	5502.1
79022	8.8139	2.2	0.1	5984.3
79023	8.8637	2.25	0.1	5866.5
79024	8.7144	2.2	0.1	6485.9
79025	8.7642	2.25	0.1	6315.2
79026	8.6148	2.2	0.1	7140.7
79027	8.6646	2.25	0.1	6881.2
79028	8.5152	2.2	0.1	8030.9
79029	8.565	2.25	0.1	7613.9
79030	8.4156	2.2	0.1	9284.1
79031	8.4654	2.25	0.1	8588.7
79032	8.316	2.2	0.1	10998
79033	8.3658	2.25	0.1	9894.3
79034	8.2662	2.25	0.1	11506
79035	8.2165	2.2	0.1	12856
79036	23.851	2.3	0.1	32.126
79037	23.9	2.35	0.1	21.681
79038	23.95	2.3	0.1	11.915
79039	23.751	2.3	0.1	53.183
79040	23.801	2.35	0.1	42.648
79041	23.651	2.3	0.1	74.252
79042	23.701	2.35	0.1	63.736
79043	23.552	2.3	0.1	95.279
79044	23.602	2.35	0.1	84.795
79045	23.452	2.3	0.1	116.26
79046	23.502	2.35	0.1	105.81
79047	23.353	2.3	0.1	137.19
79048	23.403	2.35	0.1	126.77
79049	23.253	2.3	0.1	158.08
79050	23.303	2.35	0.1	147.7
79051	23.154	2.3	0.1	178.94
79052	23.203	2.35	0.1	168.58
79053	23.054	2.3	0.1	199.78
79054	23.104	2.35	0.1	189.43
79055	22.954	2.3	0.1	220.59
79056	23.004	2.35	0.1	210.26
79057	22.855	2.3	0.1	241.39
79058	22.905	2.35	0.1	231.08
79059	22.755	2.3	0.1	262.2
79060	22.805	2.35	0.1	251.88
79061	22.656	2.3	0.1	283.
79062	22.705	2.35	0.1	272.69
79063	22.556	2.3	0.1	303.81
79064	22.606	2.35	0.1	293.5
79065	22.456	2.3	0.1	324.64
79066	22.506	2.35	0.1	314.33
79067	22.357	2.3	0.1	345.49
79068	22.407	2.35	0.1	335.17
79069	22.257	2.3	0.1	366.37
79070	22.307	2.35	0.1	356.03
79071	22.158	2.3	0.1	387.28
79072	22.208	2.35	0.1	376.92
79073	22.058	2.3	0.1	408.22
79074	22.108	2.35	0.1	397.84
79075	21.959	2.3	0.1	429.2
79076	22.008	2.35	0.1	418.8
79077	21.859	2.3	0.1	450.22
79078	21.909	2.35	0.1	439.79
79079	21.759	2.3	0.1	471.28
79080	21.809	2.35	0.1	460.83
79081	21.66	2.3	0.1	492.39
79082	21.71	2.35	0.1	481.91
79083	21.56	2.3	0.1	513.54
79084	21.61	2.35	0.1	503.03
79085	21.461	2.3	0.1	534.75
79086	21.51	2.35	0.1	524.21
79087	21.361	2.3	0.1	556.01
79088	21.411	2.35	0.1	545.44
79089	21.262	2.3	0.1	577.32
79090	21.311	2.35	0.1	566.72
79091	21.162	2.3	0.1	598.69
79092	21.212	2.35	0.1	588.05
79093	21.062	2.3	0.1	620.11
79094	21.112	2.35	0.1	609.44
79095	20.963	2.3	0.1	641.59
79096	21.013	2.35	0.1	630.88
79097	20.863	2.3	0.1	663.12
79098	20.913	2.35	0.1	652.38
79099	20.764	2.3	0.1	684.71
79100	20.813	2.35	0.1	673.94
79101	20.664	2.3	0.1	706.37
79102	20.714	2.35	0.1	695.55
79103	20.564	2.3	0.1	728.08
79104	20.614	2.35	0.1	717.23
79105	20.465	2.3	0.1	749.85
79106	20.515	2.35	0.1	738.96
79107	20.365	2.3	0.1	771.68
79108	20.415	2.35	0.1	760.76
79109	20.266	2.3	0.1	793.57
79110	20.316	2.35	0.1	782.61
79111	20.166	2.3	0.1	815.51
79112	20.216	2.35	0.1	804.52
79113	20.067	2.3	0.1	837.52
79114	20.116	2.35	0.1	826.5
79115	19.967	2.3	0.1	859.6
79116	20.017	2.35	0.1	848.53
79117	19.867	2.3	0.1	881.73
79118	19.917	2.35	0.1	870.63
79119	19.768	2.3	0.1	903.92
79120	19.818	2.35	0.1	892.79
79121	19.668	2.3	0.1	926.17
79122	19.718	2.35	0.1	915.
79123	19.569	2.3	0.1	948.48
79124	19.618	2.35	0.1	937.28
79125	19.469	2.3	0.1	970.85
79126	19.519	2.35	0.1	959.62
79127	19.369	2.3	0.1	993.29
79128	19.419	2.35	0.1	982.02
79129	19.27	2.3	0.1	1015.8
79130	19.32	2.35	0.1	1004.5
79131	19.17	2.3	0.1	1038.3
79132	19.22	2.35	0.1	1027.
79133	19.071	2.3	0.1	1060.9
79134	19.121	2.35	0.1	1049.6
79135	18.971	2.3	0.1	1083.6
79136	19.021	2.35	0.1	1072.2
79137	18.872	2.3	0.1	1106.4
79138	18.921	2.35	0.1	1094.9
79139	18.772	2.3	0.1	1129.2
79140	18.822	2.35	0.1	1117.7
79141	18.672	2.3	0.1	1152.
79142	18.722	2.35	0.1	1140.5
79143	18.573	2.3	0.1	1174.9
79144	18.623	2.35	0.1	1163.4
79145	18.473	2.3	0.1	1197.9
79146	18.523	2.35	0.1	1186.3
79147	18.374	2.3	0.1	1220.9
79148	18.423	2.35	0.1	1209.3
79149	18.274	2.3	0.1	1244.
79150	18.324	2.35	0.1	1232.4
79151	18.175	2.3	0.1	1267.2
79152	18.224	2.35	0.1	1255.5
79153	18.075	2.3	0.1	1290.4
79154	18.125	2.35	0.1	1278.7
79155	17.975	2.3	0.1	1313.6
79156	18.025	2.35	0.1	1301.9
79157	17.876	2.3	0.1	1337.
79158	17.926	2.35	0.1	1325.2
79159	17.776	2.3	0.1	1360.3
79160	17.826	2.35	0.1	1348.5
79161	17.677	2.3	0.1	1383.8
79162	17.726	2.35	0.1	1371.9
79163	17.577	2.3	0.1	1407.3
79164	17.627	2.35	0.1	1395.4
79165	17.477	2.3	0.1	1430.8
79166	17.527	2.35	0.1	1418.9
79167	17.378	2.3	0.1	1454.4
79168	17.428	2.35	0.1	1442.5
79169	17.278	2.3	0.1	1478.1
79170	17.328	2.35	0.1	1466.2
79171	17.179	2.3	0.1	1501.8
79172	17.229	2.35	0.1	1489.9
79173	17.079	2.3	0.1	1525.6
79174	17.129	2.35	0.1	1513.6
79175	16.98	2.3	0.1	1549.5
79176	17.029	2.35	0.1	1537.4
79177	16.88	2.3	0.1	1573.4
79178	16.93	2.35	0.1	1561.3
79179	16.78	2.3	0.1	1597.3
79180	16.83	2.35	0.1	1585.2
79181	16.681	2.3	0.1	1621.3
79182	16.731	2.35	0.1	1609.2
79183	16.581	2.3	0.1	1645.4
79184	16.631	2.35	0.1	1633.2
79185	16.482	2.3	0.1	1669.5
79186	16.531	2.35	0.1	1657.3
79187	16.382	2.3	0.1	1693.7
79188	16.432	2.35	0.1	1681.4
79189	16.282	2.3	0.1	1717.9
79190	16.332	2.35	0.1	1705.7
79191	16.183	2.3	0.1	1742.2
79192	16.233	2.35	0.1	1729.9
79193	16.083	2.3	0.1	1766.5
79194	16.133	2.35	0.1	1754.2
79195	15.984	2.3	0.1	1790.9
79196	16.034	2.35	0.1	1778.6
79197	15.884	2.3	0.1	1815.4
79198	15.934	2.35	0.1	1803.
79199	15.785	2.3	0.1	1839.9
79200	15.834	2.35	0.1	1827.5
79201	15.685	2.3	0.1	1864.5
79202	15.735	2.35	0.1	1852.
79203	15.585	2.3	0.1	1889.1
79204	15.635	2.35	0.1	1876.6
79205	15.486	2.3	0.1	1913.8
79206	15.536	2.35	0.1	1901.2
79207	15.386	2.3	0.1	1938.5
79208	15.436	2.35	0.1	1925.9
79209	15.287	2.3	0.1	1963.3
79210	15.336	2.35	0.1	1950.7
79211	15.187	2.3	0.1	1988.1
79212	15.237	2.35	0.1	1975.5
79213	15.088	2.3	0.1	2013.
79214	15.137	2.35	0.1	2000.4
79215	14.988	2.3	0.1	2038.
79216	15.038	2.35	0.1	2025.3
79217	14.888	2.3	0.1	2063.
79218	14.938	2.35	0.1	2050.3
79219	14.789	2.3	0.1	2088.1
79220	14.839	2.35	0.1	2075.3
79221	14.689	2.3	0.1	2113.2
79222	14.739	2.35	0.1	2100.4
79223	14.59	2.3	0.1	2138.4
79224	14.639	2.35	0.1	2125.6
79225	14.49	2.3	0.1	2163.7
79226	14.54	2.35	0.1	2150.8
79227	14.39	2.3	0.1	2189.
79228	14.44	2.35	0.1	2176.1
79229	14.291	2.3	0.1	2214.4
79230	14.341	2.35	0.1	2201.5
79231	14.191	2.3	0.1	2239.8
79232	14.241	2.35	0.1	2226.9
79233	14.092	2.3	0.1	2265.4
79234	14.142	2.35	0.1	2252.4
79235	13.992	2.3	0.1	2291.
79236	14.042	2.35	0.1	2278.
79237	13.893	2.3	0.1	2316.7
79238	13.942	2.35	0.1	2303.6
79239	13.793	2.3	0.1	2342.5
79240	13.843	2.35	0.1	2329.4
79241	13.693	2.3	0.1	2368.3
79242	13.743	2.35	0.1	2355.2
79243	13.594	2.3	0.1	2394.3
79244	13.644	2.35	0.1	2381.1
79245	13.494	2.3	0.1	2420.4
79246	13.544	2.35	0.1	2407.1
79247	13.395	2.3	0.1	2446.6
79248	13.444	2.35	0.1	2433.3
79249	13.295	2.3	0.1	2472.9
79250	13.345	2.35	0.1	2459.5
79251	13.195	2.3	0.1	2499.3
79252	13.245	2.35	0.1	2485.9
79253	13.096	2.3	0.1	2525.9
79254	13.146	2.35	0.1	2512.4
79255	12.996	2.3	0.1	2552.7
79256	13.046	2.35	0.1	2539.1
79257	12.897	2.3	0.1	2579.6
79258	12.947	2.35	0.1	2566.
79259	12.797	2.3	0.1	2606.8
79260	12.847	2.35	0.1	2593.1
79261	12.698	2.3	0.1	2634.2
79262	12.747	2.35	0.1	2620.4
79263	12.598	2.3	0.1	2661.8
79264	12.648	2.35	0.1	2647.9
79265	12.498	2.3	0.1	2689.7
79266	12.548	2.35	0.1	2675.7
79267	12.399	2.3	0.1	2717.9
79268	12.449	2.35	0.1	2703.8
79269	12.299	2.3	0.1	2746.5
79270	12.349	2.35	0.1	2732.3
79271	12.2	2.3	0.1	2775.5
79272	12.249	2.35	0.1	2761.1
79273	12.1	2.3	0.1	2804.9
79274	12.15	2.35	0.1	2790.4
79275	12.001	2.3	0.1	2834.9
79276	12.05	2.35	0.1	2820.2
79277	11.901	2.3	0.1	2865.4
79278	11.951	2.35	0.1	2850.6
79279	11.801	2.3	0.1	2896.6
79280	11.851	2.35	0.1	2881.6
79281	11.702	2.3	0.1	2928.6
79282	11.752	2.35	0.1	2913.4
79283	11.602	2.3	0.1	2961.4
79284	11.652	2.35	0.1	2946.
79285	11.503	2.3	0.1	2995.2
79286	11.552	2.35	0.1	2979.5
79287	11.403	2.3	0.1	3030.1
79288	11.453	2.35	0.1	3014.1
79289	11.303	2.3	0.1	3066.2
79290	11.353	2.35	0.1	3049.9
79291	11.204	2.3	0.1	3103.8
79292	11.254	2.35	0.1	3087.1
79293	11.104	2.3	0.1	3143.
79294	11.154	2.35	0.1	3126.
79295	11.005	2.3	0.1	3184.1
79296	11.055	2.35	0.1	3166.6
79297	10.905	2.3	0.1	3227.2
79298	10.955	2.35	0.1	3209.3
79299	10.806	2.3	0.1	3272.8
79300	10.855	2.35	0.1	3254.3
79301	10.706	2.3	0.1	3321.1
79302	10.756	2.35	0.1	3302.1
79303	10.606	2.3	0.1	3372.6
79304	10.656	2.35	0.1	3352.9
79305	10.507	2.3	0.1	3427.7
79306	10.557	2.35	0.1	3407.3
79307	10.407	2.3	0.1	3486.9
79308	10.457	2.35	0.1	3465.7
79309	10.308	2.3	0.1	3550.8
79310	10.357	2.35	0.1	3528.7
79311	10.208	2.3	0.1	3620.2
79312	10.258	2.35	0.1	3597.
79313	10.108	2.3	0.1	3695.8
79314	10.158	2.35	0.1	3671.4
79315	10.009	2.3	0.1	3778.6
79316	10.059	2.35	0.1	3752.8
79317	9.9093	2.3	0.1	3869.8
79318	9.9591	2.35	0.1	3842.3
79319	9.8097	2.3	0.1	3970.7
79320	9.8595	2.35	0.1	3941.3
79321	9.7102	2.3	0.1	4083.
79322	9.76	2.35	0.1	4051.2
79323	9.6106	2.3	0.1	4208.6
79324	9.6604	2.35	0.1	4173.8
79325	9.511	2.3	0.1	4350.
79326	9.5608	2.35	0.1	4311.5
79327	9.4114	2.3	0.1	4510.2
79328	9.4612	2.35	0.1	4467.
79329	9.3118	2.3	0.1	4693.2
79330	9.3616	2.35	0.1	4643.7
79331	9.2123	2.3	0.1	4903.9
79332	9.2621	2.35	0.1	4845.9
79333	9.1127	2.3	0.1	5149.
79334	9.1625	2.35	0.1	5079.1
79335	9.0131	2.3	0.1	5437.5
79336	9.0629	2.35	0.1	5350.7
79337	8.9135	2.3	0.1	5781.5
79338	8.9633	2.35	0.1	5670.1
79339	8.8139	2.3	0.1	6198.6
79340	8.8637	2.35	0.1	6050.5
79341	8.7144	2.3	0.1	6713.2
79342	8.7642	2.35	0.1	6509.2
79343	8.6148	2.3	0.1	7359.8
79344	8.6646	2.35	0.1	7069.6
79345	8.5152	2.3	0.1	8181.6
79346	8.565	2.35	0.1	7760.5
79347	8.4156	2.3	0.1	9213.7
79348	8.4654	2.35	0.1	8609.7
79349	8.316	2.3	0.1	10408
79350	8.3658	2.35	0.1	9615.3
79351	8.2662	2.35	0.1	10666
79352	8.2165	2.3	0.1	11520
79353	23.851	2.4	0.1	32.105
79354	23.9	2.45	0.1	21.652
79355	23.95	2.4	0.1	11.899
79356	23.751	2.4	0.1	53.184
79357	23.801	2.45	0.1	42.64
79358	23.651	2.4	0.1	74.275
79359	23.701	2.45	0.1	63.747
79360	23.552	2.4	0.1	95.324
79361	23.602	2.45	0.1	84.825
79362	23.452	2.4	0.1	116.33
79363	23.502	2.45	0.1	105.86
79364	23.353	2.4	0.1	137.28
79365	23.403	2.45	0.1	126.85
79366	23.253	2.4	0.1	158.19
79367	23.303	2.45	0.1	147.79
79368	23.154	2.4	0.1	179.07
79369	23.203	2.45	0.1	168.69
79370	23.054	2.4	0.1	199.92
79371	23.104	2.45	0.1	189.56
79372	22.954	2.4	0.1	220.75
79373	23.004	2.45	0.1	210.41
79374	22.855	2.4	0.1	241.57
79375	22.905	2.45	0.1	231.24
79376	22.755	2.4	0.1	262.39
79377	22.805	2.45	0.1	252.05
79378	22.656	2.4	0.1	283.2
79379	22.705	2.45	0.1	272.87
79380	22.556	2.4	0.1	304.02
79381	22.606	2.45	0.1	293.69
79382	22.456	2.4	0.1	324.85
79383	22.506	2.45	0.1	314.52
79384	22.357	2.4	0.1	345.71
79385	22.407	2.45	0.1	335.36
79386	22.257	2.4	0.1	366.58
79387	22.307	2.45	0.1	356.22
79388	22.158	2.4	0.1	387.49
79389	22.208	2.45	0.1	377.11
79390	22.058	2.4	0.1	408.42
79391	22.108	2.45	0.1	398.03
79392	21.959	2.4	0.1	429.4
79393	22.008	2.45	0.1	418.98
79394	21.859	2.4	0.1	450.41
79395	21.909	2.45	0.1	439.97
79396	21.759	2.4	0.1	471.46
79397	21.809	2.45	0.1	461.
79398	21.66	2.4	0.1	492.56
79399	21.71	2.45	0.1	482.08
79400	21.56	2.4	0.1	513.71
79401	21.61	2.45	0.1	503.19
79402	21.461	2.4	0.1	534.91
79403	21.51	2.45	0.1	524.36
79404	21.361	2.4	0.1	556.15
79405	21.411	2.45	0.1	545.58
79406	21.262	2.4	0.1	577.45
79407	21.311	2.45	0.1	566.85
79408	21.162	2.4	0.1	598.81
79409	21.212	2.45	0.1	588.17
79410	21.062	2.4	0.1	620.22
79411	21.112	2.45	0.1	609.54
79412	20.963	2.4	0.1	641.68
79413	21.013	2.45	0.1	630.98
79414	20.863	2.4	0.1	663.21
79415	20.913	2.45	0.1	652.47
79416	20.764	2.4	0.1	684.79
79417	20.813	2.45	0.1	674.01
79418	20.664	2.4	0.1	706.43
79419	20.714	2.45	0.1	695.62
79420	20.564	2.4	0.1	728.13
79421	20.614	2.45	0.1	717.28
79422	20.465	2.4	0.1	749.88
79423	20.515	2.45	0.1	739.
79424	20.365	2.4	0.1	771.7
79425	20.415	2.45	0.1	760.79
79426	20.266	2.4	0.1	793.58
79427	20.316	2.45	0.1	782.63
79428	20.166	2.4	0.1	815.52
79429	20.216	2.45	0.1	804.54
79430	20.067	2.4	0.1	837.52
79431	20.116	2.45	0.1	826.5
79432	19.967	2.4	0.1	859.58
79433	20.017	2.45	0.1	848.53
79434	19.867	2.4	0.1	881.7
79435	19.917	2.45	0.1	870.61
79436	19.768	2.4	0.1	903.88
79437	19.818	2.45	0.1	892.76
79438	19.668	2.4	0.1	926.12
79439	19.718	2.45	0.1	914.97
79440	19.569	2.4	0.1	948.43
79441	19.618	2.45	0.1	937.24
79442	19.469	2.4	0.1	970.79
79443	19.519	2.45	0.1	959.57
79444	19.369	2.4	0.1	993.22
79445	19.419	2.45	0.1	981.96
79446	19.27	2.4	0.1	1015.7
79447	19.32	2.45	0.1	1004.4
79448	19.17	2.4	0.1	1038.2
79449	19.22	2.45	0.1	1026.9
79450	19.071	2.4	0.1	1060.9
79451	19.121	2.45	0.1	1049.5
79452	18.971	2.4	0.1	1083.5
79453	19.021	2.45	0.1	1072.1
79454	18.872	2.4	0.1	1106.2
79455	18.921	2.45	0.1	1094.8
79456	18.772	2.4	0.1	1129.
79457	18.822	2.45	0.1	1117.6
79458	18.672	2.4	0.1	1151.9
79459	18.722	2.45	0.1	1140.4
79460	18.573	2.4	0.1	1174.8
79461	18.623	2.45	0.1	1163.3
79462	18.473	2.4	0.1	1197.8
79463	18.523	2.45	0.1	1186.2
79464	18.374	2.4	0.1	1220.8
79465	18.423	2.45	0.1	1209.2
79466	18.274	2.4	0.1	1243.9
79467	18.324	2.45	0.1	1232.2
79468	18.175	2.4	0.1	1267.
79469	18.224	2.45	0.1	1255.4
79470	18.075	2.4	0.1	1290.2
79471	18.125	2.45	0.1	1278.5
79472	17.975	2.4	0.1	1313.5
79473	18.025	2.45	0.1	1301.8
79474	17.876	2.4	0.1	1336.8
79475	17.926	2.45	0.1	1325.
79476	17.776	2.4	0.1	1360.2
79477	17.826	2.45	0.1	1348.4
79478	17.677	2.4	0.1	1383.6
79479	17.726	2.45	0.1	1371.8
79480	17.577	2.4	0.1	1407.1
79481	17.627	2.45	0.1	1395.3
79482	17.477	2.4	0.1	1430.6
79483	17.527	2.45	0.1	1418.8
79484	17.378	2.4	0.1	1454.2
79485	17.428	2.45	0.1	1442.3
79486	17.278	2.4	0.1	1477.9
79487	17.328	2.45	0.1	1466.
79488	17.179	2.4	0.1	1501.6
79489	17.229	2.45	0.1	1489.7
79490	17.079	2.4	0.1	1525.4
79491	17.129	2.45	0.1	1513.4
79492	16.98	2.4	0.1	1549.2
79493	17.029	2.45	0.1	1537.2
79494	16.88	2.4	0.1	1573.1
79495	16.93	2.45	0.1	1561.1
79496	16.78	2.4	0.1	1597.1
79497	16.83	2.45	0.1	1585.
79498	16.681	2.4	0.1	1621.1
79499	16.731	2.45	0.1	1609.
79500	16.581	2.4	0.1	1645.1
79501	16.631	2.45	0.1	1633.
79502	16.482	2.4	0.1	1669.3
79503	16.531	2.45	0.1	1657.1
79504	16.382	2.4	0.1	1693.4
79505	16.432	2.45	0.1	1681.2
79506	16.282	2.4	0.1	1717.7
79507	16.332	2.45	0.1	1705.4
79508	16.183	2.4	0.1	1741.9
79509	16.233	2.45	0.1	1729.7
79510	16.083	2.4	0.1	1766.3
79511	16.133	2.45	0.1	1754.
79512	15.984	2.4	0.1	1790.7
79513	16.034	2.45	0.1	1778.3
79514	15.884	2.4	0.1	1815.1
79515	15.934	2.45	0.1	1802.8
79516	15.785	2.4	0.1	1839.6
79517	15.834	2.45	0.1	1827.2
79518	15.685	2.4	0.1	1864.2
79519	15.735	2.45	0.1	1851.8
79520	15.585	2.4	0.1	1888.8
79521	15.635	2.45	0.1	1876.3
79522	15.486	2.4	0.1	1913.5
79523	15.536	2.45	0.1	1901.
79524	15.386	2.4	0.1	1938.2
79525	15.436	2.45	0.1	1925.7
79526	15.287	2.4	0.1	1963.
79527	15.336	2.45	0.1	1950.4
79528	15.187	2.4	0.1	1987.8
79529	15.237	2.45	0.1	1975.2
79530	15.088	2.4	0.1	2012.7
79531	15.137	2.45	0.1	2000.1
79532	14.988	2.4	0.1	2037.6
79533	15.038	2.45	0.1	2025.
79534	14.888	2.4	0.1	2062.6
79535	14.938	2.45	0.1	2050.
79536	14.789	2.4	0.1	2087.7
79537	14.839	2.45	0.1	2075.
79538	14.689	2.4	0.1	2112.8
79539	14.739	2.45	0.1	2100.1
79540	14.59	2.4	0.1	2138.
79541	14.639	2.45	0.1	2125.3
79542	14.49	2.4	0.1	2163.3
79543	14.54	2.45	0.1	2150.5
79544	14.39	2.4	0.1	2188.6
79545	14.44	2.45	0.1	2175.8
79546	14.291	2.4	0.1	2214.
79547	14.341	2.45	0.1	2201.1
79548	14.191	2.4	0.1	2239.5
79549	14.241	2.45	0.1	2226.5
79550	14.092	2.4	0.1	2265.
79551	14.142	2.45	0.1	2252.
79552	13.992	2.4	0.1	2290.6
79553	14.042	2.45	0.1	2277.6
79554	13.893	2.4	0.1	2316.3
79555	13.942	2.45	0.1	2303.3
79556	13.793	2.4	0.1	2342.1
79557	13.843	2.45	0.1	2329.
79558	13.693	2.4	0.1	2368.
79559	13.743	2.45	0.1	2354.8
79560	13.594	2.4	0.1	2393.9
79561	13.644	2.45	0.1	2380.8
79562	13.494	2.4	0.1	2420.
79563	13.544	2.45	0.1	2406.8
79564	13.395	2.4	0.1	2446.2
79565	13.444	2.45	0.1	2432.9
79566	13.295	2.4	0.1	2472.6
79567	13.345	2.45	0.1	2459.2
79568	13.195	2.4	0.1	2499.
79569	13.245	2.45	0.1	2485.6
79570	13.096	2.4	0.1	2525.7
79571	13.146	2.45	0.1	2512.2
79572	12.996	2.4	0.1	2552.5
79573	13.046	2.45	0.1	2538.9
79574	12.897	2.4	0.1	2579.5
79575	12.947	2.45	0.1	2565.8
79576	12.797	2.4	0.1	2606.7
79577	12.847	2.45	0.1	2592.9
79578	12.698	2.4	0.1	2634.1
79579	12.747	2.45	0.1	2620.3
79580	12.598	2.4	0.1	2661.8
79581	12.648	2.45	0.1	2647.9
79582	12.498	2.4	0.1	2689.8
79583	12.548	2.45	0.1	2675.8
79584	12.399	2.4	0.1	2718.2
79585	12.449	2.45	0.1	2704.
79586	12.299	2.4	0.1	2746.9
79587	12.349	2.45	0.1	2732.6
79588	12.2	2.4	0.1	2776.1
79589	12.249	2.45	0.1	2761.6
79590	12.1	2.4	0.1	2805.8
79591	12.15	2.45	0.1	2791.1
79592	12.001	2.4	0.1	2836.
79593	12.05	2.45	0.1	2821.1
79594	11.901	2.4	0.1	2866.8
79595	11.951	2.45	0.1	2851.7
79596	11.801	2.4	0.1	2898.4
79597	11.851	2.45	0.1	2883.1
79598	11.702	2.4	0.1	2930.7
79599	11.752	2.45	0.1	2915.2
79600	11.602	2.4	0.1	2964.
79601	11.652	2.45	0.1	2948.2
79602	11.503	2.4	0.1	2998.4
79603	11.552	2.45	0.1	2982.2
79604	11.403	2.4	0.1	3033.9
79605	11.453	2.45	0.1	3017.3
79606	11.303	2.4	0.1	3070.8
79607	11.353	2.45	0.1	3053.8
79608	11.204	2.4	0.1	3109.3
79609	11.254	2.45	0.1	3091.8
79610	11.104	2.4	0.1	3149.6
79611	11.154	2.45	0.1	3131.6
79612	11.005	2.4	0.1	3191.8
79613	11.055	2.45	0.1	3173.2
79614	10.905	2.4	0.1	3236.4
79615	10.955	2.45	0.1	3217.2
79616	10.806	2.4	0.1	3283.6
79617	10.855	2.45	0.1	3263.6
79618	10.706	2.4	0.1	3333.9
79619	10.756	2.45	0.1	3313.
79620	10.606	2.4	0.1	3387.6
79621	10.656	2.45	0.1	3365.8
79622	10.507	2.4	0.1	3445.2
79623	10.557	2.45	0.1	3422.4
79624	10.407	2.4	0.1	3507.4
79625	10.457	2.45	0.1	3483.3
79626	10.308	2.4	0.1	3574.8
79627	10.357	2.45	0.1	3549.3
79628	10.208	2.4	0.1	3648.1
79629	10.258	2.45	0.1	3621.1
79630	10.108	2.4	0.1	3728.3
79631	10.158	2.45	0.1	3699.5
79632	10.009	2.4	0.1	3816.5
79633	10.059	2.45	0.1	3785.6
79634	9.9093	2.4	0.1	3913.8
79635	9.9591	2.45	0.1	3880.5
79636	9.8097	2.4	0.1	4021.7
79637	9.8595	2.45	0.1	3985.6
79638	9.7102	2.4	0.1	4142.
79639	9.76	2.45	0.1	4102.5
79640	9.6106	2.4	0.1	4276.7
79641	9.6604	2.45	0.1	4233.2
79642	9.511	2.4	0.1	4428.5
79643	9.5608	2.45	0.1	4379.9
79644	9.4114	2.4	0.1	4600.4
79645	9.4612	2.45	0.1	4545.6
79646	9.3118	2.4	0.1	4796.3
79647	9.3616	2.45	0.1	4733.5
79648	9.2123	2.4	0.1	5021.1
79649	9.2621	2.45	0.1	4947.9
79650	9.1127	2.4	0.1	5280.9
79651	9.1625	2.45	0.1	5193.8
79652	9.0131	2.4	0.1	5583.8
79653	9.0629	2.45	0.1	5477.9
79654	8.9135	2.4	0.1	5940.1
79655	8.9633	2.45	0.1	5808.
79656	8.8139	2.4	0.1	6363.1
79657	8.8637	2.45	0.1	6194.2
79658	8.7144	2.4	0.1	6869.
79659	8.7642	2.45	0.1	6648.4
79660	8.6148	2.4	0.1	7476.
79661	8.6646	2.45	0.1	7183.3
79662	8.5152	2.4	0.1	8196.9
79663	8.565	2.45	0.1	7809.3
79664	8.4156	2.4	0.1	9020.1
79665	8.4654	2.45	0.1	8524.5
79666	8.316	2.4	0.1	9874.3
79667	8.3658	2.45	0.1	9293.4
79668	8.2662	2.45	0.1	10018
79669	8.2165	2.4	0.1	10597
79670	23.851	2.5	0.1	32.087
79671	23.9	2.55	0.1	21.627
79672	23.95	2.5	0.1	11.886
79673	23.751	2.5	0.1	53.184
79674	23.801	2.55	0.1	42.632
79675	23.651	2.5	0.1	74.293
79676	23.701	2.55	0.1	63.755
79677	23.552	2.5	0.1	95.36
79678	23.602	2.55	0.1	84.85
79679	23.452	2.5	0.1	116.38
79680	23.502	2.55	0.1	105.9
79681	23.353	2.5	0.1	137.35
79682	23.403	2.55	0.1	126.9
79683	23.253	2.5	0.1	158.28
79684	23.303	2.55	0.1	147.86
79685	23.154	2.5	0.1	179.18
79686	23.203	2.55	0.1	168.78
79687	23.054	2.5	0.1	200.05
79688	23.104	2.55	0.1	189.67
79689	22.954	2.5	0.1	220.89
79690	23.004	2.55	0.1	210.52
79691	22.855	2.5	0.1	241.72
79692	22.905	2.55	0.1	231.37
79693	22.755	2.5	0.1	262.54
79694	22.805	2.55	0.1	252.19
79695	22.656	2.5	0.1	283.37
79696	22.705	2.55	0.1	273.02
79697	22.556	2.5	0.1	304.19
79698	22.606	2.55	0.1	293.84
79699	22.456	2.5	0.1	325.03
79700	22.506	2.55	0.1	314.68
79701	22.357	2.5	0.1	345.89
79702	22.407	2.55	0.1	335.52
79703	22.257	2.5	0.1	366.76
79704	22.307	2.55	0.1	356.39
79705	22.158	2.5	0.1	387.67
79706	22.208	2.55	0.1	377.28
79707	22.058	2.5	0.1	408.6
79708	22.108	2.55	0.1	398.19
79709	21.959	2.5	0.1	429.57
79710	22.008	2.55	0.1	419.14
79711	21.859	2.5	0.1	450.58
79712	21.909	2.55	0.1	440.13
79713	21.759	2.5	0.1	471.62
79714	21.809	2.55	0.1	461.15
79715	21.66	2.5	0.1	492.72
79716	21.71	2.55	0.1	482.22
79717	21.56	2.5	0.1	513.85
79718	21.61	2.55	0.1	503.33
79719	21.461	2.5	0.1	535.04
79720	21.51	2.55	0.1	524.49
79721	21.361	2.5	0.1	556.28
79722	21.411	2.55	0.1	545.7
79723	21.262	2.5	0.1	577.57
79724	21.311	2.55	0.1	566.96
79725	21.162	2.5	0.1	598.91
79726	21.212	2.55	0.1	588.27
79727	21.062	2.5	0.1	620.31
79728	21.112	2.55	0.1	609.64
79729	20.963	2.5	0.1	641.77
79730	21.013	2.55	0.1	631.06
79731	20.863	2.5	0.1	663.28
79732	20.913	2.55	0.1	652.54
79733	20.764	2.5	0.1	684.85
79734	20.813	2.55	0.1	674.08
79735	20.664	2.5	0.1	706.48
79736	20.714	2.55	0.1	695.67
79737	20.564	2.5	0.1	728.17
79738	20.614	2.55	0.1	717.33
79739	20.465	2.5	0.1	749.92
79740	20.515	2.55	0.1	739.04
79741	20.365	2.5	0.1	771.73
79742	20.415	2.55	0.1	760.82
79743	20.266	2.5	0.1	793.6
79744	20.316	2.55	0.1	782.65
79745	20.166	2.5	0.1	815.53
79746	20.216	2.55	0.1	804.55
79747	20.067	2.5	0.1	837.52
79748	20.116	2.55	0.1	826.5
79749	19.967	2.5	0.1	859.57
79750	20.017	2.55	0.1	848.52
79751	19.867	2.5	0.1	881.68
79752	19.917	2.55	0.1	870.6
79753	19.768	2.5	0.1	903.85
79754	19.818	2.55	0.1	892.74
79755	19.668	2.5	0.1	926.09
79756	19.718	2.55	0.1	914.94
79757	19.569	2.5	0.1	948.39
79758	19.618	2.55	0.1	937.2
79759	19.469	2.5	0.1	970.74
79760	19.519	2.55	0.1	959.52
79761	19.369	2.5	0.1	993.16
79762	19.419	2.55	0.1	981.91
79763	19.27	2.5	0.1	1015.6
79764	19.32	2.55	0.1	1004.4
79765	19.17	2.5	0.1	1038.2
79766	19.22	2.55	0.1	1026.9
79767	19.071	2.5	0.1	1060.8
79768	19.121	2.55	0.1	1049.4
79769	18.971	2.5	0.1	1083.4
79770	19.021	2.55	0.1	1072.1
79771	18.872	2.5	0.1	1106.2
79772	18.921	2.55	0.1	1094.7
79773	18.772	2.5	0.1	1128.9
79774	18.822	2.55	0.1	1117.5
79775	18.672	2.5	0.1	1151.8
79776	18.722	2.55	0.1	1140.3
79777	18.573	2.5	0.1	1174.7
79778	18.623	2.55	0.1	1163.2
79779	18.473	2.5	0.1	1197.6
79780	18.523	2.55	0.1	1186.1
79781	18.374	2.5	0.1	1220.7
79782	18.423	2.55	0.1	1209.1
79783	18.274	2.5	0.1	1243.7
79784	18.324	2.55	0.1	1232.1
79785	18.175	2.5	0.1	1266.9
79786	18.224	2.55	0.1	1255.2
79787	18.075	2.5	0.1	1290.1
79788	18.125	2.55	0.1	1278.4
79789	17.975	2.5	0.1	1313.3
79790	18.025	2.55	0.1	1301.6
79791	17.876	2.5	0.1	1336.6
79792	17.926	2.55	0.1	1324.9
79793	17.776	2.5	0.1	1360.
79794	17.826	2.55	0.1	1348.3
79795	17.677	2.5	0.1	1383.5
79796	17.726	2.55	0.1	1371.7
79797	17.577	2.5	0.1	1406.9
79798	17.627	2.55	0.1	1395.1
79799	17.477	2.5	0.1	1430.5
79800	17.527	2.55	0.1	1418.6
79801	17.378	2.5	0.1	1454.1
79802	17.428	2.55	0.1	1442.2
79803	17.278	2.5	0.1	1477.7
79804	17.328	2.55	0.1	1465.8
79805	17.179	2.5	0.1	1501.5
79806	17.229	2.55	0.1	1489.5
79807	17.079	2.5	0.1	1525.2
79808	17.129	2.55	0.1	1513.3
79809	16.98	2.5	0.1	1549.1
79810	17.029	2.55	0.1	1537.1
79811	16.88	2.5	0.1	1573.
79812	16.93	2.55	0.1	1560.9
79813	16.78	2.5	0.1	1596.9
79814	16.83	2.55	0.1	1584.8
79815	16.681	2.5	0.1	1620.9
79816	16.731	2.55	0.1	1608.8
79817	16.581	2.5	0.1	1645.
79818	16.631	2.55	0.1	1632.8
79819	16.482	2.5	0.1	1669.1
79820	16.531	2.55	0.1	1656.9
79821	16.382	2.5	0.1	1693.2
79822	16.432	2.55	0.1	1681.
79823	16.282	2.5	0.1	1717.4
79824	16.332	2.55	0.1	1705.2
79825	16.183	2.5	0.1	1741.7
79826	16.233	2.55	0.1	1729.5
79827	16.083	2.5	0.1	1766.1
79828	16.133	2.55	0.1	1753.8
79829	15.984	2.5	0.1	1790.4
79830	16.034	2.55	0.1	1778.1
79831	15.884	2.5	0.1	1814.9
79832	15.934	2.55	0.1	1802.6
79833	15.785	2.5	0.1	1839.4
79834	15.834	2.55	0.1	1827.
79835	15.685	2.5	0.1	1863.9
79836	15.735	2.55	0.1	1851.5
79837	15.585	2.5	0.1	1888.5
79838	15.635	2.55	0.1	1876.1
79839	15.486	2.5	0.1	1913.2
79840	15.536	2.55	0.1	1900.7
79841	15.386	2.5	0.1	1937.9
79842	15.436	2.55	0.1	1925.4
79843	15.287	2.5	0.1	1962.7
79844	15.336	2.55	0.1	1950.2
79845	15.187	2.5	0.1	1987.5
79846	15.237	2.55	0.1	1975.
79847	15.088	2.5	0.1	2012.4
79848	15.137	2.55	0.1	1999.8
79849	14.988	2.5	0.1	2037.4
79850	15.038	2.55	0.1	2024.7
79851	14.888	2.5	0.1	2062.4
79852	14.938	2.55	0.1	2049.7
79853	14.789	2.5	0.1	2087.4
79854	14.839	2.55	0.1	2074.7
79855	14.689	2.5	0.1	2112.5
79856	14.739	2.55	0.1	2099.8
79857	14.59	2.5	0.1	2137.7
79858	14.639	2.55	0.1	2125.
79859	14.49	2.5	0.1	2163.
79860	14.54	2.55	0.1	2150.2
79861	14.39	2.5	0.1	2188.3
79862	14.44	2.55	0.1	2175.5
79863	14.291	2.5	0.1	2213.7
79864	14.341	2.55	0.1	2200.8
79865	14.191	2.5	0.1	2239.1
79866	14.241	2.55	0.1	2226.2
79867	14.092	2.5	0.1	2264.7
79868	14.142	2.55	0.1	2251.7
79869	13.992	2.5	0.1	2290.3
79870	14.042	2.55	0.1	2277.3
79871	13.893	2.5	0.1	2316.
79872	13.942	2.55	0.1	2303.
79873	13.793	2.5	0.1	2341.7
79874	13.843	2.55	0.1	2328.7
79875	13.693	2.5	0.1	2367.6
79876	13.743	2.55	0.1	2354.5
79877	13.594	2.5	0.1	2393.6
79878	13.644	2.55	0.1	2380.5
79879	13.494	2.5	0.1	2419.7
79880	13.544	2.55	0.1	2406.5
79881	13.395	2.5	0.1	2445.9
79882	13.444	2.55	0.1	2432.7
79883	13.295	2.5	0.1	2472.3
79884	13.345	2.55	0.1	2458.9
79885	13.195	2.5	0.1	2498.8
79886	13.245	2.55	0.1	2485.4
79887	13.096	2.5	0.1	2525.4
79888	13.146	2.55	0.1	2511.9
79889	12.996	2.5	0.1	2552.3
79890	13.046	2.55	0.1	2538.7
79891	12.897	2.5	0.1	2579.3
79892	12.947	2.55	0.1	2565.6
79893	12.797	2.5	0.1	2606.6
79894	12.847	2.55	0.1	2592.8
79895	12.698	2.5	0.1	2634.1
79896	12.747	2.55	0.1	2620.2
79897	12.598	2.5	0.1	2661.9
79898	12.648	2.55	0.1	2647.9
79899	12.498	2.5	0.1	2690.
79900	12.548	2.55	0.1	2675.9
79901	12.399	2.5	0.1	2718.4
79902	12.449	2.55	0.1	2704.2
79903	12.299	2.5	0.1	2747.3
79904	12.349	2.55	0.1	2732.9
79905	12.2	2.5	0.1	2776.6
79906	12.249	2.55	0.1	2762.
79907	12.1	2.5	0.1	2806.5
79908	12.15	2.55	0.1	2791.7
79909	12.001	2.5	0.1	2836.9
79910	12.05	2.55	0.1	2821.9
79911	11.901	2.5	0.1	2868.
79912	11.951	2.55	0.1	2852.7
79913	11.801	2.5	0.1	2899.9
79914	11.851	2.55	0.1	2884.3
79915	11.702	2.5	0.1	2932.6
79916	11.752	2.55	0.1	2916.7
79917	11.602	2.5	0.1	2966.3
79918	11.652	2.55	0.1	2950.
79919	11.503	2.5	0.1	3001.1
79920	11.552	2.55	0.1	2984.5
79921	11.403	2.5	0.1	3037.3
79922	11.453	2.55	0.1	3020.1
79923	11.303	2.5	0.1	3074.8
79924	11.353	2.55	0.1	3057.2
79925	11.204	2.5	0.1	3114.1
79926	11.254	2.55	0.1	3095.8
79927	11.104	2.5	0.1	3155.2
79928	11.154	2.55	0.1	3136.3
79929	11.005	2.5	0.1	3198.6
79930	11.055	2.55	0.1	3178.9
79931	10.905	2.5	0.1	3244.4
79932	10.955	2.55	0.1	3223.9
79933	10.806	2.5	0.1	3293.1
79934	10.855	2.55	0.1	3271.6
79935	10.706	2.5	0.1	3345.
79936	10.756	2.55	0.1	3322.4
79937	10.606	2.5	0.1	3400.6
79938	10.656	2.55	0.1	3376.8
79939	10.507	2.5	0.1	3460.5
79940	10.557	2.55	0.1	3435.3
79941	10.407	2.5	0.1	3525.3
79942	10.457	2.55	0.1	3498.5
79943	10.308	2.5	0.1	3595.7
79944	10.357	2.55	0.1	3567.1
79945	10.208	2.5	0.1	3672.5
79946	10.258	2.55	0.1	3641.9
79947	10.108	2.5	0.1	3756.8
79948	10.158	2.55	0.1	3723.8
79949	10.009	2.5	0.1	3849.6
79950	10.059	2.55	0.1	3813.8
79951	9.9093	2.5	0.1	3952.3
79952	9.9591	2.55	0.1	3913.3
79953	9.8097	2.5	0.1	4066.4
79954	9.8595	2.55	0.1	4023.7
79955	9.7102	2.5	0.1	4193.7
79956	9.76	2.55	0.1	4146.6
79957	9.6106	2.5	0.1	4336.4
79958	9.6604	2.55	0.1	4284.1
79959	9.511	2.5	0.1	4497.
79960	9.5608	2.55	0.1	4438.6
79961	9.4114	2.5	0.1	4678.7
79962	9.4612	2.55	0.1	4612.7
79963	9.3118	2.5	0.1	4885.2
79964	9.3616	2.55	0.1	4809.8
79965	9.2123	2.5	0.1	5120.9
79966	9.2621	2.55	0.1	5033.7
79967	9.1127	2.5	0.1	5391.3
79968	9.1625	2.55	0.1	5289.1
79969	9.0131	2.5	0.1	5703.
79970	9.0629	2.55	0.1	5581.2
79971	8.9135	2.5	0.1	6063.7
79972	8.9633	2.55	0.1	5916.3
79973	8.8139	2.5	0.1	6481.9
79974	8.8637	2.55	0.1	6301.
79975	8.7144	2.5	0.1	6966.3
79976	8.7642	2.55	0.1	6741.6
79977	8.6148	2.5	0.1	7521.8
79978	8.6646	2.55	0.1	7242.5
79979	8.5152	2.5	0.1	8143.2
79980	8.565	2.55	0.1	7801.4
79981	8.4156	2.5	0.1	8803.1
79982	8.4654	2.55	0.1	8402.4
79983	8.316	2.5	0.1	9437.2
79984	8.3658	2.55	0.1	9004.5
79985	8.2662	2.55	0.1	9533.9
79986	8.2165	2.5	0.1	9941.1
79987	23.851	2.6	0.1	32.072
79988	23.9	2.65	0.1	21.607
79989	23.95	2.6	0.1	11.876
79990	23.751	2.6	0.1	53.184
79991	23.801	2.65	0.1	42.625
79992	23.651	2.6	0.1	74.307
79993	23.701	2.65	0.1	63.76
79994	23.552	2.6	0.1	95.389
79995	23.602	2.65	0.1	84.869
79996	23.452	2.6	0.1	116.42
79997	23.502	2.65	0.1	105.93
79998	23.353	2.6	0.1	137.41
79999	23.403	2.65	0.1	126.95
80000	23.253	2.6	0.1	158.36
80001	23.303	2.65	0.1	147.92
80002	23.154	2.6	0.1	179.27
80003	23.203	2.65	0.1	168.85
80004	23.054	2.6	0.1	200.15
80005	23.104	2.65	0.1	189.75
80006	22.954	2.6	0.1	221.
80007	23.004	2.65	0.1	210.62
80008	22.855	2.6	0.1	241.84
80009	22.905	2.65	0.1	231.47
80010	22.755	2.6	0.1	262.67
80011	22.805	2.65	0.1	252.31
80012	22.656	2.6	0.1	283.5
80013	22.705	2.65	0.1	273.14
80014	22.556	2.6	0.1	304.33
80015	22.606	2.65	0.1	293.97
80016	22.456	2.6	0.1	325.17
80017	22.506	2.65	0.1	314.8
80018	22.357	2.6	0.1	346.03
80019	22.407	2.65	0.1	335.65
80020	22.257	2.6	0.1	366.91
80021	22.307	2.65	0.1	356.52
80022	22.158	2.6	0.1	387.81
80023	22.208	2.65	0.1	377.41
80024	22.058	2.6	0.1	408.74
80025	22.108	2.65	0.1	398.32
80026	21.959	2.6	0.1	429.71
80027	22.008	2.65	0.1	419.27
80028	21.859	2.6	0.1	450.71
80029	21.909	2.65	0.1	440.25
80030	21.759	2.6	0.1	471.75
80031	21.809	2.65	0.1	461.27
80032	21.66	2.6	0.1	492.84
80033	21.71	2.65	0.1	482.33
80034	21.56	2.6	0.1	513.97
80035	21.61	2.65	0.1	503.44
80036	21.461	2.6	0.1	535.15
80037	21.51	2.65	0.1	524.59
80038	21.361	2.6	0.1	556.38
80039	21.411	2.65	0.1	545.79
80040	21.262	2.6	0.1	577.67
80041	21.311	2.65	0.1	567.05
80042	21.162	2.6	0.1	599.
80043	21.212	2.65	0.1	588.35
80044	21.062	2.6	0.1	620.39
80045	21.112	2.65	0.1	609.71
80046	20.963	2.6	0.1	641.84
80047	21.013	2.65	0.1	631.13
80048	20.863	2.6	0.1	663.35
80049	20.913	2.65	0.1	652.6
80050	20.764	2.6	0.1	684.91
80051	20.813	2.65	0.1	674.13
80052	20.664	2.6	0.1	706.53
80053	20.714	2.65	0.1	695.72
80054	20.564	2.6	0.1	728.21
80055	20.614	2.65	0.1	717.37
80056	20.465	2.6	0.1	749.95
80057	20.515	2.65	0.1	739.07
80058	20.365	2.6	0.1	771.75
80059	20.415	2.65	0.1	760.84
80060	20.266	2.6	0.1	793.61
80061	20.316	2.65	0.1	782.67
80062	20.166	2.6	0.1	815.53
80063	20.216	2.65	0.1	804.56
80064	20.067	2.6	0.1	837.52
80065	20.116	2.65	0.1	826.51
80066	19.967	2.6	0.1	859.56
80067	20.017	2.65	0.1	848.52
80068	19.867	2.6	0.1	881.67
80069	19.917	2.65	0.1	870.59
80070	19.768	2.6	0.1	903.83
80071	19.818	2.65	0.1	892.72
80072	19.668	2.6	0.1	926.06
80073	19.718	2.65	0.1	914.92
80074	19.569	2.6	0.1	948.35
80075	19.618	2.65	0.1	937.17
80076	19.469	2.6	0.1	970.7
80077	19.519	2.65	0.1	959.49
80078	19.369	2.6	0.1	993.11
80079	19.419	2.65	0.1	981.87
80080	19.27	2.6	0.1	1015.6
80081	19.32	2.65	0.1	1004.3
80082	19.17	2.6	0.1	1038.1
80083	19.22	2.65	0.1	1026.8
80084	19.071	2.6	0.1	1060.7
80085	19.121	2.65	0.1	1049.4
80086	18.971	2.6	0.1	1083.4
80087	19.021	2.65	0.1	1072.
80088	18.872	2.6	0.1	1106.1
80089	18.921	2.65	0.1	1094.7
80090	18.772	2.6	0.1	1128.9
80091	18.822	2.65	0.1	1117.4
80092	18.672	2.6	0.1	1151.7
80093	18.722	2.65	0.1	1140.2
80094	18.573	2.6	0.1	1174.6
80095	18.623	2.65	0.1	1163.1
80096	18.473	2.6	0.1	1197.6
80097	18.523	2.65	0.1	1186.
80098	18.374	2.6	0.1	1220.6
80099	18.423	2.65	0.1	1209.
80100	18.274	2.6	0.1	1243.6
80101	18.324	2.65	0.1	1232.
80102	18.175	2.6	0.1	1266.8
80103	18.224	2.65	0.1	1255.2
80104	18.075	2.6	0.1	1290.
80105	18.125	2.65	0.1	1278.3
80106	17.975	2.6	0.1	1313.2
80107	18.025	2.65	0.1	1301.5
80108	17.876	2.6	0.1	1336.5
80109	17.926	2.65	0.1	1324.8
80110	17.776	2.6	0.1	1359.9
80111	17.826	2.65	0.1	1348.2
80112	17.677	2.6	0.1	1383.3
80113	17.726	2.65	0.1	1371.6
80114	17.577	2.6	0.1	1406.8
80115	17.627	2.65	0.1	1395.
80116	17.477	2.6	0.1	1430.4
80117	17.527	2.65	0.1	1418.5
80118	17.378	2.6	0.1	1454.
80119	17.428	2.65	0.1	1442.1
80120	17.278	2.6	0.1	1477.6
80121	17.328	2.65	0.1	1465.7
80122	17.179	2.6	0.1	1501.3
80123	17.229	2.65	0.1	1489.4
80124	17.079	2.6	0.1	1525.1
80125	17.129	2.65	0.1	1513.1
80126	16.98	2.6	0.1	1548.9
80127	17.029	2.65	0.1	1536.9
80128	16.88	2.6	0.1	1572.8
80129	16.93	2.65	0.1	1560.8
80130	16.78	2.6	0.1	1596.7
80131	16.83	2.65	0.1	1584.7
80132	16.681	2.6	0.1	1620.7
80133	16.731	2.65	0.1	1608.7
80134	16.581	2.6	0.1	1644.8
80135	16.631	2.65	0.1	1632.7
80136	16.482	2.6	0.1	1668.9
80137	16.531	2.65	0.1	1656.8
80138	16.382	2.6	0.1	1693.1
80139	16.432	2.65	0.1	1680.9
80140	16.282	2.6	0.1	1717.3
80141	16.332	2.65	0.1	1705.1
80142	16.183	2.6	0.1	1741.5
80143	16.233	2.65	0.1	1729.3
80144	16.083	2.6	0.1	1765.9
80145	16.133	2.65	0.1	1753.6
80146	15.984	2.6	0.1	1790.3
80147	16.034	2.65	0.1	1778.
80148	15.884	2.6	0.1	1814.7
80149	15.934	2.65	0.1	1802.4
80150	15.785	2.6	0.1	1839.2
80151	15.834	2.65	0.1	1826.8
80152	15.685	2.6	0.1	1863.7
80153	15.735	2.65	0.1	1851.4
80154	15.585	2.6	0.1	1888.3
80155	15.635	2.65	0.1	1875.9
80156	15.486	2.6	0.1	1913.
80157	15.536	2.65	0.1	1900.6
80158	15.386	2.6	0.1	1937.7
80159	15.436	2.65	0.1	1925.2
80160	15.287	2.6	0.1	1962.5
80161	15.336	2.65	0.1	1950.
80162	15.187	2.6	0.1	1987.3
80163	15.237	2.65	0.1	1974.8
80164	15.088	2.6	0.1	2012.2
80165	15.137	2.65	0.1	1999.6
80166	14.988	2.6	0.1	2037.1
80167	15.038	2.65	0.1	2024.5
80168	14.888	2.6	0.1	2062.1
80169	14.938	2.65	0.1	2049.5
80170	14.789	2.6	0.1	2087.2
80171	14.839	2.65	0.1	2074.5
80172	14.689	2.6	0.1	2112.3
80173	14.739	2.65	0.1	2099.6
80174	14.59	2.6	0.1	2137.5
80175	14.639	2.65	0.1	2124.8
80176	14.49	2.6	0.1	2162.7
80177	14.54	2.65	0.1	2150.
80178	14.39	2.6	0.1	2188.
80179	14.44	2.65	0.1	2175.3
80180	14.291	2.6	0.1	2213.4
80181	14.341	2.65	0.1	2200.6
80182	14.191	2.6	0.1	2238.9
80183	14.241	2.65	0.1	2226.
80184	14.092	2.6	0.1	2264.4
80185	14.142	2.65	0.1	2251.5
80186	13.992	2.6	0.1	2290.
80187	14.042	2.65	0.1	2277.1
80188	13.893	2.6	0.1	2315.7
80189	13.942	2.65	0.1	2302.7
80190	13.793	2.6	0.1	2341.5
80191	13.843	2.65	0.1	2328.5
80192	13.693	2.6	0.1	2367.4
80193	13.743	2.65	0.1	2354.3
80194	13.594	2.6	0.1	2393.3
80195	13.644	2.65	0.1	2380.2
80196	13.494	2.6	0.1	2419.4
80197	13.544	2.65	0.1	2406.3
80198	13.395	2.6	0.1	2445.7
80199	13.444	2.65	0.1	2432.4
80200	13.295	2.6	0.1	2472.
80201	13.345	2.65	0.1	2458.7
80202	13.195	2.6	0.1	2498.5
80203	13.245	2.65	0.1	2485.2
80204	13.096	2.6	0.1	2525.2
80205	13.146	2.65	0.1	2511.8
80206	12.996	2.6	0.1	2552.1
80207	13.046	2.65	0.1	2538.5
80208	12.897	2.6	0.1	2579.2
80209	12.947	2.65	0.1	2565.5
80210	12.797	2.6	0.1	2606.5
80211	12.847	2.65	0.1	2592.7
80212	12.698	2.6	0.1	2634.
80213	12.747	2.65	0.1	2620.2
80214	12.598	2.6	0.1	2661.9
80215	12.648	2.65	0.1	2647.9
80216	12.498	2.6	0.1	2690.1
80217	12.548	2.65	0.1	2675.9
80218	12.399	2.6	0.1	2718.6
80219	12.449	2.65	0.1	2704.3
80220	12.299	2.6	0.1	2747.6
80221	12.349	2.65	0.1	2733.1
80222	12.2	2.6	0.1	2777.1
80223	12.249	2.65	0.1	2762.3
80224	12.1	2.6	0.1	2807.1
80225	12.15	2.65	0.1	2792.1
80226	12.001	2.6	0.1	2837.7
80227	12.05	2.65	0.1	2822.5
80228	11.901	2.6	0.1	2869.
80229	11.951	2.65	0.1	2853.5
80230	11.801	2.6	0.1	2901.1
80231	11.851	2.65	0.1	2885.3
80232	11.702	2.6	0.1	2934.1
80233	11.752	2.65	0.1	2917.9
80234	11.602	2.6	0.1	2968.2
80235	11.652	2.65	0.1	2951.5
80236	11.503	2.6	0.1	3003.4
80237	11.552	2.65	0.1	2986.3
80238	11.403	2.6	0.1	3040.
80239	11.453	2.65	0.1	3022.4
80240	11.303	2.6	0.1	3078.2
80241	11.353	2.65	0.1	3059.9
80242	11.204	2.6	0.1	3118.1
80243	11.254	2.65	0.1	3099.1
80244	11.104	2.6	0.1	3160.
80245	11.154	2.65	0.1	3140.2
80246	11.005	2.6	0.1	3204.2
80247	11.055	2.65	0.1	3183.5
80248	10.905	2.6	0.1	3251.1
80249	10.955	2.65	0.1	3229.4
80250	10.806	2.6	0.1	3300.9
80251	10.855	2.65	0.1	3278.1
80252	10.706	2.6	0.1	3354.3
80253	10.756	2.65	0.1	3330.
80254	10.606	2.6	0.1	3411.5
80255	10.656	2.65	0.1	3385.8
80256	10.507	2.6	0.1	3473.3
80257	10.557	2.65	0.1	3445.9
80258	10.407	2.6	0.1	3540.3
80259	10.457	2.65	0.1	3510.9
80260	10.308	2.6	0.1	3613.3
80261	10.357	2.65	0.1	3581.6
80262	10.208	2.6	0.1	3693.1
80263	10.258	2.65	0.1	3658.9
80264	10.108	2.6	0.1	3780.8
80265	10.158	2.65	0.1	3743.6
80266	10.009	2.6	0.1	3877.5
80267	10.059	2.65	0.1	3837.
80268	9.9093	2.6	0.1	3984.7
80269	9.9591	2.65	0.1	3940.2
80270	9.8097	2.6	0.1	4104.
80271	9.8595	2.65	0.1	4055.
80272	9.7102	2.6	0.1	4237.1
80273	9.76	2.65	0.1	4182.8
80274	9.6106	2.6	0.1	4386.4
80275	9.6604	2.65	0.1	4325.9
80276	9.511	2.6	0.1	4554.4
80277	9.5608	2.65	0.1	4486.5
80278	9.4114	2.6	0.1	4744.
80279	9.4612	2.65	0.1	4667.4
80280	9.3118	2.6	0.1	4958.7
80281	9.3616	2.65	0.1	4871.6
80282	9.2123	2.6	0.1	5202.4
80283	9.2621	2.65	0.1	5102.6
80284	9.1127	2.6	0.1	5479.8
80285	9.1625	2.65	0.1	5364.5
80286	9.0131	2.6	0.1	5795.8
80287	9.0629	2.65	0.1	5661.3
80288	8.9135	2.6	0.1	6155.5
80289	8.9633	2.65	0.1	5997.3
80290	8.8139	2.6	0.1	6563.3
80291	8.8637	2.65	0.1	6376.3
80292	8.7144	2.6	0.1	7021.4
80293	8.7642	2.65	0.1	6800.2
80294	8.6148	2.6	0.1	7526.6
80295	8.6646	2.65	0.1	7267.2
80296	8.5152	2.6	0.1	8065.3
80297	8.565	2.65	0.1	7768.2
80298	8.4156	2.6	0.1	8607.3
80299	8.4654	2.65	0.1	8282.4
80300	8.316	2.6	0.1	9101.3
80301	8.3658	2.65	0.1	8772.3
80302	8.2662	2.65	0.1	9184.1
80303	8.2165	2.6	0.1	9478.5
80304	23.851	2.7	0.1	32.061
80305	23.9	2.75	0.1	21.593
80306	23.95	2.7	0.1	11.867
80307	23.751	2.7	0.1	53.183
80308	23.801	2.75	0.1	42.62
80309	23.651	2.7	0.1	74.317
80310	23.701	2.75	0.1	63.765
80311	23.552	2.7	0.1	95.411
80312	23.602	2.75	0.1	84.882
80313	23.452	2.7	0.1	116.46
80314	23.502	2.75	0.1	105.96
80315	23.353	2.7	0.1	137.46
80316	23.403	2.75	0.1	126.98
80317	23.253	2.7	0.1	158.41
80318	23.303	2.75	0.1	147.96
80319	23.154	2.7	0.1	179.33
80320	23.203	2.75	0.1	168.9
80321	23.054	2.7	0.1	200.22
80322	23.104	2.75	0.1	189.81
80323	22.954	2.7	0.1	221.09
80324	23.004	2.75	0.1	210.69
80325	22.855	2.7	0.1	241.94
80326	22.905	2.75	0.1	231.54
80327	22.755	2.7	0.1	262.77
80328	22.805	2.75	0.1	252.39
80329	22.656	2.7	0.1	283.61
80330	22.705	2.75	0.1	273.22
80331	22.556	2.7	0.1	304.44
80332	22.606	2.75	0.1	294.06
80333	22.456	2.7	0.1	325.29
80334	22.506	2.75	0.1	314.9
80335	22.357	2.7	0.1	346.15
80336	22.407	2.75	0.1	335.75
80337	22.257	2.7	0.1	367.02
80338	22.307	2.75	0.1	356.62
80339	22.158	2.7	0.1	387.93
80340	22.208	2.75	0.1	377.51
80341	22.058	2.7	0.1	408.86
80342	22.108	2.75	0.1	398.42
80343	21.959	2.7	0.1	429.82
80344	22.008	2.75	0.1	419.37
80345	21.859	2.7	0.1	450.82
80346	21.909	2.75	0.1	440.34
80347	21.759	2.7	0.1	471.86
80348	21.809	2.75	0.1	461.36
80349	21.66	2.7	0.1	492.94
80350	21.71	2.75	0.1	482.42
80351	21.56	2.7	0.1	514.07
80352	21.61	2.75	0.1	503.52
80353	21.461	2.7	0.1	535.24
80354	21.51	2.75	0.1	524.67
80355	21.361	2.7	0.1	556.47
80356	21.411	2.75	0.1	545.87
80357	21.262	2.7	0.1	577.74
80358	21.311	2.75	0.1	567.12
80359	21.162	2.7	0.1	599.07
80360	21.212	2.75	0.1	588.42
80361	21.062	2.7	0.1	620.46
80362	21.112	2.75	0.1	609.77
80363	20.963	2.7	0.1	641.9
80364	21.013	2.75	0.1	631.18
80365	20.863	2.7	0.1	663.4
80366	20.913	2.75	0.1	652.65
80367	20.764	2.7	0.1	684.95
80368	20.813	2.75	0.1	674.17
80369	20.664	2.7	0.1	706.57
80370	20.714	2.75	0.1	695.76
80371	20.564	2.7	0.1	728.24
80372	20.614	2.75	0.1	717.4
80373	20.465	2.7	0.1	749.97
80374	20.515	2.75	0.1	739.1
80375	20.365	2.7	0.1	771.77
80376	20.415	2.75	0.1	760.86
80377	20.266	2.7	0.1	793.62
80378	20.316	2.75	0.1	782.68
80379	20.166	2.7	0.1	815.54
80380	20.216	2.75	0.1	804.57
80381	20.067	2.7	0.1	837.52
80382	20.116	2.75	0.1	826.51
80383	19.967	2.7	0.1	859.56
80384	20.017	2.75	0.1	848.52
80385	19.867	2.7	0.1	881.66
80386	19.917	2.75	0.1	870.58
80387	19.768	2.7	0.1	903.82
80388	19.818	2.75	0.1	892.71
80389	19.668	2.7	0.1	926.04
80390	19.718	2.75	0.1	914.9
80391	19.569	2.7	0.1	948.33
80392	19.618	2.75	0.1	937.16
80393	19.469	2.7	0.1	970.67
80394	19.519	2.75	0.1	959.47
80395	19.369	2.7	0.1	993.08
80396	19.419	2.75	0.1	981.84
80397	19.27	2.7	0.1	1015.5
80398	19.32	2.75	0.1	1004.3
80399	19.17	2.7	0.1	1038.1
80400	19.22	2.75	0.1	1026.8
80401	19.071	2.7	0.1	1060.7
80402	19.121	2.75	0.1	1049.3
80403	18.971	2.7	0.1	1083.3
80404	19.021	2.75	0.1	1072.
80405	18.872	2.7	0.1	1106.
80406	18.921	2.75	0.1	1094.6
80407	18.772	2.7	0.1	1128.8
80408	18.822	2.75	0.1	1117.4
80409	18.672	2.7	0.1	1151.6
80410	18.722	2.75	0.1	1140.2
80411	18.573	2.7	0.1	1174.5
80412	18.623	2.75	0.1	1163.
80413	18.473	2.7	0.1	1197.5
80414	18.523	2.75	0.1	1186.
80415	18.374	2.7	0.1	1220.5
80416	18.423	2.75	0.1	1208.9
80417	18.274	2.7	0.1	1243.6
80418	18.324	2.75	0.1	1232.
80419	18.175	2.7	0.1	1266.7
80420	18.224	2.75	0.1	1255.1
80421	18.075	2.7	0.1	1289.9
80422	18.125	2.75	0.1	1278.2
80423	17.975	2.7	0.1	1313.1
80424	18.025	2.75	0.1	1301.5
80425	17.876	2.7	0.1	1336.4
80426	17.926	2.75	0.1	1324.7
80427	17.776	2.7	0.1	1359.8
80428	17.826	2.75	0.1	1348.1
80429	17.677	2.7	0.1	1383.2
80430	17.726	2.75	0.1	1371.5
80431	17.577	2.7	0.1	1406.7
80432	17.627	2.75	0.1	1394.9
80433	17.477	2.7	0.1	1430.3
80434	17.527	2.75	0.1	1418.4
80435	17.378	2.7	0.1	1453.9
80436	17.428	2.75	0.1	1442.
80437	17.278	2.7	0.1	1477.5
80438	17.328	2.75	0.1	1465.6
80439	17.179	2.7	0.1	1501.2
80440	17.229	2.75	0.1	1489.3
80441	17.079	2.7	0.1	1525.
80442	17.129	2.75	0.1	1513.
80443	16.98	2.7	0.1	1548.8
80444	17.029	2.75	0.1	1536.8
80445	16.88	2.7	0.1	1572.7
80446	16.93	2.75	0.1	1560.7
80447	16.78	2.7	0.1	1596.6
80448	16.83	2.75	0.1	1584.6
80449	16.681	2.7	0.1	1620.6
80450	16.731	2.75	0.1	1608.6
80451	16.581	2.7	0.1	1644.7
80452	16.631	2.75	0.1	1632.6
80453	16.482	2.7	0.1	1668.8
80454	16.531	2.75	0.1	1656.7
80455	16.382	2.7	0.1	1692.9
80456	16.432	2.75	0.1	1680.8
80457	16.282	2.7	0.1	1717.1
80458	16.332	2.75	0.1	1705.
80459	16.183	2.7	0.1	1741.4
80460	16.233	2.75	0.1	1729.2
80461	16.083	2.7	0.1	1765.7
80462	16.133	2.75	0.1	1753.5
80463	15.984	2.7	0.1	1790.1
80464	16.034	2.75	0.1	1777.9
80465	15.884	2.7	0.1	1814.5
80466	15.934	2.75	0.1	1802.3
80467	15.785	2.7	0.1	1839.
80468	15.834	2.75	0.1	1826.7
80469	15.685	2.7	0.1	1863.6
80470	15.735	2.75	0.1	1851.2
80471	15.585	2.7	0.1	1888.2
80472	15.635	2.75	0.1	1875.8
80473	15.486	2.7	0.1	1912.8
80474	15.536	2.75	0.1	1900.4
80475	15.386	2.7	0.1	1937.5
80476	15.436	2.75	0.1	1925.1
80477	15.287	2.7	0.1	1962.3
80478	15.336	2.75	0.1	1949.8
80479	15.187	2.7	0.1	1987.1
80480	15.237	2.75	0.1	1974.6
80481	15.088	2.7	0.1	2012.
80482	15.137	2.75	0.1	1999.5
80483	14.988	2.7	0.1	2036.9
80484	15.038	2.75	0.1	2024.4
80485	14.888	2.7	0.1	2061.9
80486	14.938	2.75	0.1	2049.4
80487	14.789	2.7	0.1	2087.
80488	14.839	2.75	0.1	2074.4
80489	14.689	2.7	0.1	2112.1
80490	14.739	2.75	0.1	2099.5
80491	14.59	2.7	0.1	2137.3
80492	14.639	2.75	0.1	2124.6
80493	14.49	2.7	0.1	2162.5
80494	14.54	2.75	0.1	2149.8
80495	14.39	2.7	0.1	2187.8
80496	14.44	2.75	0.1	2175.1
80497	14.291	2.7	0.1	2213.2
80498	14.341	2.75	0.1	2200.4
80499	14.191	2.7	0.1	2238.7
80500	14.241	2.75	0.1	2225.8
80501	14.092	2.7	0.1	2264.2
80502	14.142	2.75	0.1	2251.3
80503	13.992	2.7	0.1	2289.8
80504	14.042	2.75	0.1	2276.9
80505	13.893	2.7	0.1	2315.5
80506	13.942	2.75	0.1	2302.5
80507	13.793	2.7	0.1	2341.3
80508	13.843	2.75	0.1	2328.3
80509	13.693	2.7	0.1	2367.1
80510	13.743	2.75	0.1	2354.1
80511	13.594	2.7	0.1	2393.1
80512	13.644	2.75	0.1	2380.
80513	13.494	2.7	0.1	2419.2
80514	13.544	2.75	0.1	2406.1
80515	13.395	2.7	0.1	2445.5
80516	13.444	2.75	0.1	2432.3
80517	13.295	2.7	0.1	2471.9
80518	13.345	2.75	0.1	2458.6
80519	13.195	2.7	0.1	2498.4
80520	13.245	2.75	0.1	2485.
80521	13.096	2.7	0.1	2525.1
80522	13.146	2.75	0.1	2511.6
80523	12.996	2.7	0.1	2552.
80524	13.046	2.75	0.1	2538.4
80525	12.897	2.7	0.1	2579.1
80526	12.947	2.75	0.1	2565.4
80527	12.797	2.7	0.1	2606.4
80528	12.847	2.75	0.1	2592.6
80529	12.698	2.7	0.1	2634.
80530	12.747	2.75	0.1	2620.1
80531	12.598	2.7	0.1	2661.9
80532	12.648	2.75	0.1	2647.9
80533	12.498	2.7	0.1	2690.2
80534	12.548	2.75	0.1	2676.
80535	12.399	2.7	0.1	2718.8
80536	12.449	2.75	0.1	2704.4
80537	12.299	2.7	0.1	2747.8
80538	12.349	2.75	0.1	2733.3
80539	12.2	2.7	0.1	2777.4
80540	12.249	2.75	0.1	2762.6
80541	12.1	2.7	0.1	2807.5
80542	12.15	2.75	0.1	2792.5
80543	12.001	2.7	0.1	2838.3
80544	12.05	2.75	0.1	2822.9
80545	11.901	2.7	0.1	2869.8
80546	11.951	2.75	0.1	2854.1
80547	11.801	2.7	0.1	2902.1
80548	11.851	2.75	0.1	2886.
80549	11.702	2.7	0.1	2935.3
80550	11.752	2.75	0.1	2918.8
80551	11.602	2.7	0.1	2969.7
80552	11.652	2.75	0.1	2952.7
80553	11.503	2.7	0.1	3005.2
80554	11.552	2.75	0.1	2987.7
80555	11.403	2.7	0.1	3042.2
80556	11.453	2.75	0.1	3024.1
80557	11.303	2.7	0.1	3080.8
80558	11.353	2.75	0.1	3061.9
80559	11.204	2.7	0.1	3121.2
80560	11.254	2.75	0.1	3101.6
80561	11.104	2.7	0.1	3163.7
80562	11.154	2.75	0.1	3143.2
80563	11.005	2.7	0.1	3208.7
80564	11.055	2.75	0.1	3187.
80565	10.905	2.7	0.1	3256.3
80566	10.955	2.75	0.1	3233.5
80567	10.806	2.7	0.1	3307.2
80568	10.855	2.75	0.1	3283.
80569	10.706	2.7	0.1	3361.6
80570	10.756	2.75	0.1	3335.9
80571	10.606	2.7	0.1	3420.2
80572	10.656	2.75	0.1	3392.7
80573	10.507	2.7	0.1	3483.5
80574	10.557	2.75	0.1	3454.
80575	10.407	2.7	0.1	3552.3
80576	10.457	2.75	0.1	3520.4
80577	10.308	2.7	0.1	3627.3
80578	10.357	2.75	0.1	3592.8
80579	10.208	2.7	0.1	3709.4
80580	10.258	2.75	0.1	3671.9
80581	10.108	2.7	0.1	3799.8
80582	10.158	2.75	0.1	3758.8
80583	10.009	2.7	0.1	3899.7
80584	10.059	2.75	0.1	3854.7
80585	9.9093	2.7	0.1	4010.5
80586	9.9591	2.75	0.1	3960.9
80587	9.8097	2.7	0.1	4133.9
80588	9.8595	2.75	0.1	4078.9
80589	9.7102	2.7	0.1	4271.7
80590	9.76	2.75	0.1	4210.5
80591	9.6106	2.7	0.1	4426.2
80592	9.6604	2.75	0.1	4357.8
80593	9.511	2.7	0.1	4599.8
80594	9.5608	2.75	0.1	4523.1
80595	9.4114	2.7	0.1	4795.4
80596	9.4612	2.75	0.1	4709.
80597	9.3118	2.7	0.1	5016.1
80598	9.3616	2.75	0.1	4918.3
80599	9.2123	2.7	0.1	5265.4
80600	9.2621	2.75	0.1	5154.3
80601	9.1127	2.7	0.1	5547.
80602	9.1625	2.75	0.1	5420.2
80603	9.0131	2.7	0.1	5864.3
80604	9.0629	2.75	0.1	5719.3
80605	8.9135	2.7	0.1	6220.2
80606	8.9633	2.75	0.1	6054.3
80607	8.8139	2.7	0.1	6616.
80608	8.8637	2.75	0.1	6426.4
80609	8.7144	2.7	0.1	7049.4
80610	8.7642	2.75	0.1	6834.6
80611	8.6148	2.7	0.1	7512.7
80612	8.6646	2.75	0.1	7273.4
80613	8.5152	2.7	0.1	7989.
80614	8.565	2.75	0.1	7730.3
80615	8.4156	2.7	0.1	8450.1
80616	8.4654	2.75	0.1	8183.7
80617	8.316	2.7	0.1	8855.6
80618	8.3658	2.75	0.1	8601.2
80619	8.2662	2.75	0.1	8942.1
80620	8.2165	2.7	0.1	9157.6
80621	23.851	2.8	0.1	32.052
80622	23.9	2.85	0.1	21.583
80623	23.95	2.8	0.1	11.861
80624	23.751	2.8	0.1	53.183
80625	23.801	2.85	0.1	42.616
80626	23.651	2.8	0.1	74.324
80627	23.701	2.85	0.1	63.767
80628	23.552	2.8	0.1	95.426
80629	23.602	2.85	0.1	84.891
80630	23.452	2.8	0.1	116.48
80631	23.502	2.85	0.1	105.97
80632	23.353	2.8	0.1	137.49
80633	23.403	2.85	0.1	127.
80634	23.253	2.8	0.1	158.45
80635	23.303	2.85	0.1	147.99
80636	23.154	2.8	0.1	179.38
80637	23.203	2.85	0.1	168.94
80638	23.054	2.8	0.1	200.28
80639	23.104	2.85	0.1	189.85
80640	22.954	2.8	0.1	221.15
80641	23.004	2.85	0.1	210.73
80642	22.855	2.8	0.1	242.
80643	22.905	2.85	0.1	231.59
80644	22.755	2.8	0.1	262.84
80645	22.805	2.85	0.1	252.44
80646	22.656	2.8	0.1	283.68
80647	22.705	2.85	0.1	273.28
80648	22.556	2.8	0.1	304.52
80649	22.606	2.85	0.1	294.12
80650	22.456	2.8	0.1	325.37
80651	22.506	2.85	0.1	314.96
80652	22.357	2.8	0.1	346.23
80653	22.407	2.85	0.1	335.81
80654	22.257	2.8	0.1	367.11
80655	22.307	2.85	0.1	356.68
80656	22.158	2.8	0.1	388.01
80657	22.208	2.85	0.1	377.57
80658	22.058	2.8	0.1	408.94
80659	22.108	2.85	0.1	398.49
80660	21.959	2.8	0.1	429.9
80661	22.008	2.85	0.1	419.43
80662	21.859	2.8	0.1	450.9
80663	21.909	2.85	0.1	440.41
80664	21.759	2.8	0.1	471.93
80665	21.809	2.85	0.1	461.42
80666	21.66	2.8	0.1	493.01
80667	21.71	2.85	0.1	482.48
80668	21.56	2.8	0.1	514.13
80669	21.61	2.85	0.1	503.58
80670	21.461	2.8	0.1	535.31
80671	21.51	2.85	0.1	524.72
80672	21.361	2.8	0.1	556.53
80673	21.411	2.85	0.1	545.92
80674	21.262	2.8	0.1	577.8
80675	21.311	2.85	0.1	567.16
80676	21.162	2.8	0.1	599.12
80677	21.212	2.85	0.1	588.46
80678	21.062	2.8	0.1	620.5
80679	21.112	2.85	0.1	609.81
80680	20.963	2.8	0.1	641.94
80681	21.013	2.85	0.1	631.22
80682	20.863	2.8	0.1	663.43
80683	20.913	2.85	0.1	652.68
80684	20.764	2.8	0.1	684.98
80685	20.813	2.85	0.1	674.2
80686	20.664	2.8	0.1	706.59
80687	20.714	2.85	0.1	695.78
80688	20.564	2.8	0.1	728.26
80689	20.614	2.85	0.1	717.42
80690	20.465	2.8	0.1	749.99
80691	20.515	2.85	0.1	739.12
80692	20.365	2.8	0.1	771.78
80693	20.415	2.85	0.1	760.87
80694	20.266	2.8	0.1	793.63
80695	20.316	2.85	0.1	782.69
80696	20.166	2.8	0.1	815.55
80697	20.216	2.85	0.1	804.57
80698	20.067	2.8	0.1	837.52
80699	20.116	2.85	0.1	826.51
80700	19.967	2.8	0.1	859.55
80701	20.017	2.85	0.1	848.52
80702	19.867	2.8	0.1	881.65
80703	19.917	2.85	0.1	870.58
80704	19.768	2.8	0.1	903.81
80705	19.818	2.85	0.1	892.71
80706	19.668	2.8	0.1	926.03
80707	19.718	2.85	0.1	914.89
80708	19.569	2.8	0.1	948.31
80709	19.618	2.85	0.1	937.14
80710	19.469	2.8	0.1	970.65
80711	19.519	2.85	0.1	959.45
80712	19.369	2.8	0.1	993.06
80713	19.419	2.85	0.1	981.83
80714	19.27	2.8	0.1	1015.5
80715	19.32	2.85	0.1	1004.3
80716	19.17	2.8	0.1	1038.
80717	19.22	2.85	0.1	1026.8
80718	19.071	2.8	0.1	1060.6
80719	19.121	2.85	0.1	1049.3
80720	18.971	2.8	0.1	1083.3
80721	19.021	2.85	0.1	1071.9
80722	18.872	2.8	0.1	1106.
80723	18.921	2.85	0.1	1094.6
80724	18.772	2.8	0.1	1128.8
80725	18.822	2.85	0.1	1117.3
80726	18.672	2.8	0.1	1151.6
80727	18.722	2.85	0.1	1140.1
80728	18.573	2.8	0.1	1174.5
80729	18.623	2.85	0.1	1163.
80730	18.473	2.8	0.1	1197.4
80731	18.523	2.85	0.1	1185.9
80732	18.374	2.8	0.1	1220.4
80733	18.423	2.85	0.1	1208.9
80734	18.274	2.8	0.1	1243.5
80735	18.324	2.85	0.1	1231.9
80736	18.175	2.8	0.1	1266.6
80737	18.224	2.85	0.1	1255.
80738	18.075	2.8	0.1	1289.8
80739	18.125	2.85	0.1	1278.2
80740	17.975	2.8	0.1	1313.1
80741	18.025	2.85	0.1	1301.4
80742	17.876	2.8	0.1	1336.4
80743	17.926	2.85	0.1	1324.7
80744	17.776	2.8	0.1	1359.7
80745	17.826	2.85	0.1	1348.
80746	17.677	2.8	0.1	1383.2
80747	17.726	2.85	0.1	1371.4
80748	17.577	2.8	0.1	1406.6
80749	17.627	2.85	0.1	1394.9
80750	17.477	2.8	0.1	1430.2
80751	17.527	2.85	0.1	1418.4
80752	17.378	2.8	0.1	1453.8
80753	17.428	2.85	0.1	1441.9
80754	17.278	2.8	0.1	1477.4
80755	17.328	2.85	0.1	1465.6
80756	17.179	2.8	0.1	1501.1
80757	17.229	2.85	0.1	1489.2
80758	17.079	2.8	0.1	1524.9
80759	17.129	2.85	0.1	1513.
80760	16.98	2.8	0.1	1548.7
80761	17.029	2.85	0.1	1536.8
80762	16.88	2.8	0.1	1572.6
80763	16.93	2.85	0.1	1560.6
80764	16.78	2.8	0.1	1596.5
80765	16.83	2.85	0.1	1584.5
80766	16.681	2.8	0.1	1620.5
80767	16.731	2.85	0.1	1608.5
80768	16.581	2.8	0.1	1644.6
80769	16.631	2.85	0.1	1632.5
80770	16.482	2.8	0.1	1668.7
80771	16.531	2.85	0.1	1656.6
80772	16.382	2.8	0.1	1692.8
80773	16.432	2.85	0.1	1680.7
80774	16.282	2.8	0.1	1717.
80775	16.332	2.85	0.1	1704.9
80776	16.183	2.8	0.1	1741.3
80777	16.233	2.85	0.1	1729.1
80778	16.083	2.8	0.1	1765.6
80779	16.133	2.85	0.1	1753.4
80780	15.984	2.8	0.1	1790.
80781	16.034	2.85	0.1	1777.8
80782	15.884	2.8	0.1	1814.4
80783	15.934	2.85	0.1	1802.2
80784	15.785	2.8	0.1	1838.9
80785	15.834	2.85	0.1	1826.6
80786	15.685	2.8	0.1	1863.5
80787	15.735	2.85	0.1	1851.1
80788	15.585	2.8	0.1	1888.1
80789	15.635	2.85	0.1	1875.7
80790	15.486	2.8	0.1	1912.7
80791	15.536	2.85	0.1	1900.3
80792	15.386	2.8	0.1	1937.4
80793	15.436	2.85	0.1	1925.
80794	15.287	2.8	0.1	1962.2
80795	15.336	2.85	0.1	1949.7
80796	15.187	2.8	0.1	1987.
80797	15.237	2.85	0.1	1974.5
80798	15.088	2.8	0.1	2011.9
80799	15.137	2.85	0.1	1999.4
80800	14.988	2.8	0.1	2036.8
80801	15.038	2.85	0.1	2024.3
80802	14.888	2.8	0.1	2061.8
80803	14.938	2.85	0.1	2049.2
80804	14.789	2.8	0.1	2086.8
80805	14.839	2.85	0.1	2074.3
80806	14.689	2.8	0.1	2112.
80807	14.739	2.85	0.1	2099.3
80808	14.59	2.8	0.1	2137.1
80809	14.639	2.85	0.1	2124.5
80810	14.49	2.8	0.1	2162.4
80811	14.54	2.85	0.1	2149.7
80812	14.39	2.8	0.1	2187.7
80813	14.44	2.85	0.1	2175.
80814	14.291	2.8	0.1	2213.1
80815	14.341	2.85	0.1	2200.3
80816	14.191	2.8	0.1	2238.5
80817	14.241	2.85	0.1	2225.7
80818	14.092	2.8	0.1	2264.
80819	14.142	2.85	0.1	2251.2
80820	13.992	2.8	0.1	2289.6
80821	14.042	2.85	0.1	2276.8
80822	13.893	2.8	0.1	2315.3
80823	13.942	2.85	0.1	2302.4
80824	13.793	2.8	0.1	2341.1
80825	13.843	2.85	0.1	2328.1
80826	13.693	2.8	0.1	2367.
80827	13.743	2.85	0.1	2354.
80828	13.594	2.8	0.1	2393.
80829	13.644	2.85	0.1	2379.9
80830	13.494	2.8	0.1	2419.1
80831	13.544	2.85	0.1	2406.
80832	13.395	2.8	0.1	2445.3
80833	13.444	2.85	0.1	2432.1
80834	13.295	2.8	0.1	2471.7
80835	13.345	2.85	0.1	2458.5
80836	13.195	2.8	0.1	2498.3
80837	13.245	2.85	0.1	2484.9
80838	13.096	2.8	0.1	2525.
80839	13.146	2.85	0.1	2511.5
80840	12.996	2.8	0.1	2551.9
80841	13.046	2.85	0.1	2538.3
80842	12.897	2.8	0.1	2579.
80843	12.947	2.85	0.1	2565.3
80844	12.797	2.8	0.1	2606.4
80845	12.847	2.85	0.1	2592.6
80846	12.698	2.8	0.1	2634.
80847	12.747	2.85	0.1	2620.1
80848	12.598	2.8	0.1	2661.9
80849	12.648	2.85	0.1	2647.9
80850	12.498	2.8	0.1	2690.2
80851	12.548	2.85	0.1	2676.
80852	12.399	2.8	0.1	2718.9
80853	12.449	2.85	0.1	2704.5
80854	12.299	2.8	0.1	2748.
80855	12.349	2.85	0.1	2733.4
80856	12.2	2.8	0.1	2777.6
80857	12.249	2.85	0.1	2762.8
80858	12.1	2.8	0.1	2807.9
80859	12.15	2.85	0.1	2792.7
80860	12.001	2.8	0.1	2838.7
80861	12.05	2.85	0.1	2823.2
80862	11.901	2.8	0.1	2870.3
80863	11.951	2.85	0.1	2854.5
80864	11.801	2.8	0.1	2902.8
80865	11.851	2.85	0.1	2886.5
80866	11.702	2.8	0.1	2936.2
80867	11.752	2.85	0.1	2919.5
80868	11.602	2.8	0.1	2970.7
80869	11.652	2.85	0.1	2953.5
80870	11.503	2.8	0.1	3006.5
80871	11.552	2.85	0.1	2988.7
80872	11.403	2.8	0.1	3043.8
80873	11.453	2.85	0.1	3025.2
80874	11.303	2.8	0.1	3082.7
80875	11.353	2.85	0.1	3063.3
80876	11.204	2.8	0.1	3123.5
80877	11.254	2.85	0.1	3103.2
80878	11.104	2.8	0.1	3166.5
80879	11.154	2.85	0.1	3145.1
80880	11.005	2.8	0.1	3211.9
80881	11.055	2.85	0.1	3189.4
80882	10.905	2.8	0.1	3260.2
80883	10.955	2.85	0.1	3236.3
80884	10.806	2.8	0.1	3311.7
80885	10.855	2.85	0.1	3286.3
80886	10.706	2.8	0.1	3366.9
80887	10.756	2.85	0.1	3339.8
80888	10.606	2.8	0.1	3426.5
80889	10.656	2.85	0.1	3397.3
80890	10.507	2.8	0.1	3490.9
80891	10.557	2.85	0.1	3459.4
80892	10.407	2.8	0.1	3560.9
80893	10.457	2.85	0.1	3526.8
80894	10.308	2.8	0.1	3637.4
80895	10.357	2.85	0.1	3600.3
80896	10.208	2.8	0.1	3721.3
80897	10.258	2.85	0.1	3680.7
80898	10.108	2.8	0.1	3813.7
80899	10.158	2.85	0.1	3769.1
80900	10.009	2.8	0.1	3915.9
80901	10.059	2.85	0.1	3866.7
80902	9.9093	2.8	0.1	4029.3
80903	9.9591	2.85	0.1	3974.8
80904	9.8097	2.8	0.1	4155.7
80905	9.8595	2.85	0.1	4095.1
80906	9.7102	2.8	0.1	4296.8
80907	9.76	2.85	0.1	4229.3
80908	9.6106	2.8	0.1	4455.
80909	9.6604	2.85	0.1	4379.4
80910	9.511	2.8	0.1	4632.6
80911	9.5608	2.85	0.1	4547.8
80912	9.4114	2.8	0.1	4832.4
80913	9.4612	2.85	0.1	4736.9
80914	9.3118	2.8	0.1	5057.2
80915	9.3616	2.85	0.1	4949.6
80916	9.2123	2.8	0.1	5310.
80917	9.2621	2.85	0.1	5188.6
80918	9.1127	2.8	0.1	5593.8
80919	9.1625	2.85	0.1	5456.9
80920	9.0131	2.8	0.1	5911.
80921	9.0629	2.85	0.1	5756.9
80922	8.9135	2.8	0.1	6262.6
80923	8.9633	2.85	0.1	6090.2
80924	8.8139	2.8	0.1	6647.8
80925	8.8637	2.85	0.1	6456.6
80926	8.7144	2.8	0.1	7061.7
80927	8.7642	2.85	0.1	6853.1
80928	8.6148	2.8	0.1	7494.4
80929	8.6646	2.85	0.1	7272.
80930	8.5152	2.8	0.1	7928.1
80931	8.565	2.85	0.1	7699.7
80932	8.4156	2.8	0.1	8337.1
80933	8.4654	2.85	0.1	8115.
80934	8.316	2.8	0.1	8688.7
80935	8.3658	2.85	0.1	8489.5
80936	8.2662	2.85	0.1	8790.1
80937	8.2165	2.8	0.1	8946.8
80938	23.851	2.9	0.1	32.047
80939	23.9	2.95	0.1	21.578
80940	23.95	2.9	0.1	11.858
80941	23.751	2.9	0.1	53.182
80942	23.801	2.95	0.1	42.615
80943	23.651	2.9	0.1	74.329
80944	23.701	2.95	0.1	63.768
80945	23.552	2.9	0.1	95.435
80946	23.602	2.95	0.1	84.895
80947	23.452	2.9	0.1	116.5
80948	23.502	2.95	0.1	105.98
80949	23.353	2.9	0.1	137.51
80950	23.403	2.95	0.1	127.01
80951	23.253	2.9	0.1	158.48
80952	23.303	2.95	0.1	148.01
80953	23.154	2.9	0.1	179.41
80954	23.203	2.95	0.1	168.95
80955	23.054	2.9	0.1	200.31
80956	23.104	2.95	0.1	189.87
80957	22.954	2.9	0.1	221.18
80958	23.004	2.95	0.1	210.76
80959	22.855	2.9	0.1	242.04
80960	22.905	2.95	0.1	231.62
80961	22.755	2.9	0.1	262.89
80962	22.805	2.95	0.1	252.47
80963	22.656	2.9	0.1	283.73
80964	22.705	2.95	0.1	273.31
80965	22.556	2.9	0.1	304.57
80966	22.606	2.95	0.1	294.15
80967	22.456	2.9	0.1	325.41
80968	22.506	2.95	0.1	314.99
80969	22.357	2.9	0.1	346.28
80970	22.407	2.95	0.1	335.85
80971	22.257	2.9	0.1	367.15
80972	22.307	2.95	0.1	356.71
80973	22.158	2.9	0.1	388.06
80974	22.208	2.95	0.1	377.6
80975	22.058	2.9	0.1	408.98
80976	22.108	2.95	0.1	398.52
80977	21.959	2.9	0.1	429.95
80978	22.008	2.95	0.1	419.46
80979	21.859	2.9	0.1	450.94
80980	21.909	2.95	0.1	440.44
80981	21.759	2.9	0.1	471.98
80982	21.809	2.95	0.1	461.45
80983	21.66	2.9	0.1	493.05
80984	21.71	2.95	0.1	482.51
80985	21.56	2.9	0.1	514.18
80986	21.61	2.95	0.1	503.61
80987	21.461	2.9	0.1	535.34
80988	21.51	2.95	0.1	524.75
80989	21.361	2.9	0.1	556.56
80990	21.411	2.95	0.1	545.94
80991	21.262	2.9	0.1	577.83
80992	21.311	2.95	0.1	567.19
80993	21.162	2.9	0.1	599.16
80994	21.212	2.95	0.1	588.48
80995	21.062	2.9	0.1	620.53
80996	21.112	2.95	0.1	609.83
80997	20.963	2.9	0.1	641.97
80998	21.013	2.95	0.1	631.24
80999	20.863	2.9	0.1	663.46
81000	20.913	2.95	0.1	652.7
81001	20.764	2.9	0.1	685.
81002	20.813	2.95	0.1	674.21
81003	20.664	2.9	0.1	706.61
81004	20.714	2.95	0.1	695.79
81005	20.564	2.9	0.1	728.28
81006	20.614	2.95	0.1	717.43
81007	20.465	2.9	0.1	750.01
81008	20.515	2.95	0.1	739.12
81009	20.365	2.9	0.1	771.79
81010	20.415	2.95	0.1	760.88
81011	20.266	2.9	0.1	793.64
81012	20.316	2.95	0.1	782.7
81013	20.166	2.9	0.1	815.55
81014	20.216	2.95	0.1	804.58
81015	20.067	2.9	0.1	837.52
81016	20.116	2.95	0.1	826.51
81017	19.967	2.9	0.1	859.55
81018	20.017	2.95	0.1	848.52
81019	19.867	2.9	0.1	881.65
81020	19.917	2.95	0.1	870.58
81021	19.768	2.9	0.1	903.8
81022	19.818	2.95	0.1	892.7
81023	19.668	2.9	0.1	926.02
81024	19.718	2.95	0.1	914.89
81025	19.569	2.9	0.1	948.3
81026	19.618	2.95	0.1	937.14
81027	19.469	2.9	0.1	970.64
81028	19.519	2.95	0.1	959.45
81029	19.369	2.9	0.1	993.04
81030	19.419	2.95	0.1	981.82
81031	19.27	2.9	0.1	1015.5
81032	19.32	2.95	0.1	1004.2
81033	19.17	2.9	0.1	1038.
81034	19.22	2.95	0.1	1026.7
81035	19.071	2.9	0.1	1060.6
81036	19.121	2.95	0.1	1049.3
81037	18.971	2.9	0.1	1083.3
81038	19.021	2.95	0.1	1071.9
81039	18.872	2.9	0.1	1106.
81040	18.921	2.95	0.1	1094.6
81041	18.772	2.9	0.1	1128.7
81042	18.822	2.95	0.1	1117.3
81043	18.672	2.9	0.1	1151.6
81044	18.722	2.95	0.1	1140.1
81045	18.573	2.9	0.1	1174.5
81046	18.623	2.95	0.1	1163.
81047	18.473	2.9	0.1	1197.4
81048	18.523	2.95	0.1	1185.9
81049	18.374	2.9	0.1	1220.4
81050	18.423	2.95	0.1	1208.9
81051	18.274	2.9	0.1	1243.5
81052	18.324	2.95	0.1	1231.9
81053	18.175	2.9	0.1	1266.6
81054	18.224	2.95	0.1	1255.
81055	18.075	2.9	0.1	1289.8
81056	18.125	2.95	0.1	1278.2
81057	17.975	2.9	0.1	1313.
81058	18.025	2.95	0.1	1301.4
81059	17.876	2.9	0.1	1336.3
81060	17.926	2.95	0.1	1324.7
81061	17.776	2.9	0.1	1359.7
81062	17.826	2.95	0.1	1348.
81063	17.677	2.9	0.1	1383.1
81064	17.726	2.95	0.1	1371.4
81065	17.577	2.9	0.1	1406.6
81066	17.627	2.95	0.1	1394.8
81067	17.477	2.9	0.1	1430.1
81068	17.527	2.95	0.1	1418.3
81069	17.378	2.9	0.1	1453.7
81070	17.428	2.95	0.1	1441.9
81071	17.278	2.9	0.1	1477.4
81072	17.328	2.95	0.1	1465.5
81073	17.179	2.9	0.1	1501.1
81074	17.229	2.95	0.1	1489.2
81075	17.079	2.9	0.1	1524.9
81076	17.129	2.95	0.1	1512.9
81077	16.98	2.9	0.1	1548.7
81078	17.029	2.95	0.1	1536.7
81079	16.88	2.9	0.1	1572.6
81080	16.93	2.95	0.1	1560.6
81081	16.78	2.9	0.1	1596.5
81082	16.83	2.95	0.1	1584.5
81083	16.681	2.9	0.1	1620.5
81084	16.731	2.95	0.1	1608.5
81085	16.581	2.9	0.1	1644.5
81086	16.631	2.95	0.1	1632.5
81087	16.482	2.9	0.1	1668.6
81088	16.531	2.95	0.1	1656.5
81089	16.382	2.9	0.1	1692.8
81090	16.432	2.95	0.1	1680.7
81091	16.282	2.9	0.1	1717.
81092	16.332	2.95	0.1	1704.9
81093	16.183	2.9	0.1	1741.3
81094	16.233	2.95	0.1	1729.1
81095	16.083	2.9	0.1	1765.6
81096	16.133	2.95	0.1	1753.4
81097	15.984	2.9	0.1	1789.9
81098	16.034	2.95	0.1	1777.7
81099	15.884	2.9	0.1	1814.4
81100	15.934	2.95	0.1	1802.1
81101	15.785	2.9	0.1	1838.9
81102	15.834	2.95	0.1	1826.6
81103	15.685	2.9	0.1	1863.4
81104	15.735	2.95	0.1	1851.1
81105	15.585	2.9	0.1	1888.
81106	15.635	2.95	0.1	1875.7
81107	15.486	2.9	0.1	1912.6
81108	15.536	2.95	0.1	1900.3
81109	15.386	2.9	0.1	1937.3
81110	15.436	2.95	0.1	1925.
81111	15.287	2.9	0.1	1962.1
81112	15.336	2.95	0.1	1949.7
81113	15.187	2.9	0.1	1986.9
81114	15.237	2.95	0.1	1974.5
81115	15.088	2.9	0.1	2011.8
81116	15.137	2.95	0.1	1999.3
81117	14.988	2.9	0.1	2036.7
81118	15.038	2.95	0.1	2024.2
81119	14.888	2.9	0.1	2061.7
81120	14.938	2.95	0.1	2049.2
81121	14.789	2.9	0.1	2086.8
81122	14.839	2.95	0.1	2074.2
81123	14.689	2.9	0.1	2111.9
81124	14.739	2.95	0.1	2099.3
81125	14.59	2.9	0.1	2137.
81126	14.639	2.95	0.1	2124.4
81127	14.49	2.9	0.1	2162.3
81128	14.54	2.95	0.1	2149.6
81129	14.39	2.9	0.1	2187.6
81130	14.44	2.95	0.1	2174.9
81131	14.291	2.9	0.1	2213.
81132	14.341	2.95	0.1	2200.2
81133	14.191	2.9	0.1	2238.4
81134	14.241	2.95	0.1	2225.7
81135	14.092	2.9	0.1	2263.9
81136	14.142	2.95	0.1	2251.1
81137	13.992	2.9	0.1	2289.5
81138	14.042	2.95	0.1	2276.7
81139	13.893	2.9	0.1	2315.2
81140	13.942	2.95	0.1	2302.3
81141	13.793	2.9	0.1	2341.
81142	13.843	2.95	0.1	2328.1
81143	13.693	2.9	0.1	2366.9
81144	13.743	2.95	0.1	2353.9
81145	13.594	2.9	0.1	2392.9
81146	13.644	2.95	0.1	2379.9
81147	13.494	2.9	0.1	2419.
81148	13.544	2.95	0.1	2405.9
81149	13.395	2.9	0.1	2445.3
81150	13.444	2.95	0.1	2432.1
81151	13.295	2.9	0.1	2471.6
81152	13.345	2.95	0.1	2458.4
81153	13.195	2.9	0.1	2498.2
81154	13.245	2.95	0.1	2484.9
81155	13.096	2.9	0.1	2524.9
81156	13.146	2.95	0.1	2511.5
81157	12.996	2.9	0.1	2551.8
81158	13.046	2.95	0.1	2538.3
81159	12.897	2.9	0.1	2578.9
81160	12.947	2.95	0.1	2565.3
81161	12.797	2.9	0.1	2606.3
81162	12.847	2.95	0.1	2592.6
81163	12.698	2.9	0.1	2634.
81164	12.747	2.95	0.1	2620.1
81165	12.598	2.9	0.1	2661.9
81166	12.648	2.95	0.1	2647.9
81167	12.498	2.9	0.1	2690.2
81168	12.548	2.95	0.1	2676.
81169	12.399	2.9	0.1	2719.
81170	12.449	2.95	0.1	2704.5
81171	12.299	2.9	0.1	2748.1
81172	12.349	2.95	0.1	2733.4
81173	12.2	2.9	0.1	2777.8
81174	12.249	2.95	0.1	2762.8
81175	12.1	2.9	0.1	2808.1
81176	12.15	2.95	0.1	2792.8
81177	12.001	2.9	0.1	2839.
81178	12.05	2.95	0.1	2823.4
81179	11.901	2.9	0.1	2870.7
81180	11.951	2.95	0.1	2854.7
81181	11.801	2.9	0.1	2903.2
81182	11.851	2.95	0.1	2886.8
81183	11.702	2.9	0.1	2936.7
81184	11.752	2.95	0.1	2919.8
81185	11.602	2.9	0.1	2971.4
81186	11.652	2.95	0.1	2953.9
81187	11.503	2.9	0.1	3007.3
81188	11.552	2.95	0.1	2989.1
81189	11.403	2.9	0.1	3044.8
81190	11.453	2.95	0.1	3025.8
81191	11.303	2.9	0.1	3083.8
81192	11.353	2.95	0.1	3064.
81193	11.204	2.9	0.1	3124.9
81194	11.254	2.95	0.1	3104.1
81195	11.104	2.9	0.1	3168.1
81196	11.154	2.95	0.1	3146.1
81197	11.005	2.9	0.1	3213.8
81198	11.055	2.95	0.1	3190.6
81199	10.905	2.9	0.1	3262.5
81200	10.955	2.95	0.1	3237.7
81201	10.806	2.9	0.1	3314.4
81202	10.855	2.95	0.1	3288.
81203	10.706	2.9	0.1	3370.2
81204	10.756	2.95	0.1	3341.8
81205	10.606	2.9	0.1	3430.3
81206	10.656	2.95	0.1	3399.6
81207	10.507	2.9	0.1	3495.4
81208	10.557	2.95	0.1	3462.2
81209	10.407	2.9	0.1	3566.2
81210	10.457	2.95	0.1	3530.
81211	10.308	2.9	0.1	3643.6
81212	10.357	2.95	0.1	3604.
81213	10.208	2.9	0.1	3728.5
81214	10.258	2.95	0.1	3685.1
81215	10.108	2.9	0.1	3822.1
81216	10.158	2.95	0.1	3774.3
81217	10.009	2.9	0.1	3925.7
81218	10.059	2.95	0.1	3872.7
81219	9.9093	2.9	0.1	4040.7
81220	9.9591	2.95	0.1	3981.9
81221	9.8097	2.9	0.1	4168.9
81222	9.8595	2.95	0.1	4103.3
81223	9.7102	2.9	0.1	4312.1
81224	9.76	2.95	0.1	4238.7
81225	9.6106	2.9	0.1	4472.5
81226	9.6604	2.95	0.1	4390.3
81227	9.511	2.9	0.1	4652.5
81228	9.5608	2.95	0.1	4560.2
81229	9.4114	2.9	0.1	4854.7
81230	9.4612	2.95	0.1	4750.9
81231	9.3118	2.9	0.1	5081.8
81232	9.3616	2.95	0.1	4965.2
81233	9.2123	2.9	0.1	5336.6
81234	9.2621	2.95	0.1	5205.8
81235	9.1127	2.9	0.1	5621.4
81236	9.1625	2.95	0.1	5475.1
81237	9.0131	2.9	0.1	5937.9
81238	9.0629	2.95	0.1	5775.4
81239	8.9135	2.9	0.1	6286.4
81240	8.9633	2.95	0.1	6107.6
81241	8.8139	2.9	0.1	6664.5
81242	8.8637	2.95	0.1	6470.7
81243	8.7144	2.9	0.1	7066.2
81244	8.7642	2.95	0.1	6860.9
81245	8.6148	2.9	0.1	7480.4
81246	8.6646	2.95	0.1	7269.8
81247	8.5152	2.9	0.1	7889.5
81248	8.565	2.95	0.1	7683.
81249	8.4156	2.9	0.1	8269.5
81250	8.4654	2.95	0.1	8080.1
81251	8.316	2.9	0.1	8592.
81252	8.3658	2.95	0.1	8434.4
81253	8.2662	2.95	0.1	8716.7
81254	8.2165	2.9	0.1	8827.
81255	23.851	3.	0.1	32.045
81256	23.9	3.05	0.1	21.578
81257	23.95	3.	0.1	11.857
81258	23.751	3.	0.1	53.182
81259	23.801	3.05	0.1	42.615
81260	23.651	3.	0.1	74.33
81261	23.701	3.05	0.1	63.768
81262	23.552	3.	0.1	95.438
81263	23.602	3.05	0.1	84.895
81264	23.452	3.	0.1	116.5
81265	23.502	3.05	0.1	105.98
81266	23.353	3.	0.1	137.51
81267	23.403	3.05	0.1	127.01
81268	23.253	3.	0.1	158.48
81269	23.303	3.05	0.1	148.01
81270	23.154	3.	0.1	179.42
81271	23.203	3.05	0.1	168.95
81272	23.054	3.	0.1	200.32
81273	23.104	3.05	0.1	189.87
81274	22.954	3.	0.1	221.2
81275	23.004	3.05	0.1	210.76
81276	22.855	3.	0.1	242.05
81277	22.905	3.05	0.1	231.62
81278	22.755	3.	0.1	262.9
81279	22.805	3.05	0.1	252.47
81280	22.656	3.	0.1	283.74
81281	22.705	3.05	0.1	273.31
81282	22.556	3.	0.1	304.58
81283	22.606	3.05	0.1	294.15
81284	22.456	3.	0.1	325.43
81285	22.506	3.05	0.1	314.99
81286	22.357	3.	0.1	346.29
81287	22.407	3.05	0.1	335.85
81288	22.257	3.	0.1	367.17
81289	22.307	3.05	0.1	356.71
81290	22.158	3.	0.1	388.07
81291	22.208	3.05	0.1	377.6
81292	22.058	3.	0.1	409.
81293	22.108	3.05	0.1	398.52
81294	21.959	3.	0.1	429.96
81295	22.008	3.05	0.1	419.46
81296	21.859	3.	0.1	450.96
81297	21.909	3.05	0.1	440.44
81298	21.759	3.	0.1	471.99
81299	21.809	3.05	0.1	461.45
81300	21.66	3.	0.1	493.07
81301	21.71	3.05	0.1	482.51
81302	21.56	3.	0.1	514.19
81303	21.61	3.05	0.1	503.61
81304	21.461	3.	0.1	535.36
81305	21.51	3.05	0.1	524.75
81306	21.361	3.	0.1	556.57
81307	21.411	3.05	0.1	545.94
81308	21.262	3.	0.1	577.84
81309	21.311	3.05	0.1	567.19
81310	21.162	3.	0.1	599.17
81311	21.212	3.05	0.1	588.48
81312	21.062	3.	0.1	620.54
81313	21.112	3.05	0.1	609.83
81314	20.963	3.	0.1	641.97
81315	21.013	3.05	0.1	631.24
81316	20.863	3.	0.1	663.46
81317	20.913	3.05	0.1	652.7
81318	20.764	3.	0.1	685.01
81319	20.813	3.05	0.1	674.21
81320	20.664	3.	0.1	706.62
81321	20.714	3.05	0.1	695.79
81322	20.564	3.	0.1	728.28
81323	20.614	3.05	0.1	717.43
81324	20.465	3.	0.1	750.01
81325	20.515	3.05	0.1	739.12
81326	20.365	3.	0.1	771.8
81327	20.415	3.05	0.1	760.88
81328	20.266	3.	0.1	793.64
81329	20.316	3.05	0.1	782.7
81330	20.166	3.	0.1	815.55
81331	20.216	3.05	0.1	804.58
81332	20.067	3.	0.1	837.52
81333	20.116	3.05	0.1	826.51
81334	19.967	3.	0.1	859.55
81335	20.017	3.05	0.1	848.52
81336	19.867	3.	0.1	881.65
81337	19.917	3.05	0.1	870.58
81338	19.768	3.	0.1	903.8
81339	19.818	3.05	0.1	892.7
81340	19.668	3.	0.1	926.02
81341	19.718	3.05	0.1	914.89
81342	19.569	3.	0.1	948.29
81343	19.618	3.05	0.1	937.14
81344	19.469	3.	0.1	970.63
81345	19.519	3.05	0.1	959.45
81346	19.369	3.	0.1	993.04
81347	19.419	3.05	0.1	981.82
81348	19.27	3.	0.1	1015.5
81349	19.32	3.05	0.1	1004.2
81350	19.17	3.	0.1	1038.
81351	19.22	3.05	0.1	1026.7
81352	19.071	3.	0.1	1060.6
81353	19.121	3.05	0.1	1049.3
81354	18.971	3.	0.1	1083.3
81355	19.021	3.05	0.1	1071.9
81356	18.872	3.	0.1	1106.
81357	18.921	3.05	0.1	1094.6
81358	18.772	3.	0.1	1128.7
81359	18.822	3.05	0.1	1117.3
81360	18.672	3.	0.1	1151.6
81361	18.722	3.05	0.1	1140.1
81362	18.573	3.	0.1	1174.4
81363	18.623	3.05	0.1	1163.
81364	18.473	3.	0.1	1197.4
81365	18.523	3.05	0.1	1185.9
81366	18.374	3.	0.1	1220.4
81367	18.423	3.05	0.1	1208.9
81368	18.274	3.	0.1	1243.5
81369	18.324	3.05	0.1	1231.9
81370	18.175	3.	0.1	1266.6
81371	18.224	3.05	0.1	1255.
81372	18.075	3.	0.1	1289.8
81373	18.125	3.05	0.1	1278.2
81374	17.975	3.	0.1	1313.
81375	18.025	3.05	0.1	1301.4
81376	17.876	3.	0.1	1336.3
81377	17.926	3.05	0.1	1324.7
81378	17.776	3.	0.1	1359.7
81379	17.826	3.05	0.1	1348.
81380	17.677	3.	0.1	1383.1
81381	17.726	3.05	0.1	1371.4
81382	17.577	3.	0.1	1406.6
81383	17.627	3.05	0.1	1394.8
81384	17.477	3.	0.1	1430.1
81385	17.527	3.05	0.1	1418.3
81386	17.378	3.	0.1	1453.7
81387	17.428	3.05	0.1	1441.9
81388	17.278	3.	0.1	1477.4
81389	17.328	3.05	0.1	1465.5
81390	17.179	3.	0.1	1501.1
81391	17.229	3.05	0.1	1489.2
81392	17.079	3.	0.1	1524.8
81393	17.129	3.05	0.1	1512.9
81394	16.98	3.	0.1	1548.7
81395	17.029	3.05	0.1	1536.7
81396	16.88	3.	0.1	1572.5
81397	16.93	3.05	0.1	1560.6
81398	16.78	3.	0.1	1596.5
81399	16.83	3.05	0.1	1584.5
81400	16.681	3.	0.1	1620.5
81401	16.731	3.05	0.1	1608.5
81402	16.581	3.	0.1	1644.5
81403	16.631	3.05	0.1	1632.5
81404	16.482	3.	0.1	1668.6
81405	16.531	3.05	0.1	1656.5
81406	16.382	3.	0.1	1692.8
81407	16.432	3.05	0.1	1680.7
81408	16.282	3.	0.1	1717.
81409	16.332	3.05	0.1	1704.9
81410	16.183	3.	0.1	1741.2
81411	16.233	3.05	0.1	1729.1
81412	16.083	3.	0.1	1765.6
81413	16.133	3.05	0.1	1753.4
81414	15.984	3.	0.1	1789.9
81415	16.034	3.05	0.1	1777.7
81416	15.884	3.	0.1	1814.4
81417	15.934	3.05	0.1	1802.1
81418	15.785	3.	0.1	1838.8
81419	15.834	3.05	0.1	1826.6
81420	15.685	3.	0.1	1863.4
81421	15.735	3.05	0.1	1851.1
81422	15.585	3.	0.1	1888.
81423	15.635	3.05	0.1	1875.7
81424	15.486	3.	0.1	1912.6
81425	15.536	3.05	0.1	1900.3
81426	15.386	3.	0.1	1937.3
81427	15.436	3.05	0.1	1925.
81428	15.287	3.	0.1	1962.1
81429	15.336	3.05	0.1	1949.7
81430	15.187	3.	0.1	1986.9
81431	15.237	3.05	0.1	1974.5
81432	15.088	3.	0.1	2011.8
81433	15.137	3.05	0.1	1999.3
81434	14.988	3.	0.1	2036.7
81435	15.038	3.05	0.1	2024.2
81436	14.888	3.	0.1	2061.7
81437	14.938	3.05	0.1	2049.2
81438	14.789	3.	0.1	2086.7
81439	14.839	3.05	0.1	2074.2
81440	14.689	3.	0.1	2111.8
81441	14.739	3.05	0.1	2099.3
81442	14.59	3.	0.1	2137.
81443	14.639	3.05	0.1	2124.4
81444	14.49	3.	0.1	2162.3
81445	14.54	3.05	0.1	2149.6
81446	14.39	3.	0.1	2187.6
81447	14.44	3.05	0.1	2174.9
81448	14.291	3.	0.1	2212.9
81449	14.341	3.05	0.1	2200.2
81450	14.191	3.	0.1	2238.4
81451	14.241	3.05	0.1	2225.7
81452	14.092	3.	0.1	2263.9
81453	14.142	3.05	0.1	2251.1
81454	13.992	3.	0.1	2289.5
81455	14.042	3.05	0.1	2276.7
81456	13.893	3.	0.1	2315.2
81457	13.942	3.05	0.1	2302.3
81458	13.793	3.	0.1	2341.
81459	13.843	3.05	0.1	2328.1
81460	13.693	3.	0.1	2366.9
81461	13.743	3.05	0.1	2353.9
81462	13.594	3.	0.1	2392.9
81463	13.644	3.05	0.1	2379.9
81464	13.494	3.	0.1	2419.
81465	13.544	3.05	0.1	2405.9
81466	13.395	3.	0.1	2445.2
81467	13.444	3.05	0.1	2432.1
81468	13.295	3.	0.1	2471.6
81469	13.345	3.05	0.1	2458.4
81470	13.195	3.	0.1	2498.2
81471	13.245	3.05	0.1	2484.9
81472	13.096	3.	0.1	2524.9
81473	13.146	3.05	0.1	2511.5
81474	12.996	3.	0.1	2551.8
81475	13.046	3.05	0.1	2538.3
81476	12.897	3.	0.1	2578.9
81477	12.947	3.05	0.1	2565.3
81478	12.797	3.	0.1	2606.3
81479	12.847	3.05	0.1	2592.6
81480	12.698	3.	0.1	2634.
81481	12.747	3.05	0.1	2620.1
81482	12.598	3.	0.1	2661.9
81483	12.648	3.05	0.1	2647.9
81484	12.498	3.	0.1	2690.3
81485	12.548	3.05	0.1	2676.
81486	12.399	3.	0.1	2719.
81487	12.449	3.05	0.1	2704.5
81488	12.299	3.	0.1	2748.2
81489	12.349	3.05	0.1	2733.4
81490	12.2	3.	0.1	2777.8
81491	12.249	3.05	0.1	2762.8
81492	12.1	3.	0.1	2808.1
81493	12.15	3.05	0.1	2792.8
81494	12.001	3.	0.1	2839.1
81495	12.05	3.05	0.1	2823.4
81496	11.901	3.	0.1	2870.8
81497	11.951	3.05	0.1	2854.7
81498	11.801	3.	0.1	2903.3
81499	11.851	3.05	0.1	2886.8
81500	11.702	3.	0.1	2936.9
81501	11.752	3.05	0.1	2919.8
81502	11.602	3.	0.1	2971.6
81503	11.652	3.05	0.1	2953.9
81504	11.503	3.	0.1	3007.6
81505	11.552	3.05	0.1	2989.1
81506	11.403	3.	0.1	3045.1
81507	11.453	3.05	0.1	3025.8
81508	11.303	3.	0.1	3084.2
81509	11.353	3.05	0.1	3064.
81510	11.204	3.	0.1	3125.3
81511	11.254	3.05	0.1	3104.1
81512	11.104	3.	0.1	3168.6
81513	11.154	3.05	0.1	3146.1
81514	11.005	3.	0.1	3214.5
81515	11.055	3.05	0.1	3190.6
81516	10.905	3.	0.1	3263.3
81517	10.955	3.05	0.1	3237.7
81518	10.806	3.	0.1	3315.3
81519	10.855	3.05	0.1	3288.
81520	10.706	3.	0.1	3371.3
81521	10.756	3.05	0.1	3341.8
81522	10.606	3.	0.1	3431.5
81523	10.656	3.05	0.1	3399.6
81524	10.507	3.	0.1	3496.9
81525	10.557	3.05	0.1	3462.2
81526	10.407	3.	0.1	3567.9
81527	10.457	3.05	0.1	3530.
81528	10.308	3.	0.1	3645.6
81529	10.357	3.05	0.1	3604.
81530	10.208	3.	0.1	3730.9
81531	10.258	3.05	0.1	3685.1
81532	10.108	3.	0.1	3824.9
81533	10.158	3.05	0.1	3774.3
81534	10.009	3.	0.1	3929.
81535	10.059	3.05	0.1	3872.7
81536	9.9093	3.	0.1	4044.5
81537	9.9591	3.05	0.1	3981.9
81538	9.8097	3.	0.1	4173.3
81539	9.8595	3.05	0.1	4103.3
81540	9.7102	3.	0.1	4317.2
81541	9.76	3.05	0.1	4238.7
81542	9.6106	3.	0.1	4478.3
81543	9.6604	3.05	0.1	4390.3
81544	9.511	3.	0.1	4659.1
81545	9.5608	3.05	0.1	4560.2
81546	9.4114	3.	0.1	4862.1
81547	9.4612	3.05	0.1	4750.9
81548	9.3118	3.	0.1	5090.
81549	9.3616	3.05	0.1	4965.2
81550	9.2123	3.	0.1	5345.4
81551	9.2621	3.05	0.1	5205.8
81552	9.1127	3.	0.1	5630.5
81553	9.1625	3.05	0.1	5475.1
81554	9.0131	3.	0.1	5946.8
81555	9.0629	3.05	0.1	5775.4
81556	8.9135	3.	0.1	6294.
81557	8.9633	3.05	0.1	6107.6
81558	8.8139	3.	0.1	6669.7
81559	8.8637	3.05	0.1	6470.7
81560	8.7144	3.	0.1	7067.3
81561	8.7642	3.05	0.1	6860.9
81562	8.6148	3.	0.1	7475.3
81563	8.6646	3.05	0.1	7269.8
81564	8.5152	3.	0.1	7876.3
81565	8.565	3.05	0.1	7683.
81566	8.4156	3.	0.1	8247.1
81567	8.4654	3.05	0.1	8080.1
81568	8.316	3.	0.1	8560.4
81569	8.3658	3.05	0.1	8434.4
81570	8.2662	3.05	0.1	8716.7
81571	8.2165	3.	0.1	8788.1
81572	23.851	3.1	0.1	32.047
81573	23.9	3.15	0.1	21.583
81574	23.95	3.1	0.1	11.858
81575	23.751	3.1	0.1	53.182
81576	23.801	3.15	0.1	42.616
81577	23.651	3.1	0.1	74.329
81578	23.701	3.15	0.1	63.767
81579	23.552	3.1	0.1	95.435
81580	23.602	3.15	0.1	84.891
81581	23.452	3.1	0.1	116.5
81582	23.502	3.15	0.1	105.97
81583	23.353	3.1	0.1	137.51
81584	23.403	3.15	0.1	127.
81585	23.253	3.1	0.1	158.48
81586	23.303	3.15	0.1	147.99
81587	23.154	3.1	0.1	179.41
81588	23.203	3.15	0.1	168.94
81589	23.054	3.1	0.1	200.31
81590	23.104	3.15	0.1	189.85
81591	22.954	3.1	0.1	221.18
81592	23.004	3.15	0.1	210.73
81593	22.855	3.1	0.1	242.04
81594	22.905	3.15	0.1	231.59
81595	22.755	3.1	0.1	262.89
81596	22.805	3.15	0.1	252.44
81597	22.656	3.1	0.1	283.73
81598	22.705	3.15	0.1	273.28
81599	22.556	3.1	0.1	304.57
81600	22.606	3.15	0.1	294.12
81601	22.456	3.1	0.1	325.41
81602	22.506	3.15	0.1	314.96
81603	22.357	3.1	0.1	346.28
81604	22.407	3.15	0.1	335.81
81605	22.257	3.1	0.1	367.15
81606	22.307	3.15	0.1	356.68
81607	22.158	3.1	0.1	388.06
81608	22.208	3.15	0.1	377.57
81609	22.058	3.1	0.1	408.98
81610	22.108	3.15	0.1	398.49
81611	21.959	3.1	0.1	429.95
81612	22.008	3.15	0.1	419.43
81613	21.859	3.1	0.1	450.94
81614	21.909	3.15	0.1	440.41
81615	21.759	3.1	0.1	471.98
81616	21.809	3.15	0.1	461.42
81617	21.66	3.1	0.1	493.05
81618	21.71	3.15	0.1	482.48
81619	21.56	3.1	0.1	514.18
81620	21.61	3.15	0.1	503.58
81621	21.461	3.1	0.1	535.34
81622	21.51	3.15	0.1	524.72
81623	21.361	3.1	0.1	556.56
81624	21.411	3.15	0.1	545.92
81625	21.262	3.1	0.1	577.83
81626	21.311	3.15	0.1	567.16
81627	21.162	3.1	0.1	599.16
81628	21.212	3.15	0.1	588.46
81629	21.062	3.1	0.1	620.53
81630	21.112	3.15	0.1	609.81
81631	20.963	3.1	0.1	641.97
81632	21.013	3.15	0.1	631.22
81633	20.863	3.1	0.1	663.46
81634	20.913	3.15	0.1	652.68
81635	20.764	3.1	0.1	685.
81636	20.813	3.15	0.1	674.2
81637	20.664	3.1	0.1	706.61
81638	20.714	3.15	0.1	695.78
81639	20.564	3.1	0.1	728.28
81640	20.614	3.15	0.1	717.42
81641	20.465	3.1	0.1	750.01
81642	20.515	3.15	0.1	739.12
81643	20.365	3.1	0.1	771.79
81644	20.415	3.15	0.1	760.87
81645	20.266	3.1	0.1	793.64
81646	20.316	3.15	0.1	782.69
81647	20.166	3.1	0.1	815.55
81648	20.216	3.15	0.1	804.57
81649	20.067	3.1	0.1	837.52
81650	20.116	3.15	0.1	826.51
81651	19.967	3.1	0.1	859.55
81652	20.017	3.15	0.1	848.52
81653	19.867	3.1	0.1	881.65
81654	19.917	3.15	0.1	870.58
81655	19.768	3.1	0.1	903.8
81656	19.818	3.15	0.1	892.71
81657	19.668	3.1	0.1	926.02
81658	19.718	3.15	0.1	914.89
81659	19.569	3.1	0.1	948.3
81660	19.618	3.15	0.1	937.14
81661	19.469	3.1	0.1	970.64
81662	19.519	3.15	0.1	959.45
81663	19.369	3.1	0.1	993.04
81664	19.419	3.15	0.1	981.83
81665	19.27	3.1	0.1	1015.5
81666	19.32	3.15	0.1	1004.3
81667	19.17	3.1	0.1	1038.
81668	19.22	3.15	0.1	1026.8
81669	19.071	3.1	0.1	1060.6
81670	19.121	3.15	0.1	1049.3
81671	18.971	3.1	0.1	1083.3
81672	19.021	3.15	0.1	1071.9
81673	18.872	3.1	0.1	1106.
81674	18.921	3.15	0.1	1094.6
81675	18.772	3.1	0.1	1128.7
81676	18.822	3.15	0.1	1117.3
81677	18.672	3.1	0.1	1151.6
81678	18.722	3.15	0.1	1140.1
81679	18.573	3.1	0.1	1174.5
81680	18.623	3.15	0.1	1163.
81681	18.473	3.1	0.1	1197.4
81682	18.523	3.15	0.1	1185.9
81683	18.374	3.1	0.1	1220.4
81684	18.423	3.15	0.1	1208.9
81685	18.274	3.1	0.1	1243.5
81686	18.324	3.15	0.1	1231.9
81687	18.175	3.1	0.1	1266.6
81688	18.224	3.15	0.1	1255.
81689	18.075	3.1	0.1	1289.8
81690	18.125	3.15	0.1	1278.2
81691	17.975	3.1	0.1	1313.
81692	18.025	3.15	0.1	1301.4
81693	17.876	3.1	0.1	1336.3
81694	17.926	3.15	0.1	1324.7
81695	17.776	3.1	0.1	1359.7
81696	17.826	3.15	0.1	1348.
81697	17.677	3.1	0.1	1383.1
81698	17.726	3.15	0.1	1371.4
81699	17.577	3.1	0.1	1406.6
81700	17.627	3.15	0.1	1394.9
81701	17.477	3.1	0.1	1430.1
81702	17.527	3.15	0.1	1418.4
81703	17.378	3.1	0.1	1453.7
81704	17.428	3.15	0.1	1441.9
81705	17.278	3.1	0.1	1477.4
81706	17.328	3.15	0.1	1465.6
81707	17.179	3.1	0.1	1501.1
81708	17.229	3.15	0.1	1489.2
81709	17.079	3.1	0.1	1524.9
81710	17.129	3.15	0.1	1513.
81711	16.98	3.1	0.1	1548.7
81712	17.029	3.15	0.1	1536.8
81713	16.88	3.1	0.1	1572.6
81714	16.93	3.15	0.1	1560.6
81715	16.78	3.1	0.1	1596.5
81716	16.83	3.15	0.1	1584.5
81717	16.681	3.1	0.1	1620.5
81718	16.731	3.15	0.1	1608.5
81719	16.581	3.1	0.1	1644.5
81720	16.631	3.15	0.1	1632.5
81721	16.482	3.1	0.1	1668.6
81722	16.531	3.15	0.1	1656.6
81723	16.382	3.1	0.1	1692.8
81724	16.432	3.15	0.1	1680.7
81725	16.282	3.1	0.1	1717.
81726	16.332	3.15	0.1	1704.9
81727	16.183	3.1	0.1	1741.3
81728	16.233	3.15	0.1	1729.1
81729	16.083	3.1	0.1	1765.6
81730	16.133	3.15	0.1	1753.4
81731	15.984	3.1	0.1	1789.9
81732	16.034	3.15	0.1	1777.8
81733	15.884	3.1	0.1	1814.4
81734	15.934	3.15	0.1	1802.2
81735	15.785	3.1	0.1	1838.9
81736	15.834	3.15	0.1	1826.6
81737	15.685	3.1	0.1	1863.4
81738	15.735	3.15	0.1	1851.1
81739	15.585	3.1	0.1	1888.
81740	15.635	3.15	0.1	1875.7
81741	15.486	3.1	0.1	1912.6
81742	15.536	3.15	0.1	1900.3
81743	15.386	3.1	0.1	1937.3
81744	15.436	3.15	0.1	1925.
81745	15.287	3.1	0.1	1962.1
81746	15.336	3.15	0.1	1949.7
81747	15.187	3.1	0.1	1986.9
81748	15.237	3.15	0.1	1974.5
81749	15.088	3.1	0.1	2011.8
81750	15.137	3.15	0.1	1999.4
81751	14.988	3.1	0.1	2036.7
81752	15.038	3.15	0.1	2024.3
81753	14.888	3.1	0.1	2061.7
81754	14.938	3.15	0.1	2049.2
81755	14.789	3.1	0.1	2086.8
81756	14.839	3.15	0.1	2074.3
81757	14.689	3.1	0.1	2111.9
81758	14.739	3.15	0.1	2099.3
81759	14.59	3.1	0.1	2137.
81760	14.639	3.15	0.1	2124.5
81761	14.49	3.1	0.1	2162.3
81762	14.54	3.15	0.1	2149.7
81763	14.39	3.1	0.1	2187.6
81764	14.44	3.15	0.1	2175.
81765	14.291	3.1	0.1	2213.
81766	14.341	3.15	0.1	2200.3
81767	14.191	3.1	0.1	2238.4
81768	14.241	3.15	0.1	2225.7
81769	14.092	3.1	0.1	2263.9
81770	14.142	3.15	0.1	2251.2
81771	13.992	3.1	0.1	2289.5
81772	14.042	3.15	0.1	2276.8
81773	13.893	3.1	0.1	2315.2
81774	13.942	3.15	0.1	2302.4
81775	13.793	3.1	0.1	2341.
81776	13.843	3.15	0.1	2328.1
81777	13.693	3.1	0.1	2366.9
81778	13.743	3.15	0.1	2354.
81779	13.594	3.1	0.1	2392.9
81780	13.644	3.15	0.1	2379.9
81781	13.494	3.1	0.1	2419.
81782	13.544	3.15	0.1	2406.
81783	13.395	3.1	0.1	2445.3
81784	13.444	3.15	0.1	2432.1
81785	13.295	3.1	0.1	2471.6
81786	13.345	3.15	0.1	2458.5
81787	13.195	3.1	0.1	2498.2
81788	13.245	3.15	0.1	2484.9
81789	13.096	3.1	0.1	2524.9
81790	13.146	3.15	0.1	2511.5
81791	12.996	3.1	0.1	2551.8
81792	13.046	3.15	0.1	2538.3
81793	12.897	3.1	0.1	2578.9
81794	12.947	3.15	0.1	2565.3
81795	12.797	3.1	0.1	2606.3
81796	12.847	3.15	0.1	2592.6
81797	12.698	3.1	0.1	2634.
81798	12.747	3.15	0.1	2620.1
81799	12.598	3.1	0.1	2661.9
81800	12.648	3.15	0.1	2647.9
81801	12.498	3.1	0.1	2690.2
81802	12.548	3.15	0.1	2676.
81803	12.399	3.1	0.1	2719.
81804	12.449	3.15	0.1	2704.5
81805	12.299	3.1	0.1	2748.1
81806	12.349	3.15	0.1	2733.4
81807	12.2	3.1	0.1	2777.8
81808	12.249	3.15	0.1	2762.8
81809	12.1	3.1	0.1	2808.1
81810	12.15	3.15	0.1	2792.7
81811	12.001	3.1	0.1	2839.
81812	12.05	3.15	0.1	2823.2
81813	11.901	3.1	0.1	2870.7
81814	11.951	3.15	0.1	2854.5
81815	11.801	3.1	0.1	2903.2
81816	11.851	3.15	0.1	2886.5
81817	11.702	3.1	0.1	2936.7
81818	11.752	3.15	0.1	2919.5
81819	11.602	3.1	0.1	2971.4
81820	11.652	3.15	0.1	2953.5
81821	11.503	3.1	0.1	3007.3
81822	11.552	3.15	0.1	2988.7
81823	11.403	3.1	0.1	3044.8
81824	11.453	3.15	0.1	3025.2
81825	11.303	3.1	0.1	3083.8
81826	11.353	3.15	0.1	3063.3
81827	11.204	3.1	0.1	3124.9
81828	11.254	3.15	0.1	3103.2
81829	11.104	3.1	0.1	3168.1
81830	11.154	3.15	0.1	3145.1
81831	11.005	3.1	0.1	3213.8
81832	11.055	3.15	0.1	3189.4
81833	10.905	3.1	0.1	3262.5
81834	10.955	3.15	0.1	3236.3
81835	10.806	3.1	0.1	3314.4
81836	10.855	3.15	0.1	3286.3
81837	10.706	3.1	0.1	3370.2
81838	10.756	3.15	0.1	3339.8
81839	10.606	3.1	0.1	3430.3
81840	10.656	3.15	0.1	3397.3
81841	10.507	3.1	0.1	3495.4
81842	10.557	3.15	0.1	3459.4
81843	10.407	3.1	0.1	3566.2
81844	10.457	3.15	0.1	3526.8
81845	10.308	3.1	0.1	3643.6
81846	10.357	3.15	0.1	3600.3
81847	10.208	3.1	0.1	3728.5
81848	10.258	3.15	0.1	3680.7
81849	10.108	3.1	0.1	3822.1
81850	10.158	3.15	0.1	3769.1
81851	10.009	3.1	0.1	3925.7
81852	10.059	3.15	0.1	3866.7
81853	9.9093	3.1	0.1	4040.7
81854	9.9591	3.15	0.1	3974.8
81855	9.8097	3.1	0.1	4168.9
81856	9.8595	3.15	0.1	4095.1
81857	9.7102	3.1	0.1	4312.1
81858	9.76	3.15	0.1	4229.3
81859	9.6106	3.1	0.1	4472.5
81860	9.6604	3.15	0.1	4379.4
81861	9.511	3.1	0.1	4652.5
81862	9.5608	3.15	0.1	4547.8
81863	9.4114	3.1	0.1	4854.6
81864	9.4612	3.15	0.1	4736.9
81865	9.3118	3.1	0.1	5081.8
81866	9.3616	3.15	0.1	4949.6
81867	9.2123	3.1	0.1	5336.6
81868	9.2621	3.15	0.1	5188.6
81869	9.1127	3.1	0.1	5621.4
81870	9.1625	3.15	0.1	5456.9
81871	9.0131	3.1	0.1	5937.9
81872	9.0629	3.15	0.1	5756.9
81873	8.9135	3.1	0.1	6286.4
81874	8.9633	3.15	0.1	6090.2
81875	8.8139	3.1	0.1	6664.5
81876	8.8637	3.15	0.1	6456.6
81877	8.7144	3.1	0.1	7066.2
81878	8.7642	3.15	0.1	6853.1
81879	8.6148	3.1	0.1	7480.4
81880	8.6646	3.15	0.1	7272.
81881	8.5152	3.1	0.1	7889.5
81882	8.565	3.15	0.1	7699.7
81883	8.4156	3.1	0.1	8269.5
81884	8.4654	3.15	0.1	8115.
81885	8.316	3.1	0.1	8592.
81886	8.3658	3.15	0.1	8489.5
81887	8.2662	3.15	0.1	8790.1
81888	8.2165	3.1	0.1	8827.
81889	23.851	3.2	0.1	32.052
81890	23.9	3.25	0.1	21.593
81891	23.95	3.2	0.1	11.861
81892	23.751	3.2	0.1	53.183
81893	23.801	3.25	0.1	42.62
81894	23.651	3.2	0.1	74.324
81895	23.701	3.25	0.1	63.765
81896	23.552	3.2	0.1	95.426
81897	23.602	3.25	0.1	84.882
81898	23.452	3.2	0.1	116.48
81899	23.502	3.25	0.1	105.96
81900	23.353	3.2	0.1	137.49
81901	23.403	3.25	0.1	126.98
81902	23.253	3.2	0.1	158.45
81903	23.303	3.25	0.1	147.96
81904	23.154	3.2	0.1	179.38
81905	23.203	3.25	0.1	168.9
81906	23.054	3.2	0.1	200.28
81907	23.104	3.25	0.1	189.81
81908	22.954	3.2	0.1	221.15
81909	23.004	3.25	0.1	210.69
81910	22.855	3.2	0.1	242.
81911	22.905	3.25	0.1	231.54
81912	22.755	3.2	0.1	262.84
81913	22.805	3.25	0.1	252.39
81914	22.656	3.2	0.1	283.68
81915	22.705	3.25	0.1	273.22
81916	22.556	3.2	0.1	304.52
81917	22.606	3.25	0.1	294.06
81918	22.456	3.2	0.1	325.37
81919	22.506	3.25	0.1	314.9
81920	22.357	3.2	0.1	346.23
81921	22.407	3.25	0.1	335.75
81922	22.257	3.2	0.1	367.11
81923	22.307	3.25	0.1	356.62
81924	22.158	3.2	0.1	388.01
81925	22.208	3.25	0.1	377.51
81926	22.058	3.2	0.1	408.94
81927	22.108	3.25	0.1	398.42
81928	21.959	3.2	0.1	429.9
81929	22.008	3.25	0.1	419.37
81930	21.859	3.2	0.1	450.9
81931	21.909	3.25	0.1	440.34
81932	21.759	3.2	0.1	471.93
81933	21.809	3.25	0.1	461.36
81934	21.66	3.2	0.1	493.01
81935	21.71	3.25	0.1	482.42
81936	21.56	3.2	0.1	514.13
81937	21.61	3.25	0.1	503.52
81938	21.461	3.2	0.1	535.31
81939	21.51	3.25	0.1	524.67
81940	21.361	3.2	0.1	556.53
81941	21.411	3.25	0.1	545.87
81942	21.262	3.2	0.1	577.8
81943	21.311	3.25	0.1	567.12
81944	21.162	3.2	0.1	599.12
81945	21.212	3.25	0.1	588.42
81946	21.062	3.2	0.1	620.5
81947	21.112	3.25	0.1	609.77
81948	20.963	3.2	0.1	641.94
81949	21.013	3.25	0.1	631.18
81950	20.863	3.2	0.1	663.43
81951	20.913	3.25	0.1	652.65
81952	20.764	3.2	0.1	684.98
81953	20.813	3.25	0.1	674.17
81954	20.664	3.2	0.1	706.59
81955	20.714	3.25	0.1	695.76
81956	20.564	3.2	0.1	728.26
81957	20.614	3.25	0.1	717.4
81958	20.465	3.2	0.1	749.99
81959	20.515	3.25	0.1	739.1
81960	20.365	3.2	0.1	771.78
81961	20.415	3.25	0.1	760.86
81962	20.266	3.2	0.1	793.63
81963	20.316	3.25	0.1	782.68
81964	20.166	3.2	0.1	815.55
81965	20.216	3.25	0.1	804.57
81966	20.067	3.2	0.1	837.52
81967	20.116	3.25	0.1	826.51
81968	19.967	3.2	0.1	859.55
81969	20.017	3.25	0.1	848.52
81970	19.867	3.2	0.1	881.65
81971	19.917	3.25	0.1	870.58
81972	19.768	3.2	0.1	903.81
81973	19.818	3.25	0.1	892.71
81974	19.668	3.2	0.1	926.03
81975	19.718	3.25	0.1	914.9
81976	19.569	3.2	0.1	948.31
81977	19.618	3.25	0.1	937.16
81978	19.469	3.2	0.1	970.65
81979	19.519	3.25	0.1	959.47
81980	19.369	3.2	0.1	993.06
81981	19.419	3.25	0.1	981.84
81982	19.27	3.2	0.1	1015.5
81983	19.32	3.25	0.1	1004.3
81984	19.17	3.2	0.1	1038.
81985	19.22	3.25	0.1	1026.8
81986	19.071	3.2	0.1	1060.6
81987	19.121	3.25	0.1	1049.3
81988	18.971	3.2	0.1	1083.3
81989	19.021	3.25	0.1	1072.
81990	18.872	3.2	0.1	1106.
81991	18.921	3.25	0.1	1094.6
81992	18.772	3.2	0.1	1128.8
81993	18.822	3.25	0.1	1117.4
81994	18.672	3.2	0.1	1151.6
81995	18.722	3.25	0.1	1140.2
81996	18.573	3.2	0.1	1174.5
81997	18.623	3.25	0.1	1163.
81998	18.473	3.2	0.1	1197.4
81999	18.523	3.25	0.1	1186.
82000	18.374	3.2	0.1	1220.4
82001	18.423	3.25	0.1	1208.9
82002	18.274	3.2	0.1	1243.5
82003	18.324	3.25	0.1	1232.
82004	18.175	3.2	0.1	1266.6
82005	18.224	3.25	0.1	1255.1
82006	18.075	3.2	0.1	1289.8
82007	18.125	3.25	0.1	1278.2
82008	17.975	3.2	0.1	1313.1
82009	18.025	3.25	0.1	1301.5
82010	17.876	3.2	0.1	1336.4
82011	17.926	3.25	0.1	1324.7
82012	17.776	3.2	0.1	1359.7
82013	17.826	3.25	0.1	1348.1
82014	17.677	3.2	0.1	1383.2
82015	17.726	3.25	0.1	1371.5
82016	17.577	3.2	0.1	1406.6
82017	17.627	3.25	0.1	1394.9
82018	17.477	3.2	0.1	1430.2
82019	17.527	3.25	0.1	1418.4
82020	17.378	3.2	0.1	1453.8
82021	17.428	3.25	0.1	1442.
82022	17.278	3.2	0.1	1477.4
82023	17.328	3.25	0.1	1465.6
82024	17.179	3.2	0.1	1501.1
82025	17.229	3.25	0.1	1489.3
82026	17.079	3.2	0.1	1524.9
82027	17.129	3.25	0.1	1513.
82028	16.98	3.2	0.1	1548.7
82029	17.029	3.25	0.1	1536.8
82030	16.88	3.2	0.1	1572.6
82031	16.93	3.25	0.1	1560.7
82032	16.78	3.2	0.1	1596.5
82033	16.83	3.25	0.1	1584.6
82034	16.681	3.2	0.1	1620.5
82035	16.731	3.25	0.1	1608.6
82036	16.581	3.2	0.1	1644.6
82037	16.631	3.25	0.1	1632.6
82038	16.482	3.2	0.1	1668.7
82039	16.531	3.25	0.1	1656.7
82040	16.382	3.2	0.1	1692.8
82041	16.432	3.25	0.1	1680.8
82042	16.282	3.2	0.1	1717.
82043	16.332	3.25	0.1	1705.
82044	16.183	3.2	0.1	1741.3
82045	16.233	3.25	0.1	1729.2
82046	16.083	3.2	0.1	1765.6
82047	16.133	3.25	0.1	1753.5
82048	15.984	3.2	0.1	1790.
82049	16.034	3.25	0.1	1777.9
82050	15.884	3.2	0.1	1814.4
82051	15.934	3.25	0.1	1802.3
82052	15.785	3.2	0.1	1838.9
82053	15.834	3.25	0.1	1826.7
82054	15.685	3.2	0.1	1863.5
82055	15.735	3.25	0.1	1851.2
82056	15.585	3.2	0.1	1888.1
82057	15.635	3.25	0.1	1875.8
82058	15.486	3.2	0.1	1912.7
82059	15.536	3.25	0.1	1900.4
82060	15.386	3.2	0.1	1937.4
82061	15.436	3.25	0.1	1925.1
82062	15.287	3.2	0.1	1962.2
82063	15.336	3.25	0.1	1949.8
82064	15.187	3.2	0.1	1987.
82065	15.237	3.25	0.1	1974.6
82066	15.088	3.2	0.1	2011.9
82067	15.137	3.25	0.1	1999.5
82068	14.988	3.2	0.1	2036.8
82069	15.038	3.25	0.1	2024.4
82070	14.888	3.2	0.1	2061.8
82071	14.938	3.25	0.1	2049.4
82072	14.789	3.2	0.1	2086.8
82073	14.839	3.25	0.1	2074.4
82074	14.689	3.2	0.1	2112.
82075	14.739	3.25	0.1	2099.5
82076	14.59	3.2	0.1	2137.1
82077	14.639	3.25	0.1	2124.6
82078	14.49	3.2	0.1	2162.4
82079	14.54	3.25	0.1	2149.8
82080	14.39	3.2	0.1	2187.7
82081	14.44	3.25	0.1	2175.1
82082	14.291	3.2	0.1	2213.1
82083	14.341	3.25	0.1	2200.4
82084	14.191	3.2	0.1	2238.5
82085	14.241	3.25	0.1	2225.8
82086	14.092	3.2	0.1	2264.
82087	14.142	3.25	0.1	2251.3
82088	13.992	3.2	0.1	2289.6
82089	14.042	3.25	0.1	2276.9
82090	13.893	3.2	0.1	2315.3
82091	13.942	3.25	0.1	2302.5
82092	13.793	3.2	0.1	2341.1
82093	13.843	3.25	0.1	2328.3
82094	13.693	3.2	0.1	2367.
82095	13.743	3.25	0.1	2354.1
82096	13.594	3.2	0.1	2393.
82097	13.644	3.25	0.1	2380.
82098	13.494	3.2	0.1	2419.1
82099	13.544	3.25	0.1	2406.1
82100	13.395	3.2	0.1	2445.3
82101	13.444	3.25	0.1	2432.3
82102	13.295	3.2	0.1	2471.7
82103	13.345	3.25	0.1	2458.6
82104	13.195	3.2	0.1	2498.3
82105	13.245	3.25	0.1	2485.
82106	13.096	3.2	0.1	2525.
82107	13.146	3.25	0.1	2511.6
82108	12.996	3.2	0.1	2551.9
82109	13.046	3.25	0.1	2538.4
82110	12.897	3.2	0.1	2579.
82111	12.947	3.25	0.1	2565.4
82112	12.797	3.2	0.1	2606.4
82113	12.847	3.25	0.1	2592.6
82114	12.698	3.2	0.1	2634.
82115	12.747	3.25	0.1	2620.1
82116	12.598	3.2	0.1	2661.9
82117	12.648	3.25	0.1	2647.9
82118	12.498	3.2	0.1	2690.2
82119	12.548	3.25	0.1	2676.
82120	12.399	3.2	0.1	2718.9
82121	12.449	3.25	0.1	2704.4
82122	12.299	3.2	0.1	2748.
82123	12.349	3.25	0.1	2733.3
82124	12.2	3.2	0.1	2777.6
82125	12.249	3.25	0.1	2762.6
82126	12.1	3.2	0.1	2807.9
82127	12.15	3.25	0.1	2792.5
82128	12.001	3.2	0.1	2838.7
82129	12.05	3.25	0.1	2822.9
82130	11.901	3.2	0.1	2870.3
82131	11.951	3.25	0.1	2854.1
82132	11.801	3.2	0.1	2902.8
82133	11.851	3.25	0.1	2886.
82134	11.702	3.2	0.1	2936.2
82135	11.752	3.25	0.1	2918.8
82136	11.602	3.2	0.1	2970.7
82137	11.652	3.25	0.1	2952.7
82138	11.503	3.2	0.1	3006.5
82139	11.552	3.25	0.1	2987.7
82140	11.403	3.2	0.1	3043.8
82141	11.453	3.25	0.1	3024.1
82142	11.303	3.2	0.1	3082.7
82143	11.353	3.25	0.1	3061.9
82144	11.204	3.2	0.1	3123.5
82145	11.254	3.25	0.1	3101.6
82146	11.104	3.2	0.1	3166.5
82147	11.154	3.25	0.1	3143.2
82148	11.005	3.2	0.1	3211.9
82149	11.055	3.25	0.1	3187.
82150	10.905	3.2	0.1	3260.2
82151	10.955	3.25	0.1	3233.5
82152	10.806	3.2	0.1	3311.7
82153	10.855	3.25	0.1	3283.
82154	10.706	3.2	0.1	3366.9
82155	10.756	3.25	0.1	3335.9
82156	10.606	3.2	0.1	3426.5
82157	10.656	3.25	0.1	3392.7
82158	10.507	3.2	0.1	3490.9
82159	10.557	3.25	0.1	3454.
82160	10.407	3.2	0.1	3560.9
82161	10.457	3.25	0.1	3520.4
82162	10.308	3.2	0.1	3637.4
82163	10.357	3.25	0.1	3592.8
82164	10.208	3.2	0.1	3721.3
82165	10.258	3.25	0.1	3671.9
82166	10.108	3.2	0.1	3813.7
82167	10.158	3.25	0.1	3758.8
82168	10.009	3.2	0.1	3915.9
82169	10.059	3.25	0.1	3854.7
82170	9.9093	3.2	0.1	4029.3
82171	9.9591	3.25	0.1	3960.9
82172	9.8097	3.2	0.1	4155.7
82173	9.8595	3.25	0.1	4078.9
82174	9.7102	3.2	0.1	4296.8
82175	9.76	3.25	0.1	4210.5
82176	9.6106	3.2	0.1	4455.
82177	9.6604	3.25	0.1	4357.8
82178	9.511	3.2	0.1	4632.6
82179	9.5608	3.25	0.1	4523.1
82180	9.4114	3.2	0.1	4832.4
82181	9.4612	3.25	0.1	4709.
82182	9.3118	3.2	0.1	5057.2
82183	9.3616	3.25	0.1	4918.3
82184	9.2123	3.2	0.1	5310.
82185	9.2621	3.25	0.1	5154.3
82186	9.1127	3.2	0.1	5593.8
82187	9.1625	3.25	0.1	5420.2
82188	9.0131	3.2	0.1	5910.9
82189	9.0629	3.25	0.1	5719.3
82190	8.9135	3.2	0.1	6262.6
82191	8.9633	3.25	0.1	6054.3
82192	8.8139	3.2	0.1	6647.8
82193	8.8637	3.25	0.1	6426.4
82194	8.7144	3.2	0.1	7061.7
82195	8.7642	3.25	0.1	6834.6
82196	8.6148	3.2	0.1	7494.4
82197	8.6646	3.25	0.1	7273.4
82198	8.5152	3.2	0.1	7928.1
82199	8.565	3.25	0.1	7730.3
82200	8.4156	3.2	0.1	8337.1
82201	8.4654	3.25	0.1	8183.7
82202	8.316	3.2	0.1	8688.7
82203	8.3658	3.25	0.1	8601.2
82204	8.2662	3.25	0.1	8942.1
82205	8.2165	3.2	0.1	8946.8
82206	23.851	3.3	0.1	32.061
82207	23.9	3.35	0.1	21.607
82208	23.95	3.3	0.1	11.867
82209	23.751	3.3	0.1	53.183
82210	23.801	3.35	0.1	42.625
82211	23.651	3.3	0.1	74.317
82212	23.701	3.35	0.1	63.76
82213	23.552	3.3	0.1	95.411
82214	23.602	3.35	0.1	84.869
82215	23.452	3.3	0.1	116.46
82216	23.502	3.35	0.1	105.93
82217	23.353	3.3	0.1	137.46
82218	23.403	3.35	0.1	126.95
82219	23.253	3.3	0.1	158.41
82220	23.303	3.35	0.1	147.92
82221	23.154	3.3	0.1	179.33
82222	23.203	3.35	0.1	168.85
82223	23.054	3.3	0.1	200.22
82224	23.104	3.35	0.1	189.75
82225	22.954	3.3	0.1	221.09
82226	23.004	3.35	0.1	210.62
82227	22.855	3.3	0.1	241.94
82228	22.905	3.35	0.1	231.47
82229	22.755	3.3	0.1	262.77
82230	22.805	3.35	0.1	252.31
82231	22.656	3.3	0.1	283.61
82232	22.705	3.35	0.1	273.14
82233	22.556	3.3	0.1	304.44
82234	22.606	3.35	0.1	293.97
82235	22.456	3.3	0.1	325.29
82236	22.506	3.35	0.1	314.8
82237	22.357	3.3	0.1	346.15
82238	22.407	3.35	0.1	335.65
82239	22.257	3.3	0.1	367.02
82240	22.307	3.35	0.1	356.52
82241	22.158	3.3	0.1	387.93
82242	22.208	3.35	0.1	377.41
82243	22.058	3.3	0.1	408.86
82244	22.108	3.35	0.1	398.32
82245	21.959	3.3	0.1	429.82
82246	22.008	3.35	0.1	419.27
82247	21.859	3.3	0.1	450.82
82248	21.909	3.35	0.1	440.25
82249	21.759	3.3	0.1	471.86
82250	21.809	3.35	0.1	461.27
82251	21.66	3.3	0.1	492.94
82252	21.71	3.35	0.1	482.33
82253	21.56	3.3	0.1	514.07
82254	21.61	3.35	0.1	503.44
82255	21.461	3.3	0.1	535.24
82256	21.51	3.35	0.1	524.59
82257	21.361	3.3	0.1	556.47
82258	21.411	3.35	0.1	545.79
82259	21.262	3.3	0.1	577.74
82260	21.311	3.35	0.1	567.05
82261	21.162	3.3	0.1	599.07
82262	21.212	3.35	0.1	588.35
82263	21.062	3.3	0.1	620.46
82264	21.112	3.35	0.1	609.71
82265	20.963	3.3	0.1	641.9
82266	21.013	3.35	0.1	631.13
82267	20.863	3.3	0.1	663.4
82268	20.913	3.35	0.1	652.6
82269	20.764	3.3	0.1	684.95
82270	20.813	3.35	0.1	674.13
82271	20.664	3.3	0.1	706.57
82272	20.714	3.35	0.1	695.72
82273	20.564	3.3	0.1	728.24
82274	20.614	3.35	0.1	717.37
82275	20.465	3.3	0.1	749.97
82276	20.515	3.35	0.1	739.07
82277	20.365	3.3	0.1	771.77
82278	20.415	3.35	0.1	760.84
82279	20.266	3.3	0.1	793.62
82280	20.316	3.35	0.1	782.67
82281	20.166	3.3	0.1	815.54
82282	20.216	3.35	0.1	804.56
82283	20.067	3.3	0.1	837.52
82284	20.116	3.35	0.1	826.51
82285	19.967	3.3	0.1	859.56
82286	20.017	3.35	0.1	848.52
82287	19.867	3.3	0.1	881.66
82288	19.917	3.35	0.1	870.59
82289	19.768	3.3	0.1	903.82
82290	19.818	3.35	0.1	892.72
82291	19.668	3.3	0.1	926.04
82292	19.718	3.35	0.1	914.92
82293	19.569	3.3	0.1	948.33
82294	19.618	3.35	0.1	937.17
82295	19.469	3.3	0.1	970.67
82296	19.519	3.35	0.1	959.49
82297	19.369	3.3	0.1	993.08
82298	19.419	3.35	0.1	981.87
82299	19.27	3.3	0.1	1015.5
82300	19.32	3.35	0.1	1004.3
82301	19.17	3.3	0.1	1038.1
82302	19.22	3.35	0.1	1026.8
82303	19.071	3.3	0.1	1060.7
82304	19.121	3.35	0.1	1049.4
82305	18.971	3.3	0.1	1083.3
82306	19.021	3.35	0.1	1072.
82307	18.872	3.3	0.1	1106.
82308	18.921	3.35	0.1	1094.7
82309	18.772	3.3	0.1	1128.8
82310	18.822	3.35	0.1	1117.4
82311	18.672	3.3	0.1	1151.6
82312	18.722	3.35	0.1	1140.2
82313	18.573	3.3	0.1	1174.5
82314	18.623	3.35	0.1	1163.1
82315	18.473	3.3	0.1	1197.5
82316	18.523	3.35	0.1	1186.
82317	18.374	3.3	0.1	1220.5
82318	18.423	3.35	0.1	1209.
82319	18.274	3.3	0.1	1243.6
82320	18.324	3.35	0.1	1232.
82321	18.175	3.3	0.1	1266.7
82322	18.224	3.35	0.1	1255.2
82323	18.075	3.3	0.1	1289.9
82324	18.125	3.35	0.1	1278.3
82325	17.975	3.3	0.1	1313.1
82326	18.025	3.35	0.1	1301.5
82327	17.876	3.3	0.1	1336.4
82328	17.926	3.35	0.1	1324.8
82329	17.776	3.3	0.1	1359.8
82330	17.826	3.35	0.1	1348.2
82331	17.677	3.3	0.1	1383.2
82332	17.726	3.35	0.1	1371.6
82333	17.577	3.3	0.1	1406.7
82334	17.627	3.35	0.1	1395.
82335	17.477	3.3	0.1	1430.3
82336	17.527	3.35	0.1	1418.5
82337	17.378	3.3	0.1	1453.9
82338	17.428	3.35	0.1	1442.1
82339	17.278	3.3	0.1	1477.5
82340	17.328	3.35	0.1	1465.7
82341	17.179	3.3	0.1	1501.2
82342	17.229	3.35	0.1	1489.4
82343	17.079	3.3	0.1	1525.
82344	17.129	3.35	0.1	1513.1
82345	16.98	3.3	0.1	1548.8
82346	17.029	3.35	0.1	1536.9
82347	16.88	3.3	0.1	1572.7
82348	16.93	3.35	0.1	1560.8
82349	16.78	3.3	0.1	1596.6
82350	16.83	3.35	0.1	1584.7
82351	16.681	3.3	0.1	1620.6
82352	16.731	3.35	0.1	1608.7
82353	16.581	3.3	0.1	1644.7
82354	16.631	3.35	0.1	1632.7
82355	16.482	3.3	0.1	1668.8
82356	16.531	3.35	0.1	1656.8
82357	16.382	3.3	0.1	1692.9
82358	16.432	3.35	0.1	1680.9
82359	16.282	3.3	0.1	1717.1
82360	16.332	3.35	0.1	1705.1
82361	16.183	3.3	0.1	1741.4
82362	16.233	3.35	0.1	1729.3
82363	16.083	3.3	0.1	1765.7
82364	16.133	3.35	0.1	1753.6
82365	15.984	3.3	0.1	1790.1
82366	16.034	3.35	0.1	1778.
82367	15.884	3.3	0.1	1814.5
82368	15.934	3.35	0.1	1802.4
82369	15.785	3.3	0.1	1839.
82370	15.834	3.35	0.1	1826.8
82371	15.685	3.3	0.1	1863.6
82372	15.735	3.35	0.1	1851.4
82373	15.585	3.3	0.1	1888.2
82374	15.635	3.35	0.1	1875.9
82375	15.486	3.3	0.1	1912.8
82376	15.536	3.35	0.1	1900.6
82377	15.386	3.3	0.1	1937.5
82378	15.436	3.35	0.1	1925.2
82379	15.287	3.3	0.1	1962.3
82380	15.336	3.35	0.1	1950.
82381	15.187	3.3	0.1	1987.1
82382	15.237	3.35	0.1	1974.8
82383	15.088	3.3	0.1	2012.
82384	15.137	3.35	0.1	1999.6
82385	14.988	3.3	0.1	2036.9
82386	15.038	3.35	0.1	2024.5
82387	14.888	3.3	0.1	2061.9
82388	14.938	3.35	0.1	2049.5
82389	14.789	3.3	0.1	2087.
82390	14.839	3.35	0.1	2074.5
82391	14.689	3.3	0.1	2112.1
82392	14.739	3.35	0.1	2099.6
82393	14.59	3.3	0.1	2137.3
82394	14.639	3.35	0.1	2124.8
82395	14.49	3.3	0.1	2162.5
82396	14.54	3.35	0.1	2150.
82397	14.39	3.3	0.1	2187.8
82398	14.44	3.35	0.1	2175.3
82399	14.291	3.3	0.1	2213.2
82400	14.341	3.35	0.1	2200.6
82401	14.191	3.3	0.1	2238.7
82402	14.241	3.35	0.1	2226.
82403	14.092	3.3	0.1	2264.2
82404	14.142	3.35	0.1	2251.5
82405	13.992	3.3	0.1	2289.8
82406	14.042	3.35	0.1	2277.1
82407	13.893	3.3	0.1	2315.5
82408	13.942	3.35	0.1	2302.7
82409	13.793	3.3	0.1	2341.3
82410	13.843	3.35	0.1	2328.5
82411	13.693	3.3	0.1	2367.1
82412	13.743	3.35	0.1	2354.3
82413	13.594	3.3	0.1	2393.1
82414	13.644	3.35	0.1	2380.2
82415	13.494	3.3	0.1	2419.2
82416	13.544	3.35	0.1	2406.3
82417	13.395	3.3	0.1	2445.5
82418	13.444	3.35	0.1	2432.4
82419	13.295	3.3	0.1	2471.9
82420	13.345	3.35	0.1	2458.7
82421	13.195	3.3	0.1	2498.4
82422	13.245	3.35	0.1	2485.2
82423	13.096	3.3	0.1	2525.1
82424	13.146	3.35	0.1	2511.8
82425	12.996	3.3	0.1	2552.
82426	13.046	3.35	0.1	2538.5
82427	12.897	3.3	0.1	2579.1
82428	12.947	3.35	0.1	2565.5
82429	12.797	3.3	0.1	2606.4
82430	12.847	3.35	0.1	2592.7
82431	12.698	3.3	0.1	2634.
82432	12.747	3.35	0.1	2620.2
82433	12.598	3.3	0.1	2661.9
82434	12.648	3.35	0.1	2647.9
82435	12.498	3.3	0.1	2690.2
82436	12.548	3.35	0.1	2675.9
82437	12.399	3.3	0.1	2718.8
82438	12.449	3.35	0.1	2704.3
82439	12.299	3.3	0.1	2747.8
82440	12.349	3.35	0.1	2733.1
82441	12.2	3.3	0.1	2777.4
82442	12.249	3.35	0.1	2762.3
82443	12.1	3.3	0.1	2807.5
82444	12.15	3.35	0.1	2792.1
82445	12.001	3.3	0.1	2838.3
82446	12.05	3.35	0.1	2822.5
82447	11.901	3.3	0.1	2869.8
82448	11.951	3.35	0.1	2853.5
82449	11.801	3.3	0.1	2902.1
82450	11.851	3.35	0.1	2885.3
82451	11.702	3.3	0.1	2935.3
82452	11.752	3.35	0.1	2917.9
82453	11.602	3.3	0.1	2969.7
82454	11.652	3.35	0.1	2951.5
82455	11.503	3.3	0.1	3005.2
82456	11.552	3.35	0.1	2986.3
82457	11.403	3.3	0.1	3042.2
82458	11.453	3.35	0.1	3022.4
82459	11.303	3.3	0.1	3080.8
82460	11.353	3.35	0.1	3059.9
82461	11.204	3.3	0.1	3121.2
82462	11.254	3.35	0.1	3099.1
82463	11.104	3.3	0.1	3163.7
82464	11.154	3.35	0.1	3140.2
82465	11.005	3.3	0.1	3208.7
82466	11.055	3.35	0.1	3183.5
82467	10.905	3.3	0.1	3256.3
82468	10.955	3.35	0.1	3229.4
82469	10.806	3.3	0.1	3307.2
82470	10.855	3.35	0.1	3278.1
82471	10.706	3.3	0.1	3361.6
82472	10.756	3.35	0.1	3330.
82473	10.606	3.3	0.1	3420.2
82474	10.656	3.35	0.1	3385.8
82475	10.507	3.3	0.1	3483.5
82476	10.557	3.35	0.1	3445.9
82477	10.407	3.3	0.1	3552.3
82478	10.457	3.35	0.1	3510.9
82479	10.308	3.3	0.1	3627.3
82480	10.357	3.35	0.1	3581.6
82481	10.208	3.3	0.1	3709.4
82482	10.258	3.35	0.1	3658.9
82483	10.108	3.3	0.1	3799.8
82484	10.158	3.35	0.1	3743.6
82485	10.009	3.3	0.1	3899.7
82486	10.059	3.35	0.1	3837.
82487	9.9093	3.3	0.1	4010.5
82488	9.9591	3.35	0.1	3940.2
82489	9.8097	3.3	0.1	4133.9
82490	9.8595	3.35	0.1	4055.
82491	9.7102	3.3	0.1	4271.7
82492	9.76	3.35	0.1	4182.8
82493	9.6106	3.3	0.1	4426.2
82494	9.6604	3.35	0.1	4325.9
82495	9.511	3.3	0.1	4599.8
82496	9.5608	3.35	0.1	4486.5
82497	9.4114	3.3	0.1	4795.4
82498	9.4612	3.35	0.1	4667.4
82499	9.3118	3.3	0.1	5016.1
82500	9.3616	3.35	0.1	4871.6
82501	9.2123	3.3	0.1	5265.4
82502	9.2621	3.35	0.1	5102.6
82503	9.1127	3.3	0.1	5547.
82504	9.1625	3.35	0.1	5364.5
82505	9.0131	3.3	0.1	5864.3
82506	9.0629	3.35	0.1	5661.3
82507	8.9135	3.3	0.1	6220.2
82508	8.9633	3.35	0.1	5997.3
82509	8.8139	3.3	0.1	6616.
82510	8.8637	3.35	0.1	6376.3
82511	8.7144	3.3	0.1	7049.4
82512	8.7642	3.35	0.1	6800.2
82513	8.6148	3.3	0.1	7512.7
82514	8.6646	3.35	0.1	7267.2
82515	8.5152	3.3	0.1	7989.
82516	8.565	3.35	0.1	7768.2
82517	8.4156	3.3	0.1	8450.1
82518	8.4654	3.35	0.1	8282.4
82519	8.316	3.3	0.1	8855.6
82520	8.3658	3.35	0.1	8772.3
82521	8.2662	3.35	0.1	9184.1
82522	8.2165	3.3	0.1	9157.6
82523	23.851	3.4	0.1	32.072
82524	23.9	3.45	0.1	21.627
82525	23.95	3.4	0.1	11.876
82526	23.751	3.4	0.1	53.184
82527	23.801	3.45	0.1	42.632
82528	23.651	3.4	0.1	74.307
82529	23.701	3.45	0.1	63.755
82530	23.552	3.4	0.1	95.389
82531	23.602	3.45	0.1	84.85
82532	23.452	3.4	0.1	116.42
82533	23.502	3.45	0.1	105.9
82534	23.353	3.4	0.1	137.41
82535	23.403	3.45	0.1	126.9
82536	23.253	3.4	0.1	158.36
82537	23.303	3.45	0.1	147.86
82538	23.154	3.4	0.1	179.27
82539	23.203	3.45	0.1	168.78
82540	23.054	3.4	0.1	200.15
82541	23.104	3.45	0.1	189.67
82542	22.954	3.4	0.1	221.
82543	23.004	3.45	0.1	210.52
82544	22.855	3.4	0.1	241.84
82545	22.905	3.45	0.1	231.37
82546	22.755	3.4	0.1	262.67
82547	22.805	3.45	0.1	252.19
82548	22.656	3.4	0.1	283.5
82549	22.705	3.45	0.1	273.02
82550	22.556	3.4	0.1	304.33
82551	22.606	3.45	0.1	293.84
82552	22.456	3.4	0.1	325.17
82553	22.506	3.45	0.1	314.68
82554	22.357	3.4	0.1	346.03
82555	22.407	3.45	0.1	335.52
82556	22.257	3.4	0.1	366.91
82557	22.307	3.45	0.1	356.39
82558	22.158	3.4	0.1	387.81
82559	22.208	3.45	0.1	377.28
82560	22.058	3.4	0.1	408.74
82561	22.108	3.45	0.1	398.19
82562	21.959	3.4	0.1	429.71
82563	22.008	3.45	0.1	419.14
82564	21.859	3.4	0.1	450.71
82565	21.909	3.45	0.1	440.13
82566	21.759	3.4	0.1	471.75
82567	21.809	3.45	0.1	461.15
82568	21.66	3.4	0.1	492.84
82569	21.71	3.45	0.1	482.22
82570	21.56	3.4	0.1	513.97
82571	21.61	3.45	0.1	503.33
82572	21.461	3.4	0.1	535.15
82573	21.51	3.45	0.1	524.49
82574	21.361	3.4	0.1	556.38
82575	21.411	3.45	0.1	545.7
82576	21.262	3.4	0.1	577.67
82577	21.311	3.45	0.1	566.96
82578	21.162	3.4	0.1	599.
82579	21.212	3.45	0.1	588.27
82580	21.062	3.4	0.1	620.39
82581	21.112	3.45	0.1	609.64
82582	20.963	3.4	0.1	641.84
82583	21.013	3.45	0.1	631.06
82584	20.863	3.4	0.1	663.35
82585	20.913	3.45	0.1	652.54
82586	20.764	3.4	0.1	684.91
82587	20.813	3.45	0.1	674.08
82588	20.664	3.4	0.1	706.53
82589	20.714	3.45	0.1	695.67
82590	20.564	3.4	0.1	728.21
82591	20.614	3.45	0.1	717.33
82592	20.465	3.4	0.1	749.95
82593	20.515	3.45	0.1	739.04
82594	20.365	3.4	0.1	771.75
82595	20.415	3.45	0.1	760.82
82596	20.266	3.4	0.1	793.61
82597	20.316	3.45	0.1	782.65
82598	20.166	3.4	0.1	815.53
82599	20.216	3.45	0.1	804.55
82600	20.067	3.4	0.1	837.52
82601	20.116	3.45	0.1	826.5
82602	19.967	3.4	0.1	859.56
82603	20.017	3.45	0.1	848.52
82604	19.867	3.4	0.1	881.67
82605	19.917	3.45	0.1	870.6
82606	19.768	3.4	0.1	903.83
82607	19.818	3.45	0.1	892.74
82608	19.668	3.4	0.1	926.06
82609	19.718	3.45	0.1	914.94
82610	19.569	3.4	0.1	948.35
82611	19.618	3.45	0.1	937.2
82612	19.469	3.4	0.1	970.7
82613	19.519	3.45	0.1	959.52
82614	19.369	3.4	0.1	993.11
82615	19.419	3.45	0.1	981.91
82616	19.27	3.4	0.1	1015.6
82617	19.32	3.45	0.1	1004.4
82618	19.17	3.4	0.1	1038.1
82619	19.22	3.45	0.1	1026.9
82620	19.071	3.4	0.1	1060.7
82621	19.121	3.45	0.1	1049.4
82622	18.971	3.4	0.1	1083.4
82623	19.021	3.45	0.1	1072.1
82624	18.872	3.4	0.1	1106.1
82625	18.921	3.45	0.1	1094.7
82626	18.772	3.4	0.1	1128.9
82627	18.822	3.45	0.1	1117.5
82628	18.672	3.4	0.1	1151.7
82629	18.722	3.45	0.1	1140.3
82630	18.573	3.4	0.1	1174.6
82631	18.623	3.45	0.1	1163.2
82632	18.473	3.4	0.1	1197.6
82633	18.523	3.45	0.1	1186.1
82634	18.374	3.4	0.1	1220.6
82635	18.423	3.45	0.1	1209.1
82636	18.274	3.4	0.1	1243.6
82637	18.324	3.45	0.1	1232.1
82638	18.175	3.4	0.1	1266.8
82639	18.224	3.45	0.1	1255.2
82640	18.075	3.4	0.1	1290.
82641	18.125	3.45	0.1	1278.4
82642	17.975	3.4	0.1	1313.2
82643	18.025	3.45	0.1	1301.6
82644	17.876	3.4	0.1	1336.5
82645	17.926	3.45	0.1	1324.9
82646	17.776	3.4	0.1	1359.9
82647	17.826	3.45	0.1	1348.3
82648	17.677	3.4	0.1	1383.3
82649	17.726	3.45	0.1	1371.7
82650	17.577	3.4	0.1	1406.8
82651	17.627	3.45	0.1	1395.1
82652	17.477	3.4	0.1	1430.4
82653	17.527	3.45	0.1	1418.6
82654	17.378	3.4	0.1	1454.
82655	17.428	3.45	0.1	1442.2
82656	17.278	3.4	0.1	1477.6
82657	17.328	3.45	0.1	1465.8
82658	17.179	3.4	0.1	1501.3
82659	17.229	3.45	0.1	1489.5
82660	17.079	3.4	0.1	1525.1
82661	17.129	3.45	0.1	1513.3
82662	16.98	3.4	0.1	1548.9
82663	17.029	3.45	0.1	1537.1
82664	16.88	3.4	0.1	1572.8
82665	16.93	3.45	0.1	1560.9
82666	16.78	3.4	0.1	1596.7
82667	16.83	3.45	0.1	1584.8
82668	16.681	3.4	0.1	1620.7
82669	16.731	3.45	0.1	1608.8
82670	16.581	3.4	0.1	1644.8
82671	16.631	3.45	0.1	1632.8
82672	16.482	3.4	0.1	1668.9
82673	16.531	3.45	0.1	1656.9
82674	16.382	3.4	0.1	1693.1
82675	16.432	3.45	0.1	1681.
82676	16.282	3.4	0.1	1717.3
82677	16.332	3.45	0.1	1705.2
82678	16.183	3.4	0.1	1741.5
82679	16.233	3.45	0.1	1729.5
82680	16.083	3.4	0.1	1765.9
82681	16.133	3.45	0.1	1753.8
82682	15.984	3.4	0.1	1790.3
82683	16.034	3.45	0.1	1778.1
82684	15.884	3.4	0.1	1814.7
82685	15.934	3.45	0.1	1802.6
82686	15.785	3.4	0.1	1839.2
82687	15.834	3.45	0.1	1827.
82688	15.685	3.4	0.1	1863.7
82689	15.735	3.45	0.1	1851.5
82690	15.585	3.4	0.1	1888.3
82691	15.635	3.45	0.1	1876.1
82692	15.486	3.4	0.1	1913.
82693	15.536	3.45	0.1	1900.7
82694	15.386	3.4	0.1	1937.7
82695	15.436	3.45	0.1	1925.4
82696	15.287	3.4	0.1	1962.5
82697	15.336	3.45	0.1	1950.2
82698	15.187	3.4	0.1	1987.3
82699	15.237	3.45	0.1	1975.
82700	15.088	3.4	0.1	2012.2
82701	15.137	3.45	0.1	1999.8
82702	14.988	3.4	0.1	2037.1
82703	15.038	3.45	0.1	2024.7
82704	14.888	3.4	0.1	2062.1
82705	14.938	3.45	0.1	2049.7
82706	14.789	3.4	0.1	2087.2
82707	14.839	3.45	0.1	2074.7
82708	14.689	3.4	0.1	2112.3
82709	14.739	3.45	0.1	2099.8
82710	14.59	3.4	0.1	2137.5
82711	14.639	3.45	0.1	2125.
82712	14.49	3.4	0.1	2162.7
82713	14.54	3.45	0.1	2150.2
82714	14.39	3.4	0.1	2188.
82715	14.44	3.45	0.1	2175.5
82716	14.291	3.4	0.1	2213.4
82717	14.341	3.45	0.1	2200.8
82718	14.191	3.4	0.1	2238.9
82719	14.241	3.45	0.1	2226.2
82720	14.092	3.4	0.1	2264.4
82721	14.142	3.45	0.1	2251.7
82722	13.992	3.4	0.1	2290.
82723	14.042	3.45	0.1	2277.3
82724	13.893	3.4	0.1	2315.7
82725	13.942	3.45	0.1	2303.
82726	13.793	3.4	0.1	2341.5
82727	13.843	3.45	0.1	2328.7
82728	13.693	3.4	0.1	2367.4
82729	13.743	3.45	0.1	2354.5
82730	13.594	3.4	0.1	2393.3
82731	13.644	3.45	0.1	2380.5
82732	13.494	3.4	0.1	2419.4
82733	13.544	3.45	0.1	2406.5
82734	13.395	3.4	0.1	2445.7
82735	13.444	3.45	0.1	2432.7
82736	13.295	3.4	0.1	2472.
82737	13.345	3.45	0.1	2458.9
82738	13.195	3.4	0.1	2498.5
82739	13.245	3.45	0.1	2485.4
82740	13.096	3.4	0.1	2525.2
82741	13.146	3.45	0.1	2511.9
82742	12.996	3.4	0.1	2552.1
82743	13.046	3.45	0.1	2538.7
82744	12.897	3.4	0.1	2579.2
82745	12.947	3.45	0.1	2565.6
82746	12.797	3.4	0.1	2606.5
82747	12.847	3.45	0.1	2592.8
82748	12.698	3.4	0.1	2634.
82749	12.747	3.45	0.1	2620.2
82750	12.598	3.4	0.1	2661.9
82751	12.648	3.45	0.1	2647.9
82752	12.498	3.4	0.1	2690.1
82753	12.548	3.45	0.1	2675.9
82754	12.399	3.4	0.1	2718.6
82755	12.449	3.45	0.1	2704.2
82756	12.299	3.4	0.1	2747.6
82757	12.349	3.45	0.1	2732.9
82758	12.2	3.4	0.1	2777.1
82759	12.249	3.45	0.1	2762.
82760	12.1	3.4	0.1	2807.1
82761	12.15	3.45	0.1	2791.7
82762	12.001	3.4	0.1	2837.7
82763	12.05	3.45	0.1	2821.9
82764	11.901	3.4	0.1	2869.
82765	11.951	3.45	0.1	2852.7
82766	11.801	3.4	0.1	2901.1
82767	11.851	3.45	0.1	2884.3
82768	11.702	3.4	0.1	2934.1
82769	11.752	3.45	0.1	2916.7
82770	11.602	3.4	0.1	2968.2
82771	11.652	3.45	0.1	2950.
82772	11.503	3.4	0.1	3003.4
82773	11.552	3.45	0.1	2984.5
82774	11.403	3.4	0.1	3040.
82775	11.453	3.45	0.1	3020.1
82776	11.303	3.4	0.1	3078.2
82777	11.353	3.45	0.1	3057.2
82778	11.204	3.4	0.1	3118.1
82779	11.254	3.45	0.1	3095.8
82780	11.104	3.4	0.1	3160.
82781	11.154	3.45	0.1	3136.3
82782	11.005	3.4	0.1	3204.2
82783	11.055	3.45	0.1	3178.9
82784	10.905	3.4	0.1	3251.1
82785	10.955	3.45	0.1	3223.9
82786	10.806	3.4	0.1	3300.9
82787	10.855	3.45	0.1	3271.6
82788	10.706	3.4	0.1	3354.2
82789	10.756	3.45	0.1	3322.4
82790	10.606	3.4	0.1	3411.5
82791	10.656	3.45	0.1	3376.8
82792	10.507	3.4	0.1	3473.3
82793	10.557	3.45	0.1	3435.3
82794	10.407	3.4	0.1	3540.3
82795	10.457	3.45	0.1	3498.5
82796	10.308	3.4	0.1	3613.3
82797	10.357	3.45	0.1	3567.1
82798	10.208	3.4	0.1	3693.1
82799	10.258	3.45	0.1	3641.9
82800	10.108	3.4	0.1	3780.8
82801	10.158	3.45	0.1	3723.8
82802	10.009	3.4	0.1	3877.5
82803	10.059	3.45	0.1	3813.8
82804	9.9093	3.4	0.1	3984.7
82805	9.9591	3.45	0.1	3913.3
82806	9.8097	3.4	0.1	4104.
82807	9.8595	3.45	0.1	4023.7
82808	9.7102	3.4	0.1	4237.1
82809	9.76	3.45	0.1	4146.6
82810	9.6106	3.4	0.1	4386.4
82811	9.6604	3.45	0.1	4284.1
82812	9.511	3.4	0.1	4554.4
82813	9.5608	3.45	0.1	4438.6
82814	9.4114	3.4	0.1	4744.
82815	9.4612	3.45	0.1	4612.7
82816	9.3118	3.4	0.1	4958.7
82817	9.3616	3.45	0.1	4809.8
82818	9.2123	3.4	0.1	5202.4
82819	9.2621	3.45	0.1	5033.7
82820	9.1127	3.4	0.1	5479.8
82821	9.1625	3.45	0.1	5289.1
82822	9.0131	3.4	0.1	5795.8
82823	9.0629	3.45	0.1	5581.2
82824	8.9135	3.4	0.1	6155.5
82825	8.9633	3.45	0.1	5916.3
82826	8.8139	3.4	0.1	6563.3
82827	8.8637	3.45	0.1	6301.
82828	8.7144	3.4	0.1	7021.4
82829	8.7642	3.45	0.1	6741.6
82830	8.6148	3.4	0.1	7526.6
82831	8.6646	3.45	0.1	7242.5
82832	8.5152	3.4	0.1	8065.3
82833	8.565	3.45	0.1	7801.4
82834	8.4156	3.4	0.1	8607.3
82835	8.4654	3.45	0.1	8402.4
82836	8.316	3.4	0.1	9101.3
82837	8.3658	3.45	0.1	9004.5
82838	8.2662	3.45	0.1	9533.9
82839	8.2165	3.4	0.1	9478.5
82840	23.851	3.5	0.1	32.087
82841	23.9	3.55	0.1	21.652
82842	23.95	3.5	0.1	11.886
82843	23.751	3.5	0.1	53.184
82844	23.801	3.55	0.1	42.64
82845	23.651	3.5	0.1	74.293
82846	23.701	3.55	0.1	63.747
82847	23.552	3.5	0.1	95.36
82848	23.602	3.55	0.1	84.825
82849	23.452	3.5	0.1	116.38
82850	23.502	3.55	0.1	105.86
82851	23.353	3.5	0.1	137.35
82852	23.403	3.55	0.1	126.85
82853	23.253	3.5	0.1	158.28
82854	23.303	3.55	0.1	147.79
82855	23.154	3.5	0.1	179.18
82856	23.203	3.55	0.1	168.69
82857	23.054	3.5	0.1	200.05
82858	23.104	3.55	0.1	189.56
82859	22.954	3.5	0.1	220.89
82860	23.004	3.55	0.1	210.41
82861	22.855	3.5	0.1	241.72
82862	22.905	3.55	0.1	231.24
82863	22.755	3.5	0.1	262.54
82864	22.805	3.55	0.1	252.05
82865	22.656	3.5	0.1	283.37
82866	22.705	3.55	0.1	272.87
82867	22.556	3.5	0.1	304.19
82868	22.606	3.55	0.1	293.69
82869	22.456	3.5	0.1	325.03
82870	22.506	3.55	0.1	314.52
82871	22.357	3.5	0.1	345.89
82872	22.407	3.55	0.1	335.36
82873	22.257	3.5	0.1	366.76
82874	22.307	3.55	0.1	356.22
82875	22.158	3.5	0.1	387.67
82876	22.208	3.55	0.1	377.11
82877	22.058	3.5	0.1	408.6
82878	22.108	3.55	0.1	398.03
82879	21.959	3.5	0.1	429.57
82880	22.008	3.55	0.1	418.98
82881	21.859	3.5	0.1	450.58
82882	21.909	3.55	0.1	439.97
82883	21.759	3.5	0.1	471.62
82884	21.809	3.55	0.1	461.
82885	21.66	3.5	0.1	492.72
82886	21.71	3.55	0.1	482.08
82887	21.56	3.5	0.1	513.85
82888	21.61	3.55	0.1	503.19
82889	21.461	3.5	0.1	535.04
82890	21.51	3.55	0.1	524.36
82891	21.361	3.5	0.1	556.28
82892	21.411	3.55	0.1	545.58
82893	21.262	3.5	0.1	577.57
82894	21.311	3.55	0.1	566.85
82895	21.162	3.5	0.1	598.91
82896	21.212	3.55	0.1	588.17
82897	21.062	3.5	0.1	620.31
82898	21.112	3.55	0.1	609.54
82899	20.963	3.5	0.1	641.77
82900	21.013	3.55	0.1	630.98
82901	20.863	3.5	0.1	663.28
82902	20.913	3.55	0.1	652.47
82903	20.764	3.5	0.1	684.85
82904	20.813	3.55	0.1	674.01
82905	20.664	3.5	0.1	706.48
82906	20.714	3.55	0.1	695.62
82907	20.564	3.5	0.1	728.17
82908	20.614	3.55	0.1	717.28
82909	20.465	3.5	0.1	749.92
82910	20.515	3.55	0.1	739.
82911	20.365	3.5	0.1	771.73
82912	20.415	3.55	0.1	760.79
82913	20.266	3.5	0.1	793.6
82914	20.316	3.55	0.1	782.63
82915	20.166	3.5	0.1	815.53
82916	20.216	3.55	0.1	804.54
82917	20.067	3.5	0.1	837.52
82918	20.116	3.55	0.1	826.5
82919	19.967	3.5	0.1	859.57
82920	20.017	3.55	0.1	848.53
82921	19.867	3.5	0.1	881.68
82922	19.917	3.55	0.1	870.61
82923	19.768	3.5	0.1	903.85
82924	19.818	3.55	0.1	892.76
82925	19.668	3.5	0.1	926.09
82926	19.718	3.55	0.1	914.97
82927	19.569	3.5	0.1	948.39
82928	19.618	3.55	0.1	937.24
82929	19.469	3.5	0.1	970.74
82930	19.519	3.55	0.1	959.57
82931	19.369	3.5	0.1	993.16
82932	19.419	3.55	0.1	981.96
82933	19.27	3.5	0.1	1015.6
82934	19.32	3.55	0.1	1004.4
82935	19.17	3.5	0.1	1038.2
82936	19.22	3.55	0.1	1026.9
82937	19.071	3.5	0.1	1060.8
82938	19.121	3.55	0.1	1049.5
82939	18.971	3.5	0.1	1083.4
82940	19.021	3.55	0.1	1072.1
82941	18.872	3.5	0.1	1106.2
82942	18.921	3.55	0.1	1094.8
82943	18.772	3.5	0.1	1128.9
82944	18.822	3.55	0.1	1117.6
82945	18.672	3.5	0.1	1151.8
82946	18.722	3.55	0.1	1140.4
82947	18.573	3.5	0.1	1174.7
82948	18.623	3.55	0.1	1163.3
82949	18.473	3.5	0.1	1197.6
82950	18.523	3.55	0.1	1186.2
82951	18.374	3.5	0.1	1220.7
82952	18.423	3.55	0.1	1209.2
82953	18.274	3.5	0.1	1243.7
82954	18.324	3.55	0.1	1232.2
82955	18.175	3.5	0.1	1266.9
82956	18.224	3.55	0.1	1255.4
82957	18.075	3.5	0.1	1290.1
82958	18.125	3.55	0.1	1278.5
82959	17.975	3.5	0.1	1313.3
82960	18.025	3.55	0.1	1301.8
82961	17.876	3.5	0.1	1336.6
82962	17.926	3.55	0.1	1325.
82963	17.776	3.5	0.1	1360.
82964	17.826	3.55	0.1	1348.4
82965	17.677	3.5	0.1	1383.5
82966	17.726	3.55	0.1	1371.8
82967	17.577	3.5	0.1	1406.9
82968	17.627	3.55	0.1	1395.3
82969	17.477	3.5	0.1	1430.5
82970	17.527	3.55	0.1	1418.8
82971	17.378	3.5	0.1	1454.1
82972	17.428	3.55	0.1	1442.3
82973	17.278	3.5	0.1	1477.7
82974	17.328	3.55	0.1	1466.
82975	17.179	3.5	0.1	1501.5
82976	17.229	3.55	0.1	1489.7
82977	17.079	3.5	0.1	1525.2
82978	17.129	3.55	0.1	1513.4
82979	16.98	3.5	0.1	1549.1
82980	17.029	3.55	0.1	1537.2
82981	16.88	3.5	0.1	1573.
82982	16.93	3.55	0.1	1561.1
82983	16.78	3.5	0.1	1596.9
82984	16.83	3.55	0.1	1585.
82985	16.681	3.5	0.1	1620.9
82986	16.731	3.55	0.1	1609.
82987	16.581	3.5	0.1	1645.
82988	16.631	3.55	0.1	1633.
82989	16.482	3.5	0.1	1669.1
82990	16.531	3.55	0.1	1657.1
82991	16.382	3.5	0.1	1693.2
82992	16.432	3.55	0.1	1681.2
82993	16.282	3.5	0.1	1717.4
82994	16.332	3.55	0.1	1705.4
82995	16.183	3.5	0.1	1741.7
82996	16.233	3.55	0.1	1729.7
82997	16.083	3.5	0.1	1766.1
82998	16.133	3.55	0.1	1754.
82999	15.984	3.5	0.1	1790.4
83000	16.034	3.55	0.1	1778.3
83001	15.884	3.5	0.1	1814.9
83002	15.934	3.55	0.1	1802.8
83003	15.785	3.5	0.1	1839.4
83004	15.834	3.55	0.1	1827.2
83005	15.685	3.5	0.1	1863.9
83006	15.735	3.55	0.1	1851.8
83007	15.585	3.5	0.1	1888.5
83008	15.635	3.55	0.1	1876.3
83009	15.486	3.5	0.1	1913.2
83010	15.536	3.55	0.1	1901.
83011	15.386	3.5	0.1	1937.9
83012	15.436	3.55	0.1	1925.7
83013	15.287	3.5	0.1	1962.7
83014	15.336	3.55	0.1	1950.4
83015	15.187	3.5	0.1	1987.5
83016	15.237	3.55	0.1	1975.2
83017	15.088	3.5	0.1	2012.4
83018	15.137	3.55	0.1	2000.1
83019	14.988	3.5	0.1	2037.4
83020	15.038	3.55	0.1	2025.
83021	14.888	3.5	0.1	2062.4
83022	14.938	3.55	0.1	2050.
83023	14.789	3.5	0.1	2087.4
83024	14.839	3.55	0.1	2075.
83025	14.689	3.5	0.1	2112.5
83026	14.739	3.55	0.1	2100.1
83027	14.59	3.5	0.1	2137.7
83028	14.639	3.55	0.1	2125.3
83029	14.49	3.5	0.1	2163.
83030	14.54	3.55	0.1	2150.5
83031	14.39	3.5	0.1	2188.3
83032	14.44	3.55	0.1	2175.8
83033	14.291	3.5	0.1	2213.7
83034	14.341	3.55	0.1	2201.1
83035	14.191	3.5	0.1	2239.1
83036	14.241	3.55	0.1	2226.5
83037	14.092	3.5	0.1	2264.7
83038	14.142	3.55	0.1	2252.
83039	13.992	3.5	0.1	2290.3
83040	14.042	3.55	0.1	2277.6
83041	13.893	3.5	0.1	2316.
83042	13.942	3.55	0.1	2303.3
83043	13.793	3.5	0.1	2341.7
83044	13.843	3.55	0.1	2329.
83045	13.693	3.5	0.1	2367.6
83046	13.743	3.55	0.1	2354.8
83047	13.594	3.5	0.1	2393.6
83048	13.644	3.55	0.1	2380.8
83049	13.494	3.5	0.1	2419.7
83050	13.544	3.55	0.1	2406.8
83051	13.395	3.5	0.1	2445.9
83052	13.444	3.55	0.1	2432.9
83053	13.295	3.5	0.1	2472.3
83054	13.345	3.55	0.1	2459.2
83055	13.195	3.5	0.1	2498.8
83056	13.245	3.55	0.1	2485.6
83057	13.096	3.5	0.1	2525.4
83058	13.146	3.55	0.1	2512.2
83059	12.996	3.5	0.1	2552.3
83060	13.046	3.55	0.1	2538.9
83061	12.897	3.5	0.1	2579.3
83062	12.947	3.55	0.1	2565.8
83063	12.797	3.5	0.1	2606.6
83064	12.847	3.55	0.1	2592.9
83065	12.698	3.5	0.1	2634.1
83066	12.747	3.55	0.1	2620.3
83067	12.598	3.5	0.1	2661.9
83068	12.648	3.55	0.1	2647.9
83069	12.498	3.5	0.1	2690.
83070	12.548	3.55	0.1	2675.8
83071	12.399	3.5	0.1	2718.4
83072	12.449	3.55	0.1	2704.
83073	12.299	3.5	0.1	2747.3
83074	12.349	3.55	0.1	2732.6
83075	12.2	3.5	0.1	2776.6
83076	12.249	3.55	0.1	2761.6
83077	12.1	3.5	0.1	2806.5
83078	12.15	3.55	0.1	2791.1
83079	12.001	3.5	0.1	2836.9
83080	12.05	3.55	0.1	2821.1
83081	11.901	3.5	0.1	2868.
83082	11.951	3.55	0.1	2851.7
83083	11.801	3.5	0.1	2899.9
83084	11.851	3.55	0.1	2883.1
83085	11.702	3.5	0.1	2932.6
83086	11.752	3.55	0.1	2915.2
83087	11.602	3.5	0.1	2966.3
83088	11.652	3.55	0.1	2948.2
83089	11.503	3.5	0.1	3001.1
83090	11.552	3.55	0.1	2982.2
83091	11.403	3.5	0.1	3037.3
83092	11.453	3.55	0.1	3017.3
83093	11.303	3.5	0.1	3074.8
83094	11.353	3.55	0.1	3053.8
83095	11.204	3.5	0.1	3114.1
83096	11.254	3.55	0.1	3091.8
83097	11.104	3.5	0.1	3155.2
83098	11.154	3.55	0.1	3131.6
83099	11.005	3.5	0.1	3198.6
83100	11.055	3.55	0.1	3173.2
83101	10.905	3.5	0.1	3244.4
83102	10.955	3.55	0.1	3217.2
83103	10.806	3.5	0.1	3293.
83104	10.855	3.55	0.1	3263.6
83105	10.706	3.5	0.1	3345.
83106	10.756	3.55	0.1	3313.
83107	10.606	3.5	0.1	3400.6
83108	10.656	3.55	0.1	3365.8
83109	10.507	3.5	0.1	3460.5
83110	10.557	3.55	0.1	3422.4
83111	10.407	3.5	0.1	3525.3
83112	10.457	3.55	0.1	3483.3
83113	10.308	3.5	0.1	3595.7
83114	10.357	3.55	0.1	3549.3
83115	10.208	3.5	0.1	3672.5
83116	10.258	3.55	0.1	3621.1
83117	10.108	3.5	0.1	3756.8
83118	10.158	3.55	0.1	3699.5
83119	10.009	3.5	0.1	3849.6
83120	10.059	3.55	0.1	3785.6
83121	9.9093	3.5	0.1	3952.3
83122	9.9591	3.55	0.1	3880.5
83123	9.8097	3.5	0.1	4066.4
83124	9.8595	3.55	0.1	3985.6
83125	9.7102	3.5	0.1	4193.7
83126	9.76	3.55	0.1	4102.5
83127	9.6106	3.5	0.1	4336.4
83128	9.6604	3.55	0.1	4233.2
83129	9.511	3.5	0.1	4497.
83130	9.5608	3.55	0.1	4379.9
83131	9.4114	3.5	0.1	4678.7
83132	9.4612	3.55	0.1	4545.6
83133	9.3118	3.5	0.1	4885.2
83134	9.3616	3.55	0.1	4733.5
83135	9.2123	3.5	0.1	5120.9
83136	9.2621	3.55	0.1	4947.9
83137	9.1127	3.5	0.1	5391.3
83138	9.1625	3.55	0.1	5193.8
83139	9.0131	3.5	0.1	5703.
83140	9.0629	3.55	0.1	5477.9
83141	8.9135	3.5	0.1	6063.7
83142	8.9633	3.55	0.1	5808.
83143	8.8139	3.5	0.1	6481.9
83144	8.8637	3.55	0.1	6194.2
83145	8.7144	3.5	0.1	6966.3
83146	8.7642	3.55	0.1	6648.4
83147	8.6148	3.5	0.1	7521.7
83148	8.6646	3.55	0.1	7183.3
83149	8.5152	3.5	0.1	8143.2
83150	8.565	3.55	0.1	7809.3
83151	8.4156	3.5	0.1	8803.1
83152	8.4654	3.55	0.1	8524.5
83153	8.316	3.5	0.1	9437.2
83154	8.3658	3.55	0.1	9293.4
83155	8.2662	3.55	0.1	10018
83156	8.2165	3.5	0.1	9941.1
83157	23.851	3.6	0.1	32.105
83158	23.9	3.65	0.1	21.681
83159	23.95	3.6	0.1	11.899
83160	23.751	3.6	0.1	53.184
83161	23.801	3.65	0.1	42.648
83162	23.651	3.6	0.1	74.275
83163	23.701	3.65	0.1	63.736
83164	23.552	3.6	0.1	95.324
83165	23.602	3.65	0.1	84.795
83166	23.452	3.6	0.1	116.33
83167	23.502	3.65	0.1	105.81
83168	23.353	3.6	0.1	137.28
83169	23.403	3.65	0.1	126.77
83170	23.253	3.6	0.1	158.19
83171	23.303	3.65	0.1	147.7
83172	23.154	3.6	0.1	179.07
83173	23.203	3.65	0.1	168.58
83174	23.054	3.6	0.1	199.92
83175	23.104	3.65	0.1	189.43
83176	22.954	3.6	0.1	220.75
83177	23.004	3.65	0.1	210.26
83178	22.855	3.6	0.1	241.57
83179	22.905	3.65	0.1	231.08
83180	22.755	3.6	0.1	262.39
83181	22.805	3.65	0.1	251.88
83182	22.656	3.6	0.1	283.2
83183	22.705	3.65	0.1	272.69
83184	22.556	3.6	0.1	304.02
83185	22.606	3.65	0.1	293.5
83186	22.456	3.6	0.1	324.85
83187	22.506	3.65	0.1	314.33
83188	22.357	3.6	0.1	345.71
83189	22.407	3.65	0.1	335.17
83190	22.257	3.6	0.1	366.58
83191	22.307	3.65	0.1	356.03
83192	22.158	3.6	0.1	387.49
83193	22.208	3.65	0.1	376.92
83194	22.058	3.6	0.1	408.42
83195	22.108	3.65	0.1	397.84
83196	21.959	3.6	0.1	429.4
83197	22.008	3.65	0.1	418.8
83198	21.859	3.6	0.1	450.41
83199	21.909	3.65	0.1	439.79
83200	21.759	3.6	0.1	471.46
83201	21.809	3.65	0.1	460.83
83202	21.66	3.6	0.1	492.56
83203	21.71	3.65	0.1	481.91
83204	21.56	3.6	0.1	513.71
83205	21.61	3.65	0.1	503.03
83206	21.461	3.6	0.1	534.91
83207	21.51	3.65	0.1	524.21
83208	21.361	3.6	0.1	556.15
83209	21.411	3.65	0.1	545.44
83210	21.262	3.6	0.1	577.45
83211	21.311	3.65	0.1	566.72
83212	21.162	3.6	0.1	598.81
83213	21.212	3.65	0.1	588.05
83214	21.062	3.6	0.1	620.22
83215	21.112	3.65	0.1	609.44
83216	20.963	3.6	0.1	641.68
83217	21.013	3.65	0.1	630.88
83218	20.863	3.6	0.1	663.21
83219	20.913	3.65	0.1	652.38
83220	20.764	3.6	0.1	684.79
83221	20.813	3.65	0.1	673.94
83222	20.664	3.6	0.1	706.43
83223	20.714	3.65	0.1	695.55
83224	20.564	3.6	0.1	728.13
83225	20.614	3.65	0.1	717.23
83226	20.465	3.6	0.1	749.88
83227	20.515	3.65	0.1	738.96
83228	20.365	3.6	0.1	771.7
83229	20.415	3.65	0.1	760.76
83230	20.266	3.6	0.1	793.58
83231	20.316	3.65	0.1	782.61
83232	20.166	3.6	0.1	815.52
83233	20.216	3.65	0.1	804.52
83234	20.067	3.6	0.1	837.52
83235	20.116	3.65	0.1	826.5
83236	19.967	3.6	0.1	859.58
83237	20.017	3.65	0.1	848.53
83238	19.867	3.6	0.1	881.7
83239	19.917	3.65	0.1	870.63
83240	19.768	3.6	0.1	903.88
83241	19.818	3.65	0.1	892.79
83242	19.668	3.6	0.1	926.12
83243	19.718	3.65	0.1	915.
83244	19.569	3.6	0.1	948.43
83245	19.618	3.65	0.1	937.28
83246	19.469	3.6	0.1	970.79
83247	19.519	3.65	0.1	959.62
83248	19.369	3.6	0.1	993.22
83249	19.419	3.65	0.1	982.02
83250	19.27	3.6	0.1	1015.7
83251	19.32	3.65	0.1	1004.5
83252	19.17	3.6	0.1	1038.2
83253	19.22	3.65	0.1	1027.
83254	19.071	3.6	0.1	1060.9
83255	19.121	3.65	0.1	1049.6
83256	18.971	3.6	0.1	1083.5
83257	19.021	3.65	0.1	1072.2
83258	18.872	3.6	0.1	1106.2
83259	18.921	3.65	0.1	1094.9
83260	18.772	3.6	0.1	1129.
83261	18.822	3.65	0.1	1117.7
83262	18.672	3.6	0.1	1151.9
83263	18.722	3.65	0.1	1140.5
83264	18.573	3.6	0.1	1174.8
83265	18.623	3.65	0.1	1163.4
83266	18.473	3.6	0.1	1197.8
83267	18.523	3.65	0.1	1186.3
83268	18.374	3.6	0.1	1220.8
83269	18.423	3.65	0.1	1209.3
83270	18.274	3.6	0.1	1243.9
83271	18.324	3.65	0.1	1232.4
83272	18.175	3.6	0.1	1267.
83273	18.224	3.65	0.1	1255.5
83274	18.075	3.6	0.1	1290.2
83275	18.125	3.65	0.1	1278.7
83276	17.975	3.6	0.1	1313.5
83277	18.025	3.65	0.1	1301.9
83278	17.876	3.6	0.1	1336.8
83279	17.926	3.65	0.1	1325.2
83280	17.776	3.6	0.1	1360.2
83281	17.826	3.65	0.1	1348.5
83282	17.677	3.6	0.1	1383.6
83283	17.726	3.65	0.1	1371.9
83284	17.577	3.6	0.1	1407.1
83285	17.627	3.65	0.1	1395.4
83286	17.477	3.6	0.1	1430.6
83287	17.527	3.65	0.1	1418.9
83288	17.378	3.6	0.1	1454.2
83289	17.428	3.65	0.1	1442.5
83290	17.278	3.6	0.1	1477.9
83291	17.328	3.65	0.1	1466.2
83292	17.179	3.6	0.1	1501.6
83293	17.229	3.65	0.1	1489.9
83294	17.079	3.6	0.1	1525.4
83295	17.129	3.65	0.1	1513.6
83296	16.98	3.6	0.1	1549.2
83297	17.029	3.65	0.1	1537.4
83298	16.88	3.6	0.1	1573.1
83299	16.93	3.65	0.1	1561.3
83300	16.78	3.6	0.1	1597.1
83301	16.83	3.65	0.1	1585.2
83302	16.681	3.6	0.1	1621.1
83303	16.731	3.65	0.1	1609.2
83304	16.581	3.6	0.1	1645.1
83305	16.631	3.65	0.1	1633.2
83306	16.482	3.6	0.1	1669.3
83307	16.531	3.65	0.1	1657.3
83308	16.382	3.6	0.1	1693.4
83309	16.432	3.65	0.1	1681.4
83310	16.282	3.6	0.1	1717.7
83311	16.332	3.65	0.1	1705.7
83312	16.183	3.6	0.1	1741.9
83313	16.233	3.65	0.1	1729.9
83314	16.083	3.6	0.1	1766.3
83315	16.133	3.65	0.1	1754.2
83316	15.984	3.6	0.1	1790.7
83317	16.034	3.65	0.1	1778.6
83318	15.884	3.6	0.1	1815.1
83319	15.934	3.65	0.1	1803.
83320	15.785	3.6	0.1	1839.6
83321	15.834	3.65	0.1	1827.5
83322	15.685	3.6	0.1	1864.2
83323	15.735	3.65	0.1	1852.
83324	15.585	3.6	0.1	1888.8
83325	15.635	3.65	0.1	1876.6
83326	15.486	3.6	0.1	1913.5
83327	15.536	3.65	0.1	1901.2
83328	15.386	3.6	0.1	1938.2
83329	15.436	3.65	0.1	1925.9
83330	15.287	3.6	0.1	1963.
83331	15.336	3.65	0.1	1950.7
83332	15.187	3.6	0.1	1987.8
83333	15.237	3.65	0.1	1975.5
83334	15.088	3.6	0.1	2012.7
83335	15.137	3.65	0.1	2000.4
83336	14.988	3.6	0.1	2037.6
83337	15.038	3.65	0.1	2025.3
83338	14.888	3.6	0.1	2062.6
83339	14.938	3.65	0.1	2050.3
83340	14.789	3.6	0.1	2087.7
83341	14.839	3.65	0.1	2075.3
83342	14.689	3.6	0.1	2112.8
83343	14.739	3.65	0.1	2100.4
83344	14.59	3.6	0.1	2138.
83345	14.639	3.65	0.1	2125.6
83346	14.49	3.6	0.1	2163.3
83347	14.54	3.65	0.1	2150.8
83348	14.39	3.6	0.1	2188.6
83349	14.44	3.65	0.1	2176.1
83350	14.291	3.6	0.1	2214.
83351	14.341	3.65	0.1	2201.5
83352	14.191	3.6	0.1	2239.5
83353	14.241	3.65	0.1	2226.9
83354	14.092	3.6	0.1	2265.
83355	14.142	3.65	0.1	2252.4
83356	13.992	3.6	0.1	2290.6
83357	14.042	3.65	0.1	2278.
83358	13.893	3.6	0.1	2316.3
83359	13.942	3.65	0.1	2303.6
83360	13.793	3.6	0.1	2342.1
83361	13.843	3.65	0.1	2329.4
83362	13.693	3.6	0.1	2368.
83363	13.743	3.65	0.1	2355.2
83364	13.594	3.6	0.1	2393.9
83365	13.644	3.65	0.1	2381.1
83366	13.494	3.6	0.1	2420.
83367	13.544	3.65	0.1	2407.1
83368	13.395	3.6	0.1	2446.2
83369	13.444	3.65	0.1	2433.3
83370	13.295	3.6	0.1	2472.6
83371	13.345	3.65	0.1	2459.5
83372	13.195	3.6	0.1	2499.
83373	13.245	3.65	0.1	2485.9
83374	13.096	3.6	0.1	2525.7
83375	13.146	3.65	0.1	2512.4
83376	12.996	3.6	0.1	2552.5
83377	13.046	3.65	0.1	2539.1
83378	12.897	3.6	0.1	2579.5
83379	12.947	3.65	0.1	2566.
83380	12.797	3.6	0.1	2606.7
83381	12.847	3.65	0.1	2593.1
83382	12.698	3.6	0.1	2634.1
83383	12.747	3.65	0.1	2620.4
83384	12.598	3.6	0.1	2661.8
83385	12.648	3.65	0.1	2647.9
83386	12.498	3.6	0.1	2689.8
83387	12.548	3.65	0.1	2675.7
83388	12.399	3.6	0.1	2718.2
83389	12.449	3.65	0.1	2703.8
83390	12.299	3.6	0.1	2746.9
83391	12.349	3.65	0.1	2732.3
83392	12.2	3.6	0.1	2776.1
83393	12.249	3.65	0.1	2761.1
83394	12.1	3.6	0.1	2805.8
83395	12.15	3.65	0.1	2790.4
83396	12.001	3.6	0.1	2836.
83397	12.05	3.65	0.1	2820.2
83398	11.901	3.6	0.1	2866.8
83399	11.951	3.65	0.1	2850.6
83400	11.801	3.6	0.1	2898.4
83401	11.851	3.65	0.1	2881.6
83402	11.702	3.6	0.1	2930.7
83403	11.752	3.65	0.1	2913.4
83404	11.602	3.6	0.1	2964.
83405	11.652	3.65	0.1	2946.
83406	11.503	3.6	0.1	2998.4
83407	11.552	3.65	0.1	2979.5
83408	11.403	3.6	0.1	3033.9
83409	11.453	3.65	0.1	3014.1
83410	11.303	3.6	0.1	3070.8
83411	11.353	3.65	0.1	3049.9
83412	11.204	3.6	0.1	3109.3
83413	11.254	3.65	0.1	3087.1
83414	11.104	3.6	0.1	3149.6
83415	11.154	3.65	0.1	3126.
83416	11.005	3.6	0.1	3191.8
83417	11.055	3.65	0.1	3166.6
83418	10.905	3.6	0.1	3236.4
83419	10.955	3.65	0.1	3209.3
83420	10.806	3.6	0.1	3283.6
83421	10.855	3.65	0.1	3254.3
83422	10.706	3.6	0.1	3333.9
83423	10.756	3.65	0.1	3302.1
83424	10.606	3.6	0.1	3387.6
83425	10.656	3.65	0.1	3352.9
83426	10.507	3.6	0.1	3445.2
83427	10.557	3.65	0.1	3407.3
83428	10.407	3.6	0.1	3507.4
83429	10.457	3.65	0.1	3465.7
83430	10.308	3.6	0.1	3574.8
83431	10.357	3.65	0.1	3528.7
83432	10.208	3.6	0.1	3648.1
83433	10.258	3.65	0.1	3597.
83434	10.108	3.6	0.1	3728.3
83435	10.158	3.65	0.1	3671.4
83436	10.009	3.6	0.1	3816.5
83437	10.059	3.65	0.1	3752.8
83438	9.9093	3.6	0.1	3913.8
83439	9.9591	3.65	0.1	3842.3
83440	9.8097	3.6	0.1	4021.7
83441	9.8595	3.65	0.1	3941.3
83442	9.7102	3.6	0.1	4142.
83443	9.76	3.65	0.1	4051.2
83444	9.6106	3.6	0.1	4276.7
83445	9.6604	3.65	0.1	4173.8
83446	9.511	3.6	0.1	4428.5
83447	9.5608	3.65	0.1	4311.5
83448	9.4114	3.6	0.1	4600.4
83449	9.4612	3.65	0.1	4467.
83450	9.3118	3.6	0.1	4796.3
83451	9.3616	3.65	0.1	4643.7
83452	9.2123	3.6	0.1	5021.1
83453	9.2621	3.65	0.1	4845.9
83454	9.1127	3.6	0.1	5280.9
83455	9.1625	3.65	0.1	5079.1
83456	9.0131	3.6	0.1	5583.8
83457	9.0629	3.65	0.1	5350.6
83458	8.9135	3.6	0.1	5940.1
83459	8.9633	3.65	0.1	5670.1
83460	8.8139	3.6	0.1	6363.1
83461	8.8637	3.65	0.1	6050.5
83462	8.7144	3.6	0.1	6869.
83463	8.7642	3.65	0.1	6509.2
83464	8.6148	3.6	0.1	7476.
83465	8.6646	3.65	0.1	7069.6
83466	8.5152	3.6	0.1	8196.9
83467	8.565	3.65	0.1	7760.5
83468	8.4156	3.6	0.1	9020.1
83469	8.4654	3.65	0.1	8609.7
83470	8.316	3.6	0.1	9874.3
83471	8.3658	3.65	0.1	9615.3
83472	8.2662	3.65	0.1	10666
83473	8.2165	3.6	0.1	10597
83474	23.851	3.7	0.1	32.126
83475	23.9	3.75	0.1	21.715
83476	23.95	3.7	0.1	11.915
83477	23.751	3.7	0.1	53.183
83478	23.801	3.75	0.1	42.658
83479	23.651	3.7	0.1	74.252
83480	23.701	3.75	0.1	63.723
83481	23.552	3.7	0.1	95.279
83482	23.602	3.75	0.1	84.757
83483	23.452	3.7	0.1	116.26
83484	23.502	3.75	0.1	105.75
83485	23.353	3.7	0.1	137.19
83486	23.403	3.75	0.1	126.69
83487	23.253	3.7	0.1	158.08
83488	23.303	3.75	0.1	147.59
83489	23.154	3.7	0.1	178.94
83490	23.203	3.75	0.1	168.45
83491	23.054	3.7	0.1	199.78
83492	23.104	3.75	0.1	189.28
83493	22.954	3.7	0.1	220.59
83494	23.004	3.75	0.1	210.09
83495	22.855	3.7	0.1	241.39
83496	22.905	3.75	0.1	230.89
83497	22.755	3.7	0.1	262.2
83498	22.805	3.75	0.1	251.68
83499	22.656	3.7	0.1	283.
83500	22.705	3.75	0.1	272.48
83501	22.556	3.7	0.1	303.81
83502	22.606	3.75	0.1	293.28
83503	22.456	3.7	0.1	324.64
83504	22.506	3.75	0.1	314.1
83505	22.357	3.7	0.1	345.49
83506	22.407	3.75	0.1	334.94
83507	22.257	3.7	0.1	366.37
83508	22.307	3.75	0.1	355.8
83509	22.158	3.7	0.1	387.28
83510	22.208	3.75	0.1	376.69
83511	22.058	3.7	0.1	408.22
83512	22.108	3.75	0.1	397.61
83513	21.959	3.7	0.1	429.2
83514	22.008	3.75	0.1	418.58
83515	21.859	3.7	0.1	450.21
83516	21.909	3.75	0.1	439.58
83517	21.759	3.7	0.1	471.28
83518	21.809	3.75	0.1	460.62
83519	21.66	3.7	0.1	492.39
83520	21.71	3.75	0.1	481.71
83521	21.56	3.7	0.1	513.54
83522	21.61	3.75	0.1	502.85
83523	21.461	3.7	0.1	534.75
83524	21.51	3.75	0.1	524.04
83525	21.361	3.7	0.1	556.01
83526	21.411	3.75	0.1	545.28
83527	21.262	3.7	0.1	577.32
83528	21.311	3.75	0.1	566.57
83529	21.162	3.7	0.1	598.69
83530	21.212	3.75	0.1	587.91
83531	21.062	3.7	0.1	620.11
83532	21.112	3.75	0.1	609.31
83533	20.963	3.7	0.1	641.59
83534	21.013	3.75	0.1	630.77
83535	20.863	3.7	0.1	663.12
83536	20.913	3.75	0.1	652.28
83537	20.764	3.7	0.1	684.71
83538	20.813	3.75	0.1	673.85
83539	20.664	3.7	0.1	706.37
83540	20.714	3.75	0.1	695.48
83541	20.564	3.7	0.1	728.08
83542	20.614	3.75	0.1	717.17
83543	20.465	3.7	0.1	749.85
83544	20.515	3.75	0.1	738.92
83545	20.365	3.7	0.1	771.68
83546	20.415	3.75	0.1	760.72
83547	20.266	3.7	0.1	793.57
83548	20.316	3.75	0.1	782.59
83549	20.166	3.7	0.1	815.51
83550	20.216	3.75	0.1	804.52
83551	20.067	3.7	0.1	837.52
83552	20.116	3.75	0.1	826.5
83553	19.967	3.7	0.1	859.6
83554	20.017	3.75	0.1	848.55
83555	19.867	3.7	0.1	881.73
83556	19.917	3.75	0.1	870.65
83557	19.768	3.7	0.1	903.92
83558	19.818	3.75	0.1	892.82
83559	19.668	3.7	0.1	926.17
83560	19.718	3.75	0.1	915.05
83561	19.569	3.7	0.1	948.48
83562	19.618	3.75	0.1	937.34
83563	19.469	3.7	0.1	970.85
83564	19.519	3.75	0.1	959.68
83565	19.369	3.7	0.1	993.29
83566	19.419	3.75	0.1	982.09
83567	19.27	3.7	0.1	1015.8
83568	19.32	3.75	0.1	1004.6
83569	19.17	3.7	0.1	1038.3
83570	19.22	3.75	0.1	1027.1
83571	19.071	3.7	0.1	1060.9
83572	19.121	3.75	0.1	1049.7
83573	18.971	3.7	0.1	1083.6
83574	19.021	3.75	0.1	1072.3
83575	18.872	3.7	0.1	1106.4
83576	18.921	3.75	0.1	1095.
83577	18.772	3.7	0.1	1129.2
83578	18.822	3.75	0.1	1117.8
83579	18.672	3.7	0.1	1152.
83580	18.722	3.75	0.1	1140.6
83581	18.573	3.7	0.1	1174.9
83582	18.623	3.75	0.1	1163.5
83583	18.473	3.7	0.1	1197.9
83584	18.523	3.75	0.1	1186.5
83585	18.374	3.7	0.1	1220.9
83586	18.423	3.75	0.1	1209.5
83587	18.274	3.7	0.1	1244.
83588	18.324	3.75	0.1	1232.5
83589	18.175	3.7	0.1	1267.2
83590	18.224	3.75	0.1	1255.6
83591	18.075	3.7	0.1	1290.4
83592	18.125	3.75	0.1	1278.8
83593	17.975	3.7	0.1	1313.6
83594	18.025	3.75	0.1	1302.1
83595	17.876	3.7	0.1	1337.
83596	17.926	3.75	0.1	1325.4
83597	17.776	3.7	0.1	1360.3
83598	17.826	3.75	0.1	1348.7
83599	17.677	3.7	0.1	1383.8
83600	17.726	3.75	0.1	1372.1
83601	17.577	3.7	0.1	1407.3
83602	17.627	3.75	0.1	1395.6
83603	17.477	3.7	0.1	1430.8
83604	17.527	3.75	0.1	1419.1
83605	17.378	3.7	0.1	1454.4
83606	17.428	3.75	0.1	1442.7
83607	17.278	3.7	0.1	1478.1
83608	17.328	3.75	0.1	1466.4
83609	17.179	3.7	0.1	1501.8
83610	17.229	3.75	0.1	1490.1
83611	17.079	3.7	0.1	1525.6
83612	17.129	3.75	0.1	1513.8
83613	16.98	3.7	0.1	1549.5
83614	17.029	3.75	0.1	1537.6
83615	16.88	3.7	0.1	1573.4
83616	16.93	3.75	0.1	1561.5
83617	16.78	3.7	0.1	1597.3
83618	16.83	3.75	0.1	1585.4
83619	16.681	3.7	0.1	1621.3
83620	16.731	3.75	0.1	1609.4
83621	16.581	3.7	0.1	1645.4
83622	16.631	3.75	0.1	1633.5
83623	16.482	3.7	0.1	1669.5
83624	16.531	3.75	0.1	1657.6
83625	16.382	3.7	0.1	1693.7
83626	16.432	3.75	0.1	1681.7
83627	16.282	3.7	0.1	1717.9
83628	16.332	3.75	0.1	1705.9
83629	16.183	3.7	0.1	1742.2
83630	16.233	3.75	0.1	1730.2
83631	16.083	3.7	0.1	1766.5
83632	16.133	3.75	0.1	1754.5
83633	15.984	3.7	0.1	1790.9
83634	16.034	3.75	0.1	1778.9
83635	15.884	3.7	0.1	1815.4
83636	15.934	3.75	0.1	1803.3
83637	15.785	3.7	0.1	1839.9
83638	15.834	3.75	0.1	1827.8
83639	15.685	3.7	0.1	1864.5
83640	15.735	3.75	0.1	1852.3
83641	15.585	3.7	0.1	1889.1
83642	15.635	3.75	0.1	1876.9
83643	15.486	3.7	0.1	1913.8
83644	15.536	3.75	0.1	1901.6
83645	15.386	3.7	0.1	1938.5
83646	15.436	3.75	0.1	1926.3
83647	15.287	3.7	0.1	1963.3
83648	15.336	3.75	0.1	1951.
83649	15.187	3.7	0.1	1988.1
83650	15.237	3.75	0.1	1975.9
83651	15.088	3.7	0.1	2013.
83652	15.137	3.75	0.1	2000.7
83653	14.988	3.7	0.1	2038.
83654	15.038	3.75	0.1	2025.7
83655	14.888	3.7	0.1	2063.
83656	14.938	3.75	0.1	2050.7
83657	14.789	3.7	0.1	2088.1
83658	14.839	3.75	0.1	2075.7
83659	14.689	3.7	0.1	2113.2
83660	14.739	3.75	0.1	2100.8
83661	14.59	3.7	0.1	2138.4
83662	14.639	3.75	0.1	2126.
83663	14.49	3.7	0.1	2163.7
83664	14.54	3.75	0.1	2151.2
83665	14.39	3.7	0.1	2189.
83666	14.44	3.75	0.1	2176.5
83667	14.291	3.7	0.1	2214.4
83668	14.341	3.75	0.1	2201.9
83669	14.191	3.7	0.1	2239.8
83670	14.241	3.75	0.1	2227.3
83671	14.092	3.7	0.1	2265.4
83672	14.142	3.75	0.1	2252.8
83673	13.992	3.7	0.1	2291.
83674	14.042	3.75	0.1	2278.4
83675	13.893	3.7	0.1	2316.7
83676	13.942	3.75	0.1	2304.
83677	13.793	3.7	0.1	2342.5
83678	13.843	3.75	0.1	2329.8
83679	13.693	3.7	0.1	2368.3
83680	13.743	3.75	0.1	2355.6
83681	13.594	3.7	0.1	2394.3
83682	13.644	3.75	0.1	2381.5
83683	13.494	3.7	0.1	2420.4
83684	13.544	3.75	0.1	2407.5
83685	13.395	3.7	0.1	2446.6
83686	13.444	3.75	0.1	2433.7
83687	13.295	3.7	0.1	2472.9
83688	13.345	3.75	0.1	2459.9
83689	13.195	3.7	0.1	2499.3
83690	13.245	3.75	0.1	2486.3
83691	13.096	3.7	0.1	2525.9
83692	13.146	3.75	0.1	2512.8
83693	12.996	3.7	0.1	2552.7
83694	13.046	3.75	0.1	2539.4
83695	12.897	3.7	0.1	2579.6
83696	12.947	3.75	0.1	2566.2
83697	12.797	3.7	0.1	2606.8
83698	12.847	3.75	0.1	2593.2
83699	12.698	3.7	0.1	2634.2
83700	12.747	3.75	0.1	2620.5
83701	12.598	3.7	0.1	2661.8
83702	12.648	3.75	0.1	2647.9
83703	12.498	3.7	0.1	2689.7
83704	12.548	3.75	0.1	2675.6
83705	12.399	3.7	0.1	2717.9
83706	12.449	3.75	0.1	2703.6
83707	12.299	3.7	0.1	2746.5
83708	12.349	3.75	0.1	2731.9
83709	12.2	3.7	0.1	2775.5
83710	12.249	3.75	0.1	2760.6
83711	12.1	3.7	0.1	2804.9
83712	12.15	3.75	0.1	2789.7
83713	12.001	3.7	0.1	2834.9
83714	12.05	3.75	0.1	2819.2
83715	11.901	3.7	0.1	2865.4
83716	11.951	3.75	0.1	2849.3
83717	11.801	3.7	0.1	2896.6
83718	11.851	3.75	0.1	2880.
83719	11.702	3.7	0.1	2928.6
83720	11.752	3.75	0.1	2911.3
83721	11.602	3.7	0.1	2961.4
83722	11.652	3.75	0.1	2943.4
83723	11.503	3.7	0.1	2995.2
83724	11.552	3.75	0.1	2976.4
83725	11.403	3.7	0.1	3030.1
83726	11.453	3.75	0.1	3010.4
83727	11.303	3.7	0.1	3066.2
83728	11.353	3.75	0.1	3045.5
83729	11.204	3.7	0.1	3103.8
83730	11.254	3.75	0.1	3081.8
83731	11.104	3.7	0.1	3143.
83732	11.154	3.75	0.1	3119.6
83733	11.005	3.7	0.1	3184.
83734	11.055	3.75	0.1	3159.
83735	10.905	3.7	0.1	3227.2
83736	10.955	3.75	0.1	3200.3
83737	10.806	3.7	0.1	3272.8
83738	10.855	3.75	0.1	3243.8
83739	10.706	3.7	0.1	3321.1
83740	10.756	3.75	0.1	3289.7
83741	10.606	3.7	0.1	3372.6
83742	10.656	3.75	0.1	3338.3
83743	10.507	3.7	0.1	3427.7
83744	10.557	3.75	0.1	3390.2
83745	10.407	3.7	0.1	3486.9
83746	10.457	3.75	0.1	3445.7
83747	10.308	3.7	0.1	3550.8
83748	10.357	3.75	0.1	3505.3
83749	10.208	3.7	0.1	3620.2
83750	10.258	3.75	0.1	3569.7
83751	10.108	3.7	0.1	3695.8
83752	10.158	3.75	0.1	3639.6
83753	10.009	3.7	0.1	3778.6
83754	10.059	3.75	0.1	3715.8
83755	9.9093	3.7	0.1	3869.8
83756	9.9591	3.75	0.1	3799.4
83757	9.8097	3.7	0.1	3970.7
83758	9.8595	3.75	0.1	3891.5
83759	9.7102	3.7	0.1	4083.
83760	9.76	3.75	0.1	3993.5
83761	9.6106	3.7	0.1	4208.6
83762	9.6604	3.75	0.1	4107.1
83763	9.511	3.7	0.1	4350.
83764	9.5608	3.75	0.1	4234.5
83765	9.4114	3.7	0.1	4510.2
83766	9.4612	3.75	0.1	4378.2
83767	9.3118	3.7	0.1	4693.2
83768	9.3616	3.75	0.1	4541.7
83769	9.2123	3.7	0.1	4903.9
83770	9.2621	3.75	0.1	4729.1
83771	9.1127	3.7	0.1	5149.
83772	9.1625	3.75	0.1	4946.1
83773	9.0131	3.7	0.1	5437.5
83774	9.0629	3.75	0.1	5200.3
83775	8.9135	3.7	0.1	5781.5
83776	8.9633	3.75	0.1	5502.1
83777	8.8139	3.7	0.1	6198.6
83778	8.8637	3.75	0.1	5866.5
83779	8.7144	3.7	0.1	6713.2
83780	8.7642	3.75	0.1	6315.2
83781	8.6148	3.7	0.1	7359.8
83782	8.6646	3.75	0.1	6881.2
83783	8.5152	3.7	0.1	8181.6
83784	8.565	3.75	0.1	7613.9
83785	8.4156	3.7	0.1	9213.7
83786	8.4654	3.75	0.1	8588.7
83787	8.316	3.7	0.1	10408
83788	8.3658	3.75	0.1	9894.3
83789	8.2662	3.75	0.1	11506
83790	8.2165	3.7	0.1	11520
83791	23.851	3.8	0.1	32.15
83792	23.9	3.85	0.1	21.753
83793	23.95	3.8	0.1	11.932
83794	23.751	3.8	0.1	53.18
83795	23.801	3.85	0.1	42.668
83796	23.651	3.8	0.1	74.224
83797	23.701	3.85	0.1	63.706
83798	23.552	3.8	0.1	95.224
83799	23.602	3.85	0.1	84.712
83800	23.452	3.8	0.1	116.18
83801	23.502	3.85	0.1	105.67
83802	23.353	3.8	0.1	137.08
83803	23.403	3.85	0.1	126.58
83804	23.253	3.8	0.1	157.95
83805	23.303	3.85	0.1	147.46
83806	23.154	3.8	0.1	178.79
83807	23.203	3.85	0.1	168.29
83808	23.054	3.8	0.1	199.6
83809	23.104	3.85	0.1	189.1
83810	22.954	3.8	0.1	220.4
83811	23.004	3.85	0.1	209.89
83812	22.855	3.8	0.1	241.19
83813	22.905	3.85	0.1	230.67
83814	22.755	3.8	0.1	261.97
83815	22.805	3.85	0.1	251.45
83816	22.656	3.8	0.1	282.77
83817	22.705	3.85	0.1	272.24
83818	22.556	3.8	0.1	303.57
83819	22.606	3.85	0.1	293.03
83820	22.456	3.8	0.1	324.4
83821	22.506	3.85	0.1	313.84
83822	22.357	3.8	0.1	345.25
83823	22.407	3.85	0.1	334.68
83824	22.257	3.8	0.1	366.13
83825	22.307	3.85	0.1	355.54
83826	22.158	3.8	0.1	387.04
83827	22.208	3.85	0.1	376.43
83828	22.058	3.8	0.1	407.98
83829	22.108	3.85	0.1	397.36
83830	21.959	3.8	0.1	428.97
83831	22.008	3.85	0.1	418.33
83832	21.859	3.8	0.1	449.99
83833	21.909	3.85	0.1	439.34
83834	21.759	3.8	0.1	471.07
83835	21.809	3.85	0.1	460.39
83836	21.66	3.8	0.1	492.19
83837	21.71	3.85	0.1	481.49
83838	21.56	3.8	0.1	513.35
83839	21.61	3.85	0.1	502.64
83840	21.461	3.8	0.1	534.57
83841	21.51	3.85	0.1	523.85
83842	21.361	3.8	0.1	555.84
83843	21.411	3.85	0.1	545.1
83844	21.262	3.8	0.1	577.17
83845	21.311	3.85	0.1	566.4
83846	21.162	3.8	0.1	598.55
83847	21.212	3.85	0.1	587.76
83848	21.062	3.8	0.1	619.99
83849	21.112	3.85	0.1	609.18
83850	20.963	3.8	0.1	641.48
83851	21.013	3.85	0.1	630.65
83852	20.863	3.8	0.1	663.03
83853	20.913	3.85	0.1	652.18
83854	20.764	3.8	0.1	684.63
83855	20.813	3.85	0.1	673.76
83856	20.664	3.8	0.1	706.3
83857	20.714	3.85	0.1	695.41
83858	20.564	3.8	0.1	728.02
83859	20.614	3.85	0.1	717.11
83860	20.465	3.8	0.1	749.81
83861	20.515	3.85	0.1	738.87
83862	20.365	3.8	0.1	771.65
83863	20.415	3.85	0.1	760.69
83864	20.266	3.8	0.1	793.55
83865	20.316	3.85	0.1	782.57
83866	20.166	3.8	0.1	815.51
83867	20.216	3.85	0.1	804.51
83868	20.067	3.8	0.1	837.54
83869	20.116	3.85	0.1	826.51
83870	19.967	3.8	0.1	859.62
83871	20.017	3.85	0.1	848.57
83872	19.867	3.8	0.1	881.76
83873	19.917	3.85	0.1	870.69
83874	19.768	3.8	0.1	903.96
83875	19.818	3.85	0.1	892.87
83876	19.668	3.8	0.1	926.22
83877	19.718	3.85	0.1	915.1
83878	19.569	3.8	0.1	948.55
83879	19.618	3.85	0.1	937.4
83880	19.469	3.8	0.1	970.93
83881	19.519	3.85	0.1	959.76
83882	19.369	3.8	0.1	993.37
83883	19.419	3.85	0.1	982.18
83884	19.27	3.8	0.1	1015.9
83885	19.32	3.85	0.1	1004.7
83886	19.17	3.8	0.1	1038.4
83887	19.22	3.85	0.1	1027.2
83888	19.071	3.8	0.1	1061.1
83889	19.121	3.85	0.1	1049.8
83890	18.971	3.8	0.1	1083.7
83891	19.021	3.85	0.1	1072.4
83892	18.872	3.8	0.1	1106.5
83893	18.921	3.85	0.1	1095.2
83894	18.772	3.8	0.1	1129.3
83895	18.822	3.85	0.1	1117.9
83896	18.672	3.8	0.1	1152.1
83897	18.722	3.85	0.1	1140.8
83898	18.573	3.8	0.1	1175.1
83899	18.623	3.85	0.1	1163.7
83900	18.473	3.8	0.1	1198.
83901	18.523	3.85	0.1	1186.6
83902	18.374	3.8	0.1	1221.1
83903	18.423	3.85	0.1	1209.6
83904	18.274	3.8	0.1	1244.2
83905	18.324	3.85	0.1	1232.7
83906	18.175	3.8	0.1	1267.3
83907	18.224	3.85	0.1	1255.8
83908	18.075	3.8	0.1	1290.5
83909	18.125	3.85	0.1	1279.
83910	17.975	3.8	0.1	1313.8
83911	18.025	3.85	0.1	1302.3
83912	17.876	3.8	0.1	1337.1
83913	17.926	3.85	0.1	1325.6
83914	17.776	3.8	0.1	1360.5
83915	17.826	3.85	0.1	1348.9
83916	17.677	3.8	0.1	1384.
83917	17.726	3.85	0.1	1372.4
83918	17.577	3.8	0.1	1407.5
83919	17.627	3.85	0.1	1395.8
83920	17.477	3.8	0.1	1431.
83921	17.527	3.85	0.1	1419.4
83922	17.378	3.8	0.1	1454.7
83923	17.428	3.85	0.1	1443.
83924	17.278	3.8	0.1	1478.3
83925	17.328	3.85	0.1	1466.6
83926	17.179	3.8	0.1	1502.1
83927	17.229	3.85	0.1	1490.3
83928	17.079	3.8	0.1	1525.9
83929	17.129	3.85	0.1	1514.1
83930	16.98	3.8	0.1	1549.7
83931	17.029	3.85	0.1	1537.9
83932	16.88	3.8	0.1	1573.6
83933	16.93	3.85	0.1	1561.8
83934	16.78	3.8	0.1	1597.6
83935	16.83	3.85	0.1	1585.7
83936	16.681	3.8	0.1	1621.6
83937	16.731	3.85	0.1	1609.7
83938	16.581	3.8	0.1	1645.6
83939	16.631	3.85	0.1	1633.7
83940	16.482	3.8	0.1	1669.8
83941	16.531	3.85	0.1	1657.8
83942	16.382	3.8	0.1	1694.
83943	16.432	3.85	0.1	1682.
83944	16.282	3.8	0.1	1718.2
83945	16.332	3.85	0.1	1706.2
83946	16.183	3.8	0.1	1742.5
83947	16.233	3.85	0.1	1730.5
83948	16.083	3.8	0.1	1766.8
83949	16.133	3.85	0.1	1754.8
83950	15.984	3.8	0.1	1791.2
83951	16.034	3.85	0.1	1779.2
83952	15.884	3.8	0.1	1815.7
83953	15.934	3.85	0.1	1803.6
83954	15.785	3.8	0.1	1840.2
83955	15.834	3.85	0.1	1828.1
83956	15.685	3.8	0.1	1864.8
83957	15.735	3.85	0.1	1852.7
83958	15.585	3.8	0.1	1889.4
83959	15.635	3.85	0.1	1877.3
83960	15.486	3.8	0.1	1914.1
83961	15.536	3.85	0.1	1901.9
83962	15.386	3.8	0.1	1938.8
83963	15.436	3.85	0.1	1926.6
83964	15.287	3.8	0.1	1963.6
83965	15.336	3.85	0.1	1951.4
83966	15.187	3.8	0.1	1988.5
83967	15.237	3.85	0.1	1976.2
83968	15.088	3.8	0.1	2013.4
83969	15.137	3.85	0.1	2001.1
83970	14.988	3.8	0.1	2038.4
83971	15.038	3.85	0.1	2026.1
83972	14.888	3.8	0.1	2063.4
83973	14.938	3.85	0.1	2051.1
83974	14.789	3.8	0.1	2088.5
83975	14.839	3.85	0.1	2076.1
83976	14.689	3.8	0.1	2113.6
83977	14.739	3.85	0.1	2101.2
83978	14.59	3.8	0.1	2138.8
83979	14.639	3.85	0.1	2126.4
83980	14.49	3.8	0.1	2164.1
83981	14.54	3.85	0.1	2151.7
83982	14.39	3.8	0.1	2189.4
83983	14.44	3.85	0.1	2177.
83984	14.291	3.8	0.1	2214.8
83985	14.341	3.85	0.1	2202.3
83986	14.191	3.8	0.1	2240.3
83987	14.241	3.85	0.1	2227.8
83988	14.092	3.8	0.1	2265.8
83989	14.142	3.85	0.1	2253.3
83990	13.992	3.8	0.1	2291.4
83991	14.042	3.85	0.1	2278.9
83992	13.893	3.8	0.1	2317.1
83993	13.942	3.85	0.1	2304.5
83994	13.793	3.8	0.1	2342.9
83995	13.843	3.85	0.1	2330.2
83996	13.693	3.8	0.1	2368.8
83997	13.743	3.85	0.1	2356.1
83998	13.594	3.8	0.1	2394.7
83999	13.644	3.85	0.1	2382.
84000	13.494	3.8	0.1	2420.8
84001	13.544	3.85	0.1	2408.
84002	13.395	3.8	0.1	2447.
84003	13.444	3.85	0.1	2434.1
84004	13.295	3.8	0.1	2473.3
84005	13.345	3.85	0.1	2460.3
84006	13.195	3.8	0.1	2499.7
84007	13.245	3.85	0.1	2486.6
84008	13.096	3.8	0.1	2526.2
84009	13.146	3.85	0.1	2513.1
84010	12.996	3.8	0.1	2553.
84011	13.046	3.85	0.1	2539.7
84012	12.897	3.8	0.1	2579.9
84013	12.947	3.85	0.1	2566.5
84014	12.797	3.8	0.1	2606.9
84015	12.847	3.85	0.1	2593.4
84016	12.698	3.8	0.1	2634.2
84017	12.747	3.85	0.1	2620.6
84018	12.598	3.8	0.1	2661.7
84019	12.648	3.85	0.1	2647.9
84020	12.498	3.8	0.1	2689.5
84021	12.548	3.85	0.1	2675.5
84022	12.399	3.8	0.1	2717.6
84023	12.449	3.85	0.1	2703.4
84024	12.299	3.8	0.1	2746.
84025	12.349	3.85	0.1	2731.5
84026	12.2	3.8	0.1	2774.8
84027	12.249	3.85	0.1	2760.
84028	12.1	3.8	0.1	2804.
84029	12.15	3.85	0.1	2788.9
84030	12.001	3.8	0.1	2833.7
84031	12.05	3.85	0.1	2818.1
84032	11.901	3.8	0.1	2863.9
84033	11.951	3.85	0.1	2847.9
84034	11.801	3.8	0.1	2894.7
84035	11.851	3.85	0.1	2878.2
84036	11.702	3.8	0.1	2926.2
84037	11.752	3.85	0.1	2909.1
84038	11.602	3.8	0.1	2958.5
84039	11.652	3.85	0.1	2940.7
84040	11.503	3.8	0.1	2991.6
84041	11.552	3.85	0.1	2973.
84042	11.403	3.8	0.1	3025.8
84043	11.453	3.85	0.1	3006.3
84044	11.303	3.8	0.1	3061.
84045	11.353	3.85	0.1	3040.5
84046	11.204	3.8	0.1	3097.6
84047	11.254	3.85	0.1	3075.9
84048	11.104	3.8	0.1	3135.6
84049	11.154	3.85	0.1	3112.5
84050	11.005	3.8	0.1	3175.3
84051	11.055	3.85	0.1	3150.7
84052	10.905	3.8	0.1	3216.9
84053	10.955	3.85	0.1	3190.5
84054	10.806	3.8	0.1	3260.7
84055	10.855	3.85	0.1	3232.1
84056	10.706	3.8	0.1	3306.9
84057	10.756	3.85	0.1	3276.
84058	10.606	3.8	0.1	3355.9
84059	10.656	3.85	0.1	3322.3
84060	10.507	3.8	0.1	3408.1
84061	10.557	3.85	0.1	3371.3
84062	10.407	3.8	0.1	3464.
84063	10.457	3.85	0.1	3423.6
84064	10.308	3.8	0.1	3524.2
84065	10.357	3.85	0.1	3479.6
84066	10.208	3.8	0.1	3589.1
84067	10.258	3.85	0.1	3539.7
84068	10.108	3.8	0.1	3659.6
84069	10.158	3.85	0.1	3604.7
84070	10.009	3.8	0.1	3736.6
84071	10.059	3.85	0.1	3675.3
84072	9.9093	3.8	0.1	3821.
84073	9.9591	3.85	0.1	3752.3
84074	9.8097	3.8	0.1	3914.1
84075	9.8595	3.85	0.1	3836.9
84076	9.7102	3.8	0.1	4017.5
84077	9.76	3.85	0.1	3930.2
84078	9.6106	3.8	0.1	4132.9
84079	9.6604	3.85	0.1	4033.9
84080	9.511	3.8	0.1	4262.6
84081	9.5608	3.85	0.1	4149.9
84082	9.4114	3.8	0.1	4409.5
84083	9.4612	3.85	0.1	4280.6
84084	9.3118	3.8	0.1	4577.3
84085	9.3616	3.85	0.1	4429.
84086	9.2123	3.8	0.1	4771.
84087	9.2621	3.85	0.1	4599.3
84088	9.1127	3.8	0.1	4997.2
84089	9.1625	3.85	0.1	4796.8
84090	9.0131	3.8	0.1	5264.9
84091	9.0629	3.85	0.1	5028.8
84092	8.9135	3.8	0.1	5587.5
84093	8.9633	3.85	0.1	5305.8
84094	8.8139	3.8	0.1	5984.3
84095	8.8637	3.85	0.1	5642.9
84096	8.7144	3.8	0.1	6485.9
84097	8.7642	3.85	0.1	6063.5
84098	8.6148	3.8	0.1	7140.7
84099	8.6646	3.85	0.1	6605.2
84100	8.5152	3.8	0.1	8030.9
84101	8.565	3.85	0.1	7332.
84102	8.4156	3.8	0.1	9284.1
84103	8.4654	3.85	0.1	8360.9
84104	8.316	3.8	0.1	10998
84105	8.3658	3.85	0.1	9945.4
84106	8.2662	3.85	0.1	12477
84107	8.2165	3.8	0.1	12856
84108	23.851	3.9	0.1	32.176
84109	23.9	3.95	0.1	21.796
84110	23.95	3.9	0.1	11.952
84111	23.751	3.9	0.1	53.176
84112	23.801	3.95	0.1	42.677
84113	23.651	3.9	0.1	74.189
84114	23.701	3.95	0.1	63.684
84115	23.552	3.9	0.1	95.159
84116	23.602	3.95	0.1	84.657
84117	23.452	3.9	0.1	116.08
84118	23.502	3.95	0.1	105.58
84119	23.353	3.9	0.1	136.96
84120	23.403	3.95	0.1	126.46
84121	23.253	3.9	0.1	157.8
84122	23.303	3.95	0.1	147.3
84123	23.154	3.9	0.1	178.61
84124	23.203	3.95	0.1	168.11
84125	23.054	3.9	0.1	199.4
84126	23.104	3.95	0.1	188.89
84127	22.954	3.9	0.1	220.17
84128	23.004	3.95	0.1	209.66
84129	22.855	3.9	0.1	240.94
84130	22.905	3.95	0.1	230.42
84131	22.755	3.9	0.1	261.72
84132	22.805	3.95	0.1	251.19
84133	22.656	3.9	0.1	282.5
84134	22.705	3.95	0.1	271.96
84135	22.556	3.9	0.1	303.3
84136	22.606	3.95	0.1	292.74
84137	22.456	3.9	0.1	324.12
84138	22.506	3.95	0.1	313.55
84139	22.357	3.9	0.1	344.97
84140	22.407	3.95	0.1	334.38
84141	22.257	3.9	0.1	365.85
84142	22.307	3.95	0.1	355.24
84143	22.158	3.9	0.1	386.76
84144	22.208	3.95	0.1	376.14
84145	22.058	3.9	0.1	407.72
84146	22.108	3.95	0.1	397.08
84147	21.959	3.9	0.1	428.71
84148	22.008	3.95	0.1	418.05
84149	21.859	3.9	0.1	449.75
84150	21.909	3.95	0.1	439.07
84151	21.759	3.9	0.1	470.83
84152	21.809	3.95	0.1	460.14
84153	21.66	3.9	0.1	491.96
84154	21.71	3.95	0.1	481.25
84155	21.56	3.9	0.1	513.15
84156	21.61	3.95	0.1	502.42
84157	21.461	3.9	0.1	534.38
84158	21.51	3.95	0.1	523.64
84159	21.361	3.9	0.1	555.67
84160	21.411	3.95	0.1	544.9
84161	21.262	3.9	0.1	577.01
84162	21.311	3.95	0.1	566.23
84163	21.162	3.9	0.1	598.4
84164	21.212	3.95	0.1	587.6
84165	21.062	3.9	0.1	619.85
84166	21.112	3.95	0.1	609.03
84167	20.963	3.9	0.1	641.36
84168	21.013	3.95	0.1	630.52
84169	20.863	3.9	0.1	662.93
84170	20.913	3.95	0.1	652.07
84171	20.764	3.9	0.1	684.55
84172	20.813	3.95	0.1	673.67
84173	20.664	3.9	0.1	706.23
84174	20.714	3.95	0.1	695.33
84175	20.564	3.9	0.1	727.97
84176	20.614	3.95	0.1	717.05
84177	20.465	3.9	0.1	749.77
84178	20.515	3.95	0.1	738.83
84179	20.365	3.9	0.1	771.63
84180	20.415	3.95	0.1	760.66
84181	20.266	3.9	0.1	793.54
84182	20.316	3.95	0.1	782.56
84183	20.166	3.9	0.1	815.52
84184	20.216	3.95	0.1	804.51
84185	20.067	3.9	0.1	837.55
84186	20.116	3.95	0.1	826.53
84187	19.967	3.9	0.1	859.65
84188	20.017	3.95	0.1	848.6
84189	19.867	3.9	0.1	881.8
84190	19.917	3.95	0.1	870.73
84191	19.768	3.9	0.1	904.02
84192	19.818	3.95	0.1	892.92
84193	19.668	3.9	0.1	926.29
84194	19.718	3.95	0.1	915.17
84195	19.569	3.9	0.1	948.63
84196	19.618	3.95	0.1	937.48
84197	19.469	3.9	0.1	971.02
84198	19.519	3.95	0.1	959.85
84199	19.369	3.9	0.1	993.47
84200	19.419	3.95	0.1	982.28
84201	19.27	3.9	0.1	1016.
84202	19.32	3.95	0.1	1004.8
84203	19.17	3.9	0.1	1038.6
84204	19.22	3.95	0.1	1027.3
84205	19.071	3.9	0.1	1061.2
84206	19.121	3.95	0.1	1049.9
84207	18.971	3.9	0.1	1083.9
84208	19.021	3.95	0.1	1072.6
84209	18.872	3.9	0.1	1106.6
84210	18.921	3.95	0.1	1095.3
84211	18.772	3.9	0.1	1129.4
84212	18.822	3.95	0.1	1118.1
84213	18.672	3.9	0.1	1152.3
84214	18.722	3.95	0.1	1140.9
84215	18.573	3.9	0.1	1175.2
84216	18.623	3.95	0.1	1163.8
84217	18.473	3.9	0.1	1198.2
84218	18.523	3.95	0.1	1186.8
84219	18.374	3.9	0.1	1221.3
84220	18.423	3.95	0.1	1209.8
84221	18.274	3.9	0.1	1244.4
84222	18.324	3.95	0.1	1232.9
84223	18.175	3.9	0.1	1267.5
84224	18.224	3.95	0.1	1256.
84225	18.075	3.9	0.1	1290.8
84226	18.125	3.95	0.1	1279.2
84227	17.975	3.9	0.1	1314.
84228	18.025	3.95	0.1	1302.5
84229	17.876	3.9	0.1	1337.4
84230	17.926	3.95	0.1	1325.8
84231	17.776	3.9	0.1	1360.8
84232	17.826	3.95	0.1	1349.2
84233	17.677	3.9	0.1	1384.2
84234	17.726	3.95	0.1	1372.6
84235	17.577	3.9	0.1	1407.7
84236	17.627	3.95	0.1	1396.1
84237	17.477	3.9	0.1	1431.3
84238	17.527	3.95	0.1	1419.6
84239	17.378	3.9	0.1	1454.9
84240	17.428	3.95	0.1	1443.2
84241	17.278	3.9	0.1	1478.6
84242	17.328	3.95	0.1	1466.9
84243	17.179	3.9	0.1	1502.3
84244	17.229	3.95	0.1	1490.6
84245	17.079	3.9	0.1	1526.1
84246	17.129	3.95	0.1	1514.4
84247	16.98	3.9	0.1	1550.
84248	17.029	3.95	0.1	1538.2
84249	16.88	3.9	0.1	1573.9
84250	16.93	3.95	0.1	1562.1
84251	16.78	3.9	0.1	1597.9
84252	16.83	3.95	0.1	1586.
84253	16.681	3.9	0.1	1621.9
84254	16.731	3.95	0.1	1610.
84255	16.581	3.9	0.1	1646.
84256	16.631	3.95	0.1	1634.1
84257	16.482	3.9	0.1	1670.1
84258	16.531	3.95	0.1	1658.2
84259	16.382	3.9	0.1	1694.3
84260	16.432	3.95	0.1	1682.3
84261	16.282	3.9	0.1	1718.5
84262	16.332	3.95	0.1	1706.6
84263	16.183	3.9	0.1	1742.8
84264	16.233	3.95	0.1	1730.8
84265	16.083	3.9	0.1	1767.2
84266	16.133	3.95	0.1	1755.2
84267	15.984	3.9	0.1	1791.6
84268	16.034	3.95	0.1	1779.6
84269	15.884	3.9	0.1	1816.1
84270	15.934	3.95	0.1	1804.
84271	15.785	3.9	0.1	1840.6
84272	15.834	3.95	0.1	1828.5
84273	15.685	3.9	0.1	1865.2
84274	15.735	3.95	0.1	1853.1
84275	15.585	3.9	0.1	1889.8
84276	15.635	3.95	0.1	1877.7
84277	15.486	3.9	0.1	1914.5
84278	15.536	3.95	0.1	1902.3
84279	15.386	3.9	0.1	1939.2
84280	15.436	3.95	0.1	1927.1
84281	15.287	3.9	0.1	1964.
84282	15.336	3.95	0.1	1951.8
84283	15.187	3.9	0.1	1988.9
84284	15.237	3.95	0.1	1976.7
84285	15.088	3.9	0.1	2013.8
84286	15.137	3.95	0.1	2001.6
84287	14.988	3.9	0.1	2038.8
84288	15.038	3.95	0.1	2026.5
84289	14.888	3.9	0.1	2063.8
84290	14.938	3.95	0.1	2051.5
84291	14.789	3.9	0.1	2088.9
84292	14.839	3.95	0.1	2076.6
84293	14.689	3.9	0.1	2114.1
84294	14.739	3.95	0.1	2101.7
84295	14.59	3.9	0.1	2139.3
84296	14.639	3.95	0.1	2126.9
84297	14.49	3.9	0.1	2164.5
84298	14.54	3.95	0.1	2152.2
84299	14.39	3.9	0.1	2189.9
84300	14.44	3.95	0.1	2177.5
84301	14.291	3.9	0.1	2215.3
84302	14.341	3.95	0.1	2202.8
84303	14.191	3.9	0.1	2240.8
84304	14.241	3.95	0.1	2228.3
84305	14.092	3.9	0.1	2266.3
84306	14.142	3.95	0.1	2253.8
84307	13.992	3.9	0.1	2291.9
84308	14.042	3.95	0.1	2279.4
84309	13.893	3.9	0.1	2317.6
84310	13.942	3.95	0.1	2305.
84311	13.793	3.9	0.1	2343.4
84312	13.843	3.95	0.1	2330.8
84313	13.693	3.9	0.1	2369.3
84314	13.743	3.95	0.1	2356.6
84315	13.594	3.9	0.1	2395.2
84316	13.644	3.95	0.1	2382.5
84317	13.494	3.9	0.1	2421.3
84318	13.544	3.95	0.1	2408.5
84319	13.395	3.9	0.1	2447.4
84320	13.444	3.95	0.1	2434.6
84321	13.295	3.9	0.1	2473.7
84322	13.345	3.95	0.1	2460.8
84323	13.195	3.9	0.1	2500.1
84324	13.245	3.95	0.1	2487.1
84325	13.096	3.9	0.1	2526.6
84326	13.146	3.95	0.1	2513.5
84327	12.996	3.9	0.1	2553.3
84328	13.046	3.95	0.1	2540.1
84329	12.897	3.9	0.1	2580.1
84330	12.947	3.95	0.1	2566.8
84331	12.797	3.9	0.1	2607.1
84332	12.847	3.95	0.1	2593.7
84333	12.698	3.9	0.1	2634.3
84334	12.747	3.95	0.1	2620.7
84335	12.598	3.9	0.1	2661.7
84336	12.648	3.95	0.1	2647.9
84337	12.498	3.9	0.1	2689.4
84338	12.548	3.95	0.1	2675.4
84339	12.399	3.9	0.1	2717.3
84340	12.449	3.95	0.1	2703.1
84341	12.299	3.9	0.1	2745.5
84342	12.349	3.95	0.1	2731.1
84343	12.2	3.9	0.1	2774.
84344	12.249	3.95	0.1	2759.3
84345	12.1	3.9	0.1	2803.
84346	12.15	3.95	0.1	2787.9
84347	12.001	3.9	0.1	2832.3
84348	12.05	3.95	0.1	2816.9
84349	11.901	3.9	0.1	2862.2
84350	11.951	3.95	0.1	2846.3
84351	11.801	3.9	0.1	2892.6
84352	11.851	3.95	0.1	2876.2
84353	11.702	3.9	0.1	2923.5
84354	11.752	3.95	0.1	2906.6
84355	11.602	3.9	0.1	2955.2
84356	11.652	3.95	0.1	2937.6
84357	11.503	3.9	0.1	2987.7
84358	11.552	3.95	0.1	2969.3
84359	11.403	3.9	0.1	3021.
84360	11.453	3.95	0.1	3001.8
84361	11.303	3.9	0.1	3055.3
84362	11.353	3.95	0.1	3035.1
84363	11.204	3.9	0.1	3090.8
84364	11.254	3.95	0.1	3069.4
84365	11.104	3.9	0.1	3127.6
84366	11.154	3.95	0.1	3104.9
84367	11.005	3.9	0.1	3165.8
84368	11.055	3.95	0.1	3141.6
84369	10.905	3.9	0.1	3205.7
84370	10.955	3.95	0.1	3179.7
84371	10.806	3.9	0.1	3247.4
84372	10.855	3.95	0.1	3219.5
84373	10.706	3.9	0.1	3291.3
84374	10.756	3.95	0.1	3261.1
84375	10.606	3.9	0.1	3337.7
84376	10.656	3.95	0.1	3304.8
84377	10.507	3.9	0.1	3386.8
84378	10.557	3.95	0.1	3351.
84379	10.407	3.9	0.1	3439.2
84380	10.457	3.95	0.1	3399.8
84381	10.308	3.9	0.1	3495.1
84382	10.357	3.95	0.1	3451.8
84383	10.208	3.9	0.1	3555.3
84384	10.258	3.95	0.1	3507.5
84385	10.108	3.9	0.1	3620.4
84386	10.158	3.95	0.1	3567.2
84387	10.009	3.9	0.1	3691.
84388	10.059	3.95	0.1	3631.7
84389	9.9093	3.9	0.1	3768.1
84390	9.9591	3.95	0.1	3701.8
84391	9.8097	3.9	0.1	3852.9
84392	9.8595	3.95	0.1	3778.3
84393	9.7102	3.9	0.1	3946.5
84394	9.76	3.95	0.1	3862.4
84395	9.6106	3.9	0.1	4050.8
84396	9.6604	3.95	0.1	3955.5
84397	9.511	3.9	0.1	4167.7
84398	9.5608	3.95	0.1	4059.1
84399	9.4114	3.9	0.1	4299.8
84400	9.4612	3.95	0.1	4175.6
84401	9.3118	3.9	0.1	4450.7
84402	9.3616	3.95	0.1	4307.6
84403	9.2123	3.9	0.1	4624.7
84404	9.2621	3.95	0.1	4458.8
84405	9.1127	3.9	0.1	4828.
84406	9.1625	3.95	0.1	4634.
84407	9.0131	3.9	0.1	5069.3
84408	9.0629	3.95	0.1	4839.8
84409	8.9135	3.9	0.1	5361.1
84410	8.9633	3.95	0.1	5085.6
84411	8.8139	3.9	0.1	5722.5
84412	8.8637	3.95	0.1	5385.1
84413	8.7144	3.9	0.1	6184.3
84414	8.7642	3.95	0.1	5759.8
84415	8.6148	3.9	0.1	6800.5
84416	8.6646	3.95	0.1	6244.7
84417	8.5152	3.9	0.1	7671.8
84418	8.565	3.95	0.1	6903.5
84419	8.4156	3.9	0.1	9043.8
84420	8.4654	3.95	0.1	7862.6
84421	8.316	3.9	0.1	11448
84422	8.3658	3.95	0.1	9430.6
84423	8.2662	3.95	0.1	13206
84424	8.2165	3.9	0.1	14527
84425	23.851	4.	0.1	32.203
84426	23.9	4.05	0.1	21.843
84427	23.95	4.	0.1	11.973
84428	23.751	4.	0.1	53.168
84429	23.801	4.05	0.1	42.686
84430	23.651	4.	0.1	74.147
84431	23.701	4.05	0.1	63.656
84432	23.552	4.	0.1	95.082
84433	23.602	4.05	0.1	84.592
84434	23.452	4.	0.1	115.97
84435	23.502	4.05	0.1	105.48
84436	23.353	4.	0.1	136.81
84437	23.403	4.05	0.1	126.32
84438	23.253	4.	0.1	157.62
84439	23.303	4.05	0.1	147.13
84440	23.154	4.	0.1	178.4
84441	23.203	4.05	0.1	167.9
84442	23.054	4.	0.1	199.16
84443	23.104	4.05	0.1	188.66
84444	22.954	4.	0.1	219.92
84445	23.004	4.05	0.1	209.4
84446	22.855	4.	0.1	240.67
84447	22.905	4.05	0.1	230.14
84448	22.755	4.	0.1	261.43
84449	22.805	4.05	0.1	250.89
84450	22.656	4.	0.1	282.2
84451	22.705	4.05	0.1	271.64
84452	22.556	4.	0.1	303.
84453	22.606	4.05	0.1	292.42
84454	22.456	4.	0.1	323.81
84455	22.506	4.05	0.1	313.22
84456	22.357	4.	0.1	344.66
84457	22.407	4.05	0.1	334.05
84458	22.257	4.	0.1	365.54
84459	22.307	4.05	0.1	354.92
84460	22.158	4.	0.1	386.46
84461	22.208	4.05	0.1	375.82
84462	22.058	4.	0.1	407.42
84463	22.108	4.05	0.1	396.77
84464	21.959	4.	0.1	428.43
84465	22.008	4.05	0.1	417.75
84466	21.859	4.	0.1	449.48
84467	21.909	4.05	0.1	438.79
84468	21.759	4.	0.1	470.57
84469	21.809	4.05	0.1	459.87
84470	21.66	4.	0.1	491.72
84471	21.71	4.05	0.1	481.
84472	21.56	4.	0.1	512.92
84473	21.61	4.05	0.1	502.18
84474	21.461	4.	0.1	534.17
84475	21.51	4.05	0.1	523.41
84476	21.361	4.	0.1	555.47
84477	21.411	4.05	0.1	544.7
84478	21.262	4.	0.1	576.83
84479	21.311	4.05	0.1	566.04
84480	21.162	4.	0.1	598.25
84481	21.212	4.05	0.1	587.43
84482	21.062	4.	0.1	619.72
84483	21.112	4.05	0.1	608.88
84484	20.963	4.	0.1	641.24
84485	21.013	4.05	0.1	630.39
84486	20.863	4.	0.1	662.82
84487	20.913	4.05	0.1	651.96
84488	20.764	4.	0.1	684.46
84489	20.813	4.05	0.1	673.58
84490	20.664	4.	0.1	706.16
84491	20.714	4.05	0.1	695.26
84492	20.564	4.	0.1	727.92
84493	20.614	4.05	0.1	716.99
84494	20.465	4.	0.1	749.73
84495	20.515	4.05	0.1	738.79
84496	20.365	4.	0.1	771.61
84497	20.415	4.05	0.1	760.64
84498	20.266	4.	0.1	793.54
84499	20.316	4.05	0.1	782.55
84500	20.166	4.	0.1	815.53
84501	20.216	4.05	0.1	804.52
84502	20.067	4.	0.1	837.58
84503	20.116	4.05	0.1	826.55
84504	19.967	4.	0.1	859.69
84505	20.017	4.05	0.1	848.64
84506	19.867	4.	0.1	881.86
84507	19.917	4.05	0.1	870.79
84508	19.768	4.	0.1	904.09
84509	19.818	4.05	0.1	892.99
84510	19.668	4.	0.1	926.37
84511	19.718	4.05	0.1	915.26
84512	19.569	4.	0.1	948.72
84513	19.618	4.05	0.1	937.58
84514	19.469	4.	0.1	971.13
84515	19.519	4.05	0.1	959.96
84516	19.369	4.	0.1	993.59
84517	19.419	4.05	0.1	982.4
84518	19.27	4.	0.1	1016.1
84519	19.32	4.05	0.1	1004.9
84520	19.17	4.	0.1	1038.7
84521	19.22	4.05	0.1	1027.5
84522	19.071	4.	0.1	1061.3
84523	19.121	4.05	0.1	1050.1
84524	18.971	4.	0.1	1084.
84525	19.021	4.05	0.1	1072.8
84526	18.872	4.	0.1	1106.8
84527	18.921	4.05	0.1	1095.5
84528	18.772	4.	0.1	1129.6
84529	18.822	4.05	0.1	1118.3
84530	18.672	4.	0.1	1152.5
84531	18.722	4.05	0.1	1141.1
84532	18.573	4.	0.1	1175.4
84533	18.623	4.05	0.1	1164.1
84534	18.473	4.	0.1	1198.4
84535	18.523	4.05	0.1	1187.
84536	18.374	4.	0.1	1221.5
84537	18.423	4.05	0.1	1210.1
84538	18.274	4.	0.1	1244.6
84539	18.324	4.05	0.1	1233.1
84540	18.175	4.	0.1	1267.8
84541	18.224	4.05	0.1	1256.3
84542	18.075	4.	0.1	1291.
84543	18.125	4.05	0.1	1279.5
84544	17.975	4.	0.1	1314.3
84545	18.025	4.05	0.1	1302.7
84546	17.876	4.	0.1	1337.6
84547	17.926	4.05	0.1	1326.1
84548	17.776	4.	0.1	1361.
84549	17.826	4.05	0.1	1349.4
84550	17.677	4.	0.1	1384.5
84551	17.726	4.05	0.1	1372.9
84552	17.577	4.	0.1	1408.
84553	17.627	4.05	0.1	1396.4
84554	17.477	4.	0.1	1431.6
84555	17.527	4.05	0.1	1419.9
84556	17.378	4.	0.1	1455.2
84557	17.428	4.05	0.1	1443.5
84558	17.278	4.	0.1	1478.9
84559	17.328	4.05	0.1	1467.2
84560	17.179	4.	0.1	1502.6
84561	17.229	4.05	0.1	1490.9
84562	17.079	4.	0.1	1526.4
84563	17.129	4.05	0.1	1514.7
84564	16.98	4.	0.1	1550.3
84565	17.029	4.05	0.1	1538.5
84566	16.88	4.	0.1	1574.2
84567	16.93	4.05	0.1	1562.4
84568	16.78	4.	0.1	1598.2
84569	16.83	4.05	0.1	1586.4
84570	16.681	4.	0.1	1622.2
84571	16.731	4.05	0.1	1610.4
84572	16.581	4.	0.1	1646.3
84573	16.631	4.05	0.1	1634.4
84574	16.482	4.	0.1	1670.4
84575	16.531	4.05	0.1	1658.5
84576	16.382	4.	0.1	1694.6
84577	16.432	4.05	0.1	1682.7
84578	16.282	4.	0.1	1718.9
84579	16.332	4.05	0.1	1706.9
84580	16.183	4.	0.1	1743.2
84581	16.233	4.05	0.1	1731.2
84582	16.083	4.	0.1	1767.6
84583	16.133	4.05	0.1	1755.6
84584	15.984	4.	0.1	1792.
84585	16.034	4.05	0.1	1780.
84586	15.884	4.	0.1	1816.5
84587	15.934	4.05	0.1	1804.4
84588	15.785	4.	0.1	1841.
84589	15.834	4.05	0.1	1828.9
84590	15.685	4.	0.1	1865.6
84591	15.735	4.05	0.1	1853.5
84592	15.585	4.	0.1	1890.2
84593	15.635	4.05	0.1	1878.1
84594	15.486	4.	0.1	1914.9
84595	15.536	4.05	0.1	1902.8
84596	15.386	4.	0.1	1939.7
84597	15.436	4.05	0.1	1927.5
84598	15.287	4.	0.1	1964.5
84599	15.336	4.05	0.1	1952.3
84600	15.187	4.	0.1	1989.4
84601	15.237	4.05	0.1	1977.1
84602	15.088	4.	0.1	2014.3
84603	15.137	4.05	0.1	2002.1
84604	14.988	4.	0.1	2039.3
84605	15.038	4.05	0.1	2027.
84606	14.888	4.	0.1	2064.3
84607	14.938	4.05	0.1	2052.
84608	14.789	4.	0.1	2089.4
84609	14.839	4.05	0.1	2077.1
84610	14.689	4.	0.1	2114.6
84611	14.739	4.05	0.1	2102.2
84612	14.59	4.	0.1	2139.8
84613	14.639	4.05	0.1	2127.4
84614	14.49	4.	0.1	2165.1
84615	14.54	4.05	0.1	2152.7
84616	14.39	4.	0.1	2190.4
84617	14.44	4.05	0.1	2178.
84618	14.291	4.	0.1	2215.8
84619	14.341	4.05	0.1	2203.4
84620	14.191	4.	0.1	2241.3
84621	14.241	4.05	0.1	2228.8
84622	14.092	4.	0.1	2266.9
84623	14.142	4.05	0.1	2254.4
84624	13.992	4.	0.1	2292.5
84625	14.042	4.05	0.1	2280.
84626	13.893	4.	0.1	2318.2
84627	13.942	4.05	0.1	2305.6
84628	13.793	4.	0.1	2343.9
84629	13.843	4.05	0.1	2331.3
84630	13.693	4.	0.1	2369.8
84631	13.743	4.05	0.1	2357.2
84632	13.594	4.	0.1	2395.7
84633	13.644	4.05	0.1	2383.
84634	13.494	4.	0.1	2421.8
84635	13.544	4.05	0.1	2409.
84636	13.395	4.	0.1	2447.9
84637	13.444	4.05	0.1	2435.1
84638	13.295	4.	0.1	2474.2
84639	13.345	4.05	0.1	2461.3
84640	13.195	4.	0.1	2500.5
84641	13.245	4.05	0.1	2487.5
84642	13.096	4.	0.1	2527.
84643	13.146	4.05	0.1	2513.9
84644	12.996	4.	0.1	2553.6
84645	13.046	4.05	0.1	2540.5
84646	12.897	4.	0.1	2580.4
84647	12.947	4.05	0.1	2567.1
84648	12.797	4.	0.1	2607.3
84649	12.847	4.05	0.1	2593.9
84650	12.698	4.	0.1	2634.4
84651	12.747	4.05	0.1	2620.8
84652	12.598	4.	0.1	2661.7
84653	12.648	4.05	0.1	2648.
84654	12.498	4.	0.1	2689.2
84655	12.548	4.05	0.1	2675.3
84656	12.399	4.	0.1	2716.9
84657	12.449	4.05	0.1	2702.8
84658	12.299	4.	0.1	2744.9
84659	12.349	4.05	0.1	2730.6
84660	12.2	4.	0.1	2773.2
84661	12.249	4.05	0.1	2758.6
84662	12.1	4.	0.1	2801.9
84663	12.15	4.05	0.1	2787.
84664	12.001	4.	0.1	2830.9
84665	12.05	4.05	0.1	2815.6
84666	11.901	4.	0.1	2860.3
84667	11.951	4.05	0.1	2844.6
84668	11.801	4.	0.1	2890.2
84669	11.851	4.05	0.1	2874.1
84670	11.702	4.	0.1	2920.7
84671	11.752	4.05	0.1	2903.9
84672	11.602	4.	0.1	2951.7
84673	11.652	4.05	0.1	2934.3
84674	11.503	4.	0.1	2983.4
84675	11.552	4.05	0.1	2965.3
84676	11.403	4.	0.1	3015.9
84677	11.453	4.05	0.1	2996.9
84678	11.303	4.	0.1	3049.2
84679	11.353	4.05	0.1	3029.3
84680	11.204	4.	0.1	3083.5
84681	11.254	4.05	0.1	3062.5
84682	11.104	4.	0.1	3118.9
84683	11.154	4.05	0.1	3096.6
84684	11.005	4.	0.1	3155.5
84685	11.055	4.05	0.1	3131.8
84686	10.905	4.	0.1	3193.5
84687	10.955	4.05	0.1	3168.2
84688	10.806	4.	0.1	3233.2
84689	10.855	4.05	0.1	3206.
84690	10.706	4.	0.1	3274.6
84691	10.756	4.05	0.1	3245.3
84692	10.606	4.	0.1	3318.1
84693	10.656	4.05	0.1	3286.3
84694	10.507	4.	0.1	3364.
84695	10.557	4.05	0.1	3329.3
84696	10.407	4.	0.1	3412.5
84697	10.457	4.05	0.1	3374.6
84698	10.308	4.	0.1	3464.1
84699	10.357	4.05	0.1	3422.4
84700	10.208	4.	0.1	3519.3
84701	10.258	4.05	0.1	3473.2
84702	10.108	4.	0.1	3578.5
84703	10.158	4.05	0.1	3527.5
84704	10.009	4.	0.1	3642.4
84705	10.059	4.05	0.1	3585.6
84706	9.9093	4.	0.1	3711.9
84707	9.9591	4.05	0.1	3648.4
84708	9.8097	4.	0.1	3787.7
84709	9.8595	4.05	0.1	3716.5
84710	9.7102	4.	0.1	3871.1
84711	9.76	4.05	0.1	3790.9
84712	9.6106	4.	0.1	3963.5
84713	9.6604	4.05	0.1	3872.7
84714	9.511	4.	0.1	4066.7
84715	9.5608	4.05	0.1	3963.4
84716	9.4114	4.	0.1	4183.
84717	9.4612	4.05	0.1	4064.9
84718	9.3118	4.	0.1	4315.3
84719	9.3616	4.05	0.1	4179.4
84720	9.2123	4.	0.1	4467.6
84721	9.2621	4.05	0.1	4310.1
84722	9.1127	4.	0.1	4645.1
84723	9.1625	4.05	0.1	4460.9
84724	9.0131	4.	0.1	4855.3
84725	9.0629	4.05	0.1	4637.5
84726	8.9135	4.	0.1	5108.9
84727	8.9633	4.05	0.1	4847.4
84728	8.8139	4.	0.1	5421.9
84729	8.8637	4.05	0.1	5101.7
84730	8.7144	4.	0.1	5820.3
84731	8.7642	4.05	0.1	5417.2
84732	8.6148	4.	0.1	6349.7
84733	8.6646	4.05	0.1	5820.4
84734	8.5152	4.	0.1	7101.
84735	8.565	4.05	0.1	6358.7
84736	8.4156	4.	0.1	8274.8
84737	8.4654	4.05	0.1	7123.4
84738	8.316	4.	0.1	11312
84739	8.3658	4.05	0.1	8341.4
84740	8.2662	4.05	0.1	11423
84741	8.2165	4.	0.1	18481
84742	23.851	4.1	0.1	32.232
84743	23.9	4.15	0.1	21.893
84744	23.95	4.1	0.1	11.997
84745	23.751	4.1	0.1	53.157
84746	23.801	4.15	0.1	42.693
84747	23.651	4.1	0.1	74.096
84748	23.701	4.15	0.1	63.621
84749	23.552	4.1	0.1	94.991
84750	23.602	4.15	0.1	84.514
84751	23.452	4.1	0.1	115.84
84752	23.502	4.15	0.1	105.36
84753	23.353	4.1	0.1	136.64
84754	23.403	4.15	0.1	126.16
84755	23.253	4.1	0.1	157.42
84756	23.303	4.15	0.1	146.93
84757	23.154	4.1	0.1	178.16
84758	23.203	4.15	0.1	167.67
84759	23.054	4.1	0.1	198.9
84760	23.104	4.15	0.1	188.39
84761	22.954	4.1	0.1	219.63
84762	23.004	4.15	0.1	209.1
84763	22.855	4.1	0.1	240.36
84764	22.905	4.15	0.1	229.82
84765	22.755	4.1	0.1	261.11
84766	22.805	4.15	0.1	250.55
84767	22.656	4.1	0.1	281.87
84768	22.705	4.15	0.1	271.29
84769	22.556	4.1	0.1	302.65
84770	22.606	4.15	0.1	292.06
84771	22.456	4.1	0.1	323.47
84772	22.506	4.15	0.1	312.86
84773	22.357	4.1	0.1	344.32
84774	22.407	4.15	0.1	333.69
84775	22.257	4.1	0.1	365.21
84776	22.307	4.15	0.1	354.56
84777	22.158	4.1	0.1	386.13
84778	22.208	4.15	0.1	375.47
84779	22.058	4.1	0.1	407.1
84780	22.108	4.15	0.1	396.43
84781	21.959	4.1	0.1	428.12
84782	22.008	4.15	0.1	417.43
84783	21.859	4.1	0.1	449.18
84784	21.909	4.15	0.1	438.48
84785	21.759	4.1	0.1	470.3
84786	21.809	4.15	0.1	459.57
84787	21.66	4.1	0.1	491.46
84788	21.71	4.15	0.1	480.72
84789	21.56	4.1	0.1	512.68
84790	21.61	4.15	0.1	501.92
84791	21.461	4.1	0.1	533.95
84792	21.51	4.15	0.1	523.17
84793	21.361	4.1	0.1	555.27
84794	21.411	4.15	0.1	544.48
84795	21.262	4.1	0.1	576.65
84796	21.311	4.15	0.1	565.84
84797	21.162	4.1	0.1	598.08
84798	21.212	4.15	0.1	587.26
84799	21.062	4.1	0.1	619.57
84800	21.112	4.15	0.1	608.73
84801	20.963	4.1	0.1	641.12
84802	21.013	4.15	0.1	630.26
84803	20.863	4.1	0.1	662.72
84804	20.913	4.15	0.1	651.84
84805	20.764	4.1	0.1	684.38
84806	20.813	4.15	0.1	673.49
84807	20.664	4.1	0.1	706.1
84808	20.714	4.15	0.1	695.18
84809	20.564	4.1	0.1	727.87
84810	20.614	4.15	0.1	716.94
84811	20.465	4.1	0.1	749.71
84812	20.515	4.15	0.1	738.75
84813	20.365	4.1	0.1	771.6
84814	20.415	4.15	0.1	760.63
84815	20.266	4.1	0.1	793.55
84816	20.316	4.15	0.1	782.56
84817	20.166	4.1	0.1	815.55
84818	20.216	4.15	0.1	804.54
84819	20.067	4.1	0.1	837.62
84820	20.116	4.15	0.1	826.59
84821	19.967	4.1	0.1	859.75
84822	20.017	4.15	0.1	848.69
84823	19.867	4.1	0.1	881.93
84824	19.917	4.15	0.1	870.86
84825	19.768	4.1	0.1	904.17
84826	19.818	4.15	0.1	893.08
84827	19.668	4.1	0.1	926.47
84828	19.718	4.15	0.1	915.36
84829	19.569	4.1	0.1	948.83
84830	19.618	4.15	0.1	937.69
84831	19.469	4.1	0.1	971.25
84832	19.519	4.15	0.1	960.09
84833	19.369	4.1	0.1	993.73
84834	19.419	4.15	0.1	982.54
84835	19.27	4.1	0.1	1016.3
84836	19.32	4.15	0.1	1005.1
84837	19.17	4.1	0.1	1038.9
84838	19.22	4.15	0.1	1027.6
84839	19.071	4.1	0.1	1061.5
84840	19.121	4.15	0.1	1050.3
84841	18.971	4.1	0.1	1084.2
84842	19.021	4.15	0.1	1072.9
84843	18.872	4.1	0.1	1107.
84844	18.921	4.15	0.1	1095.7
84845	18.772	4.1	0.1	1129.8
84846	18.822	4.15	0.1	1118.5
84847	18.672	4.1	0.1	1152.7
84848	18.722	4.15	0.1	1141.4
84849	18.573	4.1	0.1	1175.7
84850	18.623	4.15	0.1	1164.3
84851	18.473	4.1	0.1	1198.7
84852	18.523	4.15	0.1	1187.3
84853	18.374	4.1	0.1	1221.7
84854	18.423	4.15	0.1	1210.3
84855	18.274	4.1	0.1	1244.8
84856	18.324	4.15	0.1	1233.4
84857	18.175	4.1	0.1	1268.
84858	18.224	4.15	0.1	1256.5
84859	18.075	4.1	0.1	1291.3
84860	18.125	4.15	0.1	1279.8
84861	17.975	4.1	0.1	1314.5
84862	18.025	4.15	0.1	1303.
84863	17.876	4.1	0.1	1337.9
84864	17.926	4.15	0.1	1326.4
84865	17.776	4.1	0.1	1361.3
84866	17.826	4.15	0.1	1349.7
84867	17.677	4.1	0.1	1384.8
84868	17.726	4.15	0.1	1373.2
84869	17.577	4.1	0.1	1408.3
84870	17.627	4.15	0.1	1396.7
84871	17.477	4.1	0.1	1431.9
84872	17.527	4.15	0.1	1420.2
84873	17.378	4.1	0.1	1455.5
84874	17.428	4.15	0.1	1443.8
84875	17.278	4.1	0.1	1479.2
84876	17.328	4.15	0.1	1467.5
84877	17.179	4.1	0.1	1503.
84878	17.229	4.15	0.1	1491.2
84879	17.079	4.1	0.1	1526.8
84880	17.129	4.15	0.1	1515.
84881	16.98	4.1	0.1	1550.6
84882	17.029	4.15	0.1	1538.9
84883	16.88	4.1	0.1	1574.6
84884	16.93	4.15	0.1	1562.8
84885	16.78	4.1	0.1	1598.5
84886	16.83	4.15	0.1	1586.7
84887	16.681	4.1	0.1	1622.6
84888	16.731	4.15	0.1	1610.7
84889	16.581	4.1	0.1	1646.7
84890	16.631	4.15	0.1	1634.8
84891	16.482	4.1	0.1	1670.8
84892	16.531	4.15	0.1	1658.9
84893	16.382	4.1	0.1	1695.
84894	16.432	4.15	0.1	1683.1
84895	16.282	4.1	0.1	1719.3
84896	16.332	4.15	0.1	1707.4
84897	16.183	4.1	0.1	1743.6
84898	16.233	4.15	0.1	1731.6
84899	16.083	4.1	0.1	1768.
84900	16.133	4.15	0.1	1756.
84901	15.984	4.1	0.1	1792.4
84902	16.034	4.15	0.1	1780.4
84903	15.884	4.1	0.1	1816.9
84904	15.934	4.15	0.1	1804.9
84905	15.785	4.1	0.1	1841.4
84906	15.834	4.15	0.1	1829.4
84907	15.685	4.1	0.1	1866.
84908	15.735	4.15	0.1	1854.
84909	15.585	4.1	0.1	1890.7
84910	15.635	4.15	0.1	1878.6
84911	15.486	4.1	0.1	1915.4
84912	15.536	4.15	0.1	1903.3
84913	15.386	4.1	0.1	1940.2
84914	15.436	4.15	0.1	1928.
84915	15.287	4.1	0.1	1965.
84916	15.336	4.15	0.1	1952.8
84917	15.187	4.1	0.1	1989.9
84918	15.237	4.15	0.1	1977.7
84919	15.088	4.1	0.1	2014.8
84920	15.137	4.15	0.1	2002.6
84921	14.988	4.1	0.1	2039.8
84922	15.038	4.15	0.1	2027.6
84923	14.888	4.1	0.1	2064.8
84924	14.938	4.15	0.1	2052.6
84925	14.789	4.1	0.1	2090.
84926	14.839	4.15	0.1	2077.7
84927	14.689	4.1	0.1	2115.1
84928	14.739	4.15	0.1	2102.8
84929	14.59	4.1	0.1	2140.4
84930	14.639	4.15	0.1	2128.
84931	14.49	4.1	0.1	2165.6
84932	14.54	4.15	0.1	2153.3
84933	14.39	4.1	0.1	2191.
84934	14.44	4.15	0.1	2178.6
84935	14.291	4.1	0.1	2216.4
84936	14.341	4.15	0.1	2204.
84937	14.191	4.1	0.1	2241.9
84938	14.241	4.15	0.1	2229.5
84939	14.092	4.1	0.1	2267.5
84940	14.142	4.15	0.1	2255.
84941	13.992	4.1	0.1	2293.1
84942	14.042	4.15	0.1	2280.6
84943	13.893	4.1	0.1	2318.8
84944	13.942	4.15	0.1	2306.2
84945	13.793	4.1	0.1	2344.5
84946	13.843	4.15	0.1	2332.
84947	13.693	4.1	0.1	2370.4
84948	13.743	4.15	0.1	2357.8
84949	13.594	4.1	0.1	2396.3
84950	13.644	4.15	0.1	2383.7
84951	13.494	4.1	0.1	2422.3
84952	13.544	4.15	0.1	2409.6
84953	13.395	4.1	0.1	2448.5
84954	13.444	4.15	0.1	2435.7
84955	13.295	4.1	0.1	2474.7
84956	13.345	4.15	0.1	2461.8
84957	13.195	4.1	0.1	2501.
84958	13.245	4.15	0.1	2488.1
84959	13.096	4.1	0.1	2527.4
84960	13.146	4.15	0.1	2514.4
84961	12.996	4.1	0.1	2554.
84962	13.046	4.15	0.1	2540.9
84963	12.897	4.1	0.1	2580.6
84964	12.947	4.15	0.1	2567.5
84965	12.797	4.1	0.1	2607.5
84966	12.847	4.15	0.1	2594.2
84967	12.698	4.1	0.1	2634.5
84968	12.747	4.15	0.1	2621.
84969	12.598	4.1	0.1	2661.6
84970	12.648	4.15	0.1	2648.
84971	12.498	4.1	0.1	2689.
84972	12.548	4.15	0.1	2675.2
84973	12.399	4.1	0.1	2716.5
84974	12.449	4.15	0.1	2702.5
84975	12.299	4.1	0.1	2744.3
84976	12.349	4.15	0.1	2730.1
84977	12.2	4.1	0.1	2772.4
84978	12.249	4.15	0.1	2757.9
84979	12.1	4.1	0.1	2800.7
84980	12.15	4.15	0.1	2785.9
84981	12.001	4.1	0.1	2829.3
84982	12.05	4.15	0.1	2814.2
84983	11.901	4.1	0.1	2858.4
84984	11.951	4.15	0.1	2842.8
84985	11.801	4.1	0.1	2887.8
84986	11.851	4.15	0.1	2871.8
84987	11.702	4.1	0.1	2917.6
84988	11.752	4.15	0.1	2901.1
84989	11.602	4.1	0.1	2948.
84990	11.652	4.15	0.1	2930.9
84991	11.503	4.1	0.1	2978.9
84992	11.552	4.15	0.1	2961.1
84993	11.403	4.1	0.1	3010.4
84994	11.453	4.15	0.1	2991.9
84995	11.303	4.1	0.1	3042.6
84996	11.353	4.15	0.1	3023.2
84997	11.204	4.1	0.1	3075.7
84998	11.254	4.15	0.1	3055.2
84999	11.104	4.1	0.1	3109.6
85000	11.154	4.15	0.1	3088.
85001	11.005	4.1	0.1	3144.6
85002	11.055	4.15	0.1	3121.6
85003	10.905	4.1	0.1	3180.7
85004	10.955	4.15	0.1	3156.1
85005	10.806	4.1	0.1	3218.1
85006	10.855	4.15	0.1	3191.8
85007	10.706	4.1	0.1	3256.9
85008	10.756	4.15	0.1	3228.6
85009	10.606	4.1	0.1	3297.4
85010	10.656	4.15	0.1	3266.8
85011	10.507	4.1	0.1	3339.9
85012	10.557	4.15	0.1	3306.6
85013	10.407	4.1	0.1	3384.4
85014	10.457	4.15	0.1	3348.1
85015	10.308	4.1	0.1	3431.5
85016	10.357	4.15	0.1	3391.6
85017	10.208	4.1	0.1	3481.4
85018	10.258	4.15	0.1	3437.5
85019	10.108	4.1	0.1	3534.5
85020	10.158	4.15	0.1	3486.
85021	10.009	4.1	0.1	3591.5
85022	10.059	4.15	0.1	3537.6
85023	9.9093	4.1	0.1	3652.9
85024	9.9591	4.15	0.1	3592.8
85025	9.8097	4.1	0.1	3719.5
85026	9.8595	4.15	0.1	3652.2
85027	9.7102	4.1	0.1	3792.2
85028	9.76	4.15	0.1	3716.5
85029	9.6106	4.1	0.1	3872.3
85030	9.6604	4.15	0.1	3786.7
85031	9.511	4.1	0.1	3961.1
85032	9.5608	4.15	0.1	3864.
85033	9.4114	4.1	0.1	4060.7
85034	9.4612	4.15	0.1	3949.9
85035	9.3118	4.1	0.1	4173.5
85036	9.3616	4.15	0.1	4046.2
85037	9.2123	4.1	0.1	4302.5
85038	9.2621	4.15	0.1	4155.3
85039	9.1127	4.1	0.1	4452.2
85040	9.1625	4.15	0.1	4280.6
85041	9.0131	4.1	0.1	4628.3
85042	9.0629	4.15	0.1	4426.1
85043	8.9135	4.1	0.1	4838.9
85044	8.9633	4.15	0.1	4597.6
85045	8.8139	4.1	0.1	5095.6
85046	8.8637	4.15	0.1	4802.7
85047	8.7144	4.1	0.1	5416.2
85048	8.7642	4.15	0.1	5052.4
85049	8.6148	4.1	0.1	5829.2
85050	8.6646	4.15	0.1	5362.4
85051	8.5152	4.1	0.1	6383.8
85052	8.565	4.15	0.1	5756.7
85053	8.4156	4.1	0.1	7202.6
85054	8.4654	4.15	0.1	6271.9
85055	8.316	4.1	0.1	8574.4
85056	8.3658	4.15	0.1	6970.5
85057	8.2662	4.15	0.1	8079.2
85058	8.2165	4.1	0.1	6006.4
85059	23.851	4.2	0.1	32.262
85060	23.9	4.25	0.1	21.947
85061	23.95	4.2	0.1	12.022
85062	23.751	4.2	0.1	53.141
85063	23.801	4.25	0.1	42.697
85064	23.651	4.2	0.1	74.035
85065	23.701	4.25	0.1	63.578
85066	23.552	4.2	0.1	94.884
85067	23.602	4.25	0.1	84.422
85068	23.452	4.2	0.1	115.69
85069	23.502	4.25	0.1	105.22
85070	23.353	4.2	0.1	136.45
85071	23.403	4.25	0.1	125.97
85072	23.253	4.2	0.1	157.18
85073	23.303	4.25	0.1	146.7
85074	23.154	4.2	0.1	177.89
85075	23.203	4.25	0.1	167.4
85076	23.054	4.2	0.1	198.6
85077	23.104	4.25	0.1	188.08
85078	22.954	4.2	0.1	219.3
85079	23.004	4.25	0.1	208.77
85080	22.855	4.2	0.1	240.02
85081	22.905	4.25	0.1	229.47
85082	22.755	4.2	0.1	260.75
85083	22.805	4.25	0.1	250.18
85084	22.656	4.2	0.1	281.5
85085	22.705	4.25	0.1	270.91
85086	22.556	4.2	0.1	302.28
85087	22.606	4.25	0.1	291.67
85088	22.456	4.2	0.1	323.09
85089	22.506	4.25	0.1	312.47
85090	22.357	4.2	0.1	343.95
85091	22.407	4.25	0.1	333.3
85092	22.257	4.2	0.1	364.84
85093	22.307	4.25	0.1	354.18
85094	22.158	4.2	0.1	385.78
85095	22.208	4.25	0.1	375.1
85096	22.058	4.2	0.1	406.76
85097	22.108	4.25	0.1	396.07
85098	21.959	4.2	0.1	427.79
85099	22.008	4.25	0.1	417.08
85100	21.859	4.2	0.1	448.87
85101	21.909	4.25	0.1	438.15
85102	21.759	4.2	0.1	470.01
85103	21.809	4.25	0.1	459.26
85104	21.66	4.2	0.1	491.19
85105	21.71	4.25	0.1	480.43
85106	21.56	4.2	0.1	512.43
85107	21.61	4.25	0.1	501.65
85108	21.461	4.2	0.1	533.72
85109	21.51	4.25	0.1	522.93
85110	21.361	4.2	0.1	555.06
85111	21.411	4.25	0.1	544.26
85112	21.262	4.2	0.1	576.46
85113	21.311	4.25	0.1	565.64
85114	21.162	4.2	0.1	597.92
85115	21.212	4.25	0.1	587.08
85116	21.062	4.2	0.1	619.43
85117	21.112	4.25	0.1	608.58
85118	20.963	4.2	0.1	641.
85119	21.013	4.25	0.1	630.13
85120	20.863	4.2	0.1	662.62
85121	20.913	4.25	0.1	651.74
85122	20.764	4.2	0.1	684.3
85123	20.813	4.25	0.1	673.4
85124	20.664	4.2	0.1	706.04
85125	20.714	4.25	0.1	695.12
85126	20.564	4.2	0.1	727.83
85127	20.614	4.25	0.1	716.9
85128	20.465	4.2	0.1	749.69
85129	20.515	4.25	0.1	738.73
85130	20.365	4.2	0.1	771.6
85131	20.415	4.25	0.1	760.62
85132	20.266	4.2	0.1	793.56
85133	20.316	4.25	0.1	782.57
85134	20.166	4.2	0.1	815.59
85135	20.216	4.25	0.1	804.58
85136	20.067	4.2	0.1	837.67
85137	20.116	4.25	0.1	826.64
85138	19.967	4.2	0.1	859.81
85139	20.017	4.25	0.1	848.76
85140	19.867	4.2	0.1	882.01
85141	19.917	4.25	0.1	870.94
85142	19.768	4.2	0.1	904.27
85143	19.818	4.25	0.1	893.18
85144	19.668	4.2	0.1	926.59
85145	19.718	4.25	0.1	915.47
85146	19.569	4.2	0.1	948.96
85147	19.618	4.25	0.1	937.83
85148	19.469	4.2	0.1	971.39
85149	19.519	4.25	0.1	960.24
85150	19.369	4.2	0.1	993.88
85151	19.419	4.25	0.1	982.71
85152	19.27	4.2	0.1	1016.4
85153	19.32	4.25	0.1	1005.2
85154	19.17	4.2	0.1	1039.
85155	19.22	4.25	0.1	1027.8
85156	19.071	4.2	0.1	1061.7
85157	19.121	4.25	0.1	1050.5
85158	18.971	4.2	0.1	1084.4
85159	19.021	4.25	0.1	1073.2
85160	18.872	4.2	0.1	1107.2
85161	18.921	4.25	0.1	1095.9
85162	18.772	4.2	0.1	1130.
85163	18.822	4.25	0.1	1118.7
85164	18.672	4.2	0.1	1152.9
85165	18.722	4.25	0.1	1141.6
85166	18.573	4.2	0.1	1175.9
85167	18.623	4.25	0.1	1164.5
85168	18.473	4.2	0.1	1198.9
85169	18.523	4.25	0.1	1187.5
85170	18.374	4.2	0.1	1222.
85171	18.423	4.25	0.1	1210.6
85172	18.274	4.2	0.1	1245.1
85173	18.324	4.25	0.1	1233.7
85174	18.175	4.2	0.1	1268.3
85175	18.224	4.25	0.1	1256.8
85176	18.075	4.2	0.1	1291.5
85177	18.125	4.25	0.1	1280.1
85178	17.975	4.2	0.1	1314.8
85179	18.025	4.25	0.1	1303.3
85180	17.876	4.2	0.1	1338.2
85181	17.926	4.25	0.1	1326.7
85182	17.776	4.2	0.1	1361.6
85183	17.826	4.25	0.1	1350.1
85184	17.677	4.2	0.1	1385.1
85185	17.726	4.25	0.1	1373.5
85186	17.577	4.2	0.1	1408.6
85187	17.627	4.25	0.1	1397.
85188	17.477	4.2	0.1	1432.2
85189	17.527	4.25	0.1	1420.6
85190	17.378	4.2	0.1	1455.9
85191	17.428	4.25	0.1	1444.2
85192	17.278	4.2	0.1	1479.6
85193	17.328	4.25	0.1	1467.9
85194	17.179	4.2	0.1	1503.3
85195	17.229	4.25	0.1	1491.6
85196	17.079	4.2	0.1	1527.1
85197	17.129	4.25	0.1	1515.4
85198	16.98	4.2	0.1	1551.
85199	17.029	4.25	0.1	1539.3
85200	16.88	4.2	0.1	1574.9
85201	16.93	4.25	0.1	1563.2
85202	16.78	4.2	0.1	1598.9
85203	16.83	4.25	0.1	1587.1
85204	16.681	4.2	0.1	1623.
85205	16.731	4.25	0.1	1611.2
85206	16.581	4.2	0.1	1647.1
85207	16.631	4.25	0.1	1635.2
85208	16.482	4.2	0.1	1671.2
85209	16.531	4.25	0.1	1659.4
85210	16.382	4.2	0.1	1695.5
85211	16.432	4.25	0.1	1683.6
85212	16.282	4.2	0.1	1719.7
85213	16.332	4.25	0.1	1707.8
85214	16.183	4.2	0.1	1744.
85215	16.233	4.25	0.1	1732.1
85216	16.083	4.2	0.1	1768.4
85217	16.133	4.25	0.1	1756.5
85218	15.984	4.2	0.1	1792.9
85219	16.034	4.25	0.1	1780.9
85220	15.884	4.2	0.1	1817.4
85221	15.934	4.25	0.1	1805.4
85222	15.785	4.2	0.1	1841.9
85223	15.834	4.25	0.1	1829.9
85224	15.685	4.2	0.1	1866.5
85225	15.735	4.25	0.1	1854.5
85226	15.585	4.2	0.1	1891.2
85227	15.635	4.25	0.1	1879.1
85228	15.486	4.2	0.1	1915.9
85229	15.536	4.25	0.1	1903.8
85230	15.386	4.2	0.1	1940.7
85231	15.436	4.25	0.1	1928.6
85232	15.287	4.2	0.1	1965.5
85233	15.336	4.25	0.1	1953.4
85234	15.187	4.2	0.1	1990.4
85235	15.237	4.25	0.1	1978.2
85236	15.088	4.2	0.1	2015.4
85237	15.137	4.25	0.1	2003.2
85238	14.988	4.2	0.1	2040.4
85239	15.038	4.25	0.1	2028.1
85240	14.888	4.2	0.1	2065.4
85241	14.938	4.25	0.1	2053.2
85242	14.789	4.2	0.1	2090.5
85243	14.839	4.25	0.1	2078.3
85244	14.689	4.2	0.1	2115.7
85245	14.739	4.25	0.1	2103.4
85246	14.59	4.2	0.1	2141.
85247	14.639	4.25	0.1	2128.7
85248	14.49	4.2	0.1	2166.3
85249	14.54	4.25	0.1	2153.9
85250	14.39	4.2	0.1	2191.6
85251	14.44	4.25	0.1	2179.3
85252	14.291	4.2	0.1	2217.1
85253	14.341	4.25	0.1	2204.7
85254	14.191	4.2	0.1	2242.6
85255	14.241	4.25	0.1	2230.1
85256	14.092	4.2	0.1	2268.1
85257	14.142	4.25	0.1	2255.7
85258	13.992	4.2	0.1	2293.7
85259	14.042	4.25	0.1	2281.3
85260	13.893	4.2	0.1	2319.4
85261	13.942	4.25	0.1	2306.9
85262	13.793	4.2	0.1	2345.2
85263	13.843	4.25	0.1	2332.6
85264	13.693	4.2	0.1	2371.
85265	13.743	4.25	0.1	2358.4
85266	13.594	4.2	0.1	2397.
85267	13.644	4.25	0.1	2384.3
85268	13.494	4.2	0.1	2423.
85269	13.544	4.25	0.1	2410.3
85270	13.395	4.2	0.1	2449.
85271	13.444	4.25	0.1	2436.3
85272	13.295	4.2	0.1	2475.2
85273	13.345	4.25	0.1	2462.4
85274	13.195	4.2	0.1	2501.5
85275	13.245	4.25	0.1	2488.6
85276	13.096	4.2	0.1	2527.9
85277	13.146	4.25	0.1	2514.9
85278	12.996	4.2	0.1	2554.4
85279	13.046	4.25	0.1	2541.3
85280	12.897	4.2	0.1	2581.
85281	12.947	4.25	0.1	2567.8
85282	12.797	4.2	0.1	2607.7
85283	12.847	4.25	0.1	2594.4
85284	12.698	4.2	0.1	2634.6
85285	12.747	4.25	0.1	2621.2
85286	12.598	4.2	0.1	2661.6
85287	12.648	4.25	0.1	2648.1
85288	12.498	4.2	0.1	2688.8
85289	12.548	4.25	0.1	2675.1
85290	12.399	4.2	0.1	2716.1
85291	12.449	4.25	0.1	2702.2
85292	12.299	4.2	0.1	2743.7
85293	12.349	4.25	0.1	2729.6
85294	12.2	4.2	0.1	2771.4
85295	12.249	4.25	0.1	2757.1
85296	12.1	4.2	0.1	2799.5
85297	12.15	4.25	0.1	2784.8
85298	12.001	4.2	0.1	2827.7
85299	12.05	4.25	0.1	2812.8
85300	11.901	4.2	0.1	2856.3
85301	11.951	4.25	0.1	2841.
85302	11.801	4.2	0.1	2885.2
85303	11.851	4.25	0.1	2869.4
85304	11.702	4.2	0.1	2914.4
85305	11.752	4.25	0.1	2898.2
85306	11.602	4.2	0.1	2944.
85307	11.652	4.25	0.1	2927.2
85308	11.503	4.2	0.1	2974.1
85309	11.552	4.25	0.1	2956.7
85310	11.403	4.2	0.1	3004.7
85311	11.453	4.25	0.1	2986.5
85312	11.303	4.2	0.1	3035.8
85313	11.353	4.25	0.1	3016.8
85314	11.204	4.2	0.1	3067.5
85315	11.254	4.25	0.1	3047.6
85316	11.104	4.2	0.1	3099.9
85317	11.154	4.25	0.1	3078.9
85318	11.005	4.2	0.1	3133.1
85319	11.055	4.25	0.1	3110.9
85320	10.905	4.2	0.1	3167.2
85321	10.955	4.25	0.1	3143.6
85322	10.806	4.2	0.1	3202.3
85323	10.855	4.25	0.1	3177.
85324	10.706	4.2	0.1	3238.5
85325	10.756	4.25	0.1	3211.3
85326	10.606	4.2	0.1	3275.9
85327	10.656	4.25	0.1	3246.6
85328	10.507	4.2	0.1	3314.7
85329	10.557	4.25	0.1	3283.
85330	10.407	4.2	0.1	3355.2
85331	10.457	4.25	0.1	3320.7
85332	10.308	4.2	0.1	3397.6
85333	10.357	4.25	0.1	3359.8
85334	10.208	4.2	0.1	3442.
85335	10.258	4.25	0.1	3400.5
85336	10.108	4.2	0.1	3488.9
85337	10.158	4.25	0.1	3443.2
85338	10.009	4.2	0.1	3538.7
85339	10.059	4.25	0.1	3488.1
85340	9.9093	4.2	0.1	3591.9
85341	9.9591	4.25	0.1	3535.5
85342	9.8097	4.2	0.1	3649.
85343	9.8595	4.25	0.1	3586.
85344	9.7102	4.2	0.1	3710.7
85345	9.76	4.25	0.1	3640.1
85346	9.6106	4.2	0.1	3778.1
85347	9.6604	4.25	0.1	3698.5
85348	9.511	4.2	0.1	3852.3
85349	9.5608	4.25	0.1	3762.1
85350	9.4114	4.2	0.1	3934.7
85351	9.4612	4.25	0.1	3832.1
85352	9.3118	4.2	0.1	4027.2
85353	9.3616	4.25	0.1	3909.8
85354	9.2123	4.2	0.1	4132.4
85355	9.2621	4.25	0.1	3997.1
85356	9.1127	4.2	0.1	4253.2
85357	9.1625	4.25	0.1	4096.2
85358	9.0131	4.2	0.1	4393.8
85359	9.0629	4.25	0.1	4210.1
85360	8.9135	4.2	0.1	4559.5
85361	8.9633	4.25	0.1	4342.4
85362	8.8139	4.2	0.1	4757.2
85363	8.8637	4.25	0.1	4497.6
85364	8.7144	4.2	0.1	4996.1
85365	8.7642	4.25	0.1	4681.3
85366	8.6148	4.2	0.1	5287.2
85367	8.6646	4.25	0.1	4899.5
85368	8.5152	4.2	0.1	5641.6
85369	8.565	4.25	0.1	5156.5
85370	8.4156	4.2	0.1	6032.4
85371	8.4654	4.25	0.1	5449.7
85372	8.316	4.2	0.1	6391.3
85373	8.3658	4.25	0.1	5720.
85374	8.2662	4.25	0.1	5979.3
85375	8.2165	4.2	0.1	4566.4
85376	23.851	4.3	0.1	32.292
85377	23.9	4.35	0.1	22.005
85378	23.95	4.3	0.1	12.048
85379	23.751	4.3	0.1	53.118
85380	23.801	4.35	0.1	42.698
85381	23.651	4.3	0.1	73.961
85382	23.701	4.35	0.1	63.524
85383	23.552	4.3	0.1	94.758
85384	23.602	4.35	0.1	84.313
85385	23.452	4.3	0.1	115.51
85386	23.502	4.35	0.1	105.06
85387	23.353	4.3	0.1	136.23
85388	23.403	4.35	0.1	125.76
85389	23.253	4.3	0.1	156.91
85390	23.303	4.35	0.1	146.43
85391	23.154	4.3	0.1	177.59
85392	23.203	4.35	0.1	167.09
85393	23.054	4.3	0.1	198.26
85394	23.104	4.35	0.1	187.74
85395	22.954	4.3	0.1	218.94
85396	23.004	4.35	0.1	208.4
85397	22.855	4.3	0.1	239.63
85398	22.905	4.35	0.1	229.07
85399	22.755	4.3	0.1	260.35
85400	22.805	4.35	0.1	249.76
85401	22.656	4.3	0.1	281.09
85402	22.705	4.35	0.1	270.49
85403	22.556	4.3	0.1	301.87
85404	22.606	4.35	0.1	291.25
85405	22.456	4.3	0.1	322.69
85406	22.506	4.35	0.1	312.04
85407	22.357	4.3	0.1	343.55
85408	22.407	4.35	0.1	332.88
85409	22.257	4.3	0.1	364.45
85410	22.307	4.35	0.1	353.77
85411	22.158	4.3	0.1	385.4
85412	22.208	4.35	0.1	374.7
85413	22.058	4.3	0.1	406.4
85414	22.108	4.35	0.1	395.69
85415	21.959	4.3	0.1	427.45
85416	22.008	4.35	0.1	416.72
85417	21.859	4.3	0.1	448.55
85418	21.909	4.35	0.1	437.8
85419	21.759	4.3	0.1	469.7
85420	21.809	4.35	0.1	458.94
85421	21.66	4.3	0.1	490.91
85422	21.71	4.35	0.1	480.13
85423	21.56	4.3	0.1	512.17
85424	21.61	4.35	0.1	501.38
85425	21.461	4.3	0.1	533.48
85426	21.51	4.35	0.1	522.68
85427	21.361	4.3	0.1	554.85
85428	21.411	4.35	0.1	544.03
85429	21.262	4.3	0.1	576.27
85430	21.311	4.35	0.1	565.44
85431	21.162	4.3	0.1	597.75
85432	21.212	4.35	0.1	586.91
85433	21.062	4.3	0.1	619.29
85434	21.112	4.35	0.1	608.43
85435	20.963	4.3	0.1	640.88
85436	21.013	4.35	0.1	630.
85437	20.863	4.3	0.1	662.53
85438	20.913	4.35	0.1	651.64
85439	20.764	4.3	0.1	684.23
85440	20.813	4.35	0.1	673.32
85441	20.664	4.3	0.1	705.99
85442	20.714	4.35	0.1	695.07
85443	20.564	4.3	0.1	727.81
85444	20.614	4.35	0.1	716.87
85445	20.465	4.3	0.1	749.68
85446	20.515	4.35	0.1	738.72
85447	20.365	4.3	0.1	771.61
85448	20.415	4.35	0.1	760.64
85449	20.266	4.3	0.1	793.6
85450	20.316	4.35	0.1	782.6
85451	20.166	4.3	0.1	815.64
85452	20.216	4.35	0.1	804.63
85453	20.067	4.3	0.1	837.74
85454	20.116	4.35	0.1	826.71
85455	19.967	4.3	0.1	859.9
85456	20.017	4.35	0.1	848.85
85457	19.867	4.3	0.1	882.12
85458	19.917	4.35	0.1	871.05
85459	19.768	4.3	0.1	904.39
85460	19.818	4.35	0.1	893.3
85461	19.668	4.3	0.1	926.72
85462	19.718	4.35	0.1	915.61
85463	19.569	4.3	0.1	949.11
85464	19.618	4.35	0.1	937.98
85465	19.469	4.3	0.1	971.56
85466	19.519	4.35	0.1	960.41
85467	19.369	4.3	0.1	994.06
85468	19.419	4.35	0.1	982.89
85469	19.27	4.3	0.1	1016.6
85470	19.32	4.35	0.1	1005.4
85471	19.17	4.3	0.1	1039.2
85472	19.22	4.35	0.1	1028.
85473	19.071	4.3	0.1	1061.9
85474	19.121	4.35	0.1	1050.7
85475	18.971	4.3	0.1	1084.7
85476	19.021	4.35	0.1	1073.4
85477	18.872	4.3	0.1	1107.4
85478	18.921	4.35	0.1	1096.2
85479	18.772	4.3	0.1	1130.3
85480	18.822	4.35	0.1	1119.
85481	18.672	4.3	0.1	1153.2
85482	18.722	4.35	0.1	1141.9
85483	18.573	4.3	0.1	1176.2
85484	18.623	4.35	0.1	1164.8
85485	18.473	4.3	0.1	1199.2
85486	18.523	4.35	0.1	1187.8
85487	18.374	4.3	0.1	1222.3
85488	18.423	4.35	0.1	1210.9
85489	18.274	4.3	0.1	1245.4
85490	18.324	4.35	0.1	1234.
85491	18.175	4.3	0.1	1268.6
85492	18.224	4.35	0.1	1257.2
85493	18.075	4.3	0.1	1291.9
85494	18.125	4.35	0.1	1280.4
85495	17.975	4.3	0.1	1315.2
85496	18.025	4.35	0.1	1303.7
85497	17.876	4.3	0.1	1338.5
85498	17.926	4.35	0.1	1327.
85499	17.776	4.3	0.1	1362.
85500	17.826	4.35	0.1	1350.4
85501	17.677	4.3	0.1	1385.5
85502	17.726	4.35	0.1	1373.9
85503	17.577	4.3	0.1	1409.
85504	17.627	4.35	0.1	1397.4
85505	17.477	4.3	0.1	1432.6
85506	17.527	4.35	0.1	1421.
85507	17.378	4.3	0.1	1456.2
85508	17.428	4.35	0.1	1444.6
85509	17.278	4.3	0.1	1480.
85510	17.328	4.35	0.1	1468.3
85511	17.179	4.3	0.1	1503.7
85512	17.229	4.35	0.1	1492.
85513	17.079	4.3	0.1	1527.6
85514	17.129	4.35	0.1	1515.8
85515	16.98	4.3	0.1	1551.4
85516	17.029	4.35	0.1	1539.7
85517	16.88	4.3	0.1	1575.4
85518	16.93	4.35	0.1	1563.6
85519	16.78	4.3	0.1	1599.4
85520	16.83	4.35	0.1	1587.6
85521	16.681	4.3	0.1	1623.4
85522	16.731	4.35	0.1	1611.6
85523	16.581	4.3	0.1	1647.5
85524	16.631	4.35	0.1	1635.7
85525	16.482	4.3	0.1	1671.7
85526	16.531	4.35	0.1	1659.8
85527	16.382	4.3	0.1	1695.9
85528	16.432	4.35	0.1	1684.
85529	16.282	4.3	0.1	1720.2
85530	16.332	4.35	0.1	1708.3
85531	16.183	4.3	0.1	1744.5
85532	16.233	4.35	0.1	1732.6
85533	16.083	4.3	0.1	1768.9
85534	16.133	4.35	0.1	1757.
85535	15.984	4.3	0.1	1793.4
85536	16.034	4.35	0.1	1781.4
85537	15.884	4.3	0.1	1817.9
85538	15.934	4.35	0.1	1805.9
85539	15.785	4.3	0.1	1842.4
85540	15.834	4.35	0.1	1830.4
85541	15.685	4.3	0.1	1867.1
85542	15.735	4.35	0.1	1855.
85543	15.585	4.3	0.1	1891.7
85544	15.635	4.35	0.1	1879.7
85545	15.486	4.3	0.1	1916.5
85546	15.536	4.35	0.1	1904.4
85547	15.386	4.3	0.1	1941.3
85548	15.436	4.35	0.1	1929.1
85549	15.287	4.3	0.1	1966.1
85550	15.336	4.35	0.1	1954.
85551	15.187	4.3	0.1	1991.
85552	15.237	4.35	0.1	1978.8
85553	15.088	4.3	0.1	2016.
85554	15.137	4.35	0.1	2003.8
85555	14.988	4.3	0.1	2041.
85556	15.038	4.35	0.1	2028.8
85557	14.888	4.3	0.1	2066.1
85558	14.938	4.35	0.1	2053.8
85559	14.789	4.3	0.1	2091.2
85560	14.839	4.35	0.1	2078.9
85561	14.689	4.3	0.1	2116.4
85562	14.739	4.35	0.1	2104.1
85563	14.59	4.3	0.1	2141.6
85564	14.639	4.35	0.1	2129.3
85565	14.49	4.3	0.1	2166.9
85566	14.54	4.35	0.1	2154.6
85567	14.39	4.3	0.1	2192.3
85568	14.44	4.35	0.1	2180.
85569	14.291	4.3	0.1	2217.7
85570	14.341	4.35	0.1	2205.4
85571	14.191	4.3	0.1	2243.2
85572	14.241	4.35	0.1	2230.8
85573	14.092	4.3	0.1	2268.8
85574	14.142	4.35	0.1	2256.4
85575	13.992	4.3	0.1	2294.4
85576	14.042	4.35	0.1	2282.
85577	13.893	4.3	0.1	2320.1
85578	13.942	4.35	0.1	2307.6
85579	13.793	4.3	0.1	2345.9
85580	13.843	4.35	0.1	2333.4
85581	13.693	4.3	0.1	2371.7
85582	13.743	4.35	0.1	2359.2
85583	13.594	4.3	0.1	2397.6
85584	13.644	4.35	0.1	2385.
85585	13.494	4.3	0.1	2423.6
85586	13.544	4.35	0.1	2411.
85587	13.395	4.3	0.1	2449.7
85588	13.444	4.35	0.1	2437.
85589	13.295	4.3	0.1	2475.8
85590	13.345	4.35	0.1	2463.
85591	13.195	4.3	0.1	2502.
85592	13.245	4.35	0.1	2489.2
85593	13.096	4.3	0.1	2528.4
85594	13.146	4.35	0.1	2515.5
85595	12.996	4.3	0.1	2554.8
85596	13.046	4.35	0.1	2541.8
85597	12.897	4.3	0.1	2581.3
85598	12.947	4.35	0.1	2568.2
85599	12.797	4.3	0.1	2607.9
85600	12.847	4.35	0.1	2594.8
85601	12.698	4.3	0.1	2634.7
85602	12.747	4.35	0.1	2621.4
85603	12.598	4.3	0.1	2661.6
85604	12.648	4.35	0.1	2648.1
85605	12.498	4.3	0.1	2688.6
85606	12.548	4.35	0.1	2675.
85607	12.399	4.3	0.1	2715.7
85608	12.449	4.35	0.1	2702.
85609	12.299	4.3	0.1	2743.
85610	12.349	4.35	0.1	2729.1
85611	12.2	4.3	0.1	2770.5
85612	12.249	4.35	0.1	2756.3
85613	12.1	4.3	0.1	2798.2
85614	12.15	4.35	0.1	2783.7
85615	12.001	4.3	0.1	2826.
85616	12.05	4.35	0.1	2811.3
85617	11.901	4.3	0.1	2854.1
85618	11.951	4.35	0.1	2839.
85619	11.801	4.3	0.1	2882.4
85620	11.851	4.35	0.1	2867.
85621	11.702	4.3	0.1	2911.
85622	11.752	4.35	0.1	2895.1
85623	11.602	4.3	0.1	2939.9
85624	11.652	4.35	0.1	2923.5
85625	11.503	4.3	0.1	2969.1
85626	11.552	4.35	0.1	2952.1
85627	11.403	4.3	0.1	2998.7
85628	11.453	4.35	0.1	2981.
85629	11.303	4.3	0.1	3028.6
85630	11.353	4.35	0.1	3010.2
85631	11.204	4.3	0.1	3059.
85632	11.254	4.35	0.1	3039.8
85633	11.104	4.3	0.1	3089.9
85634	11.154	4.35	0.1	3069.6
85635	11.005	4.3	0.1	3121.3
85636	11.055	4.35	0.1	3099.9
85637	10.905	4.3	0.1	3153.3
85638	10.955	4.35	0.1	3130.6
85639	10.806	4.3	0.1	3186.
85640	10.855	4.35	0.1	3161.8
85641	10.706	4.3	0.1	3219.4
85642	10.756	4.35	0.1	3193.5
85643	10.606	4.3	0.1	3253.7
85644	10.656	4.35	0.1	3225.9
85645	10.507	4.3	0.1	3288.9
85646	10.557	4.35	0.1	3258.9
85647	10.407	4.3	0.1	3325.2
85648	10.457	4.35	0.1	3292.6
85649	10.308	4.3	0.1	3362.7
85650	10.357	4.35	0.1	3327.2
85651	10.208	4.3	0.1	3401.7
85652	10.258	4.35	0.1	3362.8
85653	10.108	4.3	0.1	3442.2
85654	10.158	4.35	0.1	3399.6
85655	10.009	4.3	0.1	3484.7
85656	10.059	4.35	0.1	3437.7
85657	9.9093	4.3	0.1	3529.5
85658	9.9591	4.35	0.1	3477.3
85659	9.8097	4.3	0.1	3576.9
85660	9.8595	4.35	0.1	3518.8
85661	9.7102	4.3	0.1	3627.6
85662	9.76	4.35	0.1	3562.6
85663	9.6106	4.3	0.1	3682.1
85664	9.6604	4.35	0.1	3609.1
85665	9.511	4.3	0.1	3741.4
85666	9.5608	4.35	0.1	3659.
85667	9.4114	4.3	0.1	3806.5
85668	9.4612	4.35	0.1	3713.
85669	9.3118	4.3	0.1	3878.7
85670	9.3616	4.35	0.1	3772.1
85671	9.2123	4.3	0.1	3959.7
85672	9.2621	4.35	0.1	3837.4
85673	9.1127	4.3	0.1	4051.5
85674	9.1625	4.35	0.1	3910.6
85675	9.0131	4.3	0.1	4156.7
85676	9.0629	4.35	0.1	3993.3
85677	8.9135	4.3	0.1	4278.1
85678	8.9633	4.35	0.1	4087.4
85679	8.8139	4.3	0.1	4418.6
85680	8.8637	4.35	0.1	4194.9
85681	8.7144	4.3	0.1	4580.7
85682	8.7642	4.35	0.1	4317.2
85683	8.6148	4.3	0.1	4763.2
85684	8.6646	4.35	0.1	4453.8
85685	8.5152	4.3	0.1	4955.5
85686	8.565	4.35	0.1	4598.6
85687	8.4156	4.3	0.1	5116.7
85688	8.4654	4.35	0.1	4732.8
85689	8.316	4.3	0.1	5237.6
85690	8.3658	4.35	0.1	4808.3
85691	8.2662	4.35	0.1	4892.3
85692	8.2165	4.3	0.1	3749.6
85693	23.851	4.4	0.1	32.322
85694	23.9	4.45	0.1	22.064
85695	23.95	4.4	0.1	12.076
85696	23.751	4.4	0.1	53.087
85697	23.801	4.45	0.1	42.692
85698	23.651	4.4	0.1	73.872
85699	23.701	4.45	0.1	63.457
85700	23.552	4.4	0.1	94.611
85701	23.602	4.45	0.1	84.183
85702	23.452	4.4	0.1	115.31
85703	23.502	4.45	0.1	104.87
85704	23.353	4.4	0.1	135.97
85705	23.403	4.45	0.1	125.51
85706	23.253	4.4	0.1	156.61
85707	23.303	4.45	0.1	146.13
85708	23.154	4.4	0.1	177.25
85709	23.203	4.45	0.1	166.74
85710	23.054	4.4	0.1	197.89
85711	23.104	4.45	0.1	187.36
85712	22.954	4.4	0.1	218.54
85713	23.004	4.45	0.1	207.99
85714	22.855	4.4	0.1	239.21
85715	22.905	4.45	0.1	228.64
85716	22.755	4.4	0.1	259.91
85717	22.805	4.45	0.1	249.31
85718	22.656	4.4	0.1	280.65
85719	22.705	4.45	0.1	270.03
85720	22.556	4.4	0.1	301.43
85721	22.606	4.45	0.1	290.79
85722	22.456	4.4	0.1	322.25
85723	22.506	4.45	0.1	311.59
85724	22.357	4.4	0.1	343.12
85725	22.407	4.45	0.1	332.44
85726	22.257	4.4	0.1	364.03
85727	22.307	4.45	0.1	353.34
85728	22.158	4.4	0.1	385.
85729	22.208	4.45	0.1	374.29
85730	22.058	4.4	0.1	406.02
85731	22.108	4.45	0.1	395.29
85732	21.959	4.4	0.1	427.09
85733	22.008	4.45	0.1	416.34
85734	21.859	4.4	0.1	448.21
85735	21.909	4.45	0.1	437.45
85736	21.759	4.4	0.1	469.39
85737	21.809	4.45	0.1	458.61
85738	21.66	4.4	0.1	490.62
85739	21.71	4.45	0.1	479.83
85740	21.56	4.4	0.1	511.9
85741	21.61	4.45	0.1	501.1
85742	21.461	4.4	0.1	533.24
85743	21.51	4.45	0.1	522.43
85744	21.361	4.4	0.1	554.64
85745	21.411	4.45	0.1	543.81
85746	21.262	4.4	0.1	576.09
85747	21.311	4.45	0.1	565.25
85748	21.162	4.4	0.1	597.59
85749	21.212	4.45	0.1	586.74
85750	21.062	4.4	0.1	619.16
85751	21.112	4.45	0.1	608.29
85752	20.963	4.4	0.1	640.77
85753	21.013	4.45	0.1	629.89
85754	20.863	4.4	0.1	662.44
85755	20.913	4.45	0.1	651.55
85756	20.764	4.4	0.1	684.17
85757	20.813	4.45	0.1	673.26
85758	20.664	4.4	0.1	705.95
85759	20.714	4.45	0.1	695.03
85760	20.564	4.4	0.1	727.79
85761	20.614	4.45	0.1	716.85
85762	20.465	4.4	0.1	749.69
85763	20.515	4.45	0.1	738.73
85764	20.365	4.4	0.1	771.64
85765	20.415	4.45	0.1	760.67
85766	20.266	4.4	0.1	793.65
85767	20.316	4.45	0.1	782.66
85768	20.166	4.4	0.1	815.71
85769	20.216	4.45	0.1	804.7
85770	20.067	4.4	0.1	837.83
85771	20.116	4.45	0.1	826.81
85772	19.967	4.4	0.1	860.01
85773	20.017	4.45	0.1	848.96
85774	19.867	4.4	0.1	882.25
85775	19.917	4.45	0.1	871.18
85776	19.768	4.4	0.1	904.54
85777	19.818	4.45	0.1	893.45
85778	19.668	4.4	0.1	926.88
85779	19.718	4.45	0.1	915.78
85780	19.569	4.4	0.1	949.29
85781	19.618	4.45	0.1	938.16
85782	19.469	4.4	0.1	971.75
85783	19.519	4.45	0.1	960.6
85784	19.369	4.4	0.1	994.27
85785	19.419	4.45	0.1	983.1
85786	19.27	4.4	0.1	1016.8
85787	19.32	4.45	0.1	1005.7
85788	19.17	4.4	0.1	1039.5
85789	19.22	4.45	0.1	1028.3
85790	19.071	4.4	0.1	1062.2
85791	19.121	4.45	0.1	1050.9
85792	18.971	4.4	0.1	1084.9
85793	19.021	4.45	0.1	1073.7
85794	18.872	4.4	0.1	1107.7
85795	18.921	4.45	0.1	1096.4
85796	18.772	4.4	0.1	1130.6
85797	18.822	4.45	0.1	1119.3
85798	18.672	4.4	0.1	1153.5
85799	18.722	4.45	0.1	1142.2
85800	18.573	4.4	0.1	1176.5
85801	18.623	4.45	0.1	1165.1
85802	18.473	4.4	0.1	1199.5
85803	18.523	4.45	0.1	1188.1
85804	18.374	4.4	0.1	1222.6
85805	18.423	4.45	0.1	1211.2
85806	18.274	4.4	0.1	1245.7
85807	18.324	4.45	0.1	1234.3
85808	18.175	4.4	0.1	1269.
85809	18.224	4.45	0.1	1257.5
85810	18.075	4.4	0.1	1292.2
85811	18.125	4.45	0.1	1280.8
85812	17.975	4.4	0.1	1315.5
85813	18.025	4.45	0.1	1304.1
85814	17.876	4.4	0.1	1338.9
85815	17.926	4.45	0.1	1327.4
85816	17.776	4.4	0.1	1362.3
85817	17.826	4.45	0.1	1350.8
85818	17.677	4.4	0.1	1385.8
85819	17.726	4.45	0.1	1374.3
85820	17.577	4.4	0.1	1409.4
85821	17.627	4.45	0.1	1397.8
85822	17.477	4.4	0.1	1433.
85823	17.527	4.45	0.1	1421.4
85824	17.378	4.4	0.1	1456.7
85825	17.428	4.45	0.1	1445.
85826	17.278	4.4	0.1	1480.4
85827	17.328	4.45	0.1	1468.7
85828	17.179	4.4	0.1	1504.2
85829	17.229	4.45	0.1	1492.5
85830	17.079	4.4	0.1	1528.
85831	17.129	4.45	0.1	1516.3
85832	16.98	4.4	0.1	1551.9
85833	17.029	4.45	0.1	1540.2
85834	16.88	4.4	0.1	1575.8
85835	16.93	4.45	0.1	1564.1
85836	16.78	4.4	0.1	1599.8
85837	16.83	4.45	0.1	1588.1
85838	16.681	4.4	0.1	1623.9
85839	16.731	4.45	0.1	1612.1
85840	16.581	4.4	0.1	1648.
85841	16.631	4.45	0.1	1636.2
85842	16.482	4.4	0.1	1672.2
85843	16.531	4.45	0.1	1660.3
85844	16.382	4.4	0.1	1696.4
85845	16.432	4.45	0.1	1684.6
85846	16.282	4.4	0.1	1720.7
85847	16.332	4.45	0.1	1708.8
85848	16.183	4.4	0.1	1745.1
85849	16.233	4.45	0.1	1733.1
85850	16.083	4.4	0.1	1769.5
85851	16.133	4.45	0.1	1757.5
85852	15.984	4.4	0.1	1793.9
85853	16.034	4.45	0.1	1782.
85854	15.884	4.4	0.1	1818.4
85855	15.934	4.45	0.1	1806.5
85856	15.785	4.4	0.1	1843.
85857	15.834	4.45	0.1	1831.
85858	15.685	4.4	0.1	1867.6
85859	15.735	4.45	0.1	1855.6
85860	15.585	4.4	0.1	1892.3
85861	15.635	4.45	0.1	1880.3
85862	15.486	4.4	0.1	1917.1
85863	15.536	4.45	0.1	1905.
85864	15.386	4.4	0.1	1941.9
85865	15.436	4.45	0.1	1929.8
85866	15.287	4.4	0.1	1966.7
85867	15.336	4.45	0.1	1954.6
85868	15.187	4.4	0.1	1991.6
85869	15.237	4.45	0.1	1979.5
85870	15.088	4.4	0.1	2016.6
85871	15.137	4.45	0.1	2004.4
85872	14.988	4.4	0.1	2041.6
85873	15.038	4.45	0.1	2029.5
85874	14.888	4.4	0.1	2066.7
85875	14.938	4.45	0.1	2054.5
85876	14.789	4.4	0.1	2091.9
85877	14.839	4.45	0.1	2079.6
85878	14.689	4.4	0.1	2117.1
85879	14.739	4.45	0.1	2104.8
85880	14.59	4.4	0.1	2142.3
85881	14.639	4.45	0.1	2130.1
85882	14.49	4.4	0.1	2167.7
85883	14.54	4.45	0.1	2155.4
85884	14.39	4.4	0.1	2193.
85885	14.44	4.45	0.1	2180.7
85886	14.291	4.4	0.1	2218.5
85887	14.341	4.45	0.1	2206.1
85888	14.191	4.4	0.1	2244.
85889	14.241	4.45	0.1	2231.6
85890	14.092	4.4	0.1	2269.5
85891	14.142	4.45	0.1	2257.1
85892	13.992	4.4	0.1	2295.2
85893	14.042	4.45	0.1	2282.7
85894	13.893	4.4	0.1	2320.9
85895	13.942	4.45	0.1	2308.4
85896	13.793	4.4	0.1	2346.6
85897	13.843	4.45	0.1	2334.1
85898	13.693	4.4	0.1	2372.5
85899	13.743	4.45	0.1	2359.9
85900	13.594	4.4	0.1	2398.3
85901	13.644	4.45	0.1	2385.8
85902	13.494	4.4	0.1	2424.3
85903	13.544	4.45	0.1	2411.7
85904	13.395	4.4	0.1	2450.3
85905	13.444	4.45	0.1	2437.7
85906	13.295	4.4	0.1	2476.5
85907	13.345	4.45	0.1	2463.7
85908	13.195	4.4	0.1	2502.6
85909	13.245	4.45	0.1	2489.8
85910	13.096	4.4	0.1	2528.9
85911	13.146	4.45	0.1	2516.
85912	12.996	4.4	0.1	2555.2
85913	13.046	4.45	0.1	2542.3
85914	12.897	4.4	0.1	2581.7
85915	12.947	4.45	0.1	2568.7
85916	12.797	4.4	0.1	2608.2
85917	12.847	4.45	0.1	2595.1
85918	12.698	4.4	0.1	2634.8
85919	12.747	4.45	0.1	2621.6
85920	12.598	4.4	0.1	2661.5
85921	12.648	4.45	0.1	2648.2
85922	12.498	4.4	0.1	2688.4
85923	12.548	4.45	0.1	2674.9
85924	12.399	4.4	0.1	2715.3
85925	12.449	4.45	0.1	2701.7
85926	12.299	4.4	0.1	2742.4
85927	12.349	4.45	0.1	2728.5
85928	12.2	4.4	0.1	2769.5
85929	12.249	4.45	0.1	2755.5
85930	12.1	4.4	0.1	2796.8
85931	12.15	4.45	0.1	2782.6
85932	12.001	4.4	0.1	2824.3
85933	12.05	4.45	0.1	2809.8
85934	11.901	4.4	0.1	2851.9
85935	11.951	4.45	0.1	2837.1
85936	11.801	4.4	0.1	2879.7
85937	11.851	4.45	0.1	2864.5
85938	11.702	4.4	0.1	2907.6
85939	11.752	4.45	0.1	2892.
85940	11.602	4.4	0.1	2935.7
85941	11.652	4.45	0.1	2919.7
85942	11.503	4.4	0.1	2964.
85943	11.552	4.45	0.1	2947.5
85944	11.403	4.4	0.1	2992.6
85945	11.453	4.45	0.1	2975.4
85946	11.303	4.4	0.1	3021.3
85947	11.353	4.45	0.1	3003.5
85948	11.204	4.4	0.1	3050.4
85949	11.254	4.45	0.1	3031.7
85950	11.104	4.4	0.1	3079.6
85951	11.154	4.45	0.1	3060.1
85952	11.005	4.4	0.1	3109.2
85953	11.055	4.45	0.1	3088.7
85954	10.905	4.4	0.1	3139.1
85955	10.955	4.45	0.1	3117.5
85956	10.806	4.4	0.1	3169.4
85957	10.855	4.45	0.1	3146.4
85958	10.706	4.4	0.1	3200.
85959	10.756	4.45	0.1	3175.5
85960	10.606	4.4	0.1	3231.
85961	10.656	4.45	0.1	3204.9
85962	10.507	4.4	0.1	3262.6
85963	10.557	4.45	0.1	3234.4
85964	10.407	4.4	0.1	3294.6
85965	10.457	4.45	0.1	3264.2
85966	10.308	4.4	0.1	3327.3
85967	10.357	4.45	0.1	3294.3
85968	10.208	4.4	0.1	3360.7
85969	10.258	4.45	0.1	3324.8
85970	10.108	4.4	0.1	3394.9
85971	10.158	4.45	0.1	3355.6
85972	10.009	4.4	0.1	3430.1
85973	10.059	4.45	0.1	3386.8
85974	9.9093	4.4	0.1	3466.4
85975	9.9591	4.45	0.1	3418.7
85976	9.8097	4.4	0.1	3504.2
85977	9.8595	4.45	0.1	3451.3
85978	9.7102	4.4	0.1	3543.8
85979	9.76	4.45	0.1	3484.8
85980	9.6106	4.4	0.1	3585.5
85981	9.6604	4.45	0.1	3519.4
85982	9.511	4.4	0.1	3629.9
85983	9.5608	4.45	0.1	3555.7
85984	9.4114	4.4	0.1	3677.7
85985	9.4612	4.45	0.1	3593.9
85986	9.3118	4.4	0.1	3729.7
85987	9.3616	4.45	0.1	3634.6
85988	9.2123	4.4	0.1	3787.
85989	9.2621	4.45	0.1	3678.6
85990	9.1127	4.4	0.1	3850.5
85991	9.1625	4.45	0.1	3726.5
85992	9.0131	4.4	0.1	3921.6
85993	9.0629	4.45	0.1	3779.3
85994	8.9135	4.4	0.1	4001.2
85995	8.9633	4.45	0.1	3837.5
85996	8.8139	4.4	0.1	4089.5
85997	8.8637	4.45	0.1	3901.4
85998	8.7144	4.4	0.1	4184.9
85999	8.7642	4.45	0.1	3969.9
86000	8.6148	4.4	0.1	4281.3
86001	8.6646	4.45	0.1	4039.6
86002	8.5152	4.4	0.1	4363.1
86003	8.565	4.45	0.1	4101.5
86004	8.4156	4.4	0.1	4400.7
86005	8.4654	4.45	0.1	4137.7
86006	8.316	4.4	0.1	4418.8
86007	8.3658	4.45	0.1	4120.3
86008	8.2662	4.45	0.1	4144.1
86009	8.2165	4.4	0.1	3173.1
86010	23.851	4.5	0.1	32.349
86011	23.9	4.55	0.1	22.126
86012	23.95	4.5	0.1	12.105
86013	23.751	4.5	0.1	53.046
86014	23.801	4.55	0.1	42.68
86015	23.651	4.5	0.1	73.764
86016	23.701	4.55	0.1	63.373
86017	23.552	4.5	0.1	94.438
86018	23.602	4.55	0.1	84.029
86019	23.452	4.5	0.1	115.07
86020	23.502	4.55	0.1	104.64
86021	23.353	4.5	0.1	135.68
86022	23.403	4.55	0.1	125.23
86023	23.253	4.5	0.1	156.27
86024	23.303	4.55	0.1	145.79
86025	23.154	4.5	0.1	176.86
86026	23.203	4.55	0.1	166.36
86027	23.054	4.5	0.1	197.47
86028	23.104	4.55	0.1	186.93
86029	22.954	4.5	0.1	218.09
86030	23.004	4.55	0.1	207.53
86031	22.855	4.5	0.1	238.75
86032	22.905	4.55	0.1	228.16
86033	22.755	4.5	0.1	259.44
86034	22.805	4.55	0.1	248.83
86035	22.656	4.5	0.1	280.18
86036	22.705	4.55	0.1	269.54
86037	22.556	4.5	0.1	300.96
86038	22.606	4.55	0.1	290.3
86039	22.456	4.5	0.1	321.79
86040	22.506	4.55	0.1	311.11
86041	22.357	4.5	0.1	342.67
86042	22.407	4.55	0.1	331.97
86043	22.257	4.5	0.1	363.6
86044	22.307	4.55	0.1	352.88
86045	22.158	4.5	0.1	384.58
86046	22.208	4.55	0.1	373.85
86047	22.058	4.5	0.1	405.62
86048	22.108	4.55	0.1	394.88
86049	21.959	4.5	0.1	426.72
86050	22.008	4.55	0.1	415.96
86051	21.859	4.5	0.1	447.87
86052	21.909	4.55	0.1	437.09
86053	21.759	4.5	0.1	469.07
86054	21.809	4.55	0.1	458.29
86055	21.66	4.5	0.1	490.33
86056	21.71	4.55	0.1	479.53
86057	21.56	4.5	0.1	511.64
86058	21.61	4.55	0.1	500.83
86059	21.461	4.5	0.1	533.01
86060	21.51	4.55	0.1	522.19
86061	21.361	4.5	0.1	554.44
86062	21.411	4.55	0.1	543.6
86063	21.262	4.5	0.1	575.91
86064	21.311	4.55	0.1	565.07
86065	21.162	4.5	0.1	597.45
86066	21.212	4.55	0.1	586.59
86067	21.062	4.5	0.1	619.04
86068	21.112	4.55	0.1	608.16
86069	20.963	4.5	0.1	640.68
86070	21.013	4.55	0.1	629.79
86071	20.863	4.5	0.1	662.38
86072	20.913	4.55	0.1	651.48
86073	20.764	4.5	0.1	684.13
86074	20.813	4.55	0.1	673.22
86075	20.664	4.5	0.1	705.94
86076	20.714	4.55	0.1	695.01
86077	20.564	4.5	0.1	727.8
86078	20.614	4.55	0.1	716.86
86079	20.465	4.5	0.1	749.72
86080	20.515	4.55	0.1	738.76
86081	20.365	4.5	0.1	771.69
86082	20.415	4.55	0.1	760.72
86083	20.266	4.5	0.1	793.72
86084	20.316	4.55	0.1	782.73
86085	20.166	4.5	0.1	815.81
86086	20.216	4.55	0.1	804.8
86087	20.067	4.5	0.1	837.95
86088	20.116	4.55	0.1	826.92
86089	19.967	4.5	0.1	860.14
86090	20.017	4.55	0.1	849.1
86091	19.867	4.5	0.1	882.4
86092	19.917	4.55	0.1	871.34
86093	19.768	4.5	0.1	904.71
86094	19.818	4.55	0.1	893.63
86095	19.668	4.5	0.1	927.07
86096	19.718	4.55	0.1	915.97
86097	19.569	4.5	0.1	949.49
86098	19.618	4.55	0.1	938.37
86099	19.469	4.5	0.1	971.97
86100	19.519	4.55	0.1	960.83
86101	19.369	4.5	0.1	994.5
86102	19.419	4.55	0.1	983.34
86103	19.27	4.5	0.1	1017.1
86104	19.32	4.55	0.1	1005.9
86105	19.17	4.5	0.1	1039.7
86106	19.22	4.55	0.1	1028.5
86107	19.071	4.5	0.1	1062.4
86108	19.121	4.55	0.1	1051.2
86109	18.971	4.5	0.1	1085.2
86110	19.021	4.55	0.1	1074.
86111	18.872	4.5	0.1	1108.
86112	18.921	4.55	0.1	1096.8
86113	18.772	4.5	0.1	1130.9
86114	18.822	4.55	0.1	1119.6
86115	18.672	4.5	0.1	1153.8
86116	18.722	4.55	0.1	1142.5
86117	18.573	4.5	0.1	1176.8
86118	18.623	4.55	0.1	1165.5
86119	18.473	4.5	0.1	1199.9
86120	18.523	4.55	0.1	1188.5
86121	18.374	4.5	0.1	1223.
86122	18.423	4.55	0.1	1211.6
86123	18.274	4.5	0.1	1246.1
86124	18.324	4.55	0.1	1234.7
86125	18.175	4.5	0.1	1269.3
86126	18.224	4.55	0.1	1257.9
86127	18.075	4.5	0.1	1292.6
86128	18.125	4.55	0.1	1281.2
86129	17.975	4.5	0.1	1315.9
86130	18.025	4.55	0.1	1304.5
86131	17.876	4.5	0.1	1339.3
86132	17.926	4.55	0.1	1327.8
86133	17.776	4.5	0.1	1362.8
86134	17.826	4.55	0.1	1351.2
86135	17.677	4.5	0.1	1386.3
86136	17.726	4.55	0.1	1374.7
86137	17.577	4.5	0.1	1409.8
86138	17.627	4.55	0.1	1398.3
86139	17.477	4.5	0.1	1433.4
86140	17.527	4.55	0.1	1421.8
86141	17.378	4.5	0.1	1457.1
86142	17.428	4.55	0.1	1445.5
86143	17.278	4.5	0.1	1480.8
86144	17.328	4.55	0.1	1469.2
86145	17.179	4.5	0.1	1504.6
86146	17.229	4.55	0.1	1493.
86147	17.079	4.5	0.1	1528.5
86148	17.129	4.55	0.1	1516.8
86149	16.98	4.5	0.1	1552.4
86150	17.029	4.55	0.1	1540.7
86151	16.88	4.5	0.1	1576.3
86152	16.93	4.55	0.1	1564.6
86153	16.78	4.5	0.1	1600.3
86154	16.83	4.55	0.1	1588.6
86155	16.681	4.5	0.1	1624.4
86156	16.731	4.55	0.1	1612.6
86157	16.581	4.5	0.1	1648.5
86158	16.631	4.55	0.1	1636.7
86159	16.482	4.5	0.1	1672.7
86160	16.531	4.55	0.1	1660.9
86161	16.382	4.5	0.1	1697.
86162	16.432	4.55	0.1	1685.1
86163	16.282	4.5	0.1	1721.3
86164	16.332	4.55	0.1	1709.4
86165	16.183	4.5	0.1	1745.6
86166	16.233	4.55	0.1	1733.7
86167	16.083	4.5	0.1	1770.
86168	16.133	4.55	0.1	1758.1
86169	15.984	4.5	0.1	1794.5
86170	16.034	4.55	0.1	1782.6
86171	15.884	4.5	0.1	1819.
86172	15.934	4.55	0.1	1807.1
86173	15.785	4.5	0.1	1843.6
86174	15.834	4.55	0.1	1831.6
86175	15.685	4.5	0.1	1868.3
86176	15.735	4.55	0.1	1856.2
86177	15.585	4.5	0.1	1893.
86178	15.635	4.55	0.1	1880.9
86179	15.486	4.5	0.1	1917.7
86180	15.536	4.55	0.1	1905.7
86181	15.386	4.5	0.1	1942.5
86182	15.436	4.55	0.1	1930.4
86183	15.287	4.5	0.1	1967.4
86184	15.336	4.55	0.1	1955.3
86185	15.187	4.5	0.1	1992.3
86186	15.237	4.55	0.1	1980.2
86187	15.088	4.5	0.1	2017.3
86188	15.137	4.55	0.1	2005.2
86189	14.988	4.5	0.1	2042.3
86190	15.038	4.55	0.1	2030.2
86191	14.888	4.5	0.1	2067.4
86192	14.938	4.55	0.1	2055.3
86193	14.789	4.5	0.1	2092.6
86194	14.839	4.55	0.1	2080.4
86195	14.689	4.5	0.1	2117.8
86196	14.739	4.55	0.1	2105.6
86197	14.59	4.5	0.1	2143.1
86198	14.639	4.55	0.1	2130.8
86199	14.49	4.5	0.1	2168.4
86200	14.54	4.55	0.1	2156.1
86201	14.39	4.5	0.1	2193.8
86202	14.44	4.55	0.1	2181.5
86203	14.291	4.5	0.1	2219.3
86204	14.341	4.55	0.1	2206.9
86205	14.191	4.5	0.1	2244.8
86206	14.241	4.55	0.1	2232.4
86207	14.092	4.5	0.1	2270.3
86208	14.142	4.55	0.1	2258.
86209	13.992	4.5	0.1	2296.
86210	14.042	4.55	0.1	2283.6
86211	13.893	4.5	0.1	2321.7
86212	13.942	4.55	0.1	2309.2
86213	13.793	4.5	0.1	2347.4
86214	13.843	4.55	0.1	2334.9
86215	13.693	4.5	0.1	2373.2
86216	13.743	4.55	0.1	2360.7
86217	13.594	4.5	0.1	2399.1
86218	13.644	4.55	0.1	2386.6
86219	13.494	4.5	0.1	2425.
86220	13.544	4.55	0.1	2412.5
86221	13.395	4.5	0.1	2451.1
86222	13.444	4.55	0.1	2438.4
86223	13.295	4.5	0.1	2477.1
86224	13.345	4.55	0.1	2464.4
86225	13.195	4.5	0.1	2503.3
86226	13.245	4.55	0.1	2490.5
86227	13.096	4.5	0.1	2529.5
86228	13.146	4.55	0.1	2516.7
86229	12.996	4.5	0.1	2555.7
86230	13.046	4.55	0.1	2542.9
86231	12.897	4.5	0.1	2582.1
86232	12.947	4.55	0.1	2569.1
86233	12.797	4.5	0.1	2608.5
86234	12.847	4.55	0.1	2595.5
86235	12.698	4.5	0.1	2635.
86236	12.747	4.55	0.1	2621.9
86237	12.598	4.5	0.1	2661.6
86238	12.648	4.55	0.1	2648.3
86239	12.498	4.5	0.1	2688.2
86240	12.548	4.55	0.1	2674.8
86241	12.399	4.5	0.1	2714.9
86242	12.449	4.55	0.1	2701.4
86243	12.299	4.5	0.1	2741.7
86244	12.349	4.55	0.1	2728.
86245	12.2	4.5	0.1	2768.6
86246	12.249	4.55	0.1	2754.7
86247	12.1	4.5	0.1	2795.5
86248	12.15	4.55	0.1	2781.4
86249	12.001	4.5	0.1	2822.5
86250	12.05	4.55	0.1	2808.2
86251	11.901	4.5	0.1	2849.6
86252	11.951	4.55	0.1	2835.1
86253	11.801	4.5	0.1	2876.8
86254	11.851	4.55	0.1	2862.
86255	11.702	4.5	0.1	2904.1
86256	11.752	4.55	0.1	2888.9
86257	11.602	4.5	0.1	2931.4
86258	11.652	4.55	0.1	2915.8
86259	11.503	4.5	0.1	2958.9
86260	11.552	4.55	0.1	2942.8
86261	11.403	4.5	0.1	2986.4
86262	11.453	4.55	0.1	2969.7
86263	11.303	4.5	0.1	3013.9
86264	11.353	4.55	0.1	2996.7
86265	11.204	4.5	0.1	3041.5
86266	11.254	4.55	0.1	3023.7
86267	11.104	4.5	0.1	3069.2
86268	11.154	4.55	0.1	3050.6
86269	11.005	4.5	0.1	3097.
86270	11.055	4.55	0.1	3077.4
86271	10.905	4.5	0.1	3124.7
86272	10.955	4.55	0.1	3104.2
86273	10.806	4.5	0.1	3152.5
86274	10.855	4.55	0.1	3130.9
86275	10.706	4.5	0.1	3180.4
86276	10.756	4.55	0.1	3157.4
86277	10.606	4.5	0.1	3208.2
86278	10.656	4.55	0.1	3183.7
86279	10.507	4.5	0.1	3236.
86280	10.557	4.55	0.1	3209.9
86281	10.407	4.5	0.1	3263.9
86282	10.457	4.55	0.1	3235.8
86283	10.308	4.5	0.1	3291.7
86284	10.357	4.55	0.1	3261.4
86285	10.208	4.5	0.1	3319.5
86286	10.258	4.55	0.1	3286.7
86287	10.108	4.5	0.1	3347.4
86288	10.158	4.55	0.1	3311.6
86289	10.009	4.5	0.1	3375.3
86290	10.059	4.55	0.1	3336.1
86291	9.9093	4.5	0.1	3403.3
86292	9.9591	4.55	0.1	3360.3
86293	9.8097	4.5	0.1	3431.5
86294	9.8595	4.55	0.1	3384.
86295	9.7102	4.5	0.1	3460.1
86296	9.76	4.55	0.1	3407.4
86297	9.6106	4.5	0.1	3489.1
86298	9.6604	4.55	0.1	3430.5
86299	9.511	4.5	0.1	3518.9
86300	9.5608	4.55	0.1	3453.3
86301	9.4114	4.5	0.1	3549.9
86302	9.4612	4.55	0.1	3476.1
86303	9.3118	4.5	0.1	3582.3
86304	9.3616	4.55	0.1	3499.1
86305	9.2123	4.5	0.1	3616.6
86306	9.2621	4.55	0.1	3522.5
86307	9.1127	4.5	0.1	3653.2
86308	9.1625	4.55	0.1	3546.5
86309	9.0131	4.5	0.1	3692.5
86310	9.0629	4.55	0.1	3571.3
86311	8.9135	4.5	0.1	3734.1
86312	8.9633	4.55	0.1	3596.8
86313	8.8139	4.5	0.1	3777.
86314	8.8637	4.55	0.1	3622.2
86315	8.7144	4.5	0.1	3818.1
86316	8.7642	4.55	0.1	3645.8
86317	8.6148	4.5	0.1	3850.5
86318	8.6646	4.55	0.1	3663.4
86319	8.5152	4.5	0.1	3862.3
86320	8.565	4.55	0.1	3667.6
86321	8.4156	4.5	0.1	3836.2
86322	8.4654	4.55	0.1	3646.4
86323	8.316	4.5	0.1	3814.1
86324	8.3658	4.55	0.1	3586.7
86325	8.2662	4.55	0.1	3589.7
86326	8.2165	4.5	0.1	2755.4
86327	23.851	4.6	0.1	32.373
86328	23.9	4.65	0.1	22.188
86329	23.95	4.6	0.1	12.134
86330	23.751	4.6	0.1	52.992
86331	23.801	4.65	0.1	42.657
86332	23.651	4.6	0.1	73.635
86333	23.701	4.65	0.1	63.27
86334	23.552	4.6	0.1	94.235
86335	23.602	4.65	0.1	83.846
86336	23.452	4.6	0.1	114.8
86337	23.502	4.65	0.1	104.38
86338	23.353	4.6	0.1	135.34
86339	23.403	4.65	0.1	124.9
86340	23.253	4.6	0.1	155.88
86341	23.303	4.65	0.1	145.41
86342	23.154	4.6	0.1	176.43
86343	23.203	4.65	0.1	165.92
86344	23.054	4.6	0.1	197.
86345	23.104	4.65	0.1	186.46
86346	22.954	4.6	0.1	217.61
86347	23.004	4.65	0.1	207.03
86348	22.855	4.6	0.1	238.25
86349	22.905	4.65	0.1	227.64
86350	22.755	4.6	0.1	258.93
86351	22.805	4.65	0.1	248.3
86352	22.656	4.6	0.1	279.67
86353	22.705	4.65	0.1	269.01
86354	22.556	4.6	0.1	300.46
86355	22.606	4.65	0.1	289.78
86356	22.456	4.6	0.1	321.3
86357	22.506	4.65	0.1	310.6
86358	22.357	4.6	0.1	342.2
86359	22.407	4.65	0.1	331.48
86360	22.257	4.6	0.1	363.15
86361	22.307	4.65	0.1	352.42
86362	22.158	4.6	0.1	384.16
86363	22.208	4.65	0.1	373.41
86364	22.058	4.6	0.1	405.22
86365	22.108	4.65	0.1	394.46
86366	21.959	4.6	0.1	426.35
86367	22.008	4.65	0.1	415.57
86368	21.859	4.6	0.1	447.53
86369	21.909	4.65	0.1	436.74
86370	21.759	4.6	0.1	468.76
86371	21.809	4.65	0.1	457.96
86372	21.66	4.6	0.1	490.05
86373	21.71	4.65	0.1	479.24
86374	21.56	4.6	0.1	511.39
86375	21.61	4.65	0.1	500.57
86376	21.461	4.6	0.1	532.79
86377	21.51	4.65	0.1	521.96
86378	21.361	4.6	0.1	554.25
86379	21.411	4.65	0.1	543.41
86380	21.262	4.6	0.1	575.75
86381	21.311	4.65	0.1	564.9
86382	21.162	4.6	0.1	597.32
86383	21.212	4.65	0.1	586.45
86384	21.062	4.6	0.1	618.93
86385	21.112	4.65	0.1	608.06
86386	20.963	4.6	0.1	640.61
86387	21.013	4.65	0.1	629.72
86388	20.863	4.6	0.1	662.33
86389	20.913	4.65	0.1	651.43
86390	20.764	4.6	0.1	684.11
86391	20.813	4.65	0.1	673.2
86392	20.664	4.6	0.1	705.94
86393	20.714	4.65	0.1	695.02
86394	20.564	4.6	0.1	727.83
86395	20.614	4.65	0.1	716.89
86396	20.465	4.6	0.1	749.77
86397	20.515	4.65	0.1	738.82
86398	20.365	4.6	0.1	771.77
86399	20.415	4.65	0.1	760.8
86400	20.266	4.6	0.1	793.82
86401	20.316	4.65	0.1	782.84
86402	20.166	4.6	0.1	815.93
86403	20.216	4.65	0.1	804.93
86404	20.067	4.6	0.1	838.09
86405	20.116	4.65	0.1	827.07
86406	19.967	4.6	0.1	860.31
86407	20.017	4.65	0.1	849.27
86408	19.867	4.6	0.1	882.58
86409	19.917	4.65	0.1	871.52
86410	19.768	4.6	0.1	904.9
86411	19.818	4.65	0.1	893.83
86412	19.668	4.6	0.1	927.29
86413	19.718	4.65	0.1	916.19
86414	19.569	4.6	0.1	949.72
86415	19.618	4.65	0.1	938.61
86416	19.469	4.6	0.1	972.22
86417	19.519	4.65	0.1	961.09
86418	19.369	4.6	0.1	994.76
86419	19.419	4.65	0.1	983.61
86420	19.27	4.6	0.1	1017.4
86421	19.32	4.65	0.1	1006.2
86422	19.17	4.6	0.1	1040.
86423	19.22	4.65	0.1	1028.8
86424	19.071	4.6	0.1	1062.7
86425	19.121	4.65	0.1	1051.5
86426	18.971	4.6	0.1	1085.5
86427	19.021	4.65	0.1	1074.3
86428	18.872	4.6	0.1	1108.3
86429	18.921	4.65	0.1	1097.1
86430	18.772	4.6	0.1	1131.2
86431	18.822	4.65	0.1	1120.
86432	18.672	4.6	0.1	1154.2
86433	18.722	4.65	0.1	1142.9
86434	18.573	4.6	0.1	1177.2
86435	18.623	4.65	0.1	1165.9
86436	18.473	4.6	0.1	1200.2
86437	18.523	4.65	0.1	1188.9
86438	18.374	4.6	0.1	1223.3
86439	18.423	4.65	0.1	1212.
86440	18.274	4.6	0.1	1246.5
86441	18.324	4.65	0.1	1235.1
86442	18.175	4.6	0.1	1269.7
86443	18.224	4.65	0.1	1258.3
86444	18.075	4.6	0.1	1293.
86445	18.125	4.65	0.1	1281.6
86446	17.975	4.6	0.1	1316.4
86447	18.025	4.65	0.1	1304.9
86448	17.876	4.6	0.1	1339.8
86449	17.926	4.65	0.1	1328.3
86450	17.776	4.6	0.1	1363.2
86451	17.826	4.65	0.1	1351.7
86452	17.677	4.6	0.1	1386.7
86453	17.726	4.65	0.1	1375.2
86454	17.577	4.6	0.1	1410.3
86455	17.627	4.65	0.1	1398.7
86456	17.477	4.6	0.1	1433.9
86457	17.527	4.65	0.1	1422.3
86458	17.378	4.6	0.1	1457.6
86459	17.428	4.65	0.1	1446.
86460	17.278	4.6	0.1	1481.3
86461	17.328	4.65	0.1	1469.7
86462	17.179	4.6	0.1	1505.1
86463	17.229	4.65	0.1	1493.5
86464	17.079	4.6	0.1	1529.
86465	17.129	4.65	0.1	1517.3
86466	16.98	4.6	0.1	1552.9
86467	17.029	4.65	0.1	1541.2
86468	16.88	4.6	0.1	1576.9
86469	16.93	4.65	0.1	1565.1
86470	16.78	4.6	0.1	1600.9
86471	16.83	4.65	0.1	1589.1
86472	16.681	4.6	0.1	1625.
86473	16.731	4.65	0.1	1613.2
86474	16.581	4.6	0.1	1649.1
86475	16.631	4.65	0.1	1637.3
86476	16.482	4.6	0.1	1673.3
86477	16.531	4.65	0.1	1661.5
86478	16.382	4.6	0.1	1697.5
86479	16.432	4.65	0.1	1685.7
86480	16.282	4.6	0.1	1721.9
86481	16.332	4.65	0.1	1710.
86482	16.183	4.6	0.1	1746.2
86483	16.233	4.65	0.1	1734.3
86484	16.083	4.6	0.1	1770.6
86485	16.133	4.65	0.1	1758.7
86486	15.984	4.6	0.1	1795.1
86487	16.034	4.65	0.1	1783.2
86488	15.884	4.6	0.1	1819.7
86489	15.934	4.65	0.1	1807.7
86490	15.785	4.6	0.1	1844.3
86491	15.834	4.65	0.1	1832.3
86492	15.685	4.6	0.1	1868.9
86493	15.735	4.65	0.1	1856.9
86494	15.585	4.6	0.1	1893.6
86495	15.635	4.65	0.1	1881.6
86496	15.486	4.6	0.1	1918.4
86497	15.536	4.65	0.1	1906.3
86498	15.386	4.6	0.1	1943.2
86499	15.436	4.65	0.1	1931.2
86500	15.287	4.6	0.1	1968.1
86501	15.336	4.65	0.1	1956.
86502	15.187	4.6	0.1	1993.
86503	15.237	4.65	0.1	1980.9
86504	15.088	4.6	0.1	2018.
86505	15.137	4.65	0.1	2005.9
86506	14.988	4.6	0.1	2043.1
86507	15.038	4.65	0.1	2030.9
86508	14.888	4.6	0.1	2068.2
86509	14.938	4.65	0.1	2056.
86510	14.789	4.6	0.1	2093.4
86511	14.839	4.65	0.1	2081.2
86512	14.689	4.6	0.1	2118.6
86513	14.739	4.65	0.1	2106.4
86514	14.59	4.6	0.1	2143.9
86515	14.639	4.65	0.1	2131.6
86516	14.49	4.6	0.1	2169.2
86517	14.54	4.65	0.1	2157.
86518	14.39	4.6	0.1	2194.6
86519	14.44	4.65	0.1	2182.3
86520	14.291	4.6	0.1	2220.1
86521	14.341	4.65	0.1	2207.8
86522	14.191	4.6	0.1	2245.6
86523	14.241	4.65	0.1	2233.3
86524	14.092	4.6	0.1	2271.2
86525	14.142	4.65	0.1	2258.8
86526	13.992	4.6	0.1	2296.8
86527	14.042	4.65	0.1	2284.4
86528	13.893	4.6	0.1	2322.5
86529	13.942	4.65	0.1	2310.1
86530	13.793	4.6	0.1	2348.2
86531	13.843	4.65	0.1	2335.8
86532	13.693	4.6	0.1	2374.
86533	13.743	4.65	0.1	2361.6
86534	13.594	4.6	0.1	2399.9
86535	13.644	4.65	0.1	2387.4
86536	13.494	4.6	0.1	2425.8
86537	13.544	4.65	0.1	2413.3
86538	13.395	4.6	0.1	2451.8
86539	13.444	4.65	0.1	2439.2
86540	13.295	4.6	0.1	2477.8
86541	13.345	4.65	0.1	2465.2
86542	13.195	4.6	0.1	2503.9
86543	13.245	4.65	0.1	2491.2
86544	13.096	4.6	0.1	2530.1
86545	13.146	4.65	0.1	2517.3
86546	12.996	4.6	0.1	2556.3
86547	13.046	4.65	0.1	2543.5
86548	12.897	4.6	0.1	2582.5
86549	12.947	4.65	0.1	2569.6
86550	12.797	4.6	0.1	2608.8
86551	12.847	4.65	0.1	2595.9
86552	12.698	4.6	0.1	2635.2
86553	12.747	4.65	0.1	2622.1
86554	12.598	4.6	0.1	2661.6
86555	12.648	4.65	0.1	2648.4
86556	12.498	4.6	0.1	2688.
86557	12.548	4.65	0.1	2674.8
86558	12.399	4.6	0.1	2714.5
86559	12.449	4.65	0.1	2701.1
86560	12.299	4.6	0.1	2741.
86561	12.349	4.65	0.1	2727.5
86562	12.2	4.6	0.1	2767.6
86563	12.249	4.65	0.1	2753.9
86564	12.1	4.6	0.1	2794.2
86565	12.15	4.65	0.1	2780.3
86566	12.001	4.6	0.1	2820.8
86567	12.05	4.65	0.1	2806.7
86568	11.901	4.6	0.1	2847.4
86569	11.951	4.65	0.1	2833.1
86570	11.801	4.6	0.1	2874.
86571	11.851	4.65	0.1	2859.4
86572	11.702	4.6	0.1	2900.6
86573	11.752	4.65	0.1	2885.7
86574	11.602	4.6	0.1	2927.1
86575	11.652	4.65	0.1	2911.9
86576	11.503	4.6	0.1	2953.7
86577	11.552	4.65	0.1	2938.1
86578	11.403	4.6	0.1	2980.1
86579	11.453	4.65	0.1	2964.1
86580	11.303	4.6	0.1	3006.5
86581	11.353	4.65	0.1	2989.9
86582	11.204	4.6	0.1	3032.7
86583	11.254	4.65	0.1	3015.6
86584	11.104	4.6	0.1	3058.8
86585	11.154	4.65	0.1	3041.
86586	11.005	4.6	0.1	3084.7
86587	11.055	4.65	0.1	3066.1
86588	10.905	4.6	0.1	3110.3
86589	10.955	4.65	0.1	3091.
86590	10.806	4.6	0.1	3135.7
86591	10.855	4.65	0.1	3115.4
86592	10.706	4.6	0.1	3160.7
86593	10.756	4.65	0.1	3139.3
86594	10.606	4.6	0.1	3185.4
86595	10.656	4.65	0.1	3162.7
86596	10.507	4.6	0.1	3209.6
86597	10.557	4.65	0.1	3185.5
86598	10.407	4.6	0.1	3233.2
86599	10.457	4.65	0.1	3207.5
86600	10.308	4.6	0.1	3256.3
86601	10.357	4.65	0.1	3228.7
86602	10.208	4.6	0.1	3278.6
86603	10.258	4.65	0.1	3248.9
86604	10.108	4.6	0.1	3300.2
86605	10.158	4.65	0.1	3268.1
86606	10.009	4.6	0.1	3320.9
86607	10.059	4.65	0.1	3286.
86608	9.9093	4.6	0.1	3340.8
86609	9.9591	4.65	0.1	3302.6
86610	9.8097	4.6	0.1	3359.6
86611	9.8595	4.65	0.1	3317.8
86612	9.7102	4.6	0.1	3377.4
86613	9.76	4.65	0.1	3331.3
86614	9.6106	4.6	0.1	3394.1
86615	9.6604	4.65	0.1	3343.1
86616	9.511	4.6	0.1	3409.8
86617	9.5608	4.65	0.1	3353.1
86618	9.4114	4.6	0.1	3424.4
86619	9.4612	4.65	0.1	3361.1
86620	9.3118	4.6	0.1	3438.1
86621	9.3616	4.65	0.1	3367.1
86622	9.2123	4.6	0.1	3450.7
86623	9.2621	4.65	0.1	3371.
86624	9.1127	4.6	0.1	3462.3
86625	9.1625	4.65	0.1	3372.7
86626	9.0131	4.6	0.1	3472.6
86627	9.0629	4.65	0.1	3372.
86628	8.9135	4.6	0.1	3480.9
86629	8.9633	4.65	0.1	3368.3
86630	8.8139	4.6	0.1	3485.6
86631	8.8637	4.65	0.1	3360.8
86632	8.7144	4.6	0.1	3483.9
86633	8.7642	4.65	0.1	3347.7
86634	8.6148	4.6	0.1	3470.6
86635	8.6646	4.65	0.1	3326.
86636	8.5152	4.6	0.1	3438.3
86637	8.565	4.65	0.1	3290.9
86638	8.4156	4.6	0.1	3378.9
86639	8.4654	4.65	0.1	3236.1
86640	8.316	4.6	0.1	3338.8
86641	8.3658	4.65	0.1	3157.2
86642	8.2662	4.65	0.1	3150.5
86643	8.2165	4.6	0.1	2426.5
86644	23.851	4.7	0.1	32.391
86645	23.9	4.75	0.1	22.249
86646	23.95	4.7	0.1	12.162
86647	23.751	4.7	0.1	52.921
86648	23.801	4.75	0.1	42.622
86649	23.651	4.7	0.1	73.479
86650	23.701	4.75	0.1	63.143
86651	23.552	4.7	0.1	93.997
86652	23.602	4.75	0.1	83.629
86653	23.452	4.7	0.1	114.49
86654	23.502	4.75	0.1	104.08
86655	23.353	4.7	0.1	134.97
86656	23.403	4.75	0.1	124.52
86657	23.253	4.7	0.1	155.45
86658	23.303	4.75	0.1	144.97
86659	23.154	4.7	0.1	175.96
86660	23.203	4.75	0.1	165.44
86661	23.054	4.7	0.1	196.49
86662	23.104	4.75	0.1	185.94
86663	22.954	4.7	0.1	217.07
86664	23.004	4.75	0.1	206.48
86665	22.855	4.7	0.1	237.71
86666	22.905	4.75	0.1	227.08
86667	22.755	4.7	0.1	258.39
86668	22.805	4.75	0.1	247.74
86669	22.656	4.7	0.1	279.13
86670	22.705	4.75	0.1	268.46
86671	22.556	4.7	0.1	299.93
86672	22.606	4.75	0.1	289.23
86673	22.456	4.7	0.1	320.79
86674	22.506	4.75	0.1	310.08
86675	22.357	4.7	0.1	341.71
86676	22.407	4.75	0.1	330.98
86677	22.257	4.7	0.1	362.69
86678	22.307	4.75	0.1	351.94
86679	22.158	4.7	0.1	383.73
86680	22.208	4.75	0.1	372.97
86681	22.058	4.7	0.1	404.83
86682	22.108	4.75	0.1	394.05
86683	21.959	4.7	0.1	425.98
86684	22.008	4.75	0.1	415.19
86685	21.859	4.7	0.1	447.19
86686	21.909	4.75	0.1	436.39
86687	21.759	4.7	0.1	468.46
86688	21.809	4.75	0.1	457.65
86689	21.66	4.7	0.1	489.78
86690	21.71	4.75	0.1	478.96
86691	21.56	4.7	0.1	511.16
86692	21.61	4.75	0.1	500.33
86693	21.461	4.7	0.1	532.59
86694	21.51	4.75	0.1	521.76
86695	21.361	4.7	0.1	554.08
86696	21.411	4.75	0.1	543.23
86697	21.262	4.7	0.1	575.62
86698	21.311	4.75	0.1	564.76
86699	21.162	4.7	0.1	597.21
86700	21.212	4.75	0.1	586.35
86701	21.062	4.7	0.1	618.86
86702	21.112	4.75	0.1	607.98
86703	20.963	4.7	0.1	640.56
86704	21.013	4.75	0.1	629.67
86705	20.863	4.7	0.1	662.31
86706	20.913	4.75	0.1	651.41
86707	20.764	4.7	0.1	684.12
86708	20.813	4.75	0.1	673.21
86709	20.664	4.7	0.1	705.98
86710	20.714	4.75	0.1	695.05
86711	20.564	4.7	0.1	727.89
86712	20.614	4.75	0.1	716.95
86713	20.465	4.7	0.1	749.86
86714	20.515	4.75	0.1	738.91
86715	20.365	4.7	0.1	771.88
86716	20.415	4.75	0.1	760.91
86717	20.266	4.7	0.1	793.95
86718	20.316	4.75	0.1	782.97
86719	20.166	4.7	0.1	816.08
86720	20.216	4.75	0.1	805.08
86721	20.067	4.7	0.1	838.26
86722	20.116	4.75	0.1	827.25
86723	19.967	4.7	0.1	860.5
86724	20.017	4.75	0.1	849.47
86725	19.867	4.7	0.1	882.79
86726	19.917	4.75	0.1	871.74
86727	19.768	4.7	0.1	905.13
86728	19.818	4.75	0.1	894.07
86729	19.668	4.7	0.1	927.53
86730	19.718	4.75	0.1	916.45
86731	19.569	4.7	0.1	949.99
86732	19.618	4.75	0.1	938.89
86733	19.469	4.7	0.1	972.5
86734	19.519	4.75	0.1	961.38
86735	19.369	4.7	0.1	995.06
86736	19.419	4.75	0.1	983.92
86737	19.27	4.7	0.1	1017.7
86738	19.32	4.75	0.1	1006.5
86739	19.17	4.7	0.1	1040.4
86740	19.22	4.75	0.1	1029.2
86741	19.071	4.7	0.1	1063.1
86742	19.121	4.75	0.1	1051.9
86743	18.971	4.7	0.1	1085.9
86744	19.021	4.75	0.1	1074.6
86745	18.872	4.7	0.1	1108.7
86746	18.921	4.75	0.1	1097.5
86747	18.772	4.7	0.1	1131.6
86748	18.822	4.75	0.1	1120.3
86749	18.672	4.7	0.1	1154.6
86750	18.722	4.75	0.1	1143.3
86751	18.573	4.7	0.1	1177.6
86752	18.623	4.75	0.1	1166.3
86753	18.473	4.7	0.1	1200.6
86754	18.523	4.75	0.1	1189.3
86755	18.374	4.7	0.1	1223.8
86756	18.423	4.75	0.1	1212.4
86757	18.274	4.7	0.1	1246.9
86758	18.324	4.75	0.1	1235.6
86759	18.175	4.7	0.1	1270.2
86760	18.224	4.75	0.1	1258.8
86761	18.075	4.7	0.1	1293.5
86762	18.125	4.75	0.1	1282.
86763	17.975	4.7	0.1	1316.8
86764	18.025	4.75	0.1	1305.4
86765	17.876	4.7	0.1	1340.2
86766	17.926	4.75	0.1	1328.8
86767	17.776	4.7	0.1	1363.7
86768	17.826	4.75	0.1	1352.2
86769	17.677	4.7	0.1	1387.2
86770	17.726	4.75	0.1	1375.7
86771	17.577	4.7	0.1	1410.8
86772	17.627	4.75	0.1	1399.2
86773	17.477	4.7	0.1	1434.4
86774	17.527	4.75	0.1	1422.9
86775	17.378	4.7	0.1	1458.1
86776	17.428	4.75	0.1	1446.5
86777	17.278	4.7	0.1	1481.9
86778	17.328	4.75	0.1	1470.2
86779	17.179	4.7	0.1	1505.7
86780	17.229	4.75	0.1	1494.
86781	17.079	4.7	0.1	1529.5
86782	17.129	4.75	0.1	1517.9
86783	16.98	4.7	0.1	1553.4
86784	17.029	4.75	0.1	1541.8
86785	16.88	4.7	0.1	1577.4
86786	16.93	4.75	0.1	1565.7
86787	16.78	4.7	0.1	1601.5
86788	16.83	4.75	0.1	1589.7
86789	16.681	4.7	0.1	1625.5
86790	16.731	4.75	0.1	1613.8
86791	16.581	4.7	0.1	1649.7
86792	16.631	4.75	0.1	1637.9
86793	16.482	4.7	0.1	1673.9
86794	16.531	4.75	0.1	1662.1
86795	16.382	4.7	0.1	1698.2
86796	16.432	4.75	0.1	1686.3
86797	16.282	4.7	0.1	1722.5
86798	16.332	4.75	0.1	1710.6
86799	16.183	4.7	0.1	1746.9
86800	16.233	4.75	0.1	1735.
86801	16.083	4.7	0.1	1771.3
86802	16.133	4.75	0.1	1759.4
86803	15.984	4.7	0.1	1795.8
86804	16.034	4.75	0.1	1783.9
86805	15.884	4.7	0.1	1820.3
86806	15.934	4.75	0.1	1808.4
86807	15.785	4.7	0.1	1844.9
86808	15.834	4.75	0.1	1833.
86809	15.685	4.7	0.1	1869.6
86810	15.735	4.75	0.1	1857.6
86811	15.585	4.7	0.1	1894.3
86812	15.635	4.75	0.1	1882.3
86813	15.486	4.7	0.1	1919.1
86814	15.536	4.75	0.1	1907.1
86815	15.386	4.7	0.1	1944.
86816	15.436	4.75	0.1	1931.9
86817	15.287	4.7	0.1	1968.8
86818	15.336	4.75	0.1	1956.8
86819	15.187	4.7	0.1	1993.8
86820	15.237	4.75	0.1	1981.7
86821	15.088	4.7	0.1	2018.8
86822	15.137	4.75	0.1	2006.7
86823	14.988	4.7	0.1	2043.9
86824	15.038	4.75	0.1	2031.7
86825	14.888	4.7	0.1	2069.
86826	14.938	4.75	0.1	2056.8
86827	14.789	4.7	0.1	2094.2
86828	14.839	4.75	0.1	2082.
86829	14.689	4.7	0.1	2119.4
86830	14.739	4.75	0.1	2107.2
86831	14.59	4.7	0.1	2144.7
86832	14.639	4.75	0.1	2132.5
86833	14.49	4.7	0.1	2170.1
86834	14.54	4.75	0.1	2157.8
86835	14.39	4.7	0.1	2195.5
86836	14.44	4.75	0.1	2183.2
86837	14.291	4.7	0.1	2220.9
86838	14.341	4.75	0.1	2208.6
86839	14.191	4.7	0.1	2246.5
86840	14.241	4.75	0.1	2234.1
86841	14.092	4.7	0.1	2272.
86842	14.142	4.75	0.1	2259.7
86843	13.992	4.7	0.1	2297.7
86844	14.042	4.75	0.1	2285.3
86845	13.893	4.7	0.1	2323.4
86846	13.942	4.75	0.1	2311.
86847	13.793	4.7	0.1	2349.1
86848	13.843	4.75	0.1	2336.7
86849	13.693	4.7	0.1	2374.9
86850	13.743	4.75	0.1	2362.4
86851	13.594	4.7	0.1	2400.7
86852	13.644	4.75	0.1	2388.3
86853	13.494	4.7	0.1	2426.6
86854	13.544	4.75	0.1	2414.1
86855	13.395	4.7	0.1	2452.6
86856	13.444	4.75	0.1	2440.
86857	13.295	4.7	0.1	2478.6
86858	13.345	4.75	0.1	2466.
86859	13.195	4.7	0.1	2504.6
86860	13.245	4.75	0.1	2492.
86861	13.096	4.7	0.1	2530.7
86862	13.146	4.75	0.1	2518.
86863	12.996	4.7	0.1	2556.8
86864	13.046	4.75	0.1	2544.1
86865	12.897	4.7	0.1	2583.
86866	12.947	4.75	0.1	2570.2
86867	12.797	4.7	0.1	2609.2
86868	12.847	4.75	0.1	2596.3
86869	12.698	4.7	0.1	2635.4
86870	12.747	4.75	0.1	2622.5
86871	12.598	4.7	0.1	2661.6
86872	12.648	4.75	0.1	2648.6
86873	12.498	4.7	0.1	2687.9
86874	12.548	4.75	0.1	2674.8
86875	12.399	4.7	0.1	2714.2
86876	12.449	4.75	0.1	2700.9
86877	12.299	4.7	0.1	2740.4
86878	12.349	4.75	0.1	2727.1
86879	12.2	4.7	0.1	2766.7
86880	12.249	4.75	0.1	2753.2
86881	12.1	4.7	0.1	2792.9
86882	12.15	4.75	0.1	2779.2
86883	12.001	4.7	0.1	2819.
86884	12.05	4.75	0.1	2805.2
86885	11.901	4.7	0.1	2845.1
86886	11.951	4.75	0.1	2831.1
86887	11.801	4.7	0.1	2871.2
86888	11.851	4.75	0.1	2856.9
86889	11.702	4.7	0.1	2897.1
86890	11.752	4.75	0.1	2882.6
86891	11.602	4.7	0.1	2922.9
86892	11.652	4.75	0.1	2908.1
86893	11.503	4.7	0.1	2948.5
86894	11.552	4.75	0.1	2933.4
86895	11.403	4.7	0.1	2973.9
86896	11.453	4.75	0.1	2958.4
86897	11.303	4.7	0.1	2999.
86898	11.353	4.75	0.1	2983.2
86899	11.204	4.7	0.1	3023.9
86900	11.254	4.75	0.1	3007.6
86901	11.104	4.7	0.1	3048.4
86902	11.154	4.75	0.1	3031.5
86903	11.005	4.7	0.1	3072.4
86904	11.055	4.75	0.1	3055.
86905	10.905	4.7	0.1	3096.
86906	10.955	4.75	0.1	3077.9
86907	10.806	4.7	0.1	3119.
86908	10.855	4.75	0.1	3100.1
86909	10.706	4.7	0.1	3141.3
86910	10.756	4.75	0.1	3121.5
86911	10.606	4.7	0.1	3162.8
86912	10.656	4.75	0.1	3142.
86913	10.507	4.7	0.1	3183.4
86914	10.557	4.75	0.1	3161.4
86915	10.407	4.7	0.1	3202.9
86916	10.457	4.75	0.1	3179.7
86917	10.308	4.7	0.1	3221.3
86918	10.357	4.75	0.1	3196.6
86919	10.208	4.7	0.1	3238.3
86920	10.258	4.75	0.1	3211.9
86921	10.108	4.7	0.1	3253.8
86922	10.158	4.75	0.1	3225.4
86923	10.009	4.7	0.1	3267.5
86924	10.059	4.75	0.1	3237.
86925	9.9093	4.7	0.1	3279.4
86926	9.9591	4.75	0.1	3246.3
86927	9.8097	4.7	0.1	3289.1
86928	9.8595	4.75	0.1	3253.1
86929	9.7102	4.7	0.1	3296.6
86930	9.76	4.75	0.1	3257.2
86931	9.6106	4.7	0.1	3301.5
86932	9.6604	4.75	0.1	3258.2
86933	9.511	4.7	0.1	3303.6
86934	9.5608	4.75	0.1	3255.9
86935	9.4114	4.7	0.1	3302.8
86936	9.4612	4.75	0.1	3249.9
86937	9.3118	4.7	0.1	3298.7
86938	9.3616	4.75	0.1	3240.
86939	9.2123	4.7	0.1	3291.2
86940	9.2621	4.75	0.1	3225.8
86941	9.1127	4.7	0.1	3280.
86942	9.1625	4.75	0.1	3207.1
86943	9.0131	4.7	0.1	3264.5
86944	9.0629	4.75	0.1	3183.4
86945	8.9135	4.7	0.1	3243.9
86946	8.9633	4.75	0.1	3154.2
86947	8.8139	4.7	0.1	3217.2
86948	8.8637	4.75	0.1	3118.8
86949	8.7144	4.7	0.1	3182.4
86950	8.7642	4.75	0.1	3076.3
86951	8.6148	4.7	0.1	3136.6
86952	8.6646	4.75	0.1	3025.1
86953	8.5152	4.7	0.1	3076.3
86954	8.565	4.75	0.1	2963.
86955	8.4156	4.7	0.1	2998.9
86956	8.4654	4.75	0.1	2887.8
86957	8.316	4.7	0.1	2950.4
86958	8.3658	4.75	0.1	2800.1
86959	8.2662	4.75	0.1	2787.9
86960	8.2165	4.7	0.1	2156.7
86961	23.851	4.8	0.1	32.401
86962	23.9	4.85	0.1	22.308
86963	23.95	4.8	0.1	12.19
86964	23.751	4.8	0.1	52.83
86965	23.801	4.85	0.1	42.57
86966	23.651	4.8	0.1	73.291
86967	23.701	4.85	0.1	62.985
86968	23.552	4.8	0.1	93.718
86969	23.602	4.85	0.1	83.369
86970	23.452	4.8	0.1	114.13
86971	23.502	4.85	0.1	103.73
86972	23.353	4.8	0.1	134.53
86973	23.403	4.85	0.1	124.09
86974	23.253	4.8	0.1	154.96
86975	23.303	4.85	0.1	144.48
86976	23.154	4.8	0.1	175.43
86977	23.203	4.85	0.1	164.89
86978	23.054	4.8	0.1	195.94
86979	23.104	4.85	0.1	185.36
86980	22.954	4.8	0.1	216.5
86981	23.004	4.85	0.1	205.89
86982	22.855	4.8	0.1	237.13
86983	22.905	4.85	0.1	226.49
86984	22.755	4.8	0.1	257.82
86985	22.805	4.85	0.1	247.15
86986	22.656	4.8	0.1	278.57
86987	22.705	4.85	0.1	267.88
86988	22.556	4.8	0.1	299.39
86989	22.606	4.85	0.1	288.68
86990	22.456	4.8	0.1	320.28
86991	22.506	4.85	0.1	309.54
86992	22.357	4.8	0.1	341.22
86993	22.407	4.85	0.1	330.47
86994	22.257	4.8	0.1	362.23
86995	22.307	4.85	0.1	351.47
86996	22.158	4.8	0.1	383.3
86997	22.208	4.85	0.1	372.53
86998	22.058	4.8	0.1	404.44
86999	22.108	4.85	0.1	393.65
87000	21.959	4.8	0.1	425.62
87001	22.008	4.85	0.1	414.83
87002	21.859	4.8	0.1	446.87
87003	21.909	4.85	0.1	436.07
87004	21.759	4.8	0.1	468.17
87005	21.809	4.85	0.1	457.36
87006	21.66	4.8	0.1	489.53
87007	21.71	4.85	0.1	478.71
87008	21.56	4.8	0.1	510.95
87009	21.61	4.85	0.1	500.12
87010	21.461	4.8	0.1	532.41
87011	21.51	4.85	0.1	521.58
87012	21.361	4.8	0.1	553.93
87013	21.411	4.85	0.1	543.09
87014	21.262	4.8	0.1	575.51
87015	21.311	4.85	0.1	564.65
87016	21.162	4.8	0.1	597.13
87017	21.212	4.85	0.1	586.27
87018	21.062	4.8	0.1	618.81
87019	21.112	4.85	0.1	607.94
87020	20.963	4.8	0.1	640.54
87021	21.013	4.85	0.1	629.66
87022	20.863	4.8	0.1	662.32
87023	20.913	4.85	0.1	651.43
87024	20.764	4.8	0.1	684.16
87025	20.813	4.85	0.1	673.25
87026	20.664	4.8	0.1	706.05
87027	20.714	4.85	0.1	695.13
87028	20.564	4.8	0.1	727.98
87029	20.614	4.85	0.1	717.06
87030	20.465	4.8	0.1	749.98
87031	20.515	4.85	0.1	739.03
87032	20.365	4.8	0.1	772.02
87033	20.415	4.85	0.1	761.06
87034	20.266	4.8	0.1	794.12
87035	20.316	4.85	0.1	783.15
87036	20.166	4.8	0.1	816.27
87037	20.216	4.85	0.1	805.28
87038	20.067	4.8	0.1	838.47
87039	20.116	4.85	0.1	827.47
87040	19.967	4.8	0.1	860.73
87041	20.017	4.85	0.1	849.71
87042	19.867	4.8	0.1	883.04
87043	19.917	4.85	0.1	872.
87044	19.768	4.8	0.1	905.4
87045	19.818	4.85	0.1	894.35
87046	19.668	4.8	0.1	927.82
87047	19.718	4.85	0.1	916.75
87048	19.569	4.8	0.1	950.29
87049	19.618	4.85	0.1	939.2
87050	19.469	4.8	0.1	972.81
87051	19.519	4.85	0.1	961.7
87052	19.369	4.8	0.1	995.39
87053	19.419	4.85	0.1	984.26
87054	19.27	4.8	0.1	1018.
87055	19.32	4.85	0.1	1006.9
87056	19.17	4.8	0.1	1040.7
87057	19.22	4.85	0.1	1029.5
87058	19.071	4.8	0.1	1063.5
87059	19.121	4.85	0.1	1052.3
87060	18.971	4.8	0.1	1086.3
87061	19.021	4.85	0.1	1075.
87062	18.872	4.8	0.1	1109.1
87063	18.921	4.85	0.1	1097.9
87064	18.772	4.8	0.1	1132.
87065	18.822	4.85	0.1	1120.8
87066	18.672	4.8	0.1	1155.
87067	18.722	4.85	0.1	1143.7
87068	18.573	4.8	0.1	1178.
87069	18.623	4.85	0.1	1166.7
87070	18.473	4.8	0.1	1201.1
87071	18.523	4.85	0.1	1189.8
87072	18.374	4.8	0.1	1224.2
87073	18.423	4.85	0.1	1212.9
87074	18.274	4.8	0.1	1247.4
87075	18.324	4.85	0.1	1236.
87076	18.175	4.8	0.1	1270.7
87077	18.224	4.85	0.1	1259.3
87078	18.075	4.8	0.1	1294.
87079	18.125	4.85	0.1	1282.5
87080	17.975	4.8	0.1	1317.3
87081	18.025	4.85	0.1	1305.9
87082	17.876	4.8	0.1	1340.7
87083	17.926	4.85	0.1	1329.3
87084	17.776	4.8	0.1	1364.2
87085	17.826	4.85	0.1	1352.7
87086	17.677	4.8	0.1	1387.7
87087	17.726	4.85	0.1	1376.2
87088	17.577	4.8	0.1	1411.3
87089	17.627	4.85	0.1	1399.8
87090	17.477	4.8	0.1	1435.
87091	17.527	4.85	0.1	1423.4
87092	17.378	4.8	0.1	1458.7
87093	17.428	4.85	0.1	1447.1
87094	17.278	4.8	0.1	1482.4
87095	17.328	4.85	0.1	1470.8
87096	17.179	4.8	0.1	1506.2
87097	17.229	4.85	0.1	1494.6
87098	17.079	4.8	0.1	1530.1
87099	17.129	4.85	0.1	1518.5
87100	16.98	4.8	0.1	1554.
87101	17.029	4.85	0.1	1542.4
87102	16.88	4.8	0.1	1578.
87103	16.93	4.85	0.1	1566.3
87104	16.78	4.8	0.1	1602.1
87105	16.83	4.85	0.1	1590.3
87106	16.681	4.8	0.1	1626.2
87107	16.731	4.85	0.1	1614.4
87108	16.581	4.8	0.1	1650.3
87109	16.631	4.85	0.1	1638.6
87110	16.482	4.8	0.1	1674.5
87111	16.531	4.85	0.1	1662.8
87112	16.382	4.8	0.1	1698.8
87113	16.432	4.85	0.1	1687.
87114	16.282	4.8	0.1	1723.1
87115	16.332	4.85	0.1	1711.3
87116	16.183	4.8	0.1	1747.5
87117	16.233	4.85	0.1	1735.7
87118	16.083	4.8	0.1	1772.
87119	16.133	4.85	0.1	1760.1
87120	15.984	4.8	0.1	1796.5
87121	16.034	4.85	0.1	1784.6
87122	15.884	4.8	0.1	1821.1
87123	15.934	4.85	0.1	1809.1
87124	15.785	4.8	0.1	1845.7
87125	15.834	4.85	0.1	1833.7
87126	15.685	4.8	0.1	1870.3
87127	15.735	4.85	0.1	1858.4
87128	15.585	4.8	0.1	1895.1
87129	15.635	4.85	0.1	1883.1
87130	15.486	4.8	0.1	1919.9
87131	15.536	4.85	0.1	1907.9
87132	15.386	4.8	0.1	1944.7
87133	15.436	4.85	0.1	1932.7
87134	15.287	4.8	0.1	1969.6
87135	15.336	4.85	0.1	1957.6
87136	15.187	4.8	0.1	1994.6
87137	15.237	4.85	0.1	1982.5
87138	15.088	4.8	0.1	2019.6
87139	15.137	4.85	0.1	2007.5
87140	14.988	4.8	0.1	2044.7
87141	15.038	4.85	0.1	2032.6
87142	14.888	4.8	0.1	2069.8
87143	14.938	4.85	0.1	2057.7
87144	14.789	4.8	0.1	2095.
87145	14.839	4.85	0.1	2082.9
87146	14.689	4.8	0.1	2120.3
87147	14.739	4.85	0.1	2108.1
87148	14.59	4.8	0.1	2145.6
87149	14.639	4.85	0.1	2133.4
87150	14.49	4.8	0.1	2171.
87151	14.54	4.85	0.1	2158.7
87152	14.39	4.8	0.1	2196.4
87153	14.44	4.85	0.1	2184.1
87154	14.291	4.8	0.1	2221.9
87155	14.341	4.85	0.1	2209.6
87156	14.191	4.8	0.1	2247.4
87157	14.241	4.85	0.1	2235.1
87158	14.092	4.8	0.1	2273.
87159	14.142	4.85	0.1	2260.6
87160	13.992	4.8	0.1	2298.6
87161	14.042	4.85	0.1	2286.2
87162	13.893	4.8	0.1	2324.3
87163	13.942	4.85	0.1	2311.9
87164	13.793	4.8	0.1	2350.
87165	13.843	4.85	0.1	2337.6
87166	13.693	4.8	0.1	2375.8
87167	13.743	4.85	0.1	2363.4
87168	13.594	4.8	0.1	2401.6
87169	13.644	4.85	0.1	2389.2
87170	13.494	4.8	0.1	2427.5
87171	13.544	4.85	0.1	2415.
87172	13.395	4.8	0.1	2453.4
87173	13.444	4.85	0.1	2440.9
87174	13.295	4.8	0.1	2479.4
87175	13.345	4.85	0.1	2466.8
87176	13.195	4.8	0.1	2505.4
87177	13.245	4.85	0.1	2492.8
87178	13.096	4.8	0.1	2531.4
87179	13.146	4.85	0.1	2518.7
87180	12.996	4.8	0.1	2557.4
87181	13.046	4.85	0.1	2544.7
87182	12.897	4.8	0.1	2583.5
87183	12.947	4.85	0.1	2570.8
87184	12.797	4.8	0.1	2609.6
87185	12.847	4.85	0.1	2596.8
87186	12.698	4.8	0.1	2635.7
87187	12.747	4.85	0.1	2622.8
87188	12.598	4.8	0.1	2661.7
87189	12.648	4.85	0.1	2648.8
87190	12.498	4.8	0.1	2687.8
87191	12.548	4.85	0.1	2674.8
87192	12.399	4.8	0.1	2713.8
87193	12.449	4.85	0.1	2700.7
87194	12.299	4.8	0.1	2739.8
87195	12.349	4.85	0.1	2726.6
87196	12.2	4.8	0.1	2765.8
87197	12.249	4.85	0.1	2752.5
87198	12.1	4.8	0.1	2791.6
87199	12.15	4.85	0.1	2778.2
87200	12.001	4.8	0.1	2817.3
87201	12.05	4.85	0.1	2803.8
87202	11.901	4.8	0.1	2843.
87203	11.951	4.85	0.1	2829.3
87204	11.801	4.8	0.1	2868.4
87205	11.851	4.85	0.1	2854.5
87206	11.702	4.8	0.1	2893.6
87207	11.752	4.85	0.1	2879.6
87208	11.602	4.8	0.1	2918.7
87209	11.652	4.85	0.1	2904.4
87210	11.503	4.8	0.1	2943.4
87211	11.552	4.85	0.1	2928.8
87212	11.403	4.8	0.1	2967.8
87213	11.453	4.85	0.1	2952.9
87214	11.303	4.8	0.1	2991.7
87215	11.353	4.85	0.1	2976.6
87216	11.204	4.8	0.1	3015.2
87217	11.254	4.85	0.1	2999.7
87218	11.104	4.8	0.1	3038.1
87219	11.154	4.85	0.1	3022.3
87220	11.005	4.8	0.1	3060.4
87221	11.055	4.85	0.1	3044.1
87222	10.905	4.8	0.1	3081.9
87223	10.955	4.85	0.1	3065.1
87224	10.806	4.8	0.1	3102.6
87225	10.855	4.85	0.1	3085.1
87226	10.706	4.8	0.1	3122.2
87227	10.756	4.85	0.1	3104.1
87228	10.606	4.8	0.1	3140.6
87229	10.656	4.85	0.1	3121.8
87230	10.507	4.8	0.1	3157.7
87231	10.557	4.85	0.1	3138.
87232	10.407	4.8	0.1	3173.3
87233	10.457	4.85	0.1	3152.6
87234	10.308	4.8	0.1	3187.1
87235	10.357	4.85	0.1	3165.4
87236	10.208	4.8	0.1	3199.
87237	10.258	4.85	0.1	3175.9
87238	10.108	4.8	0.1	3208.5
87239	10.158	4.85	0.1	3184.1
87240	10.009	4.8	0.1	3215.6
87241	10.059	4.85	0.1	3189.5
87242	9.9093	4.8	0.1	3219.8
87243	9.9591	4.85	0.1	3191.9
87244	9.8097	4.8	0.1	3220.9
87245	9.8595	4.85	0.1	3190.8
87246	9.7102	4.8	0.1	3218.4
87247	9.76	4.85	0.1	3185.9
87248	9.6106	4.8	0.1	3212.1
87249	9.6604	4.85	0.1	3176.7
87250	9.511	4.8	0.1	3201.4
87251	9.5608	4.85	0.1	3162.8
87252	9.4114	4.8	0.1	3186.1
87253	9.4612	4.85	0.1	3143.7
87254	9.3118	4.8	0.1	3165.7
87255	9.3616	4.85	0.1	3119.1
87256	9.2123	4.8	0.1	3139.8
87257	9.2621	4.85	0.1	3088.3
87258	9.1127	4.8	0.1	3107.9
87259	9.1625	4.85	0.1	3051.
87260	9.0131	4.8	0.1	3069.7
87261	9.0629	4.85	0.1	3006.9
87262	8.9135	4.8	0.1	3024.6
87263	8.9633	4.85	0.1	2955.6
87264	8.8139	4.8	0.1	2972.1
87265	8.8637	4.85	0.1	2896.8
87266	8.7144	4.8	0.1	2911.6
87267	8.7642	4.85	0.1	2830.5
87268	8.6148	4.8	0.1	2842.2
87269	8.6646	4.85	0.1	2756.7
87270	8.5152	4.8	0.1	2763.2
87271	8.565	4.85	0.1	2675.5
87272	8.4156	4.8	0.1	2675.6
87273	8.4654	4.85	0.1	2587.3
87274	8.316	4.8	0.1	2622.6
87275	8.3658	4.85	0.1	2495.4
87276	8.2662	4.85	0.1	2478.9
87277	8.2165	4.8	0.1	1927.6
87278	23.851	4.9	0.1	32.4
87279	23.9	4.95	0.1	22.362
87280	23.95	4.9	0.1	12.216
87281	23.751	4.9	0.1	52.712
87282	23.801	4.95	0.1	42.495
87283	23.651	4.9	0.1	73.063
87284	23.701	4.95	0.1	62.788
87285	23.552	4.9	0.1	93.388
87286	23.602	4.95	0.1	83.059
87287	23.452	4.9	0.1	113.71
87288	23.502	4.95	0.1	103.32
87289	23.353	4.9	0.1	134.04
87290	23.403	4.95	0.1	123.6
87291	23.253	4.9	0.1	154.42
87292	23.303	4.95	0.1	143.92
87293	23.154	4.9	0.1	174.84
87294	23.203	4.95	0.1	164.3
87295	23.054	4.9	0.1	195.33
87296	23.104	4.95	0.1	184.74
87297	22.954	4.9	0.1	215.89
87298	23.004	4.95	0.1	205.26
87299	22.855	4.9	0.1	236.52
87300	22.905	4.95	0.1	225.86
87301	22.755	4.9	0.1	257.22
87302	22.805	4.95	0.1	246.53
87303	22.656	4.9	0.1	278.
87304	22.705	4.95	0.1	267.28
87305	22.556	4.9	0.1	298.84
87306	22.606	4.95	0.1	288.11
87307	22.456	4.9	0.1	319.76
87308	22.506	4.95	0.1	309.01
87309	22.357	4.9	0.1	340.74
87310	22.407	4.95	0.1	329.98
87311	22.257	4.9	0.1	361.79
87312	22.307	4.95	0.1	351.01
87313	22.158	4.9	0.1	382.89
87314	22.208	4.95	0.1	372.11
87315	22.058	4.9	0.1	404.06
87316	22.108	4.95	0.1	393.27
87317	21.959	4.9	0.1	425.29
87318	22.008	4.95	0.1	414.5
87319	21.859	4.9	0.1	446.58
87320	21.909	4.95	0.1	435.77
87321	21.759	4.9	0.1	467.92
87322	21.809	4.95	0.1	457.11
87323	21.66	4.9	0.1	489.32
87324	21.71	4.95	0.1	478.5
87325	21.56	4.9	0.1	510.77
87326	21.61	4.95	0.1	499.94
87327	21.461	4.9	0.1	532.27
87328	21.51	4.95	0.1	521.44
87329	21.361	4.9	0.1	553.83
87330	21.411	4.95	0.1	542.99
87331	21.262	4.9	0.1	575.43
87332	21.311	4.95	0.1	564.59
87333	21.162	4.9	0.1	597.09
87334	21.212	4.95	0.1	586.24
87335	21.062	4.9	0.1	618.8
87336	21.112	4.95	0.1	607.94
87337	20.963	4.9	0.1	640.56
87338	21.013	4.95	0.1	629.69
87339	20.863	4.9	0.1	662.38
87340	20.913	4.95	0.1	651.49
87341	20.764	4.9	0.1	684.24
87342	20.813	4.95	0.1	673.34
87343	20.664	4.9	0.1	706.15
87344	20.714	4.95	0.1	695.25
87345	20.564	4.9	0.1	728.12
87346	20.614	4.95	0.1	717.2
87347	20.465	4.9	0.1	750.14
87348	20.515	4.95	0.1	739.2
87349	20.365	4.9	0.1	772.2
87350	20.415	4.95	0.1	761.26
87351	20.266	4.9	0.1	794.32
87352	20.316	4.95	0.1	783.36
87353	20.166	4.9	0.1	816.49
87354	20.216	4.95	0.1	805.52
87355	20.067	4.9	0.1	838.72
87356	20.116	4.95	0.1	827.73
87357	19.967	4.9	0.1	860.99
87358	20.017	4.95	0.1	849.99
87359	19.867	4.9	0.1	883.32
87360	19.917	4.95	0.1	872.3
87361	19.768	4.9	0.1	905.7
87362	19.818	4.95	0.1	894.66
87363	19.668	4.9	0.1	928.14
87364	19.718	4.95	0.1	917.08
87365	19.569	4.9	0.1	950.63
87366	19.618	4.95	0.1	939.55
87367	19.469	4.9	0.1	973.17
87368	19.519	4.95	0.1	962.07
87369	19.369	4.9	0.1	995.76
87370	19.419	4.95	0.1	984.65
87371	19.27	4.9	0.1	1018.4
87372	19.32	4.95	0.1	1007.3
87373	19.17	4.9	0.1	1041.1
87374	19.22	4.95	0.1	1030.
87375	19.071	4.9	0.1	1063.9
87376	19.121	4.95	0.1	1052.7
87377	18.971	4.9	0.1	1086.7
87378	19.021	4.95	0.1	1075.5
87379	18.872	4.9	0.1	1109.6
87380	18.921	4.95	0.1	1098.3
87381	18.772	4.9	0.1	1132.5
87382	18.822	4.95	0.1	1121.2
87383	18.672	4.9	0.1	1155.5
87384	18.722	4.95	0.1	1144.2
87385	18.573	4.9	0.1	1178.5
87386	18.623	4.95	0.1	1167.2
87387	18.473	4.9	0.1	1201.6
87388	18.523	4.95	0.1	1190.3
87389	18.374	4.9	0.1	1224.7
87390	18.423	4.95	0.1	1213.4
87391	18.274	4.9	0.1	1247.9
87392	18.324	4.95	0.1	1236.6
87393	18.175	4.9	0.1	1271.2
87394	18.224	4.95	0.1	1259.8
87395	18.075	4.9	0.1	1294.5
87396	18.125	4.95	0.1	1283.1
87397	17.975	4.9	0.1	1317.9
87398	18.025	4.95	0.1	1306.4
87399	17.876	4.9	0.1	1341.3
87400	17.926	4.95	0.1	1329.8
87401	17.776	4.9	0.1	1364.8
87402	17.826	4.95	0.1	1353.3
87403	17.677	4.9	0.1	1388.3
87404	17.726	4.95	0.1	1376.8
87405	17.577	4.9	0.1	1411.9
87406	17.627	4.95	0.1	1400.4
87407	17.477	4.9	0.1	1435.5
87408	17.527	4.95	0.1	1424.
87409	17.378	4.9	0.1	1459.3
87410	17.428	4.95	0.1	1447.7
87411	17.278	4.9	0.1	1483.
87412	17.328	4.95	0.1	1471.4
87413	17.179	4.9	0.1	1506.8
87414	17.229	4.95	0.1	1495.2
87415	17.079	4.9	0.1	1530.7
87416	17.129	4.95	0.1	1519.1
87417	16.98	4.9	0.1	1554.7
87418	17.029	4.95	0.1	1543.
87419	16.88	4.9	0.1	1578.7
87420	16.93	4.95	0.1	1567.
87421	16.78	4.9	0.1	1602.7
87422	16.83	4.95	0.1	1591.
87423	16.681	4.9	0.1	1626.8
87424	16.731	4.95	0.1	1615.1
87425	16.581	4.9	0.1	1651.
87426	16.631	4.95	0.1	1639.2
87427	16.482	4.9	0.1	1675.2
87428	16.531	4.95	0.1	1663.4
87429	16.382	4.9	0.1	1699.5
87430	16.432	4.95	0.1	1687.7
87431	16.282	4.9	0.1	1723.9
87432	16.332	4.95	0.1	1712.
87433	16.183	4.9	0.1	1748.3
87434	16.233	4.95	0.1	1736.4
87435	16.083	4.9	0.1	1772.7
87436	16.133	4.95	0.1	1760.8
87437	15.984	4.9	0.1	1797.2
87438	16.034	4.95	0.1	1785.3
87439	15.884	4.9	0.1	1821.8
87440	15.934	4.95	0.1	1809.9
87441	15.785	4.9	0.1	1846.4
87442	15.834	4.95	0.1	1834.5
87443	15.685	4.9	0.1	1871.1
87444	15.735	4.95	0.1	1859.2
87445	15.585	4.9	0.1	1895.9
87446	15.635	4.95	0.1	1883.9
87447	15.486	4.9	0.1	1920.7
87448	15.536	4.95	0.1	1908.7
87449	15.386	4.9	0.1	1945.5
87450	15.436	4.95	0.1	1933.5
87451	15.287	4.9	0.1	1970.5
87452	15.336	4.95	0.1	1958.4
87453	15.187	4.9	0.1	1995.4
87454	15.237	4.95	0.1	1983.4
87455	15.088	4.9	0.1	2020.5
87456	15.137	4.95	0.1	2008.4
87457	14.988	4.9	0.1	2045.6
87458	15.038	4.95	0.1	2033.5
87459	14.888	4.9	0.1	2070.7
87460	14.938	4.95	0.1	2058.6
87461	14.789	4.9	0.1	2095.9
87462	14.839	4.95	0.1	2083.8
87463	14.689	4.9	0.1	2121.2
87464	14.739	4.95	0.1	2109.
87465	14.59	4.9	0.1	2146.5
87466	14.639	4.95	0.1	2134.3
87467	14.49	4.9	0.1	2171.9
87468	14.54	4.95	0.1	2159.7
87469	14.39	4.9	0.1	2197.3
87470	14.44	4.95	0.1	2185.1
87471	14.291	4.9	0.1	2222.8
87472	14.341	4.95	0.1	2210.5
87473	14.191	4.9	0.1	2248.3
87474	14.241	4.95	0.1	2236.
87475	14.092	4.9	0.1	2273.9
87476	14.142	4.95	0.1	2261.6
87477	13.992	4.9	0.1	2299.6
87478	14.042	4.95	0.1	2287.2
87479	13.893	4.9	0.1	2325.2
87480	13.942	4.95	0.1	2312.9
87481	13.793	4.9	0.1	2351.
87482	13.843	4.95	0.1	2338.6
87483	13.693	4.9	0.1	2376.7
87484	13.743	4.95	0.1	2364.3
87485	13.594	4.9	0.1	2402.6
87486	13.644	4.95	0.1	2390.1
87487	13.494	4.9	0.1	2428.4
87488	13.544	4.95	0.1	2416.
87489	13.395	4.9	0.1	2454.3
87490	13.444	4.95	0.1	2441.8
87491	13.295	4.9	0.1	2480.2
87492	13.345	4.95	0.1	2467.7
87493	13.195	4.9	0.1	2506.2
87494	13.245	4.95	0.1	2493.6
87495	13.096	4.9	0.1	2532.1
87496	13.146	4.95	0.1	2519.5
87497	12.996	4.9	0.1	2558.1
87498	13.046	4.95	0.1	2545.5
87499	12.897	4.9	0.1	2584.1
87500	12.947	4.95	0.1	2571.4
87501	12.797	4.9	0.1	2610.
87502	12.847	4.95	0.1	2597.3
87503	12.698	4.9	0.1	2636.
87504	12.747	4.95	0.1	2623.2
87505	12.598	4.9	0.1	2661.9
87506	12.648	4.95	0.1	2649.1
87507	12.498	4.9	0.1	2687.8
87508	12.548	4.95	0.1	2674.9
87509	12.399	4.9	0.1	2713.6
87510	12.449	4.95	0.1	2700.6
87511	12.299	4.9	0.1	2739.3
87512	12.349	4.95	0.1	2726.3
87513	12.2	4.9	0.1	2764.9
87514	12.249	4.95	0.1	2751.8
87515	12.1	4.9	0.1	2790.4
87516	12.15	4.95	0.1	2777.2
87517	12.001	4.9	0.1	2815.7
87518	12.05	4.95	0.1	2802.4
87519	11.901	4.9	0.1	2840.8
87520	11.951	4.95	0.1	2827.4
87521	11.801	4.9	0.1	2865.7
87522	11.851	4.95	0.1	2852.2
87523	11.702	4.9	0.1	2890.3
87524	11.752	4.95	0.1	2876.7
87525	11.602	4.9	0.1	2914.6
87526	11.652	4.95	0.1	2900.7
87527	11.503	4.9	0.1	2938.4
87528	11.552	4.95	0.1	2924.4
87529	11.403	4.9	0.1	2961.8
87530	11.453	4.95	0.1	2947.6
87531	11.303	4.9	0.1	2984.6
87532	11.353	4.95	0.1	2970.2
87533	11.204	4.9	0.1	3006.8
87534	11.254	4.95	0.1	2992.1
87535	11.104	4.9	0.1	3028.2
87536	11.154	4.95	0.1	3013.3
87537	11.005	4.9	0.1	3048.7
87538	11.055	4.95	0.1	3033.5
87539	10.905	4.9	0.1	3068.3
87540	10.955	4.95	0.1	3052.7
87541	10.806	4.9	0.1	3086.6
87542	10.855	4.95	0.1	3070.7
87543	10.706	4.9	0.1	3103.7
87544	10.756	4.95	0.1	3087.3
87545	10.606	4.9	0.1	3119.2
87546	10.656	4.95	0.1	3102.3
87547	10.507	4.9	0.1	3132.9
87548	10.557	4.95	0.1	3115.4
87549	10.407	4.9	0.1	3144.6
87550	10.457	4.95	0.1	3126.5
87551	10.308	4.9	0.1	3154.1
87552	10.357	4.95	0.1	3135.3
87553	10.208	4.9	0.1	3161.
87554	10.258	4.95	0.1	3141.4
87555	10.108	4.9	0.1	3165.
87556	10.158	4.95	0.1	3144.4
87557	10.009	4.9	0.1	3165.6
87558	10.059	4.95	0.1	3144.1
87559	9.9093	4.9	0.1	3162.6
87560	9.9591	4.95	0.1	3139.8
87561	9.8097	4.9	0.1	3155.5
87562	9.8595	4.95	0.1	3131.3
87563	9.7102	4.9	0.1	3143.7
87564	9.76	4.95	0.1	3117.9
87565	9.6106	4.9	0.1	3126.8
87566	9.6604	4.95	0.1	3099.2
87567	9.511	4.9	0.1	3104.3
87568	9.5608	4.95	0.1	3074.6
87569	9.4114	4.9	0.1	3075.6
87570	9.4612	4.95	0.1	3043.5
87571	9.3118	4.9	0.1	3040.3
87572	9.3616	4.95	0.1	3005.3
87573	9.2123	4.9	0.1	2997.7
87574	9.2621	4.95	0.1	2959.6
87575	9.1127	4.9	0.1	2947.5
87576	9.1625	4.95	0.1	2905.8
87577	9.0131	4.9	0.1	2889.4
87578	9.0629	4.95	0.1	2843.6
87579	8.9135	4.9	0.1	2823.4
87580	8.9633	4.95	0.1	2773.1
87581	8.8139	4.9	0.1	2749.6
87582	8.8637	4.95	0.1	2694.5
87583	8.7144	4.9	0.1	2668.5
87584	8.7642	4.95	0.1	2608.7
87585	8.6148	4.9	0.1	2581.2
87586	8.6646	4.95	0.1	2516.9
87587	8.5152	4.9	0.1	2489.
87588	8.565	4.95	0.1	2421.1
87589	8.4156	4.9	0.1	2395.
87590	8.4654	4.95	0.1	2323.6
87591	8.316	4.9	0.1	2338.7
87592	8.3658	4.95	0.1	2229.3
87593	8.2662	4.95	0.1	2208.7
87594	8.2165	4.9	0.1	1727.7
87595	23.851	5.	0.1	32.384
87596	23.9	5.05	0.1	22.409
87597	23.95	5.	0.1	12.237
87598	23.751	5.	0.1	52.56
87599	23.801	5.05	0.1	42.39
87600	23.651	5.	0.1	72.786
87601	23.701	5.05	0.1	62.544
87602	23.552	5.	0.1	93.
87603	23.602	5.05	0.1	82.688
87604	23.452	5.	0.1	113.23
87605	23.502	5.05	0.1	102.85
87606	23.353	5.	0.1	133.49
87607	23.403	5.05	0.1	123.04
87608	23.253	5.	0.1	153.82
87609	23.303	5.05	0.1	143.31
87610	23.154	5.	0.1	174.21
87611	23.203	5.05	0.1	163.65
87612	23.054	5.	0.1	194.69
87613	23.104	5.05	0.1	184.08
87614	22.954	5.	0.1	215.25
87615	23.004	5.05	0.1	204.6
87616	22.855	5.	0.1	235.89
87617	22.905	5.05	0.1	225.21
87618	22.755	5.	0.1	256.61
87619	22.805	5.05	0.1	245.91
87620	22.656	5.	0.1	277.42
87621	22.705	5.05	0.1	266.69
87622	22.556	5.	0.1	298.3
87623	22.606	5.05	0.1	287.55
87624	22.456	5.	0.1	319.25
87625	22.506	5.05	0.1	308.49
87626	22.357	5.	0.1	340.27
87627	22.407	5.05	0.1	329.5
87628	22.257	5.	0.1	361.36
87629	22.307	5.05	0.1	350.58
87630	22.158	5.	0.1	382.51
87631	22.208	5.05	0.1	371.73
87632	22.058	5.	0.1	403.72
87633	22.108	5.05	0.1	392.93
87634	21.959	5.	0.1	425.
87635	22.008	5.05	0.1	414.2
87636	21.859	5.	0.1	446.32
87637	21.909	5.05	0.1	435.52
87638	21.759	5.	0.1	467.71
87639	21.809	5.05	0.1	456.9
87640	21.66	5.	0.1	489.14
87641	21.71	5.05	0.1	478.33
87642	21.56	5.	0.1	510.63
87643	21.61	5.05	0.1	499.81
87644	21.461	5.	0.1	532.17
87645	21.51	5.05	0.1	521.35
87646	21.361	5.	0.1	553.76
87647	21.411	5.05	0.1	542.93
87648	21.262	5.	0.1	575.4
87649	21.311	5.05	0.1	564.57
87650	21.162	5.	0.1	597.1
87651	21.212	5.05	0.1	586.25
87652	21.062	5.	0.1	618.84
87653	21.112	5.05	0.1	607.99
87654	20.963	5.	0.1	640.63
87655	21.013	5.05	0.1	629.77
87656	20.863	5.	0.1	662.47
87657	20.913	5.05	0.1	651.6
87658	20.764	5.	0.1	684.36
87659	20.813	5.05	0.1	673.48
87660	20.664	5.	0.1	706.31
87661	20.714	5.05	0.1	695.41
87662	20.564	5.	0.1	728.3
87663	20.614	5.05	0.1	717.39
87664	20.465	5.	0.1	750.34
87665	20.515	5.05	0.1	739.42
87666	20.365	5.	0.1	772.43
87667	20.415	5.05	0.1	761.5
87668	20.266	5.	0.1	794.57
87669	20.316	5.05	0.1	783.63
87670	20.166	5.	0.1	816.77
87671	20.216	5.05	0.1	805.81
87672	20.067	5.	0.1	839.01
87673	20.116	5.05	0.1	828.04
87674	19.967	5.	0.1	861.31
87675	20.017	5.05	0.1	850.31
87676	19.867	5.	0.1	883.65
87677	19.917	5.05	0.1	872.65
87678	19.768	5.	0.1	906.05
87679	19.818	5.05	0.1	895.03
87680	19.668	5.	0.1	928.51
87681	19.718	5.05	0.1	917.46
87682	19.569	5.	0.1	951.01
87683	19.618	5.05	0.1	939.95
87684	19.469	5.	0.1	973.57
87685	19.519	5.05	0.1	962.49
87686	19.369	5.	0.1	996.18
87687	19.419	5.05	0.1	985.08
87688	19.27	5.	0.1	1018.8
87689	19.32	5.05	0.1	1007.7
87690	19.17	5.	0.1	1041.6
87691	19.22	5.05	0.1	1030.4
87692	19.071	5.	0.1	1064.3
87693	19.121	5.05	0.1	1053.2
87694	18.971	5.	0.1	1087.2
87695	19.021	5.05	0.1	1076.
87696	18.872	5.	0.1	1110.
87697	18.921	5.05	0.1	1098.8
87698	18.772	5.	0.1	1133.
87699	18.822	5.05	0.1	1121.7
87700	18.672	5.	0.1	1156.
87701	18.722	5.05	0.1	1144.7
87702	18.573	5.	0.1	1179.
87703	18.623	5.05	0.1	1167.7
87704	18.473	5.	0.1	1202.1
87705	18.523	5.05	0.1	1190.8
87706	18.374	5.	0.1	1225.3
87707	18.423	5.05	0.1	1213.9
87708	18.274	5.	0.1	1248.5
87709	18.324	5.05	0.1	1237.1
87710	18.175	5.	0.1	1271.7
87711	18.224	5.05	0.1	1260.4
87712	18.075	5.	0.1	1295.
87713	18.125	5.05	0.1	1283.7
87714	17.975	5.	0.1	1318.4
87715	18.025	5.05	0.1	1307.
87716	17.876	5.	0.1	1341.9
87717	17.926	5.05	0.1	1330.4
87718	17.776	5.	0.1	1365.4
87719	17.826	5.05	0.1	1353.9
87720	17.677	5.	0.1	1388.9
87721	17.726	5.05	0.1	1377.4
87722	17.577	5.	0.1	1412.5
87723	17.627	5.05	0.1	1401.
87724	17.477	5.	0.1	1436.2
87725	17.527	5.05	0.1	1424.6
87726	17.378	5.	0.1	1459.9
87727	17.428	5.05	0.1	1448.3
87728	17.278	5.	0.1	1483.7
87729	17.328	5.05	0.1	1472.1
87730	17.179	5.	0.1	1507.5
87731	17.229	5.05	0.1	1495.9
87732	17.079	5.	0.1	1531.4
87733	17.129	5.05	0.1	1519.8
87734	16.98	5.	0.1	1555.3
87735	17.029	5.05	0.1	1543.7
87736	16.88	5.	0.1	1579.3
87737	16.93	5.05	0.1	1567.7
87738	16.78	5.	0.1	1603.4
87739	16.83	5.05	0.1	1591.7
87740	16.681	5.	0.1	1627.5
87741	16.731	5.05	0.1	1615.8
87742	16.581	5.	0.1	1651.7
87743	16.631	5.05	0.1	1640.
87744	16.482	5.	0.1	1675.9
87745	16.531	5.05	0.1	1664.2
87746	16.382	5.	0.1	1700.2
87747	16.432	5.05	0.1	1688.5
87748	16.282	5.	0.1	1724.6
87749	16.332	5.05	0.1	1712.8
87750	16.183	5.	0.1	1749.
87751	16.233	5.05	0.1	1737.2
87752	16.083	5.	0.1	1773.5
87753	16.133	5.05	0.1	1761.6
87754	15.984	5.	0.1	1798.
87755	16.034	5.05	0.1	1786.1
87756	15.884	5.	0.1	1822.6
87757	15.934	5.05	0.1	1810.7
87758	15.785	5.	0.1	1847.2
87759	15.834	5.05	0.1	1835.3
87760	15.685	5.	0.1	1871.9
87761	15.735	5.05	0.1	1860.
87762	15.585	5.	0.1	1896.7
87763	15.635	5.05	0.1	1884.7
87764	15.486	5.	0.1	1921.5
87765	15.536	5.05	0.1	1909.5
87766	15.386	5.	0.1	1946.4
87767	15.436	5.05	0.1	1934.4
87768	15.287	5.	0.1	1971.3
87769	15.336	5.05	0.1	1959.3
87770	15.187	5.	0.1	1996.3
87771	15.237	5.05	0.1	1984.3
87772	15.088	5.	0.1	2021.4
87773	15.137	5.05	0.1	2009.3
87774	14.988	5.	0.1	2046.5
87775	15.038	5.05	0.1	2034.4
87776	14.888	5.	0.1	2071.6
87777	14.938	5.05	0.1	2059.5
87778	14.789	5.	0.1	2096.9
87779	14.839	5.05	0.1	2084.7
87780	14.689	5.	0.1	2122.1
87781	14.739	5.05	0.1	2110.
87782	14.59	5.	0.1	2147.5
87783	14.639	5.05	0.1	2135.3
87784	14.49	5.	0.1	2172.9
87785	14.54	5.05	0.1	2160.7
87786	14.39	5.	0.1	2198.3
87787	14.44	5.05	0.1	2186.1
87788	14.291	5.	0.1	2223.8
87789	14.341	5.05	0.1	2211.5
87790	14.191	5.	0.1	2249.3
87791	14.241	5.05	0.1	2237.1
87792	14.092	5.	0.1	2274.9
87793	14.142	5.05	0.1	2262.6
87794	13.992	5.	0.1	2300.6
87795	14.042	5.05	0.1	2288.2
87796	13.893	5.	0.1	2326.2
87797	13.942	5.05	0.1	2313.9
87798	13.793	5.	0.1	2352.
87799	13.843	5.05	0.1	2339.6
87800	13.693	5.	0.1	2377.7
87801	13.743	5.05	0.1	2365.3
87802	13.594	5.	0.1	2403.5
87803	13.644	5.05	0.1	2391.1
87804	13.494	5.	0.1	2429.4
87805	13.544	5.05	0.1	2416.9
87806	13.395	5.	0.1	2455.2
87807	13.444	5.05	0.1	2442.8
87808	13.295	5.	0.1	2481.1
87809	13.345	5.05	0.1	2468.6
87810	13.195	5.	0.1	2507.
87811	13.245	5.05	0.1	2494.5
87812	13.096	5.	0.1	2532.9
87813	13.146	5.05	0.1	2520.3
87814	12.996	5.	0.1	2558.8
87815	13.046	5.05	0.1	2546.2
87816	12.897	5.	0.1	2584.6
87817	12.947	5.05	0.1	2572.1
87818	12.797	5.	0.1	2610.5
87819	12.847	5.05	0.1	2597.9
87820	12.698	5.	0.1	2636.3
87821	12.747	5.05	0.1	2623.7
87822	12.598	5.	0.1	2662.1
87823	12.648	5.05	0.1	2649.4
87824	12.498	5.	0.1	2687.8
87825	12.548	5.05	0.1	2675.
87826	12.399	5.	0.1	2713.3
87827	12.449	5.05	0.1	2700.6
87828	12.299	5.	0.1	2738.8
87829	12.349	5.05	0.1	2726.
87830	12.2	5.	0.1	2764.1
87831	12.249	5.05	0.1	2751.2
87832	12.1	5.	0.1	2789.3
87833	12.15	5.05	0.1	2776.3
87834	12.001	5.	0.1	2814.2
87835	12.05	5.05	0.1	2801.2
87836	11.901	5.	0.1	2838.8
87837	11.951	5.05	0.1	2825.7
87838	11.801	5.	0.1	2863.1
87839	11.851	5.05	0.1	2850.
87840	11.702	5.	0.1	2887.1
87841	11.752	5.05	0.1	2873.9
87842	11.602	5.	0.1	2910.6
87843	11.652	5.05	0.1	2897.3
87844	11.503	5.	0.1	2933.6
87845	11.552	5.05	0.1	2920.2
87846	11.403	5.	0.1	2956.
87847	11.453	5.05	0.1	2942.5
87848	11.303	5.	0.1	2977.7
87849	11.353	5.05	0.1	2964.1
87850	11.204	5.	0.1	2998.6
87851	11.254	5.05	0.1	2984.8
87852	11.104	5.	0.1	3018.6
87853	11.154	5.05	0.1	3004.7
87854	11.005	5.	0.1	3037.5
87855	11.055	5.05	0.1	3023.4
87856	10.905	5.	0.1	3055.1
87857	10.955	5.05	0.1	3040.8
87858	10.806	5.	0.1	3071.3
87859	10.855	5.05	0.1	3056.8
87860	10.706	5.	0.1	3085.8
87861	10.756	5.05	0.1	3071.2
87862	10.606	5.	0.1	3098.5
87863	10.656	5.05	0.1	3083.6
87864	10.507	5.	0.1	3109.1
87865	10.557	5.05	0.1	3093.9
87866	10.407	5.	0.1	3117.2
87867	10.457	5.05	0.1	3101.7
87868	10.308	5.	0.1	3122.5
87869	10.357	5.05	0.1	3106.7
87870	10.208	5.	0.1	3124.7
87871	10.258	5.05	0.1	3108.5
87872	10.108	5.	0.1	3123.4
87873	10.158	5.05	0.1	3106.8
87874	10.009	5.	0.1	3118.1
87875	10.059	5.05	0.1	3101.
87876	9.9093	5.	0.1	3108.3
87877	9.9591	5.05	0.1	3090.6
87878	9.8097	5.	0.1	3093.5
87879	9.8595	5.05	0.1	3075.2
87880	9.7102	5.	0.1	3073.1
87881	9.76	5.05	0.1	3054.1
87882	9.6106	5.	0.1	3046.5
87883	9.6604	5.05	0.1	3026.6
87884	9.511	5.	0.1	3013.1
87885	9.5608	5.05	0.1	2992.2
87886	9.4114	5.	0.1	2972.2
87887	9.4612	5.05	0.1	2950.1
87888	9.3118	5.	0.1	2923.3
87889	9.3616	5.05	0.1	2899.8
87890	9.2123	5.	0.1	2865.9
87891	9.2621	5.05	0.1	2840.5
87892	9.1127	5.	0.1	2799.5
87893	9.1625	5.05	0.1	2772.1
87894	9.0131	5.	0.1	2724.1
87895	9.0629	5.05	0.1	2694.1
87896	8.9135	5.	0.1	2640.1
87897	8.9633	5.05	0.1	2606.9
87898	8.8139	5.	0.1	2548.2
87899	8.8637	5.05	0.1	2511.3
87900	8.7144	5.	0.1	2450.2
87901	8.7642	5.05	0.1	2408.9
87902	8.6148	5.	0.1	2348.4
87903	8.6646	5.05	0.1	2302.
87904	8.5152	5.	0.1	2245.9
87905	8.565	5.05	0.1	2194.1
87906	8.4156	5.	0.1	2147.
87907	8.4654	5.05	0.1	2089.
87908	8.316	5.	0.1	2087.7
87909	8.3658	5.05	0.1	1992.6
87910	8.2662	5.05	0.1	1967.5
87911	8.2165	5.	0.1	1549.5
87912	23.851	5.1	0.1	32.346
87913	23.9	5.15	0.1	22.442
87914	23.95	5.1	0.1	12.253
87915	23.751	5.1	0.1	52.364
87916	23.801	5.15	0.1	42.246
87917	23.651	5.1	0.1	72.449
87918	23.701	5.15	0.1	62.239
87919	23.552	5.1	0.1	92.541
87920	23.602	5.15	0.1	82.243
87921	23.452	5.1	0.1	112.67
87922	23.502	5.15	0.1	102.29
87923	23.353	5.1	0.1	132.87
87924	23.403	5.15	0.1	122.41
87925	23.253	5.1	0.1	153.15
87926	23.303	5.15	0.1	142.62
87927	23.154	5.1	0.1	173.53
87928	23.203	5.15	0.1	162.94
87929	23.054	5.1	0.1	194.
87930	23.104	5.15	0.1	183.37
87931	22.954	5.1	0.1	214.58
87932	23.004	5.15	0.1	203.91
87933	22.855	5.1	0.1	235.25
87934	22.905	5.15	0.1	224.55
87935	22.755	5.1	0.1	256.
87936	22.805	5.15	0.1	245.28
87937	22.656	5.1	0.1	276.85
87938	22.705	5.15	0.1	266.11
87939	22.556	5.1	0.1	297.77
87940	22.606	5.15	0.1	287.02
87941	22.456	5.1	0.1	318.77
87942	22.506	5.15	0.1	308.01
87943	22.357	5.1	0.1	339.84
87944	22.407	5.15	0.1	329.07
87945	22.257	5.1	0.1	360.97
87946	22.307	5.15	0.1	350.2
87947	22.158	5.1	0.1	382.17
87948	22.208	5.15	0.1	371.39
87949	22.058	5.1	0.1	403.43
87950	22.108	5.15	0.1	392.65
87951	21.959	5.1	0.1	424.75
87952	22.008	5.15	0.1	413.96
87953	21.859	5.1	0.1	446.12
87954	21.909	5.15	0.1	435.33
87955	21.759	5.1	0.1	467.54
87956	21.809	5.15	0.1	456.75
87957	21.66	5.1	0.1	489.02
87958	21.71	5.15	0.1	478.22
87959	21.56	5.1	0.1	510.55
87960	21.61	5.15	0.1	499.74
87961	21.461	5.1	0.1	532.13
87962	21.51	5.15	0.1	521.32
87963	21.361	5.1	0.1	553.75
87964	21.411	5.15	0.1	542.94
87965	21.262	5.1	0.1	575.43
87966	21.311	5.15	0.1	564.61
87967	21.162	5.1	0.1	597.16
87968	21.212	5.15	0.1	586.33
87969	21.062	5.1	0.1	618.93
87970	21.112	5.15	0.1	608.09
87971	20.963	5.1	0.1	640.75
87972	21.013	5.15	0.1	629.91
87973	20.863	5.1	0.1	662.63
87974	20.913	5.15	0.1	651.77
87975	20.764	5.1	0.1	684.54
87976	20.813	5.15	0.1	673.68
87977	20.664	5.1	0.1	706.51
87978	20.714	5.15	0.1	695.63
87979	20.564	5.1	0.1	728.53
87980	20.614	5.15	0.1	717.64
87981	20.465	5.1	0.1	750.6
87982	20.515	5.15	0.1	739.69
87983	20.365	5.1	0.1	772.71
87984	20.415	5.15	0.1	761.79
87985	20.266	5.1	0.1	794.87
87986	20.316	5.15	0.1	783.95
87987	20.166	5.1	0.1	817.09
87988	20.216	5.15	0.1	806.15
87989	20.067	5.1	0.1	839.35
87990	20.116	5.15	0.1	828.39
87991	19.967	5.1	0.1	861.67
87992	20.017	5.15	0.1	850.69
87993	19.867	5.1	0.1	884.03
87994	19.917	5.15	0.1	873.04
87995	19.768	5.1	0.1	906.45
87996	19.818	5.15	0.1	895.44
87997	19.668	5.1	0.1	928.92
87998	19.718	5.15	0.1	917.89
87999	19.569	5.1	0.1	951.44
88000	19.618	5.15	0.1	940.39
88001	19.469	5.1	0.1	974.01
88002	19.519	5.15	0.1	962.95
88003	19.369	5.1	0.1	996.63
88004	19.419	5.15	0.1	985.55
88005	19.27	5.1	0.1	1019.3
88006	19.32	5.15	0.1	1008.2
88007	19.17	5.1	0.1	1042.
88008	19.22	5.15	0.1	1030.9
88009	19.071	5.1	0.1	1064.8
88010	19.121	5.15	0.1	1053.7
88011	18.971	5.1	0.1	1087.7
88012	19.021	5.15	0.1	1076.5
88013	18.872	5.1	0.1	1110.6
88014	18.921	5.15	0.1	1099.4
88015	18.772	5.1	0.1	1133.5
88016	18.822	5.15	0.1	1122.3
88017	18.672	5.1	0.1	1156.5
88018	18.722	5.15	0.1	1145.3
88019	18.573	5.1	0.1	1179.6
88020	18.623	5.15	0.1	1168.3
88021	18.473	5.1	0.1	1202.7
88022	18.523	5.15	0.1	1191.4
88023	18.374	5.1	0.1	1225.8
88024	18.423	5.15	0.1	1214.5
88025	18.274	5.1	0.1	1249.
88026	18.324	5.15	0.1	1237.7
88027	18.175	5.1	0.1	1272.3
88028	18.224	5.15	0.1	1261.
88029	18.075	5.1	0.1	1295.7
88030	18.125	5.15	0.1	1284.3
88031	17.975	5.1	0.1	1319.
88032	18.025	5.15	0.1	1307.7
88033	17.876	5.1	0.1	1342.5
88034	17.926	5.15	0.1	1331.1
88035	17.776	5.1	0.1	1366.
88036	17.826	5.15	0.1	1354.6
88037	17.677	5.1	0.1	1389.5
88038	17.726	5.15	0.1	1378.1
88039	17.577	5.1	0.1	1413.2
88040	17.627	5.15	0.1	1401.7
88041	17.477	5.1	0.1	1436.8
88042	17.527	5.15	0.1	1425.3
88043	17.378	5.1	0.1	1460.6
88044	17.428	5.15	0.1	1449.
88045	17.278	5.1	0.1	1484.3
88046	17.328	5.15	0.1	1472.8
88047	17.179	5.1	0.1	1508.2
88048	17.229	5.15	0.1	1496.6
88049	17.079	5.1	0.1	1532.1
88050	17.129	5.15	0.1	1520.5
88051	16.98	5.1	0.1	1556.
88052	17.029	5.15	0.1	1544.4
88053	16.88	5.1	0.1	1580.1
88054	16.93	5.15	0.1	1568.4
88055	16.78	5.1	0.1	1604.1
88056	16.83	5.15	0.1	1592.5
88057	16.681	5.1	0.1	1628.3
88058	16.731	5.15	0.1	1616.6
88059	16.581	5.1	0.1	1652.5
88060	16.631	5.15	0.1	1640.7
88061	16.482	5.1	0.1	1676.7
88062	16.531	5.15	0.1	1665.
88063	16.382	5.1	0.1	1701.
88064	16.432	5.15	0.1	1689.2
88065	16.282	5.1	0.1	1725.4
88066	16.332	5.15	0.1	1713.6
88067	16.183	5.1	0.1	1749.8
88068	16.233	5.15	0.1	1738.
88069	16.083	5.1	0.1	1774.3
88070	16.133	5.15	0.1	1762.4
88071	15.984	5.1	0.1	1798.8
88072	16.034	5.15	0.1	1787.
88073	15.884	5.1	0.1	1823.4
88074	15.934	5.15	0.1	1811.5
88075	15.785	5.1	0.1	1848.1
88076	15.834	5.15	0.1	1836.2
88077	15.685	5.1	0.1	1872.8
88078	15.735	5.15	0.1	1860.9
88079	15.585	5.1	0.1	1897.6
88080	15.635	5.15	0.1	1885.6
88081	15.486	5.1	0.1	1922.4
88082	15.536	5.15	0.1	1910.4
88083	15.386	5.1	0.1	1947.3
88084	15.436	5.15	0.1	1935.3
88085	15.287	5.1	0.1	1972.2
88086	15.336	5.15	0.1	1960.2
88087	15.187	5.1	0.1	1997.2
88088	15.237	5.15	0.1	1985.2
88089	15.088	5.1	0.1	2022.3
88090	15.137	5.15	0.1	2010.2
88091	14.988	5.1	0.1	2047.4
88092	15.038	5.15	0.1	2035.3
88093	14.888	5.1	0.1	2072.6
88094	14.938	5.15	0.1	2060.5
88095	14.789	5.1	0.1	2097.8
88096	14.839	5.15	0.1	2085.7
88097	14.689	5.1	0.1	2123.1
88098	14.739	5.15	0.1	2111.
88099	14.59	5.1	0.1	2148.5
88100	14.639	5.15	0.1	2136.3
88101	14.49	5.1	0.1	2173.9
88102	14.54	5.15	0.1	2161.7
88103	14.39	5.1	0.1	2199.3
88104	14.44	5.15	0.1	2187.1
88105	14.291	5.1	0.1	2224.8
88106	14.341	5.15	0.1	2212.6
88107	14.191	5.1	0.1	2250.4
88108	14.241	5.15	0.1	2238.1
88109	14.092	5.1	0.1	2276.
88110	14.142	5.15	0.1	2263.7
88111	13.992	5.1	0.1	2301.6
88112	14.042	5.15	0.1	2289.3
88113	13.893	5.1	0.1	2327.3
88114	13.942	5.15	0.1	2315.
88115	13.793	5.1	0.1	2353.
88116	13.843	5.15	0.1	2340.7
88117	13.693	5.1	0.1	2378.8
88118	13.743	5.15	0.1	2366.4
88119	13.594	5.1	0.1	2404.5
88120	13.644	5.15	0.1	2392.2
88121	13.494	5.1	0.1	2430.3
88122	13.544	5.15	0.1	2418.
88123	13.395	5.1	0.1	2456.2
88124	13.444	5.15	0.1	2443.8
88125	13.295	5.1	0.1	2482.
88126	13.345	5.15	0.1	2469.6
88127	13.195	5.1	0.1	2507.8
88128	13.245	5.15	0.1	2495.4
88129	13.096	5.1	0.1	2533.7
88130	13.146	5.15	0.1	2521.2
88131	12.996	5.1	0.1	2559.5
88132	13.046	5.15	0.1	2547.
88133	12.897	5.1	0.1	2585.3
88134	12.947	5.15	0.1	2572.8
88135	12.797	5.1	0.1	2611.
88136	12.847	5.15	0.1	2598.5
88137	12.698	5.1	0.1	2636.7
88138	12.747	5.15	0.1	2624.2
88139	12.598	5.1	0.1	2662.3
88140	12.648	5.15	0.1	2649.8
88141	12.498	5.1	0.1	2687.8
88142	12.548	5.15	0.1	2675.2
88143	12.399	5.1	0.1	2713.2
88144	12.449	5.15	0.1	2700.6
88145	12.299	5.1	0.1	2738.4
88146	12.349	5.15	0.1	2725.8
88147	12.2	5.1	0.1	2763.4
88148	12.249	5.15	0.1	2750.8
88149	12.1	5.1	0.1	2788.2
88150	12.15	5.15	0.1	2775.5
88151	12.001	5.1	0.1	2812.7
88152	12.05	5.15	0.1	2800.
88153	11.901	5.1	0.1	2836.9
88154	11.951	5.15	0.1	2824.2
88155	11.801	5.1	0.1	2860.7
88156	11.851	5.15	0.1	2848.
88157	11.702	5.1	0.1	2884.1
88158	11.752	5.15	0.1	2871.3
88159	11.602	5.1	0.1	2906.9
88160	11.652	5.15	0.1	2894.1
88161	11.503	5.1	0.1	2929.1
88162	11.552	5.15	0.1	2916.2
88163	11.403	5.1	0.1	2950.6
88164	11.453	5.15	0.1	2937.7
88165	11.303	5.1	0.1	2971.2
88166	11.353	5.15	0.1	2958.3
88167	11.204	5.1	0.1	2990.9
88168	11.254	5.15	0.1	2977.9
88169	11.104	5.1	0.1	3009.4
88170	11.154	5.15	0.1	2996.5
88171	11.005	5.1	0.1	3026.7
88172	11.055	5.15	0.1	3013.8
88173	10.905	5.1	0.1	3042.5
88174	10.955	5.15	0.1	3029.6
88175	10.806	5.1	0.1	3056.7
88176	10.855	5.15	0.1	3043.7
88177	10.706	5.1	0.1	3068.9
88178	10.756	5.15	0.1	3055.9
88179	10.606	5.1	0.1	3078.9
88180	10.656	5.15	0.1	3066.
88181	10.507	5.1	0.1	3086.5
88182	10.557	5.15	0.1	3073.5
88183	10.407	5.1	0.1	3091.2
88184	10.457	5.15	0.1	3078.3
88185	10.308	5.1	0.1	3092.7
88186	10.357	5.15	0.1	3079.8
88187	10.208	5.1	0.1	3090.5
88188	10.258	5.15	0.1	3077.7
88189	10.108	5.1	0.1	3084.2
88190	10.158	5.15	0.1	3071.5
88191	10.009	5.1	0.1	3073.4
88192	10.059	5.15	0.1	3060.7
88193	9.9093	5.1	0.1	3057.3
88194	9.9591	5.15	0.1	3044.7
88195	9.8097	5.1	0.1	3035.5
88196	9.8595	5.15	0.1	3022.9
88197	9.7102	5.1	0.1	3007.2
88198	9.76	5.15	0.1	2994.7
88199	9.6106	5.1	0.1	2971.8
88200	9.6604	5.15	0.1	2959.3
88201	9.511	5.1	0.1	2928.5
88202	9.5608	5.15	0.1	2916.1
88203	9.4114	5.1	0.1	2876.7
88204	9.4612	5.15	0.1	2864.2
88205	9.3118	5.1	0.1	2815.7
88206	9.3616	5.15	0.1	2803.
88207	9.2123	5.1	0.1	2745.1
88208	9.2621	5.15	0.1	2731.9
88209	9.1127	5.1	0.1	2664.5
88210	9.1625	5.15	0.1	2650.5
88211	9.0131	5.1	0.1	2574.
88212	9.0629	5.15	0.1	2558.7
88213	8.9135	5.1	0.1	2474.3
88214	8.9633	5.15	0.1	2457.
88215	8.8139	5.1	0.1	2366.9
88216	8.8637	5.15	0.1	2346.5
88217	8.7144	5.1	0.1	2254.2
88218	8.7642	5.15	0.1	2229.4
88219	8.6148	5.1	0.1	2139.8
88220	8.6646	5.15	0.1	2109.1
88221	8.5152	5.1	0.1	2028.
88222	8.565	5.15	0.1	1990.1
88223	8.4156	5.1	0.1	1924.3
88224	8.4654	5.15	0.1	1877.6
88225	8.316	5.1	0.1	1861.6
88226	8.3658	5.15	0.1	1778.4
88227	8.2662	5.15	0.1	1748.
88228	8.2165	5.1	0.1	1387.3
88229	23.851	5.2	0.1	32.278
88230	23.9	5.25	0.1	22.456
88231	23.95	5.2	0.1	12.26
88232	23.751	5.2	0.1	52.112
88233	23.801	5.25	0.1	42.049
88234	23.651	5.2	0.1	72.038
88235	23.701	5.25	0.1	61.856
88236	23.552	5.2	0.1	92.002
88237	23.602	5.25	0.1	81.71
88238	23.452	5.2	0.1	112.04
88239	23.502	5.25	0.1	101.65
88240	23.353	5.2	0.1	132.18
88241	23.403	5.25	0.1	121.7
88242	23.253	5.2	0.1	152.43
88243	23.303	5.25	0.1	141.88
88244	23.154	5.2	0.1	172.81
88245	23.203	5.25	0.1	162.2
88246	23.054	5.2	0.1	193.3
88247	23.104	5.25	0.1	182.65
88248	22.954	5.2	0.1	213.9
88249	23.004	5.25	0.1	203.22
88250	22.855	5.2	0.1	234.61
88251	22.905	5.25	0.1	223.9
88252	22.755	5.2	0.1	255.42
88253	22.805	5.25	0.1	244.69
88254	22.656	5.2	0.1	276.31
88255	22.705	5.25	0.1	265.57
88256	22.556	5.2	0.1	297.28
88257	22.606	5.25	0.1	286.54
88258	22.456	5.2	0.1	318.33
88259	22.506	5.25	0.1	307.58
88260	22.357	5.2	0.1	339.46
88261	22.407	5.25	0.1	328.7
88262	22.257	5.2	0.1	360.64
88263	22.307	5.25	0.1	349.88
88264	22.158	5.2	0.1	381.89
88265	22.208	5.25	0.1	371.12
88266	22.058	5.2	0.1	403.2
88267	22.108	5.25	0.1	392.43
88268	21.959	5.2	0.1	424.56
88269	22.008	5.25	0.1	413.79
88270	21.859	5.2	0.1	445.98
88271	21.909	5.25	0.1	435.2
88272	21.759	5.2	0.1	467.44
88273	21.809	5.25	0.1	456.67
88274	21.66	5.2	0.1	488.96
88275	21.71	5.25	0.1	478.18
88276	21.56	5.2	0.1	510.53
88277	21.61	5.25	0.1	499.75
88278	21.461	5.2	0.1	532.15
88279	21.51	5.25	0.1	521.36
88280	21.361	5.2	0.1	553.81
88281	21.411	5.25	0.1	543.02
88282	21.262	5.2	0.1	575.52
88283	21.311	5.25	0.1	564.72
88284	21.162	5.2	0.1	597.28
88285	21.212	5.25	0.1	586.47
88286	21.062	5.2	0.1	619.09
88287	21.112	5.25	0.1	608.27
88288	20.963	5.2	0.1	640.94
88289	21.013	5.25	0.1	630.11
88290	20.863	5.2	0.1	662.84
88291	20.913	5.25	0.1	652.
88292	20.764	5.2	0.1	684.78
88293	20.813	5.25	0.1	673.94
88294	20.664	5.2	0.1	706.78
88295	20.714	5.25	0.1	695.92
88296	20.564	5.2	0.1	728.82
88297	20.614	5.25	0.1	717.95
88298	20.465	5.2	0.1	750.91
88299	20.515	5.25	0.1	740.03
88300	20.365	5.2	0.1	773.05
88301	20.415	5.25	0.1	762.15
88302	20.266	5.2	0.1	795.23
88303	20.316	5.25	0.1	784.32
88304	20.166	5.2	0.1	817.47
88305	20.216	5.25	0.1	806.54
88306	20.067	5.2	0.1	839.75
88307	20.116	5.25	0.1	828.81
88308	19.967	5.2	0.1	862.08
88309	20.017	5.25	0.1	851.13
88310	19.867	5.2	0.1	884.46
88311	19.917	5.25	0.1	873.49
88312	19.768	5.2	0.1	906.9
88313	19.818	5.25	0.1	895.91
88314	19.668	5.2	0.1	929.38
88315	19.718	5.25	0.1	918.38
88316	19.569	5.2	0.1	951.92
88317	19.618	5.25	0.1	940.89
88318	19.469	5.2	0.1	974.5
88319	19.519	5.25	0.1	963.46
88320	19.369	5.2	0.1	997.14
88321	19.419	5.25	0.1	986.08
88322	19.27	5.2	0.1	1019.8
88323	19.32	5.25	0.1	1008.7
88324	19.17	5.2	0.1	1042.6
88325	19.22	5.25	0.1	1031.5
88326	19.071	5.2	0.1	1065.4
88327	19.121	5.25	0.1	1054.2
88328	18.971	5.2	0.1	1088.2
88329	19.021	5.25	0.1	1077.1
88330	18.872	5.2	0.1	1111.1
88331	18.921	5.25	0.1	1100.
88332	18.772	5.2	0.1	1134.1
88333	18.822	5.25	0.1	1122.9
88334	18.672	5.2	0.1	1157.1
88335	18.722	5.25	0.1	1145.9
88336	18.573	5.2	0.1	1180.2
88337	18.623	5.25	0.1	1168.9
88338	18.473	5.2	0.1	1203.3
88339	18.523	5.25	0.1	1192.
88340	18.374	5.2	0.1	1226.4
88341	18.423	5.25	0.1	1215.2
88342	18.274	5.2	0.1	1249.7
88343	18.324	5.25	0.1	1238.4
88344	18.175	5.2	0.1	1273.
88345	18.224	5.25	0.1	1261.6
88346	18.075	5.2	0.1	1296.3
88347	18.125	5.25	0.1	1285.
88348	17.975	5.2	0.1	1319.7
88349	18.025	5.25	0.1	1308.3
88350	17.876	5.2	0.1	1343.2
88351	17.926	5.25	0.1	1331.8
88352	17.776	5.2	0.1	1366.7
88353	17.826	5.25	0.1	1355.2
88354	17.677	5.2	0.1	1390.2
88355	17.726	5.25	0.1	1378.8
88356	17.577	5.2	0.1	1413.8
88357	17.627	5.25	0.1	1402.4
88358	17.477	5.2	0.1	1437.5
88359	17.527	5.25	0.1	1426.
88360	17.378	5.2	0.1	1461.3
88361	17.428	5.25	0.1	1449.7
88362	17.278	5.2	0.1	1485.1
88363	17.328	5.25	0.1	1473.5
88364	17.179	5.2	0.1	1508.9
88365	17.229	5.25	0.1	1497.3
88366	17.079	5.2	0.1	1532.8
88367	17.129	5.25	0.1	1521.2
88368	16.98	5.2	0.1	1556.8
88369	17.029	5.25	0.1	1545.2
88370	16.88	5.2	0.1	1580.8
88371	16.93	5.25	0.1	1569.2
88372	16.78	5.2	0.1	1604.9
88373	16.83	5.25	0.1	1593.2
88374	16.681	5.2	0.1	1629.
88375	16.731	5.25	0.1	1617.4
88376	16.581	5.2	0.1	1653.2
88377	16.631	5.25	0.1	1641.5
88378	16.482	5.2	0.1	1677.5
88379	16.531	5.25	0.1	1665.8
88380	16.382	5.2	0.1	1701.8
88381	16.432	5.25	0.1	1690.1
88382	16.282	5.2	0.1	1726.2
88383	16.332	5.25	0.1	1714.4
88384	16.183	5.2	0.1	1750.6
88385	16.233	5.25	0.1	1738.8
88386	16.083	5.2	0.1	1775.1
88387	16.133	5.25	0.1	1763.3
88388	15.984	5.2	0.1	1799.7
88389	16.034	5.25	0.1	1787.8
88390	15.884	5.2	0.1	1824.3
88391	15.934	5.25	0.1	1812.4
88392	15.785	5.2	0.1	1849.
88393	15.834	5.25	0.1	1837.1
88394	15.685	5.2	0.1	1873.7
88395	15.735	5.25	0.1	1861.8
88396	15.585	5.2	0.1	1898.5
88397	15.635	5.25	0.1	1886.5
88398	15.486	5.2	0.1	1923.3
88399	15.536	5.25	0.1	1911.3
88400	15.386	5.2	0.1	1948.2
88401	15.436	5.25	0.1	1936.2
88402	15.287	5.2	0.1	1973.2
88403	15.336	5.25	0.1	1961.2
88404	15.187	5.2	0.1	1998.2
88405	15.237	5.25	0.1	1986.2
88406	15.088	5.2	0.1	2023.3
88407	15.137	5.25	0.1	2011.2
88408	14.988	5.2	0.1	2048.4
88409	15.038	5.25	0.1	2036.3
88410	14.888	5.2	0.1	2073.6
88411	14.938	5.25	0.1	2061.5
88412	14.789	5.2	0.1	2098.9
88413	14.839	5.25	0.1	2086.7
88414	14.689	5.2	0.1	2124.2
88415	14.739	5.25	0.1	2112.
88416	14.59	5.2	0.1	2149.5
88417	14.639	5.25	0.1	2137.4
88418	14.49	5.2	0.1	2174.9
88419	14.54	5.25	0.1	2162.7
88420	14.39	5.2	0.1	2200.4
88421	14.44	5.25	0.1	2188.2
88422	14.291	5.2	0.1	2225.9
88423	14.341	5.25	0.1	2213.7
88424	14.191	5.2	0.1	2251.4
88425	14.241	5.25	0.1	2239.2
88426	14.092	5.2	0.1	2277.
88427	14.142	5.25	0.1	2264.8
88428	13.992	5.2	0.1	2302.7
88429	14.042	5.25	0.1	2290.4
88430	13.893	5.2	0.1	2328.4
88431	13.942	5.25	0.1	2316.1
88432	13.793	5.2	0.1	2354.1
88433	13.843	5.25	0.1	2341.8
88434	13.693	5.2	0.1	2379.8
88435	13.743	5.25	0.1	2367.5
88436	13.594	5.2	0.1	2405.6
88437	13.644	5.25	0.1	2393.2
88438	13.494	5.2	0.1	2431.4
88439	13.544	5.25	0.1	2419.
88440	13.395	5.2	0.1	2457.2
88441	13.444	5.25	0.1	2444.8
88442	13.295	5.2	0.1	2483.
88443	13.345	5.25	0.1	2470.6
88444	13.195	5.2	0.1	2508.8
88445	13.245	5.25	0.1	2496.4
88446	13.096	5.2	0.1	2534.5
88447	13.146	5.25	0.1	2522.1
88448	12.996	5.2	0.1	2560.3
88449	13.046	5.25	0.1	2547.9
88450	12.897	5.2	0.1	2586.
88451	12.947	5.25	0.1	2573.6
88452	12.797	5.2	0.1	2611.6
88453	12.847	5.25	0.1	2599.2
88454	12.698	5.2	0.1	2637.2
88455	12.747	5.25	0.1	2624.7
88456	12.598	5.2	0.1	2662.7
88457	12.648	5.25	0.1	2650.2
88458	12.498	5.2	0.1	2688.
88459	12.548	5.25	0.1	2675.5
88460	12.399	5.2	0.1	2713.1
88461	12.449	5.25	0.1	2700.7
88462	12.299	5.2	0.1	2738.1
88463	12.349	5.25	0.1	2725.7
88464	12.2	5.2	0.1	2762.9
88465	12.249	5.25	0.1	2750.4
88466	12.1	5.2	0.1	2787.3
88467	12.15	5.25	0.1	2774.9
88468	12.001	5.2	0.1	2811.5
88469	12.05	5.25	0.1	2799.
88470	11.901	5.2	0.1	2835.2
88471	11.951	5.25	0.1	2822.8
88472	11.801	5.2	0.1	2858.5
88473	11.851	5.25	0.1	2846.1
88474	11.702	5.2	0.1	2881.3
88475	11.752	5.25	0.1	2868.9
88476	11.602	5.2	0.1	2903.4
88477	11.652	5.25	0.1	2891.1
88478	11.503	5.2	0.1	2924.8
88479	11.552	5.25	0.1	2912.5
88480	11.403	5.2	0.1	2945.4
88481	11.453	5.25	0.1	2933.2
88482	11.303	5.2	0.1	2965.1
88483	11.353	5.25	0.1	2952.9
88484	11.204	5.2	0.1	2983.6
88485	11.254	5.25	0.1	2971.5
88486	11.104	5.2	0.1	3000.8
88487	11.154	5.25	0.1	2988.9
88488	11.005	5.2	0.1	3016.6
88489	11.055	5.25	0.1	3004.8
88490	10.905	5.2	0.1	3030.8
88491	10.955	5.25	0.1	3019.1
88492	10.806	5.2	0.1	3043.
88493	10.855	5.25	0.1	3031.5
88494	10.706	5.2	0.1	3053.
88495	10.756	5.25	0.1	3041.8
88496	10.606	5.2	0.1	3060.6
88497	10.656	5.25	0.1	3049.6
88498	10.507	5.2	0.1	3065.3
88499	10.557	5.25	0.1	3054.6
88500	10.407	5.2	0.1	3066.8
88501	10.457	5.25	0.1	3056.5
88502	10.308	5.2	0.1	3064.8
88503	10.357	5.25	0.1	3054.8
88504	10.208	5.2	0.1	3058.6
88505	10.258	5.25	0.1	3049.1
88506	10.108	5.2	0.1	3047.8
88507	10.158	5.25	0.1	3038.8
88508	10.009	5.2	0.1	3031.9
88509	10.059	5.25	0.1	3023.5
88510	9.9093	5.2	0.1	3010.1
88511	9.9591	5.25	0.1	3002.4
88512	9.8097	5.2	0.1	2981.9
88513	9.8595	5.25	0.1	2974.9
88514	9.7102	5.2	0.1	2946.5
88515	9.76	5.25	0.1	2940.3
88516	9.6106	5.2	0.1	2903.2
88517	9.6604	5.25	0.1	2897.9
88518	9.511	5.2	0.1	2851.1
88519	9.5608	5.25	0.1	2846.8
88520	9.4114	5.2	0.1	2789.7
88521	9.4612	5.25	0.1	2786.3
88522	9.3118	5.2	0.1	2718.1
88523	9.3616	5.25	0.1	2715.6
88524	9.2123	5.2	0.1	2635.9
88525	9.2621	5.25	0.1	2634.2
88526	9.1127	5.2	0.1	2542.8
88527	9.1625	5.25	0.1	2541.5
88528	9.0131	5.2	0.1	2439.1
88529	9.0629	5.25	0.1	2437.7
88530	8.9135	5.2	0.1	2325.7
88531	8.9633	5.25	0.1	2323.2
88532	8.8139	5.2	0.1	2204.4
88533	8.8637	5.25	0.1	2199.5
88534	8.7144	5.2	0.1	2078.4
88535	8.7642	5.25	0.1	2069.1
88536	8.6148	5.2	0.1	1952.
88537	8.6646	5.25	0.1	1936.
88538	8.5152	5.2	0.1	1830.9
88539	8.565	5.25	0.1	1805.8
88540	8.4156	5.2	0.1	1721.7
88541	8.4654	5.25	0.1	1685.1
88542	8.316	5.2	0.1	1654.6
88543	8.3658	5.25	0.1	1581.7
88544	8.2662	5.25	0.1	1545.1
88545	8.2165	5.2	0.1	1237.
88546	23.851	5.3	0.1	32.168
88547	23.9	5.35	0.1	22.441
88548	23.95	5.3	0.1	12.254
88549	23.751	5.3	0.1	51.787
88550	23.801	5.35	0.1	41.78
88551	23.651	5.3	0.1	71.536
88552	23.701	5.35	0.1	61.375
88553	23.552	5.3	0.1	91.37
88554	23.602	5.35	0.1	81.073
88555	23.452	5.3	0.1	111.33
88556	23.502	5.35	0.1	100.91
88557	23.353	5.3	0.1	131.43
88558	23.403	5.35	0.1	120.92
88559	23.253	5.3	0.1	151.68
88560	23.303	5.35	0.1	141.1
88561	23.154	5.3	0.1	172.07
88562	23.203	5.35	0.1	161.44
88563	23.054	5.3	0.1	192.6
88564	23.104	5.35	0.1	181.94
88565	22.954	5.3	0.1	213.25
88566	23.004	5.35	0.1	202.56
88567	22.855	5.3	0.1	234.01
88568	22.905	5.35	0.1	223.31
88569	22.755	5.3	0.1	254.88
88570	22.805	5.35	0.1	244.16
88571	22.656	5.3	0.1	275.83
88572	22.705	5.35	0.1	265.1
88573	22.556	5.3	0.1	296.86
88574	22.606	5.35	0.1	286.13
88575	22.456	5.3	0.1	317.97
88576	22.506	5.35	0.1	307.23
88577	22.357	5.3	0.1	339.15
88578	22.407	5.35	0.1	328.41
88579	22.257	5.3	0.1	360.39
88580	22.307	5.35	0.1	349.65
88581	22.158	5.3	0.1	381.69
88582	22.208	5.35	0.1	370.95
88583	22.058	5.3	0.1	403.05
88584	22.108	5.35	0.1	392.3
88585	21.959	5.3	0.1	424.46
88586	22.008	5.35	0.1	413.71
88587	21.859	5.3	0.1	445.92
88588	21.909	5.35	0.1	435.17
88589	21.759	5.3	0.1	467.43
88590	21.809	5.35	0.1	456.68
88591	21.66	5.3	0.1	488.99
88592	21.71	5.35	0.1	478.23
88593	21.56	5.3	0.1	510.59
88594	21.61	5.35	0.1	499.84
88595	21.461	5.3	0.1	532.25
88596	21.51	5.35	0.1	521.48
88597	21.361	5.3	0.1	553.95
88598	21.411	5.35	0.1	543.18
88599	21.262	5.3	0.1	575.69
88600	21.311	5.35	0.1	564.91
88601	21.162	5.3	0.1	597.48
88602	21.212	5.35	0.1	586.7
88603	21.062	5.3	0.1	619.32
88604	21.112	5.35	0.1	608.52
88605	20.963	5.3	0.1	641.2
88606	21.013	5.35	0.1	630.4
88607	20.863	5.3	0.1	663.12
88608	20.913	5.35	0.1	652.31
88609	20.764	5.3	0.1	685.09
88610	20.813	5.35	0.1	674.27
88611	20.664	5.3	0.1	707.11
88612	20.714	5.35	0.1	696.28
88613	20.564	5.3	0.1	729.18
88614	20.614	5.35	0.1	718.33
88615	20.465	5.3	0.1	751.29
88616	20.515	5.35	0.1	740.43
88617	20.365	5.3	0.1	773.44
88618	20.415	5.35	0.1	762.58
88619	20.266	5.3	0.1	795.65
88620	20.316	5.35	0.1	784.77
88621	20.166	5.3	0.1	817.9
88622	20.216	5.35	0.1	807.
88623	20.067	5.3	0.1	840.2
88624	20.116	5.35	0.1	829.29
88625	19.967	5.3	0.1	862.55
88626	20.017	5.35	0.1	851.62
88627	19.867	5.3	0.1	884.95
88628	19.917	5.35	0.1	874.01
88629	19.768	5.3	0.1	907.4
88630	19.818	5.35	0.1	896.44
88631	19.668	5.3	0.1	929.9
88632	19.718	5.35	0.1	918.92
88633	19.569	5.3	0.1	952.45
88634	19.618	5.35	0.1	941.45
88635	19.469	5.3	0.1	975.05
88636	19.519	5.35	0.1	964.03
88637	19.369	5.3	0.1	997.7
88638	19.419	5.35	0.1	986.66
88639	19.27	5.3	0.1	1020.4
88640	19.32	5.35	0.1	1009.3
88641	19.17	5.3	0.1	1043.2
88642	19.22	5.35	0.1	1032.1
88643	19.071	5.3	0.1	1066.
88644	19.121	5.35	0.1	1054.9
88645	18.971	5.3	0.1	1088.8
88646	19.021	5.35	0.1	1077.7
88647	18.872	5.3	0.1	1111.7
88648	18.921	5.35	0.1	1100.6
88649	18.772	5.3	0.1	1134.7
88650	18.822	5.35	0.1	1123.5
88651	18.672	5.3	0.1	1157.7
88652	18.722	5.35	0.1	1146.5
88653	18.573	5.3	0.1	1180.8
88654	18.623	5.35	0.1	1169.6
88655	18.473	5.3	0.1	1203.9
88656	18.523	5.35	0.1	1192.7
88657	18.374	5.3	0.1	1227.1
88658	18.423	5.35	0.1	1215.9
88659	18.274	5.3	0.1	1250.3
88660	18.324	5.35	0.1	1239.1
88661	18.175	5.3	0.1	1273.6
88662	18.224	5.35	0.1	1262.3
88663	18.075	5.3	0.1	1297.
88664	18.125	5.35	0.1	1285.7
88665	17.975	5.3	0.1	1320.4
88666	18.025	5.35	0.1	1309.
88667	17.876	5.3	0.1	1343.9
88668	17.926	5.35	0.1	1332.5
88669	17.776	5.3	0.1	1367.4
88670	17.826	5.35	0.1	1356.
88671	17.677	5.3	0.1	1390.9
88672	17.726	5.35	0.1	1379.5
88673	17.577	5.3	0.1	1414.6
88674	17.627	5.35	0.1	1403.1
88675	17.477	5.3	0.1	1438.3
88676	17.527	5.35	0.1	1426.8
88677	17.378	5.3	0.1	1462.
88678	17.428	5.35	0.1	1450.5
88679	17.278	5.3	0.1	1485.8
88680	17.328	5.35	0.1	1474.3
88681	17.179	5.3	0.1	1509.7
88682	17.229	5.35	0.1	1498.1
88683	17.079	5.3	0.1	1533.6
88684	17.129	5.35	0.1	1522.
88685	16.98	5.3	0.1	1557.6
88686	17.029	5.35	0.1	1546.
88687	16.88	5.3	0.1	1581.6
88688	16.93	5.35	0.1	1570.
88689	16.78	5.3	0.1	1605.7
88690	16.83	5.35	0.1	1594.1
88691	16.681	5.3	0.1	1629.9
88692	16.731	5.35	0.1	1618.2
88693	16.581	5.3	0.1	1654.1
88694	16.631	5.35	0.1	1642.4
88695	16.482	5.3	0.1	1678.3
88696	16.531	5.35	0.1	1666.6
88697	16.382	5.3	0.1	1702.7
88698	16.432	5.35	0.1	1690.9
88699	16.282	5.3	0.1	1727.
88700	16.332	5.35	0.1	1715.3
88701	16.183	5.3	0.1	1751.5
88702	16.233	5.35	0.1	1739.7
88703	16.083	5.3	0.1	1776.
88704	16.133	5.35	0.1	1764.2
88705	15.984	5.3	0.1	1800.6
88706	16.034	5.35	0.1	1788.7
88707	15.884	5.3	0.1	1825.2
88708	15.934	5.35	0.1	1813.3
88709	15.785	5.3	0.1	1849.9
88710	15.834	5.35	0.1	1838.
88711	15.685	5.3	0.1	1874.6
88712	15.735	5.35	0.1	1862.7
88713	15.585	5.3	0.1	1899.4
88714	15.635	5.35	0.1	1887.5
88715	15.486	5.3	0.1	1924.3
88716	15.536	5.35	0.1	1912.3
88717	15.386	5.3	0.1	1949.2
88718	15.436	5.35	0.1	1937.2
88719	15.287	5.3	0.1	1974.2
88720	15.336	5.35	0.1	1962.2
88721	15.187	5.3	0.1	1999.2
88722	15.237	5.35	0.1	1987.2
88723	15.088	5.3	0.1	2024.3
88724	15.137	5.35	0.1	2012.2
88725	14.988	5.3	0.1	2049.4
88726	15.038	5.35	0.1	2037.4
88727	14.888	5.3	0.1	2074.6
88728	14.938	5.35	0.1	2062.6
88729	14.789	5.3	0.1	2099.9
88730	14.839	5.35	0.1	2087.8
88731	14.689	5.3	0.1	2125.2
88732	14.739	5.35	0.1	2113.1
88733	14.59	5.3	0.1	2150.6
88734	14.639	5.35	0.1	2138.4
88735	14.49	5.3	0.1	2176.
88736	14.54	5.35	0.1	2163.8
88737	14.39	5.3	0.1	2201.5
88738	14.44	5.35	0.1	2189.3
88739	14.291	5.3	0.1	2227.
88740	14.341	5.35	0.1	2214.8
88741	14.191	5.3	0.1	2252.6
88742	14.241	5.35	0.1	2240.3
88743	14.092	5.3	0.1	2278.2
88744	14.142	5.35	0.1	2265.9
88745	13.992	5.3	0.1	2303.8
88746	14.042	5.35	0.1	2291.5
88747	13.893	5.3	0.1	2329.5
88748	13.942	5.35	0.1	2317.2
88749	13.793	5.3	0.1	2355.2
88750	13.843	5.35	0.1	2342.9
88751	13.693	5.3	0.1	2380.9
88752	13.743	5.35	0.1	2368.6
88753	13.594	5.3	0.1	2406.7
88754	13.644	5.35	0.1	2394.4
88755	13.494	5.3	0.1	2432.4
88756	13.544	5.35	0.1	2420.1
88757	13.395	5.3	0.1	2458.2
88758	13.444	5.35	0.1	2445.9
88759	13.295	5.3	0.1	2484.
88760	13.345	5.35	0.1	2471.6
88761	13.195	5.3	0.1	2509.7
88762	13.245	5.35	0.1	2497.4
88763	13.096	5.3	0.1	2535.5
88764	13.146	5.35	0.1	2523.1
88765	12.996	5.3	0.1	2561.1
88766	13.046	5.35	0.1	2548.8
88767	12.897	5.3	0.1	2586.8
88768	12.947	5.35	0.1	2574.4
88769	12.797	5.3	0.1	2612.3
88770	12.847	5.35	0.1	2600.
88771	12.698	5.3	0.1	2637.7
88772	12.747	5.35	0.1	2625.4
88773	12.598	5.3	0.1	2663.1
88774	12.648	5.35	0.1	2650.7
88775	12.498	5.3	0.1	2688.2
88776	12.548	5.35	0.1	2675.9
88777	12.399	5.3	0.1	2713.2
88778	12.449	5.35	0.1	2700.9
88779	12.299	5.3	0.1	2737.9
88780	12.349	5.35	0.1	2725.7
88781	12.2	5.3	0.1	2762.4
88782	12.249	5.35	0.1	2750.2
88783	12.1	5.3	0.1	2786.6
88784	12.15	5.35	0.1	2774.4
88785	12.001	5.3	0.1	2810.3
88786	12.05	5.35	0.1	2798.2
88787	11.901	5.3	0.1	2833.7
88788	11.951	5.35	0.1	2821.6
88789	11.801	5.3	0.1	2856.5
88790	11.851	5.35	0.1	2844.5
88791	11.702	5.3	0.1	2878.7
88792	11.752	5.35	0.1	2866.8
88793	11.602	5.3	0.1	2900.2
88794	11.652	5.35	0.1	2888.4
88795	11.503	5.3	0.1	2920.9
88796	11.552	5.35	0.1	2909.2
88797	11.403	5.3	0.1	2940.7
88798	11.453	5.35	0.1	2929.1
88799	11.303	5.3	0.1	2959.4
88800	11.353	5.35	0.1	2948.
88801	11.204	5.3	0.1	2976.8
88802	11.254	5.35	0.1	2965.6
88803	11.104	5.3	0.1	2992.9
88804	11.154	5.35	0.1	2981.9
88805	11.005	5.3	0.1	3007.3
88806	11.055	5.35	0.1	2996.6
88807	10.905	5.3	0.1	3019.8
88808	10.955	5.35	0.1	3009.5
88809	10.806	5.3	0.1	3030.3
88810	10.855	5.35	0.1	3020.3
88811	10.706	5.3	0.1	3038.3
88812	10.756	5.35	0.1	3028.7
88813	10.606	5.3	0.1	3043.6
88814	10.656	5.35	0.1	3034.5
88815	10.507	5.3	0.1	3045.7
88816	10.557	5.35	0.1	3037.2
88817	10.407	5.3	0.1	3044.4
88818	10.457	5.35	0.1	3036.5
88819	10.308	5.3	0.1	3039.1
88820	10.357	5.35	0.1	3031.9
88821	10.208	5.3	0.1	3029.2
88822	10.258	5.35	0.1	3022.9
88823	10.108	5.3	0.1	3014.4
88824	10.158	5.35	0.1	3009.
88825	10.009	5.3	0.1	2993.9
88826	10.059	5.35	0.1	2989.6
88827	9.9093	5.3	0.1	2967.
88828	9.9591	5.35	0.1	2964.
88829	9.8097	5.3	0.1	2933.1
88830	9.8595	5.35	0.1	2931.5
88831	9.7102	5.3	0.1	2891.4
88832	9.76	5.35	0.1	2891.3
88833	9.6106	5.3	0.1	2841.1
88834	9.6604	5.35	0.1	2842.6
88835	9.511	5.3	0.1	2781.4
88836	9.5608	5.35	0.1	2784.7
88837	9.4114	5.3	0.1	2711.5
88838	9.4612	5.35	0.1	2716.7
88839	9.3118	5.3	0.1	2630.7
88840	9.3616	5.35	0.1	2637.9
88841	9.2123	5.3	0.1	2538.6
88842	9.2621	5.35	0.1	2547.6
88843	9.1127	5.3	0.1	2434.8
88844	9.1625	5.35	0.1	2445.4
88845	9.0131	5.3	0.1	2319.6
88846	9.0629	5.35	0.1	2331.2
88847	8.9135	5.3	0.1	2194.
88848	8.9633	5.35	0.1	2205.6
88849	8.8139	5.3	0.1	2060.2
88850	8.8637	5.35	0.1	2070.
88851	8.7144	5.3	0.1	1921.4
88852	8.7642	5.35	0.1	1927.2
88853	8.6148	5.3	0.1	1783.
88854	8.6646	5.35	0.1	1781.5
88855	8.5152	5.3	0.1	1651.6
88856	8.565	5.35	0.1	1639.3
88857	8.4156	5.3	0.1	1535.3
88858	8.4654	5.35	0.1	1508.5
88859	8.316	5.3	0.1	1462.1
88860	8.3658	5.35	0.1	1398.7
88861	8.2662	5.35	0.1	1354.3
88862	8.2165	5.3	0.1	1095.3
88863	23.851	5.4	0.1	32.
88864	23.9	5.45	0.1	22.38
88865	23.95	5.4	0.1	12.228
88866	23.751	5.4	0.1	51.366
88867	23.801	5.45	0.1	41.41
88868	23.651	5.4	0.1	70.925
88869	23.701	5.45	0.1	60.771
88870	23.552	5.4	0.1	90.639
88871	23.602	5.45	0.1	80.323
88872	23.452	5.4	0.1	110.54
88873	23.502	5.45	0.1	100.1
88874	23.353	5.4	0.1	130.63
88875	23.403	5.45	0.1	120.1
88876	23.253	5.4	0.1	150.9
88877	23.303	5.45	0.1	140.31
88878	23.154	5.4	0.1	171.35
88879	23.203	5.45	0.1	160.71
88880	23.054	5.4	0.1	191.94
88881	23.104	5.45	0.1	181.28
88882	22.954	5.4	0.1	212.65
88883	23.004	5.45	0.1	201.98
88884	22.855	5.4	0.1	233.49
88885	22.905	5.45	0.1	222.8
88886	22.755	5.4	0.1	254.42
88887	22.805	5.45	0.1	243.72
88888	22.656	5.4	0.1	275.44
88889	22.705	5.45	0.1	264.74
88890	22.556	5.4	0.1	296.53
88891	22.606	5.45	0.1	285.83
88892	22.456	5.4	0.1	317.7
88893	22.506	5.45	0.1	307.
88894	22.357	5.4	0.1	338.94
88895	22.407	5.45	0.1	328.24
88896	22.257	5.4	0.1	360.24
88897	22.307	5.45	0.1	349.53
88898	22.158	5.4	0.1	381.59
88899	22.208	5.45	0.1	370.88
88900	22.058	5.4	0.1	402.99
88901	22.108	5.45	0.1	392.29
88902	21.959	5.4	0.1	424.45
88903	22.008	5.45	0.1	413.74
88904	21.859	5.4	0.1	445.96
88905	21.909	5.45	0.1	435.25
88906	21.759	5.4	0.1	467.51
88907	21.809	5.45	0.1	456.79
88908	21.66	5.4	0.1	489.11
88909	21.71	5.45	0.1	478.39
88910	21.56	5.4	0.1	510.75
88911	21.61	5.45	0.1	500.03
88912	21.461	5.4	0.1	532.44
88913	21.51	5.45	0.1	521.71
88914	21.361	5.4	0.1	554.17
88915	21.411	5.45	0.1	543.43
88916	21.262	5.4	0.1	575.94
88917	21.311	5.45	0.1	565.2
88918	21.162	5.4	0.1	597.76
88919	21.212	5.45	0.1	587.01
88920	21.062	5.4	0.1	619.63
88921	21.112	5.45	0.1	608.87
88922	20.963	5.4	0.1	641.53
88923	21.013	5.45	0.1	630.77
88924	20.863	5.4	0.1	663.48
88925	20.913	5.45	0.1	652.71
88926	20.764	5.4	0.1	685.48
88927	20.813	5.45	0.1	674.69
88928	20.664	5.4	0.1	707.52
88929	20.714	5.45	0.1	696.72
88930	20.564	5.4	0.1	729.61
88931	20.614	5.45	0.1	718.79
88932	20.465	5.4	0.1	751.74
88933	20.515	5.45	0.1	740.91
88934	20.365	5.4	0.1	773.91
88935	20.415	5.45	0.1	763.07
88936	20.266	5.4	0.1	796.14
88937	20.316	5.45	0.1	785.28
88938	20.166	5.4	0.1	818.41
88939	20.216	5.45	0.1	807.54
88940	20.067	5.4	0.1	840.72
88941	20.116	5.45	0.1	829.84
88942	19.967	5.4	0.1	863.09
88943	20.017	5.45	0.1	852.19
88944	19.867	5.4	0.1	885.5
88945	19.917	5.45	0.1	874.58
88946	19.768	5.4	0.1	907.97
88947	19.818	5.45	0.1	897.03
88948	19.668	5.4	0.1	930.48
88949	19.718	5.45	0.1	919.52
88950	19.569	5.4	0.1	953.04
88951	19.618	5.45	0.1	942.06
88952	19.469	5.4	0.1	975.65
88953	19.519	5.45	0.1	964.66
88954	19.369	5.4	0.1	998.31
88955	19.419	5.45	0.1	987.3
88956	19.27	5.4	0.1	1021.
88957	19.32	5.45	0.1	1010.
88958	19.17	5.4	0.1	1043.8
88959	19.22	5.45	0.1	1032.7
88960	19.071	5.4	0.1	1066.6
88961	19.121	5.45	0.1	1055.5
88962	18.971	5.4	0.1	1089.5
88963	19.021	5.45	0.1	1078.4
88964	18.872	5.4	0.1	1112.4
88965	18.921	5.45	0.1	1101.3
88966	18.772	5.4	0.1	1135.4
88967	18.822	5.45	0.1	1124.2
88968	18.672	5.4	0.1	1158.4
88969	18.722	5.45	0.1	1147.2
88970	18.573	5.4	0.1	1181.5
88971	18.623	5.45	0.1	1170.3
88972	18.473	5.4	0.1	1204.6
88973	18.523	5.45	0.1	1193.4
88974	18.374	5.4	0.1	1227.8
88975	18.423	5.45	0.1	1216.6
88976	18.274	5.4	0.1	1251.1
88977	18.324	5.45	0.1	1239.8
88978	18.175	5.4	0.1	1274.4
88979	18.224	5.45	0.1	1263.1
88980	18.075	5.4	0.1	1297.7
88981	18.125	5.45	0.1	1286.4
88982	17.975	5.4	0.1	1321.1
88983	18.025	5.45	0.1	1309.8
88984	17.876	5.4	0.1	1344.6
88985	17.926	5.45	0.1	1333.3
88986	17.776	5.4	0.1	1368.1
88987	17.826	5.45	0.1	1356.8
88988	17.677	5.4	0.1	1391.7
88989	17.726	5.45	0.1	1380.3
88990	17.577	5.4	0.1	1415.4
88991	17.627	5.45	0.1	1403.9
88992	17.477	5.4	0.1	1439.1
88993	17.527	5.45	0.1	1427.6
88994	17.378	5.4	0.1	1462.8
88995	17.428	5.45	0.1	1451.3
88996	17.278	5.4	0.1	1486.6
88997	17.328	5.45	0.1	1475.1
88998	17.179	5.4	0.1	1510.5
88999	17.229	5.45	0.1	1499.
89000	17.079	5.4	0.1	1534.4
89001	17.129	5.45	0.1	1522.9
89002	16.98	5.4	0.1	1558.4
89003	17.029	5.45	0.1	1546.8
89004	16.88	5.4	0.1	1582.4
89005	16.93	5.45	0.1	1570.8
89006	16.78	5.4	0.1	1606.5
89007	16.83	5.45	0.1	1594.9
89008	16.681	5.4	0.1	1630.7
89009	16.731	5.45	0.1	1619.1
89010	16.581	5.4	0.1	1654.9
89011	16.631	5.45	0.1	1643.2
89012	16.482	5.4	0.1	1679.2
89013	16.531	5.45	0.1	1667.5
89014	16.382	5.4	0.1	1703.5
89015	16.432	5.45	0.1	1691.8
89016	16.282	5.4	0.1	1727.9
89017	16.332	5.45	0.1	1716.2
89018	16.183	5.4	0.1	1752.4
89019	16.233	5.45	0.1	1740.6
89020	16.083	5.4	0.1	1776.9
89021	16.133	5.45	0.1	1765.1
89022	15.984	5.4	0.1	1801.5
89023	16.034	5.45	0.1	1789.7
89024	15.884	5.4	0.1	1826.1
89025	15.934	5.45	0.1	1814.3
89026	15.785	5.4	0.1	1850.8
89027	15.834	5.45	0.1	1838.9
89028	15.685	5.4	0.1	1875.6
89029	15.735	5.45	0.1	1863.7
89030	15.585	5.4	0.1	1900.4
89031	15.635	5.45	0.1	1888.5
89032	15.486	5.4	0.1	1925.3
89033	15.536	5.45	0.1	1913.3
89034	15.386	5.4	0.1	1950.2
89035	15.436	5.45	0.1	1938.2
89036	15.287	5.4	0.1	1975.2
89037	15.336	5.45	0.1	1963.2
89038	15.187	5.4	0.1	2000.2
89039	15.237	5.45	0.1	1988.2
89040	15.088	5.4	0.1	2025.3
89041	15.137	5.45	0.1	2013.3
89042	14.988	5.4	0.1	2050.5
89043	15.038	5.45	0.1	2038.4
89044	14.888	5.4	0.1	2075.7
89045	14.938	5.45	0.1	2063.6
89046	14.789	5.4	0.1	2101.
89047	14.839	5.45	0.1	2088.9
89048	14.689	5.4	0.1	2126.3
89049	14.739	5.45	0.1	2114.2
89050	14.59	5.4	0.1	2151.7
89051	14.639	5.45	0.1	2139.6
89052	14.49	5.4	0.1	2177.1
89053	14.54	5.45	0.1	2165.
89054	14.39	5.4	0.1	2202.6
89055	14.44	5.45	0.1	2190.4
89056	14.291	5.4	0.1	2228.1
89057	14.341	5.45	0.1	2216.
89058	14.191	5.4	0.1	2253.7
89059	14.241	5.45	0.1	2241.5
89060	14.092	5.4	0.1	2279.3
89061	14.142	5.45	0.1	2267.1
89062	13.992	5.4	0.1	2305.
89063	14.042	5.45	0.1	2292.7
89064	13.893	5.4	0.1	2330.6
89065	13.942	5.45	0.1	2318.4
89066	13.793	5.4	0.1	2356.4
89067	13.843	5.45	0.1	2344.1
89068	13.693	5.4	0.1	2382.1
89069	13.743	5.45	0.1	2369.8
89070	13.594	5.4	0.1	2407.8
89071	13.644	5.45	0.1	2395.5
89072	13.494	5.4	0.1	2433.6
89073	13.544	5.45	0.1	2421.3
89074	13.395	5.4	0.1	2459.3
89075	13.444	5.45	0.1	2447.
89076	13.295	5.4	0.1	2485.1
89077	13.345	5.45	0.1	2472.8
89078	13.195	5.4	0.1	2510.8
89079	13.245	5.45	0.1	2498.5
89080	13.096	5.4	0.1	2536.4
89081	13.146	5.45	0.1	2524.1
89082	12.996	5.4	0.1	2562.1
89083	13.046	5.45	0.1	2549.8
89084	12.897	5.4	0.1	2587.6
89085	12.947	5.45	0.1	2575.3
89086	12.797	5.4	0.1	2613.1
89087	12.847	5.45	0.1	2600.8
89088	12.698	5.4	0.1	2638.4
89089	12.747	5.45	0.1	2626.1
89090	12.598	5.4	0.1	2663.6
89091	12.648	5.45	0.1	2651.3
89092	12.498	5.4	0.1	2688.6
89093	12.548	5.45	0.1	2676.4
89094	12.399	5.4	0.1	2713.4
89095	12.449	5.45	0.1	2701.2
89096	12.299	5.4	0.1	2737.9
89097	12.349	5.45	0.1	2725.8
89098	12.2	5.4	0.1	2762.1
89099	12.249	5.45	0.1	2750.1
89100	12.1	5.4	0.1	2786.
89101	12.15	5.45	0.1	2774.
89102	12.001	5.4	0.1	2809.4
89103	12.05	5.45	0.1	2797.5
89104	11.901	5.4	0.1	2832.4
89105	11.951	5.45	0.1	2820.6
89106	11.801	5.4	0.1	2854.7
89107	11.851	5.45	0.1	2843.1
89108	11.702	5.4	0.1	2876.4
89109	11.752	5.45	0.1	2864.9
89110	11.602	5.4	0.1	2897.4
89111	11.652	5.45	0.1	2886.
89112	11.503	5.4	0.1	2917.4
89113	11.552	5.45	0.1	2906.2
89114	11.403	5.4	0.1	2936.4
89115	11.453	5.45	0.1	2925.5
89116	11.303	5.4	0.1	2954.2
89117	11.353	5.45	0.1	2943.6
89118	11.204	5.4	0.1	2970.7
89119	11.254	5.45	0.1	2960.3
89120	11.104	5.4	0.1	2985.6
89121	11.154	5.45	0.1	2975.6
89122	11.005	5.4	0.1	2998.8
89123	11.055	5.45	0.1	2989.2
89124	10.905	5.4	0.1	3009.9
89125	10.955	5.45	0.1	3000.7
89126	10.806	5.4	0.1	3018.7
89127	10.855	5.45	0.1	3010.1
89128	10.706	5.4	0.1	3024.9
89129	10.756	5.45	0.1	3016.9
89130	10.606	5.4	0.1	3028.1
89131	10.656	5.45	0.1	3020.8
89132	10.507	5.4	0.1	3027.9
89133	10.557	5.45	0.1	3021.5
89134	10.407	5.4	0.1	3024.
89135	10.457	5.45	0.1	3018.5
89136	10.308	5.4	0.1	3015.7
89137	10.357	5.45	0.1	3011.3
89138	10.208	5.4	0.1	3002.7
89139	10.258	5.45	0.1	2999.4
89140	10.108	5.4	0.1	2984.2
89141	10.158	5.45	0.1	2982.3
89142	10.009	5.4	0.1	2959.6
89143	10.059	5.45	0.1	2959.3
89144	9.9093	5.4	0.1	2928.3
89145	9.9591	5.45	0.1	2929.7
89146	9.8097	5.4	0.1	2889.4
89147	9.8595	5.45	0.1	2892.8
89148	9.7102	5.4	0.1	2842.2
89149	9.76	5.45	0.1	2847.8
89150	9.6106	5.4	0.1	2785.9
89151	9.6604	5.45	0.1	2793.8
89152	9.511	5.4	0.1	2719.6
89153	9.5608	5.45	0.1	2730.1
89154	9.4114	5.4	0.1	2642.6
89155	9.4612	5.45	0.1	2655.8
89156	9.3118	5.4	0.1	2554.
89157	9.3616	5.45	0.1	2570.1
89158	9.2123	5.4	0.1	2453.4
89159	9.2621	5.45	0.1	2472.4
89160	9.1127	5.4	0.1	2340.4
89161	9.1625	5.45	0.1	2362.1
89162	9.0131	5.4	0.1	2215.4
89163	9.0629	5.45	0.1	2239.1
89164	8.9135	5.4	0.1	2079.1
89165	8.9633	5.45	0.1	2104.
89166	8.8139	5.4	0.1	1933.8
89167	8.8637	5.45	0.1	1958.
89168	8.7144	5.4	0.1	1782.7
89169	8.7642	5.45	0.1	1803.6
89170	8.6148	5.4	0.1	1631.6
89171	8.6646	5.45	0.1	1645.2
89172	8.5152	5.4	0.1	1488.2
89173	8.565	5.45	0.1	1489.6
89174	8.4156	5.4	0.1	1362.2
89175	8.4654	5.45	0.1	1346.2
89176	8.316	5.4	0.1	1280.6
89177	8.3658	5.45	0.1	1226.6
89178	8.2662	5.45	0.1	1172.
89179	8.2165	5.4	0.1	959.23
89180	23.851	5.5	0.1	31.746
89181	23.9	5.55	0.1	22.246
89182	23.95	5.5	0.1	12.17
89183	23.751	5.5	0.1	50.82
89184	23.801	5.55	0.1	40.899
89185	23.651	5.5	0.1	70.191
89186	23.701	5.55	0.1	60.022
89187	23.552	5.5	0.1	89.816
89188	23.602	5.55	0.1	79.47
89189	23.452	5.5	0.1	109.7
89190	23.502	5.55	0.1	99.238
89191	23.353	5.5	0.1	129.83
89192	23.403	5.55	0.1	119.29
89193	23.253	5.5	0.1	150.17
89194	23.303	5.55	0.1	139.59
89195	23.154	5.5	0.1	170.69
89196	23.203	5.55	0.1	160.08
89197	23.054	5.5	0.1	191.36
89198	23.104	5.55	0.1	180.73
89199	22.954	5.5	0.1	212.16
89200	23.004	5.55	0.1	201.52
89201	22.855	5.5	0.1	233.08
89202	22.905	5.55	0.1	222.43
89203	22.755	5.5	0.1	254.08
89204	22.805	5.55	0.1	243.44
89205	22.656	5.5	0.1	275.17
89206	22.705	5.55	0.1	264.53
89207	22.556	5.5	0.1	296.34
89208	22.606	5.55	0.1	285.69
89209	22.456	5.5	0.1	317.57
89210	22.506	5.55	0.1	306.92
89211	22.357	5.5	0.1	338.86
89212	22.407	5.55	0.1	328.21
89213	22.257	5.5	0.1	360.21
89214	22.307	5.55	0.1	349.56
89215	22.158	5.5	0.1	381.61
89216	22.208	5.55	0.1	370.96
89217	22.058	5.5	0.1	403.07
89218	22.108	5.55	0.1	392.41
89219	21.959	5.5	0.1	424.57
89220	22.008	5.55	0.1	413.91
89221	21.859	5.5	0.1	446.11
89222	21.909	5.55	0.1	435.45
89223	21.759	5.5	0.1	467.7
89224	21.809	5.55	0.1	457.04
89225	21.66	5.5	0.1	489.34
89226	21.71	5.55	0.1	478.67
89227	21.56	5.5	0.1	511.01
89228	21.61	5.55	0.1	500.34
89229	21.461	5.5	0.1	532.73
89230	21.51	5.55	0.1	522.05
89231	21.361	5.5	0.1	554.49
89232	21.411	5.55	0.1	543.8
89233	21.262	5.5	0.1	576.3
89234	21.311	5.55	0.1	565.6
89235	21.162	5.5	0.1	598.14
89236	21.212	5.55	0.1	587.43
89237	21.062	5.5	0.1	620.03
89238	21.112	5.55	0.1	609.31
89239	20.963	5.5	0.1	641.96
89240	21.013	5.55	0.1	631.23
89241	20.863	5.5	0.1	663.93
89242	20.913	5.55	0.1	653.19
89243	20.764	5.5	0.1	685.95
89244	20.813	5.55	0.1	675.2
89245	20.664	5.5	0.1	708.01
89246	20.714	5.55	0.1	697.25
89247	20.564	5.5	0.1	730.11
89248	20.614	5.55	0.1	719.34
89249	20.465	5.5	0.1	752.26
89250	20.515	5.55	0.1	741.47
89251	20.365	5.5	0.1	774.46
89252	20.415	5.55	0.1	763.65
89253	20.266	5.5	0.1	796.7
89254	20.316	5.55	0.1	785.87
89255	20.166	5.5	0.1	818.98
89256	20.216	5.55	0.1	808.14
89257	20.067	5.5	0.1	841.31
89258	20.116	5.55	0.1	830.46
89259	19.967	5.5	0.1	863.69
89260	20.017	5.55	0.1	852.82
89261	19.867	5.5	0.1	886.12
89262	19.917	5.55	0.1	875.23
89263	19.768	5.5	0.1	908.6
89264	19.818	5.55	0.1	897.69
89265	19.668	5.5	0.1	931.12
89266	19.718	5.55	0.1	920.19
89267	19.569	5.5	0.1	953.69
89268	19.618	5.55	0.1	942.74
89269	19.469	5.5	0.1	976.32
89270	19.519	5.55	0.1	965.35
89271	19.369	5.5	0.1	998.99
89272	19.419	5.55	0.1	988.
89273	19.27	5.5	0.1	1021.7
89274	19.32	5.55	0.1	1010.7
89275	19.17	5.5	0.1	1044.5
89276	19.22	5.55	0.1	1033.5
89277	19.071	5.5	0.1	1067.3
89278	19.121	5.55	0.1	1056.3
89279	18.971	5.5	0.1	1090.2
89280	19.021	5.55	0.1	1079.1
89281	18.872	5.5	0.1	1113.1
89282	18.921	5.55	0.1	1102.
89283	18.772	5.5	0.1	1136.1
89284	18.822	5.55	0.1	1125.
89285	18.672	5.5	0.1	1159.1
89286	18.722	5.55	0.1	1148.
89287	18.573	5.5	0.1	1182.2
89288	18.623	5.55	0.1	1171.1
89289	18.473	5.5	0.1	1205.4
89290	18.523	5.55	0.1	1194.2
89291	18.374	5.5	0.1	1228.6
89292	18.423	5.55	0.1	1217.4
89293	18.274	5.5	0.1	1251.8
89294	18.324	5.55	0.1	1240.6
89295	18.175	5.5	0.1	1275.1
89296	18.224	5.55	0.1	1263.9
89297	18.075	5.5	0.1	1298.5
89298	18.125	5.55	0.1	1287.2
89299	17.975	5.5	0.1	1321.9
89300	18.025	5.55	0.1	1310.6
89301	17.876	5.5	0.1	1345.4
89302	17.926	5.55	0.1	1334.1
89303	17.776	5.5	0.1	1368.9
89304	17.826	5.55	0.1	1357.6
89305	17.677	5.5	0.1	1392.5
89306	17.726	5.55	0.1	1381.1
89307	17.577	5.5	0.1	1416.2
89308	17.627	5.55	0.1	1404.8
89309	17.477	5.5	0.1	1439.9
89310	17.527	5.55	0.1	1428.4
89311	17.378	5.5	0.1	1463.6
89312	17.428	5.55	0.1	1452.2
89313	17.278	5.5	0.1	1487.5
89314	17.328	5.55	0.1	1476.
89315	17.179	5.5	0.1	1511.3
89316	17.229	5.55	0.1	1499.8
89317	17.079	5.5	0.1	1535.3
89318	17.129	5.55	0.1	1523.7
89319	16.98	5.5	0.1	1559.3
89320	17.029	5.55	0.1	1547.7
89321	16.88	5.5	0.1	1583.3
89322	16.93	5.55	0.1	1571.7
89323	16.78	5.5	0.1	1607.4
89324	16.83	5.55	0.1	1595.8
89325	16.681	5.5	0.1	1631.6
89326	16.731	5.55	0.1	1620.
89327	16.581	5.5	0.1	1655.8
89328	16.631	5.55	0.1	1644.2
89329	16.482	5.5	0.1	1680.1
89330	16.531	5.55	0.1	1668.4
89331	16.382	5.5	0.1	1704.5
89332	16.432	5.55	0.1	1692.8
89333	16.282	5.5	0.1	1728.9
89334	16.332	5.55	0.1	1717.1
89335	16.183	5.5	0.1	1753.3
89336	16.233	5.55	0.1	1741.6
89337	16.083	5.5	0.1	1777.9
89338	16.133	5.55	0.1	1766.1
89339	15.984	5.5	0.1	1802.5
89340	16.034	5.55	0.1	1790.6
89341	15.884	5.5	0.1	1827.1
89342	15.934	5.55	0.1	1815.3
89343	15.785	5.5	0.1	1851.8
89344	15.834	5.55	0.1	1840.
89345	15.685	5.5	0.1	1876.6
89346	15.735	5.55	0.1	1864.7
89347	15.585	5.5	0.1	1901.4
89348	15.635	5.55	0.1	1889.5
89349	15.486	5.5	0.1	1926.3
89350	15.536	5.55	0.1	1914.4
89351	15.386	5.5	0.1	1951.2
89352	15.436	5.55	0.1	1939.3
89353	15.287	5.5	0.1	1976.2
89354	15.336	5.55	0.1	1964.3
89355	15.187	5.5	0.1	2001.3
89356	15.237	5.55	0.1	1989.3
89357	15.088	5.5	0.1	2026.4
89358	15.137	5.55	0.1	2014.4
89359	14.988	5.5	0.1	2051.6
89360	15.038	5.55	0.1	2039.6
89361	14.888	5.5	0.1	2076.8
89362	14.938	5.55	0.1	2064.8
89363	14.789	5.5	0.1	2102.1
89364	14.839	5.55	0.1	2090.
89365	14.689	5.5	0.1	2127.5
89366	14.739	5.55	0.1	2115.4
89367	14.59	5.5	0.1	2152.9
89368	14.639	5.55	0.1	2140.7
89369	14.49	5.5	0.1	2178.3
89370	14.54	5.55	0.1	2166.2
89371	14.39	5.5	0.1	2203.8
89372	14.44	5.55	0.1	2191.6
89373	14.291	5.5	0.1	2229.3
89374	14.341	5.55	0.1	2217.2
89375	14.191	5.5	0.1	2254.9
89376	14.241	5.55	0.1	2242.7
89377	14.092	5.5	0.1	2280.5
89378	14.142	5.55	0.1	2268.3
89379	13.992	5.5	0.1	2306.2
89380	14.042	5.55	0.1	2294.
89381	13.893	5.5	0.1	2331.9
89382	13.942	5.55	0.1	2319.6
89383	13.793	5.5	0.1	2357.6
89384	13.843	5.55	0.1	2345.3
89385	13.693	5.5	0.1	2383.3
89386	13.743	5.55	0.1	2371.
89387	13.594	5.5	0.1	2409.
89388	13.644	5.55	0.1	2396.8
89389	13.494	5.5	0.1	2434.8
89390	13.544	5.55	0.1	2422.5
89391	13.395	5.5	0.1	2460.5
89392	13.444	5.55	0.1	2448.2
89393	13.295	5.5	0.1	2486.2
89394	13.345	5.55	0.1	2473.9
89395	13.195	5.5	0.1	2511.9
89396	13.245	5.55	0.1	2499.6
89397	13.096	5.5	0.1	2537.5
89398	13.146	5.55	0.1	2525.3
89399	12.996	5.5	0.1	2563.
89400	13.046	5.55	0.1	2550.8
89401	12.897	5.5	0.1	2588.5
89402	12.947	5.55	0.1	2576.3
89403	12.797	5.5	0.1	2613.9
89404	12.847	5.55	0.1	2601.7
89405	12.698	5.5	0.1	2639.1
89406	12.747	5.55	0.1	2627.
89407	12.598	5.5	0.1	2664.2
89408	12.648	5.55	0.1	2652.1
89409	12.498	5.5	0.1	2689.
89410	12.548	5.55	0.1	2677.
89411	12.399	5.5	0.1	2713.7
89412	12.449	5.55	0.1	2701.7
89413	12.299	5.5	0.1	2738.
89414	12.349	5.55	0.1	2726.1
89415	12.2	5.5	0.1	2762.
89416	12.249	5.55	0.1	2750.2
89417	12.1	5.5	0.1	2785.6
89418	12.15	5.55	0.1	2773.9
89419	12.001	5.5	0.1	2808.7
89420	12.05	5.55	0.1	2797.1
89421	11.901	5.5	0.1	2831.3
89422	11.951	5.55	0.1	2819.9
89423	11.801	5.5	0.1	2853.3
89424	11.851	5.55	0.1	2842.
89425	11.702	5.5	0.1	2874.5
89426	11.752	5.55	0.1	2863.4
89427	11.602	5.5	0.1	2894.9
89428	11.652	5.55	0.1	2884.
89429	11.503	5.5	0.1	2914.3
89430	11.552	5.55	0.1	2903.7
89431	11.403	5.5	0.1	2932.6
89432	11.453	5.55	0.1	2922.3
89433	11.303	5.5	0.1	2949.7
89434	11.353	5.55	0.1	2939.7
89435	11.204	5.5	0.1	2965.2
89436	11.254	5.55	0.1	2955.7
89437	11.104	5.5	0.1	2979.1
89438	11.154	5.55	0.1	2970.1
89439	11.005	5.5	0.1	2991.1
89440	11.055	5.55	0.1	2982.6
89441	10.905	5.5	0.1	3001.
89442	10.955	5.55	0.1	2993.
89443	10.806	5.5	0.1	3008.3
89444	10.855	5.55	0.1	3001.1
89445	10.706	5.5	0.1	3012.9
89446	10.756	5.55	0.1	3006.5
89447	10.606	5.5	0.1	3014.2
89448	10.656	5.55	0.1	3008.8
89449	10.507	5.5	0.1	3012.
89450	10.557	5.55	0.1	3007.6
89451	10.407	5.5	0.1	3005.8
89452	10.457	5.55	0.1	3002.6
89453	10.308	5.5	0.1	2995.
89454	10.357	5.55	0.1	2993.1
89455	10.208	5.5	0.1	2979.
89456	10.258	5.55	0.1	2978.7
89457	10.108	5.5	0.1	2957.4
89458	10.158	5.55	0.1	2958.8
89459	10.009	5.5	0.1	2929.3
89460	10.059	5.55	0.1	2932.7
89461	9.9093	5.5	0.1	2894.1
89462	9.9591	5.55	0.1	2899.7
89463	9.8097	5.5	0.1	2851.
89464	9.8595	5.55	0.1	2859.1
89465	9.7102	5.5	0.1	2799.2
89466	9.76	5.55	0.1	2810.
89467	9.6106	5.5	0.1	2737.8
89468	9.6604	5.55	0.1	2751.6
89469	9.511	5.5	0.1	2666.
89470	9.5608	5.55	0.1	2683.1
89471	9.4114	5.5	0.1	2582.9
89472	9.4612	5.55	0.1	2603.6
89473	9.3118	5.5	0.1	2487.9
89474	9.3616	5.55	0.1	2512.3
89475	9.2123	5.5	0.1	2380.3
89476	9.2621	5.55	0.1	2408.4
89477	9.1127	5.5	0.1	2259.8
89478	9.1625	5.55	0.1	2291.6
89479	9.0131	5.5	0.1	2126.5
89480	9.0629	5.55	0.1	2161.6
89481	8.9135	5.5	0.1	1981.
89482	8.9633	5.55	0.1	2018.5
89483	8.8139	5.5	0.1	1825.3
89484	8.8637	5.55	0.1	1863.5
89485	8.7144	5.5	0.1	1662.4
89486	8.7642	5.55	0.1	1698.5
89487	8.6148	5.5	0.1	1497.8
89488	8.6646	5.55	0.1	1527.6
89489	8.5152	5.5	0.1	1340.1
89490	8.565	5.55	0.1	1357.2
89491	8.4156	5.5	0.1	1200.8
89492	8.4654	5.55	0.1	1197.8
89493	8.316	5.5	0.1	1107.1
89494	8.3658	5.55	0.1	1063.7
89495	8.2662	5.55	0.1	995.
89496	8.2165	5.5	0.1	825.88
89497	23.851	5.6	0.1	31.369
89498	23.9	5.65	0.1	21.988
89499	23.95	5.6	0.1	12.06
89500	23.751	5.6	0.1	50.121
89501	23.801	5.65	0.1	40.199
89502	23.651	5.6	0.1	69.342
89503	23.701	5.65	0.1	59.135
89504	23.552	5.6	0.1	88.946
89505	23.602	5.65	0.1	78.578
89506	23.452	5.6	0.1	108.89
89507	23.502	5.65	0.1	98.432
89508	23.353	5.6	0.1	129.11
89509	23.403	5.65	0.1	118.61
89510	23.253	5.6	0.1	149.56
89511	23.303	5.65	0.1	139.02
89512	23.154	5.6	0.1	170.18
89513	23.203	5.65	0.1	159.64
89514	23.054	5.6	0.1	190.95
89515	23.104	5.65	0.1	180.4
89516	22.954	5.6	0.1	211.85
89517	23.004	5.65	0.1	201.29
89518	22.855	5.6	0.1	232.84
89519	22.905	5.65	0.1	222.28
89520	22.755	5.6	0.1	253.93
89521	22.805	5.65	0.1	243.36
89522	22.656	5.6	0.1	275.09
89523	22.705	5.65	0.1	264.52
89524	22.556	5.6	0.1	296.32
89525	22.606	5.65	0.1	285.75
89526	22.456	5.6	0.1	317.61
89527	22.506	5.65	0.1	307.04
89528	22.357	5.6	0.1	338.95
89529	22.407	5.65	0.1	328.38
89530	22.257	5.6	0.1	360.35
89531	22.307	5.65	0.1	349.77
89532	22.158	5.6	0.1	381.79
89533	22.208	5.65	0.1	371.22
89534	22.058	5.6	0.1	403.29
89535	22.108	5.65	0.1	392.7
89536	21.959	5.6	0.1	424.83
89537	22.008	5.65	0.1	414.24
89538	21.859	5.6	0.1	446.41
89539	21.909	5.65	0.1	435.81
89540	21.759	5.6	0.1	468.03
89541	21.809	5.65	0.1	457.43
89542	21.66	5.6	0.1	489.69
89543	21.71	5.65	0.1	479.09
89544	21.56	5.6	0.1	511.4
89545	21.61	5.65	0.1	500.78
89546	21.461	5.6	0.1	533.15
89547	21.51	5.65	0.1	522.52
89548	21.361	5.6	0.1	554.93
89549	21.411	5.65	0.1	544.3
89550	21.262	5.6	0.1	576.76
89551	21.311	5.65	0.1	566.11
89552	21.162	5.6	0.1	598.63
89553	21.212	5.65	0.1	587.97
89554	21.062	5.6	0.1	620.54
89555	21.112	5.65	0.1	609.87
89556	20.963	5.6	0.1	642.49
89557	21.013	5.65	0.1	631.81
89558	20.863	5.6	0.1	664.48
89559	20.913	5.65	0.1	653.79
89560	20.764	5.6	0.1	686.51
89561	20.813	5.65	0.1	675.81
89562	20.664	5.6	0.1	708.59
89563	20.714	5.65	0.1	697.87
89564	20.564	5.6	0.1	730.71
89565	20.614	5.65	0.1	719.98
89566	20.465	5.6	0.1	752.88
89567	20.515	5.65	0.1	742.12
89568	20.365	5.6	0.1	775.08
89569	20.415	5.65	0.1	764.32
89570	20.266	5.6	0.1	797.34
89571	20.316	5.65	0.1	786.55
89572	20.166	5.6	0.1	819.64
89573	20.216	5.65	0.1	808.83
89574	20.067	5.6	0.1	841.98
89575	20.116	5.65	0.1	831.16
89576	19.967	5.6	0.1	864.37
89577	20.017	5.65	0.1	853.53
89578	19.867	5.6	0.1	886.81
89579	19.917	5.65	0.1	875.95
89580	19.768	5.6	0.1	909.29
89581	19.818	5.65	0.1	898.42
89582	19.668	5.6	0.1	931.83
89583	19.718	5.65	0.1	920.93
89584	19.569	5.6	0.1	954.41
89585	19.618	5.65	0.1	943.5
89586	19.469	5.6	0.1	977.04
89587	19.519	5.65	0.1	966.11
89588	19.369	5.6	0.1	999.73
89589	19.419	5.65	0.1	988.77
89590	19.27	5.6	0.1	1022.5
89591	19.32	5.65	0.1	1011.5
89592	19.17	5.6	0.1	1045.2
89593	19.22	5.65	0.1	1034.2
89594	19.071	5.6	0.1	1068.1
89595	19.121	5.65	0.1	1057.1
89596	18.971	5.6	0.1	1091.
89597	19.021	5.65	0.1	1079.9
89598	18.872	5.6	0.1	1113.9
89599	18.921	5.65	0.1	1102.8
89600	18.772	5.6	0.1	1136.9
89601	18.822	5.65	0.1	1125.8
89602	18.672	5.6	0.1	1159.9
89603	18.722	5.65	0.1	1148.8
89604	18.573	5.6	0.1	1183.
89605	18.623	5.65	0.1	1171.9
89606	18.473	5.6	0.1	1206.2
89607	18.523	5.65	0.1	1195.
89608	18.374	5.6	0.1	1229.4
89609	18.423	5.65	0.1	1218.2
89610	18.274	5.6	0.1	1252.7
89611	18.324	5.65	0.1	1241.4
89612	18.175	5.6	0.1	1276.
89613	18.224	5.65	0.1	1264.7
89614	18.075	5.6	0.1	1299.3
89615	18.125	5.65	0.1	1288.1
89616	17.975	5.6	0.1	1322.8
89617	18.025	5.65	0.1	1311.5
89618	17.876	5.6	0.1	1346.2
89619	17.926	5.65	0.1	1334.9
89620	17.776	5.6	0.1	1369.8
89621	17.826	5.65	0.1	1358.4
89622	17.677	5.6	0.1	1393.4
89623	17.726	5.65	0.1	1382.
89624	17.577	5.6	0.1	1417.
89625	17.627	5.65	0.1	1405.6
89626	17.477	5.6	0.1	1440.7
89627	17.527	5.65	0.1	1429.3
89628	17.378	5.6	0.1	1464.5
89629	17.428	5.65	0.1	1453.1
89630	17.278	5.6	0.1	1488.3
89631	17.328	5.65	0.1	1476.9
89632	17.179	5.6	0.1	1512.2
89633	17.229	5.65	0.1	1500.7
89634	17.079	5.6	0.1	1536.2
89635	17.129	5.65	0.1	1524.7
89636	16.98	5.6	0.1	1560.2
89637	17.029	5.65	0.1	1548.6
89638	16.88	5.6	0.1	1584.2
89639	16.93	5.65	0.1	1572.7
89640	16.78	5.6	0.1	1608.4
89641	16.83	5.65	0.1	1596.8
89642	16.681	5.6	0.1	1632.5
89643	16.731	5.65	0.1	1620.9
89644	16.581	5.6	0.1	1656.8
89645	16.631	5.65	0.1	1645.1
89646	16.482	5.6	0.1	1681.1
89647	16.531	5.65	0.1	1669.4
89648	16.382	5.6	0.1	1705.4
89649	16.432	5.65	0.1	1693.7
89650	16.282	5.6	0.1	1729.8
89651	16.332	5.65	0.1	1718.1
89652	16.183	5.6	0.1	1754.3
89653	16.233	5.65	0.1	1742.6
89654	16.083	5.6	0.1	1778.9
89655	16.133	5.65	0.1	1767.1
89656	15.984	5.6	0.1	1803.5
89657	16.034	5.65	0.1	1791.7
89658	15.884	5.6	0.1	1828.1
89659	15.934	5.65	0.1	1816.3
89660	15.785	5.6	0.1	1852.8
89661	15.834	5.65	0.1	1841.
89662	15.685	5.6	0.1	1877.6
89663	15.735	5.65	0.1	1865.8
89664	15.585	5.6	0.1	1902.5
89665	15.635	5.65	0.1	1890.6
89666	15.486	5.6	0.1	1927.4
89667	15.536	5.65	0.1	1915.4
89668	15.386	5.6	0.1	1952.3
89669	15.436	5.65	0.1	1940.4
89670	15.287	5.6	0.1	1977.3
89671	15.336	5.65	0.1	1965.4
89672	15.187	5.6	0.1	2002.4
89673	15.237	5.65	0.1	1990.4
89674	15.088	5.6	0.1	2027.5
89675	15.137	5.65	0.1	2015.5
89676	14.988	5.6	0.1	2052.7
89677	15.038	5.65	0.1	2040.7
89678	14.888	5.6	0.1	2078.
89679	14.938	5.65	0.1	2065.9
89680	14.789	5.6	0.1	2103.3
89681	14.839	5.65	0.1	2091.2
89682	14.689	5.6	0.1	2128.6
89683	14.739	5.65	0.1	2116.6
89684	14.59	5.6	0.1	2154.
89685	14.639	5.65	0.1	2141.9
89686	14.49	5.6	0.1	2179.5
89687	14.54	5.65	0.1	2167.4
89688	14.39	5.6	0.1	2205.
89689	14.44	5.65	0.1	2192.9
89690	14.291	5.6	0.1	2230.6
89691	14.341	5.65	0.1	2218.4
89692	14.191	5.6	0.1	2256.1
89693	14.241	5.65	0.1	2244.
89694	14.092	5.6	0.1	2281.8
89695	14.142	5.65	0.1	2269.6
89696	13.992	5.6	0.1	2307.4
89697	14.042	5.65	0.1	2295.2
89698	13.893	5.6	0.1	2333.1
89699	13.942	5.65	0.1	2320.9
89700	13.793	5.6	0.1	2358.8
89701	13.843	5.65	0.1	2346.6
89702	13.693	5.6	0.1	2384.5
89703	13.743	5.65	0.1	2372.3
89704	13.594	5.6	0.1	2410.3
89705	13.644	5.65	0.1	2398.
89706	13.494	5.6	0.1	2436.
89707	13.544	5.65	0.1	2423.8
89708	13.395	5.6	0.1	2461.7
89709	13.444	5.65	0.1	2449.5
89710	13.295	5.6	0.1	2487.4
89711	13.345	5.65	0.1	2475.2
89712	13.195	5.6	0.1	2513.
89713	13.245	5.65	0.1	2500.8
89714	13.096	5.6	0.1	2538.6
89715	13.146	5.65	0.1	2526.4
89716	12.996	5.6	0.1	2564.1
89717	13.046	5.65	0.1	2552.
89718	12.897	5.6	0.1	2589.5
89719	12.947	5.65	0.1	2577.4
89720	12.797	5.6	0.1	2614.8
89721	12.847	5.65	0.1	2602.7
89722	12.698	5.6	0.1	2639.9
89723	12.747	5.65	0.1	2627.9
89724	12.598	5.6	0.1	2664.9
89725	12.648	5.65	0.1	2652.9
89726	12.498	5.6	0.1	2689.6
89727	12.548	5.65	0.1	2677.7
89728	12.399	5.6	0.1	2714.1
89729	12.449	5.65	0.1	2702.3
89730	12.299	5.6	0.1	2738.3
89731	12.349	5.65	0.1	2726.5
89732	12.2	5.6	0.1	2762.
89733	12.249	5.65	0.1	2750.4
89734	12.1	5.6	0.1	2785.4
89735	12.15	5.65	0.1	2773.9
89736	12.001	5.6	0.1	2808.3
89737	12.05	5.65	0.1	2796.9
89738	11.901	5.6	0.1	2830.5
89739	11.951	5.65	0.1	2819.4
89740	11.801	5.6	0.1	2852.1
89741	11.851	5.65	0.1	2841.2
89742	11.702	5.6	0.1	2872.9
89743	11.752	5.65	0.1	2862.3
89744	11.602	5.6	0.1	2892.9
89745	11.652	5.65	0.1	2882.5
89746	11.503	5.6	0.1	2911.7
89747	11.552	5.65	0.1	2901.7
89748	11.403	5.6	0.1	2929.4
89749	11.453	5.65	0.1	2919.7
89750	11.303	5.6	0.1	2945.8
89751	11.353	5.65	0.1	2936.5
89752	11.204	5.6	0.1	2960.5
89753	11.254	5.65	0.1	2951.8
89754	11.104	5.6	0.1	2973.5
89755	11.154	5.65	0.1	2965.4
89756	11.005	5.6	0.1	2984.5
89757	11.055	5.65	0.1	2977.
89758	10.905	5.6	0.1	2993.2
89759	10.955	5.65	0.1	2986.4
89760	10.806	5.6	0.1	2999.3
89761	10.855	5.65	0.1	2993.4
89762	10.706	5.6	0.1	3002.4
89763	10.756	5.65	0.1	2997.5
89764	10.606	5.6	0.1	3002.1
89765	10.656	5.65	0.1	2998.4
89766	10.507	5.6	0.1	2998.1
89767	10.557	5.65	0.1	2995.6
89768	10.407	5.6	0.1	2989.9
89769	10.457	5.65	0.1	2988.8
89770	10.308	5.6	0.1	2976.9
89771	10.357	5.65	0.1	2977.5
89772	10.208	5.6	0.1	2958.5
89773	10.258	5.65	0.1	2960.9
89774	10.108	5.6	0.1	2934.1
89775	10.158	5.65	0.1	2938.6
89776	10.009	5.6	0.1	2903.1
89777	10.059	5.65	0.1	2909.9
89778	9.9093	5.6	0.1	2864.6
89779	9.9591	5.65	0.1	2874.1
89780	9.8097	5.6	0.1	2817.9
89781	9.8595	5.65	0.1	2830.4
89782	9.7102	5.6	0.1	2762.3
89783	9.76	5.65	0.1	2777.9
89784	9.6106	5.6	0.1	2696.7
89785	9.6604	5.65	0.1	2716.
89786	9.511	5.6	0.1	2620.4
89787	9.5608	5.65	0.1	2643.6
89788	9.4114	5.6	0.1	2532.6
89789	9.4612	5.65	0.1	2559.9
89790	9.3118	5.6	0.1	2432.4
89791	9.3616	5.65	0.1	2464.2
89792	9.2123	5.6	0.1	2319.2
89793	9.2621	5.65	0.1	2355.7
89794	9.1127	5.6	0.1	2192.7
89795	9.1625	5.65	0.1	2233.8
89796	9.0131	5.6	0.1	2052.7
89797	9.0629	5.65	0.1	2098.2
89798	8.9135	5.6	0.1	1899.7
89799	8.9633	5.65	0.1	1948.9
89800	8.8139	5.6	0.1	1735.
89801	8.8637	5.65	0.1	1786.6
89802	8.7144	5.6	0.1	1561.2
89803	8.7642	5.65	0.1	1612.7
89804	8.6148	5.6	0.1	1382.9
89805	8.6646	5.65	0.1	1430.1
89806	8.5152	5.6	0.1	1208.4
89807	8.565	5.65	0.1	1244.4
89808	8.4156	5.6	0.1	1050.9
89809	8.4654	5.65	0.1	1065.3
89810	8.316	5.6	0.1	939.46
89811	8.3658	5.65	0.1	909.73
89812	8.2662	5.65	0.1	820.03
89813	8.2165	5.6	0.1	692.2
89814	23.851	5.7	0.1	30.813
89815	23.9	5.75	0.1	21.538
89816	23.95	5.7	0.1	11.853
89817	23.751	5.7	0.1	49.265
89818	23.801	5.75	0.1	39.321
89819	23.651	5.7	0.1	68.452
89820	23.701	5.75	0.1	58.266
89821	23.552	5.7	0.1	88.157
89822	23.602	5.75	0.1	77.877
89823	23.452	5.7	0.1	108.24
89824	23.502	5.75	0.1	97.923
89825	23.353	5.7	0.1	128.61
89826	23.403	5.75	0.1	118.27
89827	23.253	5.7	0.1	149.19
89828	23.303	5.75	0.1	138.84
89829	23.154	5.7	0.1	169.94
89830	23.203	5.75	0.1	159.57
89831	23.054	5.7	0.1	190.81
89832	23.104	5.75	0.1	180.44
89833	22.954	5.7	0.1	211.79
89834	23.004	5.75	0.1	201.42
89835	22.855	5.7	0.1	232.87
89836	22.905	5.75	0.1	222.48
89837	22.755	5.7	0.1	254.02
89838	22.805	5.75	0.1	243.63
89839	22.656	5.7	0.1	275.24
89840	22.705	5.75	0.1	264.84
89841	22.556	5.7	0.1	296.52
89842	22.606	5.75	0.1	286.11
89843	22.456	5.7	0.1	317.85
89844	22.506	5.75	0.1	307.44
89845	22.357	5.7	0.1	339.24
89846	22.407	5.75	0.1	328.82
89847	22.257	5.7	0.1	360.68
89848	22.307	5.75	0.1	350.25
89849	22.158	5.7	0.1	382.16
89850	22.208	5.75	0.1	371.73
89851	22.058	5.7	0.1	403.69
89852	22.108	5.75	0.1	393.24
89853	21.959	5.7	0.1	425.26
89854	22.008	5.75	0.1	414.8
89855	21.859	5.7	0.1	446.86
89856	21.909	5.75	0.1	436.4
89857	21.759	5.7	0.1	468.51
89858	21.809	5.75	0.1	458.04
89859	21.66	5.7	0.1	490.2
89860	21.71	5.75	0.1	479.72
89861	21.56	5.7	0.1	511.93
89862	21.61	5.75	0.1	501.43
89863	21.461	5.7	0.1	533.7
89864	21.51	5.75	0.1	523.19
89865	21.361	5.7	0.1	555.5
89866	21.411	5.75	0.1	544.98
89867	21.262	5.7	0.1	577.35
89868	21.311	5.75	0.1	566.82
89869	21.162	5.7	0.1	599.24
89870	21.212	5.75	0.1	588.69
89871	21.062	5.7	0.1	621.16
89872	21.112	5.75	0.1	610.6
89873	20.963	5.7	0.1	643.13
89874	21.013	5.75	0.1	632.55
89875	20.863	5.7	0.1	665.14
89876	20.913	5.75	0.1	654.55
89877	20.764	5.7	0.1	687.18
89878	20.813	5.75	0.1	676.58
89879	20.664	5.7	0.1	709.28
89880	20.714	5.75	0.1	698.65
89881	20.564	5.7	0.1	731.41
89882	20.614	5.75	0.1	720.77
89883	20.465	5.7	0.1	753.58
89884	20.515	5.75	0.1	742.93
89885	20.365	5.7	0.1	775.8
89886	20.415	5.75	0.1	765.13
89887	20.266	5.7	0.1	798.07
89888	20.316	5.75	0.1	787.38
89889	20.166	5.7	0.1	820.38
89890	20.216	5.75	0.1	809.67
89891	20.067	5.7	0.1	842.73
89892	20.116	5.75	0.1	832.
89893	19.967	5.7	0.1	865.13
89894	20.017	5.75	0.1	854.38
89895	19.867	5.7	0.1	887.58
89896	19.917	5.75	0.1	876.81
89897	19.768	5.7	0.1	910.07
89898	19.818	5.75	0.1	899.28
89899	19.668	5.7	0.1	932.61
89900	19.718	5.75	0.1	921.8
89901	19.569	5.7	0.1	955.21
89902	19.618	5.75	0.1	944.37
89903	19.469	5.7	0.1	977.84
89904	19.519	5.75	0.1	966.99
89905	19.369	5.7	0.1	1000.5
89906	19.419	5.75	0.1	989.65
89907	19.27	5.7	0.1	1023.3
89908	19.32	5.75	0.1	1012.4
89909	19.17	5.7	0.1	1046.1
89910	19.22	5.75	0.1	1035.1
89911	19.071	5.7	0.1	1068.9
89912	19.121	5.75	0.1	1058.
89913	18.971	5.7	0.1	1091.8
89914	19.021	5.75	0.1	1080.8
89915	18.872	5.7	0.1	1114.7
89916	18.921	5.75	0.1	1103.7
89917	18.772	5.7	0.1	1137.7
89918	18.822	5.75	0.1	1126.7
89919	18.672	5.7	0.1	1160.8
89920	18.722	5.75	0.1	1149.7
89921	18.573	5.7	0.1	1183.9
89922	18.623	5.75	0.1	1172.8
89923	18.473	5.7	0.1	1207.
89924	18.523	5.75	0.1	1195.9
89925	18.374	5.7	0.1	1230.3
89926	18.423	5.75	0.1	1219.1
89927	18.274	5.7	0.1	1253.5
89928	18.324	5.75	0.1	1242.4
89929	18.175	5.7	0.1	1276.8
89930	18.224	5.75	0.1	1265.7
89931	18.075	5.7	0.1	1300.2
89932	18.125	5.75	0.1	1289.
89933	17.975	5.7	0.1	1323.7
89934	18.025	5.75	0.1	1312.4
89935	17.876	5.7	0.1	1347.1
89936	17.926	5.75	0.1	1335.9
89937	17.776	5.7	0.1	1370.7
89938	17.826	5.75	0.1	1359.4
89939	17.677	5.7	0.1	1394.3
89940	17.726	5.75	0.1	1383.
89941	17.577	5.7	0.1	1418.
89942	17.627	5.75	0.1	1406.6
89943	17.477	5.7	0.1	1441.7
89944	17.527	5.75	0.1	1430.3
89945	17.378	5.7	0.1	1465.4
89946	17.428	5.75	0.1	1454.1
89947	17.278	5.7	0.1	1489.3
89948	17.328	5.75	0.1	1477.9
89949	17.179	5.7	0.1	1513.2
89950	17.229	5.75	0.1	1501.7
89951	17.079	5.7	0.1	1537.1
89952	17.129	5.75	0.1	1525.7
89953	16.98	5.7	0.1	1561.1
89954	17.029	5.75	0.1	1549.6
89955	16.88	5.7	0.1	1585.2
89956	16.93	5.75	0.1	1573.7
89957	16.78	5.7	0.1	1609.3
89958	16.83	5.75	0.1	1597.8
89959	16.681	5.7	0.1	1633.5
89960	16.731	5.75	0.1	1621.9
89961	16.581	5.7	0.1	1657.8
89962	16.631	5.75	0.1	1646.2
89963	16.482	5.7	0.1	1682.1
89964	16.531	5.75	0.1	1670.4
89965	16.382	5.7	0.1	1706.4
89966	16.432	5.75	0.1	1694.8
89967	16.282	5.7	0.1	1730.9
89968	16.332	5.75	0.1	1719.2
89969	16.183	5.7	0.1	1755.4
89970	16.233	5.75	0.1	1743.7
89971	16.083	5.7	0.1	1779.9
89972	16.133	5.75	0.1	1768.2
89973	15.984	5.7	0.1	1804.5
89974	16.034	5.75	0.1	1792.8
89975	15.884	5.7	0.1	1829.2
89976	15.934	5.75	0.1	1817.4
89977	15.785	5.7	0.1	1853.9
89978	15.834	5.75	0.1	1842.1
89979	15.685	5.7	0.1	1878.7
89980	15.735	5.75	0.1	1866.9
89981	15.585	5.7	0.1	1903.6
89982	15.635	5.75	0.1	1891.7
89983	15.486	5.7	0.1	1928.5
89984	15.536	5.75	0.1	1916.6
89985	15.386	5.7	0.1	1953.4
89986	15.436	5.75	0.1	1941.5
89987	15.287	5.7	0.1	1978.5
89988	15.336	5.75	0.1	1966.6
89989	15.187	5.7	0.1	2003.6
89990	15.237	5.75	0.1	1991.6
89991	15.088	5.7	0.1	2028.7
89992	15.137	5.75	0.1	2016.7
89993	14.988	5.7	0.1	2053.9
89994	15.038	5.75	0.1	2041.9
89995	14.888	5.7	0.1	2079.2
89996	14.938	5.75	0.1	2067.2
89997	14.789	5.7	0.1	2104.5
89998	14.839	5.75	0.1	2092.5
89999	14.689	5.7	0.1	2129.9
90000	14.739	5.75	0.1	2117.8
90001	14.59	5.7	0.1	2155.3
90002	14.639	5.75	0.1	2143.2
90003	14.49	5.7	0.1	2180.7
90004	14.54	5.75	0.1	2168.7
90005	14.39	5.7	0.1	2206.3
90006	14.44	5.75	0.1	2194.2
90007	14.291	5.7	0.1	2231.8
90008	14.341	5.75	0.1	2219.7
90009	14.191	5.7	0.1	2257.4
90010	14.241	5.75	0.1	2245.3
90011	14.092	5.7	0.1	2283.1
90012	14.142	5.75	0.1	2270.9
90013	13.992	5.7	0.1	2308.7
90014	14.042	5.75	0.1	2296.6
90015	13.893	5.7	0.1	2334.4
90016	13.942	5.75	0.1	2322.2
90017	13.793	5.7	0.1	2360.1
90018	13.843	5.75	0.1	2347.9
90019	13.693	5.7	0.1	2385.8
90020	13.743	5.75	0.1	2373.7
90021	13.594	5.7	0.1	2411.6
90022	13.644	5.75	0.1	2399.4
90023	13.494	5.7	0.1	2437.3
90024	13.544	5.75	0.1	2425.1
90025	13.395	5.7	0.1	2463.
90026	13.444	5.75	0.1	2450.8
90027	13.295	5.7	0.1	2488.6
90028	13.345	5.75	0.1	2476.5
90029	13.195	5.7	0.1	2514.2
90030	13.245	5.75	0.1	2502.1
90031	13.096	5.7	0.1	2539.8
90032	13.146	5.75	0.1	2527.7
90033	12.996	5.7	0.1	2565.3
90034	13.046	5.75	0.1	2553.2
90035	12.897	5.7	0.1	2590.6
90036	12.947	5.75	0.1	2578.6
90037	12.797	5.7	0.1	2615.8
90038	12.847	5.75	0.1	2603.9
90039	12.698	5.7	0.1	2640.9
90040	12.747	5.75	0.1	2629.
90041	12.598	5.7	0.1	2665.8
90042	12.648	5.75	0.1	2653.9
90043	12.498	5.7	0.1	2690.4
90044	12.548	5.75	0.1	2678.6
90045	12.399	5.7	0.1	2714.7
90046	12.449	5.75	0.1	2703.1
90047	12.299	5.7	0.1	2738.7
90048	12.349	5.75	0.1	2727.2
90049	12.2	5.7	0.1	2762.3
90050	12.249	5.75	0.1	2750.9
90051	12.1	5.7	0.1	2785.5
90052	12.15	5.75	0.1	2774.2
90053	12.001	5.7	0.1	2808.1
90054	12.05	5.75	0.1	2797.
90055	11.901	5.7	0.1	2830.1
90056	11.951	5.75	0.1	2819.3
90057	11.801	5.7	0.1	2851.3
90058	11.851	5.75	0.1	2840.8
90059	11.702	5.7	0.1	2871.8
90060	11.752	5.75	0.1	2861.5
90061	11.602	5.7	0.1	2891.3
90062	11.652	5.75	0.1	2881.4
90063	11.503	5.7	0.1	2909.7
90064	11.552	5.75	0.1	2900.2
90065	11.403	5.7	0.1	2926.8
90066	11.453	5.75	0.1	2917.8
90067	11.303	5.7	0.1	2942.5
90068	11.353	5.75	0.1	2934.
90069	11.204	5.7	0.1	2956.6
90070	11.254	5.75	0.1	2948.7
90071	11.104	5.7	0.1	2968.8
90072	11.154	5.75	0.1	2961.6
90073	11.005	5.7	0.1	2978.9
90074	11.055	5.75	0.1	2972.4
90075	10.905	5.7	0.1	2986.6
90076	10.955	5.75	0.1	2981.
90077	10.806	5.7	0.1	2991.6
90078	10.855	5.75	0.1	2987.
90079	10.706	5.7	0.1	2993.5
90080	10.756	5.75	0.1	2990.
90081	10.606	5.7	0.1	2991.9
90082	10.656	5.75	0.1	2989.7
90083	10.507	5.7	0.1	2986.3
90084	10.557	5.75	0.1	2985.7
90085	10.407	5.7	0.1	2976.4
90086	10.457	5.75	0.1	2977.4
90087	10.308	5.7	0.1	2961.5
90088	10.357	5.75	0.1	2964.4
90089	10.208	5.7	0.1	2941.1
90090	10.258	5.75	0.1	2946.1
90091	10.108	5.7	0.1	2914.4
90092	10.158	5.75	0.1	2921.9
90093	10.009	5.7	0.1	2880.9
90094	10.059	5.75	0.1	2891.1
90095	9.9093	5.7	0.1	2839.8
90096	9.9591	5.75	0.1	2853.
90097	9.8097	5.7	0.1	2790.3
90098	9.8595	5.75	0.1	2806.8
90099	9.7102	5.7	0.1	2731.5
90100	9.76	5.75	0.1	2751.7
90101	9.6106	5.7	0.1	2662.7
90102	9.6604	5.75	0.1	2686.9
90103	9.511	5.7	0.1	2582.9
90104	9.5608	5.75	0.1	2611.5
90105	9.4114	5.7	0.1	2491.3
90106	9.4612	5.75	0.1	2524.7
90107	9.3118	5.7	0.1	2387.2
90108	9.3616	5.75	0.1	2425.7
90109	9.2123	5.7	0.1	2269.9
90110	9.2621	5.75	0.1	2313.7
90111	9.1127	5.7	0.1	2138.8
90112	9.1625	5.75	0.1	2188.1
90113	9.0131	5.7	0.1	1993.9
90114	9.0629	5.75	0.1	2048.6
90115	8.9135	5.7	0.1	1835.1
90116	8.9633	5.75	0.1	1894.9
90117	8.8139	5.7	0.1	1663.3
90118	8.8637	5.75	0.1	1727.3
90119	8.7144	5.7	0.1	1480.2
90120	8.7642	5.75	0.1	1546.6
90121	8.6148	5.7	0.1	1289.1
90122	8.6646	5.75	0.1	1354.5
90123	8.5152	5.7	0.1	1096.4
90124	8.565	5.75	0.1	1154.6
90125	8.4156	5.7	0.1	915.09
90126	8.4654	5.75	0.1	954.05
90127	8.316	5.7	0.1	776.54
90128	8.3658	5.75	0.1	768.51
90129	8.2662	5.75	0.1	644.2
90130	8.2165	5.7	0.1	554.51
90131	23.851	5.8	0.1	30.112
90132	23.9	5.85	0.1	20.888
90133	23.95	5.8	0.1	11.527
90134	23.751	5.8	0.1	48.467
90135	23.801	5.85	0.1	38.94
90136	23.651	5.8	0.1	67.861
90137	23.701	5.85	0.1	58.376
90138	23.552	5.8	0.1	87.808
90139	23.602	5.85	0.1	78.385
90140	23.452	5.8	0.1	108.1
90141	23.502	5.85	0.1	98.723
90142	23.353	5.8	0.1	128.63
90143	23.403	5.85	0.1	119.29
90144	23.253	5.8	0.1	149.34
90145	23.303	5.85	0.1	140.02
90146	23.154	5.8	0.1	170.18
90147	23.203	5.85	0.1	160.88
90148	23.054	5.8	0.1	191.14
90149	23.104	5.85	0.1	181.84
90150	22.954	5.8	0.1	212.19
90151	23.004	5.85	0.1	202.9
90152	22.855	5.8	0.1	233.32
90153	22.905	5.85	0.1	224.03
90154	22.755	5.8	0.1	254.52
90155	22.805	5.85	0.1	245.23
90156	22.656	5.8	0.1	275.78
90157	22.705	5.85	0.1	266.5
90158	22.556	5.8	0.1	297.1
90159	22.606	5.85	0.1	287.81
90160	22.456	5.8	0.1	318.46
90161	22.506	5.85	0.1	309.18
90162	22.357	5.8	0.1	339.88
90163	22.407	5.85	0.1	330.59
90164	22.257	5.8	0.1	361.34
90165	22.307	5.85	0.1	352.05
90166	22.158	5.8	0.1	382.85
90167	22.208	5.85	0.1	373.55
90168	22.058	5.8	0.1	404.4
90169	22.108	5.85	0.1	395.08
90170	21.959	5.8	0.1	425.98
90171	22.008	5.85	0.1	416.66
90172	21.859	5.8	0.1	447.61
90173	21.909	5.85	0.1	438.28
90174	21.759	5.8	0.1	469.28
90175	21.809	5.85	0.1	459.93
90176	21.66	5.8	0.1	490.98
90177	21.71	5.85	0.1	481.62
90178	21.56	5.8	0.1	512.73
90179	21.61	5.85	0.1	503.35
90180	21.461	5.8	0.1	534.51
90181	21.51	5.85	0.1	525.12
90182	21.361	5.8	0.1	556.33
90183	21.411	5.85	0.1	546.92
90184	21.262	5.8	0.1	578.19
90185	21.311	5.85	0.1	568.76
90186	21.162	5.8	0.1	600.08
90187	21.212	5.85	0.1	590.64
90188	21.062	5.8	0.1	622.02
90189	21.112	5.85	0.1	612.56
90190	20.963	5.8	0.1	644.
90191	21.013	5.85	0.1	634.52
90192	20.863	5.8	0.1	666.01
90193	20.913	5.85	0.1	656.51
90194	20.764	5.8	0.1	688.07
90195	20.813	5.85	0.1	678.55
90196	20.664	5.8	0.1	710.17
90197	20.714	5.85	0.1	700.62
90198	20.564	5.8	0.1	732.31
90199	20.614	5.85	0.1	722.74
90200	20.465	5.8	0.1	754.49
90201	20.515	5.85	0.1	744.9
90202	20.365	5.8	0.1	776.72
90203	20.415	5.85	0.1	767.1
90204	20.266	5.8	0.1	798.99
90205	20.316	5.85	0.1	789.35
90206	20.166	5.8	0.1	821.31
90207	20.216	5.85	0.1	811.63
90208	20.067	5.8	0.1	843.67
90209	20.116	5.85	0.1	833.97
90210	19.967	5.8	0.1	866.07
90211	20.017	5.85	0.1	856.34
90212	19.867	5.8	0.1	888.53
90213	19.917	5.85	0.1	878.77
90214	19.768	5.8	0.1	911.03
90215	19.818	5.85	0.1	901.24
90216	19.668	5.8	0.1	933.57
90217	19.718	5.85	0.1	923.76
90218	19.569	5.8	0.1	956.17
90219	19.618	5.85	0.1	946.32
90220	19.469	5.8	0.1	978.81
90221	19.519	5.85	0.1	968.93
90222	19.369	5.8	0.1	1001.5
90223	19.419	5.85	0.1	991.6
90224	19.27	5.8	0.1	1024.2
90225	19.32	5.85	0.1	1014.3
90226	19.17	5.8	0.1	1047.
90227	19.22	5.85	0.1	1037.1
90228	19.071	5.8	0.1	1069.9
90229	19.121	5.85	0.1	1059.9
90230	18.971	5.8	0.1	1092.8
90231	19.021	5.85	0.1	1082.7
90232	18.872	5.8	0.1	1115.7
90233	18.921	5.85	0.1	1105.7
90234	18.772	5.8	0.1	1138.7
90235	18.822	5.85	0.1	1128.6
90236	18.672	5.8	0.1	1161.8
90237	18.722	5.85	0.1	1151.6
90238	18.573	5.8	0.1	1184.9
90239	18.623	5.85	0.1	1174.7
90240	18.473	5.8	0.1	1208.1
90241	18.523	5.85	0.1	1197.8
90242	18.374	5.8	0.1	1231.3
90243	18.423	5.85	0.1	1221.
90244	18.274	5.8	0.1	1254.5
90245	18.324	5.85	0.1	1244.3
90246	18.175	5.8	0.1	1277.9
90247	18.224	5.85	0.1	1267.5
90248	18.075	5.8	0.1	1301.2
90249	18.125	5.85	0.1	1290.9
90250	17.975	5.8	0.1	1324.7
90251	18.025	5.85	0.1	1314.3
90252	17.876	5.8	0.1	1348.2
90253	17.926	5.85	0.1	1337.8
90254	17.776	5.8	0.1	1371.7
90255	17.826	5.85	0.1	1361.3
90256	17.677	5.8	0.1	1395.3
90257	17.726	5.85	0.1	1384.8
90258	17.577	5.8	0.1	1419.
90259	17.627	5.85	0.1	1408.5
90260	17.477	5.8	0.1	1442.7
90261	17.527	5.85	0.1	1432.2
90262	17.378	5.8	0.1	1466.5
90263	17.428	5.85	0.1	1455.9
90264	17.278	5.8	0.1	1490.3
90265	17.328	5.85	0.1	1479.7
90266	17.179	5.8	0.1	1514.2
90267	17.229	5.85	0.1	1503.6
90268	17.079	5.8	0.1	1538.2
90269	17.129	5.85	0.1	1527.5
90270	16.98	5.8	0.1	1562.2
90271	17.029	5.85	0.1	1551.5
90272	16.88	5.8	0.1	1586.3
90273	16.93	5.85	0.1	1575.5
90274	16.78	5.8	0.1	1610.4
90275	16.83	5.85	0.1	1599.6
90276	16.681	5.8	0.1	1634.6
90277	16.731	5.85	0.1	1623.8
90278	16.581	5.8	0.1	1658.9
90279	16.631	5.85	0.1	1648.
90280	16.482	5.8	0.1	1683.2
90281	16.531	5.85	0.1	1672.3
90282	16.382	5.8	0.1	1707.5
90283	16.432	5.85	0.1	1696.6
90284	16.282	5.8	0.1	1732.
90285	16.332	5.85	0.1	1721.
90286	16.183	5.8	0.1	1756.5
90287	16.233	5.85	0.1	1745.5
90288	16.083	5.8	0.1	1781.
90289	16.133	5.85	0.1	1770.
90290	15.984	5.8	0.1	1805.7
90291	16.034	5.85	0.1	1794.6
90292	15.884	5.8	0.1	1830.3
90293	15.934	5.85	0.1	1819.2
90294	15.785	5.8	0.1	1855.1
90295	15.834	5.85	0.1	1843.9
90296	15.685	5.8	0.1	1879.9
90297	15.735	5.85	0.1	1868.7
90298	15.585	5.8	0.1	1904.8
90299	15.635	5.85	0.1	1893.5
90300	15.486	5.8	0.1	1929.7
90301	15.536	5.85	0.1	1918.4
90302	15.386	5.8	0.1	1954.7
90303	15.436	5.85	0.1	1943.4
90304	15.287	5.8	0.1	1979.7
90305	15.336	5.85	0.1	1968.4
90306	15.187	5.8	0.1	2004.8
90307	15.237	5.85	0.1	1993.4
90308	15.088	5.8	0.1	2030.
90309	15.137	5.85	0.1	2018.6
90310	14.988	5.8	0.1	2055.2
90311	15.038	5.85	0.1	2043.8
90312	14.888	5.8	0.1	2080.5
90313	14.938	5.85	0.1	2069.
90314	14.789	5.8	0.1	2105.8
90315	14.839	5.85	0.1	2094.3
90316	14.689	5.8	0.1	2131.2
90317	14.739	5.85	0.1	2119.6
90318	14.59	5.8	0.1	2156.6
90319	14.639	5.85	0.1	2145.1
90320	14.49	5.8	0.1	2182.1
90321	14.54	5.85	0.1	2170.5
90322	14.39	5.8	0.1	2207.6
90323	14.44	5.85	0.1	2196.
90324	14.291	5.8	0.1	2233.2
90325	14.341	5.85	0.1	2221.6
90326	14.191	5.8	0.1	2258.8
90327	14.241	5.85	0.1	2247.1
90328	14.092	5.8	0.1	2284.4
90329	14.142	5.85	0.1	2272.8
90330	13.992	5.8	0.1	2310.1
90331	14.042	5.85	0.1	2298.4
90332	13.893	5.8	0.1	2335.8
90333	13.942	5.85	0.1	2324.1
90334	13.793	5.8	0.1	2361.5
90335	13.843	5.85	0.1	2349.8
90336	13.693	5.8	0.1	2387.2
90337	13.743	5.85	0.1	2375.5
90338	13.594	5.8	0.1	2412.9
90339	13.644	5.85	0.1	2401.2
90340	13.494	5.8	0.1	2438.7
90341	13.544	5.85	0.1	2426.9
90342	13.395	5.8	0.1	2464.3
90343	13.444	5.85	0.1	2452.6
90344	13.295	5.8	0.1	2490.
90345	13.345	5.85	0.1	2478.3
90346	13.195	5.8	0.1	2515.6
90347	13.245	5.85	0.1	2503.9
90348	13.096	5.8	0.1	2541.1
90349	13.146	5.85	0.1	2529.4
90350	12.996	5.8	0.1	2566.5
90351	13.046	5.85	0.1	2554.9
90352	12.897	5.8	0.1	2591.8
90353	12.947	5.85	0.1	2580.2
90354	12.797	5.8	0.1	2617.
90355	12.847	5.85	0.1	2605.5
90356	12.698	5.8	0.1	2642.
90357	12.747	5.85	0.1	2630.5
90358	12.598	5.8	0.1	2666.8
90359	12.648	5.85	0.1	2655.4
90360	12.498	5.8	0.1	2691.3
90361	12.548	5.85	0.1	2680.
90362	12.399	5.8	0.1	2715.5
90363	12.449	5.85	0.1	2704.3
90364	12.299	5.8	0.1	2739.4
90365	12.349	5.85	0.1	2728.3
90366	12.2	5.8	0.1	2762.8
90367	12.249	5.85	0.1	2751.9
90368	12.1	5.8	0.1	2785.8
90369	12.15	5.85	0.1	2775.1
90370	12.001	5.8	0.1	2808.2
90371	12.05	5.85	0.1	2797.7
90372	11.901	5.8	0.1	2830.
90373	11.951	5.85	0.1	2819.7
90374	11.801	5.8	0.1	2851.
90375	11.851	5.85	0.1	2841.
90376	11.702	5.8	0.1	2871.1
90377	11.752	5.85	0.1	2861.5
90378	11.602	5.8	0.1	2890.2
90379	11.652	5.85	0.1	2881.
90380	11.503	5.8	0.1	2908.2
90381	11.552	5.85	0.1	2899.5
90382	11.403	5.8	0.1	2924.9
90383	11.453	5.85	0.1	2916.7
90384	11.303	5.8	0.1	2940.1
90385	11.353	5.85	0.1	2932.5
90386	11.204	5.8	0.1	2953.6
90387	11.254	5.85	0.1	2946.6
90388	11.104	5.8	0.1	2965.2
90389	11.154	5.85	0.1	2959.
90390	11.005	5.8	0.1	2974.5
90391	11.055	5.85	0.1	2969.2
90392	10.905	5.8	0.1	2981.4
90393	10.955	5.85	0.1	2977.1
90394	10.806	5.8	0.1	2985.4
90395	10.855	5.85	0.1	2982.3
90396	10.706	5.8	0.1	2986.3
90397	10.756	5.85	0.1	2984.5
90398	10.606	5.8	0.1	2983.5
90399	10.656	5.85	0.1	2983.2
90400	10.507	5.8	0.1	2976.7
90401	10.557	5.85	0.1	2978.1
90402	10.407	5.8	0.1	2965.4
90403	10.457	5.85	0.1	2968.7
90404	10.308	5.8	0.1	2949.
90405	10.357	5.85	0.1	2954.5
90406	10.208	5.8	0.1	2926.9
90407	10.258	5.85	0.1	2934.8
90408	10.108	5.8	0.1	2898.5
90409	10.158	5.85	0.1	2909.1
90410	10.009	5.8	0.1	2863.1
90411	10.059	5.85	0.1	2876.7
90412	9.9093	5.8	0.1	2819.9
90413	9.9591	5.85	0.1	2836.9
90414	9.8097	5.8	0.1	2768.1
90415	9.8595	5.85	0.1	2788.9
90416	9.7102	5.8	0.1	2707.
90417	9.76	5.85	0.1	2731.9
90418	9.6106	5.8	0.1	2635.6
90419	9.6604	5.85	0.1	2665.2
90420	9.511	5.8	0.1	2553.2
90421	9.5608	5.85	0.1	2587.8
90422	9.4114	5.8	0.1	2459.
90423	9.4612	5.85	0.1	2498.9
90424	9.3118	5.8	0.1	2352.
90425	9.3616	5.85	0.1	2397.8
90426	9.2123	5.8	0.1	2231.8
90427	9.2621	5.85	0.1	2283.7
90428	9.1127	5.8	0.1	2097.7
90429	9.1625	5.85	0.1	2156.
90430	9.0131	5.8	0.1	1949.4
90431	9.0629	5.85	0.1	2014.3
90432	8.9135	5.8	0.1	1786.9
90433	8.9633	5.85	0.1	1858.2
90434	8.8139	5.8	0.1	1610.3
90435	8.8637	5.85	0.1	1687.7
90436	8.7144	5.8	0.1	1420.5
90437	8.7642	5.85	0.1	1503.1
90438	8.6148	5.8	0.1	1219.2
90439	8.6646	5.85	0.1	1305.2
90440	8.5152	5.8	0.1	1010.
90441	8.565	5.85	0.1	1095.2
90442	8.4156	5.8	0.1	801.2
90443	8.4654	5.85	0.1	876.37
90444	8.316	5.8	0.1	621.05
90445	8.3658	5.85	0.1	656.16
90446	8.2662	5.85	0.1	471.16
90447	8.2165	5.8	0.1	407.69
90448	23.851	5.9	0.1	30.204
90449	23.9	5.95	0.1	19.631
90450	23.95	5.9	0.1	11.033
90451	23.751	5.9	0.1	49.378
90452	23.801	5.95	0.1	36.217
90453	23.651	5.9	0.1	69.358
90454	23.701	5.95	0.1	54.33
90455	23.552	5.9	0.1	89.686
90456	23.602	5.95	0.1	73.239
90457	23.452	5.9	0.1	110.24
90458	23.502	5.95	0.1	92.655
90459	23.353	5.9	0.1	130.96
90460	23.403	5.95	0.1	112.45
90461	23.253	5.9	0.1	151.81
90462	23.303	5.95	0.1	132.53
90463	23.154	5.9	0.1	172.77
90464	23.203	5.95	0.1	152.84
90465	23.054	5.9	0.1	193.81
90466	23.104	5.95	0.1	173.34
90467	22.954	5.9	0.1	214.94
90468	23.004	5.95	0.1	194.
90469	22.855	5.9	0.1	236.13
90470	22.905	5.95	0.1	214.79
90471	22.755	5.9	0.1	257.38
90472	22.805	5.95	0.1	235.7
90473	22.656	5.9	0.1	278.69
90474	22.705	5.95	0.1	256.71
90475	22.556	5.9	0.1	300.05
90476	22.606	5.95	0.1	277.82
90477	22.456	5.9	0.1	321.45
90478	22.506	5.95	0.1	299.
90479	22.357	5.9	0.1	342.9
90480	22.407	5.95	0.1	320.26
90481	22.257	5.9	0.1	364.38
90482	22.307	5.95	0.1	341.6
90483	22.158	5.9	0.1	385.91
90484	22.208	5.95	0.1	362.99
90485	22.058	5.9	0.1	407.48
90486	22.108	5.95	0.1	384.44
90487	21.959	5.9	0.1	429.08
90488	22.008	5.95	0.1	405.96
90489	21.859	5.9	0.1	450.72
90490	21.909	5.95	0.1	427.52
90491	21.759	5.9	0.1	472.4
90492	21.809	5.95	0.1	449.14
90493	21.66	5.9	0.1	494.11
90494	21.71	5.95	0.1	470.81
90495	21.56	5.9	0.1	515.86
90496	21.61	5.95	0.1	492.52
90497	21.461	5.9	0.1	537.64
90498	21.51	5.95	0.1	514.29
90499	21.361	5.9	0.1	559.47
90500	21.411	5.95	0.1	536.1
90501	21.262	5.9	0.1	581.33
90502	21.311	5.95	0.1	557.95
90503	21.162	5.9	0.1	603.22
90504	21.212	5.95	0.1	579.86
90505	21.062	5.9	0.1	625.16
90506	21.112	5.95	0.1	601.81
90507	20.963	5.9	0.1	647.13
90508	21.013	5.95	0.1	623.8
90509	20.863	5.9	0.1	669.14
90510	20.913	5.95	0.1	645.84
90511	20.764	5.9	0.1	691.2
90512	20.813	5.95	0.1	667.92
90513	20.664	5.9	0.1	713.29
90514	20.714	5.95	0.1	690.05
90515	20.564	5.9	0.1	735.42
90516	20.614	5.95	0.1	712.23
90517	20.465	5.9	0.1	757.6
90518	20.515	5.95	0.1	734.45
90519	20.365	5.9	0.1	779.81
90520	20.415	5.95	0.1	756.72
90521	20.266	5.9	0.1	802.08
90522	20.316	5.95	0.1	779.03
90523	20.166	5.9	0.1	824.38
90524	20.216	5.95	0.1	801.39
90525	20.067	5.9	0.1	846.73
90526	20.116	5.95	0.1	823.8
90527	19.967	5.9	0.1	869.12
90528	20.017	5.95	0.1	846.25
90529	19.867	5.9	0.1	891.56
90530	19.917	5.95	0.1	868.75
90531	19.768	5.9	0.1	914.05
90532	19.818	5.95	0.1	891.3
90533	19.668	5.9	0.1	936.58
90534	19.718	5.95	0.1	913.9
90535	19.569	5.9	0.1	959.17
90536	19.618	5.95	0.1	936.55
90537	19.469	5.9	0.1	981.8
90538	19.519	5.95	0.1	959.25
90539	19.369	5.9	0.1	1004.5
90540	19.419	5.95	0.1	982.
90541	19.27	5.9	0.1	1027.2
90542	19.32	5.95	0.1	1004.8
90543	19.17	5.9	0.1	1050.
90544	19.22	5.95	0.1	1027.7
90545	19.071	5.9	0.1	1072.8
90546	19.121	5.95	0.1	1050.6
90547	18.971	5.9	0.1	1095.7
90548	19.021	5.95	0.1	1073.5
90549	18.872	5.9	0.1	1118.6
90550	18.921	5.95	0.1	1096.5
90551	18.772	5.9	0.1	1141.6
90552	18.822	5.95	0.1	1119.6
90553	18.672	5.9	0.1	1164.6
90554	18.722	5.95	0.1	1142.7
90555	18.573	5.9	0.1	1187.7
90556	18.623	5.95	0.1	1165.9
90557	18.473	5.9	0.1	1210.9
90558	18.523	5.95	0.1	1189.1
90559	18.374	5.9	0.1	1234.1
90560	18.423	5.95	0.1	1212.4
90561	18.274	5.9	0.1	1257.3
90562	18.324	5.95	0.1	1235.7
90563	18.175	5.9	0.1	1280.6
90564	18.224	5.95	0.1	1259.1
90565	18.075	5.9	0.1	1304.
90566	18.125	5.95	0.1	1282.5
90567	17.975	5.9	0.1	1327.4
90568	18.025	5.95	0.1	1306.
90569	17.876	5.9	0.1	1350.9
90570	17.926	5.95	0.1	1329.6
90571	17.776	5.9	0.1	1374.4
90572	17.826	5.95	0.1	1353.2
90573	17.677	5.9	0.1	1398.
90574	17.726	5.95	0.1	1376.9
90575	17.577	5.9	0.1	1421.7
90576	17.627	5.95	0.1	1400.6
90577	17.477	5.9	0.1	1445.4
90578	17.527	5.95	0.1	1424.4
90579	17.378	5.9	0.1	1469.2
90580	17.428	5.95	0.1	1448.2
90581	17.278	5.9	0.1	1493.
90582	17.328	5.95	0.1	1472.1
90583	17.179	5.9	0.1	1516.9
90584	17.229	5.95	0.1	1496.1
90585	17.079	5.9	0.1	1540.8
90586	17.129	5.95	0.1	1520.1
90587	16.98	5.9	0.1	1564.8
90588	17.029	5.95	0.1	1544.2
90589	16.88	5.9	0.1	1588.9
90590	16.93	5.95	0.1	1568.3
90591	16.78	5.9	0.1	1613.
90592	16.83	5.95	0.1	1592.5
90593	16.681	5.9	0.1	1637.2
90594	16.731	5.95	0.1	1616.8
90595	16.581	5.9	0.1	1661.4
90596	16.631	5.95	0.1	1641.1
90597	16.482	5.9	0.1	1685.7
90598	16.531	5.95	0.1	1665.5
90599	16.382	5.9	0.1	1710.1
90600	16.432	5.95	0.1	1689.9
90601	16.282	5.9	0.1	1734.5
90602	16.332	5.95	0.1	1714.5
90603	16.183	5.9	0.1	1759.
90604	16.233	5.95	0.1	1739.
90605	16.083	5.9	0.1	1783.6
90606	16.133	5.95	0.1	1763.7
90607	15.984	5.9	0.1	1808.2
90608	16.034	5.95	0.1	1788.3
90609	15.884	5.9	0.1	1832.8
90610	15.934	5.95	0.1	1813.1
90611	15.785	5.9	0.1	1857.6
90612	15.834	5.95	0.1	1837.9
90613	15.685	5.9	0.1	1882.4
90614	15.735	5.95	0.1	1862.8
90615	15.585	5.9	0.1	1907.2
90616	15.635	5.95	0.1	1887.7
90617	15.486	5.9	0.1	1932.1
90618	15.536	5.95	0.1	1912.8
90619	15.386	5.9	0.1	1957.1
90620	15.436	5.95	0.1	1937.8
90621	15.287	5.9	0.1	1982.1
90622	15.336	5.95	0.1	1962.9
90623	15.187	5.9	0.1	2007.2
90624	15.237	5.95	0.1	1988.1
90625	15.088	5.9	0.1	2032.4
90626	15.137	5.95	0.1	2013.4
90627	14.988	5.9	0.1	2057.6
90628	15.038	5.95	0.1	2038.7
90629	14.888	5.9	0.1	2082.9
90630	14.938	5.95	0.1	2064.
90631	14.789	5.9	0.1	2108.2
90632	14.839	5.95	0.1	2089.5
90633	14.689	5.9	0.1	2133.6
90634	14.739	5.95	0.1	2114.9
90635	14.59	5.9	0.1	2159.
90636	14.639	5.95	0.1	2140.5
90637	14.49	5.9	0.1	2184.5
90638	14.54	5.95	0.1	2166.
90639	14.39	5.9	0.1	2210.
90640	14.44	5.95	0.1	2191.7
90641	14.291	5.9	0.1	2235.6
90642	14.341	5.95	0.1	2217.3
90643	14.191	5.9	0.1	2261.2
90644	14.241	5.95	0.1	2243.
90645	14.092	5.9	0.1	2286.8
90646	14.142	5.95	0.1	2268.8
90647	13.992	5.9	0.1	2312.4
90648	14.042	5.95	0.1	2294.5
90649	13.893	5.9	0.1	2338.1
90650	13.942	5.95	0.1	2320.3
90651	13.793	5.9	0.1	2363.8
90652	13.843	5.95	0.1	2346.2
90653	13.693	5.9	0.1	2389.5
90654	13.743	5.95	0.1	2372.
90655	13.594	5.9	0.1	2415.2
90656	13.644	5.95	0.1	2397.8
90657	13.494	5.9	0.1	2440.9
90658	13.544	5.95	0.1	2423.6
90659	13.395	5.9	0.1	2466.6
90660	13.444	5.95	0.1	2449.4
90661	13.295	5.9	0.1	2492.2
90662	13.345	5.95	0.1	2475.2
90663	13.195	5.9	0.1	2517.8
90664	13.245	5.95	0.1	2500.9
90665	13.096	5.9	0.1	2543.2
90666	13.146	5.95	0.1	2526.5
90667	12.996	5.9	0.1	2568.6
90668	13.046	5.95	0.1	2552.1
90669	12.897	5.9	0.1	2593.9
90670	12.947	5.95	0.1	2577.5
90671	12.797	5.9	0.1	2619.
90672	12.847	5.95	0.1	2602.8
90673	12.698	5.9	0.1	2643.9
90674	12.747	5.95	0.1	2627.9
90675	12.598	5.9	0.1	2668.6
90676	12.648	5.95	0.1	2652.8
90677	12.498	5.9	0.1	2693.
90678	12.548	5.95	0.1	2677.5
90679	12.399	5.9	0.1	2717.2
90680	12.449	5.95	0.1	2701.8
90681	12.299	5.9	0.1	2740.9
90682	12.349	5.95	0.1	2725.9
90683	12.2	5.9	0.1	2764.2
90684	12.249	5.95	0.1	2749.5
90685	12.1	5.9	0.1	2787.
90686	12.15	5.95	0.1	2772.6
90687	12.001	5.9	0.1	2809.2
90688	12.05	5.95	0.1	2795.2
90689	11.901	5.9	0.1	2830.8
90690	11.951	5.95	0.1	2817.1
90691	11.801	5.9	0.1	2851.6
90692	11.851	5.95	0.1	2838.3
90693	11.702	5.9	0.1	2871.4
90694	11.752	5.95	0.1	2858.6
90695	11.602	5.9	0.1	2890.3
90696	11.652	5.95	0.1	2878.
90697	11.503	5.9	0.1	2907.9
90698	11.552	5.95	0.1	2896.2
90699	11.403	5.9	0.1	2924.2
90700	11.453	5.95	0.1	2913.2
90701	11.303	5.9	0.1	2939.
90702	11.353	5.95	0.1	2928.7
90703	11.204	5.9	0.1	2952.
90704	11.254	5.95	0.1	2942.5
90705	11.104	5.9	0.1	2963.1
90706	11.154	5.95	0.1	2954.4
90707	11.005	5.9	0.1	2971.8
90708	11.055	5.95	0.1	2964.2
90709	10.905	5.9	0.1	2978.
90710	10.955	5.95	0.1	2971.5
90711	10.806	5.9	0.1	2981.4
90712	10.855	5.95	0.1	2976.1
90713	10.706	5.9	0.1	2981.4
90714	10.756	5.95	0.1	2977.5
90715	10.606	5.9	0.1	2977.8
90716	10.656	5.95	0.1	2975.4
90717	10.507	5.9	0.1	2970.1
90718	10.557	5.95	0.1	2969.4
90719	10.407	5.9	0.1	2957.7
90720	10.457	5.95	0.1	2958.9
90721	10.308	5.9	0.1	2940.2
90722	10.357	5.95	0.1	2943.4
90723	10.208	5.9	0.1	2917.
90724	10.258	5.95	0.1	2922.3
90725	10.108	5.9	0.1	2887.3
90726	10.158	5.95	0.1	2895.
90727	10.009	5.9	0.1	2850.5
90728	10.059	5.95	0.1	2860.9
90729	9.9093	5.9	0.1	2805.9
90730	9.9591	5.95	0.1	2819.
90731	9.8097	5.9	0.1	2752.7
90732	9.8595	5.95	0.1	2768.8
90733	9.7102	5.9	0.1	2690.
90734	9.76	5.95	0.1	2709.3
90735	9.6106	5.9	0.1	2617.2
90736	9.6604	5.95	0.1	2639.7
90737	9.511	5.9	0.1	2533.3
90738	9.5608	5.95	0.1	2559.2
90739	9.4114	5.9	0.1	2437.6
90740	9.4612	5.95	0.1	2466.9
90741	9.3118	5.9	0.1	2329.3
90742	9.3616	5.95	0.1	2361.9
90743	9.2123	5.9	0.1	2207.7
90744	9.2621	5.95	0.1	2243.7
90745	9.1127	5.9	0.1	2072.4
90746	9.1625	5.95	0.1	2111.5
90747	9.0131	5.9	0.1	1922.8
90748	9.0629	5.95	0.1	1964.9
90749	8.9135	5.9	0.1	1758.8
90750	8.9633	5.95	0.1	1803.5
90751	8.8139	5.9	0.1	1580.4
90752	8.8637	5.95	0.1	1627.3
90753	8.7144	5.9	0.1	1387.6
90754	8.7642	5.95	0.1	1436.4
90755	8.6148	5.9	0.1	1181.1
90756	8.6646	5.95	0.1	1231.2
90757	8.5152	5.9	0.1	961.48
90758	8.565	5.95	0.1	1012.2
90759	8.4156	5.9	0.1	730.13
90760	8.4654	5.95	0.1	779.92
90761	8.316	5.9	0.1	496.04
90762	8.3658	5.95	0.1	534.26
90763	8.2165	5.9	0.1	252.19
90764	8.2662	5.95	0.1	284.
90765	8.0833	3.85	0.1	16123
90766	8.125	3.9	0.1	17044
90767	8.0417	3.9	0.1	17173
90768	8.0833	3.95	0.1	20106
90769	8.0833	3.75	0.1	13340
90770	8.125	3.8	0.1	14015
90771	8.0417	3.8	0.1	14017
90772	8.0833	3.65	0.1	11729
90773	8.125	3.7	0.1	12178
90774	8.0417	3.7	0.1	12184
90775	8.0833	3.55	0.1	10689
90776	8.125	3.6	0.1	10996
90777	8.0417	3.6	0.1	11007
90778	8.0833	3.45	0.1	10004
90779	8.125	3.5	0.1	10211
90780	8.0417	3.5	0.1	10226
90781	8.0833	3.35	0.1	9542.6
90782	8.125	3.4	0.1	9677.6
90783	8.0417	3.4	0.1	9695.2
90784	8.0833	3.25	0.1	9237.6
90785	8.125	3.3	0.1	9316.5
90786	8.0417	3.3	0.1	9335.9
90787	8.0833	3.15	0.1	9050.9
90788	8.125	3.2	0.1	9082.9
90789	8.0417	3.2	0.1	9103.4
90790	8.0833	3.05	0.1	8962.1
90791	8.125	3.1	0.1	8951.3
90792	8.0417	3.1	0.1	8972.5
90793	8.0833	2.95	0.1	8962.1
90794	8.125	3.	0.1	8908.8
90795	8.0417	3.	0.1	8930.1
90796	8.0833	2.85	0.1	9050.9
90797	8.125	2.9	0.1	8951.3
90798	8.0417	2.9	0.1	8972.5
90799	8.0833	2.75	0.1	9237.6
90800	8.125	2.8	0.1	9082.9
90801	8.0417	2.8	0.1	9103.4
90802	8.0833	2.65	0.1	9542.6
90803	8.125	2.7	0.1	9316.5
90804	8.0417	2.7	0.1	9335.9
90805	8.0833	2.55	0.1	10004
90806	8.125	2.6	0.1	9677.6
90807	8.0417	2.6	0.1	9695.2
90808	8.0833	2.45	0.1	10689
90809	8.125	2.5	0.1	10211
90810	8.0417	2.5	0.1	10226
90811	8.0833	2.35	0.1	11729
90812	8.125	2.4	0.1	10996
90813	8.0417	2.4	0.1	11007
90814	8.0833	2.25	0.1	13340
90815	8.125	2.3	0.1	12178
90816	8.0417	2.3	0.1	12184
90817	8.0833	2.15	0.1	16123
90818	8.125	2.2	0.1	14015
90819	8.0417	2.2	0.1	14017
90820	8.125	2.1	0.1	17044
90821	8.0417	2.1	0.1	17173
90822	8.0833	2.05	0.1	20106
90823	0.1	0.15	0.1	2994.2
90824	0.15	0.1	0.1	3364.
90825	5.e-002	0.1	0.1	1837.2
90826	0.1	5.e-002	0.1	2502.4
90827	0.1	0.25	0.1	3630.7
90828	0.15	0.2	0.1	3711.4
90829	5.e-002	0.2	0.1	3012.8
90830	0.1	0.35	0.1	4298.8
90831	0.15	0.3	0.1	4218.7
90832	5.e-002	0.3	0.1	3979.9
90833	0.1	0.45	0.1	4857.7
90834	0.15	0.4	0.1	4703.
90835	5.e-002	0.4	0.1	4705.1
90836	0.1	0.55	0.1	5308.3
90837	0.15	0.5	0.1	5128.
90838	5.e-002	0.5	0.1	5248.2
90839	0.1	0.65	0.1	5670.7
90840	0.15	0.6	0.1	5488.
90841	5.e-002	0.6	0.1	5666.
90842	0.1	0.75	0.1	5965.2
90843	0.15	0.7	0.1	5790.1
90844	5.e-002	0.7	0.1	5995.9
90845	0.1	0.85	0.1	6207.8
90846	0.15	0.8	0.1	6043.9
90847	5.e-002	0.8	0.1	6262.2
90848	0.1	0.95	0.1	6410.
90849	0.15	0.9	0.1	6258.2
90850	5.e-002	0.9	0.1	6481.1
90851	0.1	1.05	0.1	6580.4
90852	0.15	1.	0.1	6440.3
90853	5.e-002	1.	0.1	6663.6
90854	0.1	1.15	0.1	6725.3
90855	0.15	1.1	0.1	6596.
90856	5.e-002	1.1	0.1	6817.5
90857	0.1	1.25	0.1	6849.4
90858	0.15	1.2	0.1	6730.
90859	5.e-002	1.2	0.1	6948.5
90860	0.1	1.35	0.1	6956.3
90861	0.15	1.3	0.1	6845.7
90862	5.e-002	1.3	0.1	7060.7
90863	0.1	1.45	0.1	7048.7
90864	0.15	1.4	0.1	6946.2
90865	5.e-002	1.4	0.1	7157.4
90866	0.1	1.55	0.1	7129.1
90867	0.15	1.5	0.1	7033.7
90868	5.e-002	1.5	0.1	7241.1
90869	0.1	1.65	0.1	7198.9
90870	0.15	1.6	0.1	7110.1
90871	5.e-002	1.6	0.1	7313.8
90872	0.1	1.75	0.1	7259.8
90873	0.15	1.7	0.1	7176.7
90874	5.e-002	1.7	0.1	7377.
90875	0.1	1.85	0.1	7312.9
90876	0.15	1.8	0.1	7235.
90877	5.e-002	1.8	0.1	7432.
90878	0.1	1.95	0.1	7359.
90879	0.15	1.9	0.1	7285.8
90880	5.e-002	1.9	0.1	7479.8
90881	0.1	2.05	0.1	7399.1
90882	0.15	2.	0.1	7330.
90883	5.e-002	2.	0.1	7521.4
90884	0.1	2.15	0.1	7433.6
90885	0.15	2.1	0.1	7368.3
90886	5.e-002	2.1	0.1	7557.3
90887	0.1	2.25	0.1	7463.2
90888	0.15	2.2	0.1	7401.3
90889	5.e-002	2.2	0.1	7588.2
90890	0.1	2.35	0.1	7488.2
90891	0.15	2.3	0.1	7429.5
90892	5.e-002	2.3	0.1	7614.4
90893	0.1	2.45	0.1	7509.1
90894	0.15	2.4	0.1	7453.2
90895	5.e-002	2.4	0.1	7636.5
90896	0.1	2.55	0.1	7526.1
90897	0.15	2.5	0.1	7472.8
90898	5.e-002	2.5	0.1	7654.7
90899	0.1	2.65	0.1	7539.4
90900	0.15	2.6	0.1	7488.4
90901	5.e-002	2.6	0.1	7669.3
90902	0.1	2.75	0.1	7549.3
90903	0.15	2.7	0.1	7500.4
90904	5.e-002	2.7	0.1	7680.4
90905	0.1	2.85	0.1	7555.8
90906	0.15	2.8	0.1	7508.9
90907	5.e-002	2.8	0.1	7688.3
90908	0.1	2.95	0.1	7559.
90909	0.15	2.9	0.1	7513.9
90910	5.e-002	2.9	0.1	7693.
90911	0.1	3.05	0.1	7559.
90912	0.15	3.	0.1	7515.6
90913	5.e-002	3.	0.1	7694.5
90914	0.1	3.15	0.1	7555.8
90915	0.15	3.1	0.1	7513.9
90916	5.e-002	3.1	0.1	7693.
90917	0.1	3.25	0.1	7549.3
90918	0.15	3.2	0.1	7508.9
90919	5.e-002	3.2	0.1	7688.3
90920	0.1	3.35	0.1	7539.4
90921	0.15	3.3	0.1	7500.4
90922	5.e-002	3.3	0.1	7680.4
90923	0.1	3.45	0.1	7526.1
90924	0.15	3.4	0.1	7488.4
90925	5.e-002	3.4	0.1	7669.3
90926	0.1	3.55	0.1	7509.1
90927	0.15	3.5	0.1	7472.8
90928	5.e-002	3.5	0.1	7654.7
90929	0.1	3.65	0.1	7488.2
90930	0.15	3.6	0.1	7453.2
90931	5.e-002	3.6	0.1	7636.5
90932	0.1	3.75	0.1	7463.2
90933	0.15	3.7	0.1	7429.5
90934	5.e-002	3.7	0.1	7614.4
90935	0.1	3.85	0.1	7433.6
90936	0.15	3.8	0.1	7401.3
90937	5.e-002	3.8	0.1	7588.2
90938	0.1	3.95	0.1	7399.1
90939	0.15	3.9	0.1	7368.3
90940	5.e-002	3.9	0.1	7557.3
90941	0.1	4.05	0.1	7359.
90942	0.15	4.	0.1	7330.
90943	5.e-002	4.	0.1	7521.4
90944	0.1	4.15	0.1	7312.9
90945	0.15	4.1	0.1	7285.8
90946	5.e-002	4.1	0.1	7479.8
90947	0.1	4.25	0.1	7259.8
90948	0.15	4.2	0.1	7235.
90949	5.e-002	4.2	0.1	7432.
90950	0.1	4.35	0.1	7198.9
90951	0.15	4.3	0.1	7176.7
90952	5.e-002	4.3	0.1	7377.
90953	0.1	4.45	0.1	7129.1
90954	0.15	4.4	0.1	7110.1
90955	5.e-002	4.4	0.1	7313.8
90956	0.1	4.55	0.1	7048.7
90957	0.15	4.5	0.1	7033.7
90958	5.e-002	4.5	0.1	7241.1
90959	0.1	4.65	0.1	6956.3
90960	0.15	4.6	0.1	6946.2
90961	5.e-002	4.6	0.1	7157.4
90962	0.1	4.75	0.1	6849.4
90963	0.15	4.7	0.1	6845.7
90964	5.e-002	4.7	0.1	7060.7
90965	0.1	4.85	0.1	6725.3
90966	0.15	4.8	0.1	6730.
90967	5.e-002	4.8	0.1	6948.5
90968	0.1	4.95	0.1	6580.4
90969	0.15	4.9	0.1	6596.
90970	5.e-002	4.9	0.1	6817.5
90971	0.1	5.05	0.1	6410.
90972	0.15	5.	0.1	6440.3
90973	5.e-002	5.	0.1	6663.6
90974	0.1	5.15	0.1	6207.8
90975	0.15	5.1	0.1	6258.2
90976	5.e-002	5.1	0.1	6481.1
90977	0.1	5.25	0.1	5965.2
90978	0.15	5.2	0.1	6043.9
90979	5.e-002	5.2	0.1	6262.2
90980	0.1	5.35	0.1	5670.7
90981	0.15	5.3	0.1	5790.1
90982	5.e-002	5.3	0.1	5995.9
90983	0.1	5.45	0.1	5308.3
90984	0.15	5.4	0.1	5488.
90985	5.e-002	5.4	0.1	5666.
90986	0.1	5.55	0.1	4857.7
90987	0.15	5.5	0.1	5128.
90988	5.e-002	5.5	0.1	5248.2
90989	0.1	5.65	0.1	4298.8
90990	0.15	5.6	0.1	4703.
90991	5.e-002	5.6	0.1	4705.1
90992	0.1	5.75	0.1	3630.7
90993	0.15	5.7	0.1	4218.7
90994	5.e-002	5.7	0.1	3979.9
90995	0.1	5.85	0.1	2994.2
90996	0.15	5.8	0.1	3711.4
90997	5.e-002	5.8	0.1	3012.8
90998	0.15	5.9	0.1	3364.
90999	5.e-002	5.9	0.1	1837.2
91000	0.1	5.95	0.1	2502.4
91001	0.2	0.15	0.1	4065.2
91002	0.25	0.1	0.1	4333.4
91003	0.2	5.e-002	0.1	3722.6
91004	0.2	0.25	0.1	4298.
91005	0.25	0.2	0.1	4425.
91006	0.2	0.35	0.1	4631.6
91007	0.25	0.3	0.1	4653.6
91008	0.2	0.45	0.1	4983.8
91009	0.25	0.4	0.1	4928.4
91010	0.2	0.55	0.1	5316.3
91011	0.25	0.5	0.1	5211.6
91012	0.2	0.65	0.1	5613.8
91013	0.25	0.6	0.1	5481.6
91014	0.2	0.75	0.1	5873.3
91015	0.25	0.7	0.1	5728.
91016	0.2	0.85	0.1	6097.4
91017	0.25	0.8	0.1	5947.7
91018	0.2	0.95	0.1	6290.6
91019	0.25	0.9	0.1	6141.5
91020	0.2	1.05	0.1	6457.4
91021	0.25	1.	0.1	6311.4
91022	0.2	1.15	0.1	6601.8
91023	0.25	1.1	0.1	6460.4
91024	0.2	1.25	0.1	6727.2
91025	0.25	1.2	0.1	6590.9
91026	0.2	1.35	0.1	6836.4
91027	0.25	1.3	0.1	6705.3
91028	0.2	1.45	0.1	6931.7
91029	0.25	1.4	0.1	6805.9
91030	0.2	1.55	0.1	7015.1
91031	0.25	1.5	0.1	6894.2
91032	0.2	1.65	0.1	7088.1
91033	0.25	1.6	0.1	6971.9
91034	0.2	1.75	0.1	7152.1
91035	0.25	1.7	0.1	7040.2
91036	0.2	1.85	0.1	7208.
91037	0.25	1.8	0.1	7100.2
91038	0.2	1.95	0.1	7256.9
91039	0.25	1.9	0.1	7152.9
91040	0.2	2.05	0.1	7299.4
91041	0.25	2.	0.1	7198.8
91042	0.2	2.15	0.1	7336.2
91043	0.25	2.1	0.1	7238.8
91044	0.2	2.25	0.1	7367.7
91045	0.25	2.2	0.1	7273.4
91046	0.2	2.35	0.1	7394.5
91047	0.25	2.3	0.1	7302.9
91048	0.2	2.45	0.1	7416.9
91049	0.25	2.4	0.1	7327.8
91050	0.2	2.55	0.1	7435.1
91051	0.25	2.5	0.1	7348.4
91052	0.2	2.65	0.1	7449.4
91053	0.25	2.6	0.1	7365.
91054	0.2	2.75	0.1	7460.
91055	0.25	2.7	0.1	7377.6
91056	0.2	2.85	0.1	7467.
91057	0.25	2.8	0.1	7386.6
91058	0.2	2.95	0.1	7470.5
91059	0.25	2.9	0.1	7391.9
91060	0.2	3.05	0.1	7470.5
91061	0.25	3.	0.1	7393.7
91062	0.2	3.15	0.1	7467.
91063	0.25	3.1	0.1	7391.9
91064	0.2	3.25	0.1	7460.
91065	0.25	3.2	0.1	7386.6
91066	0.2	3.35	0.1	7449.4
91067	0.25	3.3	0.1	7377.6
91068	0.2	3.45	0.1	7435.1
91069	0.25	3.4	0.1	7365.
91070	0.2	3.55	0.1	7416.9
91071	0.25	3.5	0.1	7348.4
91072	0.2	3.65	0.1	7394.5
91073	0.25	3.6	0.1	7327.8
91074	0.2	3.75	0.1	7367.7
91075	0.25	3.7	0.1	7302.9
91076	0.2	3.85	0.1	7336.2
91077	0.25	3.8	0.1	7273.4
91078	0.2	3.95	0.1	7299.4
91079	0.25	3.9	0.1	7238.8
91080	0.2	4.05	0.1	7256.9
91081	0.25	4.	0.1	7198.8
91082	0.2	4.15	0.1	7208.
91083	0.25	4.1	0.1	7152.9
91084	0.2	4.25	0.1	7152.1
91085	0.25	4.2	0.1	7100.2
91086	0.2	4.35	0.1	7088.1
91087	0.25	4.3	0.1	7040.2
91088	0.2	4.45	0.1	7015.1
91089	0.25	4.4	0.1	6971.9
91090	0.2	4.55	0.1	6931.7
91091	0.25	4.5	0.1	6894.2
91092	0.2	4.65	0.1	6836.4
91093	0.25	4.6	0.1	6805.9
91094	0.2	4.75	0.1	6727.2
91095	0.25	4.7	0.1	6705.3
91096	0.2	4.85	0.1	6601.8
91097	0.25	4.8	0.1	6590.9
91098	0.2	4.95	0.1	6457.4
91099	0.25	4.9	0.1	6460.4
91100	0.2	5.05	0.1	6290.6
91101	0.25	5.	0.1	6311.4
91102	0.2	5.15	0.1	6097.4
91103	0.25	5.1	0.1	6141.5
91104	0.2	5.25	0.1	5873.3
91105	0.25	5.2	0.1	5947.7
91106	0.2	5.35	0.1	5613.8
91107	0.25	5.3	0.1	5728.
91108	0.2	5.45	0.1	5316.3
91109	0.25	5.4	0.1	5481.6
91110	0.2	5.55	0.1	4983.8
91111	0.25	5.5	0.1	5211.6
91112	0.2	5.65	0.1	4631.6
91113	0.25	5.6	0.1	4928.4
91114	0.2	5.75	0.1	4298.
91115	0.25	5.7	0.1	4653.6
91116	0.2	5.85	0.1	4065.2
91117	0.25	5.8	0.1	4425.
91118	0.25	5.9	0.1	4333.4
91119	0.2	5.95	0.1	3722.6
91120	0.3	0.15	0.1	4691.8
91121	0.35	0.1	0.1	4901.6
91122	0.3	5.e-002	0.1	4441.7
91123	0.3	0.25	0.1	4777.2
91124	0.35	0.2	0.1	4905.5
91125	0.3	0.35	0.1	4947.
91126	0.35	0.3	0.1	5012.
91127	0.3	0.45	0.1	5154.8
91128	0.35	0.4	0.1	5163.7
91129	0.3	0.55	0.1	5377.1
91130	0.35	0.5	0.1	5341.3
91131	0.3	0.65	0.1	5596.8
91132	0.35	0.6	0.1	5528.8
91133	0.3	0.75	0.1	5803.7
91134	0.35	0.7	0.1	5714.6
91135	0.3	0.85	0.1	5993.
91136	0.35	0.8	0.1	5891.1
91137	0.3	0.95	0.1	6163.3
91138	0.35	0.9	0.1	6054.6
91139	0.3	1.05	0.1	6315.2
91140	0.35	1.	0.1	6203.7
91141	0.3	1.15	0.1	6450.1
91142	0.35	1.1	0.1	6338.3
91143	0.3	1.25	0.1	6569.5
91144	0.35	1.2	0.1	6459.1
91145	0.3	1.35	0.1	6675.2
91146	0.35	1.3	0.1	6567.
91147	0.3	1.45	0.1	6768.6
91148	0.35	1.4	0.1	6663.3
91149	0.3	1.55	0.1	6851.2
91150	0.35	1.5	0.1	6749.
91151	0.3	1.65	0.1	6924.2
91152	0.35	1.6	0.1	6825.2
91153	0.3	1.75	0.1	6988.5
91154	0.35	1.7	0.1	6892.7
91155	0.3	1.85	0.1	7045.2
91156	0.35	1.8	0.1	6952.5
91157	0.3	1.95	0.1	7094.9
91158	0.35	1.9	0.1	7005.3
91159	0.3	2.05	0.1	7138.4
91160	0.35	2.	0.1	7051.6
91161	0.3	2.15	0.1	7176.1
91162	0.35	2.1	0.1	7092.1
91163	0.3	2.25	0.1	7208.6
91164	0.35	2.2	0.1	7127.2
91165	0.3	2.35	0.1	7236.3
91166	0.35	2.3	0.1	7157.3
91167	0.3	2.45	0.1	7259.4
91168	0.35	2.4	0.1	7182.8
91169	0.3	2.55	0.1	7278.3
91170	0.35	2.5	0.1	7203.9
91171	0.3	2.65	0.1	7293.2
91172	0.35	2.6	0.1	7220.9
91173	0.3	2.75	0.1	7304.2
91174	0.35	2.7	0.1	7233.9
91175	0.3	2.85	0.1	7311.4
91176	0.35	2.8	0.1	7243.1
91177	0.3	2.95	0.1	7315.1
91178	0.35	2.9	0.1	7248.6
91179	0.3	3.05	0.1	7315.1
91180	0.35	3.	0.1	7250.4
91181	0.3	3.15	0.1	7311.4
91182	0.35	3.1	0.1	7248.6
91183	0.3	3.25	0.1	7304.2
91184	0.35	3.2	0.1	7243.1
91185	0.3	3.35	0.1	7293.2
91186	0.35	3.3	0.1	7233.9
91187	0.3	3.45	0.1	7278.3
91188	0.35	3.4	0.1	7220.9
91189	0.3	3.55	0.1	7259.4
91190	0.35	3.5	0.1	7203.9
91191	0.3	3.65	0.1	7236.3
91192	0.35	3.6	0.1	7182.8
91193	0.3	3.75	0.1	7208.6
91194	0.35	3.7	0.1	7157.3
91195	0.3	3.85	0.1	7176.1
91196	0.35	3.8	0.1	7127.2
91197	0.3	3.95	0.1	7138.4
91198	0.35	3.9	0.1	7092.1
91199	0.3	4.05	0.1	7094.9
91200	0.35	4.	0.1	7051.6
91201	0.3	4.15	0.1	7045.2
91202	0.35	4.1	0.1	7005.3
91203	0.3	4.25	0.1	6988.5
91204	0.35	4.2	0.1	6952.5
91205	0.3	4.35	0.1	6924.2
91206	0.35	4.3	0.1	6892.7
91207	0.3	4.45	0.1	6851.2
91208	0.35	4.4	0.1	6825.2
91209	0.3	4.55	0.1	6768.6
91210	0.35	4.5	0.1	6749.
91211	0.3	4.65	0.1	6675.2
91212	0.35	4.6	0.1	6663.3
91213	0.3	4.75	0.1	6569.5
91214	0.35	4.7	0.1	6567.
91215	0.3	4.85	0.1	6450.1
91216	0.35	4.8	0.1	6459.1
91217	0.3	4.95	0.1	6315.2
91218	0.35	4.9	0.1	6338.3
91219	0.3	5.05	0.1	6163.3
91220	0.35	5.	0.1	6203.7
91221	0.3	5.15	0.1	5992.9
91222	0.35	5.1	0.1	6054.6
91223	0.3	5.25	0.1	5803.7
91224	0.35	5.2	0.1	5891.1
91225	0.3	5.35	0.1	5596.8
91226	0.35	5.3	0.1	5714.6
91227	0.3	5.45	0.1	5377.1
91228	0.35	5.4	0.1	5528.8
91229	0.3	5.55	0.1	5154.8
91230	0.35	5.5	0.1	5341.3
91231	0.3	5.65	0.1	4947.
91232	0.35	5.6	0.1	5163.7
91233	0.3	5.75	0.1	4777.2
91234	0.35	5.7	0.1	5012.
91235	0.3	5.85	0.1	4691.8
91236	0.35	5.8	0.1	4905.5
91237	0.35	5.9	0.1	4901.5
91238	0.3	5.95	0.1	4441.7
91239	0.4	0.15	0.1	5115.1
91240	0.45	0.1	0.1	5274.9
91241	0.4	5.e-002	0.1	4912.2
91242	0.4	0.25	0.1	5139.4
91243	0.45	0.2	0.1	5246.1
91244	0.4	0.35	0.1	5227.
91245	0.45	0.3	0.1	5294.1
91246	0.4	0.45	0.1	5348.6
91247	0.45	0.4	0.1	5377.5
91248	0.4	0.55	0.1	5492.1
91249	0.45	0.5	0.1	5486.5
91250	0.4	0.65	0.1	5646.4
91251	0.45	0.6	0.1	5612.2
91252	0.4	0.75	0.1	5802.3
91253	0.45	0.7	0.1	5746.
91254	0.4	0.85	0.1	5953.3
91255	0.45	0.8	0.1	5881.2
91256	0.4	0.95	0.1	6095.7
91257	0.45	0.9	0.1	6012.7
91258	0.4	1.05	0.1	6227.4
91259	0.45	1.	0.1	6137.6
91260	0.4	1.15	0.1	6347.8
91261	0.45	1.1	0.1	6254.1
91262	0.4	1.25	0.1	6457.
91263	0.45	1.2	0.1	6361.5
91264	0.4	1.35	0.1	6555.5
91265	0.45	1.3	0.1	6459.6
91266	0.4	1.45	0.1	6643.9
91267	0.45	1.4	0.1	6548.7
91268	0.4	1.55	0.1	6723.2
91269	0.45	1.5	0.1	6629.2
91270	0.4	1.65	0.1	6793.9
91271	0.45	1.6	0.1	6701.7
91272	0.4	1.75	0.1	6856.9
91273	0.45	1.7	0.1	6766.6
91274	0.4	1.85	0.1	6912.7
91275	0.45	1.8	0.1	6824.6
91276	0.4	1.95	0.1	6962.1
91277	0.45	1.9	0.1	6876.2
91278	0.4	2.05	0.1	7005.4
91279	0.45	2.	0.1	6921.8
91280	0.4	2.15	0.1	7043.3
91281	0.45	2.1	0.1	6961.8
91282	0.4	2.25	0.1	7076.
91283	0.45	2.2	0.1	6996.7
91284	0.4	2.35	0.1	7103.9
91285	0.45	2.3	0.1	7026.8
91286	0.4	2.45	0.1	7127.4
91287	0.45	2.4	0.1	7052.3
91288	0.4	2.55	0.1	7146.6
91289	0.45	2.5	0.1	7073.5
91290	0.4	2.65	0.1	7161.7
91291	0.45	2.6	0.1	7090.6
91292	0.4	2.75	0.1	7172.9
91293	0.45	2.7	0.1	7103.7
91294	0.4	2.85	0.1	7180.3
91295	0.45	2.8	0.1	7113.
91296	0.4	2.95	0.1	7184.
91297	0.45	2.9	0.1	7118.5
91298	0.4	3.05	0.1	7184.
91299	0.45	3.	0.1	7120.3
91300	0.4	3.15	0.1	7180.3
91301	0.45	3.1	0.1	7118.5
91302	0.4	3.25	0.1	7172.9
91303	0.45	3.2	0.1	7113.
91304	0.4	3.35	0.1	7161.7
91305	0.45	3.3	0.1	7103.7
91306	0.4	3.45	0.1	7146.6
91307	0.45	3.4	0.1	7090.6
91308	0.4	3.55	0.1	7127.4
91309	0.45	3.5	0.1	7073.5
91310	0.4	3.65	0.1	7103.9
91311	0.45	3.6	0.1	7052.3
91312	0.4	3.75	0.1	7076.
91313	0.45	3.7	0.1	7026.8
91314	0.4	3.85	0.1	7043.3
91315	0.45	3.8	0.1	6996.7
91316	0.4	3.95	0.1	7005.4
91317	0.45	3.9	0.1	6961.8
91318	0.4	4.05	0.1	6962.1
91319	0.45	4.	0.1	6921.8
91320	0.4	4.15	0.1	6912.7
91321	0.45	4.1	0.1	6876.2
91322	0.4	4.25	0.1	6856.9
91323	0.45	4.2	0.1	6824.6
91324	0.4	4.35	0.1	6793.9
91325	0.45	4.3	0.1	6766.6
91326	0.4	4.45	0.1	6723.2
91327	0.45	4.4	0.1	6701.7
91328	0.4	4.55	0.1	6643.9
91329	0.45	4.5	0.1	6629.2
91330	0.4	4.65	0.1	6555.5
91331	0.45	4.6	0.1	6548.7
91332	0.4	4.75	0.1	6457.
91333	0.45	4.7	0.1	6459.6
91334	0.4	4.85	0.1	6347.8
91335	0.45	4.8	0.1	6361.5
91336	0.4	4.95	0.1	6227.4
91337	0.45	4.9	0.1	6254.1
91338	0.4	5.05	0.1	6095.7
91339	0.45	5.	0.1	6137.6
91340	0.4	5.15	0.1	5953.3
91341	0.45	5.1	0.1	6012.7
91342	0.4	5.25	0.1	5802.3
91343	0.45	5.2	0.1	5881.1
91344	0.4	5.35	0.1	5646.4
91345	0.45	5.3	0.1	5746.
91346	0.4	5.45	0.1	5492.1
91347	0.45	5.4	0.1	5612.2
91348	0.4	5.55	0.1	5348.6
91349	0.45	5.5	0.1	5486.5
91350	0.4	5.65	0.1	5227.
91351	0.45	5.6	0.1	5377.5
91352	0.4	5.75	0.1	5139.4
91353	0.45	5.7	0.1	5294.1
91354	0.4	5.85	0.1	5115.1
91355	0.45	5.8	0.1	5246.
91356	0.45	5.9	0.1	5274.9
91357	0.4	5.95	0.1	4912.2
91358	0.5	0.15	0.1	5406.2
91359	0.55	0.1	0.1	5531.3
91360	0.5	5.e-002	0.1	5236.7
91361	0.5	0.25	0.1	5400.9
91362	0.55	0.2	0.1	5488.4
91363	0.5	0.35	0.1	5444.1
91364	0.55	0.3	0.1	5505.9
91365	0.5	0.45	0.1	5514.4
91366	0.55	0.4	0.1	5550.
91367	0.5	0.55	0.1	5605.5
91368	0.55	0.5	0.1	5615.7
91369	0.5	0.65	0.1	5711.
91370	0.55	0.6	0.1	5698.
91371	0.5	0.75	0.1	5824.4
91372	0.55	0.7	0.1	5791.8
91373	0.5	0.85	0.1	5940.4
91374	0.55	0.8	0.1	5892.
91375	0.5	0.95	0.1	6054.7
91376	0.55	0.9	0.1	5994.3
91377	0.5	1.05	0.1	6164.5
91378	0.55	1.	0.1	6095.3
91379	0.5	1.15	0.1	6268.
91380	0.55	1.1	0.1	6192.7
91381	0.5	1.25	0.1	6364.4
91382	0.55	1.2	0.1	6285.1
91383	0.5	1.35	0.1	6453.1
91384	0.55	1.3	0.1	6371.4
91385	0.5	1.45	0.1	6534.2
91386	0.55	1.4	0.1	6451.4
91387	0.5	1.55	0.1	6607.9
91388	0.55	1.5	0.1	6524.9
91389	0.5	1.65	0.1	6674.6
91390	0.55	1.6	0.1	6592.
91391	0.5	1.75	0.1	6734.5
91392	0.55	1.7	0.1	6652.8
91393	0.5	1.85	0.1	6788.2
91394	0.55	1.8	0.1	6707.7
91395	0.5	1.95	0.1	6836.
91396	0.55	1.9	0.1	6756.9
91397	0.5	2.05	0.1	6878.2
91398	0.55	2.	0.1	6800.8
91399	0.5	2.15	0.1	6915.3
91400	0.55	2.1	0.1	6839.5
91401	0.5	2.25	0.1	6947.5
91402	0.55	2.2	0.1	6873.4
91403	0.5	2.35	0.1	6975.1
91404	0.55	2.3	0.1	6902.8
91405	0.5	2.45	0.1	6998.4
91406	0.55	2.4	0.1	6927.8
91407	0.5	2.55	0.1	7017.5
91408	0.55	2.5	0.1	6948.7
91409	0.5	2.65	0.1	7032.5
91410	0.55	2.6	0.1	6965.5
91411	0.5	2.75	0.1	7043.7
91412	0.55	2.7	0.1	6978.5
91413	0.5	2.85	0.1	7051.1
91414	0.55	2.8	0.1	6987.7
91415	0.5	2.95	0.1	7054.8
91416	0.55	2.9	0.1	6993.2
91417	0.5	3.05	0.1	7054.8
91418	0.55	3.	0.1	6995.
91419	0.5	3.15	0.1	7051.1
91420	0.55	3.1	0.1	6993.2
91421	0.5	3.25	0.1	7043.7
91422	0.55	3.2	0.1	6987.7
91423	0.5	3.35	0.1	7032.5
91424	0.55	3.3	0.1	6978.5
91425	0.5	3.45	0.1	7017.5
91426	0.55	3.4	0.1	6965.5
91427	0.5	3.55	0.1	6998.4
91428	0.55	3.5	0.1	6948.7
91429	0.5	3.65	0.1	6975.1
91430	0.55	3.6	0.1	6927.8
91431	0.5	3.75	0.1	6947.5
91432	0.55	3.7	0.1	6902.8
91433	0.5	3.85	0.1	6915.3
91434	0.55	3.8	0.1	6873.4
91435	0.5	3.95	0.1	6878.2
91436	0.55	3.9	0.1	6839.5
91437	0.5	4.05	0.1	6836.
91438	0.55	4.	0.1	6800.8
91439	0.5	4.15	0.1	6788.2
91440	0.55	4.1	0.1	6756.9
91441	0.5	4.25	0.1	6734.5
91442	0.55	4.2	0.1	6707.7
91443	0.5	4.35	0.1	6674.6
91444	0.55	4.3	0.1	6652.8
91445	0.5	4.45	0.1	6607.9
91446	0.55	4.4	0.1	6592.
91447	0.5	4.55	0.1	6534.2
91448	0.55	4.5	0.1	6524.9
91449	0.5	4.65	0.1	6453.1
91450	0.55	4.6	0.1	6451.4
91451	0.5	4.75	0.1	6364.4
91452	0.55	4.7	0.1	6371.4
91453	0.5	4.85	0.1	6268.
91454	0.55	4.8	0.1	6285.1
91455	0.5	4.95	0.1	6164.5
91456	0.55	4.9	0.1	6192.7
91457	0.5	5.05	0.1	6054.7
91458	0.55	5.	0.1	6095.3
91459	0.5	5.15	0.1	5940.4
91460	0.55	5.1	0.1	5994.3
91461	0.5	5.25	0.1	5824.4
91462	0.55	5.2	0.1	5892.
91463	0.5	5.35	0.1	5711.
91464	0.55	5.3	0.1	5791.8
91465	0.5	5.45	0.1	5605.5
91466	0.55	5.4	0.1	5698.
91467	0.5	5.55	0.1	5514.4
91468	0.55	5.5	0.1	5615.7
91469	0.5	5.65	0.1	5444.1
91470	0.55	5.6	0.1	5550.
91471	0.5	5.75	0.1	5400.9
91472	0.55	5.7	0.1	5505.9
91473	0.5	5.85	0.1	5406.2
91474	0.55	5.8	0.1	5488.4
91475	0.55	5.9	0.1	5531.3
91476	0.5	5.95	0.1	5236.7
91477	0.6	0.15	0.1	5613.8
91478	0.65	0.1	0.1	5712.6
91479	0.6	5.e-002	0.1	5468.7
91480	0.6	0.25	0.1	5593.8
91481	0.65	0.2	0.1	5664.4
91482	0.6	0.35	0.1	5611.8
91483	0.65	0.3	0.1	5664.9
91484	0.6	0.45	0.1	5650.8
91485	0.65	0.4	0.1	5685.6
91486	0.6	0.55	0.1	5707.4
91487	0.65	0.5	0.1	5723.6
91488	0.6	0.65	0.1	5778.1
91489	0.65	0.6	0.1	5776.2
91490	0.6	0.75	0.1	5858.7
91491	0.65	0.7	0.1	5840.5
91492	0.6	0.85	0.1	5945.4
91493	0.65	0.8	0.1	5913.
91494	0.6	0.95	0.1	6034.6
91495	0.65	0.9	0.1	5990.4
91496	0.6	1.05	0.1	6123.4
91497	0.65	1.	0.1	6069.9
91498	0.6	1.15	0.1	6209.7
91499	0.65	1.1	0.1	6149.2
91500	0.6	1.25	0.1	6292.2
91501	0.65	1.2	0.1	6226.5
91502	0.6	1.35	0.1	6369.9
91503	0.65	1.3	0.1	6300.5
91504	0.6	1.45	0.1	6442.3
91505	0.65	1.4	0.1	6370.5
91506	0.6	1.55	0.1	6509.1
91507	0.65	1.5	0.1	6435.9
91508	0.6	1.65	0.1	6570.3
91509	0.65	1.6	0.1	6496.5
91510	0.6	1.75	0.1	6626.1
91511	0.65	1.7	0.1	6552.1
91512	0.6	1.85	0.1	6676.5
91513	0.65	1.8	0.1	6602.9
91514	0.6	1.95	0.1	6721.7
91515	0.65	1.9	0.1	6648.9
91516	0.6	2.05	0.1	6762.
91517	0.65	2.	0.1	6690.1
91518	0.6	2.15	0.1	6797.6
91519	0.65	2.1	0.1	6726.9
91520	0.6	2.25	0.1	6828.7
91521	0.65	2.2	0.1	6759.2
91522	0.6	2.35	0.1	6855.5
91523	0.65	2.3	0.1	6787.4
91524	0.6	2.45	0.1	6878.1
91525	0.65	2.4	0.1	6811.5
91526	0.6	2.55	0.1	6896.7
91527	0.65	2.5	0.1	6831.6
91528	0.6	2.65	0.1	6911.4
91529	0.65	2.6	0.1	6847.9
91530	0.6	2.75	0.1	6922.4
91531	0.65	2.7	0.1	6860.5
91532	0.6	2.85	0.1	6929.7
91533	0.65	2.8	0.1	6869.4
91534	0.6	2.95	0.1	6933.3
91535	0.65	2.9	0.1	6874.8
91536	0.6	3.05	0.1	6933.3
91537	0.65	3.	0.1	6876.5
91538	0.6	3.15	0.1	6929.7
91539	0.65	3.1	0.1	6874.8
91540	0.6	3.25	0.1	6922.4
91541	0.65	3.2	0.1	6869.4
91542	0.6	3.35	0.1	6911.4
91543	0.65	3.3	0.1	6860.5
91544	0.6	3.45	0.1	6896.7
91545	0.65	3.4	0.1	6847.9
91546	0.6	3.55	0.1	6878.1
91547	0.65	3.5	0.1	6831.6
91548	0.6	3.65	0.1	6855.5
91549	0.65	3.6	0.1	6811.5
91550	0.6	3.75	0.1	6828.7
91551	0.65	3.7	0.1	6787.4
91552	0.6	3.85	0.1	6797.6
91553	0.65	3.8	0.1	6759.2
91554	0.6	3.95	0.1	6762.
91555	0.65	3.9	0.1	6726.9
91556	0.6	4.05	0.1	6721.7
91557	0.65	4.	0.1	6690.1
91558	0.6	4.15	0.1	6676.5
91559	0.65	4.1	0.1	6648.9
91560	0.6	4.25	0.1	6626.1
91561	0.65	4.2	0.1	6602.9
91562	0.6	4.35	0.1	6570.3
91563	0.65	4.3	0.1	6552.1
91564	0.6	4.45	0.1	6509.1
91565	0.65	4.4	0.1	6496.5
91566	0.6	4.55	0.1	6442.3
91567	0.65	4.5	0.1	6435.9
91568	0.6	4.65	0.1	6369.9
91569	0.65	4.6	0.1	6370.5
91570	0.6	4.75	0.1	6292.2
91571	0.65	4.7	0.1	6300.5
91572	0.6	4.85	0.1	6209.7
91573	0.65	4.8	0.1	6226.5
91574	0.6	4.95	0.1	6123.4
91575	0.65	4.9	0.1	6149.2
91576	0.6	5.05	0.1	6034.6
91577	0.65	5.	0.1	6069.9
91578	0.6	5.15	0.1	5945.4
91579	0.65	5.1	0.1	5990.4
91580	0.6	5.25	0.1	5858.7
91581	0.65	5.2	0.1	5913.
91582	0.6	5.35	0.1	5778.1
91583	0.65	5.3	0.1	5840.5
91584	0.6	5.45	0.1	5707.4
91585	0.65	5.4	0.1	5776.2
91586	0.6	5.55	0.1	5650.8
91587	0.65	5.5	0.1	5723.6
91588	0.6	5.65	0.1	5611.8
91589	0.65	5.6	0.1	5685.6
91590	0.6	5.75	0.1	5593.8
91591	0.65	5.7	0.1	5664.9
91592	0.6	5.85	0.1	5613.8
91593	0.65	5.8	0.1	5664.4
91594	0.65	5.9	0.1	5712.6
91595	0.6	5.95	0.1	5468.7
91596	0.7	0.15	0.1	5763.5
91597	0.75	0.1	0.1	5842.4
91598	0.7	5.e-002	0.1	5637.7
91599	0.7	0.25	0.1	5735.9
91600	0.75	0.2	0.1	5792.8
91601	0.7	0.35	0.1	5738.9
91602	0.75	0.3	0.1	5783.5
91603	0.7	0.45	0.1	5758.3
91604	0.75	0.4	0.1	5789.7
91605	0.7	0.55	0.1	5792.
91606	0.75	0.5	0.1	5809.6
91607	0.7	0.65	0.1	5838.1
91608	0.75	0.6	0.1	5841.9
91609	0.7	0.75	0.1	5894.2
91610	0.75	0.7	0.1	5884.7
91611	0.7	0.85	0.1	5957.5
91612	0.75	0.8	0.1	5935.9
91613	0.7	0.95	0.1	6025.4
91614	0.75	0.9	0.1	5993.2
91615	0.7	1.05	0.1	6095.5
91616	0.75	1.	0.1	6054.3
91617	0.7	1.15	0.1	6165.8
91618	0.75	1.1	0.1	6117.3
91619	0.7	1.25	0.1	6234.6
91620	0.75	1.2	0.1	6180.4
91621	0.7	1.35	0.1	6301.
91622	0.75	1.3	0.1	6242.4
91623	0.7	1.45	0.1	6364.
91624	0.75	1.4	0.1	6302.2
91625	0.7	1.55	0.1	6423.2
91626	0.75	1.5	0.1	6359.1
91627	0.7	1.65	0.1	6478.3
91628	0.75	1.6	0.1	6412.7
91629	0.7	1.75	0.1	6529.
91630	0.75	1.7	0.1	6462.6
91631	0.7	1.85	0.1	6575.3
91632	0.75	1.8	0.1	6508.6
91633	0.7	1.95	0.1	6617.3
91634	0.75	1.9	0.1	6550.7
91635	0.7	2.05	0.1	6655.
91636	0.75	2.	0.1	6588.8
91637	0.7	2.15	0.1	6688.5
91638	0.75	2.1	0.1	6622.9
91639	0.7	2.25	0.1	6717.9
91640	0.75	2.2	0.1	6653.2
91641	0.7	2.35	0.1	6743.4
91642	0.75	2.3	0.1	6679.7
91643	0.7	2.45	0.1	6765.
91644	0.75	2.4	0.1	6702.5
91645	0.7	2.55	0.1	6782.8
91646	0.75	2.5	0.1	6721.6
91647	0.7	2.65	0.1	6797.
91648	0.75	2.6	0.1	6737.1
91649	0.7	2.75	0.1	6807.5
91650	0.75	2.7	0.1	6749.2
91651	0.7	2.85	0.1	6814.5
91652	0.75	2.8	0.1	6757.7
91653	0.7	2.95	0.1	6818.
91654	0.75	2.9	0.1	6762.8
91655	0.7	3.05	0.1	6818.
91656	0.75	3.	0.1	6764.5
91657	0.7	3.15	0.1	6814.5
91658	0.75	3.1	0.1	6762.8
91659	0.7	3.25	0.1	6807.5
91660	0.75	3.2	0.1	6757.7
91661	0.7	3.35	0.1	6797.
91662	0.75	3.3	0.1	6749.2
91663	0.7	3.45	0.1	6782.8
91664	0.75	3.4	0.1	6737.1
91665	0.7	3.55	0.1	6765.
91666	0.75	3.5	0.1	6721.6
91667	0.7	3.65	0.1	6743.4
91668	0.75	3.6	0.1	6702.5
91669	0.7	3.75	0.1	6717.9
91670	0.75	3.7	0.1	6679.7
91671	0.7	3.85	0.1	6688.5
91672	0.75	3.8	0.1	6653.2
91673	0.7	3.95	0.1	6655.
91674	0.75	3.9	0.1	6622.9
91675	0.7	4.05	0.1	6617.3
91676	0.75	4.	0.1	6588.8
91677	0.7	4.15	0.1	6575.3
91678	0.75	4.1	0.1	6550.7
91679	0.7	4.25	0.1	6529.
91680	0.75	4.2	0.1	6508.6
91681	0.7	4.35	0.1	6478.3
91682	0.75	4.3	0.1	6462.6
91683	0.7	4.45	0.1	6423.2
91684	0.75	4.4	0.1	6412.7
91685	0.7	4.55	0.1	6364.
91686	0.75	4.5	0.1	6359.1
91687	0.7	4.65	0.1	6301.
91688	0.75	4.6	0.1	6302.2
91689	0.7	4.75	0.1	6234.6
91690	0.75	4.7	0.1	6242.4
91691	0.7	4.85	0.1	6165.8
91692	0.75	4.8	0.1	6180.4
91693	0.7	4.95	0.1	6095.5
91694	0.75	4.9	0.1	6117.3
91695	0.7	5.05	0.1	6025.4
91696	0.75	5.	0.1	6054.3
91697	0.7	5.15	0.1	5957.5
91698	0.75	5.1	0.1	5993.2
91699	0.7	5.25	0.1	5894.2
91700	0.75	5.2	0.1	5935.9
91701	0.7	5.35	0.1	5838.1
91702	0.75	5.3	0.1	5884.7
91703	0.7	5.45	0.1	5792.
91704	0.75	5.4	0.1	5841.9
91705	0.7	5.55	0.1	5758.3
91706	0.75	5.5	0.1	5809.6
91707	0.7	5.65	0.1	5738.9
91708	0.75	5.6	0.1	5789.7
91709	0.7	5.75	0.1	5735.9
91710	0.75	5.7	0.1	5783.5
91711	0.7	5.85	0.1	5763.5
91712	0.75	5.8	0.1	5792.8
91713	0.75	5.9	0.1	5842.4
91714	0.7	5.95	0.1	5637.7
91715	0.8	0.15	0.1	5871.9
91716	0.85	0.1	0.1	5935.4
91717	0.8	5.e-002	0.1	5762.
91718	0.8	0.25	0.1	5840.7
91719	0.85	0.2	0.1	5886.2
91720	0.8	0.35	0.1	5834.5
91721	0.85	0.3	0.1	5871.1
91722	0.8	0.45	0.1	5841.1
91723	0.85	0.4	0.1	5868.1
91724	0.8	0.55	0.1	5859.3
91725	0.85	0.5	0.1	5876.1
91726	0.8	0.65	0.1	5888.1
91727	0.85	0.6	0.1	5894.1
91728	0.8	0.75	0.1	5926.
91729	0.85	0.7	0.1	5921.4
91730	0.8	0.85	0.1	5971.1
91731	0.85	0.8	0.1	5956.5
91732	0.8	0.95	0.1	6021.7
91733	0.85	0.9	0.1	5997.8
91734	0.8	1.05	0.1	6075.8
91735	0.85	1.	0.1	6043.8
91736	0.8	1.15	0.1	6131.7
91737	0.85	1.1	0.1	6092.7
91738	0.8	1.25	0.1	6188.
91739	0.85	1.2	0.1	6143.2
91740	0.8	1.35	0.1	6243.5
91741	0.85	1.3	0.1	6194.
91742	0.8	1.45	0.1	6297.2
91743	0.85	1.4	0.1	6244.
91744	0.8	1.55	0.1	6348.5
91745	0.85	1.5	0.1	6292.6
91746	0.8	1.65	0.1	6397.
91747	0.85	1.6	0.1	6339.
91748	0.8	1.75	0.1	6442.2
91749	0.85	1.7	0.1	6382.8
91750	0.8	1.85	0.1	6483.9
91751	0.85	1.8	0.1	6423.7
91752	0.8	1.95	0.1	6522.1
91753	0.85	1.9	0.1	6461.5
91754	0.8	2.05	0.1	6556.7
91755	0.85	2.	0.1	6496.
91756	0.8	2.15	0.1	6587.7
91757	0.85	2.1	0.1	6527.3
91758	0.8	2.25	0.1	6615.1
91759	0.85	2.2	0.1	6555.1
91760	0.8	2.35	0.1	6638.9
91761	0.85	2.3	0.1	6579.6
91762	0.8	2.45	0.1	6659.1
91763	0.85	2.4	0.1	6600.8
91764	0.8	2.55	0.1	6675.9
91765	0.85	2.5	0.1	6618.6
91766	0.8	2.65	0.1	6689.3
91767	0.85	2.6	0.1	6633.2
91768	0.8	2.75	0.1	6699.3
91769	0.85	2.7	0.1	6644.5
91770	0.8	2.85	0.1	6706.
91771	0.85	2.8	0.1	6652.5
91772	0.8	2.95	0.1	6709.3
91773	0.85	2.9	0.1	6657.3
91774	0.8	3.05	0.1	6709.3
91775	0.85	3.	0.1	6658.9
91776	0.8	3.15	0.1	6706.
91777	0.85	3.1	0.1	6657.3
91778	0.8	3.25	0.1	6699.3
91779	0.85	3.2	0.1	6652.5
91780	0.8	3.35	0.1	6689.3
91781	0.85	3.3	0.1	6644.5
91782	0.8	3.45	0.1	6675.9
91783	0.85	3.4	0.1	6633.2
91784	0.8	3.55	0.1	6659.1
91785	0.85	3.5	0.1	6618.6
91786	0.8	3.65	0.1	6638.9
91787	0.85	3.6	0.1	6600.8
91788	0.8	3.75	0.1	6615.1
91789	0.85	3.7	0.1	6579.6
91790	0.8	3.85	0.1	6587.7
91791	0.85	3.8	0.1	6555.1
91792	0.8	3.95	0.1	6556.7
91793	0.85	3.9	0.1	6527.3
91794	0.8	4.05	0.1	6522.1
91795	0.85	4.	0.1	6496.
91796	0.8	4.15	0.1	6483.9
91797	0.85	4.1	0.1	6461.5
91798	0.8	4.25	0.1	6442.2
91799	0.85	4.2	0.1	6423.7
91800	0.8	4.35	0.1	6397.
91801	0.85	4.3	0.1	6382.8
91802	0.8	4.45	0.1	6348.5
91803	0.85	4.4	0.1	6339.
91804	0.8	4.55	0.1	6297.2
91805	0.85	4.5	0.1	6292.6
91806	0.8	4.65	0.1	6243.5
91807	0.85	4.6	0.1	6244.
91808	0.8	4.75	0.1	6188.
91809	0.85	4.7	0.1	6194.
91810	0.8	4.85	0.1	6131.7
91811	0.85	4.8	0.1	6143.2
91812	0.8	4.95	0.1	6075.8
91813	0.85	4.9	0.1	6092.7
91814	0.8	5.05	0.1	6021.7
91815	0.85	5.	0.1	6043.8
91816	0.8	5.15	0.1	5971.1
91817	0.85	5.1	0.1	5997.8
91818	0.8	5.25	0.1	5926.
91819	0.85	5.2	0.1	5956.5
91820	0.8	5.35	0.1	5888.1
91821	0.85	5.3	0.1	5921.4
91822	0.8	5.45	0.1	5859.3
91823	0.85	5.4	0.1	5894.1
91824	0.8	5.55	0.1	5841.1
91825	0.85	5.5	0.1	5876.1
91826	0.8	5.65	0.1	5834.5
91827	0.85	5.6	0.1	5868.1
91828	0.8	5.75	0.1	5840.7
91829	0.85	5.7	0.1	5871.1
91830	0.8	5.85	0.1	5871.9
91831	0.85	5.8	0.1	5886.2
91832	0.85	5.9	0.1	5935.4
91833	0.8	5.95	0.1	5761.9
91834	0.9	0.15	0.1	5949.9
91835	0.95	0.1	0.1	6001.
91836	0.9	5.e-002	0.1	5853.2
91837	0.9	0.25	0.1	5917.
91838	0.95	0.2	0.1	5953.4
91839	0.9	0.35	0.1	5905.
91840	0.95	0.3	0.1	5934.8
91841	0.9	0.45	0.1	5903.2
91842	0.95	0.4	0.1	5925.8
91843	0.9	0.55	0.1	5910.8
91844	0.95	0.5	0.1	5925.6
91845	0.9	0.65	0.1	5927.3
91846	0.95	0.6	0.1	5933.7
91847	0.9	0.75	0.1	5951.6
91848	0.95	0.7	0.1	5949.7
91849	0.9	0.85	0.1	5982.9
91850	0.95	0.8	0.1	5972.6
91851	0.9	0.95	0.1	6019.6
91852	0.95	0.9	0.1	6001.5
91853	0.9	1.05	0.1	6060.4
91854	0.95	1.	0.1	6035.1
91855	0.9	1.15	0.1	6104.
91856	0.95	1.1	0.1	6072.2
91857	0.9	1.25	0.1	6149.
91858	0.95	1.2	0.1	6111.7
91859	0.9	1.35	0.1	6194.4
91860	0.95	1.3	0.1	6152.5
91861	0.9	1.45	0.1	6239.3
91862	0.95	1.4	0.1	6193.5
91863	0.9	1.55	0.1	6282.9
91864	0.95	1.5	0.1	6234.1
91865	0.9	1.65	0.1	6324.7
91866	0.95	1.6	0.1	6273.5
91867	0.9	1.75	0.1	6364.2
91868	0.95	1.7	0.1	6311.3
91869	0.9	1.85	0.1	6401.2
91870	0.95	1.8	0.1	6347.
91871	0.9	1.95	0.1	6435.3
91872	0.95	1.9	0.1	6380.3
91873	0.9	2.05	0.1	6466.5
91874	0.95	2.	0.1	6411.1
91875	0.9	2.15	0.1	6494.6
91876	0.95	2.1	0.1	6439.1
91877	0.9	2.25	0.1	6519.7
91878	0.95	2.2	0.1	6464.3
91879	0.9	2.35	0.1	6541.5
91880	0.95	2.3	0.1	6486.6
91881	0.9	2.45	0.1	6560.3
91882	0.95	2.4	0.1	6506.
91883	0.9	2.55	0.1	6575.8
91884	0.95	2.5	0.1	6522.3
91885	0.9	2.65	0.1	6588.3
91886	0.95	2.6	0.1	6535.7
91887	0.9	2.75	0.1	6597.6
91888	0.95	2.7	0.1	6546.2
91889	0.9	2.85	0.1	6603.8
91890	0.95	2.8	0.1	6553.6
91891	0.9	2.95	0.1	6606.9
91892	0.95	2.9	0.1	6558.1
91893	0.9	3.05	0.1	6606.9
91894	0.95	3.	0.1	6559.6
91895	0.9	3.15	0.1	6603.8
91896	0.95	3.1	0.1	6558.1
91897	0.9	3.25	0.1	6597.6
91898	0.95	3.2	0.1	6553.6
91899	0.9	3.35	0.1	6588.3
91900	0.95	3.3	0.1	6546.2
91901	0.9	3.45	0.1	6575.8
91902	0.95	3.4	0.1	6535.7
91903	0.9	3.55	0.1	6560.3
91904	0.95	3.5	0.1	6522.3
91905	0.9	3.65	0.1	6541.5
91906	0.95	3.6	0.1	6506.
91907	0.9	3.75	0.1	6519.7
91908	0.95	3.7	0.1	6486.6
91909	0.9	3.85	0.1	6494.6
91910	0.95	3.8	0.1	6464.3
91911	0.9	3.95	0.1	6466.5
91912	0.95	3.9	0.1	6439.1
91913	0.9	4.05	0.1	6435.3
91914	0.95	4.	0.1	6411.1
91915	0.9	4.15	0.1	6401.2
91916	0.95	4.1	0.1	6380.3
91917	0.9	4.25	0.1	6364.2
91918	0.95	4.2	0.1	6347.
91919	0.9	4.35	0.1	6324.7
91920	0.95	4.3	0.1	6311.3
91921	0.9	4.45	0.1	6282.9
91922	0.95	4.4	0.1	6273.5
91923	0.9	4.55	0.1	6239.3
91924	0.95	4.5	0.1	6234.1
91925	0.9	4.65	0.1	6194.4
91926	0.95	4.6	0.1	6193.5
91927	0.9	4.75	0.1	6149.
91928	0.95	4.7	0.1	6152.5
91929	0.9	4.85	0.1	6104.
91930	0.95	4.8	0.1	6111.7
91931	0.9	4.95	0.1	6060.4
91932	0.95	4.9	0.1	6072.2
91933	0.9	5.05	0.1	6019.6
91934	0.95	5.	0.1	6035.1
91935	0.9	5.15	0.1	5982.9
91936	0.95	5.1	0.1	6001.5
91937	0.9	5.25	0.1	5951.6
91938	0.95	5.2	0.1	5972.6
91939	0.9	5.35	0.1	5927.3
91940	0.95	5.3	0.1	5949.7
91941	0.9	5.45	0.1	5910.8
91942	0.95	5.4	0.1	5933.7
91943	0.9	5.55	0.1	5903.2
91944	0.95	5.5	0.1	5925.6
91945	0.9	5.65	0.1	5905.
91946	0.95	5.6	0.1	5925.8
91947	0.9	5.75	0.1	5917.
91948	0.95	5.7	0.1	5934.8
91949	0.9	5.85	0.1	5949.9
91950	0.95	5.8	0.1	5953.4
91951	0.95	5.9	0.1	6001.
91952	0.9	5.95	0.1	5853.2
91953	1.	0.15	0.1	6004.7
91954	1.05	0.1	0.1	6046.
91955	1.	5.e-002	0.1	5919.5
91956	1.	0.25	0.1	5971.4
91957	1.05	0.2	0.1	6000.2
91958	1.	0.35	0.1	5955.8
91959	1.05	0.3	0.1	5979.6
91960	1.	0.45	0.1	5948.3
91961	1.05	0.4	0.1	5966.7
91962	1.	0.55	0.1	5948.5
91963	1.05	0.5	0.1	5960.9
91964	1.	0.65	0.1	5956.1
91965	1.05	0.6	0.1	5962.
91966	1.	0.75	0.1	5970.5
91967	1.05	0.7	0.1	5969.6
91968	1.	0.85	0.1	5991.
91969	1.05	0.8	0.1	5983.3
91970	1.	0.95	0.1	6016.7
91971	1.05	0.9	0.1	6002.5
91972	1.	1.05	0.1	6046.7
91973	1.05	1.	0.1	6026.2
91974	1.	1.15	0.1	6079.8
91975	1.05	1.1	0.1	6053.6
91976	1.	1.25	0.1	6115.
91977	1.05	1.2	0.1	6083.8
91978	1.	1.35	0.1	6151.4
91979	1.05	1.3	0.1	6115.7
91980	1.	1.45	0.1	6188.2
91981	1.05	1.4	0.1	6148.7
91982	1.	1.55	0.1	6224.6
91983	1.05	1.5	0.1	6181.9
91984	1.	1.65	0.1	6260.
91985	1.05	1.6	0.1	6214.8
91986	1.	1.75	0.1	6293.9
91987	1.05	1.7	0.1	6246.7
91988	1.	1.85	0.1	6326.
91989	1.05	1.8	0.1	6277.3
91990	1.	1.95	0.1	6356.
91991	1.05	1.9	0.1	6306.2
91992	1.	2.05	0.1	6383.6
91993	1.05	2.	0.1	6333.1
91994	1.	2.15	0.1	6408.7
91995	1.05	2.1	0.1	6357.8
91996	1.	2.25	0.1	6431.2
91997	1.05	2.2	0.1	6380.2
91998	1.	2.35	0.1	6451.
91999	1.05	2.3	0.1	6400.2
92000	1.	2.45	0.1	6468.
92001	1.05	2.4	0.1	6417.6
92002	1.	2.55	0.1	6482.2
92003	1.05	2.5	0.1	6432.4
92004	1.	2.65	0.1	6493.6
92005	1.05	2.6	0.1	6444.6
92006	1.	2.75	0.1	6502.1
92007	1.05	2.7	0.1	6454.
92008	1.	2.85	0.1	6507.8
92009	1.05	2.8	0.1	6460.8
92010	1.	2.95	0.1	6510.7
92011	1.05	2.9	0.1	6464.9
92012	1.	3.05	0.1	6510.7
92013	1.05	3.	0.1	6466.2
92014	1.	3.15	0.1	6507.8
92015	1.05	3.1	0.1	6464.9
92016	1.	3.25	0.1	6502.1
92017	1.05	3.2	0.1	6460.8
92018	1.	3.35	0.1	6493.6
92019	1.05	3.3	0.1	6454.
92020	1.	3.45	0.1	6482.2
92021	1.05	3.4	0.1	6444.6
92022	1.	3.55	0.1	6468.
92023	1.05	3.5	0.1	6432.4
92024	1.	3.65	0.1	6451.
92025	1.05	3.6	0.1	6417.6
92026	1.	3.75	0.1	6431.2
92027	1.05	3.7	0.1	6400.2
92028	1.	3.85	0.1	6408.7
92029	1.05	3.8	0.1	6380.2
92030	1.	3.95	0.1	6383.6
92031	1.05	3.9	0.1	6357.8
92032	1.	4.05	0.1	6356.
92033	1.05	4.	0.1	6333.1
92034	1.	4.15	0.1	6326.
92035	1.05	4.1	0.1	6306.2
92036	1.	4.25	0.1	6293.9
92037	1.05	4.2	0.1	6277.3
92038	1.	4.35	0.1	6260.
92039	1.05	4.3	0.1	6246.7
92040	1.	4.45	0.1	6224.6
92041	1.05	4.4	0.1	6214.8
92042	1.	4.55	0.1	6188.2
92043	1.05	4.5	0.1	6181.9
92044	1.	4.65	0.1	6151.4
92045	1.05	4.6	0.1	6148.7
92046	1.	4.75	0.1	6115.
92047	1.05	4.7	0.1	6115.7
92048	1.	4.85	0.1	6079.8
92049	1.05	4.8	0.1	6083.8
92050	1.	4.95	0.1	6046.7
92051	1.05	4.9	0.1	6053.6
92052	1.	5.05	0.1	6016.7
92053	1.05	5.	0.1	6026.2
92054	1.	5.15	0.1	5991.
92055	1.05	5.1	0.1	6002.5
92056	1.	5.25	0.1	5970.5
92057	1.05	5.2	0.1	5983.3
92058	1.	5.35	0.1	5956.1
92059	1.05	5.3	0.1	5969.6
92060	1.	5.45	0.1	5948.5
92061	1.05	5.4	0.1	5962.
92062	1.	5.55	0.1	5948.3
92063	1.05	5.5	0.1	5960.9
92064	1.	5.65	0.1	5955.8
92065	1.05	5.6	0.1	5966.7
92066	1.	5.75	0.1	5971.4
92067	1.05	5.7	0.1	5979.6
92068	1.	5.85	0.1	6004.7
92069	1.05	5.8	0.1	6000.2
92070	1.05	5.9	0.1	6045.9
92071	1.	5.95	0.1	5919.5
92072	1.1	0.15	0.1	6041.6
92073	1.15	0.1	0.1	6074.8
92074	1.1	5.e-002	0.1	5966.3
92075	1.1	0.25	0.1	6008.7
92076	1.15	0.2	0.1	6031.2
92077	1.1	0.35	0.1	5990.7
92078	1.15	0.3	0.1	6009.5
92079	1.1	0.45	0.1	5979.5
92080	1.15	0.4	0.1	5994.
92081	1.1	0.55	0.1	5974.4
92082	1.15	0.5	0.1	5984.3
92083	1.1	0.65	0.1	5975.5
92084	1.15	0.6	0.1	5980.3
92085	1.1	0.75	0.1	5982.4
92086	1.15	0.7	0.1	5981.8
92087	1.1	0.85	0.1	5994.7
92088	1.15	0.8	0.1	5988.6
92089	1.1	0.95	0.1	6011.8
92090	1.15	0.9	0.1	6000.2
92091	1.1	1.05	0.1	6033.
92092	1.15	1.	0.1	6016.
92093	1.1	1.15	0.1	6057.4
92094	1.15	1.1	0.1	6035.4
92095	1.1	1.25	0.1	6084.3
92096	1.15	1.2	0.1	6057.7
92097	1.1	1.35	0.1	6112.8
92098	1.15	1.3	0.1	6082.1
92099	1.1	1.45	0.1	6142.3
92100	1.15	1.4	0.1	6108.
92101	1.1	1.55	0.1	6172.
92102	1.15	1.5	0.1	6134.6
92103	1.1	1.65	0.1	6201.4
92104	1.15	1.6	0.1	6161.4
92105	1.1	1.75	0.1	6230.
92106	1.15	1.7	0.1	6187.9
92107	1.1	1.85	0.1	6257.3
92108	1.15	1.8	0.1	6213.6
92109	1.1	1.95	0.1	6283.2
92110	1.15	1.9	0.1	6238.1
92111	1.1	2.05	0.1	6307.2
92112	1.15	2.	0.1	6261.3
92113	1.1	2.15	0.1	6329.3
92114	1.15	2.1	0.1	6282.7
92115	1.1	2.25	0.1	6349.2
92116	1.15	2.2	0.1	6302.3
92117	1.1	2.35	0.1	6366.7
92118	1.15	2.3	0.1	6319.9
92119	1.1	2.45	0.1	6381.9
92120	1.15	2.4	0.1	6335.3
92121	1.1	2.55	0.1	6394.7
92122	1.15	2.5	0.1	6348.4
92123	1.1	2.65	0.1	6404.9
92124	1.15	2.6	0.1	6359.3
92125	1.1	2.75	0.1	6412.6
92126	1.15	2.7	0.1	6367.7
92127	1.1	2.85	0.1	6417.8
92128	1.15	2.8	0.1	6373.8
92129	1.1	2.95	0.1	6420.4
92130	1.15	2.9	0.1	6377.5
92131	1.1	3.05	0.1	6420.4
92132	1.15	3.	0.1	6378.7
92133	1.1	3.15	0.1	6417.8
92134	1.15	3.1	0.1	6377.5
92135	1.1	3.25	0.1	6412.6
92136	1.15	3.2	0.1	6373.8
92137	1.1	3.35	0.1	6404.9
92138	1.15	3.3	0.1	6367.7
92139	1.1	3.45	0.1	6394.7
92140	1.15	3.4	0.1	6359.3
92141	1.1	3.55	0.1	6381.9
92142	1.15	3.5	0.1	6348.4
92143	1.1	3.65	0.1	6366.7
92144	1.15	3.6	0.1	6335.3
92145	1.1	3.75	0.1	6349.2
92146	1.15	3.7	0.1	6319.9
92147	1.1	3.85	0.1	6329.3
92148	1.15	3.8	0.1	6302.3
92149	1.1	3.95	0.1	6307.2
92150	1.15	3.9	0.1	6282.7
92151	1.1	4.05	0.1	6283.2
92152	1.15	4.	0.1	6261.3
92153	1.1	4.15	0.1	6257.3
92154	1.15	4.1	0.1	6238.1
92155	1.1	4.25	0.1	6230.
92156	1.15	4.2	0.1	6213.6
92157	1.1	4.35	0.1	6201.4
92158	1.15	4.3	0.1	6187.9
92159	1.1	4.45	0.1	6172.
92160	1.15	4.4	0.1	6161.4
92161	1.1	4.55	0.1	6142.3
92162	1.15	4.5	0.1	6134.6
92163	1.1	4.65	0.1	6112.8
92164	1.15	4.6	0.1	6108.
92165	1.1	4.75	0.1	6084.3
92166	1.15	4.7	0.1	6082.1
92167	1.1	4.85	0.1	6057.4
92168	1.15	4.8	0.1	6057.7
92169	1.1	4.95	0.1	6033.
92170	1.15	4.9	0.1	6035.4
92171	1.1	5.05	0.1	6011.8
92172	1.15	5.	0.1	6016.
92173	1.1	5.15	0.1	5994.7
92174	1.15	5.1	0.1	6000.2
92175	1.1	5.25	0.1	5982.4
92176	1.15	5.2	0.1	5988.6
92177	1.1	5.35	0.1	5975.5
92178	1.15	5.3	0.1	5981.8
92179	1.1	5.45	0.1	5974.4
92180	1.15	5.4	0.1	5980.3
92181	1.1	5.55	0.1	5979.5
92182	1.15	5.5	0.1	5984.3
92183	1.1	5.65	0.1	5990.7
92184	1.15	5.6	0.1	5994.
92185	1.1	5.75	0.1	6008.6
92186	1.15	5.7	0.1	6009.5
92187	1.1	5.85	0.1	6041.6
92188	1.15	5.8	0.1	6031.2
92189	1.15	5.9	0.1	6074.8
92190	1.1	5.95	0.1	5966.3
92191	1.2	0.15	0.1	6064.5
92192	1.25	0.1	0.1	6091.1
92193	1.2	5.e-002	0.1	5998.
92194	1.2	0.25	0.1	6032.2
92195	1.25	0.2	0.1	6049.6
92196	1.2	0.35	0.1	6012.9
92197	1.25	0.3	0.1	6027.3
92198	1.2	0.45	0.1	5999.
92199	1.25	0.4	0.1	6010.2
92200	1.2	0.55	0.1	5990.3
92201	1.25	0.5	0.1	5997.8
92202	1.2	0.65	0.1	5986.7
92203	1.25	0.6	0.1	5990.1
92204	1.2	0.75	0.1	5988.
92205	1.25	0.7	0.1	5987.1
92206	1.2	0.85	0.1	5994.
92207	1.25	0.8	0.1	5988.6
92208	1.2	0.95	0.1	6004.3
92209	1.25	0.9	0.1	5994.3
92210	1.2	1.05	0.1	6018.3
92211	1.25	1.	0.1	6003.8
92212	1.2	1.15	0.1	6035.6
92213	1.25	1.1	0.1	6016.7
92214	1.2	1.25	0.1	6055.4
92215	1.25	1.2	0.1	6032.5
92216	1.2	1.35	0.1	6077.1
92217	1.25	1.3	0.1	6050.5
92218	1.2	1.45	0.1	6100.1
92219	1.25	1.4	0.1	6070.1
92220	1.2	1.55	0.1	6123.9
92221	1.25	1.5	0.1	6090.9
92222	1.2	1.65	0.1	6147.7
92223	1.25	1.6	0.1	6112.3
92224	1.2	1.75	0.1	6171.3
92225	1.25	1.7	0.1	6133.7
92226	1.2	1.85	0.1	6194.2
92227	1.25	1.8	0.1	6154.9
92228	1.2	1.95	0.1	6216.1
92229	1.25	1.9	0.1	6175.4
92230	1.2	2.05	0.1	6236.7
92231	1.25	2.	0.1	6194.9
92232	1.2	2.15	0.1	6255.7
92233	1.25	2.1	0.1	6213.1
92234	1.2	2.25	0.1	6272.9
92235	1.25	2.2	0.1	6229.9
92236	1.2	2.35	0.1	6288.3
92237	1.25	2.3	0.1	6245.1
92238	1.2	2.45	0.1	6301.7
92239	1.25	2.4	0.1	6258.5
92240	1.2	2.55	0.1	6312.9
92241	1.25	2.5	0.1	6270.
92242	1.2	2.65	0.1	6322.
92243	1.25	2.6	0.1	6279.5
92244	1.2	2.75	0.1	6328.8
92245	1.25	2.7	0.1	6287.
92246	1.2	2.85	0.1	6333.4
92247	1.25	2.8	0.1	6292.3
92248	1.2	2.95	0.1	6335.7
92249	1.25	2.9	0.1	6295.5
92250	1.2	3.05	0.1	6335.7
92251	1.25	3.	0.1	6296.6
92252	1.2	3.15	0.1	6333.4
92253	1.25	3.1	0.1	6295.5
92254	1.2	3.25	0.1	6328.8
92255	1.25	3.2	0.1	6292.3
92256	1.2	3.35	0.1	6322.
92257	1.25	3.3	0.1	6287.
92258	1.2	3.45	0.1	6312.9
92259	1.25	3.4	0.1	6279.5
92260	1.2	3.55	0.1	6301.7
92261	1.25	3.5	0.1	6270.
92262	1.2	3.65	0.1	6288.3
92263	1.25	3.6	0.1	6258.5
92264	1.2	3.75	0.1	6272.9
92265	1.25	3.7	0.1	6245.1
92266	1.2	3.85	0.1	6255.7
92267	1.25	3.8	0.1	6229.9
92268	1.2	3.95	0.1	6236.7
92269	1.25	3.9	0.1	6213.1
92270	1.2	4.05	0.1	6216.1
92271	1.25	4.	0.1	6194.9
92272	1.2	4.15	0.1	6194.2
92273	1.25	4.1	0.1	6175.4
92274	1.2	4.25	0.1	6171.3
92275	1.25	4.2	0.1	6154.9
92276	1.2	4.35	0.1	6147.7
92277	1.25	4.3	0.1	6133.7
92278	1.2	4.45	0.1	6123.9
92279	1.25	4.4	0.1	6112.3
92280	1.2	4.55	0.1	6100.1
92281	1.25	4.5	0.1	6090.9
92282	1.2	4.65	0.1	6077.1
92283	1.25	4.6	0.1	6070.1
92284	1.2	4.75	0.1	6055.4
92285	1.25	4.7	0.1	6050.5
92286	1.2	4.85	0.1	6035.6
92287	1.25	4.8	0.1	6032.5
92288	1.2	4.95	0.1	6018.3
92289	1.25	4.9	0.1	6016.7
92290	1.2	5.05	0.1	6004.3
92291	1.25	5.	0.1	6003.8
92292	1.2	5.15	0.1	5994.
92293	1.25	5.1	0.1	5994.3
92294	1.2	5.25	0.1	5988.
92295	1.25	5.2	0.1	5988.6
92296	1.2	5.35	0.1	5986.7
92297	1.25	5.3	0.1	5987.1
92298	1.2	5.45	0.1	5990.3
92299	1.25	5.4	0.1	5990.1
92300	1.2	5.55	0.1	5999.
92301	1.25	5.5	0.1	5997.8
92302	1.2	5.65	0.1	6012.9
92303	1.25	5.6	0.1	6010.2
92304	1.2	5.75	0.1	6032.2
92305	1.25	5.7	0.1	6027.3
92306	1.2	5.85	0.1	6064.5
92307	1.25	5.8	0.1	6049.6
92308	1.25	5.9	0.1	6091.1
92309	1.2	5.95	0.1	5998.
92310	1.3	0.15	0.1	6076.2
92311	1.35	0.1	0.1	6097.2
92312	1.3	5.e-002	0.1	6017.4
92313	1.3	0.25	0.1	6044.9
92314	1.35	0.2	0.1	6057.9
92315	1.3	0.35	0.1	6024.7
92316	1.35	0.3	0.1	6035.4
92317	1.3	0.45	0.1	6009.1
92318	1.35	0.4	0.1	6017.2
92319	1.3	0.55	0.1	5997.7
92320	1.35	0.5	0.1	6003.
92321	1.3	0.65	0.1	5990.6
92322	1.35	0.6	0.1	5992.7
92323	1.3	0.75	0.1	5987.7
92324	1.35	0.7	0.1	5986.2
92325	1.3	0.85	0.1	5988.8
92326	1.35	0.8	0.1	5983.7
92327	1.3	0.95	0.1	5993.8
92328	1.35	0.9	0.1	5984.8
92329	1.3	1.05	0.1	6002.1
92330	1.35	1.	0.1	5989.4
92331	1.3	1.15	0.1	6013.5
92332	1.35	1.1	0.1	5997.
92333	1.3	1.25	0.1	6027.4
92334	1.35	1.2	0.1	6007.4
92335	1.3	1.35	0.1	6043.4
92336	1.35	1.3	0.1	6019.9
92337	1.3	1.45	0.1	6060.8
92338	1.35	1.4	0.1	6034.3
92339	1.3	1.55	0.1	6079.2
92340	1.35	1.5	0.1	6050.
92341	1.3	1.65	0.1	6098.1
92342	1.35	1.6	0.1	6066.5
92343	1.3	1.75	0.1	6117.1
92344	1.35	1.7	0.1	6083.4
92345	1.3	1.85	0.1	6135.9
92346	1.35	1.8	0.1	6100.4
92347	1.3	1.95	0.1	6154.
92348	1.35	1.9	0.1	6117.1
92349	1.3	2.05	0.1	6171.2
92350	1.35	2.	0.1	6133.2
92351	1.3	2.15	0.1	6187.3
92352	1.35	2.1	0.1	6148.4
92353	1.3	2.25	0.1	6202.
92354	1.35	2.2	0.1	6162.6
92355	1.3	2.35	0.1	6215.2
92356	1.35	2.3	0.1	6175.4
92357	1.3	2.45	0.1	6226.7
92358	1.35	2.4	0.1	6186.8
92359	1.3	2.55	0.1	6236.5
92360	1.35	2.5	0.1	6196.7
92361	1.3	2.65	0.1	6244.4
92362	1.35	2.6	0.1	6204.9
92363	1.3	2.75	0.1	6250.4
92364	1.35	2.7	0.1	6211.3
92365	1.3	2.85	0.1	6254.4
92366	1.35	2.8	0.1	6216.
92367	1.3	2.95	0.1	6256.4
92368	1.35	2.9	0.1	6218.8
92369	1.3	3.05	0.1	6256.4
92370	1.35	3.	0.1	6219.7
92371	1.3	3.15	0.1	6254.4
92372	1.35	3.1	0.1	6218.8
92373	1.3	3.25	0.1	6250.4
92374	1.35	3.2	0.1	6216.
92375	1.3	3.35	0.1	6244.4
92376	1.35	3.3	0.1	6211.3
92377	1.3	3.45	0.1	6236.5
92378	1.35	3.4	0.1	6204.9
92379	1.3	3.55	0.1	6226.7
92380	1.35	3.5	0.1	6196.7
92381	1.3	3.65	0.1	6215.2
92382	1.35	3.6	0.1	6186.8
92383	1.3	3.75	0.1	6202.
92384	1.35	3.7	0.1	6175.4
92385	1.3	3.85	0.1	6187.3
92386	1.35	3.8	0.1	6162.6
92387	1.3	3.95	0.1	6171.2
92388	1.35	3.9	0.1	6148.4
92389	1.3	4.05	0.1	6154.
92390	1.35	4.	0.1	6133.2
92391	1.3	4.15	0.1	6135.9
92392	1.35	4.1	0.1	6117.1
92393	1.3	4.25	0.1	6117.1
92394	1.35	4.2	0.1	6100.4
92395	1.3	4.35	0.1	6098.1
92396	1.35	4.3	0.1	6083.4
92397	1.3	4.45	0.1	6079.2
92398	1.35	4.4	0.1	6066.5
92399	1.3	4.55	0.1	6060.8
92400	1.35	4.5	0.1	6050.
92401	1.3	4.65	0.1	6043.4
92402	1.35	4.6	0.1	6034.3
92403	1.3	4.75	0.1	6027.4
92404	1.35	4.7	0.1	6019.9
92405	1.3	4.85	0.1	6013.5
92406	1.35	4.8	0.1	6007.4
92407	1.3	4.95	0.1	6002.1
92408	1.35	4.9	0.1	5997.
92409	1.3	5.05	0.1	5993.8
92410	1.35	5.	0.1	5989.4
92411	1.3	5.15	0.1	5988.8
92412	1.35	5.1	0.1	5984.8
92413	1.3	5.25	0.1	5987.7
92414	1.35	5.2	0.1	5983.7
92415	1.3	5.35	0.1	5990.6
92416	1.35	5.3	0.1	5986.2
92417	1.3	5.45	0.1	5997.7
92418	1.35	5.4	0.1	5992.7
92419	1.3	5.55	0.1	6009.1
92420	1.35	5.5	0.1	6003.
92421	1.3	5.65	0.1	6024.7
92422	1.35	5.6	0.1	6017.2
92423	1.3	5.75	0.1	6044.9
92424	1.35	5.7	0.1	6035.4
92425	1.3	5.85	0.1	6076.2
92426	1.35	5.8	0.1	6057.9
92427	1.35	5.9	0.1	6097.2
92428	1.3	5.95	0.1	6017.4
92429	1.4	0.15	0.1	6078.9
92430	1.45	0.1	0.1	6095.2
92431	1.4	5.e-002	0.1	6026.9
92432	1.4	0.25	0.1	6048.6
92433	1.45	0.2	0.1	6057.9
92434	1.4	0.35	0.1	6028.1
92435	1.45	0.3	0.1	6035.6
92436	1.4	0.45	0.1	6011.3
92437	1.45	0.4	0.1	6016.8
92438	1.4	0.55	0.1	5998.
92439	1.45	0.5	0.1	6001.3
92440	1.4	0.65	0.1	5988.4
92441	1.45	0.6	0.1	5989.
92442	1.4	0.75	0.1	5982.2
92443	1.45	0.7	0.1	5980.1
92444	1.4	0.85	0.1	5979.6
92445	1.45	0.8	0.1	5974.4
92446	1.4	0.95	0.1	5980.4
92447	1.45	0.9	0.1	5972.
92448	1.4	1.05	0.1	5984.2
92449	1.45	1.	0.1	5972.6
92450	1.4	1.15	0.1	5990.8
92451	1.45	1.1	0.1	5976.
92452	1.4	1.25	0.1	5999.8
92453	1.45	1.2	0.1	5981.9
92454	1.4	1.35	0.1	6010.8
92455	1.45	1.3	0.1	5989.9
92456	1.4	1.45	0.1	6023.4
92457	1.45	1.4	0.1	5999.8
92458	1.4	1.55	0.1	6037.1
92459	1.45	1.5	0.1	6011.
92460	1.4	1.65	0.1	6051.7
92461	1.45	1.6	0.1	6023.3
92462	1.4	1.75	0.1	6066.6
92463	1.45	1.7	0.1	6036.3
92464	1.4	1.85	0.1	6081.5
92465	1.45	1.8	0.1	6049.5
92466	1.4	1.95	0.1	6096.2
92467	1.45	1.9	0.1	6062.7
92468	1.4	2.05	0.1	6110.3
92469	1.45	2.	0.1	6075.7
92470	1.4	2.15	0.1	6123.6
92471	1.45	2.1	0.1	6088.1
92472	1.4	2.25	0.1	6135.9
92473	1.45	2.2	0.1	6099.7
92474	1.4	2.35	0.1	6147.
92475	1.45	2.3	0.1	6110.3
92476	1.4	2.45	0.1	6156.7
92477	1.45	2.4	0.1	6119.9
92478	1.4	2.55	0.1	6165.
92479	1.45	2.5	0.1	6128.1
92480	1.4	2.65	0.1	6171.8
92481	1.45	2.6	0.1	6135.1
92482	1.4	2.75	0.1	6176.9
92483	1.45	2.7	0.1	6140.5
92484	1.4	2.85	0.1	6180.3
92485	1.45	2.8	0.1	6144.5
92486	1.4	2.95	0.1	6182.
92487	1.45	2.9	0.1	6146.8
92488	1.4	3.05	0.1	6182.
92489	1.45	3.	0.1	6147.6
92490	1.4	3.15	0.1	6180.3
92491	1.45	3.1	0.1	6146.8
92492	1.4	3.25	0.1	6176.9
92493	1.45	3.2	0.1	6144.5
92494	1.4	3.35	0.1	6171.8
92495	1.45	3.3	0.1	6140.5
92496	1.4	3.45	0.1	6165.
92497	1.45	3.4	0.1	6135.1
92498	1.4	3.55	0.1	6156.7
92499	1.45	3.5	0.1	6128.1
92500	1.4	3.65	0.1	6147.
92501	1.45	3.6	0.1	6119.9
92502	1.4	3.75	0.1	6135.9
92503	1.45	3.7	0.1	6110.3
92504	1.4	3.85	0.1	6123.6
92505	1.45	3.8	0.1	6099.7
92506	1.4	3.95	0.1	6110.3
92507	1.45	3.9	0.1	6088.1
92508	1.4	4.05	0.1	6096.2
92509	1.45	4.	0.1	6075.7
92510	1.4	4.15	0.1	6081.5
92511	1.45	4.1	0.1	6062.7
92512	1.4	4.25	0.1	6066.6
92513	1.45	4.2	0.1	6049.5
92514	1.4	4.35	0.1	6051.7
92515	1.45	4.3	0.1	6036.3
92516	1.4	4.45	0.1	6037.1
92517	1.45	4.4	0.1	6023.3
92518	1.4	4.55	0.1	6023.4
92519	1.45	4.5	0.1	6011.
92520	1.4	4.65	0.1	6010.8
92521	1.45	4.6	0.1	5999.8
92522	1.4	4.75	0.1	5999.8
92523	1.45	4.7	0.1	5989.9
92524	1.4	4.85	0.1	5990.8
92525	1.45	4.8	0.1	5981.9
92526	1.4	4.95	0.1	5984.2
92527	1.45	4.9	0.1	5976.
92528	1.4	5.05	0.1	5980.4
92529	1.45	5.	0.1	5972.6
92530	1.4	5.15	0.1	5979.6
92531	1.45	5.1	0.1	5972.
92532	1.4	5.25	0.1	5982.2
92533	1.45	5.2	0.1	5974.4
92534	1.4	5.35	0.1	5988.4
92535	1.45	5.3	0.1	5980.1
92536	1.4	5.45	0.1	5998.
92537	1.45	5.4	0.1	5989.
92538	1.4	5.55	0.1	6011.3
92539	1.45	5.5	0.1	6001.3
92540	1.4	5.65	0.1	6028.1
92541	1.45	5.6	0.1	6016.8
92542	1.4	5.75	0.1	6048.6
92543	1.45	5.7	0.1	6035.6
92544	1.4	5.85	0.1	6078.9
92545	1.45	5.8	0.1	6057.9
92546	1.45	5.9	0.1	6095.2
92547	1.4	5.95	0.1	6026.9
92548	1.5	0.15	0.1	6074.3
92549	1.55	0.1	0.1	6086.6
92550	1.5	5.e-002	0.1	6028.4
92551	1.5	0.25	0.1	6045.
92552	1.55	0.2	0.1	6051.3
92553	1.5	0.35	0.1	6024.4
92554	1.55	0.3	0.1	6029.2
92555	1.5	0.45	0.1	6006.9
92556	1.55	0.4	0.1	6010.1
92557	1.5	0.55	0.1	5992.3
92558	1.55	0.5	0.1	5993.7
92559	1.5	0.65	0.1	5980.8
92560	1.55	0.6	0.1	5980.1
92561	1.5	0.75	0.1	5972.3
92562	1.55	0.7	0.1	5969.3
92563	1.5	0.85	0.1	5966.8
92564	1.55	0.8	0.1	5961.3
92565	1.5	0.95	0.1	5964.2
92566	1.55	0.9	0.1	5956.1
92567	1.5	1.05	0.1	5964.3
92568	1.55	1.	0.1	5953.5
92569	1.5	1.15	0.1	5967.
92570	1.55	1.1	0.1	5953.5
92571	1.5	1.25	0.1	5972.
92572	1.55	1.2	0.1	5955.8
92573	1.5	1.35	0.1	5978.9
92574	1.55	1.3	0.1	5960.1
92575	1.5	1.45	0.1	5987.4
92576	1.55	1.4	0.1	5966.1
92577	1.5	1.55	0.1	5997.1
92578	1.55	1.5	0.1	5973.6
92579	1.5	1.65	0.1	6007.8
92580	1.55	1.6	0.1	5982.2
92581	1.5	1.75	0.1	6019.1
92582	1.55	1.7	0.1	5991.6
92583	1.5	1.85	0.1	6030.6
92584	1.55	1.8	0.1	6001.5
92585	1.5	1.95	0.1	6042.1
92586	1.55	1.9	0.1	6011.6
92587	1.5	2.05	0.1	6053.3
92588	1.55	2.	0.1	6021.7
92589	1.5	2.15	0.1	6064.
92590	1.55	2.1	0.1	6031.5
92591	1.5	2.25	0.1	6074.
92592	1.55	2.2	0.1	6040.8
92593	1.5	2.35	0.1	6083.1
92594	1.55	2.3	0.1	6049.4
92595	1.5	2.45	0.1	6091.2
92596	1.55	2.4	0.1	6057.1
92597	1.5	2.55	0.1	6098.1
92598	1.55	2.5	0.1	6063.9
92599	1.5	2.65	0.1	6103.7
92600	1.55	2.6	0.1	6069.6
92601	1.5	2.75	0.1	6108.
92602	1.55	2.7	0.1	6074.1
92603	1.5	2.85	0.1	6110.9
92604	1.55	2.8	0.1	6077.4
92605	1.5	2.95	0.1	6112.4
92606	1.55	2.9	0.1	6079.4
92607	1.5	3.05	0.1	6112.4
92608	1.55	3.	0.1	6080.1
92609	1.5	3.15	0.1	6110.9
92610	1.55	3.1	0.1	6079.4
92611	1.5	3.25	0.1	6108.
92612	1.55	3.2	0.1	6077.4
92613	1.5	3.35	0.1	6103.7
92614	1.55	3.3	0.1	6074.1
92615	1.5	3.45	0.1	6098.1
92616	1.55	3.4	0.1	6069.6
92617	1.5	3.55	0.1	6091.2
92618	1.55	3.5	0.1	6063.9
92619	1.5	3.65	0.1	6083.1
92620	1.55	3.6	0.1	6057.1
92621	1.5	3.75	0.1	6074.
92622	1.55	3.7	0.1	6049.4
92623	1.5	3.85	0.1	6064.
92624	1.55	3.8	0.1	6040.8
92625	1.5	3.95	0.1	6053.3
92626	1.55	3.9	0.1	6031.5
92627	1.5	4.05	0.1	6042.1
92628	1.55	4.	0.1	6021.7
92629	1.5	4.15	0.1	6030.6
92630	1.55	4.1	0.1	6011.6
92631	1.5	4.25	0.1	6019.1
92632	1.55	4.2	0.1	6001.5
92633	1.5	4.35	0.1	6007.8
92634	1.55	4.3	0.1	5991.6
92635	1.5	4.45	0.1	5997.1
92636	1.55	4.4	0.1	5982.2
92637	1.5	4.55	0.1	5987.4
92638	1.55	4.5	0.1	5973.6
92639	1.5	4.65	0.1	5978.9
92640	1.55	4.6	0.1	5966.1
92641	1.5	4.75	0.1	5972.
92642	1.55	4.7	0.1	5960.1
92643	1.5	4.85	0.1	5967.
92644	1.55	4.8	0.1	5955.8
92645	1.5	4.95	0.1	5964.3
92646	1.55	4.9	0.1	5953.5
92647	1.5	5.05	0.1	5964.2
92648	1.55	5.	0.1	5953.5
92649	1.5	5.15	0.1	5966.8
92650	1.55	5.1	0.1	5956.1
92651	1.5	5.25	0.1	5972.3
92652	1.55	5.2	0.1	5961.3
92653	1.5	5.35	0.1	5980.8
92654	1.55	5.3	0.1	5969.3
92655	1.5	5.45	0.1	5992.3
92656	1.55	5.4	0.1	5980.1
92657	1.5	5.55	0.1	6006.9
92658	1.55	5.5	0.1	5993.7
92659	1.5	5.65	0.1	6024.4
92660	1.55	5.6	0.1	6010.1
92661	1.5	5.75	0.1	6045.
92662	1.55	5.7	0.1	6029.2
92663	1.5	5.85	0.1	6074.3
92664	1.55	5.8	0.1	6051.3
92665	1.55	5.9	0.1	6086.6
92666	1.5	5.95	0.1	6028.4
92667	1.6	0.15	0.1	6063.7
92668	1.65	0.1	0.1	6072.6
92669	1.6	5.e-002	0.1	6023.3
92670	1.6	0.25	0.1	6035.5
92671	1.65	0.2	0.1	6039.1
92672	1.6	0.35	0.1	6015.
92673	1.65	0.3	0.1	6017.4
92674	1.6	0.45	0.1	5997.
92675	1.65	0.4	0.1	5998.2
92676	1.6	0.55	0.1	5981.6
92677	1.65	0.5	0.1	5981.3
92678	1.6	0.65	0.1	5968.7
92679	1.65	0.6	0.1	5966.8
92680	1.6	0.75	0.1	5958.4
92681	1.65	0.7	0.1	5954.6
92682	1.6	0.85	0.1	5950.6
92683	1.65	0.8	0.1	5944.8
92684	1.6	0.95	0.1	5945.5
92685	1.65	0.9	0.1	5937.4
92686	1.6	1.05	0.1	5942.7
92687	1.65	1.	0.1	5932.4
92688	1.6	1.15	0.1	5942.2
92689	1.65	1.1	0.1	5929.6
92690	1.6	1.25	0.1	5943.8
92691	1.65	1.2	0.1	5928.9
92692	1.6	1.35	0.1	5947.3
92693	1.65	1.3	0.1	5930.1
92694	1.6	1.45	0.1	5952.3
92695	1.65	1.4	0.1	5933.
92696	1.6	1.55	0.1	5958.6
92697	1.65	1.5	0.1	5937.3
92698	1.6	1.65	0.1	5965.9
92699	1.65	1.6	0.1	5942.7
92700	1.6	1.75	0.1	5974.
92701	1.65	1.7	0.1	5949.
92702	1.6	1.85	0.1	5982.5
92703	1.65	1.8	0.1	5956.
92704	1.6	1.95	0.1	5991.2
92705	1.65	1.9	0.1	5963.4
92706	1.6	2.05	0.1	5999.8
92707	1.65	2.	0.1	5970.8
92708	1.6	2.15	0.1	6008.1
92709	1.65	2.1	0.1	5978.3
92710	1.6	2.25	0.1	6016.
92711	1.65	2.2	0.1	5985.4
92712	1.6	2.35	0.1	6023.3
92713	1.65	2.3	0.1	5992.1
92714	1.6	2.45	0.1	6029.8
92715	1.65	2.4	0.1	5998.3
92716	1.6	2.55	0.1	6035.4
92717	1.65	2.5	0.1	6003.6
92718	1.6	2.65	0.1	6039.9
92719	1.65	2.6	0.1	6008.2
92720	1.6	2.75	0.1	6043.4
92721	1.65	2.7	0.1	6011.8
92722	1.6	2.85	0.1	6045.8
92723	1.65	2.8	0.1	6014.5
92724	1.6	2.95	0.1	6047.
92725	1.65	2.9	0.1	6016.1
92726	1.6	3.05	0.1	6047.
92727	1.65	3.	0.1	6016.6
92728	1.6	3.15	0.1	6045.8
92729	1.65	3.1	0.1	6016.1
92730	1.6	3.25	0.1	6043.4
92731	1.65	3.2	0.1	6014.5
92732	1.6	3.35	0.1	6039.9
92733	1.65	3.3	0.1	6011.8
92734	1.6	3.45	0.1	6035.4
92735	1.65	3.4	0.1	6008.2
92736	1.6	3.55	0.1	6029.8
92737	1.65	3.5	0.1	6003.6
92738	1.6	3.65	0.1	6023.3
92739	1.65	3.6	0.1	5998.3
92740	1.6	3.75	0.1	6016.
92741	1.65	3.7	0.1	5992.1
92742	1.6	3.85	0.1	6008.1
92743	1.65	3.8	0.1	5985.4
92744	1.6	3.95	0.1	5999.8
92745	1.65	3.9	0.1	5978.3
92746	1.6	4.05	0.1	5991.2
92747	1.65	4.	0.1	5970.8
92748	1.6	4.15	0.1	5982.5
92749	1.65	4.1	0.1	5963.4
92750	1.6	4.25	0.1	5974.
92751	1.65	4.2	0.1	5956.
92752	1.6	4.35	0.1	5965.9
92753	1.65	4.3	0.1	5949.
92754	1.6	4.45	0.1	5958.6
92755	1.65	4.4	0.1	5942.7
92756	1.6	4.55	0.1	5952.3
92757	1.65	4.5	0.1	5937.3
92758	1.6	4.65	0.1	5947.3
92759	1.65	4.6	0.1	5933.
92760	1.6	4.75	0.1	5943.8
92761	1.65	4.7	0.1	5930.1
92762	1.6	4.85	0.1	5942.2
92763	1.65	4.8	0.1	5928.9
92764	1.6	4.95	0.1	5942.7
92765	1.65	4.9	0.1	5929.6
92766	1.6	5.05	0.1	5945.4
92767	1.65	5.	0.1	5932.4
92768	1.6	5.15	0.1	5950.6
92769	1.65	5.1	0.1	5937.4
92770	1.6	5.25	0.1	5958.4
92771	1.65	5.2	0.1	5944.8
92772	1.6	5.35	0.1	5968.7
92773	1.65	5.3	0.1	5954.6
92774	1.6	5.45	0.1	5981.6
92775	1.65	5.4	0.1	5966.8
92776	1.6	5.55	0.1	5997.
92777	1.65	5.5	0.1	5981.3
92778	1.6	5.65	0.1	6015.
92779	1.65	5.6	0.1	5998.2
92780	1.6	5.75	0.1	6035.5
92781	1.65	5.7	0.1	6017.4
92782	1.6	5.85	0.1	6063.7
92783	1.65	5.8	0.1	6039.1
92784	1.65	5.9	0.1	6072.6
92785	1.6	5.95	0.1	6023.3
92786	1.7	0.15	0.1	6048.1
92787	1.75	0.1	0.1	6054.1
92788	1.7	5.e-002	0.1	6012.6
92789	1.7	0.25	0.1	6021.1
92790	1.75	0.2	0.1	6022.4
92791	1.7	0.35	0.1	6000.8
92792	1.75	0.3	0.1	6001.2
92793	1.7	0.45	0.1	5982.6
92794	1.75	0.4	0.1	5982.1
92795	1.7	0.55	0.1	5966.6
92796	1.75	0.5	0.1	5964.9
92797	1.7	0.65	0.1	5952.7
92798	1.75	0.6	0.1	5949.7
92799	1.7	0.75	0.1	5941.1
92800	1.75	0.7	0.1	5936.5
92801	1.7	0.85	0.1	5931.6
92802	1.75	0.8	0.1	5925.4
92803	1.7	0.95	0.1	5924.4
92804	1.75	0.9	0.1	5916.4
92805	1.7	1.05	0.1	5919.3
92806	1.75	1.	0.1	5909.4
92807	1.7	1.15	0.1	5916.3
92808	1.75	1.1	0.1	5904.4
92809	1.7	1.25	0.1	5915.2
92810	1.75	1.2	0.1	5901.3
92811	1.7	1.35	0.1	5915.8
92812	1.75	1.3	0.1	5899.9
92813	1.7	1.45	0.1	5917.9
92814	1.75	1.4	0.1	5900.1
92815	1.7	1.55	0.1	5921.3
92816	1.75	1.5	0.1	5901.7
92817	1.7	1.65	0.1	5925.7
92818	1.75	1.6	0.1	5904.5
92819	1.7	1.75	0.1	5931.
92820	1.75	1.7	0.1	5908.1
92821	1.7	1.85	0.1	5936.8
92822	1.75	1.8	0.1	5912.6
92823	1.7	1.95	0.1	5942.9
92824	1.75	1.9	0.1	5917.5
92825	1.7	2.05	0.1	5949.2
92826	1.75	2.	0.1	5922.7
92827	1.7	2.15	0.1	5955.5
92828	1.75	2.1	0.1	5928.
92829	1.7	2.25	0.1	5961.4
92830	1.75	2.2	0.1	5933.2
92831	1.7	2.35	0.1	5967.
92832	1.75	2.3	0.1	5938.2
92833	1.7	2.45	0.1	5972.
92834	1.75	2.4	0.1	5942.8
92835	1.7	2.55	0.1	5976.4
92836	1.75	2.5	0.1	5946.9
92837	1.7	2.65	0.1	5980.
92838	1.75	2.6	0.1	5950.4
92839	1.7	2.75	0.1	5982.8
92840	1.75	2.7	0.1	5953.3
92841	1.7	2.85	0.1	5984.7
92842	1.75	2.8	0.1	5955.3
92843	1.7	2.95	0.1	5985.6
92844	1.75	2.9	0.1	5956.6
92845	1.7	3.05	0.1	5985.6
92846	1.75	3.	0.1	5957.
92847	1.7	3.15	0.1	5984.7
92848	1.75	3.1	0.1	5956.6
92849	1.7	3.25	0.1	5982.8
92850	1.75	3.2	0.1	5955.3
92851	1.7	3.35	0.1	5980.
92852	1.75	3.3	0.1	5953.3
92853	1.7	3.45	0.1	5976.4
92854	1.75	3.4	0.1	5950.4
92855	1.7	3.55	0.1	5972.
92856	1.75	3.5	0.1	5946.9
92857	1.7	3.65	0.1	5967.
92858	1.75	3.6	0.1	5942.8
92859	1.7	3.75	0.1	5961.4
92860	1.75	3.7	0.1	5938.2
92861	1.7	3.85	0.1	5955.5
92862	1.75	3.8	0.1	5933.2
92863	1.7	3.95	0.1	5949.2
92864	1.75	3.9	0.1	5928.
92865	1.7	4.05	0.1	5942.9
92866	1.75	4.	0.1	5922.7
92867	1.7	4.15	0.1	5936.8
92868	1.75	4.1	0.1	5917.5
92869	1.7	4.25	0.1	5931.
92870	1.75	4.2	0.1	5912.6
92871	1.7	4.35	0.1	5925.7
92872	1.75	4.3	0.1	5908.1
92873	1.7	4.45	0.1	5921.3
92874	1.75	4.4	0.1	5904.5
92875	1.7	4.55	0.1	5917.9
92876	1.75	4.5	0.1	5901.7
92877	1.7	4.65	0.1	5915.8
92878	1.75	4.6	0.1	5900.1
92879	1.7	4.75	0.1	5915.2
92880	1.75	4.7	0.1	5899.9
92881	1.7	4.85	0.1	5916.3
92882	1.75	4.8	0.1	5901.3
92883	1.7	4.95	0.1	5919.3
92884	1.75	4.9	0.1	5904.4
92885	1.7	5.05	0.1	5924.4
92886	1.75	5.	0.1	5909.4
92887	1.7	5.15	0.1	5931.6
92888	1.75	5.1	0.1	5916.4
92889	1.7	5.25	0.1	5941.1
92890	1.75	5.2	0.1	5925.4
92891	1.7	5.35	0.1	5952.7
92892	1.75	5.3	0.1	5936.5
92893	1.7	5.45	0.1	5966.6
92894	1.75	5.4	0.1	5949.7
92895	1.7	5.55	0.1	5982.6
92896	1.75	5.5	0.1	5964.9
92897	1.7	5.65	0.1	6000.8
92898	1.75	5.6	0.1	5982.1
92899	1.7	5.75	0.1	6021.1
92900	1.75	5.7	0.1	6001.2
92901	1.7	5.85	0.1	6048.1
92902	1.75	5.8	0.1	6022.4
92903	1.75	5.9	0.1	6054.1
92904	1.7	5.95	0.1	6012.6
92905	1.8	0.15	0.1	6028.5
92906	1.85	0.1	0.1	6032.
92907	1.8	5.e-002	0.1	5997.4
92908	1.8	0.25	0.1	6002.6
92909	1.85	0.2	0.1	6001.9
92910	1.8	0.35	0.1	5982.6
92911	1.85	0.3	0.1	5981.2
92912	1.8	0.45	0.1	5964.4
92913	1.85	0.4	0.1	5962.3
92914	1.8	0.55	0.1	5948.1
92915	1.85	0.5	0.1	5945.
92916	1.8	0.65	0.1	5933.5
92917	1.85	0.6	0.1	5929.4
92918	1.8	0.75	0.1	5920.9
92919	1.85	0.7	0.1	5915.5
92920	1.8	0.85	0.1	5910.1
92921	1.85	0.8	0.1	5903.4
92922	1.8	0.95	0.1	5901.3
92923	1.85	0.9	0.1	5893.1
92924	1.8	1.05	0.1	5894.4
92925	1.85	1.	0.1	5884.6
92926	1.8	1.15	0.1	5889.4
92927	1.85	1.1	0.1	5877.9
92928	1.8	1.25	0.1	5886.
92929	1.85	1.2	0.1	5872.9
92930	1.8	1.35	0.1	5884.3
92931	1.85	1.3	0.1	5869.4
92932	1.8	1.45	0.1	5883.9
92933	1.85	1.4	0.1	5867.4
92934	1.8	1.55	0.1	5884.8
92935	1.85	1.5	0.1	5866.8
92936	1.8	1.65	0.1	5886.8
92937	1.85	1.6	0.1	5867.2
92938	1.8	1.75	0.1	5889.6
92939	1.85	1.7	0.1	5868.6
92940	1.8	1.85	0.1	5893.1
92941	1.85	1.8	0.1	5870.8
92942	1.8	1.95	0.1	5897.1
92943	1.85	1.9	0.1	5873.6
92944	1.8	2.05	0.1	5901.3
92945	1.85	2.	0.1	5876.8
92946	1.8	2.15	0.1	5905.6
92947	1.85	2.1	0.1	5880.2
92948	1.8	2.25	0.1	5909.9
92949	1.85	2.2	0.1	5883.8
92950	1.8	2.35	0.1	5913.9
92951	1.85	2.3	0.1	5887.2
92952	1.8	2.45	0.1	5917.6
92953	1.85	2.4	0.1	5890.5
92954	1.8	2.55	0.1	5920.9
92955	1.85	2.5	0.1	5893.5
92956	1.8	2.65	0.1	5923.6
92957	1.85	2.6	0.1	5896.
92958	1.8	2.75	0.1	5925.7
92959	1.85	2.7	0.1	5898.1
92960	1.8	2.85	0.1	5927.1
92961	1.85	2.8	0.1	5899.6
92962	1.8	2.95	0.1	5927.8
92963	1.85	2.9	0.1	5900.5
92964	1.8	3.05	0.1	5927.8
92965	1.85	3.	0.1	5900.8
92966	1.8	3.15	0.1	5927.1
92967	1.85	3.1	0.1	5900.5
92968	1.8	3.25	0.1	5925.7
92969	1.85	3.2	0.1	5899.6
92970	1.8	3.35	0.1	5923.6
92971	1.85	3.3	0.1	5898.1
92972	1.8	3.45	0.1	5920.9
92973	1.85	3.4	0.1	5896.
92974	1.8	3.55	0.1	5917.6
92975	1.85	3.5	0.1	5893.4
92976	1.8	3.65	0.1	5913.9
92977	1.85	3.6	0.1	5890.5
92978	1.8	3.75	0.1	5909.9
92979	1.85	3.7	0.1	5887.2
92980	1.8	3.85	0.1	5905.6
92981	1.85	3.8	0.1	5883.8
92982	1.8	3.95	0.1	5901.3
92983	1.85	3.9	0.1	5880.2
92984	1.8	4.05	0.1	5897.1
92985	1.85	4.	0.1	5876.8
92986	1.8	4.15	0.1	5893.1
92987	1.85	4.1	0.1	5873.6
92988	1.8	4.25	0.1	5889.6
92989	1.85	4.2	0.1	5870.8
92990	1.8	4.35	0.1	5886.8
92991	1.85	4.3	0.1	5868.6
92992	1.8	4.45	0.1	5884.8
92993	1.85	4.4	0.1	5867.2
92994	1.8	4.55	0.1	5883.9
92995	1.85	4.5	0.1	5866.8
92996	1.8	4.65	0.1	5884.3
92997	1.85	4.6	0.1	5867.4
92998	1.8	4.75	0.1	5886.
92999	1.85	4.7	0.1	5869.4
93000	1.8	4.85	0.1	5889.4
93001	1.85	4.8	0.1	5872.9
93002	1.8	4.95	0.1	5894.4
93003	1.85	4.9	0.1	5877.9
93004	1.8	5.05	0.1	5901.3
93005	1.85	5.	0.1	5884.6
93006	1.8	5.15	0.1	5910.1
93007	1.85	5.1	0.1	5893.1
93008	1.8	5.25	0.1	5920.9
93009	1.85	5.2	0.1	5903.4
93010	1.8	5.35	0.1	5933.5
93011	1.85	5.3	0.1	5915.5
93012	1.8	5.45	0.1	5948.1
93013	1.85	5.4	0.1	5929.4
93014	1.8	5.55	0.1	5964.4
93015	1.85	5.5	0.1	5945.
93016	1.8	5.65	0.1	5982.6
93017	1.85	5.6	0.1	5962.3
93018	1.8	5.75	0.1	6002.6
93019	1.85	5.7	0.1	5981.2
93020	1.8	5.85	0.1	6028.5
93021	1.85	5.8	0.1	6001.9
93022	1.85	5.9	0.1	6032.
93023	1.8	5.95	0.1	5997.4
93024	1.9	0.15	0.1	6005.5
93025	1.95	0.1	0.1	6006.8
93026	1.9	5.e-002	0.1	5978.4
93027	1.9	0.25	0.1	5980.7
93028	1.95	0.2	0.1	5978.3
93029	1.9	0.35	0.1	5961.1
93030	1.95	0.3	0.1	5958.2
93031	1.9	0.45	0.1	5943.
93032	1.95	0.4	0.1	5939.5
93033	1.9	0.55	0.1	5926.5
93034	1.95	0.5	0.1	5922.3
93035	1.9	0.65	0.1	5911.5
93036	1.95	0.6	0.1	5906.5
93037	1.9	0.75	0.1	5898.2
93038	1.95	0.7	0.1	5892.1
93039	1.9	0.85	0.1	5886.5
93040	1.95	0.8	0.1	5879.3
93041	1.9	0.95	0.1	5876.5
93042	1.95	0.9	0.1	5868.1
93043	1.9	1.05	0.1	5868.1
93044	1.95	1.	0.1	5858.4
93045	1.9	1.15	0.1	5861.4
93046	1.95	1.1	0.1	5850.3
93047	1.9	1.25	0.1	5856.3
93048	1.95	1.2	0.1	5843.7
93049	1.9	1.35	0.1	5852.6
93050	1.95	1.3	0.1	5838.6
93051	1.9	1.45	0.1	5850.2
93052	1.95	1.4	0.1	5834.8
93053	1.9	1.55	0.1	5849.1
93054	1.95	1.5	0.1	5832.2
93055	1.9	1.65	0.1	5849.
93056	1.95	1.6	0.1	5830.8
93057	1.9	1.75	0.1	5849.7
93058	1.95	1.7	0.1	5830.3
93059	1.9	1.85	0.1	5851.2
93060	1.95	1.8	0.1	5830.6
93061	1.9	1.95	0.1	5853.3
93062	1.95	1.9	0.1	5831.5
93063	1.9	2.05	0.1	5855.7
93064	1.95	2.	0.1	5833.
93065	1.9	2.15	0.1	5858.3
93066	1.95	2.1	0.1	5834.8
93067	1.9	2.25	0.1	5861.
93068	1.95	2.2	0.1	5836.8
93069	1.9	2.35	0.1	5863.7
93070	1.95	2.3	0.1	5838.9
93071	1.9	2.45	0.1	5866.2
93072	1.95	2.4	0.1	5841.
93073	1.9	2.55	0.1	5868.5
93074	1.95	2.5	0.1	5842.9
93075	1.9	2.65	0.1	5870.4
93076	1.95	2.6	0.1	5844.6
93077	1.9	2.75	0.1	5871.9
93078	1.95	2.7	0.1	5846.
93079	1.9	2.85	0.1	5872.9
93080	1.95	2.8	0.1	5847.
93081	1.9	2.95	0.1	5873.4
93082	1.95	2.9	0.1	5847.6
93083	1.9	3.05	0.1	5873.4
93084	1.95	3.	0.1	5847.9
93085	1.9	3.15	0.1	5872.9
93086	1.95	3.1	0.1	5847.6
93087	1.9	3.25	0.1	5871.9
93088	1.95	3.2	0.1	5847.
93089	1.9	3.35	0.1	5870.4
93090	1.95	3.3	0.1	5846.
93091	1.9	3.45	0.1	5868.5
93092	1.95	3.4	0.1	5844.6
93093	1.9	3.55	0.1	5866.2
93094	1.95	3.5	0.1	5842.9
93095	1.9	3.65	0.1	5863.7
93096	1.95	3.6	0.1	5841.
93097	1.9	3.75	0.1	5861.
93098	1.95	3.7	0.1	5838.9
93099	1.9	3.85	0.1	5858.3
93100	1.95	3.8	0.1	5836.8
93101	1.9	3.95	0.1	5855.7
93102	1.95	3.9	0.1	5834.8
93103	1.9	4.05	0.1	5853.3
93104	1.95	4.	0.1	5833.
93105	1.9	4.15	0.1	5851.2
93106	1.95	4.1	0.1	5831.5
93107	1.9	4.25	0.1	5849.7
93108	1.95	4.2	0.1	5830.6
93109	1.9	4.35	0.1	5849.
93110	1.95	4.3	0.1	5830.3
93111	1.9	4.45	0.1	5849.1
93112	1.95	4.4	0.1	5830.8
93113	1.9	4.55	0.1	5850.2
93114	1.95	4.5	0.1	5832.2
93115	1.9	4.65	0.1	5852.6
93116	1.95	4.6	0.1	5834.8
93117	1.9	4.75	0.1	5856.3
93118	1.95	4.7	0.1	5838.6
93119	1.9	4.85	0.1	5861.4
93120	1.95	4.8	0.1	5843.7
93121	1.9	4.95	0.1	5868.1
93122	1.95	4.9	0.1	5850.3
93123	1.9	5.05	0.1	5876.5
93124	1.95	5.	0.1	5858.4
93125	1.9	5.15	0.1	5886.5
93126	1.95	5.1	0.1	5868.1
93127	1.9	5.25	0.1	5898.2
93128	1.95	5.2	0.1	5879.3
93129	1.9	5.35	0.1	5911.5
93130	1.95	5.3	0.1	5892.1
93131	1.9	5.45	0.1	5926.5
93132	1.95	5.4	0.1	5906.5
93133	1.9	5.55	0.1	5943.
93134	1.95	5.5	0.1	5922.3
93135	1.9	5.65	0.1	5961.1
93136	1.95	5.6	0.1	5939.5
93137	1.9	5.75	0.1	5980.7
93138	1.95	5.7	0.1	5958.2
93139	1.9	5.85	0.1	6005.5
93140	1.95	5.8	0.1	5978.3
93141	1.95	5.9	0.1	6006.8
93142	1.9	5.95	0.1	5978.4
93143	2.	0.15	0.1	5979.7
93144	2.05	0.1	0.1	5979.1
93145	2.	5.e-002	0.1	5956.2
93146	2.	0.25	0.1	5955.9
93147	2.05	0.2	0.1	5952.1
93148	2.	0.35	0.1	5936.7
93149	2.05	0.3	0.1	5932.5
93150	2.	0.45	0.1	5918.9
93151	2.05	0.4	0.1	5914.3
93152	2.	0.55	0.1	5902.4
93153	2.05	0.5	0.1	5897.1
93154	2.	0.65	0.1	5887.1
93155	2.05	0.6	0.1	5881.3
93156	2.	0.75	0.1	5873.3
93157	2.05	0.7	0.1	5866.6
93158	2.	0.85	0.1	5861.
93159	2.05	0.8	0.1	5853.3
93160	2.	0.95	0.1	5850.
93161	2.05	0.9	0.1	5841.4
93162	2.	1.05	0.1	5840.6
93163	2.05	1.	0.1	5830.9
93164	2.	1.15	0.1	5832.6
93165	2.05	1.1	0.1	5821.7
93166	2.	1.25	0.1	5826.
93167	2.05	1.2	0.1	5813.9
93168	2.	1.35	0.1	5820.8
93169	2.05	1.3	0.1	5807.4
93170	2.	1.45	0.1	5816.7
93171	2.05	1.4	0.1	5802.1
93172	2.	1.55	0.1	5813.9
93173	2.05	1.5	0.1	5798.
93174	2.	1.65	0.1	5812.
93175	2.05	1.6	0.1	5795.
93176	2.	1.75	0.1	5811.
93177	2.05	1.7	0.1	5792.9
93178	2.	1.85	0.1	5810.8
93179	2.05	1.8	0.1	5791.6
93180	2.	1.95	0.1	5811.2
93181	2.05	1.9	0.1	5791.
93182	2.	2.05	0.1	5812.
93183	2.05	2.	0.1	5790.9
93184	2.	2.15	0.1	5813.2
93185	2.05	2.1	0.1	5791.3
93186	2.	2.25	0.1	5814.6
93187	2.05	2.2	0.1	5792.
93188	2.	2.35	0.1	5816.
93189	2.05	2.3	0.1	5792.9
93190	2.	2.45	0.1	5817.5
93191	2.05	2.4	0.1	5793.9
93192	2.	2.55	0.1	5818.9
93193	2.05	2.5	0.1	5794.9
93194	2.	2.65	0.1	5820.1
93195	2.05	2.6	0.1	5795.8
93196	2.	2.75	0.1	5821.
93197	2.05	2.7	0.1	5796.6
93198	2.	2.85	0.1	5821.7
93199	2.05	2.8	0.1	5797.2
93200	2.	2.95	0.1	5822.
93201	2.05	2.9	0.1	5797.6
93202	2.	3.05	0.1	5822.
93203	2.05	3.	0.1	5797.8
93204	2.	3.15	0.1	5821.7
93205	2.05	3.1	0.1	5797.6
93206	2.	3.25	0.1	5821.
93207	2.05	3.2	0.1	5797.2
93208	2.	3.35	0.1	5820.1
93209	2.05	3.3	0.1	5796.6
93210	2.	3.45	0.1	5818.9
93211	2.05	3.4	0.1	5795.8
93212	2.	3.55	0.1	5817.5
93213	2.05	3.5	0.1	5794.9
93214	2.	3.65	0.1	5816.
93215	2.05	3.6	0.1	5793.9
93216	2.	3.75	0.1	5814.6
93217	2.05	3.7	0.1	5792.9
93218	2.	3.85	0.1	5813.2
93219	2.05	3.8	0.1	5792.
93220	2.	3.95	0.1	5812.
93221	2.05	3.9	0.1	5791.3
93222	2.	4.05	0.1	5811.2
93223	2.05	4.	0.1	5790.9
93224	2.	4.15	0.1	5810.8
93225	2.05	4.1	0.1	5791.
93226	2.	4.25	0.1	5811.
93227	2.05	4.2	0.1	5791.6
93228	2.	4.35	0.1	5812.
93229	2.05	4.3	0.1	5792.9
93230	2.	4.45	0.1	5813.9
93231	2.05	4.4	0.1	5795.
93232	2.	4.55	0.1	5816.7
93233	2.05	4.5	0.1	5798.
93234	2.	4.65	0.1	5820.8
93235	2.05	4.6	0.1	5802.1
93236	2.	4.75	0.1	5826.
93237	2.05	4.7	0.1	5807.4
93238	2.	4.85	0.1	5832.6
93239	2.05	4.8	0.1	5813.9
93240	2.	4.95	0.1	5840.6
93241	2.05	4.9	0.1	5821.7
93242	2.	5.05	0.1	5850.
93243	2.05	5.	0.1	5830.9
93244	2.	5.15	0.1	5861.
93245	2.05	5.1	0.1	5841.4
93246	2.	5.25	0.1	5873.3
93247	2.05	5.2	0.1	5853.3
93248	2.	5.35	0.1	5887.1
93249	2.05	5.3	0.1	5866.6
93250	2.	5.45	0.1	5902.4
93251	2.05	5.4	0.1	5881.2
93252	2.	5.55	0.1	5918.9
93253	2.05	5.5	0.1	5897.1
93254	2.	5.65	0.1	5936.7
93255	2.05	5.6	0.1	5914.3
93256	2.	5.75	0.1	5955.9
93257	2.05	5.7	0.1	5932.5
93258	2.	5.85	0.1	5979.7
93259	2.05	5.8	0.1	5952.1
93260	2.05	5.9	0.1	5979.1
93261	2.	5.95	0.1	5956.2
93262	2.1	0.15	0.1	5951.6
93263	2.15	0.1	0.1	5949.3
93264	2.1	5.e-002	0.1	5931.3
93265	2.1	0.25	0.1	5928.8
93266	2.15	0.2	0.1	5923.7
93267	2.1	0.35	0.1	5910.1
93268	2.15	0.3	0.1	5904.7
93269	2.1	0.45	0.1	5892.6
93270	2.15	0.4	0.1	5886.9
93271	2.1	0.55	0.1	5876.1
93272	2.15	0.5	0.1	5870.
93273	2.1	0.65	0.1	5860.8
93274	2.15	0.6	0.1	5854.1
93275	2.1	0.75	0.1	5846.7
93276	2.15	0.7	0.1	5839.4
93277	2.1	0.85	0.1	5833.8
93278	2.15	0.8	0.1	5825.8
93279	2.1	0.95	0.1	5822.3
93280	2.15	0.9	0.1	5813.4
93281	2.1	1.05	0.1	5812.
93282	2.15	1.	0.1	5802.2
93283	2.1	1.15	0.1	5803.
93284	2.15	1.1	0.1	5792.2
93285	2.1	1.25	0.1	5795.2
93286	2.15	1.2	0.1	5783.4
93287	2.1	1.35	0.1	5788.7
93288	2.15	1.3	0.1	5775.9
93289	2.1	1.45	0.1	5783.4
93290	2.15	1.4	0.1	5769.4
93291	2.1	1.55	0.1	5779.1
93292	2.15	1.5	0.1	5764.1
93293	2.1	1.65	0.1	5775.8
93294	2.15	1.6	0.1	5759.7
93295	2.1	1.75	0.1	5773.3
93296	2.15	1.7	0.1	5756.3
93297	2.1	1.85	0.1	5771.7
93298	2.15	1.8	0.1	5753.6
93299	2.1	1.95	0.1	5770.6
93300	2.15	1.9	0.1	5751.7
93301	2.1	2.05	0.1	5770.1
93302	2.15	2.	0.1	5750.4
93303	2.1	2.15	0.1	5770.
93304	2.15	2.1	0.1	5749.6
93305	2.1	2.25	0.1	5770.2
93306	2.15	2.2	0.1	5749.1
93307	2.1	2.35	0.1	5770.7
93308	2.15	2.3	0.1	5749.
93309	2.1	2.45	0.1	5771.2
93310	2.15	2.4	0.1	5749.1
93311	2.1	2.55	0.1	5771.8
93312	2.15	2.5	0.1	5749.3
93313	2.1	2.65	0.1	5772.3
93314	2.15	2.6	0.1	5749.5
93315	2.1	2.75	0.1	5772.8
93316	2.15	2.7	0.1	5749.8
93317	2.1	2.85	0.1	5773.1
93318	2.15	2.8	0.1	5750.
93319	2.1	2.95	0.1	5773.3
93320	2.15	2.9	0.1	5750.2
93321	2.1	3.05	0.1	5773.3
93322	2.15	3.	0.1	5750.2
93323	2.1	3.15	0.1	5773.1
93324	2.15	3.1	0.1	5750.2
93325	2.1	3.25	0.1	5772.8
93326	2.15	3.2	0.1	5750.
93327	2.1	3.35	0.1	5772.3
93328	2.15	3.3	0.1	5749.8
93329	2.1	3.45	0.1	5771.8
93330	2.15	3.4	0.1	5749.5
93331	2.1	3.55	0.1	5771.2
93332	2.15	3.5	0.1	5749.3
93333	2.1	3.65	0.1	5770.7
93334	2.15	3.6	0.1	5749.1
93335	2.1	3.75	0.1	5770.2
93336	2.15	3.7	0.1	5749.
93337	2.1	3.85	0.1	5770.
93338	2.15	3.8	0.1	5749.1
93339	2.1	3.95	0.1	5770.1
93340	2.15	3.9	0.1	5749.6
93341	2.1	4.05	0.1	5770.6
93342	2.15	4.	0.1	5750.4
93343	2.1	4.15	0.1	5771.7
93344	2.15	4.1	0.1	5751.7
93345	2.1	4.25	0.1	5773.3
93346	2.15	4.2	0.1	5753.6
93347	2.1	4.35	0.1	5775.8
93348	2.15	4.3	0.1	5756.3
93349	2.1	4.45	0.1	5779.1
93350	2.15	4.4	0.1	5759.7
93351	2.1	4.55	0.1	5783.4
93352	2.15	4.5	0.1	5764.1
93353	2.1	4.65	0.1	5788.7
93354	2.15	4.6	0.1	5769.4
93355	2.1	4.75	0.1	5795.2
93356	2.15	4.7	0.1	5775.9
93357	2.1	4.85	0.1	5803.
93358	2.15	4.8	0.1	5783.4
93359	2.1	4.95	0.1	5812.
93360	2.15	4.9	0.1	5792.2
93361	2.1	5.05	0.1	5822.3
93362	2.15	5.	0.1	5802.2
93363	2.1	5.15	0.1	5833.8
93364	2.15	5.1	0.1	5813.4
93365	2.1	5.25	0.1	5846.7
93366	2.15	5.2	0.1	5825.8
93367	2.1	5.35	0.1	5860.8
93368	2.15	5.3	0.1	5839.4
93369	2.1	5.45	0.1	5876.1
93370	2.15	5.4	0.1	5854.1
93371	2.1	5.55	0.1	5892.6
93372	2.15	5.5	0.1	5870.
93373	2.1	5.65	0.1	5910.1
93374	2.15	5.6	0.1	5886.9
93375	2.1	5.75	0.1	5928.8
93376	2.15	5.7	0.1	5904.7
93377	2.1	5.85	0.1	5951.6
93378	2.15	5.8	0.1	5923.7
93379	2.15	5.9	0.1	5949.3
93380	2.1	5.95	0.1	5931.3
93381	2.2	0.15	0.1	5921.5
93382	2.25	0.1	0.1	5917.8
93383	2.2	5.e-002	0.1	5904.2
93384	2.2	0.25	0.1	5899.7
93385	2.25	0.2	0.1	5893.5
93386	2.2	0.35	0.1	5881.5
93387	2.25	0.3	0.1	5875.1
93388	2.2	0.45	0.1	5864.3
93389	2.25	0.4	0.1	5857.7
93390	2.2	0.55	0.1	5848.1
93391	2.25	0.5	0.1	5841.1
93392	2.2	0.65	0.1	5832.8
93393	2.25	0.6	0.1	5825.4
93394	2.2	0.75	0.1	5818.5
93395	2.25	0.7	0.1	5810.6
93396	2.2	0.85	0.1	5805.4
93397	2.25	0.8	0.1	5796.9
93398	2.2	0.95	0.1	5793.3
93399	2.25	0.9	0.1	5784.2
93400	2.2	1.05	0.1	5782.4
93401	2.25	1.	0.1	5772.5
93402	2.2	1.15	0.1	5772.7
93403	2.25	1.1	0.1	5761.9
93404	2.2	1.25	0.1	5764.
93405	2.25	1.2	0.1	5752.5
93406	2.2	1.35	0.1	5756.5
93407	2.25	1.3	0.1	5744.
93408	2.2	1.45	0.1	5750.1
93409	2.25	1.4	0.1	5736.7
93410	2.2	1.55	0.1	5744.7
93411	2.25	1.5	0.1	5730.3
93412	2.2	1.65	0.1	5740.2
93413	2.25	1.6	0.1	5724.9
93414	2.2	1.75	0.1	5736.5
93415	2.25	1.7	0.1	5720.4
93416	2.2	1.85	0.1	5733.6
93417	2.25	1.8	0.1	5716.6
93418	2.2	1.95	0.1	5731.4
93419	2.25	1.9	0.1	5713.6
93420	2.2	2.05	0.1	5729.7
93421	2.25	2.	0.1	5711.2
93422	2.2	2.15	0.1	5728.6
93423	2.25	2.1	0.1	5709.3
93424	2.2	2.25	0.1	5727.8
93425	2.25	2.2	0.1	5707.9
93426	2.2	2.35	0.1	5727.3
93427	2.25	2.3	0.1	5706.9
93428	2.2	2.45	0.1	5727.1
93429	2.25	2.4	0.1	5706.2
93430	2.2	2.55	0.1	5727.
93431	2.25	2.5	0.1	5705.7
93432	2.2	2.65	0.1	5726.9
93433	2.25	2.6	0.1	5705.4
93434	2.2	2.75	0.1	5727.
93435	2.25	2.7	0.1	5705.3
93436	2.2	2.85	0.1	5727.
93437	2.25	2.8	0.1	5705.2
93438	2.2	2.95	0.1	5727.1
93439	2.25	2.9	0.1	5705.1
93440	2.2	3.05	0.1	5727.1
93441	2.25	3.	0.1	5705.1
93442	2.2	3.15	0.1	5727.
93443	2.25	3.1	0.1	5705.1
93444	2.2	3.25	0.1	5727.
93445	2.25	3.2	0.1	5705.2
93446	2.2	3.35	0.1	5726.9
93447	2.25	3.3	0.1	5705.3
93448	2.2	3.45	0.1	5727.
93449	2.25	3.4	0.1	5705.4
93450	2.2	3.55	0.1	5727.1
93451	2.25	3.5	0.1	5705.7
93452	2.2	3.65	0.1	5727.3
93453	2.25	3.6	0.1	5706.2
93454	2.2	3.75	0.1	5727.8
93455	2.25	3.7	0.1	5706.9
93456	2.2	3.85	0.1	5728.6
93457	2.25	3.8	0.1	5707.9
93458	2.2	3.95	0.1	5729.7
93459	2.25	3.9	0.1	5709.3
93460	2.2	4.05	0.1	5731.4
93461	2.25	4.	0.1	5711.2
93462	2.2	4.15	0.1	5733.6
93463	2.25	4.1	0.1	5713.6
93464	2.2	4.25	0.1	5736.5
93465	2.25	4.2	0.1	5716.6
93466	2.2	4.35	0.1	5740.2
93467	2.25	4.3	0.1	5720.4
93468	2.2	4.45	0.1	5744.7
93469	2.25	4.4	0.1	5724.9
93470	2.2	4.55	0.1	5750.1
93471	2.25	4.5	0.1	5730.3
93472	2.2	4.65	0.1	5756.5
93473	2.25	4.6	0.1	5736.7
93474	2.2	4.75	0.1	5764.
93475	2.25	4.7	0.1	5744.
93476	2.2	4.85	0.1	5772.7
93477	2.25	4.8	0.1	5752.5
93478	2.2	4.95	0.1	5782.4
93479	2.25	4.9	0.1	5761.9
93480	2.2	5.05	0.1	5793.3
93481	2.25	5.	0.1	5772.5
93482	2.2	5.15	0.1	5805.4
93483	2.25	5.1	0.1	5784.2
93484	2.2	5.25	0.1	5818.5
93485	2.25	5.2	0.1	5796.9
93486	2.2	5.35	0.1	5832.8
93487	2.25	5.3	0.1	5810.6
93488	2.2	5.45	0.1	5848.1
93489	2.25	5.4	0.1	5825.4
93490	2.2	5.55	0.1	5864.3
93491	2.25	5.5	0.1	5841.1
93492	2.2	5.65	0.1	5881.5
93493	2.25	5.6	0.1	5857.7
93494	2.2	5.75	0.1	5899.7
93495	2.25	5.7	0.1	5875.1
93496	2.2	5.85	0.1	5921.5
93497	2.25	5.8	0.1	5893.5
93498	2.25	5.9	0.1	5917.8
93499	2.2	5.95	0.1	5904.2
93500	2.3	0.15	0.1	5889.8
93501	2.35	0.1	0.1	5884.8
93502	2.3	5.e-002	0.1	5875.1
93503	2.3	0.25	0.1	5869.
93504	2.35	0.2	0.1	5861.8
93505	2.3	0.35	0.1	5851.4
93506	2.35	0.3	0.1	5844.
93507	2.3	0.45	0.1	5834.5
93508	2.35	0.4	0.1	5827.1
93509	2.3	0.55	0.1	5818.5
93510	2.35	0.5	0.1	5810.8
93511	2.3	0.65	0.1	5803.3
93512	2.35	0.6	0.1	5795.3
93513	2.3	0.75	0.1	5789.1
93514	2.35	0.7	0.1	5780.7
93515	2.3	0.85	0.1	5775.7
93516	2.35	0.8	0.1	5766.9
93517	2.3	0.95	0.1	5763.4
93518	2.35	0.9	0.1	5754.
93519	2.3	1.05	0.1	5752.1
93520	2.35	1.	0.1	5742.
93521	2.3	1.15	0.1	5741.8
93522	2.35	1.1	0.1	5731.
93523	2.3	1.25	0.1	5732.5
93524	2.35	1.2	0.1	5721.
93525	2.3	1.35	0.1	5724.2
93526	2.35	1.3	0.1	5712.
93527	2.3	1.45	0.1	5716.9
93528	2.35	1.4	0.1	5703.9
93529	2.3	1.55	0.1	5710.5
93530	2.35	1.5	0.1	5696.7
93531	2.3	1.65	0.1	5705.1
93532	2.35	1.6	0.1	5690.5
93533	2.3	1.75	0.1	5700.4
93534	2.35	1.7	0.1	5685.1
93535	2.3	1.85	0.1	5696.5
93536	2.35	1.8	0.1	5680.4
93537	2.3	1.95	0.1	5693.3
93538	2.35	1.9	0.1	5676.5
93539	2.3	2.05	0.1	5690.7
93540	2.35	2.	0.1	5673.2
93541	2.3	2.15	0.1	5688.6
93542	2.35	2.1	0.1	5670.5
93543	2.3	2.25	0.1	5687.
93544	2.35	2.2	0.1	5668.3
93545	2.3	2.35	0.1	5685.8
93546	2.35	2.3	0.1	5666.5
93547	2.3	2.45	0.1	5684.8
93548	2.35	2.4	0.1	5665.1
93549	2.3	2.55	0.1	5684.1
93550	2.35	2.5	0.1	5664.1
93551	2.3	2.65	0.1	5683.7
93552	2.35	2.6	0.1	5663.3
93553	2.3	2.75	0.1	5683.3
93554	2.35	2.7	0.1	5662.7
93555	2.3	2.85	0.1	5683.1
93556	2.35	2.8	0.1	5662.3
93557	2.3	2.95	0.1	5683.
93558	2.35	2.9	0.1	5662.1
93559	2.3	3.05	0.1	5683.
93560	2.35	3.	0.1	5662.
93561	2.3	3.15	0.1	5683.1
93562	2.35	3.1	0.1	5662.1
93563	2.3	3.25	0.1	5683.3
93564	2.35	3.2	0.1	5662.3
93565	2.3	3.35	0.1	5683.7
93566	2.35	3.3	0.1	5662.7
93567	2.3	3.45	0.1	5684.1
93568	2.35	3.4	0.1	5663.3
93569	2.3	3.55	0.1	5684.8
93570	2.35	3.5	0.1	5664.1
93571	2.3	3.65	0.1	5685.8
93572	2.35	3.6	0.1	5665.1
93573	2.3	3.75	0.1	5687.
93574	2.35	3.7	0.1	5666.5
93575	2.3	3.85	0.1	5688.6
93576	2.35	3.8	0.1	5668.3
93577	2.3	3.95	0.1	5690.7
93578	2.35	3.9	0.1	5670.5
93579	2.3	4.05	0.1	5693.3
93580	2.35	4.	0.1	5673.2
93581	2.3	4.15	0.1	5696.5
93582	2.35	4.1	0.1	5676.5
93583	2.3	4.25	0.1	5700.4
93584	2.35	4.2	0.1	5680.4
93585	2.3	4.35	0.1	5705.1
93586	2.35	4.3	0.1	5685.1
93587	2.3	4.45	0.1	5710.5
93588	2.35	4.4	0.1	5690.5
93589	2.3	4.55	0.1	5716.9
93590	2.35	4.5	0.1	5696.7
93591	2.3	4.65	0.1	5724.2
93592	2.35	4.6	0.1	5703.9
93593	2.3	4.75	0.1	5732.5
93594	2.35	4.7	0.1	5712.
93595	2.3	4.85	0.1	5741.7
93596	2.35	4.8	0.1	5721.
93597	2.3	4.95	0.1	5752.1
93598	2.35	4.9	0.1	5731.
93599	2.3	5.05	0.1	5763.4
93600	2.35	5.	0.1	5742.
93601	2.3	5.15	0.1	5775.7
93602	2.35	5.1	0.1	5754.
93603	2.3	5.25	0.1	5789.1
93604	2.35	5.2	0.1	5766.9
93605	2.3	5.35	0.1	5803.3
93606	2.35	5.3	0.1	5780.7
93607	2.3	5.45	0.1	5818.5
93608	2.35	5.4	0.1	5795.3
93609	2.3	5.55	0.1	5834.5
93610	2.35	5.5	0.1	5810.8
93611	2.3	5.65	0.1	5851.3
93612	2.35	5.6	0.1	5827.1
93613	2.3	5.75	0.1	5869.
93614	2.35	5.7	0.1	5844.
93615	2.3	5.85	0.1	5889.8
93616	2.35	5.8	0.1	5861.8
93617	2.35	5.9	0.1	5884.8
93618	2.3	5.95	0.1	5875.1
93619	2.4	0.15	0.1	5856.8
93620	2.45	0.1	0.1	5850.7
93621	2.4	5.e-002	0.1	5844.4
93622	2.4	0.25	0.1	5836.9
93623	2.45	0.2	0.1	5828.8
93624	2.4	0.35	0.1	5819.8
93625	2.45	0.3	0.1	5811.7
93626	2.4	0.45	0.1	5803.4
93627	2.45	0.4	0.1	5795.2
93628	2.4	0.55	0.1	5787.7
93629	2.45	0.5	0.1	5779.3
93630	2.4	0.65	0.1	5772.7
93631	2.45	0.6	0.1	5764.1
93632	2.4	0.75	0.1	5758.5
93633	2.45	0.7	0.1	5749.6
93634	2.4	0.85	0.1	5745.1
93635	2.45	0.8	0.1	5735.9
93636	2.4	0.95	0.1	5732.6
93637	2.45	0.9	0.1	5722.9
93638	2.4	1.05	0.1	5721.
93639	2.45	1.	0.1	5710.8
93640	2.4	1.15	0.1	5710.3
93641	2.45	1.1	0.1	5699.6
93642	2.4	1.25	0.1	5700.6
93643	2.45	1.2	0.1	5689.2
93644	2.4	1.35	0.1	5691.7
93645	2.45	1.3	0.1	5679.7
93646	2.4	1.45	0.1	5683.7
93647	2.45	1.4	0.1	5671.1
93648	2.4	1.55	0.1	5676.7
93649	2.45	1.5	0.1	5663.3
93650	2.4	1.65	0.1	5670.4
93651	2.45	1.6	0.1	5656.4
93652	2.4	1.75	0.1	5665.
93653	2.45	1.7	0.1	5650.3
93654	2.4	1.85	0.1	5660.3
93655	2.45	1.8	0.1	5644.9
93656	2.4	1.95	0.1	5656.3
93657	2.45	1.9	0.1	5640.2
93658	2.4	2.05	0.1	5652.9
93659	2.45	2.	0.1	5636.2
93660	2.4	2.15	0.1	5650.1
93661	2.45	2.1	0.1	5632.8
93662	2.4	2.25	0.1	5647.7
93663	2.45	2.2	0.1	5630.
93664	2.4	2.35	0.1	5645.8
93665	2.45	2.3	0.1	5627.6
93666	2.4	2.45	0.1	5644.3
93667	2.45	2.4	0.1	5625.6
93668	2.4	2.55	0.1	5643.1
93669	2.45	2.5	0.1	5624.1
93670	2.4	2.65	0.1	5642.2
93671	2.45	2.6	0.1	5622.9
93672	2.4	2.75	0.1	5641.6
93673	2.45	2.7	0.1	5622.
93674	2.4	2.85	0.1	5641.2
93675	2.45	2.8	0.1	5621.3
93676	2.4	2.95	0.1	5641.
93677	2.45	2.9	0.1	5621.
93678	2.4	3.05	0.1	5641.
93679	2.45	3.	0.1	5620.9
93680	2.4	3.15	0.1	5641.2
93681	2.45	3.1	0.1	5621.
93682	2.4	3.25	0.1	5641.6
93683	2.45	3.2	0.1	5621.3
93684	2.4	3.35	0.1	5642.2
93685	2.45	3.3	0.1	5622.
93686	2.4	3.45	0.1	5643.1
93687	2.45	3.4	0.1	5622.9
93688	2.4	3.55	0.1	5644.3
93689	2.45	3.5	0.1	5624.1
93690	2.4	3.65	0.1	5645.8
93691	2.45	3.6	0.1	5625.6
93692	2.4	3.75	0.1	5647.7
93693	2.45	3.7	0.1	5627.6
93694	2.4	3.85	0.1	5650.1
93695	2.45	3.8	0.1	5630.
93696	2.4	3.95	0.1	5652.9
93697	2.45	3.9	0.1	5632.8
93698	2.4	4.05	0.1	5656.3
93699	2.45	4.	0.1	5636.2
93700	2.4	4.15	0.1	5660.3
93701	2.45	4.1	0.1	5640.2
93702	2.4	4.25	0.1	5665.
93703	2.45	4.2	0.1	5644.9
93704	2.4	4.35	0.1	5670.4
93705	2.45	4.3	0.1	5650.3
93706	2.4	4.45	0.1	5676.7
93707	2.45	4.4	0.1	5656.4
93708	2.4	4.55	0.1	5683.7
93709	2.45	4.5	0.1	5663.3
93710	2.4	4.65	0.1	5691.7
93711	2.45	4.6	0.1	5671.1
93712	2.4	4.75	0.1	5700.6
93713	2.45	4.7	0.1	5679.7
93714	2.4	4.85	0.1	5710.3
93715	2.45	4.8	0.1	5689.2
93716	2.4	4.95	0.1	5721.
93717	2.45	4.9	0.1	5699.6
93718	2.4	5.05	0.1	5732.6
93719	2.45	5.	0.1	5710.8
93720	2.4	5.15	0.1	5745.1
93721	2.45	5.1	0.1	5722.9
93722	2.4	5.25	0.1	5758.5
93723	2.45	5.2	0.1	5735.9
93724	2.4	5.35	0.1	5772.7
93725	2.45	5.3	0.1	5749.6
93726	2.4	5.45	0.1	5787.7
93727	2.45	5.4	0.1	5764.1
93728	2.4	5.55	0.1	5803.4
93729	2.45	5.5	0.1	5779.3
93730	2.4	5.65	0.1	5819.8
93731	2.45	5.6	0.1	5795.2
93732	2.4	5.75	0.1	5836.9
93733	2.45	5.7	0.1	5811.7
93734	2.4	5.85	0.1	5856.8
93735	2.45	5.8	0.1	5828.8
93736	2.45	5.9	0.1	5850.7
93737	2.4	5.95	0.1	5844.4
93738	2.5	0.15	0.1	5822.7
93739	2.55	0.1	0.1	5815.5
93740	2.5	5.e-002	0.1	5812.4
93741	2.5	0.25	0.1	5803.7
93742	2.55	0.2	0.1	5794.8
93743	2.5	0.35	0.1	5787.1
93744	2.55	0.3	0.1	5778.3
93745	2.5	0.45	0.1	5771.2
93746	2.55	0.4	0.1	5762.3
93747	2.5	0.55	0.1	5755.8
93748	2.55	0.5	0.1	5746.8
93749	2.5	0.65	0.1	5741.1
93750	2.55	0.6	0.1	5732.
93751	2.5	0.75	0.1	5727.1
93752	2.55	0.7	0.1	5717.7
93753	2.5	0.85	0.1	5713.7
93754	2.55	0.8	0.1	5704.1
93755	2.5	0.95	0.1	5701.2
93756	2.55	0.9	0.1	5691.2
93757	2.5	1.05	0.1	5689.4
93758	2.55	1.	0.1	5679.1
93759	2.5	1.15	0.1	5678.5
93760	2.55	1.1	0.1	5667.7
93761	2.5	1.25	0.1	5668.4
93762	2.55	1.2	0.1	5657.1
93763	2.5	1.35	0.1	5659.1
93764	2.55	1.3	0.1	5647.3
93765	2.5	1.45	0.1	5650.7
93766	2.55	1.4	0.1	5638.3
93767	2.5	1.55	0.1	5643.
93768	2.55	1.5	0.1	5630.
93769	2.5	1.65	0.1	5636.2
93770	2.55	1.6	0.1	5622.6
93771	2.5	1.75	0.1	5630.2
93772	2.55	1.7	0.1	5616.
93773	2.5	1.85	0.1	5624.8
93774	2.55	1.8	0.1	5610.
93775	2.5	1.95	0.1	5620.1
93776	2.55	1.9	0.1	5604.8
93777	2.5	2.05	0.1	5616.1
93778	2.55	2.	0.1	5600.2
93779	2.5	2.15	0.1	5612.7
93780	2.55	2.1	0.1	5596.2
93781	2.5	2.25	0.1	5609.8
93782	2.55	2.2	0.1	5592.8
93783	2.5	2.35	0.1	5607.3
93784	2.55	2.3	0.1	5589.9
93785	2.5	2.45	0.1	5605.3
93786	2.55	2.4	0.1	5587.5
93787	2.5	2.55	0.1	5603.7
93788	2.55	2.5	0.1	5585.6
93789	2.5	2.65	0.1	5602.5
93790	2.55	2.6	0.1	5584.
93791	2.5	2.75	0.1	5601.6
93792	2.55	2.7	0.1	5582.9
93793	2.5	2.85	0.1	5601.
93794	2.55	2.8	0.1	5582.
93795	2.5	2.95	0.1	5600.8
93796	2.55	2.9	0.1	5581.5
93797	2.5	3.05	0.1	5600.8
93798	2.55	3.	0.1	5581.4
93799	2.5	3.15	0.1	5601.
93800	2.55	3.1	0.1	5581.5
93801	2.5	3.25	0.1	5601.6
93802	2.55	3.2	0.1	5582.
93803	2.5	3.35	0.1	5602.5
93804	2.55	3.3	0.1	5582.9
93805	2.5	3.45	0.1	5603.7
93806	2.55	3.4	0.1	5584.
93807	2.5	3.55	0.1	5605.3
93808	2.55	3.5	0.1	5585.6
93809	2.5	3.65	0.1	5607.3
93810	2.55	3.6	0.1	5587.5
93811	2.5	3.75	0.1	5609.8
93812	2.55	3.7	0.1	5589.9
93813	2.5	3.85	0.1	5612.7
93814	2.55	3.8	0.1	5592.8
93815	2.5	3.95	0.1	5616.1
93816	2.55	3.9	0.1	5596.2
93817	2.5	4.05	0.1	5620.1
93818	2.55	4.	0.1	5600.2
93819	2.5	4.15	0.1	5624.8
93820	2.55	4.1	0.1	5604.8
93821	2.5	4.25	0.1	5630.2
93822	2.55	4.2	0.1	5610.
93823	2.5	4.35	0.1	5636.2
93824	2.55	4.3	0.1	5616.
93825	2.5	4.45	0.1	5643.
93826	2.55	4.4	0.1	5622.6
93827	2.5	4.55	0.1	5650.7
93828	2.55	4.5	0.1	5630.
93829	2.5	4.65	0.1	5659.1
93830	2.55	4.6	0.1	5638.3
93831	2.5	4.75	0.1	5668.4
93832	2.55	4.7	0.1	5647.3
93833	2.5	4.85	0.1	5678.5
93834	2.55	4.8	0.1	5657.1
93835	2.5	4.95	0.1	5689.4
93836	2.55	4.9	0.1	5667.7
93837	2.5	5.05	0.1	5701.2
93838	2.55	5.	0.1	5679.1
93839	2.5	5.15	0.1	5713.7
93840	2.55	5.1	0.1	5691.2
93841	2.5	5.25	0.1	5727.1
93842	2.55	5.2	0.1	5704.1
93843	2.5	5.35	0.1	5741.1
93844	2.55	5.3	0.1	5717.7
93845	2.5	5.45	0.1	5755.8
93846	2.55	5.4	0.1	5732.
93847	2.5	5.55	0.1	5771.2
93848	2.55	5.5	0.1	5746.8
93849	2.5	5.65	0.1	5787.1
93850	2.55	5.6	0.1	5762.3
93851	2.5	5.75	0.1	5803.6
93852	2.55	5.7	0.1	5778.3
93853	2.5	5.85	0.1	5822.7
93854	2.55	5.8	0.1	5794.8
93855	2.55	5.9	0.1	5815.5
93856	2.5	5.95	0.1	5812.4
93857	2.6	0.15	0.1	5787.7
93858	2.65	0.1	0.1	5779.6
93859	2.6	5.e-002	0.1	5779.2
93860	2.6	0.25	0.1	5769.5
93861	2.65	0.2	0.1	5759.9
93862	2.6	0.35	0.1	5753.5
93863	2.65	0.3	0.1	5744.
93864	2.6	0.45	0.1	5738.
93865	2.65	0.4	0.1	5728.5
93866	2.6	0.55	0.1	5723.1
93867	2.65	0.5	0.1	5713.5
93868	2.6	0.65	0.1	5708.6
93869	2.65	0.6	0.1	5699.
93870	2.6	0.75	0.1	5694.8
93871	2.65	0.7	0.1	5685.1
93872	2.6	0.85	0.1	5681.6
93873	2.65	0.8	0.1	5671.7
93874	2.6	0.95	0.1	5669.1
93875	2.65	0.9	0.1	5658.9
93876	2.6	1.05	0.1	5657.3
93877	2.65	1.	0.1	5646.8
93878	2.6	1.15	0.1	5646.3
93879	2.65	1.1	0.1	5635.4
93880	2.6	1.25	0.1	5636.
93881	2.65	1.2	0.1	5624.7
93882	2.6	1.35	0.1	5626.4
93883	2.65	1.3	0.1	5614.7
93884	2.6	1.45	0.1	5617.6
93885	2.65	1.4	0.1	5605.4
93886	2.6	1.55	0.1	5609.6
93887	2.65	1.5	0.1	5596.9
93888	2.6	1.65	0.1	5602.4
93889	2.65	1.6	0.1	5589.1
93890	2.6	1.75	0.1	5595.8
93891	2.65	1.7	0.1	5582.1
93892	2.6	1.85	0.1	5590.
93893	2.65	1.8	0.1	5575.7
93894	2.6	1.95	0.1	5584.8
93895	2.65	1.9	0.1	5570.
93896	2.6	2.05	0.1	5580.3
93897	2.65	2.	0.1	5565.
93898	2.6	2.15	0.1	5576.3
93899	2.65	2.1	0.1	5560.6
93900	2.6	2.25	0.1	5573.
93901	2.65	2.2	0.1	5556.7
93902	2.6	2.35	0.1	5570.1
93903	2.65	2.3	0.1	5553.5
93904	2.6	2.45	0.1	5567.7
93905	2.65	2.4	0.1	5550.7
93906	2.6	2.55	0.1	5565.8
93907	2.65	2.5	0.1	5548.4
93908	2.6	2.65	0.1	5564.3
93909	2.65	2.6	0.1	5546.6
93910	2.6	2.75	0.1	5563.2
93911	2.65	2.7	0.1	5545.2
93912	2.6	2.85	0.1	5562.5
93913	2.65	2.8	0.1	5544.2
93914	2.6	2.95	0.1	5562.1
93915	2.65	2.9	0.1	5543.6
93916	2.6	3.05	0.1	5562.1
93917	2.65	3.	0.1	5543.4
93918	2.6	3.15	0.1	5562.5
93919	2.65	3.1	0.1	5543.6
93920	2.6	3.25	0.1	5563.2
93921	2.65	3.2	0.1	5544.2
93922	2.6	3.35	0.1	5564.3
93923	2.65	3.3	0.1	5545.2
93924	2.6	3.45	0.1	5565.8
93925	2.65	3.4	0.1	5546.6
93926	2.6	3.55	0.1	5567.7
93927	2.65	3.5	0.1	5548.4
93928	2.6	3.65	0.1	5570.1
93929	2.65	3.6	0.1	5550.7
93930	2.6	3.75	0.1	5573.
93931	2.65	3.7	0.1	5553.5
93932	2.6	3.85	0.1	5576.3
93933	2.65	3.8	0.1	5556.7
93934	2.6	3.95	0.1	5580.3
93935	2.65	3.9	0.1	5560.6
93936	2.6	4.05	0.1	5584.8
93937	2.65	4.	0.1	5565.
93938	2.6	4.15	0.1	5590.
93939	2.65	4.1	0.1	5570.
93940	2.6	4.25	0.1	5595.8
93941	2.65	4.2	0.1	5575.7
93942	2.6	4.35	0.1	5602.4
93943	2.65	4.3	0.1	5582.1
93944	2.6	4.45	0.1	5609.6
93945	2.65	4.4	0.1	5589.1
93946	2.6	4.55	0.1	5617.6
93947	2.65	4.5	0.1	5596.9
93948	2.6	4.65	0.1	5626.4
93949	2.65	4.6	0.1	5605.4
93950	2.6	4.75	0.1	5636.
93951	2.65	4.7	0.1	5614.7
93952	2.6	4.85	0.1	5646.3
93953	2.65	4.8	0.1	5624.7
93954	2.6	4.95	0.1	5657.3
93955	2.65	4.9	0.1	5635.4
93956	2.6	5.05	0.1	5669.1
93957	2.65	5.	0.1	5646.8
93958	2.6	5.15	0.1	5681.6
93959	2.65	5.1	0.1	5658.9
93960	2.6	5.25	0.1	5694.8
93961	2.65	5.2	0.1	5671.7
93962	2.6	5.35	0.1	5708.6
93963	2.65	5.3	0.1	5685.1
93964	2.6	5.45	0.1	5723.1
93965	2.65	5.4	0.1	5699.
93966	2.6	5.55	0.1	5738.
93967	2.65	5.5	0.1	5713.5
93968	2.6	5.65	0.1	5753.5
93969	2.65	5.6	0.1	5728.5
93970	2.6	5.75	0.1	5769.5
93971	2.65	5.7	0.1	5744.
93972	2.6	5.85	0.1	5787.7
93973	2.65	5.8	0.1	5759.9
93974	2.65	5.9	0.1	5779.6
93975	2.6	5.95	0.1	5779.2
93976	2.7	0.15	0.1	5751.9
93977	2.75	0.1	0.1	5742.9
93978	2.7	5.e-002	0.1	5745.1
93979	2.7	0.25	0.1	5734.5
93980	2.75	0.2	0.1	5724.3
93981	2.7	0.35	0.1	5719.1
93982	2.75	0.3	0.1	5708.9
93983	2.7	0.45	0.1	5704.1
93984	2.75	0.4	0.1	5694.
93985	2.7	0.55	0.1	5689.6
93986	2.75	0.5	0.1	5679.5
93987	2.7	0.65	0.1	5675.5
93988	2.75	0.6	0.1	5665.4
93989	2.7	0.75	0.1	5662.
93990	2.75	0.7	0.1	5651.8
93991	2.7	0.85	0.1	5649.
93992	2.75	0.8	0.1	5638.7
93993	2.7	0.95	0.1	5636.6
93994	2.75	0.9	0.1	5626.1
93995	2.7	1.05	0.1	5624.9
93996	2.75	1.	0.1	5614.1
93997	2.7	1.15	0.1	5613.8
93998	2.75	1.1	0.1	5602.8
93999	2.7	1.25	0.1	5603.4
94000	2.75	1.2	0.1	5592.
94001	2.7	1.35	0.1	5593.7
94002	2.75	1.3	0.1	5582.
94003	2.7	1.45	0.1	5584.7
94004	2.75	1.4	0.1	5572.6
94005	2.7	1.55	0.1	5576.4
94006	2.75	1.5	0.1	5563.9
94007	2.7	1.65	0.1	5568.8
94008	2.75	1.6	0.1	5555.9
94009	2.7	1.75	0.1	5561.9
94010	2.75	1.7	0.1	5548.6
94011	2.7	1.85	0.1	5555.7
94012	2.75	1.8	0.1	5541.9
94013	2.7	1.95	0.1	5550.2
94014	2.75	1.9	0.1	5535.9
94015	2.7	2.05	0.1	5545.3
94016	2.75	2.	0.1	5530.5
94017	2.7	2.15	0.1	5540.9
94018	2.75	2.1	0.1	5525.8
94019	2.7	2.25	0.1	5537.2
94020	2.75	2.2	0.1	5521.6
94021	2.7	2.35	0.1	5534.
94022	2.75	2.3	0.1	5518.
94023	2.7	2.45	0.1	5531.3
94024	2.75	2.4	0.1	5515.
94025	2.7	2.55	0.1	5529.1
94026	2.75	2.5	0.1	5512.4
94027	2.7	2.65	0.1	5527.4
94028	2.75	2.6	0.1	5510.4
94029	2.7	2.75	0.1	5526.1
94030	2.75	2.7	0.1	5508.8
94031	2.7	2.85	0.1	5525.3
94032	2.75	2.8	0.1	5507.7
94033	2.7	2.95	0.1	5524.9
94034	2.75	2.9	0.1	5507.
94035	2.7	3.05	0.1	5524.9
94036	2.75	3.	0.1	5506.8
94037	2.7	3.15	0.1	5525.3
94038	2.75	3.1	0.1	5507.
94039	2.7	3.25	0.1	5526.1
94040	2.75	3.2	0.1	5507.7
94041	2.7	3.35	0.1	5527.4
94042	2.75	3.3	0.1	5508.8
94043	2.7	3.45	0.1	5529.1
94044	2.75	3.4	0.1	5510.4
94045	2.7	3.55	0.1	5531.3
94046	2.75	3.5	0.1	5512.4
94047	2.7	3.65	0.1	5534.
94048	2.75	3.6	0.1	5515.
94049	2.7	3.75	0.1	5537.2
94050	2.75	3.7	0.1	5518.
94051	2.7	3.85	0.1	5540.9
94052	2.75	3.8	0.1	5521.6
94053	2.7	3.95	0.1	5545.3
94054	2.75	3.9	0.1	5525.8
94055	2.7	4.05	0.1	5550.2
94056	2.75	4.	0.1	5530.5
94057	2.7	4.15	0.1	5555.7
94058	2.75	4.1	0.1	5535.9
94059	2.7	4.25	0.1	5561.9
94060	2.75	4.2	0.1	5541.9
94061	2.7	4.35	0.1	5568.8
94062	2.75	4.3	0.1	5548.6
94063	2.7	4.45	0.1	5576.4
94064	2.75	4.4	0.1	5555.9
94065	2.7	4.55	0.1	5584.7
94066	2.75	4.5	0.1	5563.9
94067	2.7	4.65	0.1	5593.7
94068	2.75	4.6	0.1	5572.6
94069	2.7	4.75	0.1	5603.4
94070	2.75	4.7	0.1	5582.
94071	2.7	4.85	0.1	5613.8
94072	2.75	4.8	0.1	5592.
94073	2.7	4.95	0.1	5624.9
94074	2.75	4.9	0.1	5602.8
94075	2.7	5.05	0.1	5636.6
94076	2.75	5.	0.1	5614.1
94077	2.7	5.15	0.1	5649.
94078	2.75	5.1	0.1	5626.1
94079	2.7	5.25	0.1	5662.
94080	2.75	5.2	0.1	5638.7
94081	2.7	5.35	0.1	5675.5
94082	2.75	5.3	0.1	5651.8
94083	2.7	5.45	0.1	5689.5
94084	2.75	5.4	0.1	5665.4
94085	2.7	5.55	0.1	5704.1
94086	2.75	5.5	0.1	5679.5
94087	2.7	5.65	0.1	5719.1
94088	2.75	5.6	0.1	5694.
94089	2.7	5.75	0.1	5734.5
94090	2.75	5.7	0.1	5708.9
94091	2.7	5.85	0.1	5751.8
94092	2.75	5.8	0.1	5724.3
94093	2.75	5.9	0.1	5742.9
94094	2.7	5.95	0.1	5745.1
94095	2.8	0.15	0.1	5715.4
94096	2.85	0.1	0.1	5705.7
94097	2.8	5.e-002	0.1	5710.1
94098	2.8	0.25	0.1	5698.8
94099	2.85	0.2	0.1	5688.
94100	2.8	0.35	0.1	5684.
94101	2.85	0.3	0.1	5673.3
94102	2.8	0.45	0.1	5669.5
94103	2.85	0.4	0.1	5658.9
94104	2.8	0.55	0.1	5655.4
94105	2.85	0.5	0.1	5644.9
94106	2.8	0.65	0.1	5641.8
94107	2.85	0.6	0.1	5631.3
94108	2.8	0.75	0.1	5628.6
94109	2.85	0.7	0.1	5618.
94110	2.8	0.85	0.1	5615.9
94111	2.85	0.8	0.1	5605.2
94112	2.8	0.95	0.1	5603.7
94113	2.85	0.9	0.1	5592.9
94114	2.8	1.05	0.1	5592.1
94115	2.85	1.	0.1	5581.1
94116	2.8	1.15	0.1	5581.1
94117	2.85	1.1	0.1	5569.9
94118	2.8	1.25	0.1	5570.7
94119	2.85	1.2	0.1	5559.3
94120	2.8	1.35	0.1	5560.9
94121	2.85	1.3	0.1	5549.2
94122	2.8	1.45	0.1	5551.8
94123	2.85	1.4	0.1	5539.8
94124	2.8	1.55	0.1	5543.4
94125	2.85	1.5	0.1	5531.
94126	2.8	1.65	0.1	5535.6
94127	2.85	1.6	0.1	5522.9
94128	2.8	1.75	0.1	5528.5
94129	2.85	1.7	0.1	5515.4
94130	2.8	1.85	0.1	5522.
94131	2.85	1.8	0.1	5508.5
94132	2.8	1.95	0.1	5516.2
94133	2.85	1.9	0.1	5502.3
94134	2.8	2.05	0.1	5511.
94135	2.85	2.	0.1	5496.7
94136	2.8	2.15	0.1	5506.4
94137	2.85	2.1	0.1	5491.7
94138	2.8	2.25	0.1	5502.4
94139	2.85	2.2	0.1	5487.3
94140	2.8	2.35	0.1	5498.9
94141	2.85	2.3	0.1	5483.5
94142	2.8	2.45	0.1	5496.
94143	2.85	2.4	0.1	5480.2
94144	2.8	2.55	0.1	5493.6
94145	2.85	2.5	0.1	5477.5
94146	2.8	2.65	0.1	5491.7
94147	2.85	2.6	0.1	5475.3
94148	2.8	2.75	0.1	5490.3
94149	2.85	2.7	0.1	5473.6
94150	2.8	2.85	0.1	5489.4
94151	2.85	2.8	0.1	5472.4
94152	2.8	2.95	0.1	5488.9
94153	2.85	2.9	0.1	5471.7
94154	2.8	3.05	0.1	5488.9
94155	2.85	3.	0.1	5471.4
94156	2.8	3.15	0.1	5489.4
94157	2.85	3.1	0.1	5471.7
94158	2.8	3.25	0.1	5490.3
94159	2.85	3.2	0.1	5472.4
94160	2.8	3.35	0.1	5491.7
94161	2.85	3.3	0.1	5473.6
94162	2.8	3.45	0.1	5493.6
94163	2.85	3.4	0.1	5475.3
94164	2.8	3.55	0.1	5496.
94165	2.85	3.5	0.1	5477.5
94166	2.8	3.65	0.1	5498.9
94167	2.85	3.6	0.1	5480.2
94168	2.8	3.75	0.1	5502.4
94169	2.85	3.7	0.1	5483.5
94170	2.8	3.85	0.1	5506.4
94171	2.85	3.8	0.1	5487.3
94172	2.8	3.95	0.1	5511.
94173	2.85	3.9	0.1	5491.7
94174	2.8	4.05	0.1	5516.2
94175	2.85	4.	0.1	5496.7
94176	2.8	4.15	0.1	5522.
94177	2.85	4.1	0.1	5502.3
94178	2.8	4.25	0.1	5528.5
94179	2.85	4.2	0.1	5508.5
94180	2.8	4.35	0.1	5535.6
94181	2.85	4.3	0.1	5515.4
94182	2.8	4.45	0.1	5543.4
94183	2.85	4.4	0.1	5522.9
94184	2.8	4.55	0.1	5551.8
94185	2.85	4.5	0.1	5531.
94186	2.8	4.65	0.1	5560.9
94187	2.85	4.6	0.1	5539.8
94188	2.8	4.75	0.1	5570.7
94189	2.85	4.7	0.1	5549.2
94190	2.8	4.85	0.1	5581.
94191	2.85	4.8	0.1	5559.3
94192	2.8	4.95	0.1	5592.1
94193	2.85	4.9	0.1	5569.9
94194	2.8	5.05	0.1	5603.7
94195	2.85	5.	0.1	5581.1
94196	2.8	5.15	0.1	5615.9
94197	2.85	5.1	0.1	5592.9
94198	2.8	5.25	0.1	5628.6
94199	2.85	5.2	0.1	5605.2
94200	2.8	5.35	0.1	5641.8
94201	2.85	5.3	0.1	5618.
94202	2.8	5.45	0.1	5655.4
94203	2.85	5.4	0.1	5631.3
94204	2.8	5.55	0.1	5669.5
94205	2.85	5.5	0.1	5644.9
94206	2.8	5.65	0.1	5684.
94207	2.85	5.6	0.1	5658.9
94208	2.8	5.75	0.1	5698.8
94209	2.85	5.7	0.1	5673.3
94210	2.8	5.85	0.1	5715.4
94211	2.85	5.8	0.1	5688.
94212	2.85	5.9	0.1	5705.7
94213	2.8	5.95	0.1	5710.1
94214	2.9	0.15	0.1	5678.4
94215	2.95	0.1	0.1	5668.
94216	2.9	5.e-002	0.1	5674.4
94217	2.9	0.25	0.1	5662.6
94218	2.95	0.2	0.1	5651.3
94219	2.9	0.35	0.1	5648.3
94220	2.95	0.3	0.1	5637.2
94221	2.9	0.45	0.1	5634.4
94222	2.95	0.4	0.1	5623.3
94223	2.9	0.55	0.1	5620.8
94224	2.95	0.5	0.1	5609.8
94225	2.9	0.65	0.1	5607.5
94226	2.95	0.6	0.1	5596.6
94227	2.9	0.75	0.1	5594.7
94228	2.95	0.7	0.1	5583.8
94229	2.9	0.85	0.1	5582.3
94230	2.95	0.8	0.1	5571.4
94231	2.9	0.95	0.1	5570.4
94232	2.95	0.9	0.1	5559.4
94233	2.9	1.05	0.1	5559.
94234	2.95	1.	0.1	5547.9
94235	2.9	1.15	0.1	5548.1
94236	2.95	1.1	0.1	5536.8
94237	2.9	1.25	0.1	5537.8
94238	2.95	1.2	0.1	5526.3
94239	2.9	1.35	0.1	5528.1
94240	2.95	1.3	0.1	5516.4
94241	2.9	1.45	0.1	5519.
94242	2.95	1.4	0.1	5507.
94243	2.9	1.55	0.1	5510.5
94244	2.95	1.5	0.1	5498.3
94245	2.9	1.65	0.1	5502.7
94246	2.95	1.6	0.1	5490.1
94247	2.9	1.75	0.1	5495.4
94248	2.95	1.7	0.1	5482.5
94249	2.9	1.85	0.1	5488.8
94250	2.95	1.8	0.1	5475.6
94251	2.9	1.95	0.1	5482.8
94252	2.95	1.9	0.1	5469.2
94253	2.9	2.05	0.1	5477.4
94254	2.95	2.	0.1	5463.5
94255	2.9	2.15	0.1	5472.6
94256	2.95	2.1	0.1	5458.4
94257	2.9	2.25	0.1	5468.4
94258	2.95	2.2	0.1	5453.8
94259	2.9	2.35	0.1	5464.8
94260	2.95	2.3	0.1	5449.8
94261	2.9	2.45	0.1	5461.7
94262	2.95	2.4	0.1	5446.4
94263	2.9	2.55	0.1	5459.1
94264	2.95	2.5	0.1	5443.6
94265	2.9	2.65	0.1	5457.1
94266	2.95	2.6	0.1	5441.2
94267	2.9	2.75	0.1	5455.6
94268	2.95	2.7	0.1	5439.4
94269	2.9	2.85	0.1	5454.6
94270	2.95	2.8	0.1	5438.2
94271	2.9	2.95	0.1	5454.1
94272	2.95	2.9	0.1	5437.4
94273	2.9	3.05	0.1	5454.1
94274	2.95	3.	0.1	5437.2
94275	2.9	3.15	0.1	5454.6
94276	2.95	3.1	0.1	5437.4
94277	2.9	3.25	0.1	5455.6
94278	2.95	3.2	0.1	5438.2
94279	2.9	3.35	0.1	5457.1
94280	2.95	3.3	0.1	5439.4
94281	2.9	3.45	0.1	5459.1
94282	2.95	3.4	0.1	5441.2
94283	2.9	3.55	0.1	5461.7
94284	2.95	3.5	0.1	5443.6
94285	2.9	3.65	0.1	5464.8
94286	2.95	3.6	0.1	5446.4
94287	2.9	3.75	0.1	5468.4
94288	2.95	3.7	0.1	5449.8
94289	2.9	3.85	0.1	5472.6
94290	2.95	3.8	0.1	5453.8
94291	2.9	3.95	0.1	5477.4
94292	2.95	3.9	0.1	5458.4
94293	2.9	4.05	0.1	5482.8
94294	2.95	4.	0.1	5463.5
94295	2.9	4.15	0.1	5488.8
94296	2.95	4.1	0.1	5469.2
94297	2.9	4.25	0.1	5495.4
94298	2.95	4.2	0.1	5475.6
94299	2.9	4.35	0.1	5502.7
94300	2.95	4.3	0.1	5482.5
94301	2.9	4.45	0.1	5510.5
94302	2.95	4.4	0.1	5490.1
94303	2.9	4.55	0.1	5519.
94304	2.95	4.5	0.1	5498.3
94305	2.9	4.65	0.1	5528.1
94306	2.95	4.6	0.1	5507.
94307	2.9	4.75	0.1	5537.8
94308	2.95	4.7	0.1	5516.4
94309	2.9	4.85	0.1	5548.1
94310	2.95	4.8	0.1	5526.3
94311	2.9	4.95	0.1	5559.
94312	2.95	4.9	0.1	5536.8
94313	2.9	5.05	0.1	5570.4
94314	2.95	5.	0.1	5547.9
94315	2.9	5.15	0.1	5582.3
94316	2.95	5.1	0.1	5559.4
94317	2.9	5.25	0.1	5594.7
94318	2.95	5.2	0.1	5571.4
94319	2.9	5.35	0.1	5607.5
94320	2.95	5.3	0.1	5583.8
94321	2.9	5.45	0.1	5620.8
94322	2.95	5.4	0.1	5596.6
94323	2.9	5.55	0.1	5634.4
94324	2.95	5.5	0.1	5609.8
94325	2.9	5.65	0.1	5648.3
94326	2.95	5.6	0.1	5623.3
94327	2.9	5.75	0.1	5662.6
94328	2.95	5.7	0.1	5637.2
94329	2.9	5.85	0.1	5678.4
94330	2.95	5.8	0.1	5651.3
94331	2.95	5.9	0.1	5668.
94332	2.9	5.95	0.1	5674.4
94333	3.	0.15	0.1	5641.
94334	3.05	0.1	0.1	5629.9
94335	3.	5.e-002	0.1	5638.1
94336	3.	0.25	0.1	5625.9
94337	3.05	0.2	0.1	5614.1
94338	3.	0.35	0.1	5612.2
94339	3.05	0.3	0.1	5600.6
94340	3.	0.45	0.1	5598.8
94341	3.05	0.4	0.1	5587.3
94342	3.	0.55	0.1	5585.7
94343	3.05	0.5	0.1	5574.3
94344	3.	0.65	0.1	5572.9
94345	3.05	0.6	0.1	5561.6
94346	3.	0.75	0.1	5560.5
94347	3.05	0.7	0.1	5549.2
94348	3.	0.85	0.1	5548.5
94349	3.05	0.8	0.1	5537.2
94350	3.	0.95	0.1	5536.9
94351	3.05	0.9	0.1	5525.6
94352	3.	1.05	0.1	5525.7
94353	3.05	1.	0.1	5514.4
94354	3.	1.15	0.1	5515.1
94355	3.05	1.1	0.1	5503.6
94356	3.	1.25	0.1	5504.9
94357	3.05	1.2	0.1	5493.3
94358	3.	1.35	0.1	5495.3
94359	3.05	1.3	0.1	5483.6
94360	3.	1.45	0.1	5486.3
94361	3.05	1.4	0.1	5474.3
94362	3.	1.55	0.1	5477.8
94363	3.05	1.5	0.1	5465.6
94364	3.	1.65	0.1	5470.
94365	3.05	1.6	0.1	5457.5
94366	3.	1.75	0.1	5462.7
94367	3.05	1.7	0.1	5450.
94368	3.	1.85	0.1	5456.
94369	3.05	1.8	0.1	5443.
94370	3.	1.95	0.1	5449.9
94371	3.05	1.9	0.1	5436.6
94372	3.	2.05	0.1	5444.4
94373	3.05	2.	0.1	5430.8
94374	3.	2.15	0.1	5439.5
94375	3.05	2.1	0.1	5425.6
94376	3.	2.25	0.1	5435.2
94377	3.05	2.2	0.1	5421.
94378	3.	2.35	0.1	5431.5
94379	3.05	2.3	0.1	5416.9
94380	3.	2.45	0.1	5428.3
94381	3.05	2.4	0.1	5413.4
94382	3.	2.55	0.1	5425.6
94383	3.05	2.5	0.1	5410.5
94384	3.	2.65	0.1	5423.5
94385	3.05	2.6	0.1	5408.1
94386	3.	2.75	0.1	5421.9
94387	3.05	2.7	0.1	5406.2
94388	3.	2.85	0.1	5420.9
94389	3.05	2.8	0.1	5404.9
94390	3.	2.95	0.1	5420.4
94391	3.05	2.9	0.1	5404.1
94392	3.	3.05	0.1	5420.4
94393	3.05	3.	0.1	5403.9
94394	3.	3.15	0.1	5420.9
94395	3.05	3.1	0.1	5404.1
94396	3.	3.25	0.1	5421.9
94397	3.05	3.2	0.1	5404.9
94398	3.	3.35	0.1	5423.5
94399	3.05	3.3	0.1	5406.2
94400	3.	3.45	0.1	5425.6
94401	3.05	3.4	0.1	5408.1
94402	3.	3.55	0.1	5428.3
94403	3.05	3.5	0.1	5410.5
94404	3.	3.65	0.1	5431.4
94405	3.05	3.6	0.1	5413.4
94406	3.	3.75	0.1	5435.2
94407	3.05	3.7	0.1	5416.9
94408	3.	3.85	0.1	5439.5
94409	3.05	3.8	0.1	5421.
94410	3.	3.95	0.1	5444.4
94411	3.05	3.9	0.1	5425.6
94412	3.	4.05	0.1	5449.9
94413	3.05	4.	0.1	5430.8
94414	3.	4.15	0.1	5456.
94415	3.05	4.1	0.1	5436.6
94416	3.	4.25	0.1	5462.7
94417	3.05	4.2	0.1	5443.
94418	3.	4.35	0.1	5470.
94419	3.05	4.3	0.1	5450.
94420	3.	4.45	0.1	5477.8
94421	3.05	4.4	0.1	5457.5
94422	3.	4.55	0.1	5486.3
94423	3.05	4.5	0.1	5465.6
94424	3.	4.65	0.1	5495.3
94425	3.05	4.6	0.1	5474.3
94426	3.	4.75	0.1	5504.9
94427	3.05	4.7	0.1	5483.6
94428	3.	4.85	0.1	5515.1
94429	3.05	4.8	0.1	5493.3
94430	3.	4.95	0.1	5525.7
94431	3.05	4.9	0.1	5503.6
94432	3.	5.05	0.1	5536.9
94433	3.05	5.	0.1	5514.4
94434	3.	5.15	0.1	5548.5
94435	3.05	5.1	0.1	5525.6
94436	3.	5.25	0.1	5560.5
94437	3.05	5.2	0.1	5537.2
94438	3.	5.35	0.1	5572.9
94439	3.05	5.3	0.1	5549.2
94440	3.	5.45	0.1	5585.7
94441	3.05	5.4	0.1	5561.6
94442	3.	5.55	0.1	5598.8
94443	3.05	5.5	0.1	5574.3
94444	3.	5.65	0.1	5612.2
94445	3.05	5.6	0.1	5587.3
94446	3.	5.75	0.1	5625.9
94447	3.05	5.7	0.1	5600.6
94448	3.	5.85	0.1	5641.
94449	3.05	5.8	0.1	5614.1
94450	3.05	5.9	0.1	5629.9
94451	3.	5.95	0.1	5638.1
94452	3.1	0.15	0.1	5603.1
94453	3.15	0.1	0.1	5591.5
94454	3.1	5.e-002	0.1	5601.2
94455	3.1	0.25	0.1	5588.8
94456	3.15	0.2	0.1	5576.5
94457	3.1	0.35	0.1	5575.7
94458	3.15	0.3	0.1	5563.6
94459	3.1	0.45	0.1	5562.8
94460	3.15	0.4	0.1	5550.9
94461	3.1	0.55	0.1	5550.2
94462	3.15	0.5	0.1	5538.4
94463	3.1	0.65	0.1	5537.9
94464	3.15	0.6	0.1	5526.2
94465	3.1	0.75	0.1	5526.
94466	3.15	0.7	0.1	5514.3
94467	3.1	0.85	0.1	5514.3
94468	3.15	0.8	0.1	5502.8
94469	3.1	0.95	0.1	5503.1
94470	3.15	0.9	0.1	5491.5
94471	3.1	1.05	0.1	5492.3
94472	3.15	1.	0.1	5480.7
94473	3.1	1.15	0.1	5481.9
94474	3.15	1.1	0.1	5470.2
94475	3.1	1.25	0.1	5472.
94476	3.15	1.2	0.1	5460.3
94477	3.1	1.35	0.1	5462.6
94478	3.15	1.3	0.1	5450.7
94479	3.1	1.45	0.1	5453.7
94480	3.15	1.4	0.1	5441.7
94481	3.1	1.55	0.1	5445.3
94482	3.15	1.5	0.1	5433.2
94483	3.1	1.65	0.1	5437.5
94484	3.15	1.6	0.1	5425.2
94485	3.1	1.75	0.1	5430.3
94486	3.15	1.7	0.1	5417.7
94487	3.1	1.85	0.1	5423.6
94488	3.15	1.8	0.1	5410.8
94489	3.1	1.95	0.1	5417.5
94490	3.15	1.9	0.1	5404.5
94491	3.1	2.05	0.1	5412.
94492	3.15	2.	0.1	5398.7
94493	3.1	2.15	0.1	5407.1
94494	3.15	2.1	0.1	5393.5
94495	3.1	2.25	0.1	5402.7
94496	3.15	2.2	0.1	5388.8
94497	3.1	2.35	0.1	5398.9
94498	3.15	2.3	0.1	5384.7
94499	3.1	2.45	0.1	5395.6
94500	3.15	2.4	0.1	5381.2
94501	3.1	2.55	0.1	5392.9
94502	3.15	2.5	0.1	5378.2
94503	3.1	2.65	0.1	5390.8
94504	3.15	2.6	0.1	5375.8
94505	3.1	2.75	0.1	5389.2
94506	3.15	2.7	0.1	5373.9
94507	3.1	2.85	0.1	5388.1
94508	3.15	2.8	0.1	5372.5
94509	3.1	2.95	0.1	5387.6
94510	3.15	2.9	0.1	5371.7
94511	3.1	3.05	0.1	5387.6
94512	3.15	3.	0.1	5371.5
94513	3.1	3.15	0.1	5388.1
94514	3.15	3.1	0.1	5371.7
94515	3.1	3.25	0.1	5389.2
94516	3.15	3.2	0.1	5372.5
94517	3.1	3.35	0.1	5390.8
94518	3.15	3.3	0.1	5373.9
94519	3.1	3.45	0.1	5392.9
94520	3.15	3.4	0.1	5375.8
94521	3.1	3.55	0.1	5395.6
94522	3.15	3.5	0.1	5378.2
94523	3.1	3.65	0.1	5398.9
94524	3.15	3.6	0.1	5381.2
94525	3.1	3.75	0.1	5402.7
94526	3.15	3.7	0.1	5384.7
94527	3.1	3.85	0.1	5407.1
94528	3.15	3.8	0.1	5388.8
94529	3.1	3.95	0.1	5412.
94530	3.15	3.9	0.1	5393.5
94531	3.1	4.05	0.1	5417.5
94532	3.15	4.	0.1	5398.7
94533	3.1	4.15	0.1	5423.6
94534	3.15	4.1	0.1	5404.5
94535	3.1	4.25	0.1	5430.3
94536	3.15	4.2	0.1	5410.8
94537	3.1	4.35	0.1	5437.5
94538	3.15	4.3	0.1	5417.7
94539	3.1	4.45	0.1	5445.3
94540	3.15	4.4	0.1	5425.2
94541	3.1	4.55	0.1	5453.7
94542	3.15	4.5	0.1	5433.2
94543	3.1	4.65	0.1	5462.6
94544	3.15	4.6	0.1	5441.7
94545	3.1	4.75	0.1	5472.
94546	3.15	4.7	0.1	5450.7
94547	3.1	4.85	0.1	5481.9
94548	3.15	4.8	0.1	5460.3
94549	3.1	4.95	0.1	5492.3
94550	3.15	4.9	0.1	5470.2
94551	3.1	5.05	0.1	5503.1
94552	3.15	5.	0.1	5480.7
94553	3.1	5.15	0.1	5514.3
94554	3.15	5.1	0.1	5491.5
94555	3.1	5.25	0.1	5526.
94556	3.15	5.2	0.1	5502.8
94557	3.1	5.35	0.1	5537.9
94558	3.15	5.3	0.1	5514.3
94559	3.1	5.45	0.1	5550.2
94560	3.15	5.4	0.1	5526.2
94561	3.1	5.55	0.1	5562.8
94562	3.15	5.5	0.1	5538.4
94563	3.1	5.65	0.1	5575.7
94564	3.15	5.6	0.1	5550.9
94565	3.1	5.75	0.1	5588.8
94566	3.15	5.7	0.1	5563.6
94567	3.1	5.85	0.1	5603.1
94568	3.15	5.8	0.1	5576.5
94569	3.15	5.9	0.1	5591.5
94570	3.1	5.95	0.1	5601.2
94571	3.2	0.15	0.1	5564.9
94572	3.25	0.1	0.1	5552.8
94573	3.2	5.e-002	0.1	5563.9
94574	3.2	0.25	0.1	5551.3
94575	3.25	0.2	0.1	5538.6
94576	3.2	0.35	0.1	5538.8
94577	3.25	0.3	0.1	5526.3
94578	3.2	0.45	0.1	5526.5
94579	3.25	0.4	0.1	5514.1
94580	3.2	0.55	0.1	5514.5
94581	3.25	0.5	0.1	5502.2
94582	3.2	0.65	0.1	5502.7
94583	3.25	0.6	0.1	5490.6
94584	3.2	0.75	0.1	5491.2
94585	3.25	0.7	0.1	5479.2
94586	3.2	0.85	0.1	5480.
94587	3.25	0.8	0.1	5468.1
94588	3.2	0.95	0.1	5469.1
94589	3.25	0.9	0.1	5457.3
94590	3.2	1.05	0.1	5458.7
94591	3.25	1.	0.1	5446.8
94592	3.2	1.15	0.1	5448.6
94593	3.25	1.1	0.1	5436.8
94594	3.2	1.25	0.1	5439.
94595	3.25	1.2	0.1	5427.1
94596	3.2	1.35	0.1	5429.9
94597	3.25	1.3	0.1	5417.9
94598	3.2	1.45	0.1	5421.2
94599	3.25	1.4	0.1	5409.1
94600	3.2	1.55	0.1	5413.
94601	3.25	1.5	0.1	5400.8
94602	3.2	1.65	0.1	5405.3
94603	3.25	1.6	0.1	5393.
94604	3.2	1.75	0.1	5398.2
94605	3.25	1.7	0.1	5385.7
94606	3.2	1.85	0.1	5391.6
94607	3.25	1.8	0.1	5378.9
94608	3.2	1.95	0.1	5385.6
94609	3.25	1.9	0.1	5372.7
94610	3.2	2.05	0.1	5380.1
94611	3.25	2.	0.1	5367.
94612	3.2	2.15	0.1	5375.2
94613	3.25	2.1	0.1	5361.8
94614	3.2	2.25	0.1	5370.8
94615	3.25	2.2	0.1	5357.2
94616	3.2	2.35	0.1	5367.
94617	3.25	2.3	0.1	5353.1
94618	3.2	2.45	0.1	5363.7
94619	3.25	2.4	0.1	5349.6
94620	3.2	2.55	0.1	5361.
94621	3.25	2.5	0.1	5346.7
94622	3.2	2.65	0.1	5358.8
94623	3.25	2.6	0.1	5344.2
94624	3.2	2.75	0.1	5357.2
94625	3.25	2.7	0.1	5342.3
94626	3.2	2.85	0.1	5356.1
94627	3.25	2.8	0.1	5341.
94628	3.2	2.95	0.1	5355.6
94629	3.25	2.9	0.1	5340.2
94630	3.2	3.05	0.1	5355.6
94631	3.25	3.	0.1	5339.9
94632	3.2	3.15	0.1	5356.1
94633	3.25	3.1	0.1	5340.2
94634	3.2	3.25	0.1	5357.2
94635	3.25	3.2	0.1	5341.
94636	3.2	3.35	0.1	5358.8
94637	3.25	3.3	0.1	5342.3
94638	3.2	3.45	0.1	5361.
94639	3.25	3.4	0.1	5344.2
94640	3.2	3.55	0.1	5363.7
94641	3.25	3.5	0.1	5346.7
94642	3.2	3.65	0.1	5367.
94643	3.25	3.6	0.1	5349.6
94644	3.2	3.75	0.1	5370.8
94645	3.25	3.7	0.1	5353.1
94646	3.2	3.85	0.1	5375.2
94647	3.25	3.8	0.1	5357.2
94648	3.2	3.95	0.1	5380.1
94649	3.25	3.9	0.1	5361.8
94650	3.2	4.05	0.1	5385.6
94651	3.25	4.	0.1	5367.
94652	3.2	4.15	0.1	5391.6
94653	3.25	4.1	0.1	5372.7
94654	3.2	4.25	0.1	5398.2
94655	3.25	4.2	0.1	5378.9
94656	3.2	4.35	0.1	5405.3
94657	3.25	4.3	0.1	5385.7
94658	3.2	4.45	0.1	5413.
94659	3.25	4.4	0.1	5393.
94660	3.2	4.55	0.1	5421.2
94661	3.25	4.5	0.1	5400.8
94662	3.2	4.65	0.1	5429.9
94663	3.25	4.6	0.1	5409.1
94664	3.2	4.75	0.1	5439.
94665	3.25	4.7	0.1	5417.9
94666	3.2	4.85	0.1	5448.6
94667	3.25	4.8	0.1	5427.1
94668	3.2	4.95	0.1	5458.7
94669	3.25	4.9	0.1	5436.8
94670	3.2	5.05	0.1	5469.1
94671	3.25	5.	0.1	5446.8
94672	3.2	5.15	0.1	5480.
94673	3.25	5.1	0.1	5457.3
94674	3.2	5.25	0.1	5491.2
94675	3.25	5.2	0.1	5468.1
94676	3.2	5.35	0.1	5502.7
94677	3.25	5.3	0.1	5479.2
94678	3.2	5.45	0.1	5514.5
94679	3.25	5.4	0.1	5490.6
94680	3.2	5.55	0.1	5526.5
94681	3.25	5.5	0.1	5502.2
94682	3.2	5.65	0.1	5538.8
94683	3.25	5.6	0.1	5514.1
94684	3.2	5.75	0.1	5551.3
94685	3.25	5.7	0.1	5526.3
94686	3.2	5.85	0.1	5564.9
94687	3.25	5.8	0.1	5538.6
94688	3.25	5.9	0.1	5552.8
94689	3.2	5.95	0.1	5563.9
94690	3.3	0.15	0.1	5526.5
94691	3.35	0.1	0.1	5513.7
94692	3.3	5.e-002	0.1	5526.1
94693	3.3	0.25	0.1	5513.6
94694	3.35	0.2	0.1	5500.4
94695	3.3	0.35	0.1	5501.6
94696	3.35	0.3	0.1	5488.6
94697	3.3	0.45	0.1	5489.9
94698	3.35	0.4	0.1	5477.1
94699	3.3	0.55	0.1	5478.4
94700	3.35	0.5	0.1	5465.8
94701	3.3	0.65	0.1	5467.1
94702	3.35	0.6	0.1	5454.7
94703	3.3	0.75	0.1	5456.1
94704	3.35	0.7	0.1	5443.8
94705	3.3	0.85	0.1	5445.4
94706	3.35	0.8	0.1	5433.2
94707	3.3	0.95	0.1	5435.
94708	3.35	0.9	0.1	5422.9
94709	3.3	1.05	0.1	5425.
94710	3.35	1.	0.1	5412.9
94711	3.3	1.15	0.1	5415.3
94712	3.35	1.1	0.1	5403.2
94713	3.3	1.25	0.1	5406.
94714	3.35	1.2	0.1	5394.
94715	3.3	1.35	0.1	5397.2
94716	3.35	1.3	0.1	5385.1
94717	3.3	1.45	0.1	5388.8
94718	3.35	1.4	0.1	5376.6
94719	3.3	1.55	0.1	5380.8
94720	3.35	1.5	0.1	5368.6
94721	3.3	1.65	0.1	5373.4
94722	3.35	1.6	0.1	5361.
94723	3.3	1.75	0.1	5366.4
94724	3.35	1.7	0.1	5354.
94725	3.3	1.85	0.1	5360.
94726	3.35	1.8	0.1	5347.4
94727	3.3	1.95	0.1	5354.1
94728	3.35	1.9	0.1	5341.3
94729	3.3	2.05	0.1	5348.7
94730	3.35	2.	0.1	5335.7
94731	3.3	2.15	0.1	5343.8
94732	3.35	2.1	0.1	5330.7
94733	3.3	2.25	0.1	5339.5
94734	3.35	2.2	0.1	5326.2
94735	3.3	2.35	0.1	5335.7
94736	3.35	2.3	0.1	5322.2
94737	3.3	2.45	0.1	5332.5
94738	3.35	2.4	0.1	5318.7
94739	3.3	2.55	0.1	5329.8
94740	3.35	2.5	0.1	5315.8
94741	3.3	2.65	0.1	5327.7
94742	3.35	2.6	0.1	5313.4
94743	3.3	2.75	0.1	5326.1
94744	3.35	2.7	0.1	5311.5
94745	3.3	2.85	0.1	5325.
94746	3.35	2.8	0.1	5310.2
94747	3.3	2.95	0.1	5324.5
94748	3.35	2.9	0.1	5309.4
94749	3.3	3.05	0.1	5324.5
94750	3.35	3.	0.1	5309.1
94751	3.3	3.15	0.1	5325.
94752	3.35	3.1	0.1	5309.4
94753	3.3	3.25	0.1	5326.1
94754	3.35	3.2	0.1	5310.2
94755	3.3	3.35	0.1	5327.7
94756	3.35	3.3	0.1	5311.5
94757	3.3	3.45	0.1	5329.8
94758	3.35	3.4	0.1	5313.4
94759	3.3	3.55	0.1	5332.5
94760	3.35	3.5	0.1	5315.8
94761	3.3	3.65	0.1	5335.7
94762	3.35	3.6	0.1	5318.7
94763	3.3	3.75	0.1	5339.5
94764	3.35	3.7	0.1	5322.2
94765	3.3	3.85	0.1	5343.8
94766	3.35	3.8	0.1	5326.2
94767	3.3	3.95	0.1	5348.7
94768	3.35	3.9	0.1	5330.7
94769	3.3	4.05	0.1	5354.1
94770	3.35	4.	0.1	5335.7
94771	3.3	4.15	0.1	5360.
94772	3.35	4.1	0.1	5341.3
94773	3.3	4.25	0.1	5366.4
94774	3.35	4.2	0.1	5347.4
94775	3.3	4.35	0.1	5373.4
94776	3.35	4.3	0.1	5354.
94777	3.3	4.45	0.1	5380.8
94778	3.35	4.4	0.1	5361.
94779	3.3	4.55	0.1	5388.8
94780	3.35	4.5	0.1	5368.6
94781	3.3	4.65	0.1	5397.2
94782	3.35	4.6	0.1	5376.6
94783	3.3	4.75	0.1	5406.
94784	3.35	4.7	0.1	5385.1
94785	3.3	4.85	0.1	5415.3
94786	3.35	4.8	0.1	5394.
94787	3.3	4.95	0.1	5425.
94788	3.35	4.9	0.1	5403.2
94789	3.3	5.05	0.1	5435.
94790	3.35	5.	0.1	5412.9
94791	3.3	5.15	0.1	5445.4
94792	3.35	5.1	0.1	5422.9
94793	3.3	5.25	0.1	5456.1
94794	3.35	5.2	0.1	5433.2
94795	3.3	5.35	0.1	5467.1
94796	3.35	5.3	0.1	5443.8
94797	3.3	5.45	0.1	5478.4
94798	3.35	5.4	0.1	5454.7
94799	3.3	5.55	0.1	5489.9
94800	3.35	5.5	0.1	5465.8
94801	3.3	5.65	0.1	5501.6
94802	3.35	5.6	0.1	5477.1
94803	3.3	5.75	0.1	5513.6
94804	3.35	5.7	0.1	5488.6
94805	3.3	5.85	0.1	5526.5
94806	3.35	5.8	0.1	5500.4
94807	3.35	5.9	0.1	5513.7
94808	3.3	5.95	0.1	5526.1
94809	3.4	0.15	0.1	5487.7
94810	3.45	0.1	0.1	5474.4
94811	3.4	5.e-002	0.1	5488.
94812	3.4	0.25	0.1	5475.5
94813	3.45	0.2	0.1	5461.9
94814	3.4	0.35	0.1	5464.1
94815	3.45	0.3	0.1	5450.7
94816	3.4	0.45	0.1	5453.
94817	3.45	0.4	0.1	5439.8
94818	3.4	0.55	0.1	5442.1
94819	3.45	0.5	0.1	5429.
94820	3.4	0.65	0.1	5431.3
94821	3.45	0.6	0.1	5418.5
94822	3.4	0.75	0.1	5420.9
94823	3.45	0.7	0.1	5408.2
94824	3.4	0.85	0.1	5410.7
94825	3.45	0.8	0.1	5398.1
94826	3.4	0.95	0.1	5400.8
94827	3.45	0.9	0.1	5388.3
94828	3.4	1.05	0.1	5391.2
94829	3.45	1.	0.1	5378.8
94830	3.4	1.15	0.1	5381.9
94831	3.45	1.1	0.1	5369.6
94832	3.4	1.25	0.1	5373.
94833	3.45	1.2	0.1	5360.8
94834	3.4	1.35	0.1	5364.5
94835	3.45	1.3	0.1	5352.3
94836	3.4	1.45	0.1	5356.5
94837	3.45	1.4	0.1	5344.2
94838	3.4	1.55	0.1	5348.8
94839	3.45	1.5	0.1	5336.5
94840	3.4	1.65	0.1	5341.6
94841	3.45	1.6	0.1	5329.3
94842	3.4	1.75	0.1	5334.9
94843	3.45	1.7	0.1	5322.5
94844	3.4	1.85	0.1	5328.7
94845	3.45	1.8	0.1	5316.1
94846	3.4	1.95	0.1	5322.9
94847	3.45	1.9	0.1	5310.3
94848	3.4	2.05	0.1	5317.7
94849	3.45	2.	0.1	5304.9
94850	3.4	2.15	0.1	5313.
94851	3.45	2.1	0.1	5300.
94852	3.4	2.25	0.1	5308.8
94853	3.45	2.2	0.1	5295.6
94854	3.4	2.35	0.1	5305.1
94855	3.45	2.3	0.1	5291.8
94856	3.4	2.45	0.1	5301.9
94857	3.45	2.4	0.1	5288.4
94858	3.4	2.55	0.1	5299.3
94859	3.45	2.5	0.1	5285.5
94860	3.4	2.65	0.1	5297.2
94861	3.45	2.6	0.1	5283.2
94862	3.4	2.75	0.1	5295.6
94863	3.45	2.7	0.1	5281.4
94864	3.4	2.85	0.1	5294.6
94865	3.45	2.8	0.1	5280.1
94866	3.4	2.95	0.1	5294.
94867	3.45	2.9	0.1	5279.3
94868	3.4	3.05	0.1	5294.
94869	3.45	3.	0.1	5279.1
94870	3.4	3.15	0.1	5294.6
94871	3.45	3.1	0.1	5279.3
94872	3.4	3.25	0.1	5295.6
94873	3.45	3.2	0.1	5280.1
94874	3.4	3.35	0.1	5297.2
94875	3.45	3.3	0.1	5281.4
94876	3.4	3.45	0.1	5299.3
94877	3.45	3.4	0.1	5283.2
94878	3.4	3.55	0.1	5301.9
94879	3.45	3.5	0.1	5285.5
94880	3.4	3.65	0.1	5305.1
94881	3.45	3.6	0.1	5288.4
94882	3.4	3.75	0.1	5308.8
94883	3.45	3.7	0.1	5291.8
94884	3.4	3.85	0.1	5313.
94885	3.45	3.8	0.1	5295.6
94886	3.4	3.95	0.1	5317.7
94887	3.45	3.9	0.1	5300.
94888	3.4	4.05	0.1	5322.9
94889	3.45	4.	0.1	5304.9
94890	3.4	4.15	0.1	5328.7
94891	3.45	4.1	0.1	5310.3
94892	3.4	4.25	0.1	5334.9
94893	3.45	4.2	0.1	5316.1
94894	3.4	4.35	0.1	5341.6
94895	3.45	4.3	0.1	5322.5
94896	3.4	4.45	0.1	5348.8
94897	3.45	4.4	0.1	5329.3
94898	3.4	4.55	0.1	5356.5
94899	3.45	4.5	0.1	5336.5
94900	3.4	4.65	0.1	5364.5
94901	3.45	4.6	0.1	5344.2
94902	3.4	4.75	0.1	5373.
94903	3.45	4.7	0.1	5352.3
94904	3.4	4.85	0.1	5381.9
94905	3.45	4.8	0.1	5360.8
94906	3.4	4.95	0.1	5391.2
94907	3.45	4.9	0.1	5369.6
94908	3.4	5.05	0.1	5400.8
94909	3.45	5.	0.1	5378.8
94910	3.4	5.15	0.1	5410.7
94911	3.45	5.1	0.1	5388.3
94912	3.4	5.25	0.1	5420.9
94913	3.45	5.2	0.1	5398.1
94914	3.4	5.35	0.1	5431.3
94915	3.45	5.3	0.1	5408.2
94916	3.4	5.45	0.1	5442.1
94917	3.45	5.4	0.1	5418.5
94918	3.4	5.55	0.1	5453.
94919	3.45	5.5	0.1	5429.
94920	3.4	5.65	0.1	5464.1
94921	3.45	5.6	0.1	5439.8
94922	3.4	5.75	0.1	5475.5
94923	3.45	5.7	0.1	5450.7
94924	3.4	5.85	0.1	5487.7
94925	3.45	5.8	0.1	5461.9
94926	3.45	5.9	0.1	5474.4
94927	3.4	5.95	0.1	5488.
94928	3.5	0.15	0.1	5448.6
94929	3.55	0.1	0.1	5434.9
94930	3.5	5.e-002	0.1	5449.4
94931	3.5	0.25	0.1	5437.1
94932	3.55	0.2	0.1	5423.1
94933	3.5	0.35	0.1	5426.4
94934	3.55	0.3	0.1	5412.5
94935	3.5	0.45	0.1	5415.8
94936	3.55	0.4	0.1	5402.2
94937	3.5	0.55	0.1	5405.5
94938	3.55	0.5	0.1	5392.
94939	3.5	0.65	0.1	5395.3
94940	3.55	0.6	0.1	5382.1
94941	3.5	0.75	0.1	5385.4
94942	3.55	0.7	0.1	5372.3
94943	3.5	0.85	0.1	5375.8
94944	3.55	0.8	0.1	5362.8
94945	3.5	0.95	0.1	5366.4
94946	3.55	0.9	0.1	5353.6
94947	3.5	1.05	0.1	5357.3
94948	3.55	1.	0.1	5344.6
94949	3.5	1.15	0.1	5348.5
94950	3.55	1.1	0.1	5335.9
94951	3.5	1.25	0.1	5340.
94952	3.55	1.2	0.1	5327.6
94953	3.5	1.35	0.1	5332.
94954	3.55	1.3	0.1	5319.5
94955	3.5	1.45	0.1	5324.3
94956	3.55	1.4	0.1	5311.9
94957	3.5	1.55	0.1	5317.
94958	3.55	1.5	0.1	5304.6
94959	3.5	1.65	0.1	5310.1
94960	3.55	1.6	0.1	5297.7
94961	3.5	1.75	0.1	5303.7
94962	3.55	1.7	0.1	5291.2
94963	3.5	1.85	0.1	5297.7
94964	3.55	1.8	0.1	5285.2
94965	3.5	1.95	0.1	5292.2
94966	3.55	1.9	0.1	5279.6
94967	3.5	2.05	0.1	5287.2
94968	3.55	2.	0.1	5274.5
94969	3.5	2.15	0.1	5282.6
94970	3.55	2.1	0.1	5269.8
94971	3.5	2.25	0.1	5278.6
94972	3.55	2.2	0.1	5265.6
94973	3.5	2.35	0.1	5275.
94974	3.55	2.3	0.1	5261.9
94975	3.5	2.45	0.1	5272.
94976	3.55	2.4	0.1	5258.7
94977	3.5	2.55	0.1	5269.4
94978	3.55	2.5	0.1	5255.9
94979	3.5	2.65	0.1	5267.4
94980	3.55	2.6	0.1	5253.7
94981	3.5	2.75	0.1	5265.9
94982	3.55	2.7	0.1	5251.9
94983	3.5	2.85	0.1	5264.8
94984	3.55	2.8	0.1	5250.7
94985	3.5	2.95	0.1	5264.3
94986	3.55	2.9	0.1	5250.
94987	3.5	3.05	0.1	5264.3
94988	3.55	3.	0.1	5249.7
94989	3.5	3.15	0.1	5264.8
94990	3.55	3.1	0.1	5250.
94991	3.5	3.25	0.1	5265.9
94992	3.55	3.2	0.1	5250.7
94993	3.5	3.35	0.1	5267.4
94994	3.55	3.3	0.1	5251.9
94995	3.5	3.45	0.1	5269.4
94996	3.55	3.4	0.1	5253.7
94997	3.5	3.55	0.1	5272.
94998	3.55	3.5	0.1	5255.9
94999	3.5	3.65	0.1	5275.
95000	3.55	3.6	0.1	5258.7
95001	3.5	3.75	0.1	5278.6
95002	3.55	3.7	0.1	5261.9
95003	3.5	3.85	0.1	5282.6
95004	3.55	3.8	0.1	5265.6
95005	3.5	3.95	0.1	5287.2
95006	3.55	3.9	0.1	5269.8
95007	3.5	4.05	0.1	5292.2
95008	3.55	4.	0.1	5274.5
95009	3.5	4.15	0.1	5297.7
95010	3.55	4.1	0.1	5279.6
95011	3.5	4.25	0.1	5303.7
95012	3.55	4.2	0.1	5285.2
95013	3.5	4.35	0.1	5310.1
95014	3.55	4.3	0.1	5291.2
95015	3.5	4.45	0.1	5317.
95016	3.55	4.4	0.1	5297.7
95017	3.5	4.55	0.1	5324.3
95018	3.55	4.5	0.1	5304.6
95019	3.5	4.65	0.1	5332.
95020	3.55	4.6	0.1	5311.9
95021	3.5	4.75	0.1	5340.
95022	3.55	4.7	0.1	5319.5
95023	3.5	4.85	0.1	5348.5
95024	3.55	4.8	0.1	5327.6
95025	3.5	4.95	0.1	5357.3
95026	3.55	4.9	0.1	5335.9
95027	3.5	5.05	0.1	5366.4
95028	3.55	5.	0.1	5344.6
95029	3.5	5.15	0.1	5375.8
95030	3.55	5.1	0.1	5353.6
95031	3.5	5.25	0.1	5385.4
95032	3.55	5.2	0.1	5362.8
95033	3.5	5.35	0.1	5395.3
95034	3.55	5.3	0.1	5372.3
95035	3.5	5.45	0.1	5405.5
95036	3.55	5.4	0.1	5382.1
95037	3.5	5.55	0.1	5415.8
95038	3.55	5.5	0.1	5392.
95039	3.5	5.65	0.1	5426.4
95040	3.55	5.6	0.1	5402.2
95041	3.5	5.75	0.1	5437.1
95042	3.55	5.7	0.1	5412.5
95043	3.5	5.85	0.1	5448.6
95044	3.55	5.8	0.1	5423.
95045	3.55	5.9	0.1	5434.9
95046	3.5	5.95	0.1	5449.4
95047	3.6	0.15	0.1	5409.3
95048	3.65	0.1	0.1	5395.
95049	3.6	5.e-002	0.1	5410.5
95050	3.6	0.25	0.1	5398.5
95051	3.65	0.2	0.1	5383.9
95052	3.6	0.35	0.1	5388.4
95053	3.65	0.3	0.1	5374.
95054	3.6	0.45	0.1	5378.4
95055	3.65	0.4	0.1	5364.3
95056	3.6	0.55	0.1	5368.7
95057	3.65	0.5	0.1	5354.8
95058	3.6	0.65	0.1	5359.1
95059	3.65	0.6	0.1	5345.4
95060	3.6	0.75	0.1	5349.8
95061	3.65	0.7	0.1	5336.3
95062	3.6	0.85	0.1	5340.7
95063	3.65	0.8	0.1	5327.4
95064	3.6	0.95	0.1	5331.9
95065	3.65	0.9	0.1	5318.7
95066	3.6	1.05	0.1	5323.3
95067	3.65	1.	0.1	5310.3
95068	3.6	1.15	0.1	5315.
95069	3.65	1.1	0.1	5302.2
95070	3.6	1.25	0.1	5307.1
95071	3.65	1.2	0.1	5294.3
95072	3.6	1.35	0.1	5299.4
95073	3.65	1.3	0.1	5286.8
95074	3.6	1.45	0.1	5292.2
95075	3.65	1.4	0.1	5279.6
95076	3.6	1.55	0.1	5285.3
95077	3.65	1.5	0.1	5272.8
95078	3.6	1.65	0.1	5278.8
95079	3.65	1.6	0.1	5266.3
95080	3.6	1.75	0.1	5272.7
95081	3.65	1.7	0.1	5260.2
95082	3.6	1.85	0.1	5267.1
95083	3.65	1.8	0.1	5254.5
95084	3.6	1.95	0.1	5261.8
95085	3.65	1.9	0.1	5249.3
95086	3.6	2.05	0.1	5257.1
95087	3.65	2.	0.1	5244.4
95088	3.6	2.15	0.1	5252.7
95089	3.65	2.1	0.1	5240.
95090	3.6	2.25	0.1	5248.9
95091	3.65	2.2	0.1	5236.1
95092	3.6	2.35	0.1	5245.5
95093	3.65	2.3	0.1	5232.6
95094	3.6	2.45	0.1	5242.6
95095	3.65	2.4	0.1	5229.5
95096	3.6	2.55	0.1	5240.2
95097	3.65	2.5	0.1	5226.9
95098	3.6	2.65	0.1	5238.2
95099	3.65	2.6	0.1	5224.8
95100	3.6	2.75	0.1	5236.8
95101	3.65	2.7	0.1	5223.1
95102	3.6	2.85	0.1	5235.8
95103	3.65	2.8	0.1	5222.
95104	3.6	2.95	0.1	5235.3
95105	3.65	2.9	0.1	5221.3
95106	3.6	3.05	0.1	5235.3
95107	3.65	3.	0.1	5221.
95108	3.6	3.15	0.1	5235.8
95109	3.65	3.1	0.1	5221.3
95110	3.6	3.25	0.1	5236.8
95111	3.65	3.2	0.1	5222.
95112	3.6	3.35	0.1	5238.2
95113	3.65	3.3	0.1	5223.1
95114	3.6	3.45	0.1	5240.2
95115	3.65	3.4	0.1	5224.8
95116	3.6	3.55	0.1	5242.6
95117	3.65	3.5	0.1	5226.9
95118	3.6	3.65	0.1	5245.5
95119	3.65	3.6	0.1	5229.5
95120	3.6	3.75	0.1	5248.9
95121	3.65	3.7	0.1	5232.6
95122	3.6	3.85	0.1	5252.7
95123	3.65	3.8	0.1	5236.1
95124	3.6	3.95	0.1	5257.1
95125	3.65	3.9	0.1	5240.
95126	3.6	4.05	0.1	5261.8
95127	3.65	4.	0.1	5244.4
95128	3.6	4.15	0.1	5267.1
95129	3.65	4.1	0.1	5249.3
95130	3.6	4.25	0.1	5272.7
95131	3.65	4.2	0.1	5254.5
95132	3.6	4.35	0.1	5278.8
95133	3.65	4.3	0.1	5260.2
95134	3.6	4.45	0.1	5285.3
95135	3.65	4.4	0.1	5266.3
95136	3.6	4.55	0.1	5292.2
95137	3.65	4.5	0.1	5272.8
95138	3.6	4.65	0.1	5299.4
95139	3.65	4.6	0.1	5279.6
95140	3.6	4.75	0.1	5307.1
95141	3.65	4.7	0.1	5286.8
95142	3.6	4.85	0.1	5315.
95143	3.65	4.8	0.1	5294.3
95144	3.6	4.95	0.1	5323.3
95145	3.65	4.9	0.1	5302.2
95146	3.6	5.05	0.1	5331.9
95147	3.65	5.	0.1	5310.3
95148	3.6	5.15	0.1	5340.7
95149	3.65	5.1	0.1	5318.7
95150	3.6	5.25	0.1	5349.8
95151	3.65	5.2	0.1	5327.4
95152	3.6	5.35	0.1	5359.1
95153	3.65	5.3	0.1	5336.3
95154	3.6	5.45	0.1	5368.7
95155	3.65	5.4	0.1	5345.4
95156	3.6	5.55	0.1	5378.4
95157	3.65	5.5	0.1	5354.8
95158	3.6	5.65	0.1	5388.3
95159	3.65	5.6	0.1	5364.3
95160	3.6	5.75	0.1	5398.5
95161	3.65	5.7	0.1	5374.
95162	3.6	5.85	0.1	5409.3
95163	3.65	5.8	0.1	5383.9
95164	3.65	5.9	0.1	5395.
95165	3.6	5.95	0.1	5410.5
95166	3.7	0.15	0.1	5369.7
95167	3.75	0.1	0.1	5354.8
95168	3.7	5.e-002	0.1	5371.2
95169	3.7	0.25	0.1	5359.5
95170	3.75	0.2	0.1	5344.5
95171	3.7	0.35	0.1	5350.
95172	3.75	0.3	0.1	5335.2
95173	3.7	0.45	0.1	5340.7
95174	3.75	0.4	0.1	5326.1
95175	3.7	0.55	0.1	5331.6
95176	3.75	0.5	0.1	5317.2
95177	3.7	0.65	0.1	5322.7
95178	3.75	0.6	0.1	5308.5
95179	3.7	0.75	0.1	5313.9
95180	3.75	0.7	0.1	5300.1
95181	3.7	0.85	0.1	5305.5
95182	3.75	0.8	0.1	5291.8
95183	3.7	0.95	0.1	5297.2
95184	3.75	0.9	0.1	5283.7
95185	3.7	1.05	0.1	5289.2
95186	3.75	1.	0.1	5275.9
95187	3.7	1.15	0.1	5281.5
95188	3.75	1.1	0.1	5268.4
95189	3.7	1.25	0.1	5274.1
95190	3.75	1.2	0.1	5261.1
95191	3.7	1.35	0.1	5267.
95192	3.75	1.3	0.1	5254.1
95193	3.7	1.45	0.1	5260.2
95194	3.75	1.4	0.1	5247.5
95195	3.7	1.55	0.1	5253.8
95196	3.75	1.5	0.1	5241.1
95197	3.7	1.65	0.1	5247.7
95198	3.75	1.6	0.1	5235.1
95199	3.7	1.75	0.1	5242.
95200	3.75	1.7	0.1	5229.5
95201	3.7	1.85	0.1	5236.7
95202	3.75	1.8	0.1	5224.2
95203	3.7	1.95	0.1	5231.8
95204	3.75	1.9	0.1	5219.3
95205	3.7	2.05	0.1	5227.4
95206	3.75	2.	0.1	5214.8
95207	3.7	2.15	0.1	5223.3
95208	3.75	2.1	0.1	5210.7
95209	3.7	2.25	0.1	5219.7
95210	3.75	2.2	0.1	5207.
95211	3.7	2.35	0.1	5216.5
95212	3.75	2.3	0.1	5203.7
95213	3.7	2.45	0.1	5213.8
95214	3.75	2.4	0.1	5200.9
95215	3.7	2.55	0.1	5211.5
95216	3.75	2.5	0.1	5198.5
95217	3.7	2.65	0.1	5209.7
95218	3.75	2.6	0.1	5196.5
95219	3.7	2.75	0.1	5208.3
95220	3.75	2.7	0.1	5195.
95221	3.7	2.85	0.1	5207.4
95222	3.75	2.8	0.1	5193.9
95223	3.7	2.95	0.1	5206.9
95224	3.75	2.9	0.1	5193.2
95225	3.7	3.05	0.1	5206.9
95226	3.75	3.	0.1	5193.
95227	3.7	3.15	0.1	5207.4
95228	3.75	3.1	0.1	5193.2
95229	3.7	3.25	0.1	5208.3
95230	3.75	3.2	0.1	5193.9
95231	3.7	3.35	0.1	5209.7
95232	3.75	3.3	0.1	5195.
95233	3.7	3.45	0.1	5211.5
95234	3.75	3.4	0.1	5196.5
95235	3.7	3.55	0.1	5213.8
95236	3.75	3.5	0.1	5198.5
95237	3.7	3.65	0.1	5216.5
95238	3.75	3.6	0.1	5200.9
95239	3.7	3.75	0.1	5219.7
95240	3.75	3.7	0.1	5203.7
95241	3.7	3.85	0.1	5223.3
95242	3.75	3.8	0.1	5207.
95243	3.7	3.95	0.1	5227.4
95244	3.75	3.9	0.1	5210.7
95245	3.7	4.05	0.1	5231.8
95246	3.75	4.	0.1	5214.8
95247	3.7	4.15	0.1	5236.7
95248	3.75	4.1	0.1	5219.3
95249	3.7	4.25	0.1	5242.
95250	3.75	4.2	0.1	5224.2
95251	3.7	4.35	0.1	5247.7
95252	3.75	4.3	0.1	5229.5
95253	3.7	4.45	0.1	5253.8
95254	3.75	4.4	0.1	5235.1
95255	3.7	4.55	0.1	5260.2
95256	3.75	4.5	0.1	5241.1
95257	3.7	4.65	0.1	5267.
95258	3.75	4.6	0.1	5247.4
95259	3.7	4.75	0.1	5274.1
95260	3.75	4.7	0.1	5254.1
95261	3.7	4.85	0.1	5281.5
95262	3.75	4.8	0.1	5261.1
95263	3.7	4.95	0.1	5289.2
95264	3.75	4.9	0.1	5268.4
95265	3.7	5.05	0.1	5297.2
95266	3.75	5.	0.1	5275.9
95267	3.7	5.15	0.1	5305.5
95268	3.75	5.1	0.1	5283.7
95269	3.7	5.25	0.1	5313.9
95270	3.75	5.2	0.1	5291.8
95271	3.7	5.35	0.1	5322.7
95272	3.75	5.3	0.1	5300.1
95273	3.7	5.45	0.1	5331.6
95274	3.75	5.4	0.1	5308.5
95275	3.7	5.55	0.1	5340.7
95276	3.75	5.5	0.1	5317.2
95277	3.7	5.65	0.1	5350.
95278	3.75	5.6	0.1	5326.1
95279	3.7	5.75	0.1	5359.5
95280	3.75	5.7	0.1	5335.2
95281	3.7	5.85	0.1	5369.7
95282	3.75	5.8	0.1	5344.5
95283	3.75	5.9	0.1	5354.8
95284	3.7	5.95	0.1	5371.2
95285	3.8	0.15	0.1	5329.7
95286	3.85	0.1	0.1	5314.3
95287	3.8	5.e-002	0.1	5331.4
95288	3.8	0.25	0.1	5320.2
95289	3.85	0.2	0.1	5304.7
95290	3.8	0.35	0.1	5311.4
95291	3.85	0.3	0.1	5296.1
95292	3.8	0.45	0.1	5302.7
95293	3.85	0.4	0.1	5287.6
95294	3.8	0.55	0.1	5294.2
95295	3.85	0.5	0.1	5279.4
95296	3.8	0.65	0.1	5286.
95297	3.85	0.6	0.1	5271.4
95298	3.8	0.75	0.1	5277.9
95299	3.85	0.7	0.1	5263.6
95300	3.8	0.85	0.1	5270.1
95301	3.85	0.8	0.1	5255.9
95302	3.8	0.95	0.1	5262.4
95303	3.85	0.9	0.1	5248.6
95304	3.8	1.05	0.1	5255.1
95305	3.85	1.	0.1	5241.4
95306	3.8	1.15	0.1	5248.
95307	3.85	1.1	0.1	5234.5
95308	3.8	1.25	0.1	5241.1
95309	3.85	1.2	0.1	5227.8
95310	3.8	1.35	0.1	5234.6
95311	3.85	1.3	0.1	5221.5
95312	3.8	1.45	0.1	5228.3
95313	3.85	1.4	0.1	5215.4
95314	3.8	1.55	0.1	5222.4
95315	3.85	1.5	0.1	5209.6
95316	3.8	1.65	0.1	5216.8
95317	3.85	1.6	0.1	5204.1
95318	3.8	1.75	0.1	5211.6
95319	3.85	1.7	0.1	5198.9
95320	3.8	1.85	0.1	5206.7
95321	3.85	1.8	0.1	5194.1
95322	3.8	1.95	0.1	5202.2
95323	3.85	1.9	0.1	5189.7
95324	3.8	2.05	0.1	5198.1
95325	3.85	2.	0.1	5185.5
95326	3.8	2.15	0.1	5194.4
95327	3.85	2.1	0.1	5181.8
95328	3.8	2.25	0.1	5191.
95329	3.85	2.2	0.1	5178.4
95330	3.8	2.35	0.1	5188.1
95331	3.85	2.3	0.1	5175.5
95332	3.8	2.45	0.1	5185.6
95333	3.85	2.4	0.1	5172.9
95334	3.8	2.55	0.1	5183.5
95335	3.85	2.5	0.1	5170.7
95336	3.8	2.65	0.1	5181.8
95337	3.85	2.6	0.1	5168.9
95338	3.8	2.75	0.1	5180.5
95339	3.85	2.7	0.1	5167.5
95340	3.8	2.85	0.1	5179.7
95341	3.85	2.8	0.1	5166.5
95342	3.8	2.95	0.1	5179.2
95343	3.85	2.9	0.1	5165.9
95344	3.8	3.05	0.1	5179.2
95345	3.85	3.	0.1	5165.7
95346	3.8	3.15	0.1	5179.7
95347	3.85	3.1	0.1	5165.9
95348	3.8	3.25	0.1	5180.5
95349	3.85	3.2	0.1	5166.5
95350	3.8	3.35	0.1	5181.8
95351	3.85	3.3	0.1	5167.5
95352	3.8	3.45	0.1	5183.5
95353	3.85	3.4	0.1	5168.9
95354	3.8	3.55	0.1	5185.6
95355	3.85	3.5	0.1	5170.7
95356	3.8	3.65	0.1	5188.1
95357	3.85	3.6	0.1	5172.9
95358	3.8	3.75	0.1	5191.
95359	3.85	3.7	0.1	5175.5
95360	3.8	3.85	0.1	5194.4
95361	3.85	3.8	0.1	5178.4
95362	3.8	3.95	0.1	5198.1
95363	3.85	3.9	0.1	5181.8
95364	3.8	4.05	0.1	5202.2
95365	3.85	4.	0.1	5185.5
95366	3.8	4.15	0.1	5206.7
95367	3.85	4.1	0.1	5189.7
95368	3.8	4.25	0.1	5211.6
95369	3.85	4.2	0.1	5194.1
95370	3.8	4.35	0.1	5216.8
95371	3.85	4.3	0.1	5198.9
95372	3.8	4.45	0.1	5222.4
95373	3.85	4.4	0.1	5204.1
95374	3.8	4.55	0.1	5228.3
95375	3.85	4.5	0.1	5209.6
95376	3.8	4.65	0.1	5234.6
95377	3.85	4.6	0.1	5215.4
95378	3.8	4.75	0.1	5241.1
95379	3.85	4.7	0.1	5221.5
95380	3.8	4.85	0.1	5248.
95381	3.85	4.8	0.1	5227.8
95382	3.8	4.95	0.1	5255.1
95383	3.85	4.9	0.1	5234.5
95384	3.8	5.05	0.1	5262.4
95385	3.85	5.	0.1	5241.4
95386	3.8	5.15	0.1	5270.1
95387	3.85	5.1	0.1	5248.6
95388	3.8	5.25	0.1	5277.9
95389	3.85	5.2	0.1	5255.9
95390	3.8	5.35	0.1	5286.
95391	3.85	5.3	0.1	5263.6
95392	3.8	5.45	0.1	5294.2
95393	3.85	5.4	0.1	5271.4
95394	3.8	5.55	0.1	5302.7
95395	3.85	5.5	0.1	5279.4
95396	3.8	5.65	0.1	5311.4
95397	3.85	5.6	0.1	5287.6
95398	3.8	5.75	0.1	5320.2
95399	3.85	5.7	0.1	5296.1
95400	3.8	5.85	0.1	5329.7
95401	3.85	5.8	0.1	5304.7
95402	3.85	5.9	0.1	5314.3
95403	3.8	5.95	0.1	5331.4
95404	3.9	0.15	0.1	5289.4
95405	3.95	0.1	0.1	5273.4
95406	3.9	5.e-002	0.1	5291.2
95407	3.9	0.25	0.1	5280.6
95408	3.95	0.2	0.1	5264.5
95409	3.9	0.35	0.1	5272.4
95410	3.95	0.3	0.1	5256.6
95411	3.9	0.45	0.1	5264.4
95412	3.95	0.4	0.1	5248.8
95413	3.9	0.55	0.1	5256.6
95414	3.95	0.5	0.1	5241.2
95415	3.9	0.65	0.1	5249.
95416	3.95	0.6	0.1	5233.9
95417	3.9	0.75	0.1	5241.6
95418	3.95	0.7	0.1	5226.8
95419	3.9	0.85	0.1	5234.5
95420	3.95	0.8	0.1	5219.9
95421	3.9	0.95	0.1	5227.5
95422	3.95	0.9	0.1	5213.2
95423	3.9	1.05	0.1	5220.8
95424	3.95	1.	0.1	5206.7
95425	3.9	1.15	0.1	5214.4
95426	3.95	1.1	0.1	5200.5
95427	3.9	1.25	0.1	5208.2
95428	3.95	1.2	0.1	5194.5
95429	3.9	1.35	0.1	5202.2
95430	3.95	1.3	0.1	5188.8
95431	3.9	1.45	0.1	5196.6
95432	3.95	1.4	0.1	5183.4
95433	3.9	1.55	0.1	5191.2
95434	3.95	1.5	0.1	5178.2
95435	3.9	1.65	0.1	5186.2
95436	3.95	1.6	0.1	5173.3
95437	3.9	1.75	0.1	5181.5
95438	3.95	1.7	0.1	5168.7
95439	3.9	1.85	0.1	5177.
95440	3.95	1.8	0.1	5164.4
95441	3.9	1.95	0.1	5173.
95442	3.95	1.9	0.1	5160.4
95443	3.9	2.05	0.1	5169.3
95444	3.95	2.	0.1	5156.7
95445	3.9	2.15	0.1	5165.9
95446	3.95	2.1	0.1	5153.4
95447	3.9	2.25	0.1	5162.9
95448	3.95	2.2	0.1	5150.4
95449	3.9	2.35	0.1	5160.2
95450	3.95	2.3	0.1	5147.7
95451	3.9	2.45	0.1	5158.
95452	3.95	2.4	0.1	5145.4
95453	3.9	2.55	0.1	5156.1
95454	3.95	2.5	0.1	5143.5
95455	3.9	2.65	0.1	5154.5
95456	3.95	2.6	0.1	5141.9
95457	3.9	2.75	0.1	5153.4
95458	3.95	2.7	0.1	5140.6
95459	3.9	2.85	0.1	5152.6
95460	3.95	2.8	0.1	5139.7
95461	3.9	2.95	0.1	5152.2
95462	3.95	2.9	0.1	5139.2
95463	3.9	3.05	0.1	5152.2
95464	3.95	3.	0.1	5139.
95465	3.9	3.15	0.1	5152.6
95466	3.95	3.1	0.1	5139.2
95467	3.9	3.25	0.1	5153.4
95468	3.95	3.2	0.1	5139.7
95469	3.9	3.35	0.1	5154.5
95470	3.95	3.3	0.1	5140.6
95471	3.9	3.45	0.1	5156.1
95472	3.95	3.4	0.1	5141.9
95473	3.9	3.55	0.1	5158.
95474	3.95	3.5	0.1	5143.5
95475	3.9	3.65	0.1	5160.2
95476	3.95	3.6	0.1	5145.4
95477	3.9	3.75	0.1	5162.9
95478	3.95	3.7	0.1	5147.7
95479	3.9	3.85	0.1	5165.9
95480	3.95	3.8	0.1	5150.4
95481	3.9	3.95	0.1	5169.3
95482	3.95	3.9	0.1	5153.4
95483	3.9	4.05	0.1	5173.
95484	3.95	4.	0.1	5156.7
95485	3.9	4.15	0.1	5177.
95486	3.95	4.1	0.1	5160.4
95487	3.9	4.25	0.1	5181.5
95488	3.95	4.2	0.1	5164.4
95489	3.9	4.35	0.1	5186.2
95490	3.95	4.3	0.1	5168.7
95491	3.9	4.45	0.1	5191.2
95492	3.95	4.4	0.1	5173.3
95493	3.9	4.55	0.1	5196.6
95494	3.95	4.5	0.1	5178.2
95495	3.9	4.65	0.1	5202.2
95496	3.95	4.6	0.1	5183.4
95497	3.9	4.75	0.1	5208.2
95498	3.95	4.7	0.1	5188.8
95499	3.9	4.85	0.1	5214.4
95500	3.95	4.8	0.1	5194.5
95501	3.9	4.95	0.1	5220.8
95502	3.95	4.9	0.1	5200.5
95503	3.9	5.05	0.1	5227.5
95504	3.95	5.	0.1	5206.7
95505	3.9	5.15	0.1	5234.5
95506	3.95	5.1	0.1	5213.2
95507	3.9	5.25	0.1	5241.6
95508	3.95	5.2	0.1	5219.9
95509	3.9	5.35	0.1	5249.
95510	3.95	5.3	0.1	5226.8
95511	3.9	5.45	0.1	5256.6
95512	3.95	5.4	0.1	5233.9
95513	3.9	5.55	0.1	5264.4
95514	3.95	5.5	0.1	5241.2
95515	3.9	5.65	0.1	5272.4
95516	3.95	5.6	0.1	5248.8
95517	3.9	5.75	0.1	5280.6
95518	3.95	5.7	0.1	5256.5
95519	3.9	5.85	0.1	5289.4
95520	3.95	5.8	0.1	5264.5
95521	3.95	5.9	0.1	5273.4
95522	3.9	5.95	0.1	5291.2
95523	4.	0.15	0.1	5248.6
95524	4.05	0.1	0.1	5232.
95525	4.	5.e-002	0.1	5250.5
95526	4.	0.25	0.1	5240.5
95527	4.05	0.2	0.1	5223.9
95528	4.	0.35	0.1	5233.
95529	4.05	0.3	0.1	5216.6
95530	4.	0.45	0.1	5225.7
95531	4.05	0.4	0.1	5209.5
95532	4.	0.55	0.1	5218.6
95533	4.05	0.5	0.1	5202.7
95534	4.	0.65	0.1	5211.7
95535	4.05	0.6	0.1	5196.1
95536	4.	0.75	0.1	5205.1
95537	4.05	0.7	0.1	5189.7
95538	4.	0.85	0.1	5198.6
95539	4.05	0.8	0.1	5183.6
95540	4.	0.95	0.1	5192.4
95541	4.05	0.9	0.1	5177.6
95542	4.	1.05	0.1	5186.4
95543	4.05	1.	0.1	5171.9
95544	4.	1.15	0.1	5180.7
95545	4.05	1.1	0.1	5166.4
95546	4.	1.25	0.1	5175.2
95547	4.05	1.2	0.1	5161.2
95548	4.	1.35	0.1	5169.9
95549	4.05	1.3	0.1	5156.2
95550	4.	1.45	0.1	5164.9
95551	4.05	1.4	0.1	5151.4
95552	4.	1.55	0.1	5160.2
95553	4.05	1.5	0.1	5146.9
95554	4.	1.65	0.1	5155.7
95555	4.05	1.6	0.1	5142.6
95556	4.	1.75	0.1	5151.6
95557	4.05	1.7	0.1	5138.7
95558	4.	1.85	0.1	5147.7
95559	4.05	1.8	0.1	5134.9
95560	4.	1.95	0.1	5144.1
95561	4.05	1.9	0.1	5131.5
95562	4.	2.05	0.1	5140.9
95563	4.05	2.	0.1	5128.3
95564	4.	2.15	0.1	5137.9
95565	4.05	2.1	0.1	5125.5
95566	4.	2.25	0.1	5135.3
95567	4.05	2.2	0.1	5122.9
95568	4.	2.35	0.1	5132.9
95569	4.05	2.3	0.1	5120.6
95570	4.	2.45	0.1	5131.
95571	4.05	2.4	0.1	5118.6
95572	4.	2.55	0.1	5129.3
95573	4.05	2.5	0.1	5116.9
95574	4.	2.65	0.1	5128.
95575	4.05	2.6	0.1	5115.6
95576	4.	2.75	0.1	5127.
95577	4.05	2.7	0.1	5114.5
95578	4.	2.85	0.1	5126.3
95579	4.05	2.8	0.1	5113.7
95580	4.	2.95	0.1	5125.9
95581	4.05	2.9	0.1	5113.3
95582	4.	3.05	0.1	5125.9
95583	4.05	3.	0.1	5113.1
95584	4.	3.15	0.1	5126.3
95585	4.05	3.1	0.1	5113.3
95586	4.	3.25	0.1	5127.
95587	4.05	3.2	0.1	5113.7
95588	4.	3.35	0.1	5128.
95589	4.05	3.3	0.1	5114.5
95590	4.	3.45	0.1	5129.3
95591	4.05	3.4	0.1	5115.6
95592	4.	3.55	0.1	5131.
95593	4.05	3.5	0.1	5116.9
95594	4.	3.65	0.1	5132.9
95595	4.05	3.6	0.1	5118.6
95596	4.	3.75	0.1	5135.3
95597	4.05	3.7	0.1	5120.6
95598	4.	3.85	0.1	5137.9
95599	4.05	3.8	0.1	5122.9
95600	4.	3.95	0.1	5140.9
95601	4.05	3.9	0.1	5125.5
95602	4.	4.05	0.1	5144.1
95603	4.05	4.	0.1	5128.3
95604	4.	4.15	0.1	5147.7
95605	4.05	4.1	0.1	5131.5
95606	4.	4.25	0.1	5151.6
95607	4.05	4.2	0.1	5134.9
95608	4.	4.35	0.1	5155.7
95609	4.05	4.3	0.1	5138.7
95610	4.	4.45	0.1	5160.2
95611	4.05	4.4	0.1	5142.6
95612	4.	4.55	0.1	5164.9
95613	4.05	4.5	0.1	5146.9
95614	4.	4.65	0.1	5169.9
95615	4.05	4.6	0.1	5151.4
95616	4.	4.75	0.1	5175.2
95617	4.05	4.7	0.1	5156.2
95618	4.	4.85	0.1	5180.7
95619	4.05	4.8	0.1	5161.2
95620	4.	4.95	0.1	5186.4
95621	4.05	4.9	0.1	5166.4
95622	4.	5.05	0.1	5192.4
95623	4.05	5.	0.1	5171.9
95624	4.	5.15	0.1	5198.6
95625	4.05	5.1	0.1	5177.6
95626	4.	5.25	0.1	5205.1
95627	4.05	5.2	0.1	5183.6
95628	4.	5.35	0.1	5211.7
95629	4.05	5.3	0.1	5189.7
95630	4.	5.45	0.1	5218.6
95631	4.05	5.4	0.1	5196.1
95632	4.	5.55	0.1	5225.7
95633	4.05	5.5	0.1	5202.7
95634	4.	5.65	0.1	5233.
95635	4.05	5.6	0.1	5209.5
95636	4.	5.75	0.1	5240.5
95637	4.05	5.7	0.1	5216.6
95638	4.	5.85	0.1	5248.6
95639	4.05	5.8	0.1	5223.9
95640	4.05	5.9	0.1	5232.
95641	4.	5.95	0.1	5250.5
95642	4.1	0.15	0.1	5207.3
95643	4.15	0.1	0.1	5190.1
95644	4.1	5.e-002	0.1	5209.3
95645	4.1	0.25	0.1	5200.
95646	4.15	0.2	0.1	5182.7
95647	4.1	0.35	0.1	5193.1
95648	4.15	0.3	0.1	5176.1
95649	4.1	0.45	0.1	5186.5
95650	4.15	0.4	0.1	5169.8
95651	4.1	0.55	0.1	5180.2
95652	4.15	0.5	0.1	5163.7
95653	4.1	0.65	0.1	5174.1
95654	4.15	0.6	0.1	5157.9
95655	4.1	0.75	0.1	5168.2
95656	4.15	0.7	0.1	5152.3
95657	4.1	0.85	0.1	5162.6
95658	4.15	0.8	0.1	5146.9
95659	4.1	0.95	0.1	5157.1
95660	4.15	0.9	0.1	5141.8
95661	4.1	1.05	0.1	5151.9
95662	4.15	1.	0.1	5136.9
95663	4.1	1.15	0.1	5146.9
95664	4.15	1.1	0.1	5132.2
95665	4.1	1.25	0.1	5142.2
95666	4.15	1.2	0.1	5127.8
95667	4.1	1.35	0.1	5137.7
95668	4.15	1.3	0.1	5123.5
95669	4.1	1.45	0.1	5133.4
95670	4.15	1.4	0.1	5119.5
95671	4.1	1.55	0.1	5129.3
95672	4.15	1.5	0.1	5115.8
95673	4.1	1.65	0.1	5125.5
95674	4.15	1.6	0.1	5112.2
95675	4.1	1.75	0.1	5122.
95676	4.15	1.7	0.1	5108.9
95677	4.1	1.85	0.1	5118.7
95678	4.15	1.8	0.1	5105.8
95679	4.1	1.95	0.1	5115.7
95680	4.15	1.9	0.1	5103.
95681	4.1	2.05	0.1	5112.9
95682	4.15	2.	0.1	5100.4
95683	4.1	2.15	0.1	5110.4
95684	4.15	2.1	0.1	5098.
95685	4.1	2.25	0.1	5108.2
95686	4.15	2.2	0.1	5095.9
95687	4.1	2.35	0.1	5106.3
95688	4.15	2.3	0.1	5094.1
95689	4.1	2.45	0.1	5104.6
95690	4.15	2.4	0.1	5092.5
95691	4.1	2.55	0.1	5103.2
95692	4.15	2.5	0.1	5091.1
95693	4.1	2.65	0.1	5102.1
95694	4.15	2.6	0.1	5090.
95695	4.1	2.75	0.1	5101.3
95696	4.15	2.7	0.1	5089.1
95697	4.1	2.85	0.1	5100.7
95698	4.15	2.8	0.1	5088.5
95699	4.1	2.95	0.1	5100.4
95700	4.15	2.9	0.1	5088.1
95701	4.1	3.05	0.1	5100.4
95702	4.15	3.	0.1	5088.
95703	4.1	3.15	0.1	5100.7
95704	4.15	3.1	0.1	5088.1
95705	4.1	3.25	0.1	5101.3
95706	4.15	3.2	0.1	5088.5
95707	4.1	3.35	0.1	5102.1
95708	4.15	3.3	0.1	5089.1
95709	4.1	3.45	0.1	5103.2
95710	4.15	3.4	0.1	5090.
95711	4.1	3.55	0.1	5104.6
95712	4.15	3.5	0.1	5091.1
95713	4.1	3.65	0.1	5106.3
95714	4.15	3.6	0.1	5092.5
95715	4.1	3.75	0.1	5108.2
95716	4.15	3.7	0.1	5094.1
95717	4.1	3.85	0.1	5110.4
95718	4.15	3.8	0.1	5095.9
95719	4.1	3.95	0.1	5112.9
95720	4.15	3.9	0.1	5098.
95721	4.1	4.05	0.1	5115.7
95722	4.15	4.	0.1	5100.4
95723	4.1	4.15	0.1	5118.7
95724	4.15	4.1	0.1	5103.
95725	4.1	4.25	0.1	5122.
95726	4.15	4.2	0.1	5105.8
95727	4.1	4.35	0.1	5125.5
95728	4.15	4.3	0.1	5108.9
95729	4.1	4.45	0.1	5129.3
95730	4.15	4.4	0.1	5112.2
95731	4.1	4.55	0.1	5133.4
95732	4.15	4.5	0.1	5115.8
95733	4.1	4.65	0.1	5137.7
95734	4.15	4.6	0.1	5119.5
95735	4.1	4.75	0.1	5142.2
95736	4.15	4.7	0.1	5123.5
95737	4.1	4.85	0.1	5146.9
95738	4.15	4.8	0.1	5127.8
95739	4.1	4.95	0.1	5151.9
95740	4.15	4.9	0.1	5132.2
95741	4.1	5.05	0.1	5157.1
95742	4.15	5.	0.1	5136.9
95743	4.1	5.15	0.1	5162.6
95744	4.15	5.1	0.1	5141.8
95745	4.1	5.25	0.1	5168.2
95746	4.15	5.2	0.1	5146.9
95747	4.1	5.35	0.1	5174.1
95748	4.15	5.3	0.1	5152.3
95749	4.1	5.45	0.1	5180.2
95750	4.15	5.4	0.1	5157.9
95751	4.1	5.55	0.1	5186.5
95752	4.15	5.5	0.1	5163.7
95753	4.1	5.65	0.1	5193.1
95754	4.15	5.6	0.1	5169.8
95755	4.1	5.75	0.1	5200.
95756	4.15	5.7	0.1	5176.1
95757	4.1	5.85	0.1	5207.3
95758	4.15	5.8	0.1	5182.7
95759	4.15	5.9	0.1	5190.1
95760	4.1	5.95	0.1	5209.3
95761	4.2	0.15	0.1	5165.5
95762	4.25	0.1	0.1	5147.6
95763	4.2	5.e-002	0.1	5167.4
95764	4.2	0.25	0.1	5158.9
95765	4.25	0.2	0.1	5140.9
95766	4.2	0.35	0.1	5152.7
95767	4.25	0.3	0.1	5135.
95768	4.2	0.45	0.1	5146.9
95769	4.25	0.4	0.1	5129.5
95770	4.2	0.55	0.1	5141.4
95771	4.25	0.5	0.1	5124.2
95772	4.2	0.65	0.1	5136.1
95773	4.25	0.6	0.1	5119.2
95774	4.2	0.75	0.1	5131.
95775	4.25	0.7	0.1	5114.4
95776	4.2	0.85	0.1	5126.2
95777	4.25	0.8	0.1	5109.9
95778	4.2	0.95	0.1	5121.6
95779	4.25	0.9	0.1	5105.7
95780	4.2	1.05	0.1	5117.2
95781	4.25	1.	0.1	5101.7
95782	4.2	1.15	0.1	5113.1
95783	4.25	1.1	0.1	5097.8
95784	4.2	1.25	0.1	5109.1
95785	4.25	1.2	0.1	5094.3
95786	4.2	1.35	0.1	5105.4
95787	4.25	1.3	0.1	5090.9
95788	4.2	1.45	0.1	5101.9
95789	4.25	1.4	0.1	5087.7
95790	4.2	1.55	0.1	5098.6
95791	4.25	1.5	0.1	5084.8
95792	4.2	1.65	0.1	5095.6
95793	4.25	1.6	0.1	5082.
95794	4.2	1.75	0.1	5092.7
95795	4.25	1.7	0.1	5079.4
95796	4.2	1.85	0.1	5090.1
95797	4.25	1.8	0.1	5077.1
95798	4.2	1.95	0.1	5087.7
95799	4.25	1.9	0.1	5074.9
95800	4.2	2.05	0.1	5085.5
95801	4.25	2.	0.1	5073.
95802	4.2	2.15	0.1	5083.5
95803	4.25	2.1	0.1	5071.2
95804	4.2	2.25	0.1	5081.8
95805	4.25	2.2	0.1	5069.6
95806	4.2	2.35	0.1	5080.3
95807	4.25	2.3	0.1	5068.2
95808	4.2	2.45	0.1	5079.
95809	4.25	2.4	0.1	5067.
95810	4.2	2.55	0.1	5077.9
95811	4.25	2.5	0.1	5066.
95812	4.2	2.65	0.1	5077.
95813	4.25	2.6	0.1	5065.2
95814	4.2	2.75	0.1	5076.3
95815	4.25	2.7	0.1	5064.6
95816	4.2	2.85	0.1	5075.9
95817	4.25	2.8	0.1	5064.1
95818	4.2	2.95	0.1	5075.7
95819	4.25	2.9	0.1	5063.8
95820	4.2	3.05	0.1	5075.7
95821	4.25	3.	0.1	5063.7
95822	4.2	3.15	0.1	5075.9
95823	4.25	3.1	0.1	5063.8
95824	4.2	3.25	0.1	5076.3
95825	4.25	3.2	0.1	5064.1
95826	4.2	3.35	0.1	5077.
95827	4.25	3.3	0.1	5064.6
95828	4.2	3.45	0.1	5077.9
95829	4.25	3.4	0.1	5065.2
95830	4.2	3.55	0.1	5079.
95831	4.25	3.5	0.1	5066.
95832	4.2	3.65	0.1	5080.3
95833	4.25	3.6	0.1	5067.
95834	4.2	3.75	0.1	5081.8
95835	4.25	3.7	0.1	5068.2
95836	4.2	3.85	0.1	5083.5
95837	4.25	3.8	0.1	5069.6
95838	4.2	3.95	0.1	5085.5
95839	4.25	3.9	0.1	5071.2
95840	4.2	4.05	0.1	5087.7
95841	4.25	4.	0.1	5073.
95842	4.2	4.15	0.1	5090.1
95843	4.25	4.1	0.1	5074.9
95844	4.2	4.25	0.1	5092.7
95845	4.25	4.2	0.1	5077.1
95846	4.2	4.35	0.1	5095.6
95847	4.25	4.3	0.1	5079.4
95848	4.2	4.45	0.1	5098.6
95849	4.25	4.4	0.1	5082.
95850	4.2	4.55	0.1	5101.9
95851	4.25	4.5	0.1	5084.8
95852	4.2	4.65	0.1	5105.4
95853	4.25	4.6	0.1	5087.7
95854	4.2	4.75	0.1	5109.1
95855	4.25	4.7	0.1	5090.9
95856	4.2	4.85	0.1	5113.1
95857	4.25	4.8	0.1	5094.3
95858	4.2	4.95	0.1	5117.2
95859	4.25	4.9	0.1	5097.8
95860	4.2	5.05	0.1	5121.6
95861	4.25	5.	0.1	5101.7
95862	4.2	5.15	0.1	5126.2
95863	4.25	5.1	0.1	5105.7
95864	4.2	5.25	0.1	5131.
95865	4.25	5.2	0.1	5109.9
95866	4.2	5.35	0.1	5136.1
95867	4.25	5.3	0.1	5114.4
95868	4.2	5.45	0.1	5141.4
95869	4.25	5.4	0.1	5119.2
95870	4.2	5.55	0.1	5146.9
95871	4.25	5.5	0.1	5124.2
95872	4.2	5.65	0.1	5152.7
95873	4.25	5.6	0.1	5129.5
95874	4.2	5.75	0.1	5158.9
95875	4.25	5.7	0.1	5135.
95876	4.2	5.85	0.1	5165.5
95877	4.25	5.8	0.1	5140.9
95878	4.25	5.9	0.1	5147.6
95879	4.2	5.95	0.1	5167.4
95880	4.3	0.15	0.1	5123.
95881	4.35	0.1	0.1	5104.4
95882	4.3	5.e-002	0.1	5124.8
95883	4.3	0.25	0.1	5117.1
95884	4.35	0.2	0.1	5098.4
95885	4.3	0.35	0.1	5111.8
95886	4.35	0.3	0.1	5093.3
95887	4.3	0.45	0.1	5106.7
95888	4.35	0.4	0.1	5088.5
95889	4.3	0.55	0.1	5102.
95890	4.35	0.5	0.1	5084.1
95891	4.3	0.65	0.1	5097.6
95892	4.35	0.6	0.1	5079.9
95893	4.3	0.75	0.1	5093.4
95894	4.35	0.7	0.1	5076.1
95895	4.3	0.85	0.1	5089.4
95896	4.35	0.8	0.1	5072.5
95897	4.3	0.95	0.1	5085.8
95898	4.35	0.9	0.1	5069.2
95899	4.3	1.05	0.1	5082.3
95900	4.35	1.	0.1	5066.1
95901	4.3	1.15	0.1	5079.
95902	4.35	1.1	0.1	5063.3
95903	4.3	1.25	0.1	5076.
95904	4.35	1.2	0.1	5060.6
95905	4.3	1.35	0.1	5073.2
95906	4.35	1.3	0.1	5058.2
95907	4.3	1.45	0.1	5070.6
95908	4.35	1.4	0.1	5055.9
95909	4.3	1.55	0.1	5068.1
95910	4.35	1.5	0.1	5053.9
95911	4.3	1.65	0.1	5065.9
95912	4.35	1.6	0.1	5052.
95913	4.3	1.75	0.1	5063.8
95914	4.35	1.7	0.1	5050.3
95915	4.3	1.85	0.1	5061.9
95916	4.35	1.8	0.1	5048.7
95917	4.3	1.95	0.1	5060.2
95918	4.35	1.9	0.1	5047.3
95919	4.3	2.05	0.1	5058.6
95920	4.35	2.	0.1	5046.
95921	4.3	2.15	0.1	5057.2
95922	4.35	2.1	0.1	5044.9
95923	4.3	2.25	0.1	5056.
95924	4.35	2.2	0.1	5043.9
95925	4.3	2.35	0.1	5055.
95926	4.35	2.3	0.1	5043.1
95927	4.3	2.45	0.1	5054.1
95928	4.35	2.4	0.1	5042.4
95929	4.3	2.55	0.1	5053.3
95930	4.35	2.5	0.1	5041.8
95931	4.3	2.65	0.1	5052.7
95932	4.35	2.6	0.1	5041.3
95933	4.3	2.75	0.1	5052.3
95934	4.35	2.7	0.1	5040.9
95935	4.3	2.85	0.1	5052.
95936	4.35	2.8	0.1	5040.6
95937	4.3	2.95	0.1	5051.9
95938	4.35	2.9	0.1	5040.5
95939	4.3	3.05	0.1	5051.9
95940	4.35	3.	0.1	5040.4
95941	4.3	3.15	0.1	5052.
95942	4.35	3.1	0.1	5040.5
95943	4.3	3.25	0.1	5052.3
95944	4.35	3.2	0.1	5040.6
95945	4.3	3.35	0.1	5052.7
95946	4.35	3.3	0.1	5040.9
95947	4.3	3.45	0.1	5053.3
95948	4.35	3.4	0.1	5041.3
95949	4.3	3.55	0.1	5054.1
95950	4.35	3.5	0.1	5041.8
95951	4.3	3.65	0.1	5055.
95952	4.35	3.6	0.1	5042.4
95953	4.3	3.75	0.1	5056.
95954	4.35	3.7	0.1	5043.1
95955	4.3	3.85	0.1	5057.2
95956	4.35	3.8	0.1	5043.9
95957	4.3	3.95	0.1	5058.6
95958	4.35	3.9	0.1	5044.9
95959	4.3	4.05	0.1	5060.2
95960	4.35	4.	0.1	5046.
95961	4.3	4.15	0.1	5061.9
95962	4.35	4.1	0.1	5047.3
95963	4.3	4.25	0.1	5063.8
95964	4.35	4.2	0.1	5048.7
95965	4.3	4.35	0.1	5065.9
95966	4.35	4.3	0.1	5050.3
95967	4.3	4.45	0.1	5068.1
95968	4.35	4.4	0.1	5052.
95969	4.3	4.55	0.1	5070.6
95970	4.35	4.5	0.1	5053.9
95971	4.3	4.65	0.1	5073.2
95972	4.35	4.6	0.1	5055.9
95973	4.3	4.75	0.1	5076.
95974	4.35	4.7	0.1	5058.2
95975	4.3	4.85	0.1	5079.
95976	4.35	4.8	0.1	5060.6
95977	4.3	4.95	0.1	5082.3
95978	4.35	4.9	0.1	5063.3
95979	4.3	5.05	0.1	5085.8
95980	4.35	5.	0.1	5066.1
95981	4.3	5.15	0.1	5089.4
95982	4.35	5.1	0.1	5069.2
95983	4.3	5.25	0.1	5093.4
95984	4.35	5.2	0.1	5072.5
95985	4.3	5.35	0.1	5097.5
95986	4.35	5.3	0.1	5076.1
95987	4.3	5.45	0.1	5102.
95988	4.35	5.4	0.1	5079.9
95989	4.3	5.55	0.1	5106.7
95990	4.35	5.5	0.1	5084.1
95991	4.3	5.65	0.1	5111.8
95992	4.35	5.6	0.1	5088.5
95993	4.3	5.75	0.1	5117.1
95994	4.35	5.7	0.1	5093.3
95995	4.3	5.85	0.1	5123.
95996	4.35	5.8	0.1	5098.4
95997	4.35	5.9	0.1	5104.4
95998	4.3	5.95	0.1	5124.7
95999	4.4	0.15	0.1	5079.8
96000	4.45	0.1	0.1	5060.3
96001	4.4	5.e-002	0.1	5081.3
96002	4.4	0.25	0.1	5074.6
96003	4.45	0.2	0.1	5055.1
96004	4.4	0.35	0.1	5070.1
96005	4.45	0.3	0.1	5050.8
96006	4.4	0.45	0.1	5065.9
96007	4.45	0.4	0.1	5046.8
96008	4.4	0.55	0.1	5062.
96009	4.45	0.5	0.1	5043.3
96010	4.4	0.65	0.1	5058.5
96011	4.45	0.6	0.1	5040.1
96012	4.4	0.75	0.1	5055.3
96013	4.45	0.7	0.1	5037.2
96014	4.4	0.85	0.1	5052.3
96015	4.45	0.8	0.1	5034.6
96016	4.4	0.95	0.1	5049.6
96017	4.45	0.9	0.1	5032.3
96018	4.4	1.05	0.1	5047.1
96019	4.45	1.	0.1	5030.3
96020	4.4	1.15	0.1	5044.9
96021	4.45	1.1	0.1	5028.4
96022	4.4	1.25	0.1	5042.8
96023	4.45	1.2	0.1	5026.8
96024	4.4	1.35	0.1	5040.9
96025	4.45	1.3	0.1	5025.4
96026	4.4	1.45	0.1	5039.3
96027	4.45	1.4	0.1	5024.2
96028	4.4	1.55	0.1	5037.8
96029	4.45	1.5	0.1	5023.1
96030	4.4	1.65	0.1	5036.4
96031	4.45	1.6	0.1	5022.2
96032	4.4	1.75	0.1	5035.2
96033	4.45	1.7	0.1	5021.4
96034	4.4	1.85	0.1	5034.1
96035	4.45	1.8	0.1	5020.7
96036	4.4	1.95	0.1	5033.2
96037	4.45	1.9	0.1	5020.2
96038	4.4	2.05	0.1	5032.3
96039	4.45	2.	0.1	5019.7
96040	4.4	2.15	0.1	5031.6
96041	4.45	2.1	0.1	5019.3
96042	4.4	2.25	0.1	5031.
96043	4.45	2.2	0.1	5019.
96044	4.4	2.35	0.1	5030.5
96045	4.45	2.3	0.1	5018.8
96046	4.4	2.45	0.1	5030.
96047	4.45	2.4	0.1	5018.6
96048	4.4	2.55	0.1	5029.7
96049	4.45	2.5	0.1	5018.4
96050	4.4	2.65	0.1	5029.4
96051	4.45	2.6	0.1	5018.3
96052	4.4	2.75	0.1	5029.2
96053	4.45	2.7	0.1	5018.2
96054	4.4	2.85	0.1	5029.1
96055	4.45	2.8	0.1	5018.2
96056	4.4	2.95	0.1	5029.
96057	4.45	2.9	0.1	5018.1
96058	4.4	3.05	0.1	5029.
96059	4.45	3.	0.1	5018.1
96060	4.4	3.15	0.1	5029.1
96061	4.45	3.1	0.1	5018.1
96062	4.4	3.25	0.1	5029.2
96063	4.45	3.2	0.1	5018.2
96064	4.4	3.35	0.1	5029.4
96065	4.45	3.3	0.1	5018.2
96066	4.4	3.45	0.1	5029.7
96067	4.45	3.4	0.1	5018.3
96068	4.4	3.55	0.1	5030.
96069	4.45	3.5	0.1	5018.4
96070	4.4	3.65	0.1	5030.5
96071	4.45	3.6	0.1	5018.6
96072	4.4	3.75	0.1	5031.
96073	4.45	3.7	0.1	5018.8
96074	4.4	3.85	0.1	5031.6
96075	4.45	3.8	0.1	5019.
96076	4.4	3.95	0.1	5032.3
96077	4.45	3.9	0.1	5019.3
96078	4.4	4.05	0.1	5033.2
96079	4.45	4.	0.1	5019.7
96080	4.4	4.15	0.1	5034.1
96081	4.45	4.1	0.1	5020.2
96082	4.4	4.25	0.1	5035.2
96083	4.45	4.2	0.1	5020.7
96084	4.4	4.35	0.1	5036.4
96085	4.45	4.3	0.1	5021.4
96086	4.4	4.45	0.1	5037.8
96087	4.45	4.4	0.1	5022.2
96088	4.4	4.55	0.1	5039.3
96089	4.45	4.5	0.1	5023.1
96090	4.4	4.65	0.1	5040.9
96091	4.45	4.6	0.1	5024.2
96092	4.4	4.75	0.1	5042.8
96093	4.45	4.7	0.1	5025.4
96094	4.4	4.85	0.1	5044.9
96095	4.45	4.8	0.1	5026.8
96096	4.4	4.95	0.1	5047.1
96097	4.45	4.9	0.1	5028.4
96098	4.4	5.05	0.1	5049.6
96099	4.45	5.	0.1	5030.3
96100	4.4	5.15	0.1	5052.3
96101	4.45	5.1	0.1	5032.3
96102	4.4	5.25	0.1	5055.3
96103	4.45	5.2	0.1	5034.6
96104	4.4	5.35	0.1	5058.5
96105	4.45	5.3	0.1	5037.2
96106	4.4	5.45	0.1	5062.
96107	4.45	5.4	0.1	5040.1
96108	4.4	5.55	0.1	5065.9
96109	4.45	5.5	0.1	5043.3
96110	4.4	5.65	0.1	5070.1
96111	4.45	5.6	0.1	5046.8
96112	4.4	5.75	0.1	5074.6
96113	4.45	5.7	0.1	5050.8
96114	4.4	5.85	0.1	5079.8
96115	4.45	5.8	0.1	5055.1
96116	4.45	5.9	0.1	5060.3
96117	4.4	5.95	0.1	5081.3
96118	4.5	0.15	0.1	5035.6
96119	4.55	0.1	0.1	5015.2
96120	4.5	5.e-002	0.1	5036.9
96121	4.5	0.25	0.1	5031.3
96122	4.55	0.2	0.1	5010.9
96123	4.5	0.35	0.1	5027.5
96124	4.55	0.3	0.1	5007.3
96125	4.5	0.45	0.1	5024.2
96126	4.55	0.4	0.1	5004.3
96127	4.5	0.55	0.1	5021.3
96128	4.55	0.5	0.1	5001.7
96129	4.5	0.65	0.1	5018.8
96130	4.55	0.6	0.1	4999.5
96131	4.5	0.75	0.1	5016.6
96132	4.55	0.7	0.1	4997.6
96133	4.5	0.85	0.1	5014.6
96134	4.55	0.8	0.1	4996.1
96135	4.5	0.95	0.1	5013.
96136	4.55	0.9	0.1	4994.9
96137	4.5	1.05	0.1	5011.6
96138	4.55	1.	0.1	4994.
96139	4.5	1.15	0.1	5010.4
96140	4.55	1.1	0.1	4993.3
96141	4.5	1.25	0.1	5009.5
96142	4.55	1.2	0.1	4992.9
96143	4.5	1.35	0.1	5008.7
96144	4.55	1.3	0.1	4992.6
96145	4.5	1.45	0.1	5008.1
96146	4.55	1.4	0.1	4992.5
96147	4.5	1.55	0.1	5007.6
96148	4.55	1.5	0.1	4992.5
96149	4.5	1.65	0.1	5007.2
96150	4.55	1.6	0.1	4992.7
96151	4.5	1.75	0.1	5007.
96152	4.55	1.7	0.1	4992.9
96153	4.5	1.85	0.1	5006.8
96154	4.55	1.8	0.1	4993.2
96155	4.5	1.95	0.1	5006.7
96156	4.55	1.9	0.1	4993.6
96157	4.5	2.05	0.1	5006.7
96158	4.55	2.	0.1	4994.
96159	4.5	2.15	0.1	5006.7
96160	4.55	2.1	0.1	4994.5
96161	4.5	2.25	0.1	5006.8
96162	4.55	2.2	0.1	4994.9
96163	4.5	2.35	0.1	5006.8
96164	4.55	2.3	0.1	4995.3
96165	4.5	2.45	0.1	5006.9
96166	4.55	2.4	0.1	4995.7
96167	4.5	2.55	0.1	5007.
96168	4.55	2.5	0.1	4996.1
96169	4.5	2.65	0.1	5007.1
96170	4.55	2.6	0.1	4996.4
96171	4.5	2.75	0.1	5007.2
96172	4.55	2.7	0.1	4996.6
96173	4.5	2.85	0.1	5007.2
96174	4.55	2.8	0.1	4996.8
96175	4.5	2.95	0.1	5007.2
96176	4.55	2.9	0.1	4996.9
96177	4.5	3.05	0.1	5007.2
96178	4.55	3.	0.1	4997.
96179	4.5	3.15	0.1	5007.2
96180	4.55	3.1	0.1	4996.9
96181	4.5	3.25	0.1	5007.2
96182	4.55	3.2	0.1	4996.8
96183	4.5	3.35	0.1	5007.1
96184	4.55	3.3	0.1	4996.6
96185	4.5	3.45	0.1	5007.
96186	4.55	3.4	0.1	4996.4
96187	4.5	3.55	0.1	5006.9
96188	4.55	3.5	0.1	4996.1
96189	4.5	3.65	0.1	5006.8
96190	4.55	3.6	0.1	4995.7
96191	4.5	3.75	0.1	5006.8
96192	4.55	3.7	0.1	4995.3
96193	4.5	3.85	0.1	5006.7
96194	4.55	3.8	0.1	4994.9
96195	4.5	3.95	0.1	5006.7
96196	4.55	3.9	0.1	4994.5
96197	4.5	4.05	0.1	5006.7
96198	4.55	4.	0.1	4994.
96199	4.5	4.15	0.1	5006.8
96200	4.55	4.1	0.1	4993.6
96201	4.5	4.25	0.1	5007.
96202	4.55	4.2	0.1	4993.2
96203	4.5	4.35	0.1	5007.2
96204	4.55	4.3	0.1	4992.9
96205	4.5	4.45	0.1	5007.6
96206	4.55	4.4	0.1	4992.7
96207	4.5	4.55	0.1	5008.1
96208	4.55	4.5	0.1	4992.5
96209	4.5	4.65	0.1	5008.7
96210	4.55	4.6	0.1	4992.5
96211	4.5	4.75	0.1	5009.5
96212	4.55	4.7	0.1	4992.6
96213	4.5	4.85	0.1	5010.4
96214	4.55	4.8	0.1	4992.9
96215	4.5	4.95	0.1	5011.6
96216	4.55	4.9	0.1	4993.3
96217	4.5	5.05	0.1	5013.
96218	4.55	5.	0.1	4994.
96219	4.5	5.15	0.1	5014.6
96220	4.55	5.1	0.1	4994.9
96221	4.5	5.25	0.1	5016.6
96222	4.55	5.2	0.1	4996.1
96223	4.5	5.35	0.1	5018.8
96224	4.55	5.3	0.1	4997.6
96225	4.5	5.45	0.1	5021.3
96226	4.55	5.4	0.1	4999.5
96227	4.5	5.55	0.1	5024.2
96228	4.55	5.5	0.1	5001.7
96229	4.5	5.65	0.1	5027.5
96230	4.55	5.6	0.1	5004.3
96231	4.5	5.75	0.1	5031.3
96232	4.55	5.7	0.1	5007.3
96233	4.5	5.85	0.1	5035.6
96234	4.55	5.8	0.1	5010.9
96235	4.55	5.9	0.1	5015.2
96236	4.5	5.95	0.1	5036.9
96237	4.6	0.15	0.1	4990.4
96238	4.65	0.1	0.1	4969.
96239	4.6	5.e-002	0.1	4991.4
96240	4.6	0.25	0.1	4986.9
96241	4.65	0.2	0.1	4965.5
96242	4.6	0.35	0.1	4984.1
96243	4.65	0.3	0.1	4962.8
96244	4.6	0.45	0.1	4981.7
96245	4.65	0.4	0.1	4960.7
96246	4.6	0.55	0.1	4979.8
96247	4.65	0.5	0.1	4959.1
96248	4.6	0.65	0.1	4978.3
96249	4.65	0.6	0.1	4958.
96250	4.6	0.75	0.1	4977.2
96251	4.65	0.7	0.1	4957.3
96252	4.6	0.85	0.1	4976.4
96253	4.65	0.8	0.1	4957.
96254	4.6	0.95	0.1	4975.9
96255	4.65	0.9	0.1	4957.
96256	4.6	1.05	0.1	4975.7
96257	4.65	1.	0.1	4957.3
96258	4.6	1.15	0.1	4975.7
96259	4.65	1.1	0.1	4957.8
96260	4.6	1.25	0.1	4976.
96261	4.65	1.2	0.1	4958.6
96262	4.6	1.35	0.1	4976.4
96263	4.65	1.3	0.1	4959.6
96264	4.6	1.45	0.1	4976.9
96265	4.65	1.4	0.1	4960.7
96266	4.6	1.55	0.1	4977.6
96267	4.65	1.5	0.1	4962.
96268	4.6	1.65	0.1	4978.3
96269	4.65	1.6	0.1	4963.4
96270	4.6	1.75	0.1	4979.2
96271	4.65	1.7	0.1	4964.8
96272	4.6	1.85	0.1	4980.
96273	4.65	1.8	0.1	4966.2
96274	4.6	1.95	0.1	4980.9
96275	4.65	1.9	0.1	4967.6
96276	4.6	2.05	0.1	4981.8
96277	4.65	2.	0.1	4969.1
96278	4.6	2.15	0.1	4982.6
96279	4.65	2.1	0.1	4970.4
96280	4.6	2.25	0.1	4983.5
96281	4.65	2.2	0.1	4971.7
96282	4.6	2.35	0.1	4984.2
96283	4.65	2.3	0.1	4972.9
96284	4.6	2.45	0.1	4984.9
96285	4.65	2.4	0.1	4974.
96286	4.6	2.55	0.1	4985.5
96287	4.65	2.5	0.1	4974.9
96288	4.6	2.65	0.1	4985.9
96289	4.65	2.6	0.1	4975.7
96290	4.6	2.75	0.1	4986.3
96291	4.65	2.7	0.1	4976.3
96292	4.6	2.85	0.1	4986.6
96293	4.65	2.8	0.1	4976.8
96294	4.6	2.95	0.1	4986.7
96295	4.65	2.9	0.1	4977.1
96296	4.6	3.05	0.1	4986.7
96297	4.65	3.	0.1	4977.2
96298	4.6	3.15	0.1	4986.6
96299	4.65	3.1	0.1	4977.1
96300	4.6	3.25	0.1	4986.3
96301	4.65	3.2	0.1	4976.8
96302	4.6	3.35	0.1	4985.9
96303	4.65	3.3	0.1	4976.3
96304	4.6	3.45	0.1	4985.5
96305	4.65	3.4	0.1	4975.7
96306	4.6	3.55	0.1	4984.9
96307	4.65	3.5	0.1	4974.9
96308	4.6	3.65	0.1	4984.2
96309	4.65	3.6	0.1	4974.
96310	4.6	3.75	0.1	4983.5
96311	4.65	3.7	0.1	4972.9
96312	4.6	3.85	0.1	4982.6
96313	4.65	3.8	0.1	4971.7
96314	4.6	3.95	0.1	4981.8
96315	4.65	3.9	0.1	4970.4
96316	4.6	4.05	0.1	4980.9
96317	4.65	4.	0.1	4969.1
96318	4.6	4.15	0.1	4980.
96319	4.65	4.1	0.1	4967.6
96320	4.6	4.25	0.1	4979.2
96321	4.65	4.2	0.1	4966.2
96322	4.6	4.35	0.1	4978.3
96323	4.65	4.3	0.1	4964.8
96324	4.6	4.45	0.1	4977.6
96325	4.65	4.4	0.1	4963.4
96326	4.6	4.55	0.1	4976.9
96327	4.65	4.5	0.1	4962.
96328	4.6	4.65	0.1	4976.4
96329	4.65	4.6	0.1	4960.7
96330	4.6	4.75	0.1	4976.
96331	4.65	4.7	0.1	4959.6
96332	4.6	4.85	0.1	4975.7
96333	4.65	4.8	0.1	4958.6
96334	4.6	4.95	0.1	4975.7
96335	4.65	4.9	0.1	4957.8
96336	4.6	5.05	0.1	4975.9
96337	4.65	5.	0.1	4957.3
96338	4.6	5.15	0.1	4976.4
96339	4.65	5.1	0.1	4957.
96340	4.6	5.25	0.1	4977.2
96341	4.65	5.2	0.1	4957.
96342	4.6	5.35	0.1	4978.3
96343	4.65	5.3	0.1	4957.3
96344	4.6	5.45	0.1	4979.8
96345	4.65	5.4	0.1	4958.
96346	4.6	5.55	0.1	4981.7
96347	4.65	5.5	0.1	4959.1
96348	4.6	5.65	0.1	4984.1
96349	4.65	5.6	0.1	4960.7
96350	4.6	5.75	0.1	4986.9
96351	4.65	5.7	0.1	4962.8
96352	4.6	5.85	0.1	4990.4
96353	4.65	5.8	0.1	4965.5
96354	4.65	5.9	0.1	4969.
96355	4.6	5.95	0.1	4991.4
96356	4.7	0.15	0.1	4944.
96357	4.75	0.1	0.1	4921.5
96358	4.7	5.e-002	0.1	4944.6
96359	4.7	0.25	0.1	4941.4
96360	4.75	0.2	0.1	4918.8
96361	4.7	0.35	0.1	4939.5
96362	4.75	0.3	0.1	4917.1
96363	4.7	0.45	0.1	4938.2
96364	4.75	0.4	0.1	4916.
96365	4.7	0.55	0.1	4937.3
96366	4.75	0.5	0.1	4915.5
96367	4.7	0.65	0.1	4937.
96368	4.75	0.6	0.1	4915.6
96369	4.7	0.75	0.1	4937.1
96370	4.75	0.7	0.1	4916.1
96371	4.7	0.85	0.1	4937.5
96372	4.75	0.8	0.1	4917.
96373	4.7	0.95	0.1	4938.3
96374	4.75	0.9	0.1	4918.3
96375	4.7	1.05	0.1	4939.4
96376	4.75	1.	0.1	4920.
96377	4.7	1.15	0.1	4940.7
96378	4.75	1.1	0.1	4921.9
96379	4.7	1.25	0.1	4942.3
96380	4.75	1.2	0.1	4924.1
96381	4.7	1.35	0.1	4944.
96382	4.75	1.3	0.1	4926.5
96383	4.7	1.45	0.1	4945.8
96384	4.75	1.4	0.1	4929.
96385	4.7	1.55	0.1	4947.8
96386	4.75	1.5	0.1	4931.6
96387	4.7	1.65	0.1	4949.8
96388	4.75	1.6	0.1	4934.3
96389	4.7	1.75	0.1	4951.8
96390	4.75	1.7	0.1	4937.
96391	4.7	1.85	0.1	4953.8
96392	4.75	1.8	0.1	4939.7
96393	4.7	1.95	0.1	4955.8
96394	4.75	1.9	0.1	4942.3
96395	4.7	2.05	0.1	4957.7
96396	4.75	2.	0.1	4944.9
96397	4.7	2.15	0.1	4959.5
96398	4.75	2.1	0.1	4947.3
96399	4.7	2.25	0.1	4961.1
96400	4.75	2.2	0.1	4949.5
96401	4.7	2.35	0.1	4962.7
96402	4.75	2.3	0.1	4951.6
96403	4.7	2.45	0.1	4964.
96404	4.75	2.4	0.1	4953.4
96405	4.7	2.55	0.1	4965.1
96406	4.75	2.5	0.1	4955.
96407	4.7	2.65	0.1	4966.1
96408	4.75	2.6	0.1	4956.4
96409	4.7	2.75	0.1	4966.8
96410	4.75	2.7	0.1	4957.4
96411	4.7	2.85	0.1	4967.3
96412	4.75	2.8	0.1	4958.2
96413	4.7	2.95	0.1	4967.5
96414	4.75	2.9	0.1	4958.6
96415	4.7	3.05	0.1	4967.5
96416	4.75	3.	0.1	4958.8
96417	4.7	3.15	0.1	4967.3
96418	4.75	3.1	0.1	4958.6
96419	4.7	3.25	0.1	4966.8
96420	4.75	3.2	0.1	4958.2
96421	4.7	3.35	0.1	4966.1
96422	4.75	3.3	0.1	4957.4
96423	4.7	3.45	0.1	4965.1
96424	4.75	3.4	0.1	4956.4
96425	4.7	3.55	0.1	4964.
96426	4.75	3.5	0.1	4955.
96427	4.7	3.65	0.1	4962.7
96428	4.75	3.6	0.1	4953.4
96429	4.7	3.75	0.1	4961.1
96430	4.75	3.7	0.1	4951.6
96431	4.7	3.85	0.1	4959.5
96432	4.75	3.8	0.1	4949.5
96433	4.7	3.95	0.1	4957.7
96434	4.75	3.9	0.1	4947.3
96435	4.7	4.05	0.1	4955.8
96436	4.75	4.	0.1	4944.9
96437	4.7	4.15	0.1	4953.8
96438	4.75	4.1	0.1	4942.3
96439	4.7	4.25	0.1	4951.8
96440	4.75	4.2	0.1	4939.7
96441	4.7	4.35	0.1	4949.8
96442	4.75	4.3	0.1	4937.
96443	4.7	4.45	0.1	4947.8
96444	4.75	4.4	0.1	4934.3
96445	4.7	4.55	0.1	4945.8
96446	4.75	4.5	0.1	4931.6
96447	4.7	4.65	0.1	4944.
96448	4.75	4.6	0.1	4929.
96449	4.7	4.75	0.1	4942.3
96450	4.75	4.7	0.1	4926.5
96451	4.7	4.85	0.1	4940.7
96452	4.75	4.8	0.1	4924.1
96453	4.7	4.95	0.1	4939.4
96454	4.75	4.9	0.1	4921.9
96455	4.7	5.05	0.1	4938.3
96456	4.75	5.	0.1	4920.
96457	4.7	5.15	0.1	4937.5
96458	4.75	5.1	0.1	4918.3
96459	4.7	5.25	0.1	4937.1
96460	4.75	5.2	0.1	4917.
96461	4.7	5.35	0.1	4937.
96462	4.75	5.3	0.1	4916.1
96463	4.7	5.45	0.1	4937.3
96464	4.75	5.4	0.1	4915.6
96465	4.7	5.55	0.1	4938.2
96466	4.75	5.5	0.1	4915.5
96467	4.7	5.65	0.1	4939.5
96468	4.75	5.6	0.1	4916.
96469	4.7	5.75	0.1	4941.4
96470	4.75	5.7	0.1	4917.1
96471	4.7	5.85	0.1	4944.
96472	4.75	5.8	0.1	4918.8
96473	4.75	5.9	0.1	4921.5
96474	4.7	5.95	0.1	4944.6
96475	4.8	0.15	0.1	4896.3
96476	4.85	0.1	0.1	4872.5
96477	4.8	5.e-002	0.1	4896.4
96478	4.8	0.25	0.1	4894.6
96479	4.85	0.2	0.1	4870.7
96480	4.8	0.35	0.1	4893.7
96481	4.85	0.3	0.1	4870.
96482	4.8	0.45	0.1	4893.4
96483	4.85	0.4	0.1	4870.
96484	4.8	0.55	0.1	4893.8
96485	4.85	0.5	0.1	4870.7
96486	4.8	0.65	0.1	4894.6
96487	4.85	0.6	0.1	4872.
96488	4.8	0.75	0.1	4896.
96489	4.85	0.7	0.1	4873.8
96490	4.8	0.85	0.1	4897.8
96491	4.85	0.8	0.1	4876.1
96492	4.8	0.95	0.1	4900.
96493	4.85	0.9	0.1	4878.9
96494	4.8	1.05	0.1	4902.5
96495	4.85	1.	0.1	4882.
96496	4.8	1.15	0.1	4905.3
96497	4.85	1.1	0.1	4885.5
96498	4.8	1.25	0.1	4908.3
96499	4.85	1.2	0.1	4889.2
96500	4.8	1.35	0.1	4911.5
96501	4.85	1.3	0.1	4893.1
96502	4.8	1.45	0.1	4914.8
96503	4.85	1.4	0.1	4897.2
96504	4.8	1.55	0.1	4918.2
96505	4.85	1.5	0.1	4901.4
96506	4.8	1.65	0.1	4921.6
96507	4.85	1.6	0.1	4905.5
96508	4.8	1.75	0.1	4924.9
96509	4.85	1.7	0.1	4909.7
96510	4.8	1.85	0.1	4928.2
96511	4.85	1.8	0.1	4913.8
96512	4.8	1.95	0.1	4931.4
96513	4.85	1.9	0.1	4917.8
96514	4.8	2.05	0.1	4934.5
96515	4.85	2.	0.1	4921.6
96516	4.8	2.15	0.1	4937.3
96517	4.85	2.1	0.1	4925.2
96518	4.8	2.25	0.1	4940.
96519	4.85	2.2	0.1	4928.5
96520	4.8	2.35	0.1	4942.3
96521	4.85	2.3	0.1	4931.5
96522	4.8	2.45	0.1	4944.4
96523	4.85	2.4	0.1	4934.2
96524	4.8	2.55	0.1	4946.2
96525	4.85	2.5	0.1	4936.6
96526	4.8	2.65	0.1	4947.7
96527	4.85	2.6	0.1	4938.6
96528	4.8	2.75	0.1	4948.8
96529	4.85	2.7	0.1	4940.1
96530	4.8	2.85	0.1	4949.5
96531	4.85	2.8	0.1	4941.2
96532	4.8	2.95	0.1	4949.9
96533	4.85	2.9	0.1	4941.9
96534	4.8	3.05	0.1	4949.9
96535	4.85	3.	0.1	4942.1
96536	4.8	3.15	0.1	4949.5
96537	4.85	3.1	0.1	4941.9
96538	4.8	3.25	0.1	4948.8
96539	4.85	3.2	0.1	4941.2
96540	4.8	3.35	0.1	4947.7
96541	4.85	3.3	0.1	4940.1
96542	4.8	3.45	0.1	4946.2
96543	4.85	3.4	0.1	4938.6
96544	4.8	3.55	0.1	4944.4
96545	4.85	3.5	0.1	4936.6
96546	4.8	3.65	0.1	4942.3
96547	4.85	3.6	0.1	4934.2
96548	4.8	3.75	0.1	4940.
96549	4.85	3.7	0.1	4931.5
96550	4.8	3.85	0.1	4937.3
96551	4.85	3.8	0.1	4928.5
96552	4.8	3.95	0.1	4934.5
96553	4.85	3.9	0.1	4925.2
96554	4.8	4.05	0.1	4931.4
96555	4.85	4.	0.1	4921.6
96556	4.8	4.15	0.1	4928.2
96557	4.85	4.1	0.1	4917.8
96558	4.8	4.25	0.1	4924.9
96559	4.85	4.2	0.1	4913.8
96560	4.8	4.35	0.1	4921.6
96561	4.85	4.3	0.1	4909.7
96562	4.8	4.45	0.1	4918.2
96563	4.85	4.4	0.1	4905.5
96564	4.8	4.55	0.1	4914.8
96565	4.85	4.5	0.1	4901.4
96566	4.8	4.65	0.1	4911.5
96567	4.85	4.6	0.1	4897.2
96568	4.8	4.75	0.1	4908.3
96569	4.85	4.7	0.1	4893.1
96570	4.8	4.85	0.1	4905.3
96571	4.85	4.8	0.1	4889.2
96572	4.8	4.95	0.1	4902.5
96573	4.85	4.9	0.1	4885.5
96574	4.8	5.05	0.1	4900.
96575	4.85	5.	0.1	4882.
96576	4.8	5.15	0.1	4897.8
96577	4.85	5.1	0.1	4878.9
96578	4.8	5.25	0.1	4896.
96579	4.85	5.2	0.1	4876.1
96580	4.8	5.35	0.1	4894.6
96581	4.85	5.3	0.1	4873.8
96582	4.8	5.45	0.1	4893.8
96583	4.85	5.4	0.1	4872.
96584	4.8	5.55	0.1	4893.4
96585	4.85	5.5	0.1	4870.7
96586	4.8	5.65	0.1	4893.7
96587	4.85	5.6	0.1	4870.
96588	4.8	5.75	0.1	4894.6
96589	4.85	5.7	0.1	4870.
96590	4.8	5.85	0.1	4896.3
96591	4.85	5.8	0.1	4870.7
96592	4.85	5.9	0.1	4872.5
96593	4.8	5.95	0.1	4896.4
96594	4.9	0.15	0.1	4846.9
96595	4.95	0.1	0.1	4821.7
96596	4.9	5.e-002	0.1	4846.5
96597	4.9	0.25	0.1	4846.2
96598	4.95	0.2	0.1	4820.9
96599	4.9	0.35	0.1	4846.3
96600	4.95	0.3	0.1	4821.3
96601	4.9	0.45	0.1	4847.3
96602	4.95	0.4	0.1	4822.4
96603	4.9	0.55	0.1	4848.9
96604	4.95	0.5	0.1	4824.4
96605	4.9	0.65	0.1	4851.1
96606	4.95	0.6	0.1	4827.
96607	4.9	0.75	0.1	4853.9
96608	4.95	0.7	0.1	4830.3
96609	4.9	0.85	0.1	4857.2
96610	4.95	0.8	0.1	4834.2
96611	4.9	0.95	0.1	4860.9
96612	4.95	0.9	0.1	4838.5
96613	4.9	1.05	0.1	4865.
96614	4.95	1.	0.1	4843.3
96615	4.9	1.15	0.1	4869.4
96616	4.95	1.1	0.1	4848.5
96617	4.9	1.25	0.1	4874.
96618	4.95	1.2	0.1	4853.9
96619	4.9	1.35	0.1	4878.9
96620	4.95	1.3	0.1	4859.5
96621	4.9	1.45	0.1	4883.8
96622	4.95	1.4	0.1	4865.3
96623	4.9	1.55	0.1	4888.7
96624	4.95	1.5	0.1	4871.2
96625	4.9	1.65	0.1	4893.7
96626	4.95	1.6	0.1	4877.1
96627	4.9	1.75	0.1	4898.6
96628	4.95	1.7	0.1	4882.9
96629	4.9	1.85	0.1	4903.4
96630	4.95	1.8	0.1	4888.6
96631	4.9	1.95	0.1	4907.9
96632	4.95	1.9	0.1	4894.1
96633	4.9	2.05	0.1	4912.3
96634	4.95	2.	0.1	4899.3
96635	4.9	2.15	0.1	4916.3
96636	4.95	2.1	0.1	4904.2
96637	4.9	2.25	0.1	4920.1
96638	4.95	2.2	0.1	4908.8
96639	4.9	2.35	0.1	4923.4
96640	4.95	2.3	0.1	4912.9
96641	4.9	2.45	0.1	4926.4
96642	4.95	2.4	0.1	4916.6
96643	4.9	2.55	0.1	4928.9
96644	4.95	2.5	0.1	4919.8
96645	4.9	2.65	0.1	4931.
96646	4.95	2.6	0.1	4922.5
96647	4.9	2.75	0.1	4932.5
96648	4.95	2.7	0.1	4924.6
96649	4.9	2.85	0.1	4933.6
96650	4.95	2.8	0.1	4926.1
96651	4.9	2.95	0.1	4934.1
96652	4.95	2.9	0.1	4927.
96653	4.9	3.05	0.1	4934.1
96654	4.95	3.	0.1	4927.3
96655	4.9	3.15	0.1	4933.6
96656	4.95	3.1	0.1	4927.
96657	4.9	3.25	0.1	4932.5
96658	4.95	3.2	0.1	4926.1
96659	4.9	3.35	0.1	4931.
96660	4.95	3.3	0.1	4924.6
96661	4.9	3.45	0.1	4928.9
96662	4.95	3.4	0.1	4922.5
96663	4.9	3.55	0.1	4926.4
96664	4.95	3.5	0.1	4919.8
96665	4.9	3.65	0.1	4923.4
96666	4.95	3.6	0.1	4916.6
96667	4.9	3.75	0.1	4920.1
96668	4.95	3.7	0.1	4912.9
96669	4.9	3.85	0.1	4916.3
96670	4.95	3.8	0.1	4908.8
96671	4.9	3.95	0.1	4912.3
96672	4.95	3.9	0.1	4904.2
96673	4.9	4.05	0.1	4907.9
96674	4.95	4.	0.1	4899.3
96675	4.9	4.15	0.1	4903.4
96676	4.95	4.1	0.1	4894.1
96677	4.9	4.25	0.1	4898.6
96678	4.95	4.2	0.1	4888.6
96679	4.9	4.35	0.1	4893.7
96680	4.95	4.3	0.1	4882.9
96681	4.9	4.45	0.1	4888.7
96682	4.95	4.4	0.1	4877.1
96683	4.9	4.55	0.1	4883.8
96684	4.95	4.5	0.1	4871.2
96685	4.9	4.65	0.1	4878.9
96686	4.95	4.6	0.1	4865.3
96687	4.9	4.75	0.1	4874.
96688	4.95	4.7	0.1	4859.5
96689	4.9	4.85	0.1	4869.4
96690	4.95	4.8	0.1	4853.9
96691	4.9	4.95	0.1	4865.
96692	4.95	4.9	0.1	4848.5
96693	4.9	5.05	0.1	4860.9
96694	4.95	5.	0.1	4843.3
96695	4.9	5.15	0.1	4857.2
96696	4.95	5.1	0.1	4838.5
96697	4.9	5.25	0.1	4853.9
96698	4.95	5.2	0.1	4834.2
96699	4.9	5.35	0.1	4851.1
96700	4.95	5.3	0.1	4830.3
96701	4.9	5.45	0.1	4848.9
96702	4.95	5.4	0.1	4827.
96703	4.9	5.55	0.1	4847.3
96704	4.95	5.5	0.1	4824.4
96705	4.9	5.65	0.1	4846.3
96706	4.95	5.6	0.1	4822.4
96707	4.9	5.75	0.1	4846.2
96708	4.95	5.7	0.1	4821.3
96709	4.9	5.85	0.1	4846.9
96710	4.95	5.8	0.1	4820.9
96711	4.95	5.9	0.1	4821.7
96712	4.9	5.95	0.1	4846.5
96713	5.	0.15	0.1	4795.7
96714	5.05	0.1	0.1	4769.
96715	5.	5.e-002	0.1	4794.8
96716	5.	0.25	0.1	4796.
96717	5.05	0.2	0.1	4769.2
96718	5.	0.35	0.1	4797.3
96719	5.05	0.3	0.1	4770.7
96720	5.	0.45	0.1	4799.5
96721	5.05	0.4	0.1	4773.1
96722	5.	0.55	0.1	4802.5
96723	5.05	0.5	0.1	4776.4
96724	5.	0.65	0.1	4806.2
96725	5.05	0.6	0.1	4780.5
96726	5.	0.75	0.1	4810.6
96727	5.05	0.7	0.1	4785.4
96728	5.	0.85	0.1	4815.5
96729	5.05	0.8	0.1	4791.
96730	5.	0.95	0.1	4820.9
96731	5.05	0.9	0.1	4797.1
96732	5.	1.05	0.1	4826.8
96733	5.05	1.	0.1	4803.7
96734	5.	1.15	0.1	4832.9
96735	5.05	1.1	0.1	4810.7
96736	5.	1.25	0.1	4839.4
96737	5.05	1.2	0.1	4818.1
96738	5.	1.35	0.1	4846.
96739	5.05	1.3	0.1	4825.6
96740	5.	1.45	0.1	4852.8
96741	5.05	1.4	0.1	4833.4
96742	5.	1.55	0.1	4859.5
96743	5.05	1.5	0.1	4841.2
96744	5.	1.65	0.1	4866.3
96745	5.05	1.6	0.1	4848.9
96746	5.	1.75	0.1	4872.9
96747	5.05	1.7	0.1	4856.6
96748	5.	1.85	0.1	4879.3
96749	5.05	1.8	0.1	4864.1
96750	5.	1.95	0.1	4885.4
96751	5.05	1.9	0.1	4871.3
96752	5.	2.05	0.1	4891.2
96753	5.05	2.	0.1	4878.1
96754	5.	2.15	0.1	4896.7
96755	5.05	2.1	0.1	4884.6
96756	5.	2.25	0.1	4901.6
96757	5.05	2.2	0.1	4890.5
96758	5.	2.35	0.1	4906.1
96759	5.05	2.3	0.1	4896.
96760	5.	2.45	0.1	4910.1
96761	5.05	2.4	0.1	4900.8
96762	5.	2.55	0.1	4913.4
96763	5.05	2.5	0.1	4904.9
96764	5.	2.65	0.1	4916.1
96765	5.05	2.6	0.1	4908.4
96766	5.	2.75	0.1	4918.2
96767	5.05	2.7	0.1	4911.2
96768	5.	2.85	0.1	4919.6
96769	5.05	2.8	0.1	4913.1
96770	5.	2.95	0.1	4920.3
96771	5.05	2.9	0.1	4914.3
96772	5.	3.05	0.1	4920.3
96773	5.05	3.	0.1	4914.7
96774	5.	3.15	0.1	4919.6
96775	5.05	3.1	0.1	4914.3
96776	5.	3.25	0.1	4918.2
96777	5.05	3.2	0.1	4913.1
96778	5.	3.35	0.1	4916.1
96779	5.05	3.3	0.1	4911.2
96780	5.	3.45	0.1	4913.4
96781	5.05	3.4	0.1	4908.4
96782	5.	3.55	0.1	4910.1
96783	5.05	3.5	0.1	4904.9
96784	5.	3.65	0.1	4906.1
96785	5.05	3.6	0.1	4900.8
96786	5.	3.75	0.1	4901.6
96787	5.05	3.7	0.1	4896.
96788	5.	3.85	0.1	4896.7
96789	5.05	3.8	0.1	4890.5
96790	5.	3.95	0.1	4891.2
96791	5.05	3.9	0.1	4884.6
96792	5.	4.05	0.1	4885.4
96793	5.05	4.	0.1	4878.1
96794	5.	4.15	0.1	4879.3
96795	5.05	4.1	0.1	4871.3
96796	5.	4.25	0.1	4872.9
96797	5.05	4.2	0.1	4864.1
96798	5.	4.35	0.1	4866.3
96799	5.05	4.3	0.1	4856.6
96800	5.	4.45	0.1	4859.5
96801	5.05	4.4	0.1	4848.9
96802	5.	4.55	0.1	4852.8
96803	5.05	4.5	0.1	4841.2
96804	5.	4.65	0.1	4846.
96805	5.05	4.6	0.1	4833.4
96806	5.	4.75	0.1	4839.4
96807	5.05	4.7	0.1	4825.6
96808	5.	4.85	0.1	4832.9
96809	5.05	4.8	0.1	4818.1
96810	5.	4.95	0.1	4826.8
96811	5.05	4.9	0.1	4810.7
96812	5.	5.05	0.1	4820.9
96813	5.05	5.	0.1	4803.7
96814	5.	5.15	0.1	4815.5
96815	5.05	5.1	0.1	4797.1
96816	5.	5.25	0.1	4810.6
96817	5.05	5.2	0.1	4791.
96818	5.	5.35	0.1	4806.2
96819	5.05	5.3	0.1	4785.4
96820	5.	5.45	0.1	4802.5
96821	5.05	5.4	0.1	4780.5
96822	5.	5.55	0.1	4799.5
96823	5.05	5.5	0.1	4776.4
96824	5.	5.65	0.1	4797.3
96825	5.05	5.6	0.1	4773.1
96826	5.	5.75	0.1	4796.
96827	5.05	5.7	0.1	4770.7
96828	5.	5.85	0.1	4795.7
96829	5.05	5.8	0.1	4769.2
96830	5.05	5.9	0.1	4769.
96831	5.	5.95	0.1	4794.8
96832	5.1	0.15	0.1	4742.5
96833	5.15	0.1	0.1	4714.
96834	5.1	5.e-002	0.1	4740.9
96835	5.1	0.25	0.1	4743.9
96836	5.15	0.2	0.1	4715.3
96837	5.1	0.35	0.1	4746.4
96838	5.15	0.3	0.1	4718.
96839	5.1	0.45	0.1	4750.
96840	5.15	0.4	0.1	4721.8
96841	5.1	0.55	0.1	4754.4
96842	5.15	0.5	0.1	4726.6
96843	5.1	0.65	0.1	4759.8
96844	5.15	0.6	0.1	4732.3
96845	5.1	0.75	0.1	4765.8
96846	5.15	0.7	0.1	4738.9
96847	5.1	0.85	0.1	4772.5
96848	5.15	0.8	0.1	4746.3
96849	5.1	0.95	0.1	4779.8
96850	5.15	0.9	0.1	4754.4
96851	5.1	1.05	0.1	4787.6
96852	5.15	1.	0.1	4763.
96853	5.1	1.15	0.1	4795.8
96854	5.15	1.1	0.1	4772.1
96855	5.1	1.25	0.1	4804.3
96856	5.15	1.2	0.1	4781.6
96857	5.1	1.35	0.1	4813.
96858	5.15	1.3	0.1	4791.4
96859	5.1	1.45	0.1	4821.8
96860	5.15	1.4	0.1	4801.3
96861	5.1	1.55	0.1	4830.6
96862	5.15	1.5	0.1	4811.2
96863	5.1	1.65	0.1	4839.3
96864	5.15	1.6	0.1	4821.2
96865	5.1	1.75	0.1	4847.8
96866	5.15	1.7	0.1	4830.9
96867	5.1	1.85	0.1	4856.1
96868	5.15	1.8	0.1	4840.4
96869	5.1	1.95	0.1	4864.
96870	5.15	1.9	0.1	4849.5
96871	5.1	2.05	0.1	4871.5
96872	5.15	2.	0.1	4858.2
96873	5.1	2.15	0.1	4878.4
96874	5.15	2.1	0.1	4866.4
96875	5.1	2.25	0.1	4884.8
96876	5.15	2.2	0.1	4874.
96877	5.1	2.35	0.1	4890.6
96878	5.15	2.3	0.1	4880.8
96879	5.1	2.45	0.1	4895.7
96880	5.15	2.4	0.1	4886.9
96881	5.1	2.55	0.1	4900.
96882	5.15	2.5	0.1	4892.2
96883	5.1	2.65	0.1	4903.4
96884	5.15	2.6	0.1	4896.6
96885	5.1	2.75	0.1	4906.1
96886	5.15	2.7	0.1	4900.1
96887	5.1	2.85	0.1	4907.9
96888	5.15	2.8	0.1	4902.6
96889	5.1	2.95	0.1	4908.8
96890	5.15	2.9	0.1	4904.1
96891	5.1	3.05	0.1	4908.8
96892	5.15	3.	0.1	4904.6
96893	5.1	3.15	0.1	4907.9
96894	5.15	3.1	0.1	4904.1
96895	5.1	3.25	0.1	4906.1
96896	5.15	3.2	0.1	4902.6
96897	5.1	3.35	0.1	4903.4
96898	5.15	3.3	0.1	4900.1
96899	5.1	3.45	0.1	4900.
96900	5.15	3.4	0.1	4896.6
96901	5.1	3.55	0.1	4895.7
96902	5.15	3.5	0.1	4892.2
96903	5.1	3.65	0.1	4890.6
96904	5.15	3.6	0.1	4886.9
96905	5.1	3.75	0.1	4884.8
96906	5.15	3.7	0.1	4880.8
96907	5.1	3.85	0.1	4878.4
96908	5.15	3.8	0.1	4874.
96909	5.1	3.95	0.1	4871.5
96910	5.15	3.9	0.1	4866.4
96911	5.1	4.05	0.1	4864.
96912	5.15	4.	0.1	4858.2
96913	5.1	4.15	0.1	4856.1
96914	5.15	4.1	0.1	4849.5
96915	5.1	4.25	0.1	4847.8
96916	5.15	4.2	0.1	4840.4
96917	5.1	4.35	0.1	4839.3
96918	5.15	4.3	0.1	4830.9
96919	5.1	4.45	0.1	4830.6
96920	5.15	4.4	0.1	4821.2
96921	5.1	4.55	0.1	4821.8
96922	5.15	4.5	0.1	4811.2
96923	5.1	4.65	0.1	4813.
96924	5.15	4.6	0.1	4801.3
96925	5.1	4.75	0.1	4804.3
96926	5.15	4.7	0.1	4791.4
96927	5.1	4.85	0.1	4795.8
96928	5.15	4.8	0.1	4781.6
96929	5.1	4.95	0.1	4787.6
96930	5.15	4.9	0.1	4772.1
96931	5.1	5.05	0.1	4779.8
96932	5.15	5.	0.1	4763.
96933	5.1	5.15	0.1	4772.5
96934	5.15	5.1	0.1	4754.4
96935	5.1	5.25	0.1	4765.8
96936	5.15	5.2	0.1	4746.3
96937	5.1	5.35	0.1	4759.8
96938	5.15	5.3	0.1	4738.9
96939	5.1	5.45	0.1	4754.4
96940	5.15	5.4	0.1	4732.3
96941	5.1	5.55	0.1	4750.
96942	5.15	5.5	0.1	4726.6
96943	5.1	5.65	0.1	4746.4
96944	5.15	5.6	0.1	4721.8
96945	5.1	5.75	0.1	4743.9
96946	5.15	5.7	0.1	4718.
96947	5.1	5.85	0.1	4742.5
96948	5.15	5.8	0.1	4715.3
96949	5.15	5.9	0.1	4714.
96950	5.1	5.95	0.1	4740.9
96951	5.2	0.15	0.1	4686.8
96952	5.25	0.1	0.1	4656.5
96953	5.2	5.e-002	0.1	4684.5
96954	5.2	0.25	0.1	4689.4
96955	5.25	0.2	0.1	4658.9
96956	5.2	0.35	0.1	4693.3
96957	5.25	0.3	0.1	4662.9
96958	5.2	0.45	0.1	4698.3
96959	5.25	0.4	0.1	4668.1
96960	5.2	0.55	0.1	4704.4
96961	5.25	0.5	0.1	4674.5
96962	5.2	0.65	0.1	4711.5
96963	5.25	0.6	0.1	4682.1
96964	5.2	0.75	0.1	4719.4
96965	5.25	0.7	0.1	4690.6
96966	5.2	0.85	0.1	4728.2
96967	5.25	0.8	0.1	4700.
96968	5.2	0.95	0.1	4737.6
96969	5.25	0.9	0.1	4710.3
96970	5.2	1.05	0.1	4747.5
96971	5.25	1.	0.1	4721.1
96972	5.2	1.15	0.1	4757.9
96973	5.25	1.1	0.1	4732.6
96974	5.2	1.25	0.1	4768.7
96975	5.25	1.2	0.1	4744.5
96976	5.2	1.35	0.1	4779.7
96977	5.25	1.3	0.1	4756.7
96978	5.2	1.45	0.1	4790.7
96979	5.25	1.4	0.1	4769.
96980	5.2	1.55	0.1	4801.8
96981	5.25	1.5	0.1	4781.4
96982	5.2	1.65	0.1	4812.8
96983	5.25	1.6	0.1	4793.7
96984	5.2	1.75	0.1	4823.5
96985	5.25	1.7	0.1	4805.9
96986	5.2	1.85	0.1	4833.9
96987	5.25	1.8	0.1	4817.6
96988	5.2	1.95	0.1	4843.8
96989	5.25	1.9	0.1	4829.
96990	5.2	2.05	0.1	4853.2
96991	5.25	2.	0.1	4839.8
96992	5.2	2.15	0.1	4861.9
96993	5.25	2.1	0.1	4849.9
96994	5.2	2.25	0.1	4869.9
96995	5.25	2.2	0.1	4859.3
96996	5.2	2.35	0.1	4877.1
96997	5.25	2.3	0.1	4867.8
96998	5.2	2.45	0.1	4883.5
96999	5.25	2.4	0.1	4875.4
97000	5.2	2.55	0.1	4888.9
97001	5.25	2.5	0.1	4881.9
97002	5.2	2.65	0.1	4893.2
97003	5.25	2.6	0.1	4887.4
97004	5.2	2.75	0.1	4896.6
97005	5.25	2.7	0.1	4891.7
97006	5.2	2.85	0.1	4898.8
97007	5.25	2.8	0.1	4894.8
97008	5.2	2.95	0.1	4899.9
97009	5.25	2.9	0.1	4896.7
97010	5.2	3.05	0.1	4899.9
97011	5.25	3.	0.1	4897.3
97012	5.2	3.15	0.1	4898.8
97013	5.25	3.1	0.1	4896.7
97014	5.2	3.25	0.1	4896.6
97015	5.25	3.2	0.1	4894.8
97016	5.2	3.35	0.1	4893.2
97017	5.25	3.3	0.1	4891.7
97018	5.2	3.45	0.1	4888.9
97019	5.25	3.4	0.1	4887.4
97020	5.2	3.55	0.1	4883.5
97021	5.25	3.5	0.1	4881.9
97022	5.2	3.65	0.1	4877.1
97023	5.25	3.6	0.1	4875.4
97024	5.2	3.75	0.1	4869.9
97025	5.25	3.7	0.1	4867.8
97026	5.2	3.85	0.1	4861.9
97027	5.25	3.8	0.1	4859.3
97028	5.2	3.95	0.1	4853.2
97029	5.25	3.9	0.1	4849.9
97030	5.2	4.05	0.1	4843.8
97031	5.25	4.	0.1	4839.8
97032	5.2	4.15	0.1	4833.9
97033	5.25	4.1	0.1	4829.
97034	5.2	4.25	0.1	4823.5
97035	5.25	4.2	0.1	4817.6
97036	5.2	4.35	0.1	4812.8
97037	5.25	4.3	0.1	4805.9
97038	5.2	4.45	0.1	4801.8
97039	5.25	4.4	0.1	4793.7
97040	5.2	4.55	0.1	4790.7
97041	5.25	4.5	0.1	4781.4
97042	5.2	4.65	0.1	4779.7
97043	5.25	4.6	0.1	4769.
97044	5.2	4.75	0.1	4768.7
97045	5.25	4.7	0.1	4756.7
97046	5.2	4.85	0.1	4757.9
97047	5.25	4.8	0.1	4744.5
97048	5.2	4.95	0.1	4747.5
97049	5.25	4.9	0.1	4732.6
97050	5.2	5.05	0.1	4737.6
97051	5.25	5.	0.1	4721.1
97052	5.2	5.15	0.1	4728.2
97053	5.25	5.1	0.1	4710.2
97054	5.2	5.25	0.1	4719.4
97055	5.25	5.2	0.1	4700.
97056	5.2	5.35	0.1	4711.5
97057	5.25	5.3	0.1	4690.6
97058	5.2	5.45	0.1	4704.4
97059	5.25	5.4	0.1	4682.1
97060	5.2	5.55	0.1	4698.3
97061	5.25	5.5	0.1	4674.5
97062	5.2	5.65	0.1	4693.3
97063	5.25	5.6	0.1	4668.1
97064	5.2	5.75	0.1	4689.4
97065	5.25	5.7	0.1	4662.9
97066	5.2	5.85	0.1	4686.8
97067	5.25	5.8	0.1	4658.9
97068	5.25	5.9	0.1	4656.5
97069	5.2	5.95	0.1	4684.5
97070	5.3	0.15	0.1	4628.5
97071	5.35	0.1	0.1	4596.
97072	5.3	5.e-002	0.1	4625.4
97073	5.3	0.25	0.1	4632.3
97074	5.35	0.2	0.1	4599.7
97075	5.3	0.35	0.1	4637.7
97076	5.35	0.3	0.1	4605.
97077	5.3	0.45	0.1	4644.3
97078	5.35	0.4	0.1	4611.8
97079	5.3	0.55	0.1	4652.2
97080	5.35	0.5	0.1	4620.
97081	5.3	0.65	0.1	4661.2
97082	5.35	0.6	0.1	4629.5
97083	5.3	0.75	0.1	4671.2
97084	5.35	0.7	0.1	4640.2
97085	5.3	0.85	0.1	4682.1
97086	5.35	0.8	0.1	4651.8
97087	5.3	0.95	0.1	4693.8
97088	5.35	0.9	0.1	4664.5
97089	5.3	1.05	0.1	4706.2
97090	5.35	1.	0.1	4677.9
97091	5.3	1.15	0.1	4719.1
97092	5.35	1.1	0.1	4691.9
97093	5.3	1.25	0.1	4732.4
97094	5.35	1.2	0.1	4706.5
97095	5.3	1.35	0.1	4746.
97096	5.35	1.3	0.1	4721.4
97097	5.3	1.45	0.1	4759.7
97098	5.35	1.4	0.1	4736.5
97099	5.3	1.55	0.1	4773.3
97100	5.35	1.5	0.1	4751.7
97101	5.3	1.65	0.1	4786.8
97102	5.35	1.6	0.1	4766.7
97103	5.3	1.75	0.1	4800.
97104	5.35	1.7	0.1	4781.5
97105	5.3	1.85	0.1	4812.8
97106	5.35	1.8	0.1	4795.9
97107	5.3	1.95	0.1	4825.
97108	5.35	1.9	0.1	4809.8
97109	5.3	2.05	0.1	4836.5
97110	5.35	2.	0.1	4823.
97111	5.3	2.15	0.1	4847.3
97112	5.35	2.1	0.1	4835.3
97113	5.3	2.25	0.1	4857.2
97114	5.35	2.2	0.1	4846.8
97115	5.3	2.35	0.1	4866.
97116	5.35	2.3	0.1	4857.2
97117	5.3	2.45	0.1	4873.8
97118	5.35	2.4	0.1	4866.4
97119	5.3	2.55	0.1	4880.4
97120	5.35	2.5	0.1	4874.4
97121	5.3	2.65	0.1	4885.8
97122	5.35	2.6	0.1	4881.1
97123	5.3	2.75	0.1	4889.9
97124	5.35	2.7	0.1	4886.4
97125	5.3	2.85	0.1	4892.7
97126	5.35	2.8	0.1	4890.2
97127	5.3	2.95	0.1	4894.1
97128	5.35	2.9	0.1	4892.5
97129	5.3	3.05	0.1	4894.1
97130	5.35	3.	0.1	4893.3
97131	5.3	3.15	0.1	4892.7
97132	5.35	3.1	0.1	4892.5
97133	5.3	3.25	0.1	4889.9
97134	5.35	3.2	0.1	4890.2
97135	5.3	3.35	0.1	4885.8
97136	5.35	3.3	0.1	4886.4
97137	5.3	3.45	0.1	4880.4
97138	5.35	3.4	0.1	4881.1
97139	5.3	3.55	0.1	4873.8
97140	5.35	3.5	0.1	4874.4
97141	5.3	3.65	0.1	4866.
97142	5.35	3.6	0.1	4866.4
97143	5.3	3.75	0.1	4857.2
97144	5.35	3.7	0.1	4857.2
97145	5.3	3.85	0.1	4847.3
97146	5.35	3.8	0.1	4846.8
97147	5.3	3.95	0.1	4836.5
97148	5.35	3.9	0.1	4835.3
97149	5.3	4.05	0.1	4825.
97150	5.35	4.	0.1	4823.
97151	5.3	4.15	0.1	4812.8
97152	5.35	4.1	0.1	4809.8
97153	5.3	4.25	0.1	4800.
97154	5.35	4.2	0.1	4795.9
97155	5.3	4.35	0.1	4786.8
97156	5.35	4.3	0.1	4781.5
97157	5.3	4.45	0.1	4773.3
97158	5.35	4.4	0.1	4766.7
97159	5.3	4.55	0.1	4759.7
97160	5.35	4.5	0.1	4751.7
97161	5.3	4.65	0.1	4746.
97162	5.35	4.6	0.1	4736.5
97163	5.3	4.75	0.1	4732.4
97164	5.35	4.7	0.1	4721.4
97165	5.3	4.85	0.1	4719.1
97166	5.35	4.8	0.1	4706.5
97167	5.3	4.95	0.1	4706.2
97168	5.35	4.9	0.1	4691.9
97169	5.3	5.05	0.1	4693.8
97170	5.35	5.	0.1	4677.9
97171	5.3	5.15	0.1	4682.1
97172	5.35	5.1	0.1	4664.5
97173	5.3	5.25	0.1	4671.2
97174	5.35	5.2	0.1	4651.8
97175	5.3	5.35	0.1	4661.2
97176	5.35	5.3	0.1	4640.2
97177	5.3	5.45	0.1	4652.2
97178	5.35	5.4	0.1	4629.5
97179	5.3	5.55	0.1	4644.3
97180	5.35	5.5	0.1	4620.
97181	5.3	5.65	0.1	4637.7
97182	5.35	5.6	0.1	4611.8
97183	5.3	5.75	0.1	4632.3
97184	5.35	5.7	0.1	4605.
97185	5.3	5.85	0.1	4628.5
97186	5.35	5.8	0.1	4599.7
97187	5.35	5.9	0.1	4596.
97188	5.3	5.95	0.1	4625.4
97189	5.4	0.15	0.1	4567.1
97190	5.45	0.1	0.1	4532.3
97191	5.4	5.e-002	0.1	4563.2
97192	5.4	0.25	0.1	4572.3
97193	5.45	0.2	0.1	4537.2
97194	5.4	0.35	0.1	4579.2
97195	5.45	0.3	0.1	4544.
97196	5.4	0.45	0.1	4587.6
97197	5.45	0.4	0.1	4552.6
97198	5.4	0.55	0.1	4597.4
97199	5.45	0.5	0.1	4562.7
97200	5.4	0.65	0.1	4608.5
97201	5.45	0.6	0.1	4574.3
97202	5.4	0.75	0.1	4620.8
97203	5.45	0.7	0.1	4587.3
97204	5.4	0.85	0.1	4634.2
97205	5.45	0.8	0.1	4601.5
97206	5.4	0.95	0.1	4648.5
97207	5.45	0.9	0.1	4616.8
97208	5.4	1.05	0.1	4663.6
97209	5.45	1.	0.1	4633.
97210	5.4	1.15	0.1	4679.3
97211	5.45	1.1	0.1	4650.
97212	5.4	1.25	0.1	4695.5
97213	5.45	1.2	0.1	4667.5
97214	5.4	1.35	0.1	4711.9
97215	5.45	1.3	0.1	4685.5
97216	5.4	1.45	0.1	4728.5
97217	5.45	1.4	0.1	4703.8
97218	5.4	1.55	0.1	4745.1
97219	5.45	1.5	0.1	4722.
97220	5.4	1.65	0.1	4761.5
97221	5.45	1.6	0.1	4740.2
97222	5.4	1.75	0.1	4777.5
97223	5.45	1.7	0.1	4758.
97224	5.4	1.85	0.1	4792.9
97225	5.45	1.8	0.1	4775.4
97226	5.4	1.95	0.1	4807.8
97227	5.45	1.9	0.1	4792.1
97228	5.4	2.05	0.1	4821.8
97229	5.45	2.	0.1	4808.
97230	5.4	2.15	0.1	4834.8
97231	5.45	2.1	0.1	4822.9
97232	5.4	2.25	0.1	4846.8
97233	5.45	2.2	0.1	4836.7
97234	5.4	2.35	0.1	4857.6
97235	5.45	2.3	0.1	4849.3
97236	5.4	2.45	0.1	4867.
97237	5.45	2.4	0.1	4860.5
97238	5.4	2.55	0.1	4875.1
97239	5.45	2.5	0.1	4870.1
97240	5.4	2.65	0.1	4881.6
97241	5.45	2.6	0.1	4878.2
97242	5.4	2.75	0.1	4886.6
97243	5.45	2.7	0.1	4884.6
97244	5.4	2.85	0.1	4890.
97245	5.45	2.8	0.1	4889.2
97246	5.4	2.95	0.1	4891.7
97247	5.45	2.9	0.1	4892.
97248	5.4	3.05	0.1	4891.7
97249	5.45	3.	0.1	4892.9
97250	5.4	3.15	0.1	4890.
97251	5.45	3.1	0.1	4892.
97252	5.4	3.25	0.1	4886.6
97253	5.45	3.2	0.1	4889.2
97254	5.4	3.35	0.1	4881.6
97255	5.45	3.3	0.1	4884.6
97256	5.4	3.45	0.1	4875.1
97257	5.45	3.4	0.1	4878.2
97258	5.4	3.55	0.1	4867.
97259	5.45	3.5	0.1	4870.1
97260	5.4	3.65	0.1	4857.6
97261	5.45	3.6	0.1	4860.5
97262	5.4	3.75	0.1	4846.8
97263	5.45	3.7	0.1	4849.3
97264	5.4	3.85	0.1	4834.8
97265	5.45	3.8	0.1	4836.7
97266	5.4	3.95	0.1	4821.8
97267	5.45	3.9	0.1	4822.9
97268	5.4	4.05	0.1	4807.8
97269	5.45	4.	0.1	4808.
97270	5.4	4.15	0.1	4792.9
97271	5.45	4.1	0.1	4792.1
97272	5.4	4.25	0.1	4777.5
97273	5.45	4.2	0.1	4775.4
97274	5.4	4.35	0.1	4761.5
97275	5.45	4.3	0.1	4758.
97276	5.4	4.45	0.1	4745.1
97277	5.45	4.4	0.1	4740.2
97278	5.4	4.55	0.1	4728.5
97279	5.45	4.5	0.1	4722.
97280	5.4	4.65	0.1	4711.9
97281	5.45	4.6	0.1	4703.8
97282	5.4	4.75	0.1	4695.5
97283	5.45	4.7	0.1	4685.5
97284	5.4	4.85	0.1	4679.3
97285	5.45	4.8	0.1	4667.5
97286	5.4	4.95	0.1	4663.6
97287	5.45	4.9	0.1	4650.
97288	5.4	5.05	0.1	4648.5
97289	5.45	5.	0.1	4633.
97290	5.4	5.15	0.1	4634.2
97291	5.45	5.1	0.1	4616.8
97292	5.4	5.25	0.1	4620.8
97293	5.45	5.2	0.1	4601.5
97294	5.4	5.35	0.1	4608.5
97295	5.45	5.3	0.1	4587.3
97296	5.4	5.45	0.1	4597.4
97297	5.45	5.4	0.1	4574.3
97298	5.4	5.55	0.1	4587.6
97299	5.45	5.5	0.1	4562.7
97300	5.4	5.65	0.1	4579.2
97301	5.45	5.6	0.1	4552.6
97302	5.4	5.75	0.1	4572.3
97303	5.45	5.7	0.1	4544.
97304	5.4	5.85	0.1	4567.1
97305	5.45	5.8	0.1	4537.2
97306	5.45	5.9	0.1	4532.3
97307	5.4	5.95	0.1	4563.2
97308	5.5	0.15	0.1	4502.3
97309	5.55	0.1	0.1	4464.8
97310	5.5	5.e-002	0.1	4497.4
97311	5.5	0.25	0.1	4508.9
97312	5.55	0.2	0.1	4471.1
97313	5.5	0.35	0.1	4517.4
97314	5.55	0.3	0.1	4479.6
97315	5.5	0.45	0.1	4527.7
97316	5.55	0.4	0.1	4490.
97317	5.5	0.55	0.1	4539.7
97318	5.55	0.5	0.1	4502.2
97319	5.5	0.65	0.1	4553.1
97320	5.55	0.6	0.1	4516.1
97321	5.5	0.75	0.1	4568.
97322	5.55	0.7	0.1	4531.7
97323	5.5	0.85	0.1	4584.1
97324	5.55	0.8	0.1	4548.6
97325	5.5	0.95	0.1	4601.3
97326	5.55	0.9	0.1	4566.9
97327	5.5	1.05	0.1	4619.4
97328	5.55	1.	0.1	4586.2
97329	5.5	1.15	0.1	4638.2
97330	5.55	1.1	0.1	4606.5
97331	5.5	1.25	0.1	4657.6
97332	5.55	1.2	0.1	4627.5
97333	5.5	1.35	0.1	4677.4
97334	5.55	1.3	0.1	4648.9
97335	5.5	1.45	0.1	4697.3
97336	5.55	1.4	0.1	4670.7
97337	5.5	1.55	0.1	4717.1
97338	5.55	1.5	0.1	4692.5
97339	5.5	1.65	0.1	4736.8
97340	5.55	1.6	0.1	4714.1
97341	5.5	1.75	0.1	4756.
97342	5.55	1.7	0.1	4735.4
97343	5.5	1.85	0.1	4774.5
97344	5.55	1.8	0.1	4756.2
97345	5.5	1.95	0.1	4792.3
97346	5.55	1.9	0.1	4776.1
97347	5.5	2.05	0.1	4809.2
97348	5.55	2.	0.1	4795.1
97349	5.5	2.15	0.1	4824.8
97350	5.55	2.1	0.1	4813.
97351	5.5	2.25	0.1	4839.2
97352	5.55	2.2	0.1	4829.5
97353	5.5	2.35	0.1	4852.2
97354	5.55	2.3	0.1	4844.5
97355	5.5	2.45	0.1	4863.6
97356	5.55	2.4	0.1	4857.9
97357	5.5	2.55	0.1	4873.3
97358	5.55	2.5	0.1	4869.5
97359	5.5	2.65	0.1	4881.2
97360	5.55	2.6	0.1	4879.2
97361	5.5	2.75	0.1	4887.2
97362	5.55	2.7	0.1	4886.8
97363	5.5	2.85	0.1	4891.2
97364	5.55	2.8	0.1	4892.4
97365	5.5	2.95	0.1	4893.2
97366	5.55	2.9	0.1	4895.7
97367	5.5	3.05	0.1	4893.2
97368	5.55	3.	0.1	4896.8
97369	5.5	3.15	0.1	4891.2
97370	5.55	3.1	0.1	4895.7
97371	5.5	3.25	0.1	4887.2
97372	5.55	3.2	0.1	4892.4
97373	5.5	3.35	0.1	4881.2
97374	5.55	3.3	0.1	4886.8
97375	5.5	3.45	0.1	4873.3
97376	5.55	3.4	0.1	4879.2
97377	5.5	3.55	0.1	4863.6
97378	5.55	3.5	0.1	4869.5
97379	5.5	3.65	0.1	4852.2
97380	5.55	3.6	0.1	4857.9
97381	5.5	3.75	0.1	4839.2
97382	5.55	3.7	0.1	4844.5
97383	5.5	3.85	0.1	4824.8
97384	5.55	3.8	0.1	4829.5
97385	5.5	3.95	0.1	4809.2
97386	5.55	3.9	0.1	4813.
97387	5.5	4.05	0.1	4792.3
97388	5.55	4.	0.1	4795.1
97389	5.5	4.15	0.1	4774.5
97390	5.55	4.1	0.1	4776.1
97391	5.5	4.25	0.1	4756.
97392	5.55	4.2	0.1	4756.2
97393	5.5	4.35	0.1	4736.8
97394	5.55	4.3	0.1	4735.4
97395	5.5	4.45	0.1	4717.1
97396	5.55	4.4	0.1	4714.1
97397	5.5	4.55	0.1	4697.3
97398	5.55	4.5	0.1	4692.5
97399	5.5	4.65	0.1	4677.4
97400	5.55	4.6	0.1	4670.7
97401	5.5	4.75	0.1	4657.6
97402	5.55	4.7	0.1	4648.9
97403	5.5	4.85	0.1	4638.2
97404	5.55	4.8	0.1	4627.5
97405	5.5	4.95	0.1	4619.4
97406	5.55	4.9	0.1	4606.5
97407	5.5	5.05	0.1	4601.3
97408	5.55	5.	0.1	4586.2
97409	5.5	5.15	0.1	4584.1
97410	5.55	5.1	0.1	4566.9
97411	5.5	5.25	0.1	4568.
97412	5.55	5.2	0.1	4548.6
97413	5.5	5.35	0.1	4553.1
97414	5.55	5.3	0.1	4531.7
97415	5.5	5.45	0.1	4539.7
97416	5.55	5.4	0.1	4516.1
97417	5.5	5.55	0.1	4527.7
97418	5.55	5.5	0.1	4502.2
97419	5.5	5.65	0.1	4517.4
97420	5.55	5.6	0.1	4490.
97421	5.5	5.75	0.1	4508.9
97422	5.55	5.7	0.1	4479.6
97423	5.5	5.85	0.1	4502.3
97424	5.55	5.8	0.1	4471.1
97425	5.55	5.9	0.1	4464.8
97426	5.5	5.95	0.1	4497.4
97427	5.6	0.15	0.1	4433.6
97428	5.65	0.1	0.1	4393.2
97429	5.6	5.e-002	0.1	4427.6
97430	5.6	0.25	0.1	4441.7
97431	5.65	0.2	0.1	4400.9
97432	5.6	0.35	0.1	4452.1
97433	5.65	0.3	0.1	4411.1
97434	5.6	0.45	0.1	4464.4
97435	5.65	0.4	0.1	4423.5
97436	5.6	0.55	0.1	4478.7
97437	5.65	0.5	0.1	4438.1
97438	5.6	0.65	0.1	4494.7
97439	5.65	0.6	0.1	4454.6
97440	5.6	0.75	0.1	4512.4
97441	5.65	0.7	0.1	4472.9
97442	5.6	0.85	0.1	4531.5
97443	5.65	0.8	0.1	4493.
97444	5.6	0.95	0.1	4551.9
97445	5.65	0.9	0.1	4514.5
97446	5.6	1.05	0.1	4573.4
97447	5.65	1.	0.1	4537.4
97448	5.6	1.15	0.1	4595.8
97449	5.65	1.1	0.1	4561.3
97450	5.6	1.25	0.1	4618.8
97451	5.65	1.2	0.1	4586.1
97452	5.6	1.35	0.1	4642.2
97453	5.65	1.3	0.1	4611.5
97454	5.6	1.45	0.1	4665.9
97455	5.65	1.4	0.1	4637.2
97456	5.6	1.55	0.1	4689.5
97457	5.65	1.5	0.1	4663.
97458	5.6	1.65	0.1	4712.8
97459	5.65	1.6	0.1	4688.7
97460	5.6	1.75	0.1	4735.7
97461	5.65	1.7	0.1	4713.9
97462	5.6	1.85	0.1	4757.8
97463	5.65	1.8	0.1	4738.5
97464	5.6	1.95	0.1	4778.9
97465	5.65	1.9	0.1	4762.1
97466	5.6	2.05	0.1	4799.
97467	5.65	2.	0.1	4784.7
97468	5.6	2.15	0.1	4817.7
97469	5.65	2.1	0.1	4805.9
97470	5.6	2.25	0.1	4834.8
97471	5.65	2.2	0.1	4825.5
97472	5.6	2.35	0.1	4850.3
97473	5.65	2.3	0.1	4843.4
97474	5.6	2.45	0.1	4863.9
97475	5.65	2.4	0.1	4859.3
97476	5.6	2.55	0.1	4875.5
97477	5.65	2.5	0.1	4873.1
97478	5.6	2.65	0.1	4884.9
97479	5.65	2.6	0.1	4884.6
97480	5.6	2.75	0.1	4892.1
97481	5.65	2.7	0.1	4893.7
97482	5.6	2.85	0.1	4896.9
97483	5.65	2.8	0.1	4900.3
97484	5.6	2.95	0.1	4899.3
97485	5.65	2.9	0.1	4904.3
97486	5.6	3.05	0.1	4899.3
97487	5.65	3.	0.1	4905.6
97488	5.6	3.15	0.1	4896.9
97489	5.65	3.1	0.1	4904.3
97490	5.6	3.25	0.1	4892.1
97491	5.65	3.2	0.1	4900.3
97492	5.6	3.35	0.1	4884.9
97493	5.65	3.3	0.1	4893.7
97494	5.6	3.45	0.1	4875.5
97495	5.65	3.4	0.1	4884.6
97496	5.6	3.55	0.1	4863.9
97497	5.65	3.5	0.1	4873.1
97498	5.6	3.65	0.1	4850.3
97499	5.65	3.6	0.1	4859.3
97500	5.6	3.75	0.1	4834.8
97501	5.65	3.7	0.1	4843.4
97502	5.6	3.85	0.1	4817.7
97503	5.65	3.8	0.1	4825.5
97504	5.6	3.95	0.1	4799.
97505	5.65	3.9	0.1	4805.9
97506	5.6	4.05	0.1	4778.9
97507	5.65	4.	0.1	4784.7
97508	5.6	4.15	0.1	4757.8
97509	5.65	4.1	0.1	4762.1
97510	5.6	4.25	0.1	4735.7
97511	5.65	4.2	0.1	4738.5
97512	5.6	4.35	0.1	4712.8
97513	5.65	4.3	0.1	4713.9
97514	5.6	4.45	0.1	4689.5
97515	5.65	4.4	0.1	4688.7
97516	5.6	4.55	0.1	4665.9
97517	5.65	4.5	0.1	4663.
97518	5.6	4.65	0.1	4642.2
97519	5.65	4.6	0.1	4637.2
97520	5.6	4.75	0.1	4618.8
97521	5.65	4.7	0.1	4611.5
97522	5.6	4.85	0.1	4595.8
97523	5.65	4.8	0.1	4586.1
97524	5.6	4.95	0.1	4573.4
97525	5.65	4.9	0.1	4561.3
97526	5.6	5.05	0.1	4551.9
97527	5.65	5.	0.1	4537.4
97528	5.6	5.15	0.1	4531.5
97529	5.65	5.1	0.1	4514.5
97530	5.6	5.25	0.1	4512.4
97531	5.65	5.2	0.1	4493.
97532	5.6	5.35	0.1	4494.7
97533	5.65	5.3	0.1	4472.9
97534	5.6	5.45	0.1	4478.7
97535	5.65	5.4	0.1	4454.6
97536	5.6	5.55	0.1	4464.4
97537	5.65	5.5	0.1	4438.1
97538	5.6	5.65	0.1	4452.1
97539	5.65	5.6	0.1	4423.5
97540	5.6	5.75	0.1	4441.7
97541	5.65	5.7	0.1	4411.1
97542	5.6	5.85	0.1	4433.6
97543	5.65	5.8	0.1	4400.9
97544	5.65	5.9	0.1	4393.2
97545	5.6	5.95	0.1	4427.6
97546	5.7	0.15	0.1	4360.5
97547	5.75	0.1	0.1	4316.8
97548	5.7	5.e-002	0.1	4353.3
97549	5.7	0.25	0.1	4370.3
97550	5.75	0.2	0.1	4326.1
97551	5.7	0.35	0.1	4382.5
97552	5.75	0.3	0.1	4338.2
97553	5.7	0.45	0.1	4397.2
97554	5.75	0.4	0.1	4352.8
97555	5.7	0.55	0.1	4414.
97556	5.75	0.5	0.1	4369.8
97557	5.7	0.65	0.1	4432.8
97558	5.75	0.6	0.1	4389.1
97559	5.7	0.75	0.1	4453.6
97560	5.75	0.7	0.1	4410.6
97561	5.7	0.85	0.1	4476.1
97562	5.75	0.8	0.1	4434.1
97563	5.7	0.95	0.1	4500.1
97564	5.75	0.9	0.1	4459.3
97565	5.7	1.05	0.1	4525.3
97566	5.75	1.	0.1	4486.1
97567	5.7	1.15	0.1	4551.7
97568	5.75	1.1	0.1	4514.2
97569	5.7	1.25	0.1	4578.8
97570	5.75	1.2	0.1	4543.2
97571	5.7	1.35	0.1	4606.4
97572	5.75	1.3	0.1	4573.
97573	5.7	1.45	0.1	4634.3
97574	5.75	1.4	0.1	4603.3
97575	5.7	1.55	0.1	4662.2
97576	5.75	1.5	0.1	4633.6
97577	5.7	1.65	0.1	4689.7
97578	5.75	1.6	0.1	4663.8
97579	5.7	1.75	0.1	4716.7
97580	5.75	1.7	0.1	4693.5
97581	5.7	1.85	0.1	4742.8
97582	5.75	1.8	0.1	4722.4
97583	5.7	1.95	0.1	4767.9
97584	5.75	1.9	0.1	4750.3
97585	5.7	2.05	0.1	4791.6
97586	5.75	2.	0.1	4776.9
97587	5.7	2.15	0.1	4813.7
97588	5.75	2.1	0.1	4802.
97589	5.7	2.25	0.1	4834.
97590	5.75	2.2	0.1	4825.1
97591	5.7	2.35	0.1	4852.4
97592	5.75	2.3	0.1	4846.3
97593	5.7	2.45	0.1	4868.5
97594	5.75	2.4	0.1	4865.1
97595	5.7	2.55	0.1	4882.2
97596	5.75	2.5	0.1	4881.5
97597	5.7	2.65	0.1	4893.4
97598	5.75	2.6	0.1	4895.1
97599	5.7	2.75	0.1	4902.
97600	5.75	2.7	0.1	4905.9
97601	5.7	2.85	0.1	4907.7
97602	5.75	2.8	0.1	4913.7
97603	5.7	2.95	0.1	4910.6
97604	5.75	2.9	0.1	4918.5
97605	5.7	3.05	0.1	4910.6
97606	5.75	3.	0.1	4920.
97607	5.7	3.15	0.1	4907.7
97608	5.75	3.1	0.1	4918.5
97609	5.7	3.25	0.1	4902.
97610	5.75	3.2	0.1	4913.7
97611	5.7	3.35	0.1	4893.4
97612	5.75	3.3	0.1	4905.9
97613	5.7	3.45	0.1	4882.2
97614	5.75	3.4	0.1	4895.1
97615	5.7	3.55	0.1	4868.5
97616	5.75	3.5	0.1	4881.5
97617	5.7	3.65	0.1	4852.4
97618	5.75	3.6	0.1	4865.1
97619	5.7	3.75	0.1	4834.
97620	5.75	3.7	0.1	4846.3
97621	5.7	3.85	0.1	4813.7
97622	5.75	3.8	0.1	4825.1
97623	5.7	3.95	0.1	4791.6
97624	5.75	3.9	0.1	4802.
97625	5.7	4.05	0.1	4767.9
97626	5.75	4.	0.1	4776.9
97627	5.7	4.15	0.1	4742.8
97628	5.75	4.1	0.1	4750.3
97629	5.7	4.25	0.1	4716.7
97630	5.75	4.2	0.1	4722.4
97631	5.7	4.35	0.1	4689.7
97632	5.75	4.3	0.1	4693.5
97633	5.7	4.45	0.1	4662.2
97634	5.75	4.4	0.1	4663.8
97635	5.7	4.55	0.1	4634.3
97636	5.75	4.5	0.1	4633.6
97637	5.7	4.65	0.1	4606.4
97638	5.75	4.6	0.1	4603.3
97639	5.7	4.75	0.1	4578.8
97640	5.75	4.7	0.1	4573.
97641	5.7	4.85	0.1	4551.7
97642	5.75	4.8	0.1	4543.2
97643	5.7	4.95	0.1	4525.3
97644	5.75	4.9	0.1	4514.2
97645	5.7	5.05	0.1	4500.1
97646	5.75	5.	0.1	4486.1
97647	5.7	5.15	0.1	4476.1
97648	5.75	5.1	0.1	4459.3
97649	5.7	5.25	0.1	4453.6
97650	5.75	5.2	0.1	4434.1
97651	5.7	5.35	0.1	4432.8
97652	5.75	5.3	0.1	4410.6
97653	5.7	5.45	0.1	4414.
97654	5.75	5.4	0.1	4389.1
97655	5.7	5.55	0.1	4397.2
97656	5.75	5.5	0.1	4369.8
97657	5.7	5.65	0.1	4382.5
97658	5.75	5.6	0.1	4352.8
97659	5.7	5.75	0.1	4370.3
97660	5.75	5.7	0.1	4338.2
97661	5.7	5.85	0.1	4360.5
97662	5.75	5.8	0.1	4326.1
97663	5.75	5.9	0.1	4316.8
97664	5.7	5.95	0.1	4353.3
97665	5.8	0.15	0.1	4282.5
97666	5.85	0.1	0.1	4235.3
97667	5.8	5.e-002	0.1	4274.
97668	5.8	0.25	0.1	4294.
97669	5.85	0.2	0.1	4246.2
97670	5.8	0.35	0.1	4308.4
97671	5.85	0.3	0.1	4260.2
97672	5.8	0.45	0.1	4325.4
97673	5.85	0.4	0.1	4277.2
97674	5.8	0.55	0.1	4345.
97675	5.85	0.5	0.1	4297.
97676	5.8	0.65	0.1	4367.
97677	5.85	0.6	0.1	4319.4
97678	5.8	0.75	0.1	4391.2
97679	5.85	0.7	0.1	4344.3
97680	5.8	0.85	0.1	4417.4
97681	5.85	0.8	0.1	4371.6
97682	5.8	0.95	0.1	4445.4
97683	5.85	0.9	0.1	4400.9
97684	5.8	1.05	0.1	4475.
97685	5.85	1.	0.1	4432.1
97686	5.8	1.15	0.1	4505.8
97687	5.85	1.1	0.1	4464.8
97688	5.8	1.25	0.1	4537.5
97689	5.85	1.2	0.1	4498.7
97690	5.8	1.35	0.1	4569.9
97691	5.85	1.3	0.1	4533.5
97692	5.8	1.45	0.1	4602.6
97693	5.85	1.4	0.1	4568.8
97694	5.8	1.55	0.1	4635.3
97695	5.85	1.5	0.1	4604.3
97696	5.8	1.65	0.1	4667.6
97697	5.85	1.6	0.1	4639.6
97698	5.8	1.75	0.1	4699.3
97699	5.85	1.7	0.1	4674.4
97700	5.8	1.85	0.1	4730.
97701	5.85	1.8	0.1	4708.4
97702	5.8	1.95	0.1	4759.4
97703	5.85	1.9	0.1	4741.1
97704	5.8	2.05	0.1	4787.3
97705	5.85	2.	0.1	4772.3
97706	5.8	2.15	0.1	4813.4
97707	5.85	2.1	0.1	4801.7
97708	5.8	2.25	0.1	4837.4
97709	5.85	2.2	0.1	4829.
97710	5.8	2.35	0.1	4859.
97711	5.85	2.3	0.1	4853.9
97712	5.8	2.45	0.1	4878.1
97713	5.85	2.4	0.1	4876.1
97714	5.8	2.55	0.1	4894.3
97715	5.85	2.5	0.1	4895.3
97716	5.8	2.65	0.1	4907.6
97717	5.85	2.6	0.1	4911.4
97718	5.8	2.75	0.1	4917.7
97719	5.85	2.7	0.1	4924.2
97720	5.8	2.85	0.1	4924.5
97721	5.85	2.8	0.1	4933.4
97722	5.8	2.95	0.1	4927.9
97723	5.85	2.9	0.1	4939.
97724	5.8	3.05	0.1	4927.9
97725	5.85	3.	0.1	4940.9
97726	5.8	3.15	0.1	4924.5
97727	5.85	3.1	0.1	4939.
97728	5.8	3.25	0.1	4917.7
97729	5.85	3.2	0.1	4933.4
97730	5.8	3.35	0.1	4907.6
97731	5.85	3.3	0.1	4924.2
97732	5.8	3.45	0.1	4894.3
97733	5.85	3.4	0.1	4911.4
97734	5.8	3.55	0.1	4878.1
97735	5.85	3.5	0.1	4895.3
97736	5.8	3.65	0.1	4859.
97737	5.85	3.6	0.1	4876.1
97738	5.8	3.75	0.1	4837.4
97739	5.85	3.7	0.1	4853.9
97740	5.8	3.85	0.1	4813.4
97741	5.85	3.8	0.1	4829.
97742	5.8	3.95	0.1	4787.3
97743	5.85	3.9	0.1	4801.7
97744	5.8	4.05	0.1	4759.4
97745	5.85	4.	0.1	4772.3
97746	5.8	4.15	0.1	4730.
97747	5.85	4.1	0.1	4741.1
97748	5.8	4.25	0.1	4699.3
97749	5.85	4.2	0.1	4708.4
97750	5.8	4.35	0.1	4667.6
97751	5.85	4.3	0.1	4674.4
97752	5.8	4.45	0.1	4635.2
97753	5.85	4.4	0.1	4639.6
97754	5.8	4.55	0.1	4602.6
97755	5.85	4.5	0.1	4604.3
97756	5.8	4.65	0.1	4569.9
97757	5.85	4.6	0.1	4568.8
97758	5.8	4.75	0.1	4537.5
97759	5.85	4.7	0.1	4533.5
97760	5.8	4.85	0.1	4505.8
97761	5.85	4.8	0.1	4498.7
97762	5.8	4.95	0.1	4475.
97763	5.85	4.9	0.1	4464.8
97764	5.8	5.05	0.1	4445.4
97765	5.85	5.	0.1	4432.1
97766	5.8	5.15	0.1	4417.4
97767	5.85	5.1	0.1	4400.9
97768	5.8	5.25	0.1	4391.2
97769	5.85	5.2	0.1	4371.6
97770	5.8	5.35	0.1	4367.
97771	5.85	5.3	0.1	4344.3
97772	5.8	5.45	0.1	4345.
97773	5.85	5.4	0.1	4319.4
97774	5.8	5.55	0.1	4325.4
97775	5.85	5.5	0.1	4297.
97776	5.8	5.65	0.1	4308.4
97777	5.85	5.6	0.1	4277.2
97778	5.8	5.75	0.1	4294.
97779	5.85	5.7	0.1	4260.2
97780	5.8	5.85	0.1	4282.5
97781	5.85	5.8	0.1	4246.2
97782	5.85	5.9	0.1	4235.3
97783	5.8	5.95	0.1	4274.
97784	5.9	0.15	0.1	4199.
97785	5.95	0.1	0.1	4147.9
97786	5.9	5.e-002	0.1	4189.1
97787	5.9	0.25	0.1	4212.4
97788	5.95	0.2	0.1	4160.5
97789	5.9	0.35	0.1	4229.
97790	5.95	0.3	0.1	4176.7
97791	5.9	0.45	0.1	4248.7
97792	5.95	0.4	0.1	4196.2
97793	5.9	0.55	0.1	4271.3
97794	5.95	0.5	0.1	4218.9
97795	5.9	0.65	0.1	4296.7
97796	5.95	0.6	0.1	4244.7
97797	5.9	0.75	0.1	4324.7
97798	5.95	0.7	0.1	4273.5
97799	5.9	0.85	0.1	4355.1
97800	5.95	0.8	0.1	4304.9
97801	5.9	0.95	0.1	4387.6
97802	5.95	0.9	0.1	4338.8
97803	5.9	1.05	0.1	4421.9
97804	5.95	1.	0.1	4374.9
97805	5.9	1.15	0.1	4457.8
97806	5.95	1.1	0.1	4412.8
97807	5.9	1.25	0.1	4494.7
97808	5.95	1.2	0.1	4452.2
97809	5.9	1.35	0.1	4532.5
97810	5.95	1.3	0.1	4492.6
97811	5.9	1.45	0.1	4570.6
97812	5.95	1.4	0.1	4533.8
97813	5.9	1.55	0.1	4608.7
97814	5.95	1.5	0.1	4575.1
97815	5.9	1.65	0.1	4646.5
97816	5.95	1.6	0.1	4616.3
97817	5.9	1.75	0.1	4683.6
97818	5.95	1.7	0.1	4656.9
97819	5.9	1.85	0.1	4719.5
97820	5.95	1.8	0.1	4696.5
97821	5.9	1.95	0.1	4754.
97822	5.95	1.9	0.1	4734.8
97823	5.9	2.05	0.1	4786.7
97824	5.95	2.	0.1	4771.3
97825	5.9	2.15	0.1	4817.3
97826	5.95	2.1	0.1	4805.7
97827	5.9	2.25	0.1	4845.5
97828	5.95	2.2	0.1	4837.7
97829	5.9	2.35	0.1	4870.9
97830	5.95	2.3	0.1	4866.8
97831	5.9	2.45	0.1	4893.3
97832	5.95	2.4	0.1	4892.9
97833	5.9	2.55	0.1	4912.4
97834	5.95	2.5	0.1	4915.5
97835	5.9	2.65	0.1	4928.
97836	5.95	2.6	0.1	4934.5
97837	5.9	2.75	0.1	4939.9
97838	5.95	2.7	0.1	4949.5
97839	5.9	2.85	0.1	4948.
97840	5.95	2.8	0.1	4960.3
97841	5.9	2.95	0.1	4952.
97842	5.95	2.9	0.1	4966.9
97843	5.9	3.05	0.1	4952.
97844	5.95	3.	0.1	4969.1
97845	5.9	3.15	0.1	4948.
97846	5.95	3.1	0.1	4966.9
97847	5.9	3.25	0.1	4939.9
97848	5.95	3.2	0.1	4960.3
97849	5.9	3.35	0.1	4928.
97850	5.95	3.3	0.1	4949.5
97851	5.9	3.45	0.1	4912.4
97852	5.95	3.4	0.1	4934.5
97853	5.9	3.55	0.1	4893.3
97854	5.95	3.5	0.1	4915.5
97855	5.9	3.65	0.1	4870.9
97856	5.95	3.6	0.1	4892.9
97857	5.9	3.75	0.1	4845.5
97858	5.95	3.7	0.1	4866.8
97859	5.9	3.85	0.1	4817.3
97860	5.95	3.8	0.1	4837.7
97861	5.9	3.95	0.1	4786.7
97862	5.95	3.9	0.1	4805.7
97863	5.9	4.05	0.1	4754.
97864	5.95	4.	0.1	4771.3
97865	5.9	4.15	0.1	4719.5
97866	5.95	4.1	0.1	4734.8
97867	5.9	4.25	0.1	4683.6
97868	5.95	4.2	0.1	4696.5
97869	5.9	4.35	0.1	4646.5
97870	5.95	4.3	0.1	4656.9
97871	5.9	4.45	0.1	4608.7
97872	5.95	4.4	0.1	4616.3
97873	5.9	4.55	0.1	4570.6
97874	5.95	4.5	0.1	4575.1
97875	5.9	4.65	0.1	4532.5
97876	5.95	4.6	0.1	4533.8
97877	5.9	4.75	0.1	4494.7
97878	5.95	4.7	0.1	4492.6
97879	5.9	4.85	0.1	4457.8
97880	5.95	4.8	0.1	4452.2
97881	5.9	4.95	0.1	4421.9
97882	5.95	4.9	0.1	4412.8
97883	5.9	5.05	0.1	4387.6
97884	5.95	5.	0.1	4374.9
97885	5.9	5.15	0.1	4355.1
97886	5.95	5.1	0.1	4338.8
97887	5.9	5.25	0.1	4324.7
97888	5.95	5.2	0.1	4304.9
97889	5.9	5.35	0.1	4296.7
97890	5.95	5.3	0.1	4273.5
97891	5.9	5.45	0.1	4271.3
97892	5.95	5.4	0.1	4244.7
97893	5.9	5.55	0.1	4248.7
97894	5.95	5.5	0.1	4218.9
97895	5.9	5.65	0.1	4229.
97896	5.95	5.6	0.1	4196.2
97897	5.9	5.75	0.1	4212.4
97898	5.95	5.7	0.1	4176.7
97899	5.9	5.85	0.1	4199.
97900	5.95	5.8	0.1	4160.5
97901	5.95	5.9	0.1	4147.9
97902	5.9	5.95	0.1	4189.1
97903	6.	0.15	0.1	4109.4
97904	6.05	0.1	0.1	4054.
97905	6.	5.e-002	0.1	4097.9
97906	6.	0.25	0.1	4124.8
97907	6.05	0.2	0.1	4068.4
97908	6.	0.35	0.1	4143.8
97909	6.05	0.3	0.1	4086.8
97910	6.	0.45	0.1	4166.4
97911	6.05	0.4	0.1	4109.1
97912	6.	0.55	0.1	4192.3
97913	6.05	0.5	0.1	4135.1
97914	6.	0.65	0.1	4221.5
97915	6.05	0.6	0.1	4164.6
97916	6.	0.75	0.1	4253.7
97917	6.05	0.7	0.1	4197.5
97918	6.	0.85	0.1	4288.7
97919	6.05	0.8	0.1	4233.6
97920	6.	0.95	0.1	4326.2
97921	6.05	0.9	0.1	4272.6
97922	6.	1.05	0.1	4365.9
97923	6.05	1.	0.1	4314.2
97924	6.	1.15	0.1	4407.4
97925	6.05	1.1	0.1	4358.
97926	6.	1.25	0.1	4450.2
97927	6.05	1.2	0.1	4403.5
97928	6.	1.35	0.1	4494.
97929	6.05	1.3	0.1	4450.4
97930	6.	1.45	0.1	4538.3
97931	6.05	1.4	0.1	4498.
97932	6.	1.55	0.1	4582.7
97933	6.05	1.5	0.1	4546.
97934	6.	1.65	0.1	4626.7
97935	6.05	1.6	0.1	4593.9
97936	6.	1.75	0.1	4669.9
97937	6.05	1.7	0.1	4641.1
97938	6.	1.85	0.1	4711.8
97939	6.05	1.8	0.1	4687.3
97940	6.	1.95	0.1	4752.1
97941	6.05	1.9	0.1	4731.8
97942	6.	2.05	0.1	4790.3
97943	6.05	2.	0.1	4774.4
97944	6.	2.15	0.1	4826.1
97945	6.05	2.1	0.1	4814.6
97946	6.	2.25	0.1	4859.
97947	6.05	2.2	0.1	4851.9
97948	6.	2.35	0.1	4888.8
97949	6.05	2.3	0.1	4886.
97950	6.	2.45	0.1	4915.1
97951	6.05	2.4	0.1	4916.5
97952	6.	2.55	0.1	4937.5
97953	6.05	2.5	0.1	4943.
97954	6.	2.65	0.1	4955.9
97955	6.05	2.6	0.1	4965.2
97956	6.	2.75	0.1	4969.8
97957	6.05	2.7	0.1	4982.8
97958	6.	2.85	0.1	4979.2
97959	6.05	2.8	0.1	4995.5
97960	6.	2.95	0.1	4984.
97961	6.05	2.9	0.1	5003.2
97962	6.	3.05	0.1	4984.
97963	6.05	3.	0.1	5005.8
97964	6.	3.15	0.1	4979.2
97965	6.05	3.1	0.1	5003.2
97966	6.	3.25	0.1	4969.8
97967	6.05	3.2	0.1	4995.5
97968	6.	3.35	0.1	4955.9
97969	6.05	3.3	0.1	4982.8
97970	6.	3.45	0.1	4937.5
97971	6.05	3.4	0.1	4965.2
97972	6.	3.55	0.1	4915.1
97973	6.05	3.5	0.1	4943.
97974	6.	3.65	0.1	4888.8
97975	6.05	3.6	0.1	4916.5
97976	6.	3.75	0.1	4859.
97977	6.05	3.7	0.1	4886.
97978	6.	3.85	0.1	4826.1
97979	6.05	3.8	0.1	4851.9
97980	6.	3.95	0.1	4790.3
97981	6.05	3.9	0.1	4814.6
97982	6.	4.05	0.1	4752.1
97983	6.05	4.	0.1	4774.4
97984	6.	4.15	0.1	4711.8
97985	6.05	4.1	0.1	4731.8
97986	6.	4.25	0.1	4669.9
97987	6.05	4.2	0.1	4687.3
97988	6.	4.35	0.1	4626.7
97989	6.05	4.3	0.1	4641.1
97990	6.	4.45	0.1	4582.7
97991	6.05	4.4	0.1	4593.9
97992	6.	4.55	0.1	4538.3
97993	6.05	4.5	0.1	4546.
97994	6.	4.65	0.1	4494.
97995	6.05	4.6	0.1	4498.
97996	6.	4.75	0.1	4450.2
97997	6.05	4.7	0.1	4450.3
97998	6.	4.85	0.1	4407.4
97999	6.05	4.8	0.1	4403.5
98000	6.	4.95	0.1	4365.9
98001	6.05	4.9	0.1	4358.
98002	6.	5.05	0.1	4326.2
98003	6.05	5.	0.1	4314.2
98004	6.	5.15	0.1	4288.7
98005	6.05	5.1	0.1	4272.6
98006	6.	5.25	0.1	4253.7
98007	6.05	5.2	0.1	4233.6
98008	6.	5.35	0.1	4221.5
98009	6.05	5.3	0.1	4197.5
98010	6.	5.45	0.1	4192.3
98011	6.05	5.4	0.1	4164.6
98012	6.	5.55	0.1	4166.4
98013	6.05	5.5	0.1	4135.1
98014	6.	5.65	0.1	4143.8
98015	6.05	5.6	0.1	4109.1
98016	6.	5.75	0.1	4124.8
98017	6.05	5.7	0.1	4086.8
98018	6.	5.85	0.1	4109.4
98019	6.05	5.8	0.1	4068.4
98020	6.05	5.9	0.1	4054.
98021	6.	5.95	0.1	4097.9
98022	6.1	0.15	0.1	4013.
98023	6.15	0.1	0.1	3953.
98024	6.1	5.e-002	0.1	3999.8
98025	6.1	0.25	0.1	4030.5
98026	6.15	0.2	0.1	3969.2
98027	6.1	0.35	0.1	4052.1
98028	6.15	0.3	0.1	3990.1
98029	6.1	0.45	0.1	4077.8
98030	6.15	0.4	0.1	4015.3
98031	6.1	0.55	0.1	4107.4
98032	6.15	0.5	0.1	4044.7
98033	6.1	0.65	0.1	4140.7
98034	6.15	0.6	0.1	4078.3
98035	6.1	0.75	0.1	4177.5
98036	6.15	0.7	0.1	4115.8
98037	6.1	0.85	0.1	4217.7
98038	6.15	0.8	0.1	4157.1
98039	6.1	0.95	0.1	4260.7
98040	6.15	0.9	0.1	4201.8
98041	6.1	1.05	0.1	4306.4
98042	6.15	1.	0.1	4249.5
98043	6.1	1.15	0.1	4354.3
98044	6.15	1.1	0.1	4299.9
98045	6.1	1.25	0.1	4403.8
98046	6.15	1.2	0.1	4352.3
98047	6.1	1.35	0.1	4454.5
98048	6.15	1.3	0.1	4406.4
98049	6.1	1.45	0.1	4505.8
98050	6.15	1.4	0.1	4461.5
98051	6.1	1.55	0.1	4557.3
98052	6.15	1.5	0.1	4517.1
98053	6.1	1.65	0.1	4608.4
98054	6.15	1.6	0.1	4572.6
98055	6.1	1.75	0.1	4658.6
98056	6.15	1.7	0.1	4627.4
98057	6.1	1.85	0.1	4707.3
98058	6.15	1.8	0.1	4681.
98059	6.1	1.95	0.1	4754.2
98060	6.15	1.9	0.1	4732.8
98061	6.1	2.05	0.1	4798.7
98062	6.15	2.	0.1	4782.3
98063	6.1	2.15	0.1	4840.4
98064	6.15	2.1	0.1	4829.
98065	6.1	2.25	0.1	4878.9
98066	6.15	2.2	0.1	4872.5
98067	6.1	2.35	0.1	4913.7
98068	6.15	2.3	0.1	4912.3
98069	6.1	2.45	0.1	4944.4
98070	6.15	2.4	0.1	4947.9
98071	6.1	2.55	0.1	4970.6
98072	6.15	2.5	0.1	4978.8
98073	6.1	2.65	0.1	4992.1
98074	6.15	2.6	0.1	5004.7
98075	6.1	2.75	0.1	5008.4
98076	6.15	2.7	0.1	5025.3
98077	6.1	2.85	0.1	5019.5
98078	6.15	2.8	0.1	5040.2
98079	6.1	2.95	0.1	5025.
98080	6.15	2.9	0.1	5049.3
98081	6.1	3.05	0.1	5025.
98082	6.15	3.	0.1	5052.3
98083	6.1	3.15	0.1	5019.5
98084	6.15	3.1	0.1	5049.3
98085	6.1	3.25	0.1	5008.4
98086	6.15	3.2	0.1	5040.2
98087	6.1	3.35	0.1	4992.1
98088	6.15	3.3	0.1	5025.3
98089	6.1	3.45	0.1	4970.6
98090	6.15	3.4	0.1	5004.7
98091	6.1	3.55	0.1	4944.4
98092	6.15	3.5	0.1	4978.8
98093	6.1	3.65	0.1	4913.7
98094	6.15	3.6	0.1	4947.9
98095	6.1	3.75	0.1	4878.9
98096	6.15	3.7	0.1	4912.3
98097	6.1	3.85	0.1	4840.4
98098	6.15	3.8	0.1	4872.5
98099	6.1	3.95	0.1	4798.7
98100	6.15	3.9	0.1	4829.
98101	6.1	4.05	0.1	4754.2
98102	6.15	4.	0.1	4782.3
98103	6.1	4.15	0.1	4707.3
98104	6.15	4.1	0.1	4732.8
98105	6.1	4.25	0.1	4658.6
98106	6.15	4.2	0.1	4681.
98107	6.1	4.35	0.1	4608.4
98108	6.15	4.3	0.1	4627.4
98109	6.1	4.45	0.1	4557.3
98110	6.15	4.4	0.1	4572.6
98111	6.1	4.55	0.1	4505.8
98112	6.15	4.5	0.1	4517.1
98113	6.1	4.65	0.1	4454.5
98114	6.15	4.6	0.1	4461.5
98115	6.1	4.75	0.1	4403.8
98116	6.15	4.7	0.1	4406.4
98117	6.1	4.85	0.1	4354.3
98118	6.15	4.8	0.1	4352.3
98119	6.1	4.95	0.1	4306.4
98120	6.15	4.9	0.1	4299.9
98121	6.1	5.05	0.1	4260.7
98122	6.15	5.	0.1	4249.5
98123	6.1	5.15	0.1	4217.7
98124	6.15	5.1	0.1	4201.8
98125	6.1	5.25	0.1	4177.5
98126	6.15	5.2	0.1	4157.1
98127	6.1	5.35	0.1	4140.7
98128	6.15	5.3	0.1	4115.8
98129	6.1	5.45	0.1	4107.4
98130	6.15	5.4	0.1	4078.3
98131	6.1	5.55	0.1	4077.8
98132	6.15	5.5	0.1	4044.7
98133	6.1	5.65	0.1	4052.1
98134	6.15	5.6	0.1	4015.3
98135	6.1	5.75	0.1	4030.5
98136	6.15	5.7	0.1	3990.1
98137	6.1	5.85	0.1	4013.
98138	6.15	5.8	0.1	3969.2
98139	6.15	5.9	0.1	3953.
98140	6.1	5.95	0.1	3999.8
98141	6.2	0.15	0.1	3909.2
98142	6.25	0.1	0.1	3844.1
98143	6.2	5.e-002	0.1	3893.9
98144	6.2	0.25	0.1	3928.8
98145	6.25	0.2	0.1	3862.2
98146	6.2	0.35	0.1	3953.2
98147	6.25	0.3	0.1	3885.6
98148	6.2	0.45	0.1	3982.2
98149	6.25	0.4	0.1	3914.
98150	6.2	0.55	0.1	4015.7
98151	6.25	0.5	0.1	3947.2
98152	6.2	0.65	0.1	4053.6
98153	6.25	0.6	0.1	3985.1
98154	6.2	0.75	0.1	4095.5
98155	6.25	0.7	0.1	4027.7
98156	6.2	0.85	0.1	4141.4
98157	6.25	0.8	0.1	4074.7
98158	6.2	0.95	0.1	4190.7
98159	6.25	0.9	0.1	4125.7
98160	6.2	1.05	0.1	4243.1
98161	6.25	1.	0.1	4180.3
98162	6.2	1.15	0.1	4298.1
98163	6.25	1.1	0.1	4238.1
98164	6.2	1.25	0.1	4355.2
98165	6.25	1.2	0.1	4298.4
98166	6.2	1.35	0.1	4413.6
98167	6.25	1.3	0.1	4360.6
98168	6.2	1.45	0.1	4473.
98169	6.25	1.4	0.1	4424.2
98170	6.2	1.55	0.1	4532.5
98171	6.25	1.5	0.1	4488.4
98172	6.2	1.65	0.1	4591.7
98173	6.25	1.6	0.1	4552.6
98174	6.2	1.75	0.1	4649.9
98175	6.25	1.7	0.1	4616.
98176	6.2	1.85	0.1	4706.5
98177	6.25	1.8	0.1	4678.1
98178	6.2	1.95	0.1	4760.9
98179	6.25	1.9	0.1	4738.2
98180	6.2	2.05	0.1	4812.7
98181	6.25	2.	0.1	4795.7
98182	6.2	2.15	0.1	4861.2
98183	6.25	2.1	0.1	4850.
98184	6.2	2.25	0.1	4906.
98185	6.25	2.2	0.1	4900.5
98186	6.2	2.35	0.1	4946.5
98187	6.25	2.3	0.1	4946.8
98188	6.2	2.45	0.1	4982.3
98189	6.25	2.4	0.1	4988.2
98190	6.2	2.55	0.1	5012.9
98191	6.25	2.5	0.1	5024.3
98192	6.2	2.65	0.1	5037.9
98193	6.25	2.6	0.1	5054.5
98194	6.2	2.75	0.1	5057.1
98195	6.25	2.7	0.1	5078.5
98196	6.2	2.85	0.1	5069.9
98197	6.25	2.8	0.1	5095.9
98198	6.2	2.95	0.1	5076.4
98199	6.25	2.9	0.1	5106.4
98200	6.2	3.05	0.1	5076.4
98201	6.25	3.	0.1	5109.9
98202	6.2	3.15	0.1	5069.9
98203	6.25	3.1	0.1	5106.4
98204	6.2	3.25	0.1	5057.1
98205	6.25	3.2	0.1	5095.9
98206	6.2	3.35	0.1	5037.9
98207	6.25	3.3	0.1	5078.5
98208	6.2	3.45	0.1	5012.9
98209	6.25	3.4	0.1	5054.5
98210	6.2	3.55	0.1	4982.3
98211	6.25	3.5	0.1	5024.3
98212	6.2	3.65	0.1	4946.5
98213	6.25	3.6	0.1	4988.2
98214	6.2	3.75	0.1	4906.
98215	6.25	3.7	0.1	4946.8
98216	6.2	3.85	0.1	4861.2
98217	6.25	3.8	0.1	4900.5
98218	6.2	3.95	0.1	4812.7
98219	6.25	3.9	0.1	4850.
98220	6.2	4.05	0.1	4760.9
98221	6.25	4.	0.1	4795.7
98222	6.2	4.15	0.1	4706.5
98223	6.25	4.1	0.1	4738.2
98224	6.2	4.25	0.1	4649.9
98225	6.25	4.2	0.1	4678.1
98226	6.2	4.35	0.1	4591.7
98227	6.25	4.3	0.1	4616.
98228	6.2	4.45	0.1	4532.5
98229	6.25	4.4	0.1	4552.6
98230	6.2	4.55	0.1	4473.
98231	6.25	4.5	0.1	4488.4
98232	6.2	4.65	0.1	4413.6
98233	6.25	4.6	0.1	4424.2
98234	6.2	4.75	0.1	4355.2
98235	6.25	4.7	0.1	4360.6
98236	6.2	4.85	0.1	4298.1
98237	6.25	4.8	0.1	4298.4
98238	6.2	4.95	0.1	4243.1
98239	6.25	4.9	0.1	4238.1
98240	6.2	5.05	0.1	4190.7
98241	6.25	5.	0.1	4180.3
98242	6.2	5.15	0.1	4141.4
98243	6.25	5.1	0.1	4125.7
98244	6.2	5.25	0.1	4095.5
98245	6.25	5.2	0.1	4074.7
98246	6.2	5.35	0.1	4053.6
98247	6.25	5.3	0.1	4027.7
98248	6.2	5.45	0.1	4015.7
98249	6.25	5.4	0.1	3985.1
98250	6.2	5.55	0.1	3982.2
98251	6.25	5.5	0.1	3947.2
98252	6.2	5.65	0.1	3953.2
98253	6.25	5.6	0.1	3914.
98254	6.2	5.75	0.1	3928.8
98255	6.25	5.7	0.1	3885.6
98256	6.2	5.85	0.1	3909.2
98257	6.25	5.8	0.1	3862.2
98258	6.25	5.9	0.1	3844.1
98259	6.2	5.95	0.1	3893.9
98260	6.3	0.15	0.1	3797.1
98261	6.35	0.1	0.1	3726.6
98262	6.3	5.e-002	0.1	3779.6
98263	6.3	0.25	0.1	3819.
98264	6.35	0.2	0.1	3746.6
98265	6.3	0.35	0.1	3846.4
98266	6.35	0.3	0.1	3772.7
98267	6.3	0.45	0.1	3879.
98268	6.35	0.4	0.1	3804.4
98269	6.3	0.55	0.1	3916.7
98270	6.35	0.5	0.1	3841.6
98271	6.3	0.65	0.1	3959.5
98272	6.35	0.6	0.1	3884.4
98273	6.3	0.75	0.1	4007.1
98274	6.35	0.7	0.1	3932.5
98275	6.3	0.85	0.1	4059.2
98276	6.35	0.8	0.1	3985.8
98277	6.3	0.95	0.1	4115.5
98278	6.35	0.9	0.1	4043.8
98279	6.3	1.05	0.1	4175.5
98280	6.35	1.	0.1	4106.1
98281	6.3	1.15	0.1	4238.5
98282	6.35	1.1	0.1	4172.1
98283	6.3	1.25	0.1	4304.1
98284	6.35	1.2	0.1	4241.3
98285	6.3	1.35	0.1	4371.4
98286	6.35	1.3	0.1	4312.8
98287	6.3	1.45	0.1	4439.9
98288	6.35	1.4	0.1	4386.
98289	6.3	1.55	0.1	4508.6
98290	6.35	1.5	0.1	4460.
98291	6.3	1.65	0.1	4577.1
98292	6.35	1.6	0.1	4534.1
98293	6.3	1.75	0.1	4644.4
98294	6.35	1.7	0.1	4607.5
98295	6.3	1.85	0.1	4709.9
98296	6.35	1.8	0.1	4679.3
98297	6.3	1.95	0.1	4773.
98298	6.35	1.9	0.1	4748.9
98299	6.3	2.05	0.1	4833.1
98300	6.35	2.	0.1	4815.5
98301	6.3	2.15	0.1	4889.4
98302	6.35	2.1	0.1	4878.5
98303	6.3	2.25	0.1	4941.4
98304	6.35	2.2	0.1	4937.2
98305	6.3	2.35	0.1	4988.5
98306	6.35	2.3	0.1	4990.9
98307	6.3	2.45	0.1	5030.2
98308	6.35	2.4	0.1	5039.
98309	6.3	2.55	0.1	5065.8
98310	6.35	2.5	0.1	5080.9
98311	6.3	2.65	0.1	5095.
98312	6.35	2.6	0.1	5116.
98313	6.3	2.75	0.1	5117.2
98314	6.35	2.7	0.1	5143.8
98315	6.3	2.85	0.1	5132.2
98316	6.35	2.8	0.1	5164.1
98317	6.3	2.95	0.1	5139.8
98318	6.35	2.9	0.1	5176.3
98319	6.3	3.05	0.1	5139.8
98320	6.35	3.	0.1	5180.4
98321	6.3	3.15	0.1	5132.2
98322	6.35	3.1	0.1	5176.3
98323	6.3	3.25	0.1	5117.2
98324	6.35	3.2	0.1	5164.1
98325	6.3	3.35	0.1	5095.
98326	6.35	3.3	0.1	5143.8
98327	6.3	3.45	0.1	5065.8
98328	6.35	3.4	0.1	5116.
98329	6.3	3.55	0.1	5030.2
98330	6.35	3.5	0.1	5080.8
98331	6.3	3.65	0.1	4988.5
98332	6.35	3.6	0.1	5039.
98333	6.3	3.75	0.1	4941.4
98334	6.35	3.7	0.1	4990.9
98335	6.3	3.85	0.1	4889.4
98336	6.35	3.8	0.1	4937.2
98337	6.3	3.95	0.1	4833.1
98338	6.35	3.9	0.1	4878.5
98339	6.3	4.05	0.1	4773.
98340	6.35	4.	0.1	4815.5
98341	6.3	4.15	0.1	4709.9
98342	6.35	4.1	0.1	4748.9
98343	6.3	4.25	0.1	4644.4
98344	6.35	4.2	0.1	4679.3
98345	6.3	4.35	0.1	4577.1
98346	6.35	4.3	0.1	4607.5
98347	6.3	4.45	0.1	4508.6
98348	6.35	4.4	0.1	4534.1
98349	6.3	4.55	0.1	4439.9
98350	6.35	4.5	0.1	4460.
98351	6.3	4.65	0.1	4371.4
98352	6.35	4.6	0.1	4386.
98353	6.3	4.75	0.1	4304.1
98354	6.35	4.7	0.1	4312.8
98355	6.3	4.85	0.1	4238.5
98356	6.35	4.8	0.1	4241.3
98357	6.3	4.95	0.1	4175.5
98358	6.35	4.9	0.1	4172.1
98359	6.3	5.05	0.1	4115.5
98360	6.35	5.	0.1	4106.1
98361	6.3	5.15	0.1	4059.2
98362	6.35	5.1	0.1	4043.8
98363	6.3	5.25	0.1	4007.1
98364	6.35	5.2	0.1	3985.8
98365	6.3	5.35	0.1	3959.5
98366	6.35	5.3	0.1	3932.5
98367	6.3	5.45	0.1	3916.7
98368	6.35	5.4	0.1	3884.4
98369	6.3	5.55	0.1	3879.
98370	6.35	5.5	0.1	3841.6
98371	6.3	5.65	0.1	3846.4
98372	6.35	5.6	0.1	3804.4
98373	6.3	5.75	0.1	3819.
98374	6.35	5.7	0.1	3772.7
98375	6.3	5.85	0.1	3797.1
98376	6.35	5.8	0.1	3746.6
98377	6.35	5.9	0.1	3726.6
98378	6.3	5.95	0.1	3779.6
98379	6.4	0.15	0.1	3676.1
98380	6.45	0.1	0.1	3599.7
98381	6.4	5.e-002	0.1	3656.
98382	6.4	0.25	0.1	3700.3
98383	6.45	0.2	0.1	3621.6
98384	6.4	0.35	0.1	3730.8
98385	6.45	0.3	0.1	3650.5
98386	6.4	0.45	0.1	3767.2
98387	6.45	0.4	0.1	3685.7
98388	6.4	0.55	0.1	3809.5
98389	6.45	0.5	0.1	3727.3
98390	6.4	0.65	0.1	3857.7
98391	6.45	0.6	0.1	3775.3
98392	6.4	0.75	0.1	3911.5
98393	6.45	0.7	0.1	3829.4
98394	6.4	0.85	0.1	3970.6
98395	6.45	0.8	0.1	3889.6
98396	6.4	0.95	0.1	4034.6
98397	6.45	0.9	0.1	3955.3
98398	6.4	1.05	0.1	4103.
98399	6.45	1.	0.1	4026.2
98400	6.4	1.15	0.1	4175.1
98401	6.45	1.1	0.1	4101.5
98402	6.4	1.25	0.1	4250.3
98403	6.45	1.2	0.1	4180.6
98404	6.4	1.35	0.1	4327.7
98405	6.45	1.3	0.1	4262.7
98406	6.4	1.45	0.1	4406.5
98407	6.45	1.4	0.1	4346.8
98408	6.4	1.55	0.1	4485.8
98409	6.45	1.5	0.1	4432.1
98410	6.4	1.65	0.1	4564.8
98411	6.45	1.6	0.1	4517.5
98412	6.4	1.75	0.1	4642.6
98413	6.45	1.7	0.1	4602.2
98414	6.4	1.85	0.1	4718.4
98415	6.45	1.8	0.1	4685.3
98416	6.4	1.95	0.1	4791.5
98417	6.45	1.9	0.1	4765.8
98418	6.4	2.05	0.1	4861.
98419	6.45	2.	0.1	4842.9
98420	6.4	2.15	0.1	4926.3
98421	6.45	2.1	0.1	4915.8
98422	6.4	2.25	0.1	4986.6
98423	6.45	2.2	0.1	4983.8
98424	6.4	2.35	0.1	5041.3
98425	6.45	2.3	0.1	5046.
98426	6.4	2.45	0.1	5089.6
98427	6.45	2.4	0.1	5101.8
98428	6.4	2.55	0.1	5131.
98429	6.45	2.5	0.1	5150.3
98430	6.4	2.65	0.1	5164.8
98431	6.45	2.6	0.1	5191.
98432	6.4	2.75	0.1	5190.6
98433	6.45	2.7	0.1	5223.3
98434	6.4	2.85	0.1	5208.
98435	6.45	2.8	0.1	5246.7
98436	6.4	2.95	0.1	5216.8
98437	6.45	2.9	0.1	5260.9
98438	6.4	3.05	0.1	5216.8
98439	6.45	3.	0.1	5265.6
98440	6.4	3.15	0.1	5208.
98441	6.45	3.1	0.1	5260.9
98442	6.4	3.25	0.1	5190.6
98443	6.45	3.2	0.1	5246.7
98444	6.4	3.35	0.1	5164.8
98445	6.45	3.3	0.1	5223.3
98446	6.4	3.45	0.1	5131.
98447	6.45	3.4	0.1	5191.
98448	6.4	3.55	0.1	5089.6
98449	6.45	3.5	0.1	5150.3
98450	6.4	3.65	0.1	5041.3
98451	6.45	3.6	0.1	5101.8
98452	6.4	3.75	0.1	4986.6
98453	6.45	3.7	0.1	5046.
98454	6.4	3.85	0.1	4926.3
98455	6.45	3.8	0.1	4983.8
98456	6.4	3.95	0.1	4861.
98457	6.45	3.9	0.1	4915.8
98458	6.4	4.05	0.1	4791.5
98459	6.45	4.	0.1	4842.9
98460	6.4	4.15	0.1	4718.4
98461	6.45	4.1	0.1	4765.8
98462	6.4	4.25	0.1	4642.6
98463	6.45	4.2	0.1	4685.3
98464	6.4	4.35	0.1	4564.8
98465	6.45	4.3	0.1	4602.2
98466	6.4	4.45	0.1	4485.8
98467	6.45	4.4	0.1	4517.5
98468	6.4	4.55	0.1	4406.5
98469	6.45	4.5	0.1	4432.1
98470	6.4	4.65	0.1	4327.7
98471	6.45	4.6	0.1	4346.8
98472	6.4	4.75	0.1	4250.3
98473	6.45	4.7	0.1	4262.7
98474	6.4	4.85	0.1	4175.1
98475	6.45	4.8	0.1	4180.6
98476	6.4	4.95	0.1	4103.
98477	6.45	4.9	0.1	4101.5
98478	6.4	5.05	0.1	4034.6
98479	6.45	5.	0.1	4026.2
98480	6.4	5.15	0.1	3970.6
98481	6.45	5.1	0.1	3955.3
98482	6.4	5.25	0.1	3911.5
98483	6.45	5.2	0.1	3889.6
98484	6.4	5.35	0.1	3857.7
98485	6.45	5.3	0.1	3829.4
98486	6.4	5.45	0.1	3809.5
98487	6.45	5.4	0.1	3775.3
98488	6.4	5.55	0.1	3767.2
98489	6.45	5.5	0.1	3727.3
98490	6.4	5.65	0.1	3730.8
98491	6.45	5.6	0.1	3685.7
98492	6.4	5.75	0.1	3700.3
98493	6.45	5.7	0.1	3650.5
98494	6.4	5.85	0.1	3676.1
98495	6.45	5.8	0.1	3621.6
98496	6.45	5.9	0.1	3599.7
98497	6.4	5.95	0.1	3656.
98498	6.5	0.15	0.1	3545.3
98499	6.55	0.1	0.1	3462.6
98500	6.5	5.e-002	0.1	3522.4
98501	6.5	0.25	0.1	3571.9
98502	6.55	0.2	0.1	3486.5
98503	6.5	0.35	0.1	3605.6
98504	6.55	0.3	0.1	3518.2
98505	6.5	0.45	0.1	3646.
98506	6.55	0.4	0.1	3557.2
98507	6.5	0.55	0.1	3693.3
98508	6.55	0.5	0.1	3603.4
98509	6.5	0.65	0.1	3747.3
98510	6.55	0.6	0.1	3656.9
98511	6.5	0.75	0.1	3807.9
98512	6.55	0.7	0.1	3717.7
98513	6.5	0.85	0.1	3874.7
98514	6.55	0.8	0.1	3785.4
98515	6.5	0.95	0.1	3947.3
98516	6.55	0.9	0.1	3859.7
98517	6.5	1.05	0.1	4025.2
98518	6.55	1.	0.1	3940.1
98519	6.5	1.15	0.1	4107.5
98520	6.55	1.1	0.1	4025.8
98521	6.5	1.25	0.1	4193.5
98522	6.55	1.2	0.1	4116.1
98523	6.5	1.35	0.1	4282.3
98524	6.55	1.3	0.1	4210.1
98525	6.5	1.45	0.1	4372.8
98526	6.55	1.4	0.1	4306.7
98527	6.5	1.55	0.1	4464.2
98528	6.55	1.5	0.1	4404.7
98529	6.5	1.65	0.1	4555.3
98530	6.55	1.6	0.1	4503.2
98531	6.5	1.75	0.1	4645.2
98532	6.55	1.7	0.1	4601.
98533	6.5	1.85	0.1	4732.8
98534	6.55	1.8	0.1	4696.9
98535	6.5	1.95	0.1	4817.4
98536	6.55	1.9	0.1	4790.
98537	6.5	2.05	0.1	4897.8
98538	6.55	2.	0.1	4879.2
98539	6.5	2.15	0.1	4973.4
98540	6.55	2.1	0.1	4963.6
98541	6.5	2.25	0.1	5043.3
98542	6.55	2.2	0.1	5042.2
98543	6.5	2.35	0.1	5106.5
98544	6.55	2.3	0.1	5114.2
98545	6.5	2.45	0.1	5162.5
98546	6.55	2.4	0.1	5178.7
98547	6.5	2.55	0.1	5210.3
98548	6.55	2.5	0.1	5234.7
98549	6.5	2.65	0.1	5249.4
98550	6.55	2.6	0.1	5281.7
98551	6.5	2.75	0.1	5279.2
98552	6.55	2.7	0.1	5318.9
98553	6.5	2.85	0.1	5299.4
98554	6.55	2.8	0.1	5345.9
98555	6.5	2.95	0.1	5309.5
98556	6.55	2.9	0.1	5362.2
98557	6.5	3.05	0.1	5309.5
98558	6.55	3.	0.1	5367.6
98559	6.5	3.15	0.1	5299.4
98560	6.55	3.1	0.1	5362.2
98561	6.5	3.25	0.1	5279.2
98562	6.55	3.2	0.1	5345.9
98563	6.5	3.35	0.1	5249.4
98564	6.55	3.3	0.1	5318.9
98565	6.5	3.45	0.1	5210.3
98566	6.55	3.4	0.1	5281.7
98567	6.5	3.55	0.1	5162.5
98568	6.55	3.5	0.1	5234.7
98569	6.5	3.65	0.1	5106.5
98570	6.55	3.6	0.1	5178.7
98571	6.5	3.75	0.1	5043.3
98572	6.55	3.7	0.1	5114.2
98573	6.5	3.85	0.1	4973.4
98574	6.55	3.8	0.1	5042.2
98575	6.5	3.95	0.1	4897.8
98576	6.55	3.9	0.1	4963.6
98577	6.5	4.05	0.1	4817.4
98578	6.55	4.	0.1	4879.2
98579	6.5	4.15	0.1	4732.8
98580	6.55	4.1	0.1	4790.
98581	6.5	4.25	0.1	4645.2
98582	6.55	4.2	0.1	4696.9
98583	6.5	4.35	0.1	4555.3
98584	6.55	4.3	0.1	4601.
98585	6.5	4.45	0.1	4464.2
98586	6.55	4.4	0.1	4503.2
98587	6.5	4.55	0.1	4372.8
98588	6.55	4.5	0.1	4404.7
98589	6.5	4.65	0.1	4282.3
98590	6.55	4.6	0.1	4306.7
98591	6.5	4.75	0.1	4193.5
98592	6.55	4.7	0.1	4210.1
98593	6.5	4.85	0.1	4107.5
98594	6.55	4.8	0.1	4116.1
98595	6.5	4.95	0.1	4025.2
98596	6.55	4.9	0.1	4025.8
98597	6.5	5.05	0.1	3947.3
98598	6.55	5.	0.1	3940.1
98599	6.5	5.15	0.1	3874.7
98600	6.55	5.1	0.1	3859.7
98601	6.5	5.25	0.1	3807.9
98602	6.55	5.2	0.1	3785.4
98603	6.5	5.35	0.1	3747.3
98604	6.55	5.3	0.1	3717.7
98605	6.5	5.45	0.1	3693.3
98606	6.55	5.4	0.1	3656.9
98607	6.5	5.55	0.1	3646.
98608	6.55	5.5	0.1	3603.4
98609	6.5	5.65	0.1	3605.6
98610	6.55	5.6	0.1	3557.2
98611	6.5	5.75	0.1	3571.9
98612	6.55	5.7	0.1	3518.2
98613	6.5	5.85	0.1	3545.3
98614	6.55	5.8	0.1	3486.5
98615	6.55	5.9	0.1	3462.6
98616	6.5	5.95	0.1	3522.4
98617	6.6	0.15	0.1	3403.9
98618	6.65	0.1	0.1	3314.6
98619	6.6	5.e-002	0.1	3377.9
98620	6.6	0.25	0.1	3432.9
98621	6.65	0.2	0.1	3340.4
98622	6.6	0.35	0.1	3470.
98623	6.65	0.3	0.1	3375.1
98624	6.6	0.45	0.1	3514.7
98625	6.65	0.4	0.1	3417.9
98626	6.6	0.55	0.1	3567.3
98627	6.65	0.5	0.1	3469.1
98628	6.6	0.65	0.1	3627.7
98629	6.65	0.6	0.1	3528.6
98630	6.6	0.75	0.1	3695.6
98631	6.65	0.7	0.1	3596.5
98632	6.6	0.85	0.1	3770.9
98633	6.65	0.8	0.1	3672.5
98634	6.6	0.95	0.1	3853.
98635	6.65	0.9	0.1	3756.2
98636	6.6	1.05	0.1	3941.4
98637	6.65	1.	0.1	3847.1
98638	6.6	1.15	0.1	4035.1
98639	6.65	1.1	0.1	3944.5
98640	6.6	1.25	0.1	4133.4
98641	6.65	1.2	0.1	4047.3
98642	6.6	1.35	0.1	4235.1
98643	6.65	1.3	0.1	4154.7
98644	6.6	1.45	0.1	4339.1
98645	6.65	1.4	0.1	4265.5
98646	6.6	1.55	0.1	4444.3
98647	6.65	1.5	0.1	4378.2
98648	6.6	1.65	0.1	4549.3
98649	6.65	1.6	0.1	4491.7
98650	6.6	1.75	0.1	4653.1
98651	6.65	1.7	0.1	4604.5
98652	6.6	1.85	0.1	4754.4
98653	6.65	1.8	0.1	4715.4
98654	6.6	1.95	0.1	4852.1
98655	6.65	1.9	0.1	4823.
98656	6.6	2.05	0.1	4945.1
98657	6.65	2.	0.1	4926.2
98658	6.6	2.15	0.1	5032.5
98659	6.65	2.1	0.1	5023.8
98660	6.6	2.25	0.1	5113.3
98661	6.65	2.2	0.1	5114.6
98662	6.6	2.35	0.1	5186.4
98663	6.65	2.3	0.1	5197.7
98664	6.6	2.45	0.1	5250.9
98665	6.65	2.4	0.1	5272.1
98666	6.6	2.55	0.1	5306.1
98667	6.65	2.5	0.1	5336.6
98668	6.6	2.65	0.1	5351.1
98669	6.65	2.6	0.1	5390.5
98670	6.6	2.75	0.1	5385.4
98671	6.65	2.7	0.1	5433.2
98672	6.6	2.85	0.1	5408.5
98673	6.65	2.8	0.1	5464.
98674	6.6	2.95	0.1	5420.1
98675	6.65	2.9	0.1	5482.6
98676	6.6	3.05	0.1	5420.1
98677	6.65	3.	0.1	5488.8
98678	6.6	3.15	0.1	5408.5
98679	6.65	3.1	0.1	5482.6
98680	6.6	3.25	0.1	5385.4
98681	6.65	3.2	0.1	5464.
98682	6.6	3.35	0.1	5351.1
98683	6.65	3.3	0.1	5433.2
98684	6.6	3.45	0.1	5306.1
98685	6.65	3.4	0.1	5390.5
98686	6.6	3.55	0.1	5250.9
98687	6.65	3.5	0.1	5336.6
98688	6.6	3.65	0.1	5186.4
98689	6.65	3.6	0.1	5272.
98690	6.6	3.75	0.1	5113.3
98691	6.65	3.7	0.1	5197.7
98692	6.6	3.85	0.1	5032.5
98693	6.65	3.8	0.1	5114.6
98694	6.6	3.95	0.1	4945.1
98695	6.65	3.9	0.1	5023.7
98696	6.6	4.05	0.1	4852.1
98697	6.65	4.	0.1	4926.2
98698	6.6	4.15	0.1	4754.4
98699	6.65	4.1	0.1	4823.
98700	6.6	4.25	0.1	4653.1
98701	6.65	4.2	0.1	4715.4
98702	6.6	4.35	0.1	4549.3
98703	6.65	4.3	0.1	4604.5
98704	6.6	4.45	0.1	4444.3
98705	6.65	4.4	0.1	4491.7
98706	6.6	4.55	0.1	4339.1
98707	6.65	4.5	0.1	4378.2
98708	6.6	4.65	0.1	4235.1
98709	6.65	4.6	0.1	4265.5
98710	6.6	4.75	0.1	4133.4
98711	6.65	4.7	0.1	4154.7
98712	6.6	4.85	0.1	4035.1
98713	6.65	4.8	0.1	4047.3
98714	6.6	4.95	0.1	3941.4
98715	6.65	4.9	0.1	3944.5
98716	6.6	5.05	0.1	3853.
98717	6.65	5.	0.1	3847.1
98718	6.6	5.15	0.1	3770.9
98719	6.65	5.1	0.1	3756.2
98720	6.6	5.25	0.1	3695.6
98721	6.65	5.2	0.1	3672.5
98722	6.6	5.35	0.1	3627.7
98723	6.65	5.3	0.1	3596.5
98724	6.6	5.45	0.1	3567.3
98725	6.65	5.4	0.1	3528.6
98726	6.6	5.55	0.1	3514.7
98727	6.65	5.5	0.1	3469.1
98728	6.6	5.65	0.1	3470.
98729	6.65	5.6	0.1	3417.9
98730	6.6	5.75	0.1	3432.9
98731	6.65	5.7	0.1	3375.1
98732	6.6	5.85	0.1	3403.9
98733	6.65	5.8	0.1	3340.4
98734	6.65	5.9	0.1	3314.6
98735	6.6	5.95	0.1	3377.9
98736	6.7	0.15	0.1	3251.2
98737	6.75	0.1	0.1	3155.1
98738	6.7	5.e-002	0.1	3221.7
98739	6.7	0.25	0.1	3282.6
98740	6.75	0.2	0.1	3182.6
98741	6.7	0.35	0.1	3323.2
98742	6.75	0.3	0.1	3220.3
98743	6.7	0.45	0.1	3372.5
98744	6.75	0.4	0.1	3267.2
98745	6.7	0.55	0.1	3430.7
98746	6.75	0.5	0.1	3323.5
98747	6.7	0.65	0.1	3497.9
98748	6.75	0.6	0.1	3389.5
98749	6.7	0.75	0.1	3573.9
98750	6.75	0.7	0.1	3465.1
98751	6.7	0.85	0.1	3658.5
98752	6.75	0.8	0.1	3550.1
98753	6.7	0.95	0.1	3751.
98754	6.75	0.9	0.1	3644.1
98755	6.7	1.05	0.1	3851.
98756	6.75	1.	0.1	3746.6
98757	6.7	1.15	0.1	3957.5
98758	6.75	1.1	0.1	3856.9
98759	6.7	1.25	0.1	4069.6
98760	6.75	1.2	0.1	3973.8
98761	6.7	1.35	0.1	4186.
98762	6.75	1.3	0.1	4096.4
98763	6.7	1.45	0.1	4305.4
98764	6.75	1.4	0.1	4223.3
98765	6.7	1.55	0.1	4426.4
98766	6.75	1.5	0.1	4352.9
98767	6.7	1.65	0.1	4547.5
98768	6.75	1.6	0.1	4483.6
98769	6.7	1.75	0.1	4667.3
98770	6.75	1.7	0.1	4613.9
98771	6.7	1.85	0.1	4784.4
98772	6.75	1.8	0.1	4742.1
98773	6.7	1.95	0.1	4897.4
98774	6.75	1.9	0.1	4866.6
98775	6.7	2.05	0.1	5005.
98776	6.75	2.	0.1	4986.
98777	6.7	2.15	0.1	5106.
98778	6.75	2.1	0.1	5098.8
98779	6.7	2.25	0.1	5199.2
98780	6.75	2.2	0.1	5203.7
98781	6.7	2.35	0.1	5283.4
98782	6.75	2.3	0.1	5299.5
98783	6.7	2.45	0.1	5357.7
98784	6.75	2.4	0.1	5384.9
98785	6.7	2.55	0.1	5420.9
98786	6.75	2.5	0.1	5458.8
98787	6.7	2.65	0.1	5472.4
98788	6.75	2.6	0.1	5520.3
98789	6.7	2.75	0.1	5511.5
98790	6.75	2.7	0.1	5568.8
98791	6.7	2.85	0.1	5537.8
98792	6.75	2.8	0.1	5603.7
98793	6.7	2.95	0.1	5551.
98794	6.75	2.9	0.1	5624.7
98795	6.7	3.05	0.1	5551.
98796	6.75	3.	0.1	5631.7
98797	6.7	3.15	0.1	5537.8
98798	6.75	3.1	0.1	5624.7
98799	6.7	3.25	0.1	5511.5
98800	6.75	3.2	0.1	5603.7
98801	6.7	3.35	0.1	5472.4
98802	6.75	3.3	0.1	5568.8
98803	6.7	3.45	0.1	5420.9
98804	6.75	3.4	0.1	5520.3
98805	6.7	3.55	0.1	5357.7
98806	6.75	3.5	0.1	5458.8
98807	6.7	3.65	0.1	5283.4
98808	6.75	3.6	0.1	5384.9
98809	6.7	3.75	0.1	5199.2
98810	6.75	3.7	0.1	5299.5
98811	6.7	3.85	0.1	5106.
98812	6.75	3.8	0.1	5203.7
98813	6.7	3.95	0.1	5005.
98814	6.75	3.9	0.1	5098.8
98815	6.7	4.05	0.1	4897.4
98816	6.75	4.	0.1	4986.
98817	6.7	4.15	0.1	4784.4
98818	6.75	4.1	0.1	4866.6
98819	6.7	4.25	0.1	4667.3
98820	6.75	4.2	0.1	4742.1
98821	6.7	4.35	0.1	4547.5
98822	6.75	4.3	0.1	4613.9
98823	6.7	4.45	0.1	4426.4
98824	6.75	4.4	0.1	4483.6
98825	6.7	4.55	0.1	4305.3
98826	6.75	4.5	0.1	4352.9
98827	6.7	4.65	0.1	4185.9
98828	6.75	4.6	0.1	4223.3
98829	6.7	4.75	0.1	4069.6
98830	6.75	4.7	0.1	4096.4
98831	6.7	4.85	0.1	3957.5
98832	6.75	4.8	0.1	3973.8
98833	6.7	4.95	0.1	3851.
98834	6.75	4.9	0.1	3856.9
98835	6.7	5.05	0.1	3751.
98836	6.75	5.	0.1	3746.6
98837	6.7	5.15	0.1	3658.5
98838	6.75	5.1	0.1	3644.1
98839	6.7	5.25	0.1	3573.9
98840	6.75	5.2	0.1	3550.1
98841	6.7	5.35	0.1	3497.9
98842	6.75	5.3	0.1	3465.1
98843	6.7	5.45	0.1	3430.7
98844	6.75	5.4	0.1	3389.5
98845	6.7	5.55	0.1	3372.5
98846	6.75	5.5	0.1	3323.5
98847	6.7	5.65	0.1	3323.2
98848	6.75	5.6	0.1	3267.2
98849	6.7	5.75	0.1	3282.6
98850	6.75	5.7	0.1	3220.3
98851	6.7	5.85	0.1	3251.2
98852	6.75	5.8	0.1	3182.6
98853	6.75	5.9	0.1	3155.1
98854	6.7	5.95	0.1	3221.7
98855	6.8	0.15	0.1	3086.5
98856	6.85	0.1	0.1	2983.3
98857	6.8	5.e-002	0.1	3053.1
98858	6.8	0.25	0.1	3120.3
98859	6.85	0.2	0.1	3012.4
98860	6.8	0.35	0.1	3164.5
98861	6.85	0.3	0.1	3053.1
98862	6.8	0.45	0.1	3218.6
98863	6.85	0.4	0.1	3104.3
98864	6.8	0.55	0.1	3282.8
98865	6.85	0.5	0.1	3166.2
98866	6.8	0.65	0.1	3357.3
98867	6.85	0.6	0.1	3239.
98868	6.8	0.75	0.1	3442.
98869	6.85	0.7	0.1	3322.9
98870	6.8	0.85	0.1	3536.7
98871	6.85	0.8	0.1	3417.6
98872	6.8	0.95	0.1	3640.7
98873	6.85	0.9	0.1	3522.9
98874	6.8	1.05	0.1	3753.6
98875	6.85	1.	0.1	3638.1
98876	6.8	1.15	0.1	3874.3
98877	6.85	1.1	0.1	3762.5
98878	6.8	1.25	0.1	4001.8
98879	6.85	1.2	0.1	3895.2
98880	6.8	1.35	0.1	4134.8
98881	6.85	1.3	0.1	4034.9
98882	6.8	1.45	0.1	4271.8
98883	6.85	1.4	0.1	4180.
98884	6.8	1.55	0.1	4411.
98885	6.85	1.5	0.1	4329.
98886	6.8	1.65	0.1	4550.8
98887	6.85	1.6	0.1	4479.8
98888	6.8	1.75	0.1	4689.3
98889	6.85	1.7	0.1	4630.4
98890	6.8	1.85	0.1	4824.8
98891	6.85	1.8	0.1	4778.9
98892	6.8	1.95	0.1	4955.6
98893	6.85	1.9	0.1	4923.2
98894	6.8	2.05	0.1	5080.1
98895	6.85	2.	0.1	5061.4
98896	6.8	2.15	0.1	5196.7
98897	6.85	2.1	0.1	5192.
98898	6.8	2.25	0.1	5304.2
98899	6.85	2.2	0.1	5313.1
98900	6.8	2.35	0.1	5401.
98901	6.85	2.3	0.1	5423.2
98902	6.8	2.45	0.1	5485.9
98903	6.85	2.4	0.1	5520.8
98904	6.8	2.55	0.1	5558.
98905	6.85	2.5	0.1	5604.9
98906	6.8	2.65	0.1	5616.4
98907	6.85	2.6	0.1	5674.4
98908	6.8	2.75	0.1	5660.6
98909	6.85	2.7	0.1	5728.8
98910	6.8	2.85	0.1	5690.1
98911	6.85	2.8	0.1	5767.8
98912	6.8	2.95	0.1	5705.
98913	6.85	2.9	0.1	5791.2
98914	6.8	3.05	0.1	5705.
98915	6.85	3.	0.1	5799.
98916	6.8	3.15	0.1	5690.1
98917	6.85	3.1	0.1	5791.2
98918	6.8	3.25	0.1	5660.6
98919	6.85	3.2	0.1	5767.8
98920	6.8	3.35	0.1	5616.4
98921	6.85	3.3	0.1	5728.8
98922	6.8	3.45	0.1	5558.
98923	6.85	3.4	0.1	5674.4
98924	6.8	3.55	0.1	5485.9
98925	6.85	3.5	0.1	5604.9
98926	6.8	3.65	0.1	5401.
98927	6.85	3.6	0.1	5520.8
98928	6.8	3.75	0.1	5304.2
98929	6.85	3.7	0.1	5423.2
98930	6.8	3.85	0.1	5196.7
98931	6.85	3.8	0.1	5313.1
98932	6.8	3.95	0.1	5080.1
98933	6.85	3.9	0.1	5192.
98934	6.8	4.05	0.1	4955.6
98935	6.85	4.	0.1	5061.4
98936	6.8	4.15	0.1	4824.8
98937	6.85	4.1	0.1	4923.2
98938	6.8	4.25	0.1	4689.3
98939	6.85	4.2	0.1	4778.9
98940	6.8	4.35	0.1	4550.8
98941	6.85	4.3	0.1	4630.4
98942	6.8	4.45	0.1	4411.
98943	6.85	4.4	0.1	4479.8
98944	6.8	4.55	0.1	4271.8
98945	6.85	4.5	0.1	4329.
98946	6.8	4.65	0.1	4134.8
98947	6.85	4.6	0.1	4180.
98948	6.8	4.75	0.1	4001.8
98949	6.85	4.7	0.1	4034.9
98950	6.8	4.85	0.1	3874.3
98951	6.85	4.8	0.1	3895.2
98952	6.8	4.95	0.1	3753.6
98953	6.85	4.9	0.1	3762.5
98954	6.8	5.05	0.1	3640.7
98955	6.85	5.	0.1	3638.1
98956	6.8	5.15	0.1	3536.7
98957	6.85	5.1	0.1	3522.9
98958	6.8	5.25	0.1	3442.
98959	6.85	5.2	0.1	3417.6
98960	6.8	5.35	0.1	3357.3
98961	6.85	5.3	0.1	3322.9
98962	6.8	5.45	0.1	3282.8
98963	6.85	5.4	0.1	3239.
98964	6.8	5.55	0.1	3218.6
98965	6.85	5.5	0.1	3166.2
98966	6.8	5.65	0.1	3164.5
98967	6.85	5.6	0.1	3104.3
98968	6.8	5.75	0.1	3120.3
98969	6.85	5.7	0.1	3053.1
98970	6.8	5.85	0.1	3086.5
98971	6.85	5.8	0.1	3012.4
98972	6.85	5.9	0.1	2983.3
98973	6.8	5.95	0.1	3053.1
98974	6.9	0.15	0.1	2909.3
98975	6.95	0.1	0.1	2798.7
98976	6.9	5.e-002	0.1	2871.5
98977	6.9	0.25	0.1	2945.3
98978	6.95	0.2	0.1	2829.3
98979	6.9	0.35	0.1	2993.2
98980	6.95	0.3	0.1	2873.1
98981	6.9	0.45	0.1	3052.3
98982	6.95	0.4	0.1	2928.7
98983	6.9	0.55	0.1	3123.
98984	6.95	0.5	0.1	2996.5
98985	6.9	0.65	0.1	3205.4
98986	6.95	0.6	0.1	3076.7
98987	6.9	0.75	0.1	3299.5
98988	6.95	0.7	0.1	3169.4
98989	6.9	0.85	0.1	3405.
98990	6.95	0.8	0.1	3274.6
98991	6.9	0.95	0.1	3521.6
98992	6.95	0.9	0.1	3392.
98993	6.9	1.05	0.1	3648.5
98994	6.95	1.	0.1	3521.
98995	6.9	1.15	0.1	3785.
98996	6.95	1.1	0.1	3661.
98997	6.9	1.25	0.1	3929.8
98998	6.95	1.2	0.1	3811.
98999	6.9	1.35	0.1	4081.5
99000	6.95	1.3	0.1	3969.8
99001	6.9	1.45	0.1	4238.6
99002	6.95	1.4	0.1	4135.8
99003	6.9	1.55	0.1	4398.9
99004	6.95	1.5	0.1	4307.
99005	6.9	1.65	0.1	4560.4
99006	6.95	1.6	0.1	4481.1
99007	6.9	1.75	0.1	4720.8
99008	6.95	1.7	0.1	4655.7
99009	6.9	1.85	0.1	4877.9
99010	6.95	1.8	0.1	4828.1
99011	6.9	1.95	0.1	5029.5
99012	6.95	1.9	0.1	4995.7
99013	6.9	2.05	0.1	5173.7
99014	6.95	2.	0.1	5156.3
99015	6.9	2.15	0.1	5308.5
99016	6.95	2.1	0.1	5307.5
99017	6.9	2.25	0.1	5432.2
99018	6.95	2.2	0.1	5447.2
99019	6.9	2.35	0.1	5543.
99020	6.95	2.3	0.1	5573.5
99021	6.9	2.45	0.1	5639.7
99022	6.95	2.4	0.1	5684.5
99023	6.9	2.55	0.1	5721.
99024	6.95	2.5	0.1	5779.2
99025	6.9	2.65	0.1	5786.5
99026	6.95	2.6	0.1	5856.7
99027	6.9	2.75	0.1	5835.6
99028	6.95	2.7	0.1	5916.8
99029	6.9	2.85	0.1	5868.3
99030	6.95	2.8	0.1	5959.4
99031	6.9	2.95	0.1	5884.7
99032	6.95	2.9	0.1	5984.9
99033	6.9	3.05	0.1	5884.7
99034	6.95	3.	0.1	5993.3
99035	6.9	3.15	0.1	5868.3
99036	6.95	3.1	0.1	5984.9
99037	6.9	3.25	0.1	5835.6
99038	6.95	3.2	0.1	5959.4
99039	6.9	3.35	0.1	5786.5
99040	6.95	3.3	0.1	5916.8
99041	6.9	3.45	0.1	5721.
99042	6.95	3.4	0.1	5856.7
99043	6.9	3.55	0.1	5639.7
99044	6.95	3.5	0.1	5779.2
99045	6.9	3.65	0.1	5543.
99046	6.95	3.6	0.1	5684.5
99047	6.9	3.75	0.1	5432.2
99048	6.95	3.7	0.1	5573.5
99049	6.9	3.85	0.1	5308.5
99050	6.95	3.8	0.1	5447.2
99051	6.9	3.95	0.1	5173.7
99052	6.95	3.9	0.1	5307.5
99053	6.9	4.05	0.1	5029.5
99054	6.95	4.	0.1	5156.3
99055	6.9	4.15	0.1	4877.9
99056	6.95	4.1	0.1	4995.7
99057	6.9	4.25	0.1	4720.8
99058	6.95	4.2	0.1	4828.
99059	6.9	4.35	0.1	4560.4
99060	6.95	4.3	0.1	4655.6
99061	6.9	4.45	0.1	4398.9
99062	6.95	4.4	0.1	4481.1
99063	6.9	4.55	0.1	4238.6
99064	6.95	4.5	0.1	4307.
99065	6.9	4.65	0.1	4081.5
99066	6.95	4.6	0.1	4135.8
99067	6.9	4.75	0.1	3929.8
99068	6.95	4.7	0.1	3969.8
99069	6.9	4.85	0.1	3785.
99070	6.95	4.8	0.1	3811.
99071	6.9	4.95	0.1	3648.5
99072	6.95	4.9	0.1	3661.
99073	6.9	5.05	0.1	3521.6
99074	6.95	5.	0.1	3521.
99075	6.9	5.15	0.1	3405.
99076	6.95	5.1	0.1	3392.
99077	6.9	5.25	0.1	3299.5
99078	6.95	5.2	0.1	3274.6
99079	6.9	5.35	0.1	3205.4
99080	6.95	5.3	0.1	3169.4
99081	6.9	5.45	0.1	3123.
99082	6.95	5.4	0.1	3076.7
99083	6.9	5.55	0.1	3052.3
99084	6.95	5.5	0.1	2996.5
99085	6.9	5.65	0.1	2993.2
99086	6.95	5.6	0.1	2928.7
99087	6.9	5.75	0.1	2945.3
99088	6.95	5.7	0.1	2873.1
99089	6.9	5.85	0.1	2909.3
99090	6.95	5.8	0.1	2829.3
99091	6.95	5.9	0.1	2798.7
99092	6.9	5.95	0.1	2871.5
99093	7.	0.15	0.1	2718.9
99094	7.05	0.1	0.1	2600.9
99095	7.	5.e-002	0.1	2676.3
99096	7.	0.25	0.1	2757.2
99097	7.05	0.2	0.1	2632.9
99098	7.	0.35	0.1	2809.
99099	7.05	0.3	0.1	2679.9
99100	7.	0.45	0.1	2873.4
99101	7.05	0.4	0.1	2740.2
99102	7.	0.55	0.1	2951.
99103	7.05	0.5	0.1	2814.3
99104	7.	0.65	0.1	3041.8
99105	7.05	0.6	0.1	2902.4
99106	7.	0.75	0.1	3146.
99107	7.05	0.7	0.1	3004.7
99108	7.	0.85	0.1	3263.3
99109	7.05	0.8	0.1	3121.1
99110	7.	0.95	0.1	3393.3
99111	7.05	0.9	0.1	3251.4
99112	7.	1.05	0.1	3535.5
99113	7.05	1.	0.1	3395.2
99114	7.	1.15	0.1	3689.1
99115	7.05	1.1	0.1	3551.9
99116	7.	1.25	0.1	3853.1
99117	7.05	1.2	0.1	3720.9
99118	7.	1.35	0.1	4026.
99119	7.05	1.3	0.1	3900.9
99120	7.	1.45	0.1	4205.9
99121	7.05	1.4	0.1	4090.3
99122	7.	1.55	0.1	4390.7
99123	7.05	1.5	0.1	4287.1
99124	7.	1.65	0.1	4577.7
99125	7.05	1.6	0.1	4488.6
99126	7.	1.75	0.1	4764.
99127	7.05	1.7	0.1	4691.6
99128	7.	1.85	0.1	4946.7
99129	7.05	1.8	0.1	4892.7
99130	7.	1.95	0.1	5123.2
99131	7.05	1.9	0.1	5088.5
99132	7.	2.05	0.1	5290.6
99133	7.05	2.	0.1	5275.7
99134	7.	2.15	0.1	5446.5
99135	7.05	2.1	0.1	5451.3
99136	7.	2.25	0.1	5588.6
99137	7.05	2.2	0.1	5612.5
99138	7.	2.35	0.1	5714.9
99139	7.05	2.3	0.1	5756.6
99140	7.	2.45	0.1	5823.8
99141	7.05	2.4	0.1	5881.9
99142	7.	2.55	0.1	5914.5
99143	7.05	2.5	0.1	5987.
99144	7.	2.65	0.1	5986.5
99145	7.05	2.6	0.1	6071.6
99146	7.	2.75	0.1	6039.9
99147	7.05	2.7	0.1	6136.2
99148	7.	2.85	0.1	6075.2
99149	7.05	2.8	0.1	6181.4
99150	7.	2.95	0.1	6092.8
99151	7.05	2.9	0.1	6208.1
99152	7.	3.05	0.1	6092.8
99153	7.05	3.	0.1	6217.
99154	7.	3.15	0.1	6075.2
99155	7.05	3.1	0.1	6208.1
99156	7.	3.25	0.1	6039.9
99157	7.05	3.2	0.1	6181.4
99158	7.	3.35	0.1	5986.5
99159	7.05	3.3	0.1	6136.2
99160	7.	3.45	0.1	5914.5
99161	7.05	3.4	0.1	6071.6
99162	7.	3.55	0.1	5823.8
99163	7.05	3.5	0.1	5987.
99164	7.	3.65	0.1	5714.9
99165	7.05	3.6	0.1	5881.8
99166	7.	3.75	0.1	5588.6
99167	7.05	3.7	0.1	5756.6
99168	7.	3.85	0.1	5446.5
99169	7.05	3.8	0.1	5612.5
99170	7.	3.95	0.1	5290.6
99171	7.05	3.9	0.1	5451.3
99172	7.	4.05	0.1	5123.2
99173	7.05	4.	0.1	5275.7
99174	7.	4.15	0.1	4946.7
99175	7.05	4.1	0.1	5088.5
99176	7.	4.25	0.1	4764.
99177	7.05	4.2	0.1	4892.7
99178	7.	4.35	0.1	4577.7
99179	7.05	4.3	0.1	4691.6
99180	7.	4.45	0.1	4390.7
99181	7.05	4.4	0.1	4488.6
99182	7.	4.55	0.1	4205.9
99183	7.05	4.5	0.1	4287.1
99184	7.	4.65	0.1	4026.
99185	7.05	4.6	0.1	4090.3
99186	7.	4.75	0.1	3853.1
99187	7.05	4.7	0.1	3900.9
99188	7.	4.85	0.1	3689.1
99189	7.05	4.8	0.1	3720.9
99190	7.	4.95	0.1	3535.5
99191	7.05	4.9	0.1	3551.9
99192	7.	5.05	0.1	3393.3
99193	7.05	5.	0.1	3395.2
99194	7.	5.15	0.1	3263.3
99195	7.05	5.1	0.1	3251.4
99196	7.	5.25	0.1	3146.
99197	7.05	5.2	0.1	3121.1
99198	7.	5.35	0.1	3041.8
99199	7.05	5.3	0.1	3004.7
99200	7.	5.45	0.1	2951.
99201	7.05	5.4	0.1	2902.4
99202	7.	5.55	0.1	2873.4
99203	7.05	5.5	0.1	2814.3
99204	7.	5.65	0.1	2809.
99205	7.05	5.6	0.1	2740.2
99206	7.	5.75	0.1	2757.2
99207	7.05	5.7	0.1	2679.9
99208	7.	5.85	0.1	2718.9
99209	7.05	5.8	0.1	2632.9
99210	7.05	5.9	0.1	2600.9
99211	7.	5.95	0.1	2676.3
99212	7.1	0.15	0.1	2515.1
99213	7.15	0.1	0.1	2389.8
99214	7.1	5.e-002	0.1	2467.2
99215	7.1	0.25	0.1	2555.8
99216	7.15	0.2	0.1	2423.
99217	7.1	0.35	0.1	2611.6
99218	7.15	0.3	0.1	2473.5
99219	7.1	0.45	0.1	2681.8
99220	7.15	0.4	0.1	2538.9
99221	7.1	0.55	0.1	2766.8
99222	7.15	0.5	0.1	2619.9
99223	7.1	0.65	0.1	2866.8
99224	7.15	0.6	0.1	2716.6
99225	7.1	0.75	0.1	2981.7
99226	7.15	0.7	0.1	2829.1
99227	7.1	0.85	0.1	3111.4
99228	7.15	0.8	0.1	2957.4
99229	7.1	0.95	0.1	3255.8
99230	7.15	0.9	0.1	3101.3
99231	7.1	1.05	0.1	3414.3
99232	7.15	1.	0.1	3260.6
99233	7.1	1.15	0.1	3586.4
99234	7.15	1.1	0.1	3435.1
99235	7.1	1.25	0.1	3771.4
99236	7.15	1.2	0.1	3624.4
99237	7.1	1.35	0.1	3967.9
99238	7.15	1.3	0.1	3827.6
99239	7.1	1.45	0.1	4173.9
99240	7.15	1.4	0.1	4043.4
99241	7.1	1.55	0.1	4387.1
99242	7.15	1.5	0.1	4269.7
99243	7.1	1.65	0.1	4604.2
99244	7.15	1.6	0.1	4503.4
99245	7.1	1.75	0.1	4821.6
99246	7.15	1.7	0.1	4740.5
99247	7.1	1.85	0.1	5035.4
99248	7.15	1.8	0.1	4976.6
99249	7.1	1.95	0.1	5241.8
99250	7.15	1.9	0.1	5206.9
99251	7.1	2.05	0.1	5436.9
99252	7.15	2.	0.1	5426.6
99253	7.1	2.15	0.1	5617.6
99254	7.15	2.1	0.1	5631.5
99255	7.1	2.25	0.1	5780.5
99256	7.15	2.2	0.1	5817.5
99257	7.1	2.35	0.1	5923.4
99258	7.15	2.3	0.1	5981.2
99259	7.1	2.45	0.1	6044.6
99260	7.15	2.4	0.1	6120.5
99261	7.1	2.55	0.1	6143.5
99262	7.15	2.5	0.1	6234.5
99263	7.1	2.65	0.1	6220.6
99264	7.15	2.6	0.1	6324.1
99265	7.1	2.75	0.1	6276.8
99266	7.15	2.7	0.1	6390.7
99267	7.1	2.85	0.1	6313.4
99268	7.15	2.8	0.1	6436.3
99269	7.1	2.95	0.1	6331.4
99270	7.15	2.9	0.1	6462.9
99271	7.1	3.05	0.1	6331.4
99272	7.15	3.	0.1	6471.6
99273	7.1	3.15	0.1	6313.4
99274	7.15	3.1	0.1	6462.9
99275	7.1	3.25	0.1	6276.8
99276	7.15	3.2	0.1	6436.3
99277	7.1	3.35	0.1	6220.6
99278	7.15	3.3	0.1	6390.7
99279	7.1	3.45	0.1	6143.5
99280	7.15	3.4	0.1	6324.1
99281	7.1	3.55	0.1	6044.6
99282	7.15	3.5	0.1	6234.5
99283	7.1	3.65	0.1	5923.4
99284	7.15	3.6	0.1	6120.5
99285	7.1	3.75	0.1	5780.5
99286	7.15	3.7	0.1	5981.2
99287	7.1	3.85	0.1	5617.6
99288	7.15	3.8	0.1	5817.5
99289	7.1	3.95	0.1	5436.9
99290	7.15	3.9	0.1	5631.5
99291	7.1	4.05	0.1	5241.7
99292	7.15	4.	0.1	5426.6
99293	7.1	4.15	0.1	5035.4
99294	7.15	4.1	0.1	5206.9
99295	7.1	4.25	0.1	4821.6
99296	7.15	4.2	0.1	4976.6
99297	7.1	4.35	0.1	4604.2
99298	7.15	4.3	0.1	4740.5
99299	7.1	4.45	0.1	4387.1
99300	7.15	4.4	0.1	4503.4
99301	7.1	4.55	0.1	4173.9
99302	7.15	4.5	0.1	4269.7
99303	7.1	4.65	0.1	3967.8
99304	7.15	4.6	0.1	4043.4
99305	7.1	4.75	0.1	3771.4
99306	7.15	4.7	0.1	3827.6
99307	7.1	4.85	0.1	3586.4
99308	7.15	4.8	0.1	3624.4
99309	7.1	4.95	0.1	3414.3
99310	7.15	4.9	0.1	3435.1
99311	7.1	5.05	0.1	3255.8
99312	7.15	5.	0.1	3260.6
99313	7.1	5.15	0.1	3111.4
99314	7.15	5.1	0.1	3101.3
99315	7.1	5.25	0.1	2981.7
99316	7.15	5.2	0.1	2957.4
99317	7.1	5.35	0.1	2866.8
99318	7.15	5.3	0.1	2829.1
99319	7.1	5.45	0.1	2766.8
99320	7.15	5.4	0.1	2716.6
99321	7.1	5.55	0.1	2681.8
99322	7.15	5.5	0.1	2619.9
99323	7.1	5.65	0.1	2611.6
99324	7.15	5.6	0.1	2538.9
99325	7.1	5.75	0.1	2555.8
99326	7.15	5.7	0.1	2473.5
99327	7.1	5.85	0.1	2515.1
99328	7.15	5.8	0.1	2423.
99329	7.15	5.9	0.1	2389.8
99330	7.1	5.95	0.1	2467.2
99331	7.2	0.15	0.1	2297.9
99332	7.25	0.1	0.1	2165.2
99333	7.2	5.e-002	0.1	2244.1
99334	7.2	0.25	0.1	2340.9
99335	7.25	0.2	0.1	2199.8
99336	7.2	0.35	0.1	2401.4
99337	7.25	0.3	0.1	2254.2
99338	7.2	0.45	0.1	2478.
99339	7.25	0.4	0.1	2325.6
99340	7.2	0.55	0.1	2571.2
99341	7.25	0.5	0.1	2414.4
99342	7.2	0.65	0.1	2681.
99343	7.25	0.6	0.1	2520.6
99344	7.2	0.75	0.1	2807.4
99345	7.25	0.7	0.1	2644.1
99346	7.2	0.85	0.1	2950.3
99347	7.25	0.8	0.1	2784.9
99348	7.2	0.95	0.1	3109.5
99349	7.25	0.9	0.1	2942.8
99350	7.2	1.05	0.1	3285.
99351	7.25	1.	0.1	3117.9
99352	7.2	1.15	0.1	3476.7
99353	7.25	1.1	0.1	3310.7
99354	7.2	1.25	0.1	3684.2
99355	7.25	1.2	0.1	3521.2
99356	7.2	1.35	0.1	3906.7
99357	7.25	1.3	0.1	3749.2
99358	7.2	1.45	0.1	4142.4
99359	7.25	1.4	0.1	3994.2
99360	7.2	1.55	0.1	4388.7
99361	7.25	1.5	0.1	4254.3
99362	7.2	1.65	0.1	4641.9
99363	7.25	1.6	0.1	4526.2
99364	7.2	1.75	0.1	4897.3
99365	7.25	1.7	0.1	4805.2
99366	7.2	1.85	0.1	5149.3
99367	7.25	1.8	0.1	5085.1
99368	7.2	1.95	0.1	5392.6
99369	7.25	1.9	0.1	5358.8
99370	7.2	2.05	0.1	5621.7
99371	7.25	2.	0.1	5619.3
99372	7.2	2.15	0.1	5831.6
99373	7.25	2.1	0.1	5860.
99374	7.2	2.25	0.1	6018.
99375	7.25	2.2	0.1	6074.7
99376	7.2	2.35	0.1	6177.8
99377	7.25	2.3	0.1	6258.9
99378	7.2	2.45	0.1	6309.8
99379	7.25	2.4	0.1	6410.3
99380	7.2	2.55	0.1	6414.2
99381	7.25	2.5	0.1	6529.6
99382	7.2	2.65	0.1	6493.1
99383	7.25	2.6	0.1	6619.2
99384	7.2	2.75	0.1	6549.
99385	7.25	2.7	0.1	6683.2
99386	7.2	2.85	0.1	6584.6
99387	7.25	2.8	0.1	6725.6
99388	7.2	2.95	0.1	6601.8
99389	7.25	2.9	0.1	6749.5
99390	7.2	3.05	0.1	6601.8
99391	7.25	3.	0.1	6757.3
99392	7.2	3.15	0.1	6584.6
99393	7.25	3.1	0.1	6749.5
99394	7.2	3.25	0.1	6549.
99395	7.25	3.2	0.1	6725.6
99396	7.2	3.35	0.1	6493.1
99397	7.25	3.3	0.1	6683.2
99398	7.2	3.45	0.1	6414.2
99399	7.25	3.4	0.1	6619.2
99400	7.2	3.55	0.1	6309.8
99401	7.25	3.5	0.1	6529.6
99402	7.2	3.65	0.1	6177.8
99403	7.25	3.6	0.1	6410.3
99404	7.2	3.75	0.1	6018.
99405	7.25	3.7	0.1	6258.9
99406	7.2	3.85	0.1	5831.6
99407	7.25	3.8	0.1	6074.7
99408	7.2	3.95	0.1	5621.7
99409	7.25	3.9	0.1	5860.
99410	7.2	4.05	0.1	5392.6
99411	7.25	4.	0.1	5619.3
99412	7.2	4.15	0.1	5149.3
99413	7.25	4.1	0.1	5358.8
99414	7.2	4.25	0.1	4897.3
99415	7.25	4.2	0.1	5085.1
99416	7.2	4.35	0.1	4641.9
99417	7.25	4.3	0.1	4805.2
99418	7.2	4.45	0.1	4388.7
99419	7.25	4.4	0.1	4526.2
99420	7.2	4.55	0.1	4142.4
99421	7.25	4.5	0.1	4254.3
99422	7.2	4.65	0.1	3906.7
99423	7.25	4.6	0.1	3994.2
99424	7.2	4.75	0.1	3684.2
99425	7.25	4.7	0.1	3749.2
99426	7.2	4.85	0.1	3476.7
99427	7.25	4.8	0.1	3521.1
99428	7.2	4.95	0.1	3285.
99429	7.25	4.9	0.1	3310.7
99430	7.2	5.05	0.1	3109.5
99431	7.25	5.	0.1	3117.9
99432	7.2	5.15	0.1	2950.3
99433	7.25	5.1	0.1	2942.8
99434	7.2	5.25	0.1	2807.4
99435	7.25	5.2	0.1	2784.9
99436	7.2	5.35	0.1	2681.
99437	7.25	5.3	0.1	2644.1
99438	7.2	5.45	0.1	2571.2
99439	7.25	5.4	0.1	2520.6
99440	7.2	5.55	0.1	2478.
99441	7.25	5.5	0.1	2414.4
99442	7.2	5.65	0.1	2401.4
99443	7.25	5.6	0.1	2325.6
99444	7.2	5.75	0.1	2340.9
99445	7.25	5.7	0.1	2254.2
99446	7.2	5.85	0.1	2297.9
99447	7.25	5.8	0.1	2199.8
99448	7.25	5.9	0.1	2165.2
99449	7.2	5.95	0.1	2244.1
99450	7.3	0.15	0.1	2067.4
99451	7.35	0.1	0.1	1927.5
99452	7.3	5.e-002	0.1	2007.2
99453	7.3	0.25	0.1	2113.3
99454	7.35	0.2	0.1	1963.8
99455	7.3	0.35	0.1	2179.1
99456	7.35	0.3	0.1	2023.1
99457	7.3	0.45	0.1	2263.3
99458	7.35	0.4	0.1	2101.8
99459	7.3	0.55	0.1	2365.8
99460	7.35	0.5	0.1	2199.8
99461	7.3	0.65	0.1	2486.5
99462	7.35	0.6	0.1	2316.8
99463	7.3	0.75	0.1	2625.
99464	7.35	0.7	0.1	2452.2
99465	7.3	0.85	0.1	2781.3
99466	7.35	0.8	0.1	2605.8
99467	7.3	0.95	0.1	2955.6
99468	7.35	0.9	0.1	2777.7
99469	7.3	1.05	0.1	3148.4
99470	7.35	1.	0.1	2968.5
99471	7.3	1.15	0.1	3360.
99472	7.35	1.1	0.1	3179.2
99473	7.3	1.25	0.1	3591.1
99474	7.35	1.2	0.1	3410.9
99475	7.3	1.35	0.1	3841.5
99476	7.35	1.3	0.1	3664.7
99477	7.3	1.45	0.1	4110.4
99478	7.35	1.4	0.1	3941.2
99479	7.3	1.55	0.1	4395.5
99480	7.35	1.5	0.1	4239.6
99481	7.3	1.65	0.1	4692.5
99482	7.35	1.6	0.1	4557.2
99483	7.3	1.75	0.1	4995.2
99484	7.35	1.7	0.1	4888.4
99485	7.3	1.85	0.1	5296.
99486	7.35	1.8	0.1	5224.7
99487	7.3	1.95	0.1	5586.4
99488	7.35	1.9	0.1	5555.5
99489	7.3	2.05	0.1	5858.
99490	7.35	2.	0.1	5869.3
99491	7.3	2.15	0.1	6103.
99492	7.35	2.1	0.1	6155.
99493	7.3	2.25	0.1	6315.2
99494	7.35	2.2	0.1	6402.8
99495	7.3	2.35	0.1	6490.6
99496	7.35	2.3	0.1	6606.4
99497	7.3	2.45	0.1	6629.1
99498	7.35	2.4	0.1	6764.6
99499	7.3	2.55	0.1	6733.3
99500	7.35	2.5	0.1	6880.8
99501	7.3	2.65	0.1	6807.9
99502	7.35	2.6	0.1	6961.9
99503	7.3	2.75	0.1	6858.3
99504	7.35	2.7	0.1	7015.5
99505	7.3	2.85	0.1	6889.
99506	7.35	2.8	0.1	7048.5
99507	7.3	2.95	0.1	6903.4
99508	7.35	2.9	0.1	7066.2
99509	7.3	3.05	0.1	6903.4
99510	7.35	3.	0.1	7071.7
99511	7.3	3.15	0.1	6889.
99512	7.35	3.1	0.1	7066.2
99513	7.3	3.25	0.1	6858.3
99514	7.35	3.2	0.1	7048.5
99515	7.3	3.35	0.1	6807.9
99516	7.35	3.3	0.1	7015.5
99517	7.3	3.45	0.1	6733.3
99518	7.35	3.4	0.1	6961.9
99519	7.3	3.55	0.1	6629.1
99520	7.35	3.5	0.1	6880.8
99521	7.3	3.65	0.1	6490.6
99522	7.35	3.6	0.1	6764.6
99523	7.3	3.75	0.1	6315.1
99524	7.35	3.7	0.1	6606.4
99525	7.3	3.85	0.1	6103.
99526	7.35	3.8	0.1	6402.8
99527	7.3	3.95	0.1	5858.
99528	7.35	3.9	0.1	6155.
99529	7.3	4.05	0.1	5586.4
99530	7.35	4.	0.1	5869.3
99531	7.3	4.15	0.1	5296.
99532	7.35	4.1	0.1	5555.5
99533	7.3	4.25	0.1	4995.2
99534	7.35	4.2	0.1	5224.7
99535	7.3	4.35	0.1	4692.5
99536	7.35	4.3	0.1	4888.4
99537	7.3	4.45	0.1	4395.5
99538	7.35	4.4	0.1	4557.2
99539	7.3	4.55	0.1	4110.4
99540	7.35	4.5	0.1	4239.6
99541	7.3	4.65	0.1	3841.5
99542	7.35	4.6	0.1	3941.2
99543	7.3	4.75	0.1	3591.1
99544	7.35	4.7	0.1	3664.7
99545	7.3	4.85	0.1	3360.
99546	7.35	4.8	0.1	3410.9
99547	7.3	4.95	0.1	3148.3
99548	7.35	4.9	0.1	3179.2
99549	7.3	5.05	0.1	2955.6
99550	7.35	5.	0.1	2968.5
99551	7.3	5.15	0.1	2781.3
99552	7.35	5.1	0.1	2777.7
99553	7.3	5.25	0.1	2625.
99554	7.35	5.2	0.1	2605.8
99555	7.3	5.35	0.1	2486.5
99556	7.35	5.3	0.1	2452.2
99557	7.3	5.45	0.1	2365.8
99558	7.35	5.4	0.1	2316.8
99559	7.3	5.55	0.1	2263.3
99560	7.35	5.5	0.1	2199.8
99561	7.3	5.65	0.1	2179.1
99562	7.35	5.6	0.1	2101.8
99563	7.3	5.75	0.1	2113.3
99564	7.35	5.7	0.1	2023.1
99565	7.3	5.85	0.1	2067.4
99566	7.35	5.8	0.1	1963.8
99567	7.35	5.9	0.1	1927.5
99568	7.3	5.95	0.1	2007.2
99569	7.4	0.15	0.1	1824.2
99570	7.45	0.1	0.1	1677.1
99571	7.4	5.e-002	0.1	1756.6
99572	7.4	0.25	0.1	1873.9
99573	7.45	0.2	0.1	1716.
99574	7.4	0.35	0.1	1946.8
99575	7.45	0.3	0.1	1782.2
99576	7.4	0.45	0.1	2040.3
99577	7.45	0.4	0.1	1870.6
99578	7.4	0.55	0.1	2153.8
99579	7.45	0.5	0.1	1980.2
99580	7.4	0.65	0.1	2286.4
99581	7.45	0.6	0.1	2109.5
99582	7.4	0.75	0.1	2437.6
99583	7.45	0.7	0.1	2257.6
99584	7.4	0.85	0.1	2607.4
99585	7.45	0.8	0.1	2424.1
99586	7.4	0.95	0.1	2796.4
99587	7.45	0.9	0.1	2609.4
99588	7.4	1.05	0.1	3005.6
99589	7.45	1.	0.1	2814.7
99590	7.4	1.15	0.1	3236.5
99591	7.45	1.1	0.1	3041.8
99592	7.4	1.25	0.1	3491.1
99593	7.45	1.2	0.1	3293.5
99594	7.4	1.35	0.1	3770.7
99595	7.45	1.3	0.1	3572.4
99596	7.4	1.45	0.1	4076.1
99597	7.45	1.4	0.1	3881.3
99598	7.4	1.55	0.1	4406.2
99599	7.45	1.5	0.1	4222.1
99600	7.4	1.65	0.1	4757.
99601	7.45	1.6	0.1	4593.9
99602	7.4	1.75	0.1	5120.6
99603	7.45	1.7	0.1	4991.7
99604	7.4	1.85	0.1	5485.9
99605	7.45	1.8	0.1	5404.1
99606	7.4	1.95	0.1	5839.2
99607	7.45	1.9	0.1	5814.1
99608	7.4	2.05	0.1	6166.4
99609	7.45	2.	0.1	6201.6
99610	7.4	2.15	0.1	6454.3
99611	7.45	2.1	0.1	6546.2
99612	7.4	2.25	0.1	6693.1
99613	7.45	2.2	0.1	6831.2
99614	7.4	2.35	0.1	6879.
99615	7.45	2.3	0.1	7048.1
99616	7.4	2.45	0.1	7014.6
99617	7.45	2.4	0.1	7199.7
99618	7.4	2.55	0.1	7107.6
99619	7.45	2.5	0.1	7297.3
99620	7.4	2.65	0.1	7167.6
99621	7.45	2.6	0.1	7354.9
99622	7.4	2.75	0.1	7203.9
99623	7.45	2.7	0.1	7386.
99624	7.4	2.85	0.1	7223.9
99625	7.45	2.8	0.1	7401.1
99626	7.4	2.95	0.1	7232.7
99627	7.45	2.9	0.1	7407.4
99628	7.4	3.05	0.1	7232.7
99629	7.45	3.	0.1	7409.
99630	7.4	3.15	0.1	7223.9
99631	7.45	3.1	0.1	7407.4
99632	7.4	3.25	0.1	7203.9
99633	7.45	3.2	0.1	7401.1
99634	7.4	3.35	0.1	7167.6
99635	7.45	3.3	0.1	7386.
99636	7.4	3.45	0.1	7107.6
99637	7.45	3.4	0.1	7354.9
99638	7.4	3.55	0.1	7014.6
99639	7.45	3.5	0.1	7297.2
99640	7.4	3.65	0.1	6879.
99641	7.45	3.6	0.1	7199.7
99642	7.4	3.75	0.1	6693.1
99643	7.45	3.7	0.1	7048.1
99644	7.4	3.85	0.1	6454.3
99645	7.45	3.8	0.1	6831.2
99646	7.4	3.95	0.1	6166.4
99647	7.45	3.9	0.1	6546.2
99648	7.4	4.05	0.1	5839.2
99649	7.45	4.	0.1	6201.6
99650	7.4	4.15	0.1	5485.9
99651	7.45	4.1	0.1	5814.1
99652	7.4	4.25	0.1	5120.6
99653	7.45	4.2	0.1	5404.1
99654	7.4	4.35	0.1	4757.
99655	7.45	4.3	0.1	4991.7
99656	7.4	4.45	0.1	4406.2
99657	7.45	4.4	0.1	4593.9
99658	7.4	4.55	0.1	4076.1
99659	7.45	4.5	0.1	4222.1
99660	7.4	4.65	0.1	3770.7
99661	7.45	4.6	0.1	3881.3
99662	7.4	4.75	0.1	3491.1
99663	7.45	4.7	0.1	3572.4
99664	7.4	4.85	0.1	3236.5
99665	7.45	4.8	0.1	3293.5
99666	7.4	4.95	0.1	3005.6
99667	7.45	4.9	0.1	3041.8
99668	7.4	5.05	0.1	2796.4
99669	7.45	5.	0.1	2814.7
99670	7.4	5.15	0.1	2607.4
99671	7.45	5.1	0.1	2609.4
99672	7.4	5.25	0.1	2437.6
99673	7.45	5.2	0.1	2424.1
99674	7.4	5.35	0.1	2286.4
99675	7.45	5.3	0.1	2257.6
99676	7.4	5.45	0.1	2153.8
99677	7.45	5.4	0.1	2109.5
99678	7.4	5.55	0.1	2040.3
99679	7.45	5.5	0.1	1980.2
99680	7.4	5.65	0.1	1946.8
99681	7.45	5.6	0.1	1870.6
99682	7.4	5.75	0.1	1873.9
99683	7.45	5.7	0.1	1782.2
99684	7.4	5.85	0.1	1824.2
99685	7.45	5.8	0.1	1716.
99686	7.45	5.9	0.1	1677.1
99687	7.4	5.95	0.1	1756.6
99688	7.5	0.15	0.1	1569.2
99689	7.55	0.1	0.1	1414.6
99690	7.5	5.e-002	0.1	1493.1
99691	7.5	0.25	0.1	1624.9
99692	7.55	0.2	0.1	1458.7
99693	7.5	0.35	0.1	1707.8
99694	7.55	0.3	0.1	1535.5
99695	7.5	0.45	0.1	1813.6
99696	7.55	0.4	0.1	1637.6
99697	7.5	0.55	0.1	1940.2
99698	7.55	0.5	0.1	1761.8
99699	7.5	0.65	0.1	2086.1
99700	7.55	0.6	0.1	1905.3
99701	7.5	0.75	0.1	2250.2
99702	7.55	0.7	0.1	2066.5
99703	7.5	0.85	0.1	2432.8
99704	7.55	0.8	0.1	2245.2
99705	7.5	0.95	0.1	2635.
99706	7.55	0.9	0.1	2442.2
99707	7.5	1.05	0.1	2858.7
99708	7.55	1.	0.1	2659.6
99709	7.5	1.15	0.1	3106.9
99710	7.55	1.1	0.1	2900.3
99711	7.5	1.25	0.1	3383.1
99712	7.55	1.2	0.1	3168.6
99713	7.5	1.35	0.1	3691.3
99714	7.55	1.3	0.1	3469.7
99715	7.5	1.45	0.1	4035.2
99716	7.55	1.4	0.1	3809.7
99717	7.5	1.55	0.1	4416.8
99718	7.55	1.5	0.1	4194.8
99719	7.5	1.65	0.1	4834.1
99720	7.55	1.6	0.1	4629.6
99721	7.5	1.75	0.1	5278.7
99722	7.55	1.7	0.1	5113.1
99723	7.5	1.85	0.1	5734.
99724	7.55	1.8	0.1	5633.3
99725	7.5	1.95	0.1	6176.8
99726	7.55	1.9	0.1	6162.5
99727	7.5	2.05	0.1	6580.8
99728	7.55	2.	0.1	6660.5
99729	7.5	2.15	0.1	6921.7
99730	7.55	2.1	0.1	7086.
99731	7.5	2.25	0.1	7184.
99732	7.55	2.2	0.1	7407.4
99733	7.5	2.35	0.1	7366.3
99734	7.55	2.3	0.1	7618.3
99735	7.5	2.45	0.1	7479.8
99736	7.55	2.4	0.1	7734.8
99737	7.5	2.55	0.1	7542.
99738	7.55	2.5	0.1	7785.3
99739	7.5	2.65	0.1	7570.9
99740	7.55	2.6	0.1	7796.1
99741	7.5	2.75	0.1	7581.
99742	7.55	2.7	0.1	7787.8
99743	7.5	2.85	0.1	7582.5
99744	7.55	2.8	0.1	7773.8
99745	7.5	2.95	0.1	7581.8
99746	7.55	2.9	0.1	7762.5
99747	7.5	3.05	0.1	7581.8
99748	7.55	3.	0.1	7758.3
99749	7.5	3.15	0.1	7582.5
99750	7.55	3.1	0.1	7762.5
99751	7.5	3.25	0.1	7581.
99752	7.55	3.2	0.1	7773.8
99753	7.5	3.35	0.1	7570.9
99754	7.55	3.3	0.1	7787.8
99755	7.5	3.45	0.1	7542.
99756	7.55	3.4	0.1	7796.1
99757	7.5	3.55	0.1	7479.8
99758	7.55	3.5	0.1	7785.2
99759	7.5	3.65	0.1	7366.3
99760	7.55	3.6	0.1	7734.8
99761	7.5	3.75	0.1	7184.
99762	7.55	3.7	0.1	7618.3
99763	7.5	3.85	0.1	6921.7
99764	7.55	3.8	0.1	7407.4
99765	7.5	3.95	0.1	6580.8
99766	7.55	3.9	0.1	7086.
99767	7.5	4.05	0.1	6176.8
99768	7.55	4.	0.1	6660.5
99769	7.5	4.15	0.1	5734.
99770	7.55	4.1	0.1	6162.5
99771	7.5	4.25	0.1	5278.7
99772	7.55	4.2	0.1	5633.3
99773	7.5	4.35	0.1	4834.1
99774	7.55	4.3	0.1	5113.1
99775	7.5	4.45	0.1	4416.8
99776	7.55	4.4	0.1	4629.6
99777	7.5	4.55	0.1	4035.2
99778	7.55	4.5	0.1	4194.8
99779	7.5	4.65	0.1	3691.3
99780	7.55	4.6	0.1	3809.7
99781	7.5	4.75	0.1	3383.1
99782	7.55	4.7	0.1	3469.7
99783	7.5	4.85	0.1	3106.9
99784	7.55	4.8	0.1	3168.6
99785	7.5	4.95	0.1	2858.7
99786	7.55	4.9	0.1	2900.3
99787	7.5	5.05	0.1	2635.
99788	7.55	5.	0.1	2659.6
99789	7.5	5.15	0.1	2432.8
99790	7.55	5.1	0.1	2442.2
99791	7.5	5.25	0.1	2250.2
99792	7.55	5.2	0.1	2245.2
99793	7.5	5.35	0.1	2086.1
99794	7.55	5.3	0.1	2066.5
99795	7.5	5.45	0.1	1940.2
99796	7.55	5.4	0.1	1905.3
99797	7.5	5.55	0.1	1813.6
99798	7.55	5.5	0.1	1761.8
99799	7.5	5.65	0.1	1707.8
99800	7.55	5.6	0.1	1637.6
99801	7.5	5.75	0.1	1624.9
99802	7.55	5.7	0.1	1535.5
99803	7.5	5.85	0.1	1569.2
99804	7.55	5.8	0.1	1458.7
99805	7.55	5.9	0.1	1414.6
99806	7.5	5.95	0.1	1493.1
99807	7.6	0.15	0.1	1304.3
99808	7.65	0.1	0.1	1141.
99809	7.6	5.e-002	0.1	1217.3
99810	7.6	0.25	0.1	1370.4
99811	7.65	0.2	0.1	1195.8
99812	7.6	0.35	0.1	1468.4
99813	7.65	0.3	0.1	1290.5
99814	7.6	0.45	0.1	1590.7
99815	7.65	0.4	0.1	1412.2
99816	7.6	0.55	0.1	1733.1
99817	7.65	0.5	0.1	1554.4
99818	7.6	0.65	0.1	1893.
99819	7.65	0.6	0.1	1713.3
99820	7.6	0.75	0.1	2069.4
99821	7.65	0.7	0.1	1887.
99822	7.6	0.85	0.1	2263.1
99823	7.65	0.8	0.1	2076.
99824	7.6	0.95	0.1	2475.8
99825	7.65	0.9	0.1	2281.9
99826	7.6	1.05	0.1	2710.7
99827	7.65	1.	0.1	2507.5
99828	7.6	1.15	0.1	2972.
99829	7.65	1.1	0.1	2757.2
99830	7.6	1.25	0.1	3265.7
99831	7.65	1.2	0.1	3036.7
99832	7.6	1.35	0.1	3598.9
99833	7.65	1.3	0.1	3353.9
99834	7.6	1.45	0.1	3980.
99835	7.65	1.4	0.1	3719.
99836	7.6	1.55	0.1	4417.6
99837	7.65	1.5	0.1	4145.
99838	7.6	1.65	0.1	4916.7
99839	7.65	1.6	0.1	4647.
99840	7.6	1.75	0.1	5472.7
99841	7.65	1.7	0.1	5239.4
99842	7.6	1.85	0.1	6063.3
99843	7.65	1.8	0.1	5920.9
99844	7.6	1.95	0.1	6645.1
99845	7.65	1.9	0.1	6647.5
99846	7.6	2.05	0.1	7163.1
99847	7.65	2.	0.1	7334.9
99848	7.6	2.15	0.1	7568.1
99849	7.65	2.1	0.1	7872.8
99850	7.6	2.25	0.1	7837.5
99851	7.65	2.2	0.1	8214.1
99852	7.6	2.35	0.1	7982.7
99853	7.65	2.3	0.1	8362.8
99854	7.6	2.45	0.1	8036.6
99855	7.65	2.4	0.1	8385.4
99856	7.6	2.55	0.1	8036.2
99857	7.65	2.5	0.1	8341.9
99858	7.6	2.65	0.1	8010.3
99859	7.65	2.6	0.1	8273.8
99860	7.6	2.75	0.1	7978.2
99861	7.65	2.7	0.1	8205.2
99862	7.6	2.85	0.1	7951.7
99863	7.65	2.8	0.1	8149.8
99864	7.6	2.95	0.1	7937.
99865	7.65	2.9	0.1	8114.5
99866	7.6	3.05	0.1	7937.
99867	7.65	3.	0.1	8102.4
99868	7.6	3.15	0.1	7951.7
99869	7.65	3.1	0.1	8114.5
99870	7.6	3.25	0.1	7978.2
99871	7.65	3.2	0.1	8149.8
99872	7.6	3.35	0.1	8010.3
99873	7.65	3.3	0.1	8205.2
99874	7.6	3.45	0.1	8036.2
99875	7.65	3.4	0.1	8273.8
99876	7.6	3.55	0.1	8036.6
99877	7.65	3.5	0.1	8341.9
99878	7.6	3.65	0.1	7982.7
99879	7.65	3.6	0.1	8385.4
99880	7.6	3.75	0.1	7837.5
99881	7.65	3.7	0.1	8362.8
99882	7.6	3.85	0.1	7568.1
99883	7.65	3.8	0.1	8214.1
99884	7.6	3.95	0.1	7163.1
99885	7.65	3.9	0.1	7872.8
99886	7.6	4.05	0.1	6645.1
99887	7.65	4.	0.1	7334.9
99888	7.6	4.15	0.1	6063.2
99889	7.65	4.1	0.1	6647.5
99890	7.6	4.25	0.1	5472.7
99891	7.65	4.2	0.1	5920.9
99892	7.6	4.35	0.1	4916.7
99893	7.65	4.3	0.1	5239.4
99894	7.6	4.45	0.1	4417.6
99895	7.65	4.4	0.1	4647.
99896	7.6	4.55	0.1	3980.
99897	7.65	4.5	0.1	4145.
99898	7.6	4.65	0.1	3598.9
99899	7.65	4.6	0.1	3719.
99900	7.6	4.75	0.1	3265.7
99901	7.65	4.7	0.1	3353.9
99902	7.6	4.85	0.1	2972.
99903	7.65	4.8	0.1	3036.7
99904	7.6	4.95	0.1	2710.7
99905	7.65	4.9	0.1	2757.2
99906	7.6	5.05	0.1	2475.8
99907	7.65	5.	0.1	2507.5
99908	7.6	5.15	0.1	2263.1
99909	7.65	5.1	0.1	2281.9
99910	7.6	5.25	0.1	2069.4
99911	7.65	5.2	0.1	2076.
99912	7.6	5.35	0.1	1893.
99913	7.65	5.3	0.1	1887.
99914	7.6	5.45	0.1	1733.1
99915	7.65	5.4	0.1	1713.3
99916	7.6	5.55	0.1	1590.7
99917	7.65	5.5	0.1	1554.4
99918	7.6	5.65	0.1	1468.4
99919	7.65	5.6	0.1	1412.2
99920	7.6	5.75	0.1	1370.4
99921	7.65	5.7	0.1	1290.5
99922	7.6	5.85	0.1	1304.3
99923	7.65	5.8	0.1	1195.8
99924	7.65	5.9	0.1	1141.
99925	7.6	5.95	0.1	1217.3
99926	7.7	0.15	0.1	1033.
99927	7.75	0.1	0.1	857.97
99928	7.7	5.e-002	0.1	930.
99929	7.7	0.25	0.1	1118.7
99930	7.75	0.2	0.1	936.84
99931	7.7	0.35	0.1	1240.1
99932	7.75	0.3	0.1	1061.7
99933	7.7	0.45	0.1	1383.8
99934	7.75	0.4	0.1	1209.7
99935	7.7	0.55	0.1	1543.5
99936	7.75	0.5	0.1	1372.
99937	7.7	0.65	0.1	1716.8
99938	7.75	0.6	0.1	1545.3
99939	7.7	0.75	0.1	1903.5
99940	7.75	0.7	0.1	1729.1
99941	7.7	0.85	0.1	2105.
99942	7.75	0.8	0.1	1925.
99943	7.7	0.95	0.1	2324.2
99944	7.75	0.9	0.1	2135.6
99945	7.7	1.05	0.1	2565.2
99946	7.75	1.	0.1	2364.5
99947	7.7	1.15	0.1	2833.7
99948	7.75	1.1	0.1	2617.
99949	7.7	1.25	0.1	3137.6
99950	7.75	1.2	0.1	2900.1
99951	7.7	1.35	0.1	3487.7
99952	7.75	1.3	0.1	3223.8
99953	7.7	1.45	0.1	3898.7
99954	7.75	1.4	0.1	3602.1
99955	7.7	1.55	0.1	4389.5
99956	7.75	1.5	0.1	4055.6
99957	7.7	1.65	0.1	4983.3
99958	7.75	1.6	0.1	4614.8
99959	7.7	1.75	0.1	5696.5
99960	7.75	1.7	0.1	5323.9
99961	7.7	1.85	0.1	6506.6
99962	7.75	1.8	0.1	6233.2
99963	7.7	1.95	0.1	7332.3
99964	7.75	1.9	0.1	7387.1
99965	7.7	2.05	0.1	8037.1
99966	7.75	2.	0.1	8423.2
99967	7.7	2.15	0.1	8510.5
99968	7.75	2.1	0.1	9159.2
99969	7.7	2.25	0.1	8731.9
99970	7.75	2.2	0.1	9385.6
99971	7.7	2.35	0.1	8759.5
99972	7.75	2.3	0.1	9323.
99973	7.7	2.45	0.1	8686.3
99974	7.75	2.4	0.1	9144.6
99975	7.7	2.55	0.1	8576.2
99976	7.75	2.5	0.1	8942.8
99977	7.7	2.65	0.1	8466.2
99978	7.75	2.6	0.1	8759.2
99979	7.7	2.75	0.1	8374.7
99980	7.75	2.7	0.1	8611.
99981	7.7	2.85	0.1	8310.8
99982	7.75	2.8	0.1	8504.
99983	7.7	2.95	0.1	8278.1
99984	7.75	2.9	0.1	8439.8
99985	7.7	3.05	0.1	8278.1
99986	7.75	3.	0.1	8418.4
99987	7.7	3.15	0.1	8310.8
99988	7.75	3.1	0.1	8439.8
99989	7.7	3.25	0.1	8374.7
99990	7.75	3.2	0.1	8504.
99991	7.7	3.35	0.1	8466.2
99992	7.75	3.3	0.1	8611.
99993	7.7	3.45	0.1	8576.2
99994	7.75	3.4	0.1	8759.2
99995	7.7	3.55	0.1	8686.3
99996	7.75	3.5	0.1	8942.8
99997	7.7	3.65	0.1	8759.5
99998	7.75	3.6	0.1	9144.6
99999	7.7	3.75	0.1	8731.9
100000	7.75	3.7	0.1	9323.
100001	7.7	3.85	0.1	8510.5
100002	7.75	3.8	0.1	9385.6
100003	7.7	3.95	0.1	8037.
100004	7.75	3.9	0.1	9159.2
100005	7.7	4.05	0.1	7332.3
100006	7.75	4.	0.1	8423.2
100007	7.7	4.15	0.1	6506.6
100008	7.75	4.1	0.1	7387.1
100009	7.7	4.25	0.1	5696.5
100010	7.75	4.2	0.1	6233.2
100011	7.7	4.35	0.1	4983.3
100012	7.75	4.3	0.1	5323.9
100013	7.7	4.45	0.1	4389.5
100014	7.75	4.4	0.1	4614.8
100015	7.7	4.55	0.1	3898.7
100016	7.75	4.5	0.1	4055.6
100017	7.7	4.65	0.1	3487.7
100018	7.75	4.6	0.1	3602.1
100019	7.7	4.75	0.1	3137.6
100020	7.75	4.7	0.1	3223.8
100021	7.7	4.85	0.1	2833.7
100022	7.75	4.8	0.1	2900.1
100023	7.7	4.95	0.1	2565.2
100024	7.75	4.9	0.1	2617.
100025	7.7	5.05	0.1	2324.2
100026	7.75	5.	0.1	2364.5
100027	7.7	5.15	0.1	2105.
100028	7.75	5.1	0.1	2135.6
100029	7.7	5.25	0.1	1903.5
100030	7.75	5.2	0.1	1925.
100031	7.7	5.35	0.1	1716.8
100032	7.75	5.3	0.1	1729.1
100033	7.7	5.45	0.1	1543.5
100034	7.75	5.4	0.1	1545.3
100035	7.7	5.55	0.1	1383.8
100036	7.75	5.5	0.1	1372.
100037	7.7	5.65	0.1	1240.1
100038	7.75	5.6	0.1	1209.7
100039	7.7	5.75	0.1	1118.7
100040	7.75	5.7	0.1	1061.7
100041	7.7	5.85	0.1	1033.
100042	7.75	5.8	0.1	936.84
100043	7.75	5.9	0.1	857.97
100044	7.7	5.95	0.1	930.
100045	7.8	0.15	0.1	763.9
100046	7.85	0.1	0.1	575.66
100047	7.8	5.e-002	0.1	631.03
100048	7.8	0.25	0.1	887.64
100049	7.85	0.2	0.1	714.41
100050	7.8	0.35	0.1	1042.4
100051	7.85	0.3	0.1	886.25
100052	7.8	0.45	0.1	1209.9
100053	7.85	0.4	0.1	1065.
100054	7.8	0.55	0.1	1385.6
100055	7.85	0.5	0.1	1247.3
100056	7.8	0.65	0.1	1569.2
100057	7.85	0.6	0.1	1433.8
100058	7.8	0.75	0.1	1762.2
100059	7.85	0.7	0.1	1626.6
100060	7.8	0.85	0.1	1967.2
100061	7.85	0.8	0.1	1828.5
100062	7.8	0.95	0.1	2187.8
100063	7.85	0.9	0.1	2042.8
100064	7.8	1.05	0.1	2428.9
100065	7.85	1.	0.1	2273.9
100066	7.8	1.15	0.1	2697.
100067	7.85	1.1	0.1	2527.3
100068	7.8	1.25	0.1	3001.3
100069	7.85	1.2	0.1	2810.6
100070	7.8	1.35	0.1	3355.2
100071	7.85	1.3	0.1	3134.6
100072	7.8	1.45	0.1	3778.9
100073	7.85	1.4	0.1	3515.3
100074	7.8	1.55	0.1	4304.
100075	7.85	1.5	0.1	3978.4
100076	7.8	1.65	0.1	4981.2
100077	7.85	1.6	0.1	4565.3
100078	7.8	1.75	0.1	5882.5
100079	7.85	1.7	0.1	5360.5
100080	7.8	1.85	0.1	7120.1
100081	7.85	1.8	0.1	6480.1
100082	7.8	1.95	0.1	8459.8
100083	7.85	1.9	0.1	8606.
100084	7.8	2.05	0.1	9518.5
100085	7.85	2.	0.1	11421
100086	7.8	2.15	0.1	10016
100087	7.85	2.1	0.1	11518
100088	7.8	2.25	0.1	9966.
100089	7.85	2.2	0.1	11043
100090	7.8	2.35	0.1	9702.3
100091	7.85	2.3	0.1	10461
100092	7.8	2.45	0.1	9397.9
100093	7.85	2.4	0.1	9947.
100094	7.8	2.55	0.1	9123.8
100095	7.85	2.5	0.1	9526.4
100096	7.8	2.65	0.1	8902.5
100097	7.85	2.6	0.1	9202.6
100098	7.8	2.75	0.1	8738.8
100099	7.85	2.7	0.1	8965.1
100100	7.8	2.85	0.1	8631.7
100101	7.85	2.8	0.1	8803.5
100102	7.8	2.95	0.1	8578.8
100103	7.85	2.9	0.1	8709.8
100104	7.8	3.05	0.1	8578.8
100105	7.85	3.	0.1	8679.1
100106	7.8	3.15	0.1	8631.7
100107	7.85	3.1	0.1	8709.8
100108	7.8	3.25	0.1	8738.8
100109	7.85	3.2	0.1	8803.5
100110	7.8	3.35	0.1	8902.5
100111	7.85	3.3	0.1	8965.1
100112	7.8	3.45	0.1	9123.8
100113	7.85	3.4	0.1	9202.6
100114	7.8	3.55	0.1	9397.9
100115	7.85	3.5	0.1	9526.4
100116	7.8	3.65	0.1	9702.3
100117	7.85	3.6	0.1	9947.
100118	7.8	3.75	0.1	9966.
100119	7.85	3.7	0.1	10461
100120	7.8	3.85	0.1	10016
100121	7.85	3.8	0.1	11043
100122	7.8	3.95	0.1	9518.5
100123	7.85	3.9	0.1	11518
100124	7.8	4.05	0.1	8459.8
100125	7.85	4.	0.1	11421
100126	7.8	4.15	0.1	7120.1
100127	7.85	4.1	0.1	8606.
100128	7.8	4.25	0.1	5882.5
100129	7.85	4.2	0.1	6480.1
100130	7.8	4.35	0.1	4981.2
100131	7.85	4.3	0.1	5360.5
100132	7.8	4.45	0.1	4304.
100133	7.85	4.4	0.1	4565.3
100134	7.8	4.55	0.1	3778.9
100135	7.85	4.5	0.1	3978.4
100136	7.8	4.65	0.1	3355.2
100137	7.85	4.6	0.1	3515.3
100138	7.8	4.75	0.1	3001.3
100139	7.85	4.7	0.1	3134.6
100140	7.8	4.85	0.1	2697.
100141	7.85	4.8	0.1	2810.6
100142	7.8	4.95	0.1	2428.9
100143	7.85	4.9	0.1	2527.3
100144	7.8	5.05	0.1	2187.8
100145	7.85	5.	0.1	2273.9
100146	7.8	5.15	0.1	1967.2
100147	7.85	5.1	0.1	2042.8
100148	7.8	5.25	0.1	1762.2
100149	7.85	5.2	0.1	1828.5
100150	7.8	5.35	0.1	1569.2
100151	7.85	5.3	0.1	1626.6
100152	7.8	5.45	0.1	1385.6
100153	7.85	5.4	0.1	1433.8
100154	7.8	5.55	0.1	1209.9
100155	7.85	5.5	0.1	1247.3
100156	7.8	5.65	0.1	1042.4
100157	7.85	5.6	0.1	1065.
100158	7.8	5.75	0.1	887.64
100159	7.85	5.7	0.1	886.25
100160	7.8	5.85	0.1	763.9
100161	7.85	5.8	0.1	714.41
100162	7.85	5.9	0.1	575.66
100163	7.8	5.95	0.1	631.03
100164	7.9	0.15	0.1	539.4
100165	7.95	0.1	0.1	287.56
100166	7.9	5.e-002	0.1	330.43
100167	7.9	0.25	0.1	731.82
100168	7.95	0.2	0.1	458.14
100169	7.9	0.35	0.1	926.07
100170	7.95	0.3	0.1	617.33
100171	7.9	0.45	0.1	1117.6
100172	7.95	0.4	0.1	764.53
100173	7.9	0.55	0.1	1309.1
100174	7.95	0.5	0.1	905.27
100175	7.9	0.65	0.1	1503.9
100176	7.95	0.6	0.1	1043.4
100177	7.9	0.75	0.1	1705.2
100178	7.95	0.7	0.1	1182.2
100179	7.9	0.85	0.1	1916.5
100180	7.95	0.8	0.1	1324.3
100181	7.9	0.95	0.1	2141.7
100182	7.95	0.9	0.1	1472.5
100183	7.9	1.05	0.1	2386.1
100184	7.95	1.	0.1	1630.
100185	7.9	1.15	0.1	2656.2
100186	7.95	1.1	0.1	1800.7
100187	7.9	1.25	0.1	2961.5
100188	7.95	1.2	0.1	1989.4
100189	7.9	1.35	0.1	3315.8
100190	7.95	1.3	0.1	2203.4
100191	7.9	1.45	0.1	3741.3
100192	7.95	1.4	0.1	2452.9
100193	7.9	1.55	0.1	4275.
100194	7.95	1.5	0.1	2755.4
100195	7.9	1.65	0.1	4994.1
100196	7.95	1.6	0.1	3138.2
100197	7.9	1.75	0.1	6037.
100198	7.95	1.7	0.1	3669.4
100199	7.9	1.85	0.1	8061.7
100200	7.95	1.8	0.1	4432.5
100201	7.9	1.95	0.1	11443
100202	7.95	1.9	0.1	5730.2
100203	7.9	2.05	0.1	13274
100204	7.95	2.	0.1	18364
100205	7.9	2.15	0.1	12530
100206	7.95	2.1	0.1	14659
100207	7.9	2.25	0.1	11537
100208	7.95	2.2	0.1	12872
100209	7.9	2.35	0.1	10707
100210	7.95	2.3	0.1	11541
100211	7.9	2.45	0.1	10077
100212	7.95	2.4	0.1	10633
100213	7.9	2.55	0.1	9606.3
100214	7.95	2.5	0.1	9988.9
100215	7.9	2.65	0.1	9265.6
100216	7.95	2.6	0.1	9534.8
100217	7.9	2.75	0.1	9029.6
100218	7.95	2.7	0.1	9219.4
100219	7.9	2.85	0.1	8881.1
100220	7.95	2.8	0.1	9012.1
100221	7.9	2.95	0.1	8809.4
100222	7.95	2.9	0.1	8894.2
100223	7.9	3.05	0.1	8809.4
100224	7.95	3.	0.1	8855.9
100225	7.9	3.15	0.1	8881.1
100226	7.95	3.1	0.1	8894.2
100227	7.9	3.25	0.1	9029.6
100228	7.95	3.2	0.1	9012.1
100229	7.9	3.35	0.1	9265.6
100230	7.95	3.3	0.1	9219.4
100231	7.9	3.45	0.1	9606.3
100232	7.95	3.4	0.1	9534.8
100233	7.9	3.55	0.1	10077
100234	7.95	3.5	0.1	9988.9
100235	7.9	3.65	0.1	10707
100236	7.95	3.6	0.1	10633
100237	7.9	3.75	0.1	11537
100238	7.95	3.7	0.1	11541
100239	7.9	3.85	0.1	12530
100240	7.95	3.8	0.1	12872
100241	7.9	3.95	0.1	13274
100242	7.95	3.9	0.1	14659
100243	7.9	4.05	0.1	11443
100244	7.95	4.	0.1	18364
100245	7.9	4.15	0.1	8061.7
100246	7.95	4.1	0.1	5730.2
100247	7.9	4.25	0.1	6037.
100248	7.95	4.2	0.1	4432.5
100249	7.9	4.35	0.1	4994.1
100250	7.95	4.3	0.1	3669.4
100251	7.9	4.45	0.1	4275.
100252	7.95	4.4	0.1	3138.2
100253	7.9	4.55	0.1	3741.3
100254	7.95	4.5	0.1	2755.4
100255	7.9	4.65	0.1	3315.8
100256	7.95	4.6	0.1	2452.9
100257	7.9	4.75	0.1	2961.5
100258	7.95	4.7	0.1	2203.4
100259	7.9	4.85	0.1	2656.2
100260	7.95	4.8	0.1	1989.4
100261	7.9	4.95	0.1	2386.1
100262	7.95	4.9	0.1	1800.7
100263	7.9	5.05	0.1	2141.7
100264	7.95	5.	0.1	1630.
100265	7.9	5.15	0.1	1916.5
100266	7.95	5.1	0.1	1472.5
100267	7.9	5.25	0.1	1705.2
100268	7.95	5.2	0.1	1324.3
100269	7.9	5.35	0.1	1503.9
100270	7.95	5.3	0.1	1182.2
100271	7.9	5.45	0.1	1309.1
100272	7.95	5.4	0.1	1043.4
100273	7.9	5.55	0.1	1117.6
100274	7.95	5.5	0.1	905.27
100275	7.9	5.65	0.1	926.07
100276	7.95	5.6	0.1	764.53
100277	7.9	5.75	0.1	731.82
100278	7.95	5.7	0.1	617.33
100279	7.9	5.85	0.1	539.4
100280	7.95	5.8	0.1	458.14
100281	7.95	5.9	0.1	287.56
100282	7.9	5.95	0.1	330.43
100283	8.1667	3.85	0.1	15010
100284	8.1667	3.95	0.1	19615
100285	8.1667	3.75	0.1	12902
100286	8.1667	3.65	0.1	11469
100287	8.1667	3.55	0.1	10530
100288	8.1667	3.45	0.1	9890.4
100289	8.1667	3.35	0.1	9454.2
100290	8.1667	3.25	0.1	9162.9
100291	8.1667	3.15	0.1	8983.5
100292	8.1667	3.05	0.1	8898.
100293	8.1667	2.95	0.1	8898.
100294	8.1667	2.85	0.1	8983.5
100295	8.1667	2.75	0.1	9162.9
100296	8.1667	2.65	0.1	9454.2
100297	8.1667	2.55	0.1	9890.4
100298	8.1667	2.45	0.1	10530
100299	8.1667	2.35	0.1	11469
100300	8.1667	2.25	0.1	12902
100301	8.1667	2.15	0.1	15010
100302	8.1667	2.05	0.1	19615
100303	8.	3.85	0.1	15150
100304	8.	3.95	0.1	19532
100305	8.	3.75	0.1	12915
100306	8.	3.65	0.1	11487
100307	8.	3.55	0.1	10555
100308	8.	3.45	0.1	9922.9
100309	8.	3.35	0.1	9491.3
100310	8.	3.25	0.1	9202.9
100311	8.	3.15	0.1	9025.4
100312	8.	3.05	0.1	8940.6
100313	8.	2.95	0.1	8940.6
100314	8.	2.85	0.1	9025.4
100315	8.	2.75	0.1	9202.9
100316	8.	2.65	0.1	9491.3
100317	8.	2.55	0.1	9922.9
100318	8.	2.45	0.1	10555
100319	8.	2.35	0.1	11487
100320	8.	2.25	0.1	12915
100321	8.	2.15	0.1	15150
100322	8.	2.05	0.1	19532
100323	8.125	4.	0.1	22232
100324	8.0417	4.	0.1	22228
100325	8.0833	4.	5.e-002	715.65
100326	8.1667	5.85	0.1	243.11
100327	8.1667	5.95	0.1	64.493
100328	8.1667	5.9	5.e-002	56.837
100329	8.1667	5.75	0.1	397.17
100330	8.1667	5.8	5.e-002	127.95
100331	8.1667	5.65	0.1	526.51
100332	8.1667	5.7	5.e-002	192.35
100333	8.1667	5.55	0.1	644.66
100334	8.1667	5.6	5.e-002	256.55
100335	8.1667	5.45	0.1	757.82
100336	8.1667	5.5	5.e-002	322.05
100337	8.1667	5.35	0.1	869.8
100338	8.1667	5.4	5.e-002	390.06
100339	8.1667	5.25	0.1	983.51
100340	8.1667	5.3	5.e-002	461.68
100341	8.1667	5.15	0.1	1101.5
100342	8.1667	5.2	5.e-002	538.07
100343	8.1667	5.05	0.1	1226.5
100344	8.1667	5.1	5.e-002	620.62
100345	8.1667	4.95	0.1	1361.4
100346	8.1667	5.	5.e-002	711.07
100347	8.1667	4.85	0.1	1509.8
100348	8.1667	4.9	5.e-002	811.73
100349	8.1667	4.75	0.1	1676.6
100350	8.1667	4.8	5.e-002	925.73
100351	8.1667	4.65	0.1	1868.7
100352	8.1667	4.7	5.e-002	1057.6
100353	8.1667	4.55	0.1	2096.7
100354	8.1667	4.6	5.e-002	1214.3
100355	8.1667	4.45	0.1	2376.2
100356	8.1667	4.5	5.e-002	1407.
100357	8.1667	4.35	0.1	2747.3
100358	8.1667	4.4	5.e-002	1654.2
100359	8.1667	4.25	0.1	3221.9
100360	8.1667	4.3	5.e-002	2001.8
100361	8.1667	4.15	0.1	4197.
100362	8.1667	4.2	5.e-002	2532.
100363	8.1667	4.05	0.1	12364
100364	8.1667	4.1	5.e-002	3950.6
100365	8.1667	4.	5.e-002	3521.9
100366	8.	4.05	0.1	12069
100367	8.	4.	5.e-002	4238.4
100368	8.	4.15	0.1	3886.8
100369	8.	4.1	5.e-002	4328.5
100370	8.	4.25	0.1	3005.5
100371	8.	4.2	5.e-002	2821.9
100372	8.	4.35	0.1	2592.4
100373	8.	4.3	5.e-002	2257.2
100374	8.	4.45	0.1	2270.5
100375	8.	4.4	5.e-002	1881.9
100376	8.	4.55	0.1	2029.7
100377	8.	4.5	5.e-002	1613.9
100378	8.	4.65	0.1	1831.7
100379	8.	4.6	5.e-002	1402.9
100380	8.	4.75	0.1	1663.6
100381	8.	4.7	5.e-002	1229.9
100382	8.	4.85	0.1	1515.7
100383	8.	4.8	5.e-002	1082.6
100384	8.	4.95	0.1	1382.3
100385	8.	4.9	5.e-002	954.02
100386	8.	5.05	0.1	1258.9
100387	8.	5.	5.e-002	839.31
100388	8.	5.15	0.1	1142.6
100389	8.	5.1	5.e-002	735.19
100390	8.	5.25	0.1	1030.5
100391	8.	5.2	5.e-002	639.29
100392	8.	5.35	0.1	920.37
100393	8.	5.3	5.e-002	549.79
100394	8.	5.45	0.1	809.58
100395	8.	5.4	5.e-002	465.26
100396	8.	5.55	0.1	695.17
100397	8.	5.5	5.e-002	384.5
100398	8.	5.65	0.1	573.12
100399	8.	5.6	5.e-002	306.4
100400	8.	5.75	0.1	436.52
100401	8.	5.7	5.e-002	229.67
100402	8.	5.85	0.1	270.14
100403	8.	5.8	5.e-002	152.75
100404	8.	5.95	0.1	72.439
100405	8.	5.9	5.e-002	68.439
100406	8.125	2.	0.1	22232
100407	8.0417	2.	0.1	22228
100408	8.0833	2.	5.e-002	715.65
100409	8.1667	0.15	0.1	243.11
100410	8.1667	5.e-002	0.1	64.493
100411	8.1667	0.1	5.e-002	56.837
100412	8.1667	0.25	0.1	397.17
100413	8.1667	0.2	5.e-002	127.95
100414	8.1667	0.35	0.1	526.51
100415	8.1667	0.3	5.e-002	192.35
100416	8.1667	0.45	0.1	644.66
100417	8.1667	0.4	5.e-002	256.55
100418	8.1667	0.55	0.1	757.82
100419	8.1667	0.5	5.e-002	322.05
100420	8.1667	0.65	0.1	869.8
100421	8.1667	0.6	5.e-002	390.06
100422	8.1667	0.75	0.1	983.51
100423	8.1667	0.7	5.e-002	461.68
100424	8.1667	0.85	0.1	1101.5
100425	8.1667	0.8	5.e-002	538.07
100426	8.1667	0.95	0.1	1226.5
100427	8.1667	0.9	5.e-002	620.62
100428	8.1667	1.05	0.1	1361.4
100429	8.1667	1.	5.e-002	711.07
100430	8.1667	1.15	0.1	1509.8
100431	8.1667	1.1	5.e-002	811.73
100432	8.1667	1.25	0.1	1676.6
100433	8.1667	1.2	5.e-002	925.73
100434	8.1667	1.35	0.1	1868.7
100435	8.1667	1.3	5.e-002	1057.6
100436	8.1667	1.45	0.1	2096.7
100437	8.1667	1.4	5.e-002	1214.3
100438	8.1667	1.55	0.1	2376.2
100439	8.1667	1.5	5.e-002	1407.
100440	8.1667	1.65	0.1	2747.3
100441	8.1667	1.6	5.e-002	1654.2
100442	8.1667	1.75	0.1	3221.9
100443	8.1667	1.7	5.e-002	2001.8
100444	8.1667	1.85	0.1	4197.
100445	8.1667	1.8	5.e-002	2532.
100446	8.1667	1.95	0.1	12364
100447	8.1667	1.9	5.e-002	3950.6
100448	8.1667	2.	5.e-002	3521.9
100449	8.	1.95	0.1	12069
100450	8.	2.	5.e-002	4238.4
100451	8.	1.85	0.1	3886.8
100452	8.	1.9	5.e-002	4328.5
100453	8.	1.75	0.1	3005.5
100454	8.	1.8	5.e-002	2821.9
100455	8.	1.65	0.1	2592.4
100456	8.	1.7	5.e-002	2257.2
100457	8.	1.55	0.1	2270.5
100458	8.	1.6	5.e-002	1881.9
100459	8.	1.45	0.1	2029.7
100460	8.	1.5	5.e-002	1613.9
100461	8.	1.35	0.1	1831.7
100462	8.	1.4	5.e-002	1402.9
100463	8.	1.25	0.1	1663.6
100464	8.	1.3	5.e-002	1229.9
100465	8.	1.15	0.1	1515.7
100466	8.	1.2	5.e-002	1082.6
100467	8.	1.05	0.1	1382.3
100468	8.	1.1	5.e-002	954.02
100469	8.	0.95	0.1	1258.9
100470	8.	1.	5.e-002	839.31
100471	8.	0.85	0.1	1142.6
100472	8.	0.9	5.e-002	735.19
100473	8.	0.75	0.1	1030.5
100474	8.	0.8	5.e-002	639.29
100475	8.	0.65	0.1	920.37
100476	8.	0.7	5.e-002	549.79
100477	8.	0.55	0.1	809.58
100478	8.	0.6	5.e-002	465.26
100479	8.	0.45	0.1	695.17
100480	8.	0.5	5.e-002	384.5
100481	8.	0.35	0.1	573.12
100482	8.	0.4	5.e-002	306.4
100483	8.	0.25	0.1	436.52
100484	8.	0.3	5.e-002	229.67
100485	8.	0.15	0.1	270.14
100486	8.	0.2	5.e-002	152.75
100487	8.	5.e-002	0.1	72.439
100488	8.	0.1	5.e-002	68.439
100489	8.2165	6.	0.1	90.923
100490	8.1667	6.	5.e-002	11.173
100491	8.316	6.	0.1	351.93
100492	8.2662	6.	5.e-002	18.361
100493	8.4156	6.	0.1	619.62
100494	8.3658	6.	5.e-002	53.706
100495	8.5152	6.	0.1	864.59
100496	8.4654	6.	5.e-002	75.394
100497	8.6148	6.	0.1	1093.8
100498	8.565	6.	5.e-002	90.837
100499	8.7144	6.	0.1	1308.8
100500	8.6646	6.	5.e-002	101.57
100501	8.8139	6.	0.1	1509.4
100502	8.7642	6.	5.e-002	108.69
100503	8.9135	6.	0.1	1695.2
100504	8.8637	6.	5.e-002	112.94
100505	9.0131	6.	0.1	1866.2
100506	8.9633	6.	5.e-002	114.91
100507	9.1127	6.	0.1	2022.1
100508	9.0629	6.	5.e-002	115.08
100509	9.2123	6.	0.1	2163.4
100510	9.1625	6.	5.e-002	113.87
100511	9.3118	6.	0.1	2290.2
100512	9.2621	6.	5.e-002	111.63
100513	9.4114	6.	0.1	2403.2
100514	9.3616	6.	5.e-002	108.66
100515	9.511	6.	0.1	2503.2
100516	9.4612	6.	5.e-002	105.2
100517	9.6106	6.	0.1	2590.8
100518	9.5608	6.	5.e-002	101.47
100519	9.7102	6.	0.1	2666.9
100520	9.6604	6.	5.e-002	97.612
100521	9.8097	6.	0.1	2732.3
100522	9.76	6.	5.e-002	93.766
100523	9.9093	6.	0.1	2788.
100524	9.8595	6.	5.e-002	90.027
100525	10.009	6.	0.1	2834.7
100526	9.9591	6.	5.e-002	86.467
100527	10.108	6.	0.1	2873.3
100528	10.059	6.	5.e-002	83.136
100529	10.208	6.	0.1	2904.6
100530	10.158	6.	5.e-002	80.067
100531	10.308	6.	0.1	2929.2
100532	10.258	6.	5.e-002	77.28
100533	10.407	6.	0.1	2947.9
100534	10.357	6.	5.e-002	74.783
100535	10.507	6.	0.1	2961.2
100536	10.457	6.	5.e-002	72.576
100537	10.606	6.	0.1	2969.8
100538	10.557	6.	5.e-002	70.652
100539	10.706	6.	0.1	2974.2
100540	10.656	6.	5.e-002	69.001
100541	10.806	6.	0.1	2974.7
100542	10.756	6.	5.e-002	67.608
100543	10.905	6.	0.1	2971.9
100544	10.855	6.	5.e-002	66.456
100545	11.005	6.	0.1	2966.1
100546	10.955	6.	5.e-002	65.528
100547	11.104	6.	0.1	2957.7
100548	11.055	6.	5.e-002	64.805
100549	11.204	6.	0.1	2947.
100550	11.154	6.	5.e-002	64.269
100551	11.303	6.	0.1	2934.2
100552	11.254	6.	5.e-002	63.903
100553	11.403	6.	0.1	2919.7
100554	11.353	6.	5.e-002	63.687
100555	11.503	6.	0.1	2903.5
100556	11.453	6.	5.e-002	63.606
100557	11.602	6.	0.1	2886.
100558	11.552	6.	5.e-002	63.645
100559	11.702	6.	0.1	2867.2
100560	11.652	6.	5.e-002	63.787
100561	11.801	6.	0.1	2847.4
100562	11.752	6.	5.e-002	64.019
100563	11.901	6.	0.1	2826.7
100564	11.851	6.	5.e-002	64.329
100565	12.001	6.	0.1	2805.1
100566	11.951	6.	5.e-002	64.706
100567	12.1	6.	0.1	2782.9
100568	12.05	6.	5.e-002	65.137
100569	12.2	6.	0.1	2760.
100570	12.15	6.	5.e-002	65.615
100571	12.299	6.	0.1	2736.7
100572	12.249	6.	5.e-002	66.129
100573	12.399	6.	0.1	2712.8
100574	12.349	6.	5.e-002	66.673
100575	12.498	6.	0.1	2688.6
100576	12.449	6.	5.e-002	67.239
100577	12.598	6.	0.1	2664.1
100578	12.548	6.	5.e-002	67.821
100579	12.698	6.	0.1	2639.3
100580	12.648	6.	5.e-002	68.414
100581	12.797	6.	0.1	2614.3
100582	12.747	6.	5.e-002	69.011
100583	12.897	6.	0.1	2589.
100584	12.847	6.	5.e-002	69.61
100585	12.996	6.	0.1	2563.6
100586	12.947	6.	5.e-002	70.207
100587	13.096	6.	0.1	2538.1
100588	13.046	6.	5.e-002	70.797
100589	13.195	6.	0.1	2512.5
100590	13.146	6.	5.e-002	71.379
100591	13.295	6.	0.1	2486.8
100592	13.245	6.	5.e-002	71.949
100593	13.395	6.	0.1	2461.
100594	13.345	6.	5.e-002	72.506
100595	13.494	6.	0.1	2435.2
100596	13.444	6.	5.e-002	73.049
100597	13.594	6.	0.1	2409.3
100598	13.544	6.	5.e-002	73.574
100599	13.693	6.	0.1	2383.5
100600	13.644	6.	5.e-002	74.082
100601	13.793	6.	0.1	2357.6
100602	13.743	6.	5.e-002	74.571
100603	13.893	6.	0.1	2331.8
100604	13.843	6.	5.e-002	75.041
100605	13.992	6.	0.1	2305.9
100606	13.942	6.	5.e-002	75.49
100607	14.092	6.	0.1	2280.1
100608	14.042	6.	5.e-002	75.919
100609	14.191	6.	0.1	2254.3
100610	14.142	6.	5.e-002	76.326
100611	14.291	6.	0.1	2228.5
100612	14.241	6.	5.e-002	76.713
100613	14.39	6.	0.1	2202.8
100614	14.341	6.	5.e-002	77.078
100615	14.49	6.	0.1	2177.1
100616	14.44	6.	5.e-002	77.423
100617	14.59	6.	0.1	2151.4
100618	14.54	6.	5.e-002	77.745
100619	14.689	6.	0.1	2125.8
100620	14.639	6.	5.e-002	78.047
100621	14.789	6.	0.1	2100.3
100622	14.739	6.	5.e-002	78.328
100623	14.888	6.	0.1	2074.8
100624	14.839	6.	5.e-002	78.589
100625	14.988	6.	0.1	2049.4
100626	14.938	6.	5.e-002	78.829
100627	15.088	6.	0.1	2024.
100628	15.038	6.	5.e-002	79.049
100629	15.187	6.	0.1	1998.7
100630	15.137	6.	5.e-002	79.249
100631	15.287	6.	0.1	1973.4
100632	15.237	6.	5.e-002	79.43
100633	15.386	6.	0.1	1948.2
100634	15.336	6.	5.e-002	79.591
100635	15.486	6.	0.1	1923.1
100636	15.436	6.	5.e-002	79.734
100637	15.585	6.	0.1	1898.
100638	15.536	6.	5.e-002	79.859
100639	15.685	6.	0.1	1873.
100640	15.635	6.	5.e-002	79.966
100641	15.785	6.	0.1	1848.
100642	15.735	6.	5.e-002	80.054
100643	15.884	6.	0.1	1823.2
100644	15.834	6.	5.e-002	80.126
100645	15.984	6.	0.1	1798.3
100646	15.934	6.	5.e-002	80.181
100647	16.083	6.	0.1	1773.6
100648	16.034	6.	5.e-002	80.219
100649	16.183	6.	0.1	1748.9
100650	16.133	6.	5.e-002	80.24
100651	16.282	6.	0.1	1724.2
100652	16.233	6.	5.e-002	80.246
100653	16.382	6.	0.1	1699.6
100654	16.332	6.	5.e-002	80.236
100655	16.482	6.	0.1	1675.1
100656	16.432	6.	5.e-002	80.21
100657	16.581	6.	0.1	1650.7
100658	16.531	6.	5.e-002	80.169
100659	16.681	6.	0.1	1626.3
100660	16.631	6.	5.e-002	80.114
100661	16.78	6.	0.1	1601.9
100662	16.731	6.	5.e-002	80.043
100663	16.88	6.	0.1	1577.7
100664	16.83	6.	5.e-002	79.958
100665	16.98	6.	0.1	1553.5
100666	16.93	6.	5.e-002	79.859
100667	17.079	6.	0.1	1529.3
100668	17.029	6.	5.e-002	79.745
100669	17.179	6.	0.1	1505.2
100670	17.129	6.	5.e-002	79.617
100671	17.278	6.	0.1	1481.2
100672	17.229	6.	5.e-002	79.476
100673	17.378	6.	0.1	1457.2
100674	17.328	6.	5.e-002	79.32
100675	17.477	6.	0.1	1433.3
100676	17.428	6.	5.e-002	79.151
100677	17.577	6.	0.1	1409.4
100678	17.527	6.	5.e-002	78.968
100679	17.677	6.	0.1	1385.7
100680	17.627	6.	5.e-002	78.771
100681	17.776	6.	0.1	1361.9
100682	17.726	6.	5.e-002	78.561
100683	17.876	6.	0.1	1338.2
100684	17.826	6.	5.e-002	78.337
100685	17.975	6.	0.1	1314.6
100686	17.926	6.	5.e-002	78.099
100687	18.075	6.	0.1	1291.1
100688	18.025	6.	5.e-002	77.848
100689	18.175	6.	0.1	1267.5
100690	18.125	6.	5.e-002	77.582
100691	18.274	6.	0.1	1244.1
100692	18.224	6.	5.e-002	77.303
100693	18.374	6.	0.1	1220.7
100694	18.324	6.	5.e-002	77.009
100695	18.473	6.	0.1	1197.4
100696	18.423	6.	5.e-002	76.701
100697	18.573	6.	0.1	1174.1
100698	18.523	6.	5.e-002	76.379
100699	18.672	6.	0.1	1150.8
100700	18.623	6.	5.e-002	76.042
100701	18.772	6.	0.1	1127.7
100702	18.722	6.	5.e-002	75.69
100703	18.872	6.	0.1	1104.5
100704	18.822	6.	5.e-002	75.323
100705	18.971	6.	0.1	1081.5
100706	18.921	6.	5.e-002	74.94
100707	19.071	6.	0.1	1058.5
100708	19.021	6.	5.e-002	74.542
100709	19.17	6.	0.1	1035.5
100710	19.121	6.	5.e-002	74.127
100711	19.27	6.	0.1	1012.6
100712	19.22	6.	5.e-002	73.696
100713	19.369	6.	0.1	989.73
100714	19.32	6.	5.e-002	73.247
100715	19.469	6.	0.1	966.92
100716	19.419	6.	5.e-002	72.782
100717	19.569	6.	0.1	944.16
100718	19.519	6.	5.e-002	72.298
100719	19.668	6.	0.1	921.46
100720	19.618	6.	5.e-002	71.796
100721	19.768	6.	0.1	898.8
100722	19.718	6.	5.e-002	71.276
100723	19.867	6.	0.1	876.19
100724	19.818	6.	5.e-002	70.735
100725	19.967	6.	0.1	853.63
100726	19.917	6.	5.e-002	70.174
100727	20.067	6.	0.1	831.13
100728	20.017	6.	5.e-002	69.593
100729	20.166	6.	0.1	808.67
100730	20.116	6.	5.e-002	68.99
100731	20.266	6.	0.1	786.25
100732	20.216	6.	5.e-002	68.364
100733	20.365	6.	0.1	763.89
100734	20.316	6.	5.e-002	67.716
100735	20.465	6.	0.1	741.57
100736	20.415	6.	5.e-002	67.043
100737	20.564	6.	0.1	719.31
100738	20.515	6.	5.e-002	66.346
100739	20.664	6.	0.1	697.08
100740	20.614	6.	5.e-002	65.623
100741	20.764	6.	0.1	674.91
100742	20.714	6.	5.e-002	64.872
100743	20.863	6.	0.1	652.78
100744	20.813	6.	5.e-002	64.094
100745	20.963	6.	0.1	630.7
100746	20.913	6.	5.e-002	63.287
100747	21.062	6.	0.1	608.67
100748	21.013	6.	5.e-002	62.449
100749	21.162	6.	0.1	586.69
100750	21.112	6.	5.e-002	61.579
100751	21.262	6.	0.1	564.75
100752	21.212	6.	5.e-002	60.677
100753	21.361	6.	0.1	542.86
100754	21.311	6.	5.e-002	59.739
100755	21.461	6.	0.1	521.02
100756	21.411	6.	5.e-002	58.766
100757	21.56	6.	0.1	499.23
100758	21.51	6.	5.e-002	57.754
100759	21.66	6.	0.1	477.49
100760	21.61	6.	5.e-002	56.702
100761	21.759	6.	0.1	455.81
100762	21.71	6.	5.e-002	55.609
100763	21.859	6.	0.1	434.17
100764	21.809	6.	5.e-002	54.471
100765	21.959	6.	0.1	412.6
100766	21.909	6.	5.e-002	53.287
100767	22.058	6.	0.1	391.08
100768	22.008	6.	5.e-002	52.053
100769	22.158	6.	0.1	369.63
100770	22.108	6.	5.e-002	50.767
100771	22.257	6.	0.1	348.24
100772	22.208	6.	5.e-002	49.426
100773	22.357	6.	0.1	326.92
100774	22.307	6.	5.e-002	48.026
100775	22.456	6.	0.1	305.68
100776	22.407	6.	5.e-002	46.563
100777	22.556	6.	0.1	284.51
100778	22.506	6.	5.e-002	45.032
100779	22.656	6.	0.1	263.44
100780	22.606	6.	5.e-002	43.43
100781	22.755	6.	0.1	242.48
100782	22.705	6.	5.e-002	41.748
100783	22.855	6.	0.1	221.62
100784	22.805	6.	5.e-002	39.982
100785	22.954	6.	0.1	200.89
100786	22.905	6.	5.e-002	38.123
100787	23.054	6.	0.1	180.32
100788	23.004	6.	5.e-002	36.161
100789	23.154	6.	0.1	159.91
100790	23.104	6.	5.e-002	34.084
100791	23.253	6.	0.1	139.72
100792	23.203	6.	5.e-002	31.879
100793	23.353	6.	0.1	119.77
100794	23.303	6.	5.e-002	29.526
100795	23.452	6.	0.1	100.15
100796	23.403	6.	5.e-002	27.001
100797	23.552	6.	0.1	80.93
100798	23.502	6.	5.e-002	24.269
100799	23.651	6.	0.1	62.256
100800	23.602	6.	5.e-002	21.281
100801	23.751	6.	0.1	44.386
100802	23.701	6.	5.e-002	17.951
100803	23.851	6.	0.1	27.81
100804	23.801	6.	5.e-002	14.13
100805	23.95	6.	0.1	11.837
100806	23.9	6.	5.e-002	9.2422
100807	24.	5.95	0.1	4.2538
100808	24.	6.	5.e-002	3.8509
100809	24.	5.85	0.1	4.1126
100810	24.	5.9	5.e-002	3.2702
100811	24.	5.75	0.1	4.2555
100812	24.	5.8	5.e-002	4.1277
100813	24.	5.65	0.1	4.2857
100814	24.	5.7	5.e-002	4.8525
100815	24.	5.55	0.1	4.2964
100816	24.	5.6	5.e-002	5.3505
100817	24.	5.45	0.1	4.2861
100818	24.	5.5	5.e-002	5.6943
100819	24.	5.35	0.1	4.2662
100820	24.	5.4	5.e-002	5.9246
100821	24.	5.25	0.1	4.2409
100822	24.	5.3	5.e-002	6.068
100823	24.	5.15	0.1	4.2127
100824	24.	5.2	5.e-002	6.1431
100825	24.	5.05	0.1	4.183
100826	24.	5.1	5.e-002	6.1637
100827	24.	4.95	0.1	4.153
100828	24.	5.	5.e-002	6.1398
100829	24.	4.85	0.1	4.1231
100830	24.	4.9	5.e-002	6.0797
100831	24.	4.75	0.1	4.0939
100832	24.	4.8	5.e-002	5.9897
100833	24.	4.65	0.1	4.0657
100834	24.	4.7	5.e-002	5.8752
100835	24.	4.55	0.1	4.0388
100836	24.	4.6	5.e-002	5.7408
100837	24.	4.45	0.1	4.0131
100838	24.	4.5	5.e-002	5.5905
100839	24.	4.35	0.1	3.989
100840	24.	4.4	5.e-002	5.4277
100841	24.	4.25	0.1	3.9664
100842	24.	4.3	5.e-002	5.2558
100843	24.	4.15	0.1	3.9455
100844	24.	4.2	5.e-002	5.0778
100845	24.	4.05	0.1	3.9263
100846	24.	4.1	5.e-002	4.8967
100847	24.	3.95	0.1	3.9087
100848	24.	4.	5.e-002	4.7154
100849	24.	3.85	0.1	3.8929
100850	24.	3.9	5.e-002	4.537
100851	24.	3.75	0.1	3.8788
100852	24.	3.8	5.e-002	4.3645
100853	24.	3.65	0.1	3.8665
100854	24.	3.7	5.e-002	4.2011
100855	24.	3.55	0.1	3.8559
100856	24.	3.6	5.e-002	4.0501
100857	24.	3.45	0.1	3.8471
100858	24.	3.5	5.e-002	3.9147
100859	24.	3.35	0.1	3.84
100860	24.	3.4	5.e-002	3.7982
100861	24.	3.25	0.1	3.8347
100862	24.	3.3	5.e-002	3.7037
100863	24.	3.15	0.1	3.8312
100864	24.	3.2	5.e-002	3.634
100865	24.	3.05	0.1	3.8294
100866	24.	3.1	5.e-002	3.5912
100867	24.	2.95	0.1	3.8294
100868	24.	3.	5.e-002	3.5768
100869	24.	2.85	0.1	3.8312
100870	24.	2.9	5.e-002	3.5912
100871	24.	2.75	0.1	3.8347
100872	24.	2.8	5.e-002	3.634
100873	24.	2.65	0.1	3.84
100874	24.	2.7	5.e-002	3.7037
100875	24.	2.55	0.1	3.8471
100876	24.	2.6	5.e-002	3.7981
100877	24.	2.45	0.1	3.8559
100878	24.	2.5	5.e-002	3.9147
100879	24.	2.35	0.1	3.8665
100880	24.	2.4	5.e-002	4.0501
100881	24.	2.25	0.1	3.8788
100882	24.	2.3	5.e-002	4.2011
100883	24.	2.15	0.1	3.8929
100884	24.	2.2	5.e-002	4.3645
100885	24.	2.05	0.1	3.9087
100886	24.	2.1	5.e-002	4.537
100887	24.	1.95	0.1	3.9263
100888	24.	2.	5.e-002	4.7154
100889	24.	1.85	0.1	3.9455
100890	24.	1.9	5.e-002	4.8966
100891	24.	1.75	0.1	3.9664
100892	24.	1.8	5.e-002	5.0778
100893	24.	1.65	0.1	3.989
100894	24.	1.7	5.e-002	5.2558
100895	24.	1.55	0.1	4.0131
100896	24.	1.6	5.e-002	5.4277
100897	24.	1.45	0.1	4.0388
100898	24.	1.5	5.e-002	5.5905
100899	24.	1.35	0.1	4.0657
100900	24.	1.4	5.e-002	5.7408
100901	24.	1.25	0.1	4.0939
100902	24.	1.3	5.e-002	5.8752
100903	24.	1.15	0.1	4.1231
100904	24.	1.2	5.e-002	5.9897
100905	24.	1.05	0.1	4.153
100906	24.	1.1	5.e-002	6.0797
100907	24.	0.95	0.1	4.183
100908	24.	1.	5.e-002	6.1398
100909	24.	0.85	0.1	4.2127
100910	24.	0.9	5.e-002	6.1636
100911	24.	0.75	0.1	4.2409
100912	24.	0.8	5.e-002	6.1431
100913	24.	0.65	0.1	4.2662
100914	24.	0.7	5.e-002	6.068
100915	24.	0.55	0.1	4.2861
100916	24.	0.6	5.e-002	5.9246
100917	24.	0.45	0.1	4.2964
100918	24.	0.5	5.e-002	5.6943
100919	24.	0.35	0.1	4.2857
100920	24.	0.4	5.e-002	5.3505
100921	24.	0.25	0.1	4.2555
100922	24.	0.3	5.e-002	4.8525
100923	24.	0.15	0.1	4.1126
100924	24.	0.2	5.e-002	4.1277
100925	24.	5.e-002	0.1	4.2538
100926	24.	0.1	5.e-002	3.2702
100927	1.3113e-015	0.15	0.1	1796.9
100928	4.371e-016	5.e-002	0.1	736.49
100929	8.8602e-016	0.1	5.e-002	290.42
100930	2.1855e-015	0.25	0.1	3349.1
100931	1.772e-015	0.2	5.e-002	43.858
100932	3.0597e-015	0.35	0.1	4388.1
100933	2.6581e-015	0.3	5.e-002	66.077
100934	3.9339e-015	0.45	0.1	5098.9
100935	3.5441e-015	0.4	5.e-002	84.997
100936	4.8081e-015	0.55	0.1	5608.6
100937	4.4301e-015	0.5	5.e-002	90.545
100938	5.6822e-015	0.65	0.1	5993.2
100939	5.3161e-015	0.6	5.e-002	91.538
100940	6.5564e-015	0.75	0.1	6294.5
100941	6.2021e-015	0.7	5.e-002	91.004
100942	7.4306e-015	0.85	0.1	6536.9
100943	7.0881e-015	0.8	5.e-002	89.979
100944	8.3048e-015	0.95	0.1	6735.9
100945	7.9742e-015	0.9	5.e-002	88.83
100946	9.179e-015	1.05	0.1	6901.7
100947	8.8602e-015	1.	5.e-002	87.694
100948	1.0053e-014	1.15	0.1	7041.6
100949	9.7462e-015	1.1	5.e-002	86.622
100950	1.0927e-014	1.25	0.1	7160.6
100951	1.0632e-014	1.2	5.e-002	85.633
100952	1.1802e-014	1.35	0.1	7262.6
100953	1.1518e-014	1.3	5.e-002	84.729
100954	1.2676e-014	1.45	0.1	7350.4
100955	1.2404e-014	1.4	5.e-002	83.908
100956	1.355e-014	1.55	0.1	7426.5
100957	1.329e-014	1.5	5.e-002	83.164
100958	1.4424e-014	1.65	0.1	7492.4
100959	1.4176e-014	1.6	5.e-002	82.494
100960	1.5298e-014	1.75	0.1	7549.7
100961	1.5062e-014	1.7	5.e-002	81.891
100962	1.6173e-014	1.85	0.1	7599.5
100963	1.5948e-014	1.8	5.e-002	81.35
100964	1.7047e-014	1.95	0.1	7642.8
100965	1.6834e-014	1.9	5.e-002	80.866
100966	1.7921e-014	2.05	0.1	7680.2
100967	1.772e-014	2.	5.e-002	80.437
100968	1.8795e-014	2.15	0.1	7712.4
100969	1.8606e-014	2.1	5.e-002	80.057
100970	1.9669e-014	2.25	0.1	7740.
100971	1.9492e-014	2.2	5.e-002	79.725
100972	2.0543e-014	2.35	0.1	7763.3
100973	2.0378e-014	2.3	5.e-002	79.437
100974	2.1418e-014	2.45	0.1	7782.7
100975	2.1264e-014	2.4	5.e-002	79.192
100976	2.2292e-014	2.55	0.1	7798.5
100977	2.215e-014	2.5	5.e-002	78.987
100978	2.3166e-014	2.65	0.1	7810.9
100979	2.3036e-014	2.6	5.e-002	78.821
100980	2.404e-014	2.75	0.1	7820.
100981	2.3923e-014	2.7	5.e-002	78.694
100982	2.4914e-014	2.85	0.1	7826.
100983	2.4809e-014	2.8	5.e-002	78.603
100984	2.5789e-014	2.95	0.1	7829.
100985	2.5695e-014	2.9	5.e-002	78.549
100986	2.6663e-014	3.05	0.1	7829.
100987	2.6581e-014	3.	5.e-002	78.531
100988	2.7537e-014	3.15	0.1	7826.
100989	2.7467e-014	3.1	5.e-002	78.549
100990	2.8411e-014	3.25	0.1	7820.
100991	2.8353e-014	3.2	5.e-002	78.603
100992	2.9285e-014	3.35	0.1	7810.9
100993	2.9239e-014	3.3	5.e-002	78.694
100994	3.016e-014	3.45	0.1	7798.5
100995	3.0125e-014	3.4	5.e-002	78.821
100996	3.1034e-014	3.55	0.1	7782.7
100997	3.1011e-014	3.5	5.e-002	78.987
100998	3.1908e-014	3.65	0.1	7763.3
100999	3.1897e-014	3.6	5.e-002	79.191
101000	3.2782e-014	3.75	0.1	7740.
101001	3.2783e-014	3.7	5.e-002	79.437
101002	3.3656e-014	3.85	0.1	7712.4
101003	3.3669e-014	3.8	5.e-002	79.724
101004	3.4531e-014	3.95	0.1	7680.2
101005	3.4555e-014	3.9	5.e-002	80.057
101006	3.5405e-014	4.05	0.1	7642.8
101007	3.5441e-014	4.	5.e-002	80.436
101008	3.6279e-014	4.15	0.1	7599.5
101009	3.6327e-014	4.1	5.e-002	80.866
101010	3.7153e-014	4.25	0.1	7549.7
101011	3.7213e-014	4.2	5.e-002	81.349
101012	3.8027e-014	4.35	0.1	7492.4
101013	3.8099e-014	4.3	5.e-002	81.89
101014	3.8902e-014	4.45	0.1	7426.5
101015	3.8985e-014	4.4	5.e-002	82.493
101016	3.9776e-014	4.55	0.1	7350.4
101017	3.9871e-014	4.5	5.e-002	83.164
101018	4.065e-014	4.65	0.1	7262.6
101019	4.0757e-014	4.6	5.e-002	83.907
101020	4.1524e-014	4.75	0.1	7160.6
101021	4.1643e-014	4.7	5.e-002	84.728
101022	4.2398e-014	4.85	0.1	7041.6
101023	4.2529e-014	4.8	5.e-002	85.632
101024	4.3272e-014	4.95	0.1	6901.7
101025	4.3415e-014	4.9	5.e-002	86.621
101026	4.4147e-014	5.05	0.1	6735.9
101027	4.4301e-014	5.	5.e-002	87.693
101028	4.5021e-014	5.15	0.1	6536.9
101029	4.5187e-014	5.1	5.e-002	88.829
101030	4.5895e-014	5.25	0.1	6294.5
101031	4.6073e-014	5.2	5.e-002	89.978
101032	4.6769e-014	5.35	0.1	5993.2
101033	4.6959e-014	5.3	5.e-002	91.003
101034	4.7643e-014	5.45	0.1	5608.6
101035	4.7845e-014	5.4	5.e-002	91.537
101036	4.8518e-014	5.55	0.1	5098.9
101037	4.8731e-014	5.5	5.e-002	90.543
101038	4.9392e-014	5.65	0.1	4388.1
101039	4.9617e-014	5.6	5.e-002	84.996
101040	5.0266e-014	5.75	0.1	3349.1
101041	5.0503e-014	5.7	5.e-002	66.076
101042	5.114e-014	5.85	0.1	1796.9
101043	5.1389e-014	5.8	5.e-002	43.857
101044	5.2014e-014	5.95	0.1	736.49
101045	5.2275e-014	5.9	5.e-002	290.42
101046	23.95	0.	0.1	11.837
101047	24.	0.	5.e-002	3.8509
101048	23.851	0.	0.1	27.81
101049	23.9	0.	5.e-002	9.2422
101050	23.751	0.	0.1	44.386
101051	23.801	0.	5.e-002	14.13
101052	23.651	0.	0.1	62.256
101053	23.701	0.	5.e-002	17.951
101054	23.552	0.	0.1	80.93
101055	23.602	0.	5.e-002	21.281
101056	23.452	0.	0.1	100.15
101057	23.502	0.	5.e-002	24.269
101058	23.353	0.	0.1	119.77
101059	23.403	0.	5.e-002	27.001
101060	23.253	0.	0.1	139.72
101061	23.303	0.	5.e-002	29.526
101062	23.154	0.	0.1	159.91
101063	23.203	0.	5.e-002	31.879
101064	23.054	0.	0.1	180.32
101065	23.104	0.	5.e-002	34.084
101066	22.954	0.	0.1	200.89
101067	23.004	0.	5.e-002	36.161
101068	22.855	0.	0.1	221.62
101069	22.905	0.	5.e-002	38.123
101070	22.755	0.	0.1	242.48
101071	22.805	0.	5.e-002	39.982
101072	22.656	0.	0.1	263.44
101073	22.705	0.	5.e-002	41.748
101074	22.556	0.	0.1	284.51
101075	22.606	0.	5.e-002	43.43
101076	22.456	0.	0.1	305.68
101077	22.506	0.	5.e-002	45.032
101078	22.357	0.	0.1	326.92
101079	22.407	0.	5.e-002	46.563
101080	22.257	0.	0.1	348.24
101081	22.307	0.	5.e-002	48.026
101082	22.158	0.	0.1	369.63
101083	22.208	0.	5.e-002	49.426
101084	22.058	0.	0.1	391.08
101085	22.108	0.	5.e-002	50.767
101086	21.959	0.	0.1	412.6
101087	22.008	0.	5.e-002	52.053
101088	21.859	0.	0.1	434.17
101089	21.909	0.	5.e-002	53.287
101090	21.759	0.	0.1	455.81
101091	21.809	0.	5.e-002	54.471
101092	21.66	0.	0.1	477.49
101093	21.71	0.	5.e-002	55.609
101094	21.56	0.	0.1	499.23
101095	21.61	0.	5.e-002	56.702
101096	21.461	0.	0.1	521.02
101097	21.51	0.	5.e-002	57.754
101098	21.361	0.	0.1	542.86
101099	21.411	0.	5.e-002	58.766
101100	21.262	0.	0.1	564.75
101101	21.311	0.	5.e-002	59.74
101102	21.162	0.	0.1	586.69
101103	21.212	0.	5.e-002	60.677
101104	21.062	0.	0.1	608.67
101105	21.112	0.	5.e-002	61.58
101106	20.963	0.	0.1	630.7
101107	21.013	0.	5.e-002	62.449
101108	20.863	0.	0.1	652.78
101109	20.913	0.	5.e-002	63.287
101110	20.764	0.	0.1	674.91
101111	20.813	0.	5.e-002	64.094
101112	20.664	0.	0.1	697.08
101113	20.714	0.	5.e-002	64.873
101114	20.564	0.	0.1	719.31
101115	20.614	0.	5.e-002	65.623
101116	20.465	0.	0.1	741.57
101117	20.515	0.	5.e-002	66.346
101118	20.365	0.	0.1	763.89
101119	20.415	0.	5.e-002	67.043
101120	20.266	0.	0.1	786.25
101121	20.316	0.	5.e-002	67.716
101122	20.166	0.	0.1	808.67
101123	20.216	0.	5.e-002	68.365
101124	20.067	0.	0.1	831.13
101125	20.116	0.	5.e-002	68.99
101126	19.967	0.	0.1	853.63
101127	20.017	0.	5.e-002	69.593
101128	19.867	0.	0.1	876.19
101129	19.917	0.	5.e-002	70.175
101130	19.768	0.	0.1	898.8
101131	19.818	0.	5.e-002	70.735
101132	19.668	0.	0.1	921.46
101133	19.718	0.	5.e-002	71.276
101134	19.569	0.	0.1	944.16
101135	19.618	0.	5.e-002	71.797
101136	19.469	0.	0.1	966.92
101137	19.519	0.	5.e-002	72.298
101138	19.369	0.	0.1	989.73
101139	19.419	0.	5.e-002	72.782
101140	19.27	0.	0.1	1012.6
101141	19.32	0.	5.e-002	73.248
101142	19.17	0.	0.1	1035.5
101143	19.22	0.	5.e-002	73.696
101144	19.071	0.	0.1	1058.5
101145	19.121	0.	5.e-002	74.127
101146	18.971	0.	0.1	1081.5
101147	19.021	0.	5.e-002	74.542
101148	18.872	0.	0.1	1104.5
101149	18.921	0.	5.e-002	74.94
101150	18.772	0.	0.1	1127.7
101151	18.822	0.	5.e-002	75.323
101152	18.672	0.	0.1	1150.8
101153	18.722	0.	5.e-002	75.69
101154	18.573	0.	0.1	1174.1
101155	18.623	0.	5.e-002	76.042
101156	18.473	0.	0.1	1197.4
101157	18.523	0.	5.e-002	76.379
101158	18.374	0.	0.1	1220.7
101159	18.423	0.	5.e-002	76.701
101160	18.274	0.	0.1	1244.1
101161	18.324	0.	5.e-002	77.009
101162	18.175	0.	0.1	1267.5
101163	18.224	0.	5.e-002	77.303
101164	18.075	0.	0.1	1291.1
101165	18.125	0.	5.e-002	77.582
101166	17.975	0.	0.1	1314.6
101167	18.025	0.	5.e-002	77.848
101168	17.876	0.	0.1	1338.2
101169	17.926	0.	5.e-002	78.099
101170	17.776	0.	0.1	1361.9
101171	17.826	0.	5.e-002	78.337
101172	17.677	0.	0.1	1385.7
101173	17.726	0.	5.e-002	78.561
101174	17.577	0.	0.1	1409.4
101175	17.627	0.	5.e-002	78.772
101176	17.477	0.	0.1	1433.3
101177	17.527	0.	5.e-002	78.968
101178	17.378	0.	0.1	1457.2
101179	17.428	0.	5.e-002	79.151
101180	17.278	0.	0.1	1481.2
101181	17.328	0.	5.e-002	79.321
101182	17.179	0.	0.1	1505.2
101183	17.229	0.	5.e-002	79.476
101184	17.079	0.	0.1	1529.3
101185	17.129	0.	5.e-002	79.618
101186	16.98	0.	0.1	1553.5
101187	17.029	0.	5.e-002	79.745
101188	16.88	0.	0.1	1577.7
101189	16.93	0.	5.e-002	79.859
101190	16.78	0.	0.1	1601.9
101191	16.83	0.	5.e-002	79.958
101192	16.681	0.	0.1	1626.3
101193	16.731	0.	5.e-002	80.043
101194	16.581	0.	0.1	1650.7
101195	16.631	0.	5.e-002	80.114
101196	16.482	0.	0.1	1675.1
101197	16.531	0.	5.e-002	80.17
101198	16.382	0.	0.1	1699.6
101199	16.432	0.	5.e-002	80.21
101200	16.282	0.	0.1	1724.2
101201	16.332	0.	5.e-002	80.236
101202	16.183	0.	0.1	1748.9
101203	16.233	0.	5.e-002	80.246
101204	16.083	0.	0.1	1773.6
101205	16.133	0.	5.e-002	80.24
101206	15.984	0.	0.1	1798.3
101207	16.034	0.	5.e-002	80.219
101208	15.884	0.	0.1	1823.2
101209	15.934	0.	5.e-002	80.181
101210	15.785	0.	0.1	1848.
101211	15.834	0.	5.e-002	80.126
101212	15.685	0.	0.1	1873.
101213	15.735	0.	5.e-002	80.055
101214	15.585	0.	0.1	1898.
101215	15.635	0.	5.e-002	79.966
101216	15.486	0.	0.1	1923.1
101217	15.536	0.	5.e-002	79.859
101218	15.386	0.	0.1	1948.2
101219	15.436	0.	5.e-002	79.735
101220	15.287	0.	0.1	1973.4
101221	15.336	0.	5.e-002	79.592
101222	15.187	0.	0.1	1998.7
101223	15.237	0.	5.e-002	79.43
101224	15.088	0.	0.1	2024.
101225	15.137	0.	5.e-002	79.249
101226	14.988	0.	0.1	2049.4
101227	15.038	0.	5.e-002	79.049
101228	14.888	0.	0.1	2074.8
101229	14.938	0.	5.e-002	78.829
101230	14.789	0.	0.1	2100.3
101231	14.839	0.	5.e-002	78.589
101232	14.689	0.	0.1	2125.8
101233	14.739	0.	5.e-002	78.329
101234	14.59	0.	0.1	2151.4
101235	14.639	0.	5.e-002	78.048
101236	14.49	0.	0.1	2177.1
101237	14.54	0.	5.e-002	77.746
101238	14.39	0.	0.1	2202.8
101239	14.44	0.	5.e-002	77.423
101240	14.291	0.	0.1	2228.5
101241	14.341	0.	5.e-002	77.079
101242	14.191	0.	0.1	2254.3
101243	14.241	0.	5.e-002	76.713
101244	14.092	0.	0.1	2280.1
101245	14.142	0.	5.e-002	76.327
101246	13.992	0.	0.1	2305.9
101247	14.042	0.	5.e-002	75.919
101248	13.893	0.	0.1	2331.8
101249	13.942	0.	5.e-002	75.49
101250	13.793	0.	0.1	2357.6
101251	13.843	0.	5.e-002	75.041
101252	13.693	0.	0.1	2383.5
101253	13.743	0.	5.e-002	74.571
101254	13.594	0.	0.1	2409.3
101255	13.644	0.	5.e-002	74.082
101256	13.494	0.	0.1	2435.2
101257	13.544	0.	5.e-002	73.574
101258	13.395	0.	0.1	2461.
101259	13.444	0.	5.e-002	73.049
101260	13.295	0.	0.1	2486.8
101261	13.345	0.	5.e-002	72.507
101262	13.195	0.	0.1	2512.5
101263	13.245	0.	5.e-002	71.95
101264	13.096	0.	0.1	2538.1
101265	13.146	0.	5.e-002	71.379
101266	12.996	0.	0.1	2563.6
101267	13.046	0.	5.e-002	70.798
101268	12.897	0.	0.1	2589.
101269	12.947	0.	5.e-002	70.207
101270	12.797	0.	0.1	2614.3
101271	12.847	0.	5.e-002	69.611
101272	12.698	0.	0.1	2639.3
101273	12.747	0.	5.e-002	69.012
101274	12.598	0.	0.1	2664.1
101275	12.648	0.	5.e-002	68.414
101276	12.498	0.	0.1	2688.6
101277	12.548	0.	5.e-002	67.821
101278	12.399	0.	0.1	2712.8
101279	12.449	0.	5.e-002	67.239
101280	12.299	0.	0.1	2736.7
101281	12.349	0.	5.e-002	66.673
101282	12.2	0.	0.1	2760.
101283	12.249	0.	5.e-002	66.13
101284	12.1	0.	0.1	2782.9
101285	12.15	0.	5.e-002	65.615
101286	12.001	0.	0.1	2805.1
101287	12.05	0.	5.e-002	65.138
101288	11.901	0.	0.1	2826.7
101289	11.951	0.	5.e-002	64.706
101290	11.801	0.	0.1	2847.4
101291	11.851	0.	5.e-002	64.33
101292	11.702	0.	0.1	2867.2
101293	11.752	0.	5.e-002	64.02
101294	11.602	0.	0.1	2886.
101295	11.652	0.	5.e-002	63.787
101296	11.503	0.	0.1	2903.5
101297	11.552	0.	5.e-002	63.645
101298	11.403	0.	0.1	2919.7
101299	11.453	0.	5.e-002	63.607
101300	11.303	0.	0.1	2934.2
101301	11.353	0.	5.e-002	63.688
101302	11.204	0.	0.1	2947.
101303	11.254	0.	5.e-002	63.903
101304	11.104	0.	0.1	2957.7
101305	11.154	0.	5.e-002	64.27
101306	11.005	0.	0.1	2966.1
101307	11.055	0.	5.e-002	64.805
101308	10.905	0.	0.1	2971.9
101309	10.955	0.	5.e-002	65.528
101310	10.806	0.	0.1	2974.7
101311	10.855	0.	5.e-002	66.456
101312	10.706	0.	0.1	2974.2
101313	10.756	0.	5.e-002	67.608
101314	10.606	0.	0.1	2969.8
101315	10.656	0.	5.e-002	69.001
101316	10.507	0.	0.1	2961.2
101317	10.557	0.	5.e-002	70.652
101318	10.407	0.	0.1	2947.9
101319	10.457	0.	5.e-002	72.576
101320	10.308	0.	0.1	2929.2
101321	10.357	0.	5.e-002	74.783
101322	10.208	0.	0.1	2904.6
101323	10.258	0.	5.e-002	77.28
101324	10.108	0.	0.1	2873.3
101325	10.158	0.	5.e-002	80.067
101326	10.009	0.	0.1	2834.7
101327	10.059	0.	5.e-002	83.136
101328	9.9093	0.	0.1	2788.
101329	9.9591	0.	5.e-002	86.467
101330	9.8097	0.	0.1	2732.3
101331	9.8595	0.	5.e-002	90.027
101332	9.7102	0.	0.1	2666.9
101333	9.76	0.	5.e-002	93.766
101334	9.6106	0.	0.1	2590.8
101335	9.6604	0.	5.e-002	97.612
101336	9.511	0.	0.1	2503.2
101337	9.5608	0.	5.e-002	101.47
101338	9.4114	0.	0.1	2403.2
101339	9.4612	0.	5.e-002	105.2
101340	9.3118	0.	0.1	2290.2
101341	9.3616	0.	5.e-002	108.66
101342	9.2123	0.	0.1	2163.4
101343	9.2621	0.	5.e-002	111.63
101344	9.1127	0.	0.1	2022.1
101345	9.1625	0.	5.e-002	113.87
101346	9.0131	0.	0.1	1866.2
101347	9.0629	0.	5.e-002	115.08
101348	8.9135	0.	0.1	1695.2
101349	8.9633	0.	5.e-002	114.91
101350	8.8139	0.	0.1	1509.4
101351	8.8637	0.	5.e-002	112.94
101352	8.7144	0.	0.1	1308.8
101353	8.7642	0.	5.e-002	108.69
101354	8.6148	0.	0.1	1093.8
101355	8.6646	0.	5.e-002	101.57
101356	8.5152	0.	0.1	864.59
101357	8.565	0.	5.e-002	90.837
101358	8.4156	0.	0.1	619.62
101359	8.4654	0.	5.e-002	75.394
101360	8.316	0.	0.1	351.93
101361	8.3658	0.	5.e-002	53.706
101362	8.2165	0.	0.1	90.923
101363	8.2662	0.	5.e-002	18.361
101364	8.1667	0.	5.e-002	11.173
101365	7.95	1.2056e-030	0.1	108.11
101366	8.	1.2132e-030	5.e-002	12.995
101367	7.85	1.1904e-030	0.1	417.79
101368	7.9	0.	5.e-002	17.608
101369	7.75	1.1753e-030	0.1	740.53
101370	7.8	0.	5.e-002	54.855
101371	7.65	1.1601e-030	0.1	1040.9
101372	7.7	0.	5.e-002	76.197
101373	7.55	1.1449e-030	0.1	1326.9
101374	7.6	0.	5.e-002	90.287
101375	7.45	1.1298e-030	0.1	1600.1
101376	7.5	0.	5.e-002	98.957
101377	7.35	1.1146e-030	0.1	1860.1
101378	7.4	0.	5.e-002	103.54
101379	7.25	1.0994e-030	0.1	2106.5
101380	7.3	0.	5.e-002	104.93
101381	7.15	1.0843e-030	0.1	2338.9
101382	7.2	0.	5.e-002	103.82
101383	7.05	1.0691e-030	0.1	2557.1
101384	7.1	0.	5.e-002	100.81
101385	6.95	1.054e-030	0.1	2761.1
101386	7.	0.	5.e-002	96.391
101387	6.85	1.0388e-030	0.1	2951.2
101388	6.9	0.	5.e-002	90.979
101389	6.75	1.0236e-030	0.1	3127.8
101390	6.8	0.	5.e-002	84.93
101391	6.65	1.0085e-030	0.1	3291.5
101392	6.7	0.	5.e-002	78.543
101393	6.55	9.9329e-031	0.1	3443.
101394	6.6	0.	5.e-002	72.058
101395	6.45	9.7813e-031	0.1	3583.1
101396	6.5	0.	5.e-002	65.671
101397	6.35	9.6296e-031	0.1	3712.5
101398	6.4	0.	5.e-002	59.538
101399	6.25	9.478e-031	0.1	3832.2
101400	6.3	0.	5.e-002	53.774
101401	6.15	9.3264e-031	0.1	3942.9
101402	6.2	0.	5.e-002	48.47
101403	6.05	9.1747e-031	0.1	4045.5
101404	6.1	0.	5.e-002	43.688
101405	5.95	9.0231e-031	0.1	4140.6
101406	6.	0.	5.e-002	39.471
101407	5.85	8.8714e-031	0.1	4229.1
101408	5.9	0.	5.e-002	35.846
101409	5.75	8.7198e-031	0.1	4311.6
101410	5.8	0.	5.e-002	32.826
101411	5.65	8.5681e-031	0.1	4388.7
101412	5.7	0.	5.e-002	30.415
101413	5.55	8.4165e-031	0.1	4461.
101414	5.6	0.	5.e-002	28.61
101415	5.45	8.2648e-031	0.1	4529.
101416	5.5	0.	5.e-002	27.402
101417	5.35	8.1132e-031	0.1	4593.3
101418	5.4	0.	5.e-002	26.779
101419	5.25	7.9615e-031	0.1	4654.1
101420	5.3	0.	5.e-002	26.726
101421	5.15	7.8099e-031	0.1	4712.
101422	5.2	0.	5.e-002	27.228
101423	5.05	7.6582e-031	0.1	4767.3
101424	5.1	0.	5.e-002	28.268
101425	4.95	7.5066e-031	0.1	4820.2
101426	5.	0.	5.e-002	29.831
101427	4.85	7.3549e-031	0.1	4871.2
101428	4.9	0.	5.e-002	31.9
101429	4.75	7.2033e-031	0.1	4920.3
101430	4.8	0.	5.e-002	34.462
101431	4.65	7.0516e-031	0.1	4967.8
101432	4.7	0.	5.e-002	37.504
101433	4.55	6.9e-031	0.1	5014.
101434	4.6	0.	5.e-002	41.013
101435	4.45	6.7483e-031	0.1	5059.
101436	4.5	0.	5.e-002	44.981
101437	4.35	6.5967e-031	0.1	5103.
101438	4.4	0.	5.e-002	49.399
101439	4.25	6.445e-031	0.1	5146.
101440	4.3	0.	5.e-002	54.261
101441	4.15	6.2934e-031	0.1	5188.2
101442	4.2	0.	5.e-002	59.562
101443	4.05	6.1417e-031	0.1	5229.8
101444	4.1	0.	5.e-002	65.299
101445	3.95	5.9901e-031	0.1	5270.7
101446	4.	0.	5.e-002	71.47
101447	3.85	5.8384e-031	0.1	5311.
101448	3.9	0.	5.e-002	78.077
101449	3.75	5.6868e-031	0.1	5350.8
101450	3.8	0.	5.e-002	85.12
101451	3.65	5.5352e-031	0.1	5390.2
101452	3.7	0.	5.e-002	92.605
101453	3.55	5.3835e-031	0.1	5429.1
101454	3.6	0.	5.e-002	100.54
101455	3.45	5.2319e-031	0.1	5467.6
101456	3.5	0.	5.e-002	108.92
101457	3.35	5.0802e-031	0.1	5505.7
101458	3.4	0.	5.e-002	117.76
101459	3.25	4.9286e-031	0.1	5543.3
101460	3.3	0.	5.e-002	127.08
101461	3.15	4.7769e-031	0.1	5580.5
101462	3.2	0.	5.e-002	136.88
101463	3.05	4.6253e-031	0.1	5617.1
101464	3.1	0.	5.e-002	147.18
101465	2.95	4.4736e-031	0.1	5653.2
101466	3.	0.	5.e-002	157.99
101467	2.85	4.322e-031	0.1	5688.7
101468	2.9	0.	5.e-002	169.32
101469	2.75	4.1703e-031	0.1	5723.4
101470	2.8	0.	5.e-002	181.21
101471	2.65	4.0187e-031	0.1	5757.3
101472	2.7	0.	5.e-002	193.66
101473	2.55	3.867e-031	0.1	5790.2
101474	2.6	0.	5.e-002	206.71
101475	2.45	3.7154e-031	0.1	5822.
101476	2.5	0.	5.e-002	220.38
101477	2.35	3.5637e-031	0.1	5852.4
101478	2.4	0.	5.e-002	234.69
101479	2.25	3.4121e-031	0.1	5881.2
101480	2.3	0.	5.e-002	249.68
101481	2.15	3.2604e-031	0.1	5908.2
101482	2.2	0.	5.e-002	265.39
101483	2.05	3.1088e-031	0.1	5933.
101484	2.1	0.	5.e-002	281.85
101485	1.95	2.9571e-031	0.1	5955.1
101486	2.	0.	5.e-002	299.11
101487	1.85	2.8055e-031	0.1	5974.2
101488	1.9	0.	5.e-002	317.23
101489	1.75	2.6538e-031	0.1	5989.6
101490	1.8	0.	5.e-002	336.24
101491	1.65	2.5022e-031	0.1	6000.6
101492	1.7	0.	5.e-002	356.23
101493	1.55	2.3505e-031	0.1	6006.4
101494	1.6	0.	5.e-002	377.26
101495	1.45	2.1989e-031	0.1	6005.9
101496	1.5	0.	5.e-002	399.41
101497	1.35	2.0472e-031	0.1	5997.8
101498	1.4	0.	5.e-002	422.8
101499	1.25	1.8956e-031	0.1	5980.5
101500	1.3	0.	5.e-002	447.52
101501	1.15	1.744e-031	0.1	5951.7
101502	1.2	0.	5.e-002	473.73
101503	1.05	1.5923e-031	0.1	5908.8
101504	1.1	0.	5.e-002	501.57
101505	0.95	1.4407e-031	0.1	5848.2
101506	1.	0.	5.e-002	531.26
101507	0.85	1.289e-031	0.1	5764.8
101508	0.9	0.	5.e-002	563.03
101509	0.75	1.1374e-031	0.1	5651.7
101510	0.8	0.	5.e-002	597.2
101511	0.65	9.8571e-032	0.1	5498.9
101512	0.7	0.	5.e-002	634.19
101513	0.55	8.3406e-032	0.1	5291.1
101514	0.6	0.	5.e-002	674.56
101515	0.45	6.8242e-032	0.1	5004.1
101516	0.5	0.	5.e-002	719.16
101517	0.35	5.3077e-032	0.1	4596.2
101518	0.4	0.	5.e-002	769.32
101519	0.25	3.7912e-032	0.1	3985.2
101520	0.3	0.	5.e-002	828.42
101521	0.15	2.2747e-032	0.1	3007.8
101522	0.2	0.	5.e-002	898.76
101523	5.e-002	7.5824e-033	0.1	1383.
101524	0.1	0.	5.e-002	1053.4
101525	0.	0.	5.e-002	1129.7
101526	5.e-002	6.	0.1	1383.
101527	5.2451e-014	6.	5.e-002	1129.7
101528	0.15	6.	0.1	3007.8
101529	0.1	6.	5.e-002	1053.4
101530	0.25	6.	0.1	3985.2
101531	0.2	6.	5.e-002	898.76
101532	0.35	6.	0.1	4596.2
101533	0.3	6.	5.e-002	828.41
101534	0.45	6.	0.1	5004.1
101535	0.4	6.	5.e-002	769.32
101536	0.55	6.	0.1	5291.1
101537	0.5	6.	5.e-002	719.16
101538	0.65	6.	0.1	5498.9
101539	0.6	6.	5.e-002	674.56
101540	0.75	6.	0.1	5651.7
101541	0.7	6.	5.e-002	634.19
101542	0.85	6.	0.1	5764.8
101543	0.8	6.	5.e-002	597.2
101544	0.95	6.	0.1	5848.2
101545	0.9	6.	5.e-002	563.03
101546	1.05	6.	0.1	5908.8
101547	1.	6.	5.e-002	531.25
101548	1.15	6.	0.1	5951.7
101549	1.1	6.	5.e-002	501.57
101550	1.25	6.	0.1	5980.5
101551	1.2	6.	5.e-002	473.73
101552	1.35	6.	0.1	5997.8
101553	1.3	6.	5.e-002	447.52
101554	1.45	6.	0.1	6005.9
101555	1.4	6.	5.e-002	422.8
101556	1.55	6.	0.1	6006.4
101557	1.5	6.	5.e-002	399.41
101558	1.65	6.	0.1	6000.6
101559	1.6	6.	5.e-002	377.26
101560	1.75	6.	0.1	5989.6
101561	1.7	6.	5.e-002	356.23
101562	1.85	6.	0.1	5974.2
101563	1.8	6.	5.e-002	336.24
101564	1.95	6.	0.1	5955.1
101565	1.9	6.	5.e-002	317.22
101566	2.05	6.	0.1	5933.
101567	2.	6.	5.e-002	299.11
101568	2.15	6.	0.1	5908.2
101569	2.1	6.	5.e-002	281.85
101570	2.25	6.	0.1	5881.2
101571	2.2	6.	5.e-002	265.39
101572	2.35	6.	0.1	5852.4
101573	2.3	6.	5.e-002	249.68
101574	2.45	6.	0.1	5822.
101575	2.4	6.	5.e-002	234.69
101576	2.55	6.	0.1	5790.2
101577	2.5	6.	5.e-002	220.38
101578	2.65	6.	0.1	5757.3
101579	2.6	6.	5.e-002	206.71
101580	2.75	6.	0.1	5723.4
101581	2.7	6.	5.e-002	193.66
101582	2.85	6.	0.1	5688.7
101583	2.8	6.	5.e-002	181.21
101584	2.95	6.	0.1	5653.2
101585	2.9	6.	5.e-002	169.32
101586	3.05	6.	0.1	5617.1
101587	3.	6.	5.e-002	157.98
101588	3.15	6.	0.1	5580.5
101589	3.1	6.	5.e-002	147.18
101590	3.25	6.	0.1	5543.3
101591	3.2	6.	5.e-002	136.88
101592	3.35	6.	0.1	5505.7
101593	3.3	6.	5.e-002	127.08
101594	3.45	6.	0.1	5467.6
101595	3.4	6.	5.e-002	117.76
101596	3.55	6.	0.1	5429.1
101597	3.5	6.	5.e-002	108.92
101598	3.65	6.	0.1	5390.2
101599	3.6	6.	5.e-002	100.53
101600	3.75	6.	0.1	5350.8
101601	3.7	6.	5.e-002	92.604
101602	3.85	6.	0.1	5311.
101603	3.8	6.	5.e-002	85.12
101604	3.95	6.	0.1	5270.7
101605	3.9	6.	5.e-002	78.076
101606	4.05	6.	0.1	5229.8
101607	4.	6.	5.e-002	71.469
101608	4.15	6.	0.1	5188.2
101609	4.1	6.	5.e-002	65.298
101610	4.25	6.	0.1	5146.
101611	4.2	6.	5.e-002	59.561
101612	4.35	6.	0.1	5103.
101613	4.3	6.	5.e-002	54.26
101614	4.45	6.	0.1	5059.
101615	4.4	6.	5.e-002	49.399
101616	4.55	6.	0.1	5014.
101617	4.5	6.	5.e-002	44.98
101618	4.65	6.	0.1	4967.8
101619	4.6	6.	5.e-002	41.013
101620	4.75	6.	0.1	4920.3
101621	4.7	6.	5.e-002	37.503
101622	4.85	6.	0.1	4871.2
101623	4.8	6.	5.e-002	34.461
101624	4.95	6.	0.1	4820.2
101625	4.9	6.	5.e-002	31.9
101626	5.05	6.	0.1	4767.3
101627	5.	6.	5.e-002	29.83
101628	5.15	6.	0.1	4712.
101629	5.1	6.	5.e-002	28.268
101630	5.25	6.	0.1	4654.1
101631	5.2	6.	5.e-002	27.227
101632	5.35	6.	0.1	4593.3
101633	5.3	6.	5.e-002	26.726
101634	5.45	6.	0.1	4529.
101635	5.4	6.	5.e-002	26.778
101636	5.55	6.	0.1	4461.
101637	5.5	6.	5.e-002	27.401
101638	5.65	6.	0.1	4388.7
101639	5.6	6.	5.e-002	28.609
101640	5.75	6.	0.1	4311.6
101641	5.7	6.	5.e-002	30.414
101642	5.85	6.	0.1	4229.1
101643	5.8	6.	5.e-002	32.825
101644	5.95	6.	0.1	4140.6
101645	5.9	6.	5.e-002	35.845
101646	6.05	6.	0.1	4045.5
101647	6.	6.	5.e-002	39.471
101648	6.15	6.	0.1	3942.9
101649	6.1	6.	5.e-002	43.688
101650	6.25	6.	0.1	3832.2
101651	6.2	6.	5.e-002	48.47
101652	6.35	6.	0.1	3712.5
101653	6.3	6.	5.e-002	53.774
101654	6.45	6.	0.1	3583.1
101655	6.4	6.	5.e-002	59.537
101656	6.55	6.	0.1	3443.
101657	6.5	6.	5.e-002	65.671
101658	6.65	6.	0.1	3291.5
101659	6.6	6.	5.e-002	72.058
101660	6.75	6.	0.1	3127.8
101661	6.7	6.	5.e-002	78.542
101662	6.85	6.	0.1	2951.2
101663	6.8	6.	5.e-002	84.93
101664	6.95	6.	0.1	2761.1
101665	6.9	6.	5.e-002	90.979
101666	7.05	6.	0.1	2557.1
101667	7.	6.	5.e-002	96.391
101668	7.15	6.	0.1	2338.9
101669	7.1	6.	5.e-002	100.81
101670	7.25	6.	0.1	2106.5
101671	7.2	6.	5.e-002	103.82
101672	7.35	6.	0.1	1860.1
101673	7.3	6.	5.e-002	104.93
101674	7.45	6.	0.1	1600.1
101675	7.4	6.	5.e-002	103.54
101676	7.55	6.	0.1	1326.9
101677	7.5	6.	5.e-002	98.957
101678	7.65	6.	0.1	1040.9
101679	7.6	6.	5.e-002	90.287
101680	7.75	6.	0.1	740.53
101681	7.7	6.	5.e-002	76.197
101682	7.85	6.	0.1	417.79
101683	7.8	6.	5.e-002	54.855
101684	7.95	6.	0.1	108.11
101685	7.9	6.	5.e-002	17.608
101686	8.	6.	5.e-002	12.995
101687	7.85	6.	0.	14.263
101688	7.95	6.	0.	16.12
101689	7.75	6.	0.	14.493
101690	7.65	6.	0.	14.367
101691	7.55	6.	0.	13.813
101692	7.45	6.	0.	12.772
101693	7.35	6.	0.	11.484
101694	7.25	6.	0.	10.106
101695	7.15	6.	0.	8.7399
101696	7.05	6.	0.	7.45
101697	6.95	6.	0.	6.2735
101698	6.85	6.	0.	5.2287
101699	6.75	6.	0.	4.3206
101700	6.65	6.	0.	3.5454
101701	6.55	6.	0.	2.8937
101702	6.45	6.	0.	2.353
101703	6.35	6.	0.	1.9095
101704	6.25	6.	0.	1.5494
101705	6.15	6.	0.	1.2594
101706	6.05	6.	0.	1.0275
101707	5.95	6.	0.	0.84338
101708	5.85	6.	0.	0.698
101709	5.75	6.	0.	0.58402
101710	5.65	6.	0.	0.49564
101711	5.55	6.	0.	0.42848
101712	5.45	6.	0.	0.37976
101713	5.35	6.	0.	0.34879
101714	5.25	6.	0.	0.33965
101715	5.15	6.	0.	0.37215
101716	5.05	6.	0.	0.47429
101717	4.95	6.	0.	0.61462
101718	4.85	6.	0.	0.76283
101719	4.75	6.	0.	0.91098
101720	4.65	6.	0.	1.0572
101721	4.55	6.	0.	1.2013
101722	4.45	6.	0.	1.3437
101723	4.35	6.	0.	1.485
101724	4.25	6.	0.	1.6261
101725	4.15	6.	0.	1.7684
101726	4.05	6.	0.	1.9142
101727	3.95	6.	0.	2.0672
101728	3.85	6.	0.	2.2358
101729	3.75	6.	0.	2.4381
101730	3.65	6.	0.	2.7075
101731	3.55	6.	0.	3.0708
101732	3.45	6.	0.	3.5263
101733	3.35	6.	0.	4.0651
101734	3.25	6.	0.	4.6853
101735	3.15	6.	0.	5.39
101736	3.05	6.	0.	6.1849
101737	2.95	6.	0.	7.0775
101738	2.85	6.	0.	8.0765
101739	2.75	6.	0.	9.1919
101740	2.65	6.	0.	10.435
101741	2.55	6.	0.	11.818
101742	2.45	6.	0.	13.356
101743	2.35	6.	0.	15.065
101744	2.25	6.	0.	16.962
101745	2.15	6.	0.	19.069
101746	2.05	6.	0.	21.409
101747	1.95	6.	0.	24.011
101748	1.85	6.	0.	26.907
101749	1.75	6.	0.	30.135
101750	1.65	6.	0.	33.74
101751	1.55	6.	0.	37.779
101752	1.45	6.	0.	42.319
101753	1.35	6.	0.	47.443
101754	1.25	6.	0.	53.257
101755	1.15	6.	0.	59.899
101756	1.05	6.	0.	67.548
101757	0.95	6.	0.	76.451
101758	0.85	6.	0.	86.95
101759	0.75	6.	0.	99.549
101760	0.65	6.	0.	115.04
101761	0.55	6.	0.	134.65
101762	0.45	6.	0.	161.1
101763	0.35	6.	0.	197.52
101764	0.25	6.	0.	267.16
101765	0.15	6.	0.	377.9
101766	5.e-002	6.	0.	1128.
101767	8.	5.95	0.	27.008
101768	5.2014e-014	5.95	0.	1104.7
101769	0.15	2.2747e-032	0.	377.9
101770	5.e-002	7.5824e-033	0.	1128.
101771	0.25	3.7912e-032	0.	267.16
101772	0.35	5.3077e-032	0.	197.52
101773	0.45	6.8242e-032	0.	161.1
101774	0.55	8.3406e-032	0.	134.65
101775	0.65	9.8571e-032	0.	115.04
101776	0.75	1.1374e-031	0.	99.549
101777	0.85	1.289e-031	0.	86.95
101778	0.95	1.4407e-031	0.	76.451
101779	1.05	1.5923e-031	0.	67.549
101780	1.15	1.744e-031	0.	59.899
101781	1.25	1.8956e-031	0.	53.257
101782	1.35	2.0472e-031	0.	47.443
101783	1.45	2.1989e-031	0.	42.319
101784	1.55	2.3505e-031	0.	37.779
101785	1.65	2.5022e-031	0.	33.74
101786	1.75	2.6538e-031	0.	30.135
101787	1.85	2.8055e-031	0.	26.907
101788	1.95	2.9571e-031	0.	24.011
101789	2.05	3.1088e-031	0.	21.409
101790	2.15	3.2604e-031	0.	19.069
101791	2.25	3.4121e-031	0.	16.962
101792	2.35	3.5637e-031	0.	15.065
101793	2.45	3.7154e-031	0.	13.356
101794	2.55	3.867e-031	0.	11.818
101795	2.65	4.0187e-031	0.	10.435
101796	2.75	4.1703e-031	0.	9.1919
101797	2.85	4.322e-031	0.	8.0765
101798	2.95	4.4736e-031	0.	7.0775
101799	3.05	4.6253e-031	0.	6.1849
101800	3.15	4.7769e-031	0.	5.39
101801	3.25	4.9286e-031	0.	4.6853
101802	3.35	5.0802e-031	0.	4.0651
101803	3.45	5.2319e-031	0.	3.5263
101804	3.55	5.3835e-031	0.	3.0708
101805	3.65	5.5352e-031	0.	2.7075
101806	3.75	5.6868e-031	0.	2.4381
101807	3.85	5.8384e-031	0.	2.2358
101808	3.95	5.9901e-031	0.	2.0672
101809	4.05	6.1417e-031	0.	1.9142
101810	4.15	6.2934e-031	0.	1.7684
101811	4.25	6.445e-031	0.	1.6261
101812	4.35	6.5967e-031	0.	1.485
101813	4.45	6.7483e-031	0.	1.3437
101814	4.55	6.9e-031	0.	1.2013
101815	4.65	7.0516e-031	0.	1.0572
101816	4.75	7.2033e-031	0.	0.91098
101817	4.85	7.3549e-031	0.	0.76283
101818	4.95	7.5066e-031	0.	0.61462
101819	5.05	7.6582e-031	0.	0.47429
101820	5.15	7.8099e-031	0.	0.37216
101821	5.25	7.9615e-031	0.	0.33966
101822	5.35	8.1132e-031	0.	0.34879
101823	5.45	8.2648e-031	0.	0.37977
101824	5.55	8.4165e-031	0.	0.42849
101825	5.65	8.5681e-031	0.	0.49564
101826	5.75	8.7198e-031	0.	0.58403
101827	5.85	8.8714e-031	0.	0.698
101828	5.95	9.0231e-031	0.	0.84338
101829	6.05	9.1747e-031	0.	1.0275
101830	6.15	9.3264e-031	0.	1.2594
101831	6.25	9.478e-031	0.	1.5494
101832	6.35	9.6296e-031	0.	1.9095
101833	6.45	9.7813e-031	0.	2.353
101834	6.55	9.9329e-031	0.	2.8937
101835	6.65	1.0085e-030	0.	3.5454
101836	6.75	1.0236e-030	0.	4.3206
101837	6.85	1.0388e-030	0.	5.2287
101838	6.95	1.054e-030	0.	6.2735
101839	7.05	1.0691e-030	0.	7.45
101840	7.15	1.0843e-030	0.	8.7399
101841	7.25	1.0994e-030	0.	10.106
101842	7.35	1.1146e-030	0.	11.484
101843	7.45	1.1298e-030	0.	12.772
101844	7.55	1.1449e-030	0.	13.813
101845	7.65	1.1601e-030	0.	14.367
101846	7.75	1.1753e-030	0.	14.493
101847	7.85	1.1904e-030	0.	14.263
101848	7.95	1.2056e-030	0.	16.12
101849	8.	5.e-002	0.	27.008
101850	4.371e-016	5.e-002	0.	1104.7
101851	8.316	0.	0.	14.055
101852	8.2165	0.	0.	14.774
101853	8.4156	0.	0.	15.353
101854	8.5152	0.	0.	16.075
101855	8.6148	0.	0.	16.19
101856	8.7144	0.	0.	15.701
101857	8.8139	0.	0.	14.846
101858	8.9135	0.	0.	13.787
101859	9.0131	0.	0.	12.634
101860	9.1127	0.	0.	11.464
101861	9.2123	0.	0.	10.327
101862	9.3118	0.	0.	9.2566
101863	9.4114	0.	0.	8.2708
101864	9.511	0.	0.	7.3787
101865	9.6106	0.	0.	6.5823
101866	9.7102	0.	0.	5.8791
101867	9.8097	0.	0.	5.2638
101868	9.9093	0.	0.	4.7295
101869	10.009	0.	0.	4.2684
101870	10.108	0.	0.	3.8727
101871	10.208	0.	0.	3.535
101872	10.308	0.	0.	3.2483
101873	10.407	0.	0.	3.0063
101874	10.507	0.	0.	2.8033
101875	10.606	0.	0.	2.6344
101876	10.706	0.	0.	2.4951
101877	10.806	0.	0.	2.3818
101878	10.905	0.	0.	2.2913
101879	11.005	0.	0.	2.2207
101880	11.104	0.	0.	2.1677
101881	11.204	0.	0.	2.1303
101882	11.303	0.	0.	2.1066
101883	11.403	0.	0.	2.0952
101884	11.503	0.	0.	2.0947
101885	11.602	0.	0.	2.104
101886	11.702	0.	0.	2.1221
101887	11.801	0.	0.	2.1481
101888	11.901	0.	0.	2.1811
101889	12.001	0.	0.	2.2206
101890	12.1	0.	0.	2.2658
101891	12.2	0.	0.	2.3161
101892	12.299	0.	0.	2.3711
101893	12.399	0.	0.	2.4302
101894	12.498	0.	0.	2.493
101895	12.598	0.	0.	2.5591
101896	12.698	0.	0.	2.6281
101897	12.797	0.	0.	2.6998
101898	12.897	0.	0.	2.7736
101899	12.996	0.	0.	2.8495
101900	13.096	0.	0.	2.9271
101901	13.195	0.	0.	3.0061
101902	13.295	0.	0.	3.0864
101903	13.395	0.	0.	3.1677
101904	13.494	0.	0.	3.2499
101905	13.594	0.	0.	3.3328
101906	13.693	0.	0.	3.4162
101907	13.793	0.	0.	3.5001
101908	13.893	0.	0.	3.5842
101909	13.992	0.	0.	3.6685
101910	14.092	0.	0.	3.7529
101911	14.191	0.	0.	3.8373
101912	14.291	0.	0.	3.9217
101913	14.39	0.	0.	4.0059
101914	14.49	0.	0.	4.0899
101915	14.59	0.	0.	4.1737
101916	14.689	0.	0.	4.2573
101917	14.789	0.	0.	4.3405
101918	14.888	0.	0.	4.4235
101919	14.988	0.	0.	4.5061
101920	15.088	0.	0.	4.5884
101921	15.187	0.	0.	4.6703
101922	15.287	0.	0.	4.752
101923	15.386	0.	0.	4.8332
101924	15.486	0.	0.	4.9142
101925	15.585	0.	0.	4.9948
101926	15.685	0.	0.	5.0751
101927	15.785	0.	0.	5.1551
101928	15.884	0.	0.	5.2348
101929	15.984	0.	0.	5.3143
101930	16.083	0.	0.	5.3935
101931	16.183	0.	0.	5.4725
101932	16.282	0.	0.	5.5514
101933	16.382	0.	0.	5.6301
101934	16.482	0.	0.	5.7086
101935	16.581	0.	0.	5.787
101936	16.681	0.	0.	5.8653
101937	16.78	0.	0.	5.9436
101938	16.88	0.	0.	6.0218
101939	16.98	0.	0.	6.1
101940	17.079	0.	0.	6.1782
101941	17.179	0.	0.	6.2564
101942	17.278	0.	0.	6.3347
101943	17.378	0.	0.	6.4131
101944	17.477	0.	0.	6.4915
101945	17.577	0.	0.	6.5701
101946	17.677	0.	0.	6.6489
101947	17.776	0.	0.	6.7277
101948	17.876	0.	0.	6.8068
101949	17.975	0.	0.	6.886
101950	18.075	0.	0.	6.9655
101951	18.175	0.	0.	7.0451
101952	18.274	0.	0.	7.125
101953	18.374	0.	0.	7.2051
101954	18.473	0.	0.	7.2854
101955	18.573	0.	0.	7.366
101956	18.672	0.	0.	7.4468
101957	18.772	0.	0.	7.5278
101958	18.872	0.	0.	7.609
101959	18.971	0.	0.	7.6905
101960	19.071	0.	0.	7.7721
101961	19.17	0.	0.	7.8539
101962	19.27	0.	0.	7.9359
101963	19.369	0.	0.	8.0179
101964	19.469	0.	0.	8.1001
101965	19.569	0.	0.	8.1824
101966	19.668	0.	0.	8.2646
101967	19.768	0.	0.	8.3468
101968	19.867	0.	0.	8.429
101969	19.967	0.	0.	8.511
101970	20.067	0.	0.	8.5928
101971	20.166	0.	0.	8.6743
101972	20.266	0.	0.	8.7554
101973	20.365	0.	0.	8.836
101974	20.465	0.	0.	8.9161
101975	20.564	0.	0.	8.9956
101976	20.664	0.	0.	9.0742
101977	20.764	0.	0.	9.1519
101978	20.863	0.	0.	9.2285
101979	20.963	0.	0.	9.3038
101980	21.062	0.	0.	9.3777
101981	21.162	0.	0.	9.45
101982	21.262	0.	0.	9.5204
101983	21.361	0.	0.	9.5888
101984	21.461	0.	0.	9.6548
101985	21.56	0.	0.	9.7181
101986	21.66	0.	0.	9.7785
101987	21.759	0.	0.	9.8355
101988	21.859	0.	0.	9.8887
101989	21.959	0.	0.	9.9378
101990	22.058	0.	0.	9.9821
101991	22.158	0.	0.	10.021
101992	22.257	0.	0.	10.054
101993	22.357	0.	0.	10.08
101994	22.456	0.	0.	10.099
101995	22.556	0.	0.	10.109
101996	22.656	0.	0.	10.109
101997	22.755	0.	0.	10.097
101998	22.855	0.	0.	10.073
101999	22.954	0.	0.	10.032
102000	23.054	0.	0.	9.9728
102001	23.154	0.	0.	9.8906
102002	23.253	0.	0.	9.7799
102003	23.353	0.	0.	9.6323
102004	23.452	0.	0.	9.4339
102005	23.552	0.	0.	9.1626
102006	23.651	0.	0.	8.7668
102007	23.751	0.	0.	8.1503
102008	23.851	0.	0.	6.8272
102009	23.95	0.	0.	4.1451
102010	8.1667	5.e-002	0.	22.86
102011	24.	5.e-002	0.	9.3009
102012	5.114e-014	5.85	0.	-533.11
102013	5.0266e-014	5.75	0.	-1551.2
102014	4.9392e-014	5.65	0.	-2115.3
102015	4.8518e-014	5.55	0.	-2483.9
102016	4.7643e-014	5.45	0.	-2743.5
102017	4.6769e-014	5.35	0.	-2937.7
102018	4.5895e-014	5.25	0.	-3089.
102019	4.5021e-014	5.15	0.	-3210.3
102020	4.4147e-014	5.05	0.	-3309.8
102021	4.3272e-014	4.95	0.	-3392.5
102022	4.2398e-014	4.85	0.	-3462.2
102023	4.1524e-014	4.75	0.	-3521.5
102024	4.065e-014	4.65	0.	-3572.3
102025	3.9776e-014	4.55	0.	-3616.
102026	3.8902e-014	4.45	0.	-3653.8
102027	3.8027e-014	4.35	0.	-3686.6
102028	3.7153e-014	4.25	0.	-3715.1
102029	3.6279e-014	4.15	0.	-3739.8
102030	3.5405e-014	4.05	0.	-3761.3
102031	3.4531e-014	3.95	0.	-3779.9
102032	3.3656e-014	3.85	0.	-3795.9
102033	3.2782e-014	3.75	0.	-3809.6
102034	3.1908e-014	3.65	0.	-3821.1
102035	3.1034e-014	3.55	0.	-3830.8
102036	3.016e-014	3.45	0.	-3838.6
102037	2.9285e-014	3.35	0.	-3844.8
102038	2.8411e-014	3.25	0.	-3849.3
102039	2.7537e-014	3.15	0.	-3852.3
102040	2.6663e-014	3.05	0.	-3853.8
102041	2.5789e-014	2.95	0.	-3853.8
102042	2.4914e-014	2.85	0.	-3852.3
102043	2.404e-014	2.75	0.	-3849.3
102044	2.3166e-014	2.65	0.	-3844.8
102045	2.2292e-014	2.55	0.	-3838.6
102046	2.1418e-014	2.45	0.	-3830.8
102047	2.0543e-014	2.35	0.	-3821.1
102048	1.9669e-014	2.25	0.	-3809.6
102049	1.8795e-014	2.15	0.	-3795.9
102050	1.7921e-014	2.05	0.	-3779.9
102051	1.7047e-014	1.95	0.	-3761.3
102052	1.6173e-014	1.85	0.	-3739.8
102053	1.5298e-014	1.75	0.	-3715.1
102054	1.4424e-014	1.65	0.	-3686.6
102055	1.355e-014	1.55	0.	-3653.8
102056	1.2676e-014	1.45	0.	-3616.
102057	1.1802e-014	1.35	0.	-3572.3
102058	1.0927e-014	1.25	0.	-3521.5
102059	1.0053e-014	1.15	0.	-3462.2
102060	9.179e-015	1.05	0.	-3392.5
102061	8.3048e-015	0.95	0.	-3309.8
102062	7.4306e-015	0.85	0.	-3210.3
102063	6.5564e-015	0.75	0.	-3089.
102064	5.6822e-015	0.65	0.	-2937.7
102065	4.8081e-015	0.55	0.	-2743.5
102066	3.9339e-015	0.45	0.	-2483.9
102067	3.0597e-015	0.35	0.	-2115.3
102068	2.1855e-015	0.25	0.	-1551.2
102069	1.3113e-015	0.15	0.	-533.11
102070	24.	0.15	0.	29.557
102071	24.	0.25	0.	47.491
102072	24.	0.35	0.	61.933
102073	24.	0.45	0.	74.438
102074	24.	0.55	0.	85.578
102075	24.	0.65	0.	95.641
102076	24.	0.75	0.	104.81
102077	24.	0.85	0.	113.22
102078	24.	0.95	0.	120.95
102079	24.	1.05	0.	128.09
102080	24.	1.15	0.	134.68
102081	24.	1.25	0.	140.76
102082	24.	1.35	0.	146.39
102083	24.	1.45	0.	151.57
102084	24.	1.55	0.	156.35
102085	24.	1.65	0.	160.73
102086	24.	1.75	0.	164.75
102087	24.	1.85	0.	168.4
102088	24.	1.95	0.	171.72
102089	24.	2.05	0.	174.7
102090	24.	2.15	0.	177.36
102091	24.	2.25	0.	179.7
102092	24.	2.35	0.	181.74
102093	24.	2.45	0.	183.47
102094	24.	2.55	0.	184.91
102095	24.	2.65	0.	186.06
102096	24.	2.75	0.	186.92
102097	24.	2.85	0.	187.49
102098	24.	2.95	0.	187.77
102099	24.	3.05	0.	187.77
102100	24.	3.15	0.	187.49
102101	24.	3.25	0.	186.92
102102	24.	3.35	0.	186.06
102103	24.	3.45	0.	184.91
102104	24.	3.55	0.	183.47
102105	24.	3.65	0.	181.74
102106	24.	3.75	0.	179.7
102107	24.	3.85	0.	177.36
102108	24.	3.95	0.	174.7
102109	24.	4.05	0.	171.72
102110	24.	4.15	0.	168.4
102111	24.	4.25	0.	164.75
102112	24.	4.35	0.	160.73
102113	24.	4.45	0.	156.35
102114	24.	4.55	0.	151.57
102115	24.	4.65	0.	146.39
102116	24.	4.75	0.	140.76
102117	24.	4.85	0.	134.68
102118	24.	4.95	0.	128.09
102119	24.	5.05	0.	120.95
102120	24.	5.15	0.	113.22
102121	24.	5.25	0.	104.81
102122	24.	5.35	0.	95.641
102123	24.	5.45	0.	85.578
102124	24.	5.55	0.	74.438
102125	24.	5.65	0.	61.933
102126	24.	5.75	0.	47.491
102127	24.	5.85	0.	29.557
102128	24.	5.95	0.	9.3009
102129	23.95	6.	0.	4.1451
102130	23.851	6.	0.	6.8272
102131	23.751	6.	0.	8.1503
102132	23.651	6.	0.	8.7668
102133	23.552	6.	0.	9.1626
102134	23.452	6.	0.	9.4339
102135	23.353	6.	0.	9.6323
102136	23.253	6.	0.	9.7799
102137	23.154	6.	0.	9.8906
102138	23.054	6.	0.	9.9728
102139	22.954	6.	0.	10.032
102140	22.855	6.	0.	10.073
102141	22.755	6.	0.	10.097
102142	22.656	6.	0.	10.109
102143	22.556	6.	0.	10.109
102144	22.456	6.	0.	10.099
102145	22.357	6.	0.	10.08
102146	22.257	6.	0.	10.054
102147	22.158	6.	0.	10.021
102148	22.058	6.	0.	9.9821
102149	21.959	6.	0.	9.9378
102150	21.859	6.	0.	9.8887
102151	21.759	6.	0.	9.8355
102152	21.66	6.	0.	9.7785
102153	21.56	6.	0.	9.7181
102154	21.461	6.	0.	9.6548
102155	21.361	6.	0.	9.5888
102156	21.262	6.	0.	9.5204
102157	21.162	6.	0.	9.45
102158	21.062	6.	0.	9.3777
102159	20.963	6.	0.	9.3038
102160	20.863	6.	0.	9.2285
102161	20.764	6.	0.	9.1519
102162	20.664	6.	0.	9.0742
102163	20.564	6.	0.	8.9956
102164	20.465	6.	0.	8.9161
102165	20.365	6.	0.	8.836
102166	20.266	6.	0.	8.7554
102167	20.166	6.	0.	8.6743
102168	20.067	6.	0.	8.5928
102169	19.967	6.	0.	8.511
102170	19.867	6.	0.	8.429
102171	19.768	6.	0.	8.3469
102172	19.668	6.	0.	8.2646
102173	19.569	6.	0.	8.1824
102174	19.469	6.	0.	8.1001
102175	19.369	6.	0.	8.0179
102176	19.27	6.	0.	7.9359
102177	19.17	6.	0.	7.8539
102178	19.071	6.	0.	7.7721
102179	18.971	6.	0.	7.6905
102180	18.872	6.	0.	7.609
102181	18.772	6.	0.	7.5278
102182	18.672	6.	0.	7.4468
102183	18.573	6.	0.	7.366
102184	18.473	6.	0.	7.2854
102185	18.374	6.	0.	7.2051
102186	18.274	6.	0.	7.125
102187	18.175	6.	0.	7.0451
102188	18.075	6.	0.	6.9655
102189	17.975	6.	0.	6.886
102190	17.876	6.	0.	6.8068
102191	17.776	6.	0.	6.7277
102192	17.677	6.	0.	6.6489
102193	17.577	6.	0.	6.5701
102194	17.477	6.	0.	6.4915
102195	17.378	6.	0.	6.4131
102196	17.278	6.	0.	6.3347
102197	17.179	6.	0.	6.2564
102198	17.079	6.	0.	6.1782
102199	16.98	6.	0.	6.1
102200	16.88	6.	0.	6.0218
102201	16.78	6.	0.	5.9436
102202	16.681	6.	0.	5.8653
102203	16.581	6.	0.	5.787
102204	16.482	6.	0.	5.7086
102205	16.382	6.	0.	5.6301
102206	16.282	6.	0.	5.5514
102207	16.183	6.	0.	5.4725
102208	16.083	6.	0.	5.3935
102209	15.984	6.	0.	5.3143
102210	15.884	6.	0.	5.2348
102211	15.785	6.	0.	5.1551
102212	15.685	6.	0.	5.0751
102213	15.585	6.	0.	4.9948
102214	15.486	6.	0.	4.9142
102215	15.386	6.	0.	4.8332
102216	15.287	6.	0.	4.752
102217	15.187	6.	0.	4.6703
102218	15.088	6.	0.	4.5884
102219	14.988	6.	0.	4.5061
102220	14.888	6.	0.	4.4235
102221	14.789	6.	0.	4.3405
102222	14.689	6.	0.	4.2573
102223	14.59	6.	0.	4.1737
102224	14.49	6.	0.	4.0899
102225	14.39	6.	0.	4.0059
102226	14.291	6.	0.	3.9217
102227	14.191	6.	0.	3.8373
102228	14.092	6.	0.	3.7529
102229	13.992	6.	0.	3.6685
102230	13.893	6.	0.	3.5842
102231	13.793	6.	0.	3.5001
102232	13.693	6.	0.	3.4162
102233	13.594	6.	0.	3.3328
102234	13.494	6.	0.	3.2499
102235	13.395	6.	0.	3.1677
102236	13.295	6.	0.	3.0864
102237	13.195	6.	0.	3.0061
102238	13.096	6.	0.	2.9271
102239	12.996	6.	0.	2.8495
102240	12.897	6.	0.	2.7736
102241	12.797	6.	0.	2.6998
102242	12.698	6.	0.	2.6281
102243	12.598	6.	0.	2.5591
102244	12.498	6.	0.	2.493
102245	12.399	6.	0.	2.4302
102246	12.299	6.	0.	2.3711
102247	12.2	6.	0.	2.3161
102248	12.1	6.	0.	2.2658
102249	12.001	6.	0.	2.2206
102250	11.901	6.	0.	2.1811
102251	11.801	6.	0.	2.1481
102252	11.702	6.	0.	2.1221
102253	11.602	6.	0.	2.104
102254	11.503	6.	0.	2.0947
102255	11.403	6.	0.	2.0952
102256	11.303	6.	0.	2.1066
102257	11.204	6.	0.	2.1303
102258	11.104	6.	0.	2.1677
102259	11.005	6.	0.	2.2207
102260	10.905	6.	0.	2.2913
102261	10.806	6.	0.	2.3818
102262	10.706	6.	0.	2.4951
102263	10.606	6.	0.	2.6344
102264	10.507	6.	0.	2.8033
102265	10.407	6.	0.	3.0063
102266	10.308	6.	0.	3.2483
102267	10.208	6.	0.	3.535
102268	10.108	6.	0.	3.8727
102269	10.009	6.	0.	4.2684
102270	9.9093	6.	0.	4.7295
102271	9.8097	6.	0.	5.2638
102272	9.7102	6.	0.	5.8791
102273	9.6106	6.	0.	6.5823
102274	9.511	6.	0.	7.3786
102275	9.4114	6.	0.	8.2708
102276	9.3118	6.	0.	9.2566
102277	9.2123	6.	0.	10.327
102278	9.1127	6.	0.	11.464
102279	9.0131	6.	0.	12.634
102280	8.9135	6.	0.	13.787
102281	8.8139	6.	0.	14.846
102282	8.7144	6.	0.	15.701
102283	8.6148	6.	0.	16.19
102284	8.5152	6.	0.	16.075
102285	8.4156	6.	0.	15.353
102286	8.316	6.	0.	14.055
102287	8.2165	6.	0.	14.774
102288	8.1667	5.95	0.	22.86
102289	8.	1.85	0.	4800.6
102290	8.	1.95	0.	4957.
102291	8.	1.75	0.	3199.5
102292	8.	1.65	0.	2520.9
102293	8.	1.55	0.	2048.5
102294	8.	1.45	0.	1708.4
102295	8.	1.35	0.	1442.2
102296	8.	1.25	0.	1225.6
102297	8.	1.15	0.	1043.8
102298	8.	1.05	0.	887.81
102299	8.	0.95	0.	751.75
102300	8.	0.85	0.	631.6
102301	8.	0.75	0.	524.53
102302	8.	0.65	0.	428.52
102303	8.	0.55	0.	342.12
102304	8.	0.45	0.	264.31
102305	8.	0.35	0.	194.34
102306	8.	0.25	0.	132.02
102307	8.	0.15	0.	77.229
102308	8.0417	2.	0.	2068.
102309	8.1667	0.15	0.	60.862
102310	8.1667	0.25	0.	102.45
102311	8.1667	0.35	0.	148.94
102312	8.1667	0.45	0.	200.47
102313	8.1667	0.55	0.	257.24
102314	8.1667	0.65	0.	319.84
102315	8.1667	0.75	0.	389.12
102316	8.1667	0.85	0.	466.21
102317	8.1667	0.95	0.	552.71
102318	8.1667	1.05	0.	650.81
102319	8.1667	1.15	0.	763.65
102320	8.1667	1.25	0.	895.83
102321	8.1667	1.35	0.	1054.3
102322	8.1667	1.45	0.	1250.6
102323	8.1667	1.55	0.	1503.8
102324	8.1667	1.65	0.	1860.5
102325	8.1667	1.75	0.	2372.5
102326	8.1667	1.85	0.	3644.
102327	8.1667	1.95	0.	3430.
102328	8.125	2.	0.	1383.7
102329	8.	4.15	0.	4800.6
102330	8.	4.05	0.	4957.
102331	8.	4.25	0.	3199.5
102332	8.	4.35	0.	2520.9
102333	8.	4.45	0.	2048.5
102334	8.	4.55	0.	1708.4
102335	8.	4.65	0.	1442.2
102336	8.	4.75	0.	1225.6
102337	8.	4.85	0.	1043.8
102338	8.	4.95	0.	887.81
102339	8.	5.05	0.	751.75
102340	8.	5.15	0.	631.6
102341	8.	5.25	0.	524.53
102342	8.	5.35	0.	428.52
102343	8.	5.45	0.	342.12
102344	8.	5.55	0.	264.31
102345	8.	5.65	0.	194.34
102346	8.	5.75	0.	132.02
102347	8.	5.85	0.	77.229
102348	8.0417	4.	0.	2068.
102349	8.1667	5.85	0.	60.862
102350	8.1667	5.75	0.	102.45
102351	8.1667	5.65	0.	148.94
102352	8.1667	5.55	0.	200.47
102353	8.1667	5.45	0.	257.24
102354	8.1667	5.35	0.	319.84
102355	8.1667	5.25	0.	389.12
102356	8.1667	5.15	0.	466.21
102357	8.1667	5.05	0.	552.71
102358	8.1667	4.95	0.	650.81
102359	8.1667	4.85	0.	763.65
102360	8.1667	4.75	0.	895.83
102361	8.1667	4.65	0.	1054.3
102362	8.1667	4.55	0.	1250.6
102363	8.1667	4.45	0.	1503.8
102364	8.1667	4.35	0.	1860.5
102365	8.1667	4.25	0.	2372.5
102366	8.1667	4.15	0.	3644.
102367	8.1667	4.05	0.	3430.
102368	8.125	4.	0.	1383.7
