Node Number	X Location (in)	Y Location (in)	Z Location (in)	Minimum Principal Stress (psi)
1	2.8	2.1818	0.	-19777
2	2.8	2.3636	0.	-15680
3	2.8	2.5455	0.	-13818
4	2.8	2.7273	0.	-12878
5	2.8	2.9091	0.	-12476
6	2.8	3.0909	0.	-12476
7	2.8	3.2727	0.	-12878
8	2.8	3.4545	0.	-13818
9	2.8	3.6364	0.	-15680
10	2.8	3.8182	0.	-19777
11	2.9667	2.1818	0.	-19473
12	2.9667	2.3636	0.	-15513
13	2.9667	2.5455	0.	-13710
14	2.9667	2.7273	0.	-12790
15	2.9667	2.9091	0.	-12397
16	2.9667	3.0909	0.	-12397
17	2.9667	3.2727	0.	-12790
18	2.9667	3.4545	0.	-13710
19	2.9667	3.6364	0.	-15513
20	2.9667	3.8182	0.	-19473
21	2.625	5.8182	0.	-1264.7
22	2.625	5.6364	0.	-1784.1
23	2.625	5.4545	0.	-2359.4
24	2.625	5.2727	0.	-2954.5
25	2.625	5.0909	0.	-3590.8
26	2.625	4.9091	0.	-4304.7
27	2.625	4.7273	0.	-5154.3
28	2.625	4.5455	0.	-6267.5
29	2.625	4.3636	0.	-7857.8
30	2.625	4.1818	0.	-10976
31	2.625	4.	0.	-15186
32	2.625	3.8182	0.	-15077
33	2.625	3.6364	0.	-14064
34	2.625	3.4545	0.	-12991
35	2.625	3.2727	0.	-12377
36	2.625	3.0909	0.	-12087
37	2.625	2.9091	0.	-12087
38	2.625	2.7273	0.	-12377
39	2.625	2.5455	0.	-12991
40	2.625	2.3636	0.	-14064
41	2.625	2.1818	0.	-15077
42	2.625	2.	0.	-15186
43	2.625	1.8182	0.	-10976
44	2.625	1.6364	0.	-7857.8
45	2.625	1.4545	0.	-6267.4
46	2.625	1.2727	0.	-5154.3
47	2.625	1.0909	0.	-4304.7
48	2.625	0.90909	0.	-3590.8
49	2.625	0.72727	0.	-2954.5
50	2.625	0.54545	0.	-2359.4
51	2.625	0.36364	0.	-1784.1
52	2.625	0.18182	0.	-1264.7
53	2.45	5.8182	0.	-1904.1
54	2.45	5.6364	0.	-2189.9
55	2.45	5.4545	0.	-2624.4
56	2.45	5.2727	0.	-3131.3
57	2.45	5.0909	0.	-3701.5
58	2.45	4.9091	0.	-4352.8
59	2.45	4.7273	0.	-5127.2
60	2.45	4.5455	0.	-6089.2
61	2.45	4.3636	0.	-7342.3
62	2.45	4.1818	0.	-8964.4
63	2.45	4.	0.	-10475
64	2.45	3.8182	0.	-11633
65	2.45	3.6364	0.	-11886
66	2.45	3.4545	0.	-11715
67	2.45	3.2727	0.	-11493
68	2.45	3.0909	0.	-11364
69	2.45	2.9091	0.	-11364
70	2.45	2.7273	0.	-11493
71	2.45	2.5455	0.	-11715
72	2.45	2.3636	0.	-11886
73	2.45	2.1818	0.	-11633
74	2.45	2.	0.	-10475
75	2.45	1.8182	0.	-8964.4
76	2.45	1.6364	0.	-7342.3
77	2.45	1.4545	0.	-6089.2
78	2.45	1.2727	0.	-5127.2
79	2.45	1.0909	0.	-4352.8
80	2.45	0.90909	0.	-3701.5
81	2.45	0.72727	0.	-3131.3
82	2.45	0.54545	0.	-2624.4
83	2.45	0.36364	0.	-2189.9
84	2.45	0.18182	0.	-1904.1
85	2.275	5.8182	0.	-2565.7
86	2.275	5.6364	0.	-2749.4
87	2.275	5.4545	0.	-3077.
88	2.275	5.2727	0.	-3498.6
89	2.275	5.0909	0.	-3999.
90	2.275	4.9091	0.	-4581.4
91	2.275	4.7273	0.	-5262.2
92	2.275	4.5455	0.	-6068.1
93	2.275	4.3636	0.	-7002.8
94	2.275	4.1818	0.	-8027.5
95	2.275	4.	0.	-9029.7
96	2.275	3.8182	0.	-9818.
97	2.275	3.6364	0.	-10297
98	2.275	3.4545	0.	-10481
99	2.275	3.2727	0.	-10516
100	2.275	3.0909	0.	-10509
101	2.275	2.9091	0.	-10509
102	2.275	2.7273	0.	-10516
103	2.275	2.5455	0.	-10481
104	2.275	2.3636	0.	-10297
105	2.275	2.1818	0.	-9818.
106	2.275	2.	0.	-9029.7
107	2.275	1.8182	0.	-8027.5
108	2.275	1.6364	0.	-7002.7
109	2.275	1.4545	0.	-6068.1
110	2.275	1.2727	0.	-5262.2
111	2.275	1.0909	0.	-4581.4
112	2.275	0.90909	0.	-3999.
113	2.275	0.72727	0.	-3498.6
114	2.275	0.54545	0.	-3077.
115	2.275	0.36364	0.	-2749.4
116	2.275	0.18182	0.	-2565.7
117	2.1	5.8182	0.	-3167.1
118	2.1	5.6364	0.	-3299.6
119	2.1	5.4545	0.	-3553.9
120	2.1	5.2727	0.	-3897.2
121	2.1	5.0909	0.	-4318.7
122	2.1	4.9091	0.	-4814.1
123	2.1	4.7273	0.	-5384.3
124	2.1	4.5455	0.	-6028.3
125	2.1	4.3636	0.	-6734.
126	2.1	4.1818	0.	-7464.6
127	2.1	4.	0.	-8165.4
128	2.1	3.8182	0.	-8767.8
129	2.1	3.6364	0.	-9213.9
130	2.1	3.4545	0.	-9489.6
131	2.1	3.2727	0.	-9631.2
132	2.1	3.0909	0.	-9687.7
133	2.1	2.9091	0.	-9687.7
134	2.1	2.7273	0.	-9631.2
135	2.1	2.5455	0.	-9489.6
136	2.1	2.3636	0.	-9213.9
137	2.1	2.1818	0.	-8767.8
138	2.1	2.	0.	-8165.4
139	2.1	1.8182	0.	-7464.6
140	2.1	1.6364	0.	-6734.
141	2.1	1.4545	0.	-6028.3
142	2.1	1.2727	0.	-5384.3
143	2.1	1.0909	0.	-4814.1
144	2.1	0.90909	0.	-4318.7
145	2.1	0.72727	0.	-3897.2
146	2.1	0.54545	0.	-3553.9
147	2.1	0.36364	0.	-3299.6
148	2.1	0.18182	0.	-3167.1
149	1.925	5.8182	0.	-3698.2
150	1.925	5.6364	0.	-3798.4
151	1.925	5.4545	0.	-4000.4
152	1.925	5.2727	0.	-4278.3
153	1.925	5.0909	0.	-4624.6
154	1.925	4.9091	0.	-5032.9
155	1.925	4.7273	0.	-5497.1
156	1.925	4.5455	0.	-6008.1
157	1.925	4.3636	0.	-6549.8
158	1.925	4.1818	0.	-7098.5
159	1.925	4.	0.	-7623.8
160	1.925	3.8182	0.	-8091.5
161	1.925	3.6364	0.	-8468.9
162	1.925	3.4545	0.	-8739.
163	1.925	3.2727	0.	-8905.3
164	1.925	3.0909	0.	-8982.6
165	1.925	2.9091	0.	-8982.6
166	1.925	2.7273	0.	-8905.3
167	1.925	2.5455	0.	-8739.
168	1.925	2.3636	0.	-8468.9
169	1.925	2.1818	0.	-8091.5
170	1.925	2.	0.	-7623.8
171	1.925	1.8182	0.	-7098.5
172	1.925	1.6364	0.	-6549.8
173	1.925	1.4545	0.	-6008.1
174	1.925	1.2727	0.	-5497.1
175	1.925	1.0909	0.	-5032.9
176	1.925	0.90909	0.	-4624.6
177	1.925	0.72727	0.	-4278.3
178	1.925	0.54545	0.	-4000.4
179	1.925	0.36364	0.	-3798.4
180	1.925	0.18182	0.	-3698.2
181	1.75	5.8182	0.	-4156.1
182	1.75	5.6364	0.	-4231.1
183	1.75	5.4545	0.	-4392.7
184	1.75	5.2727	0.	-4616.9
185	1.75	5.0909	0.	-4898.
186	1.75	4.9091	0.	-5229.4
187	1.75	4.7273	0.	-5603.3
188	1.75	4.5455	0.	-6009.4
189	1.75	4.3636	0.	-6434.
190	1.75	4.1818	0.	-6860.
191	1.75	4.	0.	-7268.1
192	1.75	3.8182	0.	-7637.7
193	1.75	3.6364	0.	-7948.4
194	1.75	3.4545	0.	-8185.3
195	1.75	3.2727	0.	-8341.9
196	1.75	3.0909	0.	-8419.1
197	1.75	2.9091	0.	-8419.1
198	1.75	2.7273	0.	-8341.9
199	1.75	2.5455	0.	-8185.3
200	1.75	2.3636	0.	-7948.4
201	1.75	2.1818	0.	-7637.7
202	1.75	2.	0.	-7268.1
203	1.75	1.8182	0.	-6860.
204	1.75	1.6364	0.	-6434.
205	1.75	1.4545	0.	-6009.4
206	1.75	1.2727	0.	-5603.3
207	1.75	1.0909	0.	-5229.4
208	1.75	0.90909	0.	-4898.
209	1.75	0.72727	0.	-4616.9
210	1.75	0.54545	0.	-4392.7
211	1.75	0.36364	0.	-4231.1
212	1.75	0.18182	0.	-4156.1
213	1.575	5.8182	0.	-4541.1
214	1.575	5.6364	0.	-4594.3
215	1.575	5.4545	0.	-4723.1
216	1.575	5.2727	0.	-4903.9
217	1.575	5.0909	0.	-5131.5
218	1.575	4.9091	0.	-5400.4
219	1.575	4.7273	0.	-5702.9
220	1.575	4.5455	0.	-6029.7
221	1.575	4.3636	0.	-6369.2
222	1.575	4.1818	0.	-6708.8
223	1.575	4.	0.	-7034.5
224	1.575	3.8182	0.	-7331.9
225	1.575	3.6364	0.	-7586.6
226	1.575	3.4545	0.	-7786.2
227	1.575	3.2727	0.	-7922.6
228	1.575	3.0909	0.	-7991.5
229	1.575	2.9091	0.	-7991.5
230	1.575	2.7273	0.	-7922.6
231	1.575	2.5455	0.	-7786.2
232	1.575	2.3636	0.	-7586.6
233	1.575	2.1818	0.	-7331.9
234	1.575	2.	0.	-7034.5
235	1.575	1.8182	0.	-6708.8
236	1.575	1.6364	0.	-6369.2
237	1.575	1.4545	0.	-6029.7
238	1.575	1.2727	0.	-5702.9
239	1.575	1.0909	0.	-5400.4
240	1.575	0.90909	0.	-5131.5
241	1.575	0.72727	0.	-4903.9
242	1.575	0.54545	0.	-4723.1
243	1.575	0.36364	0.	-4594.3
244	1.575	0.18182	0.	-4541.1
245	1.4	5.8182	0.	-4854.4
246	1.4	5.6364	0.	-4888.
247	1.4	5.4545	0.	-4990.5
248	1.4	5.2727	0.	-5137.4
249	1.4	5.0909	0.	-5324.2
250	1.4	4.9091	0.	-5545.8
251	1.4	4.7273	0.	-5795.5
252	1.4	4.5455	0.	-6064.6
253	1.4	4.3636	0.	-6343.6
254	1.4	4.1818	0.	-6621.8
255	1.4	4.	0.	-6888.4
256	1.4	3.8182	0.	-7132.2
257	1.4	3.6364	0.	-7342.4
258	1.4	3.4545	0.	-7509.1
259	1.4	3.2727	0.	-7624.4
260	1.4	3.0909	0.	-7683.2
261	1.4	2.9091	0.	-7683.2
262	1.4	2.7273	0.	-7624.4
263	1.4	2.5455	0.	-7509.1
264	1.4	2.3636	0.	-7342.4
265	1.4	2.1818	0.	-7132.2
266	1.4	2.	0.	-6888.4
267	1.4	1.8182	0.	-6621.8
268	1.4	1.6364	0.	-6343.6
269	1.4	1.4545	0.	-6064.6
270	1.4	1.2727	0.	-5795.5
271	1.4	1.0909	0.	-5545.8
272	1.4	0.90909	0.	-5324.2
273	1.4	0.72727	0.	-5137.4
274	1.4	0.54545	0.	-4990.5
275	1.4	0.36364	0.	-4888.
276	1.4	0.18182	0.	-4854.4
277	1.225	5.8182	0.	-5096.5
278	1.225	5.6364	0.	-5112.9
279	1.225	5.4545	0.	-5195.7
280	1.225	5.2727	0.	-5318.7
281	1.225	5.0909	0.	-5477.8
282	1.225	4.9091	0.	-5667.9
283	1.225	4.7273	0.	-5882.2
284	1.225	4.5455	0.	-6112.5
285	1.225	4.3636	0.	-6349.9
286	1.225	4.1818	0.	-6585.3
287	1.225	4.	0.	-6809.6
288	1.225	3.8182	0.	-7013.9
289	1.225	3.6364	0.	-7189.8
290	1.225	3.4545	0.	-7329.3
291	1.225	3.2727	0.	-7426.2
292	1.225	3.0909	0.	-7475.8
293	1.225	2.9091	0.	-7475.8
294	1.225	2.7273	0.	-7426.2
295	1.225	2.5455	0.	-7329.3
296	1.225	2.3636	0.	-7189.8
297	1.225	2.1818	0.	-7013.9
298	1.225	2.	0.	-6809.6
299	1.225	1.8182	0.	-6585.3
300	1.225	1.6364	0.	-6349.9
301	1.225	1.4545	0.	-6112.5
302	1.225	1.2727	0.	-5882.2
303	1.225	1.0909	0.	-5667.9
304	1.225	0.90909	0.	-5477.8
305	1.225	0.72727	0.	-5318.7
306	1.225	0.54545	0.	-5195.7
307	1.225	0.36364	0.	-5112.9
308	1.225	0.18182	0.	-5096.5
309	1.05	5.8182	0.	-5264.9
310	1.05	5.6364	0.	-5267.7
311	1.05	5.4545	0.	-5339.
312	1.05	5.2727	0.	-5450.3
313	1.05	5.0909	0.	-5596.5
314	1.05	4.9091	0.	-5771.4
315	1.05	4.7273	0.	-5967.
316	1.05	4.5455	0.	-6174.7
317	1.05	4.3636	0.	-6385.9
318	1.05	4.1818	0.	-6592.4
319	1.05	4.	0.	-6786.7
320	1.05	3.8182	0.	-6961.9
321	1.05	3.6364	0.	-7111.4
322	1.05	3.4545	0.	-7229.4
323	1.05	3.2727	0.	-7311.1
324	1.05	3.0909	0.	-7352.9
325	1.05	2.9091	0.	-7352.9
326	1.05	2.7273	0.	-7311.1
327	1.05	2.5455	0.	-7229.4
328	1.05	2.3636	0.	-7111.4
329	1.05	2.1818	0.	-6961.9
330	1.05	2.	0.	-6786.7
331	1.05	1.8182	0.	-6592.4
332	1.05	1.6364	0.	-6385.9
333	1.05	1.4545	0.	-6174.7
334	1.05	1.2727	0.	-5967.
335	1.05	1.0909	0.	-5771.4
336	1.05	0.90909	0.	-5596.5
337	1.05	0.72727	0.	-5450.3
338	1.05	0.54545	0.	-5339.
339	1.05	0.36364	0.	-5267.7
340	1.05	0.18182	0.	-5264.9
341	0.875	5.8182	0.	-5350.6
342	0.875	5.6364	0.	-5345.7
343	0.875	5.4545	0.	-5417.8
344	0.875	5.2727	0.	-5533.7
345	0.875	5.0909	0.	-5685.3
346	0.875	4.9091	0.	-5862.8
347	0.875	4.7273	0.	-6055.8
348	0.875	4.5455	0.	-6254.9
349	0.875	4.3636	0.	-6451.6
350	0.875	4.1818	0.	-6639.3
351	0.875	4.	0.	-6812.2
352	0.875	3.8182	0.	-6965.3
353	0.875	3.6364	0.	-7094.2
354	0.875	3.4545	0.	-7194.9
355	0.875	3.2727	0.	-7264.1
356	0.875	3.0909	0.	-7299.3
357	0.875	2.9091	0.	-7299.3
358	0.875	2.7273	0.	-7264.1
359	0.875	2.5455	0.	-7194.9
360	0.875	2.3636	0.	-7094.2
361	0.875	2.1818	0.	-6965.3
362	0.875	2.	0.	-6812.2
363	0.875	1.8182	0.	-6639.3
364	0.875	1.6364	0.	-6451.6
365	0.875	1.4545	0.	-6254.9
366	0.875	1.2727	0.	-6055.8
367	0.875	1.0909	0.	-5862.8
368	0.875	0.90909	0.	-5685.3
369	0.875	0.72727	0.	-5533.7
370	0.875	0.54545	0.	-5417.8
371	0.875	0.36364	0.	-5345.7
372	0.875	0.18182	0.	-5350.6
373	0.7	5.8182	0.	-5335.2
374	0.7	5.6364	0.	-5336.
375	0.7	5.4545	0.	-5431.
376	0.7	5.2727	0.	-5577.5
377	0.7	5.0909	0.	-5759.
378	0.7	4.9091	0.	-5959.2
379	0.7	4.7273	0.	-6164.5
380	0.7	4.5455	0.	-6365.5
381	0.7	4.3636	0.	-6555.7
382	0.7	4.1818	0.	-6730.5
383	0.7	4.	0.	-6886.8
384	0.7	3.8182	0.	-7021.9
385	0.7	3.6364	0.	-7133.5
386	0.7	3.4545	0.	-7219.4
387	0.7	3.2727	0.	-7277.9
388	0.7	3.0909	0.	-7307.5
389	0.7	2.9091	0.	-7307.5
390	0.7	2.7273	0.	-7277.9
391	0.7	2.5455	0.	-7219.4
392	0.7	2.3636	0.	-7133.5
393	0.7	2.1818	0.	-7021.9
394	0.7	2.	0.	-6886.8
395	0.7	1.8182	0.	-6730.5
396	0.7	1.6364	0.	-6555.7
397	0.7	1.4545	0.	-6365.5
398	0.7	1.2727	0.	-6164.5
399	0.7	1.0909	0.	-5959.2
400	0.7	0.90909	0.	-5759.
401	0.7	0.72727	0.	-5577.5
402	0.7	0.54545	0.	-5431.
403	0.7	0.36364	0.	-5336.
404	0.7	0.18182	0.	-5335.2
405	0.525	5.8182	0.	-5167.8
406	0.525	5.6364	0.	-5201.7
407	0.525	5.4545	0.	-5362.6
408	0.525	5.2727	0.	-5582.3
409	0.525	5.0909	0.	-5825.5
410	0.525	4.9091	0.	-6067.4
411	0.525	4.7273	0.	-6295.1
412	0.525	4.5455	0.	-6502.9
413	0.525	4.3636	0.	-6688.7
414	0.525	4.1818	0.	-6851.9
415	0.525	4.	0.	-6992.5
416	0.525	3.8182	0.	-7110.6
417	0.525	3.6364	0.	-7205.9
418	0.525	3.4545	0.	-7278.
419	0.525	3.2727	0.	-7326.4
420	0.525	3.0909	0.	-7350.8
421	0.525	2.9091	0.	-7350.8
422	0.525	2.7273	0.	-7326.4
423	0.525	2.5455	0.	-7278.
424	0.525	2.3636	0.	-7205.9
425	0.525	2.1818	0.	-7110.6
426	0.525	2.	0.	-6992.5
427	0.525	1.8182	0.	-6851.9
428	0.525	1.6364	0.	-6688.7
429	0.525	1.4545	0.	-6502.9
430	0.525	1.2727	0.	-6295.1
431	0.525	1.0909	0.	-6067.4
432	0.525	0.90909	0.	-5825.5
433	0.525	0.72727	0.	-5582.3
434	0.525	0.54545	0.	-5362.6
435	0.525	0.36364	0.	-5201.7
436	0.525	0.18182	0.	-5167.8
437	0.35	5.8182	0.	-4776.5
438	0.35	5.6364	0.	-4946.1
439	0.35	5.4545	0.	-5282.4
440	0.35	5.2727	0.	-5648.8
441	0.35	5.0909	0.	-5986.9
442	0.35	4.9091	0.	-6281.1
443	0.35	4.7273	0.	-6531.6
444	0.35	4.5455	0.	-6743.1
445	0.35	4.3636	0.	-6920.9
446	0.35	4.1818	0.	-7069.4
447	0.35	4.	0.	-7192.1
448	0.35	3.8182	0.	-7291.6
449	0.35	3.6364	0.	-7369.8
450	0.35	3.4545	0.	-7427.7
451	0.35	3.2727	0.	-7466.
452	0.35	3.0909	0.	-7485.1
453	0.35	2.9091	0.	-7485.1
454	0.35	2.7273	0.	-7466.
455	0.35	2.5455	0.	-7427.7
456	0.35	2.3636	0.	-7369.8
457	0.35	2.1818	0.	-7291.6
458	0.35	2.	0.	-7192.1
459	0.35	1.8182	0.	-7069.4
460	0.35	1.6364	0.	-6920.9
461	0.35	1.4545	0.	-6743.1
462	0.35	1.2727	0.	-6531.6
463	0.35	1.0909	0.	-6281.1
464	0.35	0.90909	0.	-5986.9
465	0.35	0.72727	0.	-5648.8
466	0.35	0.54545	0.	-5282.4
467	0.35	0.36364	0.	-4946.1
468	0.35	0.18182	0.	-4776.5
469	0.175	5.8182	0.	-3759.4
470	0.175	5.6364	0.	-4407.1
471	0.175	5.4545	0.	-5124.3
472	0.175	5.2727	0.	-5672.4
473	0.175	5.0909	0.	-6089.4
474	0.175	4.9091	0.	-6408.9
475	0.175	4.7273	0.	-6658.
476	0.175	4.5455	0.	-6854.2
477	0.175	4.3636	0.	-7009.7
478	0.175	4.1818	0.	-7133.
479	0.175	4.	0.	-7230.2
480	0.175	3.8182	0.	-7305.8
481	0.175	3.6364	0.	-7363.2
482	0.175	3.4545	0.	-7404.5
483	0.175	3.2727	0.	-7431.3
484	0.175	3.0909	0.	-7444.6
485	0.175	2.9091	0.	-7444.6
486	0.175	2.7273	0.	-7431.4
487	0.175	2.5455	0.	-7404.5
488	0.175	2.3636	0.	-7363.2
489	0.175	2.1818	0.	-7305.8
490	0.175	2.	0.	-7230.2
491	0.175	1.8182	0.	-7133.
492	0.175	1.6364	0.	-7009.7
493	0.175	1.4545	0.	-6854.2
494	0.175	1.2727	0.	-6658.
495	0.175	1.0909	0.	-6408.9
496	0.175	0.90909	0.	-6089.4
497	0.175	0.72727	0.	-5672.4
498	0.175	0.54545	0.	-5124.3
499	0.175	0.36364	0.	-4407.2
500	0.175	0.18182	0.	-3759.4
501	3.1512	5.8182	0.	-965.39
502	3.3357	5.8182	0.	-1513.3
503	3.5202	5.8182	0.	-2065.8
504	3.7047	5.8182	0.	-2560.7
505	3.8892	5.8182	0.	-2989.
506	4.0737	5.8182	0.	-3349.1
507	4.2582	5.8182	0.	-3644.1
508	4.4427	5.8182	0.	-3879.7
509	4.6272	5.8182	0.	-4062.9
510	4.8117	5.8182	0.	-4201.3
511	4.9962	5.8182	0.	-4301.8
512	5.1807	5.8182	0.	-4371.
513	5.3652	5.8182	0.	-4414.5
514	5.5497	5.8182	0.	-4437.1
515	5.7342	5.8182	0.	-4443.
516	5.9187	5.8182	0.	-4435.6
517	6.1032	5.8182	0.	-4417.4
518	6.2877	5.8182	0.	-4390.9
519	6.4722	5.8182	0.	-4357.8
520	6.6567	5.8182	0.	-4319.6
521	6.8412	5.8182	0.	-4277.3
522	7.0257	5.8182	0.	-4232.
523	7.2102	5.8182	0.	-4184.4
524	7.3947	5.8182	0.	-4135.
525	7.5792	5.8182	0.	-4084.3
526	7.7637	5.8182	0.	-4032.6
527	7.9482	5.8182	0.	-3980.3
528	8.1327	5.8182	0.	-3927.5
529	8.3173	5.8182	0.	-3874.3
530	8.5018	5.8182	0.	-3821.
531	8.6863	5.8182	0.	-3767.7
532	8.8708	5.8182	0.	-3714.3
533	9.0553	5.8182	0.	-3661.
534	9.2398	5.8182	0.	-3607.8
535	9.4243	5.8182	0.	-3554.8
536	9.6088	5.8182	0.	-3501.9
537	9.7933	5.8182	0.	-3449.2
538	9.9778	5.8182	0.	-3396.7
539	10.162	5.8182	0.	-3344.4
540	10.347	5.8182	0.	-3292.3
541	10.531	5.8182	0.	-3240.4
542	10.716	5.8182	0.	-3188.8
543	10.9	5.8182	0.	-3137.4
544	11.085	5.8182	0.	-3086.2
545	11.269	5.8182	0.	-3035.2
546	11.454	5.8182	0.	-2984.5
547	11.638	5.8182	0.	-2934.
548	11.823	5.8182	0.	-2883.7
549	12.007	5.8182	0.	-2833.6
550	12.192	5.8182	0.	-2783.7
551	12.376	5.8182	0.	-2734.1
552	12.561	5.8182	0.	-2684.7
553	12.745	5.8182	0.	-2635.5
554	12.93	5.8182	0.	-2586.5
555	13.114	5.8182	0.	-2537.7
556	13.299	5.8182	0.	-2489.1
557	13.483	5.8182	0.	-2440.8
558	13.668	5.8182	0.	-2392.7
559	13.852	5.8182	0.	-2344.7
560	14.037	5.8182	0.	-2297.
561	14.221	5.8182	0.	-2249.5
562	14.406	5.8182	0.	-2202.2
563	14.59	5.8182	0.	-2155.1
564	14.775	5.8182	0.	-2108.2
565	14.959	5.8182	0.	-2061.5
566	15.144	5.8182	0.	-2015.
567	15.328	5.8182	0.	-1968.7
568	15.513	5.8182	0.	-1922.7
569	15.697	5.8182	0.	-1876.8
570	15.882	5.8182	0.	-1831.1
571	16.066	5.8182	0.	-1785.7
572	16.251	5.8182	0.	-1740.4
573	16.435	5.8182	0.	-1695.3
574	16.62	5.8182	0.	-1650.4
575	16.804	5.8182	0.	-1605.8
576	16.989	5.8182	0.	-1561.3
577	17.173	5.8182	0.	-1517.
578	17.358	5.8182	0.	-1472.9
579	17.542	5.8182	0.	-1429.
580	17.727	5.8182	0.	-1385.3
581	17.911	5.8182	0.	-1341.7
582	18.096	5.8182	0.	-1298.4
583	18.28	5.8182	0.	-1255.3
584	18.465	5.8182	0.	-1212.3
585	18.649	5.8182	0.	-1169.5
586	18.834	5.8182	0.	-1126.9
587	19.018	5.8182	0.	-1084.4
588	19.203	5.8182	0.	-1042.2
589	19.387	5.8182	0.	-1000.1
590	19.572	5.8182	0.	-958.15
591	19.756	5.8182	0.	-916.38
592	19.941	5.8182	0.	-874.78
593	20.125	5.8182	0.	-833.32
594	20.31	5.8182	0.	-792.02
595	20.494	5.8182	0.	-750.86
596	20.679	5.8182	0.	-709.84
597	20.863	5.8182	0.	-668.96
598	21.048	5.8182	0.	-628.22
599	21.232	5.8182	0.	-587.6
600	21.417	5.8182	0.	-547.11
601	21.601	5.8182	0.	-506.74
602	21.786	5.8182	0.	-466.49
603	21.97	5.8182	0.	-426.35
604	22.155	5.8182	0.	-386.34
605	22.339	5.8182	0.	-346.46
606	22.524	5.8182	0.	-306.7
607	22.708	5.8182	0.	-267.09
608	22.893	5.8182	0.	-227.65
609	23.077	5.8182	0.	-188.41
610	23.262	5.8182	0.	-149.44
611	23.446	5.8182	0.	-110.85
612	23.631	5.8182	0.	-72.924
613	23.815	5.8182	0.	-37.103
614	3.1512	5.6364	0.	-1334.4
615	3.3357	5.6364	0.	-1722.9
616	3.5202	5.6364	0.	-2217.8
617	3.7047	5.6364	0.	-2687.
618	3.8892	5.6364	0.	-3099.1
619	4.0737	5.6364	0.	-3445.5
620	4.2582	5.6364	0.	-3727.5
621	4.4427	5.6364	0.	-3950.6
622	4.6272	5.6364	0.	-4122.3
623	4.8117	5.6364	0.	-4250.
624	4.9962	5.6364	0.	-4341.2
625	5.1807	5.6364	0.	-4402.3
626	5.3652	5.6364	0.	-4438.9
627	5.5497	5.6364	0.	-4455.8
628	5.7342	5.6364	0.	-4457.
629	5.9187	5.6364	0.	-4445.6
630	6.1032	5.6364	0.	-4424.3
631	6.2877	5.6364	0.	-4395.3
632	6.4722	5.6364	0.	-4360.2
633	6.6567	5.6364	0.	-4320.4
634	6.8412	5.6364	0.	-4276.9
635	7.0257	5.6364	0.	-4230.7
636	7.2102	5.6364	0.	-4182.3
637	7.3947	5.6364	0.	-4132.4
638	7.5792	5.6364	0.	-4081.3
639	7.7637	5.6364	0.	-4029.3
640	7.9482	5.6364	0.	-3976.8
641	8.1327	5.6364	0.	-3923.8
642	8.3173	5.6364	0.	-3870.7
643	8.5018	5.6364	0.	-3817.3
644	8.6863	5.6364	0.	-3763.9
645	8.8708	5.6364	0.	-3710.6
646	9.0553	5.6364	0.	-3657.3
647	9.2398	5.6364	0.	-3604.2
648	9.4243	5.6364	0.	-3551.2
649	9.6088	5.6364	0.	-3498.3
650	9.7933	5.6364	0.	-3445.7
651	9.9778	5.6364	0.	-3393.2
652	10.162	5.6364	0.	-3341.
653	10.347	5.6364	0.	-3289.
654	10.531	5.6364	0.	-3237.1
655	10.716	5.6364	0.	-3185.5
656	10.9	5.6364	0.	-3134.2
657	11.085	5.6364	0.	-3083.
658	11.269	5.6364	0.	-3032.1
659	11.454	5.6364	0.	-2981.3
660	11.638	5.6364	0.	-2930.8
661	11.823	5.6364	0.	-2880.5
662	12.007	5.6364	0.	-2830.5
663	12.192	5.6364	0.	-2780.6
664	12.376	5.6364	0.	-2731.
665	12.561	5.6364	0.	-2681.6
666	12.745	5.6364	0.	-2632.4
667	12.93	5.6364	0.	-2583.4
668	13.114	5.6364	0.	-2534.6
669	13.299	5.6364	0.	-2486.
670	13.483	5.6364	0.	-2437.7
671	13.668	5.6364	0.	-2389.5
672	13.852	5.6364	0.	-2341.6
673	14.037	5.6364	0.	-2293.8
674	14.221	5.6364	0.	-2246.3
675	14.406	5.6364	0.	-2199.
676	14.59	5.6364	0.	-2151.8
677	14.775	5.6364	0.	-2104.9
678	14.959	5.6364	0.	-2058.2
679	15.144	5.6364	0.	-2011.7
680	15.328	5.6364	0.	-1965.4
681	15.513	5.6364	0.	-1919.3
682	15.697	5.6364	0.	-1873.4
683	15.882	5.6364	0.	-1827.7
684	16.066	5.6364	0.	-1782.2
685	16.251	5.6364	0.	-1736.9
686	16.435	5.6364	0.	-1691.7
687	16.62	5.6364	0.	-1646.8
688	16.804	5.6364	0.	-1602.1
689	16.989	5.6364	0.	-1557.6
690	17.173	5.6364	0.	-1513.3
691	17.358	5.6364	0.	-1469.1
692	17.542	5.6364	0.	-1425.2
693	17.727	5.6364	0.	-1381.5
694	17.911	5.6364	0.	-1337.9
695	18.096	5.6364	0.	-1294.5
696	18.28	5.6364	0.	-1251.3
697	18.465	5.6364	0.	-1208.3
698	18.649	5.6364	0.	-1165.5
699	18.834	5.6364	0.	-1122.9
700	19.018	5.6364	0.	-1080.4
701	19.203	5.6364	0.	-1038.1
702	19.387	5.6364	0.	-995.98
703	19.572	5.6364	0.	-954.03
704	19.756	5.6364	0.	-912.25
705	19.941	5.6364	0.	-870.62
706	20.125	5.6364	0.	-829.16
707	20.31	5.6364	0.	-787.85
708	20.494	5.6364	0.	-746.69
709	20.679	5.6364	0.	-705.68
710	20.863	5.6364	0.	-664.82
711	21.048	5.6364	0.	-624.1
712	21.232	5.6364	0.	-583.51
713	21.417	5.6364	0.	-543.06
714	21.601	5.6364	0.	-502.75
715	21.786	5.6364	0.	-462.58
716	21.97	5.6364	0.	-422.54
717	22.155	5.6364	0.	-382.65
718	22.339	5.6364	0.	-342.9
719	22.524	5.6364	0.	-303.33
720	22.708	5.6364	0.	-263.96
721	22.893	5.6364	0.	-224.82
722	23.077	5.6364	0.	-185.98
723	23.262	5.6364	0.	-147.57
724	23.446	5.6364	0.	-109.78
725	23.631	5.6364	0.	-73.015
726	23.815	5.6364	0.	-38.121
727	3.1512	5.4545	0.	-1767.5
728	3.3357	5.4545	0.	-2051.4
729	3.5202	5.4545	0.	-2476.1
730	3.7047	5.4545	0.	-2899.5
731	3.8892	5.4545	0.	-3277.9
732	4.0737	5.4545	0.	-3596.2
733	4.2582	5.4545	0.	-3853.6
734	4.4427	5.4545	0.	-4055.
735	4.6272	5.4545	0.	-4207.5
736	4.8117	5.4545	0.	-4318.9
737	4.9962	5.4545	0.	-4396.2
738	5.1807	5.4545	0.	-4445.7
739	5.3652	5.4545	0.	-4472.7
740	5.5497	5.4545	0.	-4481.8
741	5.7342	5.4545	0.	-4476.6
742	5.9187	5.4545	0.	-4460.1
743	6.1032	5.4545	0.	-4434.8
744	6.2877	5.4545	0.	-4402.5
745	6.4722	5.4545	0.	-4364.9
746	6.6567	5.4545	0.	-4323.1
747	6.8412	5.4545	0.	-4278.1
748	7.0257	5.4545	0.	-4230.7
749	7.2102	5.4545	0.	-4181.5
750	7.3947	5.4545	0.	-4130.9
751	7.5792	5.4545	0.	-4079.3
752	7.7637	5.4545	0.	-4027.
753	7.9482	5.4545	0.	-3974.3
754	8.1327	5.4545	0.	-3921.2
755	8.3173	5.4545	0.	-3867.9
756	8.5018	5.4545	0.	-3814.5
757	8.6863	5.4545	0.	-3761.2
758	8.8708	5.4545	0.	-3707.9
759	9.0553	5.4545	0.	-3654.6
760	9.2398	5.4545	0.	-3601.6
761	9.4243	5.4545	0.	-3548.6
762	9.6088	5.4545	0.	-3495.9
763	9.7933	5.4545	0.	-3443.3
764	9.9778	5.4545	0.	-3390.9
765	10.162	5.4545	0.	-3338.8
766	10.347	5.4545	0.	-3286.8
767	10.531	5.4545	0.	-3235.1
768	10.716	5.4545	0.	-3183.5
769	10.9	5.4545	0.	-3132.2
770	11.085	5.4545	0.	-3081.1
771	11.269	5.4545	0.	-3030.2
772	11.454	5.4545	0.	-2979.6
773	11.638	5.4545	0.	-2929.1
774	11.823	5.4545	0.	-2878.9
775	12.007	5.4545	0.	-2828.8
776	12.192	5.4545	0.	-2779.
777	12.376	5.4545	0.	-2729.4
778	12.561	5.4545	0.	-2680.
779	12.745	5.4545	0.	-2630.8
780	12.93	5.4545	0.	-2581.9
781	13.114	5.4545	0.	-2533.1
782	13.299	5.4545	0.	-2484.5
783	13.483	5.4545	0.	-2436.2
784	13.668	5.4545	0.	-2388.
785	13.852	5.4545	0.	-2340.1
786	14.037	5.4545	0.	-2292.4
787	14.221	5.4545	0.	-2244.8
788	14.406	5.4545	0.	-2197.5
789	14.59	5.4545	0.	-2150.4
790	14.775	5.4545	0.	-2103.5
791	14.959	5.4545	0.	-2056.8
792	15.144	5.4545	0.	-2010.3
793	15.328	5.4545	0.	-1964.
794	15.513	5.4545	0.	-1917.8
795	15.697	5.4545	0.	-1871.9
796	15.882	5.4545	0.	-1826.2
797	16.066	5.4545	0.	-1780.7
798	16.251	5.4545	0.	-1735.4
799	16.435	5.4545	0.	-1690.3
800	16.62	5.4545	0.	-1645.4
801	16.804	5.4545	0.	-1600.7
802	16.989	5.4545	0.	-1556.1
803	17.173	5.4545	0.	-1511.8
804	17.358	5.4545	0.	-1467.7
805	17.542	5.4545	0.	-1423.7
806	17.727	5.4545	0.	-1380.
807	17.911	5.4545	0.	-1336.4
808	18.096	5.4545	0.	-1293.1
809	18.28	5.4545	0.	-1249.9
810	18.465	5.4545	0.	-1206.9
811	18.649	5.4545	0.	-1164.1
812	18.834	5.4545	0.	-1121.4
813	19.018	5.4545	0.	-1079.
814	19.203	5.4545	0.	-1036.7
815	19.387	5.4545	0.	-994.59
816	19.572	5.4545	0.	-952.65
817	19.756	5.4545	0.	-910.89
818	19.941	5.4545	0.	-869.3
819	20.125	5.4545	0.	-827.86
820	20.31	5.4545	0.	-786.59
821	20.494	5.4545	0.	-745.47
822	20.679	5.4545	0.	-704.51
823	20.863	5.4545	0.	-663.7
824	21.048	5.4545	0.	-623.04
825	21.232	5.4545	0.	-582.53
826	21.417	5.4545	0.	-542.16
827	21.601	5.4545	0.	-501.93
828	21.786	5.4545	0.	-461.86
829	21.97	5.4545	0.	-421.94
830	22.155	5.4545	0.	-382.18
831	22.339	5.4545	0.	-342.6
832	22.524	5.4545	0.	-303.21
833	22.708	5.4545	0.	-264.06
834	22.893	5.4545	0.	-225.18
835	23.077	5.4545	0.	-186.67
836	23.262	5.4545	0.	-148.62
837	23.446	5.4545	0.	-111.21
838	23.631	5.4545	0.	-74.569
839	23.815	5.4545	0.	-38.981
840	3.1512	5.2727	0.	-2240.5
841	3.3357	5.2727	0.	-2459.
842	3.5202	5.2727	0.	-2823.3
843	3.7047	5.2727	0.	-3191.6
844	3.8892	5.2727	0.	-3522.4
845	4.0737	5.2727	0.	-3799.3
846	4.2582	5.2727	0.	-4020.5
847	4.4427	5.2727	0.	-4190.8
848	4.6272	5.2727	0.	-4317.
849	4.8117	5.2727	0.	-4406.3
850	4.9962	5.2727	0.	-4465.3
851	5.1807	5.2727	0.	-4499.8
852	5.3652	5.2727	0.	-4514.8
853	5.5497	5.2727	0.	-4514.1
854	5.7342	5.2727	0.	-4501.
855	5.9187	5.2727	0.	-4478.3
856	6.1032	5.2727	0.	-4448.
857	6.2877	5.2727	0.	-4411.9
858	6.4722	5.2727	0.	-4371.2
859	6.6567	5.2727	0.	-4327.
860	6.8412	5.2727	0.	-4280.2
861	7.0257	5.2727	0.	-4231.4
862	7.2102	5.2727	0.	-4181.2
863	7.3947	5.2727	0.	-4129.8
864	7.5792	5.2727	0.	-4077.7
865	7.7637	5.2727	0.	-4025.
866	7.9482	5.2727	0.	-3972.
867	8.1327	5.2727	0.	-3918.7
868	8.3173	5.2727	0.	-3865.3
869	8.5018	5.2727	0.	-3811.9
870	8.6863	5.2727	0.	-3758.6
871	8.8708	5.2727	0.	-3705.3
872	9.0553	5.2727	0.	-3652.1
873	9.2398	5.2727	0.	-3599.1
874	9.4243	5.2727	0.	-3546.2
875	9.6088	5.2727	0.	-3493.6
876	9.7933	5.2727	0.	-3441.1
877	9.9778	5.2727	0.	-3388.8
878	10.162	5.2727	0.	-3336.7
879	10.347	5.2727	0.	-3284.8
880	10.531	5.2727	0.	-3233.1
881	10.716	5.2727	0.	-3181.7
882	10.9	5.2727	0.	-3130.4
883	11.085	5.2727	0.	-3079.4
884	11.269	5.2727	0.	-3028.5
885	11.454	5.2727	0.	-2977.9
886	11.638	5.2727	0.	-2927.5
887	11.823	5.2727	0.	-2877.3
888	12.007	5.2727	0.	-2827.3
889	12.192	5.2727	0.	-2777.6
890	12.376	5.2727	0.	-2728.
891	12.561	5.2727	0.	-2678.6
892	12.745	5.2727	0.	-2629.5
893	12.93	5.2727	0.	-2580.5
894	13.114	5.2727	0.	-2531.8
895	13.299	5.2727	0.	-2483.2
896	13.483	5.2727	0.	-2434.9
897	13.668	5.2727	0.	-2386.8
898	13.852	5.2727	0.	-2338.8
899	14.037	5.2727	0.	-2291.1
900	14.221	5.2727	0.	-2243.6
901	14.406	5.2727	0.	-2196.3
902	14.59	5.2727	0.	-2149.2
903	14.775	5.2727	0.	-2102.3
904	14.959	5.2727	0.	-2055.6
905	15.144	5.2727	0.	-2009.1
906	15.328	5.2727	0.	-1962.7
907	15.513	5.2727	0.	-1916.6
908	15.697	5.2727	0.	-1870.7
909	15.882	5.2727	0.	-1825.
910	16.066	5.2727	0.	-1779.5
911	16.251	5.2727	0.	-1734.2
912	16.435	5.2727	0.	-1689.1
913	16.62	5.2727	0.	-1644.2
914	16.804	5.2727	0.	-1599.5
915	16.989	5.2727	0.	-1554.9
916	17.173	5.2727	0.	-1510.6
917	17.358	5.2727	0.	-1466.5
918	17.542	5.2727	0.	-1422.6
919	17.727	5.2727	0.	-1378.8
920	17.911	5.2727	0.	-1335.3
921	18.096	5.2727	0.	-1291.9
922	18.28	5.2727	0.	-1248.7
923	18.465	5.2727	0.	-1205.7
924	18.649	5.2727	0.	-1162.9
925	18.834	5.2727	0.	-1120.3
926	19.018	5.2727	0.	-1077.9
927	19.203	5.2727	0.	-1035.6
928	19.387	5.2727	0.	-993.54
929	19.572	5.2727	0.	-951.64
930	19.756	5.2727	0.	-909.92
931	19.941	5.2727	0.	-868.36
932	20.125	5.2727	0.	-826.97
933	20.31	5.2727	0.	-785.75
934	20.494	5.2727	0.	-744.69
935	20.679	5.2727	0.	-703.8
936	20.863	5.2727	0.	-663.06
937	21.048	5.2727	0.	-622.48
938	21.232	5.2727	0.	-582.05
939	21.417	5.2727	0.	-541.79
940	21.601	5.2727	0.	-501.68
941	21.786	5.2727	0.	-461.73
942	21.97	5.2727	0.	-421.95
943	22.155	5.2727	0.	-382.35
944	22.339	5.2727	0.	-342.95
945	22.524	5.2727	0.	-303.76
946	22.708	5.2727	0.	-264.83
947	22.893	5.2727	0.	-226.2
948	23.077	5.2727	0.	-187.92
949	23.262	5.2727	0.	-150.07
950	23.446	5.2727	0.	-112.71
951	23.631	5.2727	0.	-75.818
952	23.815	5.2727	0.	-39.502
953	3.1512	5.0909	0.	-2774.5
954	3.3357	5.0909	0.	-2945.5
955	3.5202	5.0909	0.	-3256.9
956	3.7047	5.0909	0.	-3563.
957	3.8892	5.0909	0.	-3832.3
958	4.0737	5.0909	0.	-4053.6
959	4.2582	5.0909	0.	-4226.6
960	4.4427	5.0909	0.	-4356.2
961	4.6272	5.0909	0.	-4448.6
962	4.8117	5.0909	0.	-4510.2
963	4.9962	5.0909	0.	-4546.8
964	5.1807	5.0909	0.	-4563.3
965	5.3652	5.0909	0.	-4563.7
966	5.5497	5.0909	0.	-4551.5
967	5.7342	5.0909	0.	-4529.3
968	5.9187	5.0909	0.	-4499.4
969	6.1032	5.0909	0.	-4463.4
970	6.2877	5.0909	0.	-4422.8
971	6.4722	5.0909	0.	-4378.7
972	6.6567	5.0909	0.	-4331.9
973	6.8412	5.0909	0.	-4283.1
974	7.0257	5.0909	0.	-4232.7
975	7.2102	5.0909	0.	-4181.3
976	7.3947	5.0909	0.	-4129.1
977	7.5792	5.0909	0.	-4076.3
978	7.7637	5.0909	0.	-4023.2
979	7.9482	5.0909	0.	-3969.9
980	8.1327	5.0909	0.	-3916.4
981	8.3173	5.0909	0.	-3862.9
982	8.5018	5.0909	0.	-3809.5
983	8.6863	5.0909	0.	-3756.1
984	8.8708	5.0909	0.	-3702.8
985	9.0553	5.0909	0.	-3649.7
986	9.2398	5.0909	0.	-3596.8
987	9.4243	5.0909	0.	-3544.
988	9.6088	5.0909	0.	-3491.4
989	9.7933	5.0909	0.	-3439.
990	9.9778	5.0909	0.	-3386.7
991	10.162	5.0909	0.	-3334.7
992	10.347	5.0909	0.	-3282.9
993	10.531	5.0909	0.	-3231.3
994	10.716	5.0909	0.	-3179.9
995	10.9	5.0909	0.	-3128.7
996	11.085	5.0909	0.	-3077.8
997	11.269	5.0909	0.	-3027.
998	11.454	5.0909	0.	-2976.4
999	11.638	5.0909	0.	-2926.
1000	11.823	5.0909	0.	-2875.9
1001	12.007	5.0909	0.	-2825.9
1002	12.192	5.0909	0.	-2776.2
1003	12.376	5.0909	0.	-2726.7
1004	12.561	5.0909	0.	-2677.3
1005	12.745	5.0909	0.	-2628.2
1006	12.93	5.0909	0.	-2579.3
1007	13.114	5.0909	0.	-2530.5
1008	13.299	5.0909	0.	-2482.
1009	13.483	5.0909	0.	-2433.7
1010	13.668	5.0909	0.	-2385.6
1011	13.852	5.0909	0.	-2337.7
1012	14.037	5.0909	0.	-2290.
1013	14.221	5.0909	0.	-2242.5
1014	14.406	5.0909	0.	-2195.2
1015	14.59	5.0909	0.	-2148.1
1016	14.775	5.0909	0.	-2101.2
1017	14.959	5.0909	0.	-2054.4
1018	15.144	5.0909	0.	-2007.9
1019	15.328	5.0909	0.	-1961.6
1020	15.513	5.0909	0.	-1915.5
1021	15.697	5.0909	0.	-1869.6
1022	15.882	5.0909	0.	-1823.9
1023	16.066	5.0909	0.	-1778.4
1024	16.251	5.0909	0.	-1733.1
1025	16.435	5.0909	0.	-1688.
1026	16.62	5.0909	0.	-1643.1
1027	16.804	5.0909	0.	-1598.4
1028	16.989	5.0909	0.	-1553.9
1029	17.173	5.0909	0.	-1509.6
1030	17.358	5.0909	0.	-1465.4
1031	17.542	5.0909	0.	-1421.5
1032	17.727	5.0909	0.	-1377.8
1033	17.911	5.0909	0.	-1334.2
1034	18.096	5.0909	0.	-1290.9
1035	18.28	5.0909	0.	-1247.7
1036	18.465	5.0909	0.	-1204.7
1037	18.649	5.0909	0.	-1162.
1038	18.834	5.0909	0.	-1119.4
1039	19.018	5.0909	0.	-1077.
1040	19.203	5.0909	0.	-1034.7
1041	19.387	5.0909	0.	-992.69
1042	19.572	5.0909	0.	-950.82
1043	19.756	5.0909	0.	-909.14
1044	19.941	5.0909	0.	-867.63
1045	20.125	5.0909	0.	-826.3
1046	20.31	5.0909	0.	-785.14
1047	20.494	5.0909	0.	-744.15
1048	20.679	5.0909	0.	-703.33
1049	20.863	5.0909	0.	-662.67
1050	21.048	5.0909	0.	-622.18
1051	21.232	5.0909	0.	-581.86
1052	21.417	5.0909	0.	-541.71
1053	21.601	5.0909	0.	-501.72
1054	21.786	5.0909	0.	-461.91
1055	21.97	5.0909	0.	-422.28
1056	22.155	5.0909	0.	-382.85
1057	22.339	5.0909	0.	-343.61
1058	22.524	5.0909	0.	-304.61
1059	22.708	5.0909	0.	-265.86
1060	22.893	5.0909	0.	-227.4
1061	23.077	5.0909	0.	-189.25
1062	23.262	5.0909	0.	-151.44
1063	23.446	5.0909	0.	-113.96
1064	23.631	5.0909	0.	-76.703
1065	23.815	5.0909	0.	-39.773
1066	3.1512	4.9091	0.	-3405.9
1067	3.3357	4.9091	0.	-3532.
1068	3.5202	4.9091	0.	-3786.1
1069	3.7047	4.9091	0.	-4015.4
1070	3.8892	4.9091	0.	-4206.
1071	4.0737	4.9091	0.	-4355.9
1072	4.2582	4.9091	0.	-4468.2
1073	4.4427	4.9091	0.	-4547.5
1074	4.6272	4.9091	0.	-4599.2
1075	4.8117	4.9091	0.	-4628.1
1076	4.9962	4.9091	0.	-4638.5
1077	5.1807	4.9091	0.	-4634.2
1078	5.3652	4.9091	0.	-4618.2
1079	5.5497	4.9091	0.	-4592.9
1080	5.7342	4.9091	0.	-4560.5
1081	5.9187	4.9091	0.	-4522.6
1082	6.1032	4.9091	0.	-4480.4
1083	6.2877	4.9091	0.	-4434.9
1084	6.4722	4.9091	0.	-4387.1
1085	6.6567	4.9091	0.	-4337.4
1086	6.8412	4.9091	0.	-4286.3
1087	7.0257	4.9091	0.	-4234.4
1088	7.2102	4.9091	0.	-4181.7
1089	7.3947	4.9091	0.	-4128.6
1090	7.5792	4.9091	0.	-4075.2
1091	7.7637	4.9091	0.	-4021.6
1092	7.9482	4.9091	0.	-3967.9
1093	8.1327	4.9091	0.	-3914.3
1094	8.3173	4.9091	0.	-3860.6
1095	8.5018	4.9091	0.	-3807.1
1096	8.6863	4.9091	0.	-3753.7
1097	8.8708	4.9091	0.	-3700.5
1098	9.0553	4.9091	0.	-3647.4
1099	9.2398	4.9091	0.	-3594.5
1100	9.4243	4.9091	0.	-3541.8
1101	9.6088	4.9091	0.	-3489.3
1102	9.7933	4.9091	0.	-3436.9
1103	9.9778	4.9091	0.	-3384.8
1104	10.162	4.9091	0.	-3332.9
1105	10.347	4.9091	0.	-3281.1
1106	10.531	4.9091	0.	-3229.6
1107	10.716	4.9091	0.	-3178.3
1108	10.9	4.9091	0.	-3127.2
1109	11.085	4.9091	0.	-3076.2
1110	11.269	4.9091	0.	-3025.5
1111	11.454	4.9091	0.	-2975.
1112	11.638	4.9091	0.	-2924.7
1113	11.823	4.9091	0.	-2874.6
1114	12.007	4.9091	0.	-2824.7
1115	12.192	4.9091	0.	-2774.9
1116	12.376	4.9091	0.	-2725.4
1117	12.561	4.9091	0.	-2676.1
1118	12.745	4.9091	0.	-2627.
1119	12.93	4.9091	0.	-2578.1
1120	13.114	4.9091	0.	-2529.4
1121	13.299	4.9091	0.	-2480.9
1122	13.483	4.9091	0.	-2432.6
1123	13.668	4.9091	0.	-2384.5
1124	13.852	4.9091	0.	-2336.6
1125	14.037	4.9091	0.	-2288.9
1126	14.221	4.9091	0.	-2241.4
1127	14.406	4.9091	0.	-2194.1
1128	14.59	4.9091	0.	-2147.
1129	14.775	4.9091	0.	-2100.1
1130	14.959	4.9091	0.	-2053.4
1131	15.144	4.9091	0.	-2006.9
1132	15.328	4.9091	0.	-1960.6
1133	15.513	4.9091	0.	-1914.5
1134	15.697	4.9091	0.	-1868.6
1135	15.882	4.9091	0.	-1822.9
1136	16.066	4.9091	0.	-1777.4
1137	16.251	4.9091	0.	-1732.1
1138	16.435	4.9091	0.	-1687.
1139	16.62	4.9091	0.	-1642.1
1140	16.804	4.9091	0.	-1597.4
1141	16.989	4.9091	0.	-1552.9
1142	17.173	4.9091	0.	-1508.6
1143	17.358	4.9091	0.	-1464.5
1144	17.542	4.9091	0.	-1420.6
1145	17.727	4.9091	0.	-1376.8
1146	17.911	4.9091	0.	-1333.3
1147	18.096	4.9091	0.	-1290.
1148	18.28	4.9091	0.	-1246.8
1149	18.465	4.9091	0.	-1203.9
1150	18.649	4.9091	0.	-1161.1
1151	18.834	4.9091	0.	-1118.6
1152	19.018	4.9091	0.	-1076.2
1153	19.203	4.9091	0.	-1034.
1154	19.387	4.9091	0.	-991.99
1155	19.572	4.9091	0.	-950.17
1156	19.756	4.9091	0.	-908.53
1157	19.941	4.9091	0.	-867.08
1158	20.125	4.9091	0.	-825.8
1159	20.31	4.9091	0.	-784.71
1160	20.494	4.9091	0.	-743.79
1161	20.679	4.9091	0.	-703.05
1162	20.863	4.9091	0.	-662.49
1163	21.048	4.9091	0.	-622.1
1164	21.232	4.9091	0.	-581.88
1165	21.417	4.9091	0.	-541.85
1166	21.601	4.9091	0.	-501.99
1167	21.786	4.9091	0.	-462.31
1168	21.97	4.9091	0.	-422.82
1169	22.155	4.9091	0.	-383.53
1170	22.339	4.9091	0.	-344.45
1171	22.524	4.9091	0.	-305.59
1172	22.708	4.9091	0.	-266.97
1173	22.893	4.9091	0.	-228.6
1174	23.077	4.9091	0.	-190.49
1175	23.262	4.9091	0.	-152.62
1176	23.446	4.9091	0.	-114.94
1177	23.631	4.9091	0.	-77.331
1178	23.815	4.9091	0.	-39.911
1179	3.1512	4.7273	0.	-4192.4
1180	3.3357	4.7273	0.	-4261.6
1181	3.5202	4.7273	0.	-4428.8
1182	3.7047	4.7273	0.	-4551.4
1183	3.8892	4.7273	0.	-4638.8
1184	4.0737	4.7273	0.	-4699.6
1185	4.2582	4.7273	0.	-4738.7
1186	4.4427	4.7273	0.	-4759.3
1187	4.6272	4.7273	0.	-4764.4
1188	4.8117	4.7273	0.	-4756.4
1189	4.9962	4.7273	0.	-4737.7
1190	5.1807	4.7273	0.	-4710.4
1191	5.3652	4.7273	0.	-4676.4
1192	5.5497	4.7273	0.	-4637.
1193	5.7342	4.7273	0.	-4593.6
1194	5.9187	4.7273	0.	-4547.1
1195	6.1032	4.7273	0.	-4498.3
1196	6.2877	4.7273	0.	-4447.7
1197	6.4722	4.7273	0.	-4395.9
1198	6.6567	4.7273	0.	-4343.2
1199	6.8412	4.7273	0.	-4289.9
1200	7.0257	4.7273	0.	-4236.2
1201	7.2102	4.7273	0.	-4182.3
1202	7.3947	4.7273	0.	-4128.2
1203	7.5792	4.7273	0.	-4074.1
1204	7.7637	4.7273	0.	-4020.1
1205	7.9482	4.7273	0.	-3966.1
1206	8.1327	4.7273	0.	-3912.2
1207	8.3173	4.7273	0.	-3858.5
1208	8.5018	4.7273	0.	-3804.9
1209	8.6863	4.7273	0.	-3751.5
1210	8.8708	4.7273	0.	-3698.3
1211	9.0553	4.7273	0.	-3645.3
1212	9.2398	4.7273	0.	-3592.4
1213	9.4243	4.7273	0.	-3539.8
1214	9.6088	4.7273	0.	-3487.3
1215	9.7933	4.7273	0.	-3435.1
1216	9.9778	4.7273	0.	-3383.
1217	10.162	4.7273	0.	-3331.1
1218	10.347	4.7273	0.	-3279.5
1219	10.531	4.7273	0.	-3228.
1220	10.716	4.7273	0.	-3176.7
1221	10.9	4.7273	0.	-3125.7
1222	11.085	4.7273	0.	-3074.8
1223	11.269	4.7273	0.	-3024.1
1224	11.454	4.7273	0.	-2973.7
1225	11.638	4.7273	0.	-2923.4
1226	11.823	4.7273	0.	-2873.3
1227	12.007	4.7273	0.	-2823.5
1228	12.192	4.7273	0.	-2773.8
1229	12.376	4.7273	0.	-2724.3
1230	12.561	4.7273	0.	-2675.
1231	12.745	4.7273	0.	-2626.
1232	12.93	4.7273	0.	-2577.1
1233	13.114	4.7273	0.	-2528.4
1234	13.299	4.7273	0.	-2479.9
1235	13.483	4.7273	0.	-2431.6
1236	13.668	4.7273	0.	-2383.5
1237	13.852	4.7273	0.	-2335.7
1238	14.037	4.7273	0.	-2288.
1239	14.221	4.7273	0.	-2240.5
1240	14.406	4.7273	0.	-2193.2
1241	14.59	4.7273	0.	-2146.1
1242	14.775	4.7273	0.	-2099.2
1243	14.959	4.7273	0.	-2052.5
1244	15.144	4.7273	0.	-2006.
1245	15.328	4.7273	0.	-1959.7
1246	15.513	4.7273	0.	-1913.6
1247	15.697	4.7273	0.	-1867.7
1248	15.882	4.7273	0.	-1822.1
1249	16.066	4.7273	0.	-1776.6
1250	16.251	4.7273	0.	-1731.3
1251	16.435	4.7273	0.	-1686.2
1252	16.62	4.7273	0.	-1641.3
1253	16.804	4.7273	0.	-1596.6
1254	16.989	4.7273	0.	-1552.1
1255	17.173	4.7273	0.	-1507.8
1256	17.358	4.7273	0.	-1463.7
1257	17.542	4.7273	0.	-1419.7
1258	17.727	4.7273	0.	-1376.
1259	17.911	4.7273	0.	-1332.5
1260	18.096	4.7273	0.	-1289.2
1261	18.28	4.7273	0.	-1246.1
1262	18.465	4.7273	0.	-1203.2
1263	18.649	4.7273	0.	-1160.4
1264	18.834	4.7273	0.	-1117.9
1265	19.018	4.7273	0.	-1075.5
1266	19.203	4.7273	0.	-1033.4
1267	19.387	4.7273	0.	-991.42
1268	19.572	4.7273	0.	-949.65
1269	19.756	4.7273	0.	-908.06
1270	19.941	4.7273	0.	-866.67
1271	20.125	4.7273	0.	-825.46
1272	20.31	4.7273	0.	-784.43
1273	20.494	4.7273	0.	-743.59
1274	20.679	4.7273	0.	-702.93
1275	20.863	4.7273	0.	-662.46
1276	21.048	4.7273	0.	-622.17
1277	21.232	4.7273	0.	-582.06
1278	21.417	4.7273	0.	-542.13
1279	21.601	4.7273	0.	-502.39
1280	21.786	4.7273	0.	-462.84
1281	21.97	4.7273	0.	-423.48
1282	22.155	4.7273	0.	-384.31
1283	22.339	4.7273	0.	-345.35
1284	22.524	4.7273	0.	-306.6
1285	22.708	4.7273	0.	-268.06
1286	22.893	4.7273	0.	-229.73
1287	23.077	4.7273	0.	-191.58
1288	23.262	4.7273	0.	-153.6
1289	23.446	4.7273	0.	-115.7
1290	23.631	4.7273	0.	-77.779
1291	23.815	4.7273	0.	-39.97
1292	3.1512	4.5455	0.	-5263.7
1293	3.3357	4.5455	0.	-5196.2
1294	3.5202	4.5455	0.	-5208.9
1295	3.7047	4.5455	0.	-5168.
1296	3.8892	4.5455	0.	-5120.9
1297	4.0737	4.5455	0.	-5074.3
1298	4.2582	4.5455	0.	-5029.4
1299	4.4427	4.5455	0.	-4984.6
1300	4.6272	4.5455	0.	-4938.7
1301	4.8117	4.5455	0.	-4890.8
1302	4.9962	4.5455	0.	-4841.1
1303	5.1807	4.5455	0.	-4789.5
1304	5.3652	4.5455	0.	-4736.5
1305	5.5497	4.5455	0.	-4682.4
1306	5.7342	4.5455	0.	-4627.6
1307	5.9187	4.5455	0.	-4572.2
1308	6.1032	4.5455	0.	-4516.5
1309	6.2877	4.5455	0.	-4460.7
1310	6.4722	4.5455	0.	-4404.9
1311	6.6567	4.5455	0.	-4349.2
1312	6.8412	4.5455	0.	-4293.6
1313	7.0257	4.5455	0.	-4238.2
1314	7.2102	4.5455	0.	-4183.
1315	7.3947	4.5455	0.	-4128.
1316	7.5792	4.5455	0.	-4073.2
1317	7.7637	4.5455	0.	-4018.7
1318	7.9482	4.5455	0.	-3964.4
1319	8.1327	4.5455	0.	-3910.3
1320	8.3173	4.5455	0.	-3856.5
1321	8.5018	4.5455	0.	-3802.9
1322	8.6863	4.5455	0.	-3749.5
1323	8.8708	4.5455	0.	-3696.2
1324	9.0553	4.5455	0.	-3643.3
1325	9.2398	4.5455	0.	-3590.5
1326	9.4243	4.5455	0.	-3537.9
1327	9.6088	4.5455	0.	-3485.5
1328	9.7933	4.5455	0.	-3433.3
1329	9.9778	4.5455	0.	-3381.3
1330	10.162	4.5455	0.	-3329.5
1331	10.347	4.5455	0.	-3277.9
1332	10.531	4.5455	0.	-3226.5
1333	10.716	4.5455	0.	-3175.3
1334	10.9	4.5455	0.	-3124.3
1335	11.085	4.5455	0.	-3073.5
1336	11.269	4.5455	0.	-3022.9
1337	11.454	4.5455	0.	-2972.5
1338	11.638	4.5455	0.	-2922.2
1339	11.823	4.5455	0.	-2872.2
1340	12.007	4.5455	0.	-2822.4
1341	12.192	4.5455	0.	-2772.7
1342	12.376	4.5455	0.	-2723.3
1343	12.561	4.5455	0.	-2674.
1344	12.745	4.5455	0.	-2625.
1345	12.93	4.5455	0.	-2576.1
1346	13.114	4.5455	0.	-2527.5
1347	13.299	4.5455	0.	-2479.
1348	13.483	4.5455	0.	-2430.7
1349	13.668	4.5455	0.	-2382.7
1350	13.852	4.5455	0.	-2334.8
1351	14.037	4.5455	0.	-2287.1
1352	14.221	4.5455	0.	-2239.6
1353	14.406	4.5455	0.	-2192.3
1354	14.59	4.5455	0.	-2145.3
1355	14.775	4.5455	0.	-2098.4
1356	14.959	4.5455	0.	-2051.7
1357	15.144	4.5455	0.	-2005.2
1358	15.328	4.5455	0.	-1958.9
1359	15.513	4.5455	0.	-1912.8
1360	15.697	4.5455	0.	-1867.
1361	15.882	4.5455	0.	-1821.3
1362	16.066	4.5455	0.	-1775.8
1363	16.251	4.5455	0.	-1730.5
1364	16.435	4.5455	0.	-1685.4
1365	16.62	4.5455	0.	-1640.5
1366	16.804	4.5455	0.	-1595.8
1367	16.989	4.5455	0.	-1551.3
1368	17.173	4.5455	0.	-1507.
1369	17.358	4.5455	0.	-1462.9
1370	17.542	4.5455	0.	-1419.
1371	17.727	4.5455	0.	-1375.3
1372	17.911	4.5455	0.	-1331.8
1373	18.096	4.5455	0.	-1288.5
1374	18.28	4.5455	0.	-1245.4
1375	18.465	4.5455	0.	-1202.5
1376	18.649	4.5455	0.	-1159.8
1377	18.834	4.5455	0.	-1117.3
1378	19.018	4.5455	0.	-1075.
1379	19.203	4.5455	0.	-1032.9
1380	19.387	4.5455	0.	-990.97
1381	19.572	4.5455	0.	-949.24
1382	19.756	4.5455	0.	-907.71
1383	19.941	4.5455	0.	-866.37
1384	20.125	4.5455	0.	-825.22
1385	20.31	4.5455	0.	-784.27
1386	20.494	4.5455	0.	-743.5
1387	20.679	4.5455	0.	-702.93
1388	20.863	4.5455	0.	-662.54
1389	21.048	4.5455	0.	-622.34
1390	21.232	4.5455	0.	-582.33
1391	21.417	4.5455	0.	-542.51
1392	21.601	4.5455	0.	-502.88
1393	21.786	4.5455	0.	-463.44
1394	21.97	4.5455	0.	-424.18
1395	22.155	4.5455	0.	-385.12
1396	22.339	4.5455	0.	-346.25
1397	22.524	4.5455	0.	-307.57
1398	22.708	4.5455	0.	-269.06
1399	22.893	4.5455	0.	-230.72
1400	23.077	4.5455	0.	-192.51
1401	23.262	4.5455	0.	-154.39
1402	23.446	4.5455	0.	-116.29
1403	23.631	4.5455	0.	-78.102
1404	23.815	4.5455	0.	-39.983
1405	3.1512	4.3636	0.	-6814.8
1406	3.3357	4.3636	0.	-6441.
1407	3.5202	4.3636	0.	-6122.1
1408	3.7047	4.3636	0.	-5849.4
1409	3.8892	4.3636	0.	-5634.2
1410	4.0737	4.3636	0.	-5465.7
1411	4.2582	4.3636	0.	-5329.6
1412	4.4427	4.3636	0.	-5215.5
1413	4.6272	4.3636	0.	-5116.1
1414	4.8117	4.3636	0.	-5027.1
1415	4.9962	4.3636	0.	-4945.3
1416	5.1807	4.3636	0.	-4868.9
1417	5.3652	4.3636	0.	-4796.7
1418	5.5497	4.3636	0.	-4727.7
1419	5.7342	4.3636	0.	-4661.2
1420	5.9187	4.3636	0.	-4597.
1421	6.1032	4.3636	0.	-4534.5
1422	6.2877	4.3636	0.	-4473.5
1423	6.4722	4.3636	0.	-4413.7
1424	6.6567	4.3636	0.	-4355.
1425	6.8412	4.3636	0.	-4297.2
1426	7.0257	4.3636	0.	-4240.1
1427	7.2102	4.3636	0.	-4183.7
1428	7.3947	4.3636	0.	-4127.8
1429	7.5792	4.3636	0.	-4072.4
1430	7.7637	4.3636	0.	-4017.4
1431	7.9482	4.3636	0.	-3962.8
1432	8.1327	4.3636	0.	-3908.6
1433	8.3173	4.3636	0.	-3854.6
1434	8.5018	4.3636	0.	-3801.
1435	8.6863	4.3636	0.	-3747.5
1436	8.8708	4.3636	0.	-3694.3
1437	9.0553	4.3636	0.	-3641.4
1438	9.2398	4.3636	0.	-3588.7
1439	9.4243	4.3636	0.	-3536.1
1440	9.6088	4.3636	0.	-3483.8
1441	9.7933	4.3636	0.	-3431.7
1442	9.9778	4.3636	0.	-3379.8
1443	10.162	4.3636	0.	-3328.1
1444	10.347	4.3636	0.	-3276.5
1445	10.531	4.3636	0.	-3225.2
1446	10.716	4.3636	0.	-3174.1
1447	10.9	4.3636	0.	-3123.1
1448	11.085	4.3636	0.	-3072.3
1449	11.269	4.3636	0.	-3021.8
1450	11.454	4.3636	0.	-2971.4
1451	11.638	4.3636	0.	-2921.2
1452	11.823	4.3636	0.	-2871.2
1453	12.007	4.3636	0.	-2821.4
1454	12.192	4.3636	0.	-2771.8
1455	12.376	4.3636	0.	-2722.4
1456	12.561	4.3636	0.	-2673.1
1457	12.745	4.3636	0.	-2624.1
1458	12.93	4.3636	0.	-2575.3
1459	13.114	4.3636	0.	-2526.6
1460	13.299	4.3636	0.	-2478.2
1461	13.483	4.3636	0.	-2429.9
1462	13.668	4.3636	0.	-2381.9
1463	13.852	4.3636	0.	-2334.
1464	14.037	4.3636	0.	-2286.3
1465	14.221	4.3636	0.	-2238.9
1466	14.406	4.3636	0.	-2191.6
1467	14.59	4.3636	0.	-2144.5
1468	14.775	4.3636	0.	-2097.6
1469	14.959	4.3636	0.	-2051.
1470	15.144	4.3636	0.	-2004.5
1471	15.328	4.3636	0.	-1958.2
1472	15.513	4.3636	0.	-1912.1
1473	15.697	4.3636	0.	-1866.2
1474	15.882	4.3636	0.	-1820.6
1475	16.066	4.3636	0.	-1775.1
1476	16.251	4.3636	0.	-1729.8
1477	16.435	4.3636	0.	-1684.7
1478	16.62	4.3636	0.	-1639.8
1479	16.804	4.3636	0.	-1595.1
1480	16.989	4.3636	0.	-1550.7
1481	17.173	4.3636	0.	-1506.4
1482	17.358	4.3636	0.	-1462.3
1483	17.542	4.3636	0.	-1418.4
1484	17.727	4.3636	0.	-1374.7
1485	17.911	4.3636	0.	-1331.3
1486	18.096	4.3636	0.	-1288.
1487	18.28	4.3636	0.	-1244.9
1488	18.465	4.3636	0.	-1202.
1489	18.649	4.3636	0.	-1159.3
1490	18.834	4.3636	0.	-1116.9
1491	19.018	4.3636	0.	-1074.6
1492	19.203	4.3636	0.	-1032.5
1493	19.387	4.3636	0.	-990.62
1494	19.572	4.3636	0.	-948.94
1495	19.756	4.3636	0.	-907.45
1496	19.941	4.3636	0.	-866.17
1497	20.125	4.3636	0.	-825.08
1498	20.31	4.3636	0.	-784.19
1499	20.494	4.3636	0.	-743.5
1500	20.679	4.3636	0.	-703.
1501	20.863	4.3636	0.	-662.7
1502	21.048	4.3636	0.	-622.58
1503	21.232	4.3636	0.	-582.67
1504	21.417	4.3636	0.	-542.94
1505	21.601	4.3636	0.	-503.4
1506	21.786	4.3636	0.	-464.05
1507	21.97	4.3636	0.	-424.89
1508	22.155	4.3636	0.	-385.9
1509	22.339	4.3636	0.	-347.09
1510	22.524	4.3636	0.	-308.45
1511	22.708	4.3636	0.	-269.95
1512	22.893	4.3636	0.	-231.58
1513	23.077	4.3636	0.	-193.29
1514	23.262	4.3636	0.	-155.03
1515	23.446	4.3636	0.	-116.74
1516	23.631	4.3636	0.	-78.337
1517	23.815	4.3636	0.	-39.969
1518	3.1512	4.1818	0.	-9887.7
1519	3.3357	4.1818	0.	-8011.6
1520	3.5202	4.1818	0.	-7125.7
1521	3.7047	4.1818	0.	-6555.3
1522	3.8892	4.1818	0.	-6154.3
1523	4.0737	4.1818	0.	-5857.4
1524	4.2582	4.1818	0.	-5627.8
1525	4.4427	4.1818	0.	-5443.5
1526	4.6272	4.1818	0.	-5290.7
1527	4.8117	4.1818	0.	-5160.5
1528	4.9962	4.1818	0.	-5047.
1529	5.1807	4.1818	0.	-4946.1
1530	5.3652	4.1818	0.	-4854.9
1531	5.5497	4.1818	0.	-4771.2
1532	5.7342	4.1818	0.	-4693.6
1533	5.9187	4.1818	0.	-4620.7
1534	6.1032	4.1818	0.	-4551.6
1535	6.2877	4.1818	0.	-4485.6
1536	6.4722	4.1818	0.	-4422.1
1537	6.6567	4.1818	0.	-4360.5
1538	6.8412	4.1818	0.	-4300.5
1539	7.0257	4.1818	0.	-4241.9
1540	7.2102	4.1818	0.	-4184.3
1541	7.3947	4.1818	0.	-4127.6
1542	7.5792	4.1818	0.	-4071.6
1543	7.7637	4.1818	0.	-4016.3
1544	7.9482	4.1818	0.	-3961.4
1545	8.1327	4.1818	0.	-3907.
1546	8.3173	4.1818	0.	-3852.9
1547	8.5018	4.1818	0.	-3799.2
1548	8.6863	4.1818	0.	-3745.8
1549	8.8708	4.1818	0.	-3692.6
1550	9.0553	4.1818	0.	-3639.7
1551	9.2398	4.1818	0.	-3587.
1552	9.4243	4.1818	0.	-3534.6
1553	9.6088	4.1818	0.	-3482.3
1554	9.7933	4.1818	0.	-3430.3
1555	9.9778	4.1818	0.	-3378.4
1556	10.162	4.1818	0.	-3326.8
1557	10.347	4.1818	0.	-3275.3
1558	10.531	4.1818	0.	-3224.
1559	10.716	4.1818	0.	-3172.9
1560	10.9	4.1818	0.	-3122.
1561	11.085	4.1818	0.	-3071.3
1562	11.269	4.1818	0.	-3020.8
1563	11.454	4.1818	0.	-2970.4
1564	11.638	4.1818	0.	-2920.3
1565	11.823	4.1818	0.	-2870.3
1566	12.007	4.1818	0.	-2820.5
1567	12.192	4.1818	0.	-2771.
1568	12.376	4.1818	0.	-2721.6
1569	12.561	4.1818	0.	-2672.4
1570	12.745	4.1818	0.	-2623.3
1571	12.93	4.1818	0.	-2574.5
1572	13.114	4.1818	0.	-2525.9
1573	13.299	4.1818	0.	-2477.5
1574	13.483	4.1818	0.	-2429.2
1575	13.668	4.1818	0.	-2381.2
1576	13.852	4.1818	0.	-2333.3
1577	14.037	4.1818	0.	-2285.7
1578	14.221	4.1818	0.	-2238.2
1579	14.406	4.1818	0.	-2190.9
1580	14.59	4.1818	0.	-2143.9
1581	14.775	4.1818	0.	-2097.
1582	14.959	4.1818	0.	-2050.3
1583	15.144	4.1818	0.	-2003.9
1584	15.328	4.1818	0.	-1957.6
1585	15.513	4.1818	0.	-1911.5
1586	15.697	4.1818	0.	-1865.6
1587	15.882	4.1818	0.	-1820.
1588	16.066	4.1818	0.	-1774.5
1589	16.251	4.1818	0.	-1729.2
1590	16.435	4.1818	0.	-1684.1
1591	16.62	4.1818	0.	-1639.3
1592	16.804	4.1818	0.	-1594.6
1593	16.989	4.1818	0.	-1550.1
1594	17.173	4.1818	0.	-1505.8
1595	17.358	4.1818	0.	-1461.8
1596	17.542	4.1818	0.	-1417.9
1597	17.727	4.1818	0.	-1374.2
1598	17.911	4.1818	0.	-1330.8
1599	18.096	4.1818	0.	-1287.5
1600	18.28	4.1818	0.	-1244.4
1601	18.465	4.1818	0.	-1201.6
1602	18.649	4.1818	0.	-1158.9
1603	18.834	4.1818	0.	-1116.5
1604	19.018	4.1818	0.	-1074.2
1605	19.203	4.1818	0.	-1032.2
1606	19.387	4.1818	0.	-990.35
1607	19.572	4.1818	0.	-948.71
1608	19.756	4.1818	0.	-907.27
1609	19.941	4.1818	0.	-866.04
1610	20.125	4.1818	0.	-825.01
1611	20.31	4.1818	0.	-784.18
1612	20.494	4.1818	0.	-743.55
1613	20.679	4.1818	0.	-703.12
1614	20.863	4.1818	0.	-662.89
1615	21.048	4.1818	0.	-622.86
1616	21.232	4.1818	0.	-583.02
1617	21.417	4.1818	0.	-543.38
1618	21.601	4.1818	0.	-503.92
1619	21.786	4.1818	0.	-464.64
1620	21.97	4.1818	0.	-425.55
1621	22.155	4.1818	0.	-386.62
1622	22.339	4.1818	0.	-347.86
1623	22.524	4.1818	0.	-309.23
1624	22.708	4.1818	0.	-270.72
1625	22.893	4.1818	0.	-232.3
1626	23.077	4.1818	0.	-193.92
1627	23.262	4.1818	0.	-155.54
1628	23.446	4.1818	0.	-117.09
1629	23.631	4.1818	0.	-78.507
1630	23.815	4.1818	0.	-39.941
1631	3.1512	4.	0.	-13839
1632	3.3357	4.	0.	-9520.4
1633	3.5202	4.	0.	-8108.8
1634	3.7047	4.	0.	-7235.
1635	3.8892	4.	0.	-6652.8
1636	4.0737	4.	0.	-6232.1
1637	4.2582	4.	0.	-5912.5
1638	4.4427	4.	0.	-5660.7
1639	4.6272	4.	0.	-5456.4
1640	4.8117	4.	0.	-5286.7
1641	4.9962	4.	0.	-5142.8
1642	5.1807	4.	0.	-5018.5
1643	5.3652	4.	0.	-4909.2
1644	5.5497	4.	0.	-4811.8
1645	5.7342	4.	0.	-4723.6
1646	5.9187	4.	0.	-4642.6
1647	6.1032	4.	0.	-4567.4
1648	6.2877	4.	0.	-4496.8
1649	6.4722	4.	0.	-4429.7
1650	6.6567	4.	0.	-4365.5
1651	6.8412	4.	0.	-4303.6
1652	7.0257	4.	0.	-4243.5
1653	7.2102	4.	0.	-4184.9
1654	7.3947	4.	0.	-4127.5
1655	7.5792	4.	0.	-4071.
1656	7.7637	4.	0.	-4015.2
1657	7.9482	4.	0.	-3960.1
1658	8.1327	4.	0.	-3905.5
1659	8.3173	4.	0.	-3851.4
1660	8.5018	4.	0.	-3797.7
1661	8.6863	4.	0.	-3744.2
1662	8.8708	4.	0.	-3691.1
1663	9.0553	4.	0.	-3638.2
1664	9.2398	4.	0.	-3585.6
1665	9.4243	4.	0.	-3533.2
1666	9.6088	4.	0.	-3481.
1667	9.7933	4.	0.	-3429.
1668	9.9778	4.	0.	-3377.2
1669	10.162	4.	0.	-3325.6
1670	10.347	4.	0.	-3274.2
1671	10.531	4.	0.	-3223.
1672	10.716	4.	0.	-3171.9
1673	10.9	4.	0.	-3121.1
1674	11.085	4.	0.	-3070.4
1675	11.269	4.	0.	-3019.9
1676	11.454	4.	0.	-2969.6
1677	11.638	4.	0.	-2919.5
1678	11.823	4.	0.	-2869.5
1679	12.007	4.	0.	-2819.8
1680	12.192	4.	0.	-2770.2
1681	12.376	4.	0.	-2720.9
1682	12.561	4.	0.	-2671.7
1683	12.745	4.	0.	-2622.7
1684	12.93	4.	0.	-2573.9
1685	13.114	4.	0.	-2525.3
1686	13.299	4.	0.	-2476.8
1687	13.483	4.	0.	-2428.6
1688	13.668	4.	0.	-2380.6
1689	13.852	4.	0.	-2332.7
1690	14.037	4.	0.	-2285.1
1691	14.221	4.	0.	-2237.6
1692	14.406	4.	0.	-2190.4
1693	14.59	4.	0.	-2143.3
1694	14.775	4.	0.	-2096.5
1695	14.959	4.	0.	-2049.8
1696	15.144	4.	0.	-2003.3
1697	15.328	4.	0.	-1957.1
1698	15.513	4.	0.	-1911.
1699	15.697	4.	0.	-1865.1
1700	15.882	4.	0.	-1819.4
1701	16.066	4.	0.	-1774.
1702	16.251	4.	0.	-1728.7
1703	16.435	4.	0.	-1683.6
1704	16.62	4.	0.	-1638.8
1705	16.804	4.	0.	-1594.1
1706	16.989	4.	0.	-1549.6
1707	17.173	4.	0.	-1505.4
1708	17.358	4.	0.	-1461.3
1709	17.542	4.	0.	-1417.5
1710	17.727	4.	0.	-1373.8
1711	17.911	4.	0.	-1330.3
1712	18.096	4.	0.	-1287.1
1713	18.28	4.	0.	-1244.1
1714	18.465	4.	0.	-1201.2
1715	18.649	4.	0.	-1158.6
1716	18.834	4.	0.	-1116.2
1717	19.018	4.	0.	-1074.
1718	19.203	4.	0.	-1031.9
1719	19.387	4.	0.	-990.14
1720	19.572	4.	0.	-948.54
1721	19.756	4.	0.	-907.15
1722	19.941	4.	0.	-865.97
1723	20.125	4.	0.	-824.99
1724	20.31	4.	0.	-784.21
1725	20.494	4.	0.	-743.64
1726	20.679	4.	0.	-703.27
1727	20.863	4.	0.	-663.11
1728	21.048	4.	0.	-623.14
1729	21.232	4.	0.	-583.37
1730	21.417	4.	0.	-543.79
1731	21.601	4.	0.	-504.4
1732	21.786	4.	0.	-465.19
1733	21.97	4.	0.	-426.15
1734	22.155	4.	0.	-387.26
1735	22.339	4.	0.	-348.52
1736	22.524	4.	0.	-309.9
1737	22.708	4.	0.	-271.37
1738	22.893	4.	0.	-232.89
1739	23.077	4.	0.	-194.44
1740	23.262	4.	0.	-155.94
1741	23.446	4.	0.	-117.36
1742	23.631	4.	0.	-78.631
1743	23.815	4.	0.	-39.907
1744	3.1512	3.8182	0.	-14239
1745	3.3357	3.8182	0.	-10721
1746	3.5202	3.8182	0.	-8910.2
1747	3.7047	3.8182	0.	-7831.3
1748	3.8892	3.8182	0.	-7101.5
1749	4.0737	3.8182	0.	-6572.8
1750	4.2582	3.8182	0.	-6172.4
1751	4.4427	3.8182	0.	-5859.
1752	4.6272	3.8182	0.	-5607.4
1753	4.8117	3.8182	0.	-5401.3
1754	4.9962	3.8182	0.	-5229.4
1755	5.1807	3.8182	0.	-5083.7
1756	5.3652	3.8182	0.	-4958.
1757	5.5497	3.8182	0.	-4848.
1758	5.7342	3.8182	0.	-4750.2
1759	5.9187	3.8182	0.	-4662.
1760	6.1032	3.8182	0.	-4581.3
1761	6.2877	3.8182	0.	-4506.6
1762	6.4722	3.8182	0.	-4436.4
1763	6.6567	3.8182	0.	-4369.9
1764	6.8412	3.8182	0.	-4306.3
1765	7.0257	3.8182	0.	-4245.
1766	7.2102	3.8182	0.	-4185.4
1767	7.3947	3.8182	0.	-4127.3
1768	7.5792	3.8182	0.	-4070.3
1769	7.7637	3.8182	0.	-4014.3
1770	7.9482	3.8182	0.	-3959.
1771	8.1327	3.8182	0.	-3904.3
1772	8.3173	3.8182	0.	-3850.1
1773	8.5018	3.8182	0.	-3796.3
1774	8.6863	3.8182	0.	-3742.9
1775	8.8708	3.8182	0.	-3689.8
1776	9.0553	3.8182	0.	-3637.
1777	9.2398	3.8182	0.	-3584.4
1778	9.4243	3.8182	0.	-3532.
1779	9.6088	3.8182	0.	-3479.9
1780	9.7933	3.8182	0.	-3427.9
1781	9.9778	3.8182	0.	-3376.2
1782	10.162	3.8182	0.	-3324.6
1783	10.347	3.8182	0.	-3273.3
1784	10.531	3.8182	0.	-3222.1
1785	10.716	3.8182	0.	-3171.1
1786	10.9	3.8182	0.	-3120.3
1787	11.085	3.8182	0.	-3069.6
1788	11.269	3.8182	0.	-3019.2
1789	11.454	3.8182	0.	-2968.9
1790	11.638	3.8182	0.	-2918.8
1791	11.823	3.8182	0.	-2868.9
1792	12.007	3.8182	0.	-2819.2
1793	12.192	3.8182	0.	-2769.6
1794	12.376	3.8182	0.	-2720.3
1795	12.561	3.8182	0.	-2671.1
1796	12.745	3.8182	0.	-2622.1
1797	12.93	3.8182	0.	-2573.3
1798	13.114	3.8182	0.	-2524.7
1799	13.299	3.8182	0.	-2476.3
1800	13.483	3.8182	0.	-2428.1
1801	13.668	3.8182	0.	-2380.1
1802	13.852	3.8182	0.	-2332.2
1803	14.037	3.8182	0.	-2284.6
1804	14.221	3.8182	0.	-2237.2
1805	14.406	3.8182	0.	-2189.9
1806	14.59	3.8182	0.	-2142.9
1807	14.775	3.8182	0.	-2096.
1808	14.959	3.8182	0.	-2049.3
1809	15.144	3.8182	0.	-2002.9
1810	15.328	3.8182	0.	-1956.6
1811	15.513	3.8182	0.	-1910.6
1812	15.697	3.8182	0.	-1864.7
1813	15.882	3.8182	0.	-1819.
1814	16.066	3.8182	0.	-1773.6
1815	16.251	3.8182	0.	-1728.3
1816	16.435	3.8182	0.	-1683.2
1817	16.62	3.8182	0.	-1638.4
1818	16.804	3.8182	0.	-1593.7
1819	16.989	3.8182	0.	-1549.2
1820	17.173	3.8182	0.	-1505.
1821	17.358	3.8182	0.	-1460.9
1822	17.542	3.8182	0.	-1417.1
1823	17.727	3.8182	0.	-1373.5
1824	17.911	3.8182	0.	-1330.
1825	18.096	3.8182	0.	-1286.8
1826	18.28	3.8182	0.	-1243.8
1827	18.465	3.8182	0.	-1200.9
1828	18.649	3.8182	0.	-1158.3
1829	18.834	3.8182	0.	-1115.9
1830	19.018	3.8182	0.	-1073.7
1831	19.203	3.8182	0.	-1031.8
1832	19.387	3.8182	0.	-989.99
1833	19.572	3.8182	0.	-948.43
1834	19.756	3.8182	0.	-907.07
1835	19.941	3.8182	0.	-865.93
1836	20.125	3.8182	0.	-824.99
1837	20.31	3.8182	0.	-784.26
1838	20.494	3.8182	0.	-743.74
1839	20.679	3.8182	0.	-703.43
1840	20.863	3.8182	0.	-663.32
1841	21.048	3.8182	0.	-623.41
1842	21.232	3.8182	0.	-583.7
1843	21.417	3.8182	0.	-544.17
1844	21.601	3.8182	0.	-504.83
1845	21.786	3.8182	0.	-465.67
1846	21.97	3.8182	0.	-426.66
1847	22.155	3.8182	0.	-387.81
1848	22.339	3.8182	0.	-349.08
1849	22.524	3.8182	0.	-310.45
1850	22.708	3.8182	0.	-271.89
1851	22.893	3.8182	0.	-233.37
1852	23.077	3.8182	0.	-194.84
1853	23.262	3.8182	0.	-156.26
1854	23.446	3.8182	0.	-117.57
1855	23.631	3.8182	0.	-78.72
1856	23.815	3.8182	0.	-39.873
1857	3.1512	3.6364	0.	-13547
1858	3.3357	3.6364	0.	-11142
1859	3.5202	3.6364	0.	-9450.6
1860	3.7047	3.6364	0.	-8295.3
1861	3.8892	3.6364	0.	-7473.4
1862	4.0737	3.6364	0.	-6863.4
1863	4.2582	3.6364	0.	-6396.5
1864	4.4427	3.6364	0.	-6030.4
1865	4.6272	3.6364	0.	-5737.8
1866	4.8117	3.6364	0.	-5500.
1867	4.9962	3.6364	0.	-5303.8
1868	5.1807	3.6364	0.	-5139.4
1869	5.3652	3.6364	0.	-4999.5
1870	5.5497	3.6364	0.	-4878.7
1871	5.7342	3.6364	0.	-4772.8
1872	5.9187	3.6364	0.	-4678.4
1873	6.1032	3.6364	0.	-4593.
1874	6.2877	3.6364	0.	-4514.7
1875	6.4722	3.6364	0.	-4442.
1876	6.6567	3.6364	0.	-4373.5
1877	6.8412	3.6364	0.	-4308.5
1878	7.0257	3.6364	0.	-4246.1
1879	7.2102	3.6364	0.	-4185.8
1880	7.3947	3.6364	0.	-4127.2
1881	7.5792	3.6364	0.	-4069.8
1882	7.7637	3.6364	0.	-4013.5
1883	7.9482	3.6364	0.	-3958.1
1884	8.1327	3.6364	0.	-3903.3
1885	8.3173	3.6364	0.	-3849.
1886	8.5018	3.6364	0.	-3795.2
1887	8.6863	3.6364	0.	-3741.8
1888	8.8708	3.6364	0.	-3688.7
1889	9.0553	3.6364	0.	-3635.9
1890	9.2398	3.6364	0.	-3583.4
1891	9.4243	3.6364	0.	-3531.1
1892	9.6088	3.6364	0.	-3479.
1893	9.7933	3.6364	0.	-3427.1
1894	9.9778	3.6364	0.	-3375.4
1895	10.162	3.6364	0.	-3323.9
1896	10.347	3.6364	0.	-3272.5
1897	10.531	3.6364	0.	-3221.4
1898	10.716	3.6364	0.	-3170.4
1899	10.9	3.6364	0.	-3119.6
1900	11.085	3.6364	0.	-3069.
1901	11.269	3.6364	0.	-3018.6
1902	11.454	3.6364	0.	-2968.3
1903	11.638	3.6364	0.	-2918.3
1904	11.823	3.6364	0.	-2868.4
1905	12.007	3.6364	0.	-2818.7
1906	12.192	3.6364	0.	-2769.1
1907	12.376	3.6364	0.	-2719.8
1908	12.561	3.6364	0.	-2670.6
1909	12.745	3.6364	0.	-2621.7
1910	12.93	3.6364	0.	-2572.9
1911	13.114	3.6364	0.	-2524.3
1912	13.299	3.6364	0.	-2475.9
1913	13.483	3.6364	0.	-2427.7
1914	13.668	3.6364	0.	-2379.7
1915	13.852	3.6364	0.	-2331.9
1916	14.037	3.6364	0.	-2284.2
1917	14.221	3.6364	0.	-2236.8
1918	14.406	3.6364	0.	-2189.5
1919	14.59	3.6364	0.	-2142.5
1920	14.775	3.6364	0.	-2095.6
1921	14.959	3.6364	0.	-2049.
1922	15.144	3.6364	0.	-2002.5
1923	15.328	3.6364	0.	-1956.3
1924	15.513	3.6364	0.	-1910.2
1925	15.697	3.6364	0.	-1864.3
1926	15.882	3.6364	0.	-1818.7
1927	16.066	3.6364	0.	-1773.2
1928	16.251	3.6364	0.	-1728.
1929	16.435	3.6364	0.	-1682.9
1930	16.62	3.6364	0.	-1638.
1931	16.804	3.6364	0.	-1593.4
1932	16.989	3.6364	0.	-1548.9
1933	17.173	3.6364	0.	-1504.7
1934	17.358	3.6364	0.	-1460.7
1935	17.542	3.6364	0.	-1416.8
1936	17.727	3.6364	0.	-1373.2
1937	17.911	3.6364	0.	-1329.8
1938	18.096	3.6364	0.	-1286.5
1939	18.28	3.6364	0.	-1243.5
1940	18.465	3.6364	0.	-1200.7
1941	18.649	3.6364	0.	-1158.1
1942	18.834	3.6364	0.	-1115.8
1943	19.018	3.6364	0.	-1073.6
1944	19.203	3.6364	0.	-1031.6
1945	19.387	3.6364	0.	-989.88
1946	19.572	3.6364	0.	-948.35
1947	19.756	3.6364	0.	-907.02
1948	19.941	3.6364	0.	-865.91
1949	20.125	3.6364	0.	-825.01
1950	20.31	3.6364	0.	-784.32
1951	20.494	3.6364	0.	-743.85
1952	20.679	3.6364	0.	-703.57
1953	20.863	3.6364	0.	-663.51
1954	21.048	3.6364	0.	-623.64
1955	21.232	3.6364	0.	-583.97
1956	21.417	3.6364	0.	-544.49
1957	21.601	3.6364	0.	-505.19
1958	21.786	3.6364	0.	-466.06
1959	21.97	3.6364	0.	-427.09
1960	22.155	3.6364	0.	-388.25
1961	22.339	3.6364	0.	-349.52
1962	22.524	3.6364	0.	-310.89
1963	22.708	3.6364	0.	-272.31
1964	22.893	3.6364	0.	-233.74
1965	23.077	3.6364	0.	-195.15
1966	23.262	3.6364	0.	-156.49
1967	23.446	3.6364	0.	-117.72
1968	23.631	3.6364	0.	-78.783
1969	23.815	3.6364	0.	-39.842
1970	3.1512	3.4545	0.	-12626
1971	3.3357	3.4545	0.	-11115
1972	3.5202	3.4545	0.	-9717.3
1973	3.7047	3.4545	0.	-8606.4
1974	3.8892	3.4545	0.	-7750.3
1975	4.0737	3.4545	0.	-7089.5
1976	4.2582	3.4545	0.	-6574.1
1977	4.4427	3.4545	0.	-6167.1
1978	4.6272	3.4545	0.	-5841.8
1979	4.8117	3.4545	0.	-5578.6
1980	4.9962	3.4545	0.	-5362.7
1981	5.1807	3.4545	0.	-5183.4
1982	5.3652	3.4545	0.	-5032.2
1983	5.5497	3.4545	0.	-4902.8
1984	5.7342	3.4545	0.	-4790.4
1985	5.9187	3.4545	0.	-4691.1
1986	6.1032	3.4545	0.	-4602.1
1987	6.2877	3.4545	0.	-4521.1
1988	6.4722	3.4545	0.	-4446.3
1989	6.6567	3.4545	0.	-4376.3
1990	6.8412	3.4545	0.	-4310.2
1991	7.0257	3.4545	0.	-4247.
1992	7.2102	3.4545	0.	-4186.1
1993	7.3947	3.4545	0.	-4127.1
1994	7.5792	3.4545	0.	-4069.4
1995	7.7637	3.4545	0.	-4012.9
1996	7.9482	3.4545	0.	-3957.3
1997	8.1327	3.4545	0.	-3902.5
1998	8.3173	3.4545	0.	-3848.2
1999	8.5018	3.4545	0.	-3794.4
2000	8.6863	3.4545	0.	-3740.9
2001	8.8708	3.4545	0.	-3687.9
2002	9.0553	3.4545	0.	-3635.1
2003	9.2398	3.4545	0.	-3582.6
2004	9.4243	3.4545	0.	-3530.3
2005	9.6088	3.4545	0.	-3478.3
2006	9.7933	3.4545	0.	-3426.4
2007	9.9778	3.4545	0.	-3374.7
2008	10.162	3.4545	0.	-3323.2
2009	10.347	3.4545	0.	-3272.
2010	10.531	3.4545	0.	-3220.8
2011	10.716	3.4545	0.	-3169.9
2012	10.9	3.4545	0.	-3119.1
2013	11.085	3.4545	0.	-3068.5
2014	11.269	3.4545	0.	-3018.1
2015	11.454	3.4545	0.	-2967.9
2016	11.638	3.4545	0.	-2917.8
2017	11.823	3.4545	0.	-2868.
2018	12.007	3.4545	0.	-2818.3
2019	12.192	3.4545	0.	-2768.8
2020	12.376	3.4545	0.	-2719.4
2021	12.561	3.4545	0.	-2670.3
2022	12.745	3.4545	0.	-2621.3
2023	12.93	3.4545	0.	-2572.6
2024	13.114	3.4545	0.	-2524.
2025	13.299	3.4545	0.	-2475.6
2026	13.483	3.4545	0.	-2427.4
2027	13.668	3.4545	0.	-2379.4
2028	13.852	3.4545	0.	-2331.6
2029	14.037	3.4545	0.	-2283.9
2030	14.221	3.4545	0.	-2236.5
2031	14.406	3.4545	0.	-2189.3
2032	14.59	3.4545	0.	-2142.2
2033	14.775	3.4545	0.	-2095.4
2034	14.959	3.4545	0.	-2048.7
2035	15.144	3.4545	0.	-2002.3
2036	15.328	3.4545	0.	-1956.
2037	15.513	3.4545	0.	-1910.
2038	15.697	3.4545	0.	-1864.1
2039	15.882	3.4545	0.	-1818.4
2040	16.066	3.4545	0.	-1773.
2041	16.251	3.4545	0.	-1727.7
2042	16.435	3.4545	0.	-1682.7
2043	16.62	3.4545	0.	-1637.8
2044	16.804	3.4545	0.	-1593.2
2045	16.989	3.4545	0.	-1548.7
2046	17.173	3.4545	0.	-1504.5
2047	17.358	3.4545	0.	-1460.4
2048	17.542	3.4545	0.	-1416.6
2049	17.727	3.4545	0.	-1373.
2050	17.911	3.4545	0.	-1329.6
2051	18.096	3.4545	0.	-1286.4
2052	18.28	3.4545	0.	-1243.4
2053	18.465	3.4545	0.	-1200.6
2054	18.649	3.4545	0.	-1158.
2055	18.834	3.4545	0.	-1115.6
2056	19.018	3.4545	0.	-1073.5
2057	19.203	3.4545	0.	-1031.5
2058	19.387	3.4545	0.	-989.81
2059	19.572	3.4545	0.	-948.3
2060	19.756	3.4545	0.	-907.
2061	19.941	3.4545	0.	-865.91
2062	20.125	3.4545	0.	-825.04
2063	20.31	3.4545	0.	-784.38
2064	20.494	3.4545	0.	-743.93
2065	20.679	3.4545	0.	-703.69
2066	20.863	3.4545	0.	-663.66
2067	21.048	3.4545	0.	-623.83
2068	21.232	3.4545	0.	-584.19
2069	21.417	3.4545	0.	-544.74
2070	21.601	3.4545	0.	-505.47
2071	21.786	3.4545	0.	-466.37
2072	21.97	3.4545	0.	-427.41
2073	22.155	3.4545	0.	-388.58
2074	22.339	3.4545	0.	-349.86
2075	22.524	3.4545	0.	-311.21
2076	22.708	3.4545	0.	-272.61
2077	22.893	3.4545	0.	-234.01
2078	23.077	3.4545	0.	-195.38
2079	23.262	3.4545	0.	-156.66
2080	23.446	3.4545	0.	-117.83
2081	23.631	3.4545	0.	-78.826
2082	23.815	3.4545	0.	-39.817
2083	3.1512	3.2727	0.	-12080
2084	3.3357	3.2727	0.	-10978
2085	3.5202	3.2727	0.	-9816.3
2086	3.7047	3.2727	0.	-8782.7
2087	3.8892	3.2727	0.	-7928.3
2088	4.0737	3.2727	0.	-7242.5
2089	4.2582	3.2727	0.	-6696.8
2090	4.4427	3.2727	0.	-6262.4
2091	4.6272	3.2727	0.	-5914.5
2092	4.8117	3.2727	0.	-5633.3
2093	4.9962	3.2727	0.	-5403.7
2094	5.1807	3.2727	0.	-5213.9
2095	5.3652	3.2727	0.	-5054.8
2096	5.5497	3.2727	0.	-4919.4
2097	5.7342	3.2727	0.	-4802.5
2098	5.9187	3.2727	0.	-4699.9
2099	6.1032	3.2727	0.	-4608.3
2100	6.2877	3.2727	0.	-4525.4
2101	6.4722	3.2727	0.	-4449.2
2102	6.6567	3.2727	0.	-4378.2
2103	6.8412	3.2727	0.	-4311.3
2104	7.0257	3.2727	0.	-4247.6
2105	7.2102	3.2727	0.	-4186.3
2106	7.3947	3.2727	0.	-4127.
2107	7.5792	3.2727	0.	-4069.1
2108	7.7637	3.2727	0.	-4012.5
2109	7.9482	3.2727	0.	-3956.8
2110	8.1327	3.2727	0.	-3901.9
2111	8.3173	3.2727	0.	-3847.6
2112	8.5018	3.2727	0.	-3793.8
2113	8.6863	3.2727	0.	-3740.4
2114	8.8708	3.2727	0.	-3687.3
2115	9.0553	3.2727	0.	-3634.6
2116	9.2398	3.2727	0.	-3582.1
2117	9.4243	3.2727	0.	-3529.8
2118	9.6088	3.2727	0.	-3477.8
2119	9.7933	3.2727	0.	-3425.9
2120	9.9778	3.2727	0.	-3374.3
2121	10.162	3.2727	0.	-3322.8
2122	10.347	3.2727	0.	-3271.6
2123	10.531	3.2727	0.	-3220.5
2124	10.716	3.2727	0.	-3169.5
2125	10.9	3.2727	0.	-3118.8
2126	11.085	3.2727	0.	-3068.2
2127	11.269	3.2727	0.	-3017.8
2128	11.454	3.2727	0.	-2967.6
2129	11.638	3.2727	0.	-2917.6
2130	11.823	3.2727	0.	-2867.7
2131	12.007	3.2727	0.	-2818.
2132	12.192	3.2727	0.	-2768.5
2133	12.376	3.2727	0.	-2719.2
2134	12.561	3.2727	0.	-2670.1
2135	12.745	3.2727	0.	-2621.1
2136	12.93	3.2727	0.	-2572.4
2137	13.114	3.2727	0.	-2523.8
2138	13.299	3.2727	0.	-2475.4
2139	13.483	3.2727	0.	-2427.2
2140	13.668	3.2727	0.	-2379.2
2141	13.852	3.2727	0.	-2331.4
2142	14.037	3.2727	0.	-2283.7
2143	14.221	3.2727	0.	-2236.3
2144	14.406	3.2727	0.	-2189.1
2145	14.59	3.2727	0.	-2142.
2146	14.775	3.2727	0.	-2095.2
2147	14.959	3.2727	0.	-2048.5
2148	15.144	3.2727	0.	-2002.1
2149	15.328	3.2727	0.	-1955.8
2150	15.513	3.2727	0.	-1909.8
2151	15.697	3.2727	0.	-1863.9
2152	15.882	3.2727	0.	-1818.3
2153	16.066	3.2727	0.	-1772.8
2154	16.251	3.2727	0.	-1727.6
2155	16.435	3.2727	0.	-1682.5
2156	16.62	3.2727	0.	-1637.7
2157	16.804	3.2727	0.	-1593.
2158	16.989	3.2727	0.	-1548.6
2159	17.173	3.2727	0.	-1504.3
2160	17.358	3.2727	0.	-1460.3
2161	17.542	3.2727	0.	-1416.5
2162	17.727	3.2727	0.	-1372.9
2163	17.911	3.2727	0.	-1329.4
2164	18.096	3.2727	0.	-1286.2
2165	18.28	3.2727	0.	-1243.3
2166	18.465	3.2727	0.	-1200.5
2167	18.649	3.2727	0.	-1157.9
2168	18.834	3.2727	0.	-1115.5
2169	19.018	3.2727	0.	-1073.4
2170	19.203	3.2727	0.	-1031.5
2171	19.387	3.2727	0.	-989.76
2172	19.572	3.2727	0.	-948.27
2173	19.756	3.2727	0.	-906.98
2174	19.941	3.2727	0.	-865.91
2175	20.125	3.2727	0.	-825.06
2176	20.31	3.2727	0.	-784.42
2177	20.494	3.2727	0.	-743.99
2178	20.679	3.2727	0.	-703.78
2179	20.863	3.2727	0.	-663.77
2180	21.048	3.2727	0.	-623.96
2181	21.232	3.2727	0.	-584.34
2182	21.417	3.2727	0.	-544.91
2183	21.601	3.2727	0.	-505.66
2184	21.786	3.2727	0.	-466.57
2185	21.97	3.2727	0.	-427.63
2186	22.155	3.2727	0.	-388.8
2187	22.339	3.2727	0.	-350.08
2188	22.524	3.2727	0.	-311.43
2189	22.708	3.2727	0.	-272.81
2190	22.893	3.2727	0.	-234.19
2191	23.077	3.2727	0.	-195.52
2192	23.262	3.2727	0.	-156.77
2193	23.446	3.2727	0.	-117.9
2194	23.631	3.2727	0.	-78.853
2195	23.815	3.2727	0.	-39.8
2196	3.1512	3.0909	0.	-11817
2197	3.3357	3.0909	0.	-10887
2198	3.5202	3.0909	0.	-9842.8
2199	3.7047	3.0909	0.	-8859.4
2200	3.8892	3.0909	0.	-8013.9
2201	4.0737	3.0909	0.	-7319.1
2202	4.2582	3.0909	0.	-6759.4
2203	4.4427	3.0909	0.	-6311.3
2204	4.6272	3.0909	0.	-5951.8
2205	4.8117	3.0909	0.	-5661.5
2206	4.9962	3.0909	0.	-5424.8
2207	5.1807	3.0909	0.	-5229.5
2208	5.3652	3.0909	0.	-5066.3
2209	5.5497	3.0909	0.	-4927.9
2210	5.7342	3.0909	0.	-4808.7
2211	5.9187	3.0909	0.	-4704.3
2212	6.1032	3.0909	0.	-4611.5
2213	6.2877	3.0909	0.	-4527.6
2214	6.4722	3.0909	0.	-4450.7
2215	6.6567	3.0909	0.	-4379.2
2216	6.8412	3.0909	0.	-4311.9
2217	7.0257	3.0909	0.	-4247.9
2218	7.2102	3.0909	0.	-4186.4
2219	7.3947	3.0909	0.	-4126.9
2220	7.5792	3.0909	0.	-4069.
2221	7.7637	3.0909	0.	-4012.3
2222	7.9482	3.0909	0.	-3956.6
2223	8.1327	3.0909	0.	-3901.6
2224	8.3173	3.0909	0.	-3847.3
2225	8.5018	3.0909	0.	-3793.5
2226	8.6863	3.0909	0.	-3740.1
2227	8.8708	3.0909	0.	-3687.
2228	9.0553	3.0909	0.	-3634.3
2229	9.2398	3.0909	0.	-3581.8
2230	9.4243	3.0909	0.	-3529.6
2231	9.6088	3.0909	0.	-3477.5
2232	9.7933	3.0909	0.	-3425.7
2233	9.9778	3.0909	0.	-3374.1
2234	10.162	3.0909	0.	-3322.6
2235	10.347	3.0909	0.	-3271.4
2236	10.531	3.0909	0.	-3220.3
2237	10.716	3.0909	0.	-3169.4
2238	10.9	3.0909	0.	-3118.6
2239	11.085	3.0909	0.	-3068.1
2240	11.269	3.0909	0.	-3017.7
2241	11.454	3.0909	0.	-2967.5
2242	11.638	3.0909	0.	-2917.4
2243	11.823	3.0909	0.	-2867.6
2244	12.007	3.0909	0.	-2817.9
2245	12.192	3.0909	0.	-2768.4
2246	12.376	3.0909	0.	-2719.1
2247	12.561	3.0909	0.	-2670.
2248	12.745	3.0909	0.	-2621.
2249	12.93	3.0909	0.	-2572.2
2250	13.114	3.0909	0.	-2523.7
2251	13.299	3.0909	0.	-2475.3
2252	13.483	3.0909	0.	-2427.1
2253	13.668	3.0909	0.	-2379.1
2254	13.852	3.0909	0.	-2331.3
2255	14.037	3.0909	0.	-2283.6
2256	14.221	3.0909	0.	-2236.2
2257	14.406	3.0909	0.	-2189.
2258	14.59	3.0909	0.	-2141.9
2259	14.775	3.0909	0.	-2095.1
2260	14.959	3.0909	0.	-2048.5
2261	15.144	3.0909	0.	-2002.
2262	15.328	3.0909	0.	-1955.7
2263	15.513	3.0909	0.	-1909.7
2264	15.697	3.0909	0.	-1863.8
2265	15.882	3.0909	0.	-1818.2
2266	16.066	3.0909	0.	-1772.7
2267	16.251	3.0909	0.	-1727.5
2268	16.435	3.0909	0.	-1682.4
2269	16.62	3.0909	0.	-1637.6
2270	16.804	3.0909	0.	-1592.9
2271	16.989	3.0909	0.	-1548.5
2272	17.173	3.0909	0.	-1504.3
2273	17.358	3.0909	0.	-1460.2
2274	17.542	3.0909	0.	-1416.4
2275	17.727	3.0909	0.	-1372.8
2276	17.911	3.0909	0.	-1329.4
2277	18.096	3.0909	0.	-1286.2
2278	18.28	3.0909	0.	-1243.2
2279	18.465	3.0909	0.	-1200.4
2280	18.649	3.0909	0.	-1157.9
2281	18.834	3.0909	0.	-1115.5
2282	19.018	3.0909	0.	-1073.4
2283	19.203	3.0909	0.	-1031.5
2284	19.387	3.0909	0.	-989.74
2285	19.572	3.0909	0.	-948.25
2286	19.756	3.0909	0.	-906.98
2287	19.941	3.0909	0.	-865.92
2288	20.125	3.0909	0.	-825.07
2289	20.31	3.0909	0.	-784.44
2290	20.494	3.0909	0.	-744.03
2291	20.679	3.0909	0.	-703.82
2292	20.863	3.0909	0.	-663.82
2293	21.048	3.0909	0.	-624.02
2294	21.232	3.0909	0.	-584.42
2295	21.417	3.0909	0.	-545.
2296	21.601	3.0909	0.	-505.76
2297	21.786	3.0909	0.	-466.67
2298	21.97	3.0909	0.	-427.73
2299	22.155	3.0909	0.	-388.92
2300	22.339	3.0909	0.	-350.19
2301	22.524	3.0909	0.	-311.53
2302	22.708	3.0909	0.	-272.91
2303	22.893	3.0909	0.	-234.27
2304	23.077	3.0909	0.	-195.59
2305	23.262	3.0909	0.	-156.82
2306	23.446	3.0909	0.	-117.93
2307	23.631	3.0909	0.	-78.866
2308	23.815	3.0909	0.	-39.791
2309	3.1512	2.9091	0.	-11817
2310	3.3357	2.9091	0.	-10887
2311	3.5202	2.9091	0.	-9842.8
2312	3.7047	2.9091	0.	-8859.4
2313	3.8892	2.9091	0.	-8013.9
2314	4.0737	2.9091	0.	-7319.1
2315	4.2582	2.9091	0.	-6759.4
2316	4.4427	2.9091	0.	-6311.3
2317	4.6272	2.9091	0.	-5951.8
2318	4.8117	2.9091	0.	-5661.5
2319	4.9962	2.9091	0.	-5424.8
2320	5.1807	2.9091	0.	-5229.5
2321	5.3652	2.9091	0.	-5066.3
2322	5.5497	2.9091	0.	-4927.9
2323	5.7342	2.9091	0.	-4808.7
2324	5.9187	2.9091	0.	-4704.3
2325	6.1032	2.9091	0.	-4611.5
2326	6.2877	2.9091	0.	-4527.6
2327	6.4722	2.9091	0.	-4450.7
2328	6.6567	2.9091	0.	-4379.2
2329	6.8412	2.9091	0.	-4311.9
2330	7.0257	2.9091	0.	-4247.9
2331	7.2102	2.9091	0.	-4186.4
2332	7.3947	2.9091	0.	-4126.9
2333	7.5792	2.9091	0.	-4069.
2334	7.7637	2.9091	0.	-4012.3
2335	7.9482	2.9091	0.	-3956.6
2336	8.1327	2.9091	0.	-3901.6
2337	8.3173	2.9091	0.	-3847.3
2338	8.5018	2.9091	0.	-3793.5
2339	8.6863	2.9091	0.	-3740.1
2340	8.8708	2.9091	0.	-3687.
2341	9.0553	2.9091	0.	-3634.3
2342	9.2398	2.9091	0.	-3581.8
2343	9.4243	2.9091	0.	-3529.6
2344	9.6088	2.9091	0.	-3477.5
2345	9.7933	2.9091	0.	-3425.7
2346	9.9778	2.9091	0.	-3374.1
2347	10.162	2.9091	0.	-3322.6
2348	10.347	2.9091	0.	-3271.4
2349	10.531	2.9091	0.	-3220.3
2350	10.716	2.9091	0.	-3169.4
2351	10.9	2.9091	0.	-3118.6
2352	11.085	2.9091	0.	-3068.1
2353	11.269	2.9091	0.	-3017.7
2354	11.454	2.9091	0.	-2967.5
2355	11.638	2.9091	0.	-2917.4
2356	11.823	2.9091	0.	-2867.6
2357	12.007	2.9091	0.	-2817.9
2358	12.192	2.9091	0.	-2768.4
2359	12.376	2.9091	0.	-2719.1
2360	12.561	2.9091	0.	-2670.
2361	12.745	2.9091	0.	-2621.
2362	12.93	2.9091	0.	-2572.2
2363	13.114	2.9091	0.	-2523.7
2364	13.299	2.9091	0.	-2475.3
2365	13.483	2.9091	0.	-2427.1
2366	13.668	2.9091	0.	-2379.1
2367	13.852	2.9091	0.	-2331.3
2368	14.037	2.9091	0.	-2283.6
2369	14.221	2.9091	0.	-2236.2
2370	14.406	2.9091	0.	-2189.
2371	14.59	2.9091	0.	-2141.9
2372	14.775	2.9091	0.	-2095.1
2373	14.959	2.9091	0.	-2048.5
2374	15.144	2.9091	0.	-2002.
2375	15.328	2.9091	0.	-1955.7
2376	15.513	2.9091	0.	-1909.7
2377	15.697	2.9091	0.	-1863.8
2378	15.882	2.9091	0.	-1818.2
2379	16.066	2.9091	0.	-1772.7
2380	16.251	2.9091	0.	-1727.5
2381	16.435	2.9091	0.	-1682.4
2382	16.62	2.9091	0.	-1637.6
2383	16.804	2.9091	0.	-1592.9
2384	16.989	2.9091	0.	-1548.5
2385	17.173	2.9091	0.	-1504.3
2386	17.358	2.9091	0.	-1460.2
2387	17.542	2.9091	0.	-1416.4
2388	17.727	2.9091	0.	-1372.8
2389	17.911	2.9091	0.	-1329.4
2390	18.096	2.9091	0.	-1286.2
2391	18.28	2.9091	0.	-1243.2
2392	18.465	2.9091	0.	-1200.4
2393	18.649	2.9091	0.	-1157.9
2394	18.834	2.9091	0.	-1115.5
2395	19.018	2.9091	0.	-1073.4
2396	19.203	2.9091	0.	-1031.5
2397	19.387	2.9091	0.	-989.74
2398	19.572	2.9091	0.	-948.25
2399	19.756	2.9091	0.	-906.98
2400	19.941	2.9091	0.	-865.92
2401	20.125	2.9091	0.	-825.07
2402	20.31	2.9091	0.	-784.44
2403	20.494	2.9091	0.	-744.03
2404	20.679	2.9091	0.	-703.82
2405	20.863	2.9091	0.	-663.82
2406	21.048	2.9091	0.	-624.02
2407	21.232	2.9091	0.	-584.42
2408	21.417	2.9091	0.	-545.
2409	21.601	2.9091	0.	-505.76
2410	21.786	2.9091	0.	-466.67
2411	21.97	2.9091	0.	-427.73
2412	22.155	2.9091	0.	-388.92
2413	22.339	2.9091	0.	-350.19
2414	22.524	2.9091	0.	-311.53
2415	22.708	2.9091	0.	-272.91
2416	22.893	2.9091	0.	-234.27
2417	23.077	2.9091	0.	-195.59
2418	23.262	2.9091	0.	-156.82
2419	23.446	2.9091	0.	-117.93
2420	23.631	2.9091	0.	-78.866
2421	23.815	2.9091	0.	-39.791
2422	3.1512	2.7273	0.	-12080
2423	3.3357	2.7273	0.	-10978
2424	3.5202	2.7273	0.	-9816.3
2425	3.7047	2.7273	0.	-8782.7
2426	3.8892	2.7273	0.	-7928.3
2427	4.0737	2.7273	0.	-7242.5
2428	4.2582	2.7273	0.	-6696.8
2429	4.4427	2.7273	0.	-6262.4
2430	4.6272	2.7273	0.	-5914.5
2431	4.8117	2.7273	0.	-5633.3
2432	4.9962	2.7273	0.	-5403.7
2433	5.1807	2.7273	0.	-5213.9
2434	5.3652	2.7273	0.	-5054.8
2435	5.5497	2.7273	0.	-4919.4
2436	5.7342	2.7273	0.	-4802.5
2437	5.9187	2.7273	0.	-4699.9
2438	6.1032	2.7273	0.	-4608.3
2439	6.2877	2.7273	0.	-4525.4
2440	6.4722	2.7273	0.	-4449.2
2441	6.6567	2.7273	0.	-4378.2
2442	6.8412	2.7273	0.	-4311.3
2443	7.0257	2.7273	0.	-4247.6
2444	7.2102	2.7273	0.	-4186.3
2445	7.3947	2.7273	0.	-4127.
2446	7.5792	2.7273	0.	-4069.1
2447	7.7637	2.7273	0.	-4012.5
2448	7.9482	2.7273	0.	-3956.8
2449	8.1327	2.7273	0.	-3901.9
2450	8.3173	2.7273	0.	-3847.6
2451	8.5018	2.7273	0.	-3793.8
2452	8.6863	2.7273	0.	-3740.4
2453	8.8708	2.7273	0.	-3687.3
2454	9.0553	2.7273	0.	-3634.6
2455	9.2398	2.7273	0.	-3582.1
2456	9.4243	2.7273	0.	-3529.8
2457	9.6088	2.7273	0.	-3477.8
2458	9.7933	2.7273	0.	-3425.9
2459	9.9778	2.7273	0.	-3374.3
2460	10.162	2.7273	0.	-3322.8
2461	10.347	2.7273	0.	-3271.6
2462	10.531	2.7273	0.	-3220.5
2463	10.716	2.7273	0.	-3169.5
2464	10.9	2.7273	0.	-3118.8
2465	11.085	2.7273	0.	-3068.2
2466	11.269	2.7273	0.	-3017.8
2467	11.454	2.7273	0.	-2967.6
2468	11.638	2.7273	0.	-2917.6
2469	11.823	2.7273	0.	-2867.7
2470	12.007	2.7273	0.	-2818.
2471	12.192	2.7273	0.	-2768.5
2472	12.376	2.7273	0.	-2719.2
2473	12.561	2.7273	0.	-2670.1
2474	12.745	2.7273	0.	-2621.1
2475	12.93	2.7273	0.	-2572.4
2476	13.114	2.7273	0.	-2523.8
2477	13.299	2.7273	0.	-2475.4
2478	13.483	2.7273	0.	-2427.2
2479	13.668	2.7273	0.	-2379.2
2480	13.852	2.7273	0.	-2331.4
2481	14.037	2.7273	0.	-2283.7
2482	14.221	2.7273	0.	-2236.3
2483	14.406	2.7273	0.	-2189.1
2484	14.59	2.7273	0.	-2142.
2485	14.775	2.7273	0.	-2095.2
2486	14.959	2.7273	0.	-2048.5
2487	15.144	2.7273	0.	-2002.1
2488	15.328	2.7273	0.	-1955.8
2489	15.513	2.7273	0.	-1909.8
2490	15.697	2.7273	0.	-1863.9
2491	15.882	2.7273	0.	-1818.3
2492	16.066	2.7273	0.	-1772.8
2493	16.251	2.7273	0.	-1727.6
2494	16.435	2.7273	0.	-1682.5
2495	16.62	2.7273	0.	-1637.7
2496	16.804	2.7273	0.	-1593.
2497	16.989	2.7273	0.	-1548.6
2498	17.173	2.7273	0.	-1504.3
2499	17.358	2.7273	0.	-1460.3
2500	17.542	2.7273	0.	-1416.5
2501	17.727	2.7273	0.	-1372.9
2502	17.911	2.7273	0.	-1329.4
2503	18.096	2.7273	0.	-1286.2
2504	18.28	2.7273	0.	-1243.3
2505	18.465	2.7273	0.	-1200.5
2506	18.649	2.7273	0.	-1157.9
2507	18.834	2.7273	0.	-1115.5
2508	19.018	2.7273	0.	-1073.4
2509	19.203	2.7273	0.	-1031.5
2510	19.387	2.7273	0.	-989.76
2511	19.572	2.7273	0.	-948.27
2512	19.756	2.7273	0.	-906.98
2513	19.941	2.7273	0.	-865.91
2514	20.125	2.7273	0.	-825.06
2515	20.31	2.7273	0.	-784.42
2516	20.494	2.7273	0.	-743.99
2517	20.679	2.7273	0.	-703.78
2518	20.863	2.7273	0.	-663.77
2519	21.048	2.7273	0.	-623.96
2520	21.232	2.7273	0.	-584.34
2521	21.417	2.7273	0.	-544.91
2522	21.601	2.7273	0.	-505.66
2523	21.786	2.7273	0.	-466.57
2524	21.97	2.7273	0.	-427.63
2525	22.155	2.7273	0.	-388.8
2526	22.339	2.7273	0.	-350.08
2527	22.524	2.7273	0.	-311.43
2528	22.708	2.7273	0.	-272.81
2529	22.893	2.7273	0.	-234.19
2530	23.077	2.7273	0.	-195.52
2531	23.262	2.7273	0.	-156.77
2532	23.446	2.7273	0.	-117.9
2533	23.631	2.7273	0.	-78.853
2534	23.815	2.7273	0.	-39.8
2535	3.1512	2.5455	0.	-12626
2536	3.3357	2.5455	0.	-11115
2537	3.5202	2.5455	0.	-9717.3
2538	3.7047	2.5455	0.	-8606.4
2539	3.8892	2.5455	0.	-7750.3
2540	4.0737	2.5455	0.	-7089.5
2541	4.2582	2.5455	0.	-6574.1
2542	4.4427	2.5455	0.	-6167.1
2543	4.6272	2.5455	0.	-5841.8
2544	4.8117	2.5455	0.	-5578.6
2545	4.9962	2.5455	0.	-5362.7
2546	5.1807	2.5455	0.	-5183.4
2547	5.3652	2.5455	0.	-5032.2
2548	5.5497	2.5455	0.	-4902.8
2549	5.7342	2.5455	0.	-4790.4
2550	5.9187	2.5455	0.	-4691.1
2551	6.1032	2.5455	0.	-4602.1
2552	6.2877	2.5455	0.	-4521.1
2553	6.4722	2.5455	0.	-4446.3
2554	6.6567	2.5455	0.	-4376.3
2555	6.8412	2.5455	0.	-4310.2
2556	7.0257	2.5455	0.	-4247.
2557	7.2102	2.5455	0.	-4186.1
2558	7.3947	2.5455	0.	-4127.1
2559	7.5792	2.5455	0.	-4069.4
2560	7.7637	2.5455	0.	-4012.9
2561	7.9482	2.5455	0.	-3957.3
2562	8.1327	2.5455	0.	-3902.5
2563	8.3173	2.5455	0.	-3848.2
2564	8.5018	2.5455	0.	-3794.4
2565	8.6863	2.5455	0.	-3740.9
2566	8.8708	2.5455	0.	-3687.9
2567	9.0553	2.5455	0.	-3635.1
2568	9.2398	2.5455	0.	-3582.6
2569	9.4243	2.5455	0.	-3530.3
2570	9.6088	2.5455	0.	-3478.3
2571	9.7933	2.5455	0.	-3426.4
2572	9.9778	2.5455	0.	-3374.7
2573	10.162	2.5455	0.	-3323.2
2574	10.347	2.5455	0.	-3272.
2575	10.531	2.5455	0.	-3220.8
2576	10.716	2.5455	0.	-3169.9
2577	10.9	2.5455	0.	-3119.1
2578	11.085	2.5455	0.	-3068.5
2579	11.269	2.5455	0.	-3018.1
2580	11.454	2.5455	0.	-2967.9
2581	11.638	2.5455	0.	-2917.8
2582	11.823	2.5455	0.	-2868.
2583	12.007	2.5455	0.	-2818.3
2584	12.192	2.5455	0.	-2768.8
2585	12.376	2.5455	0.	-2719.4
2586	12.561	2.5455	0.	-2670.3
2587	12.745	2.5455	0.	-2621.3
2588	12.93	2.5455	0.	-2572.6
2589	13.114	2.5455	0.	-2524.
2590	13.299	2.5455	0.	-2475.6
2591	13.483	2.5455	0.	-2427.4
2592	13.668	2.5455	0.	-2379.4
2593	13.852	2.5455	0.	-2331.6
2594	14.037	2.5455	0.	-2283.9
2595	14.221	2.5455	0.	-2236.5
2596	14.406	2.5455	0.	-2189.3
2597	14.59	2.5455	0.	-2142.2
2598	14.775	2.5455	0.	-2095.4
2599	14.959	2.5455	0.	-2048.7
2600	15.144	2.5455	0.	-2002.3
2601	15.328	2.5455	0.	-1956.
2602	15.513	2.5455	0.	-1910.
2603	15.697	2.5455	0.	-1864.1
2604	15.882	2.5455	0.	-1818.4
2605	16.066	2.5455	0.	-1773.
2606	16.251	2.5455	0.	-1727.7
2607	16.435	2.5455	0.	-1682.7
2608	16.62	2.5455	0.	-1637.8
2609	16.804	2.5455	0.	-1593.2
2610	16.989	2.5455	0.	-1548.7
2611	17.173	2.5455	0.	-1504.5
2612	17.358	2.5455	0.	-1460.4
2613	17.542	2.5455	0.	-1416.6
2614	17.727	2.5455	0.	-1373.
2615	17.911	2.5455	0.	-1329.6
2616	18.096	2.5455	0.	-1286.4
2617	18.28	2.5455	0.	-1243.4
2618	18.465	2.5455	0.	-1200.6
2619	18.649	2.5455	0.	-1158.
2620	18.834	2.5455	0.	-1115.6
2621	19.018	2.5455	0.	-1073.5
2622	19.203	2.5455	0.	-1031.5
2623	19.387	2.5455	0.	-989.81
2624	19.572	2.5455	0.	-948.3
2625	19.756	2.5455	0.	-907.
2626	19.941	2.5455	0.	-865.91
2627	20.125	2.5455	0.	-825.04
2628	20.31	2.5455	0.	-784.38
2629	20.494	2.5455	0.	-743.93
2630	20.679	2.5455	0.	-703.69
2631	20.863	2.5455	0.	-663.66
2632	21.048	2.5455	0.	-623.83
2633	21.232	2.5455	0.	-584.19
2634	21.417	2.5455	0.	-544.74
2635	21.601	2.5455	0.	-505.47
2636	21.786	2.5455	0.	-466.37
2637	21.97	2.5455	0.	-427.41
2638	22.155	2.5455	0.	-388.58
2639	22.339	2.5455	0.	-349.86
2640	22.524	2.5455	0.	-311.21
2641	22.708	2.5455	0.	-272.61
2642	22.893	2.5455	0.	-234.01
2643	23.077	2.5455	0.	-195.38
2644	23.262	2.5455	0.	-156.66
2645	23.446	2.5455	0.	-117.83
2646	23.631	2.5455	0.	-78.826
2647	23.815	2.5455	0.	-39.817
2648	3.1512	2.3636	0.	-13547
2649	3.3357	2.3636	0.	-11142
2650	3.5202	2.3636	0.	-9450.6
2651	3.7047	2.3636	0.	-8295.3
2652	3.8892	2.3636	0.	-7473.4
2653	4.0737	2.3636	0.	-6863.4
2654	4.2582	2.3636	0.	-6396.5
2655	4.4427	2.3636	0.	-6030.4
2656	4.6272	2.3636	0.	-5737.8
2657	4.8117	2.3636	0.	-5500.
2658	4.9962	2.3636	0.	-5303.8
2659	5.1807	2.3636	0.	-5139.4
2660	5.3652	2.3636	0.	-4999.5
2661	5.5497	2.3636	0.	-4878.7
2662	5.7342	2.3636	0.	-4772.8
2663	5.9187	2.3636	0.	-4678.4
2664	6.1032	2.3636	0.	-4593.
2665	6.2877	2.3636	0.	-4514.7
2666	6.4722	2.3636	0.	-4442.
2667	6.6567	2.3636	0.	-4373.5
2668	6.8412	2.3636	0.	-4308.5
2669	7.0257	2.3636	0.	-4246.1
2670	7.2102	2.3636	0.	-4185.8
2671	7.3947	2.3636	0.	-4127.2
2672	7.5792	2.3636	0.	-4069.8
2673	7.7637	2.3636	0.	-4013.5
2674	7.9482	2.3636	0.	-3958.1
2675	8.1327	2.3636	0.	-3903.3
2676	8.3173	2.3636	0.	-3849.
2677	8.5018	2.3636	0.	-3795.2
2678	8.6863	2.3636	0.	-3741.8
2679	8.8708	2.3636	0.	-3688.7
2680	9.0553	2.3636	0.	-3635.9
2681	9.2398	2.3636	0.	-3583.4
2682	9.4243	2.3636	0.	-3531.1
2683	9.6088	2.3636	0.	-3479.
2684	9.7933	2.3636	0.	-3427.1
2685	9.9778	2.3636	0.	-3375.4
2686	10.162	2.3636	0.	-3323.9
2687	10.347	2.3636	0.	-3272.5
2688	10.531	2.3636	0.	-3221.4
2689	10.716	2.3636	0.	-3170.4
2690	10.9	2.3636	0.	-3119.6
2691	11.085	2.3636	0.	-3069.
2692	11.269	2.3636	0.	-3018.6
2693	11.454	2.3636	0.	-2968.3
2694	11.638	2.3636	0.	-2918.3
2695	11.823	2.3636	0.	-2868.4
2696	12.007	2.3636	0.	-2818.7
2697	12.192	2.3636	0.	-2769.1
2698	12.376	2.3636	0.	-2719.8
2699	12.561	2.3636	0.	-2670.6
2700	12.745	2.3636	0.	-2621.7
2701	12.93	2.3636	0.	-2572.9
2702	13.114	2.3636	0.	-2524.3
2703	13.299	2.3636	0.	-2475.9
2704	13.483	2.3636	0.	-2427.7
2705	13.668	2.3636	0.	-2379.7
2706	13.852	2.3636	0.	-2331.9
2707	14.037	2.3636	0.	-2284.2
2708	14.221	2.3636	0.	-2236.8
2709	14.406	2.3636	0.	-2189.5
2710	14.59	2.3636	0.	-2142.5
2711	14.775	2.3636	0.	-2095.6
2712	14.959	2.3636	0.	-2049.
2713	15.144	2.3636	0.	-2002.5
2714	15.328	2.3636	0.	-1956.3
2715	15.513	2.3636	0.	-1910.2
2716	15.697	2.3636	0.	-1864.3
2717	15.882	2.3636	0.	-1818.7
2718	16.066	2.3636	0.	-1773.2
2719	16.251	2.3636	0.	-1728.
2720	16.435	2.3636	0.	-1682.9
2721	16.62	2.3636	0.	-1638.
2722	16.804	2.3636	0.	-1593.4
2723	16.989	2.3636	0.	-1548.9
2724	17.173	2.3636	0.	-1504.7
2725	17.358	2.3636	0.	-1460.7
2726	17.542	2.3636	0.	-1416.8
2727	17.727	2.3636	0.	-1373.2
2728	17.911	2.3636	0.	-1329.8
2729	18.096	2.3636	0.	-1286.5
2730	18.28	2.3636	0.	-1243.5
2731	18.465	2.3636	0.	-1200.7
2732	18.649	2.3636	0.	-1158.1
2733	18.834	2.3636	0.	-1115.8
2734	19.018	2.3636	0.	-1073.6
2735	19.203	2.3636	0.	-1031.6
2736	19.387	2.3636	0.	-989.88
2737	19.572	2.3636	0.	-948.35
2738	19.756	2.3636	0.	-907.02
2739	19.941	2.3636	0.	-865.91
2740	20.125	2.3636	0.	-825.01
2741	20.31	2.3636	0.	-784.32
2742	20.494	2.3636	0.	-743.85
2743	20.679	2.3636	0.	-703.57
2744	20.863	2.3636	0.	-663.51
2745	21.048	2.3636	0.	-623.64
2746	21.232	2.3636	0.	-583.97
2747	21.417	2.3636	0.	-544.49
2748	21.601	2.3636	0.	-505.19
2749	21.786	2.3636	0.	-466.06
2750	21.97	2.3636	0.	-427.09
2751	22.155	2.3636	0.	-388.25
2752	22.339	2.3636	0.	-349.52
2753	22.524	2.3636	0.	-310.89
2754	22.708	2.3636	0.	-272.31
2755	22.893	2.3636	0.	-233.74
2756	23.077	2.3636	0.	-195.15
2757	23.262	2.3636	0.	-156.49
2758	23.446	2.3636	0.	-117.72
2759	23.631	2.3636	0.	-78.783
2760	23.815	2.3636	0.	-39.842
2761	3.1512	2.1818	0.	-14239
2762	3.3357	2.1818	0.	-10721
2763	3.5202	2.1818	0.	-8910.2
2764	3.7047	2.1818	0.	-7831.3
2765	3.8892	2.1818	0.	-7101.5
2766	4.0737	2.1818	0.	-6572.8
2767	4.2582	2.1818	0.	-6172.4
2768	4.4427	2.1818	0.	-5859.
2769	4.6272	2.1818	0.	-5607.4
2770	4.8117	2.1818	0.	-5401.3
2771	4.9962	2.1818	0.	-5229.4
2772	5.1807	2.1818	0.	-5083.7
2773	5.3652	2.1818	0.	-4958.
2774	5.5497	2.1818	0.	-4848.
2775	5.7342	2.1818	0.	-4750.2
2776	5.9187	2.1818	0.	-4662.
2777	6.1032	2.1818	0.	-4581.3
2778	6.2877	2.1818	0.	-4506.6
2779	6.4722	2.1818	0.	-4436.4
2780	6.6567	2.1818	0.	-4369.9
2781	6.8412	2.1818	0.	-4306.3
2782	7.0257	2.1818	0.	-4245.
2783	7.2102	2.1818	0.	-4185.4
2784	7.3947	2.1818	0.	-4127.3
2785	7.5792	2.1818	0.	-4070.3
2786	7.7637	2.1818	0.	-4014.3
2787	7.9482	2.1818	0.	-3959.
2788	8.1327	2.1818	0.	-3904.3
2789	8.3173	2.1818	0.	-3850.1
2790	8.5018	2.1818	0.	-3796.3
2791	8.6863	2.1818	0.	-3742.9
2792	8.8708	2.1818	0.	-3689.8
2793	9.0553	2.1818	0.	-3637.
2794	9.2398	2.1818	0.	-3584.4
2795	9.4243	2.1818	0.	-3532.
2796	9.6088	2.1818	0.	-3479.9
2797	9.7933	2.1818	0.	-3427.9
2798	9.9778	2.1818	0.	-3376.2
2799	10.162	2.1818	0.	-3324.6
2800	10.347	2.1818	0.	-3273.3
2801	10.531	2.1818	0.	-3222.1
2802	10.716	2.1818	0.	-3171.1
2803	10.9	2.1818	0.	-3120.3
2804	11.085	2.1818	0.	-3069.6
2805	11.269	2.1818	0.	-3019.2
2806	11.454	2.1818	0.	-2968.9
2807	11.638	2.1818	0.	-2918.8
2808	11.823	2.1818	0.	-2868.9
2809	12.007	2.1818	0.	-2819.2
2810	12.192	2.1818	0.	-2769.6
2811	12.376	2.1818	0.	-2720.3
2812	12.561	2.1818	0.	-2671.1
2813	12.745	2.1818	0.	-2622.1
2814	12.93	2.1818	0.	-2573.3
2815	13.114	2.1818	0.	-2524.7
2816	13.299	2.1818	0.	-2476.3
2817	13.483	2.1818	0.	-2428.1
2818	13.668	2.1818	0.	-2380.1
2819	13.852	2.1818	0.	-2332.2
2820	14.037	2.1818	0.	-2284.6
2821	14.221	2.1818	0.	-2237.2
2822	14.406	2.1818	0.	-2189.9
2823	14.59	2.1818	0.	-2142.9
2824	14.775	2.1818	0.	-2096.
2825	14.959	2.1818	0.	-2049.3
2826	15.144	2.1818	0.	-2002.9
2827	15.328	2.1818	0.	-1956.6
2828	15.513	2.1818	0.	-1910.6
2829	15.697	2.1818	0.	-1864.7
2830	15.882	2.1818	0.	-1819.
2831	16.066	2.1818	0.	-1773.6
2832	16.251	2.1818	0.	-1728.3
2833	16.435	2.1818	0.	-1683.2
2834	16.62	2.1818	0.	-1638.4
2835	16.804	2.1818	0.	-1593.7
2836	16.989	2.1818	0.	-1549.2
2837	17.173	2.1818	0.	-1505.
2838	17.358	2.1818	0.	-1460.9
2839	17.542	2.1818	0.	-1417.1
2840	17.727	2.1818	0.	-1373.5
2841	17.911	2.1818	0.	-1330.
2842	18.096	2.1818	0.	-1286.8
2843	18.28	2.1818	0.	-1243.8
2844	18.465	2.1818	0.	-1200.9
2845	18.649	2.1818	0.	-1158.3
2846	18.834	2.1818	0.	-1115.9
2847	19.018	2.1818	0.	-1073.7
2848	19.203	2.1818	0.	-1031.8
2849	19.387	2.1818	0.	-989.99
2850	19.572	2.1818	0.	-948.43
2851	19.756	2.1818	0.	-907.07
2852	19.941	2.1818	0.	-865.93
2853	20.125	2.1818	0.	-824.99
2854	20.31	2.1818	0.	-784.26
2855	20.494	2.1818	0.	-743.74
2856	20.679	2.1818	0.	-703.43
2857	20.863	2.1818	0.	-663.32
2858	21.048	2.1818	0.	-623.41
2859	21.232	2.1818	0.	-583.7
2860	21.417	2.1818	0.	-544.17
2861	21.601	2.1818	0.	-504.83
2862	21.786	2.1818	0.	-465.67
2863	21.97	2.1818	0.	-426.66
2864	22.155	2.1818	0.	-387.81
2865	22.339	2.1818	0.	-349.08
2866	22.524	2.1818	0.	-310.45
2867	22.708	2.1818	0.	-271.89
2868	22.893	2.1818	0.	-233.37
2869	23.077	2.1818	0.	-194.84
2870	23.262	2.1818	0.	-156.26
2871	23.446	2.1818	0.	-117.57
2872	23.631	2.1818	0.	-78.72
2873	23.815	2.1818	0.	-39.873
2874	3.1512	2.	0.	-13839
2875	3.3357	2.	0.	-9520.4
2876	3.5202	2.	0.	-8108.8
2877	3.7047	2.	0.	-7235.
2878	3.8892	2.	0.	-6652.8
2879	4.0737	2.	0.	-6232.
2880	4.2582	2.	0.	-5912.5
2881	4.4427	2.	0.	-5660.7
2882	4.6272	2.	0.	-5456.4
2883	4.8117	2.	0.	-5286.7
2884	4.9962	2.	0.	-5142.8
2885	5.1807	2.	0.	-5018.5
2886	5.3652	2.	0.	-4909.2
2887	5.5497	2.	0.	-4811.8
2888	5.7342	2.	0.	-4723.6
2889	5.9187	2.	0.	-4642.6
2890	6.1032	2.	0.	-4567.4
2891	6.2877	2.	0.	-4496.8
2892	6.4722	2.	0.	-4429.7
2893	6.6567	2.	0.	-4365.5
2894	6.8412	2.	0.	-4303.6
2895	7.0257	2.	0.	-4243.5
2896	7.2102	2.	0.	-4184.9
2897	7.3947	2.	0.	-4127.5
2898	7.5792	2.	0.	-4071.
2899	7.7637	2.	0.	-4015.2
2900	7.9482	2.	0.	-3960.1
2901	8.1327	2.	0.	-3905.5
2902	8.3173	2.	0.	-3851.4
2903	8.5018	2.	0.	-3797.7
2904	8.6863	2.	0.	-3744.2
2905	8.8708	2.	0.	-3691.1
2906	9.0553	2.	0.	-3638.2
2907	9.2398	2.	0.	-3585.6
2908	9.4243	2.	0.	-3533.2
2909	9.6088	2.	0.	-3481.
2910	9.7933	2.	0.	-3429.
2911	9.9778	2.	0.	-3377.2
2912	10.162	2.	0.	-3325.6
2913	10.347	2.	0.	-3274.2
2914	10.531	2.	0.	-3223.
2915	10.716	2.	0.	-3171.9
2916	10.9	2.	0.	-3121.1
2917	11.085	2.	0.	-3070.4
2918	11.269	2.	0.	-3019.9
2919	11.454	2.	0.	-2969.6
2920	11.638	2.	0.	-2919.5
2921	11.823	2.	0.	-2869.5
2922	12.007	2.	0.	-2819.8
2923	12.192	2.	0.	-2770.2
2924	12.376	2.	0.	-2720.9
2925	12.561	2.	0.	-2671.7
2926	12.745	2.	0.	-2622.7
2927	12.93	2.	0.	-2573.9
2928	13.114	2.	0.	-2525.3
2929	13.299	2.	0.	-2476.8
2930	13.483	2.	0.	-2428.6
2931	13.668	2.	0.	-2380.6
2932	13.852	2.	0.	-2332.7
2933	14.037	2.	0.	-2285.1
2934	14.221	2.	0.	-2237.6
2935	14.406	2.	0.	-2190.4
2936	14.59	2.	0.	-2143.3
2937	14.775	2.	0.	-2096.5
2938	14.959	2.	0.	-2049.8
2939	15.144	2.	0.	-2003.3
2940	15.328	2.	0.	-1957.1
2941	15.513	2.	0.	-1911.
2942	15.697	2.	0.	-1865.1
2943	15.882	2.	0.	-1819.4
2944	16.066	2.	0.	-1774.
2945	16.251	2.	0.	-1728.7
2946	16.435	2.	0.	-1683.6
2947	16.62	2.	0.	-1638.8
2948	16.804	2.	0.	-1594.1
2949	16.989	2.	0.	-1549.6
2950	17.173	2.	0.	-1505.4
2951	17.358	2.	0.	-1461.3
2952	17.542	2.	0.	-1417.5
2953	17.727	2.	0.	-1373.8
2954	17.911	2.	0.	-1330.3
2955	18.096	2.	0.	-1287.1
2956	18.28	2.	0.	-1244.1
2957	18.465	2.	0.	-1201.2
2958	18.649	2.	0.	-1158.6
2959	18.834	2.	0.	-1116.2
2960	19.018	2.	0.	-1074.
2961	19.203	2.	0.	-1031.9
2962	19.387	2.	0.	-990.14
2963	19.572	2.	0.	-948.54
2964	19.756	2.	0.	-907.15
2965	19.941	2.	0.	-865.97
2966	20.125	2.	0.	-824.99
2967	20.31	2.	0.	-784.21
2968	20.494	2.	0.	-743.64
2969	20.679	2.	0.	-703.27
2970	20.863	2.	0.	-663.11
2971	21.048	2.	0.	-623.14
2972	21.232	2.	0.	-583.37
2973	21.417	2.	0.	-543.79
2974	21.601	2.	0.	-504.4
2975	21.786	2.	0.	-465.19
2976	21.97	2.	0.	-426.15
2977	22.155	2.	0.	-387.26
2978	22.339	2.	0.	-348.52
2979	22.524	2.	0.	-309.9
2980	22.708	2.	0.	-271.37
2981	22.893	2.	0.	-232.89
2982	23.077	2.	0.	-194.44
2983	23.262	2.	0.	-155.94
2984	23.446	2.	0.	-117.36
2985	23.631	2.	0.	-78.631
2986	23.815	2.	0.	-39.907
2987	3.1512	1.8182	0.	-9887.7
2988	3.3357	1.8182	0.	-8011.6
2989	3.5202	1.8182	0.	-7125.7
2990	3.7047	1.8182	0.	-6555.3
2991	3.8892	1.8182	0.	-6154.3
2992	4.0737	1.8182	0.	-5857.4
2993	4.2582	1.8182	0.	-5627.8
2994	4.4427	1.8182	0.	-5443.5
2995	4.6272	1.8182	0.	-5290.7
2996	4.8117	1.8182	0.	-5160.5
2997	4.9962	1.8182	0.	-5047.
2998	5.1807	1.8182	0.	-4946.1
2999	5.3652	1.8182	0.	-4854.9
3000	5.5497	1.8182	0.	-4771.2
3001	5.7342	1.8182	0.	-4693.6
3002	5.9187	1.8182	0.	-4620.7
3003	6.1032	1.8182	0.	-4551.6
3004	6.2877	1.8182	0.	-4485.6
3005	6.4722	1.8182	0.	-4422.1
3006	6.6567	1.8182	0.	-4360.5
3007	6.8412	1.8182	0.	-4300.5
3008	7.0257	1.8182	0.	-4241.9
3009	7.2102	1.8182	0.	-4184.3
3010	7.3947	1.8182	0.	-4127.6
3011	7.5792	1.8182	0.	-4071.6
3012	7.7637	1.8182	0.	-4016.3
3013	7.9482	1.8182	0.	-3961.4
3014	8.1327	1.8182	0.	-3907.
3015	8.3173	1.8182	0.	-3852.9
3016	8.5018	1.8182	0.	-3799.2
3017	8.6863	1.8182	0.	-3745.8
3018	8.8708	1.8182	0.	-3692.6
3019	9.0553	1.8182	0.	-3639.7
3020	9.2398	1.8182	0.	-3587.
3021	9.4243	1.8182	0.	-3534.6
3022	9.6088	1.8182	0.	-3482.3
3023	9.7933	1.8182	0.	-3430.3
3024	9.9778	1.8182	0.	-3378.4
3025	10.162	1.8182	0.	-3326.8
3026	10.347	1.8182	0.	-3275.3
3027	10.531	1.8182	0.	-3224.
3028	10.716	1.8182	0.	-3172.9
3029	10.9	1.8182	0.	-3122.
3030	11.085	1.8182	0.	-3071.3
3031	11.269	1.8182	0.	-3020.8
3032	11.454	1.8182	0.	-2970.4
3033	11.638	1.8182	0.	-2920.3
3034	11.823	1.8182	0.	-2870.3
3035	12.007	1.8182	0.	-2820.5
3036	12.192	1.8182	0.	-2770.9
3037	12.376	1.8182	0.	-2721.6
3038	12.561	1.8182	0.	-2672.3
3039	12.745	1.8182	0.	-2623.3
3040	12.93	1.8182	0.	-2574.5
3041	13.114	1.8182	0.	-2525.9
3042	13.299	1.8182	0.	-2477.5
3043	13.483	1.8182	0.	-2429.2
3044	13.668	1.8182	0.	-2381.2
3045	13.852	1.8182	0.	-2333.3
3046	14.037	1.8182	0.	-2285.7
3047	14.221	1.8182	0.	-2238.2
3048	14.406	1.8182	0.	-2190.9
3049	14.59	1.8182	0.	-2143.9
3050	14.775	1.8182	0.	-2097.
3051	14.959	1.8182	0.	-2050.3
3052	15.144	1.8182	0.	-2003.9
3053	15.328	1.8182	0.	-1957.6
3054	15.513	1.8182	0.	-1911.5
3055	15.697	1.8182	0.	-1865.6
3056	15.882	1.8182	0.	-1820.
3057	16.066	1.8182	0.	-1774.5
3058	16.251	1.8182	0.	-1729.2
3059	16.435	1.8182	0.	-1684.1
3060	16.62	1.8182	0.	-1639.3
3061	16.804	1.8182	0.	-1594.6
3062	16.989	1.8182	0.	-1550.1
3063	17.173	1.8182	0.	-1505.8
3064	17.358	1.8182	0.	-1461.8
3065	17.542	1.8182	0.	-1417.9
3066	17.727	1.8182	0.	-1374.2
3067	17.911	1.8182	0.	-1330.8
3068	18.096	1.8182	0.	-1287.5
3069	18.28	1.8182	0.	-1244.4
3070	18.465	1.8182	0.	-1201.6
3071	18.649	1.8182	0.	-1158.9
3072	18.834	1.8182	0.	-1116.5
3073	19.018	1.8182	0.	-1074.2
3074	19.203	1.8182	0.	-1032.2
3075	19.387	1.8182	0.	-990.35
3076	19.572	1.8182	0.	-948.71
3077	19.756	1.8182	0.	-907.27
3078	19.941	1.8182	0.	-866.04
3079	20.125	1.8182	0.	-825.01
3080	20.31	1.8182	0.	-784.18
3081	20.494	1.8182	0.	-743.55
3082	20.679	1.8182	0.	-703.12
3083	20.863	1.8182	0.	-662.89
3084	21.048	1.8182	0.	-622.86
3085	21.232	1.8182	0.	-583.02
3086	21.417	1.8182	0.	-543.38
3087	21.601	1.8182	0.	-503.92
3088	21.786	1.8182	0.	-464.64
3089	21.97	1.8182	0.	-425.55
3090	22.155	1.8182	0.	-386.62
3091	22.339	1.8182	0.	-347.86
3092	22.524	1.8182	0.	-309.23
3093	22.708	1.8182	0.	-270.72
3094	22.893	1.8182	0.	-232.3
3095	23.077	1.8182	0.	-193.92
3096	23.262	1.8182	0.	-155.54
3097	23.446	1.8182	0.	-117.09
3098	23.631	1.8182	0.	-78.507
3099	23.815	1.8182	0.	-39.941
3100	3.1512	1.6364	0.	-6814.8
3101	3.3357	1.6364	0.	-6441.
3102	3.5202	1.6364	0.	-6122.1
3103	3.7047	1.6364	0.	-5849.4
3104	3.8892	1.6364	0.	-5634.2
3105	4.0737	1.6364	0.	-5465.7
3106	4.2582	1.6364	0.	-5329.6
3107	4.4427	1.6364	0.	-5215.5
3108	4.6272	1.6364	0.	-5116.1
3109	4.8117	1.6364	0.	-5027.1
3110	4.9962	1.6364	0.	-4945.3
3111	5.1807	1.6364	0.	-4868.9
3112	5.3652	1.6364	0.	-4796.7
3113	5.5497	1.6364	0.	-4727.6
3114	5.7342	1.6364	0.	-4661.2
3115	5.9187	1.6364	0.	-4597.
3116	6.1032	1.6364	0.	-4534.5
3117	6.2877	1.6364	0.	-4473.5
3118	6.4722	1.6364	0.	-4413.7
3119	6.6567	1.6364	0.	-4355.
3120	6.8412	1.6364	0.	-4297.2
3121	7.0257	1.6364	0.	-4240.1
3122	7.2102	1.6364	0.	-4183.7
3123	7.3947	1.6364	0.	-4127.8
3124	7.5792	1.6364	0.	-4072.4
3125	7.7637	1.6364	0.	-4017.4
3126	7.9482	1.6364	0.	-3962.8
3127	8.1327	1.6364	0.	-3908.6
3128	8.3173	1.6364	0.	-3854.6
3129	8.5018	1.6364	0.	-3800.9
3130	8.6863	1.6364	0.	-3747.5
3131	8.8708	1.6364	0.	-3694.3
3132	9.0553	1.6364	0.	-3641.4
3133	9.2398	1.6364	0.	-3588.7
3134	9.4243	1.6364	0.	-3536.1
3135	9.6088	1.6364	0.	-3483.8
3136	9.7933	1.6364	0.	-3431.7
3137	9.9778	1.6364	0.	-3379.8
3138	10.162	1.6364	0.	-3328.1
3139	10.347	1.6364	0.	-3276.5
3140	10.531	1.6364	0.	-3225.2
3141	10.716	1.6364	0.	-3174.1
3142	10.9	1.6364	0.	-3123.1
3143	11.085	1.6364	0.	-3072.3
3144	11.269	1.6364	0.	-3021.8
3145	11.454	1.6364	0.	-2971.4
3146	11.638	1.6364	0.	-2921.2
3147	11.823	1.6364	0.	-2871.2
3148	12.007	1.6364	0.	-2821.4
3149	12.192	1.6364	0.	-2771.8
3150	12.376	1.6364	0.	-2722.4
3151	12.561	1.6364	0.	-2673.1
3152	12.745	1.6364	0.	-2624.1
3153	12.93	1.6364	0.	-2575.3
3154	13.114	1.6364	0.	-2526.6
3155	13.299	1.6364	0.	-2478.2
3156	13.483	1.6364	0.	-2429.9
3157	13.668	1.6364	0.	-2381.9
3158	13.852	1.6364	0.	-2334.
3159	14.037	1.6364	0.	-2286.3
3160	14.221	1.6364	0.	-2238.9
3161	14.406	1.6364	0.	-2191.6
3162	14.59	1.6364	0.	-2144.5
3163	14.775	1.6364	0.	-2097.6
3164	14.959	1.6364	0.	-2051.
3165	15.144	1.6364	0.	-2004.5
3166	15.328	1.6364	0.	-1958.2
3167	15.513	1.6364	0.	-1912.1
3168	15.697	1.6364	0.	-1866.2
3169	15.882	1.6364	0.	-1820.6
3170	16.066	1.6364	0.	-1775.1
3171	16.251	1.6364	0.	-1729.8
3172	16.435	1.6364	0.	-1684.7
3173	16.62	1.6364	0.	-1639.8
3174	16.804	1.6364	0.	-1595.1
3175	16.989	1.6364	0.	-1550.7
3176	17.173	1.6364	0.	-1506.4
3177	17.358	1.6364	0.	-1462.3
3178	17.542	1.6364	0.	-1418.4
3179	17.727	1.6364	0.	-1374.7
3180	17.911	1.6364	0.	-1331.3
3181	18.096	1.6364	0.	-1288.
3182	18.28	1.6364	0.	-1244.9
3183	18.465	1.6364	0.	-1202.
3184	18.649	1.6364	0.	-1159.3
3185	18.834	1.6364	0.	-1116.9
3186	19.018	1.6364	0.	-1074.6
3187	19.203	1.6364	0.	-1032.5
3188	19.387	1.6364	0.	-990.62
3189	19.572	1.6364	0.	-948.94
3190	19.756	1.6364	0.	-907.45
3191	19.941	1.6364	0.	-866.17
3192	20.125	1.6364	0.	-825.08
3193	20.31	1.6364	0.	-784.19
3194	20.494	1.6364	0.	-743.5
3195	20.679	1.6364	0.	-703.
3196	20.863	1.6364	0.	-662.7
3197	21.048	1.6364	0.	-622.58
3198	21.232	1.6364	0.	-582.67
3199	21.417	1.6364	0.	-542.94
3200	21.601	1.6364	0.	-503.4
3201	21.786	1.6364	0.	-464.05
3202	21.97	1.6364	0.	-424.89
3203	22.155	1.6364	0.	-385.9
3204	22.339	1.6364	0.	-347.09
3205	22.524	1.6364	0.	-308.45
3206	22.708	1.6364	0.	-269.95
3207	22.893	1.6364	0.	-231.58
3208	23.077	1.6364	0.	-193.29
3209	23.262	1.6364	0.	-155.03
3210	23.446	1.6364	0.	-116.74
3211	23.631	1.6364	0.	-78.337
3212	23.815	1.6364	0.	-39.969
3213	3.1512	1.4545	0.	-5263.7
3214	3.3357	1.4545	0.	-5196.2
3215	3.5202	1.4545	0.	-5208.9
3216	3.7047	1.4545	0.	-5168.
3217	3.8892	1.4545	0.	-5120.9
3218	4.0737	1.4545	0.	-5074.3
3219	4.2582	1.4545	0.	-5029.4
3220	4.4427	1.4545	0.	-4984.6
3221	4.6272	1.4545	0.	-4938.7
3222	4.8117	1.4545	0.	-4890.8
3223	4.9962	1.4545	0.	-4841.1
3224	5.1807	1.4545	0.	-4789.5
3225	5.3652	1.4545	0.	-4736.5
3226	5.5497	1.4545	0.	-4682.4
3227	5.7342	1.4545	0.	-4627.6
3228	5.9187	1.4545	0.	-4572.2
3229	6.1032	1.4545	0.	-4516.5
3230	6.2877	1.4545	0.	-4460.7
3231	6.4722	1.4545	0.	-4404.9
3232	6.6567	1.4545	0.	-4349.2
3233	6.8412	1.4545	0.	-4293.6
3234	7.0257	1.4545	0.	-4238.2
3235	7.2102	1.4545	0.	-4183.
3236	7.3947	1.4545	0.	-4128.
3237	7.5792	1.4545	0.	-4073.2
3238	7.7637	1.4545	0.	-4018.7
3239	7.9482	1.4545	0.	-3964.4
3240	8.1327	1.4545	0.	-3910.3
3241	8.3173	1.4545	0.	-3856.5
3242	8.5018	1.4545	0.	-3802.9
3243	8.6863	1.4545	0.	-3749.5
3244	8.8708	1.4545	0.	-3696.2
3245	9.0553	1.4545	0.	-3643.3
3246	9.2398	1.4545	0.	-3590.5
3247	9.4243	1.4545	0.	-3537.9
3248	9.6088	1.4545	0.	-3485.5
3249	9.7933	1.4545	0.	-3433.3
3250	9.9778	1.4545	0.	-3381.3
3251	10.162	1.4545	0.	-3329.5
3252	10.347	1.4545	0.	-3277.9
3253	10.531	1.4545	0.	-3226.5
3254	10.716	1.4545	0.	-3175.3
3255	10.9	1.4545	0.	-3124.3
3256	11.085	1.4545	0.	-3073.5
3257	11.269	1.4545	0.	-3022.9
3258	11.454	1.4545	0.	-2972.5
3259	11.638	1.4545	0.	-2922.2
3260	11.823	1.4545	0.	-2872.2
3261	12.007	1.4545	0.	-2822.4
3262	12.192	1.4545	0.	-2772.7
3263	12.376	1.4545	0.	-2723.3
3264	12.561	1.4545	0.	-2674.
3265	12.745	1.4545	0.	-2625.
3266	12.93	1.4545	0.	-2576.1
3267	13.114	1.4545	0.	-2527.5
3268	13.299	1.4545	0.	-2479.
3269	13.483	1.4545	0.	-2430.7
3270	13.668	1.4545	0.	-2382.7
3271	13.852	1.4545	0.	-2334.8
3272	14.037	1.4545	0.	-2287.1
3273	14.221	1.4545	0.	-2239.6
3274	14.406	1.4545	0.	-2192.3
3275	14.59	1.4545	0.	-2145.3
3276	14.775	1.4545	0.	-2098.4
3277	14.959	1.4545	0.	-2051.7
3278	15.144	1.4545	0.	-2005.2
3279	15.328	1.4545	0.	-1958.9
3280	15.513	1.4545	0.	-1912.8
3281	15.697	1.4545	0.	-1866.9
3282	15.882	1.4545	0.	-1821.3
3283	16.066	1.4545	0.	-1775.8
3284	16.251	1.4545	0.	-1730.5
3285	16.435	1.4545	0.	-1685.4
3286	16.62	1.4545	0.	-1640.5
3287	16.804	1.4545	0.	-1595.8
3288	16.989	1.4545	0.	-1551.3
3289	17.173	1.4545	0.	-1507.
3290	17.358	1.4545	0.	-1462.9
3291	17.542	1.4545	0.	-1419.
3292	17.727	1.4545	0.	-1375.3
3293	17.911	1.4545	0.	-1331.8
3294	18.096	1.4545	0.	-1288.5
3295	18.28	1.4545	0.	-1245.4
3296	18.465	1.4545	0.	-1202.5
3297	18.649	1.4545	0.	-1159.8
3298	18.834	1.4545	0.	-1117.3
3299	19.018	1.4545	0.	-1075.
3300	19.203	1.4545	0.	-1032.9
3301	19.387	1.4545	0.	-990.97
3302	19.572	1.4545	0.	-949.24
3303	19.756	1.4545	0.	-907.71
3304	19.941	1.4545	0.	-866.37
3305	20.125	1.4545	0.	-825.22
3306	20.31	1.4545	0.	-784.27
3307	20.494	1.4545	0.	-743.5
3308	20.679	1.4545	0.	-702.93
3309	20.863	1.4545	0.	-662.54
3310	21.048	1.4545	0.	-622.34
3311	21.232	1.4545	0.	-582.33
3312	21.417	1.4545	0.	-542.51
3313	21.601	1.4545	0.	-502.88
3314	21.786	1.4545	0.	-463.44
3315	21.97	1.4545	0.	-424.18
3316	22.155	1.4545	0.	-385.12
3317	22.339	1.4545	0.	-346.25
3318	22.524	1.4545	0.	-307.57
3319	22.708	1.4545	0.	-269.06
3320	22.893	1.4545	0.	-230.72
3321	23.077	1.4545	0.	-192.51
3322	23.262	1.4545	0.	-154.39
3323	23.446	1.4545	0.	-116.29
3324	23.631	1.4545	0.	-78.102
3325	23.815	1.4545	0.	-39.983
3326	3.1512	1.2727	0.	-4192.4
3327	3.3357	1.2727	0.	-4261.6
3328	3.5202	1.2727	0.	-4428.8
3329	3.7047	1.2727	0.	-4551.4
3330	3.8892	1.2727	0.	-4638.8
3331	4.0737	1.2727	0.	-4699.6
3332	4.2582	1.2727	0.	-4738.7
3333	4.4427	1.2727	0.	-4759.3
3334	4.6272	1.2727	0.	-4764.4
3335	4.8117	1.2727	0.	-4756.4
3336	4.9962	1.2727	0.	-4737.7
3337	5.1807	1.2727	0.	-4710.4
3338	5.3652	1.2727	0.	-4676.4
3339	5.5497	1.2727	0.	-4637.
3340	5.7342	1.2727	0.	-4593.6
3341	5.9187	1.2727	0.	-4547.1
3342	6.1032	1.2727	0.	-4498.3
3343	6.2877	1.2727	0.	-4447.7
3344	6.4722	1.2727	0.	-4395.9
3345	6.6567	1.2727	0.	-4343.2
3346	6.8412	1.2727	0.	-4289.9
3347	7.0257	1.2727	0.	-4236.2
3348	7.2102	1.2727	0.	-4182.3
3349	7.3947	1.2727	0.	-4128.2
3350	7.5792	1.2727	0.	-4074.1
3351	7.7637	1.2727	0.	-4020.1
3352	7.9482	1.2727	0.	-3966.1
3353	8.1327	1.2727	0.	-3912.2
3354	8.3173	1.2727	0.	-3858.5
3355	8.5018	1.2727	0.	-3804.9
3356	8.6863	1.2727	0.	-3751.5
3357	8.8708	1.2727	0.	-3698.3
3358	9.0553	1.2727	0.	-3645.3
3359	9.2398	1.2727	0.	-3592.4
3360	9.4243	1.2727	0.	-3539.8
3361	9.6088	1.2727	0.	-3487.3
3362	9.7933	1.2727	0.	-3435.1
3363	9.9778	1.2727	0.	-3383.
3364	10.162	1.2727	0.	-3331.1
3365	10.347	1.2727	0.	-3279.5
3366	10.531	1.2727	0.	-3228.
3367	10.716	1.2727	0.	-3176.7
3368	10.9	1.2727	0.	-3125.7
3369	11.085	1.2727	0.	-3074.8
3370	11.269	1.2727	0.	-3024.1
3371	11.454	1.2727	0.	-2973.7
3372	11.638	1.2727	0.	-2923.4
3373	11.823	1.2727	0.	-2873.3
3374	12.007	1.2727	0.	-2823.5
3375	12.192	1.2727	0.	-2773.8
3376	12.376	1.2727	0.	-2724.3
3377	12.561	1.2727	0.	-2675.
3378	12.745	1.2727	0.	-2626.
3379	12.93	1.2727	0.	-2577.1
3380	13.114	1.2727	0.	-2528.4
3381	13.299	1.2727	0.	-2479.9
3382	13.483	1.2727	0.	-2431.6
3383	13.668	1.2727	0.	-2383.5
3384	13.852	1.2727	0.	-2335.7
3385	14.037	1.2727	0.	-2288.
3386	14.221	1.2727	0.	-2240.5
3387	14.406	1.2727	0.	-2193.2
3388	14.59	1.2727	0.	-2146.1
3389	14.775	1.2727	0.	-2099.2
3390	14.959	1.2727	0.	-2052.5
3391	15.144	1.2727	0.	-2006.
3392	15.328	1.2727	0.	-1959.7
3393	15.513	1.2727	0.	-1913.6
3394	15.697	1.2727	0.	-1867.7
3395	15.882	1.2727	0.	-1822.1
3396	16.066	1.2727	0.	-1776.6
3397	16.251	1.2727	0.	-1731.3
3398	16.435	1.2727	0.	-1686.2
3399	16.62	1.2727	0.	-1641.3
3400	16.804	1.2727	0.	-1596.6
3401	16.989	1.2727	0.	-1552.1
3402	17.173	1.2727	0.	-1507.8
3403	17.358	1.2727	0.	-1463.7
3404	17.542	1.2727	0.	-1419.7
3405	17.727	1.2727	0.	-1376.
3406	17.911	1.2727	0.	-1332.5
3407	18.096	1.2727	0.	-1289.2
3408	18.28	1.2727	0.	-1246.1
3409	18.465	1.2727	0.	-1203.2
3410	18.649	1.2727	0.	-1160.4
3411	18.834	1.2727	0.	-1117.9
3412	19.018	1.2727	0.	-1075.5
3413	19.203	1.2727	0.	-1033.4
3414	19.387	1.2727	0.	-991.42
3415	19.572	1.2727	0.	-949.65
3416	19.756	1.2727	0.	-908.06
3417	19.941	1.2727	0.	-866.67
3418	20.125	1.2727	0.	-825.46
3419	20.31	1.2727	0.	-784.43
3420	20.494	1.2727	0.	-743.59
3421	20.679	1.2727	0.	-702.93
3422	20.863	1.2727	0.	-662.46
3423	21.048	1.2727	0.	-622.17
3424	21.232	1.2727	0.	-582.06
3425	21.417	1.2727	0.	-542.13
3426	21.601	1.2727	0.	-502.39
3427	21.786	1.2727	0.	-462.84
3428	21.97	1.2727	0.	-423.48
3429	22.155	1.2727	0.	-384.31
3430	22.339	1.2727	0.	-345.35
3431	22.524	1.2727	0.	-306.6
3432	22.708	1.2727	0.	-268.06
3433	22.893	1.2727	0.	-229.73
3434	23.077	1.2727	0.	-191.58
3435	23.262	1.2727	0.	-153.6
3436	23.446	1.2727	0.	-115.7
3437	23.631	1.2727	0.	-77.779
3438	23.815	1.2727	0.	-39.97
3439	3.1512	1.0909	0.	-3405.9
3440	3.3357	1.0909	0.	-3532.
3441	3.5202	1.0909	0.	-3786.1
3442	3.7047	1.0909	0.	-4015.4
3443	3.8892	1.0909	0.	-4206.
3444	4.0737	1.0909	0.	-4355.9
3445	4.2582	1.0909	0.	-4468.2
3446	4.4427	1.0909	0.	-4547.5
3447	4.6272	1.0909	0.	-4599.2
3448	4.8117	1.0909	0.	-4628.1
3449	4.9962	1.0909	0.	-4638.5
3450	5.1807	1.0909	0.	-4634.2
3451	5.3652	1.0909	0.	-4618.2
3452	5.5497	1.0909	0.	-4592.9
3453	5.7342	1.0909	0.	-4560.5
3454	5.9187	1.0909	0.	-4522.6
3455	6.1032	1.0909	0.	-4480.4
3456	6.2877	1.0909	0.	-4434.9
3457	6.4722	1.0909	0.	-4387.
3458	6.6567	1.0909	0.	-4337.4
3459	6.8412	1.0909	0.	-4286.3
3460	7.0257	1.0909	0.	-4234.4
3461	7.2102	1.0909	0.	-4181.7
3462	7.3947	1.0909	0.	-4128.6
3463	7.5792	1.0909	0.	-4075.2
3464	7.7637	1.0909	0.	-4021.6
3465	7.9482	1.0909	0.	-3967.9
3466	8.1327	1.0909	0.	-3914.3
3467	8.3173	1.0909	0.	-3860.6
3468	8.5018	1.0909	0.	-3807.1
3469	8.6863	1.0909	0.	-3753.7
3470	8.8708	1.0909	0.	-3700.5
3471	9.0553	1.0909	0.	-3647.4
3472	9.2398	1.0909	0.	-3594.5
3473	9.4243	1.0909	0.	-3541.8
3474	9.6088	1.0909	0.	-3489.3
3475	9.7933	1.0909	0.	-3436.9
3476	9.9778	1.0909	0.	-3384.8
3477	10.162	1.0909	0.	-3332.9
3478	10.347	1.0909	0.	-3281.1
3479	10.531	1.0909	0.	-3229.6
3480	10.716	1.0909	0.	-3178.3
3481	10.9	1.0909	0.	-3127.2
3482	11.085	1.0909	0.	-3076.2
3483	11.269	1.0909	0.	-3025.5
3484	11.454	1.0909	0.	-2975.
3485	11.638	1.0909	0.	-2924.7
3486	11.823	1.0909	0.	-2874.6
3487	12.007	1.0909	0.	-2824.7
3488	12.192	1.0909	0.	-2774.9
3489	12.376	1.0909	0.	-2725.4
3490	12.561	1.0909	0.	-2676.1
3491	12.745	1.0909	0.	-2627.
3492	12.93	1.0909	0.	-2578.1
3493	13.114	1.0909	0.	-2529.4
3494	13.299	1.0909	0.	-2480.9
3495	13.483	1.0909	0.	-2432.6
3496	13.668	1.0909	0.	-2384.5
3497	13.852	1.0909	0.	-2336.6
3498	14.037	1.0909	0.	-2288.9
3499	14.221	1.0909	0.	-2241.4
3500	14.406	1.0909	0.	-2194.1
3501	14.59	1.0909	0.	-2147.
3502	14.775	1.0909	0.	-2100.1
3503	14.959	1.0909	0.	-2053.4
3504	15.144	1.0909	0.	-2006.9
3505	15.328	1.0909	0.	-1960.6
3506	15.513	1.0909	0.	-1914.5
3507	15.697	1.0909	0.	-1868.6
3508	15.882	1.0909	0.	-1822.9
3509	16.066	1.0909	0.	-1777.4
3510	16.251	1.0909	0.	-1732.1
3511	16.435	1.0909	0.	-1687.
3512	16.62	1.0909	0.	-1642.1
3513	16.804	1.0909	0.	-1597.4
3514	16.989	1.0909	0.	-1552.9
3515	17.173	1.0909	0.	-1508.6
3516	17.358	1.0909	0.	-1464.5
3517	17.542	1.0909	0.	-1420.6
3518	17.727	1.0909	0.	-1376.8
3519	17.911	1.0909	0.	-1333.3
3520	18.096	1.0909	0.	-1290.
3521	18.28	1.0909	0.	-1246.8
3522	18.465	1.0909	0.	-1203.9
3523	18.649	1.0909	0.	-1161.1
3524	18.834	1.0909	0.	-1118.6
3525	19.018	1.0909	0.	-1076.2
3526	19.203	1.0909	0.	-1034.
3527	19.387	1.0909	0.	-991.98
3528	19.572	1.0909	0.	-950.17
3529	19.756	1.0909	0.	-908.53
3530	19.941	1.0909	0.	-867.08
3531	20.125	1.0909	0.	-825.8
3532	20.31	1.0909	0.	-784.71
3533	20.494	1.0909	0.	-743.79
3534	20.679	1.0909	0.	-703.05
3535	20.863	1.0909	0.	-662.49
3536	21.048	1.0909	0.	-622.1
3537	21.232	1.0909	0.	-581.88
3538	21.417	1.0909	0.	-541.85
3539	21.601	1.0909	0.	-501.99
3540	21.786	1.0909	0.	-462.31
3541	21.97	1.0909	0.	-422.82
3542	22.155	1.0909	0.	-383.53
3543	22.339	1.0909	0.	-344.45
3544	22.524	1.0909	0.	-305.59
3545	22.708	1.0909	0.	-266.97
3546	22.893	1.0909	0.	-228.6
3547	23.077	1.0909	0.	-190.49
3548	23.262	1.0909	0.	-152.62
3549	23.446	1.0909	0.	-114.94
3550	23.631	1.0909	0.	-77.331
3551	23.815	1.0909	0.	-39.911
3552	3.1512	0.90909	0.	-2774.5
3553	3.3357	0.90909	0.	-2945.5
3554	3.5202	0.90909	0.	-3256.9
3555	3.7047	0.90909	0.	-3563.
3556	3.8892	0.90909	0.	-3832.3
3557	4.0737	0.90909	0.	-4053.6
3558	4.2582	0.90909	0.	-4226.6
3559	4.4427	0.90909	0.	-4356.2
3560	4.6272	0.90909	0.	-4448.6
3561	4.8117	0.90909	0.	-4510.2
3562	4.9962	0.90909	0.	-4546.8
3563	5.1807	0.90909	0.	-4563.3
3564	5.3652	0.90909	0.	-4563.7
3565	5.5497	0.90909	0.	-4551.5
3566	5.7342	0.90909	0.	-4529.3
3567	5.9187	0.90909	0.	-4499.4
3568	6.1032	0.90909	0.	-4463.4
3569	6.2877	0.90909	0.	-4422.8
3570	6.4722	0.90909	0.	-4378.7
3571	6.6567	0.90909	0.	-4331.9
3572	6.8412	0.90909	0.	-4283.1
3573	7.0257	0.90909	0.	-4232.7
3574	7.2102	0.90909	0.	-4181.3
3575	7.3947	0.90909	0.	-4129.1
3576	7.5792	0.90909	0.	-4076.3
3577	7.7637	0.90909	0.	-4023.2
3578	7.9482	0.90909	0.	-3969.9
3579	8.1327	0.90909	0.	-3916.4
3580	8.3173	0.90909	0.	-3862.9
3581	8.5018	0.90909	0.	-3809.5
3582	8.6863	0.90909	0.	-3756.1
3583	8.8708	0.90909	0.	-3702.8
3584	9.0553	0.90909	0.	-3649.7
3585	9.2398	0.90909	0.	-3596.8
3586	9.4243	0.90909	0.	-3544.
3587	9.6088	0.90909	0.	-3491.4
3588	9.7933	0.90909	0.	-3439.
3589	9.9778	0.90909	0.	-3386.7
3590	10.162	0.90909	0.	-3334.7
3591	10.347	0.90909	0.	-3282.9
3592	10.531	0.90909	0.	-3231.3
3593	10.716	0.90909	0.	-3179.9
3594	10.9	0.90909	0.	-3128.7
3595	11.085	0.90909	0.	-3077.8
3596	11.269	0.90909	0.	-3027.
3597	11.454	0.90909	0.	-2976.4
3598	11.638	0.90909	0.	-2926.
3599	11.823	0.90909	0.	-2875.9
3600	12.007	0.90909	0.	-2825.9
3601	12.192	0.90909	0.	-2776.2
3602	12.376	0.90909	0.	-2726.7
3603	12.561	0.90909	0.	-2677.3
3604	12.745	0.90909	0.	-2628.2
3605	12.93	0.90909	0.	-2579.3
3606	13.114	0.90909	0.	-2530.5
3607	13.299	0.90909	0.	-2482.
3608	13.483	0.90909	0.	-2433.7
3609	13.668	0.90909	0.	-2385.6
3610	13.852	0.90909	0.	-2337.7
3611	14.037	0.90909	0.	-2290.
3612	14.221	0.90909	0.	-2242.5
3613	14.406	0.90909	0.	-2195.2
3614	14.59	0.90909	0.	-2148.1
3615	14.775	0.90909	0.	-2101.2
3616	14.959	0.90909	0.	-2054.4
3617	15.144	0.90909	0.	-2007.9
3618	15.328	0.90909	0.	-1961.6
3619	15.513	0.90909	0.	-1915.5
3620	15.697	0.90909	0.	-1869.6
3621	15.882	0.90909	0.	-1823.9
3622	16.066	0.90909	0.	-1778.4
3623	16.251	0.90909	0.	-1733.1
3624	16.435	0.90909	0.	-1688.
3625	16.62	0.90909	0.	-1643.1
3626	16.804	0.90909	0.	-1598.4
3627	16.989	0.90909	0.	-1553.9
3628	17.173	0.90909	0.	-1509.6
3629	17.358	0.90909	0.	-1465.4
3630	17.542	0.90909	0.	-1421.5
3631	17.727	0.90909	0.	-1377.8
3632	17.911	0.90909	0.	-1334.2
3633	18.096	0.90909	0.	-1290.9
3634	18.28	0.90909	0.	-1247.7
3635	18.465	0.90909	0.	-1204.7
3636	18.649	0.90909	0.	-1162.
3637	18.834	0.90909	0.	-1119.4
3638	19.018	0.90909	0.	-1077.
3639	19.203	0.90909	0.	-1034.7
3640	19.387	0.90909	0.	-992.69
3641	19.572	0.90909	0.	-950.82
3642	19.756	0.90909	0.	-909.14
3643	19.941	0.90909	0.	-867.63
3644	20.125	0.90909	0.	-826.3
3645	20.31	0.90909	0.	-785.14
3646	20.494	0.90909	0.	-744.15
3647	20.679	0.90909	0.	-703.33
3648	20.863	0.90909	0.	-662.67
3649	21.048	0.90909	0.	-622.18
3650	21.232	0.90909	0.	-581.86
3651	21.417	0.90909	0.	-541.71
3652	21.601	0.90909	0.	-501.72
3653	21.786	0.90909	0.	-461.91
3654	21.97	0.90909	0.	-422.28
3655	22.155	0.90909	0.	-382.84
3656	22.339	0.90909	0.	-343.61
3657	22.524	0.90909	0.	-304.61
3658	22.708	0.90909	0.	-265.86
3659	22.893	0.90909	0.	-227.4
3660	23.077	0.90909	0.	-189.25
3661	23.262	0.90909	0.	-151.44
3662	23.446	0.90909	0.	-113.96
3663	23.631	0.90909	0.	-76.703
3664	23.815	0.90909	0.	-39.773
3665	3.1512	0.72727	0.	-2240.5
3666	3.3357	0.72727	0.	-2459.
3667	3.5202	0.72727	0.	-2823.3
3668	3.7047	0.72727	0.	-3191.6
3669	3.8892	0.72727	0.	-3522.4
3670	4.0737	0.72727	0.	-3799.3
3671	4.2582	0.72727	0.	-4020.5
3672	4.4427	0.72727	0.	-4190.8
3673	4.6272	0.72727	0.	-4317.
3674	4.8117	0.72727	0.	-4406.3
3675	4.9962	0.72727	0.	-4465.3
3676	5.1807	0.72727	0.	-4499.8
3677	5.3652	0.72727	0.	-4514.8
3678	5.5497	0.72727	0.	-4514.1
3679	5.7342	0.72727	0.	-4501.
3680	5.9187	0.72727	0.	-4478.3
3681	6.1032	0.72727	0.	-4448.
3682	6.2877	0.72727	0.	-4411.9
3683	6.4722	0.72727	0.	-4371.2
3684	6.6567	0.72727	0.	-4327.
3685	6.8412	0.72727	0.	-4280.2
3686	7.0257	0.72727	0.	-4231.4
3687	7.2102	0.72727	0.	-4181.2
3688	7.3947	0.72727	0.	-4129.8
3689	7.5792	0.72727	0.	-4077.7
3690	7.7637	0.72727	0.	-4025.
3691	7.9482	0.72727	0.	-3972.
3692	8.1327	0.72727	0.	-3918.7
3693	8.3173	0.72727	0.	-3865.3
3694	8.5018	0.72727	0.	-3811.9
3695	8.6863	0.72727	0.	-3758.6
3696	8.8708	0.72727	0.	-3705.3
3697	9.0553	0.72727	0.	-3652.1
3698	9.2398	0.72727	0.	-3599.1
3699	9.4243	0.72727	0.	-3546.2
3700	9.6088	0.72727	0.	-3493.6
3701	9.7933	0.72727	0.	-3441.1
3702	9.9778	0.72727	0.	-3388.8
3703	10.162	0.72727	0.	-3336.7
3704	10.347	0.72727	0.	-3284.8
3705	10.531	0.72727	0.	-3233.1
3706	10.716	0.72727	0.	-3181.7
3707	10.9	0.72727	0.	-3130.4
3708	11.085	0.72727	0.	-3079.4
3709	11.269	0.72727	0.	-3028.5
3710	11.454	0.72727	0.	-2977.9
3711	11.638	0.72727	0.	-2927.5
3712	11.823	0.72727	0.	-2877.3
3713	12.007	0.72727	0.	-2827.3
3714	12.192	0.72727	0.	-2777.6
3715	12.376	0.72727	0.	-2728.
3716	12.561	0.72727	0.	-2678.6
3717	12.745	0.72727	0.	-2629.5
3718	12.93	0.72727	0.	-2580.5
3719	13.114	0.72727	0.	-2531.8
3720	13.299	0.72727	0.	-2483.2
3721	13.483	0.72727	0.	-2434.9
3722	13.668	0.72727	0.	-2386.8
3723	13.852	0.72727	0.	-2338.8
3724	14.037	0.72727	0.	-2291.1
3725	14.221	0.72727	0.	-2243.6
3726	14.406	0.72727	0.	-2196.3
3727	14.59	0.72727	0.	-2149.2
3728	14.775	0.72727	0.	-2102.3
3729	14.959	0.72727	0.	-2055.6
3730	15.144	0.72727	0.	-2009.1
3731	15.328	0.72727	0.	-1962.7
3732	15.513	0.72727	0.	-1916.6
3733	15.697	0.72727	0.	-1870.7
3734	15.882	0.72727	0.	-1825.
3735	16.066	0.72727	0.	-1779.5
3736	16.251	0.72727	0.	-1734.2
3737	16.435	0.72727	0.	-1689.1
3738	16.62	0.72727	0.	-1644.2
3739	16.804	0.72727	0.	-1599.5
3740	16.989	0.72727	0.	-1554.9
3741	17.173	0.72727	0.	-1510.6
3742	17.358	0.72727	0.	-1466.5
3743	17.542	0.72727	0.	-1422.6
3744	17.727	0.72727	0.	-1378.8
3745	17.911	0.72727	0.	-1335.3
3746	18.096	0.72727	0.	-1291.9
3747	18.28	0.72727	0.	-1248.7
3748	18.465	0.72727	0.	-1205.7
3749	18.649	0.72727	0.	-1162.9
3750	18.834	0.72727	0.	-1120.3
3751	19.018	0.72727	0.	-1077.9
3752	19.203	0.72727	0.	-1035.6
3753	19.387	0.72727	0.	-993.54
3754	19.572	0.72727	0.	-951.64
3755	19.756	0.72727	0.	-909.92
3756	19.941	0.72727	0.	-868.36
3757	20.125	0.72727	0.	-826.97
3758	20.31	0.72727	0.	-785.75
3759	20.494	0.72727	0.	-744.69
3760	20.679	0.72727	0.	-703.8
3761	20.863	0.72727	0.	-663.06
3762	21.048	0.72727	0.	-622.48
3763	21.232	0.72727	0.	-582.05
3764	21.417	0.72727	0.	-541.79
3765	21.601	0.72727	0.	-501.68
3766	21.786	0.72727	0.	-461.73
3767	21.97	0.72727	0.	-421.95
3768	22.155	0.72727	0.	-382.35
3769	22.339	0.72727	0.	-342.95
3770	22.524	0.72727	0.	-303.76
3771	22.708	0.72727	0.	-264.83
3772	22.893	0.72727	0.	-226.2
3773	23.077	0.72727	0.	-187.92
3774	23.262	0.72727	0.	-150.07
3775	23.446	0.72727	0.	-112.71
3776	23.631	0.72727	0.	-75.818
3777	23.815	0.72727	0.	-39.502
3778	3.1512	0.54545	0.	-1767.5
3779	3.3357	0.54545	0.	-2051.4
3780	3.5202	0.54545	0.	-2476.1
3781	3.7047	0.54545	0.	-2899.5
3782	3.8892	0.54545	0.	-3277.9
3783	4.0737	0.54545	0.	-3596.2
3784	4.2582	0.54545	0.	-3853.6
3785	4.4427	0.54545	0.	-4055.
3786	4.6272	0.54545	0.	-4207.5
3787	4.8117	0.54545	0.	-4318.9
3788	4.9962	0.54545	0.	-4396.2
3789	5.1807	0.54545	0.	-4445.7
3790	5.3652	0.54545	0.	-4472.7
3791	5.5497	0.54545	0.	-4481.8
3792	5.7342	0.54545	0.	-4476.6
3793	5.9187	0.54545	0.	-4460.1
3794	6.1032	0.54545	0.	-4434.8
3795	6.2877	0.54545	0.	-4402.5
3796	6.4722	0.54545	0.	-4364.9
3797	6.6567	0.54545	0.	-4323.1
3798	6.8412	0.54545	0.	-4278.1
3799	7.0257	0.54545	0.	-4230.7
3800	7.2102	0.54545	0.	-4181.5
3801	7.3947	0.54545	0.	-4130.9
3802	7.5792	0.54545	0.	-4079.3
3803	7.7637	0.54545	0.	-4027.
3804	7.9482	0.54545	0.	-3974.3
3805	8.1327	0.54545	0.	-3921.2
3806	8.3173	0.54545	0.	-3867.9
3807	8.5018	0.54545	0.	-3814.5
3808	8.6863	0.54545	0.	-3761.2
3809	8.8708	0.54545	0.	-3707.9
3810	9.0553	0.54545	0.	-3654.6
3811	9.2398	0.54545	0.	-3601.6
3812	9.4243	0.54545	0.	-3548.6
3813	9.6088	0.54545	0.	-3495.9
3814	9.7933	0.54545	0.	-3443.3
3815	9.9778	0.54545	0.	-3390.9
3816	10.162	0.54545	0.	-3338.8
3817	10.347	0.54545	0.	-3286.8
3818	10.531	0.54545	0.	-3235.1
3819	10.716	0.54545	0.	-3183.5
3820	10.9	0.54545	0.	-3132.2
3821	11.085	0.54545	0.	-3081.1
3822	11.269	0.54545	0.	-3030.2
3823	11.454	0.54545	0.	-2979.6
3824	11.638	0.54545	0.	-2929.1
3825	11.823	0.54545	0.	-2878.9
3826	12.007	0.54545	0.	-2828.8
3827	12.192	0.54545	0.	-2779.
3828	12.376	0.54545	0.	-2729.4
3829	12.561	0.54545	0.	-2680.
3830	12.745	0.54545	0.	-2630.8
3831	12.93	0.54545	0.	-2581.9
3832	13.114	0.54545	0.	-2533.1
3833	13.299	0.54545	0.	-2484.5
3834	13.483	0.54545	0.	-2436.2
3835	13.668	0.54545	0.	-2388.
3836	13.852	0.54545	0.	-2340.1
3837	14.037	0.54545	0.	-2292.4
3838	14.221	0.54545	0.	-2244.8
3839	14.406	0.54545	0.	-2197.5
3840	14.59	0.54545	0.	-2150.4
3841	14.775	0.54545	0.	-2103.5
3842	14.959	0.54545	0.	-2056.8
3843	15.144	0.54545	0.	-2010.3
3844	15.328	0.54545	0.	-1964.
3845	15.513	0.54545	0.	-1917.8
3846	15.697	0.54545	0.	-1871.9
3847	15.882	0.54545	0.	-1826.2
3848	16.066	0.54545	0.	-1780.7
3849	16.251	0.54545	0.	-1735.4
3850	16.435	0.54545	0.	-1690.3
3851	16.62	0.54545	0.	-1645.4
3852	16.804	0.54545	0.	-1600.7
3853	16.989	0.54545	0.	-1556.1
3854	17.173	0.54545	0.	-1511.8
3855	17.358	0.54545	0.	-1467.7
3856	17.542	0.54545	0.	-1423.7
3857	17.727	0.54545	0.	-1380.
3858	17.911	0.54545	0.	-1336.4
3859	18.096	0.54545	0.	-1293.1
3860	18.28	0.54545	0.	-1249.9
3861	18.465	0.54545	0.	-1206.9
3862	18.649	0.54545	0.	-1164.1
3863	18.834	0.54545	0.	-1121.4
3864	19.018	0.54545	0.	-1079.
3865	19.203	0.54545	0.	-1036.7
3866	19.387	0.54545	0.	-994.59
3867	19.572	0.54545	0.	-952.65
3868	19.756	0.54545	0.	-910.89
3869	19.941	0.54545	0.	-869.3
3870	20.125	0.54545	0.	-827.86
3871	20.31	0.54545	0.	-786.59
3872	20.494	0.54545	0.	-745.47
3873	20.679	0.54545	0.	-704.51
3874	20.863	0.54545	0.	-663.7
3875	21.048	0.54545	0.	-623.04
3876	21.232	0.54545	0.	-582.53
3877	21.417	0.54545	0.	-542.16
3878	21.601	0.54545	0.	-501.93
3879	21.786	0.54545	0.	-461.86
3880	21.97	0.54545	0.	-421.94
3881	22.155	0.54545	0.	-382.18
3882	22.339	0.54545	0.	-342.6
3883	22.524	0.54545	0.	-303.21
3884	22.708	0.54545	0.	-264.06
3885	22.893	0.54545	0.	-225.18
3886	23.077	0.54545	0.	-186.67
3887	23.262	0.54545	0.	-148.62
3888	23.446	0.54545	0.	-111.21
3889	23.631	0.54545	0.	-74.569
3890	23.815	0.54545	0.	-38.981
3891	3.1512	0.36364	0.	-1334.4
3892	3.3357	0.36364	0.	-1722.9
3893	3.5202	0.36364	0.	-2217.8
3894	3.7047	0.36364	0.	-2687.
3895	3.8892	0.36364	0.	-3099.1
3896	4.0737	0.36364	0.	-3445.5
3897	4.2582	0.36364	0.	-3727.5
3898	4.4427	0.36364	0.	-3950.6
3899	4.6272	0.36364	0.	-4122.3
3900	4.8117	0.36364	0.	-4250.
3901	4.9962	0.36364	0.	-4341.2
3902	5.1807	0.36364	0.	-4402.3
3903	5.3652	0.36364	0.	-4438.9
3904	5.5497	0.36364	0.	-4455.8
3905	5.7342	0.36364	0.	-4457.
3906	5.9187	0.36364	0.	-4445.6
3907	6.1032	0.36364	0.	-4424.3
3908	6.2877	0.36364	0.	-4395.3
3909	6.4722	0.36364	0.	-4360.2
3910	6.6567	0.36364	0.	-4320.4
3911	6.8412	0.36364	0.	-4276.9
3912	7.0257	0.36364	0.	-4230.7
3913	7.2102	0.36364	0.	-4182.3
3914	7.3947	0.36364	0.	-4132.4
3915	7.5792	0.36364	0.	-4081.3
3916	7.7637	0.36364	0.	-4029.3
3917	7.9482	0.36364	0.	-3976.8
3918	8.1327	0.36364	0.	-3923.8
3919	8.3173	0.36364	0.	-3870.7
3920	8.5018	0.36364	0.	-3817.3
3921	8.6863	0.36364	0.	-3763.9
3922	8.8708	0.36364	0.	-3710.6
3923	9.0553	0.36364	0.	-3657.3
3924	9.2398	0.36364	0.	-3604.2
3925	9.4243	0.36364	0.	-3551.2
3926	9.6088	0.36364	0.	-3498.3
3927	9.7933	0.36364	0.	-3445.7
3928	9.9778	0.36364	0.	-3393.2
3929	10.162	0.36364	0.	-3341.
3930	10.347	0.36364	0.	-3289.
3931	10.531	0.36364	0.	-3237.1
3932	10.716	0.36364	0.	-3185.5
3933	10.9	0.36364	0.	-3134.2
3934	11.085	0.36364	0.	-3083.
3935	11.269	0.36364	0.	-3032.1
3936	11.454	0.36364	0.	-2981.3
3937	11.638	0.36364	0.	-2930.8
3938	11.823	0.36364	0.	-2880.5
3939	12.007	0.36364	0.	-2830.5
3940	12.192	0.36364	0.	-2780.6
3941	12.376	0.36364	0.	-2731.
3942	12.561	0.36364	0.	-2681.6
3943	12.745	0.36364	0.	-2632.4
3944	12.93	0.36364	0.	-2583.4
3945	13.114	0.36364	0.	-2534.6
3946	13.299	0.36364	0.	-2486.
3947	13.483	0.36364	0.	-2437.7
3948	13.668	0.36364	0.	-2389.5
3949	13.852	0.36364	0.	-2341.6
3950	14.037	0.36364	0.	-2293.8
3951	14.221	0.36364	0.	-2246.3
3952	14.406	0.36364	0.	-2199.
3953	14.59	0.36364	0.	-2151.8
3954	14.775	0.36364	0.	-2104.9
3955	14.959	0.36364	0.	-2058.2
3956	15.144	0.36364	0.	-2011.7
3957	15.328	0.36364	0.	-1965.4
3958	15.513	0.36364	0.	-1919.3
3959	15.697	0.36364	0.	-1873.4
3960	15.882	0.36364	0.	-1827.7
3961	16.066	0.36364	0.	-1782.2
3962	16.251	0.36364	0.	-1736.9
3963	16.435	0.36364	0.	-1691.7
3964	16.62	0.36364	0.	-1646.8
3965	16.804	0.36364	0.	-1602.1
3966	16.989	0.36364	0.	-1557.6
3967	17.173	0.36364	0.	-1513.3
3968	17.358	0.36364	0.	-1469.1
3969	17.542	0.36364	0.	-1425.2
3970	17.727	0.36364	0.	-1381.5
3971	17.911	0.36364	0.	-1337.9
3972	18.096	0.36364	0.	-1294.5
3973	18.28	0.36364	0.	-1251.3
3974	18.465	0.36364	0.	-1208.3
3975	18.649	0.36364	0.	-1165.5
3976	18.834	0.36364	0.	-1122.9
3977	19.018	0.36364	0.	-1080.4
3978	19.203	0.36364	0.	-1038.1
3979	19.387	0.36364	0.	-995.98
3980	19.572	0.36364	0.	-954.03
3981	19.756	0.36364	0.	-912.24
3982	19.941	0.36364	0.	-870.62
3983	20.125	0.36364	0.	-829.16
3984	20.31	0.36364	0.	-787.85
3985	20.494	0.36364	0.	-746.69
3986	20.679	0.36364	0.	-705.68
3987	20.863	0.36364	0.	-664.82
3988	21.048	0.36364	0.	-624.1
3989	21.232	0.36364	0.	-583.51
3990	21.417	0.36364	0.	-543.06
3991	21.601	0.36364	0.	-502.75
3992	21.786	0.36364	0.	-462.58
3993	21.97	0.36364	0.	-422.54
3994	22.155	0.36364	0.	-382.64
3995	22.339	0.36364	0.	-342.9
3996	22.524	0.36364	0.	-303.33
3997	22.708	0.36364	0.	-263.96
3998	22.893	0.36364	0.	-224.82
3999	23.077	0.36364	0.	-185.98
4000	23.262	0.36364	0.	-147.57
4001	23.446	0.36364	0.	-109.78
4002	23.631	0.36364	0.	-73.015
4003	23.815	0.36364	0.	-38.121
4004	3.1512	0.18182	0.	-965.39
4005	3.3357	0.18182	0.	-1513.3
4006	3.5202	0.18182	0.	-2065.8
4007	3.7047	0.18182	0.	-2560.7
4008	3.8892	0.18182	0.	-2989.
4009	4.0737	0.18182	0.	-3349.1
4010	4.2582	0.18182	0.	-3644.1
4011	4.4427	0.18182	0.	-3879.7
4012	4.6272	0.18182	0.	-4062.9
4013	4.8117	0.18182	0.	-4201.3
4014	4.9962	0.18182	0.	-4301.8
4015	5.1807	0.18182	0.	-4371.
4016	5.3652	0.18182	0.	-4414.5
4017	5.5497	0.18182	0.	-4437.1
4018	5.7342	0.18182	0.	-4443.
4019	5.9187	0.18182	0.	-4435.6
4020	6.1032	0.18182	0.	-4417.4
4021	6.2877	0.18182	0.	-4390.9
4022	6.4722	0.18182	0.	-4357.8
4023	6.6567	0.18182	0.	-4319.6
4024	6.8412	0.18182	0.	-4277.3
4025	7.0257	0.18182	0.	-4232.
4026	7.2102	0.18182	0.	-4184.4
4027	7.3947	0.18182	0.	-4135.
4028	7.5792	0.18182	0.	-4084.3
4029	7.7637	0.18182	0.	-4032.6
4030	7.9482	0.18182	0.	-3980.3
4031	8.1327	0.18182	0.	-3927.5
4032	8.3173	0.18182	0.	-3874.3
4033	8.5018	0.18182	0.	-3821.
4034	8.6863	0.18182	0.	-3767.7
4035	8.8708	0.18182	0.	-3714.3
4036	9.0553	0.18182	0.	-3661.
4037	9.2398	0.18182	0.	-3607.8
4038	9.4243	0.18182	0.	-3554.8
4039	9.6088	0.18182	0.	-3501.9
4040	9.7933	0.18182	0.	-3449.2
4041	9.9778	0.18182	0.	-3396.7
4042	10.162	0.18182	0.	-3344.4
4043	10.347	0.18182	0.	-3292.3
4044	10.531	0.18182	0.	-3240.4
4045	10.716	0.18182	0.	-3188.8
4046	10.9	0.18182	0.	-3137.4
4047	11.085	0.18182	0.	-3086.2
4048	11.269	0.18182	0.	-3035.2
4049	11.454	0.18182	0.	-2984.5
4050	11.638	0.18182	0.	-2934.
4051	11.823	0.18182	0.	-2883.7
4052	12.007	0.18182	0.	-2833.6
4053	12.192	0.18182	0.	-2783.7
4054	12.376	0.18182	0.	-2734.1
4055	12.561	0.18182	0.	-2684.7
4056	12.745	0.18182	0.	-2635.5
4057	12.93	0.18182	0.	-2586.5
4058	13.114	0.18182	0.	-2537.7
4059	13.299	0.18182	0.	-2489.1
4060	13.483	0.18182	0.	-2440.8
4061	13.668	0.18182	0.	-2392.7
4062	13.852	0.18182	0.	-2344.7
4063	14.037	0.18182	0.	-2297.
4064	14.221	0.18182	0.	-2249.5
4065	14.406	0.18182	0.	-2202.2
4066	14.59	0.18182	0.	-2155.1
4067	14.775	0.18182	0.	-2108.2
4068	14.959	0.18182	0.	-2061.5
4069	15.144	0.18182	0.	-2015.
4070	15.328	0.18182	0.	-1968.7
4071	15.513	0.18182	0.	-1922.7
4072	15.697	0.18182	0.	-1876.8
4073	15.882	0.18182	0.	-1831.1
4074	16.066	0.18182	0.	-1785.7
4075	16.251	0.18182	0.	-1740.4
4076	16.435	0.18182	0.	-1695.3
4077	16.62	0.18182	0.	-1650.4
4078	16.804	0.18182	0.	-1605.8
4079	16.989	0.18182	0.	-1561.3
4080	17.173	0.18182	0.	-1517.
4081	17.358	0.18182	0.	-1472.9
4082	17.542	0.18182	0.	-1429.
4083	17.727	0.18182	0.	-1385.3
4084	17.911	0.18182	0.	-1341.7
4085	18.096	0.18182	0.	-1298.4
4086	18.28	0.18182	0.	-1255.3
4087	18.465	0.18182	0.	-1212.3
4088	18.649	0.18182	0.	-1169.5
4089	18.834	0.18182	0.	-1126.9
4090	19.018	0.18182	0.	-1084.4
4091	19.203	0.18182	0.	-1042.2
4092	19.387	0.18182	0.	-1000.1
4093	19.572	0.18182	0.	-958.15
4094	19.756	0.18182	0.	-916.38
4095	19.941	0.18182	0.	-874.78
4096	20.125	0.18182	0.	-833.32
4097	20.31	0.18182	0.	-792.02
4098	20.494	0.18182	0.	-750.86
4099	20.679	0.18182	0.	-709.84
4100	20.863	0.18182	0.	-668.96
4101	21.048	0.18182	0.	-628.22
4102	21.232	0.18182	0.	-587.6
4103	21.417	0.18182	0.	-547.11
4104	21.601	0.18182	0.	-506.74
4105	21.786	0.18182	0.	-466.49
4106	21.97	0.18182	0.	-426.35
4107	22.155	0.18182	0.	-386.34
4108	22.339	0.18182	0.	-346.46
4109	22.524	0.18182	0.	-306.7
4110	22.708	0.18182	0.	-267.09
4111	22.893	0.18182	0.	-227.65
4112	23.077	0.18182	0.	-188.41
4113	23.262	0.18182	0.	-149.44
4114	23.446	0.18182	0.	-110.85
4115	23.631	0.18182	0.	-72.924
4116	23.815	0.18182	0.	-37.103
4117	23.815	0.18182	0.1	-34.187
4118	23.631	0.18182	0.1	-33.226
4119	23.446	0.18182	0.1	-33.571
4120	23.262	0.18182	0.1	-33.923
4121	23.077	0.18182	0.1	-34.135
4122	22.893	0.18182	0.1	-34.207
4123	22.708	0.18182	0.1	-34.156
4124	22.524	0.18182	0.1	-34.002
4125	22.339	0.18182	0.1	-33.767
4126	22.155	0.18182	0.1	-33.464
4127	21.97	0.18182	0.1	-33.108
4128	21.786	0.18182	0.1	-32.71
4129	21.601	0.18182	0.1	-32.278
4130	21.417	0.18182	0.1	-31.82
4131	21.232	0.18182	0.1	-31.342
4132	21.048	0.18182	0.1	-30.851
4133	20.863	0.18182	0.1	-30.349
4134	20.679	0.18182	0.1	-29.842
4135	20.494	0.18182	0.1	-29.332
4136	20.31	0.18182	0.1	-28.821
4137	20.125	0.18182	0.1	-28.313
4138	19.941	0.18182	0.1	-27.809
4139	19.756	0.18182	0.1	-27.311
4140	19.572	0.18182	0.1	-26.819
4141	19.387	0.18182	0.1	-26.335
4142	19.203	0.18182	0.1	-25.859
4143	19.018	0.18182	0.1	-25.392
4144	18.834	0.18182	0.1	-24.935
4145	18.649	0.18182	0.1	-24.487
4146	18.465	0.18182	0.1	-24.049
4147	18.28	0.18182	0.1	-23.621
4148	18.096	0.18182	0.1	-23.203
4149	17.911	0.18182	0.1	-22.795
4150	17.727	0.18182	0.1	-22.396
4151	17.542	0.18182	0.1	-22.006
4152	17.358	0.18182	0.1	-21.625
4153	17.173	0.18182	0.1	-21.252
4154	16.989	0.18182	0.1	-20.888
4155	16.804	0.18182	0.1	-20.531
4156	16.62	0.18182	0.1	-20.181
4157	16.435	0.18182	0.1	-19.838
4158	16.251	0.18182	0.1	-19.5
4159	16.066	0.18182	0.1	-19.169
4160	15.882	0.18182	0.1	-18.842
4161	15.697	0.18182	0.1	-18.52
4162	15.513	0.18182	0.1	-18.201
4163	15.328	0.18182	0.1	-17.885
4164	15.144	0.18182	0.1	-17.571
4165	14.959	0.18182	0.1	-17.26
4166	14.775	0.18182	0.1	-16.949
4167	14.59	0.18182	0.1	-16.638
4168	14.406	0.18182	0.1	-16.327
4169	14.221	0.18182	0.1	-16.014
4170	14.037	0.18182	0.1	-15.699
4171	13.852	0.18182	0.1	-15.381
4172	13.668	0.18182	0.1	-15.059
4173	13.483	0.18182	0.1	-14.732
4174	13.299	0.18182	0.1	-14.399
4175	13.114	0.18182	0.1	-14.059
4176	12.93	0.18182	0.1	-13.711
4177	12.745	0.18182	0.1	-13.355
4178	12.561	0.18182	0.1	-12.988
4179	12.376	0.18182	0.1	-12.609
4180	12.192	0.18182	0.1	-12.218
4181	12.007	0.18182	0.1	-11.814
4182	11.823	0.18182	0.1	-11.394
4183	11.638	0.18182	0.1	-10.959
4184	11.454	0.18182	0.1	-10.506
4185	11.269	0.18182	0.1	-10.034
4186	11.085	0.18182	0.1	-9.5434
4187	10.9	0.18182	0.1	-9.0319
4188	10.716	0.18182	0.1	-8.4988
4189	10.531	0.18182	0.1	-7.9438
4190	10.347	0.18182	0.1	-7.3664
4191	10.162	0.18182	0.1	-6.7665
4192	9.9778	0.18182	0.1	-6.1447
4193	9.7933	0.18182	0.1	-5.5022
4194	9.6088	0.18182	0.1	-4.841
4195	9.4243	0.18182	0.1	-4.1646
4196	9.2398	0.18182	0.1	-3.4779
4197	9.0553	0.18182	0.1	-2.7889
4198	8.8708	0.18182	0.1	-2.1108
4199	8.6863	0.18182	0.1	-1.4681
4200	8.5018	0.18182	0.1	-0.91241
4201	8.3173	0.18182	0.1	-0.52906
4202	8.1327	0.18182	0.1	-0.33636
4203	7.9482	0.18182	0.1	-0.24988
4204	7.7637	0.18182	0.1	-0.20859
4205	7.5792	0.18182	0.1	-0.18866
4206	7.3947	0.18182	0.1	-0.18162
4207	7.2102	0.18182	0.1	-0.18581
4208	7.0257	0.18182	0.1	-0.20593
4209	6.8412	0.18182	0.1	-0.26436
4210	6.6567	0.18182	0.1	-0.48686
4211	6.4722	0.18182	0.1	-1.443
4212	6.2877	0.18182	0.1	-3.3571
4213	6.1032	0.18182	0.1	-6.0425
4214	5.9187	0.18182	0.1	-9.5462
4215	5.7342	0.18182	0.1	-13.978
4216	5.5497	0.18182	0.1	-19.46
4217	5.3652	0.18182	0.1	-26.115
4218	5.1807	0.18182	0.1	-34.045
4219	4.9962	0.18182	0.1	-43.31
4220	4.8117	0.18182	0.1	-53.887
4221	4.6272	0.18182	0.1	-65.623
4222	4.4427	0.18182	0.1	-78.157
4223	4.2582	0.18182	0.1	-90.838
4224	4.0737	0.18182	0.1	-102.65
4225	3.8892	0.18182	0.1	-112.16
4226	3.7047	0.18182	0.1	-117.77
4227	3.5202	0.18182	0.1	-117.94
4228	3.3357	0.18182	0.1	-117.95
4229	3.1512	0.18182	0.1	-160.36
4230	23.815	0.36364	0.1	-57.44
4231	23.631	0.36364	0.1	-50.981
4232	23.446	0.36364	0.1	-47.201
4233	23.262	0.36364	0.1	-44.74
4234	23.077	0.36364	0.1	-42.894
4235	22.893	0.36364	0.1	-41.384
4236	22.708	0.36364	0.1	-40.068
4237	22.524	0.36364	0.1	-38.874
4238	22.339	0.36364	0.1	-37.764
4239	22.155	0.36364	0.1	-36.713
4240	21.97	0.36364	0.1	-35.71
4241	21.786	0.36364	0.1	-34.747
4242	21.601	0.36364	0.1	-33.818
4243	21.417	0.36364	0.1	-32.921
4244	21.232	0.36364	0.1	-32.053
4245	21.048	0.36364	0.1	-31.214
4246	20.863	0.36364	0.1	-30.403
4247	20.679	0.36364	0.1	-29.619
4248	20.494	0.36364	0.1	-28.861
4249	20.31	0.36364	0.1	-28.13
4250	20.125	0.36364	0.1	-27.424
4251	19.941	0.36364	0.1	-26.743
4252	19.756	0.36364	0.1	-26.086
4253	19.572	0.36364	0.1	-25.453
4254	19.387	0.36364	0.1	-24.843
4255	19.203	0.36364	0.1	-24.255
4256	19.018	0.36364	0.1	-23.689
4257	18.834	0.36364	0.1	-23.144
4258	18.649	0.36364	0.1	-22.618
4259	18.465	0.36364	0.1	-22.111
4260	18.28	0.36364	0.1	-21.622
4261	18.096	0.36364	0.1	-21.15
4262	17.911	0.36364	0.1	-20.694
4263	17.727	0.36364	0.1	-20.253
4264	17.542	0.36364	0.1	-19.826
4265	17.358	0.36364	0.1	-19.413
4266	17.173	0.36364	0.1	-19.011
4267	16.989	0.36364	0.1	-18.621
4268	16.804	0.36364	0.1	-18.24
4269	16.62	0.36364	0.1	-17.869
4270	16.435	0.36364	0.1	-17.506
4271	16.251	0.36364	0.1	-17.15
4272	16.066	0.36364	0.1	-16.801
4273	15.882	0.36364	0.1	-16.456
4274	15.697	0.36364	0.1	-16.115
4275	15.513	0.36364	0.1	-15.778
4276	15.328	0.36364	0.1	-15.442
4277	15.144	0.36364	0.1	-15.108
4278	14.959	0.36364	0.1	-14.773
4279	14.775	0.36364	0.1	-14.436
4280	14.59	0.36364	0.1	-14.098
4281	14.406	0.36364	0.1	-13.755
4282	14.221	0.36364	0.1	-13.407
4283	14.037	0.36364	0.1	-13.053
4284	13.852	0.36364	0.1	-12.692
4285	13.668	0.36364	0.1	-12.321
4286	13.483	0.36364	0.1	-11.94
4287	13.299	0.36364	0.1	-11.546
4288	13.114	0.36364	0.1	-11.139
4289	12.93	0.36364	0.1	-10.717
4290	12.745	0.36364	0.1	-10.278
4291	12.561	0.36364	0.1	-9.82
4292	12.376	0.36364	0.1	-9.3413
4293	12.192	0.36364	0.1	-8.8401
4294	12.007	0.36364	0.1	-8.3143
4295	11.823	0.36364	0.1	-7.762
4296	11.638	0.36364	0.1	-7.1811
4297	11.454	0.36364	0.1	-6.5696
4298	11.269	0.36364	0.1	-5.9255
4299	11.085	0.36364	0.1	-5.2469
4300	10.9	0.36364	0.1	-4.5321
4301	10.716	0.36364	0.1	-3.7792
4302	10.531	0.36364	0.1	-2.9872
4303	10.347	0.36364	0.1	-2.1553
4304	10.162	0.36364	0.1	-1.2838
4305	9.9778	0.36364	0.1	-0.38169
4306	9.7933	0.36364	0.1	-3.0497e-002
4307	9.6088	0.36364	0.1	-2.6936e-002
4308	9.4243	0.36364	0.1	-2.8053e-002
4309	9.2398	0.36364	0.1	-3.0127e-002
4310	9.0553	0.36364	0.1	-3.2637e-002
4311	8.8708	0.36364	0.1	-3.5427e-002
4312	8.6863	0.36364	0.1	-3.843e-002
4313	8.5018	0.36364	0.1	-4.1607e-002
4314	8.3173	0.36364	0.1	-4.493e-002
4315	8.1327	0.36364	0.1	-4.8386e-002
4316	7.9482	0.36364	0.1	-5.1964e-002
4317	7.7637	0.36364	0.1	-5.5667e-002
4318	7.5792	0.36364	0.1	-5.9543e-002
4319	7.3947	0.36364	0.1	-6.3725e-002
4320	7.2102	0.36364	0.1	-6.853e-002
4321	7.0257	0.36364	0.1	-7.4704e-002
4322	6.8412	0.36364	0.1	-8.4096e-002
4323	6.6567	0.36364	0.1	-0.10196
4324	6.4722	0.36364	0.1	-0.14833
4325	6.2877	0.36364	0.1	-0.38177
4326	6.1032	0.36364	0.1	-3.1642
4327	5.9187	0.36364	0.1	-9.0982
4328	5.7342	0.36364	0.1	-16.695
4329	5.5497	0.36364	0.1	-26.009
4330	5.3652	0.36364	0.1	-37.158
4331	5.1807	0.36364	0.1	-50.202
4332	4.9962	0.36364	0.1	-65.082
4333	4.8117	0.36364	0.1	-81.55
4334	4.6272	0.36364	0.1	-99.086
4335	4.4427	0.36364	0.1	-116.8
4336	4.2582	0.36364	0.1	-133.36
4337	4.0737	0.36364	0.1	-147.07
4338	3.8892	0.36364	0.1	-156.16
4339	3.7047	0.36364	0.1	-160.04
4340	3.5202	0.36364	0.1	-162.41
4341	3.3357	0.36364	0.1	-185.33
4342	3.1512	0.36364	0.1	-331.28
4343	23.815	0.54545	0.1	-77.606
4344	23.631	0.54545	0.1	-69.168
4345	23.446	0.54545	0.1	-62.92
4346	23.262	0.54545	0.1	-58.26
4347	23.077	0.54545	0.1	-54.599
4348	22.893	0.54545	0.1	-51.604
4349	22.708	0.54545	0.1	-49.059
4350	22.524	0.54545	0.1	-46.832
4351	22.339	0.54545	0.1	-44.838
4352	22.155	0.54545	0.1	-43.025
4353	21.97	0.54545	0.1	-41.354
4354	21.786	0.54545	0.1	-39.802
4355	21.601	0.54545	0.1	-38.349
4356	21.417	0.54545	0.1	-36.984
4357	21.232	0.54545	0.1	-35.696
4358	21.048	0.54545	0.1	-34.478
4359	20.863	0.54545	0.1	-33.323
4360	20.679	0.54545	0.1	-32.228
4361	20.494	0.54545	0.1	-31.188
4362	20.31	0.54545	0.1	-30.199
4363	20.125	0.54545	0.1	-29.259
4364	19.941	0.54545	0.1	-28.365
4365	19.756	0.54545	0.1	-27.513
4366	19.572	0.54545	0.1	-26.702
4367	19.387	0.54545	0.1	-25.93
4368	19.203	0.54545	0.1	-25.193
4369	19.018	0.54545	0.1	-24.491
4370	18.834	0.54545	0.1	-23.821
4371	18.649	0.54545	0.1	-23.181
4372	18.465	0.54545	0.1	-22.569
4373	18.28	0.54545	0.1	-21.984
4374	18.096	0.54545	0.1	-21.423
4375	17.911	0.54545	0.1	-20.886
4376	17.727	0.54545	0.1	-20.369
4377	17.542	0.54545	0.1	-19.872
4378	17.358	0.54545	0.1	-19.394
4379	17.173	0.54545	0.1	-18.931
4380	16.989	0.54545	0.1	-18.483
4381	16.804	0.54545	0.1	-18.049
4382	16.62	0.54545	0.1	-17.626
4383	16.435	0.54545	0.1	-17.213
4384	16.251	0.54545	0.1	-16.809
4385	16.066	0.54545	0.1	-16.413
4386	15.882	0.54545	0.1	-16.022
4387	15.697	0.54545	0.1	-15.636
4388	15.513	0.54545	0.1	-15.253
4389	15.328	0.54545	0.1	-14.871
4390	15.144	0.54545	0.1	-14.488
4391	14.959	0.54545	0.1	-14.104
4392	14.775	0.54545	0.1	-13.717
4393	14.59	0.54545	0.1	-13.325
4394	14.406	0.54545	0.1	-12.926
4395	14.221	0.54545	0.1	-12.519
4396	14.037	0.54545	0.1	-12.102
4397	13.852	0.54545	0.1	-11.673
4398	13.668	0.54545	0.1	-11.23
4399	13.483	0.54545	0.1	-10.771
4400	13.299	0.54545	0.1	-10.294
4401	13.114	0.54545	0.1	-9.7971
4402	12.93	0.54545	0.1	-9.2775
4403	12.745	0.54545	0.1	-8.7329
4404	12.561	0.54545	0.1	-8.161
4405	12.376	0.54545	0.1	-7.559
4406	12.192	0.54545	0.1	-6.9242
4407	12.007	0.54545	0.1	-6.254
4408	11.823	0.54545	0.1	-5.5454
4409	11.638	0.54545	0.1	-4.7954
4410	11.454	0.54545	0.1	-4.0012
4411	11.269	0.54545	0.1	-3.1598
4412	11.085	0.54545	0.1	-2.2683
4413	10.9	0.54545	0.1	-1.3244
4414	10.716	0.54545	0.1	-0.32887
4415	10.531	0.54545	0.1	-5.3863e-003
4416	10.347	0.54545	0.1	-4.377e-003
4417	10.162	0.54545	0.1	-4.6526e-003
4418	9.9778	0.54545	0.1	-5.2372e-003
4419	9.7933	0.54545	0.1	-5.983e-003
4420	9.6088	0.54545	0.1	-6.8625e-003
4421	9.4243	0.54545	0.1	-7.8716e-003
4422	9.2398	0.54545	0.1	-9.0178e-003
4423	9.0553	0.54545	0.1	-1.0317e-002
4424	8.8708	0.54545	0.1	-1.179e-002
4425	8.6863	0.54545	0.1	-1.3467e-002
4426	8.5018	0.54545	0.1	-1.5387e-002
4427	8.3173	0.54545	0.1	-1.76e-002
4428	8.1327	0.54545	0.1	-2.0179e-002
4429	7.9482	0.54545	0.1	-2.3221e-002
4430	7.7637	0.54545	0.1	-2.6856e-002
4431	7.5792	0.54545	0.1	-3.1283e-002
4432	7.3947	0.54545	0.1	-3.6813e-002
4433	7.2102	0.54545	0.1	-4.3944e-002
4434	7.0257	0.54545	0.1	-5.3541e-002
4435	6.8412	0.54545	0.1	-6.7231e-002
4436	6.6567	0.54545	0.1	-8.8424e-002
4437	6.4722	0.54545	0.1	-0.1255
4438	6.2877	0.54545	0.1	-0.20523
4439	6.1032	0.54545	0.1	-0.47204
4440	5.9187	0.54545	0.1	-2.9716
4441	5.7342	0.54545	0.1	-11.536
4442	5.5497	0.54545	0.1	-22.935
4443	5.3652	0.54545	0.1	-36.764
4444	5.1807	0.54545	0.1	-53.074
4445	4.9962	0.54545	0.1	-71.843
4446	4.8117	0.54545	0.1	-92.881
4447	4.6272	0.54545	0.1	-115.76
4448	4.4427	0.54545	0.1	-139.76
4449	4.2582	0.54545	0.1	-163.9
4450	4.0737	0.54545	0.1	-187.2
4451	3.8892	0.54545	0.1	-209.44
4452	3.7047	0.54545	0.1	-233.44
4453	3.5202	0.54545	0.1	-269.89
4454	3.3357	0.54545	0.1	-353.59
4455	3.1512	0.54545	0.1	-602.75
4456	23.815	0.72727	0.1	-94.672
4457	23.631	0.72727	0.1	-85.363
4458	23.446	0.72727	0.1	-77.71
4459	23.262	0.72727	0.1	-71.505
4460	23.077	0.72727	0.1	-66.379
4461	22.893	0.72727	0.1	-62.075
4462	22.708	0.72727	0.1	-58.382
4463	22.524	0.72727	0.1	-55.154
4464	22.339	0.72727	0.1	-52.287
4465	22.155	0.72727	0.1	-49.705
4466	21.97	0.72727	0.1	-47.356
4467	21.786	0.72727	0.1	-45.2
4468	21.601	0.72727	0.1	-43.209
4469	21.417	0.72727	0.1	-41.361
4470	21.232	0.72727	0.1	-39.638
4471	21.048	0.72727	0.1	-38.028
4472	20.863	0.72727	0.1	-36.518
4473	20.679	0.72727	0.1	-35.101
4474	20.494	0.72727	0.1	-33.768
4475	20.31	0.72727	0.1	-32.513
4476	20.125	0.72727	0.1	-31.331
4477	19.941	0.72727	0.1	-30.215
4478	19.756	0.72727	0.1	-29.161
4479	19.572	0.72727	0.1	-28.166
4480	19.387	0.72727	0.1	-27.225
4481	19.203	0.72727	0.1	-26.335
4482	19.018	0.72727	0.1	-25.492
4483	18.834	0.72727	0.1	-24.692
4484	18.649	0.72727	0.1	-23.934
4485	18.465	0.72727	0.1	-23.213
4486	18.28	0.72727	0.1	-22.528
4487	18.096	0.72727	0.1	-21.876
4488	17.911	0.72727	0.1	-21.253
4489	17.727	0.72727	0.1	-20.658
4490	17.542	0.72727	0.1	-20.088
4491	17.358	0.72727	0.1	-19.541
4492	17.173	0.72727	0.1	-19.015
4493	16.989	0.72727	0.1	-18.507
4494	16.804	0.72727	0.1	-18.016
4495	16.62	0.72727	0.1	-17.539
4496	16.435	0.72727	0.1	-17.075
4497	16.251	0.72727	0.1	-16.621
4498	16.066	0.72727	0.1	-16.177
4499	15.882	0.72727	0.1	-15.738
4500	15.697	0.72727	0.1	-15.305
4501	15.513	0.72727	0.1	-14.874
4502	15.328	0.72727	0.1	-14.444
4503	15.144	0.72727	0.1	-14.013
4504	14.959	0.72727	0.1	-13.579
4505	14.775	0.72727	0.1	-13.141
4506	14.59	0.72727	0.1	-12.695
4507	14.406	0.72727	0.1	-12.24
4508	14.221	0.72727	0.1	-11.773
4509	14.037	0.72727	0.1	-11.293
4510	13.852	0.72727	0.1	-10.797
4511	13.668	0.72727	0.1	-10.282
4512	13.483	0.72727	0.1	-9.7459
4513	13.299	0.72727	0.1	-9.1863
4514	13.114	0.72727	0.1	-8.6002
4515	12.93	0.72727	0.1	-7.9846
4516	12.745	0.72727	0.1	-7.3364
4517	12.561	0.72727	0.1	-6.6525
4518	12.376	0.72727	0.1	-5.9293
4519	12.192	0.72727	0.1	-5.1635
4520	12.007	0.72727	0.1	-4.3515
4521	11.823	0.72727	0.1	-3.4896
4522	11.638	0.72727	0.1	-2.5741
4523	11.454	0.72727	0.1	-1.602
4524	11.269	0.72727	0.1	-0.57654
4525	11.085	0.72727	0.1	-1.9492e-002
4526	10.9	0.72727	0.1	-8.0706e-003
4527	10.716	0.72727	0.1	-6.1171e-003
4528	10.531	0.72727	0.1	-5.6294e-003
4529	10.347	0.72727	0.1	-5.6643e-003
4530	10.162	0.72727	0.1	-5.9547e-003
4531	9.9778	0.72727	0.1	-6.4321e-003
4532	9.7933	0.72727	0.1	-7.0539e-003
4533	9.6088	0.72727	0.1	-7.8128e-003
4534	9.4243	0.72727	0.1	-8.7104e-003
4535	9.2398	0.72727	0.1	-9.7539e-003
4536	9.0553	0.72727	0.1	-1.0961e-002
4537	8.8708	0.72727	0.1	-1.2357e-002
4538	8.6863	0.72727	0.1	-1.3972e-002
4539	8.5018	0.72727	0.1	-1.585e-002
4540	8.3173	0.72727	0.1	-1.8047e-002
4541	8.1327	0.72727	0.1	-2.0644e-002
4542	7.9482	0.72727	0.1	-2.375e-002
4543	7.7637	0.72727	0.1	-2.7507e-002
4544	7.5792	0.72727	0.1	-3.213e-002
4545	7.3947	0.72727	0.1	-3.7943e-002
4546	7.2102	0.72727	0.1	-4.5441e-002
4547	7.0257	0.72727	0.1	-5.5428e-002
4548	6.8412	0.72727	0.1	-6.9283e-002
4549	6.6567	0.72727	0.1	-8.9538e-002
4550	6.4722	0.72727	0.1	-0.12126
4551	6.2877	0.72727	0.1	-0.17598
4552	6.1032	0.72727	0.1	-0.28573
4553	5.9187	0.72727	0.1	-0.57608
4554	5.7342	0.72727	0.1	-2.0424
4555	5.5497	0.72727	0.1	-10.54
4556	5.3652	0.72727	0.1	-24.842
4557	5.1807	0.72727	0.1	-42.493
4558	4.9962	0.72727	0.1	-63.391
4559	4.8117	0.72727	0.1	-87.607
4560	4.6272	0.72727	0.1	-115.2
4561	4.4427	0.72727	0.1	-146.24
4562	4.2582	0.72727	0.1	-181.02
4563	4.0737	0.72727	0.1	-220.48
4564	3.8892	0.72727	0.1	-267.38
4565	3.7047	0.72727	0.1	-328.82
4566	3.5202	0.72727	0.1	-420.63
4567	3.3357	0.72727	0.1	-579.8
4568	3.1512	0.72727	0.1	-927.31
4569	23.815	0.90909	0.1	-109.35
4570	23.631	0.90909	0.1	-99.592
4571	23.446	0.90909	0.1	-91.103
4572	23.262	0.90909	0.1	-83.856
4573	23.077	0.90909	0.1	-77.627
4574	22.893	0.90909	0.1	-72.25
4575	22.708	0.90909	0.1	-67.561
4576	22.524	0.90909	0.1	-63.426
4577	22.339	0.90909	0.1	-59.74
4578	22.155	0.90909	0.1	-56.423
4579	21.97	0.90909	0.1	-53.414
4580	21.786	0.90909	0.1	-50.666
4581	21.601	0.90909	0.1	-48.141
4582	21.417	0.90909	0.1	-45.812
4583	21.232	0.90909	0.1	-43.654
4584	21.048	0.90909	0.1	-41.649
4585	20.863	0.90909	0.1	-39.782
4586	20.679	0.90909	0.1	-38.04
4587	20.494	0.90909	0.1	-36.412
4588	20.31	0.90909	0.1	-34.889
4589	20.125	0.90909	0.1	-33.461
4590	19.941	0.90909	0.1	-32.122
4591	19.756	0.90909	0.1	-30.865
4592	19.572	0.90909	0.1	-29.684
4593	19.387	0.90909	0.1	-28.573
4594	19.203	0.90909	0.1	-27.527
4595	19.018	0.90909	0.1	-26.542
4596	18.834	0.90909	0.1	-25.612
4597	18.649	0.90909	0.1	-24.735
4598	18.465	0.90909	0.1	-23.905
4599	18.28	0.90909	0.1	-23.119
4600	18.096	0.90909	0.1	-22.374
4601	17.911	0.90909	0.1	-21.665
4602	17.727	0.90909	0.1	-20.991
4603	17.542	0.90909	0.1	-20.348
4604	17.358	0.90909	0.1	-19.733
4605	17.173	0.90909	0.1	-19.143
4606	16.989	0.90909	0.1	-18.575
4607	16.804	0.90909	0.1	-18.027
4608	16.62	0.90909	0.1	-17.497
4609	16.435	0.90909	0.1	-16.981
4610	16.251	0.90909	0.1	-16.478
4611	16.066	0.90909	0.1	-15.985
4612	15.882	0.90909	0.1	-15.499
4613	15.697	0.90909	0.1	-15.019
4614	15.513	0.90909	0.1	-14.542
4615	15.328	0.90909	0.1	-14.065
4616	15.144	0.90909	0.1	-13.586
4617	14.959	0.90909	0.1	-13.104
4618	14.775	0.90909	0.1	-12.614
4619	14.59	0.90909	0.1	-12.116
4620	14.406	0.90909	0.1	-11.606
4621	14.221	0.90909	0.1	-11.081
4622	14.037	0.90909	0.1	-10.54
4623	13.852	0.90909	0.1	-9.9785
4624	13.668	0.90909	0.1	-9.3942
4625	13.483	0.90909	0.1	-8.7839
4626	13.299	0.90909	0.1	-8.1444
4627	13.114	0.90909	0.1	-7.4723
4628	12.93	0.90909	0.1	-6.764
4629	12.745	0.90909	0.1	-6.0157
4630	12.561	0.90909	0.1	-5.2237
4631	12.376	0.90909	0.1	-4.3837
4632	12.192	0.90909	0.1	-3.4917
4633	12.007	0.90909	0.1	-2.5434
4634	11.823	0.90909	0.1	-1.5359
4635	11.638	0.90909	0.1	-0.48063
4636	11.454	0.90909	0.1	-2.3534e-002
4637	11.269	0.90909	0.1	-1.0041e-002
4638	11.085	0.90909	0.1	-7.0124e-003
4639	10.9	0.90909	0.1	-5.8337e-003
4640	10.716	0.90909	0.1	-5.2971e-003
4641	10.531	0.90909	0.1	-5.1322e-003
4642	10.347	0.90909	0.1	-5.185e-003
4643	10.162	0.90909	0.1	-5.3728e-003
4644	9.9778	0.90909	0.1	-5.6906e-003
4645	9.7933	0.90909	0.1	-6.1215e-003
4646	9.6088	0.90909	0.1	-6.6688e-003
4647	9.4243	0.90909	0.1	-7.3434e-003
4648	9.2398	0.90909	0.1	-8.1574e-003
4649	9.0553	0.90909	0.1	-9.133e-003
4650	8.8708	0.90909	0.1	-1.0299e-002
4651	8.6863	0.90909	0.1	-1.1696e-002
4652	8.5018	0.90909	0.1	-1.3372e-002
4653	8.3173	0.90909	0.1	-1.5395e-002
4654	8.1327	0.90909	0.1	-1.786e-002
4655	7.9482	0.90909	0.1	-2.0887e-002
4656	7.7637	0.90909	0.1	-2.4639e-002
4657	7.5792	0.90909	0.1	-2.935e-002
4658	7.3947	0.90909	0.1	-3.5357e-002
4659	7.2102	0.90909	0.1	-4.3154e-002
4660	7.0257	0.90909	0.1	-5.3497e-002
4661	6.8412	0.90909	0.1	-6.7579e-002
4662	6.6567	0.90909	0.1	-8.7385e-002
4663	6.4722	0.90909	0.1	-0.11638
4664	6.2877	0.90909	0.1	-0.16106
4665	6.1032	0.90909	0.1	-0.2349
4666	5.9187	0.90909	0.1	-0.36984
4667	5.7342	0.90909	0.1	-0.65987
4668	5.5497	0.90909	0.1	-1.5119
4669	5.3652	0.90909	0.1	-5.8646
4670	5.1807	0.90909	0.1	-20.176
4671	4.9962	0.90909	0.1	-40.909
4672	4.8117	0.90909	0.1	-66.614
4673	4.6272	0.90909	0.1	-97.863
4674	4.4427	0.90909	0.1	-135.95
4675	4.2582	0.90909	0.1	-183.15
4676	4.0737	0.90909	0.1	-243.37
4677	3.8892	0.90909	0.1	-323.47
4678	3.7047	0.90909	0.1	-435.32
4679	3.5202	0.90909	0.1	-597.88
4680	3.3357	0.90909	0.1	-845.5
4681	3.1512	0.90909	0.1	-1304.7
4682	23.815	1.0909	0.1	-122.05
4683	23.631	1.0909	0.1	-112.05
4684	23.446	1.0909	0.1	-103.03
4685	23.262	1.0909	0.1	-95.08
4686	23.077	1.0909	0.1	-88.041
4687	22.893	1.0909	0.1	-81.824
4688	22.708	1.0909	0.1	-76.309
4689	22.524	1.0909	0.1	-71.389
4690	22.339	1.0909	0.1	-66.972
4691	22.155	1.0909	0.1	-62.983
4692	21.97	1.0909	0.1	-59.358
4693	21.786	1.0909	0.1	-56.049
4694	21.601	1.0909	0.1	-53.013
4695	21.417	1.0909	0.1	-50.219
4696	21.232	1.0909	0.1	-47.638
4697	21.048	1.0909	0.1	-45.248
4698	20.863	1.0909	0.1	-43.031
4699	20.679	1.0909	0.1	-40.97
4700	20.494	1.0909	0.1	-39.052
4701	20.31	1.0909	0.1	-37.263
4702	20.125	1.0909	0.1	-35.594
4703	19.941	1.0909	0.1	-34.034
4704	19.756	1.0909	0.1	-32.576
4705	19.572	1.0909	0.1	-31.211
4706	19.387	1.0909	0.1	-29.932
4707	19.203	1.0909	0.1	-28.733
4708	19.018	1.0909	0.1	-27.607
4709	18.834	1.0909	0.1	-26.549
4710	18.649	1.0909	0.1	-25.554
4711	18.465	1.0909	0.1	-24.616
4712	18.28	1.0909	0.1	-23.73
4713	18.096	1.0909	0.1	-22.894
4714	17.911	1.0909	0.1	-22.101
4715	17.727	1.0909	0.1	-21.349
4716	17.542	1.0909	0.1	-20.634
4717	17.358	1.0909	0.1	-19.951
4718	17.173	1.0909	0.1	-19.298
4719	16.989	1.0909	0.1	-18.672
4720	16.804	1.0909	0.1	-18.069
4721	16.62	1.0909	0.1	-17.485
4722	16.435	1.0909	0.1	-16.919
4723	16.251	1.0909	0.1	-16.368
4724	16.066	1.0909	0.1	-15.827
4725	15.882	1.0909	0.1	-15.296
4726	15.697	1.0909	0.1	-14.77
4727	15.513	1.0909	0.1	-14.247
4728	15.328	1.0909	0.1	-13.725
4729	15.144	1.0909	0.1	-13.2
4730	14.959	1.0909	0.1	-12.67
4731	14.775	1.0909	0.1	-12.132
4732	14.59	1.0909	0.1	-11.583
4733	14.406	1.0909	0.1	-11.02
4734	14.221	1.0909	0.1	-10.44
4735	14.037	1.0909	0.1	-9.8401
4736	13.852	1.0909	0.1	-9.2164
4737	13.668	1.0909	0.1	-8.5657
4738	13.483	1.0909	0.1	-7.8843
4739	13.299	1.0909	0.1	-7.1685
4740	13.114	1.0909	0.1	-6.4143
4741	12.93	1.0909	0.1	-5.6176
4742	12.745	1.0909	0.1	-4.7739
4743	12.561	1.0909	0.1	-3.8788
4744	12.376	1.0909	0.1	-2.9277
4745	12.192	1.0909	0.1	-1.9167
4746	12.007	1.0909	0.1	-0.84746
4747	11.823	1.0909	0.1	-5.1754e-002
4748	11.638	1.0909	0.1	-1.4153e-002
4749	11.454	1.0909	0.1	-8.8294e-003
4750	11.269	1.0909	0.1	-6.8375e-003
4751	11.085	1.0909	0.1	-5.8853e-003
4752	10.9	1.0909	0.1	-5.3845e-003
4753	10.716	1.0909	0.1	-5.1053e-003
4754	10.531	1.0909	0.1	-5.0276e-003
4755	10.347	1.0909	0.1	-5.0822e-003
4756	10.162	1.0909	0.1	-5.2256e-003
4757	9.9778	1.0909	0.1	-5.4691e-003
4758	9.7933	1.0909	0.1	-5.8037e-003
4759	9.6088	1.0909	0.1	-6.2414e-003
4760	9.4243	1.0909	0.1	-6.7919e-003
4761	9.2398	1.0909	0.1	-7.4737e-003
4762	9.0553	1.0909	0.1	-8.3086e-003
4763	8.8708	1.0909	0.1	-9.3293e-003
4764	8.6863	1.0909	0.1	-1.0576e-002
4765	8.5018	1.0909	0.1	-1.2103e-002
4766	8.3173	1.0909	0.1	-1.3977e-002
4767	8.1327	1.0909	0.1	-1.6299e-002
4768	7.9482	1.0909	0.1	-1.9193e-002
4769	7.7637	1.0909	0.1	-2.2824e-002
4770	7.5792	1.0909	0.1	-2.7424e-002
4771	7.3947	1.0909	0.1	-3.3322e-002
4772	7.2102	1.0909	0.1	-4.0981e-002
4773	7.0257	1.0909	0.1	-5.1081e-002
4774	6.8412	1.0909	0.1	-6.4639e-002
4775	6.6567	1.0909	0.1	-8.323e-002
4776	6.4722	1.0909	0.1	-0.10936
4777	6.2877	1.0909	0.1	-0.1472
4778	6.1032	1.0909	0.1	-0.20409
4779	5.9187	1.0909	0.1	-0.29378
4780	5.7342	1.0909	0.1	-0.44465
4781	5.5497	1.0909	0.1	-0.72372
4782	5.3652	1.0909	0.1	-1.3272
4783	5.1807	1.0909	0.1	-3.074
4784	4.9962	1.0909	0.1	-10.665
4785	4.8117	1.0909	0.1	-31.92
4786	4.6272	1.0909	0.1	-64.021
4787	4.4427	1.0909	0.1	-107.34
4788	4.2582	1.0909	0.1	-166.16
4789	4.0737	1.0909	0.1	-248.05
4790	3.8892	1.0909	0.1	-365.18
4791	3.7047	1.0909	0.1	-535.87
4792	3.5202	1.0909	0.1	-783.97
4793	3.3357	1.0909	0.1	-1142.3
4794	3.1512	1.0909	0.1	-1748.1
4795	23.815	1.2727	0.1	-133.07
4796	23.631	1.2727	0.1	-122.92
4797	23.446	1.2727	0.1	-113.57
4798	23.262	1.2727	0.1	-105.12
4799	23.077	1.2727	0.1	-97.491
4800	22.893	1.2727	0.1	-90.625
4801	22.708	1.2727	0.1	-84.443
4802	22.524	1.2727	0.1	-78.866
4803	22.339	1.2727	0.1	-73.818
4804	22.155	1.2727	0.1	-69.232
4805	21.97	1.2727	0.1	-65.051
4806	21.786	1.2727	0.1	-61.226
4807	21.601	1.2727	0.1	-57.716
4808	21.417	1.2727	0.1	-54.485
4809	21.232	1.2727	0.1	-51.504
4810	21.048	1.2727	0.1	-48.748
4811	20.863	1.2727	0.1	-46.196
4812	20.679	1.2727	0.1	-43.829
4813	20.494	1.2727	0.1	-41.63
4814	20.31	1.2727	0.1	-39.586
4815	20.125	1.2727	0.1	-37.683
4816	19.941	1.2727	0.1	-35.911
4817	19.756	1.2727	0.1	-34.257
4818	19.572	1.2727	0.1	-32.714
4819	19.387	1.2727	0.1	-31.273
4820	19.203	1.2727	0.1	-29.925
4821	19.018	1.2727	0.1	-28.663
4822	18.834	1.2727	0.1	-27.48
4823	18.649	1.2727	0.1	-26.37
4824	18.465	1.2727	0.1	-25.327
4825	18.28	1.2727	0.1	-24.346
4826	18.096	1.2727	0.1	-23.42
4827	17.911	1.2727	0.1	-22.546
4828	17.727	1.2727	0.1	-21.719
4829	17.542	1.2727	0.1	-20.933
4830	17.358	1.2727	0.1	-20.186
4831	17.173	1.2727	0.1	-19.472
4832	16.989	1.2727	0.1	-18.789
4833	16.804	1.2727	0.1	-18.132
4834	16.62	1.2727	0.1	-17.498
4835	16.435	1.2727	0.1	-16.883
4836	16.251	1.2727	0.1	-16.284
4837	16.066	1.2727	0.1	-15.699
4838	15.882	1.2727	0.1	-15.123
4839	15.697	1.2727	0.1	-14.553
4840	15.513	1.2727	0.1	-13.987
4841	15.328	1.2727	0.1	-13.422
4842	15.144	1.2727	0.1	-12.853
4843	14.959	1.2727	0.1	-12.278
4844	14.775	1.2727	0.1	-11.694
4845	14.59	1.2727	0.1	-11.097
4846	14.406	1.2727	0.1	-10.484
4847	14.221	1.2727	0.1	-9.8513
4848	14.037	1.2727	0.1	-9.1957
4849	13.852	1.2727	0.1	-8.5131
4850	13.668	1.2727	0.1	-7.7996
4851	13.483	1.2727	0.1	-7.0511
4852	13.299	1.2727	0.1	-6.2633
4853	13.114	1.2727	0.1	-5.4317
4854	12.93	1.2727	0.1	-4.5516
4855	12.745	1.2727	0.1	-3.618
4856	12.561	1.2727	0.1	-2.6263
4857	12.376	1.2727	0.1	-1.5727
4858	12.192	1.2727	0.1	-0.47242
4859	12.007	1.2727	0.1	-2.7006e-002
4860	11.823	1.2727	0.1	-1.2096e-002
4861	11.638	1.2727	0.1	-8.4052e-003
4862	11.454	1.2727	0.1	-6.784e-003
4863	11.269	1.2727	0.1	-5.9046e-003
4864	11.085	1.2727	0.1	-5.4001e-003
4865	10.9	1.2727	0.1	-5.0957e-003
4866	10.716	1.2727	0.1	-4.8941e-003
4867	10.531	1.2727	0.1	-4.8276e-003
4868	10.347	1.2727	0.1	-4.8546e-003
4869	10.162	1.2727	0.1	-4.9407e-003
4870	9.9778	1.2727	0.1	-5.1066e-003
4871	9.7933	1.2727	0.1	-5.3461e-003
4872	9.6088	1.2727	0.1	-5.6731e-003
4873	9.4243	1.2727	0.1	-6.1006e-003
4874	9.2398	1.2727	0.1	-6.6442e-003
4875	9.0553	1.2727	0.1	-7.3299e-003
4876	8.8708	1.2727	0.1	-8.188e-003
4877	8.6863	1.2727	0.1	-9.2597e-003
4878	8.5018	1.2727	0.1	-1.0598e-002
4879	8.3173	1.2727	0.1	-1.2271e-002
4880	8.1327	1.2727	0.1	-1.4378e-002
4881	7.9482	1.2727	0.1	-1.7039e-002
4882	7.7637	1.2727	0.1	-2.0416e-002
4883	7.5792	1.2727	0.1	-2.473e-002
4884	7.3947	1.2727	0.1	-3.0289e-002
4885	7.2102	1.2727	0.1	-3.7516e-002
4886	7.0257	1.2727	0.1	-4.7011e-002
4887	6.8412	1.2727	0.1	-5.9636e-002
4888	6.6567	1.2727	0.1	-7.6657e-002
4889	6.4722	1.2727	0.1	-9.9966e-002
4890	6.2877	1.2727	0.1	-0.13246
4891	6.1032	1.2727	0.1	-0.17876
4892	5.9187	1.2727	0.1	-0.24648
4893	5.7342	1.2727	0.1	-0.34875
4894	5.5497	1.2727	0.1	-0.51001
4895	5.3652	1.2727	0.1	-0.78014
4896	5.1807	1.2727	0.1	-1.2772
4897	4.9962	1.2727	0.1	-2.3534
4898	4.8117	1.2727	0.1	-5.5563
4899	4.6272	1.2727	0.1	-20.008
4900	4.4427	1.2727	0.1	-60.006
4901	4.2582	1.2727	0.1	-125.31
4902	4.0737	1.2727	0.1	-224.34
4903	3.8892	1.2727	0.1	-375.23
4904	3.7047	1.2727	0.1	-605.84
4905	3.5202	1.2727	0.1	-952.38
4906	3.3357	1.2727	0.1	-1463.
4907	3.1512	1.2727	0.1	-2286.5
4908	23.815	1.4545	0.1	-142.63
4909	23.631	1.4545	0.1	-132.39
4910	23.446	1.4545	0.1	-122.79
4911	23.262	1.4545	0.1	-114.
4912	23.077	1.4545	0.1	-105.93
4913	22.893	1.4545	0.1	-98.566
4914	22.708	1.4545	0.1	-91.855
4915	22.524	1.4545	0.1	-85.737
4916	22.339	1.4545	0.1	-80.156
4917	22.155	1.4545	0.1	-75.055
4918	21.97	1.4545	0.1	-70.384
4919	21.786	1.4545	0.1	-66.097
4920	21.601	1.4545	0.1	-62.156
4921	21.417	1.4545	0.1	-58.525
4922	21.232	1.4545	0.1	-55.175
4923	21.048	1.4545	0.1	-52.079
4924	20.863	1.4545	0.1	-49.213
4925	20.679	1.4545	0.1	-46.559
4926	20.494	1.4545	0.1	-44.097
4927	20.31	1.4545	0.1	-41.811
4928	20.125	1.4545	0.1	-39.687
4929	19.941	1.4545	0.1	-37.712
4930	19.756	1.4545	0.1	-35.874
4931	19.572	1.4545	0.1	-34.162
4932	19.387	1.4545	0.1	-32.566
4933	19.203	1.4545	0.1	-31.076
4934	19.018	1.4545	0.1	-29.684
4935	18.834	1.4545	0.1	-28.383
4936	18.649	1.4545	0.1	-27.164
4937	18.465	1.4545	0.1	-26.022
4938	18.28	1.4545	0.1	-24.949
4939	18.096	1.4545	0.1	-23.939
4940	17.911	1.4545	0.1	-22.987
4941	17.727	1.4545	0.1	-22.088
4942	17.542	1.4545	0.1	-21.236
4943	17.358	1.4545	0.1	-20.426
4944	17.173	1.4545	0.1	-19.655
4945	16.989	1.4545	0.1	-18.918
4946	16.804	1.4545	0.1	-18.21
4947	16.62	1.4545	0.1	-17.527
4948	16.435	1.4545	0.1	-16.867
4949	16.251	1.4545	0.1	-16.224
4950	16.066	1.4545	0.1	-15.596
4951	15.882	1.4545	0.1	-14.978
4952	15.697	1.4545	0.1	-14.367
4953	15.513	1.4545	0.1	-13.761
4954	15.328	1.4545	0.1	-13.154
4955	15.144	1.4545	0.1	-12.544
4956	14.959	1.4545	0.1	-11.927
4957	14.775	1.4545	0.1	-11.299
4958	14.59	1.4545	0.1	-10.657
4959	14.406	1.4545	0.1	-9.9977
4960	14.221	1.4545	0.1	-9.3161
4961	14.037	1.4545	0.1	-8.6087
4962	13.852	1.4545	0.1	-7.8712
4963	13.668	1.4545	0.1	-7.0993
4964	13.483	1.4545	0.1	-6.2883
4965	13.299	1.4545	0.1	-5.4335
4966	13.114	1.4545	0.1	-4.5299
4967	12.93	1.4545	0.1	-3.5723
4968	12.745	1.4545	0.1	-2.5555
4969	12.561	1.4545	0.1	-1.4759
4970	12.376	1.4545	0.1	-0.35788
4971	12.192	1.4545	0.1	-2.2572e-002
4972	12.007	1.4545	0.1	-1.1383e-002
4973	11.823	1.4545	0.1	-8.2593e-003
4974	11.638	1.4545	0.1	-6.8077e-003
4975	11.454	1.4545	0.1	-5.9796e-003
4976	11.269	1.4545	0.1	-5.4543e-003
4977	11.085	1.4545	0.1	-5.1199e-003
4978	10.9	1.4545	0.1	-4.8939e-003
4979	10.716	1.4545	0.1	-4.7151e-003
4980	10.531	1.4545	0.1	-4.6391e-003
4981	10.347	1.4545	0.1	-4.6282e-003
4982	10.162	1.4545	0.1	-4.66e-003
4983	9.9778	1.4545	0.1	-4.7535e-003
4984	9.7933	1.4545	0.1	-4.9052e-003
4985	9.6088	1.4545	0.1	-5.1287e-003
4986	9.4243	1.4545	0.1	-5.4382e-003
4987	9.2398	1.4545	0.1	-5.8494e-003
4988	9.0553	1.4545	0.1	-6.3833e-003
4989	8.8708	1.4545	0.1	-7.0718e-003
4990	8.6863	1.4545	0.1	-7.9535e-003
4991	8.5018	1.4545	0.1	-9.0774e-003
4992	8.3173	1.4545	0.1	-1.0509e-002
4993	8.1327	1.4545	0.1	-1.2341e-002
4994	7.9482	1.4545	0.1	-1.4687e-002
4995	7.7637	1.4545	0.1	-1.7695e-002
4996	7.5792	1.4545	0.1	-2.157e-002
4997	7.3947	1.4545	0.1	-2.6591e-002
4998	7.2102	1.4545	0.1	-3.3134e-002
4999	7.0257	1.4545	0.1	-4.1719e-002
5000	6.8412	1.4545	0.1	-5.307e-002
5001	6.6567	1.4545	0.1	-6.8215e-002
5002	6.4722	1.4545	0.1	-8.8619e-002
5003	6.2877	1.4545	0.1	-0.11641
5004	6.1032	1.4545	0.1	-0.15476
5005	5.9187	1.4545	0.1	-0.20851
5006	5.7342	1.4545	0.1	-0.28522
5007	5.5497	1.4545	0.1	-0.39734
5008	5.3652	1.4545	0.1	-0.56647
5009	5.1807	1.4545	0.1	-0.83369
5010	4.9962	1.4545	0.1	-1.2873
5011	4.8117	1.4545	0.1	-2.1589
5012	4.6272	1.4545	0.1	-4.2889
5013	4.4427	1.4545	0.1	-13.153
5014	4.2582	1.4545	0.1	-60.291
5015	4.0737	1.4545	0.1	-163.4
5016	3.8892	1.4545	0.1	-334.21
5017	3.7047	1.4545	0.1	-612.03
5018	3.5202	1.4545	0.1	-1060.2
5019	3.3357	1.4545	0.1	-1761.6
5020	3.1512	1.4545	0.1	-2943.6
5021	23.815	1.6364	0.1	-150.86
5022	23.631	1.6364	0.1	-140.56
5023	23.446	1.6364	0.1	-130.79
5024	23.262	1.6364	0.1	-121.74
5025	23.077	1.6364	0.1	-113.35
5026	22.893	1.6364	0.1	-105.61
5027	22.708	1.6364	0.1	-98.479
5028	22.524	1.6364	0.1	-91.924
5029	22.339	1.6364	0.1	-85.9
5030	22.155	1.6364	0.1	-80.363
5031	21.97	1.6364	0.1	-75.269
5032	21.786	1.6364	0.1	-70.579
5033	21.601	1.6364	0.1	-66.257
5034	21.417	1.6364	0.1	-62.268
5035	21.232	1.6364	0.1	-58.585
5036	21.048	1.6364	0.1	-55.179
5037	20.863	1.6364	0.1	-52.028
5038	20.679	1.6364	0.1	-49.109
5039	20.494	1.6364	0.1	-46.404
5040	20.31	1.6364	0.1	-43.896
5041	20.125	1.6364	0.1	-41.567
5042	19.941	1.6364	0.1	-39.405
5043	19.756	1.6364	0.1	-37.395
5044	19.572	1.6364	0.1	-35.525
5045	19.387	1.6364	0.1	-33.785
5046	19.203	1.6364	0.1	-32.163
5047	19.018	1.6364	0.1	-30.651
5048	18.834	1.6364	0.1	-29.239
5049	18.649	1.6364	0.1	-27.919
5050	18.465	1.6364	0.1	-26.683
5051	18.28	1.6364	0.1	-25.524
5052	18.096	1.6364	0.1	-24.436
5053	17.911	1.6364	0.1	-23.412
5054	17.727	1.6364	0.1	-22.446
5055	17.542	1.6364	0.1	-21.532
5056	17.358	1.6364	0.1	-20.665
5057	17.173	1.6364	0.1	-19.84
5058	16.989	1.6364	0.1	-19.052
5059	16.804	1.6364	0.1	-18.297
5060	16.62	1.6364	0.1	-17.569
5061	16.435	1.6364	0.1	-16.866
5062	16.251	1.6364	0.1	-16.182
5063	16.066	1.6364	0.1	-15.514
5064	15.882	1.6364	0.1	-14.858
5065	15.697	1.6364	0.1	-14.209
5066	15.513	1.6364	0.1	-13.564
5067	15.328	1.6364	0.1	-12.92
5068	15.144	1.6364	0.1	-12.272
5069	14.959	1.6364	0.1	-11.616
5070	14.775	1.6364	0.1	-10.948
5071	14.59	1.6364	0.1	-10.266
5072	14.406	1.6364	0.1	-9.5629
5073	14.221	1.6364	0.1	-8.8363
5074	14.037	1.6364	0.1	-8.0814
5075	13.852	1.6364	0.1	-7.2935
5076	13.668	1.6364	0.1	-6.468
5077	13.483	1.6364	0.1	-5.5997
5078	13.299	1.6364	0.1	-4.6836
5079	13.114	1.6364	0.1	-3.714
5080	12.93	1.6364	0.1	-2.6856
5081	12.745	1.6364	0.1	-1.5938
5082	12.561	1.6364	0.1	-0.45125
5083	12.376	1.6364	0.1	-2.273e-002
5084	12.192	1.6364	0.1	-1.1216e-002
5085	12.007	1.6364	0.1	-8.2419e-003
5086	11.823	1.6364	0.1	-6.8646e-003
5087	11.638	1.6364	0.1	-6.0648e-003
5088	11.454	1.6364	0.1	-5.5419e-003
5089	11.269	1.6364	0.1	-5.1688e-003
5090	11.085	1.6364	0.1	-4.9117e-003
5091	10.9	1.6364	0.1	-4.714e-003
5092	10.716	1.6364	0.1	-4.5352e-003
5093	10.531	1.6364	0.1	-4.4346e-003
5094	10.347	1.6364	0.1	-4.3837e-003
5095	10.162	1.6364	0.1	-4.3573e-003
5096	9.9778	1.6364	0.1	-4.3784e-003
5097	9.7933	1.6364	0.1	-4.4434e-003
5098	9.6088	1.6364	0.1	-4.5655e-003
5099	9.4243	1.6364	0.1	-4.7567e-003
5100	9.2398	1.6364	0.1	-5.0299e-003
5101	9.0553	1.6364	0.1	-5.4083e-003
5102	8.8708	1.6364	0.1	-5.9163e-003
5103	8.6863	1.6364	0.1	-6.5903e-003
5104	8.5018	1.6364	0.1	-7.4749e-003
5105	8.3173	1.6364	0.1	-8.6288e-003
5106	8.1327	1.6364	0.1	-1.0136e-002
5107	7.9482	1.6364	0.1	-1.2099e-002
5108	7.7637	1.6364	0.1	-1.4651e-002
5109	7.5792	1.6364	0.1	-1.7975e-002
5110	7.3947	1.6364	0.1	-2.2314e-002
5111	7.2102	1.6364	0.1	-2.7998e-002
5112	7.0257	1.6364	0.1	-3.5469e-002
5113	6.8412	1.6364	0.1	-4.5334e-002
5114	6.6567	1.6364	0.1	-5.843e-002
5115	6.4722	1.6364	0.1	-7.5914e-002
5116	6.2877	1.6364	0.1	-9.9398e-002
5117	6.1032	1.6364	0.1	-0.1312
5118	5.9187	1.6364	0.1	-0.17466
5119	5.7342	1.6364	0.1	-0.23468
5120	5.5497	1.6364	0.1	-0.31879
5121	5.3652	1.6364	0.1	-0.43889
5122	5.1807	1.6364	0.1	-0.61522
5123	4.9962	1.6364	0.1	-0.88494
5124	4.8117	1.6364	0.1	-1.3268
5125	4.6272	1.6364	0.1	-2.1359
5126	4.4427	1.6364	0.1	-3.9977
5127	4.2582	1.6364	0.1	-11.097
5128	4.0737	1.6364	0.1	-67.911
5129	3.8892	1.6364	0.1	-229.37
5130	3.7047	1.6364	0.1	-518.71
5131	3.5202	1.6364	0.1	-1020.1
5132	3.3357	1.6364	0.1	-1949.6
5133	3.1512	1.6364	0.1	-3873.1
5134	23.815	1.8182	0.1	-157.88
5135	23.631	1.8182	0.1	-147.54
5136	23.446	1.8182	0.1	-137.65
5137	23.262	1.8182	0.1	-128.41
5138	23.077	1.8182	0.1	-119.78
5139	22.893	1.8182	0.1	-111.74
5140	22.708	1.8182	0.1	-104.28
5141	22.524	1.8182	0.1	-97.38
5142	22.339	1.8182	0.1	-90.994
5143	22.155	1.8182	0.1	-85.094
5144	21.97	1.8182	0.1	-79.644
5145	21.786	1.8182	0.1	-74.608
5146	21.601	1.8182	0.1	-69.956
5147	21.417	1.8182	0.1	-65.654
5148	21.232	1.8182	0.1	-61.677
5149	21.048	1.8182	0.1	-57.997
5150	20.863	1.8182	0.1	-54.59
5151	20.679	1.8182	0.1	-51.435
5152	20.494	1.8182	0.1	-48.512
5153	20.31	1.8182	0.1	-45.802
5154	20.125	1.8182	0.1	-43.289
5155	19.941	1.8182	0.1	-40.956
5156	19.756	1.8182	0.1	-38.79
5157	19.572	1.8182	0.1	-36.778
5158	19.387	1.8182	0.1	-34.906
5159	19.203	1.8182	0.1	-33.164
5160	19.018	1.8182	0.1	-31.542
5161	18.834	1.8182	0.1	-30.029
5162	18.649	1.8182	0.1	-28.617
5163	18.465	1.8182	0.1	-27.296
5164	18.28	1.8182	0.1	-26.06
5165	18.096	1.8182	0.1	-24.9
5166	17.911	1.8182	0.1	-23.809
5167	17.727	1.8182	0.1	-22.782
5168	17.542	1.8182	0.1	-21.812
5169	17.358	1.8182	0.1	-20.892
5170	17.173	1.8182	0.1	-20.018
5171	16.989	1.8182	0.1	-19.185
5172	16.804	1.8182	0.1	-18.386
5173	16.62	1.8182	0.1	-17.618
5174	16.435	1.8182	0.1	-16.876
5175	16.251	1.8182	0.1	-16.155
5176	16.066	1.8182	0.1	-15.451
5177	15.882	1.8182	0.1	-14.759
5178	15.697	1.8182	0.1	-14.076
5179	15.513	1.8182	0.1	-13.397
5180	15.328	1.8182	0.1	-12.719
5181	15.144	1.8182	0.1	-12.036
5182	14.959	1.8182	0.1	-11.345
5183	14.775	1.8182	0.1	-10.642
5184	14.59	1.8182	0.1	-9.9216
5185	14.406	1.8182	0.1	-9.1803
5186	14.221	1.8182	0.1	-8.4131
5187	14.037	1.8182	0.1	-7.6155
5188	13.852	1.8182	0.1	-6.7824
5189	13.668	1.8182	0.1	-5.9087
5190	13.483	1.8182	0.1	-4.989
5191	13.299	1.8182	0.1	-4.0176
5192	13.114	1.8182	0.1	-2.9889
5193	12.93	1.8182	0.1	-1.8972
5194	12.745	1.8182	0.1	-0.74279
5195	12.561	1.8182	0.1	-2.8646e-002
5196	12.376	1.8182	0.1	-1.1483e-002
5197	12.192	1.8182	0.1	-8.303e-003
5198	12.007	1.8182	0.1	-6.9425e-003
5199	11.823	1.8182	0.1	-6.1605e-003
5200	11.638	1.8182	0.1	-5.6418e-003
5201	11.454	1.8182	0.1	-5.2639e-003
5202	11.269	1.8182	0.1	-4.9682e-003
5203	11.085	1.8182	0.1	-4.7446e-003
5204	10.9	1.8182	0.1	-4.5545e-003
5205	10.716	1.8182	0.1	-4.3626e-003
5206	10.531	1.8182	0.1	-4.233e-003
5207	10.347	1.8182	0.1	-4.1383e-003
5208	10.162	1.8182	0.1	-4.0558e-003
5209	9.9778	1.8182	0.1	-4.0072e-003
5210	9.7933	1.8182	0.1	-3.9871e-003
5211	9.6088	1.8182	0.1	-4.0101e-003
5212	9.4243	1.8182	0.1	-4.0842e-003
5213	9.2398	1.8182	0.1	-4.2222e-003
5214	9.0553	1.8182	0.1	-4.4413e-003
5215	8.8708	1.8182	0.1	-4.7649e-003
5216	8.6863	1.8182	0.1	-5.2229e-003
5217	8.5018	1.8182	0.1	-5.8543e-003
5218	8.3173	1.8182	0.1	-6.7096e-003
5219	8.1327	1.8182	0.1	-7.8629e-003
5220	7.9482	1.8182	0.1	-9.4032e-003
5221	7.7637	1.8182	0.1	-1.1445e-002
5222	7.5792	1.8182	0.1	-1.4146e-002
5223	7.3947	1.8182	0.1	-1.7719e-002
5224	7.2102	1.8182	0.1	-2.244e-002
5225	7.0257	1.8182	0.1	-2.8686e-002
5226	6.8412	1.8182	0.1	-3.6959e-002
5227	6.6567	1.8182	0.1	-4.7944e-002
5228	6.4722	1.8182	0.1	-6.2563e-002
5229	6.2877	1.8182	0.1	-8.2072e-002
5230	6.1032	1.8182	0.1	-0.10822
5231	5.9187	1.8182	0.1	-0.14344
5232	5.7342	1.8182	0.1	-0.19116
5233	5.5497	1.8182	0.1	-0.25635
5234	5.3652	1.8182	0.1	-0.34641
5235	5.1807	1.8182	0.1	-0.47301
5236	4.9962	1.8182	0.1	-0.65535
5237	4.8117	1.8182	0.1	-0.93006
5238	4.6272	1.8182	0.1	-1.3684
5239	4.4427	1.8182	0.1	-2.1698
5240	4.2582	1.8182	0.1	-3.9185
5241	4.0737	1.8182	0.1	-10.547
5242	3.8892	1.8182	0.1	-77.878
5243	3.7047	1.8182	0.1	-315.4
5244	3.5202	1.8182	0.1	-762.26
5245	3.3357	1.8182	0.1	-1789.5
5246	3.1512	1.8182	0.1	-4363.
5247	23.815	2.	0.1	-163.76
5248	23.631	2.	0.1	-153.4
5249	23.446	2.	0.1	-143.42
5250	23.262	2.	0.1	-134.05
5251	23.077	2.	0.1	-125.23
5252	22.893	2.	0.1	-116.97
5253	22.708	2.	0.1	-109.26
5254	22.524	2.	0.1	-102.07
5255	22.339	2.	0.1	-95.4
5256	22.155	2.	0.1	-89.204
5257	21.97	2.	0.1	-83.458
5258	21.786	2.	0.1	-78.134
5259	21.601	2.	0.1	-73.202
5260	21.417	2.	0.1	-68.635
5261	21.232	2.	0.1	-64.405
5262	21.048	2.	0.1	-60.487
5263	20.863	2.	0.1	-56.859
5264	20.679	2.	0.1	-53.498
5265	20.494	2.	0.1	-50.384
5266	20.31	2.	0.1	-47.497
5267	20.125	2.	0.1	-44.821
5268	19.941	2.	0.1	-42.338
5269	19.756	2.	0.1	-40.034
5270	19.572	2.	0.1	-37.895
5271	19.387	2.	0.1	-35.908
5272	19.203	2.	0.1	-34.06
5273	19.018	2.	0.1	-32.34
5274	18.834	2.	0.1	-30.738
5275	18.649	2.	0.1	-29.243
5276	18.465	2.	0.1	-27.848
5277	18.28	2.	0.1	-26.542
5278	18.096	2.	0.1	-25.318
5279	17.911	2.	0.1	-24.169
5280	17.727	2.	0.1	-23.088
5281	17.542	2.	0.1	-22.067
5282	17.358	2.	0.1	-21.101
5283	17.173	2.	0.1	-20.184
5284	16.989	2.	0.1	-19.31
5285	16.804	2.	0.1	-18.473
5286	16.62	2.	0.1	-17.669
5287	16.435	2.	0.1	-16.892
5288	16.251	2.	0.1	-16.138
5289	16.066	2.	0.1	-15.402
5290	15.882	2.	0.1	-14.68
5291	15.697	2.	0.1	-13.966
5292	15.513	2.	0.1	-13.257
5293	15.328	2.	0.1	-12.549
5294	15.144	2.	0.1	-11.836
5295	14.959	2.	0.1	-11.114
5296	14.775	2.	0.1	-10.379
5297	14.59	2.	0.1	-9.626
5298	14.406	2.	0.1	-8.8507
5299	14.221	2.	0.1	-8.0479
5300	14.037	2.	0.1	-7.2128
5301	13.852	2.	0.1	-6.34
5302	13.668	2.	0.1	-5.424
5303	13.483	2.	0.1	-4.4591
5304	13.299	2.	0.1	-3.4394
5305	13.114	2.	0.1	-2.3587
5306	12.93	2.	0.1	-1.2123
5307	12.745	2.	0.1	-9.2915e-002
5308	12.561	2.	0.1	-1.2419e-002
5309	12.376	2.	0.1	-8.4564e-003
5310	12.192	2.	0.1	-7.0239e-003
5311	12.007	2.	0.1	-6.2565e-003
5312	11.823	2.	0.1	-5.7466e-003
5313	11.638	2.	0.1	-5.3704e-003
5314	11.454	2.	0.1	-5.0696e-003
5315	11.269	2.	0.1	-4.8127e-003
5316	11.085	2.	0.1	-4.6038e-003
5317	10.9	2.	0.1	-4.4097e-003
5318	10.716	2.	0.1	-4.1995e-003
5319	10.531	2.	0.1	-4.0398e-003
5320	10.347	2.	0.1	-3.902e-003
5321	10.162	2.	0.1	-3.7643e-003
5322	9.9778	2.	0.1	-3.6488e-003
5323	9.7933	2.	0.1	-3.55e-003
5324	9.6088	2.	0.1	-3.4777e-003
5325	9.4243	2.	0.1	-3.4404e-003
5326	9.2398	2.	0.1	-3.4471e-003
5327	9.0553	2.	0.1	-3.5125e-003
5328	8.8708	2.	0.1	-3.6541e-003
5329	8.6863	2.	0.1	-3.8979e-003
5330	8.5018	2.	0.1	-4.2753e-003
5331	8.3173	2.	0.1	-4.8283e-003
5332	8.1327	2.	0.1	-5.6194e-003
5333	7.9482	2.	0.1	-6.7246e-003
5334	7.7637	2.	0.1	-8.2387e-003
5335	7.5792	2.	0.1	-1.0296e-002
5336	7.3947	2.	0.1	-1.3073e-002
5337	7.2102	2.	0.1	-1.6805e-002
5338	7.0257	2.	0.1	-2.1803e-002
5339	6.8412	2.	0.1	-2.8484e-002
5340	6.6567	2.	0.1	-3.7409e-002
5341	6.4722	2.	0.1	-4.9323e-002
5342	6.2877	2.	0.1	-6.5222e-002
5343	6.1032	2.	0.1	-8.647e-002
5344	5.9187	2.	0.1	-0.11491
5345	5.7342	2.	0.1	-0.15307
5346	5.5497	2.	0.1	-0.20443
5347	5.3652	2.	0.1	-0.27393
5348	5.1807	2.	0.1	-0.3689
5349	4.9962	2.	0.1	-0.50003
5350	4.8117	2.	0.1	-0.68727
5351	4.6272	2.	0.1	-0.95736
5352	4.4427	2.	0.1	-1.4051
5353	4.2582	2.	0.1	-2.0965
5354	4.0737	2.	0.1	-3.9824
5355	3.8892	2.	0.1	-8.4321
5356	3.7047	2.	0.1	-77.541
5357	3.5202	2.	0.1	-373.54
5358	3.3357	2.	0.1	-987.81
5359	3.1512	2.	0.1	-2826.
5360	23.815	2.1818	0.1	-168.59
5361	23.631	2.1818	0.1	-158.21
5362	23.446	2.1818	0.1	-148.16
5363	23.262	2.1818	0.1	-138.69
5364	23.077	2.1818	0.1	-129.73
5365	22.893	2.1818	0.1	-121.3
5366	22.708	2.1818	0.1	-113.39
5367	22.524	2.1818	0.1	-106.
5368	22.339	2.1818	0.1	-99.092
5369	22.155	2.1818	0.1	-92.661
5370	21.97	2.1818	0.1	-86.678
5371	21.786	2.1818	0.1	-81.119
5372	21.601	2.1818	0.1	-75.959
5373	21.417	2.1818	0.1	-71.171
5374	21.232	2.1818	0.1	-66.731
5375	21.048	2.1818	0.1	-62.615
5376	20.863	2.1818	0.1	-58.8
5377	20.679	2.1818	0.1	-55.265
5378	20.494	2.1818	0.1	-51.989
5379	20.31	2.1818	0.1	-48.952
5380	20.125	2.1818	0.1	-46.137
5381	19.941	2.1818	0.1	-43.527
5382	19.756	2.1818	0.1	-41.106
5383	19.572	2.1818	0.1	-38.859
5384	19.387	2.1818	0.1	-36.772
5385	19.203	2.1818	0.1	-34.833
5386	19.018	2.1818	0.1	-33.029
5387	18.834	2.1818	0.1	-31.351
5388	18.649	2.1818	0.1	-29.786
5389	18.465	2.1818	0.1	-28.326
5390	18.28	2.1818	0.1	-26.961
5391	18.096	2.1818	0.1	-25.683
5392	17.911	2.1818	0.1	-24.483
5393	17.727	2.1818	0.1	-23.356
5394	17.542	2.1818	0.1	-22.292
5395	17.358	2.1818	0.1	-21.286
5396	17.173	2.1818	0.1	-20.332
5397	16.989	2.1818	0.1	-19.423
5398	16.804	2.1818	0.1	-18.553
5399	16.62	2.1818	0.1	-17.718
5400	16.435	2.1818	0.1	-16.912
5401	16.251	2.1818	0.1	-16.13
5402	16.066	2.1818	0.1	-15.366
5403	15.882	2.1818	0.1	-14.617
5404	15.697	2.1818	0.1	-13.878
5405	15.513	2.1818	0.1	-13.143
5406	15.328	2.1818	0.1	-12.409
5407	15.144	2.1818	0.1	-11.67
5408	14.959	2.1818	0.1	-10.922
5409	14.775	2.1818	0.1	-10.16
5410	14.59	2.1818	0.1	-9.3791
5411	14.406	2.1818	0.1	-8.5749
5412	14.221	2.1818	0.1	-7.7419
5413	14.037	2.1818	0.1	-6.8748
5414	13.852	2.1818	0.1	-5.9682
5415	13.668	2.1818	0.1	-5.0163
5416	13.483	2.1818	0.1	-4.013
5417	13.299	2.1818	0.1	-2.952
5418	13.114	2.1818	0.1	-1.8272
5419	12.93	2.1818	0.1	-0.6362
5420	12.745	2.1818	0.1	-1.6e-002
5421	12.561	2.1818	0.1	-8.7329e-003
5422	12.376	2.1818	0.1	-7.1182e-003
5423	12.192	2.1818	0.1	-6.3347e-003
5424	12.007	2.1818	0.1	-5.8464e-003
5425	11.823	2.1818	0.1	-5.4813e-003
5426	11.638	2.1818	0.1	-5.1847e-003
5427	11.454	2.1818	0.1	-4.9265e-003
5428	11.269	2.1818	0.1	-4.6898e-003
5429	11.085	2.1818	0.1	-4.4838e-003
5430	10.9	2.1818	0.1	-4.281e-003
5431	10.716	2.1818	0.1	-4.0509e-003
5432	10.531	2.1818	0.1	-3.8607e-003
5433	10.347	2.1818	0.1	-3.6834e-003
5434	10.162	2.1818	0.1	-3.4967e-003
5435	9.9778	2.1818	0.1	-3.3202e-003
5436	9.7933	2.1818	0.1	-3.1489e-003
5437	9.6088	2.1818	0.1	-2.99e-003
5438	9.4243	2.1818	0.1	-2.8511e-003
5439	9.2398	2.1818	0.1	-2.7365e-003
5440	9.0553	2.1818	0.1	-2.6582e-003
5441	8.8708	2.1818	0.1	-2.6307e-003
5442	8.6863	2.1818	0.1	-2.6729e-003
5443	8.5018	2.1818	0.1	-2.8095e-003
5444	8.3173	2.1818	0.1	-3.0746e-003
5445	8.1327	2.1818	0.1	-3.5198e-003
5446	7.9482	2.1818	0.1	-4.207e-003
5447	7.7637	2.1818	0.1	-5.213e-003
5448	7.5792	2.1818	0.1	-6.649e-003
5449	7.3947	2.1818	0.1	-8.6616e-003
5450	7.2102	2.1818	0.1	-1.1445e-002
5451	7.0257	2.1818	0.1	-1.5259e-002
5452	6.8412	2.1818	0.1	-2.0446e-002
5453	6.6567	2.1818	0.1	-2.7472e-002
5454	6.4722	2.1818	0.1	-3.6945e-002
5455	6.2877	2.1818	0.1	-4.9677e-002
5456	6.1032	2.1818	0.1	-6.6768e-002
5457	5.9187	2.1818	0.1	-8.9686e-002
5458	5.7342	2.1818	0.1	-0.12039
5459	5.5497	2.1818	0.1	-0.16151
5460	5.3652	2.1818	0.1	-0.21662
5461	5.1807	2.1818	0.1	-0.29071
5462	4.9962	2.1818	0.1	-0.39034
5463	4.8117	2.1818	0.1	-0.52712
5464	4.6272	2.1818	0.1	-0.71104
5465	4.4427	2.1818	0.1	-0.99434
5466	4.2582	2.1818	0.1	-1.3287
5467	4.0737	2.1818	0.1	-2.27
5468	3.8892	2.1818	0.1	-2.3342
5469	3.7047	2.1818	0.1	-10.312
5470	3.5202	2.1818	0.1	-58.951
5471	3.3357	2.1818	0.1	-419.14
5472	3.1512	2.1818	0.1	-1043.7
5473	23.815	2.3636	0.1	-172.4
5474	23.631	2.3636	0.1	-162.
5475	23.446	2.3636	0.1	-151.91
5476	23.262	2.3636	0.1	-142.36
5477	23.077	2.3636	0.1	-133.3
5478	22.893	2.3636	0.1	-124.75
5479	22.708	2.3636	0.1	-116.69
5480	22.524	2.3636	0.1	-109.13
5481	22.339	2.3636	0.1	-102.06
5482	22.155	2.3636	0.1	-95.445
5483	21.97	2.3636	0.1	-89.278
5484	21.786	2.3636	0.1	-83.536
5485	21.601	2.3636	0.1	-78.195
5486	21.417	2.3636	0.1	-73.232
5487	21.232	2.3636	0.1	-68.625
5488	21.048	2.3636	0.1	-64.35
5489	20.863	2.3636	0.1	-60.385
5490	20.679	2.3636	0.1	-56.71
5491	20.494	2.3636	0.1	-53.302
5492	20.31	2.3636	0.1	-50.144
5493	20.125	2.3636	0.1	-47.217
5494	19.941	2.3636	0.1	-44.502
5495	19.756	2.3636	0.1	-41.985
5496	19.572	2.3636	0.1	-39.65
5497	19.387	2.3636	0.1	-37.482
5498	19.203	2.3636	0.1	-35.469
5499	19.018	2.3636	0.1	-33.597
5500	18.834	2.3636	0.1	-31.856
5501	18.649	2.3636	0.1	-30.233
5502	18.465	2.3636	0.1	-28.72
5503	18.28	2.3636	0.1	-27.307
5504	18.096	2.3636	0.1	-25.984
5505	17.911	2.3636	0.1	-24.744
5506	17.727	2.3636	0.1	-23.578
5507	17.542	2.3636	0.1	-22.479
5508	17.358	2.3636	0.1	-21.441
5509	17.173	2.3636	0.1	-20.456
5510	16.989	2.3636	0.1	-19.518
5511	16.804	2.3636	0.1	-18.622
5512	16.62	2.3636	0.1	-17.761
5513	16.435	2.3636	0.1	-16.931
5514	16.251	2.3636	0.1	-16.126
5515	16.066	2.3636	0.1	-15.34
5516	15.882	2.3636	0.1	-14.57
5517	15.697	2.3636	0.1	-13.809
5518	15.513	2.3636	0.1	-13.053
5519	15.328	2.3636	0.1	-12.298
5520	15.144	2.3636	0.1	-11.538
5521	14.959	2.3636	0.1	-10.768
5522	14.775	2.3636	0.1	-9.9845
5523	14.59	2.3636	0.1	-9.1812
5524	14.406	2.3636	0.1	-8.3535
5525	14.221	2.3636	0.1	-7.4958
5526	14.037	2.3636	0.1	-6.6029
5527	13.852	2.3636	0.1	-5.6688
5528	13.668	2.3636	0.1	-4.6876
5529	13.483	2.3636	0.1	-3.653
5530	13.299	2.3636	0.1	-2.5585
5531	13.114	2.3636	0.1	-1.3975
5532	12.93	2.3636	0.1	-0.18244
5533	12.745	2.3636	0.1	-9.4223e-003
5534	12.561	2.3636	0.1	-7.2054e-003
5535	12.376	2.3636	0.1	-6.4055e-003
5536	12.192	2.3636	0.1	-5.9282e-003
5537	12.007	2.3636	0.1	-5.5883e-003
5538	11.823	2.3636	0.1	-5.305e-003
5539	11.638	2.3636	0.1	-5.054e-003
5540	11.454	2.3636	0.1	-4.8202e-003
5541	11.269	2.3636	0.1	-4.5931e-003
5542	11.085	2.3636	0.1	-4.3866e-003
5543	10.9	2.3636	0.1	-4.1725e-003
5544	10.716	2.3636	0.1	-3.9236e-003
5545	10.531	2.3636	0.1	-3.7063e-003
5546	10.347	2.3636	0.1	-3.4952e-003
5547	10.162	2.3636	0.1	-3.2654e-003
5548	9.9778	2.3636	0.1	-3.037e-003
5549	9.7933	2.3636	0.1	-2.8026e-003
5550	9.6088	2.3636	0.1	-2.5702e-003
5551	9.4243	2.3636	0.1	-2.342e-003
5552	9.2398	2.3636	0.1	-2.1226e-003
5553	9.0553	2.3636	0.1	-1.9193e-003
5554	8.8708	2.3636	0.1	-1.7431e-003
5555	8.6863	2.3636	0.1	-1.6074e-003
5556	8.5018	2.3636	0.1	-1.5321e-003
5557	8.3173	2.3636	0.1	-1.5416e-003
5558	8.1327	2.3636	0.1	-1.6784e-003
5559	7.9482	2.3636	0.1	-1.9928e-003
5560	7.7637	2.3636	0.1	-2.5453e-003
5561	7.5792	2.3636	0.1	-3.4258e-003
5562	7.3947	2.3636	0.1	-4.7569e-003
5563	7.2102	2.3636	0.1	-6.6982e-003
5564	7.0257	2.3636	0.1	-9.4657e-003
5565	6.8412	2.3636	0.1	-1.3346e-002
5566	6.6567	2.3636	0.1	-1.8729e-002
5567	6.4722	2.3636	0.1	-2.6128e-002
5568	6.2877	2.3636	0.1	-3.6223e-002
5569	6.1032	2.3636	0.1	-4.9948e-002
5570	5.9187	2.3636	0.1	-6.8537e-002
5571	5.7342	2.3636	0.1	-9.3637e-002
5572	5.5497	2.3636	0.1	-0.12745
5573	5.3652	2.3636	0.1	-0.1729
5574	5.1807	2.3636	0.1	-0.23389
5575	4.9962	2.3636	0.1	-0.31549
5576	4.8117	2.3636	0.1	-0.42494
5577	4.6272	2.3636	0.1	-0.57023
5578	4.4427	2.3636	0.1	-0.76956
5579	4.2582	2.3636	0.1	-1.0273
5580	4.0737	2.3636	0.1	-1.4239
5581	3.8892	2.3636	0.1	-1.9965
5582	3.7047	2.3636	0.1	-2.0864
5583	3.5202	2.3636	0.1	-9.2314
5584	3.3357	2.3636	0.1	-247.24
5585	3.1512	2.3636	0.1	-790.41
5586	23.815	2.5455	0.1	-175.22
5587	23.631	2.5455	0.1	-164.82
5588	23.446	2.5455	0.1	-154.7
5589	23.262	2.5455	0.1	-145.09
5590	23.077	2.5455	0.1	-135.96
5591	22.893	2.5455	0.1	-127.32
5592	22.708	2.5455	0.1	-119.16
5593	22.524	2.5455	0.1	-111.49
5594	22.339	2.5455	0.1	-104.29
5595	22.155	2.5455	0.1	-97.543
5596	21.97	2.5455	0.1	-91.241
5597	21.786	2.5455	0.1	-85.363
5598	21.601	2.5455	0.1	-79.889
5599	21.417	2.5455	0.1	-74.796
5600	21.232	2.5455	0.1	-70.064
5601	21.048	2.5455	0.1	-65.67
5602	20.863	2.5455	0.1	-61.593
5603	20.679	2.5455	0.1	-57.811
5604	20.494	2.5455	0.1	-54.305
5605	20.31	2.5455	0.1	-51.054
5606	20.125	2.5455	0.1	-48.041
5607	19.941	2.5455	0.1	-45.248
5608	19.756	2.5455	0.1	-42.658
5609	19.572	2.5455	0.1	-40.256
5610	19.387	2.5455	0.1	-38.026
5611	19.203	2.5455	0.1	-35.956
5612	19.018	2.5455	0.1	-34.032
5613	18.834	2.5455	0.1	-32.243
5614	18.649	2.5455	0.1	-30.577
5615	18.465	2.5455	0.1	-29.024
5616	18.28	2.5455	0.1	-27.573
5617	18.096	2.5455	0.1	-26.216
5618	17.911	2.5455	0.1	-24.944
5619	17.727	2.5455	0.1	-23.75
5620	17.542	2.5455	0.1	-22.624
5621	17.358	2.5455	0.1	-21.561
5622	17.173	2.5455	0.1	-20.552
5623	16.989	2.5455	0.1	-19.593
5624	16.804	2.5455	0.1	-18.676
5625	16.62	2.5455	0.1	-17.797
5626	16.435	2.5455	0.1	-16.948
5627	16.251	2.5455	0.1	-16.125
5628	16.066	2.5455	0.1	-15.323
5629	15.882	2.5455	0.1	-14.535
5630	15.697	2.5455	0.1	-13.758
5631	15.513	2.5455	0.1	-12.987
5632	15.328	2.5455	0.1	-12.215
5633	15.144	2.5455	0.1	-11.439
5634	14.959	2.5455	0.1	-10.654
5635	14.775	2.5455	0.1	-9.853
5636	14.59	2.5455	0.1	-9.0326
5637	14.406	2.5455	0.1	-8.187
5638	14.221	2.5455	0.1	-7.3106
5639	14.037	2.5455	0.1	-6.3979
5640	13.852	2.5455	0.1	-5.443
5641	13.668	2.5455	0.1	-4.4396
5642	13.483	2.5455	0.1	-3.3812
5643	13.299	2.5455	0.1	-2.261
5644	13.114	2.5455	0.1	-1.0724
5645	12.93	2.5455	0.1	-1.6983e-002
5646	12.745	2.5455	0.1	-7.3068e-003
5647	12.561	2.5455	0.1	-6.4391e-003
5648	12.376	2.5455	0.1	-6.0005e-003
5649	12.192	2.5455	0.1	-5.6812e-003
5650	12.007	2.5455	0.1	-5.4256e-003
5651	11.823	2.5455	0.1	-5.1896e-003
5652	11.638	2.5455	0.1	-4.9654e-003
5653	11.454	2.5455	0.1	-4.7457e-003
5654	11.269	2.5455	0.1	-4.5214e-003
5655	11.085	2.5455	0.1	-4.3118e-003
5656	10.9	2.5455	0.1	-4.088e-003
5657	10.716	2.5455	0.1	-3.8228e-003
5658	10.531	2.5455	0.1	-3.5853e-003
5659	10.347	2.5455	0.1	-3.3457e-003
5660	10.162	2.5455	0.1	-3.0819e-003
5661	9.9778	2.5455	0.1	-2.8124e-003
5662	9.7933	2.5455	0.1	-2.5296e-003
5663	9.6088	2.5455	0.1	-2.2362e-003
5664	9.4243	2.5455	0.1	-1.9384e-003
5665	9.2398	2.5455	0.1	-1.6347e-003
5666	9.0553	2.5455	0.1	-1.3312e-003
5667	8.8708	2.5455	0.1	-1.0354e-003
5668	8.6863	2.5455	0.1	-7.5676e-004
5669	8.5018	2.5455	0.1	-5.0882e-004
5670	8.3173	2.5455	0.1	-3.122e-004
5671	8.1327	2.5455	0.1	-1.9919e-004
5672	7.9482	2.5455	0.1	-2.0965e-004
5673	7.7637	2.5455	0.1	-3.9268e-004
5674	7.5792	2.5455	0.1	-8.2202e-004
5675	7.3947	2.5455	0.1	-1.5993e-003
5676	7.2102	2.5455	0.1	-2.8584e-003
5677	7.0257	2.5455	0.1	-4.7822e-003
5678	6.8412	2.5455	0.1	-7.615e-003
5679	6.6567	2.5455	0.1	-1.1695e-002
5680	6.4722	2.5455	0.1	-1.7468e-002
5681	6.2877	2.5455	0.1	-2.5532e-002
5682	6.1032	2.5455	0.1	-3.672e-002
5683	5.9187	2.5455	0.1	-5.2147e-002
5684	5.7342	2.5455	0.1	-7.3317e-002
5685	5.5497	2.5455	0.1	-0.10228
5686	5.3652	2.5455	0.1	-0.14178
5687	5.1807	2.5455	0.1	-0.19552
5688	4.9962	2.5455	0.1	-0.26841
5689	4.8117	2.5455	0.1	-0.36682
5690	4.6272	2.5455	0.1	-0.49909
5691	4.4427	2.5455	0.1	-0.67427
5692	4.2582	2.5455	0.1	-0.91149
5693	4.0737	2.5455	0.1	-1.19
5694	3.8892	2.5455	0.1	-1.6671
5695	3.7047	2.5455	0.1	-2.1177
5696	3.5202	2.5455	0.1	-2.9596
5697	3.3357	2.5455	0.1	-227.34
5698	3.1512	2.5455	0.1	-593.78
5699	23.815	2.7273	0.1	-177.1
5700	23.631	2.7273	0.1	-166.69
5701	23.446	2.7273	0.1	-156.54
5702	23.262	2.7273	0.1	-146.91
5703	23.077	2.7273	0.1	-137.73
5704	22.893	2.7273	0.1	-129.03
5705	22.708	2.7273	0.1	-120.81
5706	22.524	2.7273	0.1	-113.06
5707	22.339	2.7273	0.1	-105.77
5708	22.155	2.7273	0.1	-98.945
5709	21.97	2.7273	0.1	-92.555
5710	21.786	2.7273	0.1	-86.589
5711	21.601	2.7273	0.1	-81.026
5712	21.417	2.7273	0.1	-75.848
5713	21.232	2.7273	0.1	-71.032
5714	21.048	2.7273	0.1	-66.559
5715	20.863	2.7273	0.1	-62.406
5716	20.679	2.7273	0.1	-58.554
5717	20.494	2.7273	0.1	-54.981
5718	20.31	2.7273	0.1	-51.669
5719	20.125	2.7273	0.1	-48.598
5720	19.941	2.7273	0.1	-45.752
5721	19.756	2.7273	0.1	-43.113
5722	19.572	2.7273	0.1	-40.665
5723	19.387	2.7273	0.1	-38.394
5724	19.203	2.7273	0.1	-36.286
5725	19.018	2.7273	0.1	-34.327
5726	18.834	2.7273	0.1	-32.505
5727	18.649	2.7273	0.1	-30.81
5728	18.465	2.7273	0.1	-29.229
5729	18.28	2.7273	0.1	-27.754
5730	18.096	2.7273	0.1	-26.374
5731	17.911	2.7273	0.1	-25.081
5732	17.727	2.7273	0.1	-23.866
5733	17.542	2.7273	0.1	-22.723
5734	17.358	2.7273	0.1	-21.642
5735	17.173	2.7273	0.1	-20.618
5736	16.989	2.7273	0.1	-19.644
5737	16.804	2.7273	0.1	-18.714
5738	16.62	2.7273	0.1	-17.821
5739	16.435	2.7273	0.1	-16.96
5740	16.251	2.7273	0.1	-16.125
5741	16.066	2.7273	0.1	-15.312
5742	15.882	2.7273	0.1	-14.513
5743	15.697	2.7273	0.1	-13.725
5744	15.513	2.7273	0.1	-12.943
5745	15.328	2.7273	0.1	-12.161
5746	15.144	2.7273	0.1	-11.374
5747	14.959	2.7273	0.1	-10.577
5748	14.775	2.7273	0.1	-9.7654
5749	14.59	2.7273	0.1	-8.9334
5750	14.406	2.7273	0.1	-8.0758
5751	14.221	2.7273	0.1	-7.1868
5752	14.037	2.7273	0.1	-6.2609
5753	13.852	2.7273	0.1	-5.2919
5754	13.668	2.7273	0.1	-4.2735
5755	13.483	2.7273	0.1	-3.1991
5756	13.299	2.7273	0.1	-2.0616
5757	13.114	2.7273	0.1	-0.85406
5758	12.93	2.7273	0.1	-8.0514e-003
5759	12.745	2.7273	0.1	-6.3999e-003
5760	12.561	2.7273	0.1	-6.0386e-003
5761	12.376	2.7273	0.1	-5.7743e-003
5762	12.192	2.7273	0.1	-5.5371e-003
5763	12.007	2.7273	0.1	-5.3279e-003
5764	11.823	2.7273	0.1	-5.1183e-003
5765	11.638	2.7273	0.1	-4.9089e-003
5766	11.454	2.7273	0.1	-4.6964e-003
5767	11.269	2.7273	0.1	-4.4741e-003
5768	11.085	2.7273	0.1	-4.26e-003
5769	10.9	2.7273	0.1	-4.0291e-003
5770	10.716	2.7273	0.1	-3.7534e-003
5771	10.531	2.7273	0.1	-3.4994e-003
5772	10.347	2.7273	0.1	-3.2414e-003
5773	10.162	2.7273	0.1	-2.9538e-003
5774	9.9778	2.7273	0.1	-2.6559e-003
5775	9.7933	2.7273	0.1	-2.3374e-003
5776	9.6088	2.7273	0.1	-2.0044e-003
5777	9.4243	2.7273	0.1	-1.6565e-003
5778	9.2398	2.7273	0.1	-1.2948e-003
5779	9.0553	2.7273	0.1	-9.2161e-004
5780	8.8708	2.7273	0.1	-5.4161e-004
5781	8.6863	2.7273	0.1	-1.6261e-004
5782	8.5018	2.7273	0.1	2.0582e-004
5783	8.3173	2.7273	0.1	5.4859e-004
5784	8.1327	2.7273	0.1	8.3811e-004
5785	7.9482	2.7273	0.1	1.0412e-003
5786	7.7637	2.7273	0.1	1.1184e-003
5787	7.5792	2.7273	0.1	1.0074e-003
5788	7.3947	2.7273	0.1	6.203e-004
5789	7.2102	2.7273	0.1	-1.592e-004
5790	7.0257	2.7273	0.1	-1.4922e-003
5791	6.8412	2.7273	0.1	-3.5952e-003
5792	6.6567	2.7273	0.1	-6.7722e-003
5793	6.4722	2.7273	0.1	-1.1429e-002
5794	6.2877	2.7273	0.1	-1.8118e-002
5795	6.1032	2.7273	0.1	-2.7617e-002
5796	5.9187	2.7273	0.1	-4.0992e-002
5797	5.7342	2.7273	0.1	-5.9709e-002
5798	5.5497	2.7273	0.1	-8.5808e-002
5799	5.3652	2.7273	0.1	-0.12211
5800	5.1807	2.7273	0.1	-0.17253
5801	4.9962	2.7273	0.1	-0.24239
5802	4.8117	2.7273	0.1	-0.3388
5803	4.6272	2.7273	0.1	-0.47086
5804	4.4427	2.7273	0.1	-0.64896
5805	4.2582	2.7273	0.1	-0.88225
5806	4.0737	2.7273	0.1	-1.1782
5807	3.8892	2.7273	0.1	-1.4729
5808	3.7047	2.7273	0.1	-1.7971
5809	3.5202	2.7273	0.1	-2.6326
5810	3.3357	2.7273	0.1	-208.36
5811	3.1512	2.7273	0.1	-502.99
5812	23.815	2.9091	0.1	-178.03
5813	23.631	2.9091	0.1	-167.62
5814	23.446	2.9091	0.1	-157.46
5815	23.262	2.9091	0.1	-147.81
5816	23.077	2.9091	0.1	-138.61
5817	22.893	2.9091	0.1	-129.88
5818	22.708	2.9091	0.1	-121.63
5819	22.524	2.9091	0.1	-113.84
5820	22.339	2.9091	0.1	-106.52
5821	22.155	2.9091	0.1	-99.647
5822	21.97	2.9091	0.1	-93.214
5823	21.786	2.9091	0.1	-87.204
5824	21.601	2.9091	0.1	-81.597
5825	21.417	2.9091	0.1	-76.376
5826	21.232	2.9091	0.1	-71.519
5827	21.048	2.9091	0.1	-67.006
5828	20.863	2.9091	0.1	-62.816
5829	20.679	2.9091	0.1	-58.928
5830	20.494	2.9091	0.1	-55.322
5831	20.31	2.9091	0.1	-51.978
5832	20.125	2.9091	0.1	-48.879
5833	19.941	2.9091	0.1	-46.006
5834	19.756	2.9091	0.1	-43.342
5835	19.572	2.9091	0.1	-40.872
5836	19.387	2.9091	0.1	-38.58
5837	19.203	2.9091	0.1	-36.452
5838	19.018	2.9091	0.1	-34.476
5839	18.834	2.9091	0.1	-32.638
5840	18.649	2.9091	0.1	-30.927
5841	18.465	2.9091	0.1	-29.333
5842	18.28	2.9091	0.1	-27.845
5843	18.096	2.9091	0.1	-26.453
5844	17.911	2.9091	0.1	-25.15
5845	17.727	2.9091	0.1	-23.925
5846	17.542	2.9091	0.1	-22.773
5847	17.358	2.9091	0.1	-21.684
5848	17.173	2.9091	0.1	-20.652
5849	16.989	2.9091	0.1	-19.671
5850	16.804	2.9091	0.1	-18.733
5851	16.62	2.9091	0.1	-17.834
5852	16.435	2.9091	0.1	-16.967
5853	16.251	2.9091	0.1	-16.126
5854	16.066	2.9091	0.1	-15.306
5855	15.882	2.9091	0.1	-14.502
5856	15.697	2.9091	0.1	-13.709
5857	15.513	2.9091	0.1	-12.921
5858	15.328	2.9091	0.1	-12.134
5859	15.144	2.9091	0.1	-11.341
5860	14.959	2.9091	0.1	-10.539
5861	14.775	2.9091	0.1	-9.7216
5862	14.59	2.9091	0.1	-8.8838
5863	14.406	2.9091	0.1	-8.0201
5864	14.221	2.9091	0.1	-7.1248
5865	14.037	2.9091	0.1	-6.1922
5866	13.852	2.9091	0.1	-5.2161
5867	13.668	2.9091	0.1	-4.1902
5868	13.483	2.9091	0.1	-3.1077
5869	13.299	2.9091	0.1	-1.9616
5870	13.114	2.9091	0.1	-0.74423
5871	12.93	2.9091	0.1	-6.3409e-003
5872	12.745	2.9091	0.1	-6.0384e-003
5873	12.561	2.9091	0.1	-5.8641e-003
5874	12.376	2.9091	0.1	-5.6704e-003
5875	12.192	2.9091	0.1	-5.4707e-003
5876	12.007	2.9091	0.1	-5.281e-003
5877	11.823	2.9091	0.1	-5.0834e-003
5878	11.638	2.9091	0.1	-4.8807e-003
5879	11.454	2.9091	0.1	-4.6712e-003
5880	11.269	2.9091	0.1	-4.4497e-003
5881	11.085	2.9091	0.1	-4.2337e-003
5882	10.9	2.9091	0.1	-3.9988e-003
5883	10.716	2.9091	0.1	-3.7169e-003
5884	10.531	2.9091	0.1	-3.4558e-003
5885	10.347	2.9091	0.1	-3.1878e-003
5886	10.162	2.9091	0.1	-2.8879e-003
5887	9.9778	2.9091	0.1	-2.575e-003
5888	9.7933	2.9091	0.1	-2.2394e-003
5889	9.6088	2.9091	0.1	-1.8845e-003
5890	9.4243	2.9091	0.1	-1.5118e-003
5891	9.2398	2.9091	0.1	-1.1196e-003
5892	9.0553	2.9091	0.1	-7.1043e-004
5893	8.8708	2.9091	0.1	-2.8723e-004
5894	8.6863	2.9091	0.1	1.4319e-004
5895	8.5018	2.9091	0.1	5.7392e-004
5896	8.3173	2.9091	0.1	9.9205e-004
5897	8.1327	2.9091	0.1	1.3719e-003
5898	7.9482	2.9091	0.1	1.6859e-003
5899	7.7637	2.9091	0.1	1.8976e-003
5900	7.5792	2.9091	0.1	1.951e-003
5901	7.3947	2.9091	0.1	1.7651e-003
5902	7.2102	2.9091	0.1	1.2328e-003
5903	7.0257	2.9091	0.1	2.0422e-004
5904	6.8412	2.9091	0.1	-1.5241e-003
5905	6.6567	2.9091	0.1	-4.2397e-003
5906	6.4722	2.9091	0.1	-8.33e-003
5907	6.2877	2.9091	0.1	-1.4325e-002
5908	6.1032	2.9091	0.1	-2.2983e-002
5909	5.9187	2.9091	0.1	-3.5355e-002
5910	5.7342	2.9091	0.1	-5.2904e-002
5911	5.5497	2.9091	0.1	-7.7706e-002
5912	5.3652	2.9091	0.1	-0.11268
5913	5.1807	2.9091	0.1	-0.16196
5914	4.9962	2.9091	0.1	-0.23128
5915	4.8117	2.9091	0.1	-0.32844
5916	4.6272	2.9091	0.1	-0.46341
5917	4.4427	2.9091	0.1	-0.64721
5918	4.2582	2.9091	0.1	-0.88709
5919	4.0737	2.9091	0.1	-1.1721
5920	3.8892	2.9091	0.1	-1.4543
5921	3.7047	2.9091	0.1	-1.5492
5922	3.5202	2.9091	0.1	-1.4059
5923	3.3357	2.9091	0.1	-200.14
5924	3.1512	2.9091	0.1	-456.63
5925	23.815	3.0909	0.1	-178.03
5926	23.631	3.0909	0.1	-167.62
5927	23.446	3.0909	0.1	-157.46
5928	23.262	3.0909	0.1	-147.81
5929	23.077	3.0909	0.1	-138.61
5930	22.893	3.0909	0.1	-129.88
5931	22.708	3.0909	0.1	-121.63
5932	22.524	3.0909	0.1	-113.84
5933	22.339	3.0909	0.1	-106.52
5934	22.155	3.0909	0.1	-99.647
5935	21.97	3.0909	0.1	-93.214
5936	21.786	3.0909	0.1	-87.204
5937	21.601	3.0909	0.1	-81.597
5938	21.417	3.0909	0.1	-76.376
5939	21.232	3.0909	0.1	-71.519
5940	21.048	3.0909	0.1	-67.006
5941	20.863	3.0909	0.1	-62.816
5942	20.679	3.0909	0.1	-58.928
5943	20.494	3.0909	0.1	-55.322
5944	20.31	3.0909	0.1	-51.978
5945	20.125	3.0909	0.1	-48.879
5946	19.941	3.0909	0.1	-46.006
5947	19.756	3.0909	0.1	-43.342
5948	19.572	3.0909	0.1	-40.872
5949	19.387	3.0909	0.1	-38.58
5950	19.203	3.0909	0.1	-36.452
5951	19.018	3.0909	0.1	-34.476
5952	18.834	3.0909	0.1	-32.638
5953	18.649	3.0909	0.1	-30.927
5954	18.465	3.0909	0.1	-29.333
5955	18.28	3.0909	0.1	-27.845
5956	18.096	3.0909	0.1	-26.453
5957	17.911	3.0909	0.1	-25.15
5958	17.727	3.0909	0.1	-23.925
5959	17.542	3.0909	0.1	-22.773
5960	17.358	3.0909	0.1	-21.684
5961	17.173	3.0909	0.1	-20.652
5962	16.989	3.0909	0.1	-19.671
5963	16.804	3.0909	0.1	-18.733
5964	16.62	3.0909	0.1	-17.834
5965	16.435	3.0909	0.1	-16.967
5966	16.251	3.0909	0.1	-16.126
5967	16.066	3.0909	0.1	-15.306
5968	15.882	3.0909	0.1	-14.502
5969	15.697	3.0909	0.1	-13.709
5970	15.513	3.0909	0.1	-12.921
5971	15.328	3.0909	0.1	-12.134
5972	15.144	3.0909	0.1	-11.341
5973	14.959	3.0909	0.1	-10.539
5974	14.775	3.0909	0.1	-9.7216
5975	14.59	3.0909	0.1	-8.8838
5976	14.406	3.0909	0.1	-8.0201
5977	14.221	3.0909	0.1	-7.1248
5978	14.037	3.0909	0.1	-6.1922
5979	13.852	3.0909	0.1	-5.2161
5980	13.668	3.0909	0.1	-4.1902
5981	13.483	3.0909	0.1	-3.1077
5982	13.299	3.0909	0.1	-1.9616
5983	13.114	3.0909	0.1	-0.74423
5984	12.93	3.0909	0.1	-6.3402e-003
5985	12.745	3.0909	0.1	-6.0376e-003
5986	12.561	3.0909	0.1	-5.8648e-003
5987	12.376	3.0909	0.1	-5.671e-003
5988	12.192	3.0909	0.1	-5.4702e-003
5989	12.007	3.0909	0.1	-5.2814e-003
5990	11.823	3.0909	0.1	-5.0839e-003
5991	11.638	3.0909	0.1	-4.88e-003
5992	11.454	3.0909	0.1	-4.6713e-003
5993	11.269	3.0909	0.1	-4.4497e-003
5994	11.085	3.0909	0.1	-4.2339e-003
5995	10.9	3.0909	0.1	-3.999e-003
5996	10.716	3.0909	0.1	-3.7169e-003
5997	10.531	3.0909	0.1	-3.4557e-003
5998	10.347	3.0909	0.1	-3.1876e-003
5999	10.162	3.0909	0.1	-2.8869e-003
6000	9.9778	3.0909	0.1	-2.5752e-003
6001	9.7933	3.0909	0.1	-2.2392e-003
6002	9.6088	3.0909	0.1	-1.8848e-003
6003	9.4243	3.0909	0.1	-1.5116e-003
6004	9.2398	3.0909	0.1	-1.1199e-003
6005	9.0553	3.0909	0.1	-7.1067e-004
6006	8.8708	3.0909	0.1	-2.8759e-004
6007	8.6863	3.0909	0.1	1.4337e-004
6008	8.5018	3.0909	0.1	5.7416e-004
6009	8.3173	3.0909	0.1	9.9181e-004
6010	8.1327	3.0909	0.1	1.3721e-003
6011	7.9482	3.0909	0.1	1.6861e-003
6012	7.7637	3.0909	0.1	1.8978e-003
6013	7.5792	3.0909	0.1	1.9508e-003
6014	7.3947	3.0909	0.1	1.7653e-003
6015	7.2102	3.0909	0.1	1.2326e-003
6016	7.0257	3.0909	0.1	2.044e-004
6017	6.8412	3.0909	0.1	-1.5241e-003
6018	6.6567	3.0909	0.1	-4.2397e-003
6019	6.4722	3.0909	0.1	-8.3298e-003
6020	6.2877	3.0909	0.1	-1.4325e-002
6021	6.1032	3.0909	0.1	-2.2983e-002
6022	5.9187	3.0909	0.1	-3.5354e-002
6023	5.7342	3.0909	0.1	-5.2905e-002
6024	5.5497	3.0909	0.1	-7.7706e-002
6025	5.3652	3.0909	0.1	-0.11268
6026	5.1807	3.0909	0.1	-0.16196
6027	4.9962	3.0909	0.1	-0.23128
6028	4.8117	3.0909	0.1	-0.32844
6029	4.6272	3.0909	0.1	-0.46341
6030	4.4427	3.0909	0.1	-0.64721
6031	4.2582	3.0909	0.1	-0.88709
6032	4.0737	3.0909	0.1	-1.1721
6033	3.8892	3.0909	0.1	-1.4543
6034	3.7047	3.0909	0.1	-1.5492
6035	3.5202	3.0909	0.1	-1.4059
6036	3.3357	3.0909	0.1	-200.14
6037	3.1512	3.0909	0.1	-456.63
6038	23.815	3.2727	0.1	-177.1
6039	23.631	3.2727	0.1	-166.69
6040	23.446	3.2727	0.1	-156.54
6041	23.262	3.2727	0.1	-146.91
6042	23.077	3.2727	0.1	-137.73
6043	22.893	3.2727	0.1	-129.03
6044	22.708	3.2727	0.1	-120.81
6045	22.524	3.2727	0.1	-113.06
6046	22.339	3.2727	0.1	-105.77
6047	22.155	3.2727	0.1	-98.945
6048	21.97	3.2727	0.1	-92.555
6049	21.786	3.2727	0.1	-86.589
6050	21.601	3.2727	0.1	-81.026
6051	21.417	3.2727	0.1	-75.848
6052	21.232	3.2727	0.1	-71.032
6053	21.048	3.2727	0.1	-66.559
6054	20.863	3.2727	0.1	-62.406
6055	20.679	3.2727	0.1	-58.554
6056	20.494	3.2727	0.1	-54.981
6057	20.31	3.2727	0.1	-51.669
6058	20.125	3.2727	0.1	-48.598
6059	19.941	3.2727	0.1	-45.752
6060	19.756	3.2727	0.1	-43.113
6061	19.572	3.2727	0.1	-40.665
6062	19.387	3.2727	0.1	-38.394
6063	19.203	3.2727	0.1	-36.286
6064	19.018	3.2727	0.1	-34.327
6065	18.834	3.2727	0.1	-32.505
6066	18.649	3.2727	0.1	-30.81
6067	18.465	3.2727	0.1	-29.229
6068	18.28	3.2727	0.1	-27.754
6069	18.096	3.2727	0.1	-26.374
6070	17.911	3.2727	0.1	-25.081
6071	17.727	3.2727	0.1	-23.866
6072	17.542	3.2727	0.1	-22.723
6073	17.358	3.2727	0.1	-21.642
6074	17.173	3.2727	0.1	-20.618
6075	16.989	3.2727	0.1	-19.644
6076	16.804	3.2727	0.1	-18.714
6077	16.62	3.2727	0.1	-17.821
6078	16.435	3.2727	0.1	-16.96
6079	16.251	3.2727	0.1	-16.125
6080	16.066	3.2727	0.1	-15.312
6081	15.882	3.2727	0.1	-14.513
6082	15.697	3.2727	0.1	-13.725
6083	15.513	3.2727	0.1	-12.943
6084	15.328	3.2727	0.1	-12.161
6085	15.144	3.2727	0.1	-11.374
6086	14.959	3.2727	0.1	-10.577
6087	14.775	3.2727	0.1	-9.7654
6088	14.59	3.2727	0.1	-8.9334
6089	14.406	3.2727	0.1	-8.0757
6090	14.221	3.2727	0.1	-7.1868
6091	14.037	3.2727	0.1	-6.2608
6092	13.852	3.2727	0.1	-5.2919
6093	13.668	3.2727	0.1	-4.2735
6094	13.483	3.2727	0.1	-3.1991
6095	13.299	3.2727	0.1	-2.0616
6096	13.114	3.2727	0.1	-0.85405
6097	12.93	3.2727	0.1	-8.0509e-003
6098	12.745	3.2727	0.1	-6.4002e-003
6099	12.561	3.2727	0.1	-6.0385e-003
6100	12.376	3.2727	0.1	-5.7745e-003
6101	12.192	3.2727	0.1	-5.5376e-003
6102	12.007	3.2727	0.1	-5.3277e-003
6103	11.823	3.2727	0.1	-5.1181e-003
6104	11.638	3.2727	0.1	-4.9089e-003
6105	11.454	3.2727	0.1	-4.6958e-003
6106	11.269	3.2727	0.1	-4.4737e-003
6107	11.085	3.2727	0.1	-4.2606e-003
6108	10.9	3.2727	0.1	-4.0289e-003
6109	10.716	3.2727	0.1	-3.7529e-003
6110	10.531	3.2727	0.1	-3.4997e-003
6111	10.347	3.2727	0.1	-3.2414e-003
6112	10.162	3.2727	0.1	-2.9535e-003
6113	9.9778	3.2727	0.1	-2.6555e-003
6114	9.7933	3.2727	0.1	-2.3375e-003
6115	9.6088	3.2727	0.1	-2.0039e-003
6116	9.4243	3.2727	0.1	-1.6565e-003
6117	9.2398	3.2727	0.1	-1.2943e-003
6118	9.0553	3.2727	0.1	-9.2101e-004
6119	8.8708	3.2727	0.1	-5.4174e-004
6120	8.6863	3.2727	0.1	-1.6273e-004
6121	8.5018	3.2727	0.1	2.0636e-004
6122	8.3173	3.2727	0.1	5.4907e-004
6123	8.1327	3.2727	0.1	8.3787e-004
6124	7.9482	3.2727	0.1	1.0412e-003
6125	7.7637	3.2727	0.1	1.1186e-003
6126	7.5792	3.2727	0.1	1.0074e-003
6127	7.3947	3.2727	0.1	6.2047e-004
6128	7.2102	3.2727	0.1	-1.5933e-004
6129	7.0257	3.2727	0.1	-1.4916e-003
6130	6.8412	3.2727	0.1	-3.5951e-003
6131	6.6567	3.2727	0.1	-6.7721e-003
6132	6.4722	3.2727	0.1	-1.1429e-002
6133	6.2877	3.2727	0.1	-1.8118e-002
6134	6.1032	3.2727	0.1	-2.7617e-002
6135	5.9187	3.2727	0.1	-4.0992e-002
6136	5.7342	3.2727	0.1	-5.9709e-002
6137	5.5497	3.2727	0.1	-8.5807e-002
6138	5.3652	3.2727	0.1	-0.12211
6139	5.1807	3.2727	0.1	-0.17253
6140	4.9962	3.2727	0.1	-0.24239
6141	4.8117	3.2727	0.1	-0.3388
6142	4.6272	3.2727	0.1	-0.47086
6143	4.4427	3.2727	0.1	-0.64896
6144	4.2582	3.2727	0.1	-0.88224
6145	4.0737	3.2727	0.1	-1.1782
6146	3.8892	3.2727	0.1	-1.4729
6147	3.7047	3.2727	0.1	-1.7971
6148	3.5202	3.2727	0.1	-2.6325
6149	3.3357	3.2727	0.1	-208.37
6150	3.1512	3.2727	0.1	-502.99
6151	23.815	3.4545	0.1	-175.22
6152	23.631	3.4545	0.1	-164.82
6153	23.446	3.4545	0.1	-154.7
6154	23.262	3.4545	0.1	-145.09
6155	23.077	3.4545	0.1	-135.96
6156	22.893	3.4545	0.1	-127.32
6157	22.708	3.4545	0.1	-119.16
6158	22.524	3.4545	0.1	-111.49
6159	22.339	3.4545	0.1	-104.29
6160	22.155	3.4545	0.1	-97.543
6161	21.97	3.4545	0.1	-91.241
6162	21.786	3.4545	0.1	-85.363
6163	21.601	3.4545	0.1	-79.889
6164	21.417	3.4545	0.1	-74.796
6165	21.232	3.4545	0.1	-70.064
6166	21.048	3.4545	0.1	-65.67
6167	20.863	3.4545	0.1	-61.593
6168	20.679	3.4545	0.1	-57.811
6169	20.494	3.4545	0.1	-54.305
6170	20.31	3.4545	0.1	-51.054
6171	20.125	3.4545	0.1	-48.041
6172	19.941	3.4545	0.1	-45.248
6173	19.756	3.4545	0.1	-42.658
6174	19.572	3.4545	0.1	-40.256
6175	19.387	3.4545	0.1	-38.026
6176	19.203	3.4545	0.1	-35.956
6177	19.018	3.4545	0.1	-34.032
6178	18.834	3.4545	0.1	-32.243
6179	18.649	3.4545	0.1	-30.577
6180	18.465	3.4545	0.1	-29.024
6181	18.28	3.4545	0.1	-27.573
6182	18.096	3.4545	0.1	-26.216
6183	17.911	3.4545	0.1	-24.944
6184	17.727	3.4545	0.1	-23.75
6185	17.542	3.4545	0.1	-22.624
6186	17.358	3.4545	0.1	-21.561
6187	17.173	3.4545	0.1	-20.552
6188	16.989	3.4545	0.1	-19.593
6189	16.804	3.4545	0.1	-18.676
6190	16.62	3.4545	0.1	-17.797
6191	16.435	3.4545	0.1	-16.948
6192	16.251	3.4545	0.1	-16.125
6193	16.066	3.4545	0.1	-15.323
6194	15.882	3.4545	0.1	-14.535
6195	15.697	3.4545	0.1	-13.758
6196	15.513	3.4545	0.1	-12.987
6197	15.328	3.4545	0.1	-12.215
6198	15.144	3.4545	0.1	-11.439
6199	14.959	3.4545	0.1	-10.654
6200	14.775	3.4545	0.1	-9.853
6201	14.59	3.4545	0.1	-9.0326
6202	14.406	3.4545	0.1	-8.187
6203	14.221	3.4545	0.1	-7.3106
6204	14.037	3.4545	0.1	-6.3979
6205	13.852	3.4545	0.1	-5.443
6206	13.668	3.4545	0.1	-4.4396
6207	13.483	3.4545	0.1	-3.3812
6208	13.299	3.4545	0.1	-2.261
6209	13.114	3.4545	0.1	-1.0724
6210	12.93	3.4545	0.1	-1.6981e-002
6211	12.745	3.4545	0.1	-7.3065e-003
6212	12.561	3.4545	0.1	-6.4385e-003
6213	12.376	3.4545	0.1	-6.0005e-003
6214	12.192	3.4545	0.1	-5.6809e-003
6215	12.007	3.4545	0.1	-5.426e-003
6216	11.823	3.4545	0.1	-5.1897e-003
6217	11.638	3.4545	0.1	-4.965e-003
6218	11.454	3.4545	0.1	-4.7459e-003
6219	11.269	3.4545	0.1	-4.5224e-003
6220	11.085	3.4545	0.1	-4.311e-003
6221	10.9	3.4545	0.1	-4.0884e-003
6222	10.716	3.4545	0.1	-3.8229e-003
6223	10.531	3.4545	0.1	-3.5853e-003
6224	10.347	3.4545	0.1	-3.346e-003
6225	10.162	3.4545	0.1	-3.0819e-003
6226	9.9778	3.4545	0.1	-2.8128e-003
6227	9.7933	3.4545	0.1	-2.5288e-003
6228	9.6088	3.4545	0.1	-2.2368e-003
6229	9.4243	3.4545	0.1	-1.9379e-003
6230	9.2398	3.4545	0.1	-1.6349e-003
6231	9.0553	3.4545	0.1	-1.3313e-003
6232	8.8708	3.4545	0.1	-1.0349e-003
6233	8.6863	3.4545	0.1	-7.5664e-004
6234	8.5018	3.4545	0.1	-5.0901e-004
6235	8.3173	3.4545	0.1	-3.1221e-004
6236	8.1327	3.4545	0.1	-1.9895e-004
6237	7.9482	3.4545	0.1	-2.093e-004
6238	7.7637	3.4545	0.1	-3.9263e-004
6239	7.5792	3.4545	0.1	-8.221e-004
6240	7.3947	3.4545	0.1	-1.5991e-003
6241	7.2102	3.4545	0.1	-2.8583e-003
6242	7.0257	3.4545	0.1	-4.7819e-003
6243	6.8412	3.4545	0.1	-7.6148e-003
6244	6.6567	3.4545	0.1	-1.1695e-002
6245	6.4722	3.4545	0.1	-1.7468e-002
6246	6.2877	3.4545	0.1	-2.5532e-002
6247	6.1032	3.4545	0.1	-3.6719e-002
6248	5.9187	3.4545	0.1	-5.2146e-002
6249	5.7342	3.4545	0.1	-7.3317e-002
6250	5.5497	3.4545	0.1	-0.10228
6251	5.3652	3.4545	0.1	-0.14178
6252	5.1807	3.4545	0.1	-0.19552
6253	4.9962	3.4545	0.1	-0.26841
6254	4.8117	3.4545	0.1	-0.36682
6255	4.6272	3.4545	0.1	-0.49909
6256	4.4427	3.4545	0.1	-0.67427
6257	4.2582	3.4545	0.1	-0.91149
6258	4.0737	3.4545	0.1	-1.19
6259	3.8892	3.4545	0.1	-1.6671
6260	3.7047	3.4545	0.1	-2.1177
6261	3.5202	3.4545	0.1	-2.9596
6262	3.3357	3.4545	0.1	-227.34
6263	3.1512	3.4545	0.1	-593.78
6264	23.815	3.6364	0.1	-172.4
6265	23.631	3.6364	0.1	-162.
6266	23.446	3.6364	0.1	-151.91
6267	23.262	3.6364	0.1	-142.36
6268	23.077	3.6364	0.1	-133.3
6269	22.893	3.6364	0.1	-124.75
6270	22.708	3.6364	0.1	-116.69
6271	22.524	3.6364	0.1	-109.13
6272	22.339	3.6364	0.1	-102.06
6273	22.155	3.6364	0.1	-95.445
6274	21.97	3.6364	0.1	-89.278
6275	21.786	3.6364	0.1	-83.536
6276	21.601	3.6364	0.1	-78.195
6277	21.417	3.6364	0.1	-73.232
6278	21.232	3.6364	0.1	-68.625
6279	21.048	3.6364	0.1	-64.35
6280	20.863	3.6364	0.1	-60.385
6281	20.679	3.6364	0.1	-56.71
6282	20.494	3.6364	0.1	-53.302
6283	20.31	3.6364	0.1	-50.144
6284	20.125	3.6364	0.1	-47.217
6285	19.941	3.6364	0.1	-44.502
6286	19.756	3.6364	0.1	-41.985
6287	19.572	3.6364	0.1	-39.65
6288	19.387	3.6364	0.1	-37.482
6289	19.203	3.6364	0.1	-35.469
6290	19.018	3.6364	0.1	-33.597
6291	18.834	3.6364	0.1	-31.856
6292	18.649	3.6364	0.1	-30.233
6293	18.465	3.6364	0.1	-28.72
6294	18.28	3.6364	0.1	-27.307
6295	18.096	3.6364	0.1	-25.984
6296	17.911	3.6364	0.1	-24.744
6297	17.727	3.6364	0.1	-23.578
6298	17.542	3.6364	0.1	-22.479
6299	17.358	3.6364	0.1	-21.441
6300	17.173	3.6364	0.1	-20.456
6301	16.989	3.6364	0.1	-19.518
6302	16.804	3.6364	0.1	-18.622
6303	16.62	3.6364	0.1	-17.761
6304	16.435	3.6364	0.1	-16.931
6305	16.251	3.6364	0.1	-16.126
6306	16.066	3.6364	0.1	-15.34
6307	15.882	3.6364	0.1	-14.57
6308	15.697	3.6364	0.1	-13.809
6309	15.513	3.6364	0.1	-13.053
6310	15.328	3.6364	0.1	-12.298
6311	15.144	3.6364	0.1	-11.538
6312	14.959	3.6364	0.1	-10.768
6313	14.775	3.6364	0.1	-9.9844
6314	14.59	3.6364	0.1	-9.1812
6315	14.406	3.6364	0.1	-8.3535
6316	14.221	3.6364	0.1	-7.4958
6317	14.037	3.6364	0.1	-6.6028
6318	13.852	3.6364	0.1	-5.6688
6319	13.668	3.6364	0.1	-4.6876
6320	13.483	3.6364	0.1	-3.653
6321	13.299	3.6364	0.1	-2.5584
6322	13.114	3.6364	0.1	-1.3975
6323	12.93	3.6364	0.1	-0.18243
6324	12.745	3.6364	0.1	-9.4225e-003
6325	12.561	3.6364	0.1	-7.205e-003
6326	12.376	3.6364	0.1	-6.4058e-003
6327	12.192	3.6364	0.1	-5.9276e-003
6328	12.007	3.6364	0.1	-5.588e-003
6329	11.823	3.6364	0.1	-5.3047e-003
6330	11.638	3.6364	0.1	-5.0535e-003
6331	11.454	3.6364	0.1	-4.8207e-003
6332	11.269	3.6364	0.1	-4.5928e-003
6333	11.085	3.6364	0.1	-4.3854e-003
6334	10.9	3.6364	0.1	-4.1721e-003
6335	10.716	3.6364	0.1	-3.9235e-003
6336	10.531	3.6364	0.1	-3.7063e-003
6337	10.347	3.6364	0.1	-3.4946e-003
6338	10.162	3.6364	0.1	-3.2649e-003
6339	9.9778	3.6364	0.1	-3.0365e-003
6340	9.7933	3.6364	0.1	-2.8024e-003
6341	9.6088	3.6364	0.1	-2.5695e-003
6342	9.4243	3.6364	0.1	-2.3417e-003
6343	9.2398	3.6364	0.1	-2.1223e-003
6344	9.0553	3.6364	0.1	-1.9194e-003
6345	8.8708	3.6364	0.1	-1.743e-003
6346	8.6863	3.6364	0.1	-1.6072e-003
6347	8.5018	3.6364	0.1	-1.5314e-003
6348	8.3173	3.6364	0.1	-1.5415e-003
6349	8.1327	3.6364	0.1	-1.6787e-003
6350	7.9482	3.6364	0.1	-1.9925e-003
6351	7.7637	3.6364	0.1	-2.545e-003
6352	7.5792	3.6364	0.1	-3.4258e-003
6353	7.3947	3.6364	0.1	-4.7563e-003
6354	7.2102	3.6364	0.1	-6.698e-003
6355	7.0257	3.6364	0.1	-9.4653e-003
6356	6.8412	3.6364	0.1	-1.3346e-002
6357	6.6567	3.6364	0.1	-1.8729e-002
6358	6.4722	3.6364	0.1	-2.6127e-002
6359	6.2877	3.6364	0.1	-3.6223e-002
6360	6.1032	3.6364	0.1	-4.9947e-002
6361	5.9187	3.6364	0.1	-6.8537e-002
6362	5.7342	3.6364	0.1	-9.3637e-002
6363	5.5497	3.6364	0.1	-0.12745
6364	5.3652	3.6364	0.1	-0.1729
6365	5.1807	3.6364	0.1	-0.23389
6366	4.9962	3.6364	0.1	-0.31549
6367	4.8117	3.6364	0.1	-0.42494
6368	4.6272	3.6364	0.1	-0.57023
6369	4.4427	3.6364	0.1	-0.76956
6370	4.2582	3.6364	0.1	-1.0273
6371	4.0737	3.6364	0.1	-1.4239
6372	3.8892	3.6364	0.1	-1.9965
6373	3.7047	3.6364	0.1	-2.0864
6374	3.5202	3.6364	0.1	-9.2314
6375	3.3357	3.6364	0.1	-247.24
6376	3.1512	3.6364	0.1	-790.41
6377	23.815	3.8182	0.1	-168.59
6378	23.631	3.8182	0.1	-158.21
6379	23.446	3.8182	0.1	-148.16
6380	23.262	3.8182	0.1	-138.69
6381	23.077	3.8182	0.1	-129.73
6382	22.893	3.8182	0.1	-121.3
6383	22.708	3.8182	0.1	-113.39
6384	22.524	3.8182	0.1	-106.
6385	22.339	3.8182	0.1	-99.092
6386	22.155	3.8182	0.1	-92.661
6387	21.97	3.8182	0.1	-86.678
6388	21.786	3.8182	0.1	-81.119
6389	21.601	3.8182	0.1	-75.959
6390	21.417	3.8182	0.1	-71.171
6391	21.232	3.8182	0.1	-66.731
6392	21.048	3.8182	0.1	-62.615
6393	20.863	3.8182	0.1	-58.8
6394	20.679	3.8182	0.1	-55.265
6395	20.494	3.8182	0.1	-51.989
6396	20.31	3.8182	0.1	-48.952
6397	20.125	3.8182	0.1	-46.137
6398	19.941	3.8182	0.1	-43.527
6399	19.756	3.8182	0.1	-41.106
6400	19.572	3.8182	0.1	-38.859
6401	19.387	3.8182	0.1	-36.772
6402	19.203	3.8182	0.1	-34.833
6403	19.018	3.8182	0.1	-33.029
6404	18.834	3.8182	0.1	-31.351
6405	18.649	3.8182	0.1	-29.786
6406	18.465	3.8182	0.1	-28.326
6407	18.28	3.8182	0.1	-26.961
6408	18.096	3.8182	0.1	-25.683
6409	17.911	3.8182	0.1	-24.483
6410	17.727	3.8182	0.1	-23.356
6411	17.542	3.8182	0.1	-22.292
6412	17.358	3.8182	0.1	-21.286
6413	17.173	3.8182	0.1	-20.332
6414	16.989	3.8182	0.1	-19.423
6415	16.804	3.8182	0.1	-18.553
6416	16.62	3.8182	0.1	-17.718
6417	16.435	3.8182	0.1	-16.912
6418	16.251	3.8182	0.1	-16.13
6419	16.066	3.8182	0.1	-15.366
6420	15.882	3.8182	0.1	-14.617
6421	15.697	3.8182	0.1	-13.878
6422	15.513	3.8182	0.1	-13.143
6423	15.328	3.8182	0.1	-12.409
6424	15.144	3.8182	0.1	-11.67
6425	14.959	3.8182	0.1	-10.922
6426	14.775	3.8182	0.1	-10.16
6427	14.59	3.8182	0.1	-9.3791
6428	14.406	3.8182	0.1	-8.5749
6429	14.221	3.8182	0.1	-7.7418
6430	14.037	3.8182	0.1	-6.8748
6431	13.852	3.8182	0.1	-5.9682
6432	13.668	3.8182	0.1	-5.0163
6433	13.483	3.8182	0.1	-4.013
6434	13.299	3.8182	0.1	-2.952
6435	13.114	3.8182	0.1	-1.8272
6436	12.93	3.8182	0.1	-0.63619
6437	12.745	3.8182	0.1	-1.5999e-002
6438	12.561	3.8182	0.1	-8.7325e-003
6439	12.376	3.8182	0.1	-7.1172e-003
6440	12.192	3.8182	0.1	-6.3344e-003
6441	12.007	3.8182	0.1	-5.8464e-003
6442	11.823	3.8182	0.1	-5.4807e-003
6443	11.638	3.8182	0.1	-5.1835e-003
6444	11.454	3.8182	0.1	-4.9263e-003
6445	11.269	3.8182	0.1	-4.6895e-003
6446	11.085	3.8182	0.1	-4.4839e-003
6447	10.9	3.8182	0.1	-4.2802e-003
6448	10.716	3.8182	0.1	-4.0508e-003
6449	10.531	3.8182	0.1	-3.8604e-003
6450	10.347	3.8182	0.1	-3.6832e-003
6451	10.162	3.8182	0.1	-3.4967e-003
6452	9.9778	3.8182	0.1	-3.32e-003
6453	9.7933	3.8182	0.1	-3.1487e-003
6454	9.6088	3.8182	0.1	-2.9904e-003
6455	9.4243	3.8182	0.1	-2.8508e-003
6456	9.2398	3.8182	0.1	-2.7361e-003
6457	9.0553	3.8182	0.1	-2.6578e-003
6458	8.8708	3.8182	0.1	-2.63e-003
6459	8.6863	3.8182	0.1	-2.6723e-003
6460	8.5018	3.8182	0.1	-2.8093e-003
6461	8.3173	3.8182	0.1	-3.0743e-003
6462	8.1327	3.8182	0.1	-3.5197e-003
6463	7.9482	3.8182	0.1	-4.2062e-003
6464	7.7637	3.8182	0.1	-5.2129e-003
6465	7.5792	3.8182	0.1	-6.6485e-003
6466	7.3947	3.8182	0.1	-8.6613e-003
6467	7.2102	3.8182	0.1	-1.1445e-002
6468	7.0257	3.8182	0.1	-1.5259e-002
6469	6.8412	3.8182	0.1	-2.0446e-002
6470	6.6567	3.8182	0.1	-2.7471e-002
6471	6.4722	3.8182	0.1	-3.6945e-002
6472	6.2877	3.8182	0.1	-4.9677e-002
6473	6.1032	3.8182	0.1	-6.6768e-002
6474	5.9187	3.8182	0.1	-8.9686e-002
6475	5.7342	3.8182	0.1	-0.12039
6476	5.5497	3.8182	0.1	-0.16151
6477	5.3652	3.8182	0.1	-0.21662
6478	5.1807	3.8182	0.1	-0.29071
6479	4.9962	3.8182	0.1	-0.39034
6480	4.8117	3.8182	0.1	-0.52712
6481	4.6272	3.8182	0.1	-0.71104
6482	4.4427	3.8182	0.1	-0.99434
6483	4.2582	3.8182	0.1	-1.3287
6484	4.0737	3.8182	0.1	-2.27
6485	3.8892	3.8182	0.1	-2.3342
6486	3.7047	3.8182	0.1	-10.312
6487	3.5202	3.8182	0.1	-58.951
6488	3.3357	3.8182	0.1	-419.15
6489	3.1512	3.8182	0.1	-1043.7
6490	23.815	4.	0.1	-163.76
6491	23.631	4.	0.1	-153.4
6492	23.446	4.	0.1	-143.42
6493	23.262	4.	0.1	-134.05
6494	23.077	4.	0.1	-125.23
6495	22.893	4.	0.1	-116.97
6496	22.708	4.	0.1	-109.26
6497	22.524	4.	0.1	-102.07
6498	22.339	4.	0.1	-95.4
6499	22.155	4.	0.1	-89.204
6500	21.97	4.	0.1	-83.458
6501	21.786	4.	0.1	-78.134
6502	21.601	4.	0.1	-73.202
6503	21.417	4.	0.1	-68.635
6504	21.232	4.	0.1	-64.405
6505	21.048	4.	0.1	-60.487
6506	20.863	4.	0.1	-56.859
6507	20.679	4.	0.1	-53.498
6508	20.494	4.	0.1	-50.384
6509	20.31	4.	0.1	-47.497
6510	20.125	4.	0.1	-44.821
6511	19.941	4.	0.1	-42.338
6512	19.756	4.	0.1	-40.034
6513	19.572	4.	0.1	-37.895
6514	19.387	4.	0.1	-35.908
6515	19.203	4.	0.1	-34.06
6516	19.018	4.	0.1	-32.34
6517	18.834	4.	0.1	-30.738
6518	18.649	4.	0.1	-29.243
6519	18.465	4.	0.1	-27.848
6520	18.28	4.	0.1	-26.542
6521	18.096	4.	0.1	-25.318
6522	17.911	4.	0.1	-24.169
6523	17.727	4.	0.1	-23.088
6524	17.542	4.	0.1	-22.067
6525	17.358	4.	0.1	-21.101
6526	17.173	4.	0.1	-20.184
6527	16.989	4.	0.1	-19.31
6528	16.804	4.	0.1	-18.473
6529	16.62	4.	0.1	-17.669
6530	16.435	4.	0.1	-16.892
6531	16.251	4.	0.1	-16.138
6532	16.066	4.	0.1	-15.402
6533	15.882	4.	0.1	-14.68
6534	15.697	4.	0.1	-13.966
6535	15.513	4.	0.1	-13.257
6536	15.328	4.	0.1	-12.549
6537	15.144	4.	0.1	-11.835
6538	14.959	4.	0.1	-11.114
6539	14.775	4.	0.1	-10.379
6540	14.59	4.	0.1	-9.626
6541	14.406	4.	0.1	-8.8507
6542	14.221	4.	0.1	-8.0479
6543	14.037	4.	0.1	-7.2128
6544	13.852	4.	0.1	-6.34
6545	13.668	4.	0.1	-5.424
6546	13.483	4.	0.1	-4.4591
6547	13.299	4.	0.1	-3.4393
6548	13.114	4.	0.1	-2.3587
6549	12.93	4.	0.1	-1.2123
6550	12.745	4.	0.1	-9.291e-002
6551	12.561	4.	0.1	-1.2418e-002
6552	12.376	4.	0.1	-8.4566e-003
6553	12.192	4.	0.1	-7.0233e-003
6554	12.007	4.	0.1	-6.256e-003
6555	11.823	4.	0.1	-5.7457e-003
6556	11.638	4.	0.1	-5.37e-003
6557	11.454	4.	0.1	-5.0697e-003
6558	11.269	4.	0.1	-4.8121e-003
6559	11.085	4.	0.1	-4.6035e-003
6560	10.9	4.	0.1	-4.409e-003
6561	10.716	4.	0.1	-4.1996e-003
6562	10.531	4.	0.1	-4.0392e-003
6563	10.347	4.	0.1	-3.9016e-003
6564	10.162	4.	0.1	-3.7642e-003
6565	9.9778	4.	0.1	-3.6485e-003
6566	9.7933	4.	0.1	-3.5496e-003
6567	9.6088	4.	0.1	-3.4774e-003
6568	9.4243	4.	0.1	-3.44e-003
6569	9.2398	4.	0.1	-3.4468e-003
6570	9.0553	4.	0.1	-3.5121e-003
6571	8.8708	4.	0.1	-3.6534e-003
6572	8.6863	4.	0.1	-3.8977e-003
6573	8.5018	4.	0.1	-4.2747e-003
6574	8.3173	4.	0.1	-4.8279e-003
6575	8.1327	4.	0.1	-5.6192e-003
6576	7.9482	4.	0.1	-6.7244e-003
6577	7.7637	4.	0.1	-8.2384e-003
6578	7.5792	4.	0.1	-1.0296e-002
6579	7.3947	4.	0.1	-1.3073e-002
6580	7.2102	4.	0.1	-1.6804e-002
6581	7.0257	4.	0.1	-2.1803e-002
6582	6.8412	4.	0.1	-2.8484e-002
6583	6.6567	4.	0.1	-3.7409e-002
6584	6.4722	4.	0.1	-4.9323e-002
6585	6.2877	4.	0.1	-6.5221e-002
6586	6.1032	4.	0.1	-8.647e-002
6587	5.9187	4.	0.1	-0.11491
6588	5.7342	4.	0.1	-0.15307
6589	5.5497	4.	0.1	-0.20443
6590	5.3652	4.	0.1	-0.27393
6591	5.1807	4.	0.1	-0.3689
6592	4.9962	4.	0.1	-0.50003
6593	4.8117	4.	0.1	-0.68727
6594	4.6272	4.	0.1	-0.95736
6595	4.4427	4.	0.1	-1.4051
6596	4.2582	4.	0.1	-2.0965
6597	4.0737	4.	0.1	-3.9824
6598	3.8892	4.	0.1	-8.4321
6599	3.7047	4.	0.1	-77.541
6600	3.5202	4.	0.1	-373.54
6601	3.3357	4.	0.1	-987.81
6602	3.1512	4.	0.1	-2826.
6603	23.815	4.1818	0.1	-157.88
6604	23.631	4.1818	0.1	-147.54
6605	23.446	4.1818	0.1	-137.65
6606	23.262	4.1818	0.1	-128.41
6607	23.077	4.1818	0.1	-119.78
6608	22.893	4.1818	0.1	-111.74
6609	22.708	4.1818	0.1	-104.28
6610	22.524	4.1818	0.1	-97.379
6611	22.339	4.1818	0.1	-90.994
6612	22.155	4.1818	0.1	-85.094
6613	21.97	4.1818	0.1	-79.644
6614	21.786	4.1818	0.1	-74.608
6615	21.601	4.1818	0.1	-69.956
6616	21.417	4.1818	0.1	-65.654
6617	21.232	4.1818	0.1	-61.677
6618	21.048	4.1818	0.1	-57.997
6619	20.863	4.1818	0.1	-54.59
6620	20.679	4.1818	0.1	-51.435
6621	20.494	4.1818	0.1	-48.512
6622	20.31	4.1818	0.1	-45.802
6623	20.125	4.1818	0.1	-43.289
6624	19.941	4.1818	0.1	-40.956
6625	19.756	4.1818	0.1	-38.79
6626	19.572	4.1818	0.1	-36.777
6627	19.387	4.1818	0.1	-34.906
6628	19.203	4.1818	0.1	-33.164
6629	19.018	4.1818	0.1	-31.542
6630	18.834	4.1818	0.1	-30.029
6631	18.649	4.1818	0.1	-28.617
6632	18.465	4.1818	0.1	-27.296
6633	18.28	4.1818	0.1	-26.06
6634	18.096	4.1818	0.1	-24.9
6635	17.911	4.1818	0.1	-23.809
6636	17.727	4.1818	0.1	-22.782
6637	17.542	4.1818	0.1	-21.812
6638	17.358	4.1818	0.1	-20.892
6639	17.173	4.1818	0.1	-20.018
6640	16.989	4.1818	0.1	-19.185
6641	16.804	4.1818	0.1	-18.386
6642	16.62	4.1818	0.1	-17.618
6643	16.435	4.1818	0.1	-16.876
6644	16.251	4.1818	0.1	-16.155
6645	16.066	4.1818	0.1	-15.451
6646	15.882	4.1818	0.1	-14.759
6647	15.697	4.1818	0.1	-14.076
6648	15.513	4.1818	0.1	-13.397
6649	15.328	4.1818	0.1	-12.719
6650	15.144	4.1818	0.1	-12.036
6651	14.959	4.1818	0.1	-11.345
6652	14.775	4.1818	0.1	-10.642
6653	14.59	4.1818	0.1	-9.9216
6654	14.406	4.1818	0.1	-9.1803
6655	14.221	4.1818	0.1	-8.4131
6656	14.037	4.1818	0.1	-7.6155
6657	13.852	4.1818	0.1	-6.7824
6658	13.668	4.1818	0.1	-5.9087
6659	13.483	4.1818	0.1	-4.989
6660	13.299	4.1818	0.1	-4.0176
6661	13.114	4.1818	0.1	-2.9889
6662	12.93	4.1818	0.1	-1.8972
6663	12.745	4.1818	0.1	-0.74279
6664	12.561	4.1818	0.1	-2.8646e-002
6665	12.376	4.1818	0.1	-1.1482e-002
6666	12.192	4.1818	0.1	-8.3029e-003
6667	12.007	4.1818	0.1	-6.9425e-003
6668	11.823	4.1818	0.1	-6.161e-003
6669	11.638	4.1818	0.1	-5.6411e-003
6670	11.454	4.1818	0.1	-5.2636e-003
6671	11.269	4.1818	0.1	-4.9675e-003
6672	11.085	4.1818	0.1	-4.7438e-003
6673	10.9	4.1818	0.1	-4.5538e-003
6674	10.716	4.1818	0.1	-4.3623e-003
6675	10.531	4.1818	0.1	-4.2327e-003
6676	10.347	4.1818	0.1	-4.1384e-003
6677	10.162	4.1818	0.1	-4.0551e-003
6678	9.9778	4.1818	0.1	-4.0061e-003
6679	9.7933	4.1818	0.1	-3.9868e-003
6680	9.6088	4.1818	0.1	-4.0093e-003
6681	9.4243	4.1818	0.1	-4.0835e-003
6682	9.2398	4.1818	0.1	-4.2217e-003
6683	9.0553	4.1818	0.1	-4.4407e-003
6684	8.8708	4.1818	0.1	-4.7643e-003
6685	8.6863	4.1818	0.1	-5.2225e-003
6686	8.5018	4.1818	0.1	-5.8536e-003
6687	8.3173	4.1818	0.1	-6.7093e-003
6688	8.1327	4.1818	0.1	-7.8621e-003
6689	7.9482	4.1818	0.1	-9.4028e-003
6690	7.7637	4.1818	0.1	-1.1445e-002
6691	7.5792	4.1818	0.1	-1.4146e-002
6692	7.3947	4.1818	0.1	-1.7718e-002
6693	7.2102	4.1818	0.1	-2.244e-002
6694	7.0257	4.1818	0.1	-2.8686e-002
6695	6.8412	4.1818	0.1	-3.6958e-002
6696	6.6567	4.1818	0.1	-4.7943e-002
6697	6.4722	4.1818	0.1	-6.2563e-002
6698	6.2877	4.1818	0.1	-8.2072e-002
6699	6.1032	4.1818	0.1	-0.10822
6700	5.9187	4.1818	0.1	-0.14344
6701	5.7342	4.1818	0.1	-0.19116
6702	5.5497	4.1818	0.1	-0.25635
6703	5.3652	4.1818	0.1	-0.34641
6704	5.1807	4.1818	0.1	-0.47301
6705	4.9962	4.1818	0.1	-0.65535
6706	4.8117	4.1818	0.1	-0.93006
6707	4.6272	4.1818	0.1	-1.3684
6708	4.4427	4.1818	0.1	-2.1698
6709	4.2582	4.1818	0.1	-3.9185
6710	4.0737	4.1818	0.1	-10.547
6711	3.8892	4.1818	0.1	-77.878
6712	3.7047	4.1818	0.1	-315.4
6713	3.5202	4.1818	0.1	-762.26
6714	3.3357	4.1818	0.1	-1789.5
6715	3.1512	4.1818	0.1	-4363.
6716	23.815	4.3636	0.1	-150.86
6717	23.631	4.3636	0.1	-140.56
6718	23.446	4.3636	0.1	-130.79
6719	23.262	4.3636	0.1	-121.74
6720	23.077	4.3636	0.1	-113.35
6721	22.893	4.3636	0.1	-105.61
6722	22.708	4.3636	0.1	-98.479
6723	22.524	4.3636	0.1	-91.924
6724	22.339	4.3636	0.1	-85.9
6725	22.155	4.3636	0.1	-80.363
6726	21.97	4.3636	0.1	-75.269
6727	21.786	4.3636	0.1	-70.579
6728	21.601	4.3636	0.1	-66.257
6729	21.417	4.3636	0.1	-62.268
6730	21.232	4.3636	0.1	-58.585
6731	21.048	4.3636	0.1	-55.179
6732	20.863	4.3636	0.1	-52.028
6733	20.679	4.3636	0.1	-49.109
6734	20.494	4.3636	0.1	-46.404
6735	20.31	4.3636	0.1	-43.896
6736	20.125	4.3636	0.1	-41.567
6737	19.941	4.3636	0.1	-39.405
6738	19.756	4.3636	0.1	-37.395
6739	19.572	4.3636	0.1	-35.525
6740	19.387	4.3636	0.1	-33.785
6741	19.203	4.3636	0.1	-32.163
6742	19.018	4.3636	0.1	-30.651
6743	18.834	4.3636	0.1	-29.239
6744	18.649	4.3636	0.1	-27.919
6745	18.465	4.3636	0.1	-26.683
6746	18.28	4.3636	0.1	-25.524
6747	18.096	4.3636	0.1	-24.436
6748	17.911	4.3636	0.1	-23.412
6749	17.727	4.3636	0.1	-22.446
6750	17.542	4.3636	0.1	-21.532
6751	17.358	4.3636	0.1	-20.665
6752	17.173	4.3636	0.1	-19.84
6753	16.989	4.3636	0.1	-19.052
6754	16.804	4.3636	0.1	-18.297
6755	16.62	4.3636	0.1	-17.569
6756	16.435	4.3636	0.1	-16.866
6757	16.251	4.3636	0.1	-16.182
6758	16.066	4.3636	0.1	-15.514
6759	15.882	4.3636	0.1	-14.858
6760	15.697	4.3636	0.1	-14.209
6761	15.513	4.3636	0.1	-13.564
6762	15.328	4.3636	0.1	-12.92
6763	15.144	4.3636	0.1	-12.272
6764	14.959	4.3636	0.1	-11.616
6765	14.775	4.3636	0.1	-10.948
6766	14.59	4.3636	0.1	-10.266
6767	14.406	4.3636	0.1	-9.5629
6768	14.221	4.3636	0.1	-8.8362
6769	14.037	4.3636	0.1	-8.0814
6770	13.852	4.3636	0.1	-7.2935
6771	13.668	4.3636	0.1	-6.468
6772	13.483	4.3636	0.1	-5.5997
6773	13.299	4.3636	0.1	-4.6836
6774	13.114	4.3636	0.1	-3.714
6775	12.93	4.3636	0.1	-2.6856
6776	12.745	4.3636	0.1	-1.5938
6777	12.561	4.3636	0.1	-0.45125
6778	12.376	4.3636	0.1	-2.2729e-002
6779	12.192	4.3636	0.1	-1.1215e-002
6780	12.007	4.3636	0.1	-8.2413e-003
6781	11.823	4.3636	0.1	-6.8638e-003
6782	11.638	4.3636	0.1	-6.0652e-003
6783	11.454	4.3636	0.1	-5.5411e-003
6784	11.269	4.3636	0.1	-5.1685e-003
6785	11.085	4.3636	0.1	-4.9116e-003
6786	10.9	4.3636	0.1	-4.7136e-003
6787	10.716	4.3636	0.1	-4.5351e-003
6788	10.531	4.3636	0.1	-4.4344e-003
6789	10.347	4.3636	0.1	-4.3832e-003
6790	10.162	4.3636	0.1	-4.3569e-003
6791	9.9778	4.3636	0.1	-4.3782e-003
6792	9.7933	4.3636	0.1	-4.4431e-003
6793	9.6088	4.3636	0.1	-4.5648e-003
6794	9.4243	4.3636	0.1	-4.7563e-003
6795	9.2398	4.3636	0.1	-5.0298e-003
6796	9.0553	4.3636	0.1	-5.4075e-003
6797	8.8708	4.3636	0.1	-5.9154e-003
6798	8.6863	4.3636	0.1	-6.5901e-003
6799	8.5018	4.3636	0.1	-7.4745e-003
6800	8.3173	4.3636	0.1	-8.6283e-003
6801	8.1327	4.3636	0.1	-1.0135e-002
6802	7.9482	4.3636	0.1	-1.2099e-002
6803	7.7637	4.3636	0.1	-1.4651e-002
6804	7.5792	4.3636	0.1	-1.7974e-002
6805	7.3947	4.3636	0.1	-2.2314e-002
6806	7.2102	4.3636	0.1	-2.7997e-002
6807	7.0257	4.3636	0.1	-3.5469e-002
6808	6.8412	4.3636	0.1	-4.5333e-002
6809	6.6567	4.3636	0.1	-5.843e-002
6810	6.4722	4.3636	0.1	-7.5913e-002
6811	6.2877	4.3636	0.1	-9.9398e-002
6812	6.1032	4.3636	0.1	-0.1312
6813	5.9187	4.3636	0.1	-0.17466
6814	5.7342	4.3636	0.1	-0.23468
6815	5.5497	4.3636	0.1	-0.31879
6816	5.3652	4.3636	0.1	-0.43889
6817	5.1807	4.3636	0.1	-0.61522
6818	4.9962	4.3636	0.1	-0.88494
6819	4.8117	4.3636	0.1	-1.3268
6820	4.6272	4.3636	0.1	-2.1359
6821	4.4427	4.3636	0.1	-3.9977
6822	4.2582	4.3636	0.1	-11.097
6823	4.0737	4.3636	0.1	-67.911
6824	3.8892	4.3636	0.1	-229.37
6825	3.7047	4.3636	0.1	-518.71
6826	3.5202	4.3636	0.1	-1020.1
6827	3.3357	4.3636	0.1	-1949.6
6828	3.1512	4.3636	0.1	-3873.1
6829	23.815	4.5455	0.1	-142.63
6830	23.631	4.5455	0.1	-132.39
6831	23.446	4.5455	0.1	-122.79
6832	23.262	4.5455	0.1	-114.
6833	23.077	4.5455	0.1	-105.93
6834	22.893	4.5455	0.1	-98.566
6835	22.708	4.5455	0.1	-91.855
6836	22.524	4.5455	0.1	-85.737
6837	22.339	4.5455	0.1	-80.156
6838	22.155	4.5455	0.1	-75.055
6839	21.97	4.5455	0.1	-70.384
6840	21.786	4.5455	0.1	-66.097
6841	21.601	4.5455	0.1	-62.156
6842	21.417	4.5455	0.1	-58.525
6843	21.232	4.5455	0.1	-55.175
6844	21.048	4.5455	0.1	-52.079
6845	20.863	4.5455	0.1	-49.213
6846	20.679	4.5455	0.1	-46.559
6847	20.494	4.5455	0.1	-44.097
6848	20.31	4.5455	0.1	-41.811
6849	20.125	4.5455	0.1	-39.687
6850	19.941	4.5455	0.1	-37.712
6851	19.756	4.5455	0.1	-35.874
6852	19.572	4.5455	0.1	-34.162
6853	19.387	4.5455	0.1	-32.566
6854	19.203	4.5455	0.1	-31.076
6855	19.018	4.5455	0.1	-29.684
6856	18.834	4.5455	0.1	-28.383
6857	18.649	4.5455	0.1	-27.164
6858	18.465	4.5455	0.1	-26.022
6859	18.28	4.5455	0.1	-24.949
6860	18.096	4.5455	0.1	-23.939
6861	17.911	4.5455	0.1	-22.987
6862	17.727	4.5455	0.1	-22.088
6863	17.542	4.5455	0.1	-21.236
6864	17.358	4.5455	0.1	-20.426
6865	17.173	4.5455	0.1	-19.655
6866	16.989	4.5455	0.1	-18.918
6867	16.804	4.5455	0.1	-18.21
6868	16.62	4.5455	0.1	-17.527
6869	16.435	4.5455	0.1	-16.867
6870	16.251	4.5455	0.1	-16.224
6871	16.066	4.5455	0.1	-15.596
6872	15.882	4.5455	0.1	-14.978
6873	15.697	4.5455	0.1	-14.367
6874	15.513	4.5455	0.1	-13.761
6875	15.328	4.5455	0.1	-13.154
6876	15.144	4.5455	0.1	-12.544
6877	14.959	4.5455	0.1	-11.927
6878	14.775	4.5455	0.1	-11.299
6879	14.59	4.5455	0.1	-10.657
6880	14.406	4.5455	0.1	-9.9977
6881	14.221	4.5455	0.1	-9.3161
6882	14.037	4.5455	0.1	-8.6087
6883	13.852	4.5455	0.1	-7.8712
6884	13.668	4.5455	0.1	-7.0992
6885	13.483	4.5455	0.1	-6.2883
6886	13.299	4.5455	0.1	-5.4335
6887	13.114	4.5455	0.1	-4.5299
6888	12.93	4.5455	0.1	-3.5723
6889	12.745	4.5455	0.1	-2.5555
6890	12.561	4.5455	0.1	-1.4759
6891	12.376	4.5455	0.1	-0.35787
6892	12.192	4.5455	0.1	-2.257e-002
6893	12.007	4.5455	0.1	-1.1382e-002
6894	11.823	4.5455	0.1	-8.2586e-003
6895	11.638	4.5455	0.1	-6.8068e-003
6896	11.454	4.5455	0.1	-5.9796e-003
6897	11.269	4.5455	0.1	-5.4537e-003
6898	11.085	4.5455	0.1	-5.1196e-003
6899	10.9	4.5455	0.1	-4.8925e-003
6900	10.716	4.5455	0.1	-4.715e-003
6901	10.531	4.5455	0.1	-4.6377e-003
6902	10.347	4.5455	0.1	-4.6282e-003
6903	10.162	4.5455	0.1	-4.6593e-003
6904	9.9778	4.5455	0.1	-4.7524e-003
6905	9.7933	4.5455	0.1	-4.9048e-003
6906	9.6088	4.5455	0.1	-5.1289e-003
6907	9.4243	4.5455	0.1	-5.4382e-003
6908	9.2398	4.5455	0.1	-5.8481e-003
6909	9.0553	4.5455	0.1	-6.3829e-003
6910	8.8708	4.5455	0.1	-7.0714e-003
6911	8.6863	4.5455	0.1	-7.953e-003
6912	8.5018	4.5455	0.1	-9.0766e-003
6913	8.3173	4.5455	0.1	-1.0509e-002
6914	8.1327	4.5455	0.1	-1.234e-002
6915	7.9482	4.5455	0.1	-1.4686e-002
6916	7.7637	4.5455	0.1	-1.7694e-002
6917	7.5792	4.5455	0.1	-2.157e-002
6918	7.3947	4.5455	0.1	-2.6591e-002
6919	7.2102	4.5455	0.1	-3.3133e-002
6920	7.0257	4.5455	0.1	-4.1718e-002
6921	6.8412	4.5455	0.1	-5.3069e-002
6922	6.6567	4.5455	0.1	-6.8215e-002
6923	6.4722	4.5455	0.1	-8.8619e-002
6924	6.2877	4.5455	0.1	-0.11641
6925	6.1032	4.5455	0.1	-0.15476
6926	5.9187	4.5455	0.1	-0.20851
6927	5.7342	4.5455	0.1	-0.28522
6928	5.5497	4.5455	0.1	-0.39734
6929	5.3652	4.5455	0.1	-0.56647
6930	5.1807	4.5455	0.1	-0.83369
6931	4.9962	4.5455	0.1	-1.2873
6932	4.8117	4.5455	0.1	-2.1589
6933	4.6272	4.5455	0.1	-4.2889
6934	4.4427	4.5455	0.1	-13.154
6935	4.2582	4.5455	0.1	-60.291
6936	4.0737	4.5455	0.1	-163.4
6937	3.8892	4.5455	0.1	-334.21
6938	3.7047	4.5455	0.1	-612.03
6939	3.5202	4.5455	0.1	-1060.2
6940	3.3357	4.5455	0.1	-1761.6
6941	3.1512	4.5455	0.1	-2943.6
6942	23.815	4.7273	0.1	-133.07
6943	23.631	4.7273	0.1	-122.92
6944	23.446	4.7273	0.1	-113.57
6945	23.262	4.7273	0.1	-105.12
6946	23.077	4.7273	0.1	-97.491
6947	22.893	4.7273	0.1	-90.625
6948	22.708	4.7273	0.1	-84.443
6949	22.524	4.7273	0.1	-78.866
6950	22.339	4.7273	0.1	-73.818
6951	22.155	4.7273	0.1	-69.232
6952	21.97	4.7273	0.1	-65.051
6953	21.786	4.7273	0.1	-61.226
6954	21.601	4.7273	0.1	-57.716
6955	21.417	4.7273	0.1	-54.485
6956	21.232	4.7273	0.1	-51.504
6957	21.048	4.7273	0.1	-48.748
6958	20.863	4.7273	0.1	-46.196
6959	20.679	4.7273	0.1	-43.829
6960	20.494	4.7273	0.1	-41.63
6961	20.31	4.7273	0.1	-39.586
6962	20.125	4.7273	0.1	-37.683
6963	19.941	4.7273	0.1	-35.911
6964	19.756	4.7273	0.1	-34.257
6965	19.572	4.7273	0.1	-32.714
6966	19.387	4.7273	0.1	-31.273
6967	19.203	4.7273	0.1	-29.925
6968	19.018	4.7273	0.1	-28.663
6969	18.834	4.7273	0.1	-27.48
6970	18.649	4.7273	0.1	-26.37
6971	18.465	4.7273	0.1	-25.327
6972	18.28	4.7273	0.1	-24.346
6973	18.096	4.7273	0.1	-23.42
6974	17.911	4.7273	0.1	-22.546
6975	17.727	4.7273	0.1	-21.719
6976	17.542	4.7273	0.1	-20.933
6977	17.358	4.7273	0.1	-20.186
6978	17.173	4.7273	0.1	-19.472
6979	16.989	4.7273	0.1	-18.789
6980	16.804	4.7273	0.1	-18.132
6981	16.62	4.7273	0.1	-17.498
6982	16.435	4.7273	0.1	-16.883
6983	16.251	4.7273	0.1	-16.284
6984	16.066	4.7273	0.1	-15.699
6985	15.882	4.7273	0.1	-15.123
6986	15.697	4.7273	0.1	-14.553
6987	15.513	4.7273	0.1	-13.987
6988	15.328	4.7273	0.1	-13.421
6989	15.144	4.7273	0.1	-12.853
6990	14.959	4.7273	0.1	-12.278
6991	14.775	4.7273	0.1	-11.694
6992	14.59	4.7273	0.1	-11.097
6993	14.406	4.7273	0.1	-10.484
6994	14.221	4.7273	0.1	-9.8513
6995	14.037	4.7273	0.1	-9.1956
6996	13.852	4.7273	0.1	-8.513
6997	13.668	4.7273	0.1	-7.7995
6998	13.483	4.7273	0.1	-7.051
6999	13.299	4.7273	0.1	-6.2633
7000	13.114	4.7273	0.1	-5.4317
7001	12.93	4.7273	0.1	-4.5516
7002	12.745	4.7273	0.1	-3.618
7003	12.561	4.7273	0.1	-2.6263
7004	12.376	4.7273	0.1	-1.5727
7005	12.192	4.7273	0.1	-0.4724
7006	12.007	4.7273	0.1	-2.7004e-002
7007	11.823	4.7273	0.1	-1.2095e-002
7008	11.638	4.7273	0.1	-8.4045e-003
7009	11.454	4.7273	0.1	-6.7828e-003
7010	11.269	4.7273	0.1	-5.9035e-003
7011	11.085	4.7273	0.1	-5.4001e-003
7012	10.9	4.7273	0.1	-5.0953e-003
7013	10.716	4.7273	0.1	-4.8933e-003
7014	10.531	4.7273	0.1	-4.8274e-003
7015	10.347	4.7273	0.1	-4.8538e-003
7016	10.162	4.7273	0.1	-4.9402e-003
7017	9.9778	4.7273	0.1	-5.1059e-003
7018	9.7933	4.7273	0.1	-5.3454e-003
7019	9.6088	4.7273	0.1	-5.6724e-003
7020	9.4243	4.7273	0.1	-6.1e-003
7021	9.2398	4.7273	0.1	-6.6438e-003
7022	9.0553	4.7273	0.1	-7.3292e-003
7023	8.8708	4.7273	0.1	-8.1867e-003
7024	8.6863	4.7273	0.1	-9.2592e-003
7025	8.5018	4.7273	0.1	-1.0597e-002
7026	8.3173	4.7273	0.1	-1.227e-002
7027	8.1327	4.7273	0.1	-1.4377e-002
7028	7.9482	4.7273	0.1	-1.7039e-002
7029	7.7637	4.7273	0.1	-2.0415e-002
7030	7.5792	4.7273	0.1	-2.4729e-002
7031	7.3947	4.7273	0.1	-3.0288e-002
7032	7.2102	4.7273	0.1	-3.7515e-002
7033	7.0257	4.7273	0.1	-4.7011e-002
7034	6.8412	4.7273	0.1	-5.9635e-002
7035	6.6567	4.7273	0.1	-7.6657e-002
7036	6.4722	4.7273	0.1	-9.9965e-002
7037	6.2877	4.7273	0.1	-0.13246
7038	6.1032	4.7273	0.1	-0.17876
7039	5.9187	4.7273	0.1	-0.24648
7040	5.7342	4.7273	0.1	-0.34875
7041	5.5497	4.7273	0.1	-0.51001
7042	5.3652	4.7273	0.1	-0.78014
7043	5.1807	4.7273	0.1	-1.2772
7044	4.9962	4.7273	0.1	-2.3534
7045	4.8117	4.7273	0.1	-5.5563
7046	4.6272	4.7273	0.1	-20.008
7047	4.4427	4.7273	0.1	-60.006
7048	4.2582	4.7273	0.1	-125.31
7049	4.0737	4.7273	0.1	-224.34
7050	3.8892	4.7273	0.1	-375.23
7051	3.7047	4.7273	0.1	-605.84
7052	3.5202	4.7273	0.1	-952.38
7053	3.3357	4.7273	0.1	-1463.
7054	3.1512	4.7273	0.1	-2286.5
7055	23.815	4.9091	0.1	-122.05
7056	23.631	4.9091	0.1	-112.05
7057	23.446	4.9091	0.1	-103.03
7058	23.262	4.9091	0.1	-95.08
7059	23.077	4.9091	0.1	-88.041
7060	22.893	4.9091	0.1	-81.824
7061	22.708	4.9091	0.1	-76.309
7062	22.524	4.9091	0.1	-71.389
7063	22.339	4.9091	0.1	-66.972
7064	22.155	4.9091	0.1	-62.983
7065	21.97	4.9091	0.1	-59.358
7066	21.786	4.9091	0.1	-56.049
7067	21.601	4.9091	0.1	-53.013
7068	21.417	4.9091	0.1	-50.219
7069	21.232	4.9091	0.1	-47.638
7070	21.048	4.9091	0.1	-45.248
7071	20.863	4.9091	0.1	-43.031
7072	20.679	4.9091	0.1	-40.97
7073	20.494	4.9091	0.1	-39.052
7074	20.31	4.9091	0.1	-37.263
7075	20.125	4.9091	0.1	-35.594
7076	19.941	4.9091	0.1	-34.034
7077	19.756	4.9091	0.1	-32.576
7078	19.572	4.9091	0.1	-31.211
7079	19.387	4.9091	0.1	-29.932
7080	19.203	4.9091	0.1	-28.733
7081	19.018	4.9091	0.1	-27.607
7082	18.834	4.9091	0.1	-26.549
7083	18.649	4.9091	0.1	-25.554
7084	18.465	4.9091	0.1	-24.616
7085	18.28	4.9091	0.1	-23.73
7086	18.096	4.9091	0.1	-22.894
7087	17.911	4.9091	0.1	-22.101
7088	17.727	4.9091	0.1	-21.349
7089	17.542	4.9091	0.1	-20.634
7090	17.358	4.9091	0.1	-19.951
7091	17.173	4.9091	0.1	-19.298
7092	16.989	4.9091	0.1	-18.672
7093	16.804	4.9091	0.1	-18.069
7094	16.62	4.9091	0.1	-17.485
7095	16.435	4.9091	0.1	-16.919
7096	16.251	4.9091	0.1	-16.368
7097	16.066	4.9091	0.1	-15.827
7098	15.882	4.9091	0.1	-15.295
7099	15.697	4.9091	0.1	-14.77
7100	15.513	4.9091	0.1	-14.247
7101	15.328	4.9091	0.1	-13.725
7102	15.144	4.9091	0.1	-13.2
7103	14.959	4.9091	0.1	-12.67
7104	14.775	4.9091	0.1	-12.132
7105	14.59	4.9091	0.1	-11.583
7106	14.406	4.9091	0.1	-11.02
7107	14.221	4.9091	0.1	-10.44
7108	14.037	4.9091	0.1	-9.8401
7109	13.852	4.9091	0.1	-9.2164
7110	13.668	4.9091	0.1	-8.5656
7111	13.483	4.9091	0.1	-7.8843
7112	13.299	4.9091	0.1	-7.1685
7113	13.114	4.9091	0.1	-6.4143
7114	12.93	4.9091	0.1	-5.6176
7115	12.745	4.9091	0.1	-4.7739
7116	12.561	4.9091	0.1	-3.8788
7117	12.376	4.9091	0.1	-2.9277
7118	12.192	4.9091	0.1	-1.9166
7119	12.007	4.9091	0.1	-0.84744
7120	11.823	4.9091	0.1	-5.1751e-002
7121	11.638	4.9091	0.1	-1.4153e-002
7122	11.454	4.9091	0.1	-8.8296e-003
7123	11.269	4.9091	0.1	-6.8363e-003
7124	11.085	4.9091	0.1	-5.8848e-003
7125	10.9	4.9091	0.1	-5.3843e-003
7126	10.716	4.9091	0.1	-5.1042e-003
7127	10.531	4.9091	0.1	-5.0271e-003
7128	10.347	4.9091	0.1	-5.0813e-003
7129	10.162	4.9091	0.1	-5.2248e-003
7130	9.9778	4.9091	0.1	-5.4686e-003
7131	9.7933	4.9091	0.1	-5.8032e-003
7132	9.6088	4.9091	0.1	-6.2404e-003
7133	9.4243	4.9091	0.1	-6.7922e-003
7134	9.2398	4.9091	0.1	-7.4731e-003
7135	9.0553	4.9091	0.1	-8.3083e-003
7136	8.8708	4.9091	0.1	-9.3288e-003
7137	8.6863	4.9091	0.1	-1.0576e-002
7138	8.5018	4.9091	0.1	-1.2102e-002
7139	8.3173	4.9091	0.1	-1.3976e-002
7140	8.1327	4.9091	0.1	-1.6298e-002
7141	7.9482	4.9091	0.1	-1.9193e-002
7142	7.7637	4.9091	0.1	-2.2823e-002
7143	7.5792	4.9091	0.1	-2.7423e-002
7144	7.3947	4.9091	0.1	-3.3321e-002
7145	7.2102	4.9091	0.1	-4.098e-002
7146	7.0257	4.9091	0.1	-5.1081e-002
7147	6.8412	4.9091	0.1	-6.4639e-002
7148	6.6567	4.9091	0.1	-8.323e-002
7149	6.4722	4.9091	0.1	-0.10936
7150	6.2877	4.9091	0.1	-0.1472
7151	6.1032	4.9091	0.1	-0.20409
7152	5.9187	4.9091	0.1	-0.29378
7153	5.7342	4.9091	0.1	-0.44465
7154	5.5497	4.9091	0.1	-0.72372
7155	5.3652	4.9091	0.1	-1.3272
7156	5.1807	4.9091	0.1	-3.0741
7157	4.9962	4.9091	0.1	-10.665
7158	4.8117	4.9091	0.1	-31.921
7159	4.6272	4.9091	0.1	-64.021
7160	4.4427	4.9091	0.1	-107.34
7161	4.2582	4.9091	0.1	-166.16
7162	4.0737	4.9091	0.1	-248.06
7163	3.8892	4.9091	0.1	-365.18
7164	3.7047	4.9091	0.1	-535.87
7165	3.5202	4.9091	0.1	-783.97
7166	3.3357	4.9091	0.1	-1142.3
7167	3.1512	4.9091	0.1	-1748.1
7168	23.815	5.0909	0.1	-109.35
7169	23.631	5.0909	0.1	-99.592
7170	23.446	5.0909	0.1	-91.103
7171	23.262	5.0909	0.1	-83.856
7172	23.077	5.0909	0.1	-77.627
7173	22.893	5.0909	0.1	-72.25
7174	22.708	5.0909	0.1	-67.561
7175	22.524	5.0909	0.1	-63.426
7176	22.339	5.0909	0.1	-59.74
7177	22.155	5.0909	0.1	-56.423
7178	21.97	5.0909	0.1	-53.414
7179	21.786	5.0909	0.1	-50.666
7180	21.601	5.0909	0.1	-48.141
7181	21.417	5.0909	0.1	-45.812
7182	21.232	5.0909	0.1	-43.654
7183	21.048	5.0909	0.1	-41.649
7184	20.863	5.0909	0.1	-39.782
7185	20.679	5.0909	0.1	-38.04
7186	20.494	5.0909	0.1	-36.412
7187	20.31	5.0909	0.1	-34.889
7188	20.125	5.0909	0.1	-33.461
7189	19.941	5.0909	0.1	-32.122
7190	19.756	5.0909	0.1	-30.865
7191	19.572	5.0909	0.1	-29.684
7192	19.387	5.0909	0.1	-28.573
7193	19.203	5.0909	0.1	-27.527
7194	19.018	5.0909	0.1	-26.542
7195	18.834	5.0909	0.1	-25.612
7196	18.649	5.0909	0.1	-24.735
7197	18.465	5.0909	0.1	-23.905
7198	18.28	5.0909	0.1	-23.119
7199	18.096	5.0909	0.1	-22.374
7200	17.911	5.0909	0.1	-21.665
7201	17.727	5.0909	0.1	-20.991
7202	17.542	5.0909	0.1	-20.348
7203	17.358	5.0909	0.1	-19.733
7204	17.173	5.0909	0.1	-19.143
7205	16.989	5.0909	0.1	-18.575
7206	16.804	5.0909	0.1	-18.027
7207	16.62	5.0909	0.1	-17.497
7208	16.435	5.0909	0.1	-16.981
7209	16.251	5.0909	0.1	-16.478
7210	16.066	5.0909	0.1	-15.985
7211	15.882	5.0909	0.1	-15.499
7212	15.697	5.0909	0.1	-15.019
7213	15.513	5.0909	0.1	-14.542
7214	15.328	5.0909	0.1	-14.065
7215	15.144	5.0909	0.1	-13.586
7216	14.959	5.0909	0.1	-13.104
7217	14.775	5.0909	0.1	-12.614
7218	14.59	5.0909	0.1	-12.116
7219	14.406	5.0909	0.1	-11.606
7220	14.221	5.0909	0.1	-11.081
7221	14.037	5.0909	0.1	-10.54
7222	13.852	5.0909	0.1	-9.9784
7223	13.668	5.0909	0.1	-9.3941
7224	13.483	5.0909	0.1	-8.7839
7225	13.299	5.0909	0.1	-8.1444
7226	13.114	5.0909	0.1	-7.4723
7227	12.93	5.0909	0.1	-6.764
7228	12.745	5.0909	0.1	-6.0157
7229	12.561	5.0909	0.1	-5.2237
7230	12.376	5.0909	0.1	-4.3837
7231	12.192	5.0909	0.1	-3.4916
7232	12.007	5.0909	0.1	-2.5434
7233	11.823	5.0909	0.1	-1.5359
7234	11.638	5.0909	0.1	-0.48061
7235	11.454	5.0909	0.1	-2.3531e-002
7236	11.269	5.0909	0.1	-1.004e-002
7237	11.085	5.0909	0.1	-7.0101e-003
7238	10.9	5.0909	0.1	-5.8328e-003
7239	10.716	5.0909	0.1	-5.2963e-003
7240	10.531	5.0909	0.1	-5.1315e-003
7241	10.347	5.0909	0.1	-5.183e-003
7242	10.162	5.0909	0.1	-5.3715e-003
7243	9.9778	5.0909	0.1	-5.6892e-003
7244	9.7933	5.0909	0.1	-6.1195e-003
7245	9.6088	5.0909	0.1	-6.6668e-003
7246	9.4243	5.0909	0.1	-7.3413e-003
7247	9.2398	5.0909	0.1	-8.1555e-003
7248	9.0553	5.0909	0.1	-9.1314e-003
7249	8.8708	5.0909	0.1	-1.0298e-002
7250	8.6863	5.0909	0.1	-1.1694e-002
7251	8.5018	5.0909	0.1	-1.3371e-002
7252	8.3173	5.0909	0.1	-1.5394e-002
7253	8.1327	5.0909	0.1	-1.7858e-002
7254	7.9482	5.0909	0.1	-2.0886e-002
7255	7.7637	5.0909	0.1	-2.4638e-002
7256	7.5792	5.0909	0.1	-2.9349e-002
7257	7.3947	5.0909	0.1	-3.5355e-002
7258	7.2102	5.0909	0.1	-4.3152e-002
7259	7.0257	5.0909	0.1	-5.3495e-002
7260	6.8412	5.0909	0.1	-6.7577e-002
7261	6.6567	5.0909	0.1	-8.7384e-002
7262	6.4722	5.0909	0.1	-0.11638
7263	6.2877	5.0909	0.1	-0.16106
7264	6.1032	5.0909	0.1	-0.2349
7265	5.9187	5.0909	0.1	-0.36984
7266	5.7342	5.0909	0.1	-0.65987
7267	5.5497	5.0909	0.1	-1.5119
7268	5.3652	5.0909	0.1	-5.8646
7269	5.1807	5.0909	0.1	-20.176
7270	4.9962	5.0909	0.1	-40.909
7271	4.8117	5.0909	0.1	-66.614
7272	4.6272	5.0909	0.1	-97.863
7273	4.4427	5.0909	0.1	-135.95
7274	4.2582	5.0909	0.1	-183.15
7275	4.0737	5.0909	0.1	-243.37
7276	3.8892	5.0909	0.1	-323.47
7277	3.7047	5.0909	0.1	-435.32
7278	3.5202	5.0909	0.1	-597.88
7279	3.3357	5.0909	0.1	-845.5
7280	3.1512	5.0909	0.1	-1304.7
7281	23.815	5.2727	0.1	-94.672
7282	23.631	5.2727	0.1	-85.363
7283	23.446	5.2727	0.1	-77.71
7284	23.262	5.2727	0.1	-71.505
7285	23.077	5.2727	0.1	-66.379
7286	22.893	5.2727	0.1	-62.075
7287	22.708	5.2727	0.1	-58.382
7288	22.524	5.2727	0.1	-55.154
7289	22.339	5.2727	0.1	-52.287
7290	22.155	5.2727	0.1	-49.705
7291	21.97	5.2727	0.1	-47.356
7292	21.786	5.2727	0.1	-45.2
7293	21.601	5.2727	0.1	-43.209
7294	21.417	5.2727	0.1	-41.361
7295	21.232	5.2727	0.1	-39.638
7296	21.048	5.2727	0.1	-38.028
7297	20.863	5.2727	0.1	-36.518
7298	20.679	5.2727	0.1	-35.101
7299	20.494	5.2727	0.1	-33.768
7300	20.31	5.2727	0.1	-32.513
7301	20.125	5.2727	0.1	-31.331
7302	19.941	5.2727	0.1	-30.215
7303	19.756	5.2727	0.1	-29.161
7304	19.572	5.2727	0.1	-28.166
7305	19.387	5.2727	0.1	-27.225
7306	19.203	5.2727	0.1	-26.335
7307	19.018	5.2727	0.1	-25.492
7308	18.834	5.2727	0.1	-24.692
7309	18.649	5.2727	0.1	-23.934
7310	18.465	5.2727	0.1	-23.213
7311	18.28	5.2727	0.1	-22.528
7312	18.096	5.2727	0.1	-21.876
7313	17.911	5.2727	0.1	-21.253
7314	17.727	5.2727	0.1	-20.658
7315	17.542	5.2727	0.1	-20.088
7316	17.358	5.2727	0.1	-19.541
7317	17.173	5.2727	0.1	-19.015
7318	16.989	5.2727	0.1	-18.507
7319	16.804	5.2727	0.1	-18.016
7320	16.62	5.2727	0.1	-17.539
7321	16.435	5.2727	0.1	-17.075
7322	16.251	5.2727	0.1	-16.621
7323	16.066	5.2727	0.1	-16.176
7324	15.882	5.2727	0.1	-15.738
7325	15.697	5.2727	0.1	-15.305
7326	15.513	5.2727	0.1	-14.874
7327	15.328	5.2727	0.1	-14.444
7328	15.144	5.2727	0.1	-14.013
7329	14.959	5.2727	0.1	-13.579
7330	14.775	5.2727	0.1	-13.141
7331	14.59	5.2727	0.1	-12.695
7332	14.406	5.2727	0.1	-12.24
7333	14.221	5.2727	0.1	-11.773
7334	14.037	5.2727	0.1	-11.293
7335	13.852	5.2727	0.1	-10.796
7336	13.668	5.2727	0.1	-10.282
7337	13.483	5.2727	0.1	-9.7459
7338	13.299	5.2727	0.1	-9.1863
7339	13.114	5.2727	0.1	-8.6002
7340	12.93	5.2727	0.1	-7.9845
7341	12.745	5.2727	0.1	-7.3363
7342	12.561	5.2727	0.1	-6.6524
7343	12.376	5.2727	0.1	-5.9293
7344	12.192	5.2727	0.1	-5.1635
7345	12.007	5.2727	0.1	-4.3515
7346	11.823	5.2727	0.1	-3.4896
7347	11.638	5.2727	0.1	-2.5741
7348	11.454	5.2727	0.1	-1.6019
7349	11.269	5.2727	0.1	-0.5765
7350	11.085	5.2727	0.1	-1.9489e-002
7351	10.9	5.2727	0.1	-8.0683e-003
7352	10.716	5.2727	0.1	-6.1156e-003
7353	10.531	5.2727	0.1	-5.6276e-003
7354	10.347	5.2727	0.1	-5.6624e-003
7355	10.162	5.2727	0.1	-5.9533e-003
7356	9.9778	5.2727	0.1	-6.4309e-003
7357	9.7933	5.2727	0.1	-7.0527e-003
7358	9.6088	5.2727	0.1	-7.8118e-003
7359	9.4243	5.2727	0.1	-8.7091e-003
7360	9.2398	5.2727	0.1	-9.7529e-003
7361	9.0553	5.2727	0.1	-1.096e-002
7362	8.8708	5.2727	0.1	-1.2355e-002
7363	8.6863	5.2727	0.1	-1.3971e-002
7364	8.5018	5.2727	0.1	-1.5849e-002
7365	8.3173	5.2727	0.1	-1.8046e-002
7366	8.1327	5.2727	0.1	-2.0643e-002
7367	7.9482	5.2727	0.1	-2.3749e-002
7368	7.7637	5.2727	0.1	-2.7505e-002
7369	7.5792	5.2727	0.1	-3.213e-002
7370	7.3947	5.2727	0.1	-3.7942e-002
7371	7.2102	5.2727	0.1	-4.544e-002
7372	7.0257	5.2727	0.1	-5.5427e-002
7373	6.8412	5.2727	0.1	-6.9283e-002
7374	6.6567	5.2727	0.1	-8.9537e-002
7375	6.4722	5.2727	0.1	-0.12126
7376	6.2877	5.2727	0.1	-0.17598
7377	6.1032	5.2727	0.1	-0.28573
7378	5.9187	5.2727	0.1	-0.57608
7379	5.7342	5.2727	0.1	-2.0424
7380	5.5497	5.2727	0.1	-10.54
7381	5.3652	5.2727	0.1	-24.842
7382	5.1807	5.2727	0.1	-42.493
7383	4.9962	5.2727	0.1	-63.391
7384	4.8117	5.2727	0.1	-87.607
7385	4.6272	5.2727	0.1	-115.2
7386	4.4427	5.2727	0.1	-146.24
7387	4.2582	5.2727	0.1	-181.02
7388	4.0737	5.2727	0.1	-220.48
7389	3.8892	5.2727	0.1	-267.38
7390	3.7047	5.2727	0.1	-328.82
7391	3.5202	5.2727	0.1	-420.63
7392	3.3357	5.2727	0.1	-579.8
7393	3.1512	5.2727	0.1	-927.31
7394	23.815	5.4545	0.1	-77.606
7395	23.631	5.4545	0.1	-69.168
7396	23.446	5.4545	0.1	-62.92
7397	23.262	5.4545	0.1	-58.26
7398	23.077	5.4545	0.1	-54.598
7399	22.893	5.4545	0.1	-51.604
7400	22.708	5.4545	0.1	-49.059
7401	22.524	5.4545	0.1	-46.831
7402	22.339	5.4545	0.1	-44.838
7403	22.155	5.4545	0.1	-43.025
7404	21.97	5.4545	0.1	-41.354
7405	21.786	5.4545	0.1	-39.802
7406	21.601	5.4545	0.1	-38.349
7407	21.417	5.4545	0.1	-36.984
7408	21.232	5.4545	0.1	-35.696
7409	21.048	5.4545	0.1	-34.478
7410	20.863	5.4545	0.1	-33.323
7411	20.679	5.4545	0.1	-32.228
7412	20.494	5.4545	0.1	-31.188
7413	20.31	5.4545	0.1	-30.199
7414	20.125	5.4545	0.1	-29.259
7415	19.941	5.4545	0.1	-28.365
7416	19.756	5.4545	0.1	-27.513
7417	19.572	5.4545	0.1	-26.702
7418	19.387	5.4545	0.1	-25.929
7419	19.203	5.4545	0.1	-25.193
7420	19.018	5.4545	0.1	-24.491
7421	18.834	5.4545	0.1	-23.821
7422	18.649	5.4545	0.1	-23.181
7423	18.465	5.4545	0.1	-22.569
7424	18.28	5.4545	0.1	-21.984
7425	18.096	5.4545	0.1	-21.423
7426	17.911	5.4545	0.1	-20.886
7427	17.727	5.4545	0.1	-20.369
7428	17.542	5.4545	0.1	-19.872
7429	17.358	5.4545	0.1	-19.393
7430	17.173	5.4545	0.1	-18.931
7431	16.989	5.4545	0.1	-18.483
7432	16.804	5.4545	0.1	-18.049
7433	16.62	5.4545	0.1	-17.626
7434	16.435	5.4545	0.1	-17.213
7435	16.251	5.4545	0.1	-16.809
7436	16.066	5.4545	0.1	-16.413
7437	15.882	5.4545	0.1	-16.022
7438	15.697	5.4545	0.1	-15.636
7439	15.513	5.4545	0.1	-15.253
7440	15.328	5.4545	0.1	-14.87
7441	15.144	5.4545	0.1	-14.488
7442	14.959	5.4545	0.1	-14.104
7443	14.775	5.4545	0.1	-13.717
7444	14.59	5.4545	0.1	-13.325
7445	14.406	5.4545	0.1	-12.926
7446	14.221	5.4545	0.1	-12.519
7447	14.037	5.4545	0.1	-12.102
7448	13.852	5.4545	0.1	-11.673
7449	13.668	5.4545	0.1	-11.23
7450	13.483	5.4545	0.1	-10.771
7451	13.299	5.4545	0.1	-10.294
7452	13.114	5.4545	0.1	-9.797
7453	12.93	5.4545	0.1	-9.2774
7454	12.745	5.4545	0.1	-8.7328
7455	12.561	5.4545	0.1	-8.1609
7456	12.376	5.4545	0.1	-7.5589
7457	12.192	5.4545	0.1	-6.9242
7458	12.007	5.4545	0.1	-6.2539
7459	11.823	5.4545	0.1	-5.5453
7460	11.638	5.4545	0.1	-4.7954
7461	11.454	5.4545	0.1	-4.0011
7462	11.269	5.4545	0.1	-3.1597
7463	11.085	5.4545	0.1	-2.2683
7464	10.9	5.4545	0.1	-1.3243
7465	10.716	5.4545	0.1	-0.32882
7466	10.531	5.4545	0.1	-5.3854e-003
7467	10.347	5.4545	0.1	-4.377e-003
7468	10.162	5.4545	0.1	-4.6521e-003
7469	9.9778	5.4545	0.1	-5.2365e-003
7470	9.7933	5.4545	0.1	-5.9827e-003
7471	9.6088	5.4545	0.1	-6.8619e-003
7472	9.4243	5.4545	0.1	-7.8716e-003
7473	9.2398	5.4545	0.1	-9.0178e-003
7474	9.0553	5.4545	0.1	-1.0316e-002
7475	8.8708	5.4545	0.1	-1.1789e-002
7476	8.6863	5.4545	0.1	-1.3467e-002
7477	8.5018	5.4545	0.1	-1.5387e-002
7478	8.3173	5.4545	0.1	-1.76e-002
7479	8.1327	5.4545	0.1	-2.0179e-002
7480	7.9482	5.4545	0.1	-2.3221e-002
7481	7.7637	5.4545	0.1	-2.6856e-002
7482	7.5792	5.4545	0.1	-3.1283e-002
7483	7.3947	5.4545	0.1	-3.6813e-002
7484	7.2102	5.4545	0.1	-4.3944e-002
7485	7.0257	5.4545	0.1	-5.3542e-002
7486	6.8412	5.4545	0.1	-6.7231e-002
7487	6.6567	5.4545	0.1	-8.8424e-002
7488	6.4722	5.4545	0.1	-0.1255
7489	6.2877	5.4545	0.1	-0.20523
7490	6.1032	5.4545	0.1	-0.47204
7491	5.9187	5.4545	0.1	-2.9716
7492	5.7342	5.4545	0.1	-11.536
7493	5.5497	5.4545	0.1	-22.935
7494	5.3652	5.4545	0.1	-36.764
7495	5.1807	5.4545	0.1	-53.074
7496	4.9962	5.4545	0.1	-71.843
7497	4.8117	5.4545	0.1	-92.881
7498	4.6272	5.4545	0.1	-115.76
7499	4.4427	5.4545	0.1	-139.76
7500	4.2582	5.4545	0.1	-163.9
7501	4.0737	5.4545	0.1	-187.2
7502	3.8892	5.4545	0.1	-209.44
7503	3.7047	5.4545	0.1	-233.44
7504	3.5202	5.4545	0.1	-269.89
7505	3.3357	5.4545	0.1	-353.59
7506	3.1512	5.4545	0.1	-602.75
7507	23.815	5.6364	0.1	-57.44
7508	23.631	5.6364	0.1	-50.981
7509	23.446	5.6364	0.1	-47.201
7510	23.262	5.6364	0.1	-44.74
7511	23.077	5.6364	0.1	-42.894
7512	22.893	5.6364	0.1	-41.384
7513	22.708	5.6364	0.1	-40.068
7514	22.524	5.6364	0.1	-38.874
7515	22.339	5.6364	0.1	-37.764
7516	22.155	5.6364	0.1	-36.713
7517	21.97	5.6364	0.1	-35.71
7518	21.786	5.6364	0.1	-34.747
7519	21.601	5.6364	0.1	-33.818
7520	21.417	5.6364	0.1	-32.921
7521	21.232	5.6364	0.1	-32.053
7522	21.048	5.6364	0.1	-31.214
7523	20.863	5.6364	0.1	-30.403
7524	20.679	5.6364	0.1	-29.619
7525	20.494	5.6364	0.1	-28.861
7526	20.31	5.6364	0.1	-28.13
7527	20.125	5.6364	0.1	-27.424
7528	19.941	5.6364	0.1	-26.743
7529	19.756	5.6364	0.1	-26.086
7530	19.572	5.6364	0.1	-25.453
7531	19.387	5.6364	0.1	-24.843
7532	19.203	5.6364	0.1	-24.255
7533	19.018	5.6364	0.1	-23.689
7534	18.834	5.6364	0.1	-23.144
7535	18.649	5.6364	0.1	-22.618
7536	18.465	5.6364	0.1	-22.111
7537	18.28	5.6364	0.1	-21.622
7538	18.096	5.6364	0.1	-21.15
7539	17.911	5.6364	0.1	-20.694
7540	17.727	5.6364	0.1	-20.253
7541	17.542	5.6364	0.1	-19.826
7542	17.358	5.6364	0.1	-19.413
7543	17.173	5.6364	0.1	-19.011
7544	16.989	5.6364	0.1	-18.621
7545	16.804	5.6364	0.1	-18.24
7546	16.62	5.6364	0.1	-17.869
7547	16.435	5.6364	0.1	-17.506
7548	16.251	5.6364	0.1	-17.15
7549	16.066	5.6364	0.1	-16.801
7550	15.882	5.6364	0.1	-16.456
7551	15.697	5.6364	0.1	-16.115
7552	15.513	5.6364	0.1	-15.778
7553	15.328	5.6364	0.1	-15.442
7554	15.144	5.6364	0.1	-15.108
7555	14.959	5.6364	0.1	-14.773
7556	14.775	5.6364	0.1	-14.436
7557	14.59	5.6364	0.1	-14.097
7558	14.406	5.6364	0.1	-13.755
7559	14.221	5.6364	0.1	-13.407
7560	14.037	5.6364	0.1	-13.053
7561	13.852	5.6364	0.1	-12.692
7562	13.668	5.6364	0.1	-12.321
7563	13.483	5.6364	0.1	-11.94
7564	13.299	5.6364	0.1	-11.546
7565	13.114	5.6364	0.1	-11.139
7566	12.93	5.6364	0.1	-10.717
7567	12.745	5.6364	0.1	-10.278
7568	12.561	5.6364	0.1	-9.8199
7569	12.376	5.6364	0.1	-9.3412
7570	12.192	5.6364	0.1	-8.84
7571	12.007	5.6364	0.1	-8.3142
7572	11.823	5.6364	0.1	-7.7619
7573	11.638	5.6364	0.1	-7.181
7574	11.454	5.6364	0.1	-6.5695
7575	11.269	5.6364	0.1	-5.9254
7576	11.085	5.6364	0.1	-5.2468
7577	10.9	5.6364	0.1	-4.532
7578	10.716	5.6364	0.1	-3.7791
7579	10.531	5.6364	0.1	-2.9871
7580	10.347	5.6364	0.1	-2.1552
7581	10.162	5.6364	0.1	-1.2837
7582	9.9778	5.6364	0.1	-0.38161
7583	9.7933	5.6364	0.1	-3.0496e-002
7584	9.6088	5.6364	0.1	-2.6935e-002
7585	9.4243	5.6364	0.1	-2.8052e-002
7586	9.2398	5.6364	0.1	-3.0126e-002
7587	9.0553	5.6364	0.1	-3.2636e-002
7588	8.8708	5.6364	0.1	-3.5426e-002
7589	8.6863	5.6364	0.1	-3.8429e-002
7590	8.5018	5.6364	0.1	-4.1606e-002
7591	8.3173	5.6364	0.1	-4.4929e-002
7592	8.1327	5.6364	0.1	-4.8385e-002
7593	7.9482	5.6364	0.1	-5.1963e-002
7594	7.7637	5.6364	0.1	-5.5666e-002
7595	7.5792	5.6364	0.1	-5.9542e-002
7596	7.3947	5.6364	0.1	-6.3724e-002
7597	7.2102	5.6364	0.1	-6.8528e-002
7598	7.0257	5.6364	0.1	-7.4702e-002
7599	6.8412	5.6364	0.1	-8.4094e-002
7600	6.6567	5.6364	0.1	-0.10196
7601	6.4722	5.6364	0.1	-0.14833
7602	6.2877	5.6364	0.1	-0.38177
7603	6.1032	5.6364	0.1	-3.1642
7604	5.9187	5.6364	0.1	-9.0982
7605	5.7342	5.6364	0.1	-16.695
7606	5.5497	5.6364	0.1	-26.009
7607	5.3652	5.6364	0.1	-37.158
7608	5.1807	5.6364	0.1	-50.202
7609	4.9962	5.6364	0.1	-65.082
7610	4.8117	5.6364	0.1	-81.55
7611	4.6272	5.6364	0.1	-99.086
7612	4.4427	5.6364	0.1	-116.8
7613	4.2582	5.6364	0.1	-133.36
7614	4.0737	5.6364	0.1	-147.07
7615	3.8892	5.6364	0.1	-156.16
7616	3.7047	5.6364	0.1	-160.04
7617	3.5202	5.6364	0.1	-162.41
7618	3.3357	5.6364	0.1	-185.33
7619	3.1512	5.6364	0.1	-331.28
7620	23.815	5.8182	0.1	-34.187
7621	23.631	5.8182	0.1	-33.226
7622	23.446	5.8182	0.1	-33.571
7623	23.262	5.8182	0.1	-33.923
7624	23.077	5.8182	0.1	-34.135
7625	22.893	5.8182	0.1	-34.207
7626	22.708	5.8182	0.1	-34.155
7627	22.524	5.8182	0.1	-34.002
7628	22.339	5.8182	0.1	-33.767
7629	22.155	5.8182	0.1	-33.464
7630	21.97	5.8182	0.1	-33.108
7631	21.786	5.8182	0.1	-32.71
7632	21.601	5.8182	0.1	-32.278
7633	21.417	5.8182	0.1	-31.82
7634	21.232	5.8182	0.1	-31.342
7635	21.048	5.8182	0.1	-30.851
7636	20.863	5.8182	0.1	-30.349
7637	20.679	5.8182	0.1	-29.842
7638	20.494	5.8182	0.1	-29.332
7639	20.31	5.8182	0.1	-28.821
7640	20.125	5.8182	0.1	-28.313
7641	19.941	5.8182	0.1	-27.809
7642	19.756	5.8182	0.1	-27.311
7643	19.572	5.8182	0.1	-26.819
7644	19.387	5.8182	0.1	-26.334
7645	19.203	5.8182	0.1	-25.859
7646	19.018	5.8182	0.1	-25.392
7647	18.834	5.8182	0.1	-24.935
7648	18.649	5.8182	0.1	-24.487
7649	18.465	5.8182	0.1	-24.049
7650	18.28	5.8182	0.1	-23.621
7651	18.096	5.8182	0.1	-23.203
7652	17.911	5.8182	0.1	-22.795
7653	17.727	5.8182	0.1	-22.396
7654	17.542	5.8182	0.1	-22.006
7655	17.358	5.8182	0.1	-21.625
7656	17.173	5.8182	0.1	-21.252
7657	16.989	5.8182	0.1	-20.888
7658	16.804	5.8182	0.1	-20.531
7659	16.62	5.8182	0.1	-20.181
7660	16.435	5.8182	0.1	-19.838
7661	16.251	5.8182	0.1	-19.5
7662	16.066	5.8182	0.1	-19.169
7663	15.882	5.8182	0.1	-18.842
7664	15.697	5.8182	0.1	-18.519
7665	15.513	5.8182	0.1	-18.201
7666	15.328	5.8182	0.1	-17.885
7667	15.144	5.8182	0.1	-17.571
7668	14.959	5.8182	0.1	-17.26
7669	14.775	5.8182	0.1	-16.949
7670	14.59	5.8182	0.1	-16.638
7671	14.406	5.8182	0.1	-16.327
7672	14.221	5.8182	0.1	-16.014
7673	14.037	5.8182	0.1	-15.699
7674	13.852	5.8182	0.1	-15.381
7675	13.668	5.8182	0.1	-15.059
7676	13.483	5.8182	0.1	-14.732
7677	13.299	5.8182	0.1	-14.399
7678	13.114	5.8182	0.1	-14.059
7679	12.93	5.8182	0.1	-13.711
7680	12.745	5.8182	0.1	-13.354
7681	12.561	5.8182	0.1	-12.987
7682	12.376	5.8182	0.1	-12.609
7683	12.192	5.8182	0.1	-12.218
7684	12.007	5.8182	0.1	-11.814
7685	11.823	5.8182	0.1	-11.394
7686	11.638	5.8182	0.1	-10.959
7687	11.454	5.8182	0.1	-10.506
7688	11.269	5.8182	0.1	-10.034
7689	11.085	5.8182	0.1	-9.5433
7690	10.9	5.8182	0.1	-9.0318
7691	10.716	5.8182	0.1	-8.4987
7692	10.531	5.8182	0.1	-7.9437
7693	10.347	5.8182	0.1	-7.3663
7694	10.162	5.8182	0.1	-6.7664
7695	9.9778	5.8182	0.1	-6.1446
7696	9.7933	5.8182	0.1	-5.5021
7697	9.6088	5.8182	0.1	-4.841
7698	9.4243	5.8182	0.1	-4.1645
7699	9.2398	5.8182	0.1	-3.4778
7700	9.0553	5.8182	0.1	-2.7888
7701	8.8708	5.8182	0.1	-2.1107
7702	8.6863	5.8182	0.1	-1.4681
7703	8.5018	5.8182	0.1	-0.91236
7704	8.3173	5.8182	0.1	-0.52902
7705	8.1327	5.8182	0.1	-0.33635
7706	7.9482	5.8182	0.1	-0.24987
7707	7.7637	5.8182	0.1	-0.20858
7708	7.5792	5.8182	0.1	-0.18865
7709	7.3947	5.8182	0.1	-0.18162
7710	7.2102	5.8182	0.1	-0.18581
7711	7.0257	5.8182	0.1	-0.20592
7712	6.8412	5.8182	0.1	-0.26435
7713	6.6567	5.8182	0.1	-0.48685
7714	6.4722	5.8182	0.1	-1.4429
7715	6.2877	5.8182	0.1	-3.3571
7716	6.1032	5.8182	0.1	-6.0425
7717	5.9187	5.8182	0.1	-9.5462
7718	5.7342	5.8182	0.1	-13.978
7719	5.5497	5.8182	0.1	-19.46
7720	5.3652	5.8182	0.1	-26.115
7721	5.1807	5.8182	0.1	-34.045
7722	4.9962	5.8182	0.1	-43.31
7723	4.8117	5.8182	0.1	-53.887
7724	4.6272	5.8182	0.1	-65.623
7725	4.4427	5.8182	0.1	-78.157
7726	4.2582	5.8182	0.1	-90.838
7727	4.0737	5.8182	0.1	-102.65
7728	3.8892	5.8182	0.1	-112.16
7729	3.7047	5.8182	0.1	-117.77
7730	3.5202	5.8182	0.1	-117.94
7731	3.3357	5.8182	0.1	-117.95
7732	3.1512	5.8182	0.1	-160.36
7733	0.175	0.18182	0.1	-322.06
7734	0.175	0.36364	0.1	-613.42
7735	0.175	0.54545	0.1	-742.08
7736	0.175	0.72727	0.1	-827.09
7737	0.175	0.90909	0.1	-882.31
7738	0.175	1.0909	0.1	-922.42
7739	0.175	1.2727	0.1	-951.72
7740	0.175	1.4545	0.1	-973.53
7741	0.175	1.6364	0.1	-989.76
7742	0.175	1.8182	0.1	-1001.8
7743	0.175	2.	0.1	-1010.6
7744	0.175	2.1818	0.1	-1016.9
7745	0.175	2.3636	0.1	-1021.4
7746	0.175	2.5455	0.1	-1024.5
7747	0.175	2.7273	0.1	-1026.4
7748	0.175	2.9091	0.1	-1027.3
7749	0.175	3.0909	0.1	-1027.3
7750	0.175	3.2727	0.1	-1026.4
7751	0.175	3.4545	0.1	-1024.5
7752	0.175	3.6364	0.1	-1021.4
7753	0.175	3.8182	0.1	-1016.9
7754	0.175	4.	0.1	-1010.6
7755	0.175	4.1818	0.1	-1001.8
7756	0.175	4.3636	0.1	-989.76
7757	0.175	4.5455	0.1	-973.53
7758	0.175	4.7273	0.1	-951.71
7759	0.175	4.9091	0.1	-922.42
7760	0.175	5.0909	0.1	-882.31
7761	0.175	5.2727	0.1	-827.09
7762	0.175	5.4545	0.1	-742.08
7763	0.175	5.6364	0.1	-613.42
7764	0.175	5.8182	0.1	-322.06
7765	0.35	0.18182	0.1	-97.547
7766	0.35	0.36364	0.1	137.68
7767	0.35	0.54545	0.1	182.84
7768	0.35	0.72727	0.1	205.99
7769	0.35	0.90909	0.1	221.24
7770	0.35	1.0909	0.1	232.
7771	0.35	1.2727	0.1	239.83
7772	0.35	1.4545	0.1	245.63
7773	0.35	1.6364	0.1	249.95
7774	0.35	1.8182	0.1	253.14
7775	0.35	2.	0.1	255.47
7776	0.35	2.1818	0.1	257.16
7777	0.35	2.3636	0.1	258.36
7778	0.35	2.5455	0.1	259.17
7779	0.35	2.7273	0.1	259.68
7780	0.35	2.9091	0.1	259.92
7781	0.35	3.0909	0.1	259.92
7782	0.35	3.2727	0.1	259.68
7783	0.35	3.4545	0.1	259.17
7784	0.35	3.6364	0.1	258.36
7785	0.35	3.8182	0.1	257.16
7786	0.35	4.	0.1	255.47
7787	0.35	4.1818	0.1	253.14
7788	0.35	4.3636	0.1	249.95
7789	0.35	4.5455	0.1	245.63
7790	0.35	4.7273	0.1	239.83
7791	0.35	4.9091	0.1	232.
7792	0.35	5.0909	0.1	221.24
7793	0.35	5.2727	0.1	205.99
7794	0.35	5.4545	0.1	182.84
7795	0.35	5.6364	0.1	137.68
7796	0.35	5.8182	0.1	-97.547
7797	0.525	0.18182	0.1	-134.68
7798	0.525	0.36364	0.1	-41.718
7799	0.525	0.54545	0.1	-49.837
7800	0.525	0.72727	0.1	-54.381
7801	0.525	0.90909	0.1	-57.626
7802	0.525	1.0909	0.1	-59.99
7803	0.525	1.2727	0.1	-61.725
7804	0.525	1.4545	0.1	-63.01
7805	0.525	1.6364	0.1	-63.963
7806	0.525	1.8182	0.1	-64.664
7807	0.525	2.	0.1	-65.178
7808	0.525	2.1818	0.1	-65.55
7809	0.525	2.3636	0.1	-65.816
7810	0.525	2.5455	0.1	-66.
7811	0.525	2.7273	0.1	-66.117
7812	0.525	2.9091	0.1	-66.174
7813	0.525	3.0909	0.1	-66.174
7814	0.525	3.2727	0.1	-66.117
7815	0.525	3.4545	0.1	-66.
7816	0.525	3.6364	0.1	-65.816
7817	0.525	3.8182	0.1	-65.55
7818	0.525	4.	0.1	-65.178
7819	0.525	4.1818	0.1	-64.664
7820	0.525	4.3636	0.1	-63.963
7821	0.525	4.5455	0.1	-63.01
7822	0.525	4.7273	0.1	-61.725
7823	0.525	4.9091	0.1	-59.99
7824	0.525	5.0909	0.1	-57.626
7825	0.525	5.2727	0.1	-54.381
7826	0.525	5.4545	0.1	-49.837
7827	0.525	5.6364	0.1	-41.718
7828	0.525	5.8182	0.1	-134.68
7829	0.7	0.18182	0.1	-125.77
7830	0.7	0.36364	0.1	4.1844
7831	0.7	0.54545	0.1	9.9007
7832	0.7	0.72727	0.1	11.912
7833	0.7	0.90909	0.1	13.246
7834	0.7	1.0909	0.1	14.114
7835	0.7	1.2727	0.1	14.742
7836	0.7	1.4545	0.1	15.206
7837	0.7	1.6364	0.1	15.556
7838	0.7	1.8182	0.1	15.818
7839	0.7	2.	0.1	16.011
7840	0.7	2.1818	0.1	16.149
7841	0.7	2.3636	0.1	16.242
7842	0.7	2.5455	0.1	16.301
7843	0.7	2.7273	0.1	16.334
7844	0.7	2.9091	0.1	16.349
7845	0.7	3.0909	0.1	16.349
7846	0.7	3.2727	0.1	16.334
7847	0.7	3.4545	0.1	16.301
7848	0.7	3.6364	0.1	16.242
7849	0.7	3.8182	0.1	16.149
7850	0.7	4.	0.1	16.011
7851	0.7	4.1818	0.1	15.818
7852	0.7	4.3636	0.1	15.556
7853	0.7	4.5455	0.1	15.206
7854	0.7	4.7273	0.1	14.742
7855	0.7	4.9091	0.1	14.114
7856	0.7	5.0909	0.1	13.246
7857	0.7	5.2727	0.1	11.912
7858	0.7	5.4545	0.1	9.9006
7859	0.7	5.6364	0.1	4.1844
7860	0.7	5.8182	0.1	-125.77
7861	0.875	0.18182	0.1	-127.86
7862	0.875	0.36364	0.1	-7.4701
7863	0.875	0.54545	0.1	-4.9753
7864	0.875	0.72727	0.1	-4.6959
7865	0.875	0.90909	0.1	-4.5708
7866	0.875	1.0909	0.1	-4.557
7867	0.875	1.2727	0.1	-4.5621
7868	0.875	1.4545	0.1	-4.5717
7869	0.875	1.6364	0.1	-4.5765
7870	0.875	1.8182	0.1	-4.5775
7871	0.875	2.	0.1	-4.5782
7872	0.875	2.1818	0.1	-4.5834
7873	0.875	2.3636	0.1	-4.5949
7874	0.875	2.5455	0.1	-4.6109
7875	0.875	2.7273	0.1	-4.6265
7876	0.875	2.9091	0.1	-4.6361
7877	0.875	3.0909	0.1	-4.6361
7878	0.875	3.2727	0.1	-4.6265
7879	0.875	3.4545	0.1	-4.6109
7880	0.875	3.6364	0.1	-4.5949
7881	0.875	3.8182	0.1	-4.5834
7882	0.875	4.	0.1	-4.5782
7883	0.875	4.1818	0.1	-4.5775
7884	0.875	4.3636	0.1	-4.5765
7885	0.875	4.5455	0.1	-4.5717
7886	0.875	4.7273	0.1	-4.5621
7887	0.875	4.9091	0.1	-4.557
7888	0.875	5.0909	0.1	-4.5708
7889	0.875	5.2727	0.1	-4.6959
7890	0.875	5.4545	0.1	-4.9753
7891	0.875	5.6364	0.1	-7.4701
7892	0.875	5.8182	0.1	-127.86
7893	1.05	0.18182	0.1	-131.07
7894	1.05	0.36364	0.1	-5.9928
7895	1.05	0.54545	0.1	-1.5421
7896	1.05	0.72727	0.1	-0.62546
7897	1.05	0.90909	0.1	-0.13542
7898	1.05	1.0909	0.1	0.12635
7899	1.05	1.2727	0.1	0.29107
7900	1.05	1.4545	0.1	0.39991
7901	1.05	1.6364	0.1	0.4789
7902	1.05	1.8182	0.1	0.53824
7903	1.05	2.	0.1	0.5798
7904	1.05	2.1818	0.1	0.60213
7905	1.05	2.3636	0.1	0.60523
7906	1.05	2.5455	0.1	0.59352
7907	1.05	2.7273	0.1	0.57688
7908	1.05	2.9091	0.1	0.5655
7909	1.05	3.0909	0.1	0.5655
7910	1.05	3.2727	0.1	0.57688
7911	1.05	3.4545	0.1	0.59352
7912	1.05	3.6364	0.1	0.60523
7913	1.05	3.8182	0.1	0.60213
7914	1.05	4.	0.1	0.5798
7915	1.05	4.1818	0.1	0.53824
7916	1.05	4.3636	0.1	0.4789
7917	1.05	4.5455	0.1	0.39991
7918	1.05	4.7273	0.1	0.29107
7919	1.05	4.9091	0.1	0.12635
7920	1.05	5.0909	0.1	-0.13542
7921	1.05	5.2727	0.1	-0.62546
7922	1.05	5.4545	0.1	-1.5421
7923	1.05	5.6364	0.1	-5.9928
7924	1.05	5.8182	0.1	-131.07
7925	1.225	0.18182	0.1	-138.31
7926	1.225	0.36364	0.1	-10.127
7927	1.225	0.54545	0.1	-3.2274
7928	1.225	0.72727	0.1	-2.0802
7929	1.225	0.90909	0.1	-1.535
7930	1.225	1.0909	0.1	-1.2525
7931	1.225	1.2727	0.1	-1.0845
7932	1.225	1.4545	0.1	-0.98168
7933	1.225	1.6364	0.1	-0.9111
7934	1.225	1.8182	0.1	-0.85836
7935	1.225	2.	0.1	-0.82197
7936	1.225	2.1818	0.1	-0.81023
7937	1.225	2.3636	0.1	-0.82566
7938	1.225	2.5455	0.1	-0.85673
7939	1.225	2.7273	0.1	-0.88955
7940	1.225	2.9091	0.1	-0.91023
7941	1.225	3.0909	0.1	-0.91023
7942	1.225	3.2727	0.1	-0.88955
7943	1.225	3.4545	0.1	-0.85673
7944	1.225	3.6364	0.1	-0.82566
7945	1.225	3.8182	0.1	-0.81023
7946	1.225	4.	0.1	-0.82197
7947	1.225	4.1818	0.1	-0.85836
7948	1.225	4.3636	0.1	-0.9111
7949	1.225	4.5455	0.1	-0.98168
7950	1.225	4.7273	0.1	-1.0845
7951	1.225	4.9091	0.1	-1.2525
7952	1.225	5.0909	0.1	-1.535
7953	1.225	5.2727	0.1	-2.0802
7954	1.225	5.4545	0.1	-3.2274
7955	1.225	5.6364	0.1	-10.127
7956	1.225	5.8182	0.1	-138.31
7957	1.4	0.18182	0.1	-147.76
7958	1.4	0.36364	0.1	-19.492
7959	1.4	0.54545	0.1	-4.5837
7960	1.4	0.72727	0.1	-2.6172
7961	1.4	0.90909	0.1	-1.7747
7962	1.4	1.0909	0.1	-1.326
7963	1.4	1.2727	0.1	-1.0565
7964	1.4	1.4545	0.1	-0.89089
7965	1.4	1.6364	0.1	-0.78216
7966	1.4	1.8182	0.1	-0.70384
7967	1.4	2.	0.1	-0.65449
7968	1.4	2.1818	0.1	-0.63244
7969	1.4	2.3636	0.1	-0.63921
7970	1.4	2.5455	0.1	-0.6799
7971	1.4	2.7273	0.1	-0.72597
7972	1.4	2.9091	0.1	-0.7537
7973	1.4	3.0909	0.1	-0.7537
7974	1.4	3.2727	0.1	-0.72597
7975	1.4	3.4545	0.1	-0.6799
7976	1.4	3.6364	0.1	-0.63921
7977	1.4	3.8182	0.1	-0.63244
7978	1.4	4.	0.1	-0.65449
7979	1.4	4.1818	0.1	-0.70384
7980	1.4	4.3636	0.1	-0.78216
7981	1.4	4.5455	0.1	-0.89089
7982	1.4	4.7273	0.1	-1.0565
7983	1.4	4.9091	0.1	-1.326
7984	1.4	5.0909	0.1	-1.7747
7985	1.4	5.2727	0.1	-2.6172
7986	1.4	5.4545	0.1	-4.5837
7987	1.4	5.6364	0.1	-19.492
7988	1.4	5.8182	0.1	-147.76
7989	1.575	0.18182	0.1	-158.09
7990	1.575	0.36364	0.1	-40.354
7991	1.575	0.54545	0.1	-8.4817
7992	1.575	0.72727	0.1	-4.4803
7993	1.575	0.90909	0.1	-3.004
7994	1.575	1.0909	0.1	-2.2214
7995	1.575	1.2727	0.1	-1.7375
7996	1.575	1.4545	0.1	-1.4271
7997	1.575	1.6364	0.1	-1.2133
7998	1.575	1.8182	0.1	-1.0579
7999	1.575	2.	0.1	-0.92545
8000	1.575	2.1818	0.1	-0.87825
8001	1.575	2.3636	0.1	-0.94134
8002	1.575	2.5455	0.1	-1.0028
8003	1.575	2.7273	0.1	-1.0476
8004	1.575	2.9091	0.1	-1.0735
8005	1.575	3.0909	0.1	-1.0735
8006	1.575	3.2727	0.1	-1.0476
8007	1.575	3.4545	0.1	-1.0028
8008	1.575	3.6364	0.1	-0.94134
8009	1.575	3.8182	0.1	-0.87825
8010	1.575	4.	0.1	-0.92544
8011	1.575	4.1818	0.1	-1.0579
8012	1.575	4.3636	0.1	-1.2133
8013	1.575	4.5455	0.1	-1.4271
8014	1.575	4.7273	0.1	-1.7375
8015	1.575	4.9091	0.1	-2.2214
8016	1.575	5.0909	0.1	-3.004
8017	1.575	5.2727	0.1	-4.4803
8018	1.575	5.4545	0.1	-8.4817
8019	1.575	5.6364	0.1	-40.354
8020	1.575	5.8182	0.1	-158.09
8021	1.75	0.18182	0.1	-167.23
8022	1.75	0.36364	0.1	-65.952
8023	1.75	0.54545	0.1	-19.695
8024	1.75	0.72727	0.1	-9.5869
8025	1.75	0.90909	0.1	-6.2722
8026	1.75	1.0909	0.1	-4.5152
8027	1.75	1.2727	0.1	-3.3589
8028	1.75	1.4545	0.1	-2.5939
8029	1.75	1.6364	0.1	-2.1181
8030	1.75	1.8182	0.1	-1.7646
8031	1.75	2.	0.1	-1.6474
8032	1.75	2.1818	0.1	-1.5511
8033	1.75	2.3636	0.1	-1.3158
8034	1.75	2.5455	0.1	-1.2954
8035	1.75	2.7273	0.1	-1.3226
8036	1.75	2.9091	0.1	-1.3102
8037	1.75	3.0909	0.1	-1.3102
8038	1.75	3.2727	0.1	-1.3226
8039	1.75	3.4545	0.1	-1.2954
8040	1.75	3.6364	0.1	-1.3158
8041	1.75	3.8182	0.1	-1.5511
8042	1.75	4.	0.1	-1.6474
8043	1.75	4.1818	0.1	-1.7646
8044	1.75	4.3636	0.1	-2.1181
8045	1.75	4.5455	0.1	-2.5939
8046	1.75	4.7273	0.1	-3.3589
8047	1.75	4.9091	0.1	-4.5152
8048	1.75	5.0909	0.1	-6.2722
8049	1.75	5.2727	0.1	-9.5869
8050	1.75	5.4545	0.1	-19.695
8051	1.75	5.6364	0.1	-65.952
8052	1.75	5.8182	0.1	-167.23
8053	1.925	0.18182	0.1	-172.75
8054	1.925	0.36364	0.1	-87.944
8055	1.925	0.54545	0.1	-50.11
8056	1.925	0.72727	0.1	-33.766
8057	1.925	0.90909	0.1	-25.469
8058	1.925	1.0909	0.1	-18.754
8059	1.925	1.2727	0.1	-12.568
8060	1.925	1.4545	0.1	-7.7453
8061	1.925	1.6364	0.1	-4.451
8062	1.925	1.8182	0.1	-2.941
8063	1.925	2.	0.1	-1.5812
8064	1.925	2.1818	0.1	-1.0537
8065	1.925	2.3636	0.1	-1.918
8066	1.925	2.5455	0.1	-1.8639
8067	1.925	2.7273	0.1	-1.6069
8068	1.925	2.9091	0.1	-1.5168
8069	1.925	3.0909	0.1	-1.5168
8070	1.925	3.2727	0.1	-1.6069
8071	1.925	3.4545	0.1	-1.8639
8072	1.925	3.6364	0.1	-1.918
8073	1.925	3.8182	0.1	-1.0537
8074	1.925	4.	0.1	-1.5812
8075	1.925	4.1818	0.1	-2.941
8076	1.925	4.3636	0.1	-4.451
8077	1.925	4.5455	0.1	-7.7453
8078	1.925	4.7273	0.1	-12.567
8079	1.925	4.9091	0.1	-18.754
8080	1.925	5.0909	0.1	-25.469
8081	1.925	5.2727	0.1	-33.766
8082	1.925	5.4545	0.1	-50.11
8083	1.925	5.6364	0.1	-87.944
8084	1.925	5.8182	0.1	-172.75
8085	2.1	0.18182	0.1	-172.24
8086	2.1	0.36364	0.1	-104.66
8087	2.1	0.54545	0.1	-100.42
8088	2.1	0.72727	0.1	-126.71
8089	2.1	0.90909	0.1	-169.58
8090	2.1	1.0909	0.1	-210.86
8091	2.1	1.2727	0.1	-224.79
8092	2.1	1.4545	0.1	-179.52
8093	2.1	1.6364	0.1	-65.477
8094	2.1	1.8182	0.1	-13.202
8095	2.1	2.	0.1	-8.9631
8096	2.1	2.1818	0.1	-7.9701
8097	2.1	2.3636	0.1	-2.5922
8098	2.1	2.5455	0.1	-2.4057
8099	2.1	2.7273	0.1	-1.8474
8100	2.1	2.9091	0.1	-1.4434
8101	2.1	3.0909	0.1	-1.4434
8102	2.1	3.2727	0.1	-1.8474
8103	2.1	3.4545	0.1	-2.4057
8104	2.1	3.6364	0.1	-2.5922
8105	2.1	3.8182	0.1	-7.9701
8106	2.1	4.	0.1	-8.963
8107	2.1	4.1818	0.1	-13.202
8108	2.1	4.3636	0.1	-65.477
8109	2.1	4.5455	0.1	-179.52
8110	2.1	4.7273	0.1	-224.79
8111	2.1	4.9091	0.1	-210.86
8112	2.1	5.0909	0.1	-169.58
8113	2.1	5.2727	0.1	-126.71
8114	2.1	5.4545	0.1	-100.42
8115	2.1	5.6364	0.1	-104.66
8116	2.1	5.8182	0.1	-172.24
8117	2.275	0.18182	0.1	-163.9
8118	2.275	0.36364	0.1	-121.81
8119	2.275	0.54545	0.1	-173.64
8120	2.275	0.72727	0.1	-281.09
8121	2.275	0.90909	0.1	-420.77
8122	2.275	1.0909	0.1	-571.31
8123	2.275	1.2727	0.1	-705.36
8124	2.275	1.4545	0.1	-778.12
8125	2.275	1.6364	0.1	-699.63
8126	2.275	1.8182	0.1	-389.32
8127	2.275	2.	0.1	-17.595
8128	2.275	2.1818	0.1	7.6413
8129	2.275	2.3636	0.1	-9.95
8130	2.275	2.5455	0.1	-2.3382
8131	2.275	2.7273	0.1	-1.7056
8132	2.275	2.9091	0.1	-0.85507
8133	2.275	3.0909	0.1	-0.85507
8134	2.275	3.2727	0.1	-1.7056
8135	2.275	3.4545	0.1	-2.3382
8136	2.275	3.6364	0.1	-9.95
8137	2.275	3.8182	0.1	7.6413
8138	2.275	4.	0.1	-17.595
8139	2.275	4.1818	0.1	-389.31
8140	2.275	4.3636	0.1	-699.63
8141	2.275	4.5455	0.1	-778.12
8142	2.275	4.7273	0.1	-705.36
8143	2.275	4.9091	0.1	-571.31
8144	2.275	5.0909	0.1	-420.77
8145	2.275	5.2727	0.1	-281.09
8146	2.275	5.4545	0.1	-173.64
8147	2.275	5.6364	0.1	-121.81
8148	2.275	5.8182	0.1	-163.9
8149	2.45	0.18182	0.1	-155.69
8150	2.45	0.36364	0.1	-167.57
8151	2.45	0.54545	0.1	-309.24
8152	2.45	0.72727	0.1	-518.1
8153	2.45	0.90909	0.1	-767.68
8154	2.45	1.0909	0.1	-1048.7
8155	2.45	1.2727	0.1	-1355.2
8156	2.45	1.4545	0.1	-1646.4
8157	2.45	1.6364	0.1	-1816.7
8158	2.45	1.8182	0.1	-1649.
8159	2.45	2.	0.1	-740.26
8160	2.45	2.1818	0.1	-134.42
8161	2.45	2.3636	0.1	-17.966
8162	2.45	2.5455	0.1	-11.7
8163	2.45	2.7273	0.1	-1.8141
8164	2.45	2.9091	0.1	0.44248
8165	2.45	3.0909	0.1	0.44248
8166	2.45	3.2727	0.1	-1.8142
8167	2.45	3.4545	0.1	-11.7
8168	2.45	3.6364	0.1	-17.966
8169	2.45	3.8182	0.1	-134.42
8170	2.45	4.	0.1	-740.26
8171	2.45	4.1818	0.1	-1649.
8172	2.45	4.3636	0.1	-1816.7
8173	2.45	4.5455	0.1	-1646.4
8174	2.45	4.7273	0.1	-1355.2
8175	2.45	4.9091	0.1	-1048.7
8176	2.45	5.0909	0.1	-767.68
8177	2.45	5.2727	0.1	-518.1
8178	2.45	5.4545	0.1	-309.24
8179	2.45	5.6364	0.1	-167.57
8180	2.45	5.8182	0.1	-155.69
8181	2.625	0.18182	0.1	-207.19
8182	2.625	0.36364	0.1	-370.67
8183	2.625	0.54545	0.1	-645.97
8184	2.625	0.72727	0.1	-973.09
8185	2.625	0.90909	0.1	-1351.8
8186	2.625	1.0909	0.1	-1798.
8187	2.625	1.2727	0.1	-2345.
8188	2.625	1.4545	0.1	-3015.7
8189	2.625	1.6364	0.1	-3998.8
8190	2.625	1.8182	0.1	-4534.8
8191	2.625	2.	0.1	-2925.7
8192	2.625	2.1818	0.1	-937.01
8193	2.625	2.3636	0.1	-621.42
8194	2.625	2.5455	0.1	-385.05
8195	2.625	2.7273	0.1	-271.05
8196	2.625	2.9091	0.1	-215.28
8197	2.625	3.0909	0.1	-215.28
8198	2.625	3.2727	0.1	-271.05
8199	2.625	3.4545	0.1	-385.05
8200	2.625	3.6364	0.1	-621.43
8201	2.625	3.8182	0.1	-937.01
8202	2.625	4.	0.1	-2925.7
8203	2.625	4.1818	0.1	-4534.8
8204	2.625	4.3636	0.1	-3998.8
8205	2.625	4.5455	0.1	-3015.7
8206	2.625	4.7273	0.1	-2345.
8207	2.625	4.9091	0.1	-1798.
8208	2.625	5.0909	0.1	-1351.8
8209	2.625	5.2727	0.1	-973.09
8210	2.625	5.4545	0.1	-645.97
8211	2.625	5.6364	0.1	-370.67
8212	2.625	5.8182	0.1	-207.19
8213	2.9667	3.8182	0.1	-1562.1
8214	2.9667	3.6364	0.1	-1158.2
8215	2.9667	3.4545	0.1	-835.55
8216	2.9667	3.2727	0.1	-659.84
8217	2.9667	3.0909	0.1	-579.
8218	2.9667	2.9091	0.1	-579.
8219	2.9667	2.7273	0.1	-659.84
8220	2.9667	2.5455	0.1	-835.55
8221	2.9667	2.3636	0.1	-1158.2
8222	2.9667	2.1818	0.1	-1562.1
8223	2.8	3.8182	0.1	-1481.4
8224	2.8	3.6364	0.1	-1094.6
8225	2.8	3.4545	0.1	-758.44
8226	2.8	3.2727	0.1	-579.22
8227	2.8	3.0909	0.1	-496.13
8228	2.8	2.9091	0.1	-496.13
8229	2.8	2.7273	0.1	-579.22
8230	2.8	2.5455	0.1	-758.44
8231	2.8	2.3636	0.1	-1094.6
8232	2.8	2.1818	0.1	-1481.4
8233	2.9667	5.8182	0.1	-102.83
8234	2.9667	5.6364	0.1	-260.44
8235	2.9667	5.4545	0.1	-449.04
8236	2.9667	5.2727	0.1	-672.05
8237	2.9667	5.0909	0.1	-938.42
8238	2.9667	4.9091	0.1	-1265.4
8239	2.9667	4.7273	0.1	-1685.5
8240	2.9667	4.5455	0.1	-2290.1
8241	2.9667	4.3636	0.1	-2944.3
8242	2.9667	4.1818	0.1	-6383.1
8243	2.9667	4.	0.1	-4493.5
8244	2.8	4.	0.1	-4429.9
8245	2.8	4.1818	0.1	-6413.9
8246	2.8	4.3636	0.1	-2866.7
8247	2.8	4.5455	0.1	-2241.6
8248	2.8	4.7273	0.1	-1634.2
8249	2.8	4.9091	0.1	-1226.3
8250	2.8	5.0909	0.1	-913.26
8251	2.8	5.2727	0.1	-661.6
8252	2.8	5.4545	0.1	-451.3
8253	2.8	5.6364	0.1	-271.23
8254	2.8	5.8182	0.1	-117.03
8255	2.9667	0.18182	0.1	-102.83
8256	2.9667	0.36364	0.1	-260.44
8257	2.9667	0.54545	0.1	-449.04
8258	2.9667	0.72727	0.1	-672.05
8259	2.9667	0.90909	0.1	-938.42
8260	2.9667	1.0909	0.1	-1265.4
8261	2.9667	1.2727	0.1	-1685.5
8262	2.9667	1.4545	0.1	-2290.1
8263	2.9667	1.6364	0.1	-2944.3
8264	2.9667	1.8182	0.1	-6383.1
8265	2.9667	2.	0.1	-4493.5
8266	2.8	2.	0.1	-4429.9
8267	2.8	1.8182	0.1	-6413.9
8268	2.8	1.6364	0.1	-2866.7
8269	2.8	1.4545	0.1	-2241.6
8270	2.8	1.2727	0.1	-1634.2
8271	2.8	1.0909	0.1	-1226.3
8272	2.8	0.90909	0.1	-913.26
8273	2.8	0.72727	0.1	-661.6
8274	2.8	0.54545	0.1	-451.3
8275	2.8	0.36364	0.1	-271.23
8276	2.8	0.18182	0.1	-117.03
8277	2.9667	6.	0.1	-14.868
8278	3.1512	6.	0.1	-23.614
8279	3.3357	6.	0.1	-27.067
8280	3.5202	6.	0.1	-29.033
8281	3.7047	6.	0.1	-28.169
8282	3.8892	6.	0.1	-25.456
8283	4.0737	6.	0.1	-22.115
8284	4.2582	6.	0.1	-18.687
8285	4.4427	6.	0.1	-15.501
8286	4.6272	6.	0.1	-12.692
8287	4.8117	6.	0.1	-10.299
8288	4.9962	6.	0.1	-8.3067
8289	5.1807	6.	0.1	-6.6767
8290	5.3652	6.	0.1	-5.3612
8291	5.5497	6.	0.1	-4.3138
8292	5.7342	6.	0.1	-3.4924
8293	5.9187	6.	0.1	-2.8605
8294	6.1032	6.	0.1	-2.3873
8295	6.2877	6.	0.1	-2.0466
8296	6.4722	6.	0.1	-1.8166
8297	6.6567	6.	0.1	-1.6787
8298	6.8412	6.	0.1	-1.6171
8299	7.0257	6.	0.1	-1.6186
8300	7.2102	6.	0.1	-1.6716
8301	7.3947	6.	0.1	-1.7663
8302	7.5792	6.	0.1	-1.8941
8303	7.7637	6.	0.1	-2.048
8304	7.9482	6.	0.1	-2.2219
8305	8.1327	6.	0.1	-2.4104
8306	8.3173	6.	0.1	-2.6095
8307	8.5018	6.	0.1	-2.8155
8308	8.6863	6.	0.1	-3.0256
8309	8.8708	6.	0.1	-3.2372
8310	9.0553	6.	0.1	-3.4486
8311	9.2398	6.	0.1	-3.6582
8312	9.4243	6.	0.1	-3.865
8313	9.6088	6.	0.1	-4.068
8314	9.7933	6.	0.1	-4.2666
8315	9.9778	6.	0.1	-4.4604
8316	10.162	6.	0.1	-4.6492
8317	10.347	6.	0.1	-4.8329
8318	10.531	6.	0.1	-5.0113
8319	10.716	6.	0.1	-5.1847
8320	10.9	6.	0.1	-5.3532
8321	11.085	6.	0.1	-5.5168
8322	11.269	6.	0.1	-5.676
8323	11.454	6.	0.1	-5.831
8324	11.638	6.	0.1	-5.982
8325	11.823	6.	0.1	-6.1294
8326	12.007	6.	0.1	-6.2734
8327	12.192	6.	0.1	-6.4145
8328	12.376	6.	0.1	-6.5529
8329	12.561	6.	0.1	-6.6889
8330	12.745	6.	0.1	-6.8228
8331	12.93	6.	0.1	-6.955
8332	13.114	6.	0.1	-7.0858
8333	13.299	6.	0.1	-7.2154
8334	13.483	6.	0.1	-7.3441
8335	13.668	6.	0.1	-7.4723
8336	13.852	6.	0.1	-7.6001
8337	14.037	6.	0.1	-7.728
8338	14.221	6.	0.1	-7.856
8339	14.406	6.	0.1	-7.9846
8340	14.59	6.	0.1	-8.1138
8341	14.775	6.	0.1	-8.244
8342	14.959	6.	0.1	-8.3753
8343	15.144	6.	0.1	-8.5081
8344	15.328	6.	0.1	-8.6425
8345	15.513	6.	0.1	-8.7787
8346	15.697	6.	0.1	-8.9169
8347	15.882	6.	0.1	-9.0574
8348	16.066	6.	0.1	-9.2002
8349	16.251	6.	0.1	-9.3457
8350	16.435	6.	0.1	-9.4939
8351	16.62	6.	0.1	-9.645
8352	16.804	6.	0.1	-9.7993
8353	16.989	6.	0.1	-9.9567
8354	17.173	6.	0.1	-10.117
8355	17.358	6.	0.1	-10.282
8356	17.542	6.	0.1	-10.449
8357	17.727	6.	0.1	-10.621
8358	17.911	6.	0.1	-10.796
8359	18.096	6.	0.1	-10.975
8360	18.28	6.	0.1	-11.157
8361	18.465	6.	0.1	-11.344
8362	18.649	6.	0.1	-11.533
8363	18.834	6.	0.1	-11.727
8364	19.018	6.	0.1	-11.924
8365	19.203	6.	0.1	-12.124
8366	19.387	6.	0.1	-12.326
8367	19.572	6.	0.1	-12.532
8368	19.756	6.	0.1	-12.739
8369	19.941	6.	0.1	-12.949
8370	20.125	6.	0.1	-13.159
8371	20.31	6.	0.1	-13.369
8372	20.494	6.	0.1	-13.579
8373	20.679	6.	0.1	-13.787
8374	20.863	6.	0.1	-13.993
8375	21.048	6.	0.1	-14.193
8376	21.232	6.	0.1	-14.388
8377	21.417	6.	0.1	-14.574
8378	21.601	6.	0.1	-14.749
8379	21.786	6.	0.1	-14.911
8380	21.97	6.	0.1	-15.055
8381	22.155	6.	0.1	-15.177
8382	22.339	6.	0.1	-15.27
8383	22.524	6.	0.1	-15.328
8384	22.708	6.	0.1	-15.34
8385	22.893	6.	0.1	-15.293
8386	23.077	6.	0.1	-15.162
8387	23.262	6.	0.1	-14.918
8388	23.446	6.	0.1	-14.47
8389	23.631	6.	0.1	-13.809
8390	23.815	6.	0.1	-11.51
8391	24.	6.	0.1	-5.7229
8392	24.	5.8182	0.1	-36.66
8393	24.	5.6364	0.1	-64.108
8394	24.	5.4545	0.1	-85.312
8395	24.	5.2727	0.1	-102.93
8396	24.	5.0909	0.1	-117.97
8397	24.	4.9091	0.1	-130.95
8398	24.	4.7273	0.1	-142.2
8399	24.	4.5455	0.1	-151.94
8400	24.	4.3636	0.1	-160.32
8401	24.	4.1818	0.1	-167.47
8402	24.	4.	0.1	-173.46
8403	24.	3.8182	0.1	-178.38
8404	24.	3.6364	0.1	-182.25
8405	24.	3.4545	0.1	-185.13
8406	24.	3.2727	0.1	-187.03
8407	24.	3.0909	0.1	-187.98
8408	24.	2.9091	0.1	-187.98
8409	24.	2.7273	0.1	-187.03
8410	24.	2.5455	0.1	-185.13
8411	24.	2.3636	0.1	-182.25
8412	24.	2.1818	0.1	-178.38
8413	24.	2.	0.1	-173.46
8414	24.	1.8182	0.1	-167.47
8415	24.	1.6364	0.1	-160.32
8416	24.	1.4545	0.1	-151.94
8417	24.	1.2727	0.1	-142.2
8418	24.	1.0909	0.1	-130.95
8419	24.	0.90909	0.1	-117.97
8420	24.	0.72727	0.1	-102.93
8421	24.	0.54545	0.1	-85.313
8422	24.	0.36364	0.1	-64.108
8423	24.	0.18182	0.1	-36.66
8424	1.5894e-015	0.18182	0.1	1086.3
8425	3.1789e-015	0.36364	0.1	2245.2
8426	4.7683e-015	0.54545	0.1	2780.
8427	6.3578e-015	0.72727	0.1	3104.5
8428	7.9472e-015	0.90909	0.1	3322.8
8429	9.5366e-015	1.0909	0.1	3479.3
8430	1.1126e-014	1.2727	0.1	3594.6
8431	1.2716e-014	1.4545	0.1	3680.7
8432	1.4305e-014	1.6364	0.1	3745.2
8433	1.5894e-014	1.8182	0.1	3793.2
8434	1.7484e-014	2.	0.1	3828.7
8435	1.9073e-014	2.1818	0.1	3854.6
8436	2.0663e-014	2.3636	0.1	3873.1
8437	2.2252e-014	2.5455	0.1	3885.9
8438	2.3842e-014	2.7273	0.1	3893.9
8439	2.5431e-014	2.9091	0.1	3897.8
8440	2.702e-014	3.0909	0.1	3897.8
8441	2.861e-014	3.2727	0.1	3893.9
8442	3.0199e-014	3.4545	0.1	3885.9
8443	3.1789e-014	3.6364	0.1	3873.1
8444	3.3378e-014	3.8182	0.1	3854.6
8445	3.4968e-014	4.	0.1	3828.7
8446	3.6557e-014	4.1818	0.1	3793.2
8447	3.8147e-014	4.3636	0.1	3745.2
8448	3.9736e-014	4.5455	0.1	3680.7
8449	4.1325e-014	4.7273	0.1	3594.6
8450	4.2915e-014	4.9091	0.1	3479.3
8451	4.4504e-014	5.0909	0.1	3322.8
8452	4.6094e-014	5.2727	0.1	3104.5
8453	4.7683e-014	5.4545	0.1	2780.
8454	4.9273e-014	5.6364	0.1	2245.2
8455	5.0862e-014	5.8182	0.1	1086.3
8456	24.	0.	0.1	-5.7229
8457	23.815	0.	0.1	-11.51
8458	23.631	0.	0.1	-13.809
8459	23.446	0.	0.1	-14.47
8460	23.262	0.	0.1	-14.918
8461	23.077	0.	0.1	-15.162
8462	22.893	0.	0.1	-15.293
8463	22.708	0.	0.1	-15.341
8464	22.524	0.	0.1	-15.328
8465	22.339	0.	0.1	-15.27
8466	22.155	0.	0.1	-15.177
8467	21.97	0.	0.1	-15.055
8468	21.786	0.	0.1	-14.911
8469	21.601	0.	0.1	-14.749
8470	21.417	0.	0.1	-14.574
8471	21.232	0.	0.1	-14.388
8472	21.048	0.	0.1	-14.193
8473	20.863	0.	0.1	-13.993
8474	20.679	0.	0.1	-13.787
8475	20.494	0.	0.1	-13.579
8476	20.31	0.	0.1	-13.369
8477	20.125	0.	0.1	-13.159
8478	19.941	0.	0.1	-12.949
8479	19.756	0.	0.1	-12.74
8480	19.572	0.	0.1	-12.532
8481	19.387	0.	0.1	-12.327
8482	19.203	0.	0.1	-12.124
8483	19.018	0.	0.1	-11.924
8484	18.834	0.	0.1	-11.727
8485	18.649	0.	0.1	-11.533
8486	18.465	0.	0.1	-11.344
8487	18.28	0.	0.1	-11.157
8488	18.096	0.	0.1	-10.975
8489	17.911	0.	0.1	-10.796
8490	17.727	0.	0.1	-10.621
8491	17.542	0.	0.1	-10.449
8492	17.358	0.	0.1	-10.282
8493	17.173	0.	0.1	-10.118
8494	16.989	0.	0.1	-9.9567
8495	16.804	0.	0.1	-9.7993
8496	16.62	0.	0.1	-9.6451
8497	16.435	0.	0.1	-9.494
8498	16.251	0.	0.1	-9.3457
8499	16.066	0.	0.1	-9.2003
8500	15.882	0.	0.1	-9.0574
8501	15.697	0.	0.1	-8.917
8502	15.513	0.	0.1	-8.7787
8503	15.328	0.	0.1	-8.6425
8504	15.144	0.	0.1	-8.5081
8505	14.959	0.	0.1	-8.3754
8506	14.775	0.	0.1	-8.244
8507	14.59	0.	0.1	-8.1138
8508	14.406	0.	0.1	-7.9846
8509	14.221	0.	0.1	-7.8561
8510	14.037	0.	0.1	-7.728
8511	13.852	0.	0.1	-7.6002
8512	13.668	0.	0.1	-7.4723
8513	13.483	0.	0.1	-7.3442
8514	13.299	0.	0.1	-7.2154
8515	13.114	0.	0.1	-7.0858
8516	12.93	0.	0.1	-6.955
8517	12.745	0.	0.1	-6.8228
8518	12.561	0.	0.1	-6.6889
8519	12.376	0.	0.1	-6.5529
8520	12.192	0.	0.1	-6.4145
8521	12.007	0.	0.1	-6.2735
8522	11.823	0.	0.1	-6.1294
8523	11.638	0.	0.1	-5.982
8524	11.454	0.	0.1	-5.831
8525	11.269	0.	0.1	-5.6761
8526	11.085	0.	0.1	-5.5169
8527	10.9	0.	0.1	-5.3532
8528	10.716	0.	0.1	-5.1847
8529	10.531	0.	0.1	-5.0114
8530	10.347	0.	0.1	-4.8329
8531	10.162	0.	0.1	-4.6493
8532	9.9778	0.	0.1	-4.4605
8533	9.7933	0.	0.1	-4.2666
8534	9.6088	0.	0.1	-4.068
8535	9.4243	0.	0.1	-3.865
8536	9.2398	0.	0.1	-3.6583
8537	9.0553	0.	0.1	-3.4486
8538	8.8708	0.	0.1	-3.2372
8539	8.6863	0.	0.1	-3.0256
8540	8.5018	0.	0.1	-2.8156
8541	8.3173	0.	0.1	-2.6096
8542	8.1327	0.	0.1	-2.4105
8543	7.9482	0.	0.1	-2.2219
8544	7.7637	0.	0.1	-2.0481
8545	7.5792	0.	0.1	-1.8942
8546	7.3947	0.	0.1	-1.7663
8547	7.2102	0.	0.1	-1.6716
8548	7.0257	0.	0.1	-1.6187
8549	6.8412	0.	0.1	-1.6172
8550	6.6567	0.	0.1	-1.6787
8551	6.4722	0.	0.1	-1.8166
8552	6.2877	0.	0.1	-2.0466
8553	6.1032	0.	0.1	-2.3873
8554	5.9187	0.	0.1	-2.8606
8555	5.7342	0.	0.1	-3.4924
8556	5.5497	0.	0.1	-4.3139
8557	5.3652	0.	0.1	-5.3613
8558	5.1807	0.	0.1	-6.6767
8559	4.9962	0.	0.1	-8.3067
8560	4.8117	0.	0.1	-10.299
8561	4.6272	0.	0.1	-12.692
8562	4.4427	0.	0.1	-15.501
8563	4.2582	0.	0.1	-18.687
8564	4.0737	0.	0.1	-22.115
8565	3.8892	0.	0.1	-25.456
8566	3.7047	0.	0.1	-28.169
8567	3.5202	0.	0.1	-29.034
8568	3.3357	0.	0.1	-27.067
8569	3.1512	0.	0.1	-23.614
8570	2.9667	0.	0.1	-14.868
8571	2.8	0.	0.1	-21.628
8572	2.625	-6.2555e-031	0.1	-39.1
8573	2.45	-5.8384e-031	0.1	-53.595
8574	2.275	-5.4214e-031	0.1	-65.759
8575	2.1	-5.0044e-031	0.1	-73.158
8576	1.925	-4.5874e-031	0.1	-77.226
8577	1.75	-4.1703e-031	0.1	-80.067
8578	1.575	-3.7533e-031	0.1	-83.006
8579	1.4	-3.3363e-031	0.1	-87.176
8580	1.225	-2.9192e-031	0.1	-93.674
8581	1.05	-2.5022e-031	0.1	-103.63
8582	0.875	-2.0852e-031	0.1	-119.19
8583	0.7	-1.6681e-031	0.1	-142.38
8584	0.525	-1.2511e-031	0.1	-182.43
8585	0.35	-8.3406e-032	0.1	-252.4
8586	0.175	-4.1703e-032	0.1	-432.93
8587	0.	0.	0.1	-1716.
8588	3.937e-014	6.	0.1	-1716.
8589	0.175	6.	0.1	-432.93
8590	0.35	6.	0.1	-252.4
8591	0.525	6.	0.1	-182.43
8592	0.7	6.	0.1	-142.38
8593	0.875	6.	0.1	-119.19
8594	1.05	6.	0.1	-103.63
8595	1.225	6.	0.1	-93.674
8596	1.4	6.	0.1	-87.176
8597	1.575	6.	0.1	-83.006
8598	1.75	6.	0.1	-80.067
8599	1.925	6.	0.1	-77.226
8600	2.1	6.	0.1	-73.158
8601	2.275	6.	0.1	-65.759
8602	2.45	6.	0.1	-53.595
8603	2.625	6.	0.1	-39.1
8604	2.8	6.	0.1	-21.628
8605	2.625	6.	0.	-843.87
8606	2.45	6.	0.	-1637.1
8607	2.275	6.	0.	-2335.7
8608	2.1	6.	0.	-2958.6
8609	1.925	6.	0.	-3506.6
8610	1.75	6.	0.	-3979.2
8611	1.575	6.	0.	-4376.4
8612	1.4	6.	0.	-4699.
8613	1.225	6.	0.	-4946.5
8614	1.05	6.	0.	-5115.4
8615	0.875	6.	0.	-5195.3
8616	0.7	6.	0.	-5164.7
8617	0.525	6.	0.	-4968.9
8618	0.35	6.	0.	-4508.9
8619	0.175	6.	0.	-3403.3
8620	2.8	6.	0.	-80.83
8621	3.937e-014	6.	0.	-788.58
8622	0.175	-4.1703e-032	0.	-3403.3
8623	0.35	-8.3406e-032	0.	-4508.9
8624	0.525	-1.2511e-031	0.	-4968.9
8625	0.7	-1.6681e-031	0.	-5164.7
8626	0.875	-2.0852e-031	0.	-5195.3
8627	1.05	-2.5022e-031	0.	-5115.4
8628	1.225	-2.9192e-031	0.	-4946.5
8629	1.4	-3.3363e-031	0.	-4699.
8630	1.575	-3.7533e-031	0.	-4376.4
8631	1.75	-4.1703e-031	0.	-3979.2
8632	1.925	-4.5874e-031	0.	-3506.6
8633	2.1	-5.0044e-031	0.	-2958.6
8634	2.275	-5.4214e-031	0.	-2335.7
8635	2.45	-5.8384e-031	0.	-1637.1
8636	2.625	-6.2555e-031	0.	-843.87
8637	2.8	0.	0.	-80.83
8638	0.	0.	0.	-788.58
8639	3.1512	0.	0.	-685.08
8640	3.3357	0.	0.	-1343.8
8641	3.5202	0.	0.	-1928.7
8642	3.7047	0.	0.	-2445.5
8643	3.8892	0.	0.	-2892.2
8644	4.0737	0.	0.	-3268.5
8645	4.2582	0.	0.	-3577.8
8646	4.4427	0.	0.	-3825.7
8647	4.6272	0.	0.	-4019.5
8648	4.8117	0.	0.	-4166.6
8649	4.9962	0.	0.	-4274.4
8650	5.1807	0.	0.	-4349.5
8651	5.3652	0.	0.	-4397.8
8652	5.5497	0.	0.	-4424.3
8653	5.7342	0.	0.	-4433.3
8654	5.9187	0.	0.	-4428.3
8655	6.1032	0.	0.	-4412.1
8656	6.2877	0.	0.	-4387.1
8657	6.4722	0.	0.	-4355.1
8658	6.6567	0.	0.	-4317.7
8659	6.8412	0.	0.	-4276.1
8660	7.0257	0.	0.	-4231.2
8661	7.2102	0.	0.	-4183.8
8662	7.3947	0.	0.	-4134.5
8663	7.5792	0.	0.	-4083.8
8664	7.7637	0.	0.	-4032.1
8665	7.9482	0.	0.	-3979.6
8666	8.1327	0.	0.	-3926.6
8667	8.3173	0.	0.	-3873.3
8668	8.5018	0.	0.	-3819.7
8669	8.6863	0.	0.	-3766.1
8670	8.8708	0.	0.	-3712.5
8671	9.0553	0.	0.	-3658.9
8672	9.2398	0.	0.	-3605.4
8673	9.4243	0.	0.	-3552.1
8674	9.6088	0.	0.	-3499.
8675	9.7933	0.	0.	-3446.
8676	9.9778	0.	0.	-3393.2
8677	10.162	0.	0.	-3340.7
8678	10.347	0.	0.	-3288.4
8679	10.531	0.	0.	-3236.3
8680	10.716	0.	0.	-3184.4
8681	10.9	0.	0.	-3132.8
8682	11.085	0.	0.	-3081.4
8683	11.269	0.	0.	-3030.2
8684	11.454	0.	0.	-2979.2
8685	11.638	0.	0.	-2928.5
8686	11.823	0.	0.	-2878.
8687	12.007	0.	0.	-2827.8
8688	12.192	0.	0.	-2777.8
8689	12.376	0.	0.	-2727.9
8690	12.561	0.	0.	-2678.4
8691	12.745	0.	0.	-2629.
8692	12.93	0.	0.	-2579.8
8693	13.114	0.	0.	-2530.9
8694	13.299	0.	0.	-2482.2
8695	13.483	0.	0.	-2433.7
8696	13.668	0.	0.	-2385.4
8697	13.852	0.	0.	-2337.4
8698	14.037	0.	0.	-2289.5
8699	14.221	0.	0.	-2241.8
8700	14.406	0.	0.	-2194.4
8701	14.59	0.	0.	-2147.2
8702	14.775	0.	0.	-2100.1
8703	14.959	0.	0.	-2053.3
8704	15.144	0.	0.	-2006.7
8705	15.328	0.	0.	-1960.3
8706	15.513	0.	0.	-1914.
8707	15.697	0.	0.	-1868.
8708	15.882	0.	0.	-1822.2
8709	16.066	0.	0.	-1776.6
8710	16.251	0.	0.	-1731.2
8711	16.435	0.	0.	-1686.
8712	16.62	0.	0.	-1640.9
8713	16.804	0.	0.	-1596.1
8714	16.989	0.	0.	-1551.5
8715	17.173	0.	0.	-1507.
8716	17.358	0.	0.	-1462.8
8717	17.542	0.	0.	-1418.7
8718	17.727	0.	0.	-1374.8
8719	17.911	0.	0.	-1331.2
8720	18.096	0.	0.	-1287.7
8721	18.28	0.	0.	-1244.3
8722	18.465	0.	0.	-1201.2
8723	18.649	0.	0.	-1158.2
8724	18.834	0.	0.	-1115.5
8725	19.018	0.	0.	-1072.9
8726	19.203	0.	0.	-1030.4
8727	19.387	0.	0.	-988.17
8728	19.572	0.	0.	-946.08
8729	19.756	0.	0.	-904.15
8730	19.941	0.	0.	-862.39
8731	20.125	0.	0.	-820.79
8732	20.31	0.	0.	-779.35
8733	20.494	0.	0.	-738.06
8734	20.679	0.	0.	-696.93
8735	20.863	0.	0.	-655.95
8736	21.048	0.	0.	-615.13
8737	21.232	0.	0.	-574.46
8738	21.417	0.	0.	-533.95
8739	21.601	0.	0.	-493.59
8740	21.786	0.	0.	-453.4
8741	21.97	0.	0.	-413.38
8742	22.155	0.	0.	-373.55
8743	22.339	0.	0.	-333.91
8744	22.524	0.	0.	-294.51
8745	22.708	0.	0.	-255.38
8746	22.893	0.	0.	-216.57
8747	23.077	0.	0.	-178.17
8748	23.262	0.	0.	-140.31
8749	23.446	0.	0.	-103.2
8750	23.631	0.	0.	-67.254
8751	23.815	0.	0.	-33.39
8752	2.9667	0.	0.	-66.168
8753	24.	0.	0.	-5.1739
8754	5.0862e-014	5.8182	0.	-2540.7
8755	4.9273e-014	5.6364	0.	-4643.
8756	4.7683e-014	5.4545	0.	-5677.5
8757	4.6094e-014	5.2727	0.	-6323.3
8758	4.4504e-014	5.0909	0.	-6759.9
8759	4.2915e-014	4.9091	0.	-7073.7
8760	4.1325e-014	4.7273	0.	-7305.2
8761	3.9736e-014	4.5455	0.	-7478.1
8762	3.8147e-014	4.3636	0.	-7607.4
8763	3.6557e-014	4.1818	0.	-7703.9
8764	3.4968e-014	4.	0.	-7775.1
8765	3.3378e-014	3.8182	0.	-7827.1
8766	3.1789e-014	3.6364	0.	-7864.3
8767	3.0199e-014	3.4545	0.	-7889.8
8768	2.861e-014	3.2727	0.	-7905.8
8769	2.702e-014	3.0909	0.	-7913.5
8770	2.5431e-014	2.9091	0.	-7913.5
8771	2.3842e-014	2.7273	0.	-7905.8
8772	2.2252e-014	2.5455	0.	-7889.8
8773	2.0663e-014	2.3636	0.	-7864.3
8774	1.9073e-014	2.1818	0.	-7827.1
8775	1.7484e-014	2.	0.	-7775.1
8776	1.5894e-014	1.8182	0.	-7703.9
8777	1.4305e-014	1.6364	0.	-7607.5
8778	1.2716e-014	1.4545	0.	-7478.1
8779	1.1126e-014	1.2727	0.	-7305.2
8780	9.5366e-015	1.0909	0.	-7073.7
8781	7.9472e-015	0.90909	0.	-6759.9
8782	6.3578e-015	0.72727	0.	-6323.3
8783	4.7683e-015	0.54545	0.	-5677.5
8784	3.1789e-015	0.36364	0.	-4643.
8785	1.5894e-015	0.18182	0.	-2540.7
8786	24.	0.18182	0.	-6.7426
8787	24.	0.36364	0.	-7.1333
8788	24.	0.54545	0.	-7.2574
8789	24.	0.72727	0.	-7.2976
8790	24.	0.90909	0.	-7.277
8791	24.	1.0909	0.	-7.2371
8792	24.	1.2727	0.	-7.1869
8793	24.	1.4545	0.	-7.1344
8794	24.	1.6364	0.	-7.0831
8795	24.	1.8182	0.	-7.0356
8796	24.	2.	0.	-6.9932
8797	24.	2.1818	0.	-6.957
8798	24.	2.3636	0.	-6.9274
8799	24.	2.5455	0.	-6.905
8800	24.	2.7273	0.	-6.89
8801	24.	2.9091	0.	-6.8824
8802	24.	3.0909	0.	-6.8824
8803	24.	3.2727	0.	-6.89
8804	24.	3.4545	0.	-6.905
8805	24.	3.6364	0.	-6.9274
8806	24.	3.8182	0.	-6.957
8807	24.	4.	0.	-6.9932
8808	24.	4.1818	0.	-7.0356
8809	24.	4.3636	0.	-7.0831
8810	24.	4.5455	0.	-7.1344
8811	24.	4.7273	0.	-7.1869
8812	24.	4.9091	0.	-7.2371
8813	24.	5.0909	0.	-7.277
8814	24.	5.2727	0.	-7.2976
8815	24.	5.4545	0.	-7.2574
8816	24.	5.6364	0.	-7.1333
8817	24.	5.8182	0.	-6.7426
8818	24.	6.	0.	-5.1739
8819	23.815	6.	0.	-33.39
8820	23.631	6.	0.	-67.254
8821	23.446	6.	0.	-103.2
8822	23.262	6.	0.	-140.31
8823	23.077	6.	0.	-178.17
8824	22.893	6.	0.	-216.57
8825	22.708	6.	0.	-255.38
8826	22.524	6.	0.	-294.51
8827	22.339	6.	0.	-333.91
8828	22.155	6.	0.	-373.55
8829	21.97	6.	0.	-413.38
8830	21.786	6.	0.	-453.4
8831	21.601	6.	0.	-493.59
8832	21.417	6.	0.	-533.95
8833	21.232	6.	0.	-574.46
8834	21.048	6.	0.	-615.13
8835	20.863	6.	0.	-655.96
8836	20.679	6.	0.	-696.93
8837	20.494	6.	0.	-738.06
8838	20.31	6.	0.	-779.35
8839	20.125	6.	0.	-820.79
8840	19.941	6.	0.	-862.39
8841	19.756	6.	0.	-904.15
8842	19.572	6.	0.	-946.08
8843	19.387	6.	0.	-988.17
8844	19.203	6.	0.	-1030.4
8845	19.018	6.	0.	-1072.9
8846	18.834	6.	0.	-1115.5
8847	18.649	6.	0.	-1158.2
8848	18.465	6.	0.	-1201.2
8849	18.28	6.	0.	-1244.3
8850	18.096	6.	0.	-1287.7
8851	17.911	6.	0.	-1331.2
8852	17.727	6.	0.	-1374.8
8853	17.542	6.	0.	-1418.7
8854	17.358	6.	0.	-1462.8
8855	17.173	6.	0.	-1507.
8856	16.989	6.	0.	-1551.5
8857	16.804	6.	0.	-1596.1
8858	16.62	6.	0.	-1640.9
8859	16.435	6.	0.	-1686.
8860	16.251	6.	0.	-1731.2
8861	16.066	6.	0.	-1776.6
8862	15.882	6.	0.	-1822.2
8863	15.697	6.	0.	-1868.
8864	15.513	6.	0.	-1914.
8865	15.328	6.	0.	-1960.3
8866	15.144	6.	0.	-2006.7
8867	14.959	6.	0.	-2053.3
8868	14.775	6.	0.	-2100.1
8869	14.59	6.	0.	-2147.2
8870	14.406	6.	0.	-2194.4
8871	14.221	6.	0.	-2241.8
8872	14.037	6.	0.	-2289.5
8873	13.852	6.	0.	-2337.4
8874	13.668	6.	0.	-2385.4
8875	13.483	6.	0.	-2433.7
8876	13.299	6.	0.	-2482.2
8877	13.114	6.	0.	-2530.9
8878	12.93	6.	0.	-2579.8
8879	12.745	6.	0.	-2629.
8880	12.561	6.	0.	-2678.4
8881	12.376	6.	0.	-2727.9
8882	12.192	6.	0.	-2777.8
8883	12.007	6.	0.	-2827.8
8884	11.823	6.	0.	-2878.
8885	11.638	6.	0.	-2928.5
8886	11.454	6.	0.	-2979.2
8887	11.269	6.	0.	-3030.2
8888	11.085	6.	0.	-3081.4
8889	10.9	6.	0.	-3132.8
8890	10.716	6.	0.	-3184.4
8891	10.531	6.	0.	-3236.3
8892	10.347	6.	0.	-3288.4
8893	10.162	6.	0.	-3340.7
8894	9.9778	6.	0.	-3393.2
8895	9.7933	6.	0.	-3446.
8896	9.6088	6.	0.	-3499.
8897	9.4243	6.	0.	-3552.1
8898	9.2398	6.	0.	-3605.4
8899	9.0553	6.	0.	-3658.9
8900	8.8708	6.	0.	-3712.5
8901	8.6863	6.	0.	-3766.1
8902	8.5018	6.	0.	-3819.7
8903	8.3173	6.	0.	-3873.3
8904	8.1327	6.	0.	-3926.6
8905	7.9482	6.	0.	-3979.6
8906	7.7637	6.	0.	-4032.1
8907	7.5792	6.	0.	-4083.8
8908	7.3947	6.	0.	-4134.5
8909	7.2102	6.	0.	-4183.8
8910	7.0257	6.	0.	-4231.2
8911	6.8412	6.	0.	-4276.1
8912	6.6567	6.	0.	-4317.7
8913	6.4722	6.	0.	-4355.1
8914	6.2877	6.	0.	-4387.1
8915	6.1032	6.	0.	-4412.1
8916	5.9187	6.	0.	-4428.3
8917	5.7342	6.	0.	-4433.3
8918	5.5497	6.	0.	-4424.3
8919	5.3652	6.	0.	-4397.8
8920	5.1807	6.	0.	-4349.5
8921	4.9962	6.	0.	-4274.4
8922	4.8117	6.	0.	-4166.6
8923	4.6272	6.	0.	-4019.5
8924	4.4427	6.	0.	-3825.7
8925	4.2582	6.	0.	-3577.8
8926	4.0737	6.	0.	-3268.5
8927	3.8892	6.	0.	-2892.2
8928	3.7047	6.	0.	-2445.5
8929	3.5202	6.	0.	-1928.7
8930	3.3357	6.	0.	-1343.8
8931	3.1512	6.	0.	-685.08
8932	2.9667	6.	0.	-66.168
8933	2.8	1.8182	0.	-7496.1
8934	2.8	1.6364	0.	-5264.9
8935	2.8	1.4545	0.	-4350.3
8936	2.8	1.2727	0.	-3641.
8937	2.8	1.0909	0.	-3091.9
8938	2.8	0.90909	0.	-2611.
8939	2.8	0.72727	0.	-2162.7
8940	2.8	0.54545	0.	-1718.8
8941	2.8	0.36364	0.	-1251.9
8942	2.8	0.18182	0.	-705.32
8943	2.8	2.	0.	-28908
8944	2.9667	0.18182	0.	-507.38
8945	2.9667	0.36364	0.	-886.1
8946	2.9667	0.54545	0.	-1218.5
8947	2.9667	0.72727	0.	-1551.7
8948	2.9667	0.90909	0.	-1910.9
8949	2.9667	1.0909	0.	-2324.6
8950	2.9667	1.2727	0.	-2830.4
8951	2.9667	1.4545	0.	-3518.9
8952	2.9667	1.6364	0.	-4464.1
8953	2.9667	1.8182	0.	-6768.8
8954	2.9667	2.	0.	-27732
8955	2.8	4.1818	0.	-7496.1
8956	2.8	4.3636	0.	-5264.9
8957	2.8	4.5455	0.	-4350.3
8958	2.8	4.7273	0.	-3641.
8959	2.8	4.9091	0.	-3091.9
8960	2.8	5.0909	0.	-2611.
8961	2.8	5.2727	0.	-2162.7
8962	2.8	5.4545	0.	-1718.8
8963	2.8	5.6364	0.	-1251.9
8964	2.8	5.8182	0.	-705.32
8965	2.8	4.	0.	-28908
8966	2.9667	5.8182	0.	-507.38
8967	2.9667	5.6364	0.	-886.1
8968	2.9667	5.4545	0.	-1218.5
8969	2.9667	5.2727	0.	-1551.7
8970	2.9667	5.0909	0.	-1910.9
8971	2.9667	4.9091	0.	-2324.6
8972	2.9667	4.7273	0.	-2830.4
8973	2.9667	4.5455	0.	-3518.9
8974	2.9667	4.3636	0.	-4464.1
8975	2.9667	4.1818	0.	-6768.8
8976	2.9667	4.	0.	-27732
8977	2.8	2.2727	0.	-17720
8978	2.8833	2.1818	0.	-19430
8979	2.7125	2.1818	0.	-17292
8980	2.8	2.1818	5.e-002	-620.97
8981	2.8	2.0909	0.	-23972
8982	2.8	2.4545	0.	-14746
8983	2.8833	2.3636	0.	-15537
8984	2.7125	2.3636	0.	-14833
8985	2.8	2.3636	5.e-002	-114.16
8986	2.8	2.6364	0.	-13347
8987	2.8833	2.5455	0.	-13748
8988	2.7125	2.5455	0.	-13391
8989	2.8	2.5455	5.e-002	-47.899
8990	2.8	2.8182	0.	-12676
8991	2.8833	2.7273	0.	-12830
8992	2.7125	2.7273	0.	-12624
8993	2.8	2.7273	5.e-002	-22.613
8994	2.8	3.	0.	-12475
8995	2.8833	2.9091	0.	-12436
8996	2.7125	2.9091	0.	-12281
8997	2.8	2.9091	5.e-002	-7.8597
8998	2.8	3.1818	0.	-12676
8999	2.8833	3.0909	0.	-12436
9000	2.7125	3.0909	0.	-12281
9001	2.8	3.0909	5.e-002	-7.8599
9002	2.8	3.3636	0.	-13347
9003	2.8833	3.2727	0.	-12830
9004	2.7125	3.2727	0.	-12624
9005	2.8	3.2727	5.e-002	-22.614
9006	2.8	3.5455	0.	-14746
9007	2.8833	3.4545	0.	-13748
9008	2.7125	3.4545	0.	-13391
9009	2.8	3.4545	5.e-002	-47.9
9010	2.8	3.7273	0.	-17720
9011	2.8833	3.6364	0.	-15537
9012	2.7125	3.6364	0.	-14833
9013	2.8	3.6364	5.e-002	-114.17
9014	2.8833	3.8182	0.	-19430
9015	2.7125	3.8182	0.	-17292
9016	2.8	3.8182	5.e-002	-620.97
9017	2.8	3.9091	0.	-23972
9018	2.9667	2.2727	0.	-17485
9019	3.0589	2.1818	0.	-16732
9020	2.9667	2.1818	5.e-002	-680.29
9021	2.9667	2.0909	0.	-23228
9022	2.9667	2.4545	0.	-14609
9023	3.0589	2.3636	0.	-14493
9024	2.9667	2.3636	5.e-002	-133.52
9025	2.9667	2.6364	0.	-13250
9026	3.0589	2.5455	0.	-13155
9027	2.9667	2.5455	5.e-002	-71.289
9028	2.9667	2.8182	0.	-12593
9029	3.0589	2.7273	0.	-12431
9030	2.9667	2.7273	5.e-002	-42.907
9031	2.9667	3.	0.	-12397
9032	3.0589	2.9091	0.	-12107
9033	2.9667	2.9091	5.e-002	-32.378
9034	2.9667	3.1818	0.	-12593
9035	3.0589	3.0909	0.	-12107
9036	2.9667	3.0909	5.e-002	-32.378
9037	2.9667	3.3636	0.	-13250
9038	3.0589	3.2727	0.	-12431
9039	2.9667	3.2727	5.e-002	-42.908
9040	2.9667	3.5455	0.	-14609
9041	3.0589	3.4545	0.	-13155
9042	2.9667	3.4545	5.e-002	-71.291
9043	2.9667	3.7273	0.	-17485
9044	3.0589	3.6364	0.	-14493
9045	2.9667	3.6364	5.e-002	-133.53
9046	3.0589	3.8182	0.	-16732
9047	2.9667	3.8182	5.e-002	-680.3
9048	2.9667	3.9091	0.	-23228
9049	2.625	5.7273	0.	-1517.2
9050	2.5375	5.8182	0.	-1565.
9051	2.625	5.8182	5.e-002	-103.28
9052	2.625	5.9091	0.	-1006.7
9053	2.7125	5.8182	0.	-921.2
9054	2.625	5.5455	0.	-2070.9
9055	2.5375	5.6364	0.	-1959.7
9056	2.625	5.6364	5.e-002	-91.778
9057	2.7125	5.6364	0.	-1447.3
9058	2.625	5.3636	0.	-2656.9
9059	2.5375	5.4545	0.	-2467.6
9060	2.625	5.4545	5.e-002	-96.104
9061	2.7125	5.4545	0.	-1956.7
9062	2.625	5.1818	0.	-3272.6
9063	2.5375	5.2727	0.	-3020.7
9064	2.625	5.2727	5.e-002	-105.5
9065	2.7125	5.2727	0.	-2460.3
9066	2.625	5.	0.	-3947.5
9067	2.5375	5.0909	0.	-3624.1
9068	2.625	5.0909	5.e-002	-119.58
9069	2.7125	5.0909	0.	-2982.7
9070	2.625	4.8182	0.	-4728.8
9071	2.5375	4.9091	0.	-4304.5
9072	2.625	4.9091	5.e-002	-139.49
9073	2.7125	4.9091	0.	-3554.9
9074	2.625	4.6364	0.	-5708.6
9075	2.5375	4.7273	0.	-5110.8
9076	2.625	4.7273	5.e-002	-170.14
9077	2.7125	4.7273	0.	-4221.8
9078	2.625	4.4545	0.	-7058.5
9079	2.5375	4.5455	0.	-6138.7
9080	2.625	4.5455	5.e-002	-210.73
9081	2.7125	4.5455	0.	-5081.8
9082	2.625	4.2727	0.	-9375.7
9083	2.5375	4.3636	0.	-7532.5
9084	2.625	4.3636	5.e-002	-304.19
9085	2.7125	4.3636	0.	-6269.9
9086	2.625	4.0909	0.	-12945
9087	2.5375	4.1818	0.	-9913.
9088	2.625	4.1818	5.e-002	-593.66
9089	2.7125	4.1818	0.	-8418.5
9090	2.625	3.9091	0.	-14991
9091	2.5375	4.	0.	-12808
9092	2.625	4.	5.e-002	-1017.1
9093	2.7125	4.	0.	-21909
9094	2.625	3.7273	0.	-14527
9095	2.5375	3.8182	0.	-13353
9096	2.625	3.8182	5.e-002	-486.26
9097	2.625	3.5455	0.	-13512
9098	2.5375	3.6364	0.	-12969
9099	2.625	3.6364	5.e-002	-191.17
9100	2.625	3.3636	0.	-12677
9101	2.5375	3.4545	0.	-12350
9102	2.625	3.4545	5.e-002	-100.04
9103	2.625	3.1818	0.	-12228
9104	2.5375	3.2727	0.	-11934
9105	2.625	3.2727	5.e-002	-54.547
9106	2.625	3.	0.	-12083
9107	2.5375	3.0909	0.	-11725
9108	2.625	3.0909	5.e-002	-38.652
9109	2.625	2.8182	0.	-12228
9110	2.5375	2.9091	0.	-11725
9111	2.625	2.9091	5.e-002	-38.652
9112	2.625	2.6364	0.	-12677
9113	2.5375	2.7273	0.	-11934
9114	2.625	2.7273	5.e-002	-54.547
9115	2.625	2.4545	0.	-13512
9116	2.5375	2.5455	0.	-12350
9117	2.625	2.5455	5.e-002	-100.04
9118	2.625	2.2727	0.	-14527
9119	2.5375	2.3636	0.	-12969
9120	2.625	2.3636	5.e-002	-191.17
9121	2.625	2.0909	0.	-14991
9122	2.5375	2.1818	0.	-13353
9123	2.625	2.1818	5.e-002	-486.26
9124	2.625	1.9091	0.	-12945
9125	2.5375	2.	0.	-12808
9126	2.625	2.	5.e-002	-1017.1
9127	2.7125	2.	0.	-21909
9128	2.625	1.7273	0.	-9375.7
9129	2.5375	1.8182	0.	-9913.
9130	2.625	1.8182	5.e-002	-593.66
9131	2.7125	1.8182	0.	-8418.5
9132	2.625	1.5455	0.	-7058.5
9133	2.5375	1.6364	0.	-7532.5
9134	2.625	1.6364	5.e-002	-304.19
9135	2.7125	1.6364	0.	-6269.9
9136	2.625	1.3636	0.	-5708.6
9137	2.5375	1.4545	0.	-6138.7
9138	2.625	1.4545	5.e-002	-210.73
9139	2.7125	1.4545	0.	-5081.8
9140	2.625	1.1818	0.	-4728.8
9141	2.5375	1.2727	0.	-5110.8
9142	2.625	1.2727	5.e-002	-170.14
9143	2.7125	1.2727	0.	-4221.8
9144	2.625	1.	0.	-3947.5
9145	2.5375	1.0909	0.	-4304.5
9146	2.625	1.0909	5.e-002	-139.49
9147	2.7125	1.0909	0.	-3554.9
9148	2.625	0.81818	0.	-3272.6
9149	2.5375	0.90909	0.	-3624.1
9150	2.625	0.90909	5.e-002	-119.58
9151	2.7125	0.90909	0.	-2982.7
9152	2.625	0.63636	0.	-2656.9
9153	2.5375	0.72727	0.	-3020.7
9154	2.625	0.72727	5.e-002	-105.5
9155	2.7125	0.72727	0.	-2460.3
9156	2.625	0.45455	0.	-2070.9
9157	2.5375	0.54545	0.	-2467.6
9158	2.625	0.54545	5.e-002	-96.104
9159	2.7125	0.54545	0.	-1956.7
9160	2.625	0.27273	0.	-1517.2
9161	2.5375	0.36364	0.	-1959.7
9162	2.625	0.36364	5.e-002	-91.778
9163	2.7125	0.36364	0.	-1447.3
9164	2.5375	0.18182	0.	-1565.
9165	2.625	0.18182	5.e-002	-103.28
9166	2.625	9.0909e-002	0.	-1006.7
9167	2.7125	0.18182	0.	-921.2
9168	2.45	5.7273	0.	-2038.6
9169	2.3625	5.8182	0.	-2229.9
9170	2.45	5.8182	5.e-002	-90.8
9171	2.45	5.9091	0.	-1734.3
9172	2.45	5.5455	0.	-2403.3
9173	2.3625	5.6364	0.	-2457.7
9174	2.45	5.6364	5.e-002	-75.548
9175	2.45	5.3636	0.	-2876.8
9176	2.3625	5.4545	0.	-2835.1
9177	2.45	5.4545	5.e-002	-74.643
9178	2.45	5.1818	0.	-3416.3
9179	2.3625	5.2727	0.	-3298.
9180	2.45	5.2727	5.e-002	-77.238
9181	2.45	5.	0.	-4027.1
9182	2.3625	5.0909	0.	-3832.5
9183	2.45	5.0909	5.e-002	-82.961
9184	2.45	4.8182	0.	-4739.2
9185	2.3625	4.9091	0.	-4448.1
9186	2.45	4.9091	5.e-002	-92.367
9187	2.45	4.6364	0.	-5605.5
9188	2.3625	4.7273	0.	-5173.8
9189	2.45	4.7273	5.e-002	-104.59
9190	2.45	4.4545	0.	-6706.9
9191	2.3625	4.5455	0.	-6055.3
9192	2.45	4.5455	5.e-002	-129.19
9193	2.45	4.2727	0.	-8137.3
9194	2.3625	4.3636	0.	-7151.7
9195	2.45	4.3636	5.e-002	-131.58
9196	2.45	4.0909	0.	-9691.8
9197	2.3625	4.1818	0.	-8480.
9198	2.45	4.1818	5.e-002	-185.75
9199	2.45	3.9091	0.	-11032
9200	2.3625	4.	0.	-9747.1
9201	2.45	4.	5.e-002	-163.22
9202	2.45	3.7273	0.	-11736
9203	2.3625	3.8182	0.	-10724
9204	2.45	3.8182	5.e-002	-230.26
9205	2.45	3.5455	0.	-11785
9206	2.3625	3.6364	0.	-11091
9207	2.45	3.6364	5.e-002	-152.79
9208	2.45	3.3636	0.	-11594
9209	2.3625	3.4545	0.	-11098
9210	2.45	3.4545	5.e-002	-107.94
9211	2.45	3.1818	0.	-11421
9212	2.3625	3.2727	0.	-11004
9213	2.45	3.2727	5.e-002	-72.744
9214	2.45	3.	0.	-11357
9215	2.3625	3.0909	0.	-10936
9216	2.45	3.0909	5.e-002	-57.913
9217	2.45	2.8182	0.	-11421
9218	2.3625	2.9091	0.	-10936
9219	2.45	2.9091	5.e-002	-57.913
9220	2.45	2.6364	0.	-11594
9221	2.3625	2.7273	0.	-11004
9222	2.45	2.7273	5.e-002	-72.743
9223	2.45	2.4545	0.	-11785
9224	2.3625	2.5455	0.	-11098
9225	2.45	2.5455	5.e-002	-107.94
9226	2.45	2.2727	0.	-11736
9227	2.3625	2.3636	0.	-11091
9228	2.45	2.3636	5.e-002	-152.79
9229	2.45	2.0909	0.	-11032
9230	2.3625	2.1818	0.	-10724
9231	2.45	2.1818	5.e-002	-230.26
9232	2.45	1.9091	0.	-9691.8
9233	2.3625	2.	0.	-9747.1
9234	2.45	2.	5.e-002	-163.22
9235	2.45	1.7273	0.	-8137.3
9236	2.3625	1.8182	0.	-8480.
9237	2.45	1.8182	5.e-002	-185.75
9238	2.45	1.5455	0.	-6706.9
9239	2.3625	1.6364	0.	-7151.7
9240	2.45	1.6364	5.e-002	-131.58
9241	2.45	1.3636	0.	-5605.5
9242	2.3625	1.4545	0.	-6055.3
9243	2.45	1.4545	5.e-002	-129.19
9244	2.45	1.1818	0.	-4739.2
9245	2.3625	1.2727	0.	-5173.8
9246	2.45	1.2727	5.e-002	-104.59
9247	2.45	1.	0.	-4027.1
9248	2.3625	1.0909	0.	-4448.1
9249	2.45	1.0909	5.e-002	-92.367
9250	2.45	0.81818	0.	-3416.3
9251	2.3625	0.90909	0.	-3832.5
9252	2.45	0.90909	5.e-002	-82.961
9253	2.45	0.63636	0.	-2876.8
9254	2.3625	0.72727	0.	-3298.
9255	2.45	0.72727	5.e-002	-77.238
9256	2.45	0.45455	0.	-2403.3
9257	2.3625	0.54545	0.	-2835.1
9258	2.45	0.54545	5.e-002	-74.643
9259	2.45	0.27273	0.	-2038.6
9260	2.3625	0.36364	0.	-2457.7
9261	2.45	0.36364	5.e-002	-75.548
9262	2.3625	0.18182	0.	-2229.9
9263	2.45	0.18182	5.e-002	-90.8
9264	2.45	9.0909e-002	0.	-1734.3
9265	2.275	5.7273	0.	-2653.
9266	2.1875	5.8182	0.	-2864.3
9267	2.275	5.8182	5.e-002	-85.971
9268	2.275	5.9091	0.	-2420.1
9269	2.275	5.5455	0.	-2909.5
9270	2.1875	5.6364	0.	-3019.2
9271	2.275	5.6364	5.e-002	-69.844
9272	2.275	5.3636	0.	-3286.2
9273	2.1875	5.4545	0.	-3307.
9274	2.275	5.4545	5.e-002	-69.24
9275	2.275	5.1818	0.	-3748.4
9276	2.1875	5.2727	0.	-3687.2
9277	2.275	5.2727	5.e-002	-70.912
9278	2.275	5.	0.	-4290.2
9279	2.1875	5.0909	0.	-4146.8
9280	2.275	5.0909	5.e-002	-74.115
9281	2.275	4.8182	0.	-4921.3
9282	2.1875	4.9091	0.	-4684.8
9283	2.275	4.9091	5.e-002	-78.587
9284	2.275	4.6364	0.	-5663.1
9285	2.1875	4.7273	0.	-5309.8
9286	2.275	4.7273	5.e-002	-83.598
9287	2.275	4.4545	0.	-6530.6
9288	2.1875	4.5455	0.	-6035.2
9289	2.275	4.5455	5.e-002	-85.008
9290	2.275	4.2727	0.	-7507.1
9291	2.1875	4.3636	0.	-6857.5
9292	2.275	4.3636	5.e-002	-85.881
9293	2.275	4.0909	0.	-8519.8
9294	2.1875	4.1818	0.	-7738.8
9295	2.275	4.1818	5.e-002	-85.997
9296	2.275	3.9091	0.	-9414.6
9297	2.1875	4.	0.	-8593.3
9298	2.275	4.	5.e-002	-102.41
9299	2.275	3.7273	0.	-10047
9300	2.1875	3.8182	0.	-9290.8
9301	2.275	3.8182	5.e-002	-109.25
9302	2.275	3.5455	0.	-10378
9303	2.1875	3.6364	0.	-9754.8
9304	2.275	3.6364	5.e-002	-108.21
9305	2.275	3.3636	0.	-10489
9306	2.1875	3.4545	0.	-9985.2
9307	2.275	3.4545	5.e-002	-87.988
9308	2.275	3.1818	0.	-10505
9309	2.1875	3.2727	0.	-10074
9310	2.275	3.2727	5.e-002	-72.168
9311	2.275	3.	0.	-10502
9312	2.1875	3.0909	0.	-10099
9313	2.275	3.0909	5.e-002	-63.14
9314	2.275	2.8182	0.	-10505
9315	2.1875	2.9091	0.	-10099
9316	2.275	2.9091	5.e-002	-63.14
9317	2.275	2.6364	0.	-10489
9318	2.1875	2.7273	0.	-10074
9319	2.275	2.7273	5.e-002	-72.167
9320	2.275	2.4545	0.	-10378
9321	2.1875	2.5455	0.	-9985.2
9322	2.275	2.5455	5.e-002	-87.987
9323	2.275	2.2727	0.	-10047
9324	2.1875	2.3636	0.	-9754.8
9325	2.275	2.3636	5.e-002	-108.21
9326	2.275	2.0909	0.	-9414.6
9327	2.1875	2.1818	0.	-9290.8
9328	2.275	2.1818	5.e-002	-109.25
9329	2.275	1.9091	0.	-8519.8
9330	2.1875	2.	0.	-8593.3
9331	2.275	2.	5.e-002	-102.41
9332	2.275	1.7273	0.	-7507.1
9333	2.1875	1.8182	0.	-7738.8
9334	2.275	1.8182	5.e-002	-85.996
9335	2.275	1.5455	0.	-6530.6
9336	2.1875	1.6364	0.	-6857.5
9337	2.275	1.6364	5.e-002	-85.881
9338	2.275	1.3636	0.	-5663.1
9339	2.1875	1.4545	0.	-6035.2
9340	2.275	1.4545	5.e-002	-85.009
9341	2.275	1.1818	0.	-4921.3
9342	2.1875	1.2727	0.	-5309.8
9343	2.275	1.2727	5.e-002	-83.598
9344	2.275	1.	0.	-4290.2
9345	2.1875	1.0909	0.	-4684.8
9346	2.275	1.0909	5.e-002	-78.587
9347	2.275	0.81818	0.	-3748.4
9348	2.1875	0.90909	0.	-4146.8
9349	2.275	0.90909	5.e-002	-74.115
9350	2.275	0.63636	0.	-3286.2
9351	2.1875	0.72727	0.	-3687.2
9352	2.275	0.72727	5.e-002	-70.912
9353	2.275	0.45455	0.	-2909.5
9354	2.1875	0.54545	0.	-3307.
9355	2.275	0.54545	5.e-002	-69.24
9356	2.275	0.27273	0.	-2653.
9357	2.1875	0.36364	0.	-3019.2
9358	2.275	0.36364	5.e-002	-69.844
9359	2.1875	0.18182	0.	-2864.3
9360	2.275	0.18182	5.e-002	-85.971
9361	2.275	9.0909e-002	0.	-2420.1
9362	2.1	5.7273	0.	-3231.2
9363	2.0125	5.8182	0.	-3431.6
9364	2.1	5.8182	5.e-002	-80.622
9365	2.1	5.9091	0.	-3035.8
9366	2.1	5.5455	0.	-3424.3
9367	2.0125	5.6364	0.	-3546.5
9368	2.1	5.6364	5.e-002	-63.076
9369	2.1	5.3636	0.	-3724.2
9370	2.0125	5.4545	0.	-3772.7
9371	2.1	5.4545	5.e-002	-62.679
9372	2.1	5.1818	0.	-4107.5
9373	2.0125	5.2727	0.	-4081.6
9374	2.1	5.2727	5.e-002	-63.674
9375	2.1	5.	0.	-4566.4
9376	2.0125	5.0909	0.	-4464.2
9377	2.1	5.0909	5.e-002	-65.025
9378	2.1	4.8182	0.	-5099.
9379	2.0125	4.9091	0.	-4915.4
9380	2.1	4.9091	5.e-002	-66.247
9381	2.1	4.6364	0.	-5705.1
9382	2.0125	4.7273	0.	-5432.4
9383	2.1	4.7273	5.e-002	-66.364
9384	2.1	4.4545	0.	-6378.6
9385	2.0125	4.5455	0.	-6010.5
9386	2.1	4.5455	5.e-002	-64.93
9387	2.1	4.2727	0.	-7095.6
9388	2.0125	4.3636	0.	-6635.6
9389	2.1	4.3636	5.e-002	-62.396
9390	2.1	4.0909	0.	-7810.8
9391	2.0125	4.1818	0.	-7276.9
9392	2.1	4.1818	5.e-002	-61.881
9393	2.1	3.9091	0.	-8461.9
9394	2.0125	4.	0.	-7891.5
9395	2.1	4.	5.e-002	-65.967
9396	2.1	3.7273	0.	-8985.3
9397	2.0125	3.8182	0.	-8427.6
9398	2.1	3.8182	5.e-002	-70.341
9399	2.1	3.5455	0.	-9345.3
9400	2.0125	3.6364	0.	-8840.4
9401	2.1	3.6364	5.e-002	-71.51
9402	2.1	3.3636	0.	-9553.7
9403	2.0125	3.4545	0.	-9113.9
9404	2.1	3.4545	5.e-002	-67.831
9405	2.1	3.1818	0.	-9652.9
9406	2.0125	3.2727	0.	-9268.1
9407	2.1	3.2727	5.e-002	-62.2
9408	2.1	3.	0.	-9681.3
9409	2.0125	3.0909	0.	-9335.2
9410	2.1	3.0909	5.e-002	-58.456
9411	2.1	2.8182	0.	-9652.9
9412	2.0125	2.9091	0.	-9335.2
9413	2.1	2.9091	5.e-002	-58.456
9414	2.1	2.6364	0.	-9553.7
9415	2.0125	2.7273	0.	-9268.1
9416	2.1	2.7273	5.e-002	-62.2
9417	2.1	2.4545	0.	-9345.3
9418	2.0125	2.5455	0.	-9113.9
9419	2.1	2.5455	5.e-002	-67.83
9420	2.1	2.2727	0.	-8985.3
9421	2.0125	2.3636	0.	-8840.4
9422	2.1	2.3636	5.e-002	-71.509
9423	2.1	2.0909	0.	-8461.9
9424	2.0125	2.1818	0.	-8427.6
9425	2.1	2.1818	5.e-002	-70.34
9426	2.1	1.9091	0.	-7810.8
9427	2.0125	2.	0.	-7891.4
9428	2.1	2.	5.e-002	-65.967
9429	2.1	1.7273	0.	-7095.6
9430	2.0125	1.8182	0.	-7276.9
9431	2.1	1.8182	5.e-002	-61.881
9432	2.1	1.5455	0.	-6378.6
9433	2.0125	1.6364	0.	-6635.6
9434	2.1	1.6364	5.e-002	-62.397
9435	2.1	1.3636	0.	-5705.1
9436	2.0125	1.4545	0.	-6010.5
9437	2.1	1.4545	5.e-002	-64.93
9438	2.1	1.1818	0.	-5099.
9439	2.0125	1.2727	0.	-5432.4
9440	2.1	1.2727	5.e-002	-66.364
9441	2.1	1.	0.	-4566.4
9442	2.0125	1.0909	0.	-4915.4
9443	2.1	1.0909	5.e-002	-66.247
9444	2.1	0.81818	0.	-4107.5
9445	2.0125	0.90909	0.	-4464.2
9446	2.1	0.90909	5.e-002	-65.025
9447	2.1	0.63636	0.	-3724.2
9448	2.0125	0.72727	0.	-4081.6
9449	2.1	0.72727	5.e-002	-63.674
9450	2.1	0.45455	0.	-3424.3
9451	2.0125	0.54545	0.	-3772.7
9452	2.1	0.54545	5.e-002	-62.679
9453	2.1	0.27273	0.	-3231.2
9454	2.0125	0.36364	0.	-3546.5
9455	2.1	0.36364	5.e-002	-63.076
9456	2.0125	0.18182	0.	-3431.6
9457	2.1	0.18182	5.e-002	-80.622
9458	2.1	9.0909e-002	0.	-3035.8
9459	1.925	5.7273	0.	-3747.3
9460	1.8375	5.8182	0.	-3926.6
9461	1.925	5.8182	5.e-002	-74.684
9462	1.925	5.9091	0.	-3577.9
9463	1.925	5.5455	0.	-3898.
9464	1.8375	5.6364	0.	-4013.5
9465	1.925	5.6364	5.e-002	-55.987
9466	1.925	5.3636	0.	-4138.5
9467	1.8375	5.4545	0.	-4194.3
9468	1.925	5.4545	5.e-002	-55.686
9469	1.925	5.1818	0.	-4451.1
9470	1.8375	5.2727	0.	-4444.2
9471	1.925	5.2727	5.e-002	-56.33
9472	1.925	5.	0.	-4828.7
9473	1.8375	5.0909	0.	-4757.
9474	1.925	5.0909	5.e-002	-56.705
9475	1.925	4.8182	0.	-5264.8
9476	1.8375	4.9091	0.	-5126.3
9477	1.925	4.9091	5.e-002	-56.402
9478	1.925	4.6364	0.	-5751.9
9479	1.8375	4.7273	0.	-5545.2
9480	1.925	4.7273	5.e-002	-55.063
9481	1.925	4.4545	0.	-6277.5
9482	1.8375	4.5455	0.	-6004.1
9483	1.925	4.5455	5.e-002	-52.566
9484	1.925	4.2727	0.	-6822.2
9485	1.8375	4.3636	0.	-6487.9
9486	1.925	4.3636	5.e-002	-49.899
9487	1.925	4.0909	0.	-7358.8
9488	1.8375	4.1818	0.	-6976.1
9489	1.925	4.1818	5.e-002	-48.56
9490	1.925	3.9091	0.	-7854.9
9491	1.8375	4.	0.	-7443.6
9492	1.925	4.	5.e-002	-48.527
9493	1.925	3.7273	0.	-8276.9
9494	1.8375	3.8182	0.	-7862.9
9495	1.925	3.8182	5.e-002	-49.289
9496	1.925	3.5455	0.	-8600.
9497	1.8375	3.6364	0.	-8207.6
9498	1.925	3.6364	5.e-002	-50.488
9499	1.925	3.3636	0.	-8817.6
9500	1.8375	3.4545	0.	-8461.6
9501	1.925	3.4545	5.e-002	-50.77
9502	1.925	3.1818	0.	-8939.2
9503	1.8375	3.2727	0.	-8623.4
9504	1.925	3.2727	5.e-002	-49.876
9505	1.925	3.	0.	-8977.9
9506	1.8375	3.0909	0.	-8700.8
9507	1.925	3.0909	5.e-002	-48.973
9508	1.925	2.8182	0.	-8939.2
9509	1.8375	2.9091	0.	-8700.8
9510	1.925	2.9091	5.e-002	-48.973
9511	1.925	2.6364	0.	-8817.6
9512	1.8375	2.7273	0.	-8623.4
9513	1.925	2.7273	5.e-002	-49.876
9514	1.925	2.4545	0.	-8600.
9515	1.8375	2.5455	0.	-8461.6
9516	1.925	2.5455	5.e-002	-50.77
9517	1.925	2.2727	0.	-8276.9
9518	1.8375	2.3636	0.	-8207.6
9519	1.925	2.3636	5.e-002	-50.487
9520	1.925	2.0909	0.	-7854.9
9521	1.8375	2.1818	0.	-7862.9
9522	1.925	2.1818	5.e-002	-49.289
9523	1.925	1.9091	0.	-7358.8
9524	1.8375	2.	0.	-7443.6
9525	1.925	2.	5.e-002	-48.526
9526	1.925	1.7273	0.	-6822.2
9527	1.8375	1.8182	0.	-6976.1
9528	1.925	1.8182	5.e-002	-48.561
9529	1.925	1.5455	0.	-6277.5
9530	1.8375	1.6364	0.	-6487.9
9531	1.925	1.6364	5.e-002	-49.899
9532	1.925	1.3636	0.	-5751.9
9533	1.8375	1.4545	0.	-6004.1
9534	1.925	1.4545	5.e-002	-52.566
9535	1.925	1.1818	0.	-5264.8
9536	1.8375	1.2727	0.	-5545.2
9537	1.925	1.2727	5.e-002	-55.063
9538	1.925	1.	0.	-4828.7
9539	1.8375	1.0909	0.	-5126.3
9540	1.925	1.0909	5.e-002	-56.402
9541	1.925	0.81818	0.	-4451.1
9542	1.8375	0.90909	0.	-4757.
9543	1.925	0.90909	5.e-002	-56.705
9544	1.925	0.63636	0.	-4138.5
9545	1.8375	0.72727	0.	-4444.2
9546	1.925	0.72727	5.e-002	-56.33
9547	1.925	0.45455	0.	-3898.
9548	1.8375	0.54545	0.	-4194.3
9549	1.925	0.54545	5.e-002	-55.686
9550	1.925	0.27273	0.	-3747.3
9551	1.8375	0.36364	0.	-4013.5
9552	1.925	0.36364	5.e-002	-55.987
9553	1.8375	0.18182	0.	-3926.6
9554	1.925	0.18182	5.e-002	-74.684
9555	1.925	9.0909e-002	0.	-3577.9
9556	1.75	5.7273	0.	-4193.2
9557	1.6625	5.8182	0.	-4348.3
9558	1.75	5.8182	5.e-002	-68.514
9559	1.75	5.9091	0.	-4044.8
9560	1.75	5.5455	0.	-4311.2
9561	1.6625	5.6364	0.	-4412.1
9562	1.75	5.6364	5.e-002	-49.03
9563	1.75	5.3636	0.	-4504.4
9564	1.6625	5.4545	0.	-4556.8
9565	1.75	5.4545	5.e-002	-48.968
9566	1.75	5.1818	0.	-4757.3
9567	1.6625	5.2727	0.	-4758.6
9568	1.75	5.2727	5.e-002	-49.655
9569	1.75	5.	0.	-5063.7
9570	1.6625	5.0909	0.	-5012.4
9571	1.75	5.0909	5.e-002	-49.785
9572	1.75	4.8182	0.	-5416.2
9573	1.6625	4.9091	0.	-5312.1
9574	1.75	4.9091	5.e-002	-49.104
9575	1.75	4.6364	0.	-5805.9
9576	1.6625	4.7273	0.	-5650.2
9577	1.75	4.7273	5.e-002	-47.492
9578	1.75	4.4545	0.	-6220.8
9579	1.6625	4.5455	0.	-6016.7
9580	1.75	4.5455	5.e-002	-45.11
9581	1.75	4.2727	0.	-6645.7
9582	1.6625	4.3636	0.	-6399.1
9583	1.75	4.3636	5.e-002	-42.401
9584	1.75	4.0909	0.	-7062.6
9585	1.6625	4.1818	0.	-6782.2
9586	1.75	4.1818	5.e-002	-39.892
9587	1.75	3.9091	0.	-7451.2
9588	1.6625	4.	0.	-7149.6
9589	1.75	4.	5.e-002	-37.853
9590	1.75	3.7273	0.	-7791.
9591	1.6625	3.8182	0.	-7483.5
9592	1.75	3.8182	5.e-002	-36.718
9593	1.75	3.5455	0.	-8064.3
9594	1.6625	3.6364	0.	-7766.6
9595	1.75	3.6364	5.e-002	-36.768
9596	1.75	3.3636	0.	-8260.7
9597	1.6625	3.4545	0.	-7985.3
9598	1.75	3.4545	5.e-002	-37.465
9599	1.75	3.1818	0.	-8377.3
9600	1.6625	3.2727	0.	-8132.1
9601	1.75	3.2727	5.e-002	-37.984
9602	1.75	3.	0.	-8415.8
9603	1.6625	3.0909	0.	-8205.2
9604	1.75	3.0909	5.e-002	-38.168
9605	1.75	2.8182	0.	-8377.3
9606	1.6625	2.9091	0.	-8205.2
9607	1.75	2.9091	5.e-002	-38.168
9608	1.75	2.6364	0.	-8260.7
9609	1.6625	2.7273	0.	-8132.1
9610	1.75	2.7273	5.e-002	-37.983
9611	1.75	2.4545	0.	-8064.3
9612	1.6625	2.5455	0.	-7985.3
9613	1.75	2.5455	5.e-002	-37.465
9614	1.75	2.2727	0.	-7791.
9615	1.6625	2.3636	0.	-7766.6
9616	1.75	2.3636	5.e-002	-36.767
9617	1.75	2.0909	0.	-7451.2
9618	1.6625	2.1818	0.	-7483.5
9619	1.75	2.1818	5.e-002	-36.718
9620	1.75	1.9091	0.	-7062.6
9621	1.6625	2.	0.	-7149.6
9622	1.75	2.	5.e-002	-37.853
9623	1.75	1.7273	0.	-6645.7
9624	1.6625	1.8182	0.	-6782.2
9625	1.75	1.8182	5.e-002	-39.892
9626	1.75	1.5455	0.	-6220.8
9627	1.6625	1.6364	0.	-6399.
9628	1.75	1.6364	5.e-002	-42.401
9629	1.75	1.3636	0.	-5805.9
9630	1.6625	1.4545	0.	-6016.7
9631	1.75	1.4545	5.e-002	-45.111
9632	1.75	1.1818	0.	-5416.2
9633	1.6625	1.2727	0.	-5650.2
9634	1.75	1.2727	5.e-002	-47.492
9635	1.75	1.	0.	-5063.7
9636	1.6625	1.0909	0.	-5312.1
9637	1.75	1.0909	5.e-002	-49.104
9638	1.75	0.81818	0.	-4757.3
9639	1.6625	0.90909	0.	-5012.4
9640	1.75	0.90909	5.e-002	-49.785
9641	1.75	0.63636	0.	-4504.4
9642	1.6625	0.72727	0.	-4758.6
9643	1.75	0.72727	5.e-002	-49.655
9644	1.75	0.45455	0.	-4311.2
9645	1.6625	0.54545	0.	-4556.8
9646	1.75	0.54545	5.e-002	-48.968
9647	1.75	0.27273	0.	-4193.2
9648	1.6625	0.36364	0.	-4412.1
9649	1.75	0.36364	5.e-002	-49.03
9650	1.6625	0.18182	0.	-4348.3
9651	1.75	0.18182	5.e-002	-68.514
9652	1.75	9.0909e-002	0.	-4044.8
9653	1.575	5.7273	0.	-4567.5
9654	1.4875	5.8182	0.	-4697.6
9655	1.575	5.8182	5.e-002	-62.431
9656	1.575	5.9091	0.	-4436.9
9657	1.575	5.5455	0.	-4658.3
9658	1.4875	5.6364	0.	-4740.9
9659	1.575	5.6364	5.e-002	-42.587
9660	1.575	5.3636	0.	-4813.3
9661	1.4875	5.4545	0.	-4856.3
9662	1.575	5.4545	5.e-002	-43.042
9663	1.575	5.1818	0.	-5017.7
9664	1.4875	5.2727	0.	-5019.7
9665	1.575	5.2727	5.e-002	-44.111
9666	1.575	5.	0.	-5266.
9667	1.4875	5.0909	0.	-5226.6
9668	1.575	5.0909	5.e-002	-44.453
9669	1.575	4.8182	0.	-5551.5
9670	1.4875	4.9091	0.	-5471.5
9671	1.575	4.9091	5.e-002	-43.894
9672	1.575	4.6364	0.	-5865.9
9673	1.4875	4.7273	0.	-5747.4
9674	1.575	4.7273	5.e-002	-42.418
9675	1.575	4.4545	0.	-6198.8
9676	1.4875	4.5455	0.	-6045.3
9677	1.575	4.5455	5.e-002	-40.137
9678	1.575	4.2727	0.	-6538.2
9679	1.4875	4.3636	0.	-6354.7
9680	1.575	4.3636	5.e-002	-37.288
9681	1.575	4.0909	0.	-6870.7
9682	1.4875	4.1818	0.	-6663.8
9683	1.575	4.1818	5.e-002	-34.123
9684	1.575	3.9091	0.	-7182.
9685	1.4875	4.	0.	-6960.2
9686	1.575	4.	5.e-002	-30.974
9687	1.575	3.7273	0.	-7457.9
9688	1.4875	3.8182	0.	-7231.1
9689	1.575	3.8182	5.e-002	-28.446
9690	1.575	3.5455	0.	-7684.8
9691	1.4875	3.6364	0.	-7463.8
9692	1.575	3.6364	5.e-002	-27.162
9693	1.575	3.3636	0.	-7852.6
9694	1.4875	3.4545	0.	-7647.3
9695	1.575	3.4545	5.e-002	-27.059
9696	1.575	3.1818	0.	-7955.
9697	1.4875	3.2727	0.	-7773.3
9698	1.575	3.2727	5.e-002	-27.47
9699	1.575	3.	0.	-7989.4
9700	1.4875	3.0909	0.	-7837.3
9701	1.575	3.0909	5.e-002	-27.797
9702	1.575	2.8182	0.	-7955.
9703	1.4875	2.9091	0.	-7837.3
9704	1.575	2.9091	5.e-002	-27.797
9705	1.575	2.6364	0.	-7852.6
9706	1.4875	2.7273	0.	-7773.3
9707	1.575	2.7273	5.e-002	-27.47
9708	1.575	2.4545	0.	-7684.8
9709	1.4875	2.5455	0.	-7647.3
9710	1.575	2.5455	5.e-002	-27.059
9711	1.575	2.2727	0.	-7457.9
9712	1.4875	2.3636	0.	-7463.8
9713	1.575	2.3636	5.e-002	-27.162
9714	1.575	2.0909	0.	-7182.
9715	1.4875	2.1818	0.	-7231.1
9716	1.575	2.1818	5.e-002	-28.446
9717	1.575	1.9091	0.	-6870.7
9718	1.4875	2.	0.	-6960.2
9719	1.575	2.	5.e-002	-30.974
9720	1.575	1.7273	0.	-6538.2
9721	1.4875	1.8182	0.	-6663.8
9722	1.575	1.8182	5.e-002	-34.123
9723	1.575	1.5455	0.	-6198.8
9724	1.4875	1.6364	0.	-6354.7
9725	1.575	1.6364	5.e-002	-37.288
9726	1.575	1.3636	0.	-5865.9
9727	1.4875	1.4545	0.	-6045.3
9728	1.575	1.4545	5.e-002	-40.137
9729	1.575	1.1818	0.	-5551.5
9730	1.4875	1.2727	0.	-5747.4
9731	1.575	1.2727	5.e-002	-42.418
9732	1.575	1.	0.	-5266.
9733	1.4875	1.0909	0.	-5471.5
9734	1.575	1.0909	5.e-002	-43.894
9735	1.575	0.81818	0.	-5017.7
9736	1.4875	0.90909	0.	-5226.6
9737	1.575	0.90909	5.e-002	-44.453
9738	1.575	0.63636	0.	-4813.3
9739	1.4875	0.72727	0.	-5019.7
9740	1.575	0.72727	5.e-002	-44.111
9741	1.575	0.45455	0.	-4658.3
9742	1.4875	0.54545	0.	-4856.3
9743	1.575	0.54545	5.e-002	-43.042
9744	1.575	0.27273	0.	-4567.5
9745	1.4875	0.36364	0.	-4740.9
9746	1.575	0.36364	5.e-002	-42.587
9747	1.4875	0.18182	0.	-4697.6
9748	1.575	0.18182	5.e-002	-62.431
9749	1.575	9.0909e-002	0.	-4436.9
9750	1.4	5.7273	0.	-4871.1
9751	1.3125	5.8182	0.	-4975.4
9752	1.4	5.8182	5.e-002	-56.653
9753	1.4	5.9091	0.	-4755.3
9754	1.4	5.5455	0.	-4939.1
9755	1.3125	5.6364	0.	-5000.4
9756	1.4	5.6364	5.e-002	-37.005
9757	1.4	5.3636	0.	-5063.9
9758	1.3125	5.4545	0.	-5092.9
9759	1.4	5.4545	5.e-002	-38.292
9760	1.4	5.1818	0.	-5230.8
9761	1.3125	5.2727	0.	-5227.6
9762	1.4	5.2727	5.e-002	-39.955
9763	1.4	5.	0.	-5435.
9764	1.3125	5.0909	0.	-5400.3
9765	1.4	5.0909	5.e-002	-40.678
9766	1.4	4.8182	0.	-5670.5
9767	1.3125	4.9091	0.	-5605.9
9768	1.4	4.9091	5.e-002	-40.351
9769	1.4	4.6364	0.	-5929.7
9770	1.3125	4.7273	0.	-5837.7
9771	1.4	4.7273	5.e-002	-39.013
9772	1.4	4.4545	0.	-6203.6
9773	1.3125	4.5455	0.	-6087.3
9774	1.4	4.5455	5.e-002	-36.769
9775	1.4	4.2727	0.	-6482.1
9776	1.3125	4.3636	0.	-6345.6
9777	1.4	4.3636	5.e-002	-33.77
9778	1.4	4.0909	0.	-6754.4
9779	1.3125	4.1818	0.	-6602.5
9780	1.4	4.1818	5.e-002	-30.212
9781	1.4	3.9091	0.	-7009.5
9782	1.3125	4.	0.	-6848.1
9783	1.4	4.	5.e-002	-26.407
9784	1.4	3.7273	0.	-7236.4
9785	1.3125	3.8182	0.	-7072.3
9786	1.4	3.8182	5.e-002	-22.879
9787	1.4	3.5455	0.	-7424.7
9788	1.3125	3.6364	0.	-7265.6
9789	1.4	3.6364	5.e-002	-20.274
9790	1.4	3.3636	0.	-7565.5
9791	1.3125	3.4545	0.	-7418.9
9792	1.4	3.4545	5.e-002	-18.925
9793	1.4	3.1818	0.	-7652.5
9794	1.3125	3.2727	0.	-7525.2
9795	1.4	3.2727	5.e-002	-18.543
9796	1.4	3.	0.	-7681.9
9797	1.3125	3.0909	0.	-7579.5
9798	1.4	3.0909	5.e-002	-18.545
9799	1.4	2.8182	0.	-7652.5
9800	1.3125	2.9091	0.	-7579.5
9801	1.4	2.9091	5.e-002	-18.545
9802	1.4	2.6364	0.	-7565.5
9803	1.3125	2.7273	0.	-7525.2
9804	1.4	2.7273	5.e-002	-18.543
9805	1.4	2.4545	0.	-7424.7
9806	1.3125	2.5455	0.	-7418.9
9807	1.4	2.5455	5.e-002	-18.925
9808	1.4	2.2727	0.	-7236.4
9809	1.3125	2.3636	0.	-7265.6
9810	1.4	2.3636	5.e-002	-20.274
9811	1.4	2.0909	0.	-7009.5
9812	1.3125	2.1818	0.	-7072.3
9813	1.4	2.1818	5.e-002	-22.88
9814	1.4	1.9091	0.	-6754.4
9815	1.3125	2.	0.	-6848.1
9816	1.4	2.	5.e-002	-26.407
9817	1.4	1.7273	0.	-6482.1
9818	1.3125	1.8182	0.	-6602.5
9819	1.4	1.8182	5.e-002	-30.212
9820	1.4	1.5455	0.	-6203.6
9821	1.3125	1.6364	0.	-6345.6
9822	1.4	1.6364	5.e-002	-33.77
9823	1.4	1.3636	0.	-5929.7
9824	1.3125	1.4545	0.	-6087.3
9825	1.4	1.4545	5.e-002	-36.769
9826	1.4	1.1818	0.	-5670.5
9827	1.3125	1.2727	0.	-5837.7
9828	1.4	1.2727	5.e-002	-39.014
9829	1.4	1.	0.	-5435.
9830	1.3125	1.0909	0.	-5605.9
9831	1.4	1.0909	5.e-002	-40.351
9832	1.4	0.81818	0.	-5230.8
9833	1.3125	0.90909	0.	-5400.3
9834	1.4	0.90909	5.e-002	-40.678
9835	1.4	0.63636	0.	-5063.9
9836	1.3125	0.72727	0.	-5227.6
9837	1.4	0.72727	5.e-002	-39.955
9838	1.4	0.45455	0.	-4939.1
9839	1.3125	0.54545	0.	-5092.9
9840	1.4	0.54545	5.e-002	-38.292
9841	1.4	0.27273	0.	-4871.1
9842	1.3125	0.36364	0.	-5000.4
9843	1.4	0.36364	5.e-002	-37.005
9844	1.3125	0.18182	0.	-4975.4
9845	1.4	0.18182	5.e-002	-56.653
9846	1.4	9.0909e-002	0.	-4755.3
9847	1.225	5.7273	0.	-5104.7
9848	1.1375	5.8182	0.	-5180.7
9849	1.225	5.8182	5.e-002	-51.26
9850	1.225	5.9091	0.	-4999.8
9851	1.225	5.5455	0.	-5154.3
9852	1.1375	5.6364	0.	-5190.3
9853	1.225	5.6364	5.e-002	-32.73
9854	1.225	5.3636	0.	-5257.2
9855	1.1375	5.4545	0.	-5267.3
9856	1.225	5.4545	5.e-002	-35.116
9857	1.225	5.1818	0.	-5398.2
9858	1.1375	5.2727	0.	-5384.3
9859	1.225	5.2727	5.e-002	-37.376
9860	1.225	5.	0.	-5572.7
9861	1.1375	5.0909	0.	-5536.8
9862	1.225	5.0909	5.e-002	-38.392
9863	1.225	4.8182	0.	-5774.8
9864	1.1375	4.9091	0.	-5719.
9865	1.225	4.9091	5.e-002	-38.175
9866	1.225	4.6364	0.	-5997.
9867	1.1375	4.7273	0.	-5923.7
9868	1.225	4.7273	5.e-002	-36.846
9869	1.225	4.4545	0.	-6230.8
9870	1.1375	4.5455	0.	-6142.7
9871	1.225	4.5455	5.e-002	-34.543
9872	1.225	4.2727	0.	-6467.1
9873	1.1375	4.3636	0.	-6367.
9874	1.225	4.3636	5.e-002	-31.423
9875	1.225	4.0909	0.	-6696.9
9876	1.1375	4.1818	0.	-6588.
9877	1.225	4.1818	5.e-002	-27.669
9878	1.225	3.9091	0.	-6911.2
9879	1.1375	4.	0.	-6797.4
9880	1.225	4.	5.e-002	-23.532
9881	1.225	3.7273	0.	-7101.2
9882	1.1375	3.8182	0.	-6987.3
9883	1.225	3.8182	5.e-002	-19.379
9884	1.225	3.5455	0.	-7258.9
9885	1.1375	3.6364	0.	-7150.2
9886	1.225	3.6364	5.e-002	-15.689
9887	1.225	3.3636	0.	-7377.1
9888	1.1375	3.4545	0.	-7279.2
9889	1.225	3.4545	5.e-002	-12.917
9890	1.225	3.1818	0.	-7450.3
9891	1.1375	3.2727	0.	-7368.6
9892	1.225	3.2727	5.e-002	-11.271
9893	1.225	3.	0.	-7475.1
9894	1.1375	3.0909	0.	-7414.4
9895	1.225	3.0909	5.e-002	-10.583
9896	1.225	2.8182	0.	-7450.3
9897	1.1375	2.9091	0.	-7414.4
9898	1.225	2.9091	5.e-002	-10.583
9899	1.225	2.6364	0.	-7377.1
9900	1.1375	2.7273	0.	-7368.6
9901	1.225	2.7273	5.e-002	-11.271
9902	1.225	2.4545	0.	-7258.9
9903	1.1375	2.5455	0.	-7279.2
9904	1.225	2.5455	5.e-002	-12.918
9905	1.225	2.2727	0.	-7101.2
9906	1.1375	2.3636	0.	-7150.2
9907	1.225	2.3636	5.e-002	-15.689
9908	1.225	2.0909	0.	-6911.2
9909	1.1375	2.1818	0.	-6987.3
9910	1.225	2.1818	5.e-002	-19.38
9911	1.225	1.9091	0.	-6696.9
9912	1.1375	2.	0.	-6797.4
9913	1.225	2.	5.e-002	-23.532
9914	1.225	1.7273	0.	-6467.1
9915	1.1375	1.8182	0.	-6588.
9916	1.225	1.8182	5.e-002	-27.669
9917	1.225	1.5455	0.	-6230.8
9918	1.1375	1.6364	0.	-6367.
9919	1.225	1.6364	5.e-002	-31.423
9920	1.225	1.3636	0.	-5997.
9921	1.1375	1.4545	0.	-6142.7
9922	1.225	1.4545	5.e-002	-34.544
9923	1.225	1.1818	0.	-5774.8
9924	1.1375	1.2727	0.	-5923.7
9925	1.225	1.2727	5.e-002	-36.846
9926	1.225	1.	0.	-5572.7
9927	1.1375	1.0909	0.	-5719.
9928	1.225	1.0909	5.e-002	-38.175
9929	1.225	0.81818	0.	-5398.2
9930	1.1375	0.90909	0.	-5536.8
9931	1.225	0.90909	5.e-002	-38.392
9932	1.225	0.63636	0.	-5257.2
9933	1.1375	0.72727	0.	-5384.3
9934	1.225	0.72727	5.e-002	-37.376
9935	1.225	0.45455	0.	-5154.3
9936	1.1375	0.54545	0.	-5267.3
9937	1.225	0.54545	5.e-002	-35.116
9938	1.225	0.27273	0.	-5104.7
9939	1.1375	0.36364	0.	-5190.3
9940	1.225	0.36364	5.e-002	-32.73
9941	1.1375	0.18182	0.	-5180.7
9942	1.225	0.18182	5.e-002	-51.26
9943	1.225	9.0909e-002	0.	-4999.8
9944	1.05	5.7273	0.	-5266.3
9945	0.9625	5.8182	0.	-5307.7
9946	1.05	5.8182	5.e-002	-46.25
9947	1.05	5.9091	0.	-5167.5
9948	1.05	5.5455	0.	-5303.4
9949	0.9625	5.6364	0.	-5306.7
9950	1.05	5.6364	5.e-002	-30.548
9951	1.05	5.3636	0.	-5394.6
9952	0.9625	5.4545	0.	-5378.4
9953	1.05	5.4545	5.e-002	-34.05
9954	1.05	5.1818	0.	-5523.3
9955	0.9625	5.2727	0.	-5491.9
9956	1.05	5.2727	5.e-002	-36.583
9957	1.05	5.	0.	-5683.7
9958	0.9625	5.0909	0.	-5640.5
9959	1.05	5.0909	5.e-002	-37.56
9960	1.05	4.8182	0.	-5868.8
9961	0.9625	4.9091	0.	-5816.5
9962	1.05	4.9091	5.e-002	-37.195
9963	1.05	4.6364	0.	-6070.4
9964	0.9625	4.7273	0.	-6010.7
9965	1.05	4.7273	5.e-002	-35.704
9966	1.05	4.4545	0.	-6279.8
9967	0.9625	4.5455	0.	-6214.
9968	1.05	4.5455	5.e-002	-33.268
9969	1.05	4.2727	0.	-6488.7
9970	0.9625	4.3636	0.	-6418.
9971	1.05	4.3636	5.e-002	-30.057
9972	1.05	4.0909	0.	-6689.2
9973	0.9625	4.1818	0.	-6615.2
9974	1.05	4.1818	5.e-002	-26.249
9975	1.05	3.9091	0.	-6873.9
9976	0.9625	4.	0.	-6798.9
9977	1.05	4.	5.e-002	-22.048
9978	1.05	3.7273	0.	-7036.2
9979	0.9625	3.8182	0.	-6963.1
9980	1.05	3.8182	5.e-002	-17.692
9981	1.05	3.5455	0.	-7170.
9982	0.9625	3.6364	0.	-7102.5
9983	1.05	3.6364	5.e-002	-13.443
9984	1.05	3.3636	0.	-7269.9
9985	0.9625	3.4545	0.	-7212.
9986	1.05	3.4545	5.e-002	-9.5518
9987	1.05	3.1818	0.	-7331.6
9988	0.9625	3.2727	0.	-7287.5
9989	1.05	3.2727	5.e-002	-6.2515
9990	1.05	3.	0.	-7352.5
9991	0.9625	3.0909	0.	-7326.1
9992	1.05	3.0909	5.e-002	-3.9895
9993	1.05	2.8182	0.	-7331.6
9994	0.9625	2.9091	0.	-7326.1
9995	1.05	2.9091	5.e-002	-3.9897
9996	1.05	2.6364	0.	-7269.9
9997	0.9625	2.7273	0.	-7287.5
9998	1.05	2.7273	5.e-002	-6.2517
9999	1.05	2.4545	0.	-7170.
10000	0.9625	2.5455	0.	-7212.
10001	1.05	2.5455	5.e-002	-9.552
10002	1.05	2.2727	0.	-7036.2
10003	0.9625	2.3636	0.	-7102.5
10004	1.05	2.3636	5.e-002	-13.443
10005	1.05	2.0909	0.	-6873.9
10006	0.9625	2.1818	0.	-6963.1
10007	1.05	2.1818	5.e-002	-17.692
10008	1.05	1.9091	0.	-6689.2
10009	0.9625	2.	0.	-6798.9
10010	1.05	2.	5.e-002	-22.048
10011	1.05	1.7273	0.	-6488.7
10012	0.9625	1.8182	0.	-6615.2
10013	1.05	1.8182	5.e-002	-26.249
10014	1.05	1.5455	0.	-6279.8
10015	0.9625	1.6364	0.	-6418.
10016	1.05	1.6364	5.e-002	-30.057
10017	1.05	1.3636	0.	-6070.4
10018	0.9625	1.4545	0.	-6214.
10019	1.05	1.4545	5.e-002	-33.268
10020	1.05	1.1818	0.	-5868.8
10021	0.9625	1.2727	0.	-6010.7
10022	1.05	1.2727	5.e-002	-35.704
10023	1.05	1.	0.	-5683.7
10024	0.9625	1.0909	0.	-5816.5
10025	1.05	1.0909	5.e-002	-37.195
10026	1.05	0.81818	0.	-5523.3
10027	0.9625	0.90909	0.	-5640.5
10028	1.05	0.90909	5.e-002	-37.56
10029	1.05	0.63636	0.	-5394.6
10030	0.9625	0.72727	0.	-5491.9
10031	1.05	0.72727	5.e-002	-36.583
10032	1.05	0.45455	0.	-5303.4
10033	0.9625	0.54545	0.	-5378.4
10034	1.05	0.54545	5.e-002	-34.05
10035	1.05	0.27273	0.	-5266.3
10036	0.9625	0.36364	0.	-5306.7
10037	1.05	0.36364	5.e-002	-30.548
10038	0.9625	0.18182	0.	-5307.7
10039	1.05	0.18182	5.e-002	-46.25
10040	1.05	9.0909e-002	0.	-5167.5
10041	0.875	5.7273	0.	-5348.
10042	0.7875	5.8182	0.	-5342.6
10043	0.875	5.8182	5.e-002	-41.646
10044	0.875	5.9091	0.	-5248.6
10045	0.875	5.5455	0.	-5381.7
10046	0.7875	5.6364	0.	-5340.8
10047	0.875	5.6364	5.e-002	-31.749
10048	0.875	5.3636	0.	-5475.5
10049	0.7875	5.4545	0.	-5424.4
10050	0.875	5.4545	5.e-002	-35.727
10051	0.875	5.1818	0.	-5609.1
10052	0.7875	5.2727	0.	-5555.4
10053	0.875	5.2727	5.e-002	-37.741
10054	0.875	5.	0.	-5773.5
10055	0.7875	5.0909	0.	-5721.7
10056	0.875	5.0909	5.e-002	-38.129
10057	0.875	4.8182	0.	-5958.8
10058	0.7875	4.9091	0.	-5910.3
10059	0.875	4.9091	5.e-002	-37.3
10060	0.875	4.6364	0.	-6154.9
10061	0.7875	4.7273	0.	-6109.4
10062	0.875	4.7273	5.e-002	-35.486
10063	0.875	4.4545	0.	-6352.8
10064	0.7875	4.5455	0.	-6309.4
10065	0.875	4.5455	5.e-002	-32.857
10066	0.875	4.2727	0.	-6545.1
10067	0.7875	4.3636	0.	-6502.9
10068	0.875	4.3636	5.e-002	-29.575
10069	0.875	4.0909	0.	-6725.5
10070	0.7875	4.1818	0.	-6684.3
10071	0.875	4.1818	5.e-002	-25.81
10072	0.875	3.9091	0.	-6888.5
10073	0.7875	4.	0.	-6849.
10074	0.875	4.	5.e-002	-21.741
10075	0.875	3.7273	0.	-7029.5
10076	0.7875	3.8182	0.	-6993.2
10077	0.875	3.8182	5.e-002	-17.55
10078	0.875	3.5455	0.	-7144.3
10079	0.7875	3.6364	0.	-7113.6
10080	0.875	3.6364	5.e-002	-13.409
10081	0.875	3.3636	0.	-7229.2
10082	0.7875	3.4545	0.	-7207.
10083	0.875	3.4545	5.e-002	-9.4618
10084	0.875	3.1818	0.	-7281.5
10085	0.7875	3.2727	0.	-7270.9
10086	0.875	3.2727	5.e-002	-5.8181
10087	0.875	3.	0.	-7299.1
10088	0.7875	3.0909	0.	-7303.4
10089	0.875	3.0909	5.e-002	-2.7882
10090	0.875	2.8182	0.	-7281.5
10091	0.7875	2.9091	0.	-7303.4
10092	0.875	2.9091	5.e-002	-2.7879
10093	0.875	2.6364	0.	-7229.2
10094	0.7875	2.7273	0.	-7270.9
10095	0.875	2.7273	5.e-002	-5.8179
10096	0.875	2.4545	0.	-7144.3
10097	0.7875	2.5455	0.	-7207.
10098	0.875	2.5455	5.e-002	-9.4616
10099	0.875	2.2727	0.	-7029.5
10100	0.7875	2.3636	0.	-7113.6
10101	0.875	2.3636	5.e-002	-13.409
10102	0.875	2.0909	0.	-6888.5
10103	0.7875	2.1818	0.	-6993.2
10104	0.875	2.1818	5.e-002	-17.55
10105	0.875	1.9091	0.	-6725.5
10106	0.7875	2.	0.	-6849.
10107	0.875	2.	5.e-002	-21.741
10108	0.875	1.7273	0.	-6545.1
10109	0.7875	1.8182	0.	-6684.3
10110	0.875	1.8182	5.e-002	-25.81
10111	0.875	1.5455	0.	-6352.8
10112	0.7875	1.6364	0.	-6502.9
10113	0.875	1.6364	5.e-002	-29.575
10114	0.875	1.3636	0.	-6154.9
10115	0.7875	1.4545	0.	-6309.4
10116	0.875	1.4545	5.e-002	-32.857
10117	0.875	1.1818	0.	-5958.8
10118	0.7875	1.2727	0.	-6109.4
10119	0.875	1.2727	5.e-002	-35.486
10120	0.875	1.	0.	-5773.5
10121	0.7875	1.0909	0.	-5910.3
10122	0.875	1.0909	5.e-002	-37.3
10123	0.875	0.81818	0.	-5609.1
10124	0.7875	0.90909	0.	-5721.7
10125	0.875	0.90909	5.e-002	-38.129
10126	0.875	0.63636	0.	-5475.5
10127	0.7875	0.72727	0.	-5555.4
10128	0.875	0.72727	5.e-002	-37.741
10129	0.875	0.45455	0.	-5381.7
10130	0.7875	0.54545	0.	-5424.4
10131	0.875	0.54545	5.e-002	-35.727
10132	0.875	0.27273	0.	-5348.
10133	0.7875	0.36364	0.	-5340.8
10134	0.875	0.36364	5.e-002	-31.749
10135	0.7875	0.18182	0.	-5342.6
10136	0.875	0.18182	5.e-002	-41.646
10137	0.875	9.0909e-002	0.	-5248.6
10138	0.7	5.7273	0.	-5335.2
10139	0.6125	5.8182	0.	-5250.9
10140	0.7	5.8182	5.e-002	-38.556
10141	0.7	5.9091	0.	-5223.2
10142	0.7	5.5455	0.	-5383.2
10143	0.6125	5.6364	0.	-5268.8
10144	0.7	5.6364	5.e-002	-38.19
10145	0.7	5.3636	0.	-5503.6
10146	0.6125	5.4545	0.	-5396.7
10147	0.7	5.4545	5.e-002	-40.829
10148	0.7	5.1818	0.	-5667.5
10149	0.6125	5.2727	0.	-5579.5
10150	0.7	5.2727	5.e-002	-41.038
10151	0.7	5.	0.	-5858.4
10152	0.6125	5.0909	0.	-5791.4
10153	0.7	5.0909	5.e-002	-40.215
10154	0.7	4.8182	0.	-6061.2
10155	0.6125	4.9091	0.	-6012.3
10156	0.7	4.9091	5.e-002	-38.652
10157	0.7	4.6364	0.	-6264.6
10158	0.6125	4.7273	0.	-6228.8
10159	0.7	4.7273	5.e-002	-36.39
10160	0.7	4.4545	0.	-6460.3
10161	0.6125	4.5455	0.	-6433.3
10162	0.7	4.5455	5.e-002	-33.506
10163	0.7	4.2727	0.	-6642.8
10164	0.6125	4.3636	0.	-6621.4
10165	0.7	4.3636	5.e-002	-30.129
10166	0.7	4.0909	0.	-6808.5
10167	0.6125	4.1818	0.	-6790.6
10168	0.7	4.1818	5.e-002	-26.419
10169	0.7	3.9091	0.	-6954.2
10170	0.6125	4.	0.	-6939.3
10171	0.7	4.	5.e-002	-22.548
10172	0.7	3.7273	0.	-7077.5
10173	0.6125	3.8182	0.	-7066.
10174	0.7	3.8182	5.e-002	-18.687
10175	0.7	3.5455	0.	-7176.3
10176	0.6125	3.6364	0.	-7169.5
10177	0.7	3.6364	5.e-002	-15.007
10178	0.7	3.3636	0.	-7248.5
10179	0.6125	3.4545	0.	-7248.6
10180	0.7	3.4545	5.e-002	-11.691
10181	0.7	3.1818	0.	-7292.6
10182	0.6125	3.2727	0.	-7302.1
10183	0.7	3.2727	5.e-002	-8.9948
10184	0.7	3.	0.	-7307.4
10185	0.6125	3.0909	0.	-7329.1
10186	0.7	3.0909	5.e-002	-7.3649
10187	0.7	2.8182	0.	-7292.6
10188	0.6125	2.9091	0.	-7329.1
10189	0.7	2.9091	5.e-002	-7.3647
10190	0.7	2.6364	0.	-7248.5
10191	0.6125	2.7273	0.	-7302.1
10192	0.7	2.7273	5.e-002	-8.9946
10193	0.7	2.4545	0.	-7176.3
10194	0.6125	2.5455	0.	-7248.6
10195	0.7	2.5455	5.e-002	-11.691
10196	0.7	2.2727	0.	-7077.5
10197	0.6125	2.3636	0.	-7169.5
10198	0.7	2.3636	5.e-002	-15.006
10199	0.7	2.0909	0.	-6954.2
10200	0.6125	2.1818	0.	-7066.
10201	0.7	2.1818	5.e-002	-18.687
10202	0.7	1.9091	0.	-6808.5
10203	0.6125	2.	0.	-6939.3
10204	0.7	2.	5.e-002	-22.548
10205	0.7	1.7273	0.	-6642.8
10206	0.6125	1.8182	0.	-6790.6
10207	0.7	1.8182	5.e-002	-26.419
10208	0.7	1.5455	0.	-6460.3
10209	0.6125	1.6364	0.	-6621.4
10210	0.7	1.6364	5.e-002	-30.128
10211	0.7	1.3636	0.	-6264.6
10212	0.6125	1.4545	0.	-6433.3
10213	0.7	1.4545	5.e-002	-33.505
10214	0.7	1.1818	0.	-6061.2
10215	0.6125	1.2727	0.	-6228.8
10216	0.7	1.2727	5.e-002	-36.39
10217	0.7	1.	0.	-5858.4
10218	0.6125	1.0909	0.	-6012.3
10219	0.7	1.0909	5.e-002	-38.652
10220	0.7	0.81818	0.	-5667.5
10221	0.6125	0.90909	0.	-5791.4
10222	0.7	0.90909	5.e-002	-40.215
10223	0.7	0.63636	0.	-5503.6
10224	0.6125	0.72727	0.	-5579.5
10225	0.7	0.72727	5.e-002	-41.038
10226	0.7	0.45455	0.	-5383.2
10227	0.6125	0.54545	0.	-5396.7
10228	0.7	0.54545	5.e-002	-40.829
10229	0.7	0.27273	0.	-5335.2
10230	0.6125	0.36364	0.	-5268.8
10231	0.7	0.36364	5.e-002	-38.19
10232	0.6125	0.18182	0.	-5250.9
10233	0.7	0.18182	5.e-002	-38.556
10234	0.7	9.0909e-002	0.	-5223.2
10235	0.525	5.7273	0.	-5183.8
10236	0.4375	5.8182	0.	-4970.6
10237	0.525	5.8182	5.e-002	-41.207
10238	0.525	5.9091	0.	-5038.8
10239	0.525	5.5455	0.	-5281.1
10240	0.4375	5.6364	0.	-5073.9
10241	0.525	5.6364	5.e-002	-51.852
10242	0.525	5.3636	0.	-5471.
10243	0.4375	5.4545	0.	-5322.1
10244	0.525	5.4545	5.e-002	-49.408
10245	0.525	5.1818	0.	-5702.7
10246	0.4375	5.2727	0.	-5614.3
10247	0.525	5.2727	5.e-002	-46.126
10248	0.525	5.	0.	-5945.5
10249	0.4375	5.0909	0.	-5904.7
10250	0.525	5.0909	5.e-002	-43.559
10251	0.525	4.8182	0.	-6180.7
10252	0.4375	4.9091	0.	-6172.9
10253	0.525	4.9091	5.e-002	-40.979
10254	0.525	4.6364	0.	-6398.6
10255	0.4375	4.7273	0.	-6412.2
10256	0.525	4.7273	5.e-002	-38.066
10257	0.525	4.4545	0.	-6595.5
10258	0.4375	4.5455	0.	-6622.1
10259	0.525	4.5455	5.e-002	-34.757
10260	0.525	4.2727	0.	-6770.1
10261	0.4375	4.3636	0.	-6804.2
10262	0.525	4.3636	5.e-002	-31.147
10263	0.525	4.0909	0.	-6922.1
10264	0.4375	4.1818	0.	-6960.2
10265	0.525	4.1818	5.e-002	-27.383
10266	0.525	3.9091	0.	-7051.5
10267	0.4375	4.	0.	-7092.
10268	0.525	4.	5.e-002	-23.625
10269	0.525	3.7273	0.	-7158.2
10270	0.4375	3.8182	0.	-7200.9
10271	0.525	3.8182	5.e-002	-20.031
10272	0.525	3.5455	0.	-7241.8
10273	0.4375	3.6364	0.	-7287.7
10274	0.525	3.6364	5.e-002	-16.762
10275	0.525	3.3636	0.	-7302.1
10276	0.4375	3.4545	0.	-7352.8
10277	0.525	3.4545	5.e-002	-13.989
10278	0.525	3.1818	0.	-7338.5
10279	0.4375	3.2727	0.	-7396.2
10280	0.525	3.2727	5.e-002	-11.914
10281	0.525	3.	0.	-7350.7
10282	0.4375	3.0909	0.	-7417.9
10283	0.525	3.0909	5.e-002	-10.778
10284	0.525	2.8182	0.	-7338.5
10285	0.4375	2.9091	0.	-7417.9
10286	0.525	2.9091	5.e-002	-10.778
10287	0.525	2.6364	0.	-7302.1
10288	0.4375	2.7273	0.	-7396.2
10289	0.525	2.7273	5.e-002	-11.913
10290	0.525	2.4545	0.	-7241.8
10291	0.4375	2.5455	0.	-7352.8
10292	0.525	2.5455	5.e-002	-13.988
10293	0.525	2.2727	0.	-7158.2
10294	0.4375	2.3636	0.	-7287.7
10295	0.525	2.3636	5.e-002	-16.762
10296	0.525	2.0909	0.	-7051.5
10297	0.4375	2.1818	0.	-7200.9
10298	0.525	2.1818	5.e-002	-20.031
10299	0.525	1.9091	0.	-6922.1
10300	0.4375	2.	0.	-7092.
10301	0.525	2.	5.e-002	-23.625
10302	0.525	1.7273	0.	-6770.1
10303	0.4375	1.8182	0.	-6960.2
10304	0.525	1.8182	5.e-002	-27.383
10305	0.525	1.5455	0.	-6595.5
10306	0.4375	1.6364	0.	-6804.2
10307	0.525	1.6364	5.e-002	-31.147
10308	0.525	1.3636	0.	-6398.6
10309	0.4375	1.4545	0.	-6622.1
10310	0.525	1.4545	5.e-002	-34.757
10311	0.525	1.1818	0.	-6180.7
10312	0.4375	1.2727	0.	-6412.2
10313	0.525	1.2727	5.e-002	-38.066
10314	0.525	1.	0.	-5945.5
10315	0.4375	1.0909	0.	-6172.9
10316	0.525	1.0909	5.e-002	-40.979
10317	0.525	0.81818	0.	-5702.7
10318	0.4375	0.90909	0.	-5904.7
10319	0.525	0.90909	5.e-002	-43.559
10320	0.525	0.63636	0.	-5471.
10321	0.4375	0.72727	0.	-5614.3
10322	0.525	0.72727	5.e-002	-46.126
10323	0.525	0.45455	0.	-5281.1
10324	0.4375	0.54545	0.	-5322.1
10325	0.525	0.54545	5.e-002	-49.408
10326	0.525	0.27273	0.	-5183.8
10327	0.4375	0.36364	0.	-5073.9
10328	0.525	0.36364	5.e-002	-51.852
10329	0.4375	0.18182	0.	-4970.6
10330	0.525	0.18182	5.e-002	-41.207
10331	0.525	9.0909e-002	0.	-5038.8
10332	0.35	5.7273	0.	-4858.
10333	0.2625	5.8182	0.	-4267.4
10334	0.35	5.8182	5.e-002	-67.931
10335	0.35	5.9091	0.	-4609.6
10336	0.35	5.5455	0.	-5110.8
10337	0.2625	5.6364	0.	-4672.5
10338	0.35	5.6364	5.e-002	-76.159
10339	0.35	5.3636	0.	-5463.
10340	0.2625	5.4545	0.	-5196.
10341	0.35	5.4545	5.e-002	-62.433
10342	0.35	5.1818	0.	-5816.4
10343	0.2625	5.2727	0.	-5654.7
10344	0.35	5.2727	5.e-002	-55.306
10345	0.35	5.	0.	-6133.3
10346	0.2625	5.0909	0.	-6034.2
10347	0.35	5.0909	5.e-002	-50.747
10348	0.35	4.8182	0.	-6405.9
10349	0.2625	4.9091	0.	-6342.5
10350	0.35	4.9091	5.e-002	-46.992
10351	0.35	4.6364	0.	-6637.1
10352	0.2625	4.7273	0.	-6593.2
10353	0.35	4.7273	5.e-002	-43.189
10354	0.35	4.4545	0.	-6831.8
10355	0.2625	4.5455	0.	-6797.6
10356	0.35	4.5455	5.e-002	-39.239
10357	0.35	4.2727	0.	-6995.
10358	0.2625	4.3636	0.	-6964.6
10359	0.35	4.3636	5.e-002	-35.212
10360	0.35	4.0909	0.	-7130.7
10361	0.2625	4.1818	0.	-7100.8
10362	0.35	4.1818	5.e-002	-31.229
10363	0.35	3.9091	0.	-7241.8
10364	0.2625	4.	0.	-7210.9
10365	0.35	4.	5.e-002	-27.43
10366	0.35	3.7273	0.	-7330.7
10367	0.2625	3.8182	0.	-7298.6
10368	0.35	3.8182	5.e-002	-23.954
10369	0.35	3.5455	0.	-7398.7
10370	0.2625	3.6364	0.	-7366.4
10371	0.35	3.6364	5.e-002	-20.937
10372	0.35	3.3636	0.	-7446.8
10373	0.2625	3.4545	0.	-7416.1
10374	0.35	3.4545	5.e-002	-18.51
10375	0.35	3.1818	0.	-7475.5
10376	0.2625	3.2727	0.	-7448.7
10377	0.35	3.2727	5.e-002	-16.799
10378	0.35	3.	0.	-7485.1
10379	0.2625	3.0909	0.	-7464.8
10380	0.35	3.0909	5.e-002	-15.91
10381	0.35	2.8182	0.	-7475.5
10382	0.2625	2.9091	0.	-7464.8
10383	0.35	2.9091	5.e-002	-15.91
10384	0.35	2.6364	0.	-7446.8
10385	0.2625	2.7273	0.	-7448.7
10386	0.35	2.7273	5.e-002	-16.799
10387	0.35	2.4545	0.	-7398.7
10388	0.2625	2.5455	0.	-7416.1
10389	0.35	2.5455	5.e-002	-18.51
10390	0.35	2.2727	0.	-7330.7
10391	0.2625	2.3636	0.	-7366.4
10392	0.35	2.3636	5.e-002	-20.936
10393	0.35	2.0909	0.	-7241.8
10394	0.2625	2.1818	0.	-7298.6
10395	0.35	2.1818	5.e-002	-23.953
10396	0.35	1.9091	0.	-7130.7
10397	0.2625	2.	0.	-7210.9
10398	0.35	2.	5.e-002	-27.43
10399	0.35	1.7273	0.	-6995.
10400	0.2625	1.8182	0.	-7100.8
10401	0.35	1.8182	5.e-002	-31.229
10402	0.35	1.5455	0.	-6831.8
10403	0.2625	1.6364	0.	-6964.6
10404	0.35	1.6364	5.e-002	-35.211
10405	0.35	1.3636	0.	-6637.1
10406	0.2625	1.4545	0.	-6797.6
10407	0.35	1.4545	5.e-002	-39.239
10408	0.35	1.1818	0.	-6405.9
10409	0.2625	1.2727	0.	-6593.2
10410	0.35	1.2727	5.e-002	-43.189
10411	0.35	1.	0.	-6133.3
10412	0.2625	1.0909	0.	-6342.5
10413	0.35	1.0909	5.e-002	-46.992
10414	0.35	0.81818	0.	-5816.4
10415	0.2625	0.90909	0.	-6034.2
10416	0.35	0.90909	5.e-002	-50.747
10417	0.35	0.63636	0.	-5463.
10418	0.2625	0.72727	0.	-5654.7
10419	0.35	0.72727	5.e-002	-55.306
10420	0.35	0.45455	0.	-5110.8
10421	0.2625	0.54545	0.	-5196.
10422	0.35	0.54545	5.e-002	-62.433
10423	0.35	0.27273	0.	-4858.
10424	0.2625	0.36364	0.	-4672.5
10425	0.35	0.36364	5.e-002	-76.159
10426	0.2625	0.18182	0.	-4267.4
10427	0.35	0.18182	5.e-002	-67.931
10428	0.35	9.0909e-002	0.	-4609.6
10429	0.175	5.7273	0.	-4067.4
10430	0.175	5.8182	5.e-002	-166.4
10431	0.175	5.9091	0.	-3540.9
10432	8.75e-002	5.8182	0.	-3148.6
10433	0.175	5.5455	0.	-4760.
10434	0.175	5.6364	5.e-002	-107.52
10435	8.75e-002	5.6364	0.	-4510.7
10436	0.175	5.3636	0.	-5396.8
10437	0.175	5.4545	5.e-002	-78.309
10438	8.75e-002	5.4545	0.	-5394.2
10439	0.175	5.1818	0.	-5880.3
10440	0.175	5.2727	5.e-002	-63.396
10441	8.75e-002	5.2727	0.	-5994.7
10442	0.175	5.	0.	-6248.9
10443	0.175	5.0909	5.e-002	-54.816
10444	8.75e-002	5.0909	0.	-6423.
10445	0.175	4.8182	0.	-6533.3
10446	0.175	4.9091	5.e-002	-47.93
10447	8.75e-002	4.9091	0.	-6740.4
10448	0.175	4.6364	0.	-6756.
10449	0.175	4.7273	5.e-002	-41.926
10450	8.75e-002	4.7273	0.	-6981.
10451	0.175	4.4545	0.	-6931.9
10452	0.175	4.5455	5.e-002	-36.436
10453	8.75e-002	4.5455	0.	-7165.8
10454	0.175	4.2727	0.	-7071.3
10455	0.175	4.3636	5.e-002	-31.34
10456	8.75e-002	4.3636	0.	-7308.4
10457	0.175	4.0909	0.	-7181.6
10458	0.175	4.1818	5.e-002	-26.63
10459	8.75e-002	4.1818	0.	-7418.3
10460	0.175	3.9091	0.	-7268.
10461	0.175	4.	5.e-002	-22.355
10462	8.75e-002	4.	0.	-7502.6
10463	0.175	3.7273	0.	-7334.5
10464	0.175	3.8182	5.e-002	-18.595
10465	8.75e-002	3.8182	0.	-7566.4
10466	0.175	3.5455	0.	-7383.8
10467	0.175	3.6364	5.e-002	-15.432
10468	8.75e-002	3.6364	0.	-7613.7
10469	0.175	3.3636	0.	-7417.9
10470	0.175	3.4545	5.e-002	-12.948
10471	8.75e-002	3.4545	0.	-7647.1
10472	0.175	3.1818	0.	-7438.
10473	0.175	3.2727	5.e-002	-11.222
10474	8.75e-002	3.2727	0.	-7668.6
10475	0.175	3.	0.	-7444.6
10476	0.175	3.0909	5.e-002	-10.333
10477	8.75e-002	3.0909	0.	-7679.
10478	0.175	2.8182	0.	-7438.
10479	0.175	2.9091	5.e-002	-10.333
10480	8.75e-002	2.9091	0.	-7679.
10481	0.175	2.6364	0.	-7417.9
10482	0.175	2.7273	5.e-002	-11.222
10483	8.75e-002	2.7273	0.	-7668.6
10484	0.175	2.4545	0.	-7383.8
10485	0.175	2.5455	5.e-002	-12.947
10486	8.75e-002	2.5455	0.	-7647.1
10487	0.175	2.2727	0.	-7334.5
10488	0.175	2.3636	5.e-002	-15.431
10489	8.75e-002	2.3636	0.	-7613.7
10490	0.175	2.0909	0.	-7268.
10491	0.175	2.1818	5.e-002	-18.594
10492	8.75e-002	2.1818	0.	-7566.4
10493	0.175	1.9091	0.	-7181.6
10494	0.175	2.	5.e-002	-22.355
10495	8.75e-002	2.	0.	-7502.6
10496	0.175	1.7273	0.	-7071.3
10497	0.175	1.8182	5.e-002	-26.629
10498	8.75e-002	1.8182	0.	-7418.3
10499	0.175	1.5455	0.	-6931.9
10500	0.175	1.6364	5.e-002	-31.34
10501	8.75e-002	1.6364	0.	-7308.4
10502	0.175	1.3636	0.	-6756.
10503	0.175	1.4545	5.e-002	-36.436
10504	8.75e-002	1.4545	0.	-7165.8
10505	0.175	1.1818	0.	-6533.3
10506	0.175	1.2727	5.e-002	-41.926
10507	8.75e-002	1.2727	0.	-6981.1
10508	0.175	1.	0.	-6248.9
10509	0.175	1.0909	5.e-002	-47.93
10510	8.75e-002	1.0909	0.	-6740.4
10511	0.175	0.81818	0.	-5880.3
10512	0.175	0.90909	5.e-002	-54.816
10513	8.75e-002	0.90909	0.	-6423.
10514	0.175	0.63636	0.	-5396.8
10515	0.175	0.72727	5.e-002	-63.396
10516	8.75e-002	0.72727	0.	-5994.7
10517	0.175	0.45455	0.	-4760.
10518	0.175	0.54545	5.e-002	-78.309
10519	8.75e-002	0.54545	0.	-5394.2
10520	0.175	0.27273	0.	-4067.4
10521	0.175	0.36364	5.e-002	-107.52
10522	8.75e-002	0.36364	0.	-4510.7
10523	0.175	0.18182	5.e-002	-166.39
10524	0.175	9.0909e-002	0.	-3540.9
10525	8.75e-002	0.18182	0.	-3148.6
10526	3.2434	5.8182	0.	-1222.7
10527	3.1512	5.7273	0.	-1144.9
10528	3.1512	5.8182	5.e-002	-79.355
10529	3.1512	5.9091	0.	-793.25
10530	3.0589	5.8182	0.	-685.89
10531	3.4279	5.8182	0.	-1784.9
10532	3.3357	5.7273	0.	-1613.2
10533	3.3357	5.8182	5.e-002	-70.6
10534	3.3357	5.9091	0.	-1407.4
10535	3.6124	5.8182	0.	-2310.9
10536	3.5202	5.7273	0.	-2139.3
10537	3.5202	5.8182	5.e-002	-65.166
10538	3.5202	5.9091	0.	-1982.
10539	3.7969	5.8182	0.	-2773.5
10540	3.7047	5.7273	0.	-2622.7
10541	3.7047	5.8182	5.e-002	-58.506
10542	3.7047	5.9091	0.	-2491.9
10543	3.9814	5.8182	0.	-3168.2
10544	3.8892	5.7273	0.	-3043.5
10545	3.8892	5.8182	5.e-002	-51.084
10546	3.8892	5.9091	0.	-2932.5
10547	4.1659	5.8182	0.	-3496.
10548	4.0737	5.7273	0.	-3397.1
10549	4.0737	5.8182	5.e-002	-43.492
10550	4.0737	5.9091	0.	-3303.
10551	4.3504	5.8182	0.	-3761.5
10552	4.2582	5.7273	0.	-3685.7
10553	4.2582	5.8182	5.e-002	-36.199
10554	4.2582	5.9091	0.	-3606.8
10555	4.5349	5.8182	0.	-3971.
10556	4.4427	5.7273	0.	-3915.1
10557	4.4427	5.8182	5.e-002	-29.518
10558	4.4427	5.9091	0.	-3849.8
10559	4.7194	5.8182	0.	-4131.9
10560	4.6272	5.7273	0.	-4092.6
10561	4.6272	5.8182	5.e-002	-23.615
10562	4.6272	5.9091	0.	-4039.2
10563	4.9039	5.8182	0.	-4251.4
10564	4.8117	5.7273	0.	-4225.6
10565	4.8117	5.8182	5.e-002	-18.541
10566	4.8117	5.9091	0.	-4182.5
10567	5.0885	5.8182	0.	-4336.3
10568	4.9962	5.7273	0.	-4321.5
10569	4.9962	5.8182	5.e-002	-14.272
10570	4.9962	5.9091	0.	-4287.1
10571	5.273	5.8182	0.	-4392.7
10572	5.1807	5.7273	0.	-4386.6
10573	5.1807	5.8182	5.e-002	-10.744
10574	5.1807	5.9091	0.	-4359.5
10575	5.4575	5.8182	0.	-4425.8
10576	5.3652	5.7273	0.	-4426.7
10577	5.3652	5.8182	5.e-002	-7.8728
10578	5.3652	5.9091	0.	-4405.6
10579	5.642	5.8182	0.	-4440.1
10580	5.5497	5.7273	0.	-4446.5
10581	5.5497	5.8182	5.e-002	-5.5673
10582	5.5497	5.9091	0.	-4430.3
10583	5.8265	5.8182	0.	-4439.3
10584	5.7342	5.7273	0.	-4450.
10585	5.7342	5.8182	5.e-002	-3.7423
10586	5.7342	5.9091	0.	-4437.8
10587	6.011	5.8182	0.	-4426.5
10588	5.9187	5.7273	0.	-4440.6
10589	5.9187	5.8182	5.e-002	-2.3227
10590	5.9187	5.9091	0.	-4431.6
10591	6.1955	5.8182	0.	-4404.2
10592	6.1032	5.7273	0.	-4420.9
10593	6.1032	5.8182	5.e-002	-1.255
10594	6.1032	5.9091	0.	-4414.5
10595	6.38	5.8182	0.	-4374.4
10596	6.2877	5.7273	0.	-4393.1
10597	6.2877	5.8182	5.e-002	-0.57199
10598	6.2877	5.9091	0.	-4388.7
10599	6.5645	5.8182	0.	-4338.7
10600	6.4722	5.7273	0.	-4359.
10601	6.4722	5.8182	5.e-002	-0.57702
10602	6.4722	5.9091	0.	-4356.2
10603	6.749	5.8182	0.	-4298.5
10604	6.6567	5.7273	0.	-4320.
10605	6.6567	5.8182	5.e-002	-0.91864
10606	6.6567	5.9091	0.	-4318.4
10607	6.9335	5.8182	0.	-4254.7
10608	6.8412	5.7273	0.	-4277.1
10609	6.8412	5.8182	5.e-002	-1.2091
10610	6.8412	5.9091	0.	-4276.4
10611	7.118	5.8182	0.	-4208.2
10612	7.0257	5.7273	0.	-4231.3
10613	7.0257	5.8182	5.e-002	-1.4129
10614	7.0257	5.9091	0.	-4231.3
10615	7.3025	5.8182	0.	-4159.7
10616	7.2102	5.7273	0.	-4183.4
10617	7.2102	5.8182	5.e-002	-1.5411
10618	7.2102	5.9091	0.	-4183.8
10619	7.487	5.8182	0.	-4109.7
10620	7.3947	5.7273	0.	-4133.7
10621	7.3947	5.8182	5.e-002	-1.6084
10622	7.3947	5.9091	0.	-4134.4
10623	7.6715	5.8182	0.	-4058.5
10624	7.5792	5.7273	0.	-4082.8
10625	7.5792	5.8182	5.e-002	-1.6288
10626	7.5792	5.9091	0.	-4083.7
10627	7.856	5.8182	0.	-4006.5
10628	7.7637	5.7273	0.	-4031.
10629	7.7637	5.8182	5.e-002	-1.6134
10630	7.7637	5.9091	0.	-4032.
10631	8.0405	5.8182	0.	-3953.9
10632	7.9482	5.7273	0.	-3978.5
10633	7.9482	5.8182	5.e-002	-1.5715
10634	7.9482	5.9091	0.	-3979.5
10635	8.225	5.8182	0.	-3900.9
10636	8.1327	5.7273	0.	-3925.6
10637	8.1327	5.8182	5.e-002	-1.5106
10638	8.1327	5.9091	0.	-3926.6
10639	8.4095	5.8182	0.	-3847.7
10640	8.3173	5.7273	0.	-3872.5
10641	8.3173	5.8182	5.e-002	-1.4366
10642	8.3173	5.9091	0.	-3873.3
10643	8.594	5.8182	0.	-3794.3
10644	8.5018	5.7273	0.	-3819.1
10645	8.5018	5.8182	5.e-002	-1.3538
10646	8.5018	5.9091	0.	-3819.9
10647	8.7785	5.8182	0.	-3741.
10648	8.6863	5.7273	0.	-3765.8
10649	8.6863	5.8182	5.e-002	-1.266
10650	8.6863	5.9091	0.	-3766.4
10651	8.963	5.8182	0.	-3687.7
10652	8.8708	5.7273	0.	-3712.4
10653	8.8708	5.8182	5.e-002	-1.1759
10654	8.8708	5.9091	0.	-3712.8
10655	9.1475	5.8182	0.	-3634.4
10656	9.0553	5.7273	0.	-3659.1
10657	9.0553	5.8182	5.e-002	-1.0854
10658	9.0553	5.9091	0.	-3659.4
10659	9.332	5.8182	0.	-3581.3
10660	9.2398	5.7273	0.	-3606.
10661	9.2398	5.8182	5.e-002	-0.9961
10662	9.2398	5.9091	0.	-3606.
10663	9.5165	5.8182	0.	-3528.3
10664	9.4243	5.7273	0.	-3552.9
10665	9.4243	5.8182	5.e-002	-0.90914
10666	9.4243	5.9091	0.	-3552.8
10667	9.701	5.8182	0.	-3475.5
10668	9.6088	5.7273	0.	-3500.1
10669	9.6088	5.8182	5.e-002	-0.82529
10670	9.6088	5.9091	0.	-3499.8
10671	9.8855	5.8182	0.	-3422.9
10672	9.7933	5.7273	0.	-3447.4
10673	9.7933	5.8182	5.e-002	-0.74508
10674	9.7933	5.9091	0.	-3446.9
10675	10.07	5.8182	0.	-3370.5
10676	9.9778	5.7273	0.	-3394.9
10677	9.9778	5.8182	5.e-002	-0.66886
10678	9.9778	5.9091	0.	-3394.2
10679	10.255	5.8182	0.	-3318.3
10680	10.162	5.7273	0.	-3342.6
10681	10.162	5.8182	5.e-002	-0.5968
10682	10.162	5.9091	0.	-3341.8
10683	10.439	5.8182	0.	-3266.4
10684	10.347	5.7273	0.	-3290.6
10685	10.347	5.8182	5.e-002	-0.52899
10686	10.347	5.9091	0.	-3289.6
10687	10.624	5.8182	0.	-3214.6
10688	10.531	5.7273	0.	-3238.8
10689	10.531	5.8182	5.e-002	-0.46544
10690	10.531	5.9091	0.	-3237.6
10691	10.808	5.8182	0.	-3163.1
10692	10.716	5.7273	0.	-3187.1
10693	10.716	5.8182	5.e-002	-0.40601
10694	10.716	5.9091	0.	-3185.8
10695	10.993	5.8182	0.	-3111.8
10696	10.9	5.7273	0.	-3135.7
10697	10.9	5.8182	5.e-002	-0.35064
10698	10.9	5.9091	0.	-3134.2
10699	11.177	5.8182	0.	-3060.7
10700	11.085	5.7273	0.	-3084.6
10701	11.085	5.8182	5.e-002	-0.2992
10702	11.085	5.9091	0.	-3082.9
10703	11.362	5.8182	0.	-3009.9
10704	11.269	5.7273	0.	-3033.6
10705	11.269	5.8182	5.e-002	-0.25147
10706	11.269	5.9091	0.	-3031.8
10707	11.546	5.8182	0.	-2959.2
10708	11.454	5.7273	0.	-2982.9
10709	11.454	5.8182	5.e-002	-0.20732
10710	11.454	5.9091	0.	-2980.9
10711	11.731	5.8182	0.	-2908.8
10712	11.638	5.7273	0.	-2932.4
10713	11.638	5.8182	5.e-002	-0.16647
10714	11.638	5.9091	0.	-2930.3
10715	11.915	5.8182	0.	-2858.6
10716	11.823	5.7273	0.	-2882.1
10717	11.823	5.8182	5.e-002	-0.12884
10718	11.823	5.9091	0.	-2879.9
10719	12.1	5.8182	0.	-2808.7
10720	12.007	5.7273	0.	-2832.
10721	12.007	5.8182	5.e-002	-9.4214e-002
10722	12.007	5.9091	0.	-2829.7
10723	12.284	5.8182	0.	-2758.9
10724	12.192	5.7273	0.	-2782.1
10725	12.192	5.8182	5.e-002	-6.2403e-002
10726	12.192	5.9091	0.	-2779.7
10727	12.469	5.8182	0.	-2709.4
10728	12.376	5.7273	0.	-2732.5
10729	12.376	5.8182	5.e-002	-3.3268e-002
10730	12.376	5.9091	0.	-2730.
10731	12.653	5.8182	0.	-2660.1
10732	12.561	5.7273	0.	-2683.1
10733	12.561	5.8182	5.e-002	-7.5737e-003
10734	12.561	5.9091	0.	-2680.5
10735	12.838	5.8182	0.	-2611.
10736	12.745	5.7273	0.	-2633.9
10737	12.745	5.8182	5.e-002	-1.8859e-002
10738	12.745	5.9091	0.	-2631.2
10739	13.022	5.8182	0.	-2562.1
10740	12.93	5.7273	0.	-2584.9
10741	12.93	5.8182	5.e-002	-4.0895e-002
10742	12.93	5.9091	0.	-2582.1
10743	13.207	5.8182	0.	-2513.4
10744	13.114	5.7273	0.	-2536.1
10745	13.114	5.8182	5.e-002	-6.1126e-002
10746	13.114	5.9091	0.	-2533.2
10747	13.391	5.8182	0.	-2465.
10748	13.299	5.7273	0.	-2487.5
10749	13.299	5.8182	5.e-002	-7.9457e-002
10750	13.299	5.9091	0.	-2484.6
10751	13.576	5.8182	0.	-2416.7
10752	13.483	5.7273	0.	-2439.2
10753	13.483	5.8182	5.e-002	-9.6079e-002
10754	13.483	5.9091	0.	-2436.1
10755	13.76	5.8182	0.	-2368.7
10756	13.668	5.7273	0.	-2391.
10757	13.668	5.8182	5.e-002	-0.11107
10758	13.668	5.9091	0.	-2387.9
10759	13.945	5.8182	0.	-2320.9
10760	13.852	5.7273	0.	-2343.1
10761	13.852	5.8182	5.e-002	-0.12451
10762	13.852	5.9091	0.	-2339.9
10763	14.129	5.8182	0.	-2273.2
10764	14.037	5.7273	0.	-2295.4
10765	14.037	5.8182	5.e-002	-0.13652
10766	14.037	5.9091	0.	-2292.
10767	14.314	5.8182	0.	-2225.8
10768	14.221	5.7273	0.	-2247.8
10769	14.221	5.8182	5.e-002	-0.14722
10770	14.221	5.9091	0.	-2244.4
10771	14.498	5.8182	0.	-2178.6
10772	14.406	5.7273	0.	-2200.5
10773	14.406	5.8182	5.e-002	-0.15663
10774	14.406	5.9091	0.	-2197.1
10775	14.683	5.8182	0.	-2131.6
10776	14.59	5.7273	0.	-2153.4
10777	14.59	5.8182	5.e-002	-0.16485
10778	14.59	5.9091	0.	-2149.9
10779	14.867	5.8182	0.	-2084.9
10780	14.775	5.7273	0.	-2106.5
10781	14.775	5.8182	5.e-002	-0.17201
10782	14.775	5.9091	0.	-2102.9
10783	15.052	5.8182	0.	-2038.3
10784	14.959	5.7273	0.	-2059.8
10785	14.959	5.8182	5.e-002	-0.17815
10786	14.959	5.9091	0.	-2056.1
10787	15.236	5.8182	0.	-1991.9
10788	15.144	5.7273	0.	-2013.3
10789	15.144	5.8182	5.e-002	-0.18335
10790	15.144	5.9091	0.	-2009.5
10791	15.421	5.8182	0.	-1945.7
10792	15.328	5.7273	0.	-1967.
10793	15.328	5.8182	5.e-002	-0.18769
10794	15.328	5.9091	0.	-1963.2
10795	15.605	5.8182	0.	-1899.7
10796	15.513	5.7273	0.	-1920.9
10797	15.513	5.8182	5.e-002	-0.19124
10798	15.513	5.9091	0.	-1917.
10799	15.79	5.8182	0.	-1854.
10800	15.697	5.7273	0.	-1875.
10801	15.697	5.8182	5.e-002	-0.19412
10802	15.697	5.9091	0.	-1871.
10803	15.974	5.8182	0.	-1808.4
10804	15.882	5.7273	0.	-1829.3
10805	15.882	5.8182	5.e-002	-0.1964
10806	15.882	5.9091	0.	-1825.3
10807	16.159	5.8182	0.	-1763.
10808	16.066	5.7273	0.	-1783.8
10809	16.066	5.8182	5.e-002	-0.19816
10810	16.066	5.9091	0.	-1779.7
10811	16.343	5.8182	0.	-1717.8
10812	16.251	5.7273	0.	-1738.5
10813	16.251	5.8182	5.e-002	-0.19958
10814	16.251	5.9091	0.	-1734.4
10815	16.528	5.8182	0.	-1672.9
10816	16.435	5.7273	0.	-1693.5
10817	16.435	5.8182	5.e-002	-0.20078
10818	16.435	5.9091	0.	-1689.2
10819	16.712	5.8182	0.	-1628.1
10820	16.62	5.7273	0.	-1648.6
10821	16.62	5.8182	5.e-002	-0.2019
10822	16.62	5.9091	0.	-1644.2
10823	16.897	5.8182	0.	-1583.5
10824	16.804	5.7273	0.	-1603.9
10825	16.804	5.8182	5.e-002	-0.20315
10826	16.804	5.9091	0.	-1599.4
10827	17.081	5.8182	0.	-1539.1
10828	16.989	5.7273	0.	-1559.4
10829	16.989	5.8182	5.e-002	-0.20475
10830	16.989	5.9091	0.	-1554.9
10831	17.266	5.8182	0.	-1494.9
10832	17.173	5.7273	0.	-1515.1
10833	17.173	5.8182	5.e-002	-0.20698
10834	17.173	5.9091	0.	-1510.5
10835	17.45	5.8182	0.	-1450.9
10836	17.358	5.7273	0.	-1470.9
10837	17.358	5.8182	5.e-002	-0.21012
10838	17.358	5.9091	0.	-1466.3
10839	17.635	5.8182	0.	-1407.1
10840	17.542	5.7273	0.	-1427.
10841	17.542	5.8182	5.e-002	-0.2145
10842	17.542	5.9091	0.	-1422.3
10843	17.819	5.8182	0.	-1363.5
10844	17.727	5.7273	0.	-1383.3
10845	17.727	5.8182	5.e-002	-0.22048
10846	17.727	5.9091	0.	-1378.5
10847	18.004	5.8182	0.	-1320.1
10848	17.911	5.7273	0.	-1339.7
10849	17.911	5.8182	5.e-002	-0.22841
10850	17.911	5.9091	0.	-1334.8
10851	18.188	5.8182	0.	-1276.8
10852	18.096	5.7273	0.	-1296.4
10853	18.096	5.8182	5.e-002	-0.23864
10854	18.096	5.9091	0.	-1291.4
10855	18.373	5.8182	0.	-1233.8
10856	18.28	5.7273	0.	-1253.2
10857	18.28	5.8182	5.e-002	-0.25152
10858	18.28	5.9091	0.	-1248.1
10859	18.557	5.8182	0.	-1190.9
10860	18.465	5.7273	0.	-1210.2
10861	18.465	5.8182	5.e-002	-0.26734
10862	18.465	5.9091	0.	-1205.1
10863	18.742	5.8182	0.	-1148.2
10864	18.649	5.7273	0.	-1167.4
10865	18.649	5.8182	5.e-002	-0.28638
10866	18.649	5.9091	0.	-1162.2
10867	18.926	5.8182	0.	-1105.7
10868	18.834	5.7273	0.	-1124.8
10869	18.834	5.8182	5.e-002	-0.30886
10870	18.834	5.9091	0.	-1119.4
10871	19.111	5.8182	0.	-1063.3
10872	19.018	5.7273	0.	-1082.3
10873	19.018	5.8182	5.e-002	-0.33499
10874	19.018	5.9091	0.	-1076.9
10875	19.295	5.8182	0.	-1021.1
10876	19.203	5.7273	0.	-1040.
10877	19.203	5.8182	5.e-002	-0.36495
10878	19.203	5.9091	0.	-1034.5
10879	19.48	5.8182	0.	-979.11
10880	19.387	5.7273	0.	-997.94
10881	19.387	5.8182	5.e-002	-0.39893
10882	19.387	5.9091	0.	-992.34
10883	19.664	5.8182	0.	-937.26
10884	19.572	5.7273	0.	-955.99
10885	19.572	5.8182	5.e-002	-0.43711
10886	19.572	5.9091	0.	-950.31
10887	19.849	5.8182	0.	-895.58
10888	19.756	5.7273	0.	-914.21
10889	19.756	5.8182	5.e-002	-0.47967
10890	19.756	5.9091	0.	-908.44
10891	20.033	5.8182	0.	-854.04
10892	19.941	5.7273	0.	-872.6
10893	19.941	5.8182	5.e-002	-0.52684
10894	19.941	5.9091	0.	-866.74
10895	20.218	5.8182	0.	-812.66
10896	20.125	5.7273	0.	-831.13
10897	20.125	5.8182	5.e-002	-0.57887
10898	20.125	5.9091	0.	-825.2
10899	20.402	5.8182	0.	-771.43
10900	20.31	5.7273	0.	-789.82
10901	20.31	5.8182	5.e-002	-0.63601
10902	20.31	5.9091	0.	-783.81
10903	20.587	5.8182	0.	-730.34
10904	20.494	5.7273	0.	-748.66
10905	20.494	5.8182	5.e-002	-0.69857
10906	20.494	5.9091	0.	-742.58
10907	20.771	5.8182	0.	-689.4
10908	20.679	5.7273	0.	-707.65
10909	20.679	5.8182	5.e-002	-0.76689
10910	20.679	5.9091	0.	-701.5
10911	20.956	5.8182	0.	-648.58
10912	20.863	5.7273	0.	-666.77
10913	20.863	5.8182	5.e-002	-0.84134
10914	20.863	5.9091	0.	-660.56
10915	21.14	5.8182	0.	-607.9
10916	21.048	5.7273	0.	-626.03
10917	21.048	5.8182	5.e-002	-0.92234
10918	21.048	5.9091	0.	-619.78
10919	21.325	5.8182	0.	-567.34
10920	21.232	5.7273	0.	-585.43
10921	21.232	5.8182	5.e-002	-1.0103
10922	21.232	5.9091	0.	-579.14
10923	21.509	5.8182	0.	-526.91
10924	21.417	5.7273	0.	-544.95
10925	21.417	5.8182	5.e-002	-1.1059
10926	21.417	5.9091	0.	-538.64
10927	21.694	5.8182	0.	-486.6
10928	21.601	5.7273	0.	-504.6
10929	21.601	5.8182	5.e-002	-1.2096
10930	21.601	5.9091	0.	-498.29
10931	21.878	5.8182	0.	-446.41
10932	21.786	5.7273	0.	-464.38
10933	21.786	5.8182	5.e-002	-1.322
10934	21.786	5.9091	0.	-458.1
10935	22.063	5.8182	0.	-406.34
10936	21.97	5.7273	0.	-424.29
10937	21.97	5.8182	5.e-002	-1.4441
10938	21.97	5.9091	0.	-418.05
10939	22.247	5.8182	0.	-366.39
10940	22.155	5.7273	0.	-384.33
10941	22.155	5.8182	5.e-002	-1.5766
10942	22.155	5.9091	0.	-378.17
10943	22.432	5.8182	0.	-326.57
10944	22.339	5.7273	0.	-344.5
10945	22.339	5.8182	5.e-002	-1.7207
10946	22.339	5.9091	0.	-338.46
10947	22.616	5.8182	0.	-286.88
10948	22.524	5.7273	0.	-304.82
10949	22.524	5.8182	5.e-002	-1.8776
10950	22.524	5.9091	0.	-298.95
10951	22.801	5.8182	0.	-247.36
10952	22.708	5.7273	0.	-265.31
10953	22.708	5.8182	5.e-002	-2.0491
10954	22.708	5.9091	0.	-259.66
10955	22.985	5.8182	0.	-208.02
10956	22.893	5.7273	0.	-226.
10957	22.893	5.8182	5.e-002	-2.2375
10958	22.893	5.9091	0.	-220.64
10959	23.17	5.8182	0.	-168.91
10960	23.077	5.7273	0.	-186.93
10961	23.077	5.8182	5.e-002	-2.446
10962	23.077	5.9091	0.	-181.94
10963	23.354	5.8182	0.	-130.14
10964	23.262	5.7273	0.	-148.2
10965	23.262	5.8182	5.e-002	-2.6801
10966	23.262	5.9091	0.	-143.68
10967	23.539	5.8182	0.	-91.885
10968	23.446	5.7273	0.	-109.97
10969	23.446	5.8182	5.e-002	-2.9474
10970	23.446	5.9091	0.	-106.01
10971	23.723	5.8182	0.	-55.004
10972	23.631	5.7273	0.	-72.597
10973	23.631	5.8182	5.e-002	-3.2825
10974	23.631	5.9091	0.	-69.265
10975	23.815	5.7273	0.	-37.331
10976	23.815	5.8182	5.e-002	-3.9991
10977	23.908	5.8182	0.	-20.581
10978	23.815	5.9091	0.	-34.569
10979	3.2434	5.6364	0.	-1503.
10980	3.1512	5.5455	0.	-1550.3
10981	3.1512	5.6364	5.e-002	-71.813
10982	3.0589	5.6364	0.	-1054.4
10983	3.4279	5.6364	0.	-1960.
10984	3.3357	5.5455	0.	-1884.5
10985	3.3357	5.6364	5.e-002	-61.127
10986	3.6124	5.6364	0.	-2447.6
10987	3.5202	5.5455	0.	-2344.7
10988	3.5202	5.6364	5.e-002	-55.616
10989	3.7969	5.6364	0.	-2890.5
10990	3.7047	5.5455	0.	-2791.9
10991	3.7047	5.6364	5.e-002	-48.707
10992	3.9814	5.6364	0.	-3270.8
10993	3.8892	5.5455	0.	-3187.8
10994	3.8892	5.6364	5.e-002	-41.406
10995	4.1659	5.6364	0.	-3585.6
10996	4.0737	5.5455	0.	-3520.5
10997	4.0737	5.6364	5.e-002	-34.269
10998	4.3504	5.6364	0.	-3838.5
10999	4.2582	5.5455	0.	-3790.4
11000	4.2582	5.6364	5.e-002	-27.673
11001	4.5349	5.6364	0.	-4036.1
11002	4.4427	5.5455	0.	-4002.7
11003	4.4427	5.6364	5.e-002	-21.816
11004	4.7194	5.6364	0.	-4185.9
11005	4.6272	5.5455	0.	-4164.9
11006	4.6272	5.6364	5.e-002	-16.764
11007	4.9039	5.6364	0.	-4295.5
11008	4.8117	5.5455	0.	-4284.4
11009	4.8117	5.6364	5.e-002	-12.5
11010	5.0885	5.6364	0.	-4371.6
11011	4.9962	5.5455	0.	-4368.7
11012	4.9962	5.6364	5.e-002	-8.9633
11013	5.273	5.6364	0.	-4420.5
11014	5.1807	5.5455	0.	-4424.
11015	5.1807	5.6364	5.e-002	-6.073
11016	5.4575	5.6364	0.	-4447.3
11017	5.3652	5.5455	0.	-4455.8
11018	5.3652	5.6364	5.e-002	-3.7549
11019	5.642	5.6364	0.	-4456.4
11020	5.5497	5.5455	0.	-4468.8
11021	5.5497	5.6364	5.e-002	-1.9826
11022	5.8265	5.6364	0.	-4451.3
11023	5.7342	5.5455	0.	-4466.8
11024	5.7342	5.6364	5.e-002	-1.0361
11025	6.011	5.6364	0.	-4435.
11026	5.9187	5.5455	0.	-4452.9
11027	5.9187	5.6364	5.e-002	-1.4697
11028	6.1955	5.6364	0.	-4409.8
11029	6.1032	5.5455	0.	-4429.6
11030	6.1032	5.6364	5.e-002	-2.2643
11031	6.38	5.6364	0.	-4377.7
11032	6.2877	5.5455	0.	-4398.9
11033	6.2877	5.6364	5.e-002	-2.9602
11034	6.5645	5.6364	0.	-4340.3
11035	6.4722	5.5455	0.	-4362.5
11036	6.4722	5.6364	5.e-002	-3.5208
11037	6.749	5.6364	0.	-4298.7
11038	6.6567	5.5455	0.	-4321.7
11039	6.6567	5.6364	5.e-002	-3.9608
11040	6.9335	5.6364	0.	-4253.8
11041	6.8412	5.5455	0.	-4277.5
11042	6.8412	5.6364	5.e-002	-4.3005
11043	7.118	5.6364	0.	-4206.5
11044	7.0257	5.5455	0.	-4230.7
11045	7.0257	5.6364	5.e-002	-4.5592
11046	7.3025	5.6364	0.	-4157.4
11047	7.2102	5.5455	0.	-4181.9
11048	7.2102	5.6364	5.e-002	-4.753
11049	7.487	5.6364	0.	-4106.9
11050	7.3947	5.5455	0.	-4131.6
11051	7.3947	5.6364	5.e-002	-4.8954
11052	7.6715	5.6364	0.	-4055.3
11053	7.5792	5.5455	0.	-4080.3
11054	7.5792	5.6364	5.e-002	-4.9973
11055	7.856	5.6364	0.	-4003.1
11056	7.7637	5.5455	0.	-4028.2
11057	7.7637	5.6364	5.e-002	-5.0675
11058	8.0405	5.6364	0.	-3950.3
11059	7.9482	5.5455	0.	-3975.5
11060	7.9482	5.6364	5.e-002	-5.1129
11061	8.225	5.6364	0.	-3897.2
11062	8.1327	5.5455	0.	-3922.5
11063	8.1327	5.6364	5.e-002	-5.1393
11064	8.4095	5.6364	0.	-3844.
11065	8.3173	5.5455	0.	-3869.3
11066	8.3173	5.6364	5.e-002	-5.151
11067	8.594	5.6364	0.	-3790.6
11068	8.5018	5.5455	0.	-3815.9
11069	8.5018	5.6364	5.e-002	-5.1515
11070	8.7785	5.6364	0.	-3737.3
11071	8.6863	5.5455	0.	-3762.6
11072	8.6863	5.6364	5.e-002	-5.1436
11073	8.963	5.6364	0.	-3684.
11074	8.8708	5.5455	0.	-3709.2
11075	8.8708	5.6364	5.e-002	-5.1295
11076	9.1475	5.6364	0.	-3630.8
11077	9.0553	5.5455	0.	-3656.
11078	9.0553	5.6364	5.e-002	-5.1108
11079	9.332	5.6364	0.	-3577.7
11080	9.2398	5.5455	0.	-3602.9
11081	9.2398	5.6364	5.e-002	-5.0887
11082	9.5165	5.6364	0.	-3524.8
11083	9.4243	5.5455	0.	-3549.9
11084	9.4243	5.6364	5.e-002	-5.0644
11085	9.701	5.6364	0.	-3472.
11086	9.6088	5.5455	0.	-3497.1
11087	9.6088	5.6364	5.e-002	-5.0385
11088	9.8855	5.6364	0.	-3419.5
11089	9.7933	5.5455	0.	-3444.5
11090	9.7933	5.6364	5.e-002	-5.0116
11091	10.07	5.6364	0.	-3367.1
11092	9.9778	5.5455	0.	-3392.1
11093	9.9778	5.6364	5.e-002	-4.9842
11094	10.255	5.6364	0.	-3315.
11095	10.162	5.5455	0.	-3339.9
11096	10.162	5.6364	5.e-002	-4.9566
11097	10.439	5.6364	0.	-3263.
11098	10.347	5.5455	0.	-3287.9
11099	10.347	5.6364	5.e-002	-4.929
11100	10.624	5.6364	0.	-3211.3
11101	10.531	5.5455	0.	-3236.1
11102	10.531	5.6364	5.e-002	-4.9016
11103	10.808	5.6364	0.	-3159.8
11104	10.716	5.5455	0.	-3184.5
11105	10.716	5.6364	5.e-002	-4.8745
11106	10.993	5.6364	0.	-3108.6
11107	10.9	5.5455	0.	-3133.2
11108	10.9	5.6364	5.e-002	-4.8477
11109	11.177	5.6364	0.	-3057.5
11110	11.085	5.5455	0.	-3082.
11111	11.085	5.6364	5.e-002	-4.8215
11112	11.362	5.6364	0.	-3006.7
11113	11.269	5.5455	0.	-3031.1
11114	11.269	5.6364	5.e-002	-4.7957
11115	11.546	5.6364	0.	-2956.1
11116	11.454	5.5455	0.	-2980.4
11117	11.454	5.6364	5.e-002	-4.7703
11118	11.731	5.6364	0.	-2905.7
11119	11.638	5.5455	0.	-2929.9
11120	11.638	5.6364	5.e-002	-4.7454
11121	11.915	5.6364	0.	-2855.5
11122	11.823	5.5455	0.	-2879.7
11123	11.823	5.6364	5.e-002	-4.721
11124	12.1	5.6364	0.	-2805.6
11125	12.007	5.5455	0.	-2829.6
11126	12.007	5.6364	5.e-002	-4.6971
11127	12.284	5.6364	0.	-2755.8
11128	12.192	5.5455	0.	-2779.8
11129	12.192	5.6364	5.e-002	-4.6736
11130	12.469	5.6364	0.	-2706.3
11131	12.376	5.5455	0.	-2730.2
11132	12.376	5.6364	5.e-002	-4.6505
11133	12.653	5.6364	0.	-2657.
11134	12.561	5.5455	0.	-2680.8
11135	12.561	5.6364	5.e-002	-4.6278
11136	12.838	5.6364	0.	-2607.9
11137	12.745	5.5455	0.	-2631.6
11138	12.745	5.6364	5.e-002	-4.6054
11139	13.022	5.6364	0.	-2559.
11140	12.93	5.5455	0.	-2582.6
11141	12.93	5.6364	5.e-002	-4.5834
11142	13.207	5.6364	0.	-2510.3
11143	13.114	5.5455	0.	-2533.8
11144	13.114	5.6364	5.e-002	-4.5618
11145	13.391	5.6364	0.	-2461.8
11146	13.299	5.5455	0.	-2485.3
11147	13.299	5.6364	5.e-002	-4.5405
11148	13.576	5.6364	0.	-2413.6
11149	13.483	5.5455	0.	-2436.9
11150	13.483	5.6364	5.e-002	-4.5195
11151	13.76	5.6364	0.	-2365.5
11152	13.668	5.5455	0.	-2388.8
11153	13.668	5.6364	5.e-002	-4.4988
11154	13.945	5.6364	0.	-2317.7
11155	13.852	5.5455	0.	-2340.8
11156	13.852	5.6364	5.e-002	-4.4783
11157	14.129	5.6364	0.	-2270.
11158	14.037	5.5455	0.	-2293.1
11159	14.037	5.6364	5.e-002	-4.4581
11160	14.314	5.6364	0.	-2222.6
11161	14.221	5.5455	0.	-2245.5
11162	14.221	5.6364	5.e-002	-4.4381
11163	14.498	5.6364	0.	-2175.4
11164	14.406	5.5455	0.	-2198.2
11165	14.406	5.6364	5.e-002	-4.4184
11166	14.683	5.6364	0.	-2128.4
11167	14.59	5.5455	0.	-2151.1
11168	14.59	5.6364	5.e-002	-4.399
11169	14.867	5.6364	0.	-2081.6
11170	14.775	5.5455	0.	-2104.2
11171	14.775	5.6364	5.e-002	-4.3797
11172	15.052	5.6364	0.	-2034.9
11173	14.959	5.5455	0.	-2057.5
11174	14.959	5.6364	5.e-002	-4.3607
11175	15.236	5.6364	0.	-1988.5
11176	15.144	5.5455	0.	-2011.
11177	15.144	5.6364	5.e-002	-4.3419
11178	15.421	5.6364	0.	-1942.3
11179	15.328	5.5455	0.	-1964.7
11180	15.328	5.6364	5.e-002	-4.3232
11181	15.605	5.6364	0.	-1896.3
11182	15.513	5.5455	0.	-1918.5
11183	15.513	5.6364	5.e-002	-4.3048
11184	15.79	5.6364	0.	-1850.5
11185	15.697	5.5455	0.	-1872.6
11186	15.697	5.6364	5.e-002	-4.2866
11187	15.974	5.6364	0.	-1804.9
11188	15.882	5.5455	0.	-1826.9
11189	15.882	5.6364	5.e-002	-4.2687
11190	16.159	5.6364	0.	-1759.5
11191	16.066	5.5455	0.	-1781.4
11192	16.066	5.6364	5.e-002	-4.2509
11193	16.343	5.6364	0.	-1714.3
11194	16.251	5.5455	0.	-1736.1
11195	16.251	5.6364	5.e-002	-4.2334
11196	16.528	5.6364	0.	-1669.3
11197	16.435	5.5455	0.	-1691.
11198	16.435	5.6364	5.e-002	-4.2161
11199	16.712	5.6364	0.	-1624.5
11200	16.62	5.5455	0.	-1646.1
11201	16.62	5.6364	5.e-002	-4.199
11202	16.897	5.6364	0.	-1579.9
11203	16.804	5.5455	0.	-1601.4
11204	16.804	5.6364	5.e-002	-4.1821
11205	17.081	5.6364	0.	-1535.4
11206	16.989	5.5455	0.	-1556.9
11207	16.989	5.6364	5.e-002	-4.1656
11208	17.266	5.6364	0.	-1491.2
11209	17.173	5.5455	0.	-1512.5
11210	17.173	5.6364	5.e-002	-4.1493
11211	17.45	5.6364	0.	-1447.2
11212	17.358	5.5455	0.	-1468.4
11213	17.358	5.6364	5.e-002	-4.1332
11214	17.635	5.6364	0.	-1403.3
11215	17.542	5.5455	0.	-1424.5
11216	17.542	5.6364	5.e-002	-4.1175
11217	17.819	5.6364	0.	-1359.7
11218	17.727	5.5455	0.	-1380.7
11219	17.727	5.6364	5.e-002	-4.1021
11220	18.004	5.6364	0.	-1316.2
11221	17.911	5.5455	0.	-1337.1
11222	17.911	5.6364	5.e-002	-4.087
11223	18.188	5.6364	0.	-1272.9
11224	18.096	5.5455	0.	-1293.8
11225	18.096	5.6364	5.e-002	-4.0723
11226	18.373	5.6364	0.	-1229.8
11227	18.28	5.5455	0.	-1250.6
11228	18.28	5.6364	5.e-002	-4.058
11229	18.557	5.6364	0.	-1186.9
11230	18.465	5.5455	0.	-1207.6
11231	18.465	5.6364	5.e-002	-4.0441
11232	18.742	5.6364	0.	-1144.2
11233	18.649	5.5455	0.	-1164.8
11234	18.649	5.6364	5.e-002	-4.0306
11235	18.926	5.6364	0.	-1101.6
11236	18.834	5.5455	0.	-1122.1
11237	18.834	5.6364	5.e-002	-4.0177
11238	19.111	5.6364	0.	-1059.2
11239	19.018	5.5455	0.	-1079.7
11240	19.018	5.6364	5.e-002	-4.0052
11241	19.295	5.6364	0.	-1017.
11242	19.203	5.5455	0.	-1037.4
11243	19.203	5.6364	5.e-002	-3.9933
11244	19.48	5.6364	0.	-975.
11245	19.387	5.5455	0.	-995.26
11246	19.387	5.6364	5.e-002	-3.9819
11247	19.664	5.6364	0.	-933.13
11248	19.572	5.5455	0.	-953.31
11249	19.572	5.6364	5.e-002	-3.9712
11250	19.849	5.6364	0.	-891.43
11251	19.756	5.5455	0.	-911.54
11252	19.756	5.6364	5.e-002	-3.9612
11253	20.033	5.6364	0.	-849.89
11254	19.941	5.5455	0.	-869.93
11255	19.941	5.6364	5.e-002	-3.9518
11256	20.218	5.6364	0.	-808.5
11257	20.125	5.5455	0.	-828.48
11258	20.125	5.6364	5.e-002	-3.9433
11259	20.402	5.6364	0.	-767.27
11260	20.31	5.5455	0.	-787.18
11261	20.31	5.6364	5.e-002	-3.9355
11262	20.587	5.6364	0.	-726.18
11263	20.494	5.5455	0.	-746.05
11264	20.494	5.6364	5.e-002	-3.9287
11265	20.771	5.6364	0.	-685.25
11266	20.679	5.5455	0.	-705.06
11267	20.679	5.6364	5.e-002	-3.9227
11268	20.956	5.6364	0.	-644.45
11269	20.863	5.5455	0.	-664.22
11270	20.863	5.6364	5.e-002	-3.9178
11271	21.14	5.6364	0.	-603.8
11272	21.048	5.5455	0.	-623.53
11273	21.048	5.6364	5.e-002	-3.9139
11274	21.325	5.6364	0.	-563.28
11275	21.232	5.5455	0.	-582.97
11276	21.232	5.6364	5.e-002	-3.9111
11277	21.509	5.6364	0.	-522.9
11278	21.417	5.5455	0.	-542.56
11279	21.417	5.6364	5.e-002	-3.9095
11280	21.694	5.6364	0.	-482.66
11281	21.601	5.5455	0.	-502.29
11282	21.601	5.6364	5.e-002	-3.9092
11283	21.878	5.6364	0.	-442.55
11284	21.786	5.5455	0.	-462.16
11285	21.786	5.6364	5.e-002	-3.9102
11286	22.063	5.6364	0.	-402.59
11287	21.97	5.5455	0.	-422.18
11288	21.97	5.6364	5.e-002	-3.9126
11289	22.247	5.6364	0.	-362.77
11290	22.155	5.5455	0.	-382.35
11291	22.155	5.6364	5.e-002	-3.9166
11292	22.432	5.6364	0.	-323.11
11293	22.339	5.5455	0.	-342.68
11294	22.339	5.6364	5.e-002	-3.9223
11295	22.616	5.6364	0.	-283.64
11296	22.524	5.5455	0.	-303.19
11297	22.524	5.6364	5.e-002	-3.9301
11298	22.801	5.6364	0.	-244.38
11299	22.708	5.5455	0.	-263.92
11300	22.708	5.6364	5.e-002	-3.9404
11301	22.985	5.6364	0.	-205.4
11302	22.893	5.5455	0.	-224.91
11303	22.893	5.6364	5.e-002	-3.954
11304	23.17	5.6364	0.	-166.78
11305	23.077	5.5455	0.	-186.22
11306	23.077	5.6364	5.e-002	-3.9728
11307	23.354	5.6364	0.	-128.68
11308	23.262	5.5455	0.	-147.98
11309	23.262	5.6364	5.e-002	-4.0003
11310	23.539	5.6364	0.	-91.392
11311	23.446	5.5455	0.	-110.38
11312	23.446	5.6364	5.e-002	-4.047
11313	23.723	5.6364	0.	-55.54
11314	23.631	5.5455	0.	-73.701
11315	23.631	5.6364	5.e-002	-4.1536
11316	23.815	5.5455	0.	-38.501
11317	23.815	5.6364	5.e-002	-4.5338
11318	23.908	5.6364	0.	-21.524
11319	3.2434	5.4545	0.	-1884.1
11320	3.1512	5.3636	0.	-2004.
11321	3.1512	5.4545	5.e-002	-76.639
11322	3.0589	5.4545	0.	-1428.5
11323	3.4279	5.4545	0.	-2249.2
11324	3.3357	5.3636	0.	-2254.3
11325	3.3357	5.4545	5.e-002	-61.851
11326	3.6124	5.4545	0.	-2680.
11327	3.5202	5.3636	0.	-2648.5
11328	3.5202	5.4545	5.e-002	-55.837
11329	3.7969	5.4545	0.	-3084.4
11330	3.7047	5.3636	0.	-3044.7
11331	3.7047	5.4545	5.e-002	-48.383
11332	3.9814	5.4545	0.	-3434.6
11333	3.8892	5.3636	0.	-3399.6
11334	3.8892	5.4545	5.e-002	-40.568
11335	4.1659	5.4545	0.	-3723.5
11336	4.0737	5.3636	0.	-3697.5
11337	4.0737	5.4545	5.e-002	-33.098
11338	4.3504	5.4545	0.	-3953.4
11339	4.2582	5.3636	0.	-3937.
11340	4.2582	5.4545	5.e-002	-26.38
11341	4.5349	5.4545	0.	-4130.7
11342	4.4427	5.3636	0.	-4122.8
11343	4.4427	5.4545	5.e-002	-20.565
11344	4.7194	5.4545	0.	-4262.9
11345	4.6272	5.3636	0.	-4262.2
11346	4.6272	5.4545	5.e-002	-15.662
11347	4.9039	5.4545	0.	-4357.3
11348	4.8117	5.3636	0.	-4362.6
11349	4.8117	5.4545	5.e-002	-11.609
11350	5.0885	5.4545	0.	-4420.8
11351	4.9962	5.3636	0.	-4430.7
11352	4.9962	5.4545	5.e-002	-8.3212
11353	5.273	5.4545	0.	-4459.1
11354	5.1807	5.3636	0.	-4472.7
11355	5.1807	5.4545	5.e-002	-5.7194
11356	5.4575	5.4545	0.	-4477.2
11357	5.3652	5.3636	0.	-4493.7
11358	5.3652	5.4545	5.e-002	-3.7698
11359	5.642	5.4545	0.	-4479.2
11360	5.5497	5.3636	0.	-4497.9
11361	5.5497	5.4545	5.e-002	-2.5457
11362	5.8265	5.4545	0.	-4468.4
11363	5.7342	5.3636	0.	-4488.8
11364	5.7342	5.4545	5.e-002	-2.2045
11365	6.011	5.4545	0.	-4447.5
11366	5.9187	5.3636	0.	-4469.2
11367	5.9187	5.4545	5.e-002	-2.5397
11368	6.1955	5.4545	0.	-4418.7
11369	6.1032	5.3636	0.	-4441.4
11370	6.1032	5.4545	5.e-002	-3.083
11371	6.38	5.4545	0.	-4383.7
11372	6.2877	5.3636	0.	-4407.2
11373	6.2877	5.4545	5.e-002	-3.6076
11374	6.5645	5.4545	0.	-4344.
11375	6.4722	5.3636	0.	-4368.
11376	6.4722	5.4545	5.e-002	-4.0537
11377	6.749	5.4545	0.	-4300.6
11378	6.6567	5.3636	0.	-4325.1
11379	6.6567	5.4545	5.e-002	-4.4146
11380	6.9335	5.4545	0.	-4254.4
11381	6.8412	5.3636	0.	-4279.2
11382	6.8412	5.4545	5.e-002	-4.6985
11383	7.118	5.4545	0.	-4206.1
11384	7.0257	5.3636	0.	-4231.1
11385	7.0257	5.4545	5.e-002	-4.9175
11386	7.3025	5.4545	0.	-4156.2
11387	7.2102	5.3636	0.	-4181.3
11388	7.2102	5.4545	5.e-002	-5.0831
11389	7.487	5.4545	0.	-4105.1
11390	7.3947	5.3636	0.	-4130.3
11391	7.3947	5.4545	5.e-002	-5.2057
11392	7.6715	5.4545	0.	-4053.2
11393	7.5792	5.3636	0.	-4078.5
11394	7.5792	5.4545	5.e-002	-5.2939
11395	7.856	5.4545	0.	-4000.6
11396	7.7637	5.3636	0.	-4026.
11397	7.7637	5.4545	5.e-002	-5.3551
11398	8.0405	5.4545	0.	-3947.7
11399	7.9482	5.3636	0.	-3973.1
11400	7.9482	5.4545	5.e-002	-5.3949
11401	8.225	5.4545	0.	-3894.5
11402	8.1327	5.3636	0.	-3919.9
11403	8.1327	5.4545	5.e-002	-5.4181
11404	8.4095	5.4545	0.	-3841.2
11405	8.3173	5.3636	0.	-3866.6
11406	8.3173	5.4545	5.e-002	-5.4285
11407	8.594	5.4545	0.	-3787.9
11408	8.5018	5.3636	0.	-3813.2
11409	8.5018	5.4545	5.e-002	-5.429
11410	8.7785	5.4545	0.	-3734.5
11411	8.6863	5.3636	0.	-3759.9
11412	8.6863	5.4545	5.e-002	-5.422
11413	8.963	5.4545	0.	-3681.3
11414	8.8708	5.3636	0.	-3706.6
11415	8.8708	5.4545	5.e-002	-5.4093
11416	9.1475	5.4545	0.	-3628.1
11417	9.0553	5.3636	0.	-3653.4
11418	9.0553	5.4545	5.e-002	-5.3924
11419	9.332	5.4545	0.	-3575.1
11420	9.2398	5.3636	0.	-3600.3
11421	9.2398	5.4545	5.e-002	-5.3724
11422	9.5165	5.4545	0.	-3522.3
11423	9.4243	5.3636	0.	-3547.4
11424	9.4243	5.4545	5.e-002	-5.3503
11425	9.701	5.4545	0.	-3469.6
11426	9.6088	5.3636	0.	-3494.7
11427	9.6088	5.4545	5.e-002	-5.3265
11428	9.8855	5.4545	0.	-3417.1
11429	9.7933	5.3636	0.	-3442.2
11430	9.7933	5.4545	5.e-002	-5.3018
11431	10.07	5.4545	0.	-3364.9
11432	9.9778	5.3636	0.	-3389.8
11433	9.9778	5.4545	5.e-002	-5.2764
11434	10.255	5.4545	0.	-3312.8
11435	10.162	5.3636	0.	-3337.7
11436	10.162	5.4545	5.e-002	-5.2506
11437	10.439	5.4545	0.	-3260.9
11438	10.347	5.3636	0.	-3285.8
11439	10.347	5.4545	5.e-002	-5.2247
11440	10.624	5.4545	0.	-3209.3
11441	10.531	5.3636	0.	-3234.1
11442	10.531	5.4545	5.e-002	-5.1988
11443	10.808	5.4545	0.	-3157.9
11444	10.716	5.3636	0.	-3182.6
11445	10.716	5.4545	5.e-002	-5.173
11446	10.993	5.4545	0.	-3106.7
11447	10.9	5.3636	0.	-3131.3
11448	10.9	5.4545	5.e-002	-5.1475
11449	11.177	5.4545	0.	-3055.7
11450	11.085	5.3636	0.	-3080.2
11451	11.085	5.4545	5.e-002	-5.1222
11452	11.362	5.4545	0.	-3004.9
11453	11.269	5.3636	0.	-3029.4
11454	11.269	5.4545	5.e-002	-5.0973
11455	11.546	5.4545	0.	-2954.3
11456	11.454	5.3636	0.	-2978.7
11457	11.454	5.4545	5.e-002	-5.0726
11458	11.731	5.4545	0.	-2904.
11459	11.638	5.3636	0.	-2928.3
11460	11.638	5.4545	5.e-002	-5.0482
11461	11.915	5.4545	0.	-2853.8
11462	11.823	5.3636	0.	-2878.1
11463	11.823	5.4545	5.e-002	-5.0242
11464	12.1	5.4545	0.	-2803.9
11465	12.007	5.3636	0.	-2828.1
11466	12.007	5.4545	5.e-002	-5.0005
11467	12.284	5.4545	0.	-2754.2
11468	12.192	5.3636	0.	-2778.3
11469	12.192	5.4545	5.e-002	-4.9771
11470	12.469	5.4545	0.	-2704.7
11471	12.376	5.3636	0.	-2728.7
11472	12.376	5.4545	5.e-002	-4.954
11473	12.653	5.4545	0.	-2655.4
11474	12.561	5.3636	0.	-2679.3
11475	12.561	5.4545	5.e-002	-4.9312
11476	12.838	5.4545	0.	-2606.3
11477	12.745	5.3636	0.	-2630.1
11478	12.745	5.4545	5.e-002	-4.9087
11479	13.022	5.4545	0.	-2557.5
11480	12.93	5.3636	0.	-2581.2
11481	12.93	5.4545	5.e-002	-4.8864
11482	13.207	5.4545	0.	-2508.8
11483	13.114	5.3636	0.	-2532.4
11484	13.114	5.4545	5.e-002	-4.8643
11485	13.391	5.4545	0.	-2460.4
11486	13.299	5.3636	0.	-2483.9
11487	13.299	5.4545	5.e-002	-4.8425
11488	13.576	5.4545	0.	-2412.1
11489	13.483	5.3636	0.	-2435.5
11490	13.483	5.4545	5.e-002	-4.8209
11491	13.76	5.4545	0.	-2364.1
11492	13.668	5.3636	0.	-2387.4
11493	13.668	5.4545	5.e-002	-4.7995
11494	13.945	5.4545	0.	-2316.2
11495	13.852	5.3636	0.	-2339.5
11496	13.852	5.4545	5.e-002	-4.7783
11497	14.129	5.4545	0.	-2268.6
11498	14.037	5.3636	0.	-2291.7
11499	14.037	5.4545	5.e-002	-4.7573
11500	14.314	5.4545	0.	-2221.2
11501	14.221	5.3636	0.	-2244.2
11502	14.221	5.4545	5.e-002	-4.7365
11503	14.498	5.4545	0.	-2174.
11504	14.406	5.3636	0.	-2196.9
11505	14.406	5.4545	5.e-002	-4.7158
11506	14.683	5.4545	0.	-2126.9
11507	14.59	5.3636	0.	-2149.8
11508	14.59	5.4545	5.e-002	-4.6954
11509	14.867	5.4545	0.	-2080.1
11510	14.775	5.3636	0.	-2102.9
11511	14.775	5.4545	5.e-002	-4.6751
11512	15.052	5.4545	0.	-2033.5
11513	14.959	5.3636	0.	-2056.2
11514	14.959	5.4545	5.e-002	-4.6549
11515	15.236	5.4545	0.	-1987.1
11516	15.144	5.3636	0.	-2009.6
11517	15.144	5.4545	5.e-002	-4.6349
11518	15.421	5.4545	0.	-1940.9
11519	15.328	5.3636	0.	-1963.3
11520	15.328	5.4545	5.e-002	-4.615
11521	15.605	5.4545	0.	-1894.9
11522	15.513	5.3636	0.	-1917.2
11523	15.513	5.4545	5.e-002	-4.5953
11524	15.79	5.4545	0.	-1849.1
11525	15.697	5.3636	0.	-1871.3
11526	15.697	5.4545	5.e-002	-4.5758
11527	15.974	5.4545	0.	-1803.5
11528	15.882	5.3636	0.	-1825.6
11529	15.882	5.4545	5.e-002	-4.5564
11530	16.159	5.4545	0.	-1758.1
11531	16.066	5.3636	0.	-1780.1
11532	16.066	5.4545	5.e-002	-4.5372
11533	16.343	5.4545	0.	-1712.9
11534	16.251	5.3636	0.	-1734.8
11535	16.251	5.4545	5.e-002	-4.5181
11536	16.528	5.4545	0.	-1667.8
11537	16.435	5.3636	0.	-1689.7
11538	16.435	5.4545	5.e-002	-4.4992
11539	16.712	5.4545	0.	-1623.
11540	16.62	5.3636	0.	-1644.8
11541	16.62	5.4545	5.e-002	-4.4805
11542	16.897	5.4545	0.	-1578.4
11543	16.804	5.3636	0.	-1600.1
11544	16.804	5.4545	5.e-002	-4.4619
11545	17.081	5.4545	0.	-1534.
11546	16.989	5.3636	0.	-1555.5
11547	16.989	5.4545	5.e-002	-4.4436
11548	17.266	5.4545	0.	-1489.8
11549	17.173	5.3636	0.	-1511.2
11550	17.173	5.4545	5.e-002	-4.4254
11551	17.45	5.4545	0.	-1445.7
11552	17.358	5.3636	0.	-1467.1
11553	17.358	5.4545	5.e-002	-4.4075
11554	17.635	5.4545	0.	-1401.9
11555	17.542	5.3636	0.	-1423.1
11556	17.542	5.4545	5.e-002	-4.3897
11557	17.819	5.4545	0.	-1358.2
11558	17.727	5.3636	0.	-1379.4
11559	17.727	5.4545	5.e-002	-4.3722
11560	18.004	5.4545	0.	-1314.7
11561	17.911	5.3636	0.	-1335.8
11562	17.911	5.4545	5.e-002	-4.355
11563	18.188	5.4545	0.	-1271.5
11564	18.096	5.3636	0.	-1292.5
11565	18.096	5.4545	5.e-002	-4.338
11566	18.373	5.4545	0.	-1228.4
11567	18.28	5.3636	0.	-1249.3
11568	18.28	5.4545	5.e-002	-4.3213
11569	18.557	5.4545	0.	-1185.5
11570	18.465	5.3636	0.	-1206.3
11571	18.465	5.4545	5.e-002	-4.3049
11572	18.742	5.4545	0.	-1142.7
11573	18.649	5.3636	0.	-1163.5
11574	18.649	5.4545	5.e-002	-4.2889
11575	18.926	5.4545	0.	-1100.2
11576	18.834	5.3636	0.	-1120.8
11577	18.834	5.4545	5.e-002	-4.2732
11578	19.111	5.4545	0.	-1057.8
11579	19.018	5.3636	0.	-1078.4
11580	19.018	5.4545	5.e-002	-4.2578
11581	19.295	5.4545	0.	-1015.6
11582	19.203	5.3636	0.	-1036.1
11583	19.203	5.4545	5.e-002	-4.2429
11584	19.48	5.4545	0.	-973.62
11585	19.387	5.3636	0.	-994.04
11586	19.387	5.4545	5.e-002	-4.2284
11587	19.664	5.4545	0.	-931.77
11588	19.572	5.3636	0.	-952.12
11589	19.572	5.4545	5.e-002	-4.2144
11590	19.849	5.4545	0.	-890.09
11591	19.756	5.3636	0.	-910.38
11592	19.756	5.4545	5.e-002	-4.2009
11593	20.033	5.4545	0.	-848.58
11594	19.941	5.3636	0.	-868.8
11595	19.941	5.4545	5.e-002	-4.1879
11596	20.218	5.4545	0.	-807.22
11597	20.125	5.3636	0.	-827.39
11598	20.125	5.4545	5.e-002	-4.1754
11599	20.402	5.4545	0.	-766.03
11600	20.31	5.3636	0.	-786.14
11601	20.31	5.4545	5.e-002	-4.1636
11602	20.587	5.4545	0.	-724.99
11603	20.494	5.3636	0.	-745.05
11604	20.494	5.4545	5.e-002	-4.1525
11605	20.771	5.4545	0.	-684.1
11606	20.679	5.3636	0.	-704.12
11607	20.679	5.4545	5.e-002	-4.142
11608	20.956	5.4545	0.	-643.37
11609	20.863	5.3636	0.	-663.35
11610	20.863	5.4545	5.e-002	-4.1322
11611	21.14	5.4545	0.	-602.78
11612	21.048	5.3636	0.	-622.72
11613	21.048	5.4545	5.e-002	-4.1233
11614	21.325	5.4545	0.	-562.34
11615	21.232	5.3636	0.	-582.25
11616	21.232	5.4545	5.e-002	-4.1152
11617	21.509	5.4545	0.	-522.04
11618	21.417	5.3636	0.	-541.93
11619	21.417	5.4545	5.e-002	-4.108
11620	21.694	5.4545	0.	-481.89
11621	21.601	5.3636	0.	-501.76
11622	21.601	5.4545	5.e-002	-4.1017
11623	21.878	5.4545	0.	-441.9
11624	21.786	5.3636	0.	-461.75
11625	21.786	5.4545	5.e-002	-4.0966
11626	22.063	5.4545	0.	-402.06
11627	21.97	5.3636	0.	-421.9
11628	21.97	5.4545	5.e-002	-4.0926
11629	22.247	5.4545	0.	-362.39
11630	22.155	5.3636	0.	-382.22
11631	22.155	5.4545	5.e-002	-4.0899
11632	22.432	5.4545	0.	-322.9
11633	22.339	5.3636	0.	-342.72
11634	22.339	5.4545	5.e-002	-4.0889
11635	22.616	5.4545	0.	-283.63
11636	22.524	5.3636	0.	-303.43
11637	22.524	5.4545	5.e-002	-4.09
11638	22.801	5.4545	0.	-244.62
11639	22.708	5.3636	0.	-264.38
11640	22.708	5.4545	5.e-002	-4.0938
11641	22.985	5.4545	0.	-205.93
11642	22.893	5.3636	0.	-225.63
11643	22.893	5.4545	5.e-002	-4.1017
11644	23.17	5.4545	0.	-167.64
11645	23.077	5.3636	0.	-187.23
11646	23.077	5.4545	5.e-002	-4.1161
11647	23.354	5.4545	0.	-129.91
11648	23.262	5.3636	0.	-149.28
11649	23.262	5.4545	5.e-002	-4.1423
11650	23.539	5.4545	0.	-92.877
11651	23.446	5.3636	0.	-111.91
11652	23.446	5.4545	5.e-002	-4.1909
11653	23.723	5.4545	0.	-56.746
11654	23.631	5.3636	0.	-75.154
11655	23.631	5.4545	5.e-002	-4.2887
11656	23.815	5.3636	0.	-39.219
11657	23.815	5.4545	5.e-002	-4.5892
11658	23.908	5.4545	0.	-22.053
11659	3.2434	5.2727	0.	-2324.9
11660	3.1512	5.1818	0.	-2507.5
11661	3.1512	5.2727	5.e-002	-86.21
11662	3.0589	5.2727	0.	-1819.
11663	3.4279	5.2727	0.	-2624.2
11664	3.3357	5.1818	0.	-2702.1
11665	3.3357	5.2727	5.e-002	-65.491
11666	3.6124	5.2727	0.	-2997.1
11667	3.5202	5.1818	0.	-3039.7
11668	3.5202	5.2727	5.e-002	-57.798
11669	3.7969	5.2727	0.	-3351.
11670	3.7047	5.1818	0.	-3377.
11671	3.7047	5.2727	5.e-002	-48.946
11672	3.9814	5.2727	0.	-3657.3
11673	3.8892	5.1818	0.	-3677.2
11674	3.8892	5.2727	5.e-002	-40.177
11675	4.1659	5.2727	0.	-3907.9
11676	4.0737	5.1818	0.	-3926.3
11677	4.0737	5.2727	5.e-002	-32.219
11678	4.3504	5.2727	0.	-4104.5
11679	4.2582	5.1818	0.	-4123.5
11680	4.2582	5.2727	5.e-002	-25.373
11681	4.5349	5.2727	0.	-4253.2
11682	4.4427	5.1818	0.	-4273.5
11683	4.4427	5.2727	5.e-002	-19.663
11684	4.7194	5.2727	0.	-4361.2
11685	4.6272	5.1818	0.	-4382.8
11686	4.6272	5.2727	5.e-002	-14.994
11687	4.9039	5.2727	0.	-4435.5
11688	4.8117	5.1818	0.	-4458.2
11689	4.8117	5.2727	5.e-002	-11.243
11690	5.0885	5.2727	0.	-4482.4
11691	4.9962	5.1818	0.	-4506.
11692	4.9962	5.2727	5.e-002	-8.2944
11693	5.273	5.2727	0.	-4507.2
11694	5.1807	5.1818	0.	-4531.6
11695	5.1807	5.2727	5.e-002	-6.0693
11696	5.4575	5.2727	0.	-4514.4
11697	5.3652	5.1818	0.	-4539.2
11698	5.3652	5.2727	5.e-002	-4.5325
11699	5.642	5.2727	0.	-4507.5
11700	5.5497	5.1818	0.	-4532.8
11701	5.5497	5.2727	5.e-002	-3.6771
11702	5.8265	5.2727	0.	-4489.7
11703	5.7342	5.1818	0.	-4515.2
11704	5.7342	5.2727	5.e-002	-3.4266
11705	6.011	5.2727	0.	-4463.2
11706	5.9187	5.1818	0.	-4488.8
11707	5.9187	5.2727	5.e-002	-3.5675
11708	6.1955	5.2727	0.	-4430.
11709	6.1032	5.1818	0.	-4455.7
11710	6.1032	5.2727	5.e-002	-3.8721
11711	6.38	5.2727	0.	-4391.5
11712	6.2877	5.1818	0.	-4417.3
11713	6.2877	5.2727	5.e-002	-4.2051
11714	6.5645	5.2727	0.	-4349.1
11715	6.4722	5.1818	0.	-4374.9
11716	6.4722	5.2727	5.e-002	-4.509
11717	6.749	5.2727	0.	-4303.6
11718	6.6567	5.1818	0.	-4329.5
11719	6.6567	5.2727	5.e-002	-4.765
11720	6.9335	5.2727	0.	-4255.8
11721	6.8412	5.1818	0.	-4281.6
11722	6.8412	5.2727	5.e-002	-4.971
11723	7.118	5.2727	0.	-4206.3
11724	7.0257	5.1818	0.	-4232.1
11725	7.0257	5.2727	5.e-002	-5.1316
11726	7.3025	5.2727	0.	-4155.5
11727	7.2102	5.1818	0.	-4181.2
11728	7.2102	5.2727	5.e-002	-5.253
11729	7.487	5.2727	0.	-4103.7
11730	7.3947	5.1818	0.	-4129.4
11731	7.3947	5.2727	5.e-002	-5.342
11732	7.6715	5.2727	0.	-4051.3
11733	7.5792	5.1818	0.	-4077.
11734	7.5792	5.2727	5.e-002	-5.4046
11735	7.856	5.2727	0.	-3998.5
11736	7.7637	5.1818	0.	-4024.1
11737	7.7637	5.2727	5.e-002	-5.446
11738	8.0405	5.2727	0.	-3945.3
11739	7.9482	5.1818	0.	-3970.9
11740	7.9482	5.2727	5.e-002	-5.4707
11741	8.225	5.2727	0.	-3892.
11742	8.1327	5.1818	0.	-3917.5
11743	8.1327	5.2727	5.e-002	-5.4823
11744	8.4095	5.2727	0.	-3838.6
11745	8.3173	5.1818	0.	-3864.1
11746	8.3173	5.2727	5.e-002	-5.4836
11747	8.594	5.2727	0.	-3785.2
11748	8.5018	5.1818	0.	-3810.7
11749	8.5018	5.2727	5.e-002	-5.4772
11750	8.7785	5.2727	0.	-3731.9
11751	8.6863	5.1818	0.	-3757.3
11752	8.6863	5.2727	5.e-002	-5.4648
11753	8.963	5.2727	0.	-3678.7
11754	8.8708	5.1818	0.	-3704.
11755	8.8708	5.2727	5.e-002	-5.4479
11756	9.1475	5.2727	0.	-3625.6
11757	9.0553	5.1818	0.	-3650.9
11758	9.0553	5.2727	5.e-002	-5.4278
11759	9.332	5.2727	0.	-3572.7
11760	9.2398	5.1818	0.	-3597.9
11761	9.2398	5.2727	5.e-002	-5.4053
11762	9.5165	5.2727	0.	-3519.9
11763	9.4243	5.1818	0.	-3545.1
11764	9.4243	5.2727	5.e-002	-5.3811
11765	9.701	5.2727	0.	-3467.3
11766	9.6088	5.1818	0.	-3492.5
11767	9.6088	5.2727	5.e-002	-5.3558
11768	9.8855	5.2727	0.	-3414.9
11769	9.7933	5.1818	0.	-3440.
11770	9.7933	5.2727	5.e-002	-5.3298
11771	10.07	5.2727	0.	-3362.7
11772	9.9778	5.1818	0.	-3387.8
11773	9.9778	5.2727	5.e-002	-5.3033
11774	10.255	5.2727	0.	-3310.8
11775	10.162	5.1818	0.	-3335.7
11776	10.162	5.2727	5.e-002	-5.2767
11777	10.439	5.2727	0.	-3259.
11778	10.347	5.1818	0.	-3283.9
11779	10.347	5.2727	5.e-002	-5.2502
11780	10.624	5.2727	0.	-3207.4
11781	10.531	5.1818	0.	-3232.2
11782	10.531	5.2727	5.e-002	-5.2238
11783	10.808	5.2727	0.	-3156.
11784	10.716	5.1818	0.	-3180.8
11785	10.716	5.2727	5.e-002	-5.1975
11786	10.993	5.2727	0.	-3104.9
11787	10.9	5.1818	0.	-3129.6
11788	10.9	5.2727	5.e-002	-5.1715
11789	11.177	5.2727	0.	-3054.
11790	11.085	5.1818	0.	-3078.6
11791	11.085	5.2727	5.e-002	-5.1459
11792	11.362	5.2727	0.	-3003.2
11793	11.269	5.1818	0.	-3027.8
11794	11.269	5.2727	5.e-002	-5.1207
11795	11.546	5.2727	0.	-2952.7
11796	11.454	5.1818	0.	-2977.2
11797	11.454	5.2727	5.e-002	-5.0957
11798	11.731	5.2727	0.	-2902.4
11799	11.638	5.1818	0.	-2926.8
11800	11.638	5.2727	5.e-002	-5.0711
11801	11.915	5.2727	0.	-2852.3
11802	11.823	5.1818	0.	-2876.6
11803	11.823	5.2727	5.e-002	-5.0469
11804	12.1	5.2727	0.	-2802.4
11805	12.007	5.1818	0.	-2826.6
11806	12.007	5.2727	5.e-002	-5.023
11807	12.284	5.2727	0.	-2752.8
11808	12.192	5.1818	0.	-2776.9
11809	12.192	5.2727	5.e-002	-4.9993
11810	12.469	5.2727	0.	-2703.3
11811	12.376	5.1818	0.	-2727.3
11812	12.376	5.2727	5.e-002	-4.9761
11813	12.653	5.2727	0.	-2654.
11814	12.561	5.1818	0.	-2678.
11815	12.561	5.2727	5.e-002	-4.9531
11816	12.838	5.2727	0.	-2605.
11817	12.745	5.1818	0.	-2628.8
11818	12.745	5.2727	5.e-002	-4.9304
11819	13.022	5.2727	0.	-2556.1
11820	12.93	5.1818	0.	-2579.9
11821	12.93	5.2727	5.e-002	-4.9079
11822	13.207	5.2727	0.	-2507.5
11823	13.114	5.1818	0.	-2531.1
11824	13.114	5.2727	5.e-002	-4.8857
11825	13.391	5.2727	0.	-2459.1
11826	13.299	5.1818	0.	-2482.6
11827	13.299	5.2727	5.e-002	-4.8638
11828	13.576	5.2727	0.	-2410.8
11829	13.483	5.1818	0.	-2434.3
11830	13.483	5.2727	5.e-002	-4.842
11831	13.76	5.2727	0.	-2362.8
11832	13.668	5.1818	0.	-2386.2
11833	13.668	5.2727	5.e-002	-4.8205
11834	13.945	5.2727	0.	-2315.
11835	13.852	5.1818	0.	-2338.3
11836	13.852	5.2727	5.e-002	-4.7992
11837	14.129	5.2727	0.	-2267.4
11838	14.037	5.1818	0.	-2290.5
11839	14.037	5.2727	5.e-002	-4.778
11840	14.314	5.2727	0.	-2219.9
11841	14.221	5.1818	0.	-2243.
11842	14.221	5.2727	5.e-002	-4.7571
11843	14.498	5.2727	0.	-2172.7
11844	14.406	5.1818	0.	-2195.7
11845	14.406	5.2727	5.e-002	-4.7363
11846	14.683	5.2727	0.	-2125.7
11847	14.59	5.1818	0.	-2148.6
11848	14.59	5.2727	5.e-002	-4.7157
11849	14.867	5.2727	0.	-2078.9
11850	14.775	5.1818	0.	-2101.7
11851	14.775	5.2727	5.e-002	-4.6953
11852	15.052	5.2727	0.	-2032.3
11853	14.959	5.1818	0.	-2055.
11854	14.959	5.2727	5.e-002	-4.675
11855	15.236	5.2727	0.	-1985.9
11856	15.144	5.1818	0.	-2008.5
11857	15.144	5.2727	5.e-002	-4.6549
11858	15.421	5.2727	0.	-1939.7
11859	15.328	5.1818	0.	-1962.2
11860	15.328	5.2727	5.e-002	-4.635
11861	15.605	5.2727	0.	-1893.7
11862	15.513	5.1818	0.	-1916.1
11863	15.513	5.2727	5.e-002	-4.6151
11864	15.79	5.2727	0.	-1847.9
11865	15.697	5.1818	0.	-1870.2
11866	15.697	5.2727	5.e-002	-4.5955
11867	15.974	5.2727	0.	-1802.3
11868	15.882	5.1818	0.	-1824.5
11869	15.882	5.2727	5.e-002	-4.576
11870	16.159	5.2727	0.	-1756.9
11871	16.066	5.1818	0.	-1779.
11872	16.066	5.2727	5.e-002	-4.5567
11873	16.343	5.2727	0.	-1711.7
11874	16.251	5.1818	0.	-1733.6
11875	16.251	5.2727	5.e-002	-4.5376
11876	16.528	5.2727	0.	-1666.6
11877	16.435	5.1818	0.	-1688.5
11878	16.435	5.2727	5.e-002	-4.5186
11879	16.712	5.2727	0.	-1621.8
11880	16.62	5.1818	0.	-1643.6
11881	16.62	5.2727	5.e-002	-4.4997
11882	16.897	5.2727	0.	-1577.2
11883	16.804	5.1818	0.	-1598.9
11884	16.804	5.2727	5.e-002	-4.4811
11885	17.081	5.2727	0.	-1532.8
11886	16.989	5.1818	0.	-1554.4
11887	16.989	5.2727	5.e-002	-4.4627
11888	17.266	5.2727	0.	-1488.6
11889	17.173	5.1818	0.	-1510.1
11890	17.173	5.2727	5.e-002	-4.4444
11891	17.45	5.2727	0.	-1444.5
11892	17.358	5.1818	0.	-1465.9
11893	17.358	5.2727	5.e-002	-4.4264
11894	17.635	5.2727	0.	-1400.7
11895	17.542	5.1818	0.	-1422.
11896	17.542	5.2727	5.e-002	-4.4086
11897	17.819	5.2727	0.	-1357.
11898	17.727	5.1818	0.	-1378.3
11899	17.727	5.2727	5.e-002	-4.391
11900	18.004	5.2727	0.	-1313.6
11901	17.911	5.1818	0.	-1334.7
11902	17.911	5.2727	5.e-002	-4.3737
11903	18.188	5.2727	0.	-1270.3
11904	18.096	5.1818	0.	-1291.4
11905	18.096	5.2727	5.e-002	-4.3566
11906	18.373	5.2727	0.	-1227.2
11907	18.28	5.1818	0.	-1248.2
11908	18.28	5.2727	5.e-002	-4.3399
11909	18.557	5.2727	0.	-1184.3
11910	18.465	5.1818	0.	-1205.2
11911	18.465	5.2727	5.e-002	-4.3234
11912	18.742	5.2727	0.	-1141.6
11913	18.649	5.1818	0.	-1162.4
11914	18.649	5.2727	5.e-002	-4.3073
11915	18.926	5.2727	0.	-1099.1
11916	18.834	5.1818	0.	-1119.8
11917	18.834	5.2727	5.e-002	-4.2916
11918	19.111	5.2727	0.	-1056.7
11919	19.018	5.1818	0.	-1077.4
11920	19.018	5.2727	5.e-002	-4.2762
11921	19.295	5.2727	0.	-1014.6
11922	19.203	5.1818	0.	-1035.2
11923	19.203	5.2727	5.e-002	-4.2612
11924	19.48	5.2727	0.	-972.59
11925	19.387	5.1818	0.	-993.09
11926	19.387	5.2727	5.e-002	-4.2467
11927	19.664	5.2727	0.	-930.78
11928	19.572	5.1818	0.	-951.21
11929	19.572	5.2727	5.e-002	-4.2327
11930	19.849	5.2727	0.	-889.14
11931	19.756	5.1818	0.	-909.5
11932	19.756	5.2727	5.e-002	-4.2191
11933	20.033	5.2727	0.	-847.66
11934	19.941	5.1818	0.	-867.97
11935	19.941	5.2727	5.e-002	-4.2061
11936	20.218	5.2727	0.	-806.36
11937	20.125	5.1818	0.	-826.61
11938	20.125	5.2727	5.e-002	-4.1938
11939	20.402	5.2727	0.	-765.22
11940	20.31	5.1818	0.	-785.42
11941	20.31	5.2727	5.e-002	-4.182
11942	20.587	5.2727	0.	-724.24
11943	20.494	5.1818	0.	-744.39
11944	20.494	5.2727	5.e-002	-4.1709
11945	20.771	5.2727	0.	-683.43
11946	20.679	5.1818	0.	-703.53
11947	20.679	5.2727	5.e-002	-4.1606
11948	20.956	5.2727	0.	-642.77
11949	20.863	5.1818	0.	-662.83
11950	20.863	5.2727	5.e-002	-4.151
11951	21.14	5.2727	0.	-602.26
11952	21.048	5.1818	0.	-622.3
11953	21.048	5.2727	5.e-002	-4.1424
11954	21.325	5.2727	0.	-561.92
11955	21.232	5.1818	0.	-581.92
11956	21.232	5.2727	5.e-002	-4.1346
11957	21.509	5.2727	0.	-521.73
11958	21.417	5.1818	0.	-541.71
11959	21.417	5.2727	5.e-002	-4.1278
11960	21.694	5.2727	0.	-481.7
11961	21.601	5.1818	0.	-501.66
11962	21.601	5.2727	5.e-002	-4.1222
11963	21.878	5.2727	0.	-441.84
11964	21.786	5.1818	0.	-461.78
11965	21.786	5.2727	5.e-002	-4.1179
11966	22.063	5.2727	0.	-402.15
11967	21.97	5.1818	0.	-422.08
11968	21.97	5.2727	5.e-002	-4.115
11969	22.247	5.2727	0.	-362.65
11970	22.155	5.1818	0.	-382.56
11971	22.155	5.2727	5.e-002	-4.1138
11972	22.432	5.2727	0.	-323.35
11973	22.339	5.1818	0.	-343.24
11974	22.339	5.2727	5.e-002	-4.1147
11975	22.616	5.2727	0.	-284.3
11976	22.524	5.1818	0.	-304.14
11977	22.524	5.2727	5.e-002	-4.1183
11978	22.801	5.2727	0.	-245.51
11979	22.708	5.1818	0.	-265.3
11980	22.708	5.2727	5.e-002	-4.1256
11981	22.985	5.2727	0.	-207.06
11982	22.893	5.1818	0.	-226.75
11983	22.893	5.2727	5.e-002	-4.1382
11984	23.17	5.2727	0.	-168.99
11985	23.077	5.1818	0.	-188.54
11986	23.077	5.2727	5.e-002	-4.1588
11987	23.354	5.2727	0.	-131.39
11988	23.262	5.1818	0.	-150.72
11989	23.262	5.2727	5.e-002	-4.1924
11990	23.539	5.2727	0.	-94.256
11991	23.446	5.1818	0.	-113.3
11992	23.446	5.2727	5.e-002	-4.2469
11993	23.723	5.2727	0.	-57.629
11994	23.631	5.1818	0.	-76.239
11995	23.631	5.2727	5.e-002	-4.341
11996	23.815	5.1818	0.	-39.623
11997	23.815	5.2727	5.e-002	-4.5931
11998	23.908	5.2727	0.	-22.352
11999	3.2434	5.0909	0.	-2834.
12000	3.1512	5.	0.	-3090.1
12001	3.1512	5.0909	5.e-002	-100.54
12002	3.0589	5.0909	0.	-2249.5
12003	3.4279	5.0909	0.	-3082.4
12004	3.3357	5.	0.	-3238.7
12005	3.3357	5.0909	5.e-002	-71.858
12006	3.6124	5.0909	0.	-3397.7
12007	3.5202	5.	0.	-3521.5
12008	3.5202	5.0909	5.e-002	-60.917
12009	3.7969	5.0909	0.	-3690.2
12010	3.7047	5.	0.	-3789.2
12011	3.7047	5.0909	5.e-002	-49.654
12012	3.9814	5.0909	0.	-3938.6
12013	3.8892	5.	0.	-4019.1
12014	3.8892	5.0909	5.e-002	-39.531
12015	4.1659	5.0909	0.	-4137.6
12016	4.0737	5.	0.	-4204.8
12017	4.0737	5.0909	5.e-002	-31.068
12018	4.3504	5.0909	0.	-4290.
12019	4.2582	5.	0.	-4347.4
12020	4.2582	5.0909	5.e-002	-24.245
12021	4.5349	5.0909	0.	-4401.6
12022	4.4427	5.	0.	-4451.8
12023	4.4427	5.0909	5.e-002	-18.824
12024	4.7194	5.0909	0.	-4478.9
12025	4.6272	5.	0.	-4523.9
12026	4.6272	5.0909	5.e-002	-14.556
12027	4.9039	5.0909	0.	-4528.3
12028	4.8117	5.	0.	-4569.2
12029	4.8117	5.0909	5.e-002	-11.234
12030	5.0885	5.0909	0.	-4554.9
12031	4.9962	5.	0.	-4592.7
12032	4.9962	5.0909	5.e-002	-8.709
12033	5.273	5.0909	0.	-4563.4
12034	5.1807	5.	0.	-4598.7
12035	5.1807	5.0909	5.e-002	-6.8743
12036	5.4575	5.0909	0.	-4557.6
12037	5.3652	5.	0.	-4590.9
12038	5.3652	5.0909	5.e-002	-5.65
12039	5.642	5.0909	0.	-4540.4
12040	5.5497	5.	0.	-4572.2
12041	5.5497	5.0909	5.e-002	-4.9493
12042	5.8265	5.0909	0.	-4514.3
12043	5.7342	5.	0.	-4544.9
12044	5.7342	5.0909	5.e-002	-4.6514
12045	6.011	5.0909	0.	-4481.4
12046	5.9187	5.	0.	-4511.
12047	5.9187	5.0909	5.e-002	-4.6131
12048	6.1955	5.0909	0.	-4443.1
12049	6.1032	5.	0.	-4471.9
12050	6.1032	5.0909	5.e-002	-4.71
12051	6.38	5.0909	0.	-4400.8
12052	6.2877	5.	0.	-4428.9
12053	6.2877	5.0909	5.e-002	-4.8594
12054	6.5645	5.0909	0.	-4355.3
12055	6.4722	5.	0.	-4382.9
12056	6.4722	5.0909	5.e-002	-5.0155
12057	6.749	5.0909	0.	-4307.5
12058	6.6567	5.	0.	-4334.6
12059	6.6567	5.0909	5.e-002	-5.1567
12060	6.9335	5.0909	0.	-4257.9
12061	6.8412	5.	0.	-4284.7
12062	6.8412	5.0909	5.e-002	-5.2745
12063	7.118	5.0909	0.	-4207.
12064	7.0257	5.	0.	-4233.5
12065	7.0257	5.0909	5.e-002	-5.3673
12066	7.3025	5.0909	0.	-4155.2
12067	7.2102	5.	0.	-4181.5
12068	7.2102	5.0909	5.e-002	-5.4369
12069	7.487	5.0909	0.	-4102.7
12070	7.3947	5.	0.	-4128.8
12071	7.3947	5.0909	5.e-002	-5.486
12072	7.6715	5.0909	0.	-4049.8
12073	7.5792	5.	0.	-4075.7
12074	7.5792	5.0909	5.e-002	-5.5178
12075	7.856	5.0909	0.	-3996.5
12076	7.7637	5.	0.	-4022.4
12077	7.7637	5.0909	5.e-002	-5.5355
12078	8.0405	5.0909	0.	-3943.1
12079	7.9482	5.	0.	-3968.9
12080	7.9482	5.0909	5.e-002	-5.5418
12081	8.225	5.0909	0.	-3889.7
12082	8.1327	5.	0.	-3915.3
12083	8.1327	5.0909	5.e-002	-5.5391
12084	8.4095	5.0909	0.	-3836.2
12085	8.3173	5.	0.	-3861.8
12086	8.3173	5.0909	5.e-002	-5.5293
12087	8.594	5.0909	0.	-3782.8
12088	8.5018	5.	0.	-3808.3
12089	8.5018	5.0909	5.e-002	-5.5142
12090	8.7785	5.0909	0.	-3729.5
12091	8.6863	5.	0.	-3754.9
12092	8.6863	5.0909	5.e-002	-5.4951
12093	8.963	5.0909	0.	-3676.3
12094	8.8708	5.	0.	-3701.7
12095	8.8708	5.0909	5.e-002	-5.473
12096	9.1475	5.0909	0.	-3623.2
12097	9.0553	5.	0.	-3648.6
12098	9.0553	5.0909	5.e-002	-5.4486
12099	9.332	5.0909	0.	-3570.4
12100	9.2398	5.	0.	-3595.6
12101	9.2398	5.0909	5.e-002	-5.4228
12102	9.5165	5.0909	0.	-3517.7
12103	9.4243	5.	0.	-3542.9
12104	9.4243	5.0909	5.e-002	-5.396
12105	9.701	5.0909	0.	-3465.2
12106	9.6088	5.	0.	-3490.3
12107	9.6088	5.0909	5.e-002	-5.3686
12108	9.8855	5.0909	0.	-3412.8
12109	9.7933	5.	0.	-3437.9
12110	9.7933	5.0909	5.e-002	-5.3409
12111	10.07	5.0909	0.	-3360.7
12112	9.9778	5.	0.	-3385.8
12113	9.9778	5.0909	5.e-002	-5.3132
12114	10.255	5.0909	0.	-3308.8
12115	10.162	5.	0.	-3333.8
12116	10.162	5.0909	5.e-002	-5.2855
12117	10.439	5.0909	0.	-3257.1
12118	10.347	5.	0.	-3282.
12119	10.347	5.0909	5.e-002	-5.258
12120	10.624	5.0909	0.	-3205.6
12121	10.531	5.	0.	-3230.5
12122	10.531	5.0909	5.e-002	-5.2308
12123	10.808	5.0909	0.	-3154.3
12124	10.716	5.	0.	-3179.1
12125	10.716	5.0909	5.e-002	-5.2039
12126	10.993	5.0909	0.	-3103.2
12127	10.9	5.	0.	-3127.9
12128	10.9	5.0909	5.e-002	-5.1775
12129	11.177	5.0909	0.	-3052.4
12130	11.085	5.	0.	-3077.
12131	11.085	5.0909	5.e-002	-5.1514
12132	11.362	5.0909	0.	-3001.7
12133	11.269	5.	0.	-3026.2
12134	11.269	5.0909	5.e-002	-5.1257
12135	11.546	5.0909	0.	-2951.2
12136	11.454	5.	0.	-2975.7
12137	11.454	5.0909	5.e-002	-5.1004
12138	11.731	5.0909	0.	-2901.
12139	11.638	5.	0.	-2925.4
12140	11.638	5.0909	5.e-002	-5.0755
12141	11.915	5.0909	0.	-2850.9
12142	11.823	5.	0.	-2875.2
12143	11.823	5.0909	5.e-002	-5.051
12144	12.1	5.0909	0.	-2801.1
12145	12.007	5.	0.	-2825.3
12146	12.007	5.0909	5.e-002	-5.0269
12147	12.284	5.0909	0.	-2751.4
12148	12.192	5.	0.	-2775.6
12149	12.192	5.0909	5.e-002	-5.0031
12150	12.469	5.0909	0.	-2702.
12151	12.376	5.	0.	-2726.
12152	12.376	5.0909	5.e-002	-4.9796
12153	12.653	5.0909	0.	-2652.8
12154	12.561	5.	0.	-2676.7
12155	12.561	5.0909	5.e-002	-4.9565
12156	12.838	5.0909	0.	-2603.7
12157	12.745	5.	0.	-2627.6
12158	12.745	5.0909	5.e-002	-4.9336
12159	13.022	5.0909	0.	-2554.9
12160	12.93	5.	0.	-2578.7
12161	12.93	5.0909	5.e-002	-4.911
12162	13.207	5.0909	0.	-2506.3
12163	13.114	5.	0.	-2530.
12164	13.114	5.0909	5.e-002	-4.8887
12165	13.391	5.0909	0.	-2457.9
12166	13.299	5.	0.	-2481.5
12167	13.299	5.0909	5.e-002	-4.8666
12168	13.576	5.0909	0.	-2409.7
12169	13.483	5.	0.	-2433.2
12170	13.483	5.0909	5.e-002	-4.8448
12171	13.76	5.0909	0.	-2361.6
12172	13.668	5.	0.	-2385.
12173	13.668	5.0909	5.e-002	-4.8231
12174	13.945	5.0909	0.	-2313.8
12175	13.852	5.	0.	-2337.1
12176	13.852	5.0909	5.e-002	-4.8017
12177	14.129	5.0909	0.	-2266.2
12178	14.037	5.	0.	-2289.4
12179	14.037	5.0909	5.e-002	-4.7805
12180	14.314	5.0909	0.	-2218.8
12181	14.221	5.	0.	-2241.9
12182	14.221	5.0909	5.e-002	-4.7595
12183	14.498	5.0909	0.	-2171.6
12184	14.406	5.	0.	-2194.6
12185	14.406	5.0909	5.e-002	-4.7386
12186	14.683	5.0909	0.	-2124.6
12187	14.59	5.	0.	-2147.5
12188	14.59	5.0909	5.e-002	-4.718
12189	14.867	5.0909	0.	-2077.8
12190	14.775	5.	0.	-2100.6
12191	14.775	5.0909	5.e-002	-4.6975
12192	15.052	5.0909	0.	-2031.2
12193	14.959	5.	0.	-2053.9
12194	14.959	5.0909	5.e-002	-4.6772
12195	15.236	5.0909	0.	-1984.8
12196	15.144	5.	0.	-2007.4
12197	15.144	5.0909	5.e-002	-4.6571
12198	15.421	5.0909	0.	-1938.6
12199	15.328	5.	0.	-1961.1
12200	15.328	5.0909	5.e-002	-4.6371
12201	15.605	5.0909	0.	-1892.6
12202	15.513	5.	0.	-1915.
12203	15.513	5.0909	5.e-002	-4.6173
12204	15.79	5.0909	0.	-1846.8
12205	15.697	5.	0.	-1869.1
12206	15.697	5.0909	5.e-002	-4.5976
12207	15.974	5.0909	0.	-1801.2
12208	15.882	5.	0.	-1823.4
12209	15.882	5.0909	5.e-002	-4.5781
12210	16.159	5.0909	0.	-1755.8
12211	16.066	5.	0.	-1777.9
12212	16.066	5.0909	5.e-002	-4.5588
12213	16.343	5.0909	0.	-1710.6
12214	16.251	5.	0.	-1732.6
12215	16.251	5.0909	5.e-002	-4.5396
12216	16.528	5.0909	0.	-1665.6
12217	16.435	5.	0.	-1687.5
12218	16.435	5.0909	5.e-002	-4.5206
12219	16.712	5.0909	0.	-1620.7
12220	16.62	5.	0.	-1642.6
12221	16.62	5.0909	5.e-002	-4.5018
12222	16.897	5.0909	0.	-1576.1
12223	16.804	5.	0.	-1597.9
12224	16.804	5.0909	5.e-002	-4.4832
12225	17.081	5.0909	0.	-1531.7
12226	16.989	5.	0.	-1553.4
12227	16.989	5.0909	5.e-002	-4.4648
12228	17.266	5.0909	0.	-1487.5
12229	17.173	5.	0.	-1509.1
12230	17.173	5.0909	5.e-002	-4.4466
12231	17.45	5.0909	0.	-1443.5
12232	17.358	5.	0.	-1464.9
12233	17.358	5.0909	5.e-002	-4.4286
12234	17.635	5.0909	0.	-1399.6
12235	17.542	5.	0.	-1421.
12236	17.542	5.0909	5.e-002	-4.4108
12237	17.819	5.0909	0.	-1356.
12238	17.727	5.	0.	-1377.3
12239	17.727	5.0909	5.e-002	-4.3933
12240	18.004	5.0909	0.	-1312.5
12241	17.911	5.	0.	-1333.7
12242	17.911	5.0909	5.e-002	-4.376
12243	18.188	5.0909	0.	-1269.3
12244	18.096	5.	0.	-1290.4
12245	18.096	5.0909	5.e-002	-4.3591
12246	18.373	5.0909	0.	-1226.2
12247	18.28	5.	0.	-1247.3
12248	18.28	5.0909	5.e-002	-4.3424
12249	18.557	5.0909	0.	-1183.3
12250	18.465	5.	0.	-1204.3
12251	18.465	5.0909	5.e-002	-4.326
12252	18.742	5.0909	0.	-1140.7
12253	18.649	5.	0.	-1161.5
12254	18.649	5.0909	5.e-002	-4.31
12255	18.926	5.0909	0.	-1098.2
12256	18.834	5.	0.	-1118.9
12257	18.834	5.0909	5.e-002	-4.2944
12258	19.111	5.0909	0.	-1055.8
12259	19.018	5.	0.	-1076.5
12260	19.018	5.0909	5.e-002	-4.2791
12261	19.295	5.0909	0.	-1013.7
12262	19.203	5.	0.	-1034.3
12263	19.203	5.0909	5.e-002	-4.2643
12264	19.48	5.0909	0.	-971.75
12265	19.387	5.	0.	-992.31
12266	19.387	5.0909	5.e-002	-4.2499
12267	19.664	5.0909	0.	-929.98
12268	19.572	5.	0.	-950.47
12269	19.572	5.0909	5.e-002	-4.2361
12270	19.849	5.0909	0.	-888.38
12271	19.756	5.	0.	-908.81
12272	19.756	5.0909	5.e-002	-4.2228
12273	20.033	5.0909	0.	-846.96
12274	19.941	5.	0.	-867.33
12275	19.941	5.0909	5.e-002	-4.21
12276	20.218	5.0909	0.	-805.72
12277	20.125	5.	0.	-826.03
12278	20.125	5.0909	5.e-002	-4.1979
12279	20.402	5.0909	0.	-764.64
12280	20.31	5.	0.	-784.9
12281	20.31	5.0909	5.e-002	-4.1865
12282	20.587	5.0909	0.	-723.74
12283	20.494	5.	0.	-743.94
12284	20.494	5.0909	5.e-002	-4.1758
12285	20.771	5.0909	0.	-683.
12286	20.679	5.	0.	-703.16
12287	20.679	5.0909	5.e-002	-4.1659
12288	20.956	5.0909	0.	-642.43
12289	20.863	5.	0.	-662.55
12290	20.863	5.0909	5.e-002	-4.1568
12291	21.14	5.0909	0.	-602.02
12292	21.048	5.	0.	-622.11
12293	21.048	5.0909	5.e-002	-4.1487
12294	21.325	5.0909	0.	-561.78
12295	21.232	5.	0.	-581.84
12296	21.232	5.0909	5.e-002	-4.1417
12297	21.509	5.0909	0.	-521.71
12298	21.417	5.	0.	-541.75
12299	21.417	5.0909	5.e-002	-4.1358
12300	21.694	5.0909	0.	-481.82
12301	21.601	5.	0.	-501.82
12302	21.601	5.0909	5.e-002	-4.1313
12303	21.878	5.0909	0.	-442.1
12304	21.786	5.	0.	-462.08
12305	21.786	5.0909	5.e-002	-4.1282
12306	22.063	5.0909	0.	-402.56
12307	21.97	5.	0.	-422.52
12308	21.97	5.0909	5.e-002	-4.1268
12309	22.247	5.0909	0.	-363.23
12310	22.155	5.	0.	-383.15
12311	22.155	5.0909	5.e-002	-4.1276
12312	22.432	5.0909	0.	-324.11
12313	22.339	5.	0.	-344.
12314	22.339	5.0909	5.e-002	-4.1309
12315	22.616	5.0909	0.	-285.24
12316	22.524	5.	0.	-305.07
12317	22.524	5.0909	5.e-002	-4.1374
12318	22.801	5.0909	0.	-246.63
12319	22.708	5.	0.	-266.38
12320	22.708	5.0909	5.e-002	-4.1484
12321	22.985	5.0909	0.	-208.32
12322	22.893	5.	0.	-227.97
12323	22.893	5.0909	5.e-002	-4.1655
12324	23.17	5.0909	0.	-170.34
12325	23.077	5.	0.	-189.84
12326	23.077	5.0909	5.e-002	-4.1912
12327	23.354	5.0909	0.	-132.69
12328	23.262	5.	0.	-152.
12329	23.262	5.0909	5.e-002	-4.2296
12330	23.539	5.0909	0.	-95.322
12331	23.446	5.	0.	-114.43
12332	23.446	5.0909	5.e-002	-4.286
12333	23.723	5.0909	0.	-58.205
12334	23.631	5.	0.	-77.003
12335	23.631	5.0909	5.e-002	-4.3724
12336	23.815	5.	0.	-39.832
12337	23.815	5.0909	5.e-002	-4.5891
12338	23.908	5.0909	0.	-22.493
12339	3.2434	4.9091	0.	-3439.5
12340	3.1512	4.8182	0.	-3798.8
12341	3.1512	4.9091	5.e-002	-120.84
12342	3.0589	4.9091	0.	-2750.7
12343	3.4279	4.9091	0.	-3638.
12344	3.3357	4.8182	0.	-3896.4
12345	3.3357	4.9091	5.e-002	-81.389
12346	3.6124	4.9091	0.	-3887.
12347	3.5202	4.8182	0.	-4107.3
12348	3.5202	4.9091	5.e-002	-64.881
12349	3.7969	4.9091	0.	-4102.3
12350	3.7047	4.8182	0.	-4283.3
12351	3.7047	4.9091	5.e-002	-50.062
12352	3.9814	4.9091	0.	-4276.
12353	3.8892	4.8182	0.	-4422.3
12354	3.8892	4.9091	5.e-002	-38.445
12355	4.1659	4.9091	0.	-4409.2
12356	4.0737	4.8182	0.	-4527.7
12357	4.0737	4.9091	5.e-002	-29.751
12358	4.3504	4.9091	0.	-4506.2
12359	4.2582	4.8182	0.	-4603.4
12360	4.2582	4.9091	5.e-002	-23.255
12361	4.5349	4.9091	0.	-4572.4
12362	4.4427	4.8182	0.	-4653.4
12363	4.4427	4.9091	5.e-002	-18.349
12364	4.7194	4.9091	0.	-4613.1
12365	4.6272	4.8182	0.	-4681.8
12366	4.6272	4.9091	5.e-002	-14.607
12367	4.9039	4.9091	0.	-4633.
12368	4.8117	4.8182	0.	-4692.2
12369	4.8117	4.9091	5.e-002	-11.755
12370	5.0885	4.9091	0.	-4636.2
12371	4.9962	4.8182	0.	-4688.1
12372	4.9962	4.9091	5.e-002	-9.6112
12373	5.273	4.9091	0.	-4626.1
12374	5.1807	4.8182	0.	-4672.3
12375	5.1807	4.9091	5.e-002	-8.0501
12376	5.4575	4.9091	0.	-4605.5
12377	5.3652	4.8182	0.	-4647.3
12378	5.3652	4.9091	5.e-002	-6.9685
12379	5.642	4.9091	0.	-4576.7
12380	5.5497	4.8182	0.	-4615.
12381	5.5497	4.9091	5.e-002	-6.2702
12382	5.8265	4.9091	0.	-4541.5
12383	5.7342	4.8182	0.	-4577.1
12384	5.7342	4.9091	5.e-002	-5.8592
12385	6.011	4.9091	0.	-4501.5
12386	5.9187	4.8182	0.	-4534.8
12387	5.9187	4.9091	5.e-002	-5.6458
12388	6.1955	4.9091	0.	-4457.6
12389	6.1032	4.8182	0.	-4489.3
12390	6.1032	4.9091	5.e-002	-5.5557
12391	6.38	4.9091	0.	-4411.
12392	6.2877	4.8182	0.	-4441.3
12393	6.2877	4.9091	5.e-002	-5.535
12394	6.5645	4.9091	0.	-4362.2
12395	6.4722	4.8182	0.	-4391.5
12396	6.4722	4.9091	5.e-002	-5.5481
12397	6.749	4.9091	0.	-4311.9
12398	6.6567	4.8182	0.	-4340.3
12399	6.6567	4.9091	5.e-002	-5.5739
12400	6.9335	4.9091	0.	-4260.4
12401	6.8412	4.8182	0.	-4288.1
12402	6.8412	4.9091	5.e-002	-5.6006
12403	7.118	4.9091	0.	-4208.
12404	7.0257	4.8182	0.	-4235.3
12405	7.0257	4.9091	5.e-002	-5.6221
12406	7.3025	4.9091	0.	-4155.1
12407	7.2102	4.8182	0.	-4182.
12408	7.2102	4.9091	5.e-002	-5.6361
12409	7.487	4.9091	0.	-4101.9
12410	7.3947	4.8182	0.	-4128.4
12411	7.3947	4.9091	5.e-002	-5.6421
12412	7.6715	4.9091	0.	-4048.4
12413	7.5792	4.8182	0.	-4074.6
12414	7.5792	4.9091	5.e-002	-5.6404
12415	7.856	4.9091	0.	-3994.7
12416	7.7637	4.8182	0.	-4020.8
12417	7.7637	4.9091	5.e-002	-5.6321
12418	8.0405	4.9091	0.	-3941.1
12419	7.9482	4.8182	0.	-3967.
12420	7.9482	4.9091	5.e-002	-5.6182
12421	8.225	4.9091	0.	-3887.4
12422	8.1327	4.8182	0.	-3913.2
12423	8.1327	4.9091	5.e-002	-5.5997
12424	8.4095	4.9091	0.	-3833.9
12425	8.3173	4.8182	0.	-3859.6
12426	8.3173	4.9091	5.e-002	-5.5777
12427	8.594	4.9091	0.	-3780.4
12428	8.5018	4.8182	0.	-3806.
12429	8.5018	4.9091	5.e-002	-5.5531
12430	8.7785	4.9091	0.	-3727.1
12431	8.6863	4.8182	0.	-3752.6
12432	8.6863	4.9091	5.e-002	-5.5264
12433	8.963	4.9091	0.	-3674.
12434	8.8708	4.8182	0.	-3699.4
12435	8.8708	4.9091	5.e-002	-5.4984
12436	9.1475	4.9091	0.	-3621.
12437	9.0553	4.8182	0.	-3646.3
12438	9.0553	4.9091	5.e-002	-5.4695
12439	9.332	4.9091	0.	-3568.2
12440	9.2398	4.8182	0.	-3593.5
12441	9.2398	4.9091	5.e-002	-5.44
12442	9.5165	4.9091	0.	-3515.5
12443	9.4243	4.8182	0.	-3540.8
12444	9.4243	4.9091	5.e-002	-5.4103
12445	9.701	4.9091	0.	-3463.1
12446	9.6088	4.8182	0.	-3488.3
12447	9.6088	4.9091	5.e-002	-5.3807
12448	9.8855	4.9091	0.	-3410.9
12449	9.7933	4.8182	0.	-3436.
12450	9.7933	4.9091	5.e-002	-5.3511
12451	10.07	4.9091	0.	-3358.8
12452	9.9778	4.8182	0.	-3383.9
12453	9.9778	4.9091	5.e-002	-5.3219
12454	10.255	4.9091	0.	-3307.
12455	10.162	4.8182	0.	-3332.
12456	10.162	4.9091	5.e-002	-5.293
12457	10.439	4.9091	0.	-3255.4
12458	10.347	4.8182	0.	-3280.3
12459	10.347	4.9091	5.e-002	-5.2646
12460	10.624	4.9091	0.	-3203.9
12461	10.531	4.8182	0.	-3228.8
12462	10.531	4.9091	5.e-002	-5.2366
12463	10.808	4.9091	0.	-3152.7
12464	10.716	4.8182	0.	-3177.5
12465	10.716	4.9091	5.e-002	-5.209
12466	10.993	4.9091	0.	-3101.7
12467	10.9	4.8182	0.	-3126.4
12468	10.9	4.9091	5.e-002	-5.182
12469	11.177	4.9091	0.	-3050.9
12470	11.085	4.8182	0.	-3075.5
12471	11.085	4.9091	5.e-002	-5.1555
12472	11.362	4.9091	0.	-3000.2
12473	11.269	4.8182	0.	-3024.8
12474	11.269	4.9091	5.e-002	-5.1294
12475	11.546	4.9091	0.	-2949.8
12476	11.454	4.8182	0.	-2974.3
12477	11.454	4.9091	5.e-002	-5.1038
12478	11.731	4.9091	0.	-2899.6
12479	11.638	4.8182	0.	-2924.
12480	11.638	4.9091	5.e-002	-5.0786
12481	11.915	4.9091	0.	-2849.6
12482	11.823	4.8182	0.	-2873.9
12483	11.823	4.9091	5.e-002	-5.0538
12484	12.1	4.9091	0.	-2799.8
12485	12.007	4.8182	0.	-2824.
12486	12.007	4.9091	5.e-002	-5.0295
12487	12.284	4.9091	0.	-2750.2
12488	12.192	4.8182	0.	-2774.4
12489	12.192	4.9091	5.e-002	-5.0054
12490	12.469	4.9091	0.	-2700.8
12491	12.376	4.8182	0.	-2724.9
12492	12.376	4.9091	5.e-002	-4.9818
12493	12.653	4.9091	0.	-2651.6
12494	12.561	4.8182	0.	-2675.6
12495	12.561	4.9091	5.e-002	-4.9585
12496	12.838	4.9091	0.	-2602.6
12497	12.745	4.8182	0.	-2626.5
12498	12.745	4.9091	5.e-002	-4.9355
12499	13.022	4.9091	0.	-2553.8
12500	12.93	4.8182	0.	-2577.6
12501	12.93	4.9091	5.e-002	-4.9127
12502	13.207	4.9091	0.	-2505.2
12503	13.114	4.8182	0.	-2528.9
12504	13.114	4.9091	5.e-002	-4.8903
12505	13.391	4.9091	0.	-2456.8
12506	13.299	4.8182	0.	-2480.4
12507	13.299	4.9091	5.e-002	-4.8681
12508	13.576	4.9091	0.	-2408.6
12509	13.483	4.8182	0.	-2432.1
12510	13.483	4.9091	5.e-002	-4.8462
12511	13.76	4.9091	0.	-2360.6
12512	13.668	4.8182	0.	-2384.
12513	13.668	4.9091	5.e-002	-4.8245
12514	13.945	4.9091	0.	-2312.8
12515	13.852	4.8182	0.	-2336.1
12516	13.852	4.9091	5.e-002	-4.803
12517	14.129	4.9091	0.	-2265.2
12518	14.037	4.8182	0.	-2288.4
12519	14.037	4.9091	5.e-002	-4.7817
12520	14.314	4.9091	0.	-2217.8
12521	14.221	4.8182	0.	-2240.9
12522	14.221	4.9091	5.e-002	-4.7606
12523	14.498	4.9091	0.	-2170.6
12524	14.406	4.8182	0.	-2193.6
12525	14.406	4.9091	5.e-002	-4.7397
12526	14.683	4.9091	0.	-2123.6
12527	14.59	4.8182	0.	-2146.6
12528	14.59	4.9091	5.e-002	-4.719
12529	14.867	4.9091	0.	-2076.8
12530	14.775	4.8182	0.	-2099.7
12531	14.775	4.9091	5.e-002	-4.6985
12532	15.052	4.9091	0.	-2030.2
12533	14.959	4.8182	0.	-2053.
12534	14.959	4.9091	5.e-002	-4.6782
12535	15.236	4.9091	0.	-1983.8
12536	15.144	4.8182	0.	-2006.5
12537	15.144	4.9091	5.e-002	-4.658
12538	15.421	4.9091	0.	-1937.6
12539	15.328	4.8182	0.	-1960.2
12540	15.328	4.9091	5.e-002	-4.638
12541	15.605	4.9091	0.	-1891.6
12542	15.513	4.8182	0.	-1914.1
12543	15.513	4.9091	5.e-002	-4.6181
12544	15.79	4.9091	0.	-1845.8
12545	15.697	4.8182	0.	-1868.2
12546	15.697	4.9091	5.e-002	-4.5985
12547	15.974	4.9091	0.	-1800.2
12548	15.882	4.8182	0.	-1822.5
12549	15.882	4.9091	5.e-002	-4.579
12550	16.159	4.9091	0.	-1754.8
12551	16.066	4.8182	0.	-1777.
12552	16.066	4.9091	5.e-002	-4.5597
12553	16.343	4.9091	0.	-1709.6
12554	16.251	4.8182	0.	-1731.7
12555	16.251	4.9091	5.e-002	-4.5405
12556	16.528	4.9091	0.	-1664.6
12557	16.435	4.8182	0.	-1686.6
12558	16.435	4.9091	5.e-002	-4.5215
12559	16.712	4.9091	0.	-1619.8
12560	16.62	4.8182	0.	-1641.7
12561	16.62	4.9091	5.e-002	-4.5027
12562	16.897	4.9091	0.	-1575.2
12563	16.804	4.8182	0.	-1597.
12564	16.804	4.9091	5.e-002	-4.4841
12565	17.081	4.9091	0.	-1530.8
12566	16.989	4.8182	0.	-1552.5
12567	16.989	4.9091	5.e-002	-4.4657
12568	17.266	4.9091	0.	-1486.5
12569	17.173	4.8182	0.	-1508.2
12570	17.173	4.9091	5.e-002	-4.4476
12571	17.45	4.9091	0.	-1442.5
12572	17.358	4.8182	0.	-1464.1
12573	17.358	4.9091	5.e-002	-4.4296
12574	17.635	4.9091	0.	-1398.7
12575	17.542	4.8182	0.	-1420.1
12576	17.542	4.9091	5.e-002	-4.4119
12577	17.819	4.9091	0.	-1355.1
12578	17.727	4.8182	0.	-1376.4
12579	17.727	4.9091	5.e-002	-4.3944
12580	18.004	4.9091	0.	-1311.6
12581	17.911	4.8182	0.	-1332.9
12582	17.911	4.9091	5.e-002	-4.3772
12583	18.188	4.9091	0.	-1268.4
12584	18.096	4.8182	0.	-1289.6
12585	18.096	4.9091	5.e-002	-4.3603
12586	18.373	4.9091	0.	-1225.4
12587	18.28	4.8182	0.	-1246.4
12588	18.28	4.9091	5.e-002	-4.3437
12589	18.557	4.9091	0.	-1182.5
12590	18.465	4.8182	0.	-1203.5
12591	18.465	4.9091	5.e-002	-4.3274
12592	18.742	4.9091	0.	-1139.8
12593	18.649	4.8182	0.	-1160.8
12594	18.649	4.9091	5.e-002	-4.3115
12595	18.926	4.9091	0.	-1097.4
12596	18.834	4.8182	0.	-1118.2
12597	18.834	4.9091	5.e-002	-4.296
12598	19.111	4.9091	0.	-1055.1
12599	19.018	4.8182	0.	-1075.8
12600	19.018	4.9091	5.e-002	-4.2809
12601	19.295	4.9091	0.	-1013.
12602	19.203	4.8182	0.	-1033.7
12603	19.203	4.9091	5.e-002	-4.2662
12604	19.48	4.9091	0.	-971.07
12605	19.387	4.8182	0.	-991.68
12606	19.387	4.9091	5.e-002	-4.252
12607	19.664	4.9091	0.	-929.35
12608	19.572	4.8182	0.	-949.88
12609	19.572	4.9091	5.e-002	-4.2383
12610	19.849	4.9091	0.	-887.8
12611	19.756	4.8182	0.	-908.27
12612	19.756	4.9091	5.e-002	-4.2252
12613	20.033	4.9091	0.	-846.44
12614	19.941	4.8182	0.	-866.85
12615	19.941	4.9091	5.e-002	-4.2127
12616	20.218	4.9091	0.	-805.26
12617	20.125	4.8182	0.	-825.61
12618	20.125	4.9091	5.e-002	-4.2009
12619	20.402	4.9091	0.	-764.25
12620	20.31	4.8182	0.	-784.55
12621	20.31	4.9091	5.e-002	-4.1898
12622	20.587	4.9091	0.	-723.42
12623	20.494	4.8182	0.	-743.67
12624	20.494	4.9091	5.e-002	-4.1795
12625	20.771	4.9091	0.	-682.77
12626	20.679	4.8182	0.	-702.97
12627	20.679	4.9091	5.e-002	-4.17
12628	20.956	4.9091	0.	-642.29
12629	20.863	4.8182	0.	-662.45
12630	20.863	4.9091	5.e-002	-4.1615
12631	21.14	4.9091	0.	-601.99
12632	21.048	4.8182	0.	-622.11
12633	21.048	4.9091	5.e-002	-4.1541
12634	21.325	4.9091	0.	-561.86
12635	21.232	4.8182	0.	-581.94
12636	21.232	4.9091	5.e-002	-4.1478
12637	21.509	4.9091	0.	-521.92
12638	21.417	4.8182	0.	-541.96
12639	21.417	4.9091	5.e-002	-4.1428
12640	21.694	4.9091	0.	-482.15
12641	21.601	4.8182	0.	-502.16
12642	21.601	4.9091	5.e-002	-4.1393
12643	21.878	4.9091	0.	-442.57
12644	21.786	4.8182	0.	-462.55
12645	21.786	4.9091	5.e-002	-4.1375
12646	22.063	4.9091	0.	-403.18
12647	21.97	4.8182	0.	-423.12
12648	21.97	4.9091	5.e-002	-4.1377
12649	22.247	4.9091	0.	-363.99
12650	22.155	4.8182	0.	-383.9
12651	22.155	4.9091	5.e-002	-4.1403
12652	22.432	4.9091	0.	-325.02
12653	22.339	4.8182	0.	-344.87
12654	22.339	4.9091	5.e-002	-4.1458
12655	22.616	4.9091	0.	-286.28
12656	22.524	4.8182	0.	-306.07
12657	22.524	4.9091	5.e-002	-4.1551
12658	22.801	4.9091	0.	-247.79
12659	22.708	4.8182	0.	-267.49
12660	22.708	4.9091	5.e-002	-4.1692
12661	22.985	4.9091	0.	-209.55
12662	22.893	4.8182	0.	-229.14
12663	22.893	4.9091	5.e-002	-4.1897
12664	23.17	4.9091	0.	-171.55
12665	23.077	4.8182	0.	-191.02
12666	23.077	4.9091	5.e-002	-4.2189
12667	23.354	4.9091	0.	-133.78
12668	23.262	4.8182	0.	-153.09
12669	23.262	4.9091	5.e-002	-4.2596
12670	23.539	4.9091	0.	-96.126
12671	23.446	4.8182	0.	-115.31
12672	23.446	4.9091	5.e-002	-4.3154
12673	23.723	4.9091	0.	-58.586
12674	23.631	4.8182	0.	-77.545
12675	23.631	4.9091	5.e-002	-4.3943
12676	23.815	4.8182	0.	-39.933
12677	23.815	4.9091	5.e-002	-4.5805
12678	23.908	4.9091	0.	-22.556
12679	3.2434	4.7273	0.	-4190.2
12680	3.1512	4.6364	0.	-4726.7
12681	3.1512	4.7273	5.e-002	-152.09
12682	3.0589	4.7273	0.	-3369.2
12683	3.4279	4.7273	0.	-4321.3
12684	3.3357	4.6364	0.	-4727.3
12685	3.3357	4.7273	5.e-002	-93.411
12686	3.6124	4.7273	0.	-4475.4
12687	3.5202	4.6364	0.	-4817.7
12688	3.5202	4.7273	5.e-002	-68.807
12689	3.7969	4.7273	0.	-4586.3
12690	3.7047	4.6364	0.	-4859.1
12691	3.7047	4.7273	5.e-002	-49.599
12692	3.9814	4.7273	0.	-4664.1
12693	3.8892	4.6364	0.	-4879.5
12694	3.8892	4.7273	5.e-002	-37.19
12695	4.1659	4.7273	0.	-4716.3
12696	4.0737	4.6364	0.	-4886.8
12697	4.0737	4.7273	5.e-002	-28.846
12698	4.3504	4.7273	0.	-4747.4
12699	4.2582	4.6364	0.	-4884.
12700	4.2582	4.7273	5.e-002	-23.008
12701	4.5349	4.7273	0.	-4760.9
12702	4.4427	4.6364	0.	-4872.
12703	4.4427	4.7273	5.e-002	-18.702
12704	4.7194	4.7273	0.	-4759.8
12705	4.6272	4.6364	0.	-4851.5
12706	4.6272	4.7273	5.e-002	-15.426
12707	4.9039	4.7273	0.	-4746.7
12708	4.8117	4.6364	0.	-4823.6
12709	4.8117	4.7273	5.e-002	-12.9
12710	5.0885	4.7273	0.	-4723.9
12711	4.9962	4.6364	0.	-4789.4
12712	4.9962	4.7273	5.e-002	-10.958
12713	5.273	4.7273	0.	-4693.3
12714	5.1807	4.6364	0.	-4750.
12715	5.1807	4.7273	5.e-002	-9.4826
12716	5.4575	4.7273	0.	-4656.7
12717	5.3652	4.6364	0.	-4706.5
12718	5.3652	4.7273	5.e-002	-8.3848
12719	5.642	4.7273	0.	-4615.3
12720	5.5497	4.6364	0.	-4659.7
12721	5.5497	4.7273	5.e-002	-7.5886
12722	5.8265	4.7273	0.	-4570.4
12723	5.7342	4.6364	0.	-4610.6
12724	5.7342	4.7273	5.e-002	-7.0263
12725	6.011	4.7273	0.	-4522.7
12726	5.9187	4.6364	0.	-4559.6
12727	5.9187	4.7273	5.e-002	-6.6387
12728	6.1955	4.7273	0.	-4473.
12729	6.1032	4.6364	0.	-4507.4
12730	6.1032	4.7273	5.e-002	-6.3761
12731	6.38	4.7273	0.	-4421.8
12732	6.2877	4.6364	0.	-4454.2
12733	6.2877	4.7273	5.e-002	-6.1991
12734	6.5645	4.7273	0.	-4369.5
12735	6.4722	4.6364	0.	-4400.4
12736	6.4722	4.7273	5.e-002	-6.0788
12737	6.749	4.7273	0.	-4316.6
12738	6.6567	4.6364	0.	-4346.2
12739	6.6567	4.7273	5.e-002	-5.9944
12740	6.9335	4.7273	0.	-4263.1
12741	6.8412	4.6364	0.	-4291.7
12742	6.8412	4.7273	5.e-002	-5.9322
12743	7.118	4.7273	0.	-4209.3
12744	7.0257	4.6364	0.	-4237.2
12745	7.0257	4.7273	5.e-002	-5.8831
12746	7.3025	4.7273	0.	-4155.3
12747	7.2102	4.6364	0.	-4182.6
12748	7.2102	4.7273	5.e-002	-5.8412
12749	7.487	4.7273	0.	-4101.2
12750	7.3947	4.6364	0.	-4128.1
12751	7.3947	4.7273	5.e-002	-5.8034
12752	7.6715	4.7273	0.	-4047.1
12753	7.5792	4.6364	0.	-4073.7
12754	7.5792	4.7273	5.e-002	-5.7674
12755	7.856	4.7273	0.	-3993.1
12756	7.7637	4.6364	0.	-4019.4
12757	7.7637	4.7273	5.e-002	-5.7323
12758	8.0405	4.7273	0.	-3939.2
12759	7.9482	4.6364	0.	-3965.2
12760	7.9482	4.7273	5.e-002	-5.6974
12761	8.225	4.7273	0.	-3885.4
12762	8.1327	4.6364	0.	-3911.3
12763	8.1327	4.7273	5.e-002	-5.6626
12764	8.4095	4.7273	0.	-3831.7
12765	8.3173	4.6364	0.	-3857.5
12766	8.3173	4.7273	5.e-002	-5.6277
12767	8.594	4.7273	0.	-3778.2
12768	8.5018	4.6364	0.	-3803.9
12769	8.5018	4.7273	5.e-002	-5.593
12770	8.7785	4.7273	0.	-3724.9
12771	8.6863	4.6364	0.	-3750.5
12772	8.6863	4.7273	5.e-002	-5.5586
12773	8.963	4.7273	0.	-3671.8
12774	8.8708	4.6364	0.	-3697.3
12775	8.8708	4.7273	5.e-002	-5.5244
12776	9.1475	4.7273	0.	-3618.8
12777	9.0553	4.6364	0.	-3644.3
12778	9.0553	4.7273	5.e-002	-5.4906
12779	9.332	4.7273	0.	-3566.1
12780	9.2398	4.6364	0.	-3591.4
12781	9.2398	4.7273	5.e-002	-5.4574
12782	9.5165	4.7273	0.	-3513.5
12783	9.4243	4.6364	0.	-3538.8
12784	9.4243	4.7273	5.e-002	-5.4247
12785	9.701	4.7273	0.	-3461.2
12786	9.6088	4.6364	0.	-3486.4
12787	9.6088	4.7273	5.e-002	-5.3926
12788	9.8855	4.7273	0.	-3409.
12789	9.7933	4.6364	0.	-3434.2
12790	9.7933	4.7273	5.e-002	-5.3611
12791	10.07	4.7273	0.	-3357.1
12792	9.9778	4.6364	0.	-3382.2
12793	9.9778	4.7273	5.e-002	-5.3304
12794	10.255	4.7273	0.	-3305.3
12795	10.162	4.6364	0.	-3330.3
12796	10.162	4.7273	5.e-002	-5.3003
12797	10.439	4.7273	0.	-3253.7
12798	10.347	4.6364	0.	-3278.7
12799	10.347	4.7273	5.e-002	-5.2708
12800	10.624	4.7273	0.	-3202.4
12801	10.531	4.6364	0.	-3227.3
12802	10.531	4.7273	5.e-002	-5.242
12803	10.808	4.7273	0.	-3151.2
12804	10.716	4.6364	0.	-3176.
12805	10.716	4.7273	5.e-002	-5.2138
12806	10.993	4.7273	0.	-3100.2
12807	10.9	4.6364	0.	-3125.
12808	10.9	4.7273	5.e-002	-5.1862
12809	11.177	4.7273	0.	-3049.5
12810	11.085	4.6364	0.	-3074.2
12811	11.085	4.7273	5.e-002	-5.1592
12812	11.362	4.7273	0.	-2998.9
12813	11.269	4.6364	0.	-3023.5
12814	11.269	4.7273	5.e-002	-5.1328
12815	11.546	4.7273	0.	-2948.5
12816	11.454	4.6364	0.	-2973.1
12817	11.454	4.7273	5.e-002	-5.1068
12818	11.731	4.7273	0.	-2898.4
12819	11.638	4.6364	0.	-2922.8
12820	11.638	4.7273	5.e-002	-5.0814
12821	11.915	4.7273	0.	-2848.4
12822	11.823	4.6364	0.	-2872.8
12823	11.823	4.7273	5.e-002	-5.0563
12824	12.1	4.7273	0.	-2798.6
12825	12.007	4.6364	0.	-2822.9
12826	12.007	4.7273	5.e-002	-5.0317
12827	12.284	4.7273	0.	-2749.
12828	12.192	4.6364	0.	-2773.2
12829	12.192	4.7273	5.e-002	-5.0075
12830	12.469	4.7273	0.	-2699.7
12831	12.376	4.6364	0.	-2723.8
12832	12.376	4.7273	5.e-002	-4.9837
12833	12.653	4.7273	0.	-2650.5
12834	12.561	4.6364	0.	-2674.5
12835	12.561	4.7273	5.e-002	-4.9602
12836	12.838	4.7273	0.	-2601.5
12837	12.745	4.6364	0.	-2625.5
12838	12.745	4.7273	5.e-002	-4.9371
12839	13.022	4.7273	0.	-2552.7
12840	12.93	4.6364	0.	-2576.6
12841	12.93	4.7273	5.e-002	-4.9143
12842	13.207	4.7273	0.	-2504.1
12843	13.114	4.6364	0.	-2527.9
12844	13.114	4.7273	5.e-002	-4.8917
12845	13.391	4.7273	0.	-2455.8
12846	13.299	4.6364	0.	-2479.4
12847	13.299	4.7273	5.e-002	-4.8694
12848	13.576	4.7273	0.	-2407.6
12849	13.483	4.6364	0.	-2431.2
12850	13.483	4.7273	5.e-002	-4.8474
12851	13.76	4.7273	0.	-2359.6
12852	13.668	4.6364	0.	-2383.1
12853	13.668	4.7273	5.e-002	-4.8256
12854	13.945	4.7273	0.	-2311.8
12855	13.852	4.6364	0.	-2335.2
12856	13.852	4.7273	5.e-002	-4.8041
12857	14.129	4.7273	0.	-2264.2
12858	14.037	4.6364	0.	-2287.5
12859	14.037	4.7273	5.e-002	-4.7827
12860	14.314	4.7273	0.	-2216.8
12861	14.221	4.6364	0.	-2240.
12862	14.221	4.7273	5.e-002	-4.7616
12863	14.498	4.7273	0.	-2169.6
12864	14.406	4.6364	0.	-2192.8
12865	14.406	4.7273	5.e-002	-4.7406
12866	14.683	4.7273	0.	-2122.7
12867	14.59	4.6364	0.	-2145.7
12868	14.59	4.7273	5.e-002	-4.7199
12869	14.867	4.7273	0.	-2075.9
12870	14.775	4.6364	0.	-2098.8
12871	14.775	4.7273	5.e-002	-4.6994
12872	15.052	4.7273	0.	-2029.3
12873	14.959	4.6364	0.	-2052.1
12874	14.959	4.7273	5.e-002	-4.679
12875	15.236	4.7273	0.	-1982.9
12876	15.144	4.6364	0.	-2005.6
12877	15.144	4.7273	5.e-002	-4.6588
12878	15.421	4.7273	0.	-1936.7
12879	15.328	4.6364	0.	-1959.3
12880	15.328	4.7273	5.e-002	-4.6387
12881	15.605	4.7273	0.	-1890.7
12882	15.513	4.6364	0.	-1913.2
12883	15.513	4.7273	5.e-002	-4.6189
12884	15.79	4.7273	0.	-1844.9
12885	15.697	4.6364	0.	-1867.3
12886	15.697	4.7273	5.e-002	-4.5992
12887	15.974	4.7273	0.	-1799.3
12888	15.882	4.6364	0.	-1821.6
12889	15.882	4.7273	5.e-002	-4.5797
12890	16.159	4.7273	0.	-1753.9
12891	16.066	4.6364	0.	-1776.1
12892	16.066	4.7273	5.e-002	-4.5604
12893	16.343	4.7273	0.	-1708.7
12894	16.251	4.6364	0.	-1730.9
12895	16.251	4.7273	5.e-002	-4.5412
12896	16.528	4.7273	0.	-1663.7
12897	16.435	4.6364	0.	-1685.8
12898	16.435	4.7273	5.e-002	-4.5222
12899	16.712	4.7273	0.	-1618.9
12900	16.62	4.6364	0.	-1640.9
12901	16.62	4.7273	5.e-002	-4.5035
12902	16.897	4.7273	0.	-1574.3
12903	16.804	4.6364	0.	-1596.2
12904	16.804	4.7273	5.e-002	-4.4849
12905	17.081	4.7273	0.	-1529.9
12906	16.989	4.6364	0.	-1551.7
12907	16.989	4.7273	5.e-002	-4.4665
12908	17.266	4.7273	0.	-1485.7
12909	17.173	4.6364	0.	-1507.4
12910	17.173	4.7273	5.e-002	-4.4484
12911	17.45	4.7273	0.	-1441.7
12912	17.358	4.6364	0.	-1463.3
12913	17.358	4.7273	5.e-002	-4.4304
12914	17.635	4.7273	0.	-1397.9
12915	17.542	4.6364	0.	-1419.4
12916	17.542	4.7273	5.e-002	-4.4128
12917	17.819	4.7273	0.	-1354.3
12918	17.727	4.6364	0.	-1375.7
12919	17.727	4.7273	5.e-002	-4.3953
12920	18.004	4.7273	0.	-1310.9
12921	17.911	4.6364	0.	-1332.2
12922	17.911	4.7273	5.e-002	-4.3782
12923	18.188	4.7273	0.	-1267.6
12924	18.096	4.6364	0.	-1288.9
12925	18.096	4.7273	5.e-002	-4.3614
12926	18.373	4.7273	0.	-1224.6
12927	18.28	4.6364	0.	-1245.7
12928	18.28	4.7273	5.e-002	-4.3448
12929	18.557	4.7273	0.	-1181.8
12930	18.465	4.6364	0.	-1202.8
12931	18.465	4.7273	5.e-002	-4.3286
12932	18.742	4.7273	0.	-1139.2
12933	18.649	4.6364	0.	-1160.1
12934	18.649	4.7273	5.e-002	-4.3128
12935	18.926	4.7273	0.	-1096.7
12936	18.834	4.6364	0.	-1117.6
12937	18.834	4.7273	5.e-002	-4.2974
12938	19.111	4.7273	0.	-1054.5
12939	19.018	4.6364	0.	-1075.3
12940	19.018	4.7273	5.e-002	-4.2824
12941	19.295	4.7273	0.	-1012.4
12942	19.203	4.6364	0.	-1033.1
12943	19.203	4.7273	5.e-002	-4.2678
12944	19.48	4.7273	0.	-970.53
12945	19.387	4.6364	0.	-991.17
12946	19.387	4.7273	5.e-002	-4.2538
12947	19.664	4.7273	0.	-928.85
12948	19.572	4.6364	0.	-949.42
12949	19.572	4.7273	5.e-002	-4.2403
12950	19.849	4.7273	0.	-887.36
12951	19.756	4.6364	0.	-907.86
12952	19.756	4.7273	5.e-002	-4.2274
12953	20.033	4.7273	0.	-846.06
12954	19.941	4.6364	0.	-866.5
12955	19.941	4.7273	5.e-002	-4.2151
12956	20.218	4.7273	0.	-804.94
12957	20.125	4.6364	0.	-825.32
12958	20.125	4.7273	5.e-002	-4.2036
12959	20.402	4.7273	0.	-764.01
12960	20.31	4.6364	0.	-784.33
12961	20.31	4.7273	5.e-002	-4.1928
12962	20.587	4.7273	0.	-723.26
12963	20.494	4.6364	0.	-743.52
12964	20.494	4.7273	5.e-002	-4.1828
12965	20.771	4.7273	0.	-682.7
12966	20.679	4.6364	0.	-702.91
12967	20.679	4.7273	5.e-002	-4.1738
12968	20.956	4.7273	0.	-642.31
12969	20.863	4.6364	0.	-662.48
12970	20.863	4.7273	5.e-002	-4.1658
12971	21.14	4.7273	0.	-602.11
12972	21.048	4.6364	0.	-622.23
12973	21.048	4.7273	5.e-002	-4.159
12974	21.325	4.7273	0.	-562.09
12975	21.232	4.6364	0.	-582.17
12976	21.232	4.7273	5.e-002	-4.1534
12977	21.509	4.7273	0.	-522.26
12978	21.417	4.6364	0.	-542.3
12979	21.417	4.7273	5.e-002	-4.1493
12980	21.694	4.7273	0.	-482.61
12981	21.601	4.6364	0.	-502.61
12982	21.601	4.7273	5.e-002	-4.1468
12983	21.878	4.7273	0.	-443.16
12984	21.786	4.6364	0.	-463.11
12985	21.786	4.7273	5.e-002	-4.1463
12986	22.063	4.7273	0.	-403.9
12987	21.97	4.6364	0.	-423.81
12988	21.97	4.7273	5.e-002	-4.148
12989	22.247	4.7273	0.	-364.83
12990	22.155	4.6364	0.	-384.69
12991	22.155	4.7273	5.e-002	-4.1523
12992	22.432	4.7273	0.	-325.98
12993	22.339	4.6364	0.	-345.78
12994	22.339	4.7273	5.e-002	-4.1599
12995	22.616	4.7273	0.	-287.33
12996	22.524	4.6364	0.	-307.06
12997	22.524	4.7273	5.e-002	-4.1715
12998	22.801	4.7273	0.	-248.89
12999	22.708	4.6364	0.	-268.54
13000	22.708	4.7273	5.e-002	-4.1881
13001	22.985	4.7273	0.	-210.65
13002	22.893	4.6364	0.	-230.21
13003	22.893	4.7273	5.e-002	-4.2112
13004	23.17	4.7273	0.	-172.59
13005	23.077	4.6364	0.	-192.03
13006	23.077	4.7273	5.e-002	-4.2425
13007	23.354	4.7273	0.	-134.64
13008	23.262	4.6364	0.	-153.98
13009	23.262	4.7273	5.e-002	-4.284
13010	23.539	4.7273	0.	-96.731
13011	23.446	4.6364	0.	-115.98
13012	23.446	4.7273	5.e-002	-4.3379
13013	23.723	4.7273	0.	-58.838
13014	23.631	4.6364	0.	-77.933
13015	23.631	4.7273	5.e-002	-4.4099
13016	23.815	4.6364	0.	-39.97
13017	23.815	4.7273	5.e-002	-4.5699
13018	23.908	4.7273	0.	-22.574
13019	3.2434	4.5455	0.	-5181.3
13020	3.1512	4.4545	0.	-6036.7
13021	3.1512	4.5455	5.e-002	-191.87
13022	3.0589	4.5455	0.	-4202.3
13023	3.4279	4.5455	0.	-5175.8
13024	3.3357	4.4545	0.	-5812.2
13025	3.3357	4.5455	5.e-002	-116.32
13026	3.6124	4.5455	0.	-5174.
13027	3.5202	4.4545	0.	-5662.5
13028	3.5202	4.5455	5.e-002	-69.61
13029	3.7969	4.5455	0.	-5136.2
13030	3.7047	4.4545	0.	-5507.3
13031	3.7047	4.5455	5.e-002	-49.139
13032	3.9814	4.5455	0.	-5092.9
13033	3.8892	4.4545	0.	-5376.9
13034	3.8892	4.5455	5.e-002	-36.963
13035	4.1659	4.5455	0.	-5049.1
13036	4.0737	4.4545	0.	-5269.7
13037	4.0737	4.5455	5.e-002	-29.521
13038	4.3504	4.5455	0.	-5005.5
13039	4.2582	4.4545	0.	-5179.4
13040	4.2582	4.5455	5.e-002	-24.218
13041	4.5349	4.5455	0.	-4960.8
13042	4.4427	4.4545	0.	-5100.
13043	4.4427	4.5455	5.e-002	-20.22
13044	4.7194	4.5455	0.	-4914.2
13045	4.6272	4.4545	0.	-5027.4
13046	4.6272	4.5455	5.e-002	-17.087
13047	4.9039	4.5455	0.	-4865.7
13048	4.8117	4.4545	0.	-4958.9
13049	4.8117	4.5455	5.e-002	-14.6
13050	5.0885	4.5455	0.	-4815.1
13051	4.9962	4.4545	0.	-4893.2
13052	4.9962	4.5455	5.e-002	-12.621
13053	5.273	4.5455	0.	-4763.
13054	5.1807	4.4545	0.	-4829.2
13055	5.1807	4.5455	5.e-002	-11.052
13056	5.4575	4.5455	0.	-4709.5
13057	5.3652	4.4545	0.	-4766.6
13058	5.3652	4.5455	5.e-002	-9.8205
13059	5.642	4.5455	0.	-4655.
13060	5.5497	4.4545	0.	-4705.
13061	5.5497	4.5455	5.e-002	-8.8636
13062	5.8265	4.5455	0.	-4599.9
13063	5.7342	4.4545	0.	-4644.4
13064	5.7342	4.5455	5.e-002	-8.1285
13065	6.011	4.5455	0.	-4544.3
13066	5.9187	4.4545	0.	-4584.6
13067	5.9187	4.5455	5.e-002	-7.5694
13068	6.1955	4.5455	0.	-4488.6
13069	6.1032	4.4545	0.	-4525.5
13070	6.1032	4.5455	5.e-002	-7.1467
13071	6.38	4.5455	0.	-4432.8
13072	6.2877	4.4545	0.	-4467.1
13073	6.2877	4.5455	5.e-002	-6.8275
13074	6.5645	4.5455	0.	-4377.
13075	6.4722	4.4545	0.	-4409.3
13076	6.4722	4.5455	5.e-002	-6.5853
13077	6.749	4.5455	0.	-4321.4
13078	6.6567	4.4545	0.	-4352.1
13079	6.6567	4.5455	5.e-002	-6.3995
13080	6.9335	4.5455	0.	-4265.9
13081	6.8412	4.4545	0.	-4295.4
13082	6.8412	4.5455	5.e-002	-6.2543
13083	7.118	4.5455	0.	-4210.6
13084	7.0257	4.4545	0.	-4239.1
13085	7.0257	4.5455	5.e-002	-6.1382
13086	7.3025	4.5455	0.	-4155.5
13087	7.2102	4.4545	0.	-4183.3
13088	7.2102	4.5455	5.e-002	-6.0429
13089	7.487	4.5455	0.	-4100.6
13090	7.3947	4.4545	0.	-4127.9
13091	7.3947	4.5455	5.e-002	-5.9627
13092	7.6715	4.5455	0.	-4046.
13093	7.5792	4.4545	0.	-4072.8
13094	7.5792	4.5455	5.e-002	-5.8933
13095	7.856	4.5455	0.	-3991.6
13096	7.7637	4.4545	0.	-4018.1
13097	7.7637	4.5455	5.e-002	-5.8318
13098	8.0405	4.5455	0.	-3937.4
13099	7.9482	4.4545	0.	-3963.6
13100	7.9482	4.5455	5.e-002	-5.7762
13101	8.225	4.5455	0.	-3883.4
13102	8.1327	4.4545	0.	-3909.5
13103	8.1327	4.5455	5.e-002	-5.7251
13104	8.4095	4.5455	0.	-3829.7
13105	8.3173	4.4545	0.	-3855.6
13106	8.3173	4.5455	5.e-002	-5.6775
13107	8.594	4.5455	0.	-3776.2
13108	8.5018	4.4545	0.	-3801.9
13109	8.5018	4.5455	5.e-002	-5.6328
13110	8.7785	4.5455	0.	-3722.8
13111	8.6863	4.4545	0.	-3748.5
13112	8.6863	4.5455	5.e-002	-5.5905
13113	8.963	4.5455	0.	-3669.8
13114	8.8708	4.4545	0.	-3695.3
13115	8.8708	4.5455	5.e-002	-5.5501
13116	9.1475	4.5455	0.	-3616.9
13117	9.0553	4.4545	0.	-3642.3
13118	9.0553	4.5455	5.e-002	-5.5115
13119	9.332	4.5455	0.	-3564.2
13120	9.2398	4.4545	0.	-3589.6
13121	9.2398	4.5455	5.e-002	-5.4744
13122	9.5165	4.5455	0.	-3511.7
13123	9.4243	4.4545	0.	-3537.
13124	9.4243	4.5455	5.e-002	-5.4386
13125	9.701	4.5455	0.	-3459.4
13126	9.6088	4.4545	0.	-3484.7
13127	9.6088	4.5455	5.e-002	-5.4041
13128	9.8855	4.5455	0.	-3407.3
13129	9.7933	4.4545	0.	-3432.5
13130	9.7933	4.5455	5.e-002	-5.3708
13131	10.07	4.5455	0.	-3355.4
13132	9.9778	4.4545	0.	-3380.6
13133	9.9778	4.5455	5.e-002	-5.3385
13134	10.255	4.5455	0.	-3303.7
13135	10.162	4.4545	0.	-3328.8
13136	10.162	4.5455	5.e-002	-5.3072
13137	10.439	4.5455	0.	-3252.2
13138	10.347	4.4545	0.	-3277.2
13139	10.347	4.5455	5.e-002	-5.2768
13140	10.624	4.5455	0.	-3200.9
13141	10.531	4.4545	0.	-3225.9
13142	10.531	4.5455	5.e-002	-5.2472
13143	10.808	4.5455	0.	-3149.8
13144	10.716	4.4545	0.	-3174.7
13145	10.716	4.5455	5.e-002	-5.2183
13146	10.993	4.5455	0.	-3098.9
13147	10.9	4.4545	0.	-3123.7
13148	10.9	4.5455	5.e-002	-5.1901
13149	11.177	4.5455	0.	-3048.2
13150	11.085	4.4545	0.	-3072.9
13151	11.085	4.5455	5.e-002	-5.1627
13152	11.362	4.5455	0.	-2997.7
13153	11.269	4.4545	0.	-3022.3
13154	11.269	4.5455	5.e-002	-5.1359
13155	11.546	4.5455	0.	-2947.4
13156	11.454	4.4545	0.	-2971.9
13157	11.454	4.5455	5.e-002	-5.1096
13158	11.731	4.5455	0.	-2897.2
13159	11.638	4.4545	0.	-2921.7
13160	11.638	4.5455	5.e-002	-5.0839
13161	11.915	4.5455	0.	-2847.3
13162	11.823	4.4545	0.	-2871.7
13163	11.823	4.5455	5.e-002	-5.0586
13164	12.1	4.5455	0.	-2797.6
13165	12.007	4.4545	0.	-2821.9
13166	12.007	4.5455	5.e-002	-5.0338
13167	12.284	4.5455	0.	-2748.
13168	12.192	4.4545	0.	-2772.2
13169	12.192	4.5455	5.e-002	-5.0095
13170	12.469	4.5455	0.	-2698.7
13171	12.376	4.4545	0.	-2722.8
13172	12.376	4.5455	5.e-002	-4.9854
13173	12.653	4.5455	0.	-2649.5
13174	12.561	4.4545	0.	-2673.6
13175	12.561	4.5455	5.e-002	-4.9619
13176	12.838	4.5455	0.	-2600.5
13177	12.745	4.4545	0.	-2624.5
13178	12.745	4.5455	5.e-002	-4.9386
13179	13.022	4.5455	0.	-2551.8
13180	12.93	4.4545	0.	-2575.7
13181	12.93	4.5455	5.e-002	-4.9156
13182	13.207	4.5455	0.	-2503.2
13183	13.114	4.4545	0.	-2527.
13184	13.114	4.5455	5.e-002	-4.893
13185	13.391	4.5455	0.	-2454.9
13186	13.299	4.4545	0.	-2478.6
13187	13.299	4.5455	5.e-002	-4.8706
13188	13.576	4.5455	0.	-2406.7
13189	13.483	4.4545	0.	-2430.3
13190	13.483	4.5455	5.e-002	-4.8485
13191	13.76	4.5455	0.	-2358.7
13192	13.668	4.4545	0.	-2382.2
13193	13.668	4.5455	5.e-002	-4.8267
13194	13.945	4.5455	0.	-2310.9
13195	13.852	4.4545	0.	-2334.4
13196	13.852	4.5455	5.e-002	-4.805
13197	14.129	4.5455	0.	-2263.4
13198	14.037	4.4545	0.	-2286.7
13199	14.037	4.5455	5.e-002	-4.7837
13200	14.314	4.5455	0.	-2216.
13201	14.221	4.4545	0.	-2239.2
13202	14.221	4.5455	5.e-002	-4.7624
13203	14.498	4.5455	0.	-2168.8
13204	14.406	4.4545	0.	-2192.
13205	14.406	4.5455	5.e-002	-4.7415
13206	14.683	4.5455	0.	-2121.8
13207	14.59	4.4545	0.	-2144.9
13208	14.59	4.5455	5.e-002	-4.7207
13209	14.867	4.5455	0.	-2075.
13210	14.775	4.4545	0.	-2098.
13211	14.775	4.5455	5.e-002	-4.7001
13212	15.052	4.5455	0.	-2028.5
13213	14.959	4.4545	0.	-2051.3
13214	14.959	4.5455	5.e-002	-4.6797
13215	15.236	4.5455	0.	-1982.1
13216	15.144	4.4545	0.	-2004.8
13217	15.144	4.5455	5.e-002	-4.6595
13218	15.421	4.5455	0.	-1935.9
13219	15.328	4.4545	0.	-1958.6
13220	15.328	4.5455	5.e-002	-4.6394
13221	15.605	4.5455	0.	-1889.9
13222	15.513	4.4545	0.	-1912.5
13223	15.513	4.5455	5.e-002	-4.6195
13224	15.79	4.5455	0.	-1844.1
13225	15.697	4.4545	0.	-1866.6
13226	15.697	4.5455	5.e-002	-4.5998
13227	15.974	4.5455	0.	-1798.5
13228	15.882	4.4545	0.	-1820.9
13229	15.882	4.5455	5.e-002	-4.5803
13230	16.159	4.5455	0.	-1753.1
13231	16.066	4.4545	0.	-1775.4
13232	16.066	4.5455	5.e-002	-4.561
13233	16.343	4.5455	0.	-1707.9
13234	16.251	4.4545	0.	-1730.1
13235	16.251	4.5455	5.e-002	-4.5419
13236	16.528	4.5455	0.	-1662.9
13237	16.435	4.4545	0.	-1685.
13238	16.435	4.5455	5.e-002	-4.5229
13239	16.712	4.5455	0.	-1618.2
13240	16.62	4.4545	0.	-1640.1
13241	16.62	4.5455	5.e-002	-4.5041
13242	16.897	4.5455	0.	-1573.6
13243	16.804	4.4545	0.	-1595.5
13244	16.804	4.5455	5.e-002	-4.4855
13245	17.081	4.5455	0.	-1529.2
13246	16.989	4.4545	0.	-1551.
13247	16.989	4.5455	5.e-002	-4.4672
13248	17.266	4.5455	0.	-1485.
13249	17.173	4.4545	0.	-1506.7
13250	17.173	4.5455	5.e-002	-4.4491
13251	17.45	4.5455	0.	-1441.
13252	17.358	4.4545	0.	-1462.6
13253	17.358	4.5455	5.e-002	-4.4312
13254	17.635	4.5455	0.	-1397.2
13255	17.542	4.4545	0.	-1418.7
13256	17.542	4.5455	5.e-002	-4.4135
13257	17.819	4.5455	0.	-1353.6
13258	17.727	4.4545	0.	-1375.
13259	17.727	4.5455	5.e-002	-4.3961
13260	18.004	4.5455	0.	-1310.2
13261	17.911	4.4545	0.	-1331.5
13262	17.911	4.5455	5.e-002	-4.3791
13263	18.188	4.5455	0.	-1267.
13264	18.096	4.4545	0.	-1288.2
13265	18.096	4.5455	5.e-002	-4.3623
13266	18.373	4.5455	0.	-1224.
13267	18.28	4.4545	0.	-1245.1
13268	18.28	4.5455	5.e-002	-4.3458
13269	18.557	4.5455	0.	-1181.2
13270	18.465	4.4545	0.	-1202.3
13271	18.465	4.5455	5.e-002	-4.3297
13272	18.742	4.5455	0.	-1138.6
13273	18.649	4.4545	0.	-1159.6
13274	18.649	4.5455	5.e-002	-4.314
13275	18.926	4.5455	0.	-1096.2
13276	18.834	4.4545	0.	-1117.1
13277	18.834	4.5455	5.e-002	-4.2986
13278	19.111	4.5455	0.	-1053.9
13279	19.018	4.4545	0.	-1074.8
13280	19.018	4.5455	5.e-002	-4.2837
13281	19.295	4.5455	0.	-1011.9
13282	19.203	4.4545	0.	-1032.7
13283	19.203	4.5455	5.e-002	-4.2693
13284	19.48	4.5455	0.	-970.11
13285	19.387	4.4545	0.	-990.77
13286	19.387	4.5455	5.e-002	-4.2554
13287	19.664	4.5455	0.	-928.48
13288	19.572	4.4545	0.	-949.07
13289	19.572	4.5455	5.e-002	-4.2421
13290	19.849	4.5455	0.	-887.04
13291	19.756	4.4545	0.	-907.56
13292	19.756	4.5455	5.e-002	-4.2294
13293	20.033	4.5455	0.	-845.8
13294	19.941	4.4545	0.	-866.25
13295	19.941	4.5455	5.e-002	-4.2173
13296	20.218	4.5455	0.	-804.75
13297	20.125	4.4545	0.	-825.13
13298	20.125	4.5455	5.e-002	-4.206
13299	20.402	4.5455	0.	-763.88
13300	20.31	4.4545	0.	-784.21
13301	20.31	4.5455	5.e-002	-4.1955
13302	20.587	4.5455	0.	-723.21
13303	20.494	4.4545	0.	-743.48
13304	20.494	4.5455	5.e-002	-4.1859
13305	20.771	4.5455	0.	-682.73
13306	20.679	4.4545	0.	-702.94
13307	20.679	4.5455	5.e-002	-4.1773
13308	20.956	4.5455	0.	-642.44
13309	20.863	4.4545	0.	-662.6
13310	20.863	4.5455	5.e-002	-4.1698
13311	21.14	4.5455	0.	-602.34
13312	21.048	4.4545	0.	-622.44
13313	21.048	4.5455	5.e-002	-4.1636
13314	21.325	4.5455	0.	-562.42
13315	21.232	4.4545	0.	-582.48
13316	21.232	4.5455	5.e-002	-4.1587
13317	21.509	4.5455	0.	-522.69
13318	21.417	4.4545	0.	-542.7
13319	21.417	4.5455	5.e-002	-4.1554
13320	21.694	4.5455	0.	-483.16
13321	21.601	4.4545	0.	-503.12
13322	21.601	4.5455	5.e-002	-4.154
13323	21.878	4.5455	0.	-443.81
13324	21.786	4.4545	0.	-463.72
13325	21.786	4.5455	5.e-002	-4.1546
13326	22.063	4.5455	0.	-404.65
13327	21.97	4.4545	0.	-424.51
13328	21.97	4.5455	5.e-002	-4.1576
13329	22.247	4.5455	0.	-365.69
13330	22.155	4.4545	0.	-385.49
13331	22.155	4.5455	5.e-002	-4.1635
13332	22.432	4.5455	0.	-326.91
13333	22.339	4.4545	0.	-346.65
13334	22.339	4.5455	5.e-002	-4.1728
13335	22.616	4.5455	0.	-288.31
13336	22.524	4.4545	0.	-307.99
13337	22.524	4.5455	5.e-002	-4.1864
13338	22.801	4.5455	0.	-249.89
13339	22.708	4.4545	0.	-269.49
13340	22.708	4.5455	5.e-002	-4.205
13341	22.985	4.5455	0.	-211.62
13342	22.893	4.4545	0.	-231.14
13343	22.893	4.5455	5.e-002	-4.2299
13344	23.17	4.5455	0.	-173.45
13345	23.077	4.4545	0.	-192.89
13346	23.077	4.5455	5.e-002	-4.2623
13347	23.354	4.5455	0.	-135.34
13348	23.262	4.4545	0.	-154.7
13349	23.262	4.5455	5.e-002	-4.3037
13350	23.539	4.5455	0.	-97.187
13351	23.446	4.4545	0.	-116.51
13352	23.446	4.5455	5.e-002	-4.3554
13353	23.723	4.5455	0.	-59.004
13354	23.631	4.4545	0.	-78.213
13355	23.631	4.5455	5.e-002	-4.4213
13356	23.815	4.4545	0.	-39.971
13357	23.815	4.5455	5.e-002	-4.5587
13358	23.908	4.5455	0.	-22.566
13359	3.2434	4.3636	0.	-6547.
13360	3.1512	4.2727	0.	-8315.1
13361	3.1512	4.3636	5.e-002	-293.06
13362	3.0589	4.3636	0.	-5394.7
13363	3.4279	4.3636	0.	-6257.2
13364	3.3357	4.2727	0.	-7215.1
13365	3.3357	4.3636	5.e-002	-116.3
13366	3.6124	4.3636	0.	-5973.3
13367	3.5202	4.2727	0.	-6618.6
13368	3.5202	4.3636	5.e-002	-72.602
13369	3.7969	4.3636	0.	-5734.9
13370	3.7047	4.2727	0.	-6200.3
13371	3.7047	4.3636	5.e-002	-51.878
13372	3.9814	4.3636	0.	-5546.
13373	3.8892	4.2727	0.	-5893.4
13374	3.8892	4.3636	5.e-002	-40.074
13375	4.1659	4.3636	0.	-5395.3
13376	4.0737	4.2727	0.	-5661.1
13377	4.0737	4.3636	5.e-002	-32.667
13378	4.3504	4.3636	0.	-5271.2
13379	4.2582	4.2727	0.	-5478.5
13380	4.2582	4.3636	5.e-002	-27.104
13381	4.5349	4.3636	0.	-5165.
13382	4.4427	4.2727	0.	-5329.4
13383	4.4427	4.3636	5.e-002	-22.803
13384	4.7194	4.3636	0.	-5071.1
13385	4.6272	4.2727	0.	-5203.4
13386	4.6272	4.3636	5.e-002	-19.392
13387	4.9039	4.3636	0.	-4985.9
13388	4.8117	4.2727	0.	-5093.8
13389	4.8117	4.3636	5.e-002	-16.652
13390	5.0885	4.3636	0.	-4907.
13391	4.9962	4.2727	0.	-4996.1
13392	4.9962	4.3636	5.e-002	-14.439
13393	5.273	4.3636	0.	-4832.7
13394	5.1807	4.2727	0.	-4907.5
13395	5.1807	4.3636	5.e-002	-12.651
13396	5.4575	4.3636	0.	-4762.1
13397	5.3652	4.2727	0.	-4825.8
13398	5.3652	4.3636	5.e-002	-11.212
13399	5.642	4.3636	0.	-4694.4
13400	5.5497	4.2727	0.	-4749.4
13401	5.5497	4.3636	5.e-002	-10.06
13402	5.8265	4.3636	0.	-4629.1
13403	5.7342	4.2727	0.	-4677.4
13404	5.7342	4.3636	5.e-002	-9.1435
13405	6.011	4.3636	0.	-4565.7
13406	5.9187	4.2727	0.	-4608.8
13407	5.9187	4.3636	5.e-002	-8.4193
13408	6.1955	4.3636	0.	-4504.
13409	6.1032	4.2727	0.	-4543.
13410	6.1032	4.3636	5.e-002	-7.8496
13411	6.38	4.3636	0.	-4443.6
13412	6.2877	4.2727	0.	-4479.5
13413	6.2877	4.3636	5.e-002	-7.4026
13414	6.5645	4.3636	0.	-4384.3
13415	6.4722	4.2727	0.	-4417.9
13416	6.4722	4.3636	5.e-002	-7.0516
13417	6.749	4.3636	0.	-4326.1
13418	6.6567	4.2727	0.	-4357.7
13419	6.6567	4.3636	5.e-002	-6.7747
13420	6.9335	4.3636	0.	-4268.6
13421	6.8412	4.2727	0.	-4298.8
13422	6.8412	4.3636	5.e-002	-6.5546
13423	7.118	4.3636	0.	-4211.9
13424	7.0257	4.2727	0.	-4241.
13425	7.0257	4.3636	5.e-002	-6.3776
13426	7.3025	4.3636	0.	-4155.7
13427	7.2102	4.2727	0.	-4184.
13428	7.2102	4.3636	5.e-002	-6.2333
13429	7.487	4.3636	0.	-4100.1
13430	7.3947	4.2727	0.	-4127.7
13431	7.3947	4.3636	5.e-002	-6.1138
13432	7.6715	4.3636	0.	-4044.9
13433	7.5792	4.2727	0.	-4072.
13434	7.5792	4.3636	5.e-002	-6.0132
13435	7.856	4.3636	0.	-3990.1
13436	7.7637	4.2727	0.	-4016.8
13437	7.7637	4.3636	5.e-002	-5.9269
13438	8.0405	4.3636	0.	-3935.7
13439	7.9482	4.2727	0.	-3962.1
13440	7.9482	4.3636	5.e-002	-5.8517
13441	8.225	4.3636	0.	-3881.6
13442	8.1327	4.2727	0.	-3907.8
13443	8.1327	4.3636	5.e-002	-5.7851
13444	8.4095	4.3636	0.	-3827.8
13445	8.3173	4.2727	0.	-3853.8
13446	8.3173	4.3636	5.e-002	-5.7254
13447	8.594	4.3636	0.	-3774.2
13448	8.5018	4.2727	0.	-3800.1
13449	8.5018	4.3636	5.e-002	-5.6711
13450	8.7785	4.3636	0.	-3720.9
13451	8.6863	4.2727	0.	-3746.7
13452	8.6863	4.3636	5.e-002	-5.6211
13453	8.963	4.3636	0.	-3667.9
13454	8.8708	4.2727	0.	-3693.5
13455	8.8708	4.3636	5.e-002	-5.5748
13456	9.1475	4.3636	0.	-3615.
13457	9.0553	4.2727	0.	-3640.6
13458	9.0553	4.3636	5.e-002	-5.5314
13459	9.332	4.3636	0.	-3562.4
13460	9.2398	4.2727	0.	-3587.8
13461	9.2398	4.3636	5.e-002	-5.4906
13462	9.5165	4.3636	0.	-3510.
13463	9.4243	4.2727	0.	-3535.4
13464	9.4243	4.3636	5.e-002	-5.4519
13465	9.701	4.3636	0.	-3457.8
13466	9.6088	4.2727	0.	-3483.1
13467	9.6088	4.3636	5.e-002	-5.4151
13468	9.8855	4.3636	0.	-3405.8
13469	9.7933	4.2727	0.	-3431.
13470	9.7933	4.3636	5.e-002	-5.3799
13471	10.07	4.3636	0.	-3353.9
13472	9.9778	4.2727	0.	-3379.1
13473	9.9778	4.3636	5.e-002	-5.3461
13474	10.255	4.3636	0.	-3302.3
13475	10.162	4.2727	0.	-3327.4
13476	10.162	4.3636	5.e-002	-5.3137
13477	10.439	4.3636	0.	-3250.9
13478	10.347	4.2727	0.	-3275.9
13479	10.347	4.3636	5.e-002	-5.2823
13480	10.624	4.3636	0.	-3199.6
13481	10.531	4.2727	0.	-3224.6
13482	10.531	4.3636	5.e-002	-5.2519
13483	10.808	4.3636	0.	-3148.6
13484	10.716	4.2727	0.	-3173.5
13485	10.716	4.3636	5.e-002	-5.2224
13486	10.993	4.3636	0.	-3097.7
13487	10.9	4.2727	0.	-3122.6
13488	10.9	4.3636	5.e-002	-5.1938
13489	11.177	4.3636	0.	-3047.1
13490	11.085	4.2727	0.	-3071.8
13491	11.085	4.3636	5.e-002	-5.1659
13492	11.362	4.3636	0.	-2996.6
13493	11.269	4.2727	0.	-3021.3
13494	11.269	4.3636	5.e-002	-5.1387
13495	11.546	4.3636	0.	-2946.3
13496	11.454	4.2727	0.	-2970.9
13497	11.454	4.3636	5.e-002	-5.1121
13498	11.731	4.3636	0.	-2896.2
13499	11.638	4.2727	0.	-2920.7
13500	11.638	4.3636	5.e-002	-5.0862
13501	11.915	4.3636	0.	-2846.3
13502	11.823	4.2727	0.	-2870.7
13503	11.823	4.3636	5.e-002	-5.0607
13504	12.1	4.3636	0.	-2796.6
13505	12.007	4.2727	0.	-2821.
13506	12.007	4.3636	5.e-002	-5.0357
13507	12.284	4.3636	0.	-2747.1
13508	12.192	4.2727	0.	-2771.4
13509	12.192	4.3636	5.e-002	-5.0111
13510	12.469	4.3636	0.	-2697.8
13511	12.376	4.2727	0.	-2721.9
13512	12.376	4.3636	5.e-002	-4.987
13513	12.653	4.3636	0.	-2648.6
13514	12.561	4.2727	0.	-2672.7
13515	12.561	4.3636	5.e-002	-4.9633
13516	12.838	4.3636	0.	-2599.7
13517	12.745	4.2727	0.	-2623.7
13518	12.745	4.3636	5.e-002	-4.9399
13519	13.022	4.3636	0.	-2550.9
13520	12.93	4.2727	0.	-2574.9
13521	12.93	4.3636	5.e-002	-4.9169
13522	13.207	4.3636	0.	-2502.4
13523	13.114	4.2727	0.	-2526.2
13524	13.114	4.3636	5.e-002	-4.8941
13525	13.391	4.3636	0.	-2454.
13526	13.299	4.2727	0.	-2477.8
13527	13.299	4.3636	5.e-002	-4.8717
13528	13.576	4.3636	0.	-2405.9
13529	13.483	4.2727	0.	-2429.6
13530	13.483	4.3636	5.e-002	-4.8495
13531	13.76	4.3636	0.	-2357.9
13532	13.668	4.2727	0.	-2381.5
13533	13.668	4.3636	5.e-002	-4.8276
13534	13.945	4.3636	0.	-2310.2
13535	13.852	4.2727	0.	-2333.6
13536	13.852	4.3636	5.e-002	-4.8059
13537	14.129	4.3636	0.	-2262.6
13538	14.037	4.2727	0.	-2286.
13539	14.037	4.3636	5.e-002	-4.7845
13540	14.314	4.3636	0.	-2215.2
13541	14.221	4.2727	0.	-2238.5
13542	14.221	4.3636	5.e-002	-4.7632
13543	14.498	4.3636	0.	-2168.1
13544	14.406	4.2727	0.	-2191.3
13545	14.406	4.3636	5.e-002	-4.7422
13546	14.683	4.3636	0.	-2121.1
13547	14.59	4.2727	0.	-2144.2
13548	14.59	4.3636	5.e-002	-4.7214
13549	14.867	4.3636	0.	-2074.3
13550	14.775	4.2727	0.	-2097.3
13551	14.775	4.3636	5.e-002	-4.7007
13552	15.052	4.3636	0.	-2027.7
13553	14.959	4.2727	0.	-2050.6
13554	14.959	4.3636	5.e-002	-4.6803
13555	15.236	4.3636	0.	-1981.4
13556	15.144	4.2727	0.	-2004.2
13557	15.144	4.3636	5.e-002	-4.6601
13558	15.421	4.3636	0.	-1935.2
13559	15.328	4.2727	0.	-1957.9
13560	15.328	4.3636	5.e-002	-4.64
13561	15.605	4.3636	0.	-1889.2
13562	15.513	4.2727	0.	-1911.8
13563	15.513	4.3636	5.e-002	-4.6201
13564	15.79	4.3636	0.	-1843.4
13565	15.697	4.2727	0.	-1865.9
13566	15.697	4.3636	5.e-002	-4.6004
13567	15.974	4.3636	0.	-1797.8
13568	15.882	4.2727	0.	-1820.2
13569	15.882	4.3636	5.e-002	-4.5809
13570	16.159	4.3636	0.	-1752.4
13571	16.066	4.2727	0.	-1774.8
13572	16.066	4.3636	5.e-002	-4.5616
13573	16.343	4.3636	0.	-1707.3
13574	16.251	4.2727	0.	-1729.5
13575	16.251	4.3636	5.e-002	-4.5424
13576	16.528	4.3636	0.	-1662.3
13577	16.435	4.2727	0.	-1684.4
13578	16.435	4.3636	5.e-002	-4.5234
13579	16.712	4.3636	0.	-1617.5
13580	16.62	4.2727	0.	-1639.5
13581	16.62	4.3636	5.e-002	-4.5047
13582	16.897	4.3636	0.	-1572.9
13583	16.804	4.2727	0.	-1594.8
13584	16.804	4.3636	5.e-002	-4.4861
13585	17.081	4.3636	0.	-1528.5
13586	16.989	4.2727	0.	-1550.4
13587	16.989	4.3636	5.e-002	-4.4678
13588	17.266	4.3636	0.	-1484.3
13589	17.173	4.2727	0.	-1506.1
13590	17.173	4.3636	5.e-002	-4.4497
13591	17.45	4.3636	0.	-1440.4
13592	17.358	4.2727	0.	-1462.
13593	17.358	4.3636	5.e-002	-4.4318
13594	17.635	4.3636	0.	-1396.6
13595	17.542	4.2727	0.	-1418.1
13596	17.542	4.3636	5.e-002	-4.4142
13597	17.819	4.3636	0.	-1353.
13598	17.727	4.2727	0.	-1374.5
13599	17.727	4.3636	5.e-002	-4.3969
13600	18.004	4.3636	0.	-1309.6
13601	17.911	4.2727	0.	-1331.
13602	17.911	4.3636	5.e-002	-4.3798
13603	18.188	4.3636	0.	-1266.4
13604	18.096	4.2727	0.	-1287.7
13605	18.096	4.3636	5.e-002	-4.3631
13606	18.373	4.3636	0.	-1223.5
13607	18.28	4.2727	0.	-1244.6
13608	18.28	4.3636	5.e-002	-4.3467
13609	18.557	4.3636	0.	-1180.7
13610	18.465	4.2727	0.	-1201.8
13611	18.465	4.3636	5.e-002	-4.3306
13612	18.742	4.3636	0.	-1138.1
13613	18.649	4.2727	0.	-1159.1
13614	18.649	4.3636	5.e-002	-4.3149
13615	18.926	4.3636	0.	-1095.7
13616	18.834	4.2727	0.	-1116.6
13617	18.834	4.3636	5.e-002	-4.2997
13618	19.111	4.3636	0.	-1053.5
13619	19.018	4.2727	0.	-1074.4
13620	19.018	4.3636	5.e-002	-4.2849
13621	19.295	4.3636	0.	-1011.6
13622	19.203	4.2727	0.	-1032.3
13623	19.203	4.3636	5.e-002	-4.2706
13624	19.48	4.3636	0.	-969.78
13625	19.387	4.2727	0.	-990.46
13626	19.387	4.3636	5.e-002	-4.2568
13627	19.664	4.3636	0.	-928.2
13628	19.572	4.2727	0.	-948.8
13629	19.572	4.3636	5.e-002	-4.2436
13630	19.849	4.3636	0.	-886.81
13631	19.756	4.2727	0.	-907.34
13632	19.756	4.3636	5.e-002	-4.2311
13633	20.033	4.3636	0.	-845.63
13634	19.941	4.2727	0.	-866.09
13635	19.941	4.3636	5.e-002	-4.2193
13636	20.218	4.3636	0.	-804.64
13637	20.125	4.2727	0.	-825.03
13638	20.125	4.3636	5.e-002	-4.2082
13639	20.402	4.3636	0.	-763.85
13640	20.31	4.2727	0.	-784.17
13641	20.31	4.3636	5.e-002	-4.198
13642	20.587	4.3636	0.	-723.25
13643	20.494	4.2727	0.	-743.51
13644	20.494	4.3636	5.e-002	-4.1887
13645	20.771	4.3636	0.	-682.85
13646	20.679	4.2727	0.	-703.04
13647	20.679	4.3636	5.e-002	-4.1805
13648	20.956	4.3636	0.	-642.64
13649	20.863	4.2727	0.	-662.77
13650	20.863	4.3636	5.e-002	-4.1735
13651	21.14	4.3636	0.	-602.62
13652	21.048	4.2727	0.	-622.7
13653	21.048	4.3636	5.e-002	-4.1678
13654	21.325	4.3636	0.	-562.8
13655	21.232	4.2727	0.	-582.82
13656	21.232	4.3636	5.e-002	-4.1636
13657	21.509	4.3636	0.	-523.17
13658	21.417	4.2727	0.	-543.14
13659	21.417	4.3636	5.e-002	-4.1611
13660	21.694	4.3636	0.	-483.73
13661	21.601	4.2727	0.	-503.64
13662	21.601	4.3636	5.e-002	-4.1605
13663	21.878	4.3636	0.	-444.47
13664	21.786	4.2727	0.	-464.33
13665	21.786	4.3636	5.e-002	-4.1622
13666	22.063	4.3636	0.	-405.39
13667	21.97	4.2727	0.	-425.2
13668	21.97	4.3636	5.e-002	-4.1664
13669	22.247	4.3636	0.	-366.5
13670	22.155	4.2727	0.	-386.25
13671	22.155	4.3636	5.e-002	-4.1737
13672	22.432	4.3636	0.	-327.77
13673	22.339	4.2727	0.	-347.46
13674	22.339	4.3636	5.e-002	-4.1846
13675	22.616	4.3636	0.	-289.2
13676	22.524	4.2727	0.	-308.82
13677	22.524	4.3636	5.e-002	-4.1997
13678	22.801	4.3636	0.	-250.77
13679	22.708	4.2727	0.	-270.32
13680	22.708	4.3636	5.e-002	-4.2198
13681	22.985	4.3636	0.	-212.43
13682	22.893	4.2727	0.	-231.93
13683	22.893	4.3636	5.e-002	-4.2458
13684	23.17	4.3636	0.	-174.16
13685	23.077	4.2727	0.	-193.6
13686	23.077	4.3636	5.e-002	-4.2788
13687	23.354	4.3636	0.	-135.88
13688	23.262	4.2727	0.	-155.28
13689	23.262	4.3636	5.e-002	-4.3196
13690	23.539	4.3636	0.	-97.531
13691	23.446	4.2727	0.	-116.91
13692	23.446	4.3636	5.e-002	-4.369
13693	23.723	4.3636	0.	-59.113
13694	23.631	4.2727	0.	-78.416
13695	23.631	4.3636	5.e-002	-4.4297
13696	23.815	4.2727	0.	-39.95
13697	23.815	4.3636	5.e-002	-4.5476
13698	23.908	4.3636	0.	-22.544
13699	3.2434	4.1818	0.	-8884.4
13700	3.1512	4.0909	0.	-11757
13701	3.1512	4.1818	5.e-002	-535.74
13702	3.0589	4.1818	0.	-7571.1
13703	3.4279	4.1818	0.	-7548.8
13704	3.3357	4.0909	0.	-8744.5
13705	3.3357	4.1818	5.e-002	-180.77
13706	3.6124	4.1818	0.	-6832.
13707	3.5202	4.0909	0.	-7611.9
13708	3.5202	4.1818	5.e-002	-83.535
13709	3.7969	4.1818	0.	-6349.6
13710	3.7047	4.0909	0.	-6892.9
13711	3.7047	4.1818	5.e-002	-60.439
13712	3.9814	4.1818	0.	-6002.7
13713	3.8892	4.0909	0.	-6402.5
13714	3.8892	4.1818	5.e-002	-47.111
13715	4.1659	4.1818	0.	-5740.6
13716	4.0737	4.0909	0.	-6044.2
13717	4.0737	4.1818	5.e-002	-37.777
13718	4.3504	4.1818	0.	-5534.5
13719	4.2582	4.0909	0.	-5769.9
13720	4.2582	4.1818	5.e-002	-31.08
13721	4.5349	4.1818	0.	-5366.4
13722	4.4427	4.0909	0.	-5551.9
13723	4.4427	4.1818	5.e-002	-25.991
13724	4.7194	4.1818	0.	-5225.2
13725	4.6272	4.0909	0.	-5373.5
13726	4.6272	4.1818	5.e-002	-22.009
13727	4.9039	4.1818	0.	-5103.5
13728	4.8117	4.0909	0.	-5223.6
13729	4.8117	4.1818	5.e-002	-18.832
13730	5.0885	4.1818	0.	-4996.4
13731	4.9962	4.0909	0.	-5094.9
13732	4.9962	4.1818	5.e-002	-16.268
13733	5.273	4.1818	0.	-4900.4
13734	5.1807	4.0909	0.	-4982.3
13735	5.1807	4.1818	5.e-002	-14.192
13736	5.4575	4.1818	0.	-4813.
13737	5.3652	4.0909	0.	-4882.
13738	5.3652	4.1818	5.e-002	-12.509
13739	5.642	4.1818	0.	-4732.4
13740	5.5497	4.0909	0.	-4791.5
13741	5.5497	4.1818	5.e-002	-11.149
13742	5.8265	4.1818	0.	-4657.1
13743	5.7342	4.0909	0.	-4708.6
13744	5.7342	4.1818	5.e-002	-10.053
13745	6.011	4.1818	0.	-4586.2
13746	5.9187	4.0909	0.	-4631.7
13747	5.9187	4.1818	5.e-002	-9.1745
13748	6.1955	4.1818	0.	-4518.6
13749	6.1032	4.0909	0.	-4559.5
13750	6.1032	4.1818	5.e-002	-8.4723
13751	6.38	4.1818	0.	-4453.8
13752	6.2877	4.0909	0.	-4491.2
13753	6.2877	4.1818	5.e-002	-7.9124
13754	6.5645	4.1818	0.	-4391.3
13755	6.4722	4.0909	0.	-4425.9
13756	6.4722	4.1818	5.e-002	-7.4663
13757	6.749	4.1818	0.	-4330.5
13758	6.6567	4.0909	0.	-4363.
13759	6.6567	4.1818	5.e-002	-7.1101
13760	6.9335	4.1818	0.	-4271.2
13761	6.8412	4.0909	0.	-4302.1
13762	6.8412	4.1818	5.e-002	-6.8245
13763	7.118	4.1818	0.	-4213.1
13764	7.0257	4.0909	0.	-4242.7
13765	7.0257	4.1818	5.e-002	-6.594
13766	7.3025	4.1818	0.	-4156.
13767	7.2102	4.0909	0.	-4184.6
13768	7.2102	4.1818	5.e-002	-6.4064
13769	7.487	4.1818	0.	-4099.6
13770	7.3947	4.0909	0.	-4127.5
13771	7.3947	4.1818	5.e-002	-6.2518
13772	7.6715	4.1818	0.	-4044.
13773	7.5792	4.0909	0.	-4071.3
13774	7.5792	4.1818	5.e-002	-6.1231
13775	7.856	4.1818	0.	-3988.8
13776	7.7637	4.0909	0.	-4015.7
13777	7.7637	4.1818	5.e-002	-6.0145
13778	8.0405	4.1818	0.	-3934.2
13779	7.9482	4.0909	0.	-3960.8
13780	7.9482	4.1818	5.e-002	-5.9214
13781	8.225	4.1818	0.	-3880.
13782	8.1327	4.0909	0.	-3906.3
13783	8.1327	4.1818	5.e-002	-5.8407
13784	8.4095	4.1818	0.	-3826.1
13785	8.3173	4.0909	0.	-3852.2
13786	8.3173	4.1818	5.e-002	-5.7697
13787	8.594	4.1818	0.	-3772.5
13788	8.5018	4.0909	0.	-3798.4
13789	8.5018	4.1818	5.e-002	-5.7065
13790	8.7785	4.1818	0.	-3719.2
13791	8.6863	4.0909	0.	-3745.
13792	8.6863	4.1818	5.e-002	-5.6496
13793	8.963	4.1818	0.	-3666.2
13794	8.8708	4.0909	0.	-3691.9
13795	8.8708	4.1818	5.e-002	-5.5977
13796	9.1475	4.1818	0.	-3613.4
13797	9.0553	4.0909	0.	-3639.
13798	9.0553	4.1818	5.e-002	-5.55
13799	9.332	4.1818	0.	-3560.8
13800	9.2398	4.0909	0.	-3586.3
13801	9.2398	4.1818	5.e-002	-5.5057
13802	9.5165	4.1818	0.	-3508.5
13803	9.4243	4.0909	0.	-3533.9
13804	9.4243	4.1818	5.e-002	-5.4642
13805	9.701	4.1818	0.	-3456.3
13806	9.6088	4.0909	0.	-3481.7
13807	9.6088	4.1818	5.e-002	-5.4252
13808	9.8855	4.1818	0.	-3404.3
13809	9.7933	4.0909	0.	-3429.6
13810	9.7933	4.1818	5.e-002	-5.3883
13811	10.07	4.1818	0.	-3352.6
13812	9.9778	4.0909	0.	-3377.8
13813	9.9778	4.1818	5.e-002	-5.3532
13814	10.255	4.1818	0.	-3301.
13815	10.162	4.0909	0.	-3326.2
13816	10.162	4.1818	5.e-002	-5.3196
13817	10.439	4.1818	0.	-3249.7
13818	10.347	4.0909	0.	-3274.7
13819	10.347	4.1818	5.e-002	-5.2873
13820	10.624	4.1818	0.	-3198.5
13821	10.531	4.0909	0.	-3223.5
13822	10.531	4.1818	5.e-002	-5.2562
13823	10.808	4.1818	0.	-3147.5
13824	10.716	4.0909	0.	-3172.4
13825	10.716	4.1818	5.e-002	-5.2261
13826	10.993	4.1818	0.	-3096.7
13827	10.9	4.0909	0.	-3121.5
13828	10.9	4.1818	5.e-002	-5.197
13829	11.177	4.1818	0.	-3046.
13830	11.085	4.0909	0.	-3070.8
13831	11.085	4.1818	5.e-002	-5.1688
13832	11.362	4.1818	0.	-2995.6
13833	11.269	4.0909	0.	-3020.3
13834	11.269	4.1818	5.e-002	-5.1412
13835	11.546	4.1818	0.	-2945.4
13836	11.454	4.0909	0.	-2970.
13837	11.454	4.1818	5.e-002	-5.1144
13838	11.731	4.1818	0.	-2895.3
13839	11.638	4.0909	0.	-2919.9
13840	11.638	4.1818	5.e-002	-5.0881
13841	11.915	4.1818	0.	-2845.4
13842	11.823	4.0909	0.	-2869.9
13843	11.823	4.1818	5.e-002	-5.0625
13844	12.1	4.1818	0.	-2795.7
13845	12.007	4.0909	0.	-2820.2
13846	12.007	4.1818	5.e-002	-5.0373
13847	12.284	4.1818	0.	-2746.3
13848	12.192	4.0909	0.	-2770.6
13849	12.192	4.1818	5.e-002	-5.0127
13850	12.469	4.1818	0.	-2697.
13851	12.376	4.0909	0.	-2721.2
13852	12.376	4.1818	5.e-002	-4.9884
13853	12.653	4.1818	0.	-2647.8
13854	12.561	4.0909	0.	-2672.
13855	12.561	4.1818	5.e-002	-4.9646
13856	12.838	4.1818	0.	-2598.9
13857	12.745	4.0909	0.	-2623.
13858	12.745	4.1818	5.e-002	-4.9411
13859	13.022	4.1818	0.	-2550.2
13860	12.93	4.0909	0.	-2574.2
13861	12.93	4.1818	5.e-002	-4.9179
13862	13.207	4.1818	0.	-2501.7
13863	13.114	4.0909	0.	-2525.6
13864	13.114	4.1818	5.e-002	-4.8951
13865	13.391	4.1818	0.	-2453.3
13866	13.299	4.0909	0.	-2477.1
13867	13.299	4.1818	5.e-002	-4.8726
13868	13.576	4.1818	0.	-2405.2
13869	13.483	4.0909	0.	-2428.9
13870	13.483	4.1818	5.e-002	-4.8504
13871	13.76	4.1818	0.	-2357.2
13872	13.668	4.0909	0.	-2380.9
13873	13.668	4.1818	5.e-002	-4.8284
13874	13.945	4.1818	0.	-2309.5
13875	13.852	4.0909	0.	-2333.
13876	13.852	4.1818	5.e-002	-4.8067
13877	14.129	4.1818	0.	-2261.9
13878	14.037	4.0909	0.	-2285.4
13879	14.037	4.1818	5.e-002	-4.7852
13880	14.314	4.1818	0.	-2214.6
13881	14.221	4.0909	0.	-2237.9
13882	14.221	4.1818	5.e-002	-4.7639
13883	14.498	4.1818	0.	-2167.4
13884	14.406	4.0909	0.	-2190.6
13885	14.406	4.1818	5.e-002	-4.7428
13886	14.683	4.1818	0.	-2120.4
13887	14.59	4.0909	0.	-2143.6
13888	14.59	4.1818	5.e-002	-4.722
13889	14.867	4.1818	0.	-2073.7
13890	14.775	4.0909	0.	-2096.7
13891	14.775	4.1818	5.e-002	-4.7013
13892	15.052	4.1818	0.	-2027.1
13893	14.959	4.0909	0.	-2050.1
13894	14.959	4.1818	5.e-002	-4.6809
13895	15.236	4.1818	0.	-1980.7
13896	15.144	4.0909	0.	-2003.6
13897	15.144	4.1818	5.e-002	-4.6606
13898	15.421	4.1818	0.	-1934.6
13899	15.328	4.0909	0.	-1957.3
13900	15.328	4.1818	5.e-002	-4.6405
13901	15.605	4.1818	0.	-1888.6
13902	15.513	4.0909	0.	-1911.2
13903	15.513	4.1818	5.e-002	-4.6206
13904	15.79	4.1818	0.	-1842.8
13905	15.697	4.0909	0.	-1865.4
13906	15.697	4.1818	5.e-002	-4.6009
13907	15.974	4.1818	0.	-1797.2
13908	15.882	4.0909	0.	-1819.7
13909	15.882	4.1818	5.e-002	-4.5814
13910	16.159	4.1818	0.	-1751.8
13911	16.066	4.0909	0.	-1774.2
13912	16.066	4.1818	5.e-002	-4.5621
13913	16.343	4.1818	0.	-1706.7
13914	16.251	4.0909	0.	-1728.9
13915	16.251	4.1818	5.e-002	-4.5429
13916	16.528	4.1818	0.	-1661.7
13917	16.435	4.0909	0.	-1683.9
13918	16.435	4.1818	5.e-002	-4.5239
13919	16.712	4.1818	0.	-1616.9
13920	16.62	4.0909	0.	-1639.
13921	16.62	4.1818	5.e-002	-4.5052
13922	16.897	4.1818	0.	-1572.3
13923	16.804	4.0909	0.	-1594.3
13924	16.804	4.1818	5.e-002	-4.4867
13925	17.081	4.1818	0.	-1528.
13926	16.989	4.0909	0.	-1549.9
13927	16.989	4.1818	5.e-002	-4.4683
13928	17.266	4.1818	0.	-1483.8
13929	17.173	4.0909	0.	-1505.6
13930	17.173	4.1818	5.e-002	-4.4502
13931	17.45	4.1818	0.	-1439.8
13932	17.358	4.0909	0.	-1461.5
13933	17.358	4.1818	5.e-002	-4.4324
13934	17.635	4.1818	0.	-1396.1
13935	17.542	4.0909	0.	-1417.7
13936	17.542	4.1818	5.e-002	-4.4148
13937	17.819	4.1818	0.	-1352.5
13938	17.727	4.0909	0.	-1374.
13939	17.727	4.1818	5.e-002	-4.3975
13940	18.004	4.1818	0.	-1309.1
13941	17.911	4.0909	0.	-1330.5
13942	17.911	4.1818	5.e-002	-4.3805
13943	18.188	4.1818	0.	-1266.
13944	18.096	4.0909	0.	-1287.3
13945	18.096	4.1818	5.e-002	-4.3638
13946	18.373	4.1818	0.	-1223.
13947	18.28	4.0909	0.	-1244.2
13948	18.28	4.1818	5.e-002	-4.3474
13949	18.557	4.1818	0.	-1180.3
13950	18.465	4.0909	0.	-1201.4
13951	18.465	4.1818	5.e-002	-4.3314
13952	18.742	4.1818	0.	-1137.7
13953	18.649	4.0909	0.	-1158.7
13954	18.649	4.1818	5.e-002	-4.3158
13955	18.926	4.1818	0.	-1095.4
13956	18.834	4.0909	0.	-1116.3
13957	18.834	4.1818	5.e-002	-4.3006
13958	19.111	4.1818	0.	-1053.2
13959	19.018	4.0909	0.	-1074.1
13960	19.018	4.1818	5.e-002	-4.2859
13961	19.295	4.1818	0.	-1011.3
13962	19.203	4.0909	0.	-1032.
13963	19.203	4.1818	5.e-002	-4.2717
13964	19.48	4.1818	0.	-969.53
13965	19.387	4.0909	0.	-990.22
13966	19.387	4.1818	5.e-002	-4.2581
13967	19.664	4.1818	0.	-927.99
13968	19.572	4.0909	0.	-948.61
13969	19.572	4.1818	5.e-002	-4.245
13970	19.849	4.1818	0.	-886.66
13971	19.756	4.0909	0.	-907.19
13972	19.756	4.1818	5.e-002	-4.2326
13973	20.033	4.1818	0.	-845.53
13974	19.941	4.0909	0.	-865.98
13975	19.941	4.1818	5.e-002	-4.221
13976	20.218	4.1818	0.	-804.6
13977	20.125	4.0909	0.	-824.98
13978	20.125	4.1818	5.e-002	-4.2101
13979	20.402	4.1818	0.	-763.87
13980	20.31	4.0909	0.	-784.18
13981	20.31	4.1818	5.e-002	-4.2002
13982	20.587	4.1818	0.	-723.34
13983	20.494	4.0909	0.	-743.58
13984	20.494	4.1818	5.e-002	-4.1912
13985	20.771	4.1818	0.	-683.01
13986	20.679	4.0909	0.	-703.18
13987	20.679	4.1818	5.e-002	-4.1834
13988	20.956	4.1818	0.	-642.88
13989	20.863	4.0909	0.	-662.98
13990	20.863	4.1818	5.e-002	-4.1768
13991	21.14	4.1818	0.	-602.94
13992	21.048	4.0909	0.	-622.98
13993	21.048	4.1818	5.e-002	-4.1716
13994	21.325	4.1818	0.	-563.2
13995	21.232	4.0909	0.	-583.18
13996	21.232	4.1818	5.e-002	-4.168
13997	21.509	4.1818	0.	-523.65
13998	21.417	4.0909	0.	-543.57
13999	21.417	4.1818	5.e-002	-4.1662
14000	21.694	4.1818	0.	-484.28
14001	21.601	4.0909	0.	-504.14
14002	21.601	4.1818	5.e-002	-4.1665
14003	21.878	4.1818	0.	-445.1
14004	21.786	4.0909	0.	-464.9
14005	21.786	4.1818	5.e-002	-4.1691
14006	22.063	4.1818	0.	-406.09
14007	21.97	4.0909	0.	-425.83
14008	21.97	4.1818	5.e-002	-4.1744
14009	22.247	4.1818	0.	-367.24
14010	22.155	4.0909	0.	-386.93
14011	22.155	4.1818	5.e-002	-4.1829
14012	22.432	4.1818	0.	-328.54
14013	22.339	4.0909	0.	-348.17
14014	22.339	4.1818	5.e-002	-4.1949
14015	22.616	4.1818	0.	-289.98
14016	22.524	4.0909	0.	-309.55
14017	22.524	4.1818	5.e-002	-4.2113
14018	22.801	4.1818	0.	-251.51
14019	22.708	4.0909	0.	-271.03
14020	22.708	4.1818	5.e-002	-4.2325
14021	22.985	4.1818	0.	-213.11
14022	22.893	4.0909	0.	-232.59
14023	22.893	4.1818	5.e-002	-4.2593
14024	23.17	4.1818	0.	-174.73
14025	23.077	4.0909	0.	-194.17
14026	23.077	4.1818	5.e-002	-4.2924
14027	23.354	4.1818	0.	-136.31
14028	23.262	4.0909	0.	-155.73
14029	23.262	4.1818	5.e-002	-4.3324
14030	23.539	4.1818	0.	-97.792
14031	23.446	4.0909	0.	-117.22
14032	23.446	4.1818	5.e-002	-4.3796
14033	23.723	4.1818	0.	-59.184
14034	23.631	4.0909	0.	-78.564
14035	23.631	4.1818	5.e-002	-4.436
14036	23.815	4.0909	0.	-39.92
14037	23.815	4.1818	5.e-002	-4.5373
14038	23.908	4.1818	0.	-22.516
14039	3.2434	4.	0.	-11649
14040	3.1512	3.9091	0.	-13922
14041	3.1512	4.	5.e-002	-980.51
14042	3.0589	4.	0.	-20680
14043	3.4279	4.	0.	-8807.5
14044	3.3357	3.9091	0.	-10106
14045	3.3357	4.	5.e-002	-169.47
14046	3.6124	4.	0.	-7666.4
14047	3.5202	3.9091	0.	-8504.
14048	3.5202	4.	5.e-002	-109.72
14049	3.7969	4.	0.	-6940.3
14050	3.7047	3.9091	0.	-7530.7
14051	3.7047	4.	5.e-002	-73.288
14052	3.9814	4.	0.	-6440.
14053	3.8892	3.9091	0.	-6876.
14054	3.8892	4.	5.e-002	-55.126
14055	4.1659	4.	0.	-6070.7
14056	4.0737	3.9091	0.	-6401.9
14057	4.0737	4.	5.e-002	-43.432
14058	4.3504	4.	0.	-5785.6
14059	4.2582	3.9091	0.	-6042.1
14060	4.2582	4.	5.e-002	-35.337
14061	4.5349	4.	0.	-5558.
14062	4.4427	3.9091	0.	-5759.6
14063	4.4427	4.	5.e-002	-29.311
14064	4.7194	4.	0.	-5371.3
14065	4.6272	3.9091	0.	-5531.8
14066	4.6272	4.	5.e-002	-24.653
14067	4.9039	4.	0.	-5214.6
14068	4.8117	3.9091	0.	-5344.
14069	4.8117	4.	5.e-002	-20.964
14070	5.0885	4.	0.	-5080.5
14071	4.9962	3.9091	0.	-5186.1
14072	4.9962	4.	5.e-002	-18.003
14073	5.273	4.	0.	-4963.8
14074	5.1807	3.9091	0.	-5051.1
14075	5.1807	4.	5.e-002	-15.611
14076	5.4575	4.	0.	-4860.5
14077	5.3652	3.9091	0.	-4933.6
14078	5.3652	4.	5.e-002	-13.676
14079	5.642	4.	0.	-4767.7
14080	5.5497	3.9091	0.	-4829.9
14081	5.5497	4.	5.e-002	-12.109
14082	5.8265	4.	0.	-4683.1
14083	5.7342	3.9091	0.	-4736.9
14084	5.7342	4.	5.e-002	-10.845
14085	6.011	4.	0.	-4605.
14086	5.9187	3.9091	0.	-4652.3
14087	5.9187	4.	5.e-002	-9.8259
14088	6.1955	4.	0.	-4532.1
14089	6.1032	3.9091	0.	-4574.4
14090	6.1032	4.	5.e-002	-9.0069
14091	6.38	4.	0.	-4463.2
14092	6.2877	3.9091	0.	-4501.7
14093	6.2877	4.	5.e-002	-8.3498
14094	6.5645	4.	0.	-4397.6
14095	6.4722	3.9091	0.	-4433.1
14096	6.4722	4.	5.e-002	-7.8226
14097	6.749	4.	0.	-4334.6
14098	6.6567	3.9091	0.	-4367.7
14099	6.6567	4.	5.e-002	-7.3993
14100	6.9335	4.	0.	-4273.6
14101	6.8412	3.9091	0.	-4305.
14102	6.8412	4.	5.e-002	-7.0582
14103	7.118	4.	0.	-4214.2
14104	7.0257	3.9091	0.	-4244.2
14105	7.0257	4.	5.e-002	-6.7824
14106	7.3025	4.	0.	-4156.2
14107	7.2102	3.9091	0.	-4185.2
14108	7.2102	4.	5.e-002	-6.5577
14109	7.487	4.	0.	-4099.2
14110	7.3947	3.9091	0.	-4127.4
14111	7.3947	4.	5.e-002	-6.3731
14112	7.6715	4.	0.	-4043.1
14113	7.5792	3.9091	0.	-4070.6
14114	7.5792	4.	5.e-002	-6.2202
14115	7.856	4.	0.	-3987.7
14116	7.7637	3.9091	0.	-4014.8
14117	7.7637	4.	5.e-002	-6.0921
14118	8.0405	4.	0.	-3932.8
14119	7.9482	3.9091	0.	-3959.5
14120	7.9482	4.	5.e-002	-5.9835
14121	8.225	4.	0.	-3878.5
14122	8.1327	3.9091	0.	-3904.9
14123	8.1327	4.	5.e-002	-5.8903
14124	8.4095	4.	0.	-3824.5
14125	8.3173	3.9091	0.	-3850.7
14126	8.3173	4.	5.e-002	-5.8094
14127	8.594	4.	0.	-3770.9
14128	8.5018	3.9091	0.	-3797.
14129	8.5018	4.	5.e-002	-5.7383
14130	8.7785	4.	0.	-3717.7
14131	8.6863	3.9091	0.	-3743.6
14132	8.6863	4.	5.e-002	-5.6751
14133	8.963	4.	0.	-3664.7
14134	8.8708	3.9091	0.	-3690.4
14135	8.8708	4.	5.e-002	-5.6183
14136	9.1475	4.	0.	-3611.9
14137	9.0553	3.9091	0.	-3637.6
14138	9.0553	4.	5.e-002	-5.5666
14139	9.332	4.	0.	-3559.4
14140	9.2398	3.9091	0.	-3585.
14141	9.2398	4.	5.e-002	-5.5191
14142	9.5165	4.	0.	-3507.1
14143	9.4243	3.9091	0.	-3532.6
14144	9.4243	4.	5.e-002	-5.4753
14145	9.701	4.	0.	-3455.
14146	9.6088	3.9091	0.	-3480.4
14147	9.6088	4.	5.e-002	-5.4343
14148	9.8855	4.	0.	-3403.1
14149	9.7933	3.9091	0.	-3428.5
14150	9.7933	4.	5.e-002	-5.3958
14151	10.07	4.	0.	-3351.4
14152	9.9778	3.9091	0.	-3376.7
14153	9.9778	4.	5.e-002	-5.3594
14154	10.255	4.	0.	-3299.9
14155	10.162	3.9091	0.	-3325.1
14156	10.162	4.	5.e-002	-5.3248
14157	10.439	4.	0.	-3248.6
14158	10.347	3.9091	0.	-3273.7
14159	10.347	4.	5.e-002	-5.2917
14160	10.624	4.	0.	-3197.5
14161	10.531	3.9091	0.	-3222.5
14162	10.531	4.	5.e-002	-5.26
14163	10.808	4.	0.	-3146.5
14164	10.716	3.9091	0.	-3171.5
14165	10.716	4.	5.e-002	-5.2294
14166	10.993	4.	0.	-3095.7
14167	10.9	3.9091	0.	-3120.7
14168	10.9	4.	5.e-002	-5.1998
14169	11.177	4.	0.	-3045.1
14170	11.085	3.9091	0.	-3070.
14171	11.085	4.	5.e-002	-5.1712
14172	11.362	4.	0.	-2994.7
14173	11.269	3.9091	0.	-3019.5
14174	11.269	4.	5.e-002	-5.1434
14175	11.546	4.	0.	-2944.5
14176	11.454	3.9091	0.	-2969.2
14177	11.454	4.	5.e-002	-5.1164
14178	11.731	4.	0.	-2894.5
14179	11.638	3.9091	0.	-2919.1
14180	11.638	4.	5.e-002	-5.0899
14181	11.915	4.	0.	-2844.7
14182	11.823	3.9091	0.	-2869.2
14183	11.823	4.	5.e-002	-5.0641
14184	12.1	4.	0.	-2795.
14185	12.007	3.9091	0.	-2819.5
14186	12.007	4.	5.e-002	-5.0387
14187	12.284	4.	0.	-2745.5
14188	12.192	3.9091	0.	-2769.9
14189	12.192	4.	5.e-002	-5.0139
14190	12.469	4.	0.	-2696.3
14191	12.376	3.9091	0.	-2720.5
14192	12.376	4.	5.e-002	-4.9896
14193	12.653	4.	0.	-2647.2
14194	12.561	3.9091	0.	-2671.4
14195	12.561	4.	5.e-002	-4.9657
14196	12.838	4.	0.	-2598.3
14197	12.745	3.9091	0.	-2622.4
14198	12.745	4.	5.e-002	-4.9421
14199	13.022	4.	0.	-2549.6
14200	12.93	3.9091	0.	-2573.6
14201	12.93	4.	5.e-002	-4.9189
14202	13.207	4.	0.	-2501.
14203	13.114	3.9091	0.	-2525.
14204	13.114	4.	5.e-002	-4.896
14205	13.391	4.	0.	-2452.7
14206	13.299	3.9091	0.	-2476.6
14207	13.299	4.	5.e-002	-4.8734
14208	13.576	4.	0.	-2404.6
14209	13.483	3.9091	0.	-2428.3
14210	13.483	4.	5.e-002	-4.8511
14211	13.76	4.	0.	-2356.7
14212	13.668	3.9091	0.	-2380.3
14213	13.668	4.	5.e-002	-4.8291
14214	13.945	4.	0.	-2308.9
14215	13.852	3.9091	0.	-2332.5
14216	13.852	4.	5.e-002	-4.8073
14217	14.129	4.	0.	-2261.4
14218	14.037	3.9091	0.	-2284.8
14219	14.037	4.	5.e-002	-4.7858
14220	14.314	4.	0.	-2214.
14221	14.221	3.9091	0.	-2237.4
14222	14.221	4.	5.e-002	-4.7644
14223	14.498	4.	0.	-2166.9
14224	14.406	3.9091	0.	-2190.1
14225	14.406	4.	5.e-002	-4.7434
14226	14.683	4.	0.	-2119.9
14227	14.59	3.9091	0.	-2143.1
14228	14.59	4.	5.e-002	-4.7225
14229	14.867	4.	0.	-2073.1
14230	14.775	3.9091	0.	-2096.2
14231	14.775	4.	5.e-002	-4.7018
14232	15.052	4.	0.	-2026.6
14233	14.959	3.9091	0.	-2049.6
14234	14.959	4.	5.e-002	-4.6814
14235	15.236	4.	0.	-1980.2
14236	15.144	3.9091	0.	-2003.1
14237	15.144	4.	5.e-002	-4.6611
14238	15.421	4.	0.	-1934.
14239	15.328	3.9091	0.	-1956.8
14240	15.328	4.	5.e-002	-4.641
14241	15.605	4.	0.	-1888.1
14242	15.513	3.9091	0.	-1910.8
14243	15.513	4.	5.e-002	-4.6211
14244	15.79	4.	0.	-1842.3
14245	15.697	3.9091	0.	-1864.9
14246	15.697	4.	5.e-002	-4.6013
14247	15.974	4.	0.	-1796.7
14248	15.882	3.9091	0.	-1819.2
14249	15.882	4.	5.e-002	-4.5818
14250	16.159	4.	0.	-1751.3
14251	16.066	3.9091	0.	-1773.8
14252	16.066	4.	5.e-002	-4.5625
14253	16.343	4.	0.	-1706.2
14254	16.251	3.9091	0.	-1728.5
14255	16.251	4.	5.e-002	-4.5433
14256	16.528	4.	0.	-1661.2
14257	16.435	3.9091	0.	-1683.4
14258	16.435	4.	5.e-002	-4.5243
14259	16.712	4.	0.	-1616.4
14260	16.62	3.9091	0.	-1638.5
14261	16.62	4.	5.e-002	-4.5056
14262	16.897	4.	0.	-1571.9
14263	16.804	3.9091	0.	-1593.9
14264	16.804	4.	5.e-002	-4.4871
14265	17.081	4.	0.	-1527.5
14266	16.989	3.9091	0.	-1549.4
14267	16.989	4.	5.e-002	-4.4688
14268	17.266	4.	0.	-1483.3
14269	17.173	3.9091	0.	-1505.2
14270	17.173	4.	5.e-002	-4.4507
14271	17.45	4.	0.	-1439.4
14272	17.358	3.9091	0.	-1461.1
14273	17.358	4.	5.e-002	-4.4329
14274	17.635	4.	0.	-1395.6
14275	17.542	3.9091	0.	-1417.3
14276	17.542	4.	5.e-002	-4.4153
14277	17.819	4.	0.	-1352.1
14278	17.727	3.9091	0.	-1373.6
14279	17.727	4.	5.e-002	-4.398
14280	18.004	4.	0.	-1308.7
14281	17.911	3.9091	0.	-1330.2
14282	17.911	4.	5.e-002	-4.381
14283	18.188	4.	0.	-1265.6
14284	18.096	3.9091	0.	-1286.9
14285	18.096	4.	5.e-002	-4.3644
14286	18.373	4.	0.	-1222.6
14287	18.28	3.9091	0.	-1243.9
14288	18.28	4.	5.e-002	-4.348
14289	18.557	4.	0.	-1179.9
14290	18.465	3.9091	0.	-1201.1
14291	18.465	4.	5.e-002	-4.3321
14292	18.742	4.	0.	-1137.4
14293	18.649	3.9091	0.	-1158.5
14294	18.649	4.	5.e-002	-4.3165
14295	18.926	4.	0.	-1095.1
14296	18.834	3.9091	0.	-1116.
14297	18.834	4.	5.e-002	-4.3014
14298	19.111	4.	0.	-1053.
14299	19.018	3.9091	0.	-1073.8
14300	19.018	4.	5.e-002	-4.2868
14301	19.295	4.	0.	-1011.
14302	19.203	3.9091	0.	-1031.8
14303	19.203	4.	5.e-002	-4.2727
14304	19.48	4.	0.	-969.34
14305	19.387	3.9091	0.	-990.05
14306	19.387	4.	5.e-002	-4.2591
14307	19.664	4.	0.	-927.85
14308	19.572	3.9091	0.	-948.47
14309	19.572	4.	5.e-002	-4.2462
14310	19.849	4.	0.	-886.56
14311	19.756	3.9091	0.	-907.09
14312	19.756	4.	5.e-002	-4.234
14313	20.033	4.	0.	-845.48
14314	19.941	3.9091	0.	-865.93
14315	19.941	4.	5.e-002	-4.2225
14316	20.218	4.	0.	-804.6
14317	20.125	3.9091	0.	-824.97
14318	20.125	4.	5.e-002	-4.2118
14319	20.402	4.	0.	-763.93
14320	20.31	3.9091	0.	-784.22
14321	20.31	4.	5.e-002	-4.2021
14322	20.587	4.	0.	-723.46
14323	20.494	3.9091	0.	-743.67
14324	20.494	4.	5.e-002	-4.1934
14325	20.771	4.	0.	-683.19
14326	20.679	3.9091	0.	-703.33
14327	20.679	4.	5.e-002	-4.1859
14328	20.956	4.	0.	-643.13
14329	20.863	3.9091	0.	-663.2
14330	20.863	4.	5.e-002	-4.1797
14331	21.14	4.	0.	-603.26
14332	21.048	3.9091	0.	-623.26
14333	21.048	4.	5.e-002	-4.175
14334	21.325	4.	0.	-563.58
14335	21.232	3.9091	0.	-583.52
14336	21.232	4.	5.e-002	-4.1719
14337	21.509	4.	0.	-524.1
14338	21.417	3.9091	0.	-543.97
14339	21.417	4.	5.e-002	-4.1708
14340	21.694	4.	0.	-484.8
14341	21.601	3.9091	0.	-504.6
14342	21.601	4.	5.e-002	-4.1717
14343	21.878	4.	0.	-445.67
14344	21.786	3.9091	0.	-465.41
14345	21.786	4.	5.e-002	-4.1752
14346	22.063	4.	0.	-406.71
14347	21.97	3.9091	0.	-426.39
14348	21.97	4.	5.e-002	-4.1814
14349	22.247	4.	0.	-367.89
14350	22.155	3.9091	0.	-387.52
14351	22.155	4.	5.e-002	-4.1908
14352	22.432	4.	0.	-329.21
14353	22.339	3.9091	0.	-348.79
14354	22.339	4.	5.e-002	-4.2039
14355	22.616	4.	0.	-290.63
14356	22.524	3.9091	0.	-310.16
14357	22.524	4.	5.e-002	-4.2212
14358	22.801	4.	0.	-252.13
14359	22.708	3.9091	0.	-271.62
14360	22.708	4.	5.e-002	-4.2431
14361	22.985	4.	0.	-213.66
14362	22.893	3.9091	0.	-233.12
14363	22.893	4.	5.e-002	-4.2704
14364	23.17	4.	0.	-175.19
14365	23.077	3.9091	0.	-194.63
14366	23.077	4.	5.e-002	-4.3034
14367	23.354	4.	0.	-136.65
14368	23.262	3.9091	0.	-156.09
14369	23.262	4.	5.e-002	-4.3425
14370	23.539	4.	0.	-97.989
14371	23.446	3.9091	0.	-117.46
14372	23.446	4.	5.e-002	-4.3879
14373	23.723	4.	0.	-59.228
14374	23.631	3.9091	0.	-78.671
14375	23.631	4.	5.e-002	-4.4407
14376	23.815	3.9091	0.	-39.886
14377	23.815	4.	5.e-002	-4.528
14378	23.908	4.	0.	-22.486
14379	3.2434	3.8182	0.	-12479
14380	3.1512	3.7273	0.	-13855
14381	3.1512	3.8182	5.e-002	-500.65
14382	3.4279	3.8182	0.	-9812.6
14383	3.3357	3.7273	0.	-10915
14384	3.3357	3.8182	5.e-002	-236.8
14385	3.6124	3.8182	0.	-8367.7
14386	3.5202	3.7273	0.	-9174.2
14387	3.5202	3.8182	5.e-002	-121.67
14388	3.7969	3.8182	0.	-7464.
14389	3.7047	3.7273	0.	-8060.5
14390	3.7047	3.8182	5.e-002	-83.428
14391	3.9814	3.8182	0.	-6835.5
14392	3.8892	3.7273	0.	-7286.
14393	3.8892	3.8182	5.e-002	-62.043
14394	4.1659	3.8182	0.	-6371.5
14395	4.0737	3.7273	0.	-6717.4
14396	4.0737	3.8182	5.e-002	-48.667
14397	4.3504	3.8182	0.	-6015.
14398	4.2582	3.7273	0.	-6284.
14399	4.2582	3.8182	5.e-002	-39.372
14400	4.5349	3.8182	0.	-5732.7
14401	4.4427	3.7273	0.	-5944.5
14402	4.4427	3.8182	5.e-002	-32.471
14403	4.7194	3.8182	0.	-5504.1
14404	4.6272	3.7273	0.	-5672.5
14405	4.6272	3.8182	5.e-002	-27.143
14406	4.9039	3.8182	0.	-5315.3
14407	4.8117	3.7273	0.	-5450.6
14408	4.8117	3.8182	5.e-002	-22.936
14409	5.0885	3.8182	0.	-5156.5
14410	4.9962	3.7273	0.	-5266.6
14411	4.9962	3.8182	5.e-002	-19.573
14412	5.273	3.8182	0.	-5020.8
14413	5.1807	3.7273	0.	-5111.5
14414	5.1807	3.8182	5.e-002	-16.868
14415	5.4575	3.8182	0.	-4903.
14416	5.3652	3.7273	0.	-4978.8
14417	5.3652	3.8182	5.e-002	-14.688
14418	5.642	3.8182	0.	-4799.1
14419	5.5497	3.7273	0.	-4863.4
14420	5.5497	3.8182	5.e-002	-12.929
14421	5.8265	3.8182	0.	-4706.1
14422	5.7342	3.7273	0.	-4761.5
14423	5.7342	3.8182	5.e-002	-11.511
14424	6.011	3.8182	0.	-4621.7
14425	5.9187	3.7273	0.	-4670.2
14426	5.9187	3.8182	5.e-002	-10.369
14427	6.1955	3.8182	0.	-4544.
14428	6.1032	3.7273	0.	-4587.2
14429	6.1032	3.8182	5.e-002	-9.4502
14430	6.38	3.8182	0.	-4471.5
14431	6.2877	3.7273	0.	-4510.7
14432	6.2877	3.8182	5.e-002	-8.7114
14433	6.5645	3.8182	0.	-4403.2
14434	6.4722	3.7273	0.	-4439.2
14435	6.4722	3.8182	5.e-002	-8.1174
14436	6.749	3.8182	0.	-4338.1
14437	6.6567	3.7273	0.	-4371.7
14438	6.6567	3.8182	5.e-002	-7.639
14439	6.9335	3.8182	0.	-4275.6
14440	6.8412	3.7273	0.	-4307.4
14441	6.8412	3.8182	5.e-002	-7.2528
14442	7.118	3.8182	0.	-4215.2
14443	7.0257	3.7273	0.	-4245.5
14444	7.0257	3.8182	5.e-002	-6.9397
14445	7.3025	3.8182	0.	-4156.4
14446	7.2102	3.7273	0.	-4185.6
14447	7.2102	3.8182	5.e-002	-6.6847
14448	7.487	3.8182	0.	-4098.8
14449	7.3947	3.7273	0.	-4127.2
14450	7.3947	3.8182	5.e-002	-6.4754
14451	7.6715	3.8182	0.	-4042.3
14452	7.5792	3.7273	0.	-4070.1
14453	7.5792	3.8182	5.e-002	-6.3025
14454	7.856	3.8182	0.	-3986.6
14455	7.7637	3.7273	0.	-4013.9
14456	7.7637	3.8182	5.e-002	-6.1581
14457	8.0405	3.8182	0.	-3931.6
14458	7.9482	3.7273	0.	-3958.5
14459	7.9482	3.8182	5.e-002	-6.0365
14460	8.225	3.8182	0.	-3877.2
14461	8.1327	3.7273	0.	-3903.8
14462	8.1327	3.8182	5.e-002	-5.9328
14463	8.4095	3.8182	0.	-3823.2
14464	8.3173	3.7273	0.	-3849.5
14465	8.3173	3.8182	5.e-002	-5.8435
14466	8.594	3.8182	0.	-3769.6
14467	8.5018	3.7273	0.	-3795.8
14468	8.5018	3.8182	5.e-002	-5.7657
14469	8.7785	3.8182	0.	-3716.3
14470	8.6863	3.7273	0.	-3742.3
14471	8.6863	3.8182	5.e-002	-5.6971
14472	8.963	3.8182	0.	-3663.4
14473	8.8708	3.7273	0.	-3689.2
14474	8.8708	3.8182	5.e-002	-5.636
14475	9.1475	3.8182	0.	-3610.7
14476	9.0553	3.7273	0.	-3636.4
14477	9.0553	3.8182	5.e-002	-5.5809
14478	9.332	3.8182	0.	-3558.2
14479	9.2398	3.7273	0.	-3583.9
14480	9.2398	3.8182	5.e-002	-5.5308
14481	9.5165	3.8182	0.	-3505.9
14482	9.4243	3.7273	0.	-3531.5
14483	9.4243	3.8182	5.e-002	-5.4848
14484	9.701	3.8182	0.	-3453.9
14485	9.6088	3.7273	0.	-3479.4
14486	9.6088	3.8182	5.e-002	-5.4421
14487	9.8855	3.8182	0.	-3402.1
14488	9.7933	3.7273	0.	-3427.5
14489	9.7933	3.8182	5.e-002	-5.4022
14490	10.07	3.8182	0.	-3350.4
14491	9.9778	3.7273	0.	-3375.8
14492	9.9778	3.8182	5.e-002	-5.3647
14493	10.255	3.8182	0.	-3299.
14494	10.162	3.7273	0.	-3324.2
14495	10.162	3.8182	5.e-002	-5.3293
14496	10.439	3.8182	0.	-3247.7
14497	10.347	3.7273	0.	-3272.9
14498	10.347	3.8182	5.e-002	-5.2955
14499	10.624	3.8182	0.	-3196.6
14500	10.531	3.7273	0.	-3221.7
14501	10.531	3.8182	5.e-002	-5.2632
14502	10.808	3.8182	0.	-3145.7
14503	10.716	3.7273	0.	-3170.7
14504	10.716	3.8182	5.e-002	-5.2321
14505	10.993	3.8182	0.	-3094.9
14506	10.9	3.7273	0.	-3119.9
14507	10.9	3.8182	5.e-002	-5.2022
14508	11.177	3.8182	0.	-3044.4
14509	11.085	3.7273	0.	-3069.3
14510	11.085	3.8182	5.e-002	-5.1733
14511	11.362	3.8182	0.	-2994.
14512	11.269	3.7273	0.	-3018.9
14513	11.269	3.8182	5.e-002	-5.1453
14514	11.546	3.8182	0.	-2943.8
14515	11.454	3.7273	0.	-2968.6
14516	11.454	3.8182	5.e-002	-5.118
14517	11.731	3.8182	0.	-2893.8
14518	11.638	3.7273	0.	-2918.5
14519	11.638	3.8182	5.e-002	-5.0914
14520	11.915	3.8182	0.	-2844.
14521	11.823	3.7273	0.	-2868.6
14522	11.823	3.8182	5.e-002	-5.0654
14523	12.1	3.8182	0.	-2794.4
14524	12.007	3.7273	0.	-2818.9
14525	12.007	3.8182	5.e-002	-5.0399
14526	12.284	3.8182	0.	-2744.9
14527	12.192	3.7273	0.	-2769.4
14528	12.192	3.8182	5.e-002	-5.015
14529	12.469	3.8182	0.	-2695.7
14530	12.376	3.7273	0.	-2720.
14531	12.376	3.8182	5.e-002	-4.9906
14532	12.653	3.8182	0.	-2646.6
14533	12.561	3.7273	0.	-2670.9
14534	12.561	3.8182	5.e-002	-4.9666
14535	12.838	3.8182	0.	-2597.7
14536	12.745	3.7273	0.	-2621.9
14537	12.745	3.8182	5.e-002	-4.9429
14538	13.022	3.8182	0.	-2549.
14539	12.93	3.7273	0.	-2573.1
14540	12.93	3.8182	5.e-002	-4.9196
14541	13.207	3.8182	0.	-2500.5
14542	13.114	3.7273	0.	-2524.5
14543	13.114	3.8182	5.e-002	-4.8967
14544	13.391	3.8182	0.	-2452.2
14545	13.299	3.7273	0.	-2476.1
14546	13.299	3.8182	5.e-002	-4.8741
14547	13.576	3.8182	0.	-2404.1
14548	13.483	3.7273	0.	-2427.9
14549	13.483	3.8182	5.e-002	-4.8518
14550	13.76	3.8182	0.	-2356.2
14551	13.668	3.7273	0.	-2379.9
14552	13.668	3.8182	5.e-002	-4.8297
14553	13.945	3.8182	0.	-2308.4
14554	13.852	3.7273	0.	-2332.
14555	13.852	3.8182	5.e-002	-4.8079
14556	14.129	3.8182	0.	-2260.9
14557	14.037	3.7273	0.	-2284.4
14558	14.037	3.8182	5.e-002	-4.7863
14559	14.314	3.8182	0.	-2213.5
14560	14.221	3.7273	0.	-2237.
14561	14.221	3.8182	5.e-002	-4.765
14562	14.498	3.8182	0.	-2166.4
14563	14.406	3.7273	0.	-2189.7
14564	14.406	3.8182	5.e-002	-4.7438
14565	14.683	3.8182	0.	-2119.4
14566	14.59	3.7273	0.	-2142.7
14567	14.59	3.8182	5.e-002	-4.7229
14568	14.867	3.8182	0.	-2072.7
14569	14.775	3.7273	0.	-2095.8
14570	14.775	3.8182	5.e-002	-4.7022
14571	15.052	3.8182	0.	-2026.1
14572	14.959	3.7273	0.	-2049.2
14573	14.959	3.8182	5.e-002	-4.6818
14574	15.236	3.8182	0.	-1979.8
14575	15.144	3.7273	0.	-2002.7
14576	15.144	3.8182	5.e-002	-4.6614
14577	15.421	3.8182	0.	-1933.6
14578	15.328	3.7273	0.	-1956.4
14579	15.328	3.8182	5.e-002	-4.6413
14580	15.605	3.8182	0.	-1887.6
14581	15.513	3.7273	0.	-1910.4
14582	15.513	3.8182	5.e-002	-4.6214
14583	15.79	3.8182	0.	-1841.9
14584	15.697	3.7273	0.	-1864.5
14585	15.697	3.8182	5.e-002	-4.6017
14586	15.974	3.8182	0.	-1796.3
14587	15.882	3.7273	0.	-1818.8
14588	15.882	3.8182	5.e-002	-4.5821
14589	16.159	3.8182	0.	-1750.9
14590	16.066	3.7273	0.	-1773.4
14591	16.066	3.8182	5.e-002	-4.5628
14592	16.343	3.8182	0.	-1705.8
14593	16.251	3.7273	0.	-1728.1
14594	16.251	3.8182	5.e-002	-4.5437
14595	16.528	3.8182	0.	-1660.8
14596	16.435	3.7273	0.	-1683.1
14597	16.435	3.8182	5.e-002	-4.5247
14598	16.712	3.8182	0.	-1616.
14599	16.62	3.7273	0.	-1638.2
14600	16.62	3.8182	5.e-002	-4.506
14601	16.897	3.8182	0.	-1571.5
14602	16.804	3.7273	0.	-1593.5
14603	16.804	3.8182	5.e-002	-4.4874
14604	17.081	3.8182	0.	-1527.1
14605	16.989	3.7273	0.	-1549.1
14606	16.989	3.8182	5.e-002	-4.4691
14607	17.266	3.8182	0.	-1483.
14608	17.173	3.7273	0.	-1504.8
14609	17.173	3.8182	5.e-002	-4.4511
14610	17.45	3.8182	0.	-1439.
14611	17.358	3.7273	0.	-1460.8
14612	17.358	3.8182	5.e-002	-4.4333
14613	17.635	3.8182	0.	-1395.3
14614	17.542	3.7273	0.	-1416.9
14615	17.542	3.8182	5.e-002	-4.4157
14616	17.819	3.8182	0.	-1351.7
14617	17.727	3.7273	0.	-1373.3
14618	17.727	3.8182	5.e-002	-4.3985
14619	18.004	3.8182	0.	-1308.4
14620	17.911	3.7273	0.	-1329.9
14621	17.911	3.8182	5.e-002	-4.3815
14622	18.188	3.8182	0.	-1265.3
14623	18.096	3.7273	0.	-1286.6
14624	18.096	3.8182	5.e-002	-4.3649
14625	18.373	3.8182	0.	-1222.4
14626	18.28	3.7273	0.	-1243.6
14627	18.28	3.8182	5.e-002	-4.3486
14628	18.557	3.8182	0.	-1179.6
14629	18.465	3.7273	0.	-1200.8
14630	18.465	3.8182	5.e-002	-4.3327
14631	18.742	3.8182	0.	-1137.1
14632	18.649	3.7273	0.	-1158.2
14633	18.649	3.8182	5.e-002	-4.3172
14634	18.926	3.8182	0.	-1094.8
14635	18.834	3.7273	0.	-1115.8
14636	18.834	3.8182	5.e-002	-4.3021
14637	19.111	3.8182	0.	-1052.8
14638	19.018	3.7273	0.	-1073.7
14639	19.018	3.8182	5.e-002	-4.2875
14640	19.295	3.8182	0.	-1010.9
14641	19.203	3.7273	0.	-1031.7
14642	19.203	3.8182	5.e-002	-4.2735
14643	19.48	3.8182	0.	-969.21
14644	19.387	3.7273	0.	-989.92
14645	19.387	3.8182	5.e-002	-4.26
14646	19.664	3.8182	0.	-927.75
14647	19.572	3.7273	0.	-948.37
14648	19.572	3.8182	5.e-002	-4.2472
14649	19.849	3.8182	0.	-886.5
14650	19.756	3.7273	0.	-907.03
14651	19.756	3.8182	5.e-002	-4.2351
14652	20.033	3.8182	0.	-845.46
14653	19.941	3.7273	0.	-865.9
14654	19.941	3.8182	5.e-002	-4.2237
14655	20.218	3.8182	0.	-804.63
14656	20.125	3.7273	0.	-824.98
14657	20.125	3.8182	5.e-002	-4.2132
14658	20.402	3.8182	0.	-764.
14659	20.31	3.7273	0.	-784.28
14660	20.31	3.8182	5.e-002	-4.2037
14661	20.587	3.8182	0.	-723.59
14662	20.494	3.7273	0.	-743.78
14663	20.494	3.8182	5.e-002	-4.1953
14664	20.771	3.8182	0.	-683.38
14665	20.679	3.7273	0.	-703.48
14666	20.679	3.8182	5.e-002	-4.1881
14667	20.956	3.8182	0.	-643.36
14668	20.863	3.7273	0.	-663.4
14669	20.863	3.8182	5.e-002	-4.1822
14670	21.14	3.8182	0.	-603.55
14671	21.048	3.7273	0.	-623.51
14672	21.048	3.8182	5.e-002	-4.1779
14673	21.325	3.8182	0.	-563.93
14674	21.232	3.7273	0.	-583.82
14675	21.232	3.8182	5.e-002	-4.1753
14676	21.509	3.8182	0.	-524.5
14677	21.417	3.7273	0.	-544.32
14678	21.417	3.8182	5.e-002	-4.1746
14679	21.694	3.8182	0.	-485.25
14680	21.601	3.7273	0.	-505.
14681	21.601	3.8182	5.e-002	-4.1762
14682	21.878	3.8182	0.	-446.17
14683	21.786	3.7273	0.	-465.85
14684	21.786	3.8182	5.e-002	-4.1803
14685	22.063	3.8182	0.	-407.24
14686	21.97	3.7273	0.	-426.86
14687	21.97	3.8182	5.e-002	-4.1873
14688	22.247	3.8182	0.	-368.44
14689	22.155	3.7273	0.	-388.02
14690	22.155	3.8182	5.e-002	-4.1975
14691	22.432	3.8182	0.	-329.76
14692	22.339	3.7273	0.	-349.29
14693	22.339	3.8182	5.e-002	-4.2114
14694	22.616	3.8182	0.	-291.17
14695	22.524	3.7273	0.	-310.66
14696	22.524	3.8182	5.e-002	-4.2293
14697	22.801	3.8182	0.	-252.63
14698	22.708	3.7273	0.	-272.09
14699	22.708	3.8182	5.e-002	-4.2518
14700	22.985	3.8182	0.	-214.11
14701	22.893	3.7273	0.	-233.55
14702	22.893	3.8182	5.e-002	-4.2793
14703	23.17	3.8182	0.	-175.55
14704	23.077	3.7273	0.	-194.99
14705	23.077	3.8182	5.e-002	-4.3121
14706	23.354	3.8182	0.	-136.91
14707	23.262	3.7273	0.	-156.37
14708	23.262	3.8182	5.e-002	-4.3504
14709	23.539	3.8182	0.	-98.136
14710	23.446	3.7273	0.	-117.64
14711	23.446	3.8182	5.e-002	-4.3942
14712	23.723	3.8182	0.	-59.255
14713	23.631	3.7273	0.	-78.748
14714	23.631	3.8182	5.e-002	-4.4442
14715	23.815	3.7273	0.	-39.854
14716	23.815	3.8182	5.e-002	-4.5199
14717	23.908	3.8182	0.	-22.458
14718	3.2434	3.6364	0.	-12342
14719	3.1512	3.5455	0.	-13074
14720	3.1512	3.6364	5.e-002	-221.82
14721	3.4279	3.6364	0.	-10296
14722	3.3357	3.5455	0.	-11117
14723	3.3357	3.6364	5.e-002	-173.26
14724	3.6124	3.6364	0.	-8871.7
14725	3.5202	3.5455	0.	-9577.2
14726	3.5202	3.6364	5.e-002	-125.37
14727	3.7969	3.6364	0.	-7883.
14728	3.7047	3.5455	0.	-8447.4
14729	3.7047	3.6364	5.e-002	-88.373
14730	3.9814	3.6364	0.	-7167.3
14731	3.8892	3.5455	0.	-7610.
14732	3.8892	3.6364	5.e-002	-67.123
14733	4.1659	3.6364	0.	-6629.1
14734	4.0737	3.5455	0.	-6975.5
14735	4.0737	3.6364	5.e-002	-53.061
14736	4.3504	3.6364	0.	-6212.9
14737	4.2582	3.5455	0.	-6484.8
14738	4.2582	3.6364	5.e-002	-42.951
14739	4.5349	3.6364	0.	-5883.8
14740	4.4427	3.5455	0.	-6098.5
14741	4.4427	3.6364	5.e-002	-35.31
14742	4.7194	3.6364	0.	-5618.7
14743	4.6272	3.5455	0.	-5789.7
14744	4.6272	3.6364	5.e-002	-29.368
14745	4.9039	3.6364	0.	-5401.8
14746	4.8117	3.5455	0.	-5539.2
14747	4.8117	3.6364	5.e-002	-24.671
14748	5.0885	3.6364	0.	-5221.5
14749	4.9962	3.5455	0.	-5333.2
14750	4.9962	3.6364	5.e-002	-20.927
14751	5.273	3.6364	0.	-5069.4
14752	5.1807	3.5455	0.	-5161.4
14753	5.1807	3.6364	5.e-002	-17.931
14754	5.4575	3.6364	0.	-4939.1
14755	5.3652	3.5455	0.	-5015.8
14756	5.3652	3.6364	5.e-002	-15.528
14757	5.642	3.6364	0.	-4825.7
14758	5.5497	3.5455	0.	-4890.8
14759	5.5497	3.6364	5.e-002	-13.597
14760	5.8265	3.6364	0.	-4725.6
14761	5.7342	3.5455	0.	-4781.6
14762	5.7342	3.6364	5.e-002	-12.047
14763	6.011	3.6364	0.	-4635.7
14764	5.9187	3.5455	0.	-4684.8
14765	5.9187	3.6364	5.e-002	-10.802
14766	6.1955	3.6364	0.	-4553.9
14767	6.1032	3.5455	0.	-4597.6
14768	6.1032	3.6364	5.e-002	-9.8015
14769	6.38	3.6364	0.	-4478.4
14770	6.2877	3.5455	0.	-4517.9
14771	6.2877	3.6364	5.e-002	-8.9973
14772	6.5645	3.6364	0.	-4407.8
14773	6.4722	3.5455	0.	-4444.1
14774	6.4722	3.6364	5.e-002	-8.3502
14775	6.749	3.6364	0.	-4341.
14776	6.6567	3.5455	0.	-4374.9
14777	6.6567	3.6364	5.e-002	-7.8286
14778	6.9335	3.6364	0.	-4277.3
14779	6.8412	3.5455	0.	-4309.3
14780	6.8412	3.6364	5.e-002	-7.4071
14781	7.118	3.6364	0.	-4216.
14782	7.0257	3.5455	0.	-4246.6
14783	7.0257	3.6364	5.e-002	-7.065
14784	7.3025	3.6364	0.	-4156.5
14785	7.2102	3.5455	0.	-4186.
14786	7.2102	3.6364	5.e-002	-6.7862
14787	7.487	3.6364	0.	-4098.5
14788	7.3947	3.5455	0.	-4127.1
14789	7.3947	3.6364	5.e-002	-6.5575
14790	7.6715	3.6364	0.	-4041.7
14791	7.5792	3.5455	0.	-4069.6
14792	7.5792	3.6364	5.e-002	-6.3687
14793	7.856	3.6364	0.	-3985.8
14794	7.7637	3.5455	0.	-4013.2
14795	7.7637	3.6364	5.e-002	-6.2115
14796	8.0405	3.6364	0.	-3930.7
14797	7.9482	3.5455	0.	-3957.7
14798	7.9482	3.6364	5.e-002	-6.0794
14799	8.225	3.6364	0.	-3876.1
14800	8.1327	3.5455	0.	-3902.9
14801	8.1327	3.6364	5.e-002	-5.9674
14802	8.4095	3.6364	0.	-3822.1
14803	8.3173	3.5455	0.	-3848.6
14804	8.3173	3.6364	5.e-002	-5.8713
14805	8.594	3.6364	0.	-3768.5
14806	8.5018	3.5455	0.	-3794.8
14807	8.5018	3.6364	5.e-002	-5.788
14808	8.7785	3.6364	0.	-3715.2
14809	8.6863	3.5455	0.	-3741.4
14810	8.6863	3.6364	5.e-002	-5.7151
14811	8.963	3.6364	0.	-3662.3
14812	8.8708	3.5455	0.	-3688.3
14813	8.8708	3.6364	5.e-002	-5.6505
14814	9.1475	3.6364	0.	-3609.6
14815	9.0553	3.5455	0.	-3635.5
14816	9.0553	3.6364	5.e-002	-5.5927
14817	9.332	3.6364	0.	-3557.2
14818	9.2398	3.5455	0.	-3583.
14819	9.2398	3.6364	5.e-002	-5.5404
14820	9.5165	3.6364	0.	-3505.
14821	9.4243	3.5455	0.	-3530.7
14822	9.4243	3.6364	5.e-002	-5.4925
14823	9.701	3.6364	0.	-3453.
14824	9.6088	3.5455	0.	-3478.6
14825	9.6088	3.6364	5.e-002	-5.4485
14826	9.8855	3.6364	0.	-3401.2
14827	9.7933	3.5455	0.	-3426.7
14828	9.7933	3.6364	5.e-002	-5.4075
14829	10.07	3.6364	0.	-3349.6
14830	9.9778	3.5455	0.	-3375.
14831	9.9778	3.6364	5.e-002	-5.3691
14832	10.255	3.6364	0.	-3298.2
14833	10.162	3.5455	0.	-3323.5
14834	10.162	3.6364	5.e-002	-5.3329
14835	10.439	3.6364	0.	-3246.9
14836	10.347	3.5455	0.	-3272.2
14837	10.347	3.6364	5.e-002	-5.2986
14838	10.624	3.6364	0.	-3195.9
14839	10.531	3.5455	0.	-3221.1
14840	10.531	3.6364	5.e-002	-5.2658
14841	10.808	3.6364	0.	-3145.
14842	10.716	3.5455	0.	-3170.1
14843	10.716	3.6364	5.e-002	-5.2344
14844	10.993	3.6364	0.	-3094.3
14845	10.9	3.5455	0.	-3119.4
14846	10.9	3.6364	5.e-002	-5.2042
14847	11.177	3.6364	0.	-3043.8
14848	11.085	3.5455	0.	-3068.8
14849	11.085	3.6364	5.e-002	-5.175
14850	11.362	3.6364	0.	-2993.5
14851	11.269	3.5455	0.	-3018.3
14852	11.269	3.6364	5.e-002	-5.1468
14853	11.546	3.6364	0.	-2943.3
14854	11.454	3.5455	0.	-2968.1
14855	11.454	3.6364	5.e-002	-5.1193
14856	11.731	3.6364	0.	-2893.3
14857	11.638	3.5455	0.	-2918.
14858	11.638	3.6364	5.e-002	-5.0926
14859	11.915	3.6364	0.	-2843.5
14860	11.823	3.5455	0.	-2868.2
14861	11.823	3.6364	5.e-002	-5.0664
14862	12.1	3.6364	0.	-2793.9
14863	12.007	3.5455	0.	-2818.5
14864	12.007	3.6364	5.e-002	-5.0409
14865	12.284	3.6364	0.	-2744.5
14866	12.192	3.5455	0.	-2768.9
14867	12.192	3.6364	5.e-002	-5.0159
14868	12.469	3.6364	0.	-2695.2
14869	12.376	3.5455	0.	-2719.6
14870	12.376	3.6364	5.e-002	-4.9914
14871	12.653	3.6364	0.	-2646.2
14872	12.561	3.5455	0.	-2670.5
14873	12.561	3.6364	5.e-002	-4.9673
14874	12.838	3.6364	0.	-2597.3
14875	12.745	3.5455	0.	-2621.5
14876	12.745	3.6364	5.e-002	-4.9436
14877	13.022	3.6364	0.	-2548.6
14878	12.93	3.5455	0.	-2572.7
14879	12.93	3.6364	5.e-002	-4.9203
14880	13.207	3.6364	0.	-2500.1
14881	13.114	3.5455	0.	-2524.1
14882	13.114	3.6364	5.e-002	-4.8973
14883	13.391	3.6364	0.	-2451.8
14884	13.299	3.5455	0.	-2475.7
14885	13.299	3.6364	5.e-002	-4.8746
14886	13.576	3.6364	0.	-2403.7
14887	13.483	3.5455	0.	-2427.5
14888	13.483	3.6364	5.e-002	-4.8522
14889	13.76	3.6364	0.	-2355.8
14890	13.668	3.5455	0.	-2379.5
14891	13.668	3.6364	5.e-002	-4.8301
14892	13.945	3.6364	0.	-2308.
14893	13.852	3.5455	0.	-2331.7
14894	13.852	3.6364	5.e-002	-4.8083
14895	14.129	3.6364	0.	-2260.5
14896	14.037	3.5455	0.	-2284.1
14897	14.037	3.6364	5.e-002	-4.7867
14898	14.314	3.6364	0.	-2213.2
14899	14.221	3.5455	0.	-2236.6
14900	14.221	3.6364	5.e-002	-4.7653
14901	14.498	3.6364	0.	-2166.
14902	14.406	3.5455	0.	-2189.4
14903	14.406	3.6364	5.e-002	-4.7442
14904	14.683	3.6364	0.	-2119.1
14905	14.59	3.5455	0.	-2142.3
14906	14.59	3.6364	5.e-002	-4.7233
14907	14.867	3.6364	0.	-2072.3
14908	14.775	3.5455	0.	-2095.5
14909	14.775	3.6364	5.e-002	-4.7026
14910	15.052	3.6364	0.	-2025.8
14911	14.959	3.5455	0.	-2048.8
14912	14.959	3.6364	5.e-002	-4.6821
14913	15.236	3.6364	0.	-1979.4
14914	15.144	3.5455	0.	-2002.4
14915	15.144	3.6364	5.e-002	-4.6617
14916	15.421	3.6364	0.	-1933.2
14917	15.328	3.5455	0.	-1956.1
14918	15.328	3.6364	5.e-002	-4.6416
14919	15.605	3.6364	0.	-1887.3
14920	15.513	3.5455	0.	-1910.1
14921	15.513	3.6364	5.e-002	-4.6217
14922	15.79	3.6364	0.	-1841.5
14923	15.697	3.5455	0.	-1864.2
14924	15.697	3.6364	5.e-002	-4.602
14925	15.974	3.6364	0.	-1796.
14926	15.882	3.5455	0.	-1818.5
14927	15.882	3.6364	5.e-002	-4.5824
14928	16.159	3.6364	0.	-1750.6
14929	16.066	3.5455	0.	-1773.1
14930	16.066	3.6364	5.e-002	-4.5631
14931	16.343	3.6364	0.	-1705.4
14932	16.251	3.5455	0.	-1727.8
14933	16.251	3.6364	5.e-002	-4.5439
14934	16.528	3.6364	0.	-1660.5
14935	16.435	3.5455	0.	-1682.8
14936	16.435	3.6364	5.e-002	-4.525
14937	16.712	3.6364	0.	-1615.7
14938	16.62	3.5455	0.	-1637.9
14939	16.62	3.6364	5.e-002	-4.5062
14940	16.897	3.6364	0.	-1571.2
14941	16.804	3.5455	0.	-1593.3
14942	16.804	3.6364	5.e-002	-4.4877
14943	17.081	3.6364	0.	-1526.8
14944	16.989	3.5455	0.	-1548.8
14945	16.989	3.6364	5.e-002	-4.4694
14946	17.266	3.6364	0.	-1482.7
14947	17.173	3.5455	0.	-1504.6
14948	17.173	3.6364	5.e-002	-4.4514
14949	17.45	3.6364	0.	-1438.7
14950	17.358	3.5455	0.	-1460.5
14951	17.358	3.6364	5.e-002	-4.4336
14952	17.635	3.6364	0.	-1395.
14953	17.542	3.5455	0.	-1416.7
14954	17.542	3.6364	5.e-002	-4.416
14955	17.819	3.6364	0.	-1351.5
14956	17.727	3.5455	0.	-1373.1
14957	17.727	3.6364	5.e-002	-4.3988
14958	18.004	3.6364	0.	-1308.2
14959	17.911	3.5455	0.	-1329.6
14960	17.911	3.6364	5.e-002	-4.3818
14961	18.188	3.6364	0.	-1265.
14962	18.096	3.5455	0.	-1286.4
14963	18.096	3.6364	5.e-002	-4.3652
14964	18.373	3.6364	0.	-1222.1
14965	18.28	3.5455	0.	-1243.4
14966	18.28	3.6364	5.e-002	-4.349
14967	18.557	3.6364	0.	-1179.4
14968	18.465	3.5455	0.	-1200.6
14969	18.465	3.6364	5.e-002	-4.3331
14970	18.742	3.6364	0.	-1137.
14971	18.649	3.5455	0.	-1158.1
14972	18.649	3.6364	5.e-002	-4.3176
14973	18.926	3.6364	0.	-1094.7
14974	18.834	3.5455	0.	-1115.7
14975	18.834	3.6364	5.e-002	-4.3026
14976	19.111	3.6364	0.	-1052.6
14977	19.018	3.5455	0.	-1073.5
14978	19.018	3.6364	5.e-002	-4.2881
14979	19.295	3.6364	0.	-1010.8
14980	19.203	3.5455	0.	-1031.6
14981	19.203	3.6364	5.e-002	-4.2741
14982	19.48	3.6364	0.	-969.12
14983	19.387	3.5455	0.	-989.83
14984	19.387	3.6364	5.e-002	-4.2607
14985	19.664	3.6364	0.	-927.69
14986	19.572	3.5455	0.	-948.3
14987	19.572	3.6364	5.e-002	-4.248
14988	19.849	3.6364	0.	-886.47
14989	19.756	3.5455	0.	-906.99
14990	19.756	3.6364	5.e-002	-4.236
14991	20.033	3.6364	0.	-845.46
14992	19.941	3.5455	0.	-865.89
14993	19.941	3.6364	5.e-002	-4.2247
14994	20.218	3.6364	0.	-804.67
14995	20.125	3.5455	0.	-825.01
14996	20.125	3.6364	5.e-002	-4.2144
14997	20.402	3.6364	0.	-764.08
14998	20.31	3.5455	0.	-784.33
14999	20.31	3.6364	5.e-002	-4.205
15000	20.587	3.6364	0.	-723.71
15001	20.494	3.5455	0.	-743.87
15002	20.494	3.6364	5.e-002	-4.1968
15003	20.771	3.6364	0.	-683.54
15004	20.679	3.5455	0.	-703.62
15005	20.679	3.6364	5.e-002	-4.1898
15006	20.956	3.6364	0.	-643.57
15007	20.863	3.5455	0.	-663.57
15008	20.863	3.6364	5.e-002	-4.1842
15009	21.14	3.6364	0.	-603.81
15010	21.048	3.5455	0.	-623.72
15011	21.048	3.6364	5.e-002	-4.1802
15012	21.325	3.6364	0.	-564.23
15013	21.232	3.5455	0.	-584.07
15014	21.232	3.6364	5.e-002	-4.178
15015	21.509	3.6364	0.	-524.84
15016	21.417	3.5455	0.	-544.6
15017	21.417	3.6364	5.e-002	-4.1778
15018	21.694	3.6364	0.	-485.63
15019	21.601	3.5455	0.	-505.32
15020	21.601	3.6364	5.e-002	-4.1799
15021	21.878	3.6364	0.	-446.58
15022	21.786	3.5455	0.	-466.2
15023	21.786	3.6364	5.e-002	-4.1845
15024	22.063	3.6364	0.	-407.67
15025	21.97	3.5455	0.	-427.24
15026	21.97	3.6364	5.e-002	-4.1921
15027	22.247	3.6364	0.	-368.89
15028	22.155	3.5455	0.	-388.4
15029	22.155	3.6364	5.e-002	-4.2029
15030	22.432	3.6364	0.	-330.21
15031	22.339	3.5455	0.	-349.68
15032	22.339	3.6364	5.e-002	-4.2174
15033	22.616	3.6364	0.	-291.6
15034	22.524	3.5455	0.	-311.04
15035	22.524	3.6364	5.e-002	-4.2358
15036	22.801	3.6364	0.	-253.02
15037	22.708	3.5455	0.	-272.45
15038	22.708	3.6364	5.e-002	-4.2587
15039	22.985	3.6364	0.	-214.45
15040	22.893	3.5455	0.	-233.87
15041	22.893	3.6364	5.e-002	-4.2863
15042	23.17	3.6364	0.	-175.82
15043	23.077	3.5455	0.	-195.26
15044	23.077	3.6364	5.e-002	-4.3188
15045	23.354	3.6364	0.	-137.1
15046	23.262	3.5455	0.	-156.57
15047	23.262	3.6364	5.e-002	-4.3565
15048	23.539	3.6364	0.	-98.244
15049	23.446	3.5455	0.	-117.77
15050	23.446	3.6364	5.e-002	-4.399
15051	23.723	3.6364	0.	-59.27
15052	23.631	3.5455	0.	-78.801
15053	23.631	3.6364	5.e-002	-4.4468
15054	23.815	3.5455	0.	-39.826
15055	23.815	3.6364	5.e-002	-4.5134
15056	23.908	3.6364	0.	-22.433
15057	3.2434	3.4545	0.	-11868
15058	3.1512	3.3636	0.	-12348
15059	3.1512	3.4545	5.e-002	-127.67
15060	3.4279	3.4545	0.	-10416
15061	3.3357	3.3636	0.	-11039
15062	3.3357	3.4545	5.e-002	-133.32
15063	3.6124	3.4545	0.	-9161.5
15064	3.5202	3.3636	0.	-9760.8
15065	3.5202	3.4545	5.e-002	-109.69
15066	3.7969	3.4545	0.	-8177.7
15067	3.7047	3.3636	0.	-8690.7
15068	3.7047	3.4545	5.e-002	-87.741
15069	3.9814	3.4545	0.	-7419.3
15070	3.8892	3.3636	0.	-7837.1
15071	3.8892	3.4545	5.e-002	-69.916
15072	4.1659	3.4545	0.	-6831.4
15073	4.0737	3.3636	0.	-7164.8
15074	4.0737	3.4545	5.e-002	-56.312
15075	4.3504	3.4545	0.	-6370.3
15076	4.2582	3.3636	0.	-6634.8
15077	4.2582	3.4545	5.e-002	-45.845
15078	4.5349	3.4545	0.	-6004.3
15079	4.4427	3.3636	0.	-6214.4
15080	4.4427	3.4545	5.e-002	-37.666
15081	4.7194	3.4545	0.	-5710.1
15082	4.6272	3.3636	0.	-5878.
15083	4.6272	3.4545	5.e-002	-31.211
15084	4.9039	3.4545	0.	-5470.6
15085	4.8117	3.3636	0.	-5605.9
15086	4.8117	3.4545	5.e-002	-26.092
15087	5.0885	3.4545	0.	-5273.
15088	4.9962	3.3636	0.	-5383.2
15089	4.9962	3.4545	5.e-002	-22.018
15090	5.273	3.4545	0.	-5107.8
15091	5.1807	3.3636	0.	-5198.6
15092	5.1807	3.4545	5.e-002	-18.771
15093	5.4575	3.4545	0.	-4967.5
15094	5.3652	3.3636	0.	-5043.5
15095	5.3652	3.4545	5.e-002	-16.18
15096	5.642	3.4545	0.	-4846.6
15097	5.5497	3.3636	0.	-4911.1
15098	5.5497	3.4545	5.e-002	-14.109
15099	5.8265	3.4545	0.	-4740.8
15100	5.7342	3.3636	0.	-4796.4
15101	5.7342	3.4545	5.e-002	-12.452
15102	6.011	3.4545	0.	-4646.6
15103	5.9187	3.3636	0.	-4695.5
15104	5.9187	3.4545	5.e-002	-11.126
15105	6.1955	3.4545	0.	-4561.6
15106	6.1032	3.3636	0.	-4605.2
15107	6.1032	3.4545	5.e-002	-10.062
15108	6.38	3.4545	0.	-4483.7
15109	6.2877	3.3636	0.	-4523.3
15110	6.2877	3.4545	5.e-002	-9.2087
15111	6.5645	3.4545	0.	-4411.3
15112	6.4722	3.3636	0.	-4447.8
15113	6.4722	3.4545	5.e-002	-8.5222
15114	6.749	3.4545	0.	-4343.3
15115	6.6567	3.3636	0.	-4377.3
15116	6.6567	3.4545	5.e-002	-7.9688
15117	6.9335	3.4545	0.	-4278.6
15118	6.8412	3.3636	0.	-4310.8
15119	6.8412	3.4545	5.e-002	-7.5213
15120	7.118	3.4545	0.	-4216.6
15121	7.0257	3.3636	0.	-4247.3
15122	7.0257	3.4545	5.e-002	-7.1581
15123	7.3025	3.4545	0.	-4156.6
15124	7.2102	3.3636	0.	-4186.2
15125	7.2102	3.4545	5.e-002	-6.8619
15126	7.487	3.4545	0.	-4098.2
15127	7.3947	3.3636	0.	-4127.
15128	7.3947	3.4545	5.e-002	-6.6189
15129	7.6715	3.4545	0.	-4041.2
15130	7.5792	3.3636	0.	-4069.3
15131	7.5792	3.4545	5.e-002	-6.4185
15132	7.856	3.4545	0.	-3985.1
15133	7.7637	3.3636	0.	-4012.7
15134	7.7637	3.4545	5.e-002	-6.2517
15135	8.0405	3.4545	0.	-3929.9
15136	7.9482	3.3636	0.	-3957.1
15137	7.9482	3.4545	5.e-002	-6.1119
15138	8.225	3.4545	0.	-3875.3
15139	8.1327	3.3636	0.	-3902.2
15140	8.1327	3.4545	5.e-002	-5.9935
15141	8.4095	3.4545	0.	-3821.3
15142	8.3173	3.3636	0.	-3847.9
15143	8.3173	3.4545	5.e-002	-5.8924
15144	8.594	3.4545	0.	-3767.7
15145	8.5018	3.3636	0.	-3794.1
15146	8.5018	3.4545	5.e-002	-5.8051
15147	8.7785	3.4545	0.	-3714.4
15148	8.6863	3.3636	0.	-3740.7
15149	8.6863	3.4545	5.e-002	-5.7289
15150	8.963	3.4545	0.	-3661.5
15151	8.8708	3.3636	0.	-3687.6
15152	8.8708	3.4545	5.e-002	-5.6616
15153	9.1475	3.4545	0.	-3608.8
15154	9.0553	3.3636	0.	-3634.8
15155	9.0553	3.4545	5.e-002	-5.6017
15156	9.332	3.4545	0.	-3556.5
15157	9.2398	3.3636	0.	-3582.3
15158	9.2398	3.4545	5.e-002	-5.5477
15159	9.5165	3.4545	0.	-3504.3
15160	9.4243	3.3636	0.	-3530.1
15161	9.4243	3.4545	5.e-002	-5.4985
15162	9.701	3.4545	0.	-3452.3
15163	9.6088	3.3636	0.	-3478.
15164	9.6088	3.4545	5.e-002	-5.4534
15165	9.8855	3.4545	0.	-3400.6
15166	9.7933	3.3636	0.	-3426.2
15167	9.7933	3.4545	5.e-002	-5.4115
15168	10.07	3.4545	0.	-3349.
15169	9.9778	3.3636	0.	-3374.5
15170	9.9778	3.4545	5.e-002	-5.3725
15171	10.255	3.4545	0.	-3297.6
15172	10.162	3.3636	0.	-3323.
15173	10.162	3.4545	5.e-002	-5.3357
15174	10.439	3.4545	0.	-3246.4
15175	10.347	3.3636	0.	-3271.8
15176	10.347	3.4545	5.e-002	-5.3009
15177	10.624	3.4545	0.	-3195.4
15178	10.531	3.3636	0.	-3220.6
15179	10.531	3.4545	5.e-002	-5.2678
15180	10.808	3.4545	0.	-3144.5
15181	10.716	3.3636	0.	-3169.7
15182	10.716	3.4545	5.e-002	-5.2361
15183	10.993	3.4545	0.	-3093.8
15184	10.9	3.3636	0.	-3119.
15185	10.9	3.4545	5.e-002	-5.2056
15186	11.177	3.4545	0.	-3043.3
15187	11.085	3.3636	0.	-3068.4
15188	11.085	3.4545	5.e-002	-5.1763
15189	11.362	3.4545	0.	-2993.
15190	11.269	3.3636	0.	-3018.
15191	11.269	3.4545	5.e-002	-5.1479
15192	11.546	3.4545	0.	-2942.9
15193	11.454	3.3636	0.	-2967.7
15194	11.454	3.4545	5.e-002	-5.1203
15195	11.731	3.4545	0.	-2892.9
15196	11.638	3.3636	0.	-2917.7
15197	11.638	3.4545	5.e-002	-5.0934
15198	11.915	3.4545	0.	-2843.1
15199	11.823	3.3636	0.	-2867.8
15200	11.823	3.4545	5.e-002	-5.0672
15201	12.1	3.4545	0.	-2793.5
15202	12.007	3.3636	0.	-2818.1
15203	12.007	3.4545	5.e-002	-5.0416
15204	12.284	3.4545	0.	-2744.1
15205	12.192	3.3636	0.	-2768.6
15206	12.192	3.4545	5.e-002	-5.0166
15207	12.469	3.4545	0.	-2694.9
15208	12.376	3.3636	0.	-2719.3
15209	12.376	3.4545	5.e-002	-4.992
15210	12.653	3.4545	0.	-2645.8
15211	12.561	3.3636	0.	-2670.2
15212	12.561	3.4545	5.e-002	-4.9679
15213	12.838	3.4545	0.	-2597.
15214	12.745	3.3636	0.	-2621.2
15215	12.745	3.4545	5.e-002	-4.9441
15216	13.022	3.4545	0.	-2548.3
15217	12.93	3.3636	0.	-2572.4
15218	12.93	3.4545	5.e-002	-4.9207
15219	13.207	3.4545	0.	-2499.8
15220	13.114	3.3636	0.	-2523.9
15221	13.114	3.4545	5.e-002	-4.8977
15222	13.391	3.4545	0.	-2451.5
15223	13.299	3.3636	0.	-2475.5
15224	13.299	3.4545	5.e-002	-4.875
15225	13.576	3.4545	0.	-2403.4
15226	13.483	3.3636	0.	-2427.3
15227	13.483	3.4545	5.e-002	-4.8526
15228	13.76	3.4545	0.	-2355.5
15229	13.668	3.3636	0.	-2379.3
15230	13.668	3.4545	5.e-002	-4.8305
15231	13.945	3.4545	0.	-2307.7
15232	13.852	3.3636	0.	-2331.5
15233	13.852	3.4545	5.e-002	-4.8086
15234	14.129	3.4545	0.	-2260.2
15235	14.037	3.3636	0.	-2283.8
15236	14.037	3.4545	5.e-002	-4.787
15237	14.314	3.4545	0.	-2212.9
15238	14.221	3.3636	0.	-2236.4
15239	14.221	3.4545	5.e-002	-4.7656
15240	14.498	3.4545	0.	-2165.7
15241	14.406	3.3636	0.	-2189.2
15242	14.406	3.4545	5.e-002	-4.7445
15243	14.683	3.4545	0.	-2118.8
15244	14.59	3.3636	0.	-2142.1
15245	14.59	3.4545	5.e-002	-4.7235
15246	14.867	3.4545	0.	-2072.
15247	14.775	3.3636	0.	-2095.3
15248	14.775	3.4545	5.e-002	-4.7028
15249	15.052	3.4545	0.	-2025.5
15250	14.959	3.3636	0.	-2048.6
15251	14.959	3.4545	5.e-002	-4.6823
15252	15.236	3.4545	0.	-1979.1
15253	15.144	3.3636	0.	-2002.2
15254	15.144	3.4545	5.e-002	-4.662
15255	15.421	3.4545	0.	-1933.
15256	15.328	3.3636	0.	-1955.9
15257	15.328	3.4545	5.e-002	-4.6418
15258	15.605	3.4545	0.	-1887.
15259	15.513	3.3636	0.	-1909.9
15260	15.513	3.4545	5.e-002	-4.6219
15261	15.79	3.4545	0.	-1841.3
15262	15.697	3.3636	0.	-1864.
15263	15.697	3.4545	5.e-002	-4.6022
15264	15.974	3.4545	0.	-1795.7
15265	15.882	3.3636	0.	-1818.3
15266	15.882	3.4545	5.e-002	-4.5826
15267	16.159	3.4545	0.	-1750.3
15268	16.066	3.3636	0.	-1772.9
15269	16.066	3.4545	5.e-002	-4.5633
15270	16.343	3.4545	0.	-1705.2
15271	16.251	3.3636	0.	-1727.6
15272	16.251	3.4545	5.e-002	-4.5441
15273	16.528	3.4545	0.	-1660.2
15274	16.435	3.3636	0.	-1682.6
15275	16.435	3.4545	5.e-002	-4.5252
15276	16.712	3.4545	0.	-1615.5
15277	16.62	3.3636	0.	-1637.7
15278	16.62	3.4545	5.e-002	-4.5064
15279	16.897	3.4545	0.	-1570.9
15280	16.804	3.3636	0.	-1593.1
15281	16.804	3.4545	5.e-002	-4.4879
15282	17.081	3.4545	0.	-1526.6
15283	16.989	3.3636	0.	-1548.6
15284	16.989	3.4545	5.e-002	-4.4696
15285	17.266	3.4545	0.	-1482.5
15286	17.173	3.3636	0.	-1504.4
15287	17.173	3.4545	5.e-002	-4.4516
15288	17.45	3.4545	0.	-1438.5
15289	17.358	3.3636	0.	-1460.4
15290	17.358	3.4545	5.e-002	-4.4338
15291	17.635	3.4545	0.	-1394.8
15292	17.542	3.3636	0.	-1416.5
15293	17.542	3.4545	5.e-002	-4.4163
15294	17.819	3.4545	0.	-1351.3
15295	17.727	3.3636	0.	-1372.9
15296	17.727	3.4545	5.e-002	-4.399
15297	18.004	3.4545	0.	-1308.
15298	17.911	3.3636	0.	-1329.5
15299	17.911	3.4545	5.e-002	-4.3821
15300	18.188	3.4545	0.	-1264.9
15301	18.096	3.3636	0.	-1286.3
15302	18.096	3.4545	5.e-002	-4.3655
15303	18.373	3.4545	0.	-1222.
15304	18.28	3.3636	0.	-1243.3
15305	18.28	3.4545	5.e-002	-4.3493
15306	18.557	3.4545	0.	-1179.3
15307	18.465	3.3636	0.	-1200.5
15308	18.465	3.4545	5.e-002	-4.3334
15309	18.742	3.4545	0.	-1136.8
15310	18.649	3.3636	0.	-1157.9
15311	18.649	3.4545	5.e-002	-4.318
15312	18.926	3.4545	0.	-1094.6
15313	18.834	3.3636	0.	-1115.6
15314	18.834	3.4545	5.e-002	-4.303
15315	19.111	3.4545	0.	-1052.5
15316	19.018	3.3636	0.	-1073.4
15317	19.018	3.4545	5.e-002	-4.2885
15318	19.295	3.4545	0.	-1010.7
15319	19.203	3.3636	0.	-1031.5
15320	19.203	3.4545	5.e-002	-4.2746
15321	19.48	3.4545	0.	-969.05
15322	19.387	3.3636	0.	-989.77
15323	19.387	3.4545	5.e-002	-4.2612
15324	19.664	3.4545	0.	-927.65
15325	19.572	3.3636	0.	-948.26
15326	19.572	3.4545	5.e-002	-4.2486
15327	19.849	3.4545	0.	-886.45
15328	19.756	3.3636	0.	-906.97
15329	19.756	3.4545	5.e-002	-4.2366
15330	20.033	3.4545	0.	-845.47
15331	19.941	3.3636	0.	-865.89
15332	19.941	3.4545	5.e-002	-4.2255
15333	20.218	3.4545	0.	-804.71
15334	20.125	3.3636	0.	-825.03
15335	20.125	3.4545	5.e-002	-4.2152
15336	20.402	3.4545	0.	-764.16
15337	20.31	3.3636	0.	-784.38
15338	20.31	3.4545	5.e-002	-4.206
15339	20.587	3.4545	0.	-723.81
15340	20.494	3.3636	0.	-743.95
15341	20.494	3.4545	5.e-002	-4.1979
15342	20.771	3.4545	0.	-683.68
15343	20.679	3.3636	0.	-703.72
15344	20.679	3.4545	5.e-002	-4.1911
15345	20.956	3.4545	0.	-643.74
15346	20.863	3.3636	0.	-663.7
15347	20.863	3.4545	5.e-002	-4.1858
15348	21.14	3.4545	0.	-604.01
15349	21.048	3.3636	0.	-623.88
15350	21.048	3.4545	5.e-002	-4.182
15351	21.325	3.4545	0.	-564.47
15352	21.232	3.3636	0.	-584.25
15353	21.232	3.4545	5.e-002	-4.1801
15354	21.509	3.4545	0.	-525.11
15355	21.417	3.3636	0.	-544.81
15356	21.417	3.4545	5.e-002	-4.1802
15357	21.694	3.4545	0.	-485.92
15358	21.601	3.3636	0.	-505.55
15359	21.601	3.4545	5.e-002	-4.1827
15360	21.878	3.4545	0.	-446.89
15361	21.786	3.3636	0.	-466.46
15362	21.786	3.4545	5.e-002	-4.1877
15363	22.063	3.4545	0.	-408.
15364	21.97	3.3636	0.	-427.51
15365	21.97	3.4545	5.e-002	-4.1957
15366	22.247	3.4545	0.	-369.22
15367	22.155	3.3636	0.	-388.68
15368	22.155	3.4545	5.e-002	-4.207
15369	22.432	3.4545	0.	-330.54
15370	22.339	3.3636	0.	-349.96
15371	22.339	3.4545	5.e-002	-4.2218
15372	22.616	3.4545	0.	-291.91
15373	22.524	3.3636	0.	-311.31
15374	22.524	3.4545	5.e-002	-4.2407
15375	22.801	3.4545	0.	-253.31
15376	22.708	3.3636	0.	-272.7
15377	22.708	3.4545	5.e-002	-4.2638
15378	22.985	3.4545	0.	-214.69
15379	22.893	3.3636	0.	-234.09
15380	22.893	3.4545	5.e-002	-4.2914
15381	23.17	3.4545	0.	-176.02
15382	23.077	3.3636	0.	-195.44
15383	23.077	3.4545	5.e-002	-4.3237
15384	23.354	3.4545	0.	-137.24
15385	23.262	3.3636	0.	-156.71
15386	23.262	3.4545	5.e-002	-4.3608
15387	23.539	3.4545	0.	-98.319
15388	23.446	3.3636	0.	-117.86
15389	23.446	3.4545	5.e-002	-4.4024
15390	23.723	3.4545	0.	-59.279
15391	23.631	3.3636	0.	-78.836
15392	23.631	3.4545	5.e-002	-4.4486
15393	23.815	3.3636	0.	-39.805
15394	23.815	3.4545	5.e-002	-4.5084
15395	23.908	3.4545	0.	-22.414
15396	3.2434	3.2727	0.	-11528
15397	3.1512	3.1818	0.	-11946
15398	3.1512	3.2727	5.e-002	-82.56
15399	3.4279	3.2727	0.	-10397
15400	3.3357	3.1818	0.	-10927
15401	3.3357	3.2727	5.e-002	-99.942
15402	3.6124	3.2727	0.	-9299.4
15403	3.5202	3.1818	0.	-9824.3
15404	3.5202	3.2727	5.e-002	-96.561
15405	3.7969	3.2727	0.	-8355.3
15406	3.7047	3.1818	0.	-8817.2
15407	3.7047	3.2727	5.e-002	-84.313
15408	3.9814	3.2727	0.	-7585.2
15409	3.8892	3.1818	0.	-7968.7
15410	3.8892	3.2727	5.e-002	-70.657
15411	4.1659	3.2727	0.	-6969.5
15412	4.0737	3.1818	0.	-7279.4
15413	4.0737	3.2727	5.e-002	-58.27
15414	4.3504	3.2727	0.	-6479.5
15415	4.2582	3.1818	0.	-6727.4
15416	4.2582	3.2727	5.e-002	-47.848
15417	4.5349	3.2727	0.	-6088.4
15418	4.4427	3.1818	0.	-6286.5
15419	4.4427	3.2727	5.e-002	-39.357
15420	4.7194	3.2727	0.	-5773.9
15421	4.6272	3.1818	0.	-5933.
15422	4.6272	3.2727	5.e-002	-32.543
15423	4.9039	3.2727	0.	-5518.5
15424	4.8117	3.1818	0.	-5647.3
15425	4.8117	3.2727	5.e-002	-27.11
15426	5.0885	3.2727	0.	-5308.8
15427	4.9962	3.1818	0.	-5414.2
15428	4.9962	3.2727	5.e-002	-22.79
15429	5.273	3.2727	0.	-5134.3
15430	5.1807	3.1818	0.	-5221.7
15431	5.1807	3.2727	5.e-002	-19.357
15432	5.4575	3.2727	0.	-4987.1
15433	5.3652	3.1818	0.	-5060.6
15434	5.3652	3.2727	5.e-002	-16.628
15435	5.642	3.2727	0.	-4861.
15436	5.5497	3.1818	0.	-4923.7
15437	5.5497	3.2727	5.e-002	-14.455
15438	5.8265	3.2727	0.	-4751.2
15439	5.7342	3.1818	0.	-4805.6
15440	5.7342	3.2727	5.e-002	-12.724
15441	6.011	3.2727	0.	-4654.1
15442	5.9187	3.1818	0.	-4702.1
15443	5.9187	3.2727	5.e-002	-11.341
15444	6.1955	3.2727	0.	-4566.9
15445	6.1032	3.1818	0.	-4609.9
15446	6.1032	3.2727	5.e-002	-10.235
15447	6.38	3.2727	0.	-4487.3
15448	6.2877	3.1818	0.	-4526.5
15449	6.2877	3.2727	5.e-002	-9.3479
15450	6.5645	3.2727	0.	-4413.7
15451	6.4722	3.1818	0.	-4450.
15452	6.4722	3.2727	5.e-002	-8.6353
15453	6.749	3.2727	0.	-4344.8
15454	6.6567	3.1818	0.	-4378.7
15455	6.6567	3.2727	5.e-002	-8.061
15456	6.9335	3.2727	0.	-4279.5
15457	6.8412	3.1818	0.	-4311.6
15458	6.8412	3.2727	5.e-002	-7.5965
15459	7.118	3.2727	0.	-4216.9
15460	7.0257	3.1818	0.	-4247.7
15461	7.0257	3.2727	5.e-002	-7.2195
15462	7.3025	3.2727	0.	-4156.6
15463	7.2102	3.1818	0.	-4186.4
15464	7.2102	3.2727	5.e-002	-6.9119
15465	7.487	3.2727	0.	-4098.1
15466	7.3947	3.1818	0.	-4126.9
15467	7.3947	3.2727	5.e-002	-6.6597
15468	7.6715	3.2727	0.	-4040.8
15469	7.5792	3.1818	0.	-4069.1
15470	7.5792	3.2727	5.e-002	-6.4515
15471	7.856	3.2727	0.	-3984.7
15472	7.7637	3.1818	0.	-4012.4
15473	7.7637	3.2727	5.e-002	-6.2785
15474	8.0405	3.2727	0.	-3929.4
15475	7.9482	3.1818	0.	-3956.7
15476	7.9482	3.2727	5.e-002	-6.1336
15477	8.225	3.2727	0.	-3874.8
15478	8.1327	3.1818	0.	-3901.8
15479	8.1327	3.2727	5.e-002	-6.0111
15480	8.4095	3.2727	0.	-3820.7
15481	8.3173	3.1818	0.	-3847.5
15482	8.3173	3.2727	5.e-002	-5.9066
15483	8.594	3.2727	0.	-3767.1
15484	8.5018	3.1818	0.	-3793.6
15485	8.5018	3.2727	5.e-002	-5.8165
15486	8.7785	3.2727	0.	-3713.8
15487	8.6863	3.1818	0.	-3740.2
15488	8.6863	3.2727	5.e-002	-5.7381
15489	8.963	3.2727	0.	-3660.9
15490	8.8708	3.1818	0.	-3687.2
15491	8.8708	3.2727	5.e-002	-5.6691
15492	9.1475	3.2727	0.	-3608.3
15493	9.0553	3.1818	0.	-3634.4
15494	9.0553	3.2727	5.e-002	-5.6077
15495	9.332	3.2727	0.	-3555.9
15496	9.2398	3.1818	0.	-3581.9
15497	9.2398	3.2727	5.e-002	-5.5526
15498	9.5165	3.2727	0.	-3503.8
15499	9.4243	3.1818	0.	-3529.7
15500	9.4243	3.2727	5.e-002	-5.5025
15501	9.701	3.2727	0.	-3451.9
15502	9.6088	3.1818	0.	-3477.7
15503	9.6088	3.2727	5.e-002	-5.4567
15504	9.8855	3.2727	0.	-3400.1
15505	9.7933	3.1818	0.	-3425.8
15506	9.7933	3.2727	5.e-002	-5.4142
15507	10.07	3.2727	0.	-3348.6
15508	9.9778	3.1818	0.	-3374.2
15509	9.9778	3.2727	5.e-002	-5.3747
15510	10.255	3.2727	0.	-3297.2
15511	10.162	3.1818	0.	-3322.7
15512	10.162	3.2727	5.e-002	-5.3376
15513	10.439	3.2727	0.	-3246.
15514	10.347	3.1818	0.	-3271.5
15515	10.347	3.2727	5.e-002	-5.3025
15516	10.624	3.2727	0.	-3195.
15517	10.531	3.1818	0.	-3220.4
15518	10.531	3.2727	5.e-002	-5.2692
15519	10.808	3.2727	0.	-3144.2
15520	10.716	3.1818	0.	-3169.5
15521	10.716	3.2727	5.e-002	-5.2372
15522	10.993	3.2727	0.	-3093.5
15523	10.9	3.1818	0.	-3118.7
15524	10.9	3.2727	5.e-002	-5.2066
15525	11.177	3.2727	0.	-3043.
15526	11.085	3.1818	0.	-3068.1
15527	11.085	3.2727	5.e-002	-5.1772
15528	11.362	3.2727	0.	-2992.7
15529	11.269	3.1818	0.	-3017.7
15530	11.269	3.2727	5.e-002	-5.1486
15531	11.546	3.2727	0.	-2942.6
15532	11.454	3.1818	0.	-2967.5
15533	11.454	3.2727	5.e-002	-5.1209
15534	11.731	3.2727	0.	-2892.6
15535	11.638	3.1818	0.	-2917.5
15536	11.638	3.2727	5.e-002	-5.094
15537	11.915	3.2727	0.	-2842.9
15538	11.823	3.1818	0.	-2867.6
15539	11.823	3.2727	5.e-002	-5.0678
15540	12.1	3.2727	0.	-2793.3
15541	12.007	3.1818	0.	-2817.9
15542	12.007	3.2727	5.e-002	-5.0421
15543	12.284	3.2727	0.	-2743.9
15544	12.192	3.1818	0.	-2768.4
15545	12.192	3.2727	5.e-002	-5.017
15546	12.469	3.2727	0.	-2694.6
15547	12.376	3.1818	0.	-2719.1
15548	12.376	3.2727	5.e-002	-4.9924
15549	12.653	3.2727	0.	-2645.6
15550	12.561	3.1818	0.	-2670.
15551	12.561	3.2727	5.e-002	-4.9682
15552	12.838	3.2727	0.	-2596.7
15553	12.745	3.1818	0.	-2621.
15554	12.745	3.2727	5.e-002	-4.9444
15555	13.022	3.2727	0.	-2548.1
15556	12.93	3.1818	0.	-2572.3
15557	12.93	3.2727	5.e-002	-4.921
15558	13.207	3.2727	0.	-2499.6
15559	13.114	3.1818	0.	-2523.7
15560	13.114	3.2727	5.e-002	-4.898
15561	13.391	3.2727	0.	-2451.3
15562	13.299	3.1818	0.	-2475.3
15563	13.299	3.2727	5.e-002	-4.8753
15564	13.576	3.2727	0.	-2403.2
15565	13.483	3.1818	0.	-2427.1
15566	13.483	3.2727	5.e-002	-4.8529
15567	13.76	3.2727	0.	-2355.3
15568	13.668	3.1818	0.	-2379.1
15569	13.668	3.2727	5.e-002	-4.8307
15570	13.945	3.2727	0.	-2307.6
15571	13.852	3.1818	0.	-2331.3
15572	13.852	3.2727	5.e-002	-4.8088
15573	14.129	3.2727	0.	-2260.
15574	14.037	3.1818	0.	-2283.7
15575	14.037	3.2727	5.e-002	-4.7872
15576	14.314	3.2727	0.	-2212.7
15577	14.221	3.1818	0.	-2236.3
15578	14.221	3.2727	5.e-002	-4.7658
15579	14.498	3.2727	0.	-2165.6
15580	14.406	3.1818	0.	-2189.
15581	14.406	3.2727	5.e-002	-4.7446
15582	14.683	3.2727	0.	-2118.6
15583	14.59	3.1818	0.	-2142.
15584	14.59	3.2727	5.e-002	-4.7237
15585	14.867	3.2727	0.	-2071.9
15586	14.775	3.1818	0.	-2095.1
15587	14.775	3.2727	5.e-002	-4.703
15588	15.052	3.2727	0.	-2025.3
15589	14.959	3.1818	0.	-2048.5
15590	14.959	3.2727	5.e-002	-4.6824
15591	15.236	3.2727	0.	-1979.
15592	15.144	3.1818	0.	-2002.
15593	15.144	3.2727	5.e-002	-4.6621
15594	15.421	3.2727	0.	-1932.8
15595	15.328	3.1818	0.	-1955.8
15596	15.328	3.2727	5.e-002	-4.642
15597	15.605	3.2727	0.	-1886.9
15598	15.513	3.1818	0.	-1909.7
15599	15.513	3.2727	5.e-002	-4.6221
15600	15.79	3.2727	0.	-1841.1
15601	15.697	3.1818	0.	-1863.9
15602	15.697	3.2727	5.e-002	-4.6023
15603	15.974	3.2727	0.	-1795.5
15604	15.882	3.1818	0.	-1818.2
15605	15.882	3.2727	5.e-002	-4.5828
15606	16.159	3.2727	0.	-1750.2
15607	16.066	3.1818	0.	-1772.8
15608	16.066	3.2727	5.e-002	-4.5634
15609	16.343	3.2727	0.	-1705.
15610	16.251	3.1818	0.	-1727.5
15611	16.251	3.2727	5.e-002	-4.5443
15612	16.528	3.2727	0.	-1660.1
15613	16.435	3.1818	0.	-1682.4
15614	16.435	3.2727	5.e-002	-4.5253
15615	16.712	3.2727	0.	-1615.3
15616	16.62	3.1818	0.	-1637.6
15617	16.62	3.2727	5.e-002	-4.5066
15618	16.897	3.2727	0.	-1570.8
15619	16.804	3.1818	0.	-1593.
15620	16.804	3.2727	5.e-002	-4.4881
15621	17.081	3.2727	0.	-1526.4
15622	16.989	3.1818	0.	-1548.5
15623	16.989	3.2727	5.e-002	-4.4698
15624	17.266	3.2727	0.	-1482.3
15625	17.173	3.1818	0.	-1504.3
15626	17.173	3.2727	5.e-002	-4.4517
15627	17.45	3.2727	0.	-1438.4
15628	17.358	3.1818	0.	-1460.2
15629	17.358	3.2727	5.e-002	-4.434
15630	17.635	3.2727	0.	-1394.7
15631	17.542	3.1818	0.	-1416.4
15632	17.542	3.2727	5.e-002	-4.4164
15633	17.819	3.2727	0.	-1351.2
15634	17.727	3.1818	0.	-1372.8
15635	17.727	3.2727	5.e-002	-4.3992
15636	18.004	3.2727	0.	-1307.8
15637	17.911	3.1818	0.	-1329.4
15638	17.911	3.2727	5.e-002	-4.3823
15639	18.188	3.2727	0.	-1264.7
15640	18.096	3.1818	0.	-1286.2
15641	18.096	3.2727	5.e-002	-4.3657
15642	18.373	3.2727	0.	-1221.9
15643	18.28	3.1818	0.	-1243.2
15644	18.28	3.2727	5.e-002	-4.3495
15645	18.557	3.2727	0.	-1179.2
15646	18.465	3.1818	0.	-1200.4
15647	18.465	3.2727	5.e-002	-4.3337
15648	18.742	3.2727	0.	-1136.7
15649	18.649	3.1818	0.	-1157.9
15650	18.649	3.2727	5.e-002	-4.3182
15651	18.926	3.2727	0.	-1094.5
15652	18.834	3.1818	0.	-1115.5
15653	18.834	3.2727	5.e-002	-4.3033
15654	19.111	3.2727	0.	-1052.4
15655	19.018	3.1818	0.	-1073.4
15656	19.018	3.2727	5.e-002	-4.2888
15657	19.295	3.2727	0.	-1010.6
15658	19.203	3.1818	0.	-1031.4
15659	19.203	3.2727	5.e-002	-4.2749
15660	19.48	3.2727	0.	-969.02
15661	19.387	3.1818	0.	-989.74
15662	19.387	3.2727	5.e-002	-4.2616
15663	19.664	3.2727	0.	-927.62
15664	19.572	3.1818	0.	-948.24
15665	19.572	3.2727	5.e-002	-4.249
15666	19.849	3.2727	0.	-886.45
15667	19.756	3.1818	0.	-906.96
15668	19.756	3.2727	5.e-002	-4.2371
15669	20.033	3.2727	0.	-845.49
15670	19.941	3.1818	0.	-865.9
15671	19.941	3.2727	5.e-002	-4.226
15672	20.218	3.2727	0.	-804.74
15673	20.125	3.1818	0.	-825.05
15674	20.125	3.2727	5.e-002	-4.2158
15675	20.402	3.2727	0.	-764.21
15676	20.31	3.1818	0.	-784.42
15677	20.31	3.2727	5.e-002	-4.2067
15678	20.587	3.2727	0.	-723.89
15679	20.494	3.1818	0.	-743.99
15680	20.494	3.2727	5.e-002	-4.1987
15681	20.771	3.2727	0.	-683.77
15682	20.679	3.1818	0.	-703.78
15683	20.679	3.2727	5.e-002	-4.192
15684	20.956	3.2727	0.	-643.86
15685	20.863	3.1818	0.	-663.78
15686	20.863	3.2727	5.e-002	-4.1868
15687	21.14	3.2727	0.	-604.15
15688	21.048	3.1818	0.	-623.97
15689	21.048	3.2727	5.e-002	-4.1832
15690	21.325	3.2727	0.	-564.63
15691	21.232	3.1818	0.	-584.37
15692	21.232	3.2727	5.e-002	-4.1815
15693	21.509	3.2727	0.	-525.29
15694	21.417	3.1818	0.	-544.94
15695	21.417	3.2727	5.e-002	-4.1818
15696	21.694	3.2727	0.	-486.12
15697	21.601	3.1818	0.	-505.7
15698	21.601	3.2727	5.e-002	-4.1845
15699	21.878	3.2727	0.	-447.1
15700	21.786	3.1818	0.	-466.61
15701	21.786	3.2727	5.e-002	-4.1899
15702	22.063	3.2727	0.	-408.21
15703	21.97	3.1818	0.	-427.67
15704	21.97	3.2727	5.e-002	-4.1982
15705	22.247	3.2727	0.	-369.44
15706	22.155	3.1818	0.	-388.85
15707	22.155	3.2727	5.e-002	-4.2097
15708	22.432	3.2727	0.	-330.75
15709	22.339	3.1818	0.	-350.13
15710	22.339	3.2727	5.e-002	-4.2248
15711	22.616	3.2727	0.	-292.12
15712	22.524	3.1818	0.	-311.47
15713	22.524	3.2727	5.e-002	-4.2439
15714	22.801	3.2727	0.	-253.5
15715	22.708	3.1818	0.	-272.85
15716	22.708	3.2727	5.e-002	-4.2671
15717	22.985	3.2727	0.	-214.85
15718	22.893	3.1818	0.	-234.22
15719	22.893	3.2727	5.e-002	-4.2947
15720	23.17	3.2727	0.	-176.14
15721	23.077	3.1818	0.	-195.55
15722	23.077	3.2727	5.e-002	-4.3269
15723	23.354	3.2727	0.	-137.33
15724	23.262	3.1818	0.	-156.79
15725	23.262	3.2727	5.e-002	-4.3636
15726	23.539	3.2727	0.	-98.366
15727	23.446	3.1818	0.	-117.91
15728	23.446	3.2727	5.e-002	-4.4045
15729	23.723	3.2727	0.	-59.283
15730	23.631	3.1818	0.	-78.855
15731	23.631	3.2727	5.e-002	-4.4497
15732	23.815	3.1818	0.	-39.792
15733	23.815	3.2727	5.e-002	-4.505
15734	23.908	3.2727	0.	-22.4
15735	3.2434	3.0909	0.	-11352
15736	3.1512	3.	0.	-11815
15737	3.1512	3.0909	5.e-002	-66.832
15738	3.4279	3.0909	0.	-10365
15739	3.3357	3.	0.	-10882
15740	3.3357	3.0909	5.e-002	-85.703
15741	3.6124	3.0909	0.	-9351.1
15742	3.5202	3.	0.	-9837.8
15743	3.5202	3.0909	5.e-002	-88.764
15744	3.7969	3.0909	0.	-8436.6
15745	3.7047	3.	0.	-8855.6
15746	3.7047	3.0909	5.e-002	-81.698
15747	3.9814	3.0909	0.	-7666.5
15748	3.8892	3.	0.	-8011.4
15749	3.8892	3.0909	5.e-002	-70.604
15750	4.1659	3.0909	0.	-7039.2
15751	4.0737	3.	0.	-7317.6
15752	4.0737	3.0909	5.e-002	-59.125
15753	4.3504	3.0909	0.	-6535.4
15754	4.2582	3.	0.	-6758.6
15755	4.2582	3.0909	5.e-002	-48.851
15756	4.5349	3.0909	0.	-6131.6
15757	4.4427	3.	0.	-6310.9
15758	4.4427	3.0909	5.e-002	-40.239
15759	4.7194	3.0909	0.	-5806.6
15760	4.6272	3.	0.	-5951.6
15761	4.6272	3.0909	5.e-002	-33.243
15762	4.9039	3.0909	0.	-5543.1
15763	4.8117	3.	0.	-5661.4
15764	4.8117	3.0909	5.e-002	-27.643
15765	5.0885	3.0909	0.	-5327.2
15766	4.9962	3.	0.	-5424.8
15767	4.9962	3.0909	5.e-002	-23.191
15768	5.273	3.0909	0.	-5147.9
15769	5.1807	3.	0.	-5229.5
15770	5.1807	3.0909	5.e-002	-19.659
15771	5.4575	3.0909	0.	-4997.1
15772	5.3652	3.	0.	-5066.3
15773	5.3652	3.0909	5.e-002	-16.856
15774	5.642	3.0909	0.	-4868.3
15775	5.5497	3.	0.	-4927.9
15776	5.5497	3.0909	5.e-002	-14.631
15777	5.8265	3.0909	0.	-4756.5
15778	5.7342	3.	0.	-4808.7
15779	5.7342	3.0909	5.e-002	-12.86
15780	6.011	3.0909	0.	-4657.9
15781	5.9187	3.	0.	-4704.3
15782	5.9187	3.0909	5.e-002	-11.448
15783	6.1955	3.0909	0.	-4569.6
15784	6.1032	3.	0.	-4611.5
15785	6.1032	3.0909	5.e-002	-10.32
15786	6.38	3.0909	0.	-4489.2
15787	6.2877	3.	0.	-4527.6
15788	6.2877	3.0909	5.e-002	-9.4169
15789	6.5645	3.0909	0.	-4415.
15790	6.4722	3.	0.	-4450.7
15791	6.4722	3.0909	5.e-002	-8.6913
15792	6.749	3.0909	0.	-4345.6
15793	6.6567	3.	0.	-4379.2
15794	6.6567	3.0909	5.e-002	-8.1066
15795	6.9335	3.0909	0.	-4279.9
15796	6.8412	3.	0.	-4311.9
15797	6.8412	3.0909	5.e-002	-7.6338
15798	7.118	3.0909	0.	-4217.1
15799	7.0257	3.	0.	-4247.9
15800	7.0257	3.0909	5.e-002	-7.25
15801	7.3025	3.0909	0.	-4156.7
15802	7.2102	3.	0.	-4186.4
15803	7.2102	3.0909	5.e-002	-6.9368
15804	7.487	3.0909	0.	-4098.
15805	7.3947	3.	0.	-4126.9
15806	7.3947	3.0909	5.e-002	-6.68
15807	7.6715	3.0909	0.	-4040.7
15808	7.5792	3.	0.	-4069.
15809	7.5792	3.0909	5.e-002	-6.468
15810	7.856	3.0909	0.	-3984.4
15811	7.7637	3.	0.	-4012.3
15812	7.7637	3.0909	5.e-002	-6.2919
15813	8.0405	3.0909	0.	-3929.1
15814	7.9482	3.	0.	-3956.6
15815	7.9482	3.0909	5.e-002	-6.1444
15816	8.225	3.0909	0.	-3874.5
15817	8.1327	3.	0.	-3901.6
15818	8.1327	3.0909	5.e-002	-6.0198
15819	8.4095	3.0909	0.	-3820.4
15820	8.3173	3.	0.	-3847.3
15821	8.3173	3.0909	5.e-002	-5.9137
15822	8.594	3.0909	0.	-3766.8
15823	8.5018	3.	0.	-3793.5
15824	8.5018	3.0909	5.e-002	-5.8222
15825	8.7785	3.0909	0.	-3713.6
15826	8.6863	3.	0.	-3740.1
15827	8.6863	3.0909	5.e-002	-5.7428
15828	8.963	3.0909	0.	-3660.7
15829	8.8708	3.	0.	-3687.
15830	8.8708	3.0909	5.e-002	-5.6728
15831	9.1475	3.0909	0.	-3608.1
15832	9.0553	3.	0.	-3634.3
15833	9.0553	3.0909	5.e-002	-5.6108
15834	9.332	3.0909	0.	-3555.7
15835	9.2398	3.	0.	-3581.8
15836	9.2398	3.0909	5.e-002	-5.5551
15837	9.5165	3.0909	0.	-3503.6
15838	9.4243	3.	0.	-3529.6
15839	9.4243	3.0909	5.e-002	-5.5045
15840	9.701	3.0909	0.	-3451.6
15841	9.6088	3.	0.	-3477.5
15842	9.6088	3.0909	5.e-002	-5.4583
15843	9.8855	3.0909	0.	-3399.9
15844	9.7933	3.	0.	-3425.7
15845	9.7933	3.0909	5.e-002	-5.4156
15846	10.07	3.0909	0.	-3348.4
15847	9.9778	3.	0.	-3374.1
15848	9.9778	3.0909	5.e-002	-5.3758
15849	10.255	3.0909	0.	-3297.
15850	10.162	3.	0.	-3322.6
15851	10.162	3.0909	5.e-002	-5.3385
15852	10.439	3.0909	0.	-3245.8
15853	10.347	3.	0.	-3271.4
15854	10.347	3.0909	5.e-002	-5.3033
15855	10.624	3.0909	0.	-3194.8
15856	10.531	3.	0.	-3220.3
15857	10.531	3.0909	5.e-002	-5.2698
15858	10.808	3.0909	0.	-3144.
15859	10.716	3.	0.	-3169.4
15860	10.716	3.0909	5.e-002	-5.2378
15861	10.993	3.0909	0.	-3093.4
15862	10.9	3.	0.	-3118.6
15863	10.9	3.0909	5.e-002	-5.2071
15864	11.177	3.0909	0.	-3042.9
15865	11.085	3.	0.	-3068.1
15866	11.085	3.0909	5.e-002	-5.1776
15867	11.362	3.0909	0.	-2992.6
15868	11.269	3.	0.	-3017.7
15869	11.269	3.0909	5.e-002	-5.149
15870	11.546	3.0909	0.	-2942.4
15871	11.454	3.	0.	-2967.5
15872	11.454	3.0909	5.e-002	-5.1213
15873	11.731	3.0909	0.	-2892.5
15874	11.638	3.	0.	-2917.4
15875	11.638	3.0909	5.e-002	-5.0943
15876	11.915	3.0909	0.	-2842.7
15877	11.823	3.	0.	-2867.6
15878	11.823	3.0909	5.e-002	-5.068
15879	12.1	3.0909	0.	-2793.1
15880	12.007	3.	0.	-2817.9
15881	12.007	3.0909	5.e-002	-5.0423
15882	12.284	3.0909	0.	-2743.7
15883	12.192	3.	0.	-2768.4
15884	12.192	3.0909	5.e-002	-5.0172
15885	12.469	3.0909	0.	-2694.5
15886	12.376	3.	0.	-2719.1
15887	12.376	3.0909	5.e-002	-4.9926
15888	12.653	3.0909	0.	-2645.5
15889	12.561	3.	0.	-2669.9
15890	12.561	3.0909	5.e-002	-4.9684
15891	12.838	3.0909	0.	-2596.6
15892	12.745	3.	0.	-2621.
15893	12.745	3.0909	5.e-002	-4.9446
15894	13.022	3.0909	0.	-2548.
15895	12.93	3.	0.	-2572.2
15896	12.93	3.0909	5.e-002	-4.9212
15897	13.207	3.0909	0.	-2499.5
15898	13.114	3.	0.	-2523.7
15899	13.114	3.0909	5.e-002	-4.8981
15900	13.391	3.0909	0.	-2451.2
15901	13.299	3.	0.	-2475.3
15902	13.299	3.0909	5.e-002	-4.8754
15903	13.576	3.0909	0.	-2403.1
15904	13.483	3.	0.	-2427.1
15905	13.483	3.0909	5.e-002	-4.853
15906	13.76	3.0909	0.	-2355.2
15907	13.668	3.	0.	-2379.1
15908	13.668	3.0909	5.e-002	-4.8308
15909	13.945	3.0909	0.	-2307.5
15910	13.852	3.	0.	-2331.3
15911	13.852	3.0909	5.e-002	-4.8089
15912	14.129	3.0909	0.	-2259.9
15913	14.037	3.	0.	-2283.6
15914	14.037	3.0909	5.e-002	-4.7873
15915	14.314	3.0909	0.	-2212.6
15916	14.221	3.	0.	-2236.2
15917	14.221	3.0909	5.e-002	-4.7659
15918	14.498	3.0909	0.	-2165.5
15919	14.406	3.	0.	-2189.
15920	14.406	3.0909	5.e-002	-4.7447
15921	14.683	3.0909	0.	-2118.5
15922	14.59	3.	0.	-2141.9
15923	14.59	3.0909	5.e-002	-4.7238
15924	14.867	3.0909	0.	-2071.8
15925	14.775	3.	0.	-2095.1
15926	14.775	3.0909	5.e-002	-4.7031
15927	15.052	3.0909	0.	-2025.2
15928	14.959	3.	0.	-2048.4
15929	14.959	3.0909	5.e-002	-4.6825
15930	15.236	3.0909	0.	-1978.9
15931	15.144	3.	0.	-2002.
15932	15.144	3.0909	5.e-002	-4.6622
15933	15.421	3.0909	0.	-1932.7
15934	15.328	3.	0.	-1955.7
15935	15.328	3.0909	5.e-002	-4.6421
15936	15.605	3.0909	0.	-1886.8
15937	15.513	3.	0.	-1909.7
15938	15.513	3.0909	5.e-002	-4.6221
15939	15.79	3.0909	0.	-1841.
15940	15.697	3.	0.	-1863.8
15941	15.697	3.0909	5.e-002	-4.6024
15942	15.974	3.0909	0.	-1795.5
15943	15.882	3.	0.	-1818.2
15944	15.882	3.0909	5.e-002	-4.5828
15945	16.159	3.0909	0.	-1750.1
15946	16.066	3.	0.	-1772.7
15947	16.066	3.0909	5.e-002	-4.5635
15948	16.343	3.0909	0.	-1705.
15949	16.251	3.	0.	-1727.5
15950	16.251	3.0909	5.e-002	-4.5443
15951	16.528	3.0909	0.	-1660.
15952	16.435	3.	0.	-1682.4
15953	16.435	3.0909	5.e-002	-4.5254
15954	16.712	3.0909	0.	-1615.3
15955	16.62	3.	0.	-1637.6
15956	16.62	3.0909	5.e-002	-4.5066
15957	16.897	3.0909	0.	-1570.7
15958	16.804	3.	0.	-1592.9
15959	16.804	3.0909	5.e-002	-4.4881
15960	17.081	3.0909	0.	-1526.4
15961	16.989	3.	0.	-1548.5
15962	16.989	3.0909	5.e-002	-4.4698
15963	17.266	3.0909	0.	-1482.2
15964	17.173	3.	0.	-1504.2
15965	17.173	3.0909	5.e-002	-4.4518
15966	17.45	3.0909	0.	-1438.3
15967	17.358	3.	0.	-1460.2
15968	17.358	3.0909	5.e-002	-4.434
15969	17.635	3.0909	0.	-1394.6
15970	17.542	3.	0.	-1416.4
15971	17.542	3.0909	5.e-002	-4.4165
15972	17.819	3.0909	0.	-1351.1
15973	17.727	3.	0.	-1372.8
15974	17.727	3.0909	5.e-002	-4.3993
15975	18.004	3.0909	0.	-1307.8
15976	17.911	3.	0.	-1329.4
15977	17.911	3.0909	5.e-002	-4.3824
15978	18.188	3.0909	0.	-1264.7
15979	18.096	3.	0.	-1286.2
15980	18.096	3.0909	5.e-002	-4.3658
15981	18.373	3.0909	0.	-1221.8
15982	18.28	3.	0.	-1243.2
15983	18.28	3.0909	5.e-002	-4.3496
15984	18.557	3.0909	0.	-1179.1
15985	18.465	3.	0.	-1200.4
15986	18.465	3.0909	5.e-002	-4.3338
15987	18.742	3.0909	0.	-1136.7
15988	18.649	3.	0.	-1157.8
15989	18.649	3.0909	5.e-002	-4.3184
15990	18.926	3.0909	0.	-1094.4
15991	18.834	3.	0.	-1115.5
15992	18.834	3.0909	5.e-002	-4.3034
15993	19.111	3.0909	0.	-1052.4
15994	19.018	3.	0.	-1073.4
15995	19.018	3.0909	5.e-002	-4.2889
15996	19.295	3.0909	0.	-1010.6
15997	19.203	3.	0.	-1031.4
15998	19.203	3.0909	5.e-002	-4.2751
15999	19.48	3.0909	0.	-969.
16000	19.387	3.	0.	-989.73
16001	19.387	3.0909	5.e-002	-4.2618
16002	19.664	3.0909	0.	-927.61
16003	19.572	3.	0.	-948.23
16004	19.572	3.0909	5.e-002	-4.2492
16005	19.849	3.0909	0.	-886.45
16006	19.756	3.	0.	-906.96
16007	19.756	3.0909	5.e-002	-4.2373
16008	20.033	3.0909	0.	-845.49
16009	19.941	3.	0.	-865.9
16010	19.941	3.0909	5.e-002	-4.2262
16011	20.218	3.0909	0.	-804.76
16012	20.125	3.	0.	-825.06
16013	20.125	3.0909	5.e-002	-4.2161
16014	20.402	3.0909	0.	-764.24
16015	20.31	3.	0.	-784.43
16016	20.31	3.0909	5.e-002	-4.207
16017	20.587	3.0909	0.	-723.92
16018	20.494	3.	0.	-744.01
16019	20.494	3.0909	5.e-002	-4.1991
16020	20.771	3.0909	0.	-683.82
16021	20.679	3.	0.	-703.8
16022	20.679	3.0909	5.e-002	-4.1925
16023	20.956	3.0909	0.	-643.92
16024	20.863	3.	0.	-663.8
16025	20.863	3.0909	5.e-002	-4.1873
16026	21.14	3.0909	0.	-604.22
16027	21.048	3.	0.	-624.01
16028	21.048	3.0909	5.e-002	-4.1838
16029	21.325	3.0909	0.	-564.71
16030	21.232	3.	0.	-584.4
16031	21.232	3.0909	5.e-002	-4.1822
16032	21.509	3.0909	0.	-525.38
16033	21.417	3.	0.	-544.99
16034	21.417	3.0909	5.e-002	-4.1827
16035	21.694	3.0909	0.	-486.22
16036	21.601	3.	0.	-505.74
16037	21.601	3.0909	5.e-002	-4.1855
16038	21.878	3.0909	0.	-447.2
16039	21.786	3.	0.	-466.66
16040	21.786	3.0909	5.e-002	-4.191
16041	22.063	3.0909	0.	-408.33
16042	21.97	3.	0.	-427.72
16043	21.97	3.0909	5.e-002	-4.1994
16044	22.247	3.0909	0.	-369.55
16045	22.155	3.	0.	-388.91
16046	22.155	3.0909	5.e-002	-4.2111
16047	22.432	3.0909	0.	-330.86
16048	22.339	3.	0.	-350.18
16049	22.339	3.0909	5.e-002	-4.2263
16050	22.616	3.0909	0.	-292.22
16051	22.524	3.	0.	-311.53
16052	22.524	3.0909	5.e-002	-4.2455
16053	22.801	3.0909	0.	-253.59
16054	22.708	3.	0.	-272.9
16055	22.708	3.0909	5.e-002	-4.2688
16056	22.985	3.0909	0.	-214.93
16057	22.893	3.	0.	-234.27
16058	22.893	3.0909	5.e-002	-4.2964
16059	23.17	3.0909	0.	-176.21
16060	23.077	3.	0.	-195.59
16061	23.077	3.0909	5.e-002	-4.3284
16062	23.354	3.0909	0.	-137.37
16063	23.262	3.	0.	-156.82
16064	23.262	3.0909	5.e-002	-4.365
16065	23.539	3.0909	0.	-98.389
16066	23.446	3.	0.	-117.93
16067	23.446	3.0909	5.e-002	-4.4056
16068	23.723	3.0909	0.	-59.285
16069	23.631	3.	0.	-78.862
16070	23.631	3.0909	5.e-002	-4.4503
16071	23.815	3.	0.	-39.787
16072	23.815	3.0909	5.e-002	-4.5033
16073	23.908	3.0909	0.	-22.393
16074	3.2434	2.9091	0.	-11352
16075	3.1512	2.8182	0.	-11946
16076	3.1512	2.9091	5.e-002	-66.831
16077	3.4279	2.9091	0.	-10365
16078	3.3357	2.8182	0.	-10927
16079	3.3357	2.9091	5.e-002	-85.703
16080	3.6124	2.9091	0.	-9351.1
16081	3.5202	2.8182	0.	-9824.3
16082	3.5202	2.9091	5.e-002	-88.764
16083	3.7969	2.9091	0.	-8436.6
16084	3.7047	2.8182	0.	-8817.2
16085	3.7047	2.9091	5.e-002	-81.697
16086	3.9814	2.9091	0.	-7666.5
16087	3.8892	2.8182	0.	-7968.7
16088	3.8892	2.9091	5.e-002	-70.604
16089	4.1659	2.9091	0.	-7039.2
16090	4.0737	2.8182	0.	-7279.4
16091	4.0737	2.9091	5.e-002	-59.125
16092	4.3504	2.9091	0.	-6535.4
16093	4.2582	2.8182	0.	-6727.4
16094	4.2582	2.9091	5.e-002	-48.851
16095	4.5349	2.9091	0.	-6131.6
16096	4.4427	2.8182	0.	-6286.5
16097	4.4427	2.9091	5.e-002	-40.239
16098	4.7194	2.9091	0.	-5806.6
16099	4.6272	2.8182	0.	-5933.
16100	4.6272	2.9091	5.e-002	-33.243
16101	4.9039	2.9091	0.	-5543.1
16102	4.8117	2.8182	0.	-5647.3
16103	4.8117	2.9091	5.e-002	-27.643
16104	5.0885	2.9091	0.	-5327.2
16105	4.9962	2.8182	0.	-5414.2
16106	4.9962	2.9091	5.e-002	-23.191
16107	5.273	2.9091	0.	-5147.9
16108	5.1807	2.8182	0.	-5221.7
16109	5.1807	2.9091	5.e-002	-19.659
16110	5.4575	2.9091	0.	-4997.1
16111	5.3652	2.8182	0.	-5060.6
16112	5.3652	2.9091	5.e-002	-16.856
16113	5.642	2.9091	0.	-4868.3
16114	5.5497	2.8182	0.	-4923.7
16115	5.5497	2.9091	5.e-002	-14.631
16116	5.8265	2.9091	0.	-4756.5
16117	5.7342	2.8182	0.	-4805.6
16118	5.7342	2.9091	5.e-002	-12.86
16119	6.011	2.9091	0.	-4657.9
16120	5.9187	2.8182	0.	-4702.1
16121	5.9187	2.9091	5.e-002	-11.448
16122	6.1955	2.9091	0.	-4569.6
16123	6.1032	2.8182	0.	-4609.9
16124	6.1032	2.9091	5.e-002	-10.32
16125	6.38	2.9091	0.	-4489.2
16126	6.2877	2.8182	0.	-4526.5
16127	6.2877	2.9091	5.e-002	-9.4169
16128	6.5645	2.9091	0.	-4415.
16129	6.4722	2.8182	0.	-4450.
16130	6.4722	2.9091	5.e-002	-8.6913
16131	6.749	2.9091	0.	-4345.6
16132	6.6567	2.8182	0.	-4378.7
16133	6.6567	2.9091	5.e-002	-8.1066
16134	6.9335	2.9091	0.	-4279.9
16135	6.8412	2.8182	0.	-4311.6
16136	6.8412	2.9091	5.e-002	-7.6338
16137	7.118	2.9091	0.	-4217.1
16138	7.0257	2.8182	0.	-4247.7
16139	7.0257	2.9091	5.e-002	-7.2499
16140	7.3025	2.9091	0.	-4156.7
16141	7.2102	2.8182	0.	-4186.4
16142	7.2102	2.9091	5.e-002	-6.9368
16143	7.487	2.9091	0.	-4098.
16144	7.3947	2.8182	0.	-4126.9
16145	7.3947	2.9091	5.e-002	-6.68
16146	7.6715	2.9091	0.	-4040.7
16147	7.5792	2.8182	0.	-4069.1
16148	7.5792	2.9091	5.e-002	-6.468
16149	7.856	2.9091	0.	-3984.4
16150	7.7637	2.8182	0.	-4012.4
16151	7.7637	2.9091	5.e-002	-6.2919
16152	8.0405	2.9091	0.	-3929.1
16153	7.9482	2.8182	0.	-3956.7
16154	7.9482	2.9091	5.e-002	-6.1444
16155	8.225	2.9091	0.	-3874.5
16156	8.1327	2.8182	0.	-3901.8
16157	8.1327	2.9091	5.e-002	-6.0199
16158	8.4095	2.9091	0.	-3820.4
16159	8.3173	2.8182	0.	-3847.5
16160	8.3173	2.9091	5.e-002	-5.9137
16161	8.594	2.9091	0.	-3766.8
16162	8.5018	2.8182	0.	-3793.6
16163	8.5018	2.9091	5.e-002	-5.8222
16164	8.7785	2.9091	0.	-3713.6
16165	8.6863	2.8182	0.	-3740.2
16166	8.6863	2.9091	5.e-002	-5.7427
16167	8.963	2.9091	0.	-3660.7
16168	8.8708	2.8182	0.	-3687.2
16169	8.8708	2.9091	5.e-002	-5.6728
16170	9.1475	2.9091	0.	-3608.1
16171	9.0553	2.8182	0.	-3634.4
16172	9.0553	2.9091	5.e-002	-5.6107
16173	9.332	2.9091	0.	-3555.7
16174	9.2398	2.8182	0.	-3581.9
16175	9.2398	2.9091	5.e-002	-5.5551
16176	9.5165	2.9091	0.	-3503.6
16177	9.4243	2.8182	0.	-3529.7
16178	9.4243	2.9091	5.e-002	-5.5045
16179	9.701	2.9091	0.	-3451.6
16180	9.6088	2.8182	0.	-3477.7
16181	9.6088	2.9091	5.e-002	-5.4583
16182	9.8855	2.9091	0.	-3399.9
16183	9.7933	2.8182	0.	-3425.8
16184	9.7933	2.9091	5.e-002	-5.4156
16185	10.07	2.9091	0.	-3348.4
16186	9.9778	2.8182	0.	-3374.2
16187	9.9778	2.9091	5.e-002	-5.3758
16188	10.255	2.9091	0.	-3297.
16189	10.162	2.8182	0.	-3322.7
16190	10.162	2.9091	5.e-002	-5.3385
16191	10.439	2.9091	0.	-3245.8
16192	10.347	2.8182	0.	-3271.5
16193	10.347	2.9091	5.e-002	-5.3033
16194	10.624	2.9091	0.	-3194.8
16195	10.531	2.8182	0.	-3220.4
16196	10.531	2.9091	5.e-002	-5.2698
16197	10.808	2.9091	0.	-3144.
16198	10.716	2.8182	0.	-3169.5
16199	10.716	2.9091	5.e-002	-5.2378
16200	10.993	2.9091	0.	-3093.4
16201	10.9	2.8182	0.	-3118.7
16202	10.9	2.9091	5.e-002	-5.2071
16203	11.177	2.9091	0.	-3042.9
16204	11.085	2.8182	0.	-3068.1
16205	11.085	2.9091	5.e-002	-5.1776
16206	11.362	2.9091	0.	-2992.6
16207	11.269	2.8182	0.	-3017.7
16208	11.269	2.9091	5.e-002	-5.149
16209	11.546	2.9091	0.	-2942.4
16210	11.454	2.8182	0.	-2967.5
16211	11.454	2.9091	5.e-002	-5.1213
16212	11.731	2.9091	0.	-2892.5
16213	11.638	2.8182	0.	-2917.5
16214	11.638	2.9091	5.e-002	-5.0943
16215	11.915	2.9091	0.	-2842.7
16216	11.823	2.8182	0.	-2867.6
16217	11.823	2.9091	5.e-002	-5.068
16218	12.1	2.9091	0.	-2793.1
16219	12.007	2.8182	0.	-2817.9
16220	12.007	2.9091	5.e-002	-5.0423
16221	12.284	2.9091	0.	-2743.7
16222	12.192	2.8182	0.	-2768.4
16223	12.192	2.9091	5.e-002	-5.0172
16224	12.469	2.9091	0.	-2694.5
16225	12.376	2.8182	0.	-2719.1
16226	12.376	2.9091	5.e-002	-4.9926
16227	12.653	2.9091	0.	-2645.5
16228	12.561	2.8182	0.	-2670.
16229	12.561	2.9091	5.e-002	-4.9684
16230	12.838	2.9091	0.	-2596.6
16231	12.745	2.8182	0.	-2621.
16232	12.745	2.9091	5.e-002	-4.9446
16233	13.022	2.9091	0.	-2548.
16234	12.93	2.8182	0.	-2572.3
16235	12.93	2.9091	5.e-002	-4.9212
16236	13.207	2.9091	0.	-2499.5
16237	13.114	2.8182	0.	-2523.7
16238	13.114	2.9091	5.e-002	-4.8981
16239	13.391	2.9091	0.	-2451.2
16240	13.299	2.8182	0.	-2475.3
16241	13.299	2.9091	5.e-002	-4.8754
16242	13.576	2.9091	0.	-2403.1
16243	13.483	2.8182	0.	-2427.1
16244	13.483	2.9091	5.e-002	-4.853
16245	13.76	2.9091	0.	-2355.2
16246	13.668	2.8182	0.	-2379.1
16247	13.668	2.9091	5.e-002	-4.8308
16248	13.945	2.9091	0.	-2307.5
16249	13.852	2.8182	0.	-2331.3
16250	13.852	2.9091	5.e-002	-4.8089
16251	14.129	2.9091	0.	-2259.9
16252	14.037	2.8182	0.	-2283.7
16253	14.037	2.9091	5.e-002	-4.7873
16254	14.314	2.9091	0.	-2212.6
16255	14.221	2.8182	0.	-2236.3
16256	14.221	2.9091	5.e-002	-4.7659
16257	14.498	2.9091	0.	-2165.5
16258	14.406	2.8182	0.	-2189.
16259	14.406	2.9091	5.e-002	-4.7447
16260	14.683	2.9091	0.	-2118.5
16261	14.59	2.8182	0.	-2142.
16262	14.59	2.9091	5.e-002	-4.7238
16263	14.867	2.9091	0.	-2071.8
16264	14.775	2.8182	0.	-2095.1
16265	14.775	2.9091	5.e-002	-4.7031
16266	15.052	2.9091	0.	-2025.2
16267	14.959	2.8182	0.	-2048.5
16268	14.959	2.9091	5.e-002	-4.6825
16269	15.236	2.9091	0.	-1978.9
16270	15.144	2.8182	0.	-2002.
16271	15.144	2.9091	5.e-002	-4.6622
16272	15.421	2.9091	0.	-1932.7
16273	15.328	2.8182	0.	-1955.8
16274	15.328	2.9091	5.e-002	-4.6421
16275	15.605	2.9091	0.	-1886.8
16276	15.513	2.8182	0.	-1909.7
16277	15.513	2.9091	5.e-002	-4.6221
16278	15.79	2.9091	0.	-1841.
16279	15.697	2.8182	0.	-1863.9
16280	15.697	2.9091	5.e-002	-4.6024
16281	15.974	2.9091	0.	-1795.5
16282	15.882	2.8182	0.	-1818.2
16283	15.882	2.9091	5.e-002	-4.5828
16284	16.159	2.9091	0.	-1750.1
16285	16.066	2.8182	0.	-1772.8
16286	16.066	2.9091	5.e-002	-4.5635
16287	16.343	2.9091	0.	-1705.
16288	16.251	2.8182	0.	-1727.5
16289	16.251	2.9091	5.e-002	-4.5443
16290	16.528	2.9091	0.	-1660.
16291	16.435	2.8182	0.	-1682.4
16292	16.435	2.9091	5.e-002	-4.5254
16293	16.712	2.9091	0.	-1615.3
16294	16.62	2.8182	0.	-1637.6
16295	16.62	2.9091	5.e-002	-4.5066
16296	16.897	2.9091	0.	-1570.7
16297	16.804	2.8182	0.	-1593.
16298	16.804	2.9091	5.e-002	-4.4881
16299	17.081	2.9091	0.	-1526.4
16300	16.989	2.8182	0.	-1548.5
16301	16.989	2.9091	5.e-002	-4.4698
16302	17.266	2.9091	0.	-1482.2
16303	17.173	2.8182	0.	-1504.3
16304	17.173	2.9091	5.e-002	-4.4518
16305	17.45	2.9091	0.	-1438.3
16306	17.358	2.8182	0.	-1460.2
16307	17.358	2.9091	5.e-002	-4.434
16308	17.635	2.9091	0.	-1394.6
16309	17.542	2.8182	0.	-1416.4
16310	17.542	2.9091	5.e-002	-4.4165
16311	17.819	2.9091	0.	-1351.1
16312	17.727	2.8182	0.	-1372.8
16313	17.727	2.9091	5.e-002	-4.3993
16314	18.004	2.9091	0.	-1307.8
16315	17.911	2.8182	0.	-1329.4
16316	17.911	2.9091	5.e-002	-4.3824
16317	18.188	2.9091	0.	-1264.7
16318	18.096	2.8182	0.	-1286.2
16319	18.096	2.9091	5.e-002	-4.3658
16320	18.373	2.9091	0.	-1221.8
16321	18.28	2.8182	0.	-1243.2
16322	18.28	2.9091	5.e-002	-4.3496
16323	18.557	2.9091	0.	-1179.1
16324	18.465	2.8182	0.	-1200.4
16325	18.465	2.9091	5.e-002	-4.3338
16326	18.742	2.9091	0.	-1136.7
16327	18.649	2.8182	0.	-1157.9
16328	18.649	2.9091	5.e-002	-4.3183
16329	18.926	2.9091	0.	-1094.4
16330	18.834	2.8182	0.	-1115.5
16331	18.834	2.9091	5.e-002	-4.3034
16332	19.111	2.9091	0.	-1052.4
16333	19.018	2.8182	0.	-1073.4
16334	19.018	2.9091	5.e-002	-4.2889
16335	19.295	2.9091	0.	-1010.6
16336	19.203	2.8182	0.	-1031.4
16337	19.203	2.9091	5.e-002	-4.2751
16338	19.48	2.9091	0.	-969.
16339	19.387	2.8182	0.	-989.74
16340	19.387	2.9091	5.e-002	-4.2618
16341	19.664	2.9091	0.	-927.61
16342	19.572	2.8182	0.	-948.24
16343	19.572	2.9091	5.e-002	-4.2492
16344	19.849	2.9091	0.	-886.45
16345	19.756	2.8182	0.	-906.96
16346	19.756	2.9091	5.e-002	-4.2373
16347	20.033	2.9091	0.	-845.49
16348	19.941	2.8182	0.	-865.9
16349	19.941	2.9091	5.e-002	-4.2262
16350	20.218	2.9091	0.	-804.76
16351	20.125	2.8182	0.	-825.05
16352	20.125	2.9091	5.e-002	-4.2161
16353	20.402	2.9091	0.	-764.24
16354	20.31	2.8182	0.	-784.42
16355	20.31	2.9091	5.e-002	-4.207
16356	20.587	2.9091	0.	-723.92
16357	20.494	2.8182	0.	-743.99
16358	20.494	2.9091	5.e-002	-4.1991
16359	20.771	2.9091	0.	-683.82
16360	20.679	2.8182	0.	-703.78
16361	20.679	2.9091	5.e-002	-4.1925
16362	20.956	2.9091	0.	-643.92
16363	20.863	2.8182	0.	-663.78
16364	20.863	2.9091	5.e-002	-4.1873
16365	21.14	2.9091	0.	-604.22
16366	21.048	2.8182	0.	-623.97
16367	21.048	2.9091	5.e-002	-4.1838
16368	21.325	2.9091	0.	-564.71
16369	21.232	2.8182	0.	-584.37
16370	21.232	2.9091	5.e-002	-4.1822
16371	21.509	2.9091	0.	-525.38
16372	21.417	2.8182	0.	-544.94
16373	21.417	2.9091	5.e-002	-4.1826
16374	21.694	2.9091	0.	-486.22
16375	21.601	2.8182	0.	-505.7
16376	21.601	2.9091	5.e-002	-4.1855
16377	21.878	2.9091	0.	-447.2
16378	21.786	2.8182	0.	-466.61
16379	21.786	2.9091	5.e-002	-4.1909
16380	22.063	2.9091	0.	-408.33
16381	21.97	2.8182	0.	-427.67
16382	21.97	2.9091	5.e-002	-4.1994
16383	22.247	2.9091	0.	-369.55
16384	22.155	2.8182	0.	-388.85
16385	22.155	2.9091	5.e-002	-4.2111
16386	22.432	2.9091	0.	-330.86
16387	22.339	2.8182	0.	-350.13
16388	22.339	2.9091	5.e-002	-4.2263
16389	22.616	2.9091	0.	-292.22
16390	22.524	2.8182	0.	-311.47
16391	22.524	2.9091	5.e-002	-4.2455
16392	22.801	2.9091	0.	-253.59
16393	22.708	2.8182	0.	-272.85
16394	22.708	2.9091	5.e-002	-4.2688
16395	22.985	2.9091	0.	-214.93
16396	22.893	2.8182	0.	-234.22
16397	22.893	2.9091	5.e-002	-4.2964
16398	23.17	2.9091	0.	-176.21
16399	23.077	2.8182	0.	-195.55
16400	23.077	2.9091	5.e-002	-4.3284
16401	23.354	2.9091	0.	-137.37
16402	23.262	2.8182	0.	-156.79
16403	23.262	2.9091	5.e-002	-4.365
16404	23.539	2.9091	0.	-98.389
16405	23.446	2.8182	0.	-117.91
16406	23.446	2.9091	5.e-002	-4.4056
16407	23.723	2.9091	0.	-59.285
16408	23.631	2.8182	0.	-78.855
16409	23.631	2.9091	5.e-002	-4.4503
16410	23.815	2.8182	0.	-39.792
16411	23.815	2.9091	5.e-002	-4.5033
16412	23.908	2.9091	0.	-22.393
16413	3.2434	2.7273	0.	-11528
16414	3.1512	2.6364	0.	-12348
16415	3.1512	2.7273	5.e-002	-82.559
16416	3.4279	2.7273	0.	-10397
16417	3.3357	2.6364	0.	-11039
16418	3.3357	2.7273	5.e-002	-99.941
16419	3.6124	2.7273	0.	-9299.4
16420	3.5202	2.6364	0.	-9760.8
16421	3.5202	2.7273	5.e-002	-96.56
16422	3.7969	2.7273	0.	-8355.3
16423	3.7047	2.6364	0.	-8690.7
16424	3.7047	2.7273	5.e-002	-84.312
16425	3.9814	2.7273	0.	-7585.2
16426	3.8892	2.6364	0.	-7837.1
16427	3.8892	2.7273	5.e-002	-70.657
16428	4.1659	2.7273	0.	-6969.5
16429	4.0737	2.6364	0.	-7164.8
16430	4.0737	2.7273	5.e-002	-58.27
16431	4.3504	2.7273	0.	-6479.5
16432	4.2582	2.6364	0.	-6634.8
16433	4.2582	2.7273	5.e-002	-47.847
16434	4.5349	2.7273	0.	-6088.4
16435	4.4427	2.6364	0.	-6214.4
16436	4.4427	2.7273	5.e-002	-39.357
16437	4.7194	2.7273	0.	-5773.9
16438	4.6272	2.6364	0.	-5878.
16439	4.6272	2.7273	5.e-002	-32.543
16440	4.9039	2.7273	0.	-5518.5
16441	4.8117	2.6364	0.	-5605.9
16442	4.8117	2.7273	5.e-002	-27.11
16443	5.0885	2.7273	0.	-5308.8
16444	4.9962	2.6364	0.	-5383.2
16445	4.9962	2.7273	5.e-002	-22.79
16446	5.273	2.7273	0.	-5134.3
16447	5.1807	2.6364	0.	-5198.6
16448	5.1807	2.7273	5.e-002	-19.357
16449	5.4575	2.7273	0.	-4987.1
16450	5.3652	2.6364	0.	-5043.5
16451	5.3652	2.7273	5.e-002	-16.628
16452	5.642	2.7273	0.	-4861.
16453	5.5497	2.6364	0.	-4911.1
16454	5.5497	2.7273	5.e-002	-14.455
16455	5.8265	2.7273	0.	-4751.2
16456	5.7342	2.6364	0.	-4796.4
16457	5.7342	2.7273	5.e-002	-12.724
16458	6.011	2.7273	0.	-4654.1
16459	5.9187	2.6364	0.	-4695.5
16460	5.9187	2.7273	5.e-002	-11.341
16461	6.1955	2.7273	0.	-4566.9
16462	6.1032	2.6364	0.	-4605.2
16463	6.1032	2.7273	5.e-002	-10.235
16464	6.38	2.7273	0.	-4487.3
16465	6.2877	2.6364	0.	-4523.3
16466	6.2877	2.7273	5.e-002	-9.3479
16467	6.5645	2.7273	0.	-4413.7
16468	6.4722	2.6364	0.	-4447.8
16469	6.4722	2.7273	5.e-002	-8.6352
16470	6.749	2.7273	0.	-4344.8
16471	6.6567	2.6364	0.	-4377.3
16472	6.6567	2.7273	5.e-002	-8.0609
16473	6.9335	2.7273	0.	-4279.5
16474	6.8412	2.6364	0.	-4310.8
16475	6.8412	2.7273	5.e-002	-7.5965
16476	7.118	2.7273	0.	-4216.9
16477	7.0257	2.6364	0.	-4247.3
16478	7.0257	2.7273	5.e-002	-7.2195
16479	7.3025	2.7273	0.	-4156.6
16480	7.2102	2.6364	0.	-4186.2
16481	7.2102	2.7273	5.e-002	-6.9119
16482	7.487	2.7273	0.	-4098.1
16483	7.3947	2.6364	0.	-4127.
16484	7.3947	2.7273	5.e-002	-6.6597
16485	7.6715	2.7273	0.	-4040.8
16486	7.5792	2.6364	0.	-4069.3
16487	7.5792	2.7273	5.e-002	-6.4515
16488	7.856	2.7273	0.	-3984.7
16489	7.7637	2.6364	0.	-4012.7
16490	7.7637	2.7273	5.e-002	-6.2785
16491	8.0405	2.7273	0.	-3929.4
16492	7.9482	2.6364	0.	-3957.1
16493	7.9482	2.7273	5.e-002	-6.1335
16494	8.225	2.7273	0.	-3874.8
16495	8.1327	2.6364	0.	-3902.2
16496	8.1327	2.7273	5.e-002	-6.011
16497	8.4095	2.7273	0.	-3820.7
16498	8.3173	2.6364	0.	-3847.9
16499	8.3173	2.7273	5.e-002	-5.9065
16500	8.594	2.7273	0.	-3767.1
16501	8.5018	2.6364	0.	-3794.1
16502	8.5018	2.7273	5.e-002	-5.8165
16503	8.7785	2.7273	0.	-3713.8
16504	8.6863	2.6364	0.	-3740.7
16505	8.6863	2.7273	5.e-002	-5.7381
16506	8.963	2.7273	0.	-3660.9
16507	8.8708	2.6364	0.	-3687.6
16508	8.8708	2.7273	5.e-002	-5.6691
16509	9.1475	2.7273	0.	-3608.3
16510	9.0553	2.6364	0.	-3634.8
16511	9.0553	2.7273	5.e-002	-5.6077
16512	9.332	2.7273	0.	-3555.9
16513	9.2398	2.6364	0.	-3582.3
16514	9.2398	2.7273	5.e-002	-5.5526
16515	9.5165	2.7273	0.	-3503.8
16516	9.4243	2.6364	0.	-3530.1
16517	9.4243	2.7273	5.e-002	-5.5025
16518	9.701	2.7273	0.	-3451.9
16519	9.6088	2.6364	0.	-3478.
16520	9.6088	2.7273	5.e-002	-5.4566
16521	9.8855	2.7273	0.	-3400.1
16522	9.7933	2.6364	0.	-3426.2
16523	9.7933	2.7273	5.e-002	-5.4142
16524	10.07	2.7273	0.	-3348.6
16525	9.9778	2.6364	0.	-3374.5
16526	9.9778	2.7273	5.e-002	-5.3747
16527	10.255	2.7273	0.	-3297.2
16528	10.162	2.6364	0.	-3323.
16529	10.162	2.7273	5.e-002	-5.3375
16530	10.439	2.7273	0.	-3246.
16531	10.347	2.6364	0.	-3271.8
16532	10.347	2.7273	5.e-002	-5.3025
16533	10.624	2.7273	0.	-3195.
16534	10.531	2.6364	0.	-3220.6
16535	10.531	2.7273	5.e-002	-5.2691
16536	10.808	2.7273	0.	-3144.2
16537	10.716	2.6364	0.	-3169.7
16538	10.716	2.7273	5.e-002	-5.2372
16539	10.993	2.7273	0.	-3093.5
16540	10.9	2.6364	0.	-3119.
16541	10.9	2.7273	5.e-002	-5.2066
16542	11.177	2.7273	0.	-3043.
16543	11.085	2.6364	0.	-3068.4
16544	11.085	2.7273	5.e-002	-5.1771
16545	11.362	2.7273	0.	-2992.7
16546	11.269	2.6364	0.	-3018.
16547	11.269	2.7273	5.e-002	-5.1486
16548	11.546	2.7273	0.	-2942.6
16549	11.454	2.6364	0.	-2967.7
16550	11.454	2.7273	5.e-002	-5.1209
16551	11.731	2.7273	0.	-2892.6
16552	11.638	2.6364	0.	-2917.7
16553	11.638	2.7273	5.e-002	-5.094
16554	11.915	2.7273	0.	-2842.9
16555	11.823	2.6364	0.	-2867.8
16556	11.823	2.7273	5.e-002	-5.0677
16557	12.1	2.7273	0.	-2793.3
16558	12.007	2.6364	0.	-2818.1
16559	12.007	2.7273	5.e-002	-5.0421
16560	12.284	2.7273	0.	-2743.9
16561	12.192	2.6364	0.	-2768.6
16562	12.192	2.7273	5.e-002	-5.0169
16563	12.469	2.7273	0.	-2694.6
16564	12.376	2.6364	0.	-2719.3
16565	12.376	2.7273	5.e-002	-4.9924
16566	12.653	2.7273	0.	-2645.6
16567	12.561	2.6364	0.	-2670.2
16568	12.561	2.7273	5.e-002	-4.9682
16569	12.838	2.7273	0.	-2596.7
16570	12.745	2.6364	0.	-2621.2
16571	12.745	2.7273	5.e-002	-4.9444
16572	13.022	2.7273	0.	-2548.1
16573	12.93	2.6364	0.	-2572.4
16574	12.93	2.7273	5.e-002	-4.921
16575	13.207	2.7273	0.	-2499.6
16576	13.114	2.6364	0.	-2523.9
16577	13.114	2.7273	5.e-002	-4.898
16578	13.391	2.7273	0.	-2451.3
16579	13.299	2.6364	0.	-2475.5
16580	13.299	2.7273	5.e-002	-4.8753
16581	13.576	2.7273	0.	-2403.2
16582	13.483	2.6364	0.	-2427.3
16583	13.483	2.7273	5.e-002	-4.8528
16584	13.76	2.7273	0.	-2355.3
16585	13.668	2.6364	0.	-2379.3
16586	13.668	2.7273	5.e-002	-4.8307
16587	13.945	2.7273	0.	-2307.6
16588	13.852	2.6364	0.	-2331.5
16589	13.852	2.7273	5.e-002	-4.8088
16590	14.129	2.7273	0.	-2260.
16591	14.037	2.6364	0.	-2283.8
16592	14.037	2.7273	5.e-002	-4.7872
16593	14.314	2.7273	0.	-2212.7
16594	14.221	2.6364	0.	-2236.4
16595	14.221	2.7273	5.e-002	-4.7658
16596	14.498	2.7273	0.	-2165.6
16597	14.406	2.6364	0.	-2189.2
16598	14.406	2.7273	5.e-002	-4.7446
16599	14.683	2.7273	0.	-2118.6
16600	14.59	2.6364	0.	-2142.1
16601	14.59	2.7273	5.e-002	-4.7237
16602	14.867	2.7273	0.	-2071.9
16603	14.775	2.6364	0.	-2095.3
16604	14.775	2.7273	5.e-002	-4.703
16605	15.052	2.7273	0.	-2025.3
16606	14.959	2.6364	0.	-2048.6
16607	14.959	2.7273	5.e-002	-4.6824
16608	15.236	2.7273	0.	-1979.
16609	15.144	2.6364	0.	-2002.2
16610	15.144	2.7273	5.e-002	-4.6621
16611	15.421	2.7273	0.	-1932.8
16612	15.328	2.6364	0.	-1955.9
16613	15.328	2.7273	5.e-002	-4.642
16614	15.605	2.7273	0.	-1886.9
16615	15.513	2.6364	0.	-1909.9
16616	15.513	2.7273	5.e-002	-4.622
16617	15.79	2.7273	0.	-1841.1
16618	15.697	2.6364	0.	-1864.
16619	15.697	2.7273	5.e-002	-4.6023
16620	15.974	2.7273	0.	-1795.5
16621	15.882	2.6364	0.	-1818.3
16622	15.882	2.7273	5.e-002	-4.5828
16623	16.159	2.7273	0.	-1750.2
16624	16.066	2.6364	0.	-1772.9
16625	16.066	2.7273	5.e-002	-4.5634
16626	16.343	2.7273	0.	-1705.
16627	16.251	2.6364	0.	-1727.6
16628	16.251	2.7273	5.e-002	-4.5443
16629	16.528	2.7273	0.	-1660.1
16630	16.435	2.6364	0.	-1682.6
16631	16.435	2.7273	5.e-002	-4.5253
16632	16.712	2.7273	0.	-1615.3
16633	16.62	2.6364	0.	-1637.7
16634	16.62	2.7273	5.e-002	-4.5066
16635	16.897	2.7273	0.	-1570.8
16636	16.804	2.6364	0.	-1593.1
16637	16.804	2.7273	5.e-002	-4.488
16638	17.081	2.7273	0.	-1526.4
16639	16.989	2.6364	0.	-1548.6
16640	16.989	2.7273	5.e-002	-4.4698
16641	17.266	2.7273	0.	-1482.3
16642	17.173	2.6364	0.	-1504.4
16643	17.173	2.7273	5.e-002	-4.4517
16644	17.45	2.7273	0.	-1438.4
16645	17.358	2.6364	0.	-1460.4
16646	17.358	2.7273	5.e-002	-4.434
16647	17.635	2.7273	0.	-1394.7
16648	17.542	2.6364	0.	-1416.5
16649	17.542	2.7273	5.e-002	-4.4164
16650	17.819	2.7273	0.	-1351.2
16651	17.727	2.6364	0.	-1372.9
16652	17.727	2.7273	5.e-002	-4.3992
16653	18.004	2.7273	0.	-1307.8
16654	17.911	2.6364	0.	-1329.5
16655	17.911	2.7273	5.e-002	-4.3823
16656	18.188	2.7273	0.	-1264.7
16657	18.096	2.6364	0.	-1286.3
16658	18.096	2.7273	5.e-002	-4.3657
16659	18.373	2.7273	0.	-1221.9
16660	18.28	2.6364	0.	-1243.3
16661	18.28	2.7273	5.e-002	-4.3495
16662	18.557	2.7273	0.	-1179.2
16663	18.465	2.6364	0.	-1200.5
16664	18.465	2.7273	5.e-002	-4.3337
16665	18.742	2.7273	0.	-1136.7
16666	18.649	2.6364	0.	-1157.9
16667	18.649	2.7273	5.e-002	-4.3182
16668	18.926	2.7273	0.	-1094.5
16669	18.834	2.6364	0.	-1115.6
16670	18.834	2.7273	5.e-002	-4.3033
16671	19.111	2.7273	0.	-1052.4
16672	19.018	2.6364	0.	-1073.4
16673	19.018	2.7273	5.e-002	-4.2888
16674	19.295	2.7273	0.	-1010.6
16675	19.203	2.6364	0.	-1031.5
16676	19.203	2.7273	5.e-002	-4.2749
16677	19.48	2.7273	0.	-969.02
16678	19.387	2.6364	0.	-989.77
16679	19.387	2.7273	5.e-002	-4.2616
16680	19.664	2.7273	0.	-927.62
16681	19.572	2.6364	0.	-948.26
16682	19.572	2.7273	5.e-002	-4.249
16683	19.849	2.7273	0.	-886.45
16684	19.756	2.6364	0.	-906.97
16685	19.756	2.7273	5.e-002	-4.2371
16686	20.033	2.7273	0.	-845.49
16687	19.941	2.6364	0.	-865.89
16688	19.941	2.7273	5.e-002	-4.226
16689	20.218	2.7273	0.	-804.74
16690	20.125	2.6364	0.	-825.03
16691	20.125	2.7273	5.e-002	-4.2158
16692	20.402	2.7273	0.	-764.21
16693	20.31	2.6364	0.	-784.38
16694	20.31	2.7273	5.e-002	-4.2067
16695	20.587	2.7273	0.	-723.89
16696	20.494	2.6364	0.	-743.95
16697	20.494	2.7273	5.e-002	-4.1987
16698	20.771	2.7273	0.	-683.77
16699	20.679	2.6364	0.	-703.72
16700	20.679	2.7273	5.e-002	-4.192
16701	20.956	2.7273	0.	-643.86
16702	20.863	2.6364	0.	-663.7
16703	20.863	2.7273	5.e-002	-4.1868
16704	21.14	2.7273	0.	-604.15
16705	21.048	2.6364	0.	-623.88
16706	21.048	2.7273	5.e-002	-4.1832
16707	21.325	2.7273	0.	-564.63
16708	21.232	2.6364	0.	-584.25
16709	21.232	2.7273	5.e-002	-4.1815
16710	21.509	2.7273	0.	-525.29
16711	21.417	2.6364	0.	-544.81
16712	21.417	2.7273	5.e-002	-4.1818
16713	21.694	2.7273	0.	-486.12
16714	21.601	2.6364	0.	-505.55
16715	21.601	2.7273	5.e-002	-4.1845
16716	21.878	2.7273	0.	-447.1
16717	21.786	2.6364	0.	-466.46
16718	21.786	2.7273	5.e-002	-4.1899
16719	22.063	2.7273	0.	-408.21
16720	21.97	2.6364	0.	-427.51
16721	21.97	2.7273	5.e-002	-4.1981
16722	22.247	2.7273	0.	-369.44
16723	22.155	2.6364	0.	-388.68
16724	22.155	2.7273	5.e-002	-4.2097
16725	22.432	2.7273	0.	-330.75
16726	22.339	2.6364	0.	-349.96
16727	22.339	2.7273	5.e-002	-4.2248
16728	22.616	2.7273	0.	-292.12
16729	22.524	2.6364	0.	-311.31
16730	22.524	2.7273	5.e-002	-4.2439
16731	22.801	2.7273	0.	-253.5
16732	22.708	2.6364	0.	-272.7
16733	22.708	2.7273	5.e-002	-4.2671
16734	22.985	2.7273	0.	-214.85
16735	22.893	2.6364	0.	-234.09
16736	22.893	2.7273	5.e-002	-4.2947
16737	23.17	2.7273	0.	-176.14
16738	23.077	2.6364	0.	-195.44
16739	23.077	2.7273	5.e-002	-4.3269
16740	23.354	2.7273	0.	-137.33
16741	23.262	2.6364	0.	-156.71
16742	23.262	2.7273	5.e-002	-4.3636
16743	23.539	2.7273	0.	-98.366
16744	23.446	2.6364	0.	-117.86
16745	23.446	2.7273	5.e-002	-4.4045
16746	23.723	2.7273	0.	-59.283
16747	23.631	2.6364	0.	-78.836
16748	23.631	2.7273	5.e-002	-4.4497
16749	23.815	2.6364	0.	-39.805
16750	23.815	2.7273	5.e-002	-4.505
16751	23.908	2.7273	0.	-22.4
16752	3.2434	2.5455	0.	-11868
16753	3.1512	2.4545	0.	-13074
16754	3.1512	2.5455	5.e-002	-127.67
16755	3.4279	2.5455	0.	-10416
16756	3.3357	2.4545	0.	-11117
16757	3.3357	2.5455	5.e-002	-133.32
16758	3.6124	2.5455	0.	-9161.5
16759	3.5202	2.4545	0.	-9577.2
16760	3.5202	2.5455	5.e-002	-109.69
16761	3.7969	2.5455	0.	-8177.7
16762	3.7047	2.4545	0.	-8447.4
16763	3.7047	2.5455	5.e-002	-87.74
16764	3.9814	2.5455	0.	-7419.3
16765	3.8892	2.4545	0.	-7610.
16766	3.8892	2.5455	5.e-002	-69.915
16767	4.1659	2.5455	0.	-6831.4
16768	4.0737	2.4545	0.	-6975.5
16769	4.0737	2.5455	5.e-002	-56.311
16770	4.3504	2.5455	0.	-6370.3
16771	4.2582	2.4545	0.	-6484.8
16772	4.2582	2.5455	5.e-002	-45.845
16773	4.5349	2.5455	0.	-6004.3
16774	4.4427	2.4545	0.	-6098.5
16775	4.4427	2.5455	5.e-002	-37.666
16776	4.7194	2.5455	0.	-5710.1
16777	4.6272	2.4545	0.	-5789.7
16778	4.6272	2.5455	5.e-002	-31.211
16779	4.9039	2.5455	0.	-5470.6
16780	4.8117	2.4545	0.	-5539.2
16781	4.8117	2.5455	5.e-002	-26.091
16782	5.0885	2.5455	0.	-5273.
16783	4.9962	2.4545	0.	-5333.2
16784	4.9962	2.5455	5.e-002	-22.018
16785	5.273	2.5455	0.	-5107.8
16786	5.1807	2.4545	0.	-5161.4
16787	5.1807	2.5455	5.e-002	-18.771
16788	5.4575	2.5455	0.	-4967.5
16789	5.3652	2.4545	0.	-5015.8
16790	5.3652	2.5455	5.e-002	-16.18
16791	5.642	2.5455	0.	-4846.6
16792	5.5497	2.4545	0.	-4890.8
16793	5.5497	2.5455	5.e-002	-14.109
16794	5.8265	2.5455	0.	-4740.8
16795	5.7342	2.4545	0.	-4781.6
16796	5.7342	2.5455	5.e-002	-12.452
16797	6.011	2.5455	0.	-4646.6
16798	5.9187	2.4545	0.	-4684.8
16799	5.9187	2.5455	5.e-002	-11.126
16800	6.1955	2.5455	0.	-4561.6
16801	6.1032	2.4545	0.	-4597.6
16802	6.1032	2.5455	5.e-002	-10.062
16803	6.38	2.5455	0.	-4483.7
16804	6.2877	2.4545	0.	-4517.9
16805	6.2877	2.5455	5.e-002	-9.2086
16806	6.5645	2.5455	0.	-4411.3
16807	6.4722	2.4545	0.	-4444.1
16808	6.4722	2.5455	5.e-002	-8.5222
16809	6.749	2.5455	0.	-4343.3
16810	6.6567	2.4545	0.	-4374.9
16811	6.6567	2.5455	5.e-002	-7.9687
16812	6.9335	2.5455	0.	-4278.6
16813	6.8412	2.4545	0.	-4309.3
16814	6.8412	2.5455	5.e-002	-7.5212
16815	7.118	2.5455	0.	-4216.6
16816	7.0257	2.4545	0.	-4246.6
16817	7.0257	2.5455	5.e-002	-7.158
16818	7.3025	2.5455	0.	-4156.6
16819	7.2102	2.4545	0.	-4186.
16820	7.2102	2.5455	5.e-002	-6.8619
16821	7.487	2.5455	0.	-4098.2
16822	7.3947	2.4545	0.	-4127.1
16823	7.3947	2.5455	5.e-002	-6.6189
16824	7.6715	2.5455	0.	-4041.2
16825	7.5792	2.4545	0.	-4069.6
16826	7.5792	2.5455	5.e-002	-6.4184
16827	7.856	2.5455	0.	-3985.1
16828	7.7637	2.4545	0.	-4013.2
16829	7.7637	2.5455	5.e-002	-6.2517
16830	8.0405	2.5455	0.	-3929.9
16831	7.9482	2.4545	0.	-3957.7
16832	7.9482	2.5455	5.e-002	-6.1118
16833	8.225	2.5455	0.	-3875.3
16834	8.1327	2.4545	0.	-3902.9
16835	8.1327	2.5455	5.e-002	-5.9935
16836	8.4095	2.5455	0.	-3821.3
16837	8.3173	2.4545	0.	-3848.6
16838	8.3173	2.5455	5.e-002	-5.8923
16839	8.594	2.5455	0.	-3767.7
16840	8.5018	2.4545	0.	-3794.8
16841	8.5018	2.5455	5.e-002	-5.805
16842	8.7785	2.5455	0.	-3714.4
16843	8.6863	2.4545	0.	-3741.4
16844	8.6863	2.5455	5.e-002	-5.7288
16845	8.963	2.5455	0.	-3661.5
16846	8.8708	2.4545	0.	-3688.3
16847	8.8708	2.5455	5.e-002	-5.6616
16848	9.1475	2.5455	0.	-3608.8
16849	9.0553	2.4545	0.	-3635.5
16850	9.0553	2.5455	5.e-002	-5.6016
16851	9.332	2.5455	0.	-3556.5
16852	9.2398	2.4545	0.	-3583.
16853	9.2398	2.5455	5.e-002	-5.5476
16854	9.5165	2.5455	0.	-3504.3
16855	9.4243	2.4545	0.	-3530.7
16856	9.4243	2.5455	5.e-002	-5.4984
16857	9.701	2.5455	0.	-3452.3
16858	9.6088	2.4545	0.	-3478.6
16859	9.6088	2.5455	5.e-002	-5.4533
16860	9.8855	2.5455	0.	-3400.6
16861	9.7933	2.4545	0.	-3426.7
16862	9.7933	2.5455	5.e-002	-5.4115
16863	10.07	2.5455	0.	-3349.
16864	9.9778	2.4545	0.	-3375.
16865	9.9778	2.5455	5.e-002	-5.3724
16866	10.255	2.5455	0.	-3297.6
16867	10.162	2.4545	0.	-3323.5
16868	10.162	2.5455	5.e-002	-5.3357
16869	10.439	2.5455	0.	-3246.4
16870	10.347	2.4545	0.	-3272.2
16871	10.347	2.5455	5.e-002	-5.3009
16872	10.624	2.5455	0.	-3195.4
16873	10.531	2.4545	0.	-3221.1
16874	10.531	2.5455	5.e-002	-5.2678
16875	10.808	2.5455	0.	-3144.5
16876	10.716	2.4545	0.	-3170.1
16877	10.716	2.5455	5.e-002	-5.236
16878	10.993	2.5455	0.	-3093.8
16879	10.9	2.4545	0.	-3119.4
16880	10.9	2.5455	5.e-002	-5.2056
16881	11.177	2.5455	0.	-3043.3
16882	11.085	2.4545	0.	-3068.8
16883	11.085	2.5455	5.e-002	-5.1763
16884	11.362	2.5455	0.	-2993.
16885	11.269	2.4545	0.	-3018.3
16886	11.269	2.5455	5.e-002	-5.1478
16887	11.546	2.5455	0.	-2942.9
16888	11.454	2.4545	0.	-2968.1
16889	11.454	2.5455	5.e-002	-5.1202
16890	11.731	2.5455	0.	-2892.9
16891	11.638	2.4545	0.	-2918.
16892	11.638	2.5455	5.e-002	-5.0934
16893	11.915	2.5455	0.	-2843.1
16894	11.823	2.4545	0.	-2868.2
16895	11.823	2.5455	5.e-002	-5.0672
16896	12.1	2.5455	0.	-2793.5
16897	12.007	2.4545	0.	-2818.5
16898	12.007	2.5455	5.e-002	-5.0416
16899	12.284	2.5455	0.	-2744.1
16900	12.192	2.4545	0.	-2768.9
16901	12.192	2.5455	5.e-002	-5.0165
16902	12.469	2.5455	0.	-2694.9
16903	12.376	2.4545	0.	-2719.6
16904	12.376	2.5455	5.e-002	-4.9919
16905	12.653	2.5455	0.	-2645.8
16906	12.561	2.4545	0.	-2670.5
16907	12.561	2.5455	5.e-002	-4.9678
16908	12.838	2.5455	0.	-2597.
16909	12.745	2.4545	0.	-2621.5
16910	12.745	2.5455	5.e-002	-4.9441
16911	13.022	2.5455	0.	-2548.3
16912	12.93	2.4545	0.	-2572.7
16913	12.93	2.5455	5.e-002	-4.9207
16914	13.207	2.5455	0.	-2499.8
16915	13.114	2.4545	0.	-2524.1
16916	13.114	2.5455	5.e-002	-4.8977
16917	13.391	2.5455	0.	-2451.5
16918	13.299	2.4545	0.	-2475.7
16919	13.299	2.5455	5.e-002	-4.875
16920	13.576	2.5455	0.	-2403.4
16921	13.483	2.4545	0.	-2427.5
16922	13.483	2.5455	5.e-002	-4.8526
16923	13.76	2.5455	0.	-2355.5
16924	13.668	2.4545	0.	-2379.5
16925	13.668	2.5455	5.e-002	-4.8304
16926	13.945	2.5455	0.	-2307.7
16927	13.852	2.4545	0.	-2331.7
16928	13.852	2.5455	5.e-002	-4.8086
16929	14.129	2.5455	0.	-2260.2
16930	14.037	2.4545	0.	-2284.1
16931	14.037	2.5455	5.e-002	-4.787
16932	14.314	2.5455	0.	-2212.9
16933	14.221	2.4545	0.	-2236.6
16934	14.221	2.5455	5.e-002	-4.7656
16935	14.498	2.5455	0.	-2165.7
16936	14.406	2.4545	0.	-2189.4
16937	14.406	2.5455	5.e-002	-4.7444
16938	14.683	2.5455	0.	-2118.8
16939	14.59	2.4545	0.	-2142.3
16940	14.59	2.5455	5.e-002	-4.7235
16941	14.867	2.5455	0.	-2072.
16942	14.775	2.4545	0.	-2095.5
16943	14.775	2.5455	5.e-002	-4.7028
16944	15.052	2.5455	0.	-2025.5
16945	14.959	2.4545	0.	-2048.8
16946	14.959	2.5455	5.e-002	-4.6823
16947	15.236	2.5455	0.	-1979.1
16948	15.144	2.4545	0.	-2002.4
16949	15.144	2.5455	5.e-002	-4.6619
16950	15.421	2.5455	0.	-1933.
16951	15.328	2.4545	0.	-1956.1
16952	15.328	2.5455	5.e-002	-4.6418
16953	15.605	2.5455	0.	-1887.
16954	15.513	2.4545	0.	-1910.1
16955	15.513	2.5455	5.e-002	-4.6219
16956	15.79	2.5455	0.	-1841.3
16957	15.697	2.4545	0.	-1864.2
16958	15.697	2.5455	5.e-002	-4.6021
16959	15.974	2.5455	0.	-1795.7
16960	15.882	2.4545	0.	-1818.5
16961	15.882	2.5455	5.e-002	-4.5826
16962	16.159	2.5455	0.	-1750.3
16963	16.066	2.4545	0.	-1773.1
16964	16.066	2.5455	5.e-002	-4.5633
16965	16.343	2.5455	0.	-1705.2
16966	16.251	2.4545	0.	-1727.8
16967	16.251	2.5455	5.e-002	-4.5441
16968	16.528	2.5455	0.	-1660.2
16969	16.435	2.4545	0.	-1682.8
16970	16.435	2.5455	5.e-002	-4.5251
16971	16.712	2.5455	0.	-1615.5
16972	16.62	2.4545	0.	-1637.9
16973	16.62	2.5455	5.e-002	-4.5064
16974	16.897	2.5455	0.	-1570.9
16975	16.804	2.4545	0.	-1593.3
16976	16.804	2.5455	5.e-002	-4.4879
16977	17.081	2.5455	0.	-1526.6
16978	16.989	2.4545	0.	-1548.8
16979	16.989	2.5455	5.e-002	-4.4696
16980	17.266	2.5455	0.	-1482.5
16981	17.173	2.4545	0.	-1504.6
16982	17.173	2.5455	5.e-002	-4.4516
16983	17.45	2.5455	0.	-1438.5
16984	17.358	2.4545	0.	-1460.5
16985	17.358	2.5455	5.e-002	-4.4338
16986	17.635	2.5455	0.	-1394.8
16987	17.542	2.4545	0.	-1416.7
16988	17.542	2.5455	5.e-002	-4.4163
16989	17.819	2.5455	0.	-1351.3
16990	17.727	2.4545	0.	-1373.1
16991	17.727	2.5455	5.e-002	-4.399
16992	18.004	2.5455	0.	-1308.
16993	17.911	2.4545	0.	-1329.6
16994	17.911	2.5455	5.e-002	-4.3821
16995	18.188	2.5455	0.	-1264.9
16996	18.096	2.4545	0.	-1286.4
16997	18.096	2.5455	5.e-002	-4.3655
16998	18.373	2.5455	0.	-1222.
16999	18.28	2.4545	0.	-1243.4
17000	18.28	2.5455	5.e-002	-4.3493
17001	18.557	2.5455	0.	-1179.3
17002	18.465	2.4545	0.	-1200.6
17003	18.465	2.5455	5.e-002	-4.3334
17004	18.742	2.5455	0.	-1136.8
17005	18.649	2.4545	0.	-1158.1
17006	18.649	2.5455	5.e-002	-4.318
17007	18.926	2.5455	0.	-1094.6
17008	18.834	2.4545	0.	-1115.7
17009	18.834	2.5455	5.e-002	-4.303
17010	19.111	2.5455	0.	-1052.5
17011	19.018	2.4545	0.	-1073.5
17012	19.018	2.5455	5.e-002	-4.2885
17013	19.295	2.5455	0.	-1010.7
17014	19.203	2.4545	0.	-1031.6
17015	19.203	2.5455	5.e-002	-4.2746
17016	19.48	2.5455	0.	-969.05
17017	19.387	2.4545	0.	-989.83
17018	19.387	2.5455	5.e-002	-4.2612
17019	19.664	2.5455	0.	-927.65
17020	19.572	2.4545	0.	-948.3
17021	19.572	2.5455	5.e-002	-4.2486
17022	19.849	2.5455	0.	-886.45
17023	19.756	2.4545	0.	-906.99
17024	19.756	2.5455	5.e-002	-4.2366
17025	20.033	2.5455	0.	-845.47
17026	19.941	2.4545	0.	-865.89
17027	19.941	2.5455	5.e-002	-4.2255
17028	20.218	2.5455	0.	-804.71
17029	20.125	2.4545	0.	-825.01
17030	20.125	2.5455	5.e-002	-4.2152
17031	20.402	2.5455	0.	-764.16
17032	20.31	2.4545	0.	-784.33
17033	20.31	2.5455	5.e-002	-4.206
17034	20.587	2.5455	0.	-723.81
17035	20.494	2.4545	0.	-743.87
17036	20.494	2.5455	5.e-002	-4.1979
17037	20.771	2.5455	0.	-683.68
17038	20.679	2.4545	0.	-703.62
17039	20.679	2.5455	5.e-002	-4.1911
17040	20.956	2.5455	0.	-643.74
17041	20.863	2.4545	0.	-663.57
17042	20.863	2.5455	5.e-002	-4.1858
17043	21.14	2.5455	0.	-604.01
17044	21.048	2.4545	0.	-623.72
17045	21.048	2.5455	5.e-002	-4.182
17046	21.325	2.5455	0.	-564.47
17047	21.232	2.4545	0.	-584.07
17048	21.232	2.5455	5.e-002	-4.1801
17049	21.509	2.5455	0.	-525.11
17050	21.417	2.4545	0.	-544.6
17051	21.417	2.5455	5.e-002	-4.1802
17052	21.694	2.5455	0.	-485.92
17053	21.601	2.4545	0.	-505.32
17054	21.601	2.5455	5.e-002	-4.1827
17055	21.878	2.5455	0.	-446.89
17056	21.786	2.4545	0.	-466.2
17057	21.786	2.5455	5.e-002	-4.1877
17058	22.063	2.5455	0.	-408.
17059	21.97	2.4545	0.	-427.24
17060	21.97	2.5455	5.e-002	-4.1957
17061	22.247	2.5455	0.	-369.22
17062	22.155	2.4545	0.	-388.4
17063	22.155	2.5455	5.e-002	-4.207
17064	22.432	2.5455	0.	-330.54
17065	22.339	2.4545	0.	-349.68
17066	22.339	2.5455	5.e-002	-4.2218
17067	22.616	2.5455	0.	-291.91
17068	22.524	2.4545	0.	-311.04
17069	22.524	2.5455	5.e-002	-4.2407
17070	22.801	2.5455	0.	-253.31
17071	22.708	2.4545	0.	-272.45
17072	22.708	2.5455	5.e-002	-4.2638
17073	22.985	2.5455	0.	-214.69
17074	22.893	2.4545	0.	-233.87
17075	22.893	2.5455	5.e-002	-4.2914
17076	23.17	2.5455	0.	-176.02
17077	23.077	2.4545	0.	-195.26
17078	23.077	2.5455	5.e-002	-4.3237
17079	23.354	2.5455	0.	-137.24
17080	23.262	2.4545	0.	-156.57
17081	23.262	2.5455	5.e-002	-4.3608
17082	23.539	2.5455	0.	-98.319
17083	23.446	2.4545	0.	-117.77
17084	23.446	2.5455	5.e-002	-4.4024
17085	23.723	2.5455	0.	-59.279
17086	23.631	2.4545	0.	-78.801
17087	23.631	2.5455	5.e-002	-4.4486
17088	23.815	2.4545	0.	-39.826
17089	23.815	2.5455	5.e-002	-4.5084
17090	23.908	2.5455	0.	-22.414
17091	3.2434	2.3636	0.	-12342
17092	3.1512	2.2727	0.	-13855
17093	3.1512	2.3636	5.e-002	-221.82
17094	3.4279	2.3636	0.	-10296
17095	3.3357	2.2727	0.	-10915
17096	3.3357	2.3636	5.e-002	-173.26
17097	3.6124	2.3636	0.	-8871.7
17098	3.5202	2.2727	0.	-9174.2
17099	3.5202	2.3636	5.e-002	-125.37
17100	3.7969	2.3636	0.	-7883.
17101	3.7047	2.2727	0.	-8060.5
17102	3.7047	2.3636	5.e-002	-88.373
17103	3.9814	2.3636	0.	-7167.3
17104	3.8892	2.2727	0.	-7286.
17105	3.8892	2.3636	5.e-002	-67.123
17106	4.1659	2.3636	0.	-6629.1
17107	4.0737	2.2727	0.	-6717.4
17108	4.0737	2.3636	5.e-002	-53.061
17109	4.3504	2.3636	0.	-6212.9
17110	4.2582	2.2727	0.	-6284.
17111	4.2582	2.3636	5.e-002	-42.95
17112	4.5349	2.3636	0.	-5883.8
17113	4.4427	2.2727	0.	-5944.5
17114	4.4427	2.3636	5.e-002	-35.31
17115	4.7194	2.3636	0.	-5618.7
17116	4.6272	2.2727	0.	-5672.5
17117	4.6272	2.3636	5.e-002	-29.367
17118	4.9039	2.3636	0.	-5401.8
17119	4.8117	2.2727	0.	-5450.6
17120	4.8117	2.3636	5.e-002	-24.671
17121	5.0885	2.3636	0.	-5221.5
17122	4.9962	2.2727	0.	-5266.6
17123	4.9962	2.3636	5.e-002	-20.927
17124	5.273	2.3636	0.	-5069.4
17125	5.1807	2.2727	0.	-5111.5
17126	5.1807	2.3636	5.e-002	-17.931
17127	5.4575	2.3636	0.	-4939.1
17128	5.3652	2.2727	0.	-4978.8
17129	5.3652	2.3636	5.e-002	-15.527
17130	5.642	2.3636	0.	-4825.7
17131	5.5497	2.2727	0.	-4863.4
17132	5.5497	2.3636	5.e-002	-13.597
17133	5.8265	2.3636	0.	-4725.6
17134	5.7342	2.2727	0.	-4761.5
17135	5.7342	2.3636	5.e-002	-12.047
17136	6.011	2.3636	0.	-4635.7
17137	5.9187	2.2727	0.	-4670.2
17138	5.9187	2.3636	5.e-002	-10.802
17139	6.1955	2.3636	0.	-4553.9
17140	6.1032	2.2727	0.	-4587.2
17141	6.1032	2.3636	5.e-002	-9.8014
17142	6.38	2.3636	0.	-4478.4
17143	6.2877	2.2727	0.	-4510.7
17144	6.2877	2.3636	5.e-002	-8.9972
17145	6.5645	2.3636	0.	-4407.8
17146	6.4722	2.2727	0.	-4439.2
17147	6.4722	2.3636	5.e-002	-8.3501
17148	6.749	2.3636	0.	-4341.
17149	6.6567	2.2727	0.	-4371.7
17150	6.6567	2.3636	5.e-002	-7.8285
17151	6.9335	2.3636	0.	-4277.3
17152	6.8412	2.2727	0.	-4307.4
17153	6.8412	2.3636	5.e-002	-7.4069
17154	7.118	2.3636	0.	-4216.
17155	7.0257	2.2727	0.	-4245.5
17156	7.0257	2.3636	5.e-002	-7.065
17157	7.3025	2.3636	0.	-4156.5
17158	7.2102	2.2727	0.	-4185.6
17159	7.2102	2.3636	5.e-002	-6.7861
17160	7.487	2.3636	0.	-4098.5
17161	7.3947	2.2727	0.	-4127.2
17162	7.3947	2.3636	5.e-002	-6.5575
17163	7.6715	2.3636	0.	-4041.7
17164	7.5792	2.2727	0.	-4070.1
17165	7.5792	2.3636	5.e-002	-6.3686
17166	7.856	2.3636	0.	-3985.8
17167	7.7637	2.2727	0.	-4013.9
17168	7.7637	2.3636	5.e-002	-6.2114
17169	8.0405	2.3636	0.	-3930.7
17170	7.9482	2.2727	0.	-3958.5
17171	7.9482	2.3636	5.e-002	-6.0793
17172	8.225	2.3636	0.	-3876.1
17173	8.1327	2.2727	0.	-3903.8
17174	8.1327	2.3636	5.e-002	-5.9673
17175	8.4095	2.3636	0.	-3822.1
17176	8.3173	2.2727	0.	-3849.5
17177	8.3173	2.3636	5.e-002	-5.8712
17178	8.594	2.3636	0.	-3768.5
17179	8.5018	2.2727	0.	-3795.8
17180	8.5018	2.3636	5.e-002	-5.788
17181	8.7785	2.3636	0.	-3715.2
17182	8.6863	2.2727	0.	-3742.3
17183	8.6863	2.3636	5.e-002	-5.7151
17184	8.963	2.3636	0.	-3662.3
17185	8.8708	2.2727	0.	-3689.2
17186	8.8708	2.3636	5.e-002	-5.6505
17187	9.1475	2.3636	0.	-3609.6
17188	9.0553	2.2727	0.	-3636.4
17189	9.0553	2.3636	5.e-002	-5.5926
17190	9.332	2.3636	0.	-3557.2
17191	9.2398	2.2727	0.	-3583.9
17192	9.2398	2.3636	5.e-002	-5.5403
17193	9.5165	2.3636	0.	-3505.
17194	9.4243	2.2727	0.	-3531.5
17195	9.4243	2.3636	5.e-002	-5.4925
17196	9.701	2.3636	0.	-3453.
17197	9.6088	2.2727	0.	-3479.4
17198	9.6088	2.3636	5.e-002	-5.4484
17199	9.8855	2.3636	0.	-3401.2
17200	9.7933	2.2727	0.	-3427.5
17201	9.7933	2.3636	5.e-002	-5.4074
17202	10.07	2.3636	0.	-3349.6
17203	9.9778	2.2727	0.	-3375.8
17204	9.9778	2.3636	5.e-002	-5.369
17205	10.255	2.3636	0.	-3298.2
17206	10.162	2.2727	0.	-3324.2
17207	10.162	2.3636	5.e-002	-5.3329
17208	10.439	2.3636	0.	-3246.9
17209	10.347	2.2727	0.	-3272.9
17210	10.347	2.3636	5.e-002	-5.2985
17211	10.624	2.3636	0.	-3195.9
17212	10.531	2.2727	0.	-3221.7
17213	10.531	2.3636	5.e-002	-5.2657
17214	10.808	2.3636	0.	-3145.
17215	10.716	2.2727	0.	-3170.7
17216	10.716	2.3636	5.e-002	-5.2343
17217	10.993	2.3636	0.	-3094.3
17218	10.9	2.2727	0.	-3119.9
17219	10.9	2.3636	5.e-002	-5.2041
17220	11.177	2.3636	0.	-3043.8
17221	11.085	2.2727	0.	-3069.3
17222	11.085	2.3636	5.e-002	-5.175
17223	11.362	2.3636	0.	-2993.5
17224	11.269	2.2727	0.	-3018.9
17225	11.269	2.3636	5.e-002	-5.1467
17226	11.546	2.3636	0.	-2943.3
17227	11.454	2.2727	0.	-2968.6
17228	11.454	2.3636	5.e-002	-5.1192
17229	11.731	2.3636	0.	-2893.3
17230	11.638	2.2727	0.	-2918.5
17231	11.638	2.3636	5.e-002	-5.0925
17232	11.915	2.3636	0.	-2843.5
17233	11.823	2.2727	0.	-2868.6
17234	11.823	2.3636	5.e-002	-5.0664
17235	12.1	2.3636	0.	-2793.9
17236	12.007	2.2727	0.	-2818.9
17237	12.007	2.3636	5.e-002	-5.0409
17238	12.284	2.3636	0.	-2744.5
17239	12.192	2.2727	0.	-2769.4
17240	12.192	2.3636	5.e-002	-5.0158
17241	12.469	2.3636	0.	-2695.2
17242	12.376	2.2727	0.	-2720.
17243	12.376	2.3636	5.e-002	-4.9914
17244	12.653	2.3636	0.	-2646.2
17245	12.561	2.2727	0.	-2670.9
17246	12.561	2.3636	5.e-002	-4.9673
17247	12.838	2.3636	0.	-2597.3
17248	12.745	2.2727	0.	-2621.9
17249	12.745	2.3636	5.e-002	-4.9436
17250	13.022	2.3636	0.	-2548.6
17251	12.93	2.2727	0.	-2573.1
17252	12.93	2.3636	5.e-002	-4.9202
17253	13.207	2.3636	0.	-2500.1
17254	13.114	2.2727	0.	-2524.5
17255	13.114	2.3636	5.e-002	-4.8972
17256	13.391	2.3636	0.	-2451.8
17257	13.299	2.2727	0.	-2476.1
17258	13.299	2.3636	5.e-002	-4.8746
17259	13.576	2.3636	0.	-2403.7
17260	13.483	2.2727	0.	-2427.9
17261	13.483	2.3636	5.e-002	-4.8522
17262	13.76	2.3636	0.	-2355.8
17263	13.668	2.2727	0.	-2379.9
17264	13.668	2.3636	5.e-002	-4.8301
17265	13.945	2.3636	0.	-2308.
17266	13.852	2.2727	0.	-2332.
17267	13.852	2.3636	5.e-002	-4.8083
17268	14.129	2.3636	0.	-2260.5
17269	14.037	2.2727	0.	-2284.4
17270	14.037	2.3636	5.e-002	-4.7867
17271	14.314	2.3636	0.	-2213.2
17272	14.221	2.2727	0.	-2237.
17273	14.221	2.3636	5.e-002	-4.7653
17274	14.498	2.3636	0.	-2166.
17275	14.406	2.2727	0.	-2189.7
17276	14.406	2.3636	5.e-002	-4.7441
17277	14.683	2.3636	0.	-2119.1
17278	14.59	2.2727	0.	-2142.7
17279	14.59	2.3636	5.e-002	-4.7233
17280	14.867	2.3636	0.	-2072.3
17281	14.775	2.2727	0.	-2095.8
17282	14.775	2.3636	5.e-002	-4.7025
17283	15.052	2.3636	0.	-2025.8
17284	14.959	2.2727	0.	-2049.2
17285	14.959	2.3636	5.e-002	-4.682
17286	15.236	2.3636	0.	-1979.4
17287	15.144	2.2727	0.	-2002.7
17288	15.144	2.3636	5.e-002	-4.6617
17289	15.421	2.3636	0.	-1933.2
17290	15.328	2.2727	0.	-1956.4
17291	15.328	2.3636	5.e-002	-4.6416
17292	15.605	2.3636	0.	-1887.3
17293	15.513	2.2727	0.	-1910.4
17294	15.513	2.3636	5.e-002	-4.6217
17295	15.79	2.3636	0.	-1841.5
17296	15.697	2.2727	0.	-1864.5
17297	15.697	2.3636	5.e-002	-4.6019
17298	15.974	2.3636	0.	-1796.
17299	15.882	2.2727	0.	-1818.8
17300	15.882	2.3636	5.e-002	-4.5824
17301	16.159	2.3636	0.	-1750.6
17302	16.066	2.2727	0.	-1773.4
17303	16.066	2.3636	5.e-002	-4.5631
17304	16.343	2.3636	0.	-1705.4
17305	16.251	2.2727	0.	-1728.1
17306	16.251	2.3636	5.e-002	-4.5439
17307	16.528	2.3636	0.	-1660.5
17308	16.435	2.2727	0.	-1683.1
17309	16.435	2.3636	5.e-002	-4.5249
17310	16.712	2.3636	0.	-1615.7
17311	16.62	2.2727	0.	-1638.2
17312	16.62	2.3636	5.e-002	-4.5062
17313	16.897	2.3636	0.	-1571.2
17314	16.804	2.2727	0.	-1593.5
17315	16.804	2.3636	5.e-002	-4.4877
17316	17.081	2.3636	0.	-1526.8
17317	16.989	2.2727	0.	-1549.1
17318	16.989	2.3636	5.e-002	-4.4694
17319	17.266	2.3636	0.	-1482.7
17320	17.173	2.2727	0.	-1504.8
17321	17.173	2.3636	5.e-002	-4.4513
17322	17.45	2.3636	0.	-1438.7
17323	17.358	2.2727	0.	-1460.8
17324	17.358	2.3636	5.e-002	-4.4335
17325	17.635	2.3636	0.	-1395.
17326	17.542	2.2727	0.	-1416.9
17327	17.542	2.3636	5.e-002	-4.416
17328	17.819	2.3636	0.	-1351.5
17329	17.727	2.2727	0.	-1373.3
17330	17.727	2.3636	5.e-002	-4.3988
17331	18.004	2.3636	0.	-1308.2
17332	17.911	2.2727	0.	-1329.9
17333	17.911	2.3636	5.e-002	-4.3818
17334	18.188	2.3636	0.	-1265.
17335	18.096	2.2727	0.	-1286.6
17336	18.096	2.3636	5.e-002	-4.3652
17337	18.373	2.3636	0.	-1222.1
17338	18.28	2.2727	0.	-1243.6
17339	18.28	2.3636	5.e-002	-4.349
17340	18.557	2.3636	0.	-1179.4
17341	18.465	2.2727	0.	-1200.8
17342	18.465	2.3636	5.e-002	-4.3331
17343	18.742	2.3636	0.	-1137.
17344	18.649	2.2727	0.	-1158.2
17345	18.649	2.3636	5.e-002	-4.3176
17346	18.926	2.3636	0.	-1094.7
17347	18.834	2.2727	0.	-1115.8
17348	18.834	2.3636	5.e-002	-4.3026
17349	19.111	2.3636	0.	-1052.6
17350	19.018	2.2727	0.	-1073.7
17351	19.018	2.3636	5.e-002	-4.2881
17352	19.295	2.3636	0.	-1010.8
17353	19.203	2.2727	0.	-1031.7
17354	19.203	2.3636	5.e-002	-4.2741
17355	19.48	2.3636	0.	-969.12
17356	19.387	2.2727	0.	-989.92
17357	19.387	2.3636	5.e-002	-4.2607
17358	19.664	2.3636	0.	-927.69
17359	19.572	2.2727	0.	-948.37
17360	19.572	2.3636	5.e-002	-4.248
17361	19.849	2.3636	0.	-886.47
17362	19.756	2.2727	0.	-907.03
17363	19.756	2.3636	5.e-002	-4.2359
17364	20.033	2.3636	0.	-845.46
17365	19.941	2.2727	0.	-865.9
17366	19.941	2.3636	5.e-002	-4.2247
17367	20.218	2.3636	0.	-804.67
17368	20.125	2.2727	0.	-824.98
17369	20.125	2.3636	5.e-002	-4.2144
17370	20.402	2.3636	0.	-764.08
17371	20.31	2.2727	0.	-784.28
17372	20.31	2.3636	5.e-002	-4.205
17373	20.587	2.3636	0.	-723.71
17374	20.494	2.2727	0.	-743.78
17375	20.494	2.3636	5.e-002	-4.1968
17376	20.771	2.3636	0.	-683.54
17377	20.679	2.2727	0.	-703.48
17378	20.679	2.3636	5.e-002	-4.1898
17379	20.956	2.3636	0.	-643.57
17380	20.863	2.2727	0.	-663.4
17381	20.863	2.3636	5.e-002	-4.1842
17382	21.14	2.3636	0.	-603.81
17383	21.048	2.2727	0.	-623.51
17384	21.048	2.3636	5.e-002	-4.1802
17385	21.325	2.3636	0.	-564.23
17386	21.232	2.2727	0.	-583.82
17387	21.232	2.3636	5.e-002	-4.178
17388	21.509	2.3636	0.	-524.84
17389	21.417	2.2727	0.	-544.32
17390	21.417	2.3636	5.e-002	-4.1778
17391	21.694	2.3636	0.	-485.63
17392	21.601	2.2727	0.	-505.
17393	21.601	2.3636	5.e-002	-4.1799
17394	21.878	2.3636	0.	-446.58
17395	21.786	2.2727	0.	-465.85
17396	21.786	2.3636	5.e-002	-4.1845
17397	22.063	2.3636	0.	-407.67
17398	21.97	2.2727	0.	-426.86
17399	21.97	2.3636	5.e-002	-4.1921
17400	22.247	2.3636	0.	-368.89
17401	22.155	2.2727	0.	-388.02
17402	22.155	2.3636	5.e-002	-4.2029
17403	22.432	2.3636	0.	-330.21
17404	22.339	2.2727	0.	-349.29
17405	22.339	2.3636	5.e-002	-4.2173
17406	22.616	2.3636	0.	-291.6
17407	22.524	2.2727	0.	-310.66
17408	22.524	2.3636	5.e-002	-4.2358
17409	22.801	2.3636	0.	-253.02
17410	22.708	2.2727	0.	-272.09
17411	22.708	2.3636	5.e-002	-4.2587
17412	22.985	2.3636	0.	-214.45
17413	22.893	2.2727	0.	-233.55
17414	22.893	2.3636	5.e-002	-4.2863
17415	23.17	2.3636	0.	-175.82
17416	23.077	2.2727	0.	-194.99
17417	23.077	2.3636	5.e-002	-4.3188
17418	23.354	2.3636	0.	-137.1
17419	23.262	2.2727	0.	-156.37
17420	23.262	2.3636	5.e-002	-4.3565
17421	23.539	2.3636	0.	-98.244
17422	23.446	2.2727	0.	-117.64
17423	23.446	2.3636	5.e-002	-4.399
17424	23.723	2.3636	0.	-59.27
17425	23.631	2.2727	0.	-78.748
17426	23.631	2.3636	5.e-002	-4.4468
17427	23.815	2.2727	0.	-39.854
17428	23.815	2.3636	5.e-002	-4.5134
17429	23.908	2.3636	0.	-22.433
17430	3.2434	2.1818	0.	-12479
17431	3.1512	2.0909	0.	-13922
17432	3.1512	2.1818	5.e-002	-500.65
17433	3.4279	2.1818	0.	-9812.6
17434	3.3357	2.0909	0.	-10106
17435	3.3357	2.1818	5.e-002	-236.8
17436	3.6124	2.1818	0.	-8367.7
17437	3.5202	2.0909	0.	-8504.
17438	3.5202	2.1818	5.e-002	-121.67
17439	3.7969	2.1818	0.	-7464.
17440	3.7047	2.0909	0.	-7530.7
17441	3.7047	2.1818	5.e-002	-83.427
17442	3.9814	2.1818	0.	-6835.4
17443	3.8892	2.0909	0.	-6876.
17444	3.8892	2.1818	5.e-002	-62.042
17445	4.1659	2.1818	0.	-6371.5
17446	4.0737	2.0909	0.	-6401.9
17447	4.0737	2.1818	5.e-002	-48.666
17448	4.3504	2.1818	0.	-6015.
17449	4.2582	2.0909	0.	-6042.1
17450	4.2582	2.1818	5.e-002	-39.372
17451	4.5349	2.1818	0.	-5732.7
17452	4.4427	2.0909	0.	-5759.6
17453	4.4427	2.1818	5.e-002	-32.471
17454	4.7194	2.1818	0.	-5504.1
17455	4.6272	2.0909	0.	-5531.8
17456	4.6272	2.1818	5.e-002	-27.143
17457	4.9039	2.1818	0.	-5315.3
17458	4.8117	2.0909	0.	-5344.
17459	4.8117	2.1818	5.e-002	-22.936
17460	5.0885	2.1818	0.	-5156.5
17461	4.9962	2.0909	0.	-5186.1
17462	4.9962	2.1818	5.e-002	-19.572
17463	5.273	2.1818	0.	-5020.8
17464	5.1807	2.0909	0.	-5051.1
17465	5.1807	2.1818	5.e-002	-16.868
17466	5.4575	2.1818	0.	-4903.
17467	5.3652	2.0909	0.	-4933.6
17468	5.3652	2.1818	5.e-002	-14.687
17469	5.642	2.1818	0.	-4799.1
17470	5.5497	2.0909	0.	-4829.9
17471	5.5497	2.1818	5.e-002	-12.929
17472	5.8265	2.1818	0.	-4706.1
17473	5.7342	2.0909	0.	-4736.9
17474	5.7342	2.1818	5.e-002	-11.511
17475	6.011	2.1818	0.	-4621.7
17476	5.9187	2.0909	0.	-4652.3
17477	5.9187	2.1818	5.e-002	-10.369
17478	6.1955	2.1818	0.	-4544.
17479	6.1032	2.0909	0.	-4574.4
17480	6.1032	2.1818	5.e-002	-9.4501
17481	6.38	2.1818	0.	-4471.5
17482	6.2877	2.0909	0.	-4501.7
17483	6.2877	2.1818	5.e-002	-8.7114
17484	6.5645	2.1818	0.	-4403.2
17485	6.4722	2.0909	0.	-4433.1
17486	6.4722	2.1818	5.e-002	-8.1173
17487	6.749	2.1818	0.	-4338.1
17488	6.6567	2.0909	0.	-4367.7
17489	6.6567	2.1818	5.e-002	-7.639
17490	6.9335	2.1818	0.	-4275.6
17491	6.8412	2.0909	0.	-4305.
17492	6.8412	2.1818	5.e-002	-7.2527
17493	7.118	2.1818	0.	-4215.2
17494	7.0257	2.0909	0.	-4244.2
17495	7.0257	2.1818	5.e-002	-6.9397
17496	7.3025	2.1818	0.	-4156.4
17497	7.2102	2.0909	0.	-4185.2
17498	7.2102	2.1818	5.e-002	-6.6846
17499	7.487	2.1818	0.	-4098.8
17500	7.3947	2.0909	0.	-4127.4
17501	7.3947	2.1818	5.e-002	-6.4753
17502	7.6715	2.1818	0.	-4042.3
17503	7.5792	2.0909	0.	-4070.6
17504	7.5792	2.1818	5.e-002	-6.3024
17505	7.856	2.1818	0.	-3986.6
17506	7.7637	2.0909	0.	-4014.8
17507	7.7637	2.1818	5.e-002	-6.158
17508	8.0405	2.1818	0.	-3931.6
17509	7.9482	2.0909	0.	-3959.5
17510	7.9482	2.1818	5.e-002	-6.0364
17511	8.225	2.1818	0.	-3877.2
17512	8.1327	2.0909	0.	-3904.9
17513	8.1327	2.1818	5.e-002	-5.9327
17514	8.4095	2.1818	0.	-3823.2
17515	8.3173	2.0909	0.	-3850.7
17516	8.3173	2.1818	5.e-002	-5.8434
17517	8.594	2.1818	0.	-3769.6
17518	8.5018	2.0909	0.	-3797.
17519	8.5018	2.1818	5.e-002	-5.7656
17520	8.7785	2.1818	0.	-3716.3
17521	8.6863	2.0909	0.	-3743.6
17522	8.6863	2.1818	5.e-002	-5.697
17523	8.963	2.1818	0.	-3663.4
17524	8.8708	2.0909	0.	-3690.4
17525	8.8708	2.1818	5.e-002	-5.6359
17526	9.1475	2.1818	0.	-3610.7
17527	9.0553	2.0909	0.	-3637.6
17528	9.0553	2.1818	5.e-002	-5.5808
17529	9.332	2.1818	0.	-3558.2
17530	9.2398	2.0909	0.	-3585.
17531	9.2398	2.1818	5.e-002	-5.5307
17532	9.5165	2.1818	0.	-3505.9
17533	9.4243	2.0909	0.	-3532.6
17534	9.4243	2.1818	5.e-002	-5.4847
17535	9.701	2.1818	0.	-3453.9
17536	9.6088	2.0909	0.	-3480.4
17537	9.6088	2.1818	5.e-002	-5.442
17538	9.8855	2.1818	0.	-3402.1
17539	9.7933	2.0909	0.	-3428.5
17540	9.7933	2.1818	5.e-002	-5.4021
17541	10.07	2.1818	0.	-3350.4
17542	9.9778	2.0909	0.	-3376.7
17543	9.9778	2.1818	5.e-002	-5.3647
17544	10.255	2.1818	0.	-3299.
17545	10.162	2.0909	0.	-3325.1
17546	10.162	2.1818	5.e-002	-5.3292
17547	10.439	2.1818	0.	-3247.7
17548	10.347	2.0909	0.	-3273.7
17549	10.347	2.1818	5.e-002	-5.2954
17550	10.624	2.1818	0.	-3196.6
17551	10.531	2.0909	0.	-3222.5
17552	10.531	2.1818	5.e-002	-5.2631
17553	10.808	2.1818	0.	-3145.7
17554	10.716	2.0909	0.	-3171.5
17555	10.716	2.1818	5.e-002	-5.2321
17556	10.993	2.1818	0.	-3094.9
17557	10.9	2.0909	0.	-3120.7
17558	10.9	2.1818	5.e-002	-5.2021
17559	11.177	2.1818	0.	-3044.4
17560	11.085	2.0909	0.	-3070.
17561	11.085	2.1818	5.e-002	-5.1733
17562	11.362	2.1818	0.	-2994.
17563	11.269	2.0909	0.	-3019.5
17564	11.269	2.1818	5.e-002	-5.1452
17565	11.546	2.1818	0.	-2943.8
17566	11.454	2.0909	0.	-2969.2
17567	11.454	2.1818	5.e-002	-5.1179
17568	11.731	2.1818	0.	-2893.8
17569	11.638	2.0909	0.	-2919.1
17570	11.638	2.1818	5.e-002	-5.0913
17571	11.915	2.1818	0.	-2844.
17572	11.823	2.0909	0.	-2869.2
17573	11.823	2.1818	5.e-002	-5.0653
17574	12.1	2.1818	0.	-2794.4
17575	12.007	2.0909	0.	-2819.5
17576	12.007	2.1818	5.e-002	-5.0399
17577	12.284	2.1818	0.	-2744.9
17578	12.192	2.0909	0.	-2769.9
17579	12.192	2.1818	5.e-002	-5.015
17580	12.469	2.1818	0.	-2695.7
17581	12.376	2.0909	0.	-2720.5
17582	12.376	2.1818	5.e-002	-4.9905
17583	12.653	2.1818	0.	-2646.6
17584	12.561	2.0909	0.	-2671.4
17585	12.561	2.1818	5.e-002	-4.9665
17586	12.838	2.1818	0.	-2597.7
17587	12.745	2.0909	0.	-2622.4
17588	12.745	2.1818	5.e-002	-4.9429
17589	13.022	2.1818	0.	-2549.
17590	12.93	2.0909	0.	-2573.6
17591	12.93	2.1818	5.e-002	-4.9196
17592	13.207	2.1818	0.	-2500.5
17593	13.114	2.0909	0.	-2525.
17594	13.114	2.1818	5.e-002	-4.8966
17595	13.391	2.1818	0.	-2452.2
17596	13.299	2.0909	0.	-2476.6
17597	13.299	2.1818	5.e-002	-4.874
17598	13.576	2.1818	0.	-2404.1
17599	13.483	2.0909	0.	-2428.3
17600	13.483	2.1818	5.e-002	-4.8517
17601	13.76	2.1818	0.	-2356.2
17602	13.668	2.0909	0.	-2380.3
17603	13.668	2.1818	5.e-002	-4.8296
17604	13.945	2.1818	0.	-2308.4
17605	13.852	2.0909	0.	-2332.5
17606	13.852	2.1818	5.e-002	-4.8078
17607	14.129	2.1818	0.	-2260.9
17608	14.037	2.0909	0.	-2284.8
17609	14.037	2.1818	5.e-002	-4.7862
17610	14.314	2.1818	0.	-2213.5
17611	14.221	2.0909	0.	-2237.4
17612	14.221	2.1818	5.e-002	-4.7649
17613	14.498	2.1818	0.	-2166.4
17614	14.406	2.0909	0.	-2190.1
17615	14.406	2.1818	5.e-002	-4.7437
17616	14.683	2.1818	0.	-2119.4
17617	14.59	2.0909	0.	-2143.1
17618	14.59	2.1818	5.e-002	-4.7229
17619	14.867	2.1818	0.	-2072.7
17620	14.775	2.0909	0.	-2096.2
17621	14.775	2.1818	5.e-002	-4.7022
17622	15.052	2.1818	0.	-2026.1
17623	14.959	2.0909	0.	-2049.6
17624	14.959	2.1818	5.e-002	-4.6817
17625	15.236	2.1818	0.	-1979.8
17626	15.144	2.0909	0.	-2003.1
17627	15.144	2.1818	5.e-002	-4.6614
17628	15.421	2.1818	0.	-1933.6
17629	15.328	2.0909	0.	-1956.8
17630	15.328	2.1818	5.e-002	-4.6413
17631	15.605	2.1818	0.	-1887.6
17632	15.513	2.0909	0.	-1910.8
17633	15.513	2.1818	5.e-002	-4.6214
17634	15.79	2.1818	0.	-1841.9
17635	15.697	2.0909	0.	-1864.9
17636	15.697	2.1818	5.e-002	-4.6016
17637	15.974	2.1818	0.	-1796.3
17638	15.882	2.0909	0.	-1819.2
17639	15.882	2.1818	5.e-002	-4.5821
17640	16.159	2.1818	0.	-1750.9
17641	16.066	2.0909	0.	-1773.8
17642	16.066	2.1818	5.e-002	-4.5628
17643	16.343	2.1818	0.	-1705.8
17644	16.251	2.0909	0.	-1728.5
17645	16.251	2.1818	5.e-002	-4.5436
17646	16.528	2.1818	0.	-1660.8
17647	16.435	2.0909	0.	-1683.4
17648	16.435	2.1818	5.e-002	-4.5247
17649	16.712	2.1818	0.	-1616.
17650	16.62	2.0909	0.	-1638.5
17651	16.62	2.1818	5.e-002	-4.5059
17652	16.897	2.1818	0.	-1571.5
17653	16.804	2.0909	0.	-1593.9
17654	16.804	2.1818	5.e-002	-4.4874
17655	17.081	2.1818	0.	-1527.1
17656	16.989	2.0909	0.	-1549.4
17657	16.989	2.1818	5.e-002	-4.4691
17658	17.266	2.1818	0.	-1483.
17659	17.173	2.0909	0.	-1505.2
17660	17.173	2.1818	5.e-002	-4.451
17661	17.45	2.1818	0.	-1439.
17662	17.358	2.0909	0.	-1461.1
17663	17.358	2.1818	5.e-002	-4.4332
17664	17.635	2.1818	0.	-1395.3
17665	17.542	2.0909	0.	-1417.3
17666	17.542	2.1818	5.e-002	-4.4157
17667	17.819	2.1818	0.	-1351.7
17668	17.727	2.0909	0.	-1373.6
17669	17.727	2.1818	5.e-002	-4.3984
17670	18.004	2.1818	0.	-1308.4
17671	17.911	2.0909	0.	-1330.2
17672	17.911	2.1818	5.e-002	-4.3814
17673	18.188	2.1818	0.	-1265.3
17674	18.096	2.0909	0.	-1286.9
17675	18.096	2.1818	5.e-002	-4.3648
17676	18.373	2.1818	0.	-1222.4
17677	18.28	2.0909	0.	-1243.9
17678	18.28	2.1818	5.e-002	-4.3485
17679	18.557	2.1818	0.	-1179.6
17680	18.465	2.0909	0.	-1201.1
17681	18.465	2.1818	5.e-002	-4.3326
17682	18.742	2.1818	0.	-1137.1
17683	18.649	2.0909	0.	-1158.5
17684	18.649	2.1818	5.e-002	-4.3171
17685	18.926	2.1818	0.	-1094.8
17686	18.834	2.0909	0.	-1116.
17687	18.834	2.1818	5.e-002	-4.3021
17688	19.111	2.1818	0.	-1052.8
17689	19.018	2.0909	0.	-1073.8
17690	19.018	2.1818	5.e-002	-4.2875
17691	19.295	2.1818	0.	-1010.9
17692	19.203	2.0909	0.	-1031.8
17693	19.203	2.1818	5.e-002	-4.2734
17694	19.48	2.1818	0.	-969.21
17695	19.387	2.0909	0.	-990.05
17696	19.387	2.1818	5.e-002	-4.26
17697	19.664	2.1818	0.	-927.75
17698	19.572	2.0909	0.	-948.47
17699	19.572	2.1818	5.e-002	-4.2472
17700	19.849	2.1818	0.	-886.5
17701	19.756	2.0909	0.	-907.09
17702	19.756	2.1818	5.e-002	-4.235
17703	20.033	2.1818	0.	-845.46
17704	19.941	2.0909	0.	-865.93
17705	19.941	2.1818	5.e-002	-4.2237
17706	20.218	2.1818	0.	-804.63
17707	20.125	2.0909	0.	-824.97
17708	20.125	2.1818	5.e-002	-4.2132
17709	20.402	2.1818	0.	-764.
17710	20.31	2.0909	0.	-784.22
17711	20.31	2.1818	5.e-002	-4.2037
17712	20.587	2.1818	0.	-723.59
17713	20.494	2.0909	0.	-743.67
17714	20.494	2.1818	5.e-002	-4.1953
17715	20.771	2.1818	0.	-683.37
17716	20.679	2.0909	0.	-703.33
17717	20.679	2.1818	5.e-002	-4.188
17718	20.956	2.1818	0.	-643.36
17719	20.863	2.0909	0.	-663.2
17720	20.863	2.1818	5.e-002	-4.1822
17721	21.14	2.1818	0.	-603.55
17722	21.048	2.0909	0.	-623.26
17723	21.048	2.1818	5.e-002	-4.1779
17724	21.325	2.1818	0.	-563.93
17725	21.232	2.0909	0.	-583.52
17726	21.232	2.1818	5.e-002	-4.1753
17727	21.509	2.1818	0.	-524.5
17728	21.417	2.0909	0.	-543.97
17729	21.417	2.1818	5.e-002	-4.1746
17730	21.694	2.1818	0.	-485.25
17731	21.601	2.0909	0.	-504.6
17732	21.601	2.1818	5.e-002	-4.1762
17733	21.878	2.1818	0.	-446.17
17734	21.786	2.0909	0.	-465.41
17735	21.786	2.1818	5.e-002	-4.1803
17736	22.063	2.1818	0.	-407.24
17737	21.97	2.0909	0.	-426.39
17738	21.97	2.1818	5.e-002	-4.1873
17739	22.247	2.1818	0.	-368.44
17740	22.155	2.0909	0.	-387.52
17741	22.155	2.1818	5.e-002	-4.1975
17742	22.432	2.1818	0.	-329.76
17743	22.339	2.0909	0.	-348.79
17744	22.339	2.1818	5.e-002	-4.2114
17745	22.616	2.1818	0.	-291.17
17746	22.524	2.0909	0.	-310.16
17747	22.524	2.1818	5.e-002	-4.2293
17748	22.801	2.1818	0.	-252.63
17749	22.708	2.0909	0.	-271.62
17750	22.708	2.1818	5.e-002	-4.2518
17751	22.985	2.1818	0.	-214.11
17752	22.893	2.0909	0.	-233.12
17753	22.893	2.1818	5.e-002	-4.2793
17754	23.17	2.1818	0.	-175.55
17755	23.077	2.0909	0.	-194.63
17756	23.077	2.1818	5.e-002	-4.3121
17757	23.354	2.1818	0.	-136.91
17758	23.262	2.0909	0.	-156.09
17759	23.262	2.1818	5.e-002	-4.3504
17760	23.539	2.1818	0.	-98.136
17761	23.446	2.0909	0.	-117.46
17762	23.446	2.1818	5.e-002	-4.3942
17763	23.723	2.1818	0.	-59.255
17764	23.631	2.0909	0.	-78.671
17765	23.631	2.1818	5.e-002	-4.4442
17766	23.815	2.0909	0.	-39.886
17767	23.815	2.1818	5.e-002	-4.5199
17768	23.908	2.1818	0.	-22.458
17769	3.2434	2.	0.	-11649
17770	3.1512	1.9091	0.	-11757
17771	3.1512	2.	5.e-002	-980.51
17772	3.0589	2.	0.	-20680
17773	3.4279	2.	0.	-8807.5
17774	3.3357	1.9091	0.	-8744.5
17775	3.3357	2.	5.e-002	-169.47
17776	3.6124	2.	0.	-7666.4
17777	3.5202	1.9091	0.	-7611.9
17778	3.5202	2.	5.e-002	-109.72
17779	3.7969	2.	0.	-6940.3
17780	3.7047	1.9091	0.	-6892.9
17781	3.7047	2.	5.e-002	-73.288
17782	3.9814	2.	0.	-6440.
17783	3.8892	1.9091	0.	-6402.5
17784	3.8892	2.	5.e-002	-55.126
17785	4.1659	2.	0.	-6070.7
17786	4.0737	1.9091	0.	-6044.2
17787	4.0737	2.	5.e-002	-43.432
17788	4.3504	2.	0.	-5785.6
17789	4.2582	1.9091	0.	-5769.9
17790	4.2582	2.	5.e-002	-35.337
17791	4.5349	2.	0.	-5558.
17792	4.4427	1.9091	0.	-5551.9
17793	4.4427	2.	5.e-002	-29.31
17794	4.7194	2.	0.	-5371.3
17795	4.6272	1.9091	0.	-5373.5
17796	4.6272	2.	5.e-002	-24.653
17797	4.9039	2.	0.	-5214.6
17798	4.8117	1.9091	0.	-5223.6
17799	4.8117	2.	5.e-002	-20.963
17800	5.0885	2.	0.	-5080.5
17801	4.9962	1.9091	0.	-5094.9
17802	4.9962	2.	5.e-002	-18.003
17803	5.273	2.	0.	-4963.8
17804	5.1807	1.9091	0.	-4982.3
17805	5.1807	2.	5.e-002	-15.611
17806	5.4575	2.	0.	-4860.5
17807	5.3652	1.9091	0.	-4882.
17808	5.3652	2.	5.e-002	-13.675
17809	5.642	2.	0.	-4767.7
17810	5.5497	1.9091	0.	-4791.5
17811	5.5497	2.	5.e-002	-12.109
17812	5.8265	2.	0.	-4683.1
17813	5.7342	1.9091	0.	-4708.6
17814	5.7342	2.	5.e-002	-10.845
17815	6.011	2.	0.	-4605.
17816	5.9187	1.9091	0.	-4631.7
17817	5.9187	2.	5.e-002	-9.8258
17818	6.1955	2.	0.	-4532.1
17819	6.1032	1.9091	0.	-4559.5
17820	6.1032	2.	5.e-002	-9.0068
17821	6.38	2.	0.	-4463.2
17822	6.2877	1.9091	0.	-4491.2
17823	6.2877	2.	5.e-002	-8.3496
17824	6.5645	2.	0.	-4397.6
17825	6.4722	1.9091	0.	-4425.9
17826	6.4722	2.	5.e-002	-7.8225
17827	6.749	2.	0.	-4334.6
17828	6.6567	1.9091	0.	-4363.
17829	6.6567	2.	5.e-002	-7.3991
17830	6.9335	2.	0.	-4273.6
17831	6.8412	1.9091	0.	-4302.1
17832	6.8412	2.	5.e-002	-7.0582
17833	7.118	2.	0.	-4214.2
17834	7.0257	1.9091	0.	-4242.7
17835	7.0257	2.	5.e-002	-6.7822
17836	7.3025	2.	0.	-4156.2
17837	7.2102	1.9091	0.	-4184.6
17838	7.2102	2.	5.e-002	-6.5575
17839	7.487	2.	0.	-4099.2
17840	7.3947	1.9091	0.	-4127.5
17841	7.3947	2.	5.e-002	-6.3731
17842	7.6715	2.	0.	-4043.1
17843	7.5792	1.9091	0.	-4071.3
17844	7.5792	2.	5.e-002	-6.2201
17845	7.856	2.	0.	-3987.7
17846	7.7637	1.9091	0.	-4015.7
17847	7.7637	2.	5.e-002	-6.092
17848	8.0405	2.	0.	-3932.8
17849	7.9482	1.9091	0.	-3960.8
17850	7.9482	2.	5.e-002	-5.9834
17851	8.225	2.	0.	-3878.5
17852	8.1327	1.9091	0.	-3906.3
17853	8.1327	2.	5.e-002	-5.8902
17854	8.4095	2.	0.	-3824.5
17855	8.3173	1.9091	0.	-3852.2
17856	8.3173	2.	5.e-002	-5.8093
17857	8.594	2.	0.	-3770.9
17858	8.5018	1.9091	0.	-3798.4
17859	8.5018	2.	5.e-002	-5.7382
17860	8.7785	2.	0.	-3717.7
17861	8.6863	1.9091	0.	-3745.
17862	8.6863	2.	5.e-002	-5.675
17863	8.963	2.	0.	-3664.7
17864	8.8708	1.9091	0.	-3691.9
17865	8.8708	2.	5.e-002	-5.6182
17866	9.1475	2.	0.	-3611.9
17867	9.0553	1.9091	0.	-3639.
17868	9.0553	2.	5.e-002	-5.5665
17869	9.332	2.	0.	-3559.4
17870	9.2398	1.9091	0.	-3586.3
17871	9.2398	2.	5.e-002	-5.519
17872	9.5165	2.	0.	-3507.1
17873	9.4243	1.9091	0.	-3533.9
17874	9.4243	2.	5.e-002	-5.4752
17875	9.701	2.	0.	-3455.
17876	9.6088	1.9091	0.	-3481.7
17877	9.6088	2.	5.e-002	-5.4342
17878	9.8855	2.	0.	-3403.1
17879	9.7933	1.9091	0.	-3429.6
17880	9.7933	2.	5.e-002	-5.3957
17881	10.07	2.	0.	-3351.4
17882	9.9778	1.9091	0.	-3377.8
17883	9.9778	2.	5.e-002	-5.3593
17884	10.255	2.	0.	-3299.9
17885	10.162	1.9091	0.	-3326.2
17886	10.162	2.	5.e-002	-5.3247
17887	10.439	2.	0.	-3248.6
17888	10.347	1.9091	0.	-3274.7
17889	10.347	2.	5.e-002	-5.2916
17890	10.624	2.	0.	-3197.5
17891	10.531	1.9091	0.	-3223.5
17892	10.531	2.	5.e-002	-5.2599
17893	10.808	2.	0.	-3146.5
17894	10.716	1.9091	0.	-3172.4
17895	10.716	2.	5.e-002	-5.2293
17896	10.993	2.	0.	-3095.7
17897	10.9	1.9091	0.	-3121.5
17898	10.9	2.	5.e-002	-5.1997
17899	11.177	2.	0.	-3045.1
17900	11.085	1.9091	0.	-3070.8
17901	11.085	2.	5.e-002	-5.1711
17902	11.362	2.	0.	-2994.7
17903	11.269	1.9091	0.	-3020.3
17904	11.269	2.	5.e-002	-5.1433
17905	11.546	2.	0.	-2944.5
17906	11.454	1.9091	0.	-2970.
17907	11.454	2.	5.e-002	-5.1162
17908	11.731	2.	0.	-2894.5
17909	11.638	1.9091	0.	-2919.9
17910	11.638	2.	5.e-002	-5.0898
17911	11.915	2.	0.	-2844.7
17912	11.823	1.9091	0.	-2869.9
17913	11.823	2.	5.e-002	-5.064
17914	12.1	2.	0.	-2795.
17915	12.007	1.9091	0.	-2820.2
17916	12.007	2.	5.e-002	-5.0387
17917	12.284	2.	0.	-2745.5
17918	12.192	1.9091	0.	-2770.6
17919	12.192	2.	5.e-002	-5.0139
17920	12.469	2.	0.	-2696.3
17921	12.376	1.9091	0.	-2721.2
17922	12.376	2.	5.e-002	-4.9895
17923	12.653	2.	0.	-2647.2
17924	12.561	1.9091	0.	-2672.
17925	12.561	2.	5.e-002	-4.9656
17926	12.838	2.	0.	-2598.3
17927	12.745	1.9091	0.	-2623.
17928	12.745	2.	5.e-002	-4.942
17929	13.022	2.	0.	-2549.6
17930	12.93	1.9091	0.	-2574.2
17931	12.93	2.	5.e-002	-4.9188
17932	13.207	2.	0.	-2501.
17933	13.114	1.9091	0.	-2525.6
17934	13.114	2.	5.e-002	-4.8959
17935	13.391	2.	0.	-2452.7
17936	13.299	1.9091	0.	-2477.1
17937	13.299	2.	5.e-002	-4.8733
17938	13.576	2.	0.	-2404.6
17939	13.483	1.9091	0.	-2428.9
17940	13.483	2.	5.e-002	-4.851
17941	13.76	2.	0.	-2356.7
17942	13.668	1.9091	0.	-2380.9
17943	13.668	2.	5.e-002	-4.829
17944	13.945	2.	0.	-2308.9
17945	13.852	1.9091	0.	-2333.
17946	13.852	2.	5.e-002	-4.8073
17947	14.129	2.	0.	-2261.4
17948	14.037	1.9091	0.	-2285.4
17949	14.037	2.	5.e-002	-4.7857
17950	14.314	2.	0.	-2214.
17951	14.221	1.9091	0.	-2237.9
17952	14.221	2.	5.e-002	-4.7644
17953	14.498	2.	0.	-2166.9
17954	14.406	1.9091	0.	-2190.6
17955	14.406	2.	5.e-002	-4.7433
17956	14.683	2.	0.	-2119.9
17957	14.59	1.9091	0.	-2143.6
17958	14.59	2.	5.e-002	-4.7224
17959	14.867	2.	0.	-2073.1
17960	14.775	1.9091	0.	-2096.7
17961	14.775	2.	5.e-002	-4.7018
17962	15.052	2.	0.	-2026.6
17963	14.959	1.9091	0.	-2050.1
17964	14.959	2.	5.e-002	-4.6813
17965	15.236	2.	0.	-1980.2
17966	15.144	1.9091	0.	-2003.6
17967	15.144	2.	5.e-002	-4.661
17968	15.421	2.	0.	-1934.
17969	15.328	1.9091	0.	-1957.3
17970	15.328	2.	5.e-002	-4.6409
17971	15.605	2.	0.	-1888.1
17972	15.513	1.9091	0.	-1911.2
17973	15.513	2.	5.e-002	-4.621
17974	15.79	2.	0.	-1842.3
17975	15.697	1.9091	0.	-1865.4
17976	15.697	2.	5.e-002	-4.6013
17977	15.974	2.	0.	-1796.7
17978	15.882	1.9091	0.	-1819.7
17979	15.882	2.	5.e-002	-4.5817
17980	16.159	2.	0.	-1751.3
17981	16.066	1.9091	0.	-1774.2
17982	16.066	2.	5.e-002	-4.5624
17983	16.343	2.	0.	-1706.2
17984	16.251	1.9091	0.	-1728.9
17985	16.251	2.	5.e-002	-4.5433
17986	16.528	2.	0.	-1661.2
17987	16.435	1.9091	0.	-1683.9
17988	16.435	2.	5.e-002	-4.5243
17989	16.712	2.	0.	-1616.4
17990	16.62	1.9091	0.	-1639.
17991	16.62	2.	5.e-002	-4.5056
17992	16.897	2.	0.	-1571.9
17993	16.804	1.9091	0.	-1594.3
17994	16.804	2.	5.e-002	-4.487
17995	17.081	2.	0.	-1527.5
17996	16.989	1.9091	0.	-1549.9
17997	16.989	2.	5.e-002	-4.4687
17998	17.266	2.	0.	-1483.3
17999	17.173	1.9091	0.	-1505.6
18000	17.173	2.	5.e-002	-4.4507
18001	17.45	2.	0.	-1439.4
18002	17.358	1.9091	0.	-1461.5
18003	17.358	2.	5.e-002	-4.4328
18004	17.635	2.	0.	-1395.6
18005	17.542	1.9091	0.	-1417.7
18006	17.542	2.	5.e-002	-4.4153
18007	17.819	2.	0.	-1352.1
18008	17.727	1.9091	0.	-1374.
18009	17.727	2.	5.e-002	-4.398
18010	18.004	2.	0.	-1308.7
18011	17.911	1.9091	0.	-1330.5
18012	17.911	2.	5.e-002	-4.381
18013	18.188	2.	0.	-1265.6
18014	18.096	1.9091	0.	-1287.3
18015	18.096	2.	5.e-002	-4.3643
18016	18.373	2.	0.	-1222.6
18017	18.28	1.9091	0.	-1244.2
18018	18.28	2.	5.e-002	-4.348
18019	18.557	2.	0.	-1179.9
18020	18.465	1.9091	0.	-1201.4
18021	18.465	2.	5.e-002	-4.3321
18022	18.742	2.	0.	-1137.4
18023	18.649	1.9091	0.	-1158.7
18024	18.649	2.	5.e-002	-4.3165
18025	18.926	2.	0.	-1095.1
18026	18.834	1.9091	0.	-1116.3
18027	18.834	2.	5.e-002	-4.3014
18028	19.111	2.	0.	-1053.
18029	19.018	1.9091	0.	-1074.1
18030	19.018	2.	5.e-002	-4.2868
18031	19.295	2.	0.	-1011.
18032	19.203	1.9091	0.	-1032.
18033	19.203	2.	5.e-002	-4.2726
18034	19.48	2.	0.	-969.34
18035	19.387	1.9091	0.	-990.22
18036	19.387	2.	5.e-002	-4.2591
18037	19.664	2.	0.	-927.85
18038	19.572	1.9091	0.	-948.61
18039	19.572	2.	5.e-002	-4.2462
18040	19.849	2.	0.	-886.56
18041	19.756	1.9091	0.	-907.19
18042	19.756	2.	5.e-002	-4.2339
18043	20.033	2.	0.	-845.48
18044	19.941	1.9091	0.	-865.98
18045	19.941	2.	5.e-002	-4.2224
18046	20.218	2.	0.	-804.6
18047	20.125	1.9091	0.	-824.98
18048	20.125	2.	5.e-002	-4.2118
18049	20.402	2.	0.	-763.93
18050	20.31	1.9091	0.	-784.18
18051	20.31	2.	5.e-002	-4.2021
18052	20.587	2.	0.	-723.46
18053	20.494	1.9091	0.	-743.58
18054	20.494	2.	5.e-002	-4.1934
18055	20.771	2.	0.	-683.19
18056	20.679	1.9091	0.	-703.18
18057	20.679	2.	5.e-002	-4.1859
18058	20.956	2.	0.	-643.13
18059	20.863	1.9091	0.	-662.98
18060	20.863	2.	5.e-002	-4.1797
18061	21.14	2.	0.	-603.26
18062	21.048	1.9091	0.	-622.98
18063	21.048	2.	5.e-002	-4.175
18064	21.325	2.	0.	-563.58
18065	21.232	1.9091	0.	-583.18
18066	21.232	2.	5.e-002	-4.1719
18067	21.509	2.	0.	-524.1
18068	21.417	1.9091	0.	-543.57
18069	21.417	2.	5.e-002	-4.1707
18070	21.694	2.	0.	-484.8
18071	21.601	1.9091	0.	-504.14
18072	21.601	2.	5.e-002	-4.1717
18073	21.878	2.	0.	-445.67
18074	21.786	1.9091	0.	-464.9
18075	21.786	2.	5.e-002	-4.1752
18076	22.063	2.	0.	-406.71
18077	21.97	1.9091	0.	-425.83
18078	21.97	2.	5.e-002	-4.1814
18079	22.247	2.	0.	-367.89
18080	22.155	1.9091	0.	-386.93
18081	22.155	2.	5.e-002	-4.1908
18082	22.432	2.	0.	-329.21
18083	22.339	1.9091	0.	-348.17
18084	22.339	2.	5.e-002	-4.2039
18085	22.616	2.	0.	-290.63
18086	22.524	1.9091	0.	-309.55
18087	22.524	2.	5.e-002	-4.2211
18088	22.801	2.	0.	-252.13
18089	22.708	1.9091	0.	-271.03
18090	22.708	2.	5.e-002	-4.2431
18091	22.985	2.	0.	-213.66
18092	22.893	1.9091	0.	-232.59
18093	22.893	2.	5.e-002	-4.2704
18094	23.17	2.	0.	-175.19
18095	23.077	1.9091	0.	-194.17
18096	23.077	2.	5.e-002	-4.3034
18097	23.354	2.	0.	-136.65
18098	23.262	1.9091	0.	-155.73
18099	23.262	2.	5.e-002	-4.3425
18100	23.539	2.	0.	-97.989
18101	23.446	1.9091	0.	-117.22
18102	23.446	2.	5.e-002	-4.3879
18103	23.723	2.	0.	-59.228
18104	23.631	1.9091	0.	-78.564
18105	23.631	2.	5.e-002	-4.4407
18106	23.815	1.9091	0.	-39.92
18107	23.815	2.	5.e-002	-4.528
18108	23.908	2.	0.	-22.486
18109	3.2434	1.8182	0.	-8884.4
18110	3.1512	1.7273	0.	-8315.1
18111	3.1512	1.8182	5.e-002	-535.74
18112	3.0589	1.8182	0.	-7571.1
18113	3.4279	1.8182	0.	-7548.8
18114	3.3357	1.7273	0.	-7215.1
18115	3.3357	1.8182	5.e-002	-180.77
18116	3.6124	1.8182	0.	-6832.
18117	3.5202	1.7273	0.	-6618.6
18118	3.5202	1.8182	5.e-002	-83.535
18119	3.7969	1.8182	0.	-6349.6
18120	3.7047	1.7273	0.	-6200.3
18121	3.7047	1.8182	5.e-002	-60.439
18122	3.9814	1.8182	0.	-6002.7
18123	3.8892	1.7273	0.	-5893.4
18124	3.8892	1.8182	5.e-002	-47.111
18125	4.1659	1.8182	0.	-5740.6
18126	4.0737	1.7273	0.	-5661.1
18127	4.0737	1.8182	5.e-002	-37.777
18128	4.3504	1.8182	0.	-5534.5
18129	4.2582	1.7273	0.	-5478.5
18130	4.2582	1.8182	5.e-002	-31.08
18131	4.5349	1.8182	0.	-5366.4
18132	4.4427	1.7273	0.	-5329.4
18133	4.4427	1.8182	5.e-002	-25.991
18134	4.7194	1.8182	0.	-5225.2
18135	4.6272	1.7273	0.	-5203.4
18136	4.6272	1.8182	5.e-002	-22.009
18137	4.9039	1.8182	0.	-5103.5
18138	4.8117	1.7273	0.	-5093.8
18139	4.8117	1.8182	5.e-002	-18.831
18140	5.0885	1.8182	0.	-4996.4
18141	4.9962	1.7273	0.	-4996.1
18142	4.9962	1.8182	5.e-002	-16.268
18143	5.273	1.8182	0.	-4900.4
18144	5.1807	1.7273	0.	-4907.5
18145	5.1807	1.8182	5.e-002	-14.192
18146	5.4575	1.8182	0.	-4813.
18147	5.3652	1.7273	0.	-4825.8
18148	5.3652	1.8182	5.e-002	-12.509
18149	5.642	1.8182	0.	-4732.4
18150	5.5497	1.7273	0.	-4749.4
18151	5.5497	1.8182	5.e-002	-11.149
18152	5.8265	1.8182	0.	-4657.1
18153	5.7342	1.7273	0.	-4677.4
18154	5.7342	1.8182	5.e-002	-10.053
18155	6.011	1.8182	0.	-4586.2
18156	5.9187	1.7273	0.	-4608.8
18157	5.9187	1.8182	5.e-002	-9.1743
18158	6.1955	1.8182	0.	-4518.6
18159	6.1032	1.7273	0.	-4543.
18160	6.1032	1.8182	5.e-002	-8.4722
18161	6.38	1.8182	0.	-4453.8
18162	6.2877	1.7273	0.	-4479.5
18163	6.2877	1.8182	5.e-002	-7.9123
18164	6.5645	1.8182	0.	-4391.3
18165	6.4722	1.7273	0.	-4417.9
18166	6.4722	1.8182	5.e-002	-7.4662
18167	6.749	1.8182	0.	-4330.5
18168	6.6567	1.7273	0.	-4357.7
18169	6.6567	1.8182	5.e-002	-7.11
18170	6.9335	1.8182	0.	-4271.2
18171	6.8412	1.7273	0.	-4298.8
18172	6.8412	1.8182	5.e-002	-6.8244
18173	7.118	1.8182	0.	-4213.1
18174	7.0257	1.7273	0.	-4241.
18175	7.0257	1.8182	5.e-002	-6.5939
18176	7.3025	1.8182	0.	-4156.
18177	7.2102	1.7273	0.	-4184.
18178	7.2102	1.8182	5.e-002	-6.4062
18179	7.487	1.8182	0.	-4099.6
18180	7.3947	1.7273	0.	-4127.7
18181	7.3947	1.8182	5.e-002	-6.2517
18182	7.6715	1.8182	0.	-4044.
18183	7.5792	1.7273	0.	-4072.
18184	7.5792	1.8182	5.e-002	-6.123
18185	7.856	1.8182	0.	-3988.8
18186	7.7637	1.7273	0.	-4016.8
18187	7.7637	1.8182	5.e-002	-6.0143
18188	8.0405	1.8182	0.	-3934.2
18189	7.9482	1.7273	0.	-3962.1
18190	7.9482	1.8182	5.e-002	-5.9213
18191	8.225	1.8182	0.	-3879.9
18192	8.1327	1.7273	0.	-3907.8
18193	8.1327	1.8182	5.e-002	-5.8406
18194	8.4095	1.8182	0.	-3826.1
18195	8.3173	1.7273	0.	-3853.8
18196	8.3173	1.8182	5.e-002	-5.7696
18197	8.594	1.8182	0.	-3772.5
18198	8.5018	1.7273	0.	-3800.1
18199	8.5018	1.8182	5.e-002	-5.7064
18200	8.7785	1.8182	0.	-3719.2
18201	8.6863	1.7273	0.	-3746.6
18202	8.6863	1.8182	5.e-002	-5.6495
18203	8.963	1.8182	0.	-3666.2
18204	8.8708	1.7273	0.	-3693.5
18205	8.8708	1.8182	5.e-002	-5.5976
18206	9.1475	1.8182	0.	-3613.4
18207	9.0553	1.7273	0.	-3640.6
18208	9.0553	1.8182	5.e-002	-5.5499
18209	9.332	1.8182	0.	-3560.8
18210	9.2398	1.7273	0.	-3587.8
18211	9.2398	1.8182	5.e-002	-5.5055
18212	9.5165	1.8182	0.	-3508.5
18213	9.4243	1.7273	0.	-3535.4
18214	9.4243	1.8182	5.e-002	-5.4641
18215	9.701	1.8182	0.	-3456.3
18216	9.6088	1.7273	0.	-3483.1
18217	9.6088	1.8182	5.e-002	-5.4251
18218	9.8855	1.8182	0.	-3404.3
18219	9.7933	1.7273	0.	-3431.
18220	9.7933	1.8182	5.e-002	-5.3882
18221	10.07	1.8182	0.	-3352.6
18222	9.9778	1.7273	0.	-3379.1
18223	9.9778	1.8182	5.e-002	-5.3531
18224	10.255	1.8182	0.	-3301.
18225	10.162	1.7273	0.	-3327.4
18226	10.162	1.8182	5.e-002	-5.3194
18227	10.439	1.8182	0.	-3249.7
18228	10.347	1.7273	0.	-3275.9
18229	10.347	1.8182	5.e-002	-5.2872
18230	10.624	1.8182	0.	-3198.5
18231	10.531	1.7273	0.	-3224.6
18232	10.531	1.8182	5.e-002	-5.2561
18233	10.808	1.8182	0.	-3147.5
18234	10.716	1.7273	0.	-3173.5
18235	10.716	1.8182	5.e-002	-5.226
18236	10.993	1.8182	0.	-3096.7
18237	10.9	1.7273	0.	-3122.6
18238	10.9	1.8182	5.e-002	-5.1969
18239	11.177	1.8182	0.	-3046.
18240	11.085	1.7273	0.	-3071.8
18241	11.085	1.8182	5.e-002	-5.1686
18242	11.362	1.8182	0.	-2995.6
18243	11.269	1.7273	0.	-3021.3
18244	11.269	1.8182	5.e-002	-5.1411
18245	11.546	1.8182	0.	-2945.4
18246	11.454	1.7273	0.	-2970.9
18247	11.454	1.8182	5.e-002	-5.1143
18248	11.731	1.8182	0.	-2895.3
18249	11.638	1.7273	0.	-2920.7
18250	11.638	1.8182	5.e-002	-5.0881
18251	11.915	1.8182	0.	-2845.4
18252	11.823	1.7273	0.	-2870.7
18253	11.823	1.8182	5.e-002	-5.0624
18254	12.1	1.8182	0.	-2795.7
18255	12.007	1.7273	0.	-2821.
18256	12.007	1.8182	5.e-002	-5.0372
18257	12.284	1.8182	0.	-2746.3
18258	12.192	1.7273	0.	-2771.4
18259	12.192	1.8182	5.e-002	-5.0126
18260	12.469	1.8182	0.	-2697.
18261	12.376	1.7273	0.	-2721.9
18262	12.376	1.8182	5.e-002	-4.9883
18263	12.653	1.8182	0.	-2647.8
18264	12.561	1.7273	0.	-2672.7
18265	12.561	1.8182	5.e-002	-4.9645
18266	12.838	1.8182	0.	-2598.9
18267	12.745	1.7273	0.	-2623.7
18268	12.745	1.8182	5.e-002	-4.941
18269	13.022	1.8182	0.	-2550.2
18270	12.93	1.7273	0.	-2574.9
18271	12.93	1.8182	5.e-002	-4.9179
18272	13.207	1.8182	0.	-2501.7
18273	13.114	1.7273	0.	-2526.2
18274	13.114	1.8182	5.e-002	-4.895
18275	13.391	1.8182	0.	-2453.3
18276	13.299	1.7273	0.	-2477.8
18277	13.299	1.8182	5.e-002	-4.8725
18278	13.576	1.8182	0.	-2405.2
18279	13.483	1.7273	0.	-2429.6
18280	13.483	1.8182	5.e-002	-4.8503
18281	13.76	1.8182	0.	-2357.2
18282	13.668	1.7273	0.	-2381.5
18283	13.668	1.8182	5.e-002	-4.8283
18284	13.945	1.8182	0.	-2309.5
18285	13.852	1.7273	0.	-2333.6
18286	13.852	1.8182	5.e-002	-4.8066
18287	14.129	1.8182	0.	-2261.9
18288	14.037	1.7273	0.	-2286.
18289	14.037	1.8182	5.e-002	-4.7851
18290	14.314	1.8182	0.	-2214.6
18291	14.221	1.7273	0.	-2238.5
18292	14.221	1.8182	5.e-002	-4.7638
18293	14.498	1.8182	0.	-2167.4
18294	14.406	1.7273	0.	-2191.3
18295	14.406	1.8182	5.e-002	-4.7427
18296	14.683	1.8182	0.	-2120.4
18297	14.59	1.7273	0.	-2144.2
18298	14.59	1.8182	5.e-002	-4.7219
18299	14.867	1.8182	0.	-2073.7
18300	14.775	1.7273	0.	-2097.3
18301	14.775	1.8182	5.e-002	-4.7013
18302	15.052	1.8182	0.	-2027.1
18303	14.959	1.7273	0.	-2050.6
18304	14.959	1.8182	5.e-002	-4.6808
18305	15.236	1.8182	0.	-1980.7
18306	15.144	1.7273	0.	-2004.2
18307	15.144	1.8182	5.e-002	-4.6605
18308	15.421	1.8182	0.	-1934.6
18309	15.328	1.7273	0.	-1957.9
18310	15.328	1.8182	5.e-002	-4.6404
18311	15.605	1.8182	0.	-1888.6
18312	15.513	1.7273	0.	-1911.8
18313	15.513	1.8182	5.e-002	-4.6205
18314	15.79	1.8182	0.	-1842.8
18315	15.697	1.7273	0.	-1865.9
18316	15.697	1.8182	5.e-002	-4.6008
18317	15.974	1.8182	0.	-1797.2
18318	15.882	1.7273	0.	-1820.2
18319	15.882	1.8182	5.e-002	-4.5813
18320	16.159	1.8182	0.	-1751.8
18321	16.066	1.7273	0.	-1774.8
18322	16.066	1.8182	5.e-002	-4.562
18323	16.343	1.8182	0.	-1706.7
18324	16.251	1.7273	0.	-1729.5
18325	16.251	1.8182	5.e-002	-4.5428
18326	16.528	1.8182	0.	-1661.7
18327	16.435	1.7273	0.	-1684.4
18328	16.435	1.8182	5.e-002	-4.5239
18329	16.712	1.8182	0.	-1616.9
18330	16.62	1.7273	0.	-1639.5
18331	16.62	1.8182	5.e-002	-4.5051
18332	16.897	1.8182	0.	-1572.3
18333	16.804	1.7273	0.	-1594.8
18334	16.804	1.8182	5.e-002	-4.4866
18335	17.081	1.8182	0.	-1528.
18336	16.989	1.7273	0.	-1550.4
18337	16.989	1.8182	5.e-002	-4.4683
18338	17.266	1.8182	0.	-1483.8
18339	17.173	1.7273	0.	-1506.1
18340	17.173	1.8182	5.e-002	-4.4502
18341	17.45	1.8182	0.	-1439.8
18342	17.358	1.7273	0.	-1462.
18343	17.358	1.8182	5.e-002	-4.4324
18344	17.635	1.8182	0.	-1396.1
18345	17.542	1.7273	0.	-1418.1
18346	17.542	1.8182	5.e-002	-4.4148
18347	17.819	1.8182	0.	-1352.5
18348	17.727	1.7273	0.	-1374.5
18349	17.727	1.8182	5.e-002	-4.3974
18350	18.004	1.8182	0.	-1309.1
18351	17.911	1.7273	0.	-1331.
18352	17.911	1.8182	5.e-002	-4.3804
18353	18.188	1.8182	0.	-1266.
18354	18.096	1.7273	0.	-1287.7
18355	18.096	1.8182	5.e-002	-4.3637
18356	18.373	1.8182	0.	-1223.
18357	18.28	1.7273	0.	-1244.6
18358	18.28	1.8182	5.e-002	-4.3474
18359	18.557	1.8182	0.	-1180.3
18360	18.465	1.7273	0.	-1201.8
18361	18.465	1.8182	5.e-002	-4.3314
18362	18.742	1.8182	0.	-1137.7
18363	18.649	1.7273	0.	-1159.1
18364	18.649	1.8182	5.e-002	-4.3158
18365	18.926	1.8182	0.	-1095.4
18366	18.834	1.7273	0.	-1116.6
18367	18.834	1.8182	5.e-002	-4.3006
18368	19.111	1.8182	0.	-1053.2
18369	19.018	1.7273	0.	-1074.4
18370	19.018	1.8182	5.e-002	-4.2859
18371	19.295	1.8182	0.	-1011.3
18372	19.203	1.7273	0.	-1032.3
18373	19.203	1.8182	5.e-002	-4.2717
18374	19.48	1.8182	0.	-969.53
18375	19.387	1.7273	0.	-990.46
18376	19.387	1.8182	5.e-002	-4.258
18377	19.664	1.8182	0.	-927.99
18378	19.572	1.7273	0.	-948.8
18379	19.572	1.8182	5.e-002	-4.245
18380	19.849	1.8182	0.	-886.66
18381	19.756	1.7273	0.	-907.34
18382	19.756	1.8182	5.e-002	-4.2326
18383	20.033	1.8182	0.	-845.53
18384	19.941	1.7273	0.	-866.09
18385	19.941	1.8182	5.e-002	-4.2209
18386	20.218	1.8182	0.	-804.6
18387	20.125	1.7273	0.	-825.03
18388	20.125	1.8182	5.e-002	-4.2101
18389	20.402	1.8182	0.	-763.87
18390	20.31	1.7273	0.	-784.17
18391	20.31	1.8182	5.e-002	-4.2002
18392	20.587	1.8182	0.	-723.34
18393	20.494	1.7273	0.	-743.51
18394	20.494	1.8182	5.e-002	-4.1912
18395	20.771	1.8182	0.	-683.01
18396	20.679	1.7273	0.	-703.04
18397	20.679	1.8182	5.e-002	-4.1834
18398	20.956	1.8182	0.	-642.88
18399	20.863	1.7273	0.	-662.77
18400	20.863	1.8182	5.e-002	-4.1768
18401	21.14	1.8182	0.	-602.94
18402	21.048	1.7273	0.	-622.7
18403	21.048	1.8182	5.e-002	-4.1716
18404	21.325	1.8182	0.	-563.2
18405	21.232	1.7273	0.	-582.82
18406	21.232	1.8182	5.e-002	-4.168
18407	21.509	1.8182	0.	-523.65
18408	21.417	1.7273	0.	-543.14
18409	21.417	1.8182	5.e-002	-4.1662
18410	21.694	1.8182	0.	-484.28
18411	21.601	1.7273	0.	-503.64
18412	21.601	1.8182	5.e-002	-4.1665
18413	21.878	1.8182	0.	-445.1
18414	21.786	1.7273	0.	-464.33
18415	21.786	1.8182	5.e-002	-4.1691
18416	22.063	1.8182	0.	-406.09
18417	21.97	1.7273	0.	-425.2
18418	21.97	1.8182	5.e-002	-4.1744
18419	22.247	1.8182	0.	-367.24
18420	22.155	1.7273	0.	-386.25
18421	22.155	1.8182	5.e-002	-4.1828
18422	22.432	1.8182	0.	-328.54
18423	22.339	1.7273	0.	-347.46
18424	22.339	1.8182	5.e-002	-4.1949
18425	22.616	1.8182	0.	-289.98
18426	22.524	1.7273	0.	-308.82
18427	22.524	1.8182	5.e-002	-4.2112
18428	22.801	1.8182	0.	-251.51
18429	22.708	1.7273	0.	-270.32
18430	22.708	1.8182	5.e-002	-4.2324
18431	22.985	1.8182	0.	-213.11
18432	22.893	1.7273	0.	-231.93
18433	22.893	1.8182	5.e-002	-4.2593
18434	23.17	1.8182	0.	-174.73
18435	23.077	1.7273	0.	-193.6
18436	23.077	1.8182	5.e-002	-4.2924
18437	23.354	1.8182	0.	-136.31
18438	23.262	1.7273	0.	-155.28
18439	23.262	1.8182	5.e-002	-4.3324
18440	23.539	1.8182	0.	-97.792
18441	23.446	1.7273	0.	-116.91
18442	23.446	1.8182	5.e-002	-4.3796
18443	23.723	1.8182	0.	-59.184
18444	23.631	1.7273	0.	-78.416
18445	23.631	1.8182	5.e-002	-4.436
18446	23.815	1.7273	0.	-39.95
18447	23.815	1.8182	5.e-002	-4.5373
18448	23.908	1.8182	0.	-22.516
18449	3.2434	1.6364	0.	-6547.
18450	3.1512	1.5455	0.	-6036.7
18451	3.1512	1.6364	5.e-002	-293.06
18452	3.0589	1.6364	0.	-5394.7
18453	3.4279	1.6364	0.	-6257.2
18454	3.3357	1.5455	0.	-5812.2
18455	3.3357	1.6364	5.e-002	-116.3
18456	3.6124	1.6364	0.	-5973.3
18457	3.5202	1.5455	0.	-5662.5
18458	3.5202	1.6364	5.e-002	-72.602
18459	3.7969	1.6364	0.	-5734.9
18460	3.7047	1.5455	0.	-5507.3
18461	3.7047	1.6364	5.e-002	-51.878
18462	3.9814	1.6364	0.	-5546.
18463	3.8892	1.5455	0.	-5376.9
18464	3.8892	1.6364	5.e-002	-40.074
18465	4.1659	1.6364	0.	-5395.3
18466	4.0737	1.5455	0.	-5269.7
18467	4.0737	1.6364	5.e-002	-32.667
18468	4.3504	1.6364	0.	-5271.2
18469	4.2582	1.5455	0.	-5179.4
18470	4.2582	1.6364	5.e-002	-27.104
18471	4.5349	1.6364	0.	-5165.
18472	4.4427	1.5455	0.	-5100.
18473	4.4427	1.6364	5.e-002	-22.803
18474	4.7194	1.6364	0.	-5071.1
18475	4.6272	1.5455	0.	-5027.4
18476	4.6272	1.6364	5.e-002	-19.392
18477	4.9039	1.6364	0.	-4985.9
18478	4.8117	1.5455	0.	-4958.9
18479	4.8117	1.6364	5.e-002	-16.652
18480	5.0885	1.6364	0.	-4907.
18481	4.9962	1.5455	0.	-4893.2
18482	4.9962	1.6364	5.e-002	-14.439
18483	5.273	1.6364	0.	-4832.7
18484	5.1807	1.5455	0.	-4829.2
18485	5.1807	1.6364	5.e-002	-12.651
18486	5.4575	1.6364	0.	-4762.1
18487	5.3652	1.5455	0.	-4766.6
18488	5.3652	1.6364	5.e-002	-11.212
18489	5.642	1.6364	0.	-4694.4
18490	5.5497	1.5455	0.	-4705.
18491	5.5497	1.6364	5.e-002	-10.06
18492	5.8265	1.6364	0.	-4629.1
18493	5.7342	1.5455	0.	-4644.4
18494	5.7342	1.6364	5.e-002	-9.1434
18495	6.011	1.6364	0.	-4565.7
18496	5.9187	1.5455	0.	-4584.6
18497	5.9187	1.6364	5.e-002	-8.4192
18498	6.1955	1.6364	0.	-4504.
18499	6.1032	1.5455	0.	-4525.5
18500	6.1032	1.6364	5.e-002	-7.8495
18501	6.38	1.6364	0.	-4443.6
18502	6.2877	1.5455	0.	-4467.1
18503	6.2877	1.6364	5.e-002	-7.4025
18504	6.5645	1.6364	0.	-4384.3
18505	6.4722	1.5455	0.	-4409.3
18506	6.4722	1.6364	5.e-002	-7.0514
18507	6.749	1.6364	0.	-4326.1
18508	6.6567	1.5455	0.	-4352.1
18509	6.6567	1.6364	5.e-002	-6.7746
18510	6.9335	1.6364	0.	-4268.6
18511	6.8412	1.5455	0.	-4295.4
18512	6.8412	1.6364	5.e-002	-6.5544
18513	7.118	1.6364	0.	-4211.9
18514	7.0257	1.5455	0.	-4239.1
18515	7.0257	1.6364	5.e-002	-6.3775
18516	7.3025	1.6364	0.	-4155.7
18517	7.2102	1.5455	0.	-4183.3
18518	7.2102	1.6364	5.e-002	-6.2332
18519	7.487	1.6364	0.	-4100.1
18520	7.3947	1.5455	0.	-4127.9
18521	7.3947	1.6364	5.e-002	-6.1137
18522	7.6715	1.6364	0.	-4044.9
18523	7.5792	1.5455	0.	-4072.8
18524	7.5792	1.6364	5.e-002	-6.013
18525	7.856	1.6364	0.	-3990.1
18526	7.7637	1.5455	0.	-4018.1
18527	7.7637	1.6364	5.e-002	-5.9267
18528	8.0405	1.6364	0.	-3935.7
18529	7.9482	1.5455	0.	-3963.6
18530	7.9482	1.6364	5.e-002	-5.8515
18531	8.225	1.6364	0.	-3881.6
18532	8.1327	1.5455	0.	-3909.5
18533	8.1327	1.6364	5.e-002	-5.785
18534	8.4095	1.6364	0.	-3827.8
18535	8.3173	1.5455	0.	-3855.6
18536	8.3173	1.6364	5.e-002	-5.7253
18537	8.594	1.6364	0.	-3774.2
18538	8.5018	1.5455	0.	-3801.9
18539	8.5018	1.6364	5.e-002	-5.6709
18540	8.7785	1.6364	0.	-3720.9
18541	8.6863	1.5455	0.	-3748.5
18542	8.6863	1.6364	5.e-002	-5.621
18543	8.963	1.6364	0.	-3667.9
18544	8.8708	1.5455	0.	-3695.3
18545	8.8708	1.6364	5.e-002	-5.5746
18546	9.1475	1.6364	0.	-3615.
18547	9.0553	1.5455	0.	-3642.3
18548	9.0553	1.6364	5.e-002	-5.5313
18549	9.332	1.6364	0.	-3562.4
18550	9.2398	1.5455	0.	-3589.6
18551	9.2398	1.6364	5.e-002	-5.4905
18552	9.5165	1.6364	0.	-3510.
18553	9.4243	1.5455	0.	-3537.
18554	9.4243	1.6364	5.e-002	-5.4518
18555	9.701	1.6364	0.	-3457.8
18556	9.6088	1.5455	0.	-3484.7
18557	9.6088	1.6364	5.e-002	-5.415
18558	9.8855	1.6364	0.	-3405.8
18559	9.7933	1.5455	0.	-3432.5
18560	9.7933	1.6364	5.e-002	-5.3798
18561	10.07	1.6364	0.	-3353.9
18562	9.9778	1.5455	0.	-3380.6
18563	9.9778	1.6364	5.e-002	-5.346
18564	10.255	1.6364	0.	-3302.3
18565	10.162	1.5455	0.	-3328.8
18566	10.162	1.6364	5.e-002	-5.3135
18567	10.439	1.6364	0.	-3250.9
18568	10.347	1.5455	0.	-3277.2
18569	10.347	1.6364	5.e-002	-5.2821
18570	10.624	1.6364	0.	-3199.6
18571	10.531	1.5455	0.	-3225.9
18572	10.531	1.6364	5.e-002	-5.2518
18573	10.808	1.6364	0.	-3148.6
18574	10.716	1.5455	0.	-3174.7
18575	10.716	1.6364	5.e-002	-5.2223
18576	10.993	1.6364	0.	-3097.7
18577	10.9	1.5455	0.	-3123.7
18578	10.9	1.6364	5.e-002	-5.1937
18579	11.177	1.6364	0.	-3047.1
18580	11.085	1.5455	0.	-3072.9
18581	11.085	1.6364	5.e-002	-5.1658
18582	11.362	1.6364	0.	-2996.6
18583	11.269	1.5455	0.	-3022.3
18584	11.269	1.6364	5.e-002	-5.1386
18585	11.546	1.6364	0.	-2946.3
18586	11.454	1.5455	0.	-2971.9
18587	11.454	1.6364	5.e-002	-5.112
18588	11.731	1.6364	0.	-2896.2
18589	11.638	1.5455	0.	-2921.7
18590	11.638	1.6364	5.e-002	-5.086
18591	11.915	1.6364	0.	-2846.3
18592	11.823	1.5455	0.	-2871.7
18593	11.823	1.6364	5.e-002	-5.0605
18594	12.1	1.6364	0.	-2796.6
18595	12.007	1.5455	0.	-2821.9
18596	12.007	1.6364	5.e-002	-5.0356
18597	12.284	1.6364	0.	-2747.1
18598	12.192	1.5455	0.	-2772.2
18599	12.192	1.6364	5.e-002	-5.011
18600	12.469	1.6364	0.	-2697.8
18601	12.376	1.5455	0.	-2722.8
18602	12.376	1.6364	5.e-002	-4.9869
18603	12.653	1.6364	0.	-2648.6
18604	12.561	1.5455	0.	-2673.6
18605	12.561	1.6364	5.e-002	-4.9632
18606	12.838	1.6364	0.	-2599.7
18607	12.745	1.5455	0.	-2624.5
18608	12.745	1.6364	5.e-002	-4.9398
18609	13.022	1.6364	0.	-2550.9
18610	12.93	1.5455	0.	-2575.7
18611	12.93	1.6364	5.e-002	-4.9168
18612	13.207	1.6364	0.	-2502.4
18613	13.114	1.5455	0.	-2527.
18614	13.114	1.6364	5.e-002	-4.894
18615	13.391	1.6364	0.	-2454.
18616	13.299	1.5455	0.	-2478.6
18617	13.299	1.6364	5.e-002	-4.8716
18618	13.576	1.6364	0.	-2405.9
18619	13.483	1.5455	0.	-2430.3
18620	13.483	1.6364	5.e-002	-4.8494
18621	13.76	1.6364	0.	-2357.9
18622	13.668	1.5455	0.	-2382.2
18623	13.668	1.6364	5.e-002	-4.8275
18624	13.945	1.6364	0.	-2310.2
18625	13.852	1.5455	0.	-2334.4
18626	13.852	1.6364	5.e-002	-4.8058
18627	14.129	1.6364	0.	-2262.6
18628	14.037	1.5455	0.	-2286.7
18629	14.037	1.6364	5.e-002	-4.7844
18630	14.314	1.6364	0.	-2215.2
18631	14.221	1.5455	0.	-2239.2
18632	14.221	1.6364	5.e-002	-4.7631
18633	14.498	1.6364	0.	-2168.1
18634	14.406	1.5455	0.	-2192.
18635	14.406	1.6364	5.e-002	-4.7421
18636	14.683	1.6364	0.	-2121.1
18637	14.59	1.5455	0.	-2144.9
18638	14.59	1.6364	5.e-002	-4.7213
18639	14.867	1.6364	0.	-2074.3
18640	14.775	1.5455	0.	-2098.
18641	14.775	1.6364	5.e-002	-4.7007
18642	15.052	1.6364	0.	-2027.7
18643	14.959	1.5455	0.	-2051.3
18644	14.959	1.6364	5.e-002	-4.6802
18645	15.236	1.6364	0.	-1981.4
18646	15.144	1.5455	0.	-2004.8
18647	15.144	1.6364	5.e-002	-4.66
18648	15.421	1.6364	0.	-1935.2
18649	15.328	1.5455	0.	-1958.6
18650	15.328	1.6364	5.e-002	-4.6399
18651	15.605	1.6364	0.	-1889.2
18652	15.513	1.5455	0.	-1912.5
18653	15.513	1.6364	5.e-002	-4.62
18654	15.79	1.6364	0.	-1843.4
18655	15.697	1.5455	0.	-1866.6
18656	15.697	1.6364	5.e-002	-4.6003
18657	15.974	1.6364	0.	-1797.8
18658	15.882	1.5455	0.	-1820.9
18659	15.882	1.6364	5.e-002	-4.5808
18660	16.159	1.6364	0.	-1752.4
18661	16.066	1.5455	0.	-1775.4
18662	16.066	1.6364	5.e-002	-4.5615
18663	16.343	1.6364	0.	-1707.3
18664	16.251	1.5455	0.	-1730.1
18665	16.251	1.6364	5.e-002	-4.5423
18666	16.528	1.6364	0.	-1662.3
18667	16.435	1.5455	0.	-1685.
18668	16.435	1.6364	5.e-002	-4.5234
18669	16.712	1.6364	0.	-1617.5
18670	16.62	1.5455	0.	-1640.1
18671	16.62	1.6364	5.e-002	-4.5046
18672	16.897	1.6364	0.	-1572.9
18673	16.804	1.5455	0.	-1595.5
18674	16.804	1.6364	5.e-002	-4.4861
18675	17.081	1.6364	0.	-1528.5
18676	16.989	1.5455	0.	-1551.
18677	16.989	1.6364	5.e-002	-4.4677
18678	17.266	1.6364	0.	-1484.3
18679	17.173	1.5455	0.	-1506.7
18680	17.173	1.6364	5.e-002	-4.4496
18681	17.45	1.6364	0.	-1440.4
18682	17.358	1.5455	0.	-1462.6
18683	17.358	1.6364	5.e-002	-4.4318
18684	17.635	1.6364	0.	-1396.6
18685	17.542	1.5455	0.	-1418.7
18686	17.542	1.6364	5.e-002	-4.4142
18687	17.819	1.6364	0.	-1353.
18688	17.727	1.5455	0.	-1375.
18689	17.727	1.6364	5.e-002	-4.3968
18690	18.004	1.6364	0.	-1309.6
18691	17.911	1.5455	0.	-1331.5
18692	17.911	1.6364	5.e-002	-4.3797
18693	18.188	1.6364	0.	-1266.4
18694	18.096	1.5455	0.	-1288.2
18695	18.096	1.6364	5.e-002	-4.363
18696	18.373	1.6364	0.	-1223.5
18697	18.28	1.5455	0.	-1245.1
18698	18.28	1.6364	5.e-002	-4.3466
18699	18.557	1.6364	0.	-1180.7
18700	18.465	1.5455	0.	-1202.3
18701	18.465	1.6364	5.e-002	-4.3306
18702	18.742	1.6364	0.	-1138.1
18703	18.649	1.5455	0.	-1159.6
18704	18.649	1.6364	5.e-002	-4.3149
18705	18.926	1.6364	0.	-1095.7
18706	18.834	1.5455	0.	-1117.1
18707	18.834	1.6364	5.e-002	-4.2997
18708	19.111	1.6364	0.	-1053.5
18709	19.018	1.5455	0.	-1074.8
18710	19.018	1.6364	5.e-002	-4.2849
18711	19.295	1.6364	0.	-1011.6
18712	19.203	1.5455	0.	-1032.7
18713	19.203	1.6364	5.e-002	-4.2705
18714	19.48	1.6364	0.	-969.78
18715	19.387	1.5455	0.	-990.77
18716	19.387	1.6364	5.e-002	-4.2568
18717	19.664	1.6364	0.	-928.19
18718	19.572	1.5455	0.	-949.07
18719	19.572	1.6364	5.e-002	-4.2436
18720	19.849	1.6364	0.	-886.81
18721	19.756	1.5455	0.	-907.56
18722	19.756	1.6364	5.e-002	-4.2311
18723	20.033	1.6364	0.	-845.63
18724	19.941	1.5455	0.	-866.25
18725	19.941	1.6364	5.e-002	-4.2192
18726	20.218	1.6364	0.	-804.64
18727	20.125	1.5455	0.	-825.13
18728	20.125	1.6364	5.e-002	-4.2082
18729	20.402	1.6364	0.	-763.85
18730	20.31	1.5455	0.	-784.21
18731	20.31	1.6364	5.e-002	-4.198
18732	20.587	1.6364	0.	-723.25
18733	20.494	1.5455	0.	-743.48
18734	20.494	1.6364	5.e-002	-4.1887
18735	20.771	1.6364	0.	-682.85
18736	20.679	1.5455	0.	-702.94
18737	20.679	1.6364	5.e-002	-4.1805
18738	20.956	1.6364	0.	-642.64
18739	20.863	1.5455	0.	-662.6
18740	20.863	1.6364	5.e-002	-4.1735
18741	21.14	1.6364	0.	-602.62
18742	21.048	1.5455	0.	-622.44
18743	21.048	1.6364	5.e-002	-4.1678
18744	21.325	1.6364	0.	-562.8
18745	21.232	1.5455	0.	-582.48
18746	21.232	1.6364	5.e-002	-4.1636
18747	21.509	1.6364	0.	-523.17
18748	21.417	1.5455	0.	-542.7
18749	21.417	1.6364	5.e-002	-4.1611
18750	21.694	1.6364	0.	-483.73
18751	21.601	1.5455	0.	-503.12
18752	21.601	1.6364	5.e-002	-4.1605
18753	21.878	1.6364	0.	-444.47
18754	21.786	1.5455	0.	-463.72
18755	21.786	1.6364	5.e-002	-4.1622
18756	22.063	1.6364	0.	-405.39
18757	21.97	1.5455	0.	-424.51
18758	21.97	1.6364	5.e-002	-4.1664
18759	22.247	1.6364	0.	-366.5
18760	22.155	1.5455	0.	-385.49
18761	22.155	1.6364	5.e-002	-4.1737
18762	22.432	1.6364	0.	-327.77
18763	22.339	1.5455	0.	-346.65
18764	22.339	1.6364	5.e-002	-4.1845
18765	22.616	1.6364	0.	-289.2
18766	22.524	1.5455	0.	-307.99
18767	22.524	1.6364	5.e-002	-4.1996
18768	22.801	1.6364	0.	-250.77
18769	22.708	1.5455	0.	-269.49
18770	22.708	1.6364	5.e-002	-4.2198
18771	22.985	1.6364	0.	-212.43
18772	22.893	1.5455	0.	-231.14
18773	22.893	1.6364	5.e-002	-4.2458
18774	23.17	1.6364	0.	-174.16
18775	23.077	1.5455	0.	-192.89
18776	23.077	1.6364	5.e-002	-4.2788
18777	23.354	1.6364	0.	-135.88
18778	23.262	1.5455	0.	-154.7
18779	23.262	1.6364	5.e-002	-4.3196
18780	23.539	1.6364	0.	-97.531
18781	23.446	1.5455	0.	-116.51
18782	23.446	1.6364	5.e-002	-4.369
18783	23.723	1.6364	0.	-59.113
18784	23.631	1.5455	0.	-78.213
18785	23.631	1.6364	5.e-002	-4.4297
18786	23.815	1.5455	0.	-39.971
18787	23.815	1.6364	5.e-002	-4.5476
18788	23.908	1.6364	0.	-22.544
18789	3.2434	1.4545	0.	-5181.3
18790	3.1512	1.3636	0.	-4726.7
18791	3.1512	1.4545	5.e-002	-191.87
18792	3.0589	1.4545	0.	-4202.3
18793	3.4279	1.4545	0.	-5175.8
18794	3.3357	1.3636	0.	-4727.3
18795	3.3357	1.4545	5.e-002	-116.32
18796	3.6124	1.4545	0.	-5174.
18797	3.5202	1.3636	0.	-4817.7
18798	3.5202	1.4545	5.e-002	-69.611
18799	3.7969	1.4545	0.	-5136.2
18800	3.7047	1.3636	0.	-4859.1
18801	3.7047	1.4545	5.e-002	-49.139
18802	3.9814	1.4545	0.	-5092.9
18803	3.8892	1.3636	0.	-4879.5
18804	3.8892	1.4545	5.e-002	-36.963
18805	4.1659	1.4545	0.	-5049.1
18806	4.0737	1.3636	0.	-4886.8
18807	4.0737	1.4545	5.e-002	-29.522
18808	4.3504	1.4545	0.	-5005.5
18809	4.2582	1.3636	0.	-4884.
18810	4.2582	1.4545	5.e-002	-24.218
18811	4.5349	1.4545	0.	-4960.8
18812	4.4427	1.3636	0.	-4871.9
18813	4.4427	1.4545	5.e-002	-20.22
18814	4.7194	1.4545	0.	-4914.2
18815	4.6272	1.3636	0.	-4851.5
18816	4.6272	1.4545	5.e-002	-17.087
18817	4.9039	1.4545	0.	-4865.7
18818	4.8117	1.3636	0.	-4823.6
18819	4.8117	1.4545	5.e-002	-14.6
18820	5.0885	1.4545	0.	-4815.1
18821	4.9962	1.3636	0.	-4789.4
18822	4.9962	1.4545	5.e-002	-12.621
18823	5.273	1.4545	0.	-4763.
18824	5.1807	1.3636	0.	-4750.
18825	5.1807	1.4545	5.e-002	-11.052
18826	5.4575	1.4545	0.	-4709.4
18827	5.3652	1.3636	0.	-4706.5
18828	5.3652	1.4545	5.e-002	-9.8205
18829	5.642	1.4545	0.	-4655.
18830	5.5497	1.3636	0.	-4659.7
18831	5.5497	1.4545	5.e-002	-8.8635
18832	5.8265	1.4545	0.	-4599.9
18833	5.7342	1.3636	0.	-4610.6
18834	5.7342	1.4545	5.e-002	-8.1284
18835	6.011	1.4545	0.	-4544.3
18836	5.9187	1.3636	0.	-4559.6
18837	5.9187	1.4545	5.e-002	-7.5692
18838	6.1955	1.4545	0.	-4488.6
18839	6.1032	1.3636	0.	-4507.4
18840	6.1032	1.4545	5.e-002	-7.1466
18841	6.38	1.4545	0.	-4432.8
18842	6.2877	1.3636	0.	-4454.2
18843	6.2877	1.4545	5.e-002	-6.8274
18844	6.5645	1.4545	0.	-4377.
18845	6.4722	1.3636	0.	-4400.4
18846	6.4722	1.4545	5.e-002	-6.5852
18847	6.749	1.4545	0.	-4321.4
18848	6.6567	1.3636	0.	-4346.2
18849	6.6567	1.4545	5.e-002	-6.3993
18850	6.9335	1.4545	0.	-4265.9
18851	6.8412	1.3636	0.	-4291.7
18852	6.8412	1.4545	5.e-002	-6.2541
18853	7.118	1.4545	0.	-4210.6
18854	7.0257	1.3636	0.	-4237.2
18855	7.0257	1.4545	5.e-002	-6.138
18856	7.3025	1.4545	0.	-4155.5
18857	7.2102	1.3636	0.	-4182.6
18858	7.2102	1.4545	5.e-002	-6.0428
18859	7.487	1.4545	0.	-4100.6
18860	7.3947	1.3636	0.	-4128.1
18861	7.3947	1.4545	5.e-002	-5.9626
18862	7.6715	1.4545	0.	-4046.
18863	7.5792	1.3636	0.	-4073.7
18864	7.5792	1.4545	5.e-002	-5.8931
18865	7.856	1.4545	0.	-3991.6
18866	7.7637	1.3636	0.	-4019.4
18867	7.7637	1.4545	5.e-002	-5.8316
18868	8.0405	1.4545	0.	-3937.4
18869	7.9482	1.3636	0.	-3965.2
18870	7.9482	1.4545	5.e-002	-5.776
18871	8.225	1.4545	0.	-3883.4
18872	8.1327	1.3636	0.	-3911.3
18873	8.1327	1.4545	5.e-002	-5.7249
18874	8.4095	1.4545	0.	-3829.7
18875	8.3173	1.3636	0.	-3857.5
18876	8.3173	1.4545	5.e-002	-5.6774
18877	8.594	1.4545	0.	-3776.2
18878	8.5018	1.3636	0.	-3803.9
18879	8.5018	1.4545	5.e-002	-5.6327
18880	8.7785	1.4545	0.	-3722.8
18881	8.6863	1.3636	0.	-3750.5
18882	8.6863	1.4545	5.e-002	-5.5903
18883	8.963	1.4545	0.	-3669.8
18884	8.8708	1.3636	0.	-3697.3
18885	8.8708	1.4545	5.e-002	-5.5499
18886	9.1475	1.4545	0.	-3616.9
18887	9.0553	1.3636	0.	-3644.3
18888	9.0553	1.4545	5.e-002	-5.5113
18889	9.332	1.4545	0.	-3564.2
18890	9.2398	1.3636	0.	-3591.4
18891	9.2398	1.4545	5.e-002	-5.4742
18892	9.5165	1.4545	0.	-3511.7
18893	9.4243	1.3636	0.	-3538.8
18894	9.4243	1.4545	5.e-002	-5.4385
18895	9.701	1.4545	0.	-3459.4
18896	9.6088	1.3636	0.	-3486.4
18897	9.6088	1.4545	5.e-002	-5.404
18898	9.8855	1.4545	0.	-3407.3
18899	9.7933	1.3636	0.	-3434.2
18900	9.7933	1.4545	5.e-002	-5.3707
18901	10.07	1.4545	0.	-3355.4
18902	9.9778	1.3636	0.	-3382.2
18903	9.9778	1.4545	5.e-002	-5.3383
18904	10.255	1.4545	0.	-3303.7
18905	10.162	1.3636	0.	-3330.3
18906	10.162	1.4545	5.e-002	-5.3071
18907	10.439	1.4545	0.	-3252.2
18908	10.347	1.3636	0.	-3278.7
18909	10.347	1.4545	5.e-002	-5.2766
18910	10.624	1.4545	0.	-3200.9
18911	10.531	1.3636	0.	-3227.3
18912	10.531	1.4545	5.e-002	-5.247
18913	10.808	1.4545	0.	-3149.8
18914	10.716	1.3636	0.	-3176.
18915	10.716	1.4545	5.e-002	-5.2182
18916	10.993	1.4545	0.	-3098.9
18917	10.9	1.3636	0.	-3125.
18918	10.9	1.4545	5.e-002	-5.19
18919	11.177	1.4545	0.	-3048.2
18920	11.085	1.3636	0.	-3074.2
18921	11.085	1.4545	5.e-002	-5.1626
18922	11.362	1.4545	0.	-2997.7
18923	11.269	1.3636	0.	-3023.5
18924	11.269	1.4545	5.e-002	-5.1358
18925	11.546	1.4545	0.	-2947.4
18926	11.454	1.3636	0.	-2973.1
18927	11.454	1.4545	5.e-002	-5.1095
18928	11.731	1.4545	0.	-2897.2
18929	11.638	1.3636	0.	-2922.8
18930	11.638	1.4545	5.e-002	-5.0837
18931	11.915	1.4545	0.	-2847.3
18932	11.823	1.3636	0.	-2872.8
18933	11.823	1.4545	5.e-002	-5.0585
18934	12.1	1.4545	0.	-2797.6
18935	12.007	1.3636	0.	-2822.9
18936	12.007	1.4545	5.e-002	-5.0337
18937	12.284	1.4545	0.	-2748.
18938	12.192	1.3636	0.	-2773.2
18939	12.192	1.4545	5.e-002	-5.0093
18940	12.469	1.4545	0.	-2698.7
18941	12.376	1.3636	0.	-2723.8
18942	12.376	1.4545	5.e-002	-4.9853
18943	12.653	1.4545	0.	-2649.5
18944	12.561	1.3636	0.	-2674.5
18945	12.561	1.4545	5.e-002	-4.9618
18946	12.838	1.4545	0.	-2600.5
18947	12.745	1.3636	0.	-2625.5
18948	12.745	1.4545	5.e-002	-4.9385
18949	13.022	1.4545	0.	-2551.8
18950	12.93	1.3636	0.	-2576.6
18951	12.93	1.4545	5.e-002	-4.9155
18952	13.207	1.4545	0.	-2503.2
18953	13.114	1.3636	0.	-2527.9
18954	13.114	1.4545	5.e-002	-4.8929
18955	13.391	1.4545	0.	-2454.9
18956	13.299	1.3636	0.	-2479.4
18957	13.299	1.4545	5.e-002	-4.8705
18958	13.576	1.4545	0.	-2406.7
18959	13.483	1.3636	0.	-2431.2
18960	13.483	1.4545	5.e-002	-4.8484
18961	13.76	1.4545	0.	-2358.7
18962	13.668	1.3636	0.	-2383.1
18963	13.668	1.4545	5.e-002	-4.8265
18964	13.945	1.4545	0.	-2310.9
18965	13.852	1.3636	0.	-2335.2
18966	13.852	1.4545	5.e-002	-4.8049
18967	14.129	1.4545	0.	-2263.4
18968	14.037	1.3636	0.	-2287.5
18969	14.037	1.4545	5.e-002	-4.7835
18970	14.314	1.4545	0.	-2216.
18971	14.221	1.3636	0.	-2240.
18972	14.221	1.4545	5.e-002	-4.7623
18973	14.498	1.4545	0.	-2168.8
18974	14.406	1.3636	0.	-2192.8
18975	14.406	1.4545	5.e-002	-4.7414
18976	14.683	1.4545	0.	-2121.8
18977	14.59	1.3636	0.	-2145.7
18978	14.59	1.4545	5.e-002	-4.7206
18979	14.867	1.4545	0.	-2075.
18980	14.775	1.3636	0.	-2098.8
18981	14.775	1.4545	5.e-002	-4.7
18982	15.052	1.4545	0.	-2028.5
18983	14.959	1.3636	0.	-2052.1
18984	14.959	1.4545	5.e-002	-4.6796
18985	15.236	1.4545	0.	-1982.1
18986	15.144	1.3636	0.	-2005.6
18987	15.144	1.4545	5.e-002	-4.6594
18988	15.421	1.4545	0.	-1935.9
18989	15.328	1.3636	0.	-1959.3
18990	15.328	1.4545	5.e-002	-4.6393
18991	15.605	1.4545	0.	-1889.9
18992	15.513	1.3636	0.	-1913.2
18993	15.513	1.4545	5.e-002	-4.6194
18994	15.79	1.4545	0.	-1844.1
18995	15.697	1.3636	0.	-1867.3
18996	15.697	1.4545	5.e-002	-4.5998
18997	15.974	1.4545	0.	-1798.5
18998	15.882	1.3636	0.	-1821.6
18999	15.882	1.4545	5.e-002	-4.5802
19000	16.159	1.4545	0.	-1753.1
19001	16.066	1.3636	0.	-1776.1
19002	16.066	1.4545	5.e-002	-4.5609
19003	16.343	1.4545	0.	-1707.9
19004	16.251	1.3636	0.	-1730.9
19005	16.251	1.4545	5.e-002	-4.5418
19006	16.528	1.4545	0.	-1662.9
19007	16.435	1.3636	0.	-1685.8
19008	16.435	1.4545	5.e-002	-4.5228
19009	16.712	1.4545	0.	-1618.2
19010	16.62	1.3636	0.	-1640.9
19011	16.62	1.4545	5.e-002	-4.504
19012	16.897	1.4545	0.	-1573.6
19013	16.804	1.3636	0.	-1596.2
19014	16.804	1.4545	5.e-002	-4.4855
19015	17.081	1.4545	0.	-1529.2
19016	16.989	1.3636	0.	-1551.7
19017	16.989	1.4545	5.e-002	-4.4671
19018	17.266	1.4545	0.	-1485.
19019	17.173	1.3636	0.	-1507.4
19020	17.173	1.4545	5.e-002	-4.449
19021	17.45	1.4545	0.	-1441.
19022	17.358	1.3636	0.	-1463.3
19023	17.358	1.4545	5.e-002	-4.4311
19024	17.635	1.4545	0.	-1397.2
19025	17.542	1.3636	0.	-1419.4
19026	17.542	1.4545	5.e-002	-4.4135
19027	17.819	1.4545	0.	-1353.6
19028	17.727	1.3636	0.	-1375.7
19029	17.727	1.4545	5.e-002	-4.3961
19030	18.004	1.4545	0.	-1310.2
19031	17.911	1.3636	0.	-1332.2
19032	17.911	1.4545	5.e-002	-4.379
19033	18.188	1.4545	0.	-1267.
19034	18.096	1.3636	0.	-1288.9
19035	18.096	1.4545	5.e-002	-4.3622
19036	18.373	1.4545	0.	-1224.
19037	18.28	1.3636	0.	-1245.7
19038	18.28	1.4545	5.e-002	-4.3458
19039	18.557	1.4545	0.	-1181.2
19040	18.465	1.3636	0.	-1202.8
19041	18.465	1.4545	5.e-002	-4.3296
19042	18.742	1.4545	0.	-1138.6
19043	18.649	1.3636	0.	-1160.1
19044	18.649	1.4545	5.e-002	-4.3139
19045	18.926	1.4545	0.	-1096.2
19046	18.834	1.3636	0.	-1117.6
19047	18.834	1.4545	5.e-002	-4.2985
19048	19.111	1.4545	0.	-1053.9
19049	19.018	1.3636	0.	-1075.3
19050	19.018	1.4545	5.e-002	-4.2837
19051	19.295	1.4545	0.	-1011.9
19052	19.203	1.3636	0.	-1033.1
19053	19.203	1.4545	5.e-002	-4.2692
19054	19.48	1.4545	0.	-970.11
19055	19.387	1.3636	0.	-991.17
19056	19.387	1.4545	5.e-002	-4.2554
19057	19.664	1.4545	0.	-928.48
19058	19.572	1.3636	0.	-949.42
19059	19.572	1.4545	5.e-002	-4.242
19060	19.849	1.4545	0.	-887.04
19061	19.756	1.3636	0.	-907.86
19062	19.756	1.4545	5.e-002	-4.2293
19063	20.033	1.4545	0.	-845.8
19064	19.941	1.3636	0.	-866.5
19065	19.941	1.4545	5.e-002	-4.2173
19066	20.218	1.4545	0.	-804.74
19067	20.125	1.3636	0.	-825.32
19068	20.125	1.4545	5.e-002	-4.206
19069	20.402	1.4545	0.	-763.88
19070	20.31	1.3636	0.	-784.33
19071	20.31	1.4545	5.e-002	-4.1955
19072	20.587	1.4545	0.	-723.21
19073	20.494	1.3636	0.	-743.52
19074	20.494	1.4545	5.e-002	-4.1859
19075	20.771	1.4545	0.	-682.73
19076	20.679	1.3636	0.	-702.91
19077	20.679	1.4545	5.e-002	-4.1773
19078	20.956	1.4545	0.	-642.44
19079	20.863	1.3636	0.	-662.47
19080	20.863	1.4545	5.e-002	-4.1698
19081	21.14	1.4545	0.	-602.34
19082	21.048	1.3636	0.	-622.23
19083	21.048	1.4545	5.e-002	-4.1636
19084	21.325	1.4545	0.	-562.42
19085	21.232	1.3636	0.	-582.17
19086	21.232	1.4545	5.e-002	-4.1587
19087	21.509	1.4545	0.	-522.69
19088	21.417	1.3636	0.	-542.3
19089	21.417	1.4545	5.e-002	-4.1554
19090	21.694	1.4545	0.	-483.16
19091	21.601	1.3636	0.	-502.61
19092	21.601	1.4545	5.e-002	-4.1539
19093	21.878	1.4545	0.	-443.81
19094	21.786	1.3636	0.	-463.11
19095	21.786	1.4545	5.e-002	-4.1545
19096	22.063	1.4545	0.	-404.65
19097	21.97	1.3636	0.	-423.81
19098	21.97	1.4545	5.e-002	-4.1576
19099	22.247	1.4545	0.	-365.69
19100	22.155	1.3636	0.	-384.69
19101	22.155	1.4545	5.e-002	-4.1635
19102	22.432	1.4545	0.	-326.91
19103	22.339	1.3636	0.	-345.78
19104	22.339	1.4545	5.e-002	-4.1728
19105	22.616	1.4545	0.	-288.31
19106	22.524	1.3636	0.	-307.06
19107	22.524	1.4545	5.e-002	-4.1863
19108	22.801	1.4545	0.	-249.89
19109	22.708	1.3636	0.	-268.54
19110	22.708	1.4545	5.e-002	-4.205
19111	22.985	1.4545	0.	-211.62
19112	22.893	1.3636	0.	-230.21
19113	22.893	1.4545	5.e-002	-4.2299
19114	23.17	1.4545	0.	-173.45
19115	23.077	1.3636	0.	-192.03
19116	23.077	1.4545	5.e-002	-4.2623
19117	23.354	1.4545	0.	-135.34
19118	23.262	1.3636	0.	-153.98
19119	23.262	1.4545	5.e-002	-4.3037
19120	23.539	1.4545	0.	-97.187
19121	23.446	1.3636	0.	-115.98
19122	23.446	1.4545	5.e-002	-4.3554
19123	23.723	1.4545	0.	-59.004
19124	23.631	1.3636	0.	-77.933
19125	23.631	1.4545	5.e-002	-4.4213
19126	23.815	1.3636	0.	-39.97
19127	23.815	1.4545	5.e-002	-4.5587
19128	23.908	1.4545	0.	-22.566
19129	3.2434	1.2727	0.	-4190.2
19130	3.1512	1.1818	0.	-3798.8
19131	3.1512	1.2727	5.e-002	-152.09
19132	3.0589	1.2727	0.	-3369.2
19133	3.4279	1.2727	0.	-4321.3
19134	3.3357	1.1818	0.	-3896.4
19135	3.3357	1.2727	5.e-002	-93.411
19136	3.6124	1.2727	0.	-4475.4
19137	3.5202	1.1818	0.	-4107.3
19138	3.5202	1.2727	5.e-002	-68.807
19139	3.7969	1.2727	0.	-4586.3
19140	3.7047	1.1818	0.	-4283.3
19141	3.7047	1.2727	5.e-002	-49.599
19142	3.9814	1.2727	0.	-4664.1
19143	3.8892	1.1818	0.	-4422.3
19144	3.8892	1.2727	5.e-002	-37.19
19145	4.1659	1.2727	0.	-4716.3
19146	4.0737	1.1818	0.	-4527.7
19147	4.0737	1.2727	5.e-002	-28.846
19148	4.3504	1.2727	0.	-4747.4
19149	4.2582	1.1818	0.	-4603.4
19150	4.2582	1.2727	5.e-002	-23.008
19151	4.5349	1.2727	0.	-4760.9
19152	4.4427	1.1818	0.	-4653.4
19153	4.4427	1.2727	5.e-002	-18.702
19154	4.7194	1.2727	0.	-4759.8
19155	4.6272	1.1818	0.	-4681.8
19156	4.6272	1.2727	5.e-002	-15.426
19157	4.9039	1.2727	0.	-4746.7
19158	4.8117	1.1818	0.	-4692.2
19159	4.8117	1.2727	5.e-002	-12.901
19160	5.0885	1.2727	0.	-4723.9
19161	4.9962	1.1818	0.	-4688.1
19162	4.9962	1.2727	5.e-002	-10.958
19163	5.273	1.2727	0.	-4693.3
19164	5.1807	1.1818	0.	-4672.3
19165	5.1807	1.2727	5.e-002	-9.4826
19166	5.4575	1.2727	0.	-4656.7
19167	5.3652	1.1818	0.	-4647.3
19168	5.3652	1.2727	5.e-002	-8.3848
19169	5.642	1.2727	0.	-4615.3
19170	5.5497	1.1818	0.	-4615.
19171	5.5497	1.2727	5.e-002	-7.5885
19172	5.8265	1.2727	0.	-4570.4
19173	5.7342	1.1818	0.	-4577.1
19174	5.7342	1.2727	5.e-002	-7.0262
19175	6.011	1.2727	0.	-4522.7
19176	5.9187	1.1818	0.	-4534.8
19177	5.9187	1.2727	5.e-002	-6.6386
19178	6.1955	1.2727	0.	-4473.
19179	6.1032	1.1818	0.	-4489.3
19180	6.1032	1.2727	5.e-002	-6.3759
19181	6.38	1.2727	0.	-4421.8
19182	6.2877	1.1818	0.	-4441.3
19183	6.2877	1.2727	5.e-002	-6.199
19184	6.5645	1.2727	0.	-4369.5
19185	6.4722	1.1818	0.	-4391.5
19186	6.4722	1.2727	5.e-002	-6.0786
19187	6.749	1.2727	0.	-4316.6
19188	6.6567	1.1818	0.	-4340.3
19189	6.6567	1.2727	5.e-002	-5.9943
19190	6.9335	1.2727	0.	-4263.1
19191	6.8412	1.1818	0.	-4288.1
19192	6.8412	1.2727	5.e-002	-5.932
19193	7.118	1.2727	0.	-4209.2
19194	7.0257	1.1818	0.	-4235.3
19195	7.0257	1.2727	5.e-002	-5.8829
19196	7.3025	1.2727	0.	-4155.3
19197	7.2102	1.1818	0.	-4182.
19198	7.2102	1.2727	5.e-002	-5.8411
19199	7.487	1.2727	0.	-4101.2
19200	7.3947	1.1818	0.	-4128.4
19201	7.3947	1.2727	5.e-002	-5.8032
19202	7.6715	1.2727	0.	-4047.1
19203	7.5792	1.1818	0.	-4074.6
19204	7.5792	1.2727	5.e-002	-5.7672
19205	7.856	1.2727	0.	-3993.1
19206	7.7637	1.1818	0.	-4020.8
19207	7.7637	1.2727	5.e-002	-5.7321
19208	8.0405	1.2727	0.	-3939.2
19209	7.9482	1.1818	0.	-3967.
19210	7.9482	1.2727	5.e-002	-5.6972
19211	8.225	1.2727	0.	-3885.4
19212	8.1327	1.1818	0.	-3913.2
19213	8.1327	1.2727	5.e-002	-5.6624
19214	8.4095	1.2727	0.	-3831.7
19215	8.3173	1.1818	0.	-3859.6
19216	8.3173	1.2727	5.e-002	-5.6276
19217	8.594	1.2727	0.	-3778.2
19218	8.5018	1.1818	0.	-3806.
19219	8.5018	1.2727	5.e-002	-5.5929
19220	8.7785	1.2727	0.	-3724.9
19221	8.6863	1.1818	0.	-3752.6
19222	8.6863	1.2727	5.e-002	-5.5584
19223	8.963	1.2727	0.	-3671.8
19224	8.8708	1.1818	0.	-3699.4
19225	8.8708	1.2727	5.e-002	-5.5242
19226	9.1475	1.2727	0.	-3618.8
19227	9.0553	1.1818	0.	-3646.3
19228	9.0553	1.2727	5.e-002	-5.4904
19229	9.332	1.2727	0.	-3566.1
19230	9.2398	1.1818	0.	-3593.5
19231	9.2398	1.2727	5.e-002	-5.4572
19232	9.5165	1.2727	0.	-3513.5
19233	9.4243	1.1818	0.	-3540.8
19234	9.4243	1.2727	5.e-002	-5.4245
19235	9.701	1.2727	0.	-3461.2
19236	9.6088	1.1818	0.	-3488.3
19237	9.6088	1.2727	5.e-002	-5.3924
19238	9.8855	1.2727	0.	-3409.
19239	9.7933	1.1818	0.	-3436.
19240	9.7933	1.2727	5.e-002	-5.361
19241	10.07	1.2727	0.	-3357.1
19242	9.9778	1.1818	0.	-3383.9
19243	9.9778	1.2727	5.e-002	-5.3302
19244	10.255	1.2727	0.	-3305.3
19245	10.162	1.1818	0.	-3332.
19246	10.162	1.2727	5.e-002	-5.3001
19247	10.439	1.2727	0.	-3253.7
19248	10.347	1.1818	0.	-3280.3
19249	10.347	1.2727	5.e-002	-5.2706
19250	10.624	1.2727	0.	-3202.4
19251	10.531	1.1818	0.	-3228.8
19252	10.531	1.2727	5.e-002	-5.2419
19253	10.808	1.2727	0.	-3151.2
19254	10.716	1.1818	0.	-3177.5
19255	10.716	1.2727	5.e-002	-5.2137
19256	10.993	1.2727	0.	-3100.2
19257	10.9	1.1818	0.	-3126.4
19258	10.9	1.2727	5.e-002	-5.186
19259	11.177	1.2727	0.	-3049.5
19260	11.085	1.1818	0.	-3075.5
19261	11.085	1.2727	5.e-002	-5.1591
19262	11.362	1.2727	0.	-2998.9
19263	11.269	1.1818	0.	-3024.8
19264	11.269	1.2727	5.e-002	-5.1326
19265	11.546	1.2727	0.	-2948.5
19266	11.454	1.1818	0.	-2974.3
19267	11.454	1.2727	5.e-002	-5.1067
19268	11.731	1.2727	0.	-2898.4
19269	11.638	1.1818	0.	-2924.
19270	11.638	1.2727	5.e-002	-5.0812
19271	11.915	1.2727	0.	-2848.4
19272	11.823	1.1818	0.	-2873.9
19273	11.823	1.2727	5.e-002	-5.0562
19274	12.1	1.2727	0.	-2798.6
19275	12.007	1.1818	0.	-2824.
19276	12.007	1.2727	5.e-002	-5.0316
19277	12.284	1.2727	0.	-2749.
19278	12.192	1.1818	0.	-2774.4
19279	12.192	1.2727	5.e-002	-5.0074
19280	12.469	1.2727	0.	-2699.7
19281	12.376	1.1818	0.	-2724.9
19282	12.376	1.2727	5.e-002	-4.9836
19283	12.653	1.2727	0.	-2650.5
19284	12.561	1.1818	0.	-2675.6
19285	12.561	1.2727	5.e-002	-4.9601
19286	12.838	1.2727	0.	-2601.5
19287	12.745	1.1818	0.	-2626.5
19288	12.745	1.2727	5.e-002	-4.937
19289	13.022	1.2727	0.	-2552.7
19290	12.93	1.1818	0.	-2577.6
19291	12.93	1.2727	5.e-002	-4.9141
19292	13.207	1.2727	0.	-2504.1
19293	13.114	1.1818	0.	-2528.9
19294	13.114	1.2727	5.e-002	-4.8916
19295	13.391	1.2727	0.	-2455.8
19296	13.299	1.1818	0.	-2480.4
19297	13.299	1.2727	5.e-002	-4.8693
19298	13.576	1.2727	0.	-2407.6
19299	13.483	1.1818	0.	-2432.1
19300	13.483	1.2727	5.e-002	-4.8473
19301	13.76	1.2727	0.	-2359.6
19302	13.668	1.1818	0.	-2384.
19303	13.668	1.2727	5.e-002	-4.8255
19304	13.945	1.2727	0.	-2311.8
19305	13.852	1.1818	0.	-2336.1
19306	13.852	1.2727	5.e-002	-4.804
19307	14.129	1.2727	0.	-2264.2
19308	14.037	1.1818	0.	-2288.4
19309	14.037	1.2727	5.e-002	-4.7826
19310	14.314	1.2727	0.	-2216.8
19311	14.221	1.1818	0.	-2240.9
19312	14.221	1.2727	5.e-002	-4.7614
19313	14.498	1.2727	0.	-2169.6
19314	14.406	1.1818	0.	-2193.6
19315	14.406	1.2727	5.e-002	-4.7405
19316	14.683	1.2727	0.	-2122.7
19317	14.59	1.1818	0.	-2146.5
19318	14.59	1.2727	5.e-002	-4.7198
19319	14.867	1.2727	0.	-2075.9
19320	14.775	1.1818	0.	-2099.7
19321	14.775	1.2727	5.e-002	-4.6992
19322	15.052	1.2727	0.	-2029.3
19323	14.959	1.1818	0.	-2053.
19324	14.959	1.2727	5.e-002	-4.6789
19325	15.236	1.2727	0.	-1982.9
19326	15.144	1.1818	0.	-2006.5
19327	15.144	1.2727	5.e-002	-4.6587
19328	15.421	1.2727	0.	-1936.7
19329	15.328	1.1818	0.	-1960.2
19330	15.328	1.2727	5.e-002	-4.6386
19331	15.605	1.2727	0.	-1890.7
19332	15.513	1.1818	0.	-1914.1
19333	15.513	1.2727	5.e-002	-4.6188
19334	15.79	1.2727	0.	-1844.9
19335	15.697	1.1818	0.	-1868.2
19336	15.697	1.2727	5.e-002	-4.5991
19337	15.974	1.2727	0.	-1799.3
19338	15.882	1.1818	0.	-1822.5
19339	15.882	1.2727	5.e-002	-4.5796
19340	16.159	1.2727	0.	-1753.9
19341	16.066	1.1818	0.	-1777.
19342	16.066	1.2727	5.e-002	-4.5603
19343	16.343	1.2727	0.	-1708.7
19344	16.251	1.1818	0.	-1731.7
19345	16.251	1.2727	5.e-002	-4.5411
19346	16.528	1.2727	0.	-1663.7
19347	16.435	1.1818	0.	-1686.6
19348	16.435	1.2727	5.e-002	-4.5221
19349	16.712	1.2727	0.	-1618.9
19350	16.62	1.1818	0.	-1641.7
19351	16.62	1.2727	5.e-002	-4.5034
19352	16.897	1.2727	0.	-1574.3
19353	16.804	1.1818	0.	-1597.
19354	16.804	1.2727	5.e-002	-4.4848
19355	17.081	1.2727	0.	-1529.9
19356	16.989	1.1818	0.	-1552.5
19357	16.989	1.2727	5.e-002	-4.4664
19358	17.266	1.2727	0.	-1485.7
19359	17.173	1.1818	0.	-1508.2
19360	17.173	1.2727	5.e-002	-4.4483
19361	17.45	1.2727	0.	-1441.7
19362	17.358	1.1818	0.	-1464.1
19363	17.358	1.2727	5.e-002	-4.4304
19364	17.635	1.2727	0.	-1397.9
19365	17.542	1.1818	0.	-1420.1
19366	17.542	1.2727	5.e-002	-4.4127
19367	17.819	1.2727	0.	-1354.3
19368	17.727	1.1818	0.	-1376.4
19369	17.727	1.2727	5.e-002	-4.3953
19370	18.004	1.2727	0.	-1310.9
19371	17.911	1.1818	0.	-1332.9
19372	17.911	1.2727	5.e-002	-4.3781
19373	18.188	1.2727	0.	-1267.6
19374	18.096	1.1818	0.	-1289.6
19375	18.096	1.2727	5.e-002	-4.3613
19376	18.373	1.2727	0.	-1224.6
19377	18.28	1.1818	0.	-1246.4
19378	18.28	1.2727	5.e-002	-4.3448
19379	18.557	1.2727	0.	-1181.8
19380	18.465	1.1818	0.	-1203.5
19381	18.465	1.2727	5.e-002	-4.3286
19382	18.742	1.2727	0.	-1139.2
19383	18.649	1.1818	0.	-1160.8
19384	18.649	1.2727	5.e-002	-4.3128
19385	18.926	1.2727	0.	-1096.7
19386	18.834	1.1818	0.	-1118.2
19387	18.834	1.2727	5.e-002	-4.2973
19388	19.111	1.2727	0.	-1054.5
19389	19.018	1.1818	0.	-1075.8
19390	19.018	1.2727	5.e-002	-4.2823
19391	19.295	1.2727	0.	-1012.4
19392	19.203	1.1818	0.	-1033.7
19393	19.203	1.2727	5.e-002	-4.2678
19394	19.48	1.2727	0.	-970.53
19395	19.387	1.1818	0.	-991.68
19396	19.387	1.2727	5.e-002	-4.2537
19397	19.664	1.2727	0.	-928.85
19398	19.572	1.1818	0.	-949.88
19399	19.572	1.2727	5.e-002	-4.2403
19400	19.849	1.2727	0.	-887.36
19401	19.756	1.1818	0.	-908.27
19402	19.756	1.2727	5.e-002	-4.2274
19403	20.033	1.2727	0.	-846.06
19404	19.941	1.1818	0.	-866.85
19405	19.941	1.2727	5.e-002	-4.2151
19406	20.218	1.2727	0.	-804.94
19407	20.125	1.1818	0.	-825.61
19408	20.125	1.2727	5.e-002	-4.2035
19409	20.402	1.2727	0.	-764.01
19410	20.31	1.1818	0.	-784.55
19411	20.31	1.2727	5.e-002	-4.1927
19412	20.587	1.2727	0.	-723.26
19413	20.494	1.1818	0.	-743.67
19414	20.494	1.2727	5.e-002	-4.1828
19415	20.771	1.2727	0.	-682.69
19416	20.679	1.1818	0.	-702.97
19417	20.679	1.2727	5.e-002	-4.1738
19418	20.956	1.2727	0.	-642.31
19419	20.863	1.1818	0.	-662.45
19420	20.863	1.2727	5.e-002	-4.1658
19421	21.14	1.2727	0.	-602.11
19422	21.048	1.1818	0.	-622.11
19423	21.048	1.2727	5.e-002	-4.159
19424	21.325	1.2727	0.	-562.09
19425	21.232	1.1818	0.	-581.94
19426	21.232	1.2727	5.e-002	-4.1534
19427	21.509	1.2727	0.	-522.26
19428	21.417	1.1818	0.	-541.96
19429	21.417	1.2727	5.e-002	-4.1493
19430	21.694	1.2727	0.	-482.61
19431	21.601	1.1818	0.	-502.16
19432	21.601	1.2727	5.e-002	-4.1468
19433	21.878	1.2727	0.	-443.16
19434	21.786	1.1818	0.	-462.55
19435	21.786	1.2727	5.e-002	-4.1463
19436	22.063	1.2727	0.	-403.9
19437	21.97	1.1818	0.	-423.12
19438	21.97	1.2727	5.e-002	-4.1479
19439	22.247	1.2727	0.	-364.83
19440	22.155	1.1818	0.	-383.9
19441	22.155	1.2727	5.e-002	-4.1523
19442	22.432	1.2727	0.	-325.98
19443	22.339	1.1818	0.	-344.87
19444	22.339	1.2727	5.e-002	-4.1598
19445	22.616	1.2727	0.	-287.33
19446	22.524	1.1818	0.	-306.07
19447	22.524	1.2727	5.e-002	-4.1714
19448	22.801	1.2727	0.	-248.89
19449	22.708	1.1818	0.	-267.49
19450	22.708	1.2727	5.e-002	-4.1881
19451	22.985	1.2727	0.	-210.65
19452	22.893	1.1818	0.	-229.14
19453	22.893	1.2727	5.e-002	-4.2112
19454	23.17	1.2727	0.	-172.59
19455	23.077	1.1818	0.	-191.02
19456	23.077	1.2727	5.e-002	-4.2425
19457	23.354	1.2727	0.	-134.64
19458	23.262	1.1818	0.	-153.09
19459	23.262	1.2727	5.e-002	-4.284
19460	23.539	1.2727	0.	-96.731
19461	23.446	1.1818	0.	-115.31
19462	23.446	1.2727	5.e-002	-4.3379
19463	23.723	1.2727	0.	-58.838
19464	23.631	1.1818	0.	-77.545
19465	23.631	1.2727	5.e-002	-4.4099
19466	23.815	1.1818	0.	-39.933
19467	23.815	1.2727	5.e-002	-4.5699
19468	23.908	1.2727	0.	-22.574
19469	3.2434	1.0909	0.	-3439.5
19470	3.1512	1.	0.	-3090.1
19471	3.1512	1.0909	5.e-002	-120.84
19472	3.0589	1.0909	0.	-2750.7
19473	3.4279	1.0909	0.	-3638.
19474	3.3357	1.	0.	-3238.7
19475	3.3357	1.0909	5.e-002	-81.389
19476	3.6124	1.0909	0.	-3887.
19477	3.5202	1.	0.	-3521.5
19478	3.5202	1.0909	5.e-002	-64.881
19479	3.7969	1.0909	0.	-4102.3
19480	3.7047	1.	0.	-3789.2
19481	3.7047	1.0909	5.e-002	-50.062
19482	3.9814	1.0909	0.	-4276.
19483	3.8892	1.	0.	-4019.1
19484	3.8892	1.0909	5.e-002	-38.445
19485	4.1659	1.0909	0.	-4409.2
19486	4.0737	1.	0.	-4204.8
19487	4.0737	1.0909	5.e-002	-29.751
19488	4.3504	1.0909	0.	-4506.2
19489	4.2582	1.	0.	-4347.4
19490	4.2582	1.0909	5.e-002	-23.255
19491	4.5349	1.0909	0.	-4572.4
19492	4.4427	1.	0.	-4451.8
19493	4.4427	1.0909	5.e-002	-18.349
19494	4.7194	1.0909	0.	-4613.1
19495	4.6272	1.	0.	-4523.9
19496	4.6272	1.0909	5.e-002	-14.607
19497	4.9039	1.0909	0.	-4633.
19498	4.8117	1.	0.	-4569.2
19499	4.8117	1.0909	5.e-002	-11.755
19500	5.0885	1.0909	0.	-4636.2
19501	4.9962	1.	0.	-4592.7
19502	4.9962	1.0909	5.e-002	-9.6113
19503	5.273	1.0909	0.	-4626.1
19504	5.1807	1.	0.	-4598.7
19505	5.1807	1.0909	5.e-002	-8.0501
19506	5.4575	1.0909	0.	-4605.5
19507	5.3652	1.	0.	-4590.9
19508	5.3652	1.0909	5.e-002	-6.9685
19509	5.642	1.0909	0.	-4576.7
19510	5.5497	1.	0.	-4572.2
19511	5.5497	1.0909	5.e-002	-6.2702
19512	5.8265	1.0909	0.	-4541.5
19513	5.7342	1.	0.	-4544.9
19514	5.7342	1.0909	5.e-002	-5.8591
19515	6.011	1.0909	0.	-4501.5
19516	5.9187	1.	0.	-4510.9
19517	5.9187	1.0909	5.e-002	-5.6457
19518	6.1955	1.0909	0.	-4457.6
19519	6.1032	1.	0.	-4471.9
19520	6.1032	1.0909	5.e-002	-5.5555
19521	6.38	1.0909	0.	-4411.
19522	6.2877	1.	0.	-4428.9
19523	6.2877	1.0909	5.e-002	-5.5348
19524	6.5645	1.0909	0.	-4362.2
19525	6.4722	1.	0.	-4382.9
19526	6.4722	1.0909	5.e-002	-5.5479
19527	6.749	1.0909	0.	-4311.9
19528	6.6567	1.	0.	-4334.6
19529	6.6567	1.0909	5.e-002	-5.5738
19530	6.9335	1.0909	0.	-4260.4
19531	6.8412	1.	0.	-4284.7
19532	6.8412	1.0909	5.e-002	-5.6004
19533	7.118	1.0909	0.	-4208.
19534	7.0257	1.	0.	-4233.5
19535	7.0257	1.0909	5.e-002	-5.6219
19536	7.3025	1.0909	0.	-4155.1
19537	7.2102	1.	0.	-4181.5
19538	7.2102	1.0909	5.e-002	-5.6359
19539	7.487	1.0909	0.	-4101.9
19540	7.3947	1.	0.	-4128.8
19541	7.3947	1.0909	5.e-002	-5.6419
19542	7.6715	1.0909	0.	-4048.4
19543	7.5792	1.	0.	-4075.7
19544	7.5792	1.0909	5.e-002	-5.6402
19545	7.856	1.0909	0.	-3994.7
19546	7.7637	1.	0.	-4022.4
19547	7.7637	1.0909	5.e-002	-5.6319
19548	8.0405	1.0909	0.	-3941.1
19549	7.9482	1.	0.	-3968.9
19550	7.9482	1.0909	5.e-002	-5.618
19551	8.225	1.0909	0.	-3887.4
19552	8.1327	1.	0.	-3915.3
19553	8.1327	1.0909	5.e-002	-5.5995
19554	8.4095	1.0909	0.	-3833.9
19555	8.3173	1.	0.	-3861.8
19556	8.3173	1.0909	5.e-002	-5.5775
19557	8.594	1.0909	0.	-3780.4
19558	8.5018	1.	0.	-3808.3
19559	8.5018	1.0909	5.e-002	-5.5528
19560	8.7785	1.0909	0.	-3727.1
19561	8.6863	1.	0.	-3754.9
19562	8.6863	1.0909	5.e-002	-5.5262
19563	8.963	1.0909	0.	-3674.
19564	8.8708	1.	0.	-3701.7
19565	8.8708	1.0909	5.e-002	-5.4982
19566	9.1475	1.0909	0.	-3621.
19567	9.0553	1.	0.	-3648.6
19568	9.0553	1.0909	5.e-002	-5.4693
19569	9.332	1.0909	0.	-3568.2
19570	9.2398	1.	0.	-3595.6
19571	9.2398	1.0909	5.e-002	-5.4398
19572	9.5165	1.0909	0.	-3515.5
19573	9.4243	1.	0.	-3542.9
19574	9.4243	1.0909	5.e-002	-5.4102
19575	9.701	1.0909	0.	-3463.1
19576	9.6088	1.	0.	-3490.3
19577	9.6088	1.0909	5.e-002	-5.3805
19578	9.8855	1.0909	0.	-3410.9
19579	9.7933	1.	0.	-3437.9
19580	9.7933	1.0909	5.e-002	-5.3509
19581	10.07	1.0909	0.	-3358.8
19582	9.9778	1.	0.	-3385.8
19583	9.9778	1.0909	5.e-002	-5.3217
19584	10.255	1.0909	0.	-3307.
19585	10.162	1.	0.	-3333.8
19586	10.162	1.0909	5.e-002	-5.2928
19587	10.439	1.0909	0.	-3255.4
19588	10.347	1.	0.	-3282.
19589	10.347	1.0909	5.e-002	-5.2644
19590	10.624	1.0909	0.	-3203.9
19591	10.531	1.	0.	-3230.5
19592	10.531	1.0909	5.e-002	-5.2364
19593	10.808	1.0909	0.	-3152.7
19594	10.716	1.	0.	-3179.1
19595	10.716	1.0909	5.e-002	-5.2088
19596	10.993	1.0909	0.	-3101.7
19597	10.9	1.	0.	-3127.9
19598	10.9	1.0909	5.e-002	-5.1818
19599	11.177	1.0909	0.	-3050.9
19600	11.085	1.	0.	-3077.
19601	11.085	1.0909	5.e-002	-5.1553
19602	11.362	1.0909	0.	-3000.2
19603	11.269	1.	0.	-3026.2
19604	11.269	1.0909	5.e-002	-5.1292
19605	11.546	1.0909	0.	-2949.8
19606	11.454	1.	0.	-2975.7
19607	11.454	1.0909	5.e-002	-5.1036
19608	11.731	1.0909	0.	-2899.6
19609	11.638	1.	0.	-2925.4
19610	11.638	1.0909	5.e-002	-5.0784
19611	11.915	1.0909	0.	-2849.6
19612	11.823	1.	0.	-2875.2
19613	11.823	1.0909	5.e-002	-5.0536
19614	12.1	1.0909	0.	-2799.8
19615	12.007	1.	0.	-2825.3
19616	12.007	1.0909	5.e-002	-5.0293
19617	12.284	1.0909	0.	-2750.2
19618	12.192	1.	0.	-2775.6
19619	12.192	1.0909	5.e-002	-5.0053
19620	12.469	1.0909	0.	-2700.8
19621	12.376	1.	0.	-2726.
19622	12.376	1.0909	5.e-002	-4.9816
19623	12.653	1.0909	0.	-2651.6
19624	12.561	1.	0.	-2676.7
19625	12.561	1.0909	5.e-002	-4.9583
19626	12.838	1.0909	0.	-2602.6
19627	12.745	1.	0.	-2627.6
19628	12.745	1.0909	5.e-002	-4.9353
19629	13.022	1.0909	0.	-2553.8
19630	12.93	1.	0.	-2578.7
19631	12.93	1.0909	5.e-002	-4.9126
19632	13.207	1.0909	0.	-2505.2
19633	13.114	1.	0.	-2530.
19634	13.114	1.0909	5.e-002	-4.8901
19635	13.391	1.0909	0.	-2456.8
19636	13.299	1.	0.	-2481.5
19637	13.299	1.0909	5.e-002	-4.868
19638	13.576	1.0909	0.	-2408.6
19639	13.483	1.	0.	-2433.2
19640	13.483	1.0909	5.e-002	-4.8461
19641	13.76	1.0909	0.	-2360.6
19642	13.668	1.	0.	-2385.
19643	13.668	1.0909	5.e-002	-4.8243
19644	13.945	1.0909	0.	-2312.8
19645	13.852	1.	0.	-2337.1
19646	13.852	1.0909	5.e-002	-4.8029
19647	14.129	1.0909	0.	-2265.2
19648	14.037	1.	0.	-2289.4
19649	14.037	1.0909	5.e-002	-4.7816
19650	14.314	1.0909	0.	-2217.8
19651	14.221	1.	0.	-2241.9
19652	14.221	1.0909	5.e-002	-4.7605
19653	14.498	1.0909	0.	-2170.6
19654	14.406	1.	0.	-2194.6
19655	14.406	1.0909	5.e-002	-4.7396
19656	14.683	1.0909	0.	-2123.6
19657	14.59	1.	0.	-2147.5
19658	14.59	1.0909	5.e-002	-4.7189
19659	14.867	1.0909	0.	-2076.8
19660	14.775	1.	0.	-2100.6
19661	14.775	1.0909	5.e-002	-4.6984
19662	15.052	1.0909	0.	-2030.2
19663	14.959	1.	0.	-2053.9
19664	14.959	1.0909	5.e-002	-4.678
19665	15.236	1.0909	0.	-1983.8
19666	15.144	1.	0.	-2007.4
19667	15.144	1.0909	5.e-002	-4.6579
19668	15.421	1.0909	0.	-1937.6
19669	15.328	1.	0.	-1961.1
19670	15.328	1.0909	5.e-002	-4.6379
19671	15.605	1.0909	0.	-1891.6
19672	15.513	1.	0.	-1915.
19673	15.513	1.0909	5.e-002	-4.618
19674	15.79	1.0909	0.	-1845.8
19675	15.697	1.	0.	-1869.1
19676	15.697	1.0909	5.e-002	-4.5984
19677	15.974	1.0909	0.	-1800.2
19678	15.882	1.	0.	-1823.4
19679	15.882	1.0909	5.e-002	-4.5789
19680	16.159	1.0909	0.	-1754.8
19681	16.066	1.	0.	-1777.9
19682	16.066	1.0909	5.e-002	-4.5596
19683	16.343	1.0909	0.	-1709.6
19684	16.251	1.	0.	-1732.6
19685	16.251	1.0909	5.e-002	-4.5404
19686	16.528	1.0909	0.	-1664.6
19687	16.435	1.	0.	-1687.5
19688	16.435	1.0909	5.e-002	-4.5214
19689	16.712	1.0909	0.	-1619.8
19690	16.62	1.	0.	-1642.6
19691	16.62	1.0909	5.e-002	-4.5026
19692	16.897	1.0909	0.	-1575.2
19693	16.804	1.	0.	-1597.9
19694	16.804	1.0909	5.e-002	-4.484
19695	17.081	1.0909	0.	-1530.8
19696	16.989	1.	0.	-1553.4
19697	16.989	1.0909	5.e-002	-4.4656
19698	17.266	1.0909	0.	-1486.5
19699	17.173	1.	0.	-1509.1
19700	17.173	1.0909	5.e-002	-4.4475
19701	17.45	1.0909	0.	-1442.5
19702	17.358	1.	0.	-1464.9
19703	17.358	1.0909	5.e-002	-4.4295
19704	17.635	1.0909	0.	-1398.7
19705	17.542	1.	0.	-1421.
19706	17.542	1.0909	5.e-002	-4.4118
19707	17.819	1.0909	0.	-1355.1
19708	17.727	1.	0.	-1377.3
19709	17.727	1.0909	5.e-002	-4.3943
19710	18.004	1.0909	0.	-1311.6
19711	17.911	1.	0.	-1333.7
19712	17.911	1.0909	5.e-002	-4.3771
19713	18.188	1.0909	0.	-1268.4
19714	18.096	1.	0.	-1290.4
19715	18.096	1.0909	5.e-002	-4.3602
19716	18.373	1.0909	0.	-1225.4
19717	18.28	1.	0.	-1247.3
19718	18.28	1.0909	5.e-002	-4.3436
19719	18.557	1.0909	0.	-1182.5
19720	18.465	1.	0.	-1204.3
19721	18.465	1.0909	5.e-002	-4.3274
19722	18.742	1.0909	0.	-1139.8
19723	18.649	1.	0.	-1161.5
19724	18.649	1.0909	5.e-002	-4.3114
19725	18.926	1.0909	0.	-1097.4
19726	18.834	1.	0.	-1118.9
19727	18.834	1.0909	5.e-002	-4.2959
19728	19.111	1.0909	0.	-1055.1
19729	19.018	1.	0.	-1076.5
19730	19.018	1.0909	5.e-002	-4.2808
19731	19.295	1.0909	0.	-1013.
19732	19.203	1.	0.	-1034.3
19733	19.203	1.0909	5.e-002	-4.2661
19734	19.48	1.0909	0.	-971.07
19735	19.387	1.	0.	-992.31
19736	19.387	1.0909	5.e-002	-4.2519
19737	19.664	1.0909	0.	-929.35
19738	19.572	1.	0.	-950.47
19739	19.572	1.0909	5.e-002	-4.2383
19740	19.849	1.0909	0.	-887.8
19741	19.756	1.	0.	-908.81
19742	19.756	1.0909	5.e-002	-4.2252
19743	20.033	1.0909	0.	-846.44
19744	19.941	1.	0.	-867.33
19745	19.941	1.0909	5.e-002	-4.2127
19746	20.218	1.0909	0.	-805.26
19747	20.125	1.	0.	-826.03
19748	20.125	1.0909	5.e-002	-4.2008
19749	20.402	1.0909	0.	-764.25
19750	20.31	1.	0.	-784.9
19751	20.31	1.0909	5.e-002	-4.1897
19752	20.587	1.0909	0.	-723.42
19753	20.494	1.	0.	-743.94
19754	20.494	1.0909	5.e-002	-4.1794
19755	20.771	1.0909	0.	-682.77
19756	20.679	1.	0.	-703.16
19757	20.679	1.0909	5.e-002	-4.17
19758	20.956	1.0909	0.	-642.29
19759	20.863	1.	0.	-662.55
19760	20.863	1.0909	5.e-002	-4.1615
19761	21.14	1.0909	0.	-601.99
19762	21.048	1.	0.	-622.11
19763	21.048	1.0909	5.e-002	-4.154
19764	21.325	1.0909	0.	-561.86
19765	21.232	1.	0.	-581.84
19766	21.232	1.0909	5.e-002	-4.1477
19767	21.509	1.0909	0.	-521.92
19768	21.417	1.	0.	-541.75
19769	21.417	1.0909	5.e-002	-4.1427
19770	21.694	1.0909	0.	-482.15
19771	21.601	1.	0.	-501.82
19772	21.601	1.0909	5.e-002	-4.1393
19773	21.878	1.0909	0.	-442.57
19774	21.786	1.	0.	-462.08
19775	21.786	1.0909	5.e-002	-4.1375
19776	22.063	1.0909	0.	-403.18
19777	21.97	1.	0.	-422.52
19778	21.97	1.0909	5.e-002	-4.1377
19779	22.247	1.0909	0.	-363.99
19780	22.155	1.	0.	-383.15
19781	22.155	1.0909	5.e-002	-4.1403
19782	22.432	1.0909	0.	-325.02
19783	22.339	1.	0.	-344.
19784	22.339	1.0909	5.e-002	-4.1458
19785	22.616	1.0909	0.	-286.28
19786	22.524	1.	0.	-305.07
19787	22.524	1.0909	5.e-002	-4.1551
19788	22.801	1.0909	0.	-247.79
19789	22.708	1.	0.	-266.38
19790	22.708	1.0909	5.e-002	-4.1692
19791	22.985	1.0909	0.	-209.55
19792	22.893	1.	0.	-227.97
19793	22.893	1.0909	5.e-002	-4.1897
19794	23.17	1.0909	0.	-171.55
19795	23.077	1.	0.	-189.84
19796	23.077	1.0909	5.e-002	-4.2189
19797	23.354	1.0909	0.	-133.78
19798	23.262	1.	0.	-152.
19799	23.262	1.0909	5.e-002	-4.2596
19800	23.539	1.0909	0.	-96.126
19801	23.446	1.	0.	-114.43
19802	23.446	1.0909	5.e-002	-4.3154
19803	23.723	1.0909	0.	-58.586
19804	23.631	1.	0.	-77.003
19805	23.631	1.0909	5.e-002	-4.3943
19806	23.815	1.	0.	-39.832
19807	23.815	1.0909	5.e-002	-4.5805
19808	23.908	1.0909	0.	-22.556
19809	3.2434	0.90909	0.	-2834.
19810	3.1512	0.81818	0.	-2507.5
19811	3.1512	0.90909	5.e-002	-100.54
19812	3.0589	0.90909	0.	-2249.5
19813	3.4279	0.90909	0.	-3082.4
19814	3.3357	0.81818	0.	-2702.1
19815	3.3357	0.90909	5.e-002	-71.858
19816	3.6124	0.90909	0.	-3397.7
19817	3.5202	0.81818	0.	-3039.7
19818	3.5202	0.90909	5.e-002	-60.917
19819	3.7969	0.90909	0.	-3690.2
19820	3.7047	0.81818	0.	-3377.
19821	3.7047	0.90909	5.e-002	-49.654
19822	3.9814	0.90909	0.	-3938.6
19823	3.8892	0.81818	0.	-3677.2
19824	3.8892	0.90909	5.e-002	-39.531
19825	4.1659	0.90909	0.	-4137.6
19826	4.0737	0.81818	0.	-3926.3
19827	4.0737	0.90909	5.e-002	-31.068
19828	4.3504	0.90909	0.	-4290.
19829	4.2582	0.81818	0.	-4123.5
19830	4.2582	0.90909	5.e-002	-24.245
19831	4.5349	0.90909	0.	-4401.6
19832	4.4427	0.81818	0.	-4273.5
19833	4.4427	0.90909	5.e-002	-18.824
19834	4.7194	0.90909	0.	-4478.9
19835	4.6272	0.81818	0.	-4382.8
19836	4.6272	0.90909	5.e-002	-14.556
19837	4.9039	0.90909	0.	-4528.3
19838	4.8117	0.81818	0.	-4458.2
19839	4.8117	0.90909	5.e-002	-11.234
19840	5.0885	0.90909	0.	-4554.9
19841	4.9962	0.81818	0.	-4506.
19842	4.9962	0.90909	5.e-002	-8.709
19843	5.273	0.90909	0.	-4563.4
19844	5.1807	0.81818	0.	-4531.6
19845	5.1807	0.90909	5.e-002	-6.8743
19846	5.4575	0.90909	0.	-4557.6
19847	5.3652	0.81818	0.	-4539.2
19848	5.3652	0.90909	5.e-002	-5.65
19849	5.642	0.90909	0.	-4540.4
19850	5.5497	0.81818	0.	-4532.8
19851	5.5497	0.90909	5.e-002	-4.9493
19852	5.8265	0.90909	0.	-4514.3
19853	5.7342	0.81818	0.	-4515.2
19854	5.7342	0.90909	5.e-002	-4.6513
19855	6.011	0.90909	0.	-4481.4
19856	5.9187	0.81818	0.	-4488.8
19857	5.9187	0.90909	5.e-002	-4.6129
19858	6.1955	0.90909	0.	-4443.1
19859	6.1032	0.81818	0.	-4455.7
19860	6.1032	0.90909	5.e-002	-4.7099
19861	6.38	0.90909	0.	-4400.8
19862	6.2877	0.81818	0.	-4417.3
19863	6.2877	0.90909	5.e-002	-4.8593
19864	6.5645	0.90909	0.	-4355.3
19865	6.4722	0.81818	0.	-4374.9
19866	6.4722	0.90909	5.e-002	-5.0154
19867	6.749	0.90909	0.	-4307.5
19868	6.6567	0.81818	0.	-4329.5
19869	6.6567	0.90909	5.e-002	-5.1564
19870	6.9335	0.90909	0.	-4257.9
19871	6.8412	0.81818	0.	-4281.6
19872	6.8412	0.90909	5.e-002	-5.2743
19873	7.118	0.90909	0.	-4207.
19874	7.0257	0.81818	0.	-4232.1
19875	7.0257	0.90909	5.e-002	-5.3671
19876	7.3025	0.90909	0.	-4155.2
19877	7.2102	0.81818	0.	-4181.2
19878	7.2102	0.90909	5.e-002	-5.4367
19879	7.487	0.90909	0.	-4102.7
19880	7.3947	0.81818	0.	-4129.4
19881	7.3947	0.90909	5.e-002	-5.4857
19882	7.6715	0.90909	0.	-4049.8
19883	7.5792	0.81818	0.	-4077.
19884	7.5792	0.90909	5.e-002	-5.5176
19885	7.856	0.90909	0.	-3996.5
19886	7.7637	0.81818	0.	-4024.1
19887	7.7637	0.90909	5.e-002	-5.5352
19888	8.0405	0.90909	0.	-3943.1
19889	7.9482	0.81818	0.	-3970.9
19890	7.9482	0.90909	5.e-002	-5.5416
19891	8.225	0.90909	0.	-3889.7
19892	8.1327	0.81818	0.	-3917.5
19893	8.1327	0.90909	5.e-002	-5.5389
19894	8.4095	0.90909	0.	-3836.2
19895	8.3173	0.81818	0.	-3864.1
19896	8.3173	0.90909	5.e-002	-5.5291
19897	8.594	0.90909	0.	-3782.8
19898	8.5018	0.81818	0.	-3810.7
19899	8.5018	0.90909	5.e-002	-5.514
19900	8.7785	0.90909	0.	-3729.5
19901	8.6863	0.81818	0.	-3757.3
19902	8.6863	0.90909	5.e-002	-5.4949
19903	8.963	0.90909	0.	-3676.3
19904	8.8708	0.81818	0.	-3704.
19905	8.8708	0.90909	5.e-002	-5.4727
19906	9.1475	0.90909	0.	-3623.2
19907	9.0553	0.81818	0.	-3650.9
19908	9.0553	0.90909	5.e-002	-5.4484
19909	9.332	0.90909	0.	-3570.4
19910	9.2398	0.81818	0.	-3597.9
19911	9.2398	0.90909	5.e-002	-5.4226
19912	9.5165	0.90909	0.	-3517.7
19913	9.4243	0.81818	0.	-3545.1
19914	9.4243	0.90909	5.e-002	-5.3958
19915	9.701	0.90909	0.	-3465.2
19916	9.6088	0.81818	0.	-3492.5
19917	9.6088	0.90909	5.e-002	-5.3684
19918	9.8855	0.90909	0.	-3412.8
19919	9.7933	0.81818	0.	-3440.
19920	9.7933	0.90909	5.e-002	-5.3407
19921	10.07	0.90909	0.	-3360.7
19922	9.9778	0.81818	0.	-3387.8
19923	9.9778	0.90909	5.e-002	-5.313
19924	10.255	0.90909	0.	-3308.8
19925	10.162	0.81818	0.	-3335.7
19926	10.162	0.90909	5.e-002	-5.2853
19927	10.439	0.90909	0.	-3257.1
19928	10.347	0.81818	0.	-3283.9
19929	10.347	0.90909	5.e-002	-5.2578
19930	10.624	0.90909	0.	-3205.6
19931	10.531	0.81818	0.	-3232.2
19932	10.531	0.90909	5.e-002	-5.2306
19933	10.808	0.90909	0.	-3154.3
19934	10.716	0.81818	0.	-3180.8
19935	10.716	0.90909	5.e-002	-5.2037
19936	10.993	0.90909	0.	-3103.2
19937	10.9	0.81818	0.	-3129.6
19938	10.9	0.90909	5.e-002	-5.1773
19939	11.177	0.90909	0.	-3052.4
19940	11.085	0.81818	0.	-3078.6
19941	11.085	0.90909	5.e-002	-5.1512
19942	11.362	0.90909	0.	-3001.7
19943	11.269	0.81818	0.	-3027.8
19944	11.269	0.90909	5.e-002	-5.1255
19945	11.546	0.90909	0.	-2951.2
19946	11.454	0.81818	0.	-2977.2
19947	11.454	0.90909	5.e-002	-5.1003
19948	11.731	0.90909	0.	-2901.
19949	11.638	0.81818	0.	-2926.8
19950	11.638	0.90909	5.e-002	-5.0754
19951	11.915	0.90909	0.	-2850.9
19952	11.823	0.81818	0.	-2876.6
19953	11.823	0.90909	5.e-002	-5.0509
19954	12.1	0.90909	0.	-2801.1
19955	12.007	0.81818	0.	-2826.6
19956	12.007	0.90909	5.e-002	-5.0267
19957	12.284	0.90909	0.	-2751.4
19958	12.192	0.81818	0.	-2776.9
19959	12.192	0.90909	5.e-002	-5.0029
19960	12.469	0.90909	0.	-2702.
19961	12.376	0.81818	0.	-2727.3
19962	12.376	0.90909	5.e-002	-4.9795
19963	12.653	0.90909	0.	-2652.8
19964	12.561	0.81818	0.	-2678.
19965	12.561	0.90909	5.e-002	-4.9563
19966	12.838	0.90909	0.	-2603.7
19967	12.745	0.81818	0.	-2628.8
19968	12.745	0.90909	5.e-002	-4.9335
19969	13.022	0.90909	0.	-2554.9
19970	12.93	0.81818	0.	-2579.9
19971	12.93	0.90909	5.e-002	-4.9109
19972	13.207	0.90909	0.	-2506.3
19973	13.114	0.81818	0.	-2531.1
19974	13.114	0.90909	5.e-002	-4.8885
19975	13.391	0.90909	0.	-2457.9
19976	13.299	0.81818	0.	-2482.6
19977	13.299	0.90909	5.e-002	-4.8664
19978	13.576	0.90909	0.	-2409.7
19979	13.483	0.81818	0.	-2434.3
19980	13.483	0.90909	5.e-002	-4.8446
19981	13.76	0.90909	0.	-2361.6
19982	13.668	0.81818	0.	-2386.2
19983	13.668	0.90909	5.e-002	-4.823
19984	13.945	0.90909	0.	-2313.8
19985	13.852	0.81818	0.	-2338.3
19986	13.852	0.90909	5.e-002	-4.8016
19987	14.129	0.90909	0.	-2266.2
19988	14.037	0.81818	0.	-2290.5
19989	14.037	0.90909	5.e-002	-4.7804
19990	14.314	0.90909	0.	-2218.8
19991	14.221	0.81818	0.	-2243.
19992	14.221	0.90909	5.e-002	-4.7593
19993	14.498	0.90909	0.	-2171.6
19994	14.406	0.81818	0.	-2195.7
19995	14.406	0.90909	5.e-002	-4.7385
19996	14.683	0.90909	0.	-2124.6
19997	14.59	0.81818	0.	-2148.6
19998	14.59	0.90909	5.e-002	-4.7179
19999	14.867	0.90909	0.	-2077.8
20000	14.775	0.81818	0.	-2101.7
20001	14.775	0.90909	5.e-002	-4.6974
20002	15.052	0.90909	0.	-2031.2
20003	14.959	0.81818	0.	-2055.
20004	14.959	0.90909	5.e-002	-4.6771
20005	15.236	0.90909	0.	-1984.8
20006	15.144	0.81818	0.	-2008.5
20007	15.144	0.90909	5.e-002	-4.6569
20008	15.421	0.90909	0.	-1938.6
20009	15.328	0.81818	0.	-1962.2
20010	15.328	0.90909	5.e-002	-4.637
20011	15.605	0.90909	0.	-1892.6
20012	15.513	0.81818	0.	-1916.1
20013	15.513	0.90909	5.e-002	-4.6171
20014	15.79	0.90909	0.	-1846.8
20015	15.697	0.81818	0.	-1870.2
20016	15.697	0.90909	5.e-002	-4.5975
20017	15.974	0.90909	0.	-1801.2
20018	15.882	0.81818	0.	-1824.5
20019	15.882	0.90909	5.e-002	-4.578
20020	16.159	0.90909	0.	-1755.8
20021	16.066	0.81818	0.	-1779.
20022	16.066	0.90909	5.e-002	-4.5587
20023	16.343	0.90909	0.	-1710.6
20024	16.251	0.81818	0.	-1733.6
20025	16.251	0.90909	5.e-002	-4.5395
20026	16.528	0.90909	0.	-1665.6
20027	16.435	0.81818	0.	-1688.5
20028	16.435	0.90909	5.e-002	-4.5205
20029	16.712	0.90909	0.	-1620.7
20030	16.62	0.81818	0.	-1643.6
20031	16.62	0.90909	5.e-002	-4.5017
20032	16.897	0.90909	0.	-1576.1
20033	16.804	0.81818	0.	-1598.9
20034	16.804	0.90909	5.e-002	-4.4831
20035	17.081	0.90909	0.	-1531.7
20036	16.989	0.81818	0.	-1554.4
20037	16.989	0.90909	5.e-002	-4.4647
20038	17.266	0.90909	0.	-1487.5
20039	17.173	0.81818	0.	-1510.1
20040	17.173	0.90909	5.e-002	-4.4465
20041	17.45	0.90909	0.	-1443.5
20042	17.358	0.81818	0.	-1465.9
20043	17.358	0.90909	5.e-002	-4.4285
20044	17.635	0.90909	0.	-1399.6
20045	17.542	0.81818	0.	-1422.
20046	17.542	0.90909	5.e-002	-4.4107
20047	17.819	0.90909	0.	-1356.
20048	17.727	0.81818	0.	-1378.3
20049	17.727	0.90909	5.e-002	-4.3932
20050	18.004	0.90909	0.	-1312.5
20051	17.911	0.81818	0.	-1334.7
20052	17.911	0.90909	5.e-002	-4.3759
20053	18.188	0.90909	0.	-1269.3
20054	18.096	0.81818	0.	-1291.4
20055	18.096	0.90909	5.e-002	-4.359
20056	18.373	0.90909	0.	-1226.2
20057	18.28	0.81818	0.	-1248.2
20058	18.28	0.90909	5.e-002	-4.3423
20059	18.557	0.90909	0.	-1183.3
20060	18.465	0.81818	0.	-1205.2
20061	18.465	0.90909	5.e-002	-4.326
20062	18.742	0.90909	0.	-1140.7
20063	18.649	0.81818	0.	-1162.4
20064	18.649	0.90909	5.e-002	-4.3099
20065	18.926	0.90909	0.	-1098.2
20066	18.834	0.81818	0.	-1119.8
20067	18.834	0.90909	5.e-002	-4.2943
20068	19.111	0.90909	0.	-1055.8
20069	19.018	0.81818	0.	-1077.4
20070	19.018	0.90909	5.e-002	-4.279
20071	19.295	0.90909	0.	-1013.7
20072	19.203	0.81818	0.	-1035.2
20073	19.203	0.90909	5.e-002	-4.2642
20074	19.48	0.90909	0.	-971.75
20075	19.387	0.81818	0.	-993.09
20076	19.387	0.90909	5.e-002	-4.2499
20077	19.664	0.90909	0.	-929.98
20078	19.572	0.81818	0.	-951.21
20079	19.572	0.90909	5.e-002	-4.236
20080	19.849	0.90909	0.	-888.38
20081	19.756	0.81818	0.	-909.5
20082	19.756	0.90909	5.e-002	-4.2227
20083	20.033	0.90909	0.	-846.96
20084	19.941	0.81818	0.	-867.97
20085	19.941	0.90909	5.e-002	-4.21
20086	20.218	0.90909	0.	-805.72
20087	20.125	0.81818	0.	-826.61
20088	20.125	0.90909	5.e-002	-4.1979
20089	20.402	0.90909	0.	-764.64
20090	20.31	0.81818	0.	-785.42
20091	20.31	0.90909	5.e-002	-4.1864
20092	20.587	0.90909	0.	-723.74
20093	20.494	0.81818	0.	-744.39
20094	20.494	0.90909	5.e-002	-4.1757
20095	20.771	0.90909	0.	-683.
20096	20.679	0.81818	0.	-703.53
20097	20.679	0.90909	5.e-002	-4.1658
20098	20.956	0.90909	0.	-642.43
20099	20.863	0.81818	0.	-662.83
20100	20.863	0.90909	5.e-002	-4.1568
20101	21.14	0.90909	0.	-602.02
20102	21.048	0.81818	0.	-622.3
20103	21.048	0.90909	5.e-002	-4.1487
20104	21.325	0.90909	0.	-561.78
20105	21.232	0.81818	0.	-581.92
20106	21.232	0.90909	5.e-002	-4.1417
20107	21.509	0.90909	0.	-521.71
20108	21.417	0.81818	0.	-541.71
20109	21.417	0.90909	5.e-002	-4.1358
20110	21.694	0.90909	0.	-481.82
20111	21.601	0.81818	0.	-501.66
20112	21.601	0.90909	5.e-002	-4.1312
20113	21.878	0.90909	0.	-442.1
20114	21.786	0.81818	0.	-461.78
20115	21.786	0.90909	5.e-002	-4.1282
20116	22.063	0.90909	0.	-402.56
20117	21.97	0.81818	0.	-422.08
20118	21.97	0.90909	5.e-002	-4.1268
20119	22.247	0.90909	0.	-363.23
20120	22.155	0.81818	0.	-382.56
20121	22.155	0.90909	5.e-002	-4.1276
20122	22.432	0.90909	0.	-324.11
20123	22.339	0.81818	0.	-343.24
20124	22.339	0.90909	5.e-002	-4.1308
20125	22.616	0.90909	0.	-285.24
20126	22.524	0.81818	0.	-304.14
20127	22.524	0.90909	5.e-002	-4.1374
20128	22.801	0.90909	0.	-246.63
20129	22.708	0.81818	0.	-265.3
20130	22.708	0.90909	5.e-002	-4.1484
20131	22.985	0.90909	0.	-208.32
20132	22.893	0.81818	0.	-226.75
20133	22.893	0.90909	5.e-002	-4.1654
20134	23.17	0.90909	0.	-170.34
20135	23.077	0.81818	0.	-188.54
20136	23.077	0.90909	5.e-002	-4.1912
20137	23.354	0.90909	0.	-132.69
20138	23.262	0.81818	0.	-150.72
20139	23.262	0.90909	5.e-002	-4.2296
20140	23.539	0.90909	0.	-95.321
20141	23.446	0.81818	0.	-113.3
20142	23.446	0.90909	5.e-002	-4.286
20143	23.723	0.90909	0.	-58.205
20144	23.631	0.81818	0.	-76.239
20145	23.631	0.90909	5.e-002	-4.3724
20146	23.815	0.81818	0.	-39.623
20147	23.815	0.90909	5.e-002	-4.5891
20148	23.908	0.90909	0.	-22.493
20149	3.2434	0.72727	0.	-2324.9
20150	3.1512	0.63636	0.	-2004.
20151	3.1512	0.72727	5.e-002	-86.21
20152	3.0589	0.72727	0.	-1819.
20153	3.4279	0.72727	0.	-2624.2
20154	3.3357	0.63636	0.	-2254.3
20155	3.3357	0.72727	5.e-002	-65.491
20156	3.6124	0.72727	0.	-2997.1
20157	3.5202	0.63636	0.	-2648.5
20158	3.5202	0.72727	5.e-002	-57.798
20159	3.7969	0.72727	0.	-3351.
20160	3.7047	0.63636	0.	-3044.7
20161	3.7047	0.72727	5.e-002	-48.946
20162	3.9814	0.72727	0.	-3657.3
20163	3.8892	0.63636	0.	-3399.6
20164	3.8892	0.72727	5.e-002	-40.177
20165	4.1659	0.72727	0.	-3907.9
20166	4.0737	0.63636	0.	-3697.5
20167	4.0737	0.72727	5.e-002	-32.219
20168	4.3504	0.72727	0.	-4104.5
20169	4.2582	0.63636	0.	-3937.
20170	4.2582	0.72727	5.e-002	-25.373
20171	4.5349	0.72727	0.	-4253.2
20172	4.4427	0.63636	0.	-4122.8
20173	4.4427	0.72727	5.e-002	-19.663
20174	4.7194	0.72727	0.	-4361.2
20175	4.6272	0.63636	0.	-4262.2
20176	4.6272	0.72727	5.e-002	-14.994
20177	4.9039	0.72727	0.	-4435.5
20178	4.8117	0.63636	0.	-4362.6
20179	4.8117	0.72727	5.e-002	-11.242
20180	5.0885	0.72727	0.	-4482.4
20181	4.9962	0.63636	0.	-4430.7
20182	4.9962	0.72727	5.e-002	-8.2944
20183	5.273	0.72727	0.	-4507.2
20184	5.1807	0.63636	0.	-4472.7
20185	5.1807	0.72727	5.e-002	-6.0693
20186	5.4575	0.72727	0.	-4514.4
20187	5.3652	0.63636	0.	-4493.7
20188	5.3652	0.72727	5.e-002	-4.5325
20189	5.642	0.72727	0.	-4507.5
20190	5.5497	0.63636	0.	-4497.9
20191	5.5497	0.72727	5.e-002	-3.6771
20192	5.8265	0.72727	0.	-4489.7
20193	5.7342	0.63636	0.	-4488.8
20194	5.7342	0.72727	5.e-002	-3.4266
20195	6.011	0.72727	0.	-4463.2
20196	5.9187	0.63636	0.	-4469.2
20197	5.9187	0.72727	5.e-002	-3.5674
20198	6.1955	0.72727	0.	-4430.
20199	6.1032	0.63636	0.	-4441.4
20200	6.1032	0.72727	5.e-002	-3.8719
20201	6.38	0.72727	0.	-4391.5
20202	6.2877	0.63636	0.	-4407.2
20203	6.2877	0.72727	5.e-002	-4.2049
20204	6.5645	0.72727	0.	-4349.1
20205	6.4722	0.63636	0.	-4368.
20206	6.4722	0.72727	5.e-002	-4.5088
20207	6.749	0.72727	0.	-4303.6
20208	6.6567	0.63636	0.	-4325.1
20209	6.6567	0.72727	5.e-002	-4.7647
20210	6.9335	0.72727	0.	-4255.8
20211	6.8412	0.63636	0.	-4279.2
20212	6.8412	0.72727	5.e-002	-4.9708
20213	7.118	0.72727	0.	-4206.3
20214	7.0257	0.63636	0.	-4231.1
20215	7.0257	0.72727	5.e-002	-5.1313
20216	7.3025	0.72727	0.	-4155.5
20217	7.2102	0.63636	0.	-4181.3
20218	7.2102	0.72727	5.e-002	-5.2528
20219	7.487	0.72727	0.	-4103.7
20220	7.3947	0.63636	0.	-4130.3
20221	7.3947	0.72727	5.e-002	-5.3417
20222	7.6715	0.72727	0.	-4051.3
20223	7.5792	0.63636	0.	-4078.5
20224	7.5792	0.72727	5.e-002	-5.4043
20225	7.856	0.72727	0.	-3998.5
20226	7.7637	0.63636	0.	-4026.
20227	7.7637	0.72727	5.e-002	-5.4458
20228	8.0405	0.72727	0.	-3945.3
20229	7.9482	0.63636	0.	-3973.1
20230	7.9482	0.72727	5.e-002	-5.4705
20231	8.225	0.72727	0.	-3892.
20232	8.1327	0.63636	0.	-3919.9
20233	8.1327	0.72727	5.e-002	-5.482
20234	8.4095	0.72727	0.	-3838.6
20235	8.3173	0.63636	0.	-3866.6
20236	8.3173	0.72727	5.e-002	-5.4834
20237	8.594	0.72727	0.	-3785.2
20238	8.5018	0.63636	0.	-3813.2
20239	8.5018	0.72727	5.e-002	-5.4769
20240	8.7785	0.72727	0.	-3731.9
20241	8.6863	0.63636	0.	-3759.9
20242	8.6863	0.72727	5.e-002	-5.4645
20243	8.963	0.72727	0.	-3678.7
20244	8.8708	0.63636	0.	-3706.6
20245	8.8708	0.72727	5.e-002	-5.4477
20246	9.1475	0.72727	0.	-3625.6
20247	9.0553	0.63636	0.	-3653.4
20248	9.0553	0.72727	5.e-002	-5.4276
20249	9.332	0.72727	0.	-3572.7
20250	9.2398	0.63636	0.	-3600.3
20251	9.2398	0.72727	5.e-002	-5.405
20252	9.5165	0.72727	0.	-3519.9
20253	9.4243	0.63636	0.	-3547.4
20254	9.4243	0.72727	5.e-002	-5.3809
20255	9.701	0.72727	0.	-3467.3
20256	9.6088	0.63636	0.	-3494.7
20257	9.6088	0.72727	5.e-002	-5.3555
20258	9.8855	0.72727	0.	-3414.9
20259	9.7933	0.63636	0.	-3442.2
20260	9.7933	0.72727	5.e-002	-5.3295
20261	10.07	0.72727	0.	-3362.7
20262	9.9778	0.63636	0.	-3389.8
20263	9.9778	0.72727	5.e-002	-5.3031
20264	10.255	0.72727	0.	-3310.8
20265	10.162	0.63636	0.	-3337.7
20266	10.162	0.72727	5.e-002	-5.2765
20267	10.439	0.72727	0.	-3259.
20268	10.347	0.63636	0.	-3285.8
20269	10.347	0.72727	5.e-002	-5.25
20270	10.624	0.72727	0.	-3207.4
20271	10.531	0.63636	0.	-3234.1
20272	10.531	0.72727	5.e-002	-5.2235
20273	10.808	0.72727	0.	-3156.
20274	10.716	0.63636	0.	-3182.6
20275	10.716	0.72727	5.e-002	-5.1973
20276	10.993	0.72727	0.	-3104.9
20277	10.9	0.63636	0.	-3131.3
20278	10.9	0.72727	5.e-002	-5.1713
20279	11.177	0.72727	0.	-3054.
20280	11.085	0.63636	0.	-3080.2
20281	11.085	0.72727	5.e-002	-5.1457
20282	11.362	0.72727	0.	-3003.2
20283	11.269	0.63636	0.	-3029.4
20284	11.269	0.72727	5.e-002	-5.1205
20285	11.546	0.72727	0.	-2952.7
20286	11.454	0.63636	0.	-2978.7
20287	11.454	0.72727	5.e-002	-5.0955
20288	11.731	0.72727	0.	-2902.4
20289	11.638	0.63636	0.	-2928.3
20290	11.638	0.72727	5.e-002	-5.0709
20291	11.915	0.72727	0.	-2852.3
20292	11.823	0.63636	0.	-2878.1
20293	11.823	0.72727	5.e-002	-5.0467
20294	12.1	0.72727	0.	-2802.4
20295	12.007	0.63636	0.	-2828.1
20296	12.007	0.72727	5.e-002	-5.0228
20297	12.284	0.72727	0.	-2752.8
20298	12.192	0.63636	0.	-2778.3
20299	12.192	0.72727	5.e-002	-4.9992
20300	12.469	0.72727	0.	-2703.3
20301	12.376	0.63636	0.	-2728.7
20302	12.376	0.72727	5.e-002	-4.9759
20303	12.653	0.72727	0.	-2654.
20304	12.561	0.63636	0.	-2679.3
20305	12.561	0.72727	5.e-002	-4.9529
20306	12.838	0.72727	0.	-2605.
20307	12.745	0.63636	0.	-2630.1
20308	12.745	0.72727	5.e-002	-4.9302
20309	13.022	0.72727	0.	-2556.1
20310	12.93	0.63636	0.	-2581.2
20311	12.93	0.72727	5.e-002	-4.9077
20312	13.207	0.72727	0.	-2507.5
20313	13.114	0.63636	0.	-2532.4
20314	13.114	0.72727	5.e-002	-4.8856
20315	13.391	0.72727	0.	-2459.1
20316	13.299	0.63636	0.	-2483.9
20317	13.299	0.72727	5.e-002	-4.8636
20318	13.576	0.72727	0.	-2410.8
20319	13.483	0.63636	0.	-2435.5
20320	13.483	0.72727	5.e-002	-4.8419
20321	13.76	0.72727	0.	-2362.8
20322	13.668	0.63636	0.	-2387.4
20323	13.668	0.72727	5.e-002	-4.8203
20324	13.945	0.72727	0.	-2315.
20325	13.852	0.63636	0.	-2339.5
20326	13.852	0.72727	5.e-002	-4.799
20327	14.129	0.72727	0.	-2267.4
20328	14.037	0.63636	0.	-2291.7
20329	14.037	0.72727	5.e-002	-4.7779
20330	14.314	0.72727	0.	-2219.9
20331	14.221	0.63636	0.	-2244.2
20332	14.221	0.72727	5.e-002	-4.7569
20333	14.498	0.72727	0.	-2172.7
20334	14.406	0.63636	0.	-2196.9
20335	14.406	0.72727	5.e-002	-4.7361
20336	14.683	0.72727	0.	-2125.7
20337	14.59	0.63636	0.	-2149.8
20338	14.59	0.72727	5.e-002	-4.7156
20339	14.867	0.72727	0.	-2078.9
20340	14.775	0.63636	0.	-2102.9
20341	14.775	0.72727	5.e-002	-4.6951
20342	15.052	0.72727	0.	-2032.3
20343	14.959	0.63636	0.	-2056.2
20344	14.959	0.72727	5.e-002	-4.6749
20345	15.236	0.72727	0.	-1985.9
20346	15.144	0.63636	0.	-2009.6
20347	15.144	0.72727	5.e-002	-4.6548
20348	15.421	0.72727	0.	-1939.7
20349	15.328	0.63636	0.	-1963.3
20350	15.328	0.72727	5.e-002	-4.6348
20351	15.605	0.72727	0.	-1893.7
20352	15.513	0.63636	0.	-1917.2
20353	15.513	0.72727	5.e-002	-4.615
20354	15.79	0.72727	0.	-1847.9
20355	15.697	0.63636	0.	-1871.3
20356	15.697	0.72727	5.e-002	-4.5954
20357	15.974	0.72727	0.	-1802.3
20358	15.882	0.63636	0.	-1825.6
20359	15.882	0.72727	5.e-002	-4.5759
20360	16.159	0.72727	0.	-1756.9
20361	16.066	0.63636	0.	-1780.1
20362	16.066	0.72727	5.e-002	-4.5566
20363	16.343	0.72727	0.	-1711.7
20364	16.251	0.63636	0.	-1734.8
20365	16.251	0.72727	5.e-002	-4.5375
20366	16.528	0.72727	0.	-1666.6
20367	16.435	0.63636	0.	-1689.7
20368	16.435	0.72727	5.e-002	-4.5184
20369	16.712	0.72727	0.	-1621.8
20370	16.62	0.63636	0.	-1644.8
20371	16.62	0.72727	5.e-002	-4.4996
20372	16.897	0.72727	0.	-1577.2
20373	16.804	0.63636	0.	-1600.1
20374	16.804	0.72727	5.e-002	-4.481
20375	17.081	0.72727	0.	-1532.8
20376	16.989	0.63636	0.	-1555.5
20377	16.989	0.72727	5.e-002	-4.4626
20378	17.266	0.72727	0.	-1488.6
20379	17.173	0.63636	0.	-1511.2
20380	17.173	0.72727	5.e-002	-4.4443
20381	17.45	0.72727	0.	-1444.5
20382	17.358	0.63636	0.	-1467.1
20383	17.358	0.72727	5.e-002	-4.4263
20384	17.635	0.72727	0.	-1400.7
20385	17.542	0.63636	0.	-1423.1
20386	17.542	0.72727	5.e-002	-4.4085
20387	17.819	0.72727	0.	-1357.
20388	17.727	0.63636	0.	-1379.4
20389	17.727	0.72727	5.e-002	-4.3909
20390	18.004	0.72727	0.	-1313.6
20391	17.911	0.63636	0.	-1335.8
20392	17.911	0.72727	5.e-002	-4.3736
20393	18.188	0.72727	0.	-1270.3
20394	18.096	0.63636	0.	-1292.5
20395	18.096	0.72727	5.e-002	-4.3566
20396	18.373	0.72727	0.	-1227.2
20397	18.28	0.63636	0.	-1249.3
20398	18.28	0.72727	5.e-002	-4.3398
20399	18.557	0.72727	0.	-1184.3
20400	18.465	0.63636	0.	-1206.3
20401	18.465	0.72727	5.e-002	-4.3234
20402	18.742	0.72727	0.	-1141.6
20403	18.649	0.63636	0.	-1163.5
20404	18.649	0.72727	5.e-002	-4.3072
20405	18.926	0.72727	0.	-1099.1
20406	18.834	0.63636	0.	-1120.8
20407	18.834	0.72727	5.e-002	-4.2915
20408	19.111	0.72727	0.	-1056.7
20409	19.018	0.63636	0.	-1078.4
20410	19.018	0.72727	5.e-002	-4.2761
20411	19.295	0.72727	0.	-1014.6
20412	19.203	0.63636	0.	-1036.1
20413	19.203	0.72727	5.e-002	-4.2612
20414	19.48	0.72727	0.	-972.59
20415	19.387	0.63636	0.	-994.04
20416	19.387	0.72727	5.e-002	-4.2466
20417	19.664	0.72727	0.	-930.78
20418	19.572	0.63636	0.	-952.12
20419	19.572	0.72727	5.e-002	-4.2326
20420	19.849	0.72727	0.	-889.14
20421	19.756	0.63636	0.	-910.38
20422	19.756	0.72727	5.e-002	-4.2191
20423	20.033	0.72727	0.	-847.66
20424	19.941	0.63636	0.	-868.8
20425	19.941	0.72727	5.e-002	-4.2061
20426	20.218	0.72727	0.	-806.36
20427	20.125	0.63636	0.	-827.39
20428	20.125	0.72727	5.e-002	-4.1937
20429	20.402	0.72727	0.	-765.22
20430	20.31	0.63636	0.	-786.14
20431	20.31	0.72727	5.e-002	-4.182
20432	20.587	0.72727	0.	-724.24
20433	20.494	0.63636	0.	-745.05
20434	20.494	0.72727	5.e-002	-4.1709
20435	20.771	0.72727	0.	-683.42
20436	20.679	0.63636	0.	-704.12
20437	20.679	0.72727	5.e-002	-4.1605
20438	20.956	0.72727	0.	-642.77
20439	20.863	0.63636	0.	-663.35
20440	20.863	0.72727	5.e-002	-4.151
20441	21.14	0.72727	0.	-602.26
20442	21.048	0.63636	0.	-622.72
20443	21.048	0.72727	5.e-002	-4.1423
20444	21.325	0.72727	0.	-561.92
20445	21.232	0.63636	0.	-582.25
20446	21.232	0.72727	5.e-002	-4.1346
20447	21.509	0.72727	0.	-521.73
20448	21.417	0.63636	0.	-541.93
20449	21.417	0.72727	5.e-002	-4.1278
20450	21.694	0.72727	0.	-481.7
20451	21.601	0.63636	0.	-501.76
20452	21.601	0.72727	5.e-002	-4.1222
20453	21.878	0.72727	0.	-441.84
20454	21.786	0.63636	0.	-461.75
20455	21.786	0.72727	5.e-002	-4.1178
20456	22.063	0.72727	0.	-402.15
20457	21.97	0.63636	0.	-421.9
20458	21.97	0.72727	5.e-002	-4.1149
20459	22.247	0.72727	0.	-362.65
20460	22.155	0.63636	0.	-382.22
20461	22.155	0.72727	5.e-002	-4.1137
20462	22.432	0.72727	0.	-323.35
20463	22.339	0.63636	0.	-342.72
20464	22.339	0.72727	5.e-002	-4.1147
20465	22.616	0.72727	0.	-284.3
20466	22.524	0.63636	0.	-303.43
20467	22.524	0.72727	5.e-002	-4.1183
20468	22.801	0.72727	0.	-245.51
20469	22.708	0.63636	0.	-264.38
20470	22.708	0.72727	5.e-002	-4.1256
20471	22.985	0.72727	0.	-207.06
20472	22.893	0.63636	0.	-225.63
20473	22.893	0.72727	5.e-002	-4.1382
20474	23.17	0.72727	0.	-168.99
20475	23.077	0.63636	0.	-187.23
20476	23.077	0.72727	5.e-002	-4.1588
20477	23.354	0.72727	0.	-131.39
20478	23.262	0.63636	0.	-149.28
20479	23.262	0.72727	5.e-002	-4.1924
20480	23.539	0.72727	0.	-94.256
20481	23.446	0.63636	0.	-111.91
20482	23.446	0.72727	5.e-002	-4.2469
20483	23.723	0.72727	0.	-57.629
20484	23.631	0.63636	0.	-75.154
20485	23.631	0.72727	5.e-002	-4.341
20486	23.815	0.63636	0.	-39.219
20487	23.815	0.72727	5.e-002	-4.5931
20488	23.908	0.72727	0.	-22.352
20489	3.2434	0.54545	0.	-1884.1
20490	3.1512	0.45455	0.	-1550.3
20491	3.1512	0.54545	5.e-002	-76.639
20492	3.0589	0.54545	0.	-1428.5
20493	3.4279	0.54545	0.	-2249.2
20494	3.3357	0.45455	0.	-1884.5
20495	3.3357	0.54545	5.e-002	-61.851
20496	3.6124	0.54545	0.	-2680.
20497	3.5202	0.45455	0.	-2344.7
20498	3.5202	0.54545	5.e-002	-55.837
20499	3.7969	0.54545	0.	-3084.4
20500	3.7047	0.45455	0.	-2791.9
20501	3.7047	0.54545	5.e-002	-48.383
20502	3.9814	0.54545	0.	-3434.6
20503	3.8892	0.45455	0.	-3187.8
20504	3.8892	0.54545	5.e-002	-40.568
20505	4.1659	0.54545	0.	-3723.5
20506	4.0737	0.45455	0.	-3520.5
20507	4.0737	0.54545	5.e-002	-33.098
20508	4.3504	0.54545	0.	-3953.4
20509	4.2582	0.45455	0.	-3790.4
20510	4.2582	0.54545	5.e-002	-26.38
20511	4.5349	0.54545	0.	-4130.7
20512	4.4427	0.45455	0.	-4002.7
20513	4.4427	0.54545	5.e-002	-20.565
20514	4.7194	0.54545	0.	-4262.9
20515	4.6272	0.45455	0.	-4164.9
20516	4.6272	0.54545	5.e-002	-15.662
20517	4.9039	0.54545	0.	-4357.3
20518	4.8117	0.45455	0.	-4284.4
20519	4.8117	0.54545	5.e-002	-11.609
20520	5.0885	0.54545	0.	-4420.8
20521	4.9962	0.45455	0.	-4368.7
20522	4.9962	0.54545	5.e-002	-8.3211
20523	5.273	0.54545	0.	-4459.1
20524	5.1807	0.45455	0.	-4424.
20525	5.1807	0.54545	5.e-002	-5.7193
20526	5.4575	0.54545	0.	-4477.2
20527	5.3652	0.45455	0.	-4455.8
20528	5.3652	0.54545	5.e-002	-3.7698
20529	5.642	0.54545	0.	-4479.2
20530	5.5497	0.45455	0.	-4468.8
20531	5.5497	0.54545	5.e-002	-2.5457
20532	5.8265	0.54545	0.	-4468.4
20533	5.7342	0.45455	0.	-4466.8
20534	5.7342	0.54545	5.e-002	-2.2045
20535	6.011	0.54545	0.	-4447.5
20536	5.9187	0.45455	0.	-4452.9
20537	5.9187	0.54545	5.e-002	-2.5395
20538	6.1955	0.54545	0.	-4418.7
20539	6.1032	0.45455	0.	-4429.6
20540	6.1032	0.54545	5.e-002	-3.0827
20541	6.38	0.54545	0.	-4383.7
20542	6.2877	0.45455	0.	-4398.9
20543	6.2877	0.54545	5.e-002	-3.6074
20544	6.5645	0.54545	0.	-4344.
20545	6.4722	0.45455	0.	-4362.5
20546	6.4722	0.54545	5.e-002	-4.0535
20547	6.749	0.54545	0.	-4300.6
20548	6.6567	0.45455	0.	-4321.7
20549	6.6567	0.54545	5.e-002	-4.4143
20550	6.9335	0.54545	0.	-4254.4
20551	6.8412	0.45455	0.	-4277.5
20552	6.8412	0.54545	5.e-002	-4.6983
20553	7.118	0.54545	0.	-4206.1
20554	7.0257	0.45455	0.	-4230.7
20555	7.0257	0.54545	5.e-002	-4.9172
20556	7.3025	0.54545	0.	-4156.2
20557	7.2102	0.45455	0.	-4181.9
20558	7.2102	0.54545	5.e-002	-5.0829
20559	7.487	0.54545	0.	-4105.1
20560	7.3947	0.45455	0.	-4131.6
20561	7.3947	0.54545	5.e-002	-5.2054
20562	7.6715	0.54545	0.	-4053.2
20563	7.5792	0.45455	0.	-4080.3
20564	7.5792	0.54545	5.e-002	-5.2937
20565	7.856	0.54545	0.	-4000.6
20566	7.7637	0.45455	0.	-4028.2
20567	7.7637	0.54545	5.e-002	-5.3548
20568	8.0405	0.54545	0.	-3947.7
20569	7.9482	0.45455	0.	-3975.5
20570	7.9482	0.54545	5.e-002	-5.3946
20571	8.225	0.54545	0.	-3894.5
20572	8.1327	0.45455	0.	-3922.5
20573	8.1327	0.54545	5.e-002	-5.4178
20574	8.4095	0.54545	0.	-3841.2
20575	8.3173	0.45455	0.	-3869.3
20576	8.3173	0.54545	5.e-002	-5.4282
20577	8.594	0.54545	0.	-3787.9
20578	8.5018	0.45455	0.	-3815.9
20579	8.5018	0.54545	5.e-002	-5.4287
20580	8.7785	0.54545	0.	-3734.5
20581	8.6863	0.45455	0.	-3762.5
20582	8.6863	0.54545	5.e-002	-5.4217
20583	8.963	0.54545	0.	-3681.3
20584	8.8708	0.45455	0.	-3709.2
20585	8.8708	0.54545	5.e-002	-5.409
20586	9.1475	0.54545	0.	-3628.1
20587	9.0553	0.45455	0.	-3656.
20588	9.0553	0.54545	5.e-002	-5.3922
20589	9.332	0.54545	0.	-3575.1
20590	9.2398	0.45455	0.	-3602.9
20591	9.2398	0.54545	5.e-002	-5.3722
20592	9.5165	0.54545	0.	-3522.3
20593	9.4243	0.45455	0.	-3549.9
20594	9.4243	0.54545	5.e-002	-5.35
20595	9.701	0.54545	0.	-3469.6
20596	9.6088	0.45455	0.	-3497.1
20597	9.6088	0.54545	5.e-002	-5.3263
20598	9.8855	0.54545	0.	-3417.1
20599	9.7933	0.45455	0.	-3444.5
20600	9.7933	0.54545	5.e-002	-5.3015
20601	10.07	0.54545	0.	-3364.9
20602	9.9778	0.45455	0.	-3392.1
20603	9.9778	0.54545	5.e-002	-5.2761
20604	10.255	0.54545	0.	-3312.8
20605	10.162	0.45455	0.	-3339.9
20606	10.162	0.54545	5.e-002	-5.2504
20607	10.439	0.54545	0.	-3260.9
20608	10.347	0.45455	0.	-3287.9
20609	10.347	0.54545	5.e-002	-5.2245
20610	10.624	0.54545	0.	-3209.3
20611	10.531	0.45455	0.	-3236.1
20612	10.531	0.54545	5.e-002	-5.1986
20613	10.808	0.54545	0.	-3157.9
20614	10.716	0.45455	0.	-3184.5
20615	10.716	0.54545	5.e-002	-5.1728
20616	10.993	0.54545	0.	-3106.7
20617	10.9	0.45455	0.	-3133.2
20618	10.9	0.54545	5.e-002	-5.1472
20619	11.177	0.54545	0.	-3055.7
20620	11.085	0.45455	0.	-3082.
20621	11.085	0.54545	5.e-002	-5.122
20622	11.362	0.54545	0.	-3004.9
20623	11.269	0.45455	0.	-3031.1
20624	11.269	0.54545	5.e-002	-5.097
20625	11.546	0.54545	0.	-2954.3
20626	11.454	0.45455	0.	-2980.4
20627	11.454	0.54545	5.e-002	-5.0724
20628	11.731	0.54545	0.	-2904.
20629	11.638	0.45455	0.	-2929.9
20630	11.638	0.54545	5.e-002	-5.048
20631	11.915	0.54545	0.	-2853.8
20632	11.823	0.45455	0.	-2879.7
20633	11.823	0.54545	5.e-002	-5.024
20634	12.1	0.54545	0.	-2803.9
20635	12.007	0.45455	0.	-2829.6
20636	12.007	0.54545	5.e-002	-5.0003
20637	12.284	0.54545	0.	-2754.2
20638	12.192	0.45455	0.	-2779.8
20639	12.192	0.54545	5.e-002	-4.9769
20640	12.469	0.54545	0.	-2704.7
20641	12.376	0.45455	0.	-2730.2
20642	12.376	0.54545	5.e-002	-4.9538
20643	12.653	0.54545	0.	-2655.4
20644	12.561	0.45455	0.	-2680.8
20645	12.561	0.54545	5.e-002	-4.931
20646	12.838	0.54545	0.	-2606.3
20647	12.745	0.45455	0.	-2631.6
20648	12.745	0.54545	5.e-002	-4.9085
20649	13.022	0.54545	0.	-2557.5
20650	12.93	0.45455	0.	-2582.6
20651	12.93	0.54545	5.e-002	-4.8862
20652	13.207	0.54545	0.	-2508.8
20653	13.114	0.45455	0.	-2533.8
20654	13.114	0.54545	5.e-002	-4.8641
20655	13.391	0.54545	0.	-2460.4
20656	13.299	0.45455	0.	-2485.3
20657	13.299	0.54545	5.e-002	-4.8423
20658	13.576	0.54545	0.	-2412.1
20659	13.483	0.45455	0.	-2436.9
20660	13.483	0.54545	5.e-002	-4.8207
20661	13.76	0.54545	0.	-2364.1
20662	13.668	0.45455	0.	-2388.8
20663	13.668	0.54545	5.e-002	-4.7993
20664	13.945	0.54545	0.	-2316.2
20665	13.852	0.45455	0.	-2340.8
20666	13.852	0.54545	5.e-002	-4.7782
20667	14.129	0.54545	0.	-2268.6
20668	14.037	0.45455	0.	-2293.1
20669	14.037	0.54545	5.e-002	-4.7572
20670	14.314	0.54545	0.	-2221.2
20671	14.221	0.45455	0.	-2245.5
20672	14.221	0.54545	5.e-002	-4.7363
20673	14.498	0.54545	0.	-2174.
20674	14.406	0.45455	0.	-2198.2
20675	14.406	0.54545	5.e-002	-4.7157
20676	14.683	0.54545	0.	-2126.9
20677	14.59	0.45455	0.	-2151.1
20678	14.59	0.54545	5.e-002	-4.6952
20679	14.867	0.54545	0.	-2080.1
20680	14.775	0.45455	0.	-2104.2
20681	14.775	0.54545	5.e-002	-4.6749
20682	15.052	0.54545	0.	-2033.5
20683	14.959	0.45455	0.	-2057.5
20684	14.959	0.54545	5.e-002	-4.6547
20685	15.236	0.54545	0.	-1987.1
20686	15.144	0.45455	0.	-2011.
20687	15.144	0.54545	5.e-002	-4.6347
20688	15.421	0.54545	0.	-1940.9
20689	15.328	0.45455	0.	-1964.7
20690	15.328	0.54545	5.e-002	-4.6149
20691	15.605	0.54545	0.	-1894.9
20692	15.513	0.45455	0.	-1918.5
20693	15.513	0.54545	5.e-002	-4.5952
20694	15.79	0.54545	0.	-1849.1
20695	15.697	0.45455	0.	-1872.6
20696	15.697	0.54545	5.e-002	-4.5757
20697	15.974	0.54545	0.	-1803.5
20698	15.882	0.45455	0.	-1826.9
20699	15.882	0.54545	5.e-002	-4.5563
20700	16.159	0.54545	0.	-1758.1
20701	16.066	0.45455	0.	-1781.4
20702	16.066	0.54545	5.e-002	-4.5371
20703	16.343	0.54545	0.	-1712.9
20704	16.251	0.45455	0.	-1736.1
20705	16.251	0.54545	5.e-002	-4.518
20706	16.528	0.54545	0.	-1667.8
20707	16.435	0.45455	0.	-1691.
20708	16.435	0.54545	5.e-002	-4.4991
20709	16.712	0.54545	0.	-1623.
20710	16.62	0.45455	0.	-1646.1
20711	16.62	0.54545	5.e-002	-4.4804
20712	16.897	0.54545	0.	-1578.4
20713	16.804	0.45455	0.	-1601.4
20714	16.804	0.54545	5.e-002	-4.4618
20715	17.081	0.54545	0.	-1534.
20716	16.989	0.45455	0.	-1556.9
20717	16.989	0.54545	5.e-002	-4.4435
20718	17.266	0.54545	0.	-1489.8
20719	17.173	0.45455	0.	-1512.5
20720	17.173	0.54545	5.e-002	-4.4253
20721	17.45	0.54545	0.	-1445.7
20722	17.358	0.45455	0.	-1468.4
20723	17.358	0.54545	5.e-002	-4.4074
20724	17.635	0.54545	0.	-1401.9
20725	17.542	0.45455	0.	-1424.5
20726	17.542	0.54545	5.e-002	-4.3896
20727	17.819	0.54545	0.	-1358.2
20728	17.727	0.45455	0.	-1380.7
20729	17.727	0.54545	5.e-002	-4.3721
20730	18.004	0.54545	0.	-1314.7
20731	17.911	0.45455	0.	-1337.1
20732	17.911	0.54545	5.e-002	-4.3549
20733	18.188	0.54545	0.	-1271.5
20734	18.096	0.45455	0.	-1293.8
20735	18.096	0.54545	5.e-002	-4.3379
20736	18.373	0.54545	0.	-1228.4
20737	18.28	0.45455	0.	-1250.6
20738	18.28	0.54545	5.e-002	-4.3212
20739	18.557	0.54545	0.	-1185.5
20740	18.465	0.45455	0.	-1207.6
20741	18.465	0.54545	5.e-002	-4.3048
20742	18.742	0.54545	0.	-1142.7
20743	18.649	0.45455	0.	-1164.8
20744	18.649	0.54545	5.e-002	-4.2888
20745	18.926	0.54545	0.	-1100.2
20746	18.834	0.45455	0.	-1122.1
20747	18.834	0.54545	5.e-002	-4.2731
20748	19.111	0.54545	0.	-1057.8
20749	19.018	0.45455	0.	-1079.7
20750	19.018	0.54545	5.e-002	-4.2577
20751	19.295	0.54545	0.	-1015.6
20752	19.203	0.45455	0.	-1037.4
20753	19.203	0.54545	5.e-002	-4.2428
20754	19.48	0.54545	0.	-973.62
20755	19.387	0.45455	0.	-995.26
20756	19.387	0.54545	5.e-002	-4.2283
20757	19.664	0.54545	0.	-931.77
20758	19.572	0.45455	0.	-953.31
20759	19.572	0.54545	5.e-002	-4.2143
20760	19.849	0.54545	0.	-890.09
20761	19.756	0.45455	0.	-911.54
20762	19.756	0.54545	5.e-002	-4.2008
20763	20.033	0.54545	0.	-848.58
20764	19.941	0.45455	0.	-869.93
20765	19.941	0.54545	5.e-002	-4.1878
20766	20.218	0.54545	0.	-807.22
20767	20.125	0.45455	0.	-828.48
20768	20.125	0.54545	5.e-002	-4.1754
20769	20.402	0.54545	0.	-766.03
20770	20.31	0.45455	0.	-787.18
20771	20.31	0.54545	5.e-002	-4.1636
20772	20.587	0.54545	0.	-724.99
20773	20.494	0.45455	0.	-746.05
20774	20.494	0.54545	5.e-002	-4.1524
20775	20.771	0.54545	0.	-684.1
20776	20.679	0.45455	0.	-705.06
20777	20.679	0.54545	5.e-002	-4.1419
20778	20.956	0.54545	0.	-643.37
20779	20.863	0.45455	0.	-664.22
20780	20.863	0.54545	5.e-002	-4.1322
20781	21.14	0.54545	0.	-602.78
20782	21.048	0.45455	0.	-623.53
20783	21.048	0.54545	5.e-002	-4.1233
20784	21.325	0.54545	0.	-562.34
20785	21.232	0.45455	0.	-582.97
20786	21.232	0.54545	5.e-002	-4.1151
20787	21.509	0.54545	0.	-522.04
20788	21.417	0.45455	0.	-542.56
20789	21.417	0.54545	5.e-002	-4.1079
20790	21.694	0.54545	0.	-481.89
20791	21.601	0.45455	0.	-502.29
20792	21.601	0.54545	5.e-002	-4.1017
20793	21.878	0.54545	0.	-441.9
20794	21.786	0.45455	0.	-462.16
20795	21.786	0.54545	5.e-002	-4.0965
20796	22.063	0.54545	0.	-402.06
20797	21.97	0.45455	0.	-422.18
20798	21.97	0.54545	5.e-002	-4.0925
20799	22.247	0.54545	0.	-362.39
20800	22.155	0.45455	0.	-382.35
20801	22.155	0.54545	5.e-002	-4.0899
20802	22.432	0.54545	0.	-322.9
20803	22.339	0.45455	0.	-342.68
20804	22.339	0.54545	5.e-002	-4.0889
20805	22.616	0.54545	0.	-283.63
20806	22.524	0.45455	0.	-303.19
20807	22.524	0.54545	5.e-002	-4.09
20808	22.801	0.54545	0.	-244.62
20809	22.708	0.45455	0.	-263.92
20810	22.708	0.54545	5.e-002	-4.0938
20811	22.985	0.54545	0.	-205.93
20812	22.893	0.45455	0.	-224.91
20813	22.893	0.54545	5.e-002	-4.1017
20814	23.17	0.54545	0.	-167.64
20815	23.077	0.45455	0.	-186.22
20816	23.077	0.54545	5.e-002	-4.1161
20817	23.354	0.54545	0.	-129.91
20818	23.262	0.45455	0.	-147.98
20819	23.262	0.54545	5.e-002	-4.1423
20820	23.539	0.54545	0.	-92.877
20821	23.446	0.45455	0.	-110.38
20822	23.446	0.54545	5.e-002	-4.1909
20823	23.723	0.54545	0.	-56.746
20824	23.631	0.45455	0.	-73.701
20825	23.631	0.54545	5.e-002	-4.2887
20826	23.815	0.45455	0.	-38.501
20827	23.815	0.54545	5.e-002	-4.5892
20828	23.908	0.54545	0.	-22.053
20829	3.2434	0.36364	0.	-1503.
20830	3.1512	0.27273	0.	-1144.9
20831	3.1512	0.36364	5.e-002	-71.813
20832	3.0589	0.36364	0.	-1054.4
20833	3.4279	0.36364	0.	-1960.
20834	3.3357	0.27273	0.	-1613.2
20835	3.3357	0.36364	5.e-002	-61.127
20836	3.6124	0.36364	0.	-2447.6
20837	3.5202	0.27273	0.	-2139.3
20838	3.5202	0.36364	5.e-002	-55.616
20839	3.7969	0.36364	0.	-2890.5
20840	3.7047	0.27273	0.	-2622.7
20841	3.7047	0.36364	5.e-002	-48.707
20842	3.9814	0.36364	0.	-3270.8
20843	3.8892	0.27273	0.	-3043.5
20844	3.8892	0.36364	5.e-002	-41.405
20845	4.1659	0.36364	0.	-3585.6
20846	4.0737	0.27273	0.	-3397.1
20847	4.0737	0.36364	5.e-002	-34.269
20848	4.3504	0.36364	0.	-3838.5
20849	4.2582	0.27273	0.	-3685.7
20850	4.2582	0.36364	5.e-002	-27.673
20851	4.5349	0.36364	0.	-4036.1
20852	4.4427	0.27273	0.	-3915.1
20853	4.4427	0.36364	5.e-002	-21.816
20854	4.7194	0.36364	0.	-4185.9
20855	4.6272	0.27273	0.	-4092.6
20856	4.6272	0.36364	5.e-002	-16.764
20857	4.9039	0.36364	0.	-4295.5
20858	4.8117	0.27273	0.	-4225.6
20859	4.8117	0.36364	5.e-002	-12.5
20860	5.0885	0.36364	0.	-4371.6
20861	4.9962	0.27273	0.	-4321.5
20862	4.9962	0.36364	5.e-002	-8.9631
20863	5.273	0.36364	0.	-4420.5
20864	5.1807	0.27273	0.	-4386.6
20865	5.1807	0.36364	5.e-002	-6.0728
20866	5.4575	0.36364	0.	-4447.3
20867	5.3652	0.27273	0.	-4426.7
20868	5.3652	0.36364	5.e-002	-3.7546
20869	5.642	0.36364	0.	-4456.4
20870	5.5497	0.27273	0.	-4446.5
20871	5.5497	0.36364	5.e-002	-1.9824
20872	5.8265	0.36364	0.	-4451.3
20873	5.7342	0.27273	0.	-4450.
20874	5.7342	0.36364	5.e-002	-1.0361
20875	6.011	0.36364	0.	-4435.
20876	5.9187	0.27273	0.	-4440.6
20877	5.9187	0.36364	5.e-002	-1.4695
20878	6.1955	0.36364	0.	-4409.8
20879	6.1032	0.27273	0.	-4420.9
20880	6.1032	0.36364	5.e-002	-2.2641
20881	6.38	0.36364	0.	-4377.7
20882	6.2877	0.27273	0.	-4393.1
20883	6.2877	0.36364	5.e-002	-2.96
20884	6.5645	0.36364	0.	-4340.3
20885	6.4722	0.27273	0.	-4359.
20886	6.4722	0.36364	5.e-002	-3.5205
20887	6.749	0.36364	0.	-4298.7
20888	6.6567	0.27273	0.	-4320.
20889	6.6567	0.36364	5.e-002	-3.9605
20890	6.9335	0.36364	0.	-4253.8
20891	6.8412	0.27273	0.	-4277.1
20892	6.8412	0.36364	5.e-002	-4.3002
20893	7.118	0.36364	0.	-4206.5
20894	7.0257	0.27273	0.	-4231.3
20895	7.0257	0.36364	5.e-002	-4.5589
20896	7.3025	0.36364	0.	-4157.4
20897	7.2102	0.27273	0.	-4183.4
20898	7.2102	0.36364	5.e-002	-4.7527
20899	7.487	0.36364	0.	-4106.9
20900	7.3947	0.27273	0.	-4133.7
20901	7.3947	0.36364	5.e-002	-4.8951
20902	7.6715	0.36364	0.	-4055.3
20903	7.5792	0.27273	0.	-4082.8
20904	7.5792	0.36364	5.e-002	-4.997
20905	7.856	0.36364	0.	-4003.1
20906	7.7637	0.27273	0.	-4031.
20907	7.7637	0.36364	5.e-002	-5.0672
20908	8.0405	0.36364	0.	-3950.3
20909	7.9482	0.27273	0.	-3978.5
20910	7.9482	0.36364	5.e-002	-5.1126
20911	8.225	0.36364	0.	-3897.2
20912	8.1327	0.27273	0.	-3925.6
20913	8.1327	0.36364	5.e-002	-5.139
20914	8.4095	0.36364	0.	-3844.
20915	8.3173	0.27273	0.	-3872.5
20916	8.3173	0.36364	5.e-002	-5.1507
20917	8.594	0.36364	0.	-3790.6
20918	8.5018	0.27273	0.	-3819.1
20919	8.5018	0.36364	5.e-002	-5.1512
20920	8.7785	0.36364	0.	-3737.3
20921	8.6863	0.27273	0.	-3765.8
20922	8.6863	0.36364	5.e-002	-5.1434
20923	8.963	0.36364	0.	-3684.
20924	8.8708	0.27273	0.	-3712.4
20925	8.8708	0.36364	5.e-002	-5.1292
20926	9.1475	0.36364	0.	-3630.8
20927	9.0553	0.27273	0.	-3659.1
20928	9.0553	0.36364	5.e-002	-5.1105
20929	9.332	0.36364	0.	-3577.7
20930	9.2398	0.27273	0.	-3606.
20931	9.2398	0.36364	5.e-002	-5.0885
20932	9.5165	0.36364	0.	-3524.8
20933	9.4243	0.27273	0.	-3552.9
20934	9.4243	0.36364	5.e-002	-5.0641
20935	9.701	0.36364	0.	-3472.
20936	9.6088	0.27273	0.	-3500.1
20937	9.6088	0.36364	5.e-002	-5.0382
20938	9.8855	0.36364	0.	-3419.5
20939	9.7933	0.27273	0.	-3447.4
20940	9.7933	0.36364	5.e-002	-5.0114
20941	10.07	0.36364	0.	-3367.1
20942	9.9778	0.27273	0.	-3394.9
20943	9.9778	0.36364	5.e-002	-4.984
20944	10.255	0.36364	0.	-3315.
20945	10.162	0.27273	0.	-3342.6
20946	10.162	0.36364	5.e-002	-4.9563
20947	10.439	0.36364	0.	-3263.
20948	10.347	0.27273	0.	-3290.6
20949	10.347	0.36364	5.e-002	-4.9288
20950	10.624	0.36364	0.	-3211.3
20951	10.531	0.27273	0.	-3238.8
20952	10.531	0.36364	5.e-002	-4.9014
20953	10.808	0.36364	0.	-3159.8
20954	10.716	0.27273	0.	-3187.1
20955	10.716	0.36364	5.e-002	-4.8742
20956	10.993	0.36364	0.	-3108.6
20957	10.9	0.27273	0.	-3135.7
20958	10.9	0.36364	5.e-002	-4.8475
20959	11.177	0.36364	0.	-3057.5
20960	11.085	0.27273	0.	-3084.6
20961	11.085	0.36364	5.e-002	-4.8213
20962	11.362	0.36364	0.	-3006.7
20963	11.269	0.27273	0.	-3033.6
20964	11.269	0.36364	5.e-002	-4.7954
20965	11.546	0.36364	0.	-2956.1
20966	11.454	0.27273	0.	-2982.9
20967	11.454	0.36364	5.e-002	-4.7701
20968	11.731	0.36364	0.	-2905.7
20969	11.638	0.27273	0.	-2932.4
20970	11.638	0.36364	5.e-002	-4.7452
20971	11.915	0.36364	0.	-2855.5
20972	11.823	0.27273	0.	-2882.1
20973	11.823	0.36364	5.e-002	-4.7208
20974	12.1	0.36364	0.	-2805.6
20975	12.007	0.27273	0.	-2832.
20976	12.007	0.36364	5.e-002	-4.6969
20977	12.284	0.36364	0.	-2755.8
20978	12.192	0.27273	0.	-2782.1
20979	12.192	0.36364	5.e-002	-4.6734
20980	12.469	0.36364	0.	-2706.3
20981	12.376	0.27273	0.	-2732.5
20982	12.376	0.36364	5.e-002	-4.6502
20983	12.653	0.36364	0.	-2657.
20984	12.561	0.27273	0.	-2683.1
20985	12.561	0.36364	5.e-002	-4.6276
20986	12.838	0.36364	0.	-2607.9
20987	12.745	0.27273	0.	-2633.9
20988	12.745	0.36364	5.e-002	-4.6052
20989	13.022	0.36364	0.	-2559.
20990	12.93	0.27273	0.	-2584.9
20991	12.93	0.36364	5.e-002	-4.5832
20992	13.207	0.36364	0.	-2510.3
20993	13.114	0.27273	0.	-2536.1
20994	13.114	0.36364	5.e-002	-4.5616
20995	13.391	0.36364	0.	-2461.8
20996	13.299	0.27273	0.	-2487.5
20997	13.299	0.36364	5.e-002	-4.5403
20998	13.576	0.36364	0.	-2413.6
20999	13.483	0.27273	0.	-2439.2
21000	13.483	0.36364	5.e-002	-4.5193
21001	13.76	0.36364	0.	-2365.5
21002	13.668	0.27273	0.	-2391.
21003	13.668	0.36364	5.e-002	-4.4986
21004	13.945	0.36364	0.	-2317.7
21005	13.852	0.27273	0.	-2343.1
21006	13.852	0.36364	5.e-002	-4.4781
21007	14.129	0.36364	0.	-2270.
21008	14.037	0.27273	0.	-2295.3
21009	14.037	0.36364	5.e-002	-4.4579
21010	14.314	0.36364	0.	-2222.6
21011	14.221	0.27273	0.	-2247.8
21012	14.221	0.36364	5.e-002	-4.438
21013	14.498	0.36364	0.	-2175.4
21014	14.406	0.27273	0.	-2200.5
21015	14.406	0.36364	5.e-002	-4.4183
21016	14.683	0.36364	0.	-2128.4
21017	14.59	0.27273	0.	-2153.4
21018	14.59	0.36364	5.e-002	-4.3988
21019	14.867	0.36364	0.	-2081.6
21020	14.775	0.27273	0.	-2106.5
21021	14.775	0.36364	5.e-002	-4.3795
21022	15.052	0.36364	0.	-2034.9
21023	14.959	0.27273	0.	-2059.8
21024	14.959	0.36364	5.e-002	-4.3605
21025	15.236	0.36364	0.	-1988.5
21026	15.144	0.27273	0.	-2013.3
21027	15.144	0.36364	5.e-002	-4.3417
21028	15.421	0.36364	0.	-1942.3
21029	15.328	0.27273	0.	-1967.
21030	15.328	0.36364	5.e-002	-4.3231
21031	15.605	0.36364	0.	-1896.3
21032	15.513	0.27273	0.	-1920.9
21033	15.513	0.36364	5.e-002	-4.3047
21034	15.79	0.36364	0.	-1850.5
21035	15.697	0.27273	0.	-1875.
21036	15.697	0.36364	5.e-002	-4.2865
21037	15.974	0.36364	0.	-1804.9
21038	15.882	0.27273	0.	-1829.3
21039	15.882	0.36364	5.e-002	-4.2685
21040	16.159	0.36364	0.	-1759.5
21041	16.066	0.27273	0.	-1783.8
21042	16.066	0.36364	5.e-002	-4.2508
21043	16.343	0.36364	0.	-1714.3
21044	16.251	0.27273	0.	-1738.5
21045	16.251	0.36364	5.e-002	-4.2333
21046	16.528	0.36364	0.	-1669.3
21047	16.435	0.27273	0.	-1693.5
21048	16.435	0.36364	5.e-002	-4.2159
21049	16.712	0.36364	0.	-1624.5
21050	16.62	0.27273	0.	-1648.6
21051	16.62	0.36364	5.e-002	-4.1989
21052	16.897	0.36364	0.	-1579.9
21053	16.804	0.27273	0.	-1603.9
21054	16.804	0.36364	5.e-002	-4.182
21055	17.081	0.36364	0.	-1535.4
21056	16.989	0.27273	0.	-1559.4
21057	16.989	0.36364	5.e-002	-4.1654
21058	17.266	0.36364	0.	-1491.2
21059	17.173	0.27273	0.	-1515.1
21060	17.173	0.36364	5.e-002	-4.1492
21061	17.45	0.36364	0.	-1447.2
21062	17.358	0.27273	0.	-1470.9
21063	17.358	0.36364	5.e-002	-4.1331
21064	17.635	0.36364	0.	-1403.3
21065	17.542	0.27273	0.	-1427.
21066	17.542	0.36364	5.e-002	-4.1174
21067	17.819	0.36364	0.	-1359.7
21068	17.727	0.27273	0.	-1383.3
21069	17.727	0.36364	5.e-002	-4.102
21070	18.004	0.36364	0.	-1316.2
21071	17.911	0.27273	0.	-1339.7
21072	17.911	0.36364	5.e-002	-4.0869
21073	18.188	0.36364	0.	-1272.9
21074	18.096	0.27273	0.	-1296.4
21075	18.096	0.36364	5.e-002	-4.0722
21076	18.373	0.36364	0.	-1229.8
21077	18.28	0.27273	0.	-1253.2
21078	18.28	0.36364	5.e-002	-4.0579
21079	18.557	0.36364	0.	-1186.9
21080	18.465	0.27273	0.	-1210.2
21081	18.465	0.36364	5.e-002	-4.044
21082	18.742	0.36364	0.	-1144.2
21083	18.649	0.27273	0.	-1167.4
21084	18.649	0.36364	5.e-002	-4.0306
21085	18.926	0.36364	0.	-1101.6
21086	18.834	0.27273	0.	-1124.8
21087	18.834	0.36364	5.e-002	-4.0176
21088	19.111	0.36364	0.	-1059.2
21089	19.018	0.27273	0.	-1082.3
21090	19.018	0.36364	5.e-002	-4.0051
21091	19.295	0.36364	0.	-1017.
21092	19.203	0.27273	0.	-1040.
21093	19.203	0.36364	5.e-002	-3.9932
21094	19.48	0.36364	0.	-975.
21095	19.387	0.27273	0.	-997.94
21096	19.387	0.36364	5.e-002	-3.9818
21097	19.664	0.36364	0.	-933.13
21098	19.572	0.27273	0.	-955.99
21099	19.572	0.36364	5.e-002	-3.9711
21100	19.849	0.36364	0.	-891.43
21101	19.756	0.27273	0.	-914.21
21102	19.756	0.36364	5.e-002	-3.9611
21103	20.033	0.36364	0.	-849.89
21104	19.941	0.27273	0.	-872.6
21105	19.941	0.36364	5.e-002	-3.9518
21106	20.218	0.36364	0.	-808.5
21107	20.125	0.27273	0.	-831.13
21108	20.125	0.36364	5.e-002	-3.9432
21109	20.402	0.36364	0.	-767.27
21110	20.31	0.27273	0.	-789.82
21111	20.31	0.36364	5.e-002	-3.9355
21112	20.587	0.36364	0.	-726.18
21113	20.494	0.27273	0.	-748.66
21114	20.494	0.36364	5.e-002	-3.9286
21115	20.771	0.36364	0.	-685.25
21116	20.679	0.27273	0.	-707.65
21117	20.679	0.36364	5.e-002	-3.9227
21118	20.956	0.36364	0.	-644.45
21119	20.863	0.27273	0.	-666.77
21120	20.863	0.36364	5.e-002	-3.9177
21121	21.14	0.36364	0.	-603.8
21122	21.048	0.27273	0.	-626.03
21123	21.048	0.36364	5.e-002	-3.9139
21124	21.325	0.36364	0.	-563.28
21125	21.232	0.27273	0.	-585.42
21126	21.232	0.36364	5.e-002	-3.9111
21127	21.509	0.36364	0.	-522.9
21128	21.417	0.27273	0.	-544.95
21129	21.417	0.36364	5.e-002	-3.9095
21130	21.694	0.36364	0.	-482.66
21131	21.601	0.27273	0.	-504.6
21132	21.601	0.36364	5.e-002	-3.9092
21133	21.878	0.36364	0.	-442.55
21134	21.786	0.27273	0.	-464.38
21135	21.786	0.36364	5.e-002	-3.9102
21136	22.063	0.36364	0.	-402.59
21137	21.97	0.27273	0.	-424.29
21138	21.97	0.36364	5.e-002	-3.9126
21139	22.247	0.36364	0.	-362.77
21140	22.155	0.27273	0.	-384.33
21141	22.155	0.36364	5.e-002	-3.9166
21142	22.432	0.36364	0.	-323.11
21143	22.339	0.27273	0.	-344.5
21144	22.339	0.36364	5.e-002	-3.9223
21145	22.616	0.36364	0.	-283.64
21146	22.524	0.27273	0.	-304.82
21147	22.524	0.36364	5.e-002	-3.9301
21148	22.801	0.36364	0.	-244.38
21149	22.708	0.27273	0.	-265.31
21150	22.708	0.36364	5.e-002	-3.9404
21151	22.985	0.36364	0.	-205.4
21152	22.893	0.27273	0.	-226.
21153	22.893	0.36364	5.e-002	-3.954
21154	23.17	0.36364	0.	-166.78
21155	23.077	0.27273	0.	-186.93
21156	23.077	0.36364	5.e-002	-3.9728
21157	23.354	0.36364	0.	-128.68
21158	23.262	0.27273	0.	-148.2
21159	23.262	0.36364	5.e-002	-4.0003
21160	23.539	0.36364	0.	-91.392
21161	23.446	0.27273	0.	-109.97
21162	23.446	0.36364	5.e-002	-4.047
21163	23.723	0.36364	0.	-55.54
21164	23.631	0.27273	0.	-72.597
21165	23.631	0.36364	5.e-002	-4.1536
21166	23.815	0.27273	0.	-37.331
21167	23.815	0.36364	5.e-002	-4.5338
21168	23.908	0.36364	0.	-21.524
21169	3.2434	0.18182	0.	-1222.7
21170	3.1512	0.18182	5.e-002	-79.355
21171	3.1512	9.0909e-002	0.	-793.25
21172	3.0589	0.18182	0.	-685.89
21173	3.4279	0.18182	0.	-1784.9
21174	3.3357	0.18182	5.e-002	-70.6
21175	3.3357	9.0909e-002	0.	-1407.4
21176	3.6124	0.18182	0.	-2310.9
21177	3.5202	0.18182	5.e-002	-65.166
21178	3.5202	9.0909e-002	0.	-1982.
21179	3.7969	0.18182	0.	-2773.5
21180	3.7047	0.18182	5.e-002	-58.506
21181	3.7047	9.0909e-002	0.	-2491.9
21182	3.9814	0.18182	0.	-3168.2
21183	3.8892	0.18182	5.e-002	-51.084
21184	3.8892	9.0909e-002	0.	-2932.5
21185	4.1659	0.18182	0.	-3496.
21186	4.0737	0.18182	5.e-002	-43.492
21187	4.0737	9.0909e-002	0.	-3303.
21188	4.3504	0.18182	0.	-3761.5
21189	4.2582	0.18182	5.e-002	-36.198
21190	4.2582	9.0909e-002	0.	-3606.8
21191	4.5349	0.18182	0.	-3971.
21192	4.4427	0.18182	5.e-002	-29.518
21193	4.4427	9.0909e-002	0.	-3849.8
21194	4.7194	0.18182	0.	-4131.9
21195	4.6272	0.18182	5.e-002	-23.615
21196	4.6272	9.0909e-002	0.	-4039.2
21197	4.9039	0.18182	0.	-4251.4
21198	4.8117	0.18182	5.e-002	-18.541
21199	4.8117	9.0909e-002	0.	-4182.5
21200	5.0885	0.18182	0.	-4336.3
21201	4.9962	0.18182	5.e-002	-14.272
21202	4.9962	9.0909e-002	0.	-4287.1
21203	5.273	0.18182	0.	-4392.7
21204	5.1807	0.18182	5.e-002	-10.744
21205	5.1807	9.0909e-002	0.	-4359.5
21206	5.4575	0.18182	0.	-4425.8
21207	5.3652	0.18182	5.e-002	-7.8725
21208	5.3652	9.0909e-002	0.	-4405.6
21209	5.642	0.18182	0.	-4440.1
21210	5.5497	0.18182	5.e-002	-5.567
21211	5.5497	9.0909e-002	0.	-4430.3
21212	5.8265	0.18182	0.	-4439.3
21213	5.7342	0.18182	5.e-002	-3.742
21214	5.7342	9.0909e-002	0.	-4437.8
21215	6.011	0.18182	0.	-4426.5
21216	5.9187	0.18182	5.e-002	-2.3224
21217	5.9187	9.0909e-002	0.	-4431.6
21218	6.1955	0.18182	0.	-4404.2
21219	6.1032	0.18182	5.e-002	-1.2547
21220	6.1032	9.0909e-002	0.	-4414.5
21221	6.38	0.18182	0.	-4374.4
21222	6.2877	0.18182	5.e-002	-0.57188
21223	6.2877	9.0909e-002	0.	-4388.7
21224	6.5645	0.18182	0.	-4338.7
21225	6.4722	0.18182	5.e-002	-0.57697
21226	6.4722	9.0909e-002	0.	-4356.2
21227	6.749	0.18182	0.	-4298.5
21228	6.6567	0.18182	5.e-002	-0.91845
21229	6.6567	9.0909e-002	0.	-4318.4
21230	6.9335	0.18182	0.	-4254.7
21231	6.8412	0.18182	5.e-002	-1.2088
21232	6.8412	9.0909e-002	0.	-4276.4
21233	7.118	0.18182	0.	-4208.2
21234	7.0257	0.18182	5.e-002	-1.4127
21235	7.0257	9.0909e-002	0.	-4231.3
21236	7.3025	0.18182	0.	-4159.7
21237	7.2102	0.18182	5.e-002	-1.5408
21238	7.2102	9.0909e-002	0.	-4183.8
21239	7.487	0.18182	0.	-4109.7
21240	7.3947	0.18182	5.e-002	-1.6082
21241	7.3947	9.0909e-002	0.	-4134.4
21242	7.6715	0.18182	0.	-4058.5
21243	7.5792	0.18182	5.e-002	-1.6285
21244	7.5792	9.0909e-002	0.	-4083.7
21245	7.856	0.18182	0.	-4006.5
21246	7.7637	0.18182	5.e-002	-1.6131
21247	7.7637	9.0909e-002	0.	-4032.
21248	8.0405	0.18182	0.	-3953.9
21249	7.9482	0.18182	5.e-002	-1.5713
21250	7.9482	9.0909e-002	0.	-3979.5
21251	8.225	0.18182	0.	-3900.9
21252	8.1327	0.18182	5.e-002	-1.5104
21253	8.1327	9.0909e-002	0.	-3926.6
21254	8.4095	0.18182	0.	-3847.7
21255	8.3173	0.18182	5.e-002	-1.4363
21256	8.3173	9.0909e-002	0.	-3873.3
21257	8.594	0.18182	0.	-3794.3
21258	8.5018	0.18182	5.e-002	-1.3536
21259	8.5018	9.0909e-002	0.	-3819.9
21260	8.7785	0.18182	0.	-3741.
21261	8.6863	0.18182	5.e-002	-1.2658
21262	8.6863	9.0909e-002	0.	-3766.4
21263	8.963	0.18182	0.	-3687.7
21264	8.8708	0.18182	5.e-002	-1.1756
21265	8.8708	9.0909e-002	0.	-3712.8
21266	9.1475	0.18182	0.	-3634.4
21267	9.0553	0.18182	5.e-002	-1.0851
21268	9.0553	9.0909e-002	0.	-3659.4
21269	9.332	0.18182	0.	-3581.3
21270	9.2398	0.18182	5.e-002	-0.99585
21271	9.2398	9.0909e-002	0.	-3606.
21272	9.5165	0.18182	0.	-3528.3
21273	9.4243	0.18182	5.e-002	-0.90888
21274	9.4243	9.0909e-002	0.	-3552.8
21275	9.701	0.18182	0.	-3475.5
21276	9.6088	0.18182	5.e-002	-0.82503
21277	9.6088	9.0909e-002	0.	-3499.7
21278	9.8855	0.18182	0.	-3422.9
21279	9.7933	0.18182	5.e-002	-0.74483
21280	9.7933	9.0909e-002	0.	-3446.9
21281	10.07	0.18182	0.	-3370.5
21282	9.9778	0.18182	5.e-002	-0.66861
21283	9.9778	9.0909e-002	0.	-3394.2
21284	10.255	0.18182	0.	-3318.3
21285	10.162	0.18182	5.e-002	-0.59657
21286	10.162	9.0909e-002	0.	-3341.8
21287	10.439	0.18182	0.	-3266.4
21288	10.347	0.18182	5.e-002	-0.52879
21289	10.347	9.0909e-002	0.	-3289.6
21290	10.624	0.18182	0.	-3214.6
21291	10.531	0.18182	5.e-002	-0.46518
21292	10.531	9.0909e-002	0.	-3237.6
21293	10.808	0.18182	0.	-3163.1
21294	10.716	0.18182	5.e-002	-0.40576
21295	10.716	9.0909e-002	0.	-3185.8
21296	10.993	0.18182	0.	-3111.8
21297	10.9	0.18182	5.e-002	-0.35043
21298	10.9	9.0909e-002	0.	-3134.2
21299	11.177	0.18182	0.	-3060.7
21300	11.085	0.18182	5.e-002	-0.29902
21301	11.085	9.0909e-002	0.	-3082.9
21302	11.362	0.18182	0.	-3009.9
21303	11.269	0.18182	5.e-002	-0.25127
21304	11.269	9.0909e-002	0.	-3031.8
21305	11.546	0.18182	0.	-2959.2
21306	11.454	0.18182	5.e-002	-0.20709
21307	11.454	9.0909e-002	0.	-2980.9
21308	11.731	0.18182	0.	-2908.8
21309	11.638	0.18182	5.e-002	-0.1663
21310	11.638	9.0909e-002	0.	-2930.3
21311	11.915	0.18182	0.	-2858.6
21312	11.823	0.18182	5.e-002	-0.12867
21313	11.823	9.0909e-002	0.	-2879.9
21314	12.1	0.18182	0.	-2808.7
21315	12.007	0.18182	5.e-002	-9.403e-002
21316	12.007	9.0909e-002	0.	-2829.7
21317	12.284	0.18182	0.	-2758.9
21318	12.192	0.18182	5.e-002	-6.2215e-002
21319	12.192	9.0909e-002	0.	-2779.7
21320	12.469	0.18182	0.	-2709.4
21321	12.376	0.18182	5.e-002	-3.3139e-002
21322	12.376	9.0909e-002	0.	-2730.
21323	12.653	0.18182	0.	-2660.1
21324	12.561	0.18182	5.e-002	-7.5343e-003
21325	12.561	9.0909e-002	0.	-2680.5
21326	12.838	0.18182	0.	-2611.
21327	12.745	0.18182	5.e-002	-1.8639e-002
21328	12.745	9.0909e-002	0.	-2631.2
21329	13.022	0.18182	0.	-2562.1
21330	12.93	0.18182	5.e-002	-4.0734e-002
21331	12.93	9.0909e-002	0.	-2582.1
21332	13.207	0.18182	0.	-2513.4
21333	13.114	0.18182	5.e-002	-6.095e-002
21334	13.114	9.0909e-002	0.	-2533.2
21335	13.391	0.18182	0.	-2465.
21336	13.299	0.18182	5.e-002	-7.9319e-002
21337	13.299	9.0909e-002	0.	-2484.6
21338	13.576	0.18182	0.	-2416.7
21339	13.483	0.18182	5.e-002	-9.5947e-002
21340	13.483	9.0909e-002	0.	-2436.1
21341	13.76	0.18182	0.	-2368.7
21342	13.668	0.18182	5.e-002	-0.11093
21343	13.668	9.0909e-002	0.	-2387.9
21344	13.945	0.18182	0.	-2320.9
21345	13.852	0.18182	5.e-002	-0.1244
21346	13.852	9.0909e-002	0.	-2339.9
21347	14.129	0.18182	0.	-2273.2
21348	14.037	0.18182	5.e-002	-0.1364
21349	14.037	9.0909e-002	0.	-2292.
21350	14.314	0.18182	0.	-2225.8
21351	14.221	0.18182	5.e-002	-0.1471
21352	14.221	9.0909e-002	0.	-2244.4
21353	14.498	0.18182	0.	-2178.6
21354	14.406	0.18182	5.e-002	-0.15651
21355	14.406	9.0909e-002	0.	-2197.1
21356	14.683	0.18182	0.	-2131.6
21357	14.59	0.18182	5.e-002	-0.16474
21358	14.59	9.0909e-002	0.	-2149.9
21359	14.867	0.18182	0.	-2084.8
21360	14.775	0.18182	5.e-002	-0.17192
21361	14.775	9.0909e-002	0.	-2102.9
21362	15.052	0.18182	0.	-2038.3
21363	14.959	0.18182	5.e-002	-0.17804
21364	14.959	9.0909e-002	0.	-2056.1
21365	15.236	0.18182	0.	-1991.9
21366	15.144	0.18182	5.e-002	-0.18325
21367	15.144	9.0909e-002	0.	-2009.5
21368	15.421	0.18182	0.	-1945.7
21369	15.328	0.18182	5.e-002	-0.1876
21370	15.328	9.0909e-002	0.	-1963.2
21371	15.605	0.18182	0.	-1899.7
21372	15.513	0.18182	5.e-002	-0.19117
21373	15.513	9.0909e-002	0.	-1917.
21374	15.79	0.18182	0.	-1854.
21375	15.697	0.18182	5.e-002	-0.19405
21376	15.697	9.0909e-002	0.	-1871.
21377	15.974	0.18182	0.	-1808.4
21378	15.882	0.18182	5.e-002	-0.19633
21379	15.882	9.0909e-002	0.	-1825.3
21380	16.159	0.18182	0.	-1763.
21381	16.066	0.18182	5.e-002	-0.19812
21382	16.066	9.0909e-002	0.	-1779.7
21383	16.343	0.18182	0.	-1717.8
21384	16.251	0.18182	5.e-002	-0.19953
21385	16.251	9.0909e-002	0.	-1734.4
21386	16.528	0.18182	0.	-1672.9
21387	16.435	0.18182	5.e-002	-0.20074
21388	16.435	9.0909e-002	0.	-1689.2
21389	16.712	0.18182	0.	-1628.1
21390	16.62	0.18182	5.e-002	-0.20187
21391	16.62	9.0909e-002	0.	-1644.2
21392	16.897	0.18182	0.	-1583.5
21393	16.804	0.18182	5.e-002	-0.20312
21394	16.804	9.0909e-002	0.	-1599.4
21395	17.081	0.18182	0.	-1539.1
21396	16.989	0.18182	5.e-002	-0.20473
21397	16.989	9.0909e-002	0.	-1554.9
21398	17.266	0.18182	0.	-1494.9
21399	17.173	0.18182	5.e-002	-0.20697
21400	17.173	9.0909e-002	0.	-1510.5
21401	17.45	0.18182	0.	-1450.9
21402	17.358	0.18182	5.e-002	-0.21011
21403	17.358	9.0909e-002	0.	-1466.3
21404	17.635	0.18182	0.	-1407.1
21405	17.542	0.18182	5.e-002	-0.2145
21406	17.542	9.0909e-002	0.	-1422.3
21407	17.819	0.18182	0.	-1363.5
21408	17.727	0.18182	5.e-002	-0.22048
21409	17.727	9.0909e-002	0.	-1378.5
21410	18.004	0.18182	0.	-1320.1
21411	17.911	0.18182	5.e-002	-0.22841
21412	17.911	9.0909e-002	0.	-1334.8
21413	18.188	0.18182	0.	-1276.8
21414	18.096	0.18182	5.e-002	-0.23864
21415	18.096	9.0909e-002	0.	-1291.4
21416	18.373	0.18182	0.	-1233.8
21417	18.28	0.18182	5.e-002	-0.25151
21418	18.28	9.0909e-002	0.	-1248.1
21419	18.557	0.18182	0.	-1190.9
21420	18.465	0.18182	5.e-002	-0.26734
21421	18.465	9.0909e-002	0.	-1205.1
21422	18.742	0.18182	0.	-1148.2
21423	18.649	0.18182	5.e-002	-0.28637
21424	18.649	9.0909e-002	0.	-1162.2
21425	18.926	0.18182	0.	-1105.7
21426	18.834	0.18182	5.e-002	-0.30884
21427	18.834	9.0909e-002	0.	-1119.4
21428	19.111	0.18182	0.	-1063.3
21429	19.018	0.18182	5.e-002	-0.33497
21430	19.018	9.0909e-002	0.	-1076.9
21431	19.295	0.18182	0.	-1021.1
21432	19.203	0.18182	5.e-002	-0.36493
21433	19.203	9.0909e-002	0.	-1034.5
21434	19.48	0.18182	0.	-979.11
21435	19.387	0.18182	5.e-002	-0.3989
21436	19.387	9.0909e-002	0.	-992.34
21437	19.664	0.18182	0.	-937.26
21438	19.572	0.18182	5.e-002	-0.43707
21439	19.572	9.0909e-002	0.	-950.31
21440	19.849	0.18182	0.	-895.58
21441	19.756	0.18182	5.e-002	-0.47964
21442	19.756	9.0909e-002	0.	-908.44
21443	20.033	0.18182	0.	-854.04
21444	19.941	0.18182	5.e-002	-0.5268
21445	19.941	9.0909e-002	0.	-866.74
21446	20.218	0.18182	0.	-812.66
21447	20.125	0.18182	5.e-002	-0.57883
21448	20.125	9.0909e-002	0.	-825.2
21449	20.402	0.18182	0.	-771.43
21450	20.31	0.18182	5.e-002	-0.63597
21451	20.31	9.0909e-002	0.	-783.81
21452	20.587	0.18182	0.	-730.34
21453	20.494	0.18182	5.e-002	-0.69853
21454	20.494	9.0909e-002	0.	-742.58
21455	20.771	0.18182	0.	-689.4
21456	20.679	0.18182	5.e-002	-0.76685
21457	20.679	9.0909e-002	0.	-701.5
21458	20.956	0.18182	0.	-648.58
21459	20.863	0.18182	5.e-002	-0.8413
21460	20.863	9.0909e-002	0.	-660.56
21461	21.14	0.18182	0.	-607.9
21462	21.048	0.18182	5.e-002	-0.9223
21463	21.048	9.0909e-002	0.	-619.78
21464	21.325	0.18182	0.	-567.34
21465	21.232	0.18182	5.e-002	-1.0103
21466	21.232	9.0909e-002	0.	-579.14
21467	21.509	0.18182	0.	-526.91
21468	21.417	0.18182	5.e-002	-1.1059
21469	21.417	9.0909e-002	0.	-538.64
21470	21.694	0.18182	0.	-486.6
21471	21.601	0.18182	5.e-002	-1.2095
21472	21.601	9.0909e-002	0.	-498.29
21473	21.878	0.18182	0.	-446.41
21474	21.786	0.18182	5.e-002	-1.322
21475	21.786	9.0909e-002	0.	-458.09
21476	22.063	0.18182	0.	-406.34
21477	21.97	0.18182	5.e-002	-1.4441
21478	21.97	9.0909e-002	0.	-418.05
21479	22.247	0.18182	0.	-366.39
21480	22.155	0.18182	5.e-002	-1.5766
21481	22.155	9.0909e-002	0.	-378.17
21482	22.432	0.18182	0.	-326.57
21483	22.339	0.18182	5.e-002	-1.7207
21484	22.339	9.0909e-002	0.	-338.46
21485	22.616	0.18182	0.	-286.88
21486	22.524	0.18182	5.e-002	-1.8776
21487	22.524	9.0909e-002	0.	-298.95
21488	22.801	0.18182	0.	-247.36
21489	22.708	0.18182	5.e-002	-2.0491
21490	22.708	9.0909e-002	0.	-259.66
21491	22.985	0.18182	0.	-208.02
21492	22.893	0.18182	5.e-002	-2.2375
21493	22.893	9.0909e-002	0.	-220.64
21494	23.17	0.18182	0.	-168.91
21495	23.077	0.18182	5.e-002	-2.446
21496	23.077	9.0909e-002	0.	-181.94
21497	23.354	0.18182	0.	-130.14
21498	23.262	0.18182	5.e-002	-2.6801
21499	23.262	9.0909e-002	0.	-143.68
21500	23.539	0.18182	0.	-91.885
21501	23.446	0.18182	5.e-002	-2.9474
21502	23.446	9.0909e-002	0.	-106.01
21503	23.723	0.18182	0.	-55.004
21504	23.631	0.18182	5.e-002	-3.2825
21505	23.631	9.0909e-002	0.	-69.264
21506	23.815	0.18182	5.e-002	-3.9991
21507	23.815	9.0909e-002	0.	-34.569
21508	23.908	0.18182	0.	-20.581
21509	23.723	0.18182	0.1	-33.699
21510	23.815	0.27273	0.1	-45.52
21511	23.908	0.18182	0.1	-34.931
21512	23.815	9.0909e-002	0.1	-21.461
21513	23.539	0.18182	0.1	-33.395
21514	23.631	0.27273	0.1	-41.733
21515	23.631	9.0909e-002	0.1	-22.146
21516	23.354	0.18182	0.1	-33.738
21517	23.446	0.27273	0.1	-40.046
21518	23.446	9.0909e-002	0.1	-22.582
21519	23.17	0.18182	0.1	-34.017
21520	23.262	0.27273	0.1	-39.036
21521	23.262	9.0909e-002	0.1	-22.88
21522	22.985	0.18182	0.1	-34.158
21523	23.077	0.27273	0.1	-38.257
21524	23.077	9.0909e-002	0.1	-23.009
21525	22.801	0.18182	0.1	-34.169
21526	22.893	0.27273	0.1	-37.567
21527	22.893	9.0909e-002	0.1	-23.024
21528	22.616	0.18182	0.1	-34.067
21529	22.708	0.27273	0.1	-36.906
21530	22.708	9.0909e-002	0.1	-22.95
21531	22.432	0.18182	0.1	-33.873
21532	22.524	0.27273	0.1	-36.25
21533	22.524	9.0909e-002	0.1	-22.809
21534	22.247	0.18182	0.1	-33.605
21535	22.339	0.27273	0.1	-35.591
21536	22.339	9.0909e-002	0.1	-22.616
21537	22.063	0.18182	0.1	-33.276
21538	22.155	0.27273	0.1	-34.927
21539	22.155	9.0909e-002	0.1	-22.383
21540	21.878	0.18182	0.1	-32.9
21541	21.97	0.27273	0.1	-34.257
21542	21.97	9.0909e-002	0.1	-22.118
21543	21.694	0.18182	0.1	-32.485
21544	21.786	0.27273	0.1	-33.584
21545	21.786	9.0909e-002	0.1	-21.829
21546	21.509	0.18182	0.1	-32.041
21547	21.601	0.27273	0.1	-32.911
21548	21.601	9.0909e-002	0.1	-21.522
21549	21.325	0.18182	0.1	-31.573
21550	21.417	0.27273	0.1	-32.239
21551	21.417	9.0909e-002	0.1	-21.2
21552	21.14	0.18182	0.1	-31.089
21553	21.232	0.27273	0.1	-31.572
21554	21.232	9.0909e-002	0.1	-20.868
21555	20.956	0.18182	0.1	-30.593
21556	21.048	0.27273	0.1	-30.911
21557	21.048	9.0909e-002	0.1	-20.53
21558	20.771	0.18182	0.1	-30.089
21559	20.863	0.27273	0.1	-30.259
21560	20.863	9.0909e-002	0.1	-20.187
21561	20.587	0.18182	0.1	-29.581
21562	20.679	0.27273	0.1	-29.617
21563	20.679	9.0909e-002	0.1	-19.841
21564	20.402	0.18182	0.1	-29.071
21565	20.494	0.27273	0.1	-28.987
21566	20.494	9.0909e-002	0.1	-19.496
21567	20.218	0.18182	0.1	-28.562
21568	20.31	0.27273	0.1	-28.369
21569	20.31	9.0909e-002	0.1	-19.151
21570	20.033	0.18182	0.1	-28.056
21571	20.125	0.27273	0.1	-27.765
21572	20.125	9.0909e-002	0.1	-18.81
21573	19.849	0.18182	0.1	-27.555
21574	19.941	0.27273	0.1	-27.175
21575	19.941	9.0909e-002	0.1	-18.472
21576	19.664	0.18182	0.1	-27.06
21577	19.756	0.27273	0.1	-26.6
21578	19.756	9.0909e-002	0.1	-18.138
21579	19.48	0.18182	0.1	-26.572
21580	19.572	0.27273	0.1	-26.04
21581	19.572	9.0909e-002	0.1	-17.81
21582	19.295	0.18182	0.1	-26.093
21583	19.387	0.27273	0.1	-25.495
21584	19.387	9.0909e-002	0.1	-17.487
21585	19.111	0.18182	0.1	-25.622
21586	19.203	0.27273	0.1	-24.966
21587	19.203	9.0909e-002	0.1	-17.17
21588	18.926	0.18182	0.1	-25.16
21589	19.018	0.27273	0.1	-24.451
21590	19.018	9.0909e-002	0.1	-16.86
21591	18.742	0.18182	0.1	-24.708
21592	18.834	0.27273	0.1	-23.952
21593	18.834	9.0909e-002	0.1	-16.556
21594	18.557	0.18182	0.1	-24.265
21595	18.649	0.27273	0.1	-23.467
21596	18.649	9.0909e-002	0.1	-16.259
21597	18.373	0.18182	0.1	-23.832
21598	18.465	0.27273	0.1	-22.996
21599	18.465	9.0909e-002	0.1	-15.969
21600	18.188	0.18182	0.1	-23.409
21601	18.28	0.27273	0.1	-22.539
21602	18.28	9.0909e-002	0.1	-15.685
21603	18.004	0.18182	0.1	-22.996
21604	18.096	0.27273	0.1	-22.096
21605	18.096	9.0909e-002	0.1	-15.409
21606	17.819	0.18182	0.1	-22.593
21607	17.911	0.27273	0.1	-21.665
21608	17.911	9.0909e-002	0.1	-15.139
21609	17.635	0.18182	0.1	-22.198
21610	17.727	0.27273	0.1	-21.246
21611	17.727	9.0909e-002	0.1	-14.875
21612	17.45	0.18182	0.1	-21.813
21613	17.542	0.27273	0.1	-20.839
21614	17.542	9.0909e-002	0.1	-14.617
21615	17.266	0.18182	0.1	-21.436
21616	17.358	0.27273	0.1	-20.443
21617	17.358	9.0909e-002	0.1	-14.366
21618	17.081	0.18182	0.1	-21.068
21619	17.173	0.27273	0.1	-20.057
21620	17.173	9.0909e-002	0.1	-14.12
21621	16.897	0.18182	0.1	-20.707
21622	16.989	0.27273	0.1	-19.681
21623	16.989	9.0909e-002	0.1	-13.88
21624	16.712	0.18182	0.1	-20.354
21625	16.804	0.27273	0.1	-19.314
21626	16.804	9.0909e-002	0.1	-13.645
21627	16.528	0.18182	0.1	-20.007
21628	16.62	0.27273	0.1	-18.954
21629	16.62	9.0909e-002	0.1	-13.415
21630	16.343	0.18182	0.1	-19.667
21631	16.435	0.27273	0.1	-18.602
21632	16.435	9.0909e-002	0.1	-13.19
21633	16.159	0.18182	0.1	-19.333
21634	16.251	0.27273	0.1	-18.257
21635	16.251	9.0909e-002	0.1	-12.968
21636	15.974	0.18182	0.1	-19.004
21637	16.066	0.27273	0.1	-17.917
21638	16.066	9.0909e-002	0.1	-12.751
21639	15.79	0.18182	0.1	-18.679
21640	15.882	0.27273	0.1	-17.582
21641	15.882	9.0909e-002	0.1	-12.537
21642	15.605	0.18182	0.1	-18.359
21643	15.697	0.27273	0.1	-17.252
21644	15.697	9.0909e-002	0.1	-12.326
21645	15.421	0.18182	0.1	-18.041
21646	15.513	0.27273	0.1	-16.925
21647	15.513	9.0909e-002	0.1	-12.118
21648	15.236	0.18182	0.1	-17.727
21649	15.328	0.27273	0.1	-16.6
21650	15.328	9.0909e-002	0.1	-11.913
21651	15.052	0.18182	0.1	-17.414
21652	15.144	0.27273	0.1	-16.277
21653	15.144	9.0909e-002	0.1	-11.709
21654	14.867	0.18182	0.1	-17.103
21655	14.959	0.27273	0.1	-15.954
21656	14.959	9.0909e-002	0.1	-11.507
21657	14.683	0.18182	0.1	-16.792
21658	14.775	0.27273	0.1	-15.631
21659	14.775	9.0909e-002	0.1	-11.306
21660	14.498	0.18182	0.1	-16.481
21661	14.59	0.27273	0.1	-15.307
21662	14.59	9.0909e-002	0.1	-11.105
21663	14.314	0.18182	0.1	-16.169
21664	14.406	0.27273	0.1	-14.981
21665	14.406	9.0909e-002	0.1	-10.905
21666	14.129	0.18182	0.1	-15.855
21667	14.221	0.27273	0.1	-14.652
21668	14.221	9.0909e-002	0.1	-10.704
21669	13.945	0.18182	0.1	-15.539
21670	14.037	0.27273	0.1	-14.318
21671	14.037	9.0909e-002	0.1	-10.502
21672	13.76	0.18182	0.1	-15.219
21673	13.852	0.27273	0.1	-13.979
21674	13.852	9.0909e-002	0.1	-10.299
21675	13.576	0.18182	0.1	-14.894
21676	13.668	0.27273	0.1	-13.634
21677	13.668	9.0909e-002	0.1	-10.094
21678	13.391	0.18182	0.1	-14.564
21679	13.483	0.27273	0.1	-13.28
21680	13.483	9.0909e-002	0.1	-9.8867
21681	13.207	0.18182	0.1	-14.228
21682	13.299	0.27273	0.1	-12.918
21683	13.299	9.0909e-002	0.1	-9.6761
21684	13.022	0.18182	0.1	-13.884
21685	13.114	0.27273	0.1	-12.545
21686	13.114	9.0909e-002	0.1	-9.4619
21687	12.838	0.18182	0.1	-13.532
21688	12.93	0.27273	0.1	-12.161
21689	12.93	9.0909e-002	0.1	-9.2433
21690	12.653	0.18182	0.1	-13.17
21691	12.745	0.27273	0.1	-11.764
21692	12.745	9.0909e-002	0.1	-9.0198
21693	12.469	0.18182	0.1	-12.797
21694	12.561	0.27273	0.1	-11.352
21695	12.561	9.0909e-002	0.1	-8.7908
21696	12.284	0.18182	0.1	-12.413
21697	12.376	0.27273	0.1	-10.924
21698	12.376	9.0909e-002	0.1	-8.5554
21699	12.1	0.18182	0.1	-12.015
21700	12.192	0.27273	0.1	-10.479
21701	12.192	9.0909e-002	0.1	-8.313
21702	11.915	0.18182	0.1	-11.603
21703	12.007	0.27273	0.1	-10.014
21704	12.007	9.0909e-002	0.1	-8.063
21705	11.731	0.18182	0.1	-11.175
21706	11.823	0.27273	0.1	-9.529
21707	11.823	9.0909e-002	0.1	-7.8045
21708	11.546	0.18182	0.1	-10.731
21709	11.638	0.27273	0.1	-9.0216
21710	11.638	9.0909e-002	0.1	-7.537
21711	11.362	0.18182	0.1	-10.269
21712	11.454	0.27273	0.1	-8.4901
21713	11.454	9.0909e-002	0.1	-7.2596
21714	11.177	0.18182	0.1	-9.7876
21715	11.269	0.27273	0.1	-7.9332
21716	11.269	9.0909e-002	0.1	-6.9717
21717	10.993	0.18182	0.1	-9.2864
21718	11.085	0.27273	0.1	-7.3492
21719	11.085	9.0909e-002	0.1	-6.6727
21720	10.808	0.18182	0.1	-8.764
21721	10.9	0.27273	0.1	-6.7369
21722	10.9	9.0909e-002	0.1	-6.362
21723	10.624	0.18182	0.1	-8.22
21724	10.716	0.27273	0.1	-6.0949
21725	10.716	9.0909e-002	0.1	-6.0389
21726	10.439	0.18182	0.1	-7.6537
21727	10.531	0.27273	0.1	-5.4225
21728	10.531	9.0909e-002	0.1	-5.7033
21729	10.255	0.18182	0.1	-7.0649
21730	10.347	0.27273	0.1	-4.7191
21731	10.347	9.0909e-002	0.1	-5.3547
21732	10.07	0.18182	0.1	-6.454
21733	10.162	0.27273	0.1	-3.9848
21734	10.162	9.0909e-002	0.1	-4.9933
21735	9.8855	0.18182	0.1	-5.8217
21736	9.9778	0.27273	0.1	-3.2205
21737	9.9778	9.0909e-002	0.1	-4.6191
21738	9.701	0.18182	0.1	-5.1698
21739	9.7933	0.27273	0.1	-2.4292
21740	9.7933	9.0909e-002	0.1	-4.2329
21741	9.5165	0.18182	0.1	-4.5007
21742	9.6088	0.27273	0.1	-1.6182
21743	9.6088	9.0909e-002	0.1	-3.8355
21744	9.332	0.18182	0.1	-3.8188
21745	9.4243	0.27273	0.1	-0.81704
21746	9.4243	9.0909e-002	0.1	-3.4286
21747	9.1475	0.18182	0.1	-3.1304
21748	9.2398	0.27273	0.1	-0.23633
21749	9.2398	9.0909e-002	0.1	-3.0146
21750	8.963	0.18182	0.1	-2.4456
21751	9.0553	0.27273	0.1	-0.10173
21752	9.0553	9.0909e-002	0.1	-2.5966
21753	8.7785	0.18182	0.1	-1.782
21754	8.8708	0.27273	0.1	-7.301e-002
21755	8.8708	9.0909e-002	0.1	-2.1793
21756	8.594	0.18182	0.1	-1.175
21757	8.6863	0.27273	0.1	-6.2991e-002
21758	8.6863	9.0909e-002	0.1	-1.7691
21759	8.4095	0.18182	0.1	-0.69593
21760	8.5018	0.27273	0.1	-5.907e-002
21761	8.5018	9.0909e-002	0.1	-1.3753
21762	8.225	0.18182	0.1	-0.41506
21763	8.3173	0.27273	0.1	-5.7941e-002
21764	8.3173	9.0909e-002	0.1	-1.0117
21765	8.0405	0.18182	0.1	-0.28607
21766	8.1327	0.27273	0.1	-5.84e-002
21767	8.1327	9.0909e-002	0.1	-0.69956
21768	7.856	0.18182	0.1	-0.22666
21769	7.9482	0.27273	0.1	-5.992e-002
21770	7.9482	9.0909e-002	0.1	-0.46532
21771	7.6715	0.18182	0.1	-0.19771
21772	7.7637	0.27273	0.1	-6.2273e-002
21773	7.7637	9.0909e-002	0.1	-0.31964
21774	7.487	0.18182	0.1	-0.18487
21775	7.5792	0.27273	0.1	-6.5413e-002
21776	7.5792	9.0909e-002	0.1	-0.24012
21777	7.3025	0.18182	0.1	-0.18361
21778	7.3947	0.27273	0.1	-6.9482e-002
21779	7.3947	9.0909e-002	0.1	-0.19742
21780	7.118	0.18182	0.1	-0.19524
21781	7.2102	0.27273	0.1	-7.4906e-002
21782	7.2102	9.0909e-002	0.1	-0.17481
21783	6.9335	0.18182	0.1	-0.23108
21784	7.0257	0.27273	0.1	-8.275e-002
21785	7.0257	9.0909e-002	0.1	-0.16755
21786	6.749	0.18182	0.1	-0.34568
21787	6.8412	0.27273	0.1	-9.5803e-002
21788	6.8412	9.0909e-002	0.1	-0.19498
21789	6.5645	0.18182	0.1	-0.87003
21790	6.6567	0.27273	0.1	-0.12316
21791	6.6567	9.0909e-002	0.1	-0.47824
21792	6.38	0.18182	0.1	-2.3732
21793	6.4722	0.27273	0.1	-0.21324
21794	6.4722	9.0909e-002	0.1	-1.2267
21795	6.1955	0.18182	0.1	-4.693
21796	6.2877	0.27273	0.1	-1.0981
21797	6.2877	9.0909e-002	0.1	-2.3255
21798	6.011	0.18182	0.1	-7.7904
21799	6.1032	0.27273	0.1	-4.5198
21800	6.1032	9.0909e-002	0.1	-3.8049
21801	5.8265	0.18182	0.1	-11.756
21802	5.9187	0.27273	0.1	-9.2876
21803	5.9187	9.0909e-002	0.1	-5.7251
21804	5.642	0.18182	0.1	-16.709
21805	5.7342	0.27273	0.1	-15.309
21806	5.7342	9.0909e-002	0.1	-8.154
21807	5.4575	0.18182	0.1	-22.768
21808	5.5497	0.27273	0.1	-22.71
21809	5.5497	9.0909e-002	0.1	-11.162
21810	5.273	0.18182	0.1	-30.045
21811	5.3652	0.27273	0.1	-31.614
21812	5.3652	9.0909e-002	0.1	-14.817
21813	5.0885	0.18182	0.1	-38.617
21814	5.1807	0.27273	0.1	-42.102
21815	5.1807	9.0909e-002	0.1	-19.175
21816	4.9039	0.18182	0.1	-48.499
21817	4.9962	0.27273	0.1	-54.175
21818	4.9962	9.0909e-002	0.1	-24.265
21819	4.7194	0.18182	0.1	-59.595
21820	4.8117	0.27273	0.1	-67.697
21821	4.8117	9.0909e-002	0.1	-30.066
21822	4.5349	0.18182	0.1	-71.637
21823	4.6272	0.27273	0.1	-82.326
21824	4.6272	9.0909e-002	0.1	-36.474
21825	4.3504	0.18182	0.1	-84.106
21826	4.4427	0.27273	0.1	-97.429
21827	4.4427	9.0909e-002	0.1	-43.253
21828	4.1659	0.18182	0.1	-96.143
21829	4.2582	0.27273	0.1	-112.
21830	4.2582	9.0909e-002	0.1	-49.972
21831	3.9814	0.18182	0.1	-106.48
21832	4.0737	0.27273	0.1	-124.63
21833	4.0737	9.0909e-002	0.1	-55.936
21834	3.7969	0.18182	0.1	-113.51
21835	3.8892	0.27273	0.1	-133.65
21836	3.8892	9.0909e-002	0.1	-60.103
21837	3.6124	0.18182	0.1	-115.38
21838	3.7047	0.27273	0.1	-137.8
21839	3.7047	9.0909e-002	0.1	-61.134
21840	3.4279	0.18182	0.1	-112.96
21841	3.5202	0.27273	0.1	-137.85
21842	3.5202	9.0909e-002	0.1	-57.187
21843	3.2434	0.18182	0.1	-124.15
21844	3.3357	0.27273	0.1	-146.91
21845	3.3357	9.0909e-002	0.1	-49.799
21846	3.1512	0.27273	0.1	-239.47
21847	3.0589	0.18182	0.1	-72.886
21848	3.1512	9.0909e-002	0.1	-60.706
21849	23.723	0.36364	0.1	-54.204
21850	23.815	0.45455	0.1	-67.465
21851	23.908	0.36364	0.1	-60.45
21852	23.539	0.36364	0.1	-49.088
21853	23.631	0.45455	0.1	-59.979
21854	23.354	0.36364	0.1	-45.97
21855	23.446	0.45455	0.1	-54.946
21856	23.17	0.36364	0.1	-43.816
21857	23.262	0.45455	0.1	-51.385
21858	22.985	0.36364	0.1	-42.137
21859	23.077	0.45455	0.1	-48.639
21860	22.801	0.36364	0.1	-40.723
21861	22.893	0.45455	0.1	-46.397
21862	22.616	0.36364	0.1	-39.467
21863	22.708	0.45455	0.1	-44.476
21864	22.432	0.36364	0.1	-38.315
21865	22.524	0.45455	0.1	-42.774
21866	22.247	0.36364	0.1	-37.234
21867	22.339	0.45455	0.1	-41.229
21868	22.063	0.36364	0.1	-36.207
21869	22.155	0.45455	0.1	-39.804
21870	21.878	0.36364	0.1	-35.224
21871	21.97	0.45455	0.1	-38.472
21872	21.694	0.36364	0.1	-34.278
21873	21.786	0.45455	0.1	-37.219
21874	21.509	0.36364	0.1	-33.365
21875	21.601	0.45455	0.1	-36.032
21876	21.325	0.36364	0.1	-32.482
21877	21.417	0.45455	0.1	-34.904
21878	21.14	0.36364	0.1	-31.629
21879	21.232	0.45455	0.1	-33.83
21880	20.956	0.36364	0.1	-30.804
21881	21.048	0.45455	0.1	-32.804
21882	20.771	0.36364	0.1	-30.007
21883	20.863	0.45455	0.1	-31.823
21884	20.587	0.36364	0.1	-29.236
21885	20.679	0.45455	0.1	-30.885
21886	20.402	0.36364	0.1	-28.492
21887	20.494	0.45455	0.1	-29.988
21888	20.218	0.36364	0.1	-27.773
21889	20.31	0.45455	0.1	-29.13
21890	20.033	0.36364	0.1	-27.08
21891	20.125	0.45455	0.1	-28.308
21892	19.849	0.36364	0.1	-26.411
21893	19.941	0.45455	0.1	-27.522
21894	19.664	0.36364	0.1	-25.766
21895	19.756	0.45455	0.1	-26.769
21896	19.48	0.36364	0.1	-25.145
21897	19.572	0.45455	0.1	-26.048
21898	19.295	0.36364	0.1	-24.546
21899	19.387	0.45455	0.1	-25.358
21900	19.111	0.36364	0.1	-23.97
21901	19.203	0.45455	0.1	-24.696
21902	18.926	0.36364	0.1	-23.414
21903	19.018	0.45455	0.1	-24.063
21904	18.742	0.36364	0.1	-22.878
21905	18.834	0.45455	0.1	-23.456
21906	18.557	0.36364	0.1	-22.362
21907	18.649	0.45455	0.1	-22.874
21908	18.373	0.36364	0.1	-21.864
21909	18.465	0.45455	0.1	-22.315
21910	18.188	0.36364	0.1	-21.384
21911	18.28	0.45455	0.1	-21.779
21912	18.004	0.36364	0.1	-20.92
21913	18.096	0.45455	0.1	-21.263
21914	17.819	0.36364	0.1	-20.472
21915	17.911	0.45455	0.1	-20.767
21916	17.635	0.36364	0.1	-20.038
21917	17.727	0.45455	0.1	-20.289
21918	17.45	0.36364	0.1	-19.618
21919	17.542	0.45455	0.1	-19.827
21920	17.266	0.36364	0.1	-19.21
21921	17.358	0.45455	0.1	-19.381
21922	17.081	0.36364	0.1	-18.814
21923	17.173	0.45455	0.1	-18.95
21924	16.897	0.36364	0.1	-18.429
21925	16.989	0.45455	0.1	-18.531
21926	16.712	0.36364	0.1	-18.053
21927	16.804	0.45455	0.1	-18.124
21928	16.528	0.36364	0.1	-17.686
21929	16.62	0.45455	0.1	-17.727
21930	16.343	0.36364	0.1	-17.327
21931	16.435	0.45455	0.1	-17.34
21932	16.159	0.36364	0.1	-16.974
21933	16.251	0.45455	0.1	-16.96
21934	15.974	0.36364	0.1	-16.627
21935	16.066	0.45455	0.1	-16.588
21936	15.79	0.36364	0.1	-16.284
21937	15.882	0.45455	0.1	-16.22
21938	15.605	0.36364	0.1	-15.945
21939	15.697	0.45455	0.1	-15.857
21940	15.421	0.36364	0.1	-15.609
21941	15.513	0.45455	0.1	-15.497
21942	15.236	0.36364	0.1	-15.274
21943	15.328	0.45455	0.1	-15.139
21944	15.052	0.36364	0.1	-14.939
21945	15.144	0.45455	0.1	-14.78
21946	14.867	0.36364	0.1	-14.604
21947	14.959	0.45455	0.1	-14.421
21948	14.683	0.36364	0.1	-14.266
21949	14.775	0.45455	0.1	-14.06
21950	14.498	0.36364	0.1	-13.925
21951	14.59	0.45455	0.1	-13.694
21952	14.314	0.36364	0.1	-13.58
21953	14.406	0.45455	0.1	-13.324
21954	14.129	0.36364	0.1	-13.229
21955	14.221	0.45455	0.1	-12.947
21956	13.945	0.36364	0.1	-12.872
21957	14.037	0.45455	0.1	-12.562
21958	13.76	0.36364	0.1	-12.505
21959	13.852	0.45455	0.1	-12.166
21960	13.576	0.36364	0.1	-12.129
21961	13.668	0.45455	0.1	-11.76
21962	13.391	0.36364	0.1	-11.742
21963	13.483	0.45455	0.1	-11.34
21964	13.207	0.36364	0.1	-11.342
21965	13.299	0.45455	0.1	-10.905
21966	13.022	0.36364	0.1	-10.927
21967	13.114	0.45455	0.1	-10.453
21968	12.838	0.36364	0.1	-10.497
21969	12.93	0.45455	0.1	-9.9825
21970	12.653	0.36364	0.1	-10.048
21971	12.745	0.45455	0.1	-9.4907
21972	12.469	0.36364	0.1	-9.5798
21973	12.561	0.45455	0.1	-8.976
21974	12.284	0.36364	0.1	-9.0898
21975	12.376	0.45455	0.1	-8.4358
21976	12.1	0.36364	0.1	-8.5763
21977	12.192	0.45455	0.1	-7.868
21978	11.915	0.36364	0.1	-8.0372
21979	12.007	0.45455	0.1	-7.2702
21980	11.731	0.36364	0.1	-7.4706
21981	11.823	0.45455	0.1	-6.6399
21982	11.546	0.36364	0.1	-6.8744
21983	11.638	0.45455	0.1	-5.9746
21984	11.362	0.36364	0.1	-6.2466
21985	11.454	0.45455	0.1	-5.2719
21986	11.177	0.36364	0.1	-5.5852
21987	11.269	0.45455	0.1	-4.5292
21988	10.993	0.36364	0.1	-4.8885
21989	11.085	0.45455	0.1	-3.7442
21990	10.808	0.36364	0.1	-4.1545
21991	10.9	0.45455	0.1	-2.9146
21992	10.624	0.36364	0.1	-3.3821
21993	10.716	0.45455	0.1	-2.0381
21994	10.439	0.36364	0.1	-2.5701
21995	10.531	0.45455	0.1	-1.1132
21996	10.255	0.36364	0.1	-1.7181
21997	10.347	0.45455	0.1	-0.13857
21998	10.07	0.36364	0.1	-0.82827
21999	10.162	0.45455	0.1	-9.5077e-003
22000	9.8855	0.36364	0.1	-5.5473e-002
22001	9.9778	0.45455	0.1	-1.0919e-002
22002	9.701	0.36364	0.1	-2.7394e-002
22003	9.7933	0.45455	0.1	-1.2449e-002
22004	9.5165	0.36364	0.1	-2.7319e-002
22005	9.6088	0.45455	0.1	-1.4101e-002
22006	9.332	0.36364	0.1	-2.9037e-002
22007	9.4243	0.45455	0.1	-1.5881e-002
22008	9.1475	0.36364	0.1	-3.136e-002
22009	9.2398	0.45455	0.1	-1.7796e-002
22010	8.963	0.36364	0.1	-3.4022e-002
22011	9.0553	0.45455	0.1	-1.9856e-002
22012	8.7785	0.36364	0.1	-3.6923e-002
22013	8.8708	0.45455	0.1	-2.2071e-002
22014	8.594	0.36364	0.1	-4.0015e-002
22015	8.6863	0.45455	0.1	-2.4453e-002
22016	8.4095	0.36364	0.1	-4.3266e-002
22017	8.5018	0.45455	0.1	-2.7017e-002
22018	8.225	0.36364	0.1	-4.6656e-002
22019	8.3173	0.45455	0.1	-2.9781e-002
22020	8.0405	0.36364	0.1	-5.0171e-002
22021	8.1327	0.45455	0.1	-3.2779e-002
22022	7.856	0.36364	0.1	-5.3807e-002
22023	7.9482	0.45455	0.1	-3.6056e-002
22024	7.6715	0.36364	0.1	-5.7588e-002
22025	7.7637	0.45455	0.1	-3.9676e-002
22026	7.487	0.36364	0.1	-6.16e-002
22027	7.5792	0.45455	0.1	-4.3757e-002
22028	7.3025	0.36364	0.1	-6.6055e-002
22029	7.3947	0.45455	0.1	-4.8507e-002
22030	7.118	0.36364	0.1	-7.1455e-002
22031	7.2102	0.45455	0.1	-5.4302e-002
22032	6.9335	0.36364	0.1	-7.8998e-002
22033	7.0257	0.45455	0.1	-6.1871e-002
22034	6.749	0.36364	0.1	-9.1839e-002
22035	6.8412	0.45455	0.1	-7.2742e-002
22036	6.5645	0.36364	0.1	-0.12016
22037	6.6567	0.45455	0.1	-9.0515e-002
22038	6.38	0.36364	0.1	-0.21599
22039	6.4722	0.45455	0.1	-0.12544
22040	6.1955	0.36364	0.1	-1.2207
22041	6.2877	0.45455	0.1	-0.21967
22042	6.011	0.36364	0.1	-6.084
22043	6.1032	0.45455	0.1	-0.79792
22044	5.8265	0.36364	0.1	-12.883
22045	5.9187	0.45455	0.1	-5.7322
22046	5.642	0.36364	0.1	-21.336
22047	5.7342	0.45455	0.1	-14.06
22048	5.4575	0.36364	0.1	-31.557
22049	5.5497	0.45455	0.1	-24.444
22050	5.273	0.36364	0.1	-43.634
22051	5.3652	0.45455	0.1	-36.942
22052	5.0885	0.36364	0.1	-57.563
22053	5.1807	0.45455	0.1	-51.623
22054	4.9039	0.36364	0.1	-73.182
22055	4.9962	0.45455	0.1	-68.447
22056	4.7194	0.36364	0.1	-90.097
22057	4.8117	0.45455	0.1	-87.195
22058	4.5349	0.36364	0.1	-107.58
22059	4.6272	0.45455	0.1	-107.38
22060	4.3504	0.36364	0.1	-124.5
22061	4.4427	0.45455	0.1	-128.2
22062	4.1659	0.36364	0.1	-139.27
22063	4.2582	0.45455	0.1	-148.46
22064	3.9814	0.36364	0.1	-150.05
22065	4.0737	0.45455	0.1	-166.77
22066	3.7969	0.36364	0.1	-155.43
22067	3.8892	0.45455	0.1	-182.07
22068	3.6124	0.36364	0.1	-156.29
22069	3.7047	0.45455	0.1	-195.35
22070	3.4279	0.36364	0.1	-163.59
22071	3.5202	0.45455	0.1	-213.79
22072	3.2434	0.36364	0.1	-234.05
22073	3.3357	0.45455	0.1	-266.42
22074	3.1512	0.45455	0.1	-465.75
22075	3.0589	0.36364	0.1	-238.86
22076	23.723	0.54545	0.1	-73.385
22077	23.815	0.63636	0.1	-86.113
22078	23.908	0.54545	0.1	-81.206
22079	23.539	0.54545	0.1	-66.04
22080	23.631	0.63636	0.1	-77.224
22081	23.354	0.54545	0.1	-60.588
22082	23.446	0.63636	0.1	-70.26
22083	23.17	0.54545	0.1	-56.429
22084	23.262	0.63636	0.1	-64.819
22085	22.985	0.54545	0.1	-53.101
22086	23.077	0.63636	0.1	-60.423
22087	22.801	0.54545	0.1	-50.331
22088	22.893	0.63636	0.1	-56.775
22089	22.616	0.54545	0.1	-47.944
22090	22.708	0.63636	0.1	-53.659
22091	22.432	0.54545	0.1	-45.833
22092	22.524	0.63636	0.1	-50.935
22093	22.247	0.54545	0.1	-43.93
22094	22.339	0.63636	0.1	-48.508
22095	22.063	0.54545	0.1	-42.187
22096	22.155	0.63636	0.1	-46.314
22097	21.878	0.54545	0.1	-40.575
22098	21.97	0.63636	0.1	-44.307
22099	21.694	0.54545	0.1	-39.073
22100	21.786	0.63636	0.1	-42.456
22101	21.509	0.54545	0.1	-37.664
22102	21.601	0.63636	0.1	-40.737
22103	21.325	0.54545	0.1	-36.337
22104	21.417	0.63636	0.1	-39.133
22105	21.14	0.54545	0.1	-35.084
22106	21.232	0.63636	0.1	-37.63
22107	20.956	0.54545	0.1	-33.898
22108	21.048	0.63636	0.1	-36.217
22109	20.771	0.54545	0.1	-32.773
22110	20.863	0.63636	0.1	-34.887
22111	20.587	0.54545	0.1	-31.705
22112	20.679	0.63636	0.1	-33.632
22113	20.402	0.54545	0.1	-30.691
22114	20.494	0.63636	0.1	-32.447
22115	20.218	0.54545	0.1	-29.727
22116	20.31	0.63636	0.1	-31.327
22117	20.033	0.54545	0.1	-28.809
22118	20.125	0.63636	0.1	-30.266
22119	19.849	0.54545	0.1	-27.936
22120	19.941	0.63636	0.1	-29.262
22121	19.664	0.54545	0.1	-27.105
22122	19.756	0.63636	0.1	-28.311
22123	19.48	0.54545	0.1	-26.313
22124	19.572	0.63636	0.1	-27.408
22125	19.295	0.54545	0.1	-25.559
22126	19.387	0.63636	0.1	-26.552
22127	19.111	0.54545	0.1	-24.84
22128	19.203	0.63636	0.1	-25.74
22129	18.926	0.54545	0.1	-24.154
22130	19.018	0.63636	0.1	-24.968
22131	18.742	0.54545	0.1	-23.499
22132	18.834	0.63636	0.1	-24.234
22133	18.557	0.54545	0.1	-22.873
22134	18.649	0.63636	0.1	-23.535
22135	18.373	0.54545	0.1	-22.275
22136	18.465	0.63636	0.1	-22.869
22137	18.188	0.54545	0.1	-21.702
22138	18.28	0.63636	0.1	-22.235
22139	18.004	0.54545	0.1	-21.153
22140	18.096	0.63636	0.1	-21.629
22141	17.819	0.54545	0.1	-20.626
22142	17.911	0.63636	0.1	-21.049
22143	17.635	0.54545	0.1	-20.119
22144	17.727	0.63636	0.1	-20.494
22145	17.45	0.54545	0.1	-19.631
22146	17.542	0.63636	0.1	-19.961
22147	17.266	0.54545	0.1	-19.161
22148	17.358	0.63636	0.1	-19.448
22149	17.081	0.54545	0.1	-18.706
22150	17.173	0.63636	0.1	-18.954
22151	16.897	0.54545	0.1	-18.264
22152	16.989	0.63636	0.1	-18.477
22153	16.712	0.54545	0.1	-17.836
22154	16.804	0.63636	0.1	-18.014
22155	16.528	0.54545	0.1	-17.418
22156	16.62	0.63636	0.1	-17.565
22157	16.343	0.54545	0.1	-17.01
22158	16.435	0.63636	0.1	-17.127
22159	16.159	0.54545	0.1	-16.61
22160	16.251	0.63636	0.1	-16.698
22161	15.974	0.54545	0.1	-16.217
22162	16.066	0.63636	0.1	-16.278
22163	15.79	0.54545	0.1	-15.828
22164	15.882	0.63636	0.1	-15.864
22165	15.605	0.54545	0.1	-15.443
22166	15.697	0.63636	0.1	-15.454
22167	15.421	0.54545	0.1	-15.061
22168	15.513	0.63636	0.1	-15.047
22169	15.236	0.54545	0.1	-14.678
22170	15.328	0.63636	0.1	-14.641
22171	15.052	0.54545	0.1	-14.295
22172	15.144	0.63636	0.1	-14.235
22173	14.867	0.54545	0.1	-13.91
22174	14.959	0.63636	0.1	-13.827
22175	14.683	0.54545	0.1	-13.52
22176	14.775	0.63636	0.1	-13.414
22177	14.498	0.54545	0.1	-13.125
22178	14.59	0.63636	0.1	-12.995
22179	14.314	0.54545	0.1	-12.722
22180	14.406	0.63636	0.1	-12.568
22181	14.129	0.54545	0.1	-12.31
22182	14.221	0.63636	0.1	-12.132
22183	13.945	0.54545	0.1	-11.887
22184	14.037	0.63636	0.1	-11.683
22185	13.76	0.54545	0.1	-11.451
22186	13.852	0.63636	0.1	-11.221
22187	13.576	0.54545	0.1	-11.
22188	13.668	0.63636	0.1	-10.742
22189	13.391	0.54545	0.1	-10.532
22190	13.483	0.63636	0.1	-10.245
22191	13.207	0.54545	0.1	-10.045
22192	13.299	0.63636	0.1	-9.7268
22193	13.022	0.54545	0.1	-9.5365
22194	13.114	0.63636	0.1	-9.1854
22195	12.838	0.54545	0.1	-9.0044
22196	12.93	0.63636	0.1	-8.6179
22197	12.653	0.54545	0.1	-8.4462
22198	12.745	0.63636	0.1	-8.0217
22199	12.469	0.54545	0.1	-7.8592
22200	12.561	0.63636	0.1	-7.394
22201	12.284	0.54545	0.1	-7.2408
22202	12.376	0.63636	0.1	-6.7316
22203	12.1	0.54545	0.1	-6.5883
22204	12.192	0.63636	0.1	-6.0315
22205	11.915	0.54545	0.1	-5.8989
22206	12.007	0.63636	0.1	-5.2905
22207	11.731	0.54545	0.1	-5.1696
22208	11.823	0.63636	0.1	-4.5053
22209	11.546	0.54545	0.1	-4.3975
22210	11.638	0.63636	0.1	-3.6725
22211	11.362	0.54545	0.1	-3.5796
22212	11.454	0.63636	0.1	-2.7888
22213	11.177	0.54545	0.1	-2.7131
22214	11.269	0.63636	0.1	-1.8511
22215	10.993	0.54545	0.1	-1.7953
22216	11.085	0.63636	0.1	-0.85794
22217	10.808	0.54545	0.1	-0.82426
22218	10.9	0.63636	0.1	-2.7208e-002
22219	10.624	0.54545	0.1	-1.1675e-002
22220	10.716	0.63636	0.1	-6.7289e-003
22221	10.439	0.54545	0.1	-4.5211e-003
22222	10.531	0.63636	0.1	-5.1872e-003
22223	10.255	0.54545	0.1	-4.4613e-003
22224	10.347	0.63636	0.1	-5.0198e-003
22225	10.07	0.54545	0.1	-4.9267e-003
22226	10.162	0.63636	0.1	-5.2749e-003
22227	9.8855	0.54545	0.1	-5.6013e-003
22228	9.9778	0.63636	0.1	-5.7632e-003
22229	9.701	0.54545	0.1	-6.4174e-003
22230	9.7933	0.63636	0.1	-6.4095e-003
22231	9.5165	0.54545	0.1	-7.3631e-003
22232	9.6088	0.63636	0.1	-7.1962e-003
22233	9.332	0.54545	0.1	-8.4414e-003
22234	9.4243	0.63636	0.1	-8.1204e-003
22235	9.1475	0.54545	0.1	-9.6642e-003
22236	9.2398	0.63636	0.1	-9.188e-003
22237	8.963	0.54545	0.1	-1.105e-002
22238	9.0553	0.63636	0.1	-1.0415e-002
22239	8.7785	0.54545	0.1	-1.2625e-002
22240	8.8708	0.63636	0.1	-1.1823e-002
22241	8.594	0.54545	0.1	-1.4423e-002
22242	8.6863	0.63636	0.1	-1.3443e-002
22243	8.4095	0.54545	0.1	-1.6488e-002
22244	8.5018	0.63636	0.1	-1.5315e-002
22245	8.225	0.54545	0.1	-1.8882e-002
22246	8.3173	0.63636	0.1	-1.749e-002
22247	8.0405	0.54545	0.1	-2.1689e-002
22248	8.1327	0.63636	0.1	-2.0048e-002
22249	7.856	0.54545	0.1	-2.5021e-002
22250	7.9482	0.63636	0.1	-2.3087e-002
22251	7.6715	0.54545	0.1	-2.9042e-002
22252	7.7637	0.63636	0.1	-2.6742e-002
22253	7.487	0.54545	0.1	-3.4002e-002
22254	7.5792	0.63636	0.1	-3.1218e-002
22255	7.3025	0.54545	0.1	-4.0296e-002
22256	7.3947	0.63636	0.1	-3.6821e-002
22257	7.118	0.54545	0.1	-4.8588e-002
22258	7.2102	0.63636	0.1	-4.4036e-002
22259	6.9335	0.54545	0.1	-6.0073e-002
22260	7.0257	0.63636	0.1	-5.3664e-002
22261	6.749	0.54545	0.1	-7.7122e-002
22262	6.8412	0.63636	0.1	-6.7129e-002
22263	6.5645	0.54545	0.1	-0.1051
22264	6.6567	0.63636	0.1	-8.7181e-002
22265	6.38	0.54545	0.1	-0.15886
22266	6.4722	0.63636	0.1	-0.11976
22267	6.1955	0.54545	0.1	-0.29779
22268	6.2877	0.63636	0.1	-0.18008
22269	6.011	0.54545	0.1	-1.068
22270	6.1032	0.63636	0.1	-0.32022
22271	5.8265	0.54545	0.1	-7.0203
22272	5.9187	0.63636	0.1	-0.86123
22273	5.642	0.54545	0.1	-17.195
22274	5.7342	0.63636	0.1	-5.4231
22275	5.4575	0.54545	0.1	-29.811
22276	5.5497	0.63636	0.1	-16.525
22277	5.273	0.54545	0.1	-44.858
22278	5.3652	0.63636	0.1	-30.731
22279	5.0885	0.54545	0.1	-62.353
22280	5.1807	0.63636	0.1	-47.744
22281	4.9039	0.54545	0.1	-82.182
22282	4.9962	0.63636	0.1	-67.59
22283	4.7194	0.54545	0.1	-104.01
22284	4.8117	0.63636	0.1	-90.221
22285	4.5349	0.54545	0.1	-127.24
22286	4.6272	0.63636	0.1	-115.45
22287	4.3504	0.54545	0.1	-150.96
22288	4.4427	0.63636	0.1	-142.95
22289	4.1659	0.54545	0.1	-174.09
22290	4.2582	0.63636	0.1	-172.34
22291	3.9814	0.54545	0.1	-195.84
22292	4.0737	0.63636	0.1	-203.59
22293	3.7969	0.54545	0.1	-217.11
22294	3.8892	0.63636	0.1	-237.92
22295	3.6124	0.54545	0.1	-243.85
22296	3.7047	0.63636	0.1	-280.26
22297	3.4279	0.54545	0.1	-297.31
22298	3.5202	0.63636	0.1	-344.04
22299	3.2434	0.54545	0.1	-453.42
22300	3.3357	0.63636	0.1	-465.68
22301	3.1512	0.63636	0.1	-764.81
22302	3.0589	0.54545	0.1	-463.64
22303	23.723	0.72727	0.1	-90.017
22304	23.815	0.81818	0.1	-101.99
22305	23.908	0.72727	0.1	-98.599
22306	23.539	0.72727	0.1	-81.533
22307	23.631	0.81818	0.1	-92.455
22308	23.354	0.72727	0.1	-74.606
22309	23.446	0.81818	0.1	-84.375
22310	23.17	0.72727	0.1	-68.941
22311	23.262	0.81818	0.1	-77.642
22312	22.985	0.72727	0.1	-64.227
22313	23.077	0.81818	0.1	-71.96
22314	22.801	0.72727	0.1	-60.228
22315	22.893	0.81818	0.1	-67.118
22316	22.616	0.72727	0.1	-56.768
22317	22.708	0.81818	0.1	-62.926
22318	22.432	0.72727	0.1	-53.72
22319	22.524	0.81818	0.1	-59.246
22320	22.247	0.72727	0.1	-50.995
22321	22.339	0.81818	0.1	-55.97
22322	22.063	0.72727	0.1	-48.529
22323	22.155	0.81818	0.1	-53.022
22324	21.878	0.72727	0.1	-46.276
22325	21.97	0.81818	0.1	-50.345
22326	21.694	0.72727	0.1	-44.203
22327	21.786	0.81818	0.1	-47.895
22328	21.509	0.72727	0.1	-42.283
22329	21.601	0.81818	0.1	-45.639
22330	21.325	0.72727	0.1	-40.498
22331	21.417	0.81818	0.1	-43.551
22332	21.14	0.72727	0.1	-38.831
22333	21.232	0.81818	0.1	-41.612
22334	20.956	0.72727	0.1	-37.271
22335	21.048	0.81818	0.1	-39.806
22336	20.771	0.72727	0.1	-35.808
22337	20.863	0.81818	0.1	-38.119
22338	20.587	0.72727	0.1	-34.433
22339	20.679	0.81818	0.1	-36.541
22340	20.402	0.72727	0.1	-33.139
22341	20.494	0.81818	0.1	-35.062
22342	20.218	0.72727	0.1	-31.92
22343	20.31	0.81818	0.1	-33.673
22344	20.033	0.72727	0.1	-30.771
22345	20.125	0.81818	0.1	-32.369
22346	19.849	0.72727	0.1	-29.686
22347	19.941	0.81818	0.1	-31.142
22348	19.664	0.72727	0.1	-28.662
22349	19.756	0.81818	0.1	-29.988
22350	19.48	0.72727	0.1	-27.694
22351	19.572	0.81818	0.1	-28.9
22352	19.295	0.72727	0.1	-26.778
22353	19.387	0.81818	0.1	-27.875
22354	19.111	0.72727	0.1	-25.911
22355	19.203	0.81818	0.1	-26.908
22356	18.926	0.72727	0.1	-25.09
22357	19.018	0.81818	0.1	-25.994
22358	18.742	0.72727	0.1	-24.311
22359	18.834	0.81818	0.1	-25.13
22360	18.557	0.72727	0.1	-23.572
22361	18.649	0.81818	0.1	-24.313
22362	18.373	0.72727	0.1	-22.869
22363	18.465	0.81818	0.1	-23.538
22364	18.188	0.72727	0.1	-22.2
22365	18.28	0.81818	0.1	-22.803
22366	18.004	0.72727	0.1	-21.563
22367	18.096	0.81818	0.1	-22.104
22368	17.819	0.72727	0.1	-20.954
22369	17.911	0.81818	0.1	-21.439
22370	17.635	0.72727	0.1	-20.371
22371	17.727	0.81818	0.1	-20.805
22372	17.45	0.72727	0.1	-19.813
22373	17.542	0.81818	0.1	-20.199
22374	17.266	0.72727	0.1	-19.277
22375	17.358	0.81818	0.1	-19.618
22376	17.081	0.72727	0.1	-18.76
22377	17.173	0.81818	0.1	-19.06
22378	16.897	0.72727	0.1	-18.26
22379	16.989	0.81818	0.1	-18.523
22380	16.712	0.72727	0.1	-17.776
22381	16.804	0.81818	0.1	-18.004
22382	16.528	0.72727	0.1	-17.306
22383	16.62	0.81818	0.1	-17.501
22384	16.343	0.72727	0.1	-16.847
22385	16.435	0.81818	0.1	-17.011
22386	16.159	0.72727	0.1	-16.398
22387	16.251	0.81818	0.1	-16.533
22388	15.974	0.72727	0.1	-15.956
22389	16.066	0.81818	0.1	-16.064
22390	15.79	0.72727	0.1	-15.52
22391	15.882	0.81818	0.1	-15.602
22392	15.605	0.72727	0.1	-15.088
22393	15.697	0.81818	0.1	-15.146
22394	15.421	0.72727	0.1	-14.658
22395	15.513	0.81818	0.1	-14.692
22396	15.236	0.72727	0.1	-14.228
22397	15.328	0.81818	0.1	-14.239
22398	15.052	0.72727	0.1	-13.796
22399	15.144	0.81818	0.1	-13.785
22400	14.867	0.72727	0.1	-13.359
22401	14.959	0.81818	0.1	-13.326
22402	14.683	0.72727	0.1	-12.917
22403	14.775	0.81818	0.1	-12.863
22404	14.498	0.72727	0.1	-12.466
22405	14.59	0.81818	0.1	-12.391
22406	14.314	0.72727	0.1	-12.006
22407	14.406	0.81818	0.1	-11.908
22408	14.129	0.72727	0.1	-11.532
22409	14.221	0.81818	0.1	-11.413
22410	13.945	0.72727	0.1	-11.044
22411	14.037	0.81818	0.1	-10.902
22412	13.76	0.72727	0.1	-10.538
22413	13.852	0.81818	0.1	-10.374
22414	13.576	0.72727	0.1	-10.013
22415	13.668	0.81818	0.1	-9.8244
22416	13.391	0.72727	0.1	-9.4655
22417	13.483	0.81818	0.1	-9.2516
22418	13.207	0.72727	0.1	-8.8926
22419	13.299	0.81818	0.1	-8.6522
22420	13.022	0.72727	0.1	-8.2917
22421	13.114	0.81818	0.1	-8.0233
22422	12.838	0.72727	0.1	-7.6598
22423	12.93	0.81818	0.1	-7.3615
22424	12.653	0.72727	0.1	-6.9937
22425	12.745	0.81818	0.1	-6.6635
22426	12.469	0.72727	0.1	-6.2902
22427	12.561	0.81818	0.1	-5.9257
22428	12.284	0.72727	0.1	-5.5457
22429	12.376	0.81818	0.1	-5.1442
22430	12.1	0.72727	0.1	-4.7568
22431	12.192	0.81818	0.1	-4.3154
22432	11.915	0.72727	0.1	-3.9198
22433	12.007	0.81818	0.1	-3.4353
22434	11.731	0.72727	0.1	-3.0311
22435	11.823	0.81818	0.1	-2.4999
22436	11.546	0.72727	0.1	-2.087
22437	11.638	0.81818	0.1	-1.5063
22438	11.362	0.72727	0.1	-1.0859
22439	11.454	0.81818	0.1	-0.46429
22440	11.177	0.72727	0.1	-0.10409
22441	11.269	0.81818	0.1	-2.0234e-002
22442	10.993	0.72727	0.1	-1.0781e-002
22443	11.085	0.81818	0.1	-8.9395e-003
22444	10.808	0.72727	0.1	-6.7713e-003
22445	10.9	0.81818	0.1	-6.5066e-003
22446	10.624	0.72727	0.1	-5.7773e-003
22447	10.716	0.81818	0.1	-5.6272e-003
22448	10.439	0.72727	0.1	-5.605e-003
22449	10.531	0.81818	0.1	-5.37e-003
22450	10.255	0.72727	0.1	-5.787e-003
22451	10.347	0.81818	0.1	-5.4244e-003
22452	10.07	0.72727	0.1	-6.1795e-003
22453	10.162	0.81818	0.1	-5.6583e-003
22454	9.8855	0.72727	0.1	-6.7334e-003
22455	9.9778	0.81818	0.1	-6.0458e-003
22456	9.701	0.72727	0.1	-7.4261e-003
22457	9.7933	0.81818	0.1	-6.5603e-003
22458	9.5165	0.72727	0.1	-8.2557e-003
22459	9.6088	0.81818	0.1	-7.201e-003
22460	9.332	0.72727	0.1	-9.227e-003
22461	9.4243	0.81818	0.1	-7.9743e-003
22462	9.1475	0.72727	0.1	-1.0353e-002
22463	9.2398	0.81818	0.1	-8.89e-003
22464	8.963	0.72727	0.1	-1.1654e-002
22465	9.0553	0.81818	0.1	-9.9681e-003
22466	8.7785	0.72727	0.1	-1.3159e-002
22467	8.8708	0.81818	0.1	-1.1235e-002
22468	8.594	0.72727	0.1	-1.4905e-002
22469	8.6863	0.81818	0.1	-1.2726e-002
22470	8.4095	0.72727	0.1	-1.694e-002
22471	8.5018	0.81818	0.1	-1.4487e-002
22472	8.225	0.72727	0.1	-1.9335e-002
22473	8.3173	0.81818	0.1	-1.6579e-002
22474	8.0405	0.72727	0.1	-2.2183e-002
22475	8.1327	0.81818	0.1	-1.9091e-002
22476	7.856	0.72727	0.1	-2.5607e-002
22477	7.9482	0.81818	0.1	-2.2134e-002
22478	7.6715	0.72727	0.1	-2.9787e-002
22479	7.7637	0.81818	0.1	-2.586e-002
22480	7.487	0.72727	0.1	-3.4986e-002
22481	7.5792	0.81818	0.1	-3.0491e-002
22482	7.3025	0.72727	0.1	-4.1609e-002
22483	7.3947	0.81818	0.1	-3.6351e-002
22484	7.118	0.72727	0.1	-5.0258e-002
22485	7.2102	0.81818	0.1	-4.3924e-002
22486	6.9335	0.72727	0.1	-6.2095e-002
22487	7.0257	0.81818	0.1	-5.3971e-002
22488	6.749	0.72727	0.1	-7.8904e-002
22489	6.8412	0.81818	0.1	-6.7731e-002
22490	6.5645	0.72727	0.1	-0.10432
22491	6.6567	0.81818	0.1	-8.7356e-002
22492	6.38	0.72727	0.1	-0.14603
22493	6.4722	0.81818	0.1	-0.11681
22494	6.1955	0.72727	0.1	-0.22321
22495	6.2877	0.81818	0.1	-0.16411
22496	6.011	0.72727	0.1	-0.39788
22497	6.1032	0.81818	0.1	-0.24781
22498	5.8265	0.72727	0.1	-1.0021
22499	5.9187	0.81818	0.1	-0.42016
22500	5.642	0.72727	0.1	-5.3578
22501	5.7342	0.81818	0.1	-0.8913
22502	5.4575	0.72727	0.1	-17.545
22503	5.5497	0.81818	0.1	-3.2593
22504	5.273	0.72727	0.1	-33.575
22505	5.3652	0.81818	0.1	-14.021
22506	5.0885	0.72727	0.1	-52.807
22507	5.1807	0.81818	0.1	-31.036
22508	4.9039	0.72727	0.1	-75.271
22509	4.9962	0.81818	0.1	-52.03
22510	4.7194	0.72727	0.1	-101.01
22511	4.8117	0.81818	0.1	-77.046
22512	4.5349	0.72727	0.1	-130.04
22513	4.6272	0.81818	0.1	-106.49
22514	4.3504	0.72727	0.1	-162.47
22515	4.4427	0.81818	0.1	-141.06
22516	4.1659	0.72727	0.1	-198.74
22517	4.2582	0.81818	0.1	-182.03
22518	3.9814	0.72727	0.1	-240.45
22519	4.0737	0.81818	0.1	-231.82
22520	3.7969	0.72727	0.1	-292.08
22521	3.8892	0.81818	0.1	-295.22
22522	3.6124	0.72727	0.1	-364.42
22523	3.7047	0.81818	0.1	-381.74
22524	3.4279	0.72727	0.1	-483.35
22525	3.5202	0.81818	0.1	-508.88
22526	3.2434	0.72727	0.1	-729.08
22527	3.3357	0.81818	0.1	-712.44
22528	3.1512	0.81818	0.1	-1115.9
22529	3.0589	0.72727	0.1	-726.74
22530	23.723	0.90909	0.1	-104.47
22531	23.815	1.	0.1	-115.69
22532	23.908	0.90909	0.1	-113.49
22533	23.539	0.90909	0.1	-95.346
22534	23.631	1.	0.1	-105.8
22535	23.354	0.90909	0.1	-87.478
22536	23.446	1.	0.1	-97.048
22537	23.17	0.90909	0.1	-80.74
22538	23.262	1.	0.1	-89.442
22539	22.985	0.90909	0.1	-74.938
22540	23.077	1.	0.1	-82.805
22541	22.801	0.90909	0.1	-69.906
22542	22.893	1.	0.1	-77.005
22543	22.616	0.90909	0.1	-65.493
22544	22.708	1.	0.1	-71.901
22545	22.432	0.90909	0.1	-61.583
22546	22.524	1.	0.1	-67.373
22547	22.247	0.90909	0.1	-58.081
22548	22.339	1.	0.1	-63.321
22549	22.063	0.90909	0.1	-54.918
22550	22.155	1.	0.1	-59.669
22551	21.878	0.90909	0.1	-52.04
22552	21.97	1.	0.1	-56.353
22553	21.694	0.90909	0.1	-49.403
22554	21.786	1.	0.1	-53.325
22555	21.509	0.90909	0.1	-46.976
22556	21.601	1.	0.1	-50.545
22557	21.325	0.90909	0.1	-44.732
22558	21.417	1.	0.1	-47.984
22559	21.14	0.90909	0.1	-42.65
22560	21.232	1.	0.1	-45.616
22561	20.956	0.90909	0.1	-40.714
22562	21.048	1.	0.1	-43.42
22563	20.771	0.90909	0.1	-38.91
22564	20.863	1.	0.1	-41.378
22565	20.587	0.90909	0.1	-37.225
22566	20.679	1.	0.1	-39.478
22567	20.402	0.90909	0.1	-35.649
22568	20.494	1.	0.1	-37.705
22569	20.218	0.90909	0.1	-34.173
22570	20.31	1.	0.1	-36.05
22571	20.033	0.90909	0.1	-32.79
22572	20.125	1.	0.1	-34.502
22573	19.849	0.90909	0.1	-31.492
22574	19.941	1.	0.1	-33.054
22575	19.664	0.90909	0.1	-30.273
22576	19.756	1.	0.1	-31.696
22577	19.48	0.90909	0.1	-29.127
22578	19.572	1.	0.1	-30.424
22579	19.295	0.90909	0.1	-28.049
22580	19.387	1.	0.1	-29.23
22581	19.111	0.90909	0.1	-27.033
22582	19.203	1.	0.1	-28.108
22583	18.926	0.90909	0.1	-26.076
22584	19.018	1.	0.1	-27.053
22585	18.742	0.90909	0.1	-25.172
22586	18.834	1.	0.1	-26.059
22587	18.557	0.90909	0.1	-24.318
22588	18.649	1.	0.1	-25.123
22589	18.373	0.90909	0.1	-23.511
22590	18.465	1.	0.1	-24.24
22591	18.188	0.90909	0.1	-22.745
22592	18.28	1.	0.1	-23.404
22593	18.004	0.90909	0.1	-22.018
22594	18.096	1.	0.1	-22.614
22595	17.819	0.90909	0.1	-21.327
22596	17.911	1.	0.1	-21.864
22597	17.635	0.90909	0.1	-20.669
22598	17.727	1.	0.1	-21.151
22599	17.45	0.90909	0.1	-20.039
22600	17.542	1.	0.1	-20.472
22601	17.266	0.90909	0.1	-19.437
22602	17.358	1.	0.1	-19.824
22603	17.081	0.90909	0.1	-18.858
22604	17.173	1.	0.1	-19.202
22605	16.897	0.90909	0.1	-18.3
22606	16.989	1.	0.1	-18.606
22607	16.712	0.90909	0.1	-17.761
22608	16.804	1.	0.1	-18.03
22609	16.528	0.90909	0.1	-17.238
22610	16.62	1.	0.1	-17.474
22611	16.343	0.90909	0.1	-16.729
22612	16.435	1.	0.1	-16.933
22613	16.159	0.90909	0.1	-16.231
22614	16.251	1.	0.1	-16.406
22615	15.974	0.90909	0.1	-15.741
22616	16.066	1.	0.1	-15.89
22617	15.79	0.90909	0.1	-15.258
22618	15.882	1.	0.1	-15.381
22619	15.605	0.90909	0.1	-14.78
22620	15.697	1.	0.1	-14.878
22621	15.421	0.90909	0.1	-14.303
22622	15.513	1.	0.1	-14.379
22623	15.236	0.90909	0.1	-13.825
22624	15.328	1.	0.1	-13.879
22625	15.052	0.90909	0.1	-13.344
22626	15.144	1.	0.1	-13.378
22627	14.867	0.90909	0.1	-12.858
22628	14.959	1.	0.1	-12.872
22629	14.683	0.90909	0.1	-12.364
22630	14.775	1.	0.1	-12.358
22631	14.498	0.90909	0.1	-11.86
22632	14.59	1.	0.1	-11.835
22633	14.314	0.90909	0.1	-11.343
22634	14.406	1.	0.1	-11.299
22635	14.129	0.90909	0.1	-10.81
22636	14.221	1.	0.1	-10.747
22637	13.945	0.90909	0.1	-10.259
22638	14.037	1.	0.1	-10.176
22639	13.76	0.90909	0.1	-9.6857
22640	13.852	1.	0.1	-9.5838
22641	13.576	0.90909	0.1	-9.0885
22642	13.668	1.	0.1	-8.9665
22643	13.391	0.90909	0.1	-8.4636
22644	13.483	1.	0.1	-8.3209
22645	13.207	0.90909	0.1	-7.8078
22646	13.299	1.	0.1	-7.6435
22647	13.022	0.90909	0.1	-7.1176
22648	13.114	1.	0.1	-6.9305
22649	12.838	0.90909	0.1	-6.3893
22650	12.93	1.	0.1	-6.1782
22651	12.653	0.90909	0.1	-5.6191
22652	12.745	1.	0.1	-5.3824
22653	12.469	0.90909	0.1	-4.8031
22654	12.561	1.	0.1	-4.539
22655	12.284	0.90909	0.1	-3.937
22656	12.376	1.	0.1	-3.6436
22657	12.1	0.90909	0.1	-3.0168
22658	12.192	1.	0.1	-2.6918
22659	11.915	0.90909	0.1	-2.0386
22660	12.007	1.	0.1	-1.6801
22661	11.731	0.90909	0.1	-1.0018
22662	11.823	1.	0.1	-0.61564
22663	11.546	0.90909	0.1	-7.8547e-002
22664	11.638	1.	0.1	-3.1462e-002
22665	11.362	0.90909	0.1	-1.3683e-002
22666	11.454	1.	0.1	-1.1761e-002
22667	11.177	0.90909	0.1	-8.1086e-003
22668	11.269	1.	0.1	-7.8269e-003
22669	10.993	0.90909	0.1	-6.2908e-003
22670	11.085	1.	0.1	-6.2913e-003
22671	10.808	0.90909	0.1	-5.5064e-003
22672	10.9	1.	0.1	-5.5625e-003
22673	10.624	0.90909	0.1	-5.1827e-003
22674	10.716	1.	0.1	-5.189e-003
22675	10.439	0.90909	0.1	-5.1389e-003
22676	10.531	1.	0.1	-5.0782e-003
22677	10.255	0.90909	0.1	-5.2656e-003
22678	10.347	1.	0.1	-5.1333e-003
22679	10.07	0.90909	0.1	-5.5221e-003
22680	10.162	1.	0.1	-5.2964e-003
22681	9.8855	0.90909	0.1	-5.8986e-003
22682	9.9778	1.	0.1	-5.5726e-003
22683	9.701	0.90909	0.1	-6.389e-003
22684	9.7933	1.	0.1	-5.9498e-003
22685	9.5165	0.90909	0.1	-7.0007e-003
22686	9.6088	1.	0.1	-6.436e-003
22687	9.332	0.90909	0.1	-7.7453e-003
22688	9.4243	1.	0.1	-7.0418e-003
22689	9.1475	0.90909	0.1	-8.6402e-003
22690	9.2398	1.	0.1	-7.7823e-003
22691	8.963	0.90909	0.1	-9.711e-003
22692	9.0553	1.	0.1	-8.6796e-003
22693	8.7785	0.90909	0.1	-1.0992e-002
22694	8.8708	1.	0.1	-9.7644e-003
22695	8.594	0.90909	0.1	-1.2527e-002
22696	8.6863	1.	0.1	-1.1077e-002
22697	8.4095	0.90909	0.1	-1.4375e-002
22698	8.5018	1.	0.1	-1.2667e-002
22699	8.225	0.90909	0.1	-1.6616e-002
22700	8.3173	1.	0.1	-1.4603e-002
22701	8.0405	0.90909	0.1	-1.9358e-002
22702	8.1327	1.	0.1	-1.6982e-002
22703	7.856	0.90909	0.1	-2.2741e-002
22704	7.9482	1.	0.1	-1.9925e-002
22705	7.6715	0.90909	0.1	-2.6962e-002
22706	7.7637	1.	0.1	-2.3594e-002
22707	7.487	0.90909	0.1	-3.2304e-002
22708	7.5792	1.	0.1	-2.822e-002
22709	7.3025	0.90909	0.1	-3.9178e-002
22710	7.3947	1.	0.1	-3.4131e-002
22711	7.118	0.90909	0.1	-4.8199e-002
22712	7.2102	1.	0.1	-4.1798e-002
22713	6.9335	0.90909	0.1	-6.0325e-002
22714	7.0257	1.	0.1	-5.1924e-002
22715	6.749	0.90909	0.1	-7.7107e-002
22716	6.8412	1.	0.1	-6.5585e-002
22717	6.5645	0.90909	0.1	-0.10119
22718	6.6567	1.	0.1	-8.4499e-002
22719	6.38	0.90909	0.1	-0.13734
22720	6.4722	1.	0.1	-0.11151
22721	6.1955	0.90909	0.1	-0.19499
22722	6.2877	1.	0.1	-0.15157
22723	6.011	0.90909	0.1	-0.29488
22724	6.1032	1.	0.1	-0.21402
22725	5.8265	0.90909	0.1	-0.49142
22726	5.9187	1.	0.1	-0.31801
22727	5.642	0.90909	0.1	-0.97488
22728	5.7342	1.	0.1	-0.50846
22729	5.4575	0.90909	0.1	-2.8532
22730	5.5497	1.	0.1	-0.91541
22731	5.273	0.90909	0.1	-12.22
22732	5.3652	1.	0.1	-2.0751
22733	5.0885	0.90909	0.1	-30.281
22734	5.1807	1.	0.1	-7.361
22735	4.9039	0.90909	0.1	-53.469
22736	4.9962	1.	0.1	-23.938
22737	4.7194	0.90909	0.1	-81.762
22738	4.8117	1.	0.1	-48.793
22739	4.5349	0.90909	0.1	-116.09
22740	4.6272	1.	0.1	-80.767
22741	4.3504	0.90909	0.1	-158.12
22742	4.4427	1.	0.1	-121.57
22743	4.1659	0.90909	0.1	-210.76
22744	4.2582	1.	0.1	-174.62
22745	3.9814	0.90909	0.1	-279.08
22746	4.0737	1.	0.1	-245.69
22747	3.7969	0.90909	0.1	-371.96
22748	3.8892	1.	0.1	-344.31
22749	3.6124	0.90909	0.1	-504.34
22750	3.7047	1.	0.1	-485.57
22751	3.4279	0.90909	0.1	-702.92
22752	3.5202	1.	0.1	-690.9
22753	3.2434	0.90909	0.1	-1049.4
22754	3.3357	1.	0.1	-993.86
22755	3.1512	1.	0.1	-1526.3
22756	3.0589	0.90909	0.1	-1033.9
22757	23.723	1.0909	0.1	-117.05
22758	23.815	1.1818	0.1	-127.55
22759	23.908	1.0909	0.1	-126.36
22760	23.539	1.0909	0.1	-107.54
22761	23.631	1.1818	0.1	-117.48
22762	23.354	1.0909	0.1	-99.055
22763	23.446	1.1818	0.1	-108.29
22764	23.17	1.0909	0.1	-91.56
22765	23.262	1.1818	0.1	-100.08
22766	22.985	1.0909	0.1	-84.932
22767	23.077	1.1818	0.1	-92.745
22768	22.801	1.0909	0.1	-79.066
22769	22.893	1.1818	0.1	-86.201
22770	22.616	1.0909	0.1	-73.849
22771	22.708	1.1818	0.1	-80.35
22772	22.432	1.0909	0.1	-69.181
22773	22.524	1.1818	0.1	-75.1
22774	22.247	1.0909	0.1	-64.978
22775	22.339	1.1818	0.1	-70.367
22776	22.063	1.0909	0.1	-61.171
22777	22.155	1.1818	0.1	-66.079
22778	21.878	1.0909	0.1	-57.703
22779	21.97	1.1818	0.1	-62.176
22780	21.694	1.0909	0.1	-54.531
22781	21.786	1.1818	0.1	-58.609
22782	21.509	1.0909	0.1	-51.615
22783	21.601	1.1818	0.1	-55.336
22784	21.325	1.0909	0.1	-48.928
22785	21.417	1.1818	0.1	-52.324
22786	21.14	1.0909	0.1	-46.442
22787	21.232	1.1818	0.1	-49.544
22788	20.956	1.0909	0.1	-44.139
22789	21.048	1.1818	0.1	-46.972
22790	20.771	1.0909	0.1	-42.
22791	20.863	1.1818	0.1	-44.588
22792	20.587	1.0909	0.1	-40.01
22793	20.679	1.1818	0.1	-42.374
22794	20.402	1.0909	0.1	-38.156
22795	20.494	1.1818	0.1	-40.316
22796	20.218	1.0909	0.1	-36.427
22797	20.31	1.1818	0.1	-38.4
22798	20.033	1.0909	0.1	-34.813
22799	20.125	1.1818	0.1	-36.615
22800	19.849	1.0909	0.1	-33.304
22801	19.941	1.1818	0.1	-34.949
22802	19.664	1.0909	0.1	-31.893
22803	19.756	1.1818	0.1	-33.394
22804	19.48	1.0909	0.1	-30.571
22805	19.572	1.1818	0.1	-31.94
22806	19.295	1.0909	0.1	-29.332
22807	19.387	1.1818	0.1	-30.58
22808	19.111	1.0909	0.1	-28.169
22809	19.203	1.1818	0.1	-29.307
22810	18.926	1.0909	0.1	-27.077
22811	19.018	1.1818	0.1	-28.114
22812	18.742	1.0909	0.1	-26.05
22813	18.834	1.1818	0.1	-26.994
22814	18.557	1.0909	0.1	-25.084
22815	18.649	1.1818	0.1	-25.941
22816	18.373	1.0909	0.1	-24.172
22817	18.465	1.1818	0.1	-24.951
22818	18.188	1.0909	0.1	-23.311
22819	18.28	1.1818	0.1	-24.018
22820	18.004	1.0909	0.1	-22.497
22821	18.096	1.1818	0.1	-23.138
22822	17.819	1.0909	0.1	-21.724
22823	17.911	1.1818	0.1	-22.305
22824	17.635	1.0909	0.1	-20.991
22825	17.727	1.1818	0.1	-21.515
22826	17.45	1.0909	0.1	-20.292
22827	17.542	1.1818	0.1	-20.765
22828	17.266	1.0909	0.1	-19.624
22829	17.358	1.1818	0.1	-20.05
22830	17.081	1.0909	0.1	-18.984
22831	17.173	1.1818	0.1	-19.367
22832	16.897	1.0909	0.1	-18.369
22833	16.989	1.1818	0.1	-18.713
22834	16.712	1.0909	0.1	-17.776
22835	16.804	1.1818	0.1	-18.083
22836	16.528	1.0909	0.1	-17.202
22837	16.62	1.1818	0.1	-17.474
22838	16.343	1.0909	0.1	-16.643
22839	16.435	1.1818	0.1	-16.884
22840	16.159	1.0909	0.1	-16.097
22841	16.251	1.1818	0.1	-16.309
22842	15.974	1.0909	0.1	-15.561
22843	16.066	1.1818	0.1	-15.747
22844	15.79	1.0909	0.1	-15.032
22845	15.882	1.1818	0.1	-15.193
22846	15.605	1.0909	0.1	-14.508
22847	15.697	1.1818	0.1	-14.646
22848	15.421	1.0909	0.1	-13.985
22849	15.513	1.1818	0.1	-14.102
22850	15.236	1.0909	0.1	-13.462
22851	15.328	1.1818	0.1	-13.558
22852	15.052	1.0909	0.1	-12.934
22853	15.144	1.1818	0.1	-13.011
22854	14.867	1.0909	0.1	-12.4
22855	14.959	1.1818	0.1	-12.459
22856	14.683	1.0909	0.1	-11.857
22857	14.775	1.1818	0.1	-11.898
22858	14.498	1.0909	0.1	-11.301
22859	14.59	1.1818	0.1	-11.326
22860	14.314	1.0909	0.1	-10.73
22861	14.406	1.1818	0.1	-10.738
22862	14.129	1.0909	0.1	-10.14
22863	14.221	1.1818	0.1	-10.132
22864	13.945	1.0909	0.1	-9.5278
22865	14.037	1.1818	0.1	-9.5042
22866	13.76	1.0909	0.1	-8.8905
22867	13.852	1.1818	0.1	-8.8512
22868	13.576	1.0909	0.1	-8.2245
22869	13.668	1.1818	0.1	-8.1693
22870	13.391	1.0909	0.1	-7.5259
22871	13.483	1.1818	0.1	-7.4546
22872	13.207	1.0909	0.1	-6.7909
22873	13.299	1.1818	0.1	-6.7031
22874	13.022	1.0909	0.1	-6.0155
22875	13.114	1.1818	0.1	-5.9104
22876	12.838	1.0909	0.1	-5.1952
22877	12.93	1.1818	0.1	-5.0721
22878	12.653	1.0909	0.1	-4.3258
22879	12.745	1.1818	0.1	-4.1837
22880	12.469	1.0909	0.1	-3.4027
22881	12.561	1.1818	0.1	-3.2404
22882	12.284	1.0909	0.1	-2.4213
22883	12.376	1.1818	0.1	-2.2377
22884	12.1	1.0909	0.1	-1.3792
22885	12.192	1.1818	0.1	-1.1739
22886	11.915	1.0909	0.1	-0.30899
22887	12.007	1.1818	0.1	-0.14775
22888	11.731	1.0909	0.1	-2.165e-002
22889	11.823	1.1818	0.1	-1.8293e-002
22890	11.546	1.0909	0.1	-1.0688e-002
22891	11.638	1.1818	0.1	-1.0188e-002
22892	11.362	1.0909	0.1	-7.6216e-003
22893	11.454	1.1818	0.1	-7.5379e-003
22894	11.177	1.0909	0.1	-6.2749e-003
22895	11.269	1.1818	0.1	-6.2805e-003
22896	10.993	1.0909	0.1	-5.5906e-003
22897	11.085	1.1818	0.1	-5.6093e-003
22898	10.808	1.0909	0.1	-5.2188e-003
22899	10.9	1.1818	0.1	-5.2284e-003
22900	10.624	1.0909	0.1	-5.0495e-003
22901	10.716	1.1818	0.1	-4.9966e-003
22902	10.439	1.0909	0.1	-5.043e-003
22903	10.531	1.1818	0.1	-4.9273e-003
22904	10.255	1.0909	0.1	-5.145e-003
22905	10.347	1.1818	0.1	-4.968e-003
22906	10.07	1.0909	0.1	-5.3404e-003
22907	10.162	1.1818	0.1	-5.081e-003
22908	9.8855	1.0909	0.1	-5.6306e-003
22909	9.9778	1.1818	0.1	-5.2831e-003
22910	9.701	1.0909	0.1	-6.0174e-003
22911	9.7933	1.1818	0.1	-5.5668e-003
22912	9.5165	1.0909	0.1	-6.512e-003
22913	9.6088	1.1818	0.1	-5.9453e-003
22914	9.332	1.0909	0.1	-7.1283e-003
22915	9.4243	1.1818	0.1	-6.4299e-003
22916	9.1475	1.0909	0.1	-7.8865e-003
22917	9.2398	1.1818	0.1	-7.0377e-003
22918	8.963	1.0909	0.1	-8.8139e-003
22919	9.0553	1.1818	0.1	-7.7924e-003
22920	8.7785	1.0909	0.1	-9.9471e-003
22921	8.8708	1.1818	0.1	-8.7256e-003
22922	8.594	1.0909	0.1	-1.1333e-002
22923	8.6863	1.1818	0.1	-9.8779e-003
22924	8.4095	1.0909	0.1	-1.3031e-002
22925	8.5018	1.1818	0.1	-1.1302e-002
22926	8.225	1.0909	0.1	-1.5127e-002
22927	8.3173	1.1818	0.1	-1.3066e-002
22928	8.0405	1.0909	0.1	-1.7731e-002
22929	8.1327	1.1818	0.1	-1.5268e-002
22930	7.856	1.0909	0.1	-2.0987e-002
22931	7.9482	1.1818	0.1	-1.8031e-002
22932	7.6715	1.0909	0.1	-2.5093e-002
22933	7.7637	1.1818	0.1	-2.1515e-002
22934	7.487	1.0909	0.1	-3.0328e-002
22935	7.5792	1.1818	0.1	-2.5946e-002
22936	7.3025	1.0909	0.1	-3.7082e-002
22937	7.3947	1.1818	0.1	-3.1638e-002
22938	7.118	1.0909	0.1	-4.5924e-002
22939	7.2102	1.1818	0.1	-3.9028e-002
22940	6.9335	1.0909	0.1	-5.769e-002
22941	7.0257	1.1818	0.1	-4.8745e-002
22942	6.749	1.0909	0.1	-7.3655e-002
22943	6.8412	1.1818	0.1	-6.1709e-002
22944	6.5645	1.0909	0.1	-9.5823e-002
22945	6.6567	1.1818	0.1	-7.93e-002
22946	6.38	1.0909	0.1	-0.12745
22947	6.4722	1.1818	0.1	-0.10364
22948	6.1955	1.0909	0.1	-0.17411
22949	6.2877	1.1818	0.1	-0.13809
22950	6.011	1.0909	0.1	-0.24592
22951	6.1032	1.1818	0.1	-0.18825
22952	5.8265	1.0909	0.1	-0.36271
22953	5.9187	1.1818	0.1	-0.26381
22954	5.642	1.0909	0.1	-0.56809
22955	5.7342	1.1818	0.1	-0.38277
22956	5.4575	1.0909	0.1	-0.97575
22957	5.5497	1.1818	0.1	-0.58169
22958	5.273	1.0909	0.1	-1.9773
22959	5.3652	1.1818	0.1	-0.94556
22960	5.0885	1.0909	0.1	-5.631
22961	5.1807	1.1818	0.1	-1.7181
22962	4.9039	1.0909	0.1	-20.133
22963	4.9962	1.1818	0.1	-3.8863
22964	4.7194	1.0909	0.1	-47.276
22965	4.8117	1.1818	0.1	-13.024
22966	4.5349	1.0909	0.1	-84.717
22967	4.6272	1.1818	0.1	-39.9
22968	4.3504	1.0909	0.1	-135.12
22969	4.4427	1.1818	0.1	-83.212
22970	4.1659	1.0909	0.1	-204.27
22971	4.2582	1.1818	0.1	-145.59
22972	3.9814	1.0909	0.1	-301.7
22973	4.0737	1.1818	0.1	-236.14
22974	3.7969	1.0909	0.1	-442.13
22975	3.8892	1.1818	0.1	-370.16
22976	3.6124	1.0909	0.1	-646.14
22977	3.7047	1.1818	0.1	-570.76
22978	3.4279	1.0909	0.1	-942.09
22979	3.5202	1.1818	0.1	-867.96
22980	3.2434	1.0909	0.1	-1416.
22981	3.3357	1.1818	0.1	-1302.3
22982	3.1512	1.1818	0.1	-2016.9
22983	3.0589	1.0909	0.1	-1400.3
22984	23.723	1.2727	0.1	-128.
22985	23.815	1.3636	0.1	-137.84
22986	23.908	1.2727	0.1	-137.53
22987	23.539	1.2727	0.1	-118.24
22988	23.631	1.3636	0.1	-127.65
22989	23.354	1.2727	0.1	-109.34
22990	23.446	1.3636	0.1	-118.17
22991	23.17	1.2727	0.1	-101.31
22992	23.262	1.3636	0.1	-109.55
22993	22.985	1.2727	0.1	-94.058
22994	23.077	1.3636	0.1	-101.69
22995	22.801	1.2727	0.1	-87.534
22996	22.893	1.3636	0.1	-94.578
22997	22.616	1.2727	0.1	-81.655
22998	22.708	1.3636	0.1	-88.129
22999	22.432	1.2727	0.1	-76.342
23000	22.524	1.3636	0.1	-82.28
23001	22.247	1.2727	0.1	-71.525
23002	22.339	1.3636	0.1	-76.964
23003	22.063	1.2727	0.1	-67.142
23004	22.155	1.3636	0.1	-72.12
23005	21.878	1.2727	0.1	-63.139
23006	21.97	1.3636	0.1	-67.693
23007	21.694	1.2727	0.1	-59.471
23008	21.786	1.3636	0.1	-63.637
23009	21.509	1.2727	0.1	-56.1
23010	21.601	1.3636	0.1	-59.911
23011	21.325	1.2727	0.1	-52.994
23012	21.417	1.3636	0.1	-56.48
23013	21.14	1.2727	0.1	-50.125
23014	21.232	1.3636	0.1	-53.315
23015	20.956	1.2727	0.1	-47.471
23016	21.048	1.3636	0.1	-50.389
23017	20.771	1.2727	0.1	-45.012
23018	20.863	1.3636	0.1	-47.681
23019	20.587	1.2727	0.1	-42.729
23020	20.679	1.3636	0.1	-45.17
23021	20.402	1.2727	0.1	-40.608
23022	20.494	1.3636	0.1	-42.84
23023	20.218	1.2727	0.1	-38.634
23024	20.31	1.3636	0.1	-40.676
23025	20.033	1.2727	0.1	-36.796
23026	20.125	1.3636	0.1	-38.663
23027	19.849	1.2727	0.1	-35.083
23028	19.941	1.3636	0.1	-36.789
23029	19.664	1.2727	0.1	-33.485
23030	19.756	1.3636	0.1	-35.044
23031	19.48	1.2727	0.1	-31.993
23032	19.572	1.3636	0.1	-33.416
23033	19.295	1.2727	0.1	-30.598
23034	19.387	1.3636	0.1	-31.898
23035	19.111	1.2727	0.1	-29.293
23036	19.203	1.3636	0.1	-30.479
23037	18.926	1.2727	0.1	-28.07
23038	19.018	1.3636	0.1	-29.153
23039	18.742	1.2727	0.1	-26.924
23040	18.834	1.3636	0.1	-27.911
23041	18.557	1.2727	0.1	-25.848
23042	18.649	1.3636	0.1	-26.747
23043	18.373	1.2727	0.1	-24.836
23044	18.465	1.3636	0.1	-25.655
23045	18.188	1.2727	0.1	-23.882
23046	18.28	1.3636	0.1	-24.628
23047	18.004	1.2727	0.1	-22.982
23048	18.096	1.3636	0.1	-23.66
23049	17.819	1.2727	0.1	-22.132
23050	17.911	1.3636	0.1	-22.748
23051	17.635	1.2727	0.1	-21.325
23052	17.727	1.3636	0.1	-21.885
23053	17.45	1.2727	0.1	-20.559
23054	17.542	1.3636	0.1	-21.066
23055	17.266	1.2727	0.1	-19.828
23056	17.358	1.3636	0.1	-20.288
23057	17.081	1.2727	0.1	-19.13
23058	17.173	1.3636	0.1	-19.546
23059	16.897	1.2727	0.1	-18.459
23060	16.989	1.3636	0.1	-18.836
23061	16.712	1.2727	0.1	-17.814
23062	16.804	1.3636	0.1	-18.154
23063	16.528	1.2727	0.1	-17.19
23064	16.62	1.3636	0.1	-17.496
23065	16.343	1.2727	0.1	-16.583
23066	16.435	1.3636	0.1	-16.858
23067	16.159	1.2727	0.1	-15.991
23068	16.251	1.3636	0.1	-16.238
23069	15.974	1.2727	0.1	-15.41
23070	16.066	1.3636	0.1	-15.631
23071	15.79	1.2727	0.1	-14.838
23072	15.882	1.3636	0.1	-15.035
23073	15.605	1.2727	0.1	-14.27
23074	15.697	1.3636	0.1	-14.445
23075	15.421	1.2727	0.1	-13.704
23076	15.513	1.3636	0.1	-13.859
23077	15.236	1.2727	0.1	-13.137
23078	15.328	1.3636	0.1	-13.273
23079	15.052	1.2727	0.1	-12.565
23080	15.144	1.3636	0.1	-12.683
23081	14.867	1.2727	0.1	-11.985
23082	14.959	1.3636	0.1	-12.088
23083	14.683	1.2727	0.1	-11.395
23084	14.775	1.3636	0.1	-11.482
23085	14.498	1.2727	0.1	-10.79
23086	14.59	1.3636	0.1	-10.863
23087	14.314	1.2727	0.1	-10.167
23088	14.406	1.3636	0.1	-10.227
23089	14.129	1.2727	0.1	-9.5231
23090	14.221	1.3636	0.1	-9.5699
23091	13.945	1.2727	0.1	-8.8539
23092	14.037	1.3636	0.1	-8.8886
23093	13.76	1.2727	0.1	-8.1559
23094	13.852	1.3636	0.1	-8.1788
23095	13.576	1.2727	0.1	-7.4249
23096	13.668	1.3636	0.1	-7.4363
23097	13.391	1.2727	0.1	-6.6568
23098	13.483	1.3636	0.1	-6.6568
23099	13.207	1.2727	0.1	-5.8471
23100	13.299	1.3636	0.1	-5.8357
23101	13.022	1.2727	0.1	-4.9912
23102	13.114	1.3636	0.1	-4.9683
23103	12.838	1.2727	0.1	-4.0843
23104	12.93	1.3636	0.1	-4.0496
23105	12.653	1.2727	0.1	-3.1216
23106	12.745	1.3636	0.1	-3.0746
23107	12.469	1.2727	0.1	-2.0985
23108	12.561	1.3636	0.1	-2.0387
23109	12.284	1.2727	0.1	-1.0144
23110	12.376	1.3636	0.1	-0.9419
23111	12.1	1.2727	0.1	-7.9984e-002
23112	12.192	1.3636	0.1	-6.2246e-002
23113	11.915	1.2727	0.1	-1.6266e-002
23114	12.007	1.3636	0.1	-1.5407e-002
23115	11.731	1.2727	0.1	-9.7832e-003
23116	11.823	1.3636	0.1	-9.6228e-003
23117	11.546	1.2727	0.1	-7.4444e-003
23118	11.638	1.3636	0.1	-7.4399e-003
23119	11.362	1.2727	0.1	-6.2769e-003
23120	11.454	1.3636	0.1	-6.3178e-003
23121	11.177	1.2727	0.1	-5.6159e-003
23122	11.269	1.3636	0.1	-5.6527e-003
23123	10.993	1.2727	0.1	-5.2256e-003
23124	11.085	1.3636	0.1	-5.2491e-003
23125	10.808	1.2727	0.1	-4.9801e-003
23126	10.9	1.3636	0.1	-4.9909e-003
23127	10.624	1.2727	0.1	-4.8503e-003
23128	10.716	1.3636	0.1	-4.8037e-003
23129	10.439	1.2727	0.1	-4.8331e-003
23130	10.531	1.3636	0.1	-4.7333e-003
23131	10.255	1.2727	0.1	-4.8913e-003
23132	10.347	1.3636	0.1	-4.7408e-003
23133	10.07	1.2727	0.1	-5.0184e-003
23134	10.162	1.3636	0.1	-4.7985e-003
23135	9.8855	1.2727	0.1	-5.2218e-003
23136	9.9778	1.3636	0.1	-4.9264e-003
23137	9.701	1.2727	0.1	-5.5055e-003
23138	9.7933	1.3636	0.1	-5.1196e-003
23139	9.5165	1.2727	0.1	-5.8829e-003
23140	9.6088	1.3636	0.1	-5.392e-003
23141	9.332	1.2727	0.1	-6.3685e-003
23142	9.4243	1.3636	0.1	-5.7573e-003
23143	9.1475	1.2727	0.1	-6.9829e-003
23144	9.2398	1.3636	0.1	-6.231e-003
23145	8.963	1.2727	0.1	-7.7543e-003
23146	9.0553	1.3636	0.1	-6.8364e-003
23147	8.7785	1.2727	0.1	-8.7186e-003
23148	8.8708	1.3636	0.1	-7.6047e-003
23149	8.594	1.2727	0.1	-9.9223e-003
23150	8.6863	1.3636	0.1	-8.5756e-003
23151	8.4095	1.2727	0.1	-1.1426e-002
23152	8.5018	1.3636	0.1	-9.7995e-003
23153	8.225	1.2727	0.1	-1.3314e-002
23154	8.3173	1.3636	0.1	-1.1343e-002
23155	8.0405	1.2727	0.1	-1.5695e-002
23156	8.1327	1.3636	0.1	-1.3302e-002
23157	7.856	1.2727	0.1	-1.8708e-002
23158	7.9482	1.3636	0.1	-1.5792e-002
23159	7.6715	1.2727	0.1	-2.2545e-002
23160	7.7637	1.3636	0.1	-1.8967e-002
23161	7.487	1.2727	0.1	-2.747e-002
23162	7.5792	1.3636	0.1	-2.3038e-002
23163	7.3025	1.2727	0.1	-3.3844e-002
23164	7.3947	1.3636	0.1	-2.8295e-002
23165	7.118	1.2727	0.1	-4.2176e-002
23166	7.2102	1.3636	0.1	-3.5132e-002
23167	6.9335	1.2727	0.1	-5.3152e-002
23168	7.0257	1.3636	0.1	-4.4102e-002
23169	6.749	1.2727	0.1	-6.7939e-002
23170	6.8412	1.3636	0.1	-5.5982e-002
23171	6.5645	1.2727	0.1	-8.7983e-002
23172	6.6567	1.3636	0.1	-7.1897e-002
23173	6.38	1.2727	0.1	-0.11568
23174	6.4722	1.3636	0.1	-9.3476e-002
23175	6.1955	1.2727	0.1	-0.15472
23176	6.2877	1.3636	0.1	-0.12314
23177	6.011	1.2727	0.1	-0.21107
23178	6.1032	1.3636	0.1	-0.16462
23179	5.8265	1.2727	0.1	-0.29481
23180	5.9187	1.3636	0.1	-0.22377
23181	5.642	1.2727	0.1	-0.42394
23182	5.7342	1.3636	0.1	-0.31015
23183	5.4575	1.2727	0.1	-0.63349
23184	5.5497	1.3636	0.1	-0.44024
23185	5.273	1.2727	0.1	-1.0001
23186	5.3652	1.3636	0.1	-0.64458
23187	5.0885	1.2727	0.1	-1.7257
23188	5.1807	1.3636	0.1	-0.98614
23189	4.9039	1.2727	0.1	-3.5317
23190	4.9962	1.3636	0.1	-1.6173
23191	4.7194	1.2727	0.1	-10.458
23192	4.8117	1.3636	0.1	-3.0173
23193	4.5349	1.2727	0.1	-37.859
23194	4.6272	1.3636	0.1	-7.5429
23195	4.3504	1.2727	0.1	-90.739
23196	4.4427	1.3636	0.1	-30.488
23197	4.1659	1.2727	0.1	-171.83
23198	4.2582	1.3636	0.1	-91.743
23199	3.9814	1.2727	0.1	-294.68
23200	4.0737	1.3636	0.1	-193.55
23201	3.7969	1.2727	0.1	-481.79
23202	3.8892	1.3636	0.1	-354.39
23203	3.6124	1.2727	0.1	-764.37
23204	3.7047	1.3636	0.1	-608.32
23205	3.4279	1.2727	0.1	-1183.8
23206	3.5202	1.3636	0.1	-1005.1
23207	3.2434	1.2727	0.1	-1838.1
23208	3.3357	1.3636	0.1	-1610.7
23209	3.1512	1.3636	0.1	-2613.8
23210	3.0589	1.2727	0.1	-1852.6
23211	23.723	1.4545	0.1	-137.51
23212	23.815	1.5455	0.1	-146.74
23213	23.908	1.4545	0.1	-147.2
23214	23.539	1.4545	0.1	-127.59
23215	23.631	1.5455	0.1	-136.46
23216	23.354	1.4545	0.1	-118.39
23217	23.446	1.5455	0.1	-126.78
23218	23.17	1.4545	0.1	-109.96
23219	23.262	1.5455	0.1	-117.86
23220	22.985	1.4545	0.1	-102.25
23221	23.077	1.5455	0.1	-109.63
23222	22.801	1.4545	0.1	-95.21
23223	22.893	1.5455	0.1	-102.07
23224	22.616	1.4545	0.1	-88.796
23225	22.708	1.5455	0.1	-95.15
23226	22.432	1.4545	0.1	-82.946
23227	22.524	1.5455	0.1	-88.813
23228	22.247	1.4545	0.1	-77.605
23229	22.339	1.5455	0.1	-83.009
23230	22.063	1.4545	0.1	-72.719
23231	22.155	1.5455	0.1	-77.689
23232	21.878	1.4545	0.1	-68.24
23233	21.97	1.5455	0.1	-72.806
23234	21.694	1.4545	0.1	-64.126
23235	21.786	1.5455	0.1	-68.317
23236	21.509	1.4545	0.1	-60.34
23237	21.601	1.5455	0.1	-64.184
23238	21.325	1.4545	0.1	-56.85
23239	21.417	1.5455	0.1	-60.375
23240	21.14	1.4545	0.1	-53.626
23241	21.232	1.5455	0.1	-56.858
23242	20.956	1.4545	0.1	-50.646
23243	21.048	1.5455	0.1	-53.607
23244	20.771	1.4545	0.1	-47.886
23245	20.863	1.5455	0.1	-50.598
23246	20.587	1.4545	0.1	-45.327
23247	20.679	1.5455	0.1	-47.812
23248	20.402	1.4545	0.1	-42.953
23249	20.494	1.5455	0.1	-45.229
23250	20.218	1.4545	0.1	-40.749
23251	20.31	1.5455	0.1	-42.832
23252	20.033	1.4545	0.1	-38.699
23253	20.125	1.5455	0.1	-40.606
23254	19.849	1.4545	0.1	-36.793
23255	19.941	1.5455	0.1	-38.537
23256	19.664	1.4545	0.1	-35.018
23257	19.756	1.5455	0.1	-36.613
23258	19.48	1.4545	0.1	-33.363
23259	19.572	1.5455	0.1	-34.823
23260	19.295	1.4545	0.1	-31.82
23261	19.387	1.5455	0.1	-33.155
23262	19.111	1.4545	0.1	-30.38
23263	19.203	1.5455	0.1	-31.599
23264	18.926	1.4545	0.1	-29.033
23265	19.018	1.5455	0.1	-30.147
23266	18.742	1.4545	0.1	-27.773
23267	18.834	1.5455	0.1	-28.791
23268	18.557	1.4545	0.1	-26.592
23269	18.649	1.5455	0.1	-27.522
23270	18.373	1.4545	0.1	-25.485
23271	18.465	1.5455	0.1	-26.333
23272	18.188	1.4545	0.1	-24.443
23273	18.28	1.5455	0.1	-25.217
23274	18.004	1.4545	0.1	-23.462
23275	18.096	1.5455	0.1	-24.169
23276	17.819	1.4545	0.1	-22.537
23277	17.911	1.5455	0.1	-23.181
23278	17.635	1.4545	0.1	-21.661
23279	17.727	1.5455	0.1	-22.248
23280	17.45	1.4545	0.1	-20.831
23281	17.542	1.5455	0.1	-21.366
23282	17.266	1.4545	0.1	-20.04
23283	17.358	1.5455	0.1	-20.528
23284	17.081	1.4545	0.1	-19.286
23285	17.173	1.5455	0.1	-19.73
23286	16.897	1.4545	0.1	-18.563
23287	16.989	1.5455	0.1	-18.968
23288	16.712	1.4545	0.1	-17.868
23289	16.804	1.5455	0.1	-18.236
23290	16.528	1.4545	0.1	-17.197
23291	16.62	1.5455	0.1	-17.532
23292	16.343	1.4545	0.1	-16.545
23293	16.435	1.5455	0.1	-16.85
23294	16.159	1.4545	0.1	-15.909
23295	16.251	1.5455	0.1	-16.187
23296	15.974	1.4545	0.1	-15.286
23297	16.066	1.5455	0.1	-15.539
23298	15.79	1.4545	0.1	-14.672
23299	15.882	1.5455	0.1	-14.902
23300	15.605	1.4545	0.1	-14.064
23301	15.697	1.5455	0.1	-14.273
23302	15.421	1.4545	0.1	-13.457
23303	15.513	1.5455	0.1	-13.647
23304	15.236	1.4545	0.1	-12.848
23305	15.328	1.5455	0.1	-13.022
23306	15.052	1.4545	0.1	-12.235
23307	15.144	1.5455	0.1	-12.393
23308	14.867	1.4545	0.1	-11.613
23309	14.959	1.5455	0.1	-11.757
23310	14.683	1.4545	0.1	-10.978
23311	14.775	1.5455	0.1	-11.109
23312	14.498	1.4545	0.1	-10.327
23313	14.59	1.5455	0.1	-10.447
23314	14.314	1.4545	0.1	-9.6566
23315	14.406	1.5455	0.1	-9.7664
23316	14.129	1.4545	0.1	-8.9621
23317	14.221	1.5455	0.1	-9.0625
23318	13.945	1.4545	0.1	-8.2396
23319	14.037	1.5455	0.1	-8.3316
23320	13.76	1.4545	0.1	-7.4849
23321	13.852	1.5455	0.1	-7.5691
23322	13.576	1.4545	0.1	-6.6934
23323	13.668	1.5455	0.1	-6.7706
23324	13.391	1.4545	0.1	-5.8605
23325	13.483	1.5455	0.1	-5.9312
23326	13.207	1.4545	0.1	-4.9813
23327	13.299	1.5455	0.1	-5.046
23328	13.022	1.4545	0.1	-4.0507
23329	13.114	1.5455	0.1	-4.1096
23330	12.838	1.4545	0.1	-3.0634
23331	12.93	1.5455	0.1	-3.1168
23332	12.653	1.4545	0.1	-2.0147
23333	12.745	1.5455	0.1	-2.0625
23334	12.469	1.4545	0.1	-0.90478
23335	12.561	1.5455	0.1	-0.94608
23336	12.284	1.4545	0.1	-5.354e-002
23337	12.376	1.5455	0.1	-5.6146e-002
23338	12.1	1.4545	0.1	-1.4711e-002
23339	12.192	1.5455	0.1	-1.4594e-002
23340	11.915	1.4545	0.1	-9.4492e-003
23341	12.007	1.5455	0.1	-9.4287e-003
23342	11.731	1.4545	0.1	-7.4079e-003
23343	11.823	1.5455	0.1	-7.4379e-003
23344	11.546	1.4545	0.1	-6.3358e-003
23345	11.638	1.5455	0.1	-6.3852e-003
23346	11.362	1.4545	0.1	-5.6852e-003
23347	11.454	1.5455	0.1	-5.7378e-003
23348	11.177	1.4545	0.1	-5.2675e-003
23349	11.269	1.5455	0.1	-5.3012e-003
23350	10.993	1.4545	0.1	-4.9937e-003
23351	11.085	1.5455	0.1	-5.0115e-003
23352	10.808	1.4545	0.1	-4.7951e-003
23353	10.9	1.5455	0.1	-4.8025e-003
23354	10.624	1.4545	0.1	-4.67e-003
23355	10.716	1.5455	0.1	-4.6249e-003
23356	10.439	1.4545	0.1	-4.6281e-003
23357	10.531	1.5455	0.1	-4.5368e-003
23358	10.255	1.4545	0.1	-4.6395e-003
23359	10.347	1.5455	0.1	-4.5053e-003
23360	10.07	1.4545	0.1	-4.7028e-003
23361	10.162	1.5455	0.1	-4.5069e-003
23362	9.8855	1.4545	0.1	-4.8258e-003
23363	9.9778	1.5455	0.1	-4.5627e-003
23364	9.701	1.4545	0.1	-5.0136e-003
23365	9.7933	1.5455	0.1	-4.6692e-003
23366	9.5165	1.4545	0.1	-5.2802e-003
23367	9.6088	1.5455	0.1	-4.8397e-003
23368	9.332	1.4545	0.1	-5.6405e-003
23369	9.4243	1.5455	0.1	-5.0874e-003
23370	9.1475	1.4545	0.1	-6.1128e-003
23371	9.2398	1.5455	0.1	-5.4265e-003
23372	8.963	1.4545	0.1	-6.7236e-003
23373	9.0553	1.5455	0.1	-5.8791e-003
23374	8.7785	1.4545	0.1	-7.508e-003
23375	8.8708	1.5455	0.1	-6.473e-003
23376	8.594	1.4545	0.1	-8.5098e-003
23377	8.6863	1.5455	0.1	-7.2457e-003
23378	8.4095	1.4545	0.1	-9.786e-003
23379	8.5018	1.5455	0.1	-8.2436e-003
23380	8.225	1.4545	0.1	-1.1416e-002
23381	8.3173	1.5455	0.1	-9.5285e-003
23382	8.0405	1.4545	0.1	-1.3501e-002
23383	8.1327	1.5455	0.1	-1.1188e-002
23384	7.856	1.4545	0.1	-1.6174e-002
23385	7.9482	1.5455	0.1	-1.333e-002
23386	7.6715	1.4545	0.1	-1.9609e-002
23387	7.7637	1.5455	0.1	-1.6094e-002
23388	7.487	1.4545	0.1	-2.4047e-002
23389	7.5792	1.5455	0.1	-1.9671e-002
23390	7.3025	1.4545	0.1	-2.9815e-002
23391	7.3947	1.5455	0.1	-2.432e-002
23392	7.118	1.4545	0.1	-3.7357e-002
23393	7.2102	1.5455	0.1	-3.0391e-002
23394	6.9335	1.4545	0.1	-4.7292e-002
23395	7.0257	1.5455	0.1	-3.8357e-002
23396	6.749	1.4545	0.1	-6.0489e-002
23397	6.8412	1.5455	0.1	-4.8873e-002
23398	6.5645	1.4545	0.1	-7.8185e-002
23399	6.6567	1.5455	0.1	-6.2835e-002
23400	6.38	1.4545	0.1	-0.10216
23401	6.4722	1.5455	0.1	-8.1585e-002
23402	6.1955	1.4545	0.1	-0.13503
23403	6.2877	1.5455	0.1	-0.10688
23404	6.011	1.4545	0.1	-0.18074
23405	6.1032	1.5455	0.1	-0.1414
23406	5.8265	1.4545	0.1	-0.2454
23407	5.9187	1.5455	0.1	-0.18906
23408	5.642	1.4545	0.1	-0.33876
23409	5.7342	1.5455	0.1	-0.25579
23410	5.4575	1.4545	0.1	-0.47733
23411	5.5497	1.5455	0.1	-0.35091
23412	5.273	1.4545	0.1	-0.69107
23413	5.3652	1.5455	0.1	-0.48983
23414	5.0885	1.4545	0.1	-1.0403
23415	5.1807	1.5455	0.1	-0.69984
23416	4.9039	1.4545	0.1	-1.6679
23417	4.9962	1.5455	0.1	-1.0344
23418	4.7194	1.4545	0.1	-3.0086
23419	4.8117	1.5455	0.1	-1.6162
23420	4.5349	1.4545	0.1	-7.1467
23421	4.6272	1.5455	0.1	-2.7969
23422	4.3504	1.4545	0.1	-30.838
23423	4.4427	1.5455	0.1	-6.1311
23424	4.1659	1.4545	0.1	-108.24
23425	4.2582	1.5455	0.1	-25.495
23426	3.9814	1.4545	0.1	-243.87
23427	4.0737	1.5455	0.1	-113.58
23428	3.7969	1.4545	0.1	-464.81
23429	3.8892	1.5455	0.1	-280.9
23430	3.6124	1.4545	0.1	-821.56
23431	3.7047	1.5455	0.1	-563.87
23432	3.4279	1.4545	0.1	-1384.1
23433	3.5202	1.5455	0.1	-1037.1
23434	3.2434	1.4545	0.1	-2304.2
23435	3.3357	1.5455	0.1	-1849.2
23436	3.1512	1.5455	0.1	-3405.8
23437	3.0589	1.4545	0.1	-2453.3
23438	23.723	1.6364	0.1	-145.71
23439	23.815	1.7273	0.1	-154.36
23440	23.908	1.6364	0.1	-155.52
23441	23.539	1.6364	0.1	-135.67
23442	23.631	1.7273	0.1	-144.04
23443	23.354	1.6364	0.1	-126.27
23444	23.446	1.7273	0.1	-134.21
23445	23.17	1.6364	0.1	-117.55
23446	23.262	1.7273	0.1	-125.07
23447	22.985	1.6364	0.1	-109.48
23448	23.077	1.7273	0.1	-116.55
23449	22.801	1.6364	0.1	-102.04
23450	22.893	1.7273	0.1	-108.66
23451	22.616	1.6364	0.1	-95.202
23452	22.708	1.7273	0.1	-101.37
23453	22.432	1.6364	0.1	-88.912
23454	22.524	1.7273	0.1	-94.637
23455	22.247	1.6364	0.1	-83.132
23456	22.339	1.7273	0.1	-88.431
23457	22.063	1.6364	0.1	-77.816
23458	22.155	1.7273	0.1	-82.711
23459	21.878	1.6364	0.1	-72.924
23460	21.97	1.7273	0.1	-77.438
23461	21.694	1.6364	0.1	-68.418
23462	21.786	1.7273	0.1	-72.575
23463	21.509	1.6364	0.1	-64.262
23464	21.601	1.7273	0.1	-68.087
23465	21.325	1.6364	0.1	-60.426
23466	21.417	1.7273	0.1	-63.941
23467	21.14	1.6364	0.1	-56.882
23468	21.232	1.7273	0.1	-60.11
23469	20.956	1.6364	0.1	-53.603
23470	21.048	1.7273	0.1	-56.567
23471	20.771	1.6364	0.1	-50.568
23472	20.863	1.7273	0.1	-53.288
23473	20.587	1.6364	0.1	-47.757
23474	20.679	1.7273	0.1	-50.252
23475	20.402	1.6364	0.1	-45.15
23476	20.494	1.7273	0.1	-47.438
23477	20.218	1.6364	0.1	-42.731
23478	20.31	1.7273	0.1	-44.828
23479	20.033	1.6364	0.1	-40.486
23480	20.125	1.7273	0.1	-42.408
23481	19.849	1.6364	0.1	-38.399
23482	19.941	1.7273	0.1	-40.16
23483	19.664	1.6364	0.1	-36.46
23484	19.756	1.7273	0.1	-38.072
23485	19.48	1.6364	0.1	-34.655
23486	19.572	1.7273	0.1	-36.131
23487	19.295	1.6364	0.1	-32.974
23488	19.387	1.7273	0.1	-34.325
23489	19.111	1.6364	0.1	-31.406
23490	19.203	1.7273	0.1	-32.644
23491	18.926	1.6364	0.1	-29.944
23492	19.018	1.7273	0.1	-31.077
23493	18.742	1.6364	0.1	-28.578
23494	18.834	1.7273	0.1	-29.615
23495	18.557	1.6364	0.1	-27.3
23496	18.649	1.7273	0.1	-28.249
23497	18.373	1.6364	0.1	-26.103
23498	18.465	1.7273	0.1	-26.971
23499	18.188	1.6364	0.1	-24.98
23500	18.28	1.7273	0.1	-25.773
23501	18.004	1.6364	0.1	-23.924
23502	18.096	1.7273	0.1	-24.649
23503	17.819	1.6364	0.1	-22.928
23504	17.911	1.7273	0.1	-23.592
23505	17.635	1.6364	0.1	-21.988
23506	17.727	1.7273	0.1	-22.596
23507	17.45	1.6364	0.1	-21.098
23508	17.542	1.7273	0.1	-21.654
23509	17.266	1.6364	0.1	-20.252
23510	17.358	1.7273	0.1	-20.761
23511	17.081	1.6364	0.1	-19.445
23512	17.173	1.7273	0.1	-19.912
23513	16.897	1.6364	0.1	-18.674
23514	16.989	1.7273	0.1	-19.101
23515	16.712	1.6364	0.1	-17.933
23516	16.804	1.7273	0.1	-18.325
23517	16.528	1.6364	0.1	-17.217
23518	16.62	1.7273	0.1	-17.577
23519	16.343	1.6364	0.1	-16.524
23520	16.435	1.7273	0.1	-16.855
23521	16.159	1.6364	0.1	-15.848
23522	16.251	1.7273	0.1	-16.152
23523	15.974	1.6364	0.1	-15.186
23524	16.066	1.7273	0.1	-15.467
23525	15.79	1.6364	0.1	-14.533
23526	15.882	1.7273	0.1	-14.793
23527	15.605	1.6364	0.1	-13.886
23528	15.697	1.7273	0.1	-14.127
23529	15.421	1.6364	0.1	-13.242
23530	15.513	1.7273	0.1	-13.466
23531	15.236	1.6364	0.1	-12.596
23532	15.328	1.7273	0.1	-12.804
23533	15.052	1.6364	0.1	-11.944
23534	15.144	1.7273	0.1	-12.139
23535	14.867	1.6364	0.1	-11.282
23536	14.959	1.7273	0.1	-11.466
23537	14.683	1.6364	0.1	-10.607
23538	14.775	1.7273	0.1	-10.781
23539	14.498	1.6364	0.1	-9.9139
23540	14.59	1.7273	0.1	-10.08
23541	14.314	1.6364	0.1	-9.1993
23542	14.406	1.7273	0.1	-9.3578
23543	14.129	1.6364	0.1	-8.4586
23544	14.221	1.7273	0.1	-8.6111
23545	13.945	1.6364	0.1	-7.6872
23546	14.037	1.7273	0.1	-7.8351
23547	13.76	1.6364	0.1	-6.8805
23548	13.852	1.7273	0.1	-7.0248
23549	13.576	1.6364	0.1	-6.0336
23550	13.668	1.7273	0.1	-6.1754
23551	13.391	1.6364	0.1	-5.1414
23552	13.483	1.7273	0.1	-5.2817
23553	13.207	1.6364	0.1	-4.1985
23554	13.299	1.7273	0.1	-4.3382
23555	13.022	1.6364	0.1	-3.1995
23556	13.114	1.7273	0.1	-3.3392
23557	12.838	1.6364	0.1	-2.1389
23558	12.93	1.7273	0.1	-2.2794
23559	12.653	1.6364	0.1	-1.0151
23560	12.745	1.7273	0.1	-1.1553
23561	12.469	1.6364	0.1	-6.3156e-002
23562	12.561	1.7273	0.1	-9.651e-002
23563	12.284	1.6364	0.1	-1.4491e-002
23564	12.376	1.7273	0.1	-1.4924e-002
23565	12.1	1.6364	0.1	-9.3672e-003
23566	12.192	1.7273	0.1	-9.4342e-003
23567	11.915	1.6364	0.1	-7.4359e-003
23568	12.007	1.7273	0.1	-7.4872e-003
23569	11.731	1.6364	0.1	-6.4117e-003
23570	11.823	1.7273	0.1	-6.4682e-003
23571	11.546	1.6364	0.1	-5.7745e-003
23572	11.638	1.7273	0.1	-5.8324e-003
23573	11.362	1.6364	0.1	-5.3377e-003
23574	11.454	1.7273	0.1	-5.3928e-003
23575	11.177	1.6364	0.1	-5.0285e-003
23576	11.269	1.7273	0.1	-5.0639e-003
23577	10.993	1.6364	0.1	-4.8045e-003
23578	11.085	1.7273	0.1	-4.8263e-003
23579	10.808	1.6364	0.1	-4.6184e-003
23580	10.9	1.7273	0.1	-4.6338e-003
23581	10.624	1.6364	0.1	-4.48e-003
23582	10.716	1.7273	0.1	-4.4489e-003
23583	10.439	1.6364	0.1	-4.4052e-003
23584	10.531	1.7273	0.1	-4.3336e-003
23585	10.255	1.6364	0.1	-4.3671e-003
23586	10.347	1.7273	0.1	-4.2602e-003
23587	10.07	1.6364	0.1	-4.3649e-003
23588	10.162	1.7273	0.1	-4.2048e-003
23589	9.8855	1.6364	0.1	-4.4082e-003
23590	9.9778	1.7273	0.1	-4.1898e-003
23591	9.701	1.6364	0.1	-4.5018e-003
23592	9.7933	1.7273	0.1	-4.2106e-003
23593	9.5165	1.6364	0.1	-4.6585e-003
23594	9.6088	1.7273	0.1	-4.2812e-003
23595	9.332	1.6364	0.1	-4.8906e-003
23596	9.4243	1.7273	0.1	-4.4116e-003
23597	9.1475	1.6364	0.1	-5.2162e-003
23598	9.2398	1.7273	0.1	-4.6144e-003
23599	8.963	1.6364	0.1	-5.659e-003
23600	9.0553	1.7273	0.1	-4.9099e-003
23601	8.7785	1.6364	0.1	-6.2494e-003
23602	8.8708	1.7273	0.1	-5.3217e-003
23603	8.594	1.6364	0.1	-7.0279e-003
23604	8.6863	1.7273	0.1	-5.883e-003
23605	8.4095	1.6364	0.1	-8.0458e-003
23606	8.5018	1.7273	0.1	-6.6351e-003
23607	8.225	1.6364	0.1	-9.3746e-003
23608	8.3173	1.7273	0.1	-7.6323e-003
23609	8.0405	1.6364	0.1	-1.1107e-002
23610	8.1327	1.7273	0.1	-8.9531e-003
23611	7.856	1.6364	0.1	-1.3361e-002
23612	7.9482	1.7273	0.1	-1.0693e-002
23613	7.6715	1.6364	0.1	-1.6294e-002
23614	7.7637	1.7273	0.1	-1.2974e-002
23615	7.487	1.6364	0.1	-2.0118e-002
23616	7.5792	1.7273	0.1	-1.5965e-002
23617	7.3025	1.6364	0.1	-2.5118e-002
23618	7.3947	1.7273	0.1	-1.9893e-002
23619	7.118	1.6364	0.1	-3.168e-002
23620	7.2102	1.7273	0.1	-2.5056e-002
23621	6.9335	1.6364	0.1	-4.0324e-002
23622	7.0257	1.7273	0.1	-3.1859e-002
23623	6.749	1.6364	0.1	-5.177e-002
23624	6.8412	1.7273	0.1	-4.0848e-002
23625	6.5645	1.6364	0.1	-6.7008e-002
23626	6.6567	1.7273	0.1	-5.2773e-002
23627	6.38	1.6364	0.1	-8.7414e-002
23628	6.4722	1.7273	0.1	-6.8652e-002
23629	6.1955	1.6364	0.1	-0.11494
23630	6.2877	1.7273	0.1	-8.9889e-002
23631	6.011	1.6364	0.1	-0.15238
23632	6.1032	1.7273	0.1	-0.11846
23633	5.8265	1.6364	0.1	-0.20382
23634	5.9187	1.7273	0.1	-0.15717
23635	5.642	1.6364	0.1	-0.27539
23636	5.7342	1.7273	0.1	-0.21004
23637	5.4575	1.6364	0.1	-0.37661
23638	5.5497	1.7273	0.1	-0.28301
23639	5.273	1.6364	0.1	-0.52313
23640	5.3652	1.7273	0.1	-0.38523
23641	5.0885	1.6364	0.1	-0.74256
23642	5.1807	1.7273	0.1	-0.53156
23643	4.9039	1.6364	0.1	-1.0895
23644	4.9962	1.7273	0.1	-0.74767
23645	4.7194	1.6364	0.1	-1.6879
23646	4.8117	1.7273	0.1	-1.0845
23647	4.5349	1.6364	0.1	-2.9052
23648	4.6272	1.7273	0.1	-1.6528
23649	4.3504	1.6364	0.1	-6.3566
23650	4.4427	1.7273	0.1	-2.7846
23651	4.1659	1.6364	0.1	-28.711
23652	4.2582	1.7273	0.1	-5.7998
23653	3.9814	1.6364	0.1	-142.73
23654	4.0737	1.7273	0.1	-24.501
23655	3.7969	1.6364	0.1	-366.86
23656	3.8892	1.7273	0.1	-149.71
23657	3.6124	1.6364	0.1	-756.83
23658	3.7047	1.7273	0.1	-414.61
23659	3.4279	1.6364	0.1	-1460.5
23660	3.5202	1.7273	0.1	-885.73
23661	3.2434	1.6364	0.1	-2830.4
23662	3.3357	1.7273	0.1	-1857.5
23663	3.1512	1.7273	0.1	-4082.6
23664	3.0589	1.6364	0.1	-3155.4
23665	23.723	1.8182	0.1	-152.71
23666	23.815	1.9091	0.1	-160.82
23667	23.908	1.8182	0.1	-162.62
23668	23.539	1.8182	0.1	-142.59
23669	23.631	1.9091	0.1	-150.46
23670	23.354	1.8182	0.1	-133.03
23671	23.446	1.9091	0.1	-140.53
23672	23.17	1.8182	0.1	-124.1
23673	23.262	1.9091	0.1	-131.22
23674	22.985	1.8182	0.1	-115.76
23675	23.077	1.9091	0.1	-122.49
23676	22.801	1.8182	0.1	-108.01
23677	22.893	1.9091	0.1	-114.34
23678	22.616	1.8182	0.1	-100.83
23679	22.708	1.9091	0.1	-106.76
23680	22.432	1.8182	0.1	-94.187
23681	22.524	1.9091	0.1	-99.714
23682	22.247	1.8182	0.1	-88.044
23683	22.339	1.9091	0.1	-93.183
23684	22.063	1.8182	0.1	-82.369
23685	22.155	1.9091	0.1	-87.134
23686	21.878	1.8182	0.1	-77.126
23687	21.97	1.9091	0.1	-81.535
23688	21.694	1.8182	0.1	-72.282
23689	21.786	1.9091	0.1	-76.354
23690	21.509	1.8182	0.1	-67.805
23691	21.601	1.9091	0.1	-71.561
23692	21.325	1.8182	0.1	-63.666
23693	21.417	1.9091	0.1	-67.126
23694	21.14	1.8182	0.1	-59.837
23695	21.232	1.9091	0.1	-63.022
23696	20.956	1.8182	0.1	-56.293
23697	21.048	1.9091	0.1	-59.223
23698	20.771	1.8182	0.1	-53.013
23699	20.863	1.9091	0.1	-55.705
23700	20.587	1.8182	0.1	-49.973
23701	20.679	1.9091	0.1	-52.447
23702	20.402	1.8182	0.1	-47.157
23703	20.494	1.9091	0.1	-49.428
23704	20.218	1.8182	0.1	-44.545
23705	20.31	1.9091	0.1	-46.63
23706	20.033	1.8182	0.1	-42.122
23707	20.125	1.9091	0.1	-44.035
23708	19.849	1.8182	0.1	-39.873
23709	19.941	1.9091	0.1	-41.628
23710	19.664	1.8182	0.1	-37.784
23711	19.756	1.9091	0.1	-39.393
23712	19.48	1.8182	0.1	-35.841
23713	19.572	1.9091	0.1	-37.317
23714	19.295	1.8182	0.1	-34.035
23715	19.387	1.9091	0.1	-35.388
23716	19.111	1.8182	0.1	-32.353
23717	19.203	1.9091	0.1	-33.593
23718	18.926	1.8182	0.1	-30.785
23719	19.018	1.9091	0.1	-31.922
23720	18.742	1.8182	0.1	-29.323
23721	18.834	1.9091	0.1	-30.365
23722	18.557	1.8182	0.1	-27.956
23723	18.649	1.9091	0.1	-28.911
23724	18.373	1.8182	0.1	-26.678
23725	18.465	1.9091	0.1	-27.553
23726	18.188	1.8182	0.1	-25.479
23727	18.28	1.9091	0.1	-26.282
23728	18.004	1.8182	0.1	-24.354
23729	18.096	1.9091	0.1	-25.091
23730	17.819	1.8182	0.1	-23.295
23731	17.911	1.9091	0.1	-23.971
23732	17.635	1.8182	0.1	-22.296
23733	17.727	1.9091	0.1	-22.917
23734	17.45	1.8182	0.1	-21.352
23735	17.542	1.9091	0.1	-21.922
23736	17.266	1.8182	0.1	-20.455
23737	17.358	1.9091	0.1	-20.98
23738	17.081	1.8182	0.1	-19.601
23739	17.173	1.9091	0.1	-20.084
23740	16.897	1.8182	0.1	-18.785
23741	16.989	1.9091	0.1	-19.23
23742	16.712	1.8182	0.1	-18.002
23743	16.804	1.9091	0.1	-18.413
23744	16.528	1.8182	0.1	-17.247
23745	16.62	1.9091	0.1	-17.627
23746	16.343	1.8182	0.1	-16.515
23747	16.435	1.9091	0.1	-16.868
23748	16.159	1.8182	0.1	-15.802
23749	16.251	1.9091	0.1	-16.131
23750	15.974	1.8182	0.1	-15.105
23751	16.066	1.9091	0.1	-15.411
23752	15.79	1.8182	0.1	-14.417
23753	15.882	1.9091	0.1	-14.704
23754	15.605	1.8182	0.1	-13.736
23755	15.697	1.9091	0.1	-14.006
23756	15.421	1.8182	0.1	-13.058
23757	15.513	1.9091	0.1	-13.312
23758	15.236	1.8182	0.1	-12.377
23759	15.328	1.9091	0.1	-12.619
23760	15.052	1.8182	0.1	-11.69
23761	15.144	1.9091	0.1	-11.921
23762	14.867	1.8182	0.1	-10.993
23763	14.959	1.9091	0.1	-11.215
23764	14.683	1.8182	0.1	-10.281
23765	14.775	1.9091	0.1	-10.496
23766	14.498	1.8182	0.1	-9.5507
23767	14.59	1.9091	0.1	-9.7599
23768	14.314	1.8182	0.1	-8.7965
23769	14.406	1.9091	0.1	-9.0018
23770	14.129	1.8182	0.1	-8.0141
23771	14.221	1.9091	0.1	-8.217
23772	13.945	1.8182	0.1	-7.1987
23773	14.037	1.9091	0.1	-7.4009
23774	13.76	1.8182	0.1	-6.3453
23775	13.852	1.9091	0.1	-6.5481
23776	13.576	1.8182	0.1	-5.4486
23777	13.668	1.9091	0.1	-5.6535
23778	13.391	1.8182	0.1	-4.5031
23779	13.483	1.9091	0.1	-4.7115
23780	13.207	1.8182	0.1	-3.503
23781	13.299	1.9091	0.1	-3.7161
23782	13.022	1.8182	0.1	-2.4426
23783	13.114	1.9091	0.1	-2.6617
23784	12.838	1.8182	0.1	-1.3174
23785	12.93	1.9091	0.1	-1.5428
23786	12.653	1.8182	0.1	-0.1788
23787	12.745	1.9091	0.1	-0.37148
23788	12.469	1.8182	0.1	-1.545e-002
23789	12.561	1.9091	0.1	-1.6954e-002
23790	12.284	1.8182	0.1	-9.4669e-003
23791	12.376	1.9091	0.1	-9.6363e-003
23792	12.1	1.8182	0.1	-7.5016e-003
23793	12.192	1.9091	0.1	-7.5644e-003
23794	11.915	1.8182	0.1	-6.5001e-003
23795	12.007	1.9091	0.1	-6.558e-003
23796	11.731	1.8182	0.1	-5.8742e-003
23797	11.823	1.9091	0.1	-5.9335e-003
23798	11.546	1.8182	0.1	-5.4368e-003
23799	11.638	1.9091	0.1	-5.496e-003
23800	11.362	1.8182	0.1	-5.1055e-003
23801	11.454	1.9091	0.1	-5.1618e-003
23802	11.177	1.8182	0.1	-4.849e-003
23803	11.269	1.9091	0.1	-4.8882e-003
23804	10.993	1.8182	0.1	-4.6441e-003
23805	11.085	1.9091	0.1	-4.6734e-003
23806	10.808	1.8182	0.1	-4.4544e-003
23807	10.9	1.9091	0.1	-4.482e-003
23808	10.624	1.8182	0.1	-4.2944e-003
23809	10.716	1.9091	0.1	-4.281e-003
23810	10.439	1.8182	0.1	-4.1828e-003
23811	10.531	1.9091	0.1	-4.1361e-003
23812	10.255	1.8182	0.1	-4.0946e-003
23813	10.347	1.9091	0.1	-4.0192e-003
23814	10.07	1.8182	0.1	-4.0293e-003
23815	10.162	1.9091	0.1	-3.9083e-003
23816	9.8855	1.8182	0.1	-3.9951e-003
23817	9.9778	1.9091	0.1	-3.825e-003
23818	9.701	1.8182	0.1	-3.9966e-003
23819	9.7933	1.9091	0.1	-3.7642e-003
23820	9.5165	1.8182	0.1	-4.0451e-003
23821	9.6088	1.9091	0.1	-3.7378e-003
23822	9.332	1.8182	0.1	-4.1511e-003
23823	9.4243	1.9091	0.1	-3.754e-003
23824	9.1475	1.8182	0.1	-4.3294e-003
23825	9.2398	1.9091	0.1	-3.8238e-003
23826	8.963	1.8182	0.1	-4.6004e-003
23827	9.0553	1.9091	0.1	-3.963e-003
23828	8.7785	1.8182	0.1	-4.9908e-003
23829	8.8708	1.9091	0.1	-4.1919e-003
23830	8.594	1.8182	0.1	-5.5348e-003
23831	8.6863	1.9091	0.1	-4.5382e-003
23832	8.4095	1.8182	0.1	-6.2772e-003
23833	8.5018	1.9091	0.1	-5.037e-003
23834	8.225	1.8182	0.1	-7.28e-003
23835	8.3173	1.9091	0.1	-5.734e-003
23836	8.0405	1.8182	0.1	-8.6249e-003
23837	8.1327	1.9091	0.1	-6.6971e-003
23838	7.856	1.8182	0.1	-1.0413e-002
23839	7.9482	1.9091	0.1	-8.0082e-003
23840	7.6715	1.8182	0.1	-1.2781e-002
23841	7.7637	1.9091	0.1	-9.7709e-003
23842	7.487	1.8182	0.1	-1.5912e-002
23843	7.5792	1.9091	0.1	-1.213e-002
23844	7.3025	1.8182	0.1	-2.0051e-002
23845	7.3947	1.9091	0.1	-1.5278e-002
23846	7.118	1.8182	0.1	-2.5523e-002
23847	7.2102	1.9091	0.1	-1.9468e-002
23848	6.9335	1.8182	0.1	-3.2766e-002
23849	7.0257	1.9091	0.1	-2.504e-002
23850	6.749	1.8182	0.1	-4.2371e-002
23851	6.8412	1.9091	0.1	-3.2446e-002
23852	6.5645	1.8182	0.1	-5.5139e-002
23853	6.6567	1.9091	0.1	-4.2301e-002
23854	6.38	1.8182	0.1	-7.2153e-002
23855	6.4722	1.9091	0.1	-5.5425e-002
23856	6.1955	1.8182	0.1	-9.491e-002
23857	6.2877	1.9091	0.1	-7.2921e-002
23858	6.011	1.8182	0.1	-0.12549
23859	6.1032	1.9091	0.1	-9.6315e-002
23860	5.8265	1.8182	0.1	-0.16679
23861	5.9187	1.9091	0.1	-0.12769
23862	5.642	1.8182	0.1	-0.22299
23863	5.7342	1.9091	0.1	-0.16993
23864	5.4575	1.8182	0.1	-0.30018
23865	5.5497	1.9091	0.1	-0.22714
23866	5.273	1.8182	0.1	-0.40775
23867	5.3652	1.9091	0.1	-0.30521
23868	5.0885	1.8182	0.1	-0.56079
23869	5.1807	1.9091	0.1	-0.41317
23870	4.9039	1.8182	0.1	-0.78625
23871	4.9962	1.9091	0.1	-0.565
23872	4.7194	1.8182	0.1	-1.1352
23873	4.8117	1.9091	0.1	-0.78677
23874	4.5349	1.8182	0.1	-1.7317
23875	4.6272	1.9091	0.1	-1.1216
23876	4.3504	1.8182	0.1	-2.9051
23877	4.4427	1.9091	0.1	-1.6966
23878	4.1659	1.8182	0.1	-6.2074
23879	4.2582	1.9091	0.1	-2.7414
23880	3.9814	1.8182	0.1	-28.238
23881	4.0737	1.9091	0.1	-5.7775
23882	3.7969	1.8182	0.1	-188.34
23883	3.8892	1.9091	0.1	-22.785
23884	3.6124	1.8182	0.1	-529.91
23885	3.7047	1.9091	0.1	-188.96
23886	3.4279	1.8182	0.1	-1256.2
23887	3.5202	1.9091	0.1	-562.18
23888	3.2434	1.8182	0.1	-3011.6
23889	3.3357	1.9091	0.1	-1367.1
23890	3.1512	1.9091	0.1	-3494.5
23891	3.0589	1.8182	0.1	-4921.1
23892	23.723	2.	0.1	-158.58
23893	23.815	2.0909	0.1	-166.17
23894	23.908	2.	0.1	-168.58
23895	23.539	2.	0.1	-148.41
23896	23.631	2.0909	0.1	-155.8
23897	23.354	2.	0.1	-138.73
23898	23.446	2.0909	0.1	-145.79
23899	23.17	2.	0.1	-129.64
23900	23.262	2.0909	0.1	-136.36
23901	22.985	2.	0.1	-121.1
23902	23.077	2.0909	0.1	-127.47
23903	22.801	2.	0.1	-113.11
23904	22.893	2.0909	0.1	-119.12
23905	22.616	2.	0.1	-105.67
23906	22.708	2.0909	0.1	-111.31
23907	22.432	2.	0.1	-98.737
23908	22.524	2.0909	0.1	-104.02
23909	22.247	2.	0.1	-92.302
23910	22.339	2.0909	0.1	-97.233
23911	22.063	2.	0.1	-86.331
23912	22.155	2.0909	0.1	-90.919
23913	21.878	2.	0.1	-80.796
23914	21.97	2.0909	0.1	-85.054
23915	21.694	2.	0.1	-75.668
23916	21.786	2.0909	0.1	-79.611
23917	21.509	2.	0.1	-70.919
23918	21.601	2.0909	0.1	-74.564
23919	21.325	2.	0.1	-66.52
23920	21.417	2.0909	0.1	-69.886
23921	21.14	2.	0.1	-62.446
23922	21.232	2.0909	0.1	-65.55
23923	20.956	2.	0.1	-58.673
23924	21.048	2.0909	0.1	-61.533
23925	20.771	2.	0.1	-55.179
23926	20.863	2.0909	0.1	-57.812
23927	20.587	2.	0.1	-51.941
23928	20.679	2.0909	0.1	-54.363
23929	20.402	2.	0.1	-48.94
23930	20.494	2.0909	0.1	-51.168
23931	20.218	2.	0.1	-46.159
23932	20.31	2.0909	0.1	-48.206
23933	20.033	2.	0.1	-43.579
23934	20.125	2.0909	0.1	-45.46
23935	19.849	2.	0.1	-41.186
23936	19.941	2.0909	0.1	-42.914
23937	19.664	2.	0.1	-38.965
23938	19.756	2.0909	0.1	-40.551
23939	19.48	2.	0.1	-36.901
23940	19.572	2.0909	0.1	-38.358
23941	19.295	2.	0.1	-34.984
23942	19.387	2.0909	0.1	-36.321
23943	19.111	2.	0.1	-33.2
23944	19.203	2.0909	0.1	-34.428
23945	18.926	2.	0.1	-31.539
23946	19.018	2.0909	0.1	-32.666
23947	18.742	2.	0.1	-29.99
23948	18.834	2.0909	0.1	-31.026
23949	18.557	2.	0.1	-28.545
23950	18.649	2.0909	0.1	-29.496
23951	18.373	2.	0.1	-27.195
23952	18.465	2.0909	0.1	-28.068
23953	18.188	2.	0.1	-25.93
23954	18.28	2.0909	0.1	-26.733
23955	18.004	2.	0.1	-24.744
23956	18.096	2.0909	0.1	-25.483
23957	17.819	2.	0.1	-23.628
23958	17.911	2.0909	0.1	-24.309
23959	17.635	2.	0.1	-22.577
23960	17.727	2.0909	0.1	-23.204
23961	17.45	2.	0.1	-21.584
23962	17.542	2.0909	0.1	-22.162
23963	17.266	2.	0.1	-20.643
23964	17.358	2.0909	0.1	-21.177
23965	17.081	2.	0.1	-19.747
23966	17.173	2.0909	0.1	-20.241
23967	16.897	2.	0.1	-18.891
23968	16.989	2.0909	0.1	-19.35
23969	16.712	2.	0.1	-18.071
23970	16.804	2.0909	0.1	-18.497
23971	16.528	2.	0.1	-17.28
23972	16.62	2.0909	0.1	-17.677
23973	16.343	2.	0.1	-16.515
23974	16.435	2.0909	0.1	-16.886
23975	16.159	2.	0.1	-15.77
23976	16.251	2.0909	0.1	-16.118
23977	15.974	2.	0.1	-15.041
23978	16.066	2.0909	0.1	-15.369
23979	15.79	2.	0.1	-14.323
23980	15.882	2.0909	0.1	-14.633
23981	15.605	2.	0.1	-13.612
23982	15.697	2.0909	0.1	-13.907
23983	15.421	2.	0.1	-12.903
23984	15.513	2.0909	0.1	-13.185
23985	15.236	2.	0.1	-12.192
23986	15.328	2.0909	0.1	-12.464
23987	15.052	2.	0.1	-11.474
23988	15.144	2.0909	0.1	-11.738
23989	14.867	2.	0.1	-10.746
23990	14.959	2.0909	0.1	-11.003
23991	14.683	2.	0.1	-10.002
23992	14.775	2.0909	0.1	-10.255
23993	14.498	2.	0.1	-9.2382
23994	14.59	2.0909	0.1	-9.4887
23995	14.314	2.	0.1	-8.4492
23996	14.406	2.0909	0.1	-8.6992
23997	14.129	2.	0.1	-7.6302
23998	14.221	2.0909	0.1	-7.8815
23999	13.945	2.	0.1	-6.7763
24000	14.037	2.0909	0.1	-7.0306
24001	13.76	2.	0.1	-5.8818
24002	13.852	2.0909	0.1	-6.1411
24003	13.576	2.	0.1	-4.9414
24004	13.668	2.0909	0.1	-5.2074
24005	13.391	2.	0.1	-3.9491
24006	13.483	2.0909	0.1	-4.2235
24007	13.207	2.	0.1	-2.8987
24008	13.299	2.0909	0.1	-3.1834
24009	13.022	2.	0.1	-1.7847
24010	13.114	2.0909	0.1	-2.0809
24011	12.838	2.	0.1	-0.60741
24012	12.93	2.0909	0.1	-0.91207
24013	12.653	2.	0.1	-1.9476e-002
24014	12.745	2.0909	0.1	-2.801e-002
24015	12.469	2.	0.1	-9.7812e-003
24016	12.561	2.0909	0.1	-1.0135e-002
24017	12.284	2.	0.1	-7.5993e-003
24018	12.376	2.0909	0.1	-7.6822e-003
24019	12.1	2.	0.1	-6.5873e-003
24020	12.192	2.0909	0.1	-6.6374e-003
24021	11.915	2.	0.1	-5.9757e-003
24022	12.007	2.0909	0.1	-6.0313e-003
24023	11.731	2.	0.1	-5.5437e-003
24024	11.823	2.0909	0.1	-5.6035e-003
24025	11.546	2.	0.1	-5.2106e-003
24026	11.638	2.0909	0.1	-5.2721e-003
24027	11.362	2.	0.1	-4.9347e-003
24028	11.454	2.0909	0.1	-4.9954e-003
24029	11.177	2.	0.1	-4.7036e-003
24030	11.269	2.0909	0.1	-4.7501e-003
24031	10.993	2.	0.1	-4.5032e-003
24032	11.085	2.0909	0.1	-4.5435e-003
24033	10.808	2.	0.1	-4.3018e-003
24034	10.9	2.0909	0.1	-4.3453e-003
24035	10.624	2.	0.1	-4.1173e-003
24036	10.716	2.0909	0.1	-4.1251e-003
24037	10.439	2.	0.1	-3.9689e-003
24038	10.531	2.0909	0.1	-3.9498e-003
24039	10.255	2.	0.1	-3.8314e-003
24040	10.347	2.0909	0.1	-3.7917e-003
24041	10.07	2.	0.1	-3.705e-003
24042	10.162	2.0909	0.1	-3.6287e-003
24043	9.8855	2.	0.1	-3.5979e-003
24044	9.9778	2.0909	0.1	-3.4815e-003
24045	9.701	2.	0.1	-3.5124e-003
24046	9.7933	2.0909	0.1	-3.3451e-003
24047	9.5165	2.	0.1	-3.4576e-003
24048	9.6088	2.0909	0.1	-3.2279e-003
24049	9.332	2.	0.1	-3.4422e-003
24050	9.4243	2.0909	0.1	-3.1378e-003
24051	9.1475	2.	0.1	-3.478e-003
24052	9.2398	2.0909	0.1	-3.0815e-003
24053	8.963	2.	0.1	-3.5813e-003
24054	9.0553	2.0909	0.1	-3.072e-003
24055	8.7785	2.	0.1	-3.7736e-003
24056	8.8708	2.0909	0.1	-3.1255e-003
24057	8.594	2.	0.1	-4.0837e-003
24058	8.6863	2.0909	0.1	-3.264e-003
24059	8.4095	2.	0.1	-4.5482e-003
24060	8.5018	2.0909	0.1	-3.5155e-003
24061	8.225	2.	0.1	-5.2192e-003
24062	8.3173	2.0909	0.1	-3.9176e-003
24063	8.0405	2.	0.1	-6.1659e-003
24064	8.1327	2.0909	0.1	-4.5269e-003
24065	7.856	2.	0.1	-7.4734e-003
24066	7.9482	2.0909	0.1	-5.4117e-003
24067	7.6715	2.	0.1	-9.256e-003
24068	7.7637	2.0909	0.1	-6.6569e-003
24069	7.487	2.	0.1	-1.1669e-002
24070	7.5792	2.0909	0.1	-8.384e-003
24071	7.3025	2.	0.1	-1.4918e-002
24072	7.3947	2.0909	0.1	-1.0753e-002
24073	7.118	2.	0.1	-1.9275e-002
24074	7.2102	2.0909	0.1	-1.3977e-002
24075	6.9335	2.	0.1	-2.5104e-002
24076	7.0257	2.0909	0.1	-1.8336e-002
24077	6.749	2.	0.1	-3.289e-002
24078	6.8412	2.0909	0.1	-2.4207e-002
24079	6.5645	2.	0.1	-4.3287e-002
24080	6.6567	2.0909	0.1	-3.2094e-002
24081	6.38	2.	0.1	-5.7161e-002
24082	6.4722	2.0909	0.1	-4.2666e-002
24083	6.1955	2.	0.1	-7.5689e-002
24084	6.2877	2.0909	0.1	-5.6809e-002
24085	6.011	2.	0.1	-0.10047
24086	6.1032	2.0909	0.1	-7.5734e-002
24087	5.8265	2.	0.1	-0.13367
24088	5.9187	2.0909	0.1	-0.10106
24089	5.642	2.	0.1	-0.17828
24090	5.7342	2.0909	0.1	-0.13498
24091	5.4575	2.	0.1	-0.23849
24092	5.5497	2.0909	0.1	-0.18046
24093	5.273	2.	0.1	-0.32037
24094	5.3652	2.0909	0.1	-0.24162
24095	5.0885	2.	0.1	-0.43281
24096	5.1807	2.0909	0.1	-0.32438
24097	4.9039	2.	0.1	-0.59083
24098	4.9962	2.0909	0.1	-0.43689
24099	4.7194	2.	0.1	-0.81703
24100	4.8117	2.0909	0.1	-0.59399
24101	4.5349	2.	0.1	-1.1699
24102	4.6272	2.0909	0.1	-0.81189
24103	4.3504	2.	0.1	-1.7209
24104	4.4427	2.0909	0.1	-1.1584
24105	4.1659	2.	0.1	-2.9315
24106	4.2582	2.0909	0.1	-1.6235
24107	3.9814	2.	0.1	-5.4353
24108	4.0737	2.0909	0.1	-2.8757
24109	3.7969	2.	0.1	-25.182
24110	3.8892	2.0909	0.1	-4.1149
24111	3.6124	2.	0.1	-214.51
24112	3.7047	2.0909	0.1	-21.241
24113	3.4279	2.	0.1	-673.13
24114	3.5202	2.0909	0.1	-208.6
24115	3.2434	2.	0.1	-1882.2
24116	3.3357	2.0909	0.1	-688.72
24117	3.1512	2.0909	0.1	-1765.4
24118	3.0589	2.	0.1	-3054.5
24119	23.723	2.1818	0.1	-163.4
24120	23.815	2.2727	0.1	-170.49
24121	23.908	2.1818	0.1	-173.46
24122	23.539	2.1818	0.1	-153.18
24123	23.631	2.2727	0.1	-160.1
24124	23.354	2.1818	0.1	-143.42
24125	23.446	2.2727	0.1	-150.03
24126	23.17	2.1818	0.1	-134.21
24127	23.262	2.2727	0.1	-140.52
24128	22.985	2.1818	0.1	-125.51
24129	23.077	2.2727	0.1	-131.51
24130	22.801	2.1818	0.1	-117.35
24131	22.893	2.2727	0.1	-123.01
24132	22.616	2.1818	0.1	-109.69
24133	22.708	2.2727	0.1	-115.03
24134	22.432	2.1818	0.1	-102.54
24135	22.524	2.2727	0.1	-107.55
24136	22.247	2.1818	0.1	-95.877
24137	22.339	2.2727	0.1	-100.56
24138	22.063	2.1818	0.1	-89.67
24139	22.155	2.2727	0.1	-94.041
24140	21.878	2.1818	0.1	-83.899
24141	21.97	2.2727	0.1	-87.965
24142	21.694	2.1818	0.1	-78.539
24143	21.786	2.2727	0.1	-82.313
24144	21.509	2.1818	0.1	-73.565
24145	21.601	2.2727	0.1	-77.062
24146	21.325	2.1818	0.1	-68.951
24147	21.417	2.2727	0.1	-72.186
24148	21.14	2.1818	0.1	-64.673
24149	21.232	2.2727	0.1	-67.661
24150	20.956	2.1818	0.1	-60.708
24151	21.048	2.2727	0.1	-63.466
24152	20.771	2.1818	0.1	-57.033
24153	20.863	2.2727	0.1	-59.576
24154	20.587	2.1818	0.1	-53.627
24155	20.679	2.2727	0.1	-55.97
24156	20.402	2.1818	0.1	-50.47
24157	20.494	2.2727	0.1	-52.628
24158	20.218	2.1818	0.1	-47.545
24159	20.31	2.2727	0.1	-49.53
24160	20.033	2.1818	0.1	-44.832
24161	20.125	2.2727	0.1	-46.659
24162	19.849	2.1818	0.1	-42.316
24163	19.941	2.2727	0.1	-43.996
24164	19.664	2.1818	0.1	-39.982
24165	19.756	2.2727	0.1	-41.527
24166	19.48	2.1818	0.1	-37.815
24167	19.572	2.2727	0.1	-39.236
24168	19.295	2.1818	0.1	-35.802
24169	19.387	2.2727	0.1	-37.109
24170	19.111	2.1818	0.1	-33.931
24171	19.203	2.2727	0.1	-35.132
24172	18.926	2.1818	0.1	-32.19
24173	19.018	2.2727	0.1	-33.295
24174	18.742	2.1818	0.1	-30.568
24175	18.834	2.2727	0.1	-31.585
24176	18.557	2.1818	0.1	-29.056
24177	18.649	2.2727	0.1	-29.992
24178	18.373	2.1818	0.1	-27.643
24179	18.465	2.2727	0.1	-28.505
24180	18.188	2.1818	0.1	-26.322
24181	18.28	2.2727	0.1	-27.116
24182	18.004	2.1818	0.1	-25.083
24183	18.096	2.2727	0.1	-25.816
24184	17.819	2.1818	0.1	-23.919
24185	17.911	2.2727	0.1	-24.596
24186	17.635	2.1818	0.1	-22.824
24187	17.727	2.2727	0.1	-23.449
24188	17.45	2.1818	0.1	-21.789
24189	17.542	2.2727	0.1	-22.368
24190	17.266	2.1818	0.1	-20.809
24191	17.358	2.2727	0.1	-21.346
24192	17.081	2.1818	0.1	-19.877
24193	17.173	2.2727	0.1	-20.377
24194	16.897	2.1818	0.1	-18.988
24195	16.989	2.2727	0.1	-19.454
24196	16.712	2.1818	0.1	-18.135
24197	16.804	2.2727	0.1	-18.571
24198	16.528	2.1818	0.1	-17.315
24199	16.62	2.2727	0.1	-17.724
24200	16.343	2.1818	0.1	-16.521
24201	16.435	2.2727	0.1	-16.906
24202	16.159	2.1818	0.1	-15.748
24203	16.251	2.2727	0.1	-16.112
24204	15.974	2.1818	0.1	-14.992
24205	16.066	2.2727	0.1	-15.338
24206	15.79	2.1818	0.1	-14.247
24207	15.882	2.2727	0.1	-14.578
24208	15.605	2.1818	0.1	-13.51
24209	15.697	2.2727	0.1	-13.828
24210	15.421	2.1818	0.1	-12.776
24211	15.513	2.2727	0.1	-13.083
24212	15.236	2.1818	0.1	-12.039
24213	15.328	2.2727	0.1	-12.339
24214	15.052	2.1818	0.1	-11.296
24215	15.144	2.2727	0.1	-11.589
24216	14.867	2.1818	0.1	-10.541
24217	14.959	2.2727	0.1	-10.831
24218	14.683	2.1818	0.1	-9.7693
24219	14.775	2.2727	0.1	-10.058
24220	14.498	2.1818	0.1	-8.9769
24221	14.59	2.2727	0.1	-9.2664
24222	14.314	2.1818	0.1	-8.1583
24223	14.406	2.2727	0.1	-8.4506
24224	14.129	2.1818	0.1	-7.3083
24225	14.221	2.2727	0.1	-7.6055
24226	13.945	2.1818	0.1	-6.4214
24227	14.037	2.2727	0.1	-6.7257
24228	13.76	2.1818	0.1	-5.4922
24229	13.852	2.2727	0.1	-5.8056
24230	13.576	2.1818	0.1	-4.5145
24231	13.668	2.2727	0.1	-4.8393
24232	13.391	2.1818	0.1	-3.4824
24233	13.483	2.2727	0.1	-3.8206
24234	13.207	2.1818	0.1	-2.3893
24235	13.299	2.2727	0.1	-2.743
24236	13.022	2.1818	0.1	-1.2298
24237	13.114	2.2727	0.1	-1.6004
24238	12.838	2.1818	0.1	-8.0671e-002
24239	12.93	2.2727	0.1	-0.39408
24240	12.653	2.1818	0.1	-1.057e-002
24241	12.745	2.2727	0.1	-1.1661e-002
24242	12.469	2.1818	0.1	-7.7298e-003
24243	12.561	2.2727	0.1	-7.8384e-003
24244	12.284	2.1818	0.1	-6.6678e-003
24245	12.376	2.2727	0.1	-6.716e-003
24246	12.1	2.1818	0.1	-6.065e-003
24247	12.192	2.2727	0.1	-6.1099e-003
24248	11.915	2.1818	0.1	-5.6502e-003
24249	12.007	2.2727	0.1	-5.7061e-003
24250	11.731	2.1818	0.1	-5.3247e-003
24251	11.823	2.2727	0.1	-5.3871e-003
24252	11.546	2.1818	0.1	-5.0501e-003
24253	11.638	2.2727	0.1	-5.1162e-003
24254	11.362	2.1818	0.1	-4.8042e-003
24255	11.454	2.2727	0.1	-4.8718e-003
24256	11.177	2.1818	0.1	-4.5838e-003
24257	11.269	2.2727	0.1	-4.6409e-003
24258	10.993	2.1818	0.1	-4.3801e-003
24259	11.085	2.2727	0.1	-4.435e-003
24260	10.808	2.1818	0.1	-4.1641e-003
24261	10.9	2.2727	0.1	-4.2267e-003
24262	10.624	2.1818	0.1	-3.9542e-003
24263	10.716	2.2727	0.1	-3.9871e-003
24264	10.439	2.1818	0.1	-3.7707e-003
24265	10.531	2.2727	0.1	-3.783e-003
24266	10.255	2.1818	0.1	-3.5889e-003
24267	10.347	2.2727	0.1	-3.5882e-003
24268	10.07	2.1818	0.1	-3.4074e-003
24269	10.162	2.2727	0.1	-3.3791e-003
24270	9.8855	2.1818	0.1	-3.2335e-003
24271	9.9778	2.2727	0.1	-3.1756e-003
24272	9.701	2.1818	0.1	-3.0684e-003
24273	9.7933	2.2727	0.1	-2.9715e-003
24274	9.5165	2.1818	0.1	-2.9195e-003
24275	9.6088	2.2727	0.1	-2.7743e-003
24276	9.332	2.1818	0.1	-2.7927e-003
24277	9.4243	2.2727	0.1	-2.5888e-003
24278	9.1475	2.1818	0.1	-2.6962e-003
24279	9.2398	2.2727	0.1	-2.4195e-003
24280	8.963	2.1818	0.1	-2.643e-003
24281	9.0553	2.2727	0.1	-2.2757e-003
24282	8.7785	2.1818	0.1	-2.6502e-003
24283	8.8708	2.2727	0.1	-2.1703e-003
24284	8.594	2.1818	0.1	-2.7392e-003
24285	8.6863	2.2727	0.1	-2.1192e-003
24286	8.4095	2.1818	0.1	-2.9395e-003
24287	8.5018	2.2727	0.1	-2.1444e-003
24288	8.225	2.1818	0.1	-3.2939e-003
24289	8.3173	2.2727	0.1	-2.2748e-003
24290	8.0405	2.1818	0.1	-3.8592e-003
24291	8.1327	2.2727	0.1	-2.5571e-003
24292	7.856	2.1818	0.1	-4.7043e-003
24293	7.9482	2.2727	0.1	-3.0467e-003
24294	7.6715	2.1818	0.1	-5.9233e-003
24295	7.7637	2.2727	0.1	-3.8115e-003
24296	7.487	2.1818	0.1	-7.6448e-003
24297	7.5792	2.2727	0.1	-4.951e-003
24298	7.3025	2.1818	0.1	-1.0039e-002
24299	7.3947	2.2727	0.1	-6.5982e-003
24300	7.118	2.1818	0.1	-1.3332e-002
24301	7.2102	2.2727	0.1	-8.928e-003
24302	6.9335	2.1818	0.1	-1.7825e-002
24303	7.0257	2.2727	0.1	-1.2175e-002
24304	6.749	2.1818	0.1	-2.3921e-002
24305	6.8412	2.2727	0.1	-1.6651e-002
24306	6.5645	2.1818	0.1	-3.2155e-002
24307	6.6567	2.2727	0.1	-2.2776e-002
24308	6.38	2.1818	0.1	-4.3236e-002
24309	6.4722	2.2727	0.1	-3.1105e-002
24310	6.1955	2.1818	0.1	-5.8118e-002
24311	6.2877	2.2727	0.1	-4.2371e-002
24312	6.011	2.1818	0.1	-7.8081e-002
24313	6.1032	2.2727	0.1	-5.7574e-002
24314	5.8265	2.1818	0.1	-0.10483
24315	5.9187	2.2727	0.1	-7.8043e-002
24316	5.642	2.1818	0.1	-0.14066
24317	5.7342	2.2727	0.1	-0.10554
24318	5.4575	2.1818	0.1	-0.18865
24319	5.5497	2.2727	0.1	-0.14244
24320	5.273	2.1818	0.1	-0.25308
24321	5.3652	2.2727	0.1	-0.19189
24322	5.0885	2.1818	0.1	-0.33966
24323	5.1807	2.2727	0.1	-0.25822
24324	4.9039	2.1818	0.1	-0.45742
24325	4.9962	2.2727	0.1	-0.34697
24326	4.7194	2.1818	0.1	-0.61698
24327	4.8117	2.2727	0.1	-0.46716
24328	4.5349	2.1818	0.1	-0.84904
24329	4.6272	2.2727	0.1	-0.62687
24330	4.3504	2.1818	0.1	-1.1544
24331	4.4427	2.2727	0.1	-0.85936
24332	4.1659	2.1818	0.1	-1.7827
24333	4.2582	2.2727	0.1	-1.1377
24334	3.9814	2.1818	0.1	-2.248
24335	4.0737	2.2727	0.1	-1.7649
24336	3.7969	2.1818	0.1	-6.0776
24337	3.8892	2.2727	0.1	-1.9551
24338	3.6124	2.1818	0.1	-9.7374
24339	3.7047	2.2727	0.1	-5.4869
24340	3.4279	2.1818	0.1	-231.57
24341	3.5202	2.2727	0.1	-5.6291
24342	3.2434	2.1818	0.1	-723.52
24343	3.3357	2.2727	0.1	-314.85
24344	3.1512	2.2727	0.1	-874.96
24345	3.0589	2.1818	0.1	-1182.5
24346	23.723	2.3636	0.1	-167.2
24347	23.815	2.4545	0.1	-173.81
24348	23.908	2.3636	0.1	-177.31
24349	23.539	2.3636	0.1	-156.96
24350	23.631	2.4545	0.1	-163.41
24351	23.354	2.3636	0.1	-147.13
24352	23.446	2.4545	0.1	-153.3
24353	23.17	2.3636	0.1	-137.83
24354	23.262	2.4545	0.1	-143.72
24355	22.985	2.3636	0.1	-129.02
24356	23.077	2.4545	0.1	-134.62
24357	22.801	2.3636	0.1	-120.72
24358	22.893	2.4545	0.1	-126.02
24359	22.616	2.3636	0.1	-112.91
24360	22.708	2.4545	0.1	-117.92
24361	22.432	2.3636	0.1	-105.6
24362	22.524	2.4545	0.1	-110.3
24363	22.247	2.3636	0.1	-98.751
24364	22.339	2.4545	0.1	-103.16
24365	22.063	2.3636	0.1	-92.362
24366	22.155	2.4545	0.1	-96.482
24367	21.878	2.3636	0.1	-86.407
24368	21.97	2.4545	0.1	-90.247
24369	21.694	2.3636	0.1	-80.865
24370	21.786	2.4545	0.1	-84.436
24371	21.509	2.3636	0.1	-75.713
24372	21.601	2.4545	0.1	-79.028
24373	21.325	2.3636	0.1	-70.928
24374	21.417	2.4545	0.1	-73.999
24375	21.14	2.3636	0.1	-66.487
24376	21.232	2.4545	0.1	-69.329
24377	20.956	2.3636	0.1	-62.368
24378	21.048	2.4545	0.1	-64.994
24379	20.771	2.3636	0.1	-58.548
24380	20.863	2.4545	0.1	-60.973
24381	20.587	2.3636	0.1	-55.006
24382	20.679	2.4545	0.1	-57.243
24383	20.402	2.3636	0.1	-51.723
24384	20.494	2.4545	0.1	-53.786
24385	20.218	2.3636	0.1	-48.68
24386	20.31	2.4545	0.1	-50.582
24387	20.033	2.3636	0.1	-45.859
24388	20.125	2.4545	0.1	-47.611
24389	19.849	2.3636	0.1	-43.244
24390	19.941	2.4545	0.1	-44.857
24391	19.664	2.3636	0.1	-40.817
24392	19.756	2.4545	0.1	-42.303
24393	19.48	2.3636	0.1	-38.566
24394	19.572	2.4545	0.1	-39.935
24395	19.295	2.3636	0.1	-36.475
24396	19.387	2.4545	0.1	-37.736
24397	19.111	2.3636	0.1	-34.533
24398	19.203	2.4545	0.1	-35.694
24399	18.926	2.3636	0.1	-32.726
24400	19.018	2.4545	0.1	-33.797
24401	18.742	2.3636	0.1	-31.044
24402	18.834	2.4545	0.1	-32.031
24403	18.557	2.3636	0.1	-29.477
24404	18.649	2.4545	0.1	-30.387
24405	18.373	2.3636	0.1	-28.014
24406	18.465	2.4545	0.1	-28.854
24407	18.188	2.3636	0.1	-26.645
24408	18.28	2.4545	0.1	-27.422
24409	18.004	2.3636	0.1	-25.364
24410	18.096	2.4545	0.1	-26.083
24411	17.819	2.3636	0.1	-24.161
24412	17.911	2.4545	0.1	-24.827
24413	17.635	2.3636	0.1	-23.028
24414	17.727	2.4545	0.1	-23.646
24415	17.45	2.3636	0.1	-21.96
24416	17.542	2.4545	0.1	-22.535
24417	17.266	2.3636	0.1	-20.948
24418	17.358	2.4545	0.1	-21.484
24419	17.081	2.3636	0.1	-19.987
24420	17.173	2.4545	0.1	-20.487
24421	16.897	2.3636	0.1	-19.07
24422	16.989	2.4545	0.1	-19.539
24423	16.712	2.3636	0.1	-18.192
24424	16.804	2.4545	0.1	-18.633
24425	16.528	2.3636	0.1	-17.346
24426	16.62	2.4545	0.1	-17.763
24427	16.343	2.3636	0.1	-16.528
24428	16.435	2.4545	0.1	-16.924
24429	16.159	2.3636	0.1	-15.733
24430	16.251	2.4545	0.1	-16.11
24431	15.974	2.3636	0.1	-14.955
24432	16.066	2.4545	0.1	-15.316
24433	15.79	2.3636	0.1	-14.189
24434	15.882	2.4545	0.1	-14.537
24435	15.605	2.3636	0.1	-13.431
24436	15.697	2.4545	0.1	-13.769
24437	15.421	2.3636	0.1	-12.675
24438	15.513	2.4545	0.1	-13.005
24439	15.236	2.3636	0.1	-11.918
24440	15.328	2.4545	0.1	-12.242
24441	15.052	2.3636	0.1	-11.153
24442	15.144	2.4545	0.1	-11.474
24443	14.867	2.3636	0.1	-10.376
24444	14.959	2.4545	0.1	-10.697
24445	14.683	2.3636	0.1	-9.5828
24446	14.775	2.4545	0.1	-9.9048
24447	14.498	2.3636	0.1	-8.7673
24448	14.59	2.4545	0.1	-9.0932
24449	14.314	2.3636	0.1	-7.9246
24450	14.406	2.4545	0.1	-8.2567
24451	14.129	2.3636	0.1	-7.0493
24452	14.221	2.4545	0.1	-7.3899
24453	13.945	2.3636	0.1	-6.1358
24454	14.037	2.4545	0.1	-6.4873
24455	13.76	2.3636	0.1	-5.1781
24456	13.852	2.4545	0.1	-5.543
24457	13.576	2.3636	0.1	-4.1702
24458	13.668	2.4545	0.1	-4.5509
24459	13.391	2.3636	0.1	-3.1056
24460	13.483	2.4545	0.1	-3.5047
24461	13.207	2.3636	0.1	-1.9777
24462	13.299	2.4545	0.1	-2.3976
24463	13.022	2.3636	0.1	-0.78139
24464	13.114	2.4545	0.1	-1.2231
24465	12.838	2.3636	0.1	-1.4349e-002
24466	12.93	2.4545	0.1	-4.8036e-002
24467	12.653	2.3636	0.1	-7.9215e-003
24468	12.745	2.4545	0.1	-8.1398e-003
24469	12.469	2.3636	0.1	-6.7324e-003
24470	12.561	2.4545	0.1	-6.7657e-003
24471	12.284	2.3636	0.1	-6.1408e-003
24472	12.376	2.4545	0.1	-6.1784e-003
24473	12.1	2.3636	0.1	-5.7457e-003
24474	12.192	2.4545	0.1	-5.7919e-003
24475	11.915	2.3636	0.1	-5.4395e-003
24476	12.007	2.4545	0.1	-5.4998e-003
24477	11.731	2.3636	0.1	-5.175e-003
24478	11.823	2.4545	0.1	-5.2434e-003
24479	11.546	2.3636	0.1	-4.934e-003
24480	11.638	2.4545	0.1	-5.0076e-003
24481	11.362	2.3636	0.1	-4.7044e-003
24482	11.454	2.4545	0.1	-4.782e-003
24483	11.177	2.3636	0.1	-4.4881e-003
24484	11.269	2.4545	0.1	-4.557e-003
24485	10.993	2.3636	0.1	-4.2781e-003
24486	11.085	2.4545	0.1	-4.3491e-003
24487	10.808	2.3636	0.1	-4.0469e-003
24488	10.9	2.4545	0.1	-4.1302e-003
24489	10.624	2.3636	0.1	-3.814e-003
24490	10.716	2.4545	0.1	-3.873e-003
24491	10.439	2.3636	0.1	-3.5999e-003
24492	10.531	2.4545	0.1	-3.6452e-003
24493	10.255	2.3636	0.1	-3.3795e-003
24494	10.347	2.4545	0.1	-3.4192e-003
24495	10.07	2.3636	0.1	-3.1505e-003
24496	10.162	2.4545	0.1	-3.1716e-003
24497	9.8855	2.3636	0.1	-2.9191e-003
24498	9.9778	2.4545	0.1	-2.9216e-003
24499	9.701	2.3636	0.1	-2.6858e-003
24500	9.7933	2.4545	0.1	-2.6618e-003
24501	9.5165	2.3636	0.1	-2.4554e-003
24502	9.6088	2.4545	0.1	-2.3974e-003
24503	9.332	2.3636	0.1	-2.2316e-003
24504	9.4243	2.4545	0.1	-2.1325e-003
24505	9.1475	2.3636	0.1	-2.0202e-003
24506	9.2398	2.4545	0.1	-1.8686e-003
24507	8.963	2.3636	0.1	-1.8303e-003
24508	9.0553	2.4545	0.1	-1.6124e-003
24509	8.7785	2.3636	0.1	-1.6742e-003
24510	8.8708	2.4545	0.1	-1.3729e-003
24511	8.594	2.3636	0.1	-1.5685e-003
24512	8.6863	2.4545	0.1	-1.1614e-003
24513	8.4095	2.3636	0.1	-1.5353e-003
24514	8.5018	2.4545	0.1	-9.9434e-004
24515	8.225	2.3636	0.1	-1.608e-003
24516	8.3173	2.4545	0.1	-8.9396e-004
24517	8.0405	2.3636	0.1	-1.8329e-003
24518	8.1327	2.4545	0.1	-8.972e-004
24519	7.856	2.3636	0.1	-2.2655e-003
24520	7.9482	2.4545	0.1	-1.0486e-003
24521	7.6715	2.3636	0.1	-2.9807e-003
24522	7.7637	2.4545	0.1	-1.4022e-003
24523	7.487	2.3636	0.1	-4.0846e-003
24524	7.5792	2.4545	0.1	-2.0387e-003
24525	7.3025	2.3636	0.1	-5.7182e-003
24526	7.3947	2.4545	0.1	-3.0691e-003
24527	7.118	2.3636	0.1	-8.069e-003
24528	7.2102	2.4545	0.1	-4.638e-003
24529	6.9335	2.3636	0.1	-1.1388e-002
24530	7.0257	2.4545	0.1	-6.9425e-003
24531	6.749	2.3636	0.1	-1.6012e-002
24532	6.8412	2.4545	0.1	-1.0244e-002
24533	6.5645	2.3636	0.1	-2.2393e-002
24534	6.6567	2.4545	0.1	-1.4903e-002
24535	6.38	2.3636	0.1	-3.1126e-002
24536	6.4722	2.4545	0.1	-2.1392e-002
24537	6.1955	2.3636	0.1	-4.3016e-002
24538	6.2877	2.4545	0.1	-3.0341e-002
24539	6.011	2.3636	0.1	-5.9144e-002
24540	6.1032	2.4545	0.1	-4.262e-002
24541	5.8265	2.3636	0.1	-8.095e-002
24542	5.9187	2.4545	0.1	-5.9387e-002
24543	5.642	2.3636	0.1	-0.11035
24544	5.7342	2.4545	0.1	-8.2193e-002
24545	5.4575	2.3636	0.1	-0.1499
24546	5.5497	2.4545	0.1	-0.11312
24547	5.273	2.3636	0.1	-0.20302
24548	5.3652	2.4545	0.1	-0.15497
24549	5.0885	2.3636	0.1	-0.27417
24550	5.1807	2.4545	0.1	-0.21145
24551	4.9039	2.3636	0.1	-0.36951
24552	4.9962	2.4545	0.1	-0.28742
24553	4.7194	2.3636	0.1	-0.49663
24554	4.8117	2.4545	0.1	-0.3895
24555	4.5349	2.3636	0.1	-0.6686
24556	4.6272	2.4545	0.1	-0.52552
24557	4.3504	2.3636	0.1	-0.89673
24558	4.4427	2.4545	0.1	-0.70848
24559	4.1659	2.3636	0.1	-1.2235
24560	4.2582	2.4545	0.1	-0.94902
24561	3.9814	2.3636	0.1	-1.708
24562	4.0737	2.4545	0.1	-1.2748
24563	3.7969	2.3636	0.1	-2.0401
24564	3.8892	2.4545	0.1	-1.7777
24565	3.6124	2.3636	0.1	-5.4183
24566	3.7047	2.4545	0.1	-2.0027
24567	3.4279	2.3636	0.1	-86.214
24568	3.5202	2.4545	0.1	-5.8938
24569	3.2434	2.3636	0.1	-515.33
24570	3.3357	2.4545	0.1	-225.57
24571	3.1512	2.4545	0.1	-678.92
24572	3.0589	2.3636	0.1	-936.75
24573	23.723	2.5455	0.1	-170.02
24574	23.815	2.6364	0.1	-176.16
24575	23.908	2.5455	0.1	-180.17
24576	23.539	2.5455	0.1	-159.76
24577	23.631	2.6364	0.1	-165.75
24578	23.354	2.5455	0.1	-149.89
24579	23.446	2.6364	0.1	-155.61
24580	23.17	2.5455	0.1	-140.53
24581	23.262	2.6364	0.1	-145.99
24582	22.985	2.5455	0.1	-131.64
24583	23.077	2.6364	0.1	-136.84
24584	22.801	2.5455	0.1	-123.24
24585	22.893	2.6364	0.1	-128.17
24586	22.616	2.5455	0.1	-115.33
24587	22.708	2.6364	0.1	-119.98
24588	22.432	2.5455	0.1	-107.89
24589	22.524	2.6364	0.1	-112.26
24590	22.247	2.5455	0.1	-100.91
24591	22.339	2.6364	0.1	-105.02
24592	22.063	2.5455	0.1	-94.392
24593	22.155	2.6364	0.1	-98.233
24594	21.878	2.5455	0.1	-88.302
24595	21.97	2.6364	0.1	-91.886
24596	21.694	2.5455	0.1	-82.626
24597	21.786	2.6364	0.1	-85.963
24598	21.509	2.5455	0.1	-77.343
24599	21.601	2.6364	0.1	-80.444
24600	21.325	2.5455	0.1	-72.43
24601	21.417	2.6364	0.1	-75.308
24602	21.14	2.5455	0.1	-67.867
24603	21.232	2.6364	0.1	-70.533
24604	20.956	2.5455	0.1	-63.631
24605	21.048	2.6364	0.1	-66.099
24606	20.771	2.5455	0.1	-59.702
24607	20.863	2.6364	0.1	-61.983
24608	20.587	2.5455	0.1	-56.058
24609	20.679	2.6364	0.1	-58.166
24610	20.402	2.5455	0.1	-52.68
24611	20.494	2.6364	0.1	-54.626
24612	20.218	2.5455	0.1	-49.548
24613	20.31	2.6364	0.1	-51.344
24614	20.033	2.5455	0.1	-46.645
24615	20.125	2.6364	0.1	-48.302
24616	19.849	2.5455	0.1	-43.953
24617	19.941	2.6364	0.1	-45.482
24618	19.664	2.5455	0.1	-41.457
24619	19.756	2.6364	0.1	-42.867
24620	19.48	2.5455	0.1	-39.141
24621	19.572	2.6364	0.1	-40.442
24622	19.295	2.5455	0.1	-36.991
24623	19.387	2.6364	0.1	-38.192
24624	19.111	2.5455	0.1	-34.994
24625	19.203	2.6364	0.1	-36.103
24626	18.926	2.5455	0.1	-33.138
24627	19.018	2.6364	0.1	-34.162
24628	18.742	2.5455	0.1	-31.41
24629	18.834	2.6364	0.1	-32.356
24630	18.557	2.5455	0.1	-29.8
24631	18.649	2.6364	0.1	-30.676
24632	18.373	2.5455	0.1	-28.298
24633	18.465	2.6364	0.1	-29.109
24634	18.188	2.5455	0.1	-26.895
24635	18.28	2.6364	0.1	-27.646
24636	18.004	2.5455	0.1	-25.58
24637	18.096	2.6364	0.1	-26.278
24638	17.819	2.5455	0.1	-24.347
24639	17.911	2.6364	0.1	-24.995
24640	17.635	2.5455	0.1	-23.187
24641	17.727	2.6364	0.1	-23.791
24642	17.45	2.5455	0.1	-22.092
24643	17.542	2.6364	0.1	-22.656
24644	17.266	2.5455	0.1	-21.056
24645	17.358	2.6364	0.1	-21.585
24646	17.081	2.5455	0.1	-20.073
24647	17.173	2.6364	0.1	-20.569
24648	16.897	2.5455	0.1	-19.135
24649	16.989	2.6364	0.1	-19.602
24650	16.712	2.5455	0.1	-18.236
24651	16.804	2.6364	0.1	-18.679
24652	16.528	2.5455	0.1	-17.372
24653	16.62	2.6364	0.1	-17.793
24654	16.343	2.5455	0.1	-16.536
24655	16.435	2.6364	0.1	-16.938
24656	16.159	2.5455	0.1	-15.724
24657	16.251	2.6364	0.1	-16.11
24658	15.974	2.5455	0.1	-14.929
24659	16.066	2.6364	0.1	-15.302
24660	15.79	2.5455	0.1	-14.147
24661	15.882	2.6364	0.1	-14.509
24662	15.605	2.5455	0.1	-13.373
24663	15.697	2.6364	0.1	-13.727
24664	15.421	2.5455	0.1	-12.601
24665	15.513	2.6364	0.1	-12.95
24666	15.236	2.5455	0.1	-11.827
24667	15.328	2.6364	0.1	-12.174
24668	15.052	2.5455	0.1	-11.046
24669	15.144	2.6364	0.1	-11.392
24670	14.867	2.5455	0.1	-10.253
24671	14.959	2.6364	0.1	-10.601
24672	14.683	2.5455	0.1	-9.4428
24673	14.775	2.6364	0.1	-9.7953
24674	14.498	2.5455	0.1	-8.6098
24675	14.59	2.6364	0.1	-8.9693
24676	14.314	2.5455	0.1	-7.7488
24677	14.406	2.6364	0.1	-8.1179
24678	14.129	2.5455	0.1	-6.8542
24679	14.221	2.6364	0.1	-7.2354
24680	13.945	2.5455	0.1	-5.9204
24681	14.037	2.6364	0.1	-6.3163
24682	13.76	2.5455	0.1	-4.9412
24683	13.852	2.6364	0.1	-5.3546
24684	13.576	2.5455	0.1	-3.9103
24685	13.668	2.6364	0.1	-4.3439
24686	13.391	2.5455	0.1	-2.821
24687	13.483	2.6364	0.1	-3.2778
24688	13.207	2.5455	0.1	-1.6665
24689	13.299	2.6364	0.1	-2.1492
24690	13.022	2.5455	0.1	-0.44218
24691	13.114	2.6364	0.1	-0.95139
24692	12.838	2.5455	0.1	-8.5482e-003
24693	12.93	2.6364	0.1	-1.0555e-002
24694	12.653	2.5455	0.1	-6.7571e-003
24695	12.745	2.6364	0.1	-6.7666e-003
24696	12.469	2.5455	0.1	-6.192e-003
24697	12.561	2.6364	0.1	-6.2074e-003
24698	12.284	2.5455	0.1	-5.8298e-003
24699	12.376	2.6364	0.1	-5.8717e-003
24700	12.1	2.5455	0.1	-5.5477e-003
24701	12.192	2.6364	0.1	-5.6004e-003
24702	11.915	2.5455	0.1	-5.3042e-003
24703	12.007	2.6364	0.1	-5.3717e-003
24704	11.731	2.5455	0.1	-5.0752e-003
24705	11.823	2.6364	0.1	-5.1511e-003
24706	11.546	2.5455	0.1	-4.8539e-003
24707	11.638	2.6364	0.1	-4.9357e-003
24708	11.362	2.5455	0.1	-4.6323e-003
24709	11.454	2.6364	0.1	-4.7204e-003
24710	11.177	2.5455	0.1	-4.4156e-003
24711	11.269	2.6364	0.1	-4.4976e-003
24712	10.993	2.5455	0.1	-4.1991e-003
24713	11.085	2.6364	0.1	-4.2859e-003
24714	10.808	2.5455	0.1	-3.9547e-003
24715	10.9	2.6364	0.1	-4.0585e-003
24716	10.624	2.5455	0.1	-3.7035e-003
24717	10.716	2.6364	0.1	-3.7878e-003
24718	10.439	2.5455	0.1	-3.465e-003
24719	10.531	2.6364	0.1	-3.5416e-003
24720	10.255	2.5455	0.1	-3.2133e-003
24721	10.347	2.6364	0.1	-3.2923e-003
24722	10.07	2.5455	0.1	-2.9467e-003
24723	10.162	2.6364	0.1	-3.0157e-003
24724	9.8855	2.5455	0.1	-2.6705e-003
24725	9.9778	2.6364	0.1	-2.7311e-003
24726	9.701	2.5455	0.1	-2.3825e-003
24727	9.7933	2.6364	0.1	-2.4292e-003
24728	9.5165	2.5455	0.1	-2.0869e-003
24729	9.6088	2.6364	0.1	-2.1145e-003
24730	9.332	2.5455	0.1	-1.7862e-003
24731	9.4243	2.6364	0.1	-1.7898e-003
24732	9.1475	2.5455	0.1	-1.4825e-003
24733	9.2398	2.6364	0.1	-1.4548e-003
24734	8.963	2.5455	0.1	-1.1828e-003
24735	9.0553	2.6364	0.1	-1.1136e-003
24736	8.7785	2.5455	0.1	-8.9555e-004
24737	8.8708	2.6364	0.1	-7.7224e-004
24738	8.594	2.5455	0.1	-6.3214e-004
24739	8.6863	2.6364	0.1	-4.3909e-004
24740	8.4095	2.5455	0.1	-4.0969e-004
24741	8.5018	2.6364	0.1	-1.255e-004
24742	8.225	2.5455	0.1	-2.5463e-004
24743	8.3173	2.6364	0.1	1.51e-004
24744	8.0405	2.5455	0.1	-2.0299e-004
24745	8.1327	2.6364	0.1	3.6086e-004
24746	7.856	2.5455	0.1	-2.992e-004
24747	7.9482	2.6364	0.1	4.681e-004
24748	7.6715	2.5455	0.1	-6.0462e-004
24749	7.7637	2.6364	0.1	4.2918e-004
24750	7.487	2.5455	0.1	-1.2068e-003
24751	7.5792	2.6364	0.1	1.7702e-004
24752	7.3025	2.5455	0.1	-2.2233e-003
24753	7.3947	2.6364	0.1	-3.8185e-004
24754	7.118	2.5455	0.1	-3.8125e-003
24755	7.2102	2.6364	0.1	-1.3708e-003
24756	6.9335	2.5455	0.1	-6.1874e-003
24757	7.0257	2.6364	0.1	-2.9597e-003
24758	6.749	2.5455	0.1	-9.6389e-003
24759	6.8412	2.6364	0.1	-5.3757e-003
24760	6.5645	2.5455	0.1	-1.4558e-002
24761	6.6567	2.6364	0.1	-8.9358e-003
24762	6.38	2.5455	0.1	-2.1467e-002
24763	6.4722	2.6364	0.1	-1.4061e-002
24764	6.1955	2.5455	0.1	-3.1078e-002
24765	6.2877	2.6364	0.1	-2.1317e-002
24766	6.011	2.5455	0.1	-4.4364e-002
24767	6.1032	2.6364	0.1	-3.1501e-002
24768	5.8265	2.5455	0.1	-6.2633e-002
24769	5.9187	2.6364	0.1	-4.5689e-002
24770	5.642	2.5455	0.1	-8.7655e-002
24771	5.7342	2.6364	0.1	-6.5348e-002
24772	5.4575	2.5455	0.1	-0.12183
24773	5.5497	2.6364	0.1	-9.2494e-002
24774	5.273	2.5455	0.1	-0.16837
24775	5.3652	2.6364	0.1	-0.12989
24776	5.0885	2.5455	0.1	-0.23158
24777	5.1807	2.6364	0.1	-0.18128
24778	4.9039	2.5455	0.1	-0.3171
24779	4.9962	2.6364	0.1	-0.25173
24780	4.7194	2.5455	0.1	-0.43229
24781	4.8117	2.6364	0.1	-0.34792
24782	4.5349	2.5455	0.1	-0.58588
24783	4.6272	2.6364	0.1	-0.47849
24784	4.3504	2.5455	0.1	-0.792
24785	4.4427	2.6364	0.1	-0.65313
24786	4.1659	2.5455	0.1	-1.0498
24787	4.2582	2.6364	0.1	-0.88608
24788	3.9814	2.5455	0.1	-1.4267
24789	4.0737	2.6364	0.1	-1.1713
24790	3.7969	2.5455	0.1	-1.8757
24791	3.8892	2.6364	0.1	-1.5574
24792	3.6124	2.5455	0.1	-2.0361
24793	3.7047	2.6364	0.1	-1.9496
24794	3.4279	2.5455	0.1	-71.054
24795	3.5202	2.6364	0.1	-2.6874
24796	3.2434	2.5455	0.1	-407.69
24797	3.3357	2.6364	0.1	-210.22
24798	3.1512	2.6364	0.1	-542.61
24799	3.0589	2.5455	0.1	-701.16
24800	23.723	2.7273	0.1	-171.89
24801	23.815	2.8182	0.1	-177.56
24802	23.908	2.7273	0.1	-182.06
24803	23.539	2.7273	0.1	-161.62
24804	23.631	2.8182	0.1	-167.15
24805	23.354	2.7273	0.1	-151.72
24806	23.446	2.8182	0.1	-157.
24807	23.17	2.7273	0.1	-142.32
24808	23.262	2.8182	0.1	-147.35
24809	22.985	2.7273	0.1	-133.38
24810	23.077	2.8182	0.1	-138.16
24811	22.801	2.7273	0.1	-124.92
24812	22.893	2.8182	0.1	-129.45
24813	22.616	2.7273	0.1	-116.93
24814	22.708	2.8182	0.1	-121.21
24815	22.432	2.7273	0.1	-109.42
24816	22.524	2.8182	0.1	-113.44
24817	22.247	2.7273	0.1	-102.36
24818	22.339	2.8182	0.1	-106.14
24819	22.063	2.7273	0.1	-95.75
24820	22.155	2.8182	0.1	-99.285
24821	21.878	2.7273	0.1	-89.572
24822	21.97	2.8182	0.1	-92.873
24823	21.694	2.7273	0.1	-83.808
24824	21.786	2.8182	0.1	-86.884
24825	21.509	2.7273	0.1	-78.437
24826	21.601	2.8182	0.1	-81.298
24827	21.325	2.7273	0.1	-73.44
24828	21.417	2.8182	0.1	-76.098
24829	21.14	2.7273	0.1	-68.796
24830	21.232	2.8182	0.1	-71.261
24831	20.956	2.7273	0.1	-64.483
24832	21.048	2.8182	0.1	-66.767
24833	20.771	2.7273	0.1	-60.48
24834	20.863	2.8182	0.1	-62.595
24835	20.587	2.7273	0.1	-56.767
24836	20.679	2.8182	0.1	-58.724
24837	20.402	2.7273	0.1	-53.325
24838	20.494	2.8182	0.1	-55.135
24839	20.218	2.7273	0.1	-50.134
24840	20.31	2.8182	0.1	-51.807
24841	20.033	2.7273	0.1	-47.175
24842	20.125	2.8182	0.1	-48.721
24843	19.849	2.7273	0.1	-44.432
24844	19.941	2.8182	0.1	-45.861
24845	19.664	2.7273	0.1	-41.889
24846	19.756	2.8182	0.1	-43.21
24847	19.48	2.7273	0.1	-39.53
24848	19.572	2.8182	0.1	-40.751
24849	19.295	2.7273	0.1	-37.34
24850	19.387	2.8182	0.1	-38.469
24851	19.111	2.7273	0.1	-35.306
24852	19.203	2.8182	0.1	-36.351
24853	18.926	2.7273	0.1	-33.416
24854	19.018	2.8182	0.1	-34.383
24855	18.742	2.7273	0.1	-31.658
24856	18.834	2.8182	0.1	-32.554
24857	18.557	2.7273	0.1	-30.019
24858	18.649	2.8182	0.1	-30.851
24859	18.373	2.7273	0.1	-28.491
24860	18.465	2.8182	0.1	-29.263
24861	18.188	2.7273	0.1	-27.064
24862	18.28	2.8182	0.1	-27.782
24863	18.004	2.7273	0.1	-25.727
24864	18.096	2.8182	0.1	-26.396
24865	17.819	2.7273	0.1	-24.474
24866	17.911	2.8182	0.1	-25.098
24867	17.635	2.7273	0.1	-23.294
24868	17.727	2.8182	0.1	-23.879
24869	17.45	2.7273	0.1	-22.182
24870	17.542	2.8182	0.1	-22.731
24871	17.266	2.7273	0.1	-21.13
24872	17.358	2.8182	0.1	-21.646
24873	17.081	2.7273	0.1	-20.131
24874	17.173	2.8182	0.1	-20.619
24875	16.897	2.7273	0.1	-19.179
24876	16.989	2.8182	0.1	-19.641
24877	16.712	2.7273	0.1	-18.268
24878	16.804	2.8182	0.1	-18.707
24879	16.528	2.7273	0.1	-17.391
24880	16.62	2.8182	0.1	-17.812
24881	16.343	2.7273	0.1	-16.543
24882	16.435	2.8182	0.1	-16.948
24883	16.159	2.7273	0.1	-15.718
24884	16.251	2.8182	0.1	-16.11
24885	15.974	2.7273	0.1	-14.912
24886	16.066	2.8182	0.1	-15.293
24887	15.79	2.7273	0.1	-14.119
24888	15.882	2.8182	0.1	-14.493
24889	15.605	2.7273	0.1	-13.334
24890	15.697	2.8182	0.1	-13.702
24891	15.421	2.7273	0.1	-12.552
24892	15.513	2.8182	0.1	-12.917
24893	15.236	2.7273	0.1	-11.767
24894	15.328	2.8182	0.1	-12.133
24895	15.052	2.7273	0.1	-10.976
24896	15.144	2.8182	0.1	-11.343
24897	14.867	2.7273	0.1	-10.171
24898	14.959	2.8182	0.1	-10.544
24899	14.683	2.7273	0.1	-9.3494
24900	14.775	2.8182	0.1	-9.7296
24901	14.498	2.7273	0.1	-8.5046
24902	14.59	2.8182	0.1	-8.8949
24903	14.314	2.7273	0.1	-7.6313
24904	14.406	2.8182	0.1	-8.0344
24905	14.129	2.7273	0.1	-6.7238
24906	14.221	2.8182	0.1	-7.1425
24907	13.945	2.7273	0.1	-5.7763
24908	14.037	2.8182	0.1	-6.2135
24909	13.76	2.7273	0.1	-4.7827
24910	13.852	2.8182	0.1	-5.2412
24911	13.576	2.7273	0.1	-3.7363
24912	13.668	2.8182	0.1	-4.2193
24913	13.391	2.7273	0.1	-2.6303
24914	13.483	2.8182	0.1	-3.141
24915	13.207	2.7273	0.1	-1.4577
24916	13.299	2.8182	0.1	-1.9995
24917	13.022	2.7273	0.1	-0.21382
24918	13.114	2.8182	0.1	-0.78723
24919	12.838	2.7273	0.1	-6.7764e-003
24920	12.93	2.8182	0.1	-6.8971e-003
24921	12.653	2.7273	0.1	-6.1882e-003
24922	12.745	2.8182	0.1	-6.1699e-003
24923	12.469	2.7273	0.1	-5.8978e-003
24924	12.561	2.8182	0.1	-5.9294e-003
24925	12.284	2.7273	0.1	-5.6519e-003
24926	12.376	2.8182	0.1	-5.7104e-003
24927	12.1	2.7273	0.1	-5.4304e-003
24928	12.192	2.8182	0.1	-5.4969e-003
24929	11.915	2.7273	0.1	-5.2217e-003
24930	12.007	2.8182	0.1	-5.3004e-003
24931	11.731	2.7273	0.1	-5.0126e-003
24932	11.823	2.8182	0.1	-5.0985e-003
24933	11.546	2.7273	0.1	-4.8019e-003
24934	11.638	2.8182	0.1	-4.8936e-003
24935	11.362	2.7273	0.1	-4.5847e-003
24936	11.454	2.8182	0.1	-4.6833e-003
24937	11.177	2.7273	0.1	-4.3665e-003
24938	11.269	2.8182	0.1	-4.4618e-003
24939	10.993	2.7273	0.1	-4.1441e-003
24940	11.085	2.8182	0.1	-4.2469e-003
24941	10.808	2.7273	0.1	-3.8909e-003
24942	10.9	2.8182	0.1	-4.0139e-003
24943	10.624	2.7273	0.1	-3.6261e-003
24944	10.716	2.8182	0.1	-3.7348e-003
24945	10.439	2.7273	0.1	-3.3701e-003
24946	10.531	2.8182	0.1	-3.4769e-003
24947	10.255	2.7273	0.1	-3.0973e-003
24948	10.347	2.8182	0.1	-3.2133e-003
24949	10.07	2.7273	0.1	-2.8046e-003
24950	10.162	2.8182	0.1	-2.9187e-003
24951	9.8855	2.7273	0.1	-2.4964e-003
24952	9.9778	2.8182	0.1	-2.6124e-003
24953	9.701	2.7273	0.1	-2.1707e-003
24954	9.7933	2.8182	0.1	-2.2841e-003
24955	9.5165	2.7273	0.1	-1.8303e-003
24956	9.6088	2.8182	0.1	-1.9387e-003
24957	9.332	2.7273	0.1	-1.4754e-003
24958	9.4243	2.8182	0.1	-1.5765e-003
24959	9.1475	2.7273	0.1	-1.108e-003
24960	9.2398	2.8182	0.1	-1.1972e-003
24961	8.963	2.7273	0.1	-7.3143e-004
24962	9.0553	2.8182	0.1	-8.0326e-004
24963	8.7785	2.7273	0.1	-3.5191e-004
24964	8.8708	2.8182	0.1	-3.9818e-004
24965	8.594	2.7273	0.1	2.1844e-005
24966	8.6863	2.8182	0.1	1.0848e-005
24967	8.4095	2.7273	0.1	3.7751e-004
24968	8.5018	2.8182	0.1	4.1582e-004
24969	8.225	2.7273	0.1	6.9376e-004
24970	8.3173	2.8182	0.1	8.0305e-004
24971	8.0405	2.7273	0.1	9.4023e-004
24972	8.1327	2.8182	0.1	1.1463e-003
24973	7.856	2.7273	0.1	1.0806e-003
24974	7.9482	2.8182	0.1	1.4157e-003
24975	7.6715	2.7273	0.1	1.0642e-003
24976	7.7637	2.8182	0.1	1.5741e-003
24977	7.487	2.7273	0.1	8.1578e-004
24978	7.5792	2.8182	0.1	1.5631e-003
24979	7.3025	2.7273	0.1	2.335e-004
24980	7.3947	2.8182	0.1	1.2995e-003
24981	7.118	2.7273	0.1	-8.2124e-004
24982	7.2102	2.8182	0.1	6.7339e-004
24983	6.9335	2.7273	0.1	-2.5369e-003
24984	7.0257	2.8182	0.1	-4.6881e-004
24985	6.749	2.7273	0.1	-5.1734e-003
24986	6.8412	2.8182	0.1	-2.3341e-003
24987	6.5645	2.7273	0.1	-9.0852e-003
24988	6.6567	2.8182	0.1	-5.2145e-003
24989	6.38	2.7273	0.1	-1.475e-002
24990	6.4722	2.8182	0.1	-9.5018e-003
24991	6.1955	2.7273	0.1	-2.2832e-002
24992	6.2877	2.8182	0.1	-1.573e-002
24993	6.011	2.7273	0.1	-3.4252e-002
24994	6.1032	2.8182	0.1	-2.4659e-002
24995	5.8265	2.7273	0.1	-5.0272e-002
24996	5.9187	2.8182	0.1	-3.7335e-002
24997	5.642	2.7273	0.1	-7.2642e-002
24998	5.7342	2.8182	0.1	-5.5208e-002
24999	5.4575	2.7273	0.1	-0.10379
25000	5.5497	2.8182	0.1	-8.0317e-002
25001	5.273	2.7273	0.1	-0.14707
25002	5.3652	2.8182	0.1	-0.11551
25003	5.0885	2.7273	0.1	-0.2071
25004	5.1807	2.8182	0.1	-0.16478
25005	4.9039	2.7273	0.1	-0.2901
25006	4.9962	2.8182	0.1	-0.23364
25007	4.7194	2.7273	0.1	-0.40416
25008	4.8117	2.8182	0.1	-0.32954
25009	4.5349	2.7273	0.1	-0.55906
25010	4.6272	2.8182	0.1	-0.46207
25011	4.3504	2.7273	0.1	-0.76458
25012	4.4427	2.8182	0.1	-0.6421
25013	4.1659	2.7273	0.1	-1.0289
25014	4.2582	2.8182	0.1	-0.87826
25015	3.9814	2.7273	0.1	-1.3231
25016	4.0737	2.8182	0.1	-1.1697
25017	3.7969	2.7273	0.1	-1.6219
25018	3.8892	2.8182	0.1	-1.4612
25019	3.6124	2.7273	0.1	-1.9113
25020	3.7047	2.8182	0.1	-1.672
25021	3.4279	2.7273	0.1	-64.258
25022	3.5202	2.8182	0.1	-1.9081
25023	3.2434	2.7273	0.1	-354.44
25024	3.3357	2.8182	0.1	-198.71
25025	3.1512	2.8182	0.1	-476.69
25026	3.0589	2.7273	0.1	-577.84
25027	23.723	2.9091	0.1	-172.82
25028	23.815	3.	0.1	-178.02
25029	23.908	2.9091	0.1	-183.
25030	23.539	2.9091	0.1	-162.54
25031	23.631	3.	0.1	-167.62
25032	23.354	2.9091	0.1	-152.63
25033	23.446	3.	0.1	-157.46
25034	23.17	2.9091	0.1	-143.21
25035	23.262	3.	0.1	-147.8
25036	22.985	2.9091	0.1	-134.25
25037	23.077	3.	0.1	-138.6
25038	22.801	2.9091	0.1	-125.76
25039	22.893	3.	0.1	-129.88
25040	22.616	2.9091	0.1	-117.74
25041	22.708	3.	0.1	-121.62
25042	22.432	2.9091	0.1	-110.18
25043	22.524	3.	0.1	-113.83
25044	22.247	2.9091	0.1	-103.08
25045	22.339	3.	0.1	-106.51
25046	22.063	2.9091	0.1	-96.431
25047	22.155	3.	0.1	-99.637
25048	21.878	2.9091	0.1	-90.209
25049	21.97	3.	0.1	-93.203
25050	21.694	2.9091	0.1	-84.4
25051	21.786	3.	0.1	-87.191
25052	21.509	2.9091	0.1	-78.987
25053	21.601	3.	0.1	-81.584
25054	21.325	2.9091	0.1	-73.948
25055	21.417	3.	0.1	-76.362
25056	21.14	2.9091	0.1	-69.263
25057	21.232	3.	0.1	-71.505
25058	20.956	2.9091	0.1	-64.911
25059	21.048	3.	0.1	-66.991
25060	20.771	2.9091	0.1	-60.872
25061	20.863	3.	0.1	-62.8
25062	20.587	2.9091	0.1	-57.125
25063	20.679	3.	0.1	-58.911
25064	20.402	2.9091	0.1	-53.65
25065	20.494	3.	0.1	-55.305
25066	20.218	2.9091	0.1	-50.429
25067	20.31	3.	0.1	-51.961
25068	20.033	2.9091	0.1	-47.442
25069	20.125	3.	0.1	-48.862
25070	19.849	2.9091	0.1	-44.674
25071	19.941	3.	0.1	-45.988
25072	19.664	2.9091	0.1	-42.107
25073	19.756	3.	0.1	-43.324
25074	19.48	2.9091	0.1	-39.726
25075	19.572	3.	0.1	-40.854
25076	19.295	2.9091	0.1	-37.516
25077	19.387	3.	0.1	-38.562
25078	19.111	2.9091	0.1	-35.464
25079	19.203	3.	0.1	-36.434
25080	18.926	2.9091	0.1	-33.557
25081	19.018	3.	0.1	-34.458
25082	18.742	2.9091	0.1	-31.782
25083	18.834	3.	0.1	-32.62
25084	18.557	2.9091	0.1	-30.13
25085	18.649	3.	0.1	-30.91
25086	18.373	2.9091	0.1	-28.589
25087	18.465	3.	0.1	-29.315
25088	18.188	2.9091	0.1	-27.149
25089	18.28	3.	0.1	-27.827
25090	18.004	2.9091	0.1	-25.802
25091	18.096	3.	0.1	-26.436
25092	17.819	2.9091	0.1	-24.538
25093	17.911	3.	0.1	-25.133
25094	17.635	2.9091	0.1	-23.349
25095	17.727	3.	0.1	-23.908
25096	17.45	2.9091	0.1	-22.228
25097	17.542	3.	0.1	-22.756
25098	17.266	2.9091	0.1	-21.168
25099	17.358	3.	0.1	-21.667
25100	17.081	2.9091	0.1	-20.161
25101	17.173	3.	0.1	-20.636
25102	16.897	2.9091	0.1	-19.202
25103	16.989	3.	0.1	-19.654
25104	16.712	2.9091	0.1	-18.284
25105	16.804	3.	0.1	-18.717
25106	16.528	2.9091	0.1	-17.4
25107	16.62	3.	0.1	-17.818
25108	16.343	2.9091	0.1	-16.546
25109	16.435	3.	0.1	-16.951
25110	16.159	2.9091	0.1	-15.716
25111	16.251	3.	0.1	-16.11
25112	15.974	2.9091	0.1	-14.904
25113	16.066	3.	0.1	-15.291
25114	15.79	2.9091	0.1	-14.106
25115	15.882	3.	0.1	-14.487
25116	15.605	2.9091	0.1	-13.315
25117	15.697	3.	0.1	-13.694
25118	15.421	2.9091	0.1	-12.527
25119	15.513	3.	0.1	-12.906
25120	15.236	2.9091	0.1	-11.737
25121	15.328	3.	0.1	-12.119
25122	15.052	2.9091	0.1	-10.94
25123	15.144	3.	0.1	-11.327
25124	14.867	2.9091	0.1	-10.13
25125	14.959	3.	0.1	-10.525
25126	14.683	2.9091	0.1	-9.3027
25127	14.775	3.	0.1	-9.7077
25128	14.498	2.9091	0.1	-8.4519
25129	14.59	3.	0.1	-8.8701
25130	14.314	2.9091	0.1	-7.5724
25131	14.406	3.	0.1	-8.0066
25132	14.129	2.9091	0.1	-6.6585
25133	14.221	3.	0.1	-7.1115
25134	13.945	2.9091	0.1	-5.7041
25135	14.037	3.	0.1	-6.1791
25136	13.76	2.9091	0.1	-4.7032
25137	13.852	3.	0.1	-5.2033
25138	13.576	2.9091	0.1	-3.649
25139	13.668	3.	0.1	-4.1776
25140	13.391	2.9091	0.1	-2.5346
25141	13.483	3.	0.1	-3.0954
25142	13.207	2.9091	0.1	-1.3529
25143	13.299	3.	0.1	-1.9494
25144	13.022	2.9091	0.1	-9.6798e-002
25145	13.114	3.	0.1	-0.73227
25146	12.838	2.9091	0.1	-6.1551e-003
25147	12.93	3.	0.1	-6.1773e-003
25148	12.653	2.9091	0.1	-5.9479e-003
25149	12.745	3.	0.1	-5.9974e-003
25150	12.469	2.9091	0.1	-5.766e-003
25151	12.561	3.	0.1	-5.8451e-003
25152	12.284	2.9091	0.1	-5.5698e-003
25153	12.376	3.	0.1	-5.6598e-003
25154	12.1	2.9091	0.1	-5.3753e-003
25155	12.192	3.	0.1	-5.464e-003
25156	11.915	2.9091	0.1	-5.1818e-003
25157	12.007	3.	0.1	-5.2774e-003
25158	11.731	2.9091	0.1	-4.9816e-003
25159	11.823	3.	0.1	-5.0815e-003
25160	11.546	2.9091	0.1	-4.7756e-003
25161	11.638	3.	0.1	-4.8792e-003
25162	11.362	2.9091	0.1	-4.5601e-003
25163	11.454	3.	0.1	-4.6708e-003
25164	11.177	2.9091	0.1	-4.3414e-003
25165	11.269	3.	0.1	-4.4496e-003
25166	10.993	2.9091	0.1	-4.116e-003
25167	11.085	3.	0.1	-4.2338e-003
25168	10.808	2.9091	0.1	-3.8576e-003
25169	10.9	3.	0.1	-3.9988e-003
25170	10.624	2.9091	0.1	-3.5861e-003
25171	10.716	3.	0.1	-3.7166e-003
25172	10.439	2.9091	0.1	-3.3216e-003
25173	10.531	3.	0.1	-3.455e-003
25174	10.255	2.9091	0.1	-3.0377e-003
25175	10.347	3.	0.1	-3.1863e-003
25176	10.07	2.9091	0.1	-2.7313e-003
25177	10.162	3.	0.1	-2.8853e-003
25178	9.8855	2.9091	0.1	-2.4071e-003
25179	9.9778	3.	0.1	-2.572e-003
25180	9.701	2.9091	0.1	-2.0618e-003
25181	9.7933	3.	0.1	-2.235e-003
25182	9.5165	2.9091	0.1	-1.6981e-003
25183	9.6088	3.	0.1	-1.8788e-003
25184	9.332	2.9091	0.1	-1.3157e-003
25185	9.4243	3.	0.1	-1.504e-003
25186	9.1475	2.9091	0.1	-9.1498e-004
25187	9.2398	3.	0.1	-1.1098e-003
25188	8.963	2.9091	0.1	-4.9879e-004
25189	9.0553	3.	0.1	-6.9779e-004
25190	8.7785	2.9091	0.1	-7.1985e-005
25191	8.8708	3.	0.1	-2.7118e-004
25192	8.594	2.9091	0.1	3.5858e-004
25193	8.6863	3.	0.1	1.6383e-004
25194	8.4095	2.9091	0.1	7.8302e-004
25195	8.5018	3.	0.1	5.9998e-004
25196	8.225	2.9091	0.1	1.1821e-003
25197	8.3173	3.	0.1	1.0246e-003
25198	8.0405	2.9091	0.1	1.5291e-003
25199	8.1327	3.	0.1	1.4133e-003
25200	7.856	2.9091	0.1	1.7921e-003
25201	7.9482	3.	0.1	1.7381e-003
25202	7.6715	2.9091	0.1	1.9249e-003
25203	7.7637	3.	0.1	1.9637e-003
25204	7.487	2.9091	0.1	1.859e-003
25205	7.5792	3.	0.1	2.0346e-003
25206	7.3025	2.9091	0.1	1.5006e-003
25207	7.3947	3.	0.1	1.8718e-003
25208	7.118	2.9091	0.1	7.2135e-004
25209	7.2102	3.	0.1	1.3689e-003
25210	6.9335	2.9091	0.1	-6.5533e-004
25211	7.0257	3.	0.1	3.7875e-004
25212	6.749	2.9091	0.1	-2.8745e-003
25213	6.8412	3.	0.1	-1.2998e-003
25214	6.5645	2.9091	0.1	-6.273e-003
25215	6.6567	3.	0.1	-3.9504e-003
25216	6.38	2.9091	0.1	-1.1309e-002
25217	6.4722	3.	0.1	-7.9554e-003
25218	6.1955	2.9091	0.1	-1.8624e-002
25219	6.2877	3.	0.1	-1.3838e-002
25220	6.011	2.9091	0.1	-2.9123e-002
25221	6.1032	3.	0.1	-2.235e-002
25222	5.8265	2.9091	0.1	-4.4059e-002
25223	5.9187	3.	0.1	-3.453e-002
25224	5.642	2.9091	0.1	-6.5198e-002
25225	5.7342	3.	0.1	-5.1828e-002
25226	5.4575	2.9091	0.1	-9.5032e-002
25227	5.5497	3.	0.1	-7.63e-002
25228	5.273	2.9091	0.1	-0.13708
25229	5.3652	3.	0.1	-0.11085
25230	5.0885	2.9091	0.1	-0.19626
25231	5.1807	3.	0.1	-0.15959
25232	4.9039	2.9091	0.1	-0.27935
25233	4.9962	3.	0.1	-0.22824
25234	4.7194	2.9091	0.1	-0.39521
25235	4.8117	3.	0.1	-0.32462
25236	4.5349	2.9091	0.1	-0.55437
25237	4.6272	3.	0.1	-0.45879
25238	4.3504	2.9091	0.1	-0.76599
25239	4.4427	3.	0.1	-0.64198
25240	4.1659	2.9091	0.1	-1.0283
25241	4.2582	3.	0.1	-0.88192
25242	3.9814	2.9091	0.1	-1.312
25243	4.0737	3.	0.1	-1.1684
25244	3.7969	2.9091	0.1	-1.4996
25245	3.8892	3.	0.1	-1.4535
25246	3.6124	2.9091	0.1	-1.4326
25247	3.7047	3.	0.1	-1.5463
25248	3.4279	2.9091	0.1	-62.459
25249	3.5202	3.	0.1	-1.2742
25250	3.2434	2.9091	0.1	-328.25
25251	3.3357	3.	0.1	-195.28
25252	3.1512	3.	0.1	-454.08
25253	3.0589	2.9091	0.1	-517.46
25254	23.723	3.0909	0.1	-172.82
25255	23.815	3.1818	0.1	-177.56
25256	23.908	3.0909	0.1	-183.
25257	23.539	3.0909	0.1	-162.54
25258	23.631	3.1818	0.1	-167.15
25259	23.354	3.0909	0.1	-152.63
25260	23.446	3.1818	0.1	-157.
25261	23.17	3.0909	0.1	-143.21
25262	23.262	3.1818	0.1	-147.35
25263	22.985	3.0909	0.1	-134.25
25264	23.077	3.1818	0.1	-138.16
25265	22.801	3.0909	0.1	-125.76
25266	22.893	3.1818	0.1	-129.45
25267	22.616	3.0909	0.1	-117.74
25268	22.708	3.1818	0.1	-121.21
25269	22.432	3.0909	0.1	-110.18
25270	22.524	3.1818	0.1	-113.44
25271	22.247	3.0909	0.1	-103.08
25272	22.339	3.1818	0.1	-106.14
25273	22.063	3.0909	0.1	-96.431
25274	22.155	3.1818	0.1	-99.285
25275	21.878	3.0909	0.1	-90.209
25276	21.97	3.1818	0.1	-92.873
25277	21.694	3.0909	0.1	-84.4
25278	21.786	3.1818	0.1	-86.884
25279	21.509	3.0909	0.1	-78.987
25280	21.601	3.1818	0.1	-81.298
25281	21.325	3.0909	0.1	-73.948
25282	21.417	3.1818	0.1	-76.098
25283	21.14	3.0909	0.1	-69.263
25284	21.232	3.1818	0.1	-71.261
25285	20.956	3.0909	0.1	-64.911
25286	21.048	3.1818	0.1	-66.767
25287	20.771	3.0909	0.1	-60.872
25288	20.863	3.1818	0.1	-62.595
25289	20.587	3.0909	0.1	-57.125
25290	20.679	3.1818	0.1	-58.724
25291	20.402	3.0909	0.1	-53.65
25292	20.494	3.1818	0.1	-55.135
25293	20.218	3.0909	0.1	-50.429
25294	20.31	3.1818	0.1	-51.807
25295	20.033	3.0909	0.1	-47.442
25296	20.125	3.1818	0.1	-48.721
25297	19.849	3.0909	0.1	-44.674
25298	19.941	3.1818	0.1	-45.861
25299	19.664	3.0909	0.1	-42.107
25300	19.756	3.1818	0.1	-43.21
25301	19.48	3.0909	0.1	-39.726
25302	19.572	3.1818	0.1	-40.751
25303	19.295	3.0909	0.1	-37.516
25304	19.387	3.1818	0.1	-38.469
25305	19.111	3.0909	0.1	-35.464
25306	19.203	3.1818	0.1	-36.351
25307	18.926	3.0909	0.1	-33.557
25308	19.018	3.1818	0.1	-34.383
25309	18.742	3.0909	0.1	-31.782
25310	18.834	3.1818	0.1	-32.554
25311	18.557	3.0909	0.1	-30.13
25312	18.649	3.1818	0.1	-30.851
25313	18.373	3.0909	0.1	-28.589
25314	18.465	3.1818	0.1	-29.263
25315	18.188	3.0909	0.1	-27.149
25316	18.28	3.1818	0.1	-27.782
25317	18.004	3.0909	0.1	-25.802
25318	18.096	3.1818	0.1	-26.396
25319	17.819	3.0909	0.1	-24.538
25320	17.911	3.1818	0.1	-25.098
25321	17.635	3.0909	0.1	-23.349
25322	17.727	3.1818	0.1	-23.879
25323	17.45	3.0909	0.1	-22.228
25324	17.542	3.1818	0.1	-22.731
25325	17.266	3.0909	0.1	-21.168
25326	17.358	3.1818	0.1	-21.646
25327	17.081	3.0909	0.1	-20.161
25328	17.173	3.1818	0.1	-20.619
25329	16.897	3.0909	0.1	-19.202
25330	16.989	3.1818	0.1	-19.641
25331	16.712	3.0909	0.1	-18.284
25332	16.804	3.1818	0.1	-18.707
25333	16.528	3.0909	0.1	-17.4
25334	16.62	3.1818	0.1	-17.812
25335	16.343	3.0909	0.1	-16.546
25336	16.435	3.1818	0.1	-16.948
25337	16.159	3.0909	0.1	-15.716
25338	16.251	3.1818	0.1	-16.11
25339	15.974	3.0909	0.1	-14.904
25340	16.066	3.1818	0.1	-15.293
25341	15.79	3.0909	0.1	-14.106
25342	15.882	3.1818	0.1	-14.493
25343	15.605	3.0909	0.1	-13.315
25344	15.697	3.1818	0.1	-13.702
25345	15.421	3.0909	0.1	-12.527
25346	15.513	3.1818	0.1	-12.917
25347	15.236	3.0909	0.1	-11.737
25348	15.328	3.1818	0.1	-12.133
25349	15.052	3.0909	0.1	-10.94
25350	15.144	3.1818	0.1	-11.343
25351	14.867	3.0909	0.1	-10.13
25352	14.959	3.1818	0.1	-10.544
25353	14.683	3.0909	0.1	-9.3027
25354	14.775	3.1818	0.1	-9.7296
25355	14.498	3.0909	0.1	-8.4519
25356	14.59	3.1818	0.1	-8.8949
25357	14.314	3.0909	0.1	-7.5724
25358	14.406	3.1818	0.1	-8.0344
25359	14.129	3.0909	0.1	-6.6585
25360	14.221	3.1818	0.1	-7.1425
25361	13.945	3.0909	0.1	-5.7041
25362	14.037	3.1818	0.1	-6.2135
25363	13.76	3.0909	0.1	-4.7032
25364	13.852	3.1818	0.1	-5.2412
25365	13.576	3.0909	0.1	-3.649
25366	13.668	3.1818	0.1	-4.2193
25367	13.391	3.0909	0.1	-2.5346
25368	13.483	3.1818	0.1	-3.141
25369	13.207	3.0909	0.1	-1.3529
25370	13.299	3.1818	0.1	-1.9995
25371	13.022	3.0909	0.1	-9.6796e-002
25372	13.114	3.1818	0.1	-0.78723
25373	12.838	3.0909	0.1	-6.1544e-003
25374	12.93	3.1818	0.1	-6.8965e-003
25375	12.653	3.0909	0.1	-5.9478e-003
25376	12.745	3.1818	0.1	-6.1696e-003
25377	12.469	3.0909	0.1	-5.7667e-003
25378	12.561	3.1818	0.1	-5.9297e-003
25379	12.284	3.0909	0.1	-5.5699e-003
25380	12.376	3.1818	0.1	-5.7108e-003
25381	12.1	3.0909	0.1	-5.3753e-003
25382	12.192	3.1818	0.1	-5.497e-003
25383	11.915	3.0909	0.1	-5.1822e-003
25384	12.007	3.1818	0.1	-5.3005e-003
25385	11.731	3.0909	0.1	-4.9815e-003
25386	11.823	3.1818	0.1	-5.0987e-003
25387	11.546	3.0909	0.1	-4.7753e-003
25388	11.638	3.1818	0.1	-4.8932e-003
25389	11.362	3.0909	0.1	-4.5602e-003
25390	11.454	3.1818	0.1	-4.683e-003
25391	11.177	3.0909	0.1	-4.3415e-003
25392	11.269	3.1818	0.1	-4.4616e-003
25393	10.993	3.0909	0.1	-4.1161e-003
25394	11.085	3.1818	0.1	-4.2472e-003
25395	10.808	3.0909	0.1	-3.8577e-003
25396	10.9	3.1818	0.1	-4.0139e-003
25397	10.624	3.0909	0.1	-3.5861e-003
25398	10.716	3.1818	0.1	-3.7346e-003
25399	10.439	3.0909	0.1	-3.3214e-003
25400	10.531	3.1818	0.1	-3.477e-003
25401	10.255	3.0909	0.1	-3.0371e-003
25402	10.347	3.1818	0.1	-3.2131e-003
25403	10.07	3.0909	0.1	-2.7309e-003
25404	10.162	3.1818	0.1	-2.9181e-003
25405	9.8855	3.0909	0.1	-2.407e-003
25406	9.9778	3.1818	0.1	-2.6122e-003
25407	9.701	3.0909	0.1	-2.0619e-003
25408	9.7933	3.1818	0.1	-2.284e-003
25409	9.5165	3.0909	0.1	-1.6981e-003
25410	9.6088	3.1818	0.1	-1.9385e-003
25411	9.332	3.0909	0.1	-1.3157e-003
25412	9.4243	3.1818	0.1	-1.5764e-003
25413	9.1475	3.0909	0.1	-9.1522e-004
25414	9.2398	3.1818	0.1	-1.1972e-003
25415	8.963	3.0909	0.1	-4.9909e-004
25416	9.0553	3.1818	0.1	-8.0308e-004
25417	8.7785	3.0909	0.1	-7.2076e-005
25418	8.8708	3.1818	0.1	-3.9842e-004
25419	8.594	3.0909	0.1	3.5879e-004
25420	8.6863	3.1818	0.1	1.0876e-005
25421	8.4095	3.0909	0.1	7.8302e-004
25422	8.5018	3.1818	0.1	4.1621e-004
25423	8.225	3.0909	0.1	1.182e-003
25424	8.3173	3.1818	0.1	8.0317e-004
25425	8.0405	3.0909	0.1	1.5292e-003
25426	8.1327	3.1818	0.1	1.1463e-003
25427	7.856	3.0909	0.1	1.7922e-003
25428	7.9482	3.1818	0.1	1.4158e-003
25429	7.6715	3.0909	0.1	1.9248e-003
25430	7.7637	3.1818	0.1	1.5743e-003
25431	7.487	3.0909	0.1	1.859e-003
25432	7.5792	3.1818	0.1	1.563e-003
25433	7.3025	3.0909	0.1	1.5007e-003
25434	7.3947	3.1818	0.1	1.2997e-003
25435	7.118	3.0909	0.1	7.2135e-004
25436	7.2102	3.1818	0.1	6.7323e-004
25437	6.9335	3.0909	0.1	-6.5522e-004
25438	7.0257	3.1818	0.1	-4.684e-004
25439	6.749	3.0909	0.1	-2.8744e-003
25440	6.8412	3.1818	0.1	-2.3341e-003
25441	6.5645	3.0909	0.1	-6.2729e-003
25442	6.6567	3.1818	0.1	-5.2145e-003
25443	6.38	3.0909	0.1	-1.1308e-002
25444	6.4722	3.1818	0.1	-9.5017e-003
25445	6.1955	3.0909	0.1	-1.8624e-002
25446	6.2877	3.1818	0.1	-1.573e-002
25447	6.011	3.0909	0.1	-2.9123e-002
25448	6.1032	3.1818	0.1	-2.4659e-002
25449	5.8265	3.0909	0.1	-4.4059e-002
25450	5.9187	3.1818	0.1	-3.7335e-002
25451	5.642	3.0909	0.1	-6.5198e-002
25452	5.7342	3.1818	0.1	-5.5208e-002
25453	5.4575	3.0909	0.1	-9.5032e-002
25454	5.5497	3.1818	0.1	-8.0316e-002
25455	5.273	3.0909	0.1	-0.13708
25456	5.3652	3.1818	0.1	-0.11551
25457	5.0885	3.0909	0.1	-0.19626
25458	5.1807	3.1818	0.1	-0.16478
25459	4.9039	3.0909	0.1	-0.27935
25460	4.9962	3.1818	0.1	-0.23364
25461	4.7194	3.0909	0.1	-0.39521
25462	4.8117	3.1818	0.1	-0.32954
25463	4.5349	3.0909	0.1	-0.55437
25464	4.6272	3.1818	0.1	-0.46207
25465	4.3504	3.0909	0.1	-0.76599
25466	4.4427	3.1818	0.1	-0.6421
25467	4.1659	3.0909	0.1	-1.0283
25468	4.2582	3.1818	0.1	-0.87826
25469	3.9814	3.0909	0.1	-1.312
25470	4.0737	3.1818	0.1	-1.1697
25471	3.7969	3.0909	0.1	-1.4996
25472	3.8892	3.1818	0.1	-1.4612
25473	3.6124	3.0909	0.1	-1.4326
25474	3.7047	3.1818	0.1	-1.672
25475	3.4279	3.0909	0.1	-62.459
25476	3.5202	3.1818	0.1	-1.9081
25477	3.2434	3.0909	0.1	-328.26
25478	3.3357	3.1818	0.1	-198.71
25479	3.1512	3.1818	0.1	-476.69
25480	3.0589	3.0909	0.1	-517.47
25481	23.723	3.2727	0.1	-171.89
25482	23.815	3.3636	0.1	-176.16
25483	23.908	3.2727	0.1	-182.06
25484	23.539	3.2727	0.1	-161.62
25485	23.631	3.3636	0.1	-165.75
25486	23.354	3.2727	0.1	-151.72
25487	23.446	3.3636	0.1	-155.61
25488	23.17	3.2727	0.1	-142.32
25489	23.262	3.3636	0.1	-145.99
25490	22.985	3.2727	0.1	-133.38
25491	23.077	3.3636	0.1	-136.84
25492	22.801	3.2727	0.1	-124.92
25493	22.893	3.3636	0.1	-128.17
25494	22.616	3.2727	0.1	-116.93
25495	22.708	3.3636	0.1	-119.98
25496	22.432	3.2727	0.1	-109.42
25497	22.524	3.3636	0.1	-112.26
25498	22.247	3.2727	0.1	-102.36
25499	22.339	3.3636	0.1	-105.02
25500	22.063	3.2727	0.1	-95.75
25501	22.155	3.3636	0.1	-98.233
25502	21.878	3.2727	0.1	-89.572
25503	21.97	3.3636	0.1	-91.886
25504	21.694	3.2727	0.1	-83.808
25505	21.786	3.3636	0.1	-85.963
25506	21.509	3.2727	0.1	-78.437
25507	21.601	3.3636	0.1	-80.444
25508	21.325	3.2727	0.1	-73.44
25509	21.417	3.3636	0.1	-75.308
25510	21.14	3.2727	0.1	-68.796
25511	21.232	3.3636	0.1	-70.533
25512	20.956	3.2727	0.1	-64.483
25513	21.048	3.3636	0.1	-66.099
25514	20.771	3.2727	0.1	-60.48
25515	20.863	3.3636	0.1	-61.983
25516	20.587	3.2727	0.1	-56.767
25517	20.679	3.3636	0.1	-58.166
25518	20.402	3.2727	0.1	-53.325
25519	20.494	3.3636	0.1	-54.626
25520	20.218	3.2727	0.1	-50.134
25521	20.31	3.3636	0.1	-51.344
25522	20.033	3.2727	0.1	-47.175
25523	20.125	3.3636	0.1	-48.302
25524	19.849	3.2727	0.1	-44.432
25525	19.941	3.3636	0.1	-45.482
25526	19.664	3.2727	0.1	-41.889
25527	19.756	3.3636	0.1	-42.867
25528	19.48	3.2727	0.1	-39.53
25529	19.572	3.3636	0.1	-40.442
25530	19.295	3.2727	0.1	-37.34
25531	19.387	3.3636	0.1	-38.192
25532	19.111	3.2727	0.1	-35.306
25533	19.203	3.3636	0.1	-36.103
25534	18.926	3.2727	0.1	-33.416
25535	19.018	3.3636	0.1	-34.162
25536	18.742	3.2727	0.1	-31.658
25537	18.834	3.3636	0.1	-32.356
25538	18.557	3.2727	0.1	-30.019
25539	18.649	3.3636	0.1	-30.676
25540	18.373	3.2727	0.1	-28.491
25541	18.465	3.3636	0.1	-29.109
25542	18.188	3.2727	0.1	-27.064
25543	18.28	3.3636	0.1	-27.646
25544	18.004	3.2727	0.1	-25.727
25545	18.096	3.3636	0.1	-26.278
25546	17.819	3.2727	0.1	-24.474
25547	17.911	3.3636	0.1	-24.995
25548	17.635	3.2727	0.1	-23.294
25549	17.727	3.3636	0.1	-23.791
25550	17.45	3.2727	0.1	-22.182
25551	17.542	3.3636	0.1	-22.656
25552	17.266	3.2727	0.1	-21.13
25553	17.358	3.3636	0.1	-21.585
25554	17.081	3.2727	0.1	-20.131
25555	17.173	3.3636	0.1	-20.569
25556	16.897	3.2727	0.1	-19.179
25557	16.989	3.3636	0.1	-19.602
25558	16.712	3.2727	0.1	-18.268
25559	16.804	3.3636	0.1	-18.679
25560	16.528	3.2727	0.1	-17.391
25561	16.62	3.3636	0.1	-17.793
25562	16.343	3.2727	0.1	-16.543
25563	16.435	3.3636	0.1	-16.938
25564	16.159	3.2727	0.1	-15.718
25565	16.251	3.3636	0.1	-16.11
25566	15.974	3.2727	0.1	-14.912
25567	16.066	3.3636	0.1	-15.302
25568	15.79	3.2727	0.1	-14.119
25569	15.882	3.3636	0.1	-14.509
25570	15.605	3.2727	0.1	-13.334
25571	15.697	3.3636	0.1	-13.727
25572	15.421	3.2727	0.1	-12.552
25573	15.513	3.3636	0.1	-12.95
25574	15.236	3.2727	0.1	-11.767
25575	15.328	3.3636	0.1	-12.173
25576	15.052	3.2727	0.1	-10.976
25577	15.144	3.3636	0.1	-11.392
25578	14.867	3.2727	0.1	-10.171
25579	14.959	3.3636	0.1	-10.601
25580	14.683	3.2727	0.1	-9.3494
25581	14.775	3.3636	0.1	-9.7953
25582	14.498	3.2727	0.1	-8.5046
25583	14.59	3.3636	0.1	-8.9693
25584	14.314	3.2727	0.1	-7.6312
25585	14.406	3.3636	0.1	-8.1179
25586	14.129	3.2727	0.1	-6.7238
25587	14.221	3.3636	0.1	-7.2354
25588	13.945	3.2727	0.1	-5.7763
25589	14.037	3.3636	0.1	-6.3163
25590	13.76	3.2727	0.1	-4.7826
25591	13.852	3.3636	0.1	-5.3546
25592	13.576	3.2727	0.1	-3.7362
25593	13.668	3.3636	0.1	-4.3439
25594	13.391	3.2727	0.1	-2.6303
25595	13.483	3.3636	0.1	-3.2778
25596	13.207	3.2727	0.1	-1.4577
25597	13.299	3.3636	0.1	-2.1492
25598	13.022	3.2727	0.1	-0.21381
25599	13.114	3.3636	0.1	-0.95138
25600	12.838	3.2727	0.1	-6.7763e-003
25601	12.93	3.3636	0.1	-1.0554e-002
25602	12.653	3.2727	0.1	-6.1882e-003
25603	12.745	3.3636	0.1	-6.7666e-003
25604	12.469	3.2727	0.1	-5.8978e-003
25605	12.561	3.3636	0.1	-6.207e-003
25606	12.284	3.2727	0.1	-5.6523e-003
25607	12.376	3.3636	0.1	-5.8717e-003
25608	12.1	3.2727	0.1	-5.4305e-003
25609	12.192	3.3636	0.1	-5.6005e-003
25610	11.915	3.2727	0.1	-5.2215e-003
25611	12.007	3.3636	0.1	-5.3718e-003
25612	11.731	3.2727	0.1	-5.0125e-003
25613	11.823	3.3636	0.1	-5.1511e-003
25614	11.546	3.2727	0.1	-4.8016e-003
25615	11.638	3.3636	0.1	-4.9355e-003
25616	11.362	3.2727	0.1	-4.5841e-003
25617	11.454	3.3636	0.1	-4.7202e-003
25618	11.177	3.2727	0.1	-4.3666e-003
25619	11.269	3.3636	0.1	-4.4979e-003
25620	10.993	3.2727	0.1	-4.1443e-003
25621	11.085	3.3636	0.1	-4.2858e-003
25622	10.808	3.2727	0.1	-3.8905e-003
25623	10.9	3.3636	0.1	-4.0586e-003
25624	10.624	3.2727	0.1	-3.626e-003
25625	10.716	3.3636	0.1	-3.7876e-003
25626	10.439	3.2727	0.1	-3.3702e-003
25627	10.531	3.3636	0.1	-3.5418e-003
25628	10.255	3.2727	0.1	-3.0972e-003
25629	10.347	3.3636	0.1	-3.2924e-003
25630	10.07	3.2727	0.1	-2.8043e-003
25631	10.162	3.3636	0.1	-3.0156e-003
25632	9.8855	3.2727	0.1	-2.4963e-003
25633	9.9778	3.3636	0.1	-2.7311e-003
25634	9.701	3.2727	0.1	-2.1705e-003
25635	9.7933	3.3636	0.1	-2.4288e-003
25636	9.5165	3.2727	0.1	-1.83e-003
25637	9.6088	3.3636	0.1	-2.1145e-003
25638	9.332	3.2727	0.1	-1.4752e-003
25639	9.4243	3.3636	0.1	-1.7895e-003
25640	9.1475	3.2727	0.1	-1.1075e-003
25641	9.2398	3.3636	0.1	-1.4547e-003
25642	8.963	3.2727	0.1	-7.3119e-004
25643	9.0553	3.3636	0.1	-1.1134e-003
25644	8.7785	3.2727	0.1	-3.5203e-004
25645	8.8708	3.3636	0.1	-7.7207e-004
25646	8.594	3.2727	0.1	2.205e-005
25647	8.6863	3.3636	0.1	-4.3909e-004
25648	8.4095	3.2727	0.1	3.7801e-004
25649	8.5018	3.3636	0.1	-1.2532e-004
25650	8.225	3.2727	0.1	6.9388e-004
25651	8.3173	3.3636	0.1	1.5123e-004
25652	8.0405	3.2727	0.1	9.4014e-004
25653	8.1327	3.3636	0.1	3.6085e-004
25654	7.856	3.2727	0.1	1.0808e-003
25655	7.9482	3.3636	0.1	4.683e-004
25656	7.6715	3.2727	0.1	1.0643e-003
25657	7.7637	3.3636	0.1	4.2932e-004
25658	7.487	3.2727	0.1	8.1586e-004
25659	7.5792	3.3636	0.1	1.7698e-004
25660	7.3025	3.2727	0.1	2.3352e-004
25661	7.3947	3.3636	0.1	-3.8168e-004
25662	7.118	3.2727	0.1	-8.2099e-004
25663	7.2102	3.3636	0.1	-1.3709e-003
25664	6.9335	3.2727	0.1	-2.5366e-003
25665	7.0257	3.3636	0.1	-2.9592e-003
25666	6.749	3.2727	0.1	-5.1733e-003
25667	6.8412	3.3636	0.1	-5.3756e-003
25668	6.5645	3.2727	0.1	-9.0852e-003
25669	6.6567	3.3636	0.1	-8.9357e-003
25670	6.38	3.2727	0.1	-1.475e-002
25671	6.4722	3.3636	0.1	-1.406e-002
25672	6.1955	3.2727	0.1	-2.2832e-002
25673	6.2877	3.3636	0.1	-2.1317e-002
25674	6.011	3.2727	0.1	-3.4252e-002
25675	6.1032	3.3636	0.1	-3.1501e-002
25676	5.8265	3.2727	0.1	-5.0272e-002
25677	5.9187	3.3636	0.1	-4.5689e-002
25678	5.642	3.2727	0.1	-7.2641e-002
25679	5.7342	3.3636	0.1	-6.5347e-002
25680	5.4575	3.2727	0.1	-0.10379
25681	5.5497	3.3636	0.1	-9.2494e-002
25682	5.273	3.2727	0.1	-0.14707
25683	5.3652	3.3636	0.1	-0.12989
25684	5.0885	3.2727	0.1	-0.2071
25685	5.1807	3.3636	0.1	-0.18128
25686	4.9039	3.2727	0.1	-0.2901
25687	4.9962	3.3636	0.1	-0.25173
25688	4.7194	3.2727	0.1	-0.40416
25689	4.8117	3.3636	0.1	-0.34792
25690	4.5349	3.2727	0.1	-0.55906
25691	4.6272	3.3636	0.1	-0.47849
25692	4.3504	3.2727	0.1	-0.76458
25693	4.4427	3.3636	0.1	-0.65313
25694	4.1659	3.2727	0.1	-1.0289
25695	4.2582	3.3636	0.1	-0.88608
25696	3.9814	3.2727	0.1	-1.3231
25697	4.0737	3.3636	0.1	-1.1713
25698	3.7969	3.2727	0.1	-1.6219
25699	3.8892	3.3636	0.1	-1.5574
25700	3.6124	3.2727	0.1	-1.9113
25701	3.7047	3.3636	0.1	-1.9496
25702	3.4279	3.2727	0.1	-64.258
25703	3.5202	3.3636	0.1	-2.6874
25704	3.2434	3.2727	0.1	-354.44
25705	3.3357	3.3636	0.1	-210.23
25706	3.1512	3.3636	0.1	-542.62
25707	3.0589	3.2727	0.1	-577.85
25708	23.723	3.4545	0.1	-170.02
25709	23.815	3.5455	0.1	-173.81
25710	23.908	3.4545	0.1	-180.17
25711	23.539	3.4545	0.1	-159.76
25712	23.631	3.5455	0.1	-163.41
25713	23.354	3.4545	0.1	-149.89
25714	23.446	3.5455	0.1	-153.3
25715	23.17	3.4545	0.1	-140.53
25716	23.262	3.5455	0.1	-143.72
25717	22.985	3.4545	0.1	-131.64
25718	23.077	3.5455	0.1	-134.62
25719	22.801	3.4545	0.1	-123.24
25720	22.893	3.5455	0.1	-126.02
25721	22.616	3.4545	0.1	-115.33
25722	22.708	3.5455	0.1	-117.92
25723	22.432	3.4545	0.1	-107.89
25724	22.524	3.5455	0.1	-110.3
25725	22.247	3.4545	0.1	-100.91
25726	22.339	3.5455	0.1	-103.16
25727	22.063	3.4545	0.1	-94.392
25728	22.155	3.5455	0.1	-96.482
25729	21.878	3.4545	0.1	-88.302
25730	21.97	3.5455	0.1	-90.247
25731	21.694	3.4545	0.1	-82.626
25732	21.786	3.5455	0.1	-84.436
25733	21.509	3.4545	0.1	-77.343
25734	21.601	3.5455	0.1	-79.028
25735	21.325	3.4545	0.1	-72.43
25736	21.417	3.5455	0.1	-73.999
25737	21.14	3.4545	0.1	-67.867
25738	21.232	3.5455	0.1	-69.329
25739	20.956	3.4545	0.1	-63.631
25740	21.048	3.5455	0.1	-64.994
25741	20.771	3.4545	0.1	-59.702
25742	20.863	3.5455	0.1	-60.973
25743	20.587	3.4545	0.1	-56.058
25744	20.679	3.5455	0.1	-57.243
25745	20.402	3.4545	0.1	-52.68
25746	20.494	3.5455	0.1	-53.786
25747	20.218	3.4545	0.1	-49.548
25748	20.31	3.5455	0.1	-50.582
25749	20.033	3.4545	0.1	-46.645
25750	20.125	3.5455	0.1	-47.611
25751	19.849	3.4545	0.1	-43.953
25752	19.941	3.5455	0.1	-44.857
25753	19.664	3.4545	0.1	-41.457
25754	19.756	3.5455	0.1	-42.303
25755	19.48	3.4545	0.1	-39.141
25756	19.572	3.5455	0.1	-39.935
25757	19.295	3.4545	0.1	-36.991
25758	19.387	3.5455	0.1	-37.736
25759	19.111	3.4545	0.1	-34.994
25760	19.203	3.5455	0.1	-35.694
25761	18.926	3.4545	0.1	-33.138
25762	19.018	3.5455	0.1	-33.797
25763	18.742	3.4545	0.1	-31.41
25764	18.834	3.5455	0.1	-32.031
25765	18.557	3.4545	0.1	-29.8
25766	18.649	3.5455	0.1	-30.387
25767	18.373	3.4545	0.1	-28.298
25768	18.465	3.5455	0.1	-28.854
25769	18.188	3.4545	0.1	-26.895
25770	18.28	3.5455	0.1	-27.422
25771	18.004	3.4545	0.1	-25.58
25772	18.096	3.5455	0.1	-26.083
25773	17.819	3.4545	0.1	-24.347
25774	17.911	3.5455	0.1	-24.827
25775	17.635	3.4545	0.1	-23.187
25776	17.727	3.5455	0.1	-23.646
25777	17.45	3.4545	0.1	-22.092
25778	17.542	3.5455	0.1	-22.535
25779	17.266	3.4545	0.1	-21.056
25780	17.358	3.5455	0.1	-21.484
25781	17.081	3.4545	0.1	-20.073
25782	17.173	3.5455	0.1	-20.487
25783	16.897	3.4545	0.1	-19.135
25784	16.989	3.5455	0.1	-19.539
25785	16.712	3.4545	0.1	-18.236
25786	16.804	3.5455	0.1	-18.633
25787	16.528	3.4545	0.1	-17.372
25788	16.62	3.5455	0.1	-17.763
25789	16.343	3.4545	0.1	-16.536
25790	16.435	3.5455	0.1	-16.924
25791	16.159	3.4545	0.1	-15.724
25792	16.251	3.5455	0.1	-16.11
25793	15.974	3.4545	0.1	-14.929
25794	16.066	3.5455	0.1	-15.316
25795	15.79	3.4545	0.1	-14.147
25796	15.882	3.5455	0.1	-14.537
25797	15.605	3.4545	0.1	-13.373
25798	15.697	3.5455	0.1	-13.769
25799	15.421	3.4545	0.1	-12.601
25800	15.513	3.5455	0.1	-13.005
25801	15.236	3.4545	0.1	-11.827
25802	15.328	3.5455	0.1	-12.242
25803	15.052	3.4545	0.1	-11.046
25804	15.144	3.5455	0.1	-11.474
25805	14.867	3.4545	0.1	-10.253
25806	14.959	3.5455	0.1	-10.697
25807	14.683	3.4545	0.1	-9.4428
25808	14.775	3.5455	0.1	-9.9047
25809	14.498	3.4545	0.1	-8.6098
25810	14.59	3.5455	0.1	-9.0931
25811	14.314	3.4545	0.1	-7.7487
25812	14.406	3.5455	0.1	-8.2567
25813	14.129	3.4545	0.1	-6.8542
25814	14.221	3.5455	0.1	-7.3899
25815	13.945	3.4545	0.1	-5.9204
25816	14.037	3.5455	0.1	-6.4873
25817	13.76	3.4545	0.1	-4.9412
25818	13.852	3.5455	0.1	-5.543
25819	13.576	3.4545	0.1	-3.9103
25820	13.668	3.5455	0.1	-4.5509
25821	13.391	3.4545	0.1	-2.821
25822	13.483	3.5455	0.1	-3.5047
25823	13.207	3.4545	0.1	-1.6665
25824	13.299	3.5455	0.1	-2.3976
25825	13.022	3.4545	0.1	-0.44217
25826	13.114	3.5455	0.1	-1.2231
25827	12.838	3.4545	0.1	-8.5477e-003
25828	12.93	3.5455	0.1	-4.8033e-002
25829	12.653	3.4545	0.1	-6.7566e-003
25830	12.745	3.5455	0.1	-8.1397e-003
25831	12.469	3.4545	0.1	-6.1917e-003
25832	12.561	3.5455	0.1	-6.7652e-003
25833	12.284	3.4545	0.1	-5.8296e-003
25834	12.376	3.5455	0.1	-6.1785e-003
25835	12.1	3.4545	0.1	-5.5477e-003
25836	12.192	3.5455	0.1	-5.7914e-003
25837	11.915	3.4545	0.1	-5.3044e-003
25838	12.007	3.5455	0.1	-5.4999e-003
25839	11.731	3.4545	0.1	-5.075e-003
25840	11.823	3.5455	0.1	-5.2433e-003
25841	11.546	3.4545	0.1	-4.8538e-003
25842	11.638	3.5455	0.1	-5.0072e-003
25843	11.362	3.4545	0.1	-4.6329e-003
25844	11.454	3.5455	0.1	-4.7824e-003
25845	11.177	3.4545	0.1	-4.4157e-003
25846	11.269	3.5455	0.1	-4.5573e-003
25847	10.993	3.4545	0.1	-4.1989e-003
25848	11.085	3.5455	0.1	-4.3482e-003
25849	10.808	3.4545	0.1	-3.955e-003
25850	10.9	3.5455	0.1	-4.1302e-003
25851	10.624	3.4545	0.1	-3.7035e-003
25852	10.716	3.5455	0.1	-3.873e-003
25853	10.439	3.4545	0.1	-3.4651e-003
25854	10.531	3.5455	0.1	-3.6451e-003
25855	10.255	3.4545	0.1	-3.2135e-003
25856	10.347	3.5455	0.1	-3.4191e-003
25857	10.07	3.4545	0.1	-2.9469e-003
25858	10.162	3.5455	0.1	-3.1714e-003
25859	9.8855	3.4545	0.1	-2.6704e-003
25860	9.9778	3.5455	0.1	-2.9216e-003
25861	9.701	3.4545	0.1	-2.3824e-003
25862	9.7933	3.5455	0.1	-2.6613e-003
25863	9.5165	3.4545	0.1	-2.087e-003
25864	9.6088	3.5455	0.1	-2.3973e-003
25865	9.332	3.4545	0.1	-1.786e-003
25866	9.4243	3.5455	0.1	-2.1321e-003
25867	9.1475	3.4545	0.1	-1.4827e-003
25868	9.2398	3.5455	0.1	-1.8686e-003
25869	8.963	3.4545	0.1	-1.1827e-003
25870	9.0553	3.5455	0.1	-1.6125e-003
25871	8.7785	3.4545	0.1	-8.9526e-004
25872	8.8708	3.5455	0.1	-1.3726e-003
25873	8.594	3.4545	0.1	-6.3218e-004
25874	8.6863	3.5455	0.1	-1.1612e-003
25875	8.4095	3.4545	0.1	-4.0979e-004
25876	8.5018	3.5455	0.1	-9.9408e-004
25877	8.225	3.4545	0.1	-2.5451e-004
25878	8.3173	3.5455	0.1	-8.9391e-004
25879	8.0405	3.4545	0.1	-2.027e-004
25880	8.1327	3.5455	0.1	-8.9721e-004
25881	7.856	3.4545	0.1	-2.99e-004
25882	7.9482	3.5455	0.1	-1.0483e-003
25883	7.6715	3.4545	0.1	-6.0463e-004
25884	7.7637	3.5455	0.1	-1.402e-003
25885	7.487	3.4545	0.1	-1.2068e-003
25886	7.5792	3.5455	0.1	-2.0388e-003
25887	7.3025	3.4545	0.1	-2.2232e-003
25888	7.3947	3.5455	0.1	-3.0687e-003
25889	7.118	3.4545	0.1	-3.8123e-003
25890	7.2102	3.5455	0.1	-4.6379e-003
25891	6.9335	3.4545	0.1	-6.1871e-003
25892	7.0257	3.5455	0.1	-6.9422e-003
25893	6.749	3.4545	0.1	-9.6387e-003
25894	6.8412	3.5455	0.1	-1.0244e-002
25895	6.5645	3.4545	0.1	-1.4558e-002
25896	6.6567	3.5455	0.1	-1.4903e-002
25897	6.38	3.4545	0.1	-2.1467e-002
25898	6.4722	3.5455	0.1	-2.1392e-002
25899	6.1955	3.4545	0.1	-3.1078e-002
25900	6.2877	3.5455	0.1	-3.0341e-002
25901	6.011	3.4545	0.1	-4.4364e-002
25902	6.1032	3.5455	0.1	-4.262e-002
25903	5.8265	3.4545	0.1	-6.2633e-002
25904	5.9187	3.5455	0.1	-5.9387e-002
25905	5.642	3.4545	0.1	-8.7655e-002
25906	5.7342	3.5455	0.1	-8.2192e-002
25907	5.4575	3.4545	0.1	-0.12183
25908	5.5497	3.5455	0.1	-0.11312
25909	5.273	3.4545	0.1	-0.16837
25910	5.3652	3.5455	0.1	-0.15497
25911	5.0885	3.4545	0.1	-0.23158
25912	5.1807	3.5455	0.1	-0.21144
25913	4.9039	3.4545	0.1	-0.3171
25914	4.9962	3.5455	0.1	-0.28742
25915	4.7194	3.4545	0.1	-0.43229
25916	4.8117	3.5455	0.1	-0.3895
25917	4.5349	3.4545	0.1	-0.58588
25918	4.6272	3.5455	0.1	-0.52552
25919	4.3504	3.4545	0.1	-0.792
25920	4.4427	3.5455	0.1	-0.70848
25921	4.1659	3.4545	0.1	-1.0498
25922	4.2582	3.5455	0.1	-0.94902
25923	3.9814	3.4545	0.1	-1.4267
25924	4.0737	3.5455	0.1	-1.2748
25925	3.7969	3.4545	0.1	-1.8757
25926	3.8892	3.5455	0.1	-1.7777
25927	3.6124	3.4545	0.1	-2.0361
25928	3.7047	3.5455	0.1	-2.0027
25929	3.4279	3.4545	0.1	-71.055
25930	3.5202	3.5455	0.1	-5.8938
25931	3.2434	3.4545	0.1	-407.69
25932	3.3357	3.5455	0.1	-225.58
25933	3.1512	3.5455	0.1	-678.92
25934	3.0589	3.4545	0.1	-701.16
25935	23.723	3.6364	0.1	-167.2
25936	23.815	3.7273	0.1	-170.49
25937	23.908	3.6364	0.1	-177.31
25938	23.539	3.6364	0.1	-156.96
25939	23.631	3.7273	0.1	-160.1
25940	23.354	3.6364	0.1	-147.13
25941	23.446	3.7273	0.1	-150.03
25942	23.17	3.6364	0.1	-137.83
25943	23.262	3.7273	0.1	-140.52
25944	22.985	3.6364	0.1	-129.02
25945	23.077	3.7273	0.1	-131.51
25946	22.801	3.6364	0.1	-120.72
25947	22.893	3.7273	0.1	-123.01
25948	22.616	3.6364	0.1	-112.91
25949	22.708	3.7273	0.1	-115.03
25950	22.432	3.6364	0.1	-105.6
25951	22.524	3.7273	0.1	-107.55
25952	22.247	3.6364	0.1	-98.751
25953	22.339	3.7273	0.1	-100.56
25954	22.063	3.6364	0.1	-92.362
25955	22.155	3.7273	0.1	-94.041
25956	21.878	3.6364	0.1	-86.407
25957	21.97	3.7273	0.1	-87.965
25958	21.694	3.6364	0.1	-80.865
25959	21.786	3.7273	0.1	-82.313
25960	21.509	3.6364	0.1	-75.713
25961	21.601	3.7273	0.1	-77.062
25962	21.325	3.6364	0.1	-70.928
25963	21.417	3.7273	0.1	-72.186
25964	21.14	3.6364	0.1	-66.487
25965	21.232	3.7273	0.1	-67.661
25966	20.956	3.6364	0.1	-62.368
25967	21.048	3.7273	0.1	-63.466
25968	20.771	3.6364	0.1	-58.548
25969	20.863	3.7273	0.1	-59.576
25970	20.587	3.6364	0.1	-55.006
25971	20.679	3.7273	0.1	-55.97
25972	20.402	3.6364	0.1	-51.723
25973	20.494	3.7273	0.1	-52.628
25974	20.218	3.6364	0.1	-48.68
25975	20.31	3.7273	0.1	-49.53
25976	20.033	3.6364	0.1	-45.859
25977	20.125	3.7273	0.1	-46.659
25978	19.849	3.6364	0.1	-43.244
25979	19.941	3.7273	0.1	-43.996
25980	19.664	3.6364	0.1	-40.817
25981	19.756	3.7273	0.1	-41.527
25982	19.48	3.6364	0.1	-38.566
25983	19.572	3.7273	0.1	-39.236
25984	19.295	3.6364	0.1	-36.475
25985	19.387	3.7273	0.1	-37.109
25986	19.111	3.6364	0.1	-34.533
25987	19.203	3.7273	0.1	-35.132
25988	18.926	3.6364	0.1	-32.726
25989	19.018	3.7273	0.1	-33.295
25990	18.742	3.6364	0.1	-31.044
25991	18.834	3.7273	0.1	-31.585
25992	18.557	3.6364	0.1	-29.477
25993	18.649	3.7273	0.1	-29.992
25994	18.373	3.6364	0.1	-28.014
25995	18.465	3.7273	0.1	-28.505
25996	18.188	3.6364	0.1	-26.645
25997	18.28	3.7273	0.1	-27.116
25998	18.004	3.6364	0.1	-25.364
25999	18.096	3.7273	0.1	-25.816
26000	17.819	3.6364	0.1	-24.161
26001	17.911	3.7273	0.1	-24.596
26002	17.635	3.6364	0.1	-23.028
26003	17.727	3.7273	0.1	-23.449
26004	17.45	3.6364	0.1	-21.96
26005	17.542	3.7273	0.1	-22.368
26006	17.266	3.6364	0.1	-20.948
26007	17.358	3.7273	0.1	-21.346
26008	17.081	3.6364	0.1	-19.987
26009	17.173	3.7273	0.1	-20.377
26010	16.897	3.6364	0.1	-19.07
26011	16.989	3.7273	0.1	-19.454
26012	16.712	3.6364	0.1	-18.192
26013	16.804	3.7273	0.1	-18.571
26014	16.528	3.6364	0.1	-17.346
26015	16.62	3.7273	0.1	-17.724
26016	16.343	3.6364	0.1	-16.528
26017	16.435	3.7273	0.1	-16.906
26018	16.159	3.6364	0.1	-15.733
26019	16.251	3.7273	0.1	-16.112
26020	15.974	3.6364	0.1	-14.955
26021	16.066	3.7273	0.1	-15.338
26022	15.79	3.6364	0.1	-14.189
26023	15.882	3.7273	0.1	-14.578
26024	15.605	3.6364	0.1	-13.431
26025	15.697	3.7273	0.1	-13.828
26026	15.421	3.6364	0.1	-12.675
26027	15.513	3.7273	0.1	-13.083
26028	15.236	3.6364	0.1	-11.918
26029	15.328	3.7273	0.1	-12.339
26030	15.052	3.6364	0.1	-11.153
26031	15.144	3.7273	0.1	-11.589
26032	14.867	3.6364	0.1	-10.376
26033	14.959	3.7273	0.1	-10.831
26034	14.683	3.6364	0.1	-9.5828
26035	14.775	3.7273	0.1	-10.058
26036	14.498	3.6364	0.1	-8.7673
26037	14.59	3.7273	0.1	-9.2663
26038	14.314	3.6364	0.1	-7.9246
26039	14.406	3.7273	0.1	-8.4506
26040	14.129	3.6364	0.1	-7.0493
26041	14.221	3.7273	0.1	-7.6055
26042	13.945	3.6364	0.1	-6.1358
26043	14.037	3.7273	0.1	-6.7257
26044	13.76	3.6364	0.1	-5.1781
26045	13.852	3.7273	0.1	-5.8056
26046	13.576	3.6364	0.1	-4.1702
26047	13.668	3.7273	0.1	-4.8393
26048	13.391	3.6364	0.1	-3.1056
26049	13.483	3.7273	0.1	-3.8205
26050	13.207	3.6364	0.1	-1.9777
26051	13.299	3.7273	0.1	-2.743
26052	13.022	3.6364	0.1	-0.78139
26053	13.114	3.7273	0.1	-1.6004
26054	12.838	3.6364	0.1	-1.4348e-002
26055	12.93	3.7273	0.1	-0.39407
26056	12.653	3.6364	0.1	-7.9214e-003
26057	12.745	3.7273	0.1	-1.1661e-002
26058	12.469	3.6364	0.1	-6.7323e-003
26059	12.561	3.7273	0.1	-7.838e-003
26060	12.284	3.6364	0.1	-6.1406e-003
26061	12.376	3.7273	0.1	-6.7156e-003
26062	12.1	3.6364	0.1	-5.7453e-003
26063	12.192	3.7273	0.1	-6.1095e-003
26064	11.915	3.6364	0.1	-5.4393e-003
26065	12.007	3.7273	0.1	-5.7059e-003
26066	11.731	3.6364	0.1	-5.1746e-003
26067	11.823	3.7273	0.1	-5.3867e-003
26068	11.546	3.6364	0.1	-4.934e-003
26069	11.638	3.7273	0.1	-5.1153e-003
26070	11.362	3.6364	0.1	-4.7045e-003
26071	11.454	3.7273	0.1	-4.872e-003
26072	11.177	3.6364	0.1	-4.4874e-003
26073	11.269	3.7273	0.1	-4.6406e-003
26074	10.993	3.6364	0.1	-4.2774e-003
26075	11.085	3.7273	0.1	-4.4346e-003
26076	10.808	3.6364	0.1	-4.0467e-003
26077	10.9	3.7273	0.1	-4.2262e-003
26078	10.624	3.6364	0.1	-3.8139e-003
26079	10.716	3.7273	0.1	-3.987e-003
26080	10.439	3.6364	0.1	-3.5996e-003
26081	10.531	3.7273	0.1	-3.7828e-003
26082	10.255	3.6364	0.1	-3.379e-003
26083	10.347	3.7273	0.1	-3.5878e-003
26084	10.07	3.6364	0.1	-3.15e-003
26085	10.162	3.7273	0.1	-3.3789e-003
26086	9.8855	3.6364	0.1	-2.9188e-003
26087	9.9778	3.7273	0.1	-3.1753e-003
26088	9.701	3.6364	0.1	-2.6853e-003
26089	9.7933	3.7273	0.1	-2.9713e-003
26090	9.5165	3.6364	0.1	-2.4549e-003
26091	9.6088	3.7273	0.1	-2.7741e-003
26092	9.332	3.6364	0.1	-2.2313e-003
26093	9.4243	3.7273	0.1	-2.5885e-003
26094	9.1475	3.6364	0.1	-2.0201e-003
26095	9.2398	3.7273	0.1	-2.4191e-003
26096	8.963	3.6364	0.1	-1.8303e-003
26097	9.0553	3.7273	0.1	-2.2756e-003
26098	8.7785	3.6364	0.1	-1.6741e-003
26099	8.8708	3.7273	0.1	-2.17e-003
26100	8.594	3.6364	0.1	-1.5681e-003
26101	8.6863	3.7273	0.1	-2.1189e-003
26102	8.4095	3.6364	0.1	-1.5349e-003
26103	8.5018	3.7273	0.1	-2.144e-003
26104	8.225	3.6364	0.1	-1.6081e-003
26105	8.3173	3.7273	0.1	-2.2746e-003
26106	8.0405	3.6364	0.1	-1.8329e-003
26107	8.1327	3.7273	0.1	-2.5572e-003
26108	7.856	3.6364	0.1	-2.2652e-003
26109	7.9482	3.7273	0.1	-3.0461e-003
26110	7.6715	3.6364	0.1	-2.9805e-003
26111	7.7637	3.7273	0.1	-3.8113e-003
26112	7.487	3.6364	0.1	-4.0843e-003
26113	7.5792	3.7273	0.1	-4.9507e-003
26114	7.3025	3.6364	0.1	-5.7179e-003
26115	7.3947	3.7273	0.1	-6.5978e-003
26116	7.118	3.6364	0.1	-8.0687e-003
26117	7.2102	3.7273	0.1	-8.9279e-003
26118	6.9335	3.6364	0.1	-1.1387e-002
26119	7.0257	3.7273	0.1	-1.2175e-002
26120	6.749	3.6364	0.1	-1.6012e-002
26121	6.8412	3.7273	0.1	-1.665e-002
26122	6.5645	3.6364	0.1	-2.2393e-002
26123	6.6567	3.7273	0.1	-2.2776e-002
26124	6.38	3.6364	0.1	-3.1125e-002
26125	6.4722	3.7273	0.1	-3.1104e-002
26126	6.1955	3.6364	0.1	-4.3015e-002
26127	6.2877	3.7273	0.1	-4.237e-002
26128	6.011	3.6364	0.1	-5.9144e-002
26129	6.1032	3.7273	0.1	-5.7574e-002
26130	5.8265	3.6364	0.1	-8.0949e-002
26131	5.9187	3.7273	0.1	-7.8043e-002
26132	5.642	3.6364	0.1	-0.11035
26133	5.7342	3.7273	0.1	-0.10554
26134	5.4575	3.6364	0.1	-0.1499
26135	5.5497	3.7273	0.1	-0.14244
26136	5.273	3.6364	0.1	-0.20302
26137	5.3652	3.7273	0.1	-0.19189
26138	5.0885	3.6364	0.1	-0.27417
26139	5.1807	3.7273	0.1	-0.25822
26140	4.9039	3.6364	0.1	-0.36951
26141	4.9962	3.7273	0.1	-0.34697
26142	4.7194	3.6364	0.1	-0.49663
26143	4.8117	3.7273	0.1	-0.46716
26144	4.5349	3.6364	0.1	-0.6686
26145	4.6272	3.7273	0.1	-0.62687
26146	4.3504	3.6364	0.1	-0.89673
26147	4.4427	3.7273	0.1	-0.85936
26148	4.1659	3.6364	0.1	-1.2235
26149	4.2582	3.7273	0.1	-1.1377
26150	3.9814	3.6364	0.1	-1.708
26151	4.0737	3.7273	0.1	-1.7649
26152	3.7969	3.6364	0.1	-2.0401
26153	3.8892	3.7273	0.1	-1.9551
26154	3.6124	3.6364	0.1	-5.4183
26155	3.7047	3.7273	0.1	-5.4869
26156	3.4279	3.6364	0.1	-86.215
26157	3.5202	3.7273	0.1	-5.6292
26158	3.2434	3.6364	0.1	-515.33
26159	3.3357	3.7273	0.1	-314.85
26160	3.1512	3.7273	0.1	-874.96
26161	3.0589	3.6364	0.1	-936.75
26162	23.723	3.8182	0.1	-163.4
26163	23.815	3.9091	0.1	-166.17
26164	23.908	3.8182	0.1	-173.46
26165	23.539	3.8182	0.1	-153.18
26166	23.631	3.9091	0.1	-155.8
26167	23.354	3.8182	0.1	-143.42
26168	23.446	3.9091	0.1	-145.79
26169	23.17	3.8182	0.1	-134.21
26170	23.262	3.9091	0.1	-136.36
26171	22.985	3.8182	0.1	-125.51
26172	23.077	3.9091	0.1	-127.47
26173	22.801	3.8182	0.1	-117.35
26174	22.893	3.9091	0.1	-119.12
26175	22.616	3.8182	0.1	-109.69
26176	22.708	3.9091	0.1	-111.31
26177	22.432	3.8182	0.1	-102.54
26178	22.524	3.9091	0.1	-104.02
26179	22.247	3.8182	0.1	-95.877
26180	22.339	3.9091	0.1	-97.233
26181	22.063	3.8182	0.1	-89.67
26182	22.155	3.9091	0.1	-90.919
26183	21.878	3.8182	0.1	-83.899
26184	21.97	3.9091	0.1	-85.054
26185	21.694	3.8182	0.1	-78.539
26186	21.786	3.9091	0.1	-79.611
26187	21.509	3.8182	0.1	-73.565
26188	21.601	3.9091	0.1	-74.564
26189	21.325	3.8182	0.1	-68.951
26190	21.417	3.9091	0.1	-69.886
26191	21.14	3.8182	0.1	-64.673
26192	21.232	3.9091	0.1	-65.55
26193	20.956	3.8182	0.1	-60.708
26194	21.048	3.9091	0.1	-61.533
26195	20.771	3.8182	0.1	-57.033
26196	20.863	3.9091	0.1	-57.812
26197	20.587	3.8182	0.1	-53.627
26198	20.679	3.9091	0.1	-54.363
26199	20.402	3.8182	0.1	-50.47
26200	20.494	3.9091	0.1	-51.168
26201	20.218	3.8182	0.1	-47.545
26202	20.31	3.9091	0.1	-48.206
26203	20.033	3.8182	0.1	-44.832
26204	20.125	3.9091	0.1	-45.46
26205	19.849	3.8182	0.1	-42.316
26206	19.941	3.9091	0.1	-42.914
26207	19.664	3.8182	0.1	-39.982
26208	19.756	3.9091	0.1	-40.551
26209	19.48	3.8182	0.1	-37.815
26210	19.572	3.9091	0.1	-38.358
26211	19.295	3.8182	0.1	-35.802
26212	19.387	3.9091	0.1	-36.321
26213	19.111	3.8182	0.1	-33.931
26214	19.203	3.9091	0.1	-34.428
26215	18.926	3.8182	0.1	-32.19
26216	19.018	3.9091	0.1	-32.666
26217	18.742	3.8182	0.1	-30.568
26218	18.834	3.9091	0.1	-31.026
26219	18.557	3.8182	0.1	-29.056
26220	18.649	3.9091	0.1	-29.496
26221	18.373	3.8182	0.1	-27.643
26222	18.465	3.9091	0.1	-28.068
26223	18.188	3.8182	0.1	-26.322
26224	18.28	3.9091	0.1	-26.733
26225	18.004	3.8182	0.1	-25.083
26226	18.096	3.9091	0.1	-25.483
26227	17.819	3.8182	0.1	-23.919
26228	17.911	3.9091	0.1	-24.309
26229	17.635	3.8182	0.1	-22.824
26230	17.727	3.9091	0.1	-23.204
26231	17.45	3.8182	0.1	-21.789
26232	17.542	3.9091	0.1	-22.162
26233	17.266	3.8182	0.1	-20.809
26234	17.358	3.9091	0.1	-21.177
26235	17.081	3.8182	0.1	-19.877
26236	17.173	3.9091	0.1	-20.241
26237	16.897	3.8182	0.1	-18.988
26238	16.989	3.9091	0.1	-19.35
26239	16.712	3.8182	0.1	-18.135
26240	16.804	3.9091	0.1	-18.497
26241	16.528	3.8182	0.1	-17.315
26242	16.62	3.9091	0.1	-17.677
26243	16.343	3.8182	0.1	-16.521
26244	16.435	3.9091	0.1	-16.886
26245	16.159	3.8182	0.1	-15.748
26246	16.251	3.9091	0.1	-16.118
26247	15.974	3.8182	0.1	-14.992
26248	16.066	3.9091	0.1	-15.369
26249	15.79	3.8182	0.1	-14.247
26250	15.882	3.9091	0.1	-14.633
26251	15.605	3.8182	0.1	-13.51
26252	15.697	3.9091	0.1	-13.907
26253	15.421	3.8182	0.1	-12.776
26254	15.513	3.9091	0.1	-13.185
26255	15.236	3.8182	0.1	-12.039
26256	15.328	3.9091	0.1	-12.464
26257	15.052	3.8182	0.1	-11.296
26258	15.144	3.9091	0.1	-11.738
26259	14.867	3.8182	0.1	-10.541
26260	14.959	3.9091	0.1	-11.003
26261	14.683	3.8182	0.1	-9.7693
26262	14.775	3.9091	0.1	-10.255
26263	14.498	3.8182	0.1	-8.9769
26264	14.59	3.9091	0.1	-9.4887
26265	14.314	3.8182	0.1	-8.1583
26266	14.406	3.9091	0.1	-8.6991
26267	14.129	3.8182	0.1	-7.3082
26268	14.221	3.9091	0.1	-7.8815
26269	13.945	3.8182	0.1	-6.4214
26270	14.037	3.9091	0.1	-7.0306
26271	13.76	3.8182	0.1	-5.4922
26272	13.852	3.9091	0.1	-6.1411
26273	13.576	3.8182	0.1	-4.5145
26274	13.668	3.9091	0.1	-5.2074
26275	13.391	3.8182	0.1	-3.4824
26276	13.483	3.9091	0.1	-4.2235
26277	13.207	3.8182	0.1	-2.3893
26278	13.299	3.9091	0.1	-3.1834
26279	13.022	3.8182	0.1	-1.2298
26280	13.114	3.9091	0.1	-2.0809
26281	12.838	3.8182	0.1	-8.0667e-002
26282	12.93	3.9091	0.1	-0.91206
26283	12.653	3.8182	0.1	-1.057e-002
26284	12.745	3.9091	0.1	-2.8008e-002
26285	12.469	3.8182	0.1	-7.7292e-003
26286	12.561	3.9091	0.1	-1.0134e-002
26287	12.284	3.8182	0.1	-6.6672e-003
26288	12.376	3.9091	0.1	-7.6819e-003
26289	12.1	3.8182	0.1	-6.0649e-003
26290	12.192	3.9091	0.1	-6.637e-003
26291	11.915	3.8182	0.1	-5.6499e-003
26292	12.007	3.9091	0.1	-6.031e-003
26293	11.731	3.8182	0.1	-5.3239e-003
26294	11.823	3.9091	0.1	-5.6028e-003
26295	11.546	3.8182	0.1	-5.0494e-003
26296	11.638	3.9091	0.1	-5.2714e-003
26297	11.362	3.8182	0.1	-4.804e-003
26298	11.454	3.9091	0.1	-4.9954e-003
26299	11.177	3.8182	0.1	-4.5838e-003
26300	11.269	3.9091	0.1	-4.7497e-003
26301	10.993	3.8182	0.1	-4.3798e-003
26302	11.085	3.9091	0.1	-4.5434e-003
26303	10.808	3.8182	0.1	-4.1637e-003
26304	10.9	3.9091	0.1	-4.3446e-003
26305	10.624	3.8182	0.1	-3.954e-003
26306	10.716	3.9091	0.1	-4.1251e-003
26307	10.439	3.8182	0.1	-3.7705e-003
26308	10.531	3.9091	0.1	-3.9494e-003
26309	10.255	3.8182	0.1	-3.5888e-003
26310	10.347	3.9091	0.1	-3.7914e-003
26311	10.07	3.8182	0.1	-3.4073e-003
26312	10.162	3.9091	0.1	-3.6286e-003
26313	9.8855	3.8182	0.1	-3.2333e-003
26314	9.9778	3.9091	0.1	-3.4813e-003
26315	9.701	3.8182	0.1	-3.0685e-003
26316	9.7933	3.9091	0.1	-3.3448e-003
26317	9.5165	3.8182	0.1	-2.9195e-003
26318	9.6088	3.9091	0.1	-3.2279e-003
26319	9.332	3.8182	0.1	-2.7923e-003
26320	9.4243	3.9091	0.1	-3.1374e-003
26321	9.1475	3.8182	0.1	-2.6957e-003
26322	9.2398	3.9091	0.1	-3.0811e-003
26323	8.963	3.8182	0.1	-2.6425e-003
26324	9.0553	3.9091	0.1	-3.0717e-003
26325	8.7785	3.8182	0.1	-2.6495e-003
26326	8.8708	3.9091	0.1	-3.1248e-003
26327	8.594	3.8182	0.1	-2.7388e-003
26328	8.6863	3.9091	0.1	-3.2637e-003
26329	8.4095	3.8182	0.1	-2.9393e-003
26330	8.5018	3.9091	0.1	-3.5151e-003
26331	8.225	3.8182	0.1	-3.2938e-003
26332	8.3173	3.9091	0.1	-3.9172e-003
26333	8.0405	3.8182	0.1	-3.8587e-003
26334	8.1327	3.9091	0.1	-4.5267e-003
26335	7.856	3.8182	0.1	-4.7038e-003
26336	7.9482	3.9091	0.1	-5.4111e-003
26337	7.6715	3.8182	0.1	-5.923e-003
26338	7.7637	3.9091	0.1	-6.6567e-003
26339	7.487	3.8182	0.1	-7.6444e-003
26340	7.5792	3.9091	0.1	-8.3838e-003
26341	7.3025	3.8182	0.1	-1.0039e-002
26342	7.3947	3.9091	0.1	-1.0753e-002
26343	7.118	3.8182	0.1	-1.3332e-002
26344	7.2102	3.9091	0.1	-1.3976e-002
26345	6.9335	3.8182	0.1	-1.7825e-002
26346	7.0257	3.9091	0.1	-1.8336e-002
26347	6.749	3.8182	0.1	-2.392e-002
26348	6.8412	3.9091	0.1	-2.4207e-002
26349	6.5645	3.8182	0.1	-3.2155e-002
26350	6.6567	3.9091	0.1	-3.2094e-002
26351	6.38	3.8182	0.1	-4.3236e-002
26352	6.4722	3.9091	0.1	-4.2666e-002
26353	6.1955	3.8182	0.1	-5.8118e-002
26354	6.2877	3.9091	0.1	-5.6808e-002
26355	6.011	3.8182	0.1	-7.8081e-002
26356	6.1032	3.9091	0.1	-7.5734e-002
26357	5.8265	3.8182	0.1	-0.10483
26358	5.9187	3.9091	0.1	-0.10106
26359	5.642	3.8182	0.1	-0.14066
26360	5.7342	3.9091	0.1	-0.13498
26361	5.4575	3.8182	0.1	-0.18865
26362	5.5497	3.9091	0.1	-0.18046
26363	5.273	3.8182	0.1	-0.25308
26364	5.3652	3.9091	0.1	-0.24162
26365	5.0885	3.8182	0.1	-0.33966
26366	5.1807	3.9091	0.1	-0.32438
26367	4.9039	3.8182	0.1	-0.45742
26368	4.9962	3.9091	0.1	-0.43689
26369	4.7194	3.8182	0.1	-0.61698
26370	4.8117	3.9091	0.1	-0.59399
26371	4.5349	3.8182	0.1	-0.84904
26372	4.6272	3.9091	0.1	-0.81189
26373	4.3504	3.8182	0.1	-1.1544
26374	4.4427	3.9091	0.1	-1.1584
26375	4.1659	3.8182	0.1	-1.7827
26376	4.2582	3.9091	0.1	-1.6235
26377	3.9814	3.8182	0.1	-2.248
26378	4.0737	3.9091	0.1	-2.8757
26379	3.7969	3.8182	0.1	-6.0776
26380	3.8892	3.9091	0.1	-4.1149
26381	3.6124	3.8182	0.1	-9.7375
26382	3.7047	3.9091	0.1	-21.241
26383	3.4279	3.8182	0.1	-231.57
26384	3.5202	3.9091	0.1	-208.6
26385	3.2434	3.8182	0.1	-723.52
26386	3.3357	3.9091	0.1	-688.72
26387	3.1512	3.9091	0.1	-1765.4
26388	3.0589	3.8182	0.1	-1182.5
26389	23.723	4.	0.1	-158.58
26390	23.815	4.0909	0.1	-160.82
26391	23.908	4.	0.1	-168.58
26392	23.539	4.	0.1	-148.41
26393	23.631	4.0909	0.1	-150.46
26394	23.354	4.	0.1	-138.73
26395	23.446	4.0909	0.1	-140.53
26396	23.17	4.	0.1	-129.64
26397	23.262	4.0909	0.1	-131.22
26398	22.985	4.	0.1	-121.1
26399	23.077	4.0909	0.1	-122.49
26400	22.801	4.	0.1	-113.11
26401	22.893	4.0909	0.1	-114.34
26402	22.616	4.	0.1	-105.67
26403	22.708	4.0909	0.1	-106.76
26404	22.432	4.	0.1	-98.737
26405	22.524	4.0909	0.1	-99.714
26406	22.247	4.	0.1	-92.302
26407	22.339	4.0909	0.1	-93.183
26408	22.063	4.	0.1	-86.331
26409	22.155	4.0909	0.1	-87.134
26410	21.878	4.	0.1	-80.796
26411	21.97	4.0909	0.1	-81.535
26412	21.694	4.	0.1	-75.668
26413	21.786	4.0909	0.1	-76.354
26414	21.509	4.	0.1	-70.919
26415	21.601	4.0909	0.1	-71.561
26416	21.325	4.	0.1	-66.52
26417	21.417	4.0909	0.1	-67.126
26418	21.14	4.	0.1	-62.446
26419	21.232	4.0909	0.1	-63.022
26420	20.956	4.	0.1	-58.673
26421	21.048	4.0909	0.1	-59.223
26422	20.771	4.	0.1	-55.179
26423	20.863	4.0909	0.1	-55.705
26424	20.587	4.	0.1	-51.941
26425	20.679	4.0909	0.1	-52.447
26426	20.402	4.	0.1	-48.94
26427	20.494	4.0909	0.1	-49.428
26428	20.218	4.	0.1	-46.159
26429	20.31	4.0909	0.1	-46.63
26430	20.033	4.	0.1	-43.579
26431	20.125	4.0909	0.1	-44.035
26432	19.849	4.	0.1	-41.186
26433	19.941	4.0909	0.1	-41.628
26434	19.664	4.	0.1	-38.965
26435	19.756	4.0909	0.1	-39.393
26436	19.48	4.	0.1	-36.901
26437	19.572	4.0909	0.1	-37.317
26438	19.295	4.	0.1	-34.984
26439	19.387	4.0909	0.1	-35.388
26440	19.111	4.	0.1	-33.2
26441	19.203	4.0909	0.1	-33.593
26442	18.926	4.	0.1	-31.539
26443	19.018	4.0909	0.1	-31.922
26444	18.742	4.	0.1	-29.99
26445	18.834	4.0909	0.1	-30.365
26446	18.557	4.	0.1	-28.545
26447	18.649	4.0909	0.1	-28.911
26448	18.373	4.	0.1	-27.195
26449	18.465	4.0909	0.1	-27.553
26450	18.188	4.	0.1	-25.93
26451	18.28	4.0909	0.1	-26.282
26452	18.004	4.	0.1	-24.744
26453	18.096	4.0909	0.1	-25.091
26454	17.819	4.	0.1	-23.629
26455	17.911	4.0909	0.1	-23.971
26456	17.635	4.	0.1	-22.577
26457	17.727	4.0909	0.1	-22.917
26458	17.45	4.	0.1	-21.584
26459	17.542	4.0909	0.1	-21.922
26460	17.266	4.	0.1	-20.643
26461	17.358	4.0909	0.1	-20.98
26462	17.081	4.	0.1	-19.747
26463	17.173	4.0909	0.1	-20.084
26464	16.897	4.	0.1	-18.891
26465	16.989	4.0909	0.1	-19.23
26466	16.712	4.	0.1	-18.071
26467	16.804	4.0909	0.1	-18.413
26468	16.528	4.	0.1	-17.28
26469	16.62	4.0909	0.1	-17.627
26470	16.343	4.	0.1	-16.515
26471	16.435	4.0909	0.1	-16.868
26472	16.159	4.	0.1	-15.77
26473	16.251	4.0909	0.1	-16.131
26474	15.974	4.	0.1	-15.041
26475	16.066	4.0909	0.1	-15.411
26476	15.79	4.	0.1	-14.323
26477	15.882	4.0909	0.1	-14.704
26478	15.605	4.	0.1	-13.612
26479	15.697	4.0909	0.1	-14.006
26480	15.421	4.	0.1	-12.903
26481	15.513	4.0909	0.1	-13.312
26482	15.236	4.	0.1	-12.192
26483	15.328	4.0909	0.1	-12.619
26484	15.052	4.	0.1	-11.474
26485	15.144	4.0909	0.1	-11.921
26486	14.867	4.	0.1	-10.746
26487	14.959	4.0909	0.1	-11.215
26488	14.683	4.	0.1	-10.002
26489	14.775	4.0909	0.1	-10.496
26490	14.498	4.	0.1	-9.2382
26491	14.59	4.0909	0.1	-9.7598
26492	14.314	4.	0.1	-8.4492
26493	14.406	4.0909	0.1	-9.0018
26494	14.129	4.	0.1	-7.6302
26495	14.221	4.0909	0.1	-8.217
26496	13.945	4.	0.1	-6.7762
26497	14.037	4.0909	0.1	-7.4009
26498	13.76	4.	0.1	-5.8818
26499	13.852	4.0909	0.1	-6.5481
26500	13.576	4.	0.1	-4.9414
26501	13.668	4.0909	0.1	-5.6535
26502	13.391	4.	0.1	-3.949
26503	13.483	4.0909	0.1	-4.7114
26504	13.207	4.	0.1	-2.8987
26505	13.299	4.0909	0.1	-3.7161
26506	13.022	4.	0.1	-1.7847
26507	13.114	4.0909	0.1	-2.6617
26508	12.838	4.	0.1	-0.6074
26509	12.93	4.0909	0.1	-1.5427
26510	12.653	4.	0.1	-1.9475e-002
26511	12.745	4.0909	0.1	-0.37147
26512	12.469	4.	0.1	-9.7807e-003
26513	12.561	4.0909	0.1	-1.6953e-002
26514	12.284	4.	0.1	-7.5991e-003
26515	12.376	4.0909	0.1	-9.6361e-003
26516	12.1	4.	0.1	-6.5868e-003
26517	12.192	4.0909	0.1	-7.564e-003
26518	11.915	4.	0.1	-5.9751e-003
26519	12.007	4.0909	0.1	-6.5577e-003
26520	11.731	4.	0.1	-5.5431e-003
26521	11.823	4.0909	0.1	-5.9334e-003
26522	11.546	4.	0.1	-5.2105e-003
26523	11.638	4.0909	0.1	-5.4955e-003
26524	11.362	4.	0.1	-4.9345e-003
26525	11.454	4.0909	0.1	-5.1617e-003
26526	11.177	4.	0.1	-4.7031e-003
26527	11.269	4.0909	0.1	-4.8876e-003
26528	10.993	4.	0.1	-4.5027e-003
26529	11.085	4.0909	0.1	-4.6729e-003
26530	10.808	4.	0.1	-4.3015e-003
26531	10.9	4.0909	0.1	-4.4813e-003
26532	10.624	4.	0.1	-4.1171e-003
26533	10.716	4.0909	0.1	-4.2809e-003
26534	10.439	4.	0.1	-3.9684e-003
26535	10.531	4.0909	0.1	-4.1357e-003
26536	10.255	4.	0.1	-3.8311e-003
26537	10.347	4.0909	0.1	-4.0191e-003
26538	10.07	4.	0.1	-3.7048e-003
26539	10.162	4.0909	0.1	-3.9078e-003
26540	9.8855	4.	0.1	-3.5975e-003
26541	9.9778	4.0909	0.1	-3.8244e-003
26542	9.701	4.	0.1	-3.512e-003
26543	9.7933	4.0909	0.1	-3.7638e-003
26544	9.5165	4.	0.1	-3.4572e-003
26545	9.6088	4.0909	0.1	-3.7372e-003
26546	9.332	4.	0.1	-3.4418e-003
26547	9.4243	4.0909	0.1	-3.7535e-003
26548	9.1475	4.	0.1	-3.4777e-003
26549	9.2398	4.0909	0.1	-3.8235e-003
26550	8.963	4.	0.1	-3.5808e-003
26551	9.0553	4.0909	0.1	-3.9626e-003
26552	8.7785	4.	0.1	-3.7732e-003
26553	8.8708	4.0909	0.1	-4.1912e-003
26554	8.594	4.	0.1	-4.0834e-003
26555	8.6863	4.0909	0.1	-4.5379e-003
26556	8.4095	4.	0.1	-4.5477e-003
26557	8.5018	4.0909	0.1	-5.0363e-003
26558	8.225	4.	0.1	-5.2189e-003
26559	8.3173	4.0909	0.1	-5.7336e-003
26560	8.0405	4.	0.1	-6.1657e-003
26561	8.1327	4.0909	0.1	-6.6966e-003
26562	7.856	4.	0.1	-7.4732e-003
26563	7.9482	4.0909	0.1	-8.0079e-003
26564	7.6715	4.	0.1	-9.2559e-003
26565	7.7637	4.0909	0.1	-9.7707e-003
26566	7.487	4.	0.1	-1.1669e-002
26567	7.5792	4.0909	0.1	-1.213e-002
26568	7.3025	4.	0.1	-1.4918e-002
26569	7.3947	4.0909	0.1	-1.5277e-002
26570	7.118	4.	0.1	-1.9275e-002
26571	7.2102	4.0909	0.1	-1.9467e-002
26572	6.9335	4.	0.1	-2.5103e-002
26573	7.0257	4.0909	0.1	-2.5039e-002
26574	6.749	4.	0.1	-3.289e-002
26575	6.8412	4.0909	0.1	-3.2445e-002
26576	6.5645	4.	0.1	-4.3287e-002
26577	6.6567	4.0909	0.1	-4.2301e-002
26578	6.38	4.	0.1	-5.7161e-002
26579	6.4722	4.0909	0.1	-5.5425e-002
26580	6.1955	4.	0.1	-7.5688e-002
26581	6.2877	4.0909	0.1	-7.2921e-002
26582	6.011	4.	0.1	-0.10047
26583	6.1032	4.0909	0.1	-9.6315e-002
26584	5.8265	4.	0.1	-0.13367
26585	5.9187	4.0909	0.1	-0.12769
26586	5.642	4.	0.1	-0.17828
26587	5.7342	4.0909	0.1	-0.16993
26588	5.4575	4.	0.1	-0.23849
26589	5.5497	4.0909	0.1	-0.22714
26590	5.273	4.	0.1	-0.32037
26591	5.3652	4.0909	0.1	-0.30521
26592	5.0885	4.	0.1	-0.4328
26593	5.1807	4.0909	0.1	-0.41317
26594	4.9039	4.	0.1	-0.59083
26595	4.9962	4.0909	0.1	-0.565
26596	4.7194	4.	0.1	-0.81703
26597	4.8117	4.0909	0.1	-0.78677
26598	4.5349	4.	0.1	-1.1699
26599	4.6272	4.0909	0.1	-1.1216
26600	4.3504	4.	0.1	-1.7209
26601	4.4427	4.0909	0.1	-1.6966
26602	4.1659	4.	0.1	-2.9315
26603	4.2582	4.0909	0.1	-2.7414
26604	3.9814	4.	0.1	-5.4353
26605	4.0737	4.0909	0.1	-5.7775
26606	3.7969	4.	0.1	-25.182
26607	3.8892	4.0909	0.1	-22.786
26608	3.6124	4.	0.1	-214.51
26609	3.7047	4.0909	0.1	-188.96
26610	3.4279	4.	0.1	-673.13
26611	3.5202	4.0909	0.1	-562.18
26612	3.2434	4.	0.1	-1882.2
26613	3.3357	4.0909	0.1	-1367.1
26614	3.1512	4.0909	0.1	-3494.5
26615	3.0589	4.	0.1	-3054.5
26616	23.723	4.1818	0.1	-152.71
26617	23.815	4.2727	0.1	-154.36
26618	23.908	4.1818	0.1	-162.62
26619	23.539	4.1818	0.1	-142.59
26620	23.631	4.2727	0.1	-144.04
26621	23.354	4.1818	0.1	-133.03
26622	23.446	4.2727	0.1	-134.21
26623	23.17	4.1818	0.1	-124.1
26624	23.262	4.2727	0.1	-125.07
26625	22.985	4.1818	0.1	-115.76
26626	23.077	4.2727	0.1	-116.55
26627	22.801	4.1818	0.1	-108.01
26628	22.893	4.2727	0.1	-108.66
26629	22.616	4.1818	0.1	-100.83
26630	22.708	4.2727	0.1	-101.37
26631	22.432	4.1818	0.1	-94.187
26632	22.524	4.2727	0.1	-94.637
26633	22.247	4.1818	0.1	-88.044
26634	22.339	4.2727	0.1	-88.431
26635	22.063	4.1818	0.1	-82.369
26636	22.155	4.2727	0.1	-82.711
26637	21.878	4.1818	0.1	-77.126
26638	21.97	4.2727	0.1	-77.438
26639	21.694	4.1818	0.1	-72.282
26640	21.786	4.2727	0.1	-72.575
26641	21.509	4.1818	0.1	-67.805
26642	21.601	4.2727	0.1	-68.087
26643	21.325	4.1818	0.1	-63.666
26644	21.417	4.2727	0.1	-63.941
26645	21.14	4.1818	0.1	-59.837
26646	21.232	4.2727	0.1	-60.11
26647	20.956	4.1818	0.1	-56.293
26648	21.048	4.2727	0.1	-56.567
26649	20.771	4.1818	0.1	-53.013
26650	20.863	4.2727	0.1	-53.288
26651	20.587	4.1818	0.1	-49.973
26652	20.679	4.2727	0.1	-50.252
26653	20.402	4.1818	0.1	-47.157
26654	20.494	4.2727	0.1	-47.438
26655	20.218	4.1818	0.1	-44.545
26656	20.31	4.2727	0.1	-44.828
26657	20.033	4.1818	0.1	-42.122
26658	20.125	4.2727	0.1	-42.408
26659	19.849	4.1818	0.1	-39.873
26660	19.941	4.2727	0.1	-40.16
26661	19.664	4.1818	0.1	-37.784
26662	19.756	4.2727	0.1	-38.072
26663	19.48	4.1818	0.1	-35.841
26664	19.572	4.2727	0.1	-36.131
26665	19.295	4.1818	0.1	-34.035
26666	19.387	4.2727	0.1	-34.325
26667	19.111	4.1818	0.1	-32.353
26668	19.203	4.2727	0.1	-32.644
26669	18.926	4.1818	0.1	-30.785
26670	19.018	4.2727	0.1	-31.077
26671	18.742	4.1818	0.1	-29.323
26672	18.834	4.2727	0.1	-29.615
26673	18.557	4.1818	0.1	-27.956
26674	18.649	4.2727	0.1	-28.249
26675	18.373	4.1818	0.1	-26.678
26676	18.465	4.2727	0.1	-26.971
26677	18.188	4.1818	0.1	-25.479
26678	18.28	4.2727	0.1	-25.773
26679	18.004	4.1818	0.1	-24.354
26680	18.096	4.2727	0.1	-24.649
26681	17.819	4.1818	0.1	-23.295
26682	17.911	4.2727	0.1	-23.592
26683	17.635	4.1818	0.1	-22.296
26684	17.727	4.2727	0.1	-22.596
26685	17.45	4.1818	0.1	-21.352
26686	17.542	4.2727	0.1	-21.654
26687	17.266	4.1818	0.1	-20.455
26688	17.358	4.2727	0.1	-20.761
26689	17.081	4.1818	0.1	-19.601
26690	17.173	4.2727	0.1	-19.912
26691	16.897	4.1818	0.1	-18.785
26692	16.989	4.2727	0.1	-19.101
26693	16.712	4.1818	0.1	-18.002
26694	16.804	4.2727	0.1	-18.325
26695	16.528	4.1818	0.1	-17.247
26696	16.62	4.2727	0.1	-17.577
26697	16.343	4.1818	0.1	-16.515
26698	16.435	4.2727	0.1	-16.855
26699	16.159	4.1818	0.1	-15.802
26700	16.251	4.2727	0.1	-16.152
26701	15.974	4.1818	0.1	-15.105
26702	16.066	4.2727	0.1	-15.467
26703	15.79	4.1818	0.1	-14.417
26704	15.882	4.2727	0.1	-14.793
26705	15.605	4.1818	0.1	-13.736
26706	15.697	4.2727	0.1	-14.127
26707	15.421	4.1818	0.1	-13.058
26708	15.513	4.2727	0.1	-13.466
26709	15.236	4.1818	0.1	-12.377
26710	15.328	4.2727	0.1	-12.804
26711	15.052	4.1818	0.1	-11.69
26712	15.144	4.2727	0.1	-12.139
26713	14.867	4.1818	0.1	-10.993
26714	14.959	4.2727	0.1	-11.466
26715	14.683	4.1818	0.1	-10.281
26716	14.775	4.2727	0.1	-10.781
26717	14.498	4.1818	0.1	-9.5507
26718	14.59	4.2727	0.1	-10.08
26719	14.314	4.1818	0.1	-8.7965
26720	14.406	4.2727	0.1	-9.3578
26721	14.129	4.1818	0.1	-8.0141
26722	14.221	4.2727	0.1	-8.6111
26723	13.945	4.1818	0.1	-7.1987
26724	14.037	4.2727	0.1	-7.8351
26725	13.76	4.1818	0.1	-6.3453
26726	13.852	4.2727	0.1	-7.0248
26727	13.576	4.1818	0.1	-5.4486
26728	13.668	4.2727	0.1	-6.1754
26729	13.391	4.1818	0.1	-4.5031
26730	13.483	4.2727	0.1	-5.2817
26731	13.207	4.1818	0.1	-3.503
26732	13.299	4.2727	0.1	-4.3381
26733	13.022	4.1818	0.1	-2.4426
26734	13.114	4.2727	0.1	-3.3392
26735	12.838	4.1818	0.1	-1.3174
26736	12.93	4.2727	0.1	-2.2794
26737	12.653	4.1818	0.1	-0.1788
26738	12.745	4.2727	0.1	-1.1553
26739	12.469	4.1818	0.1	-1.545e-002
26740	12.561	4.2727	0.1	-9.6508e-002
26741	12.284	4.1818	0.1	-9.4664e-003
26742	12.376	4.2727	0.1	-1.4924e-002
26743	12.1	4.1818	0.1	-7.5015e-003
26744	12.192	4.2727	0.1	-9.4337e-003
26745	11.915	4.1818	0.1	-6.5004e-003
26746	12.007	4.2727	0.1	-7.4869e-003
26747	11.731	4.1818	0.1	-5.8742e-003
26748	11.823	4.2727	0.1	-6.468e-003
26749	11.546	4.1818	0.1	-5.4363e-003
26750	11.638	4.2727	0.1	-5.8323e-003
26751	11.362	4.1818	0.1	-5.1051e-003
26752	11.454	4.2727	0.1	-5.3923e-003
26753	11.177	4.1818	0.1	-4.8483e-003
26754	11.269	4.2727	0.1	-5.0634e-003
26755	10.993	4.1818	0.1	-4.6434e-003
26756	11.085	4.2727	0.1	-4.8259e-003
26757	10.808	4.1818	0.1	-4.4539e-003
26758	10.9	4.2727	0.1	-4.6333e-003
26759	10.624	4.1818	0.1	-4.2941e-003
26760	10.716	4.2727	0.1	-4.4487e-003
26761	10.439	4.1818	0.1	-4.1827e-003
26762	10.531	4.2727	0.1	-4.3334e-003
26763	10.255	4.1818	0.1	-4.0943e-003
26764	10.347	4.2727	0.1	-4.26e-003
26765	10.07	4.1818	0.1	-4.0284e-003
26766	10.162	4.2727	0.1	-4.2042e-003
26767	9.8855	4.1818	0.1	-3.9944e-003
26768	9.9778	4.2727	0.1	-4.1891e-003
26769	9.701	4.1818	0.1	-3.9961e-003
26770	9.7933	4.2727	0.1	-4.2103e-003
26771	9.5165	4.1818	0.1	-4.0444e-003
26772	9.6088	4.2727	0.1	-4.2805e-003
26773	9.332	4.1818	0.1	-4.1505e-003
26774	9.4243	4.2727	0.1	-4.4111e-003
26775	9.1475	4.1818	0.1	-4.3289e-003
26776	9.2398	4.2727	0.1	-4.6141e-003
26777	8.963	4.1818	0.1	-4.5999e-003
26778	9.0553	4.2727	0.1	-4.9092e-003
26779	8.7785	4.1818	0.1	-4.9903e-003
26780	8.8708	4.2727	0.1	-5.321e-003
26781	8.594	4.1818	0.1	-5.5342e-003
26782	8.6863	4.2727	0.1	-5.8826e-003
26783	8.4095	4.1818	0.1	-6.2767e-003
26784	8.5018	4.2727	0.1	-6.6345e-003
26785	8.225	4.1818	0.1	-7.2795e-003
26786	8.3173	4.2727	0.1	-7.6318e-003
26787	8.0405	4.1818	0.1	-8.6243e-003
26788	8.1327	4.2727	0.1	-8.9522e-003
26789	7.856	4.1818	0.1	-1.0413e-002
26790	7.9482	4.2727	0.1	-1.0693e-002
26791	7.6715	4.1818	0.1	-1.278e-002
26792	7.7637	4.2727	0.1	-1.2974e-002
26793	7.487	4.1818	0.1	-1.5911e-002
26794	7.5792	4.2727	0.1	-1.5965e-002
26795	7.3025	4.1818	0.1	-2.005e-002
26796	7.3947	4.2727	0.1	-1.9892e-002
26797	7.118	4.1818	0.1	-2.5523e-002
26798	7.2102	4.2727	0.1	-2.5055e-002
26799	6.9335	4.1818	0.1	-3.2765e-002
26800	7.0257	4.2727	0.1	-3.1858e-002
26801	6.749	4.1818	0.1	-4.237e-002
26802	6.8412	4.2727	0.1	-4.0848e-002
26803	6.5645	4.1818	0.1	-5.5138e-002
26804	6.6567	4.2727	0.1	-5.2772e-002
26805	6.38	4.1818	0.1	-7.2153e-002
26806	6.4722	4.2727	0.1	-6.8652e-002
26807	6.1955	4.1818	0.1	-9.4909e-002
26808	6.2877	4.2727	0.1	-8.9888e-002
26809	6.011	4.1818	0.1	-0.12549
26810	6.1032	4.2727	0.1	-0.11846
26811	5.8265	4.1818	0.1	-0.16679
26812	5.9187	4.2727	0.1	-0.15717
26813	5.642	4.1818	0.1	-0.22298
26814	5.7342	4.2727	0.1	-0.21004
26815	5.4575	4.1818	0.1	-0.30018
26816	5.5497	4.2727	0.1	-0.28301
26817	5.273	4.1818	0.1	-0.40775
26818	5.3652	4.2727	0.1	-0.38523
26819	5.0885	4.1818	0.1	-0.56079
26820	5.1807	4.2727	0.1	-0.53156
26821	4.9039	4.1818	0.1	-0.78625
26822	4.9962	4.2727	0.1	-0.74767
26823	4.7194	4.1818	0.1	-1.1352
26824	4.8117	4.2727	0.1	-1.0845
26825	4.5349	4.1818	0.1	-1.7317
26826	4.6272	4.2727	0.1	-1.6528
26827	4.3504	4.1818	0.1	-2.9052
26828	4.4427	4.2727	0.1	-2.7846
26829	4.1659	4.1818	0.1	-6.2075
26830	4.2582	4.2727	0.1	-5.7998
26831	3.9814	4.1818	0.1	-28.238
26832	4.0737	4.2727	0.1	-24.501
26833	3.7969	4.1818	0.1	-188.34
26834	3.8892	4.2727	0.1	-149.71
26835	3.6124	4.1818	0.1	-529.91
26836	3.7047	4.2727	0.1	-414.61
26837	3.4279	4.1818	0.1	-1256.2
26838	3.5202	4.2727	0.1	-885.73
26839	3.2434	4.1818	0.1	-3011.6
26840	3.3357	4.2727	0.1	-1857.5
26841	3.1512	4.2727	0.1	-4082.6
26842	3.0589	4.1818	0.1	-4921.1
26843	23.723	4.3636	0.1	-145.71
26844	23.815	4.4545	0.1	-146.74
26845	23.908	4.3636	0.1	-155.52
26846	23.539	4.3636	0.1	-135.67
26847	23.631	4.4545	0.1	-136.46
26848	23.354	4.3636	0.1	-126.27
26849	23.446	4.4545	0.1	-126.78
26850	23.17	4.3636	0.1	-117.55
26851	23.262	4.4545	0.1	-117.86
26852	22.985	4.3636	0.1	-109.48
26853	23.077	4.4545	0.1	-109.63
26854	22.801	4.3636	0.1	-102.04
26855	22.893	4.4545	0.1	-102.07
26856	22.616	4.3636	0.1	-95.202
26857	22.708	4.4545	0.1	-95.15
26858	22.432	4.3636	0.1	-88.912
26859	22.524	4.4545	0.1	-88.813
26860	22.247	4.3636	0.1	-83.132
26861	22.339	4.4545	0.1	-83.009
26862	22.063	4.3636	0.1	-77.816
26863	22.155	4.4545	0.1	-77.689
26864	21.878	4.3636	0.1	-72.924
26865	21.97	4.4545	0.1	-72.806
26866	21.694	4.3636	0.1	-68.418
26867	21.786	4.4545	0.1	-68.317
26868	21.509	4.3636	0.1	-64.262
26869	21.601	4.4545	0.1	-64.184
26870	21.325	4.3636	0.1	-60.426
26871	21.417	4.4545	0.1	-60.375
26872	21.14	4.3636	0.1	-56.882
26873	21.232	4.4545	0.1	-56.858
26874	20.956	4.3636	0.1	-53.603
26875	21.048	4.4545	0.1	-53.607
26876	20.771	4.3636	0.1	-50.568
26877	20.863	4.4545	0.1	-50.598
26878	20.587	4.3636	0.1	-47.757
26879	20.679	4.4545	0.1	-47.812
26880	20.402	4.3636	0.1	-45.15
26881	20.494	4.4545	0.1	-45.229
26882	20.218	4.3636	0.1	-42.731
26883	20.31	4.4545	0.1	-42.832
26884	20.033	4.3636	0.1	-40.486
26885	20.125	4.4545	0.1	-40.606
26886	19.849	4.3636	0.1	-38.399
26887	19.941	4.4545	0.1	-38.537
26888	19.664	4.3636	0.1	-36.46
26889	19.756	4.4545	0.1	-36.613
26890	19.48	4.3636	0.1	-34.655
26891	19.572	4.4545	0.1	-34.823
26892	19.295	4.3636	0.1	-32.973
26893	19.387	4.4545	0.1	-33.155
26894	19.111	4.3636	0.1	-31.406
26895	19.203	4.4545	0.1	-31.599
26896	18.926	4.3636	0.1	-29.944
26897	19.018	4.4545	0.1	-30.147
26898	18.742	4.3636	0.1	-28.578
26899	18.834	4.4545	0.1	-28.791
26900	18.557	4.3636	0.1	-27.3
26901	18.649	4.4545	0.1	-27.522
26902	18.373	4.3636	0.1	-26.103
26903	18.465	4.4545	0.1	-26.333
26904	18.188	4.3636	0.1	-24.98
26905	18.28	4.4545	0.1	-25.217
26906	18.004	4.3636	0.1	-23.924
26907	18.096	4.4545	0.1	-24.169
26908	17.819	4.3636	0.1	-22.928
26909	17.911	4.4545	0.1	-23.181
26910	17.635	4.3636	0.1	-21.988
26911	17.727	4.4545	0.1	-22.248
26912	17.45	4.3636	0.1	-21.098
26913	17.542	4.4545	0.1	-21.366
26914	17.266	4.3636	0.1	-20.252
26915	17.358	4.4545	0.1	-20.528
26916	17.081	4.3636	0.1	-19.445
26917	17.173	4.4545	0.1	-19.73
26918	16.897	4.3636	0.1	-18.674
26919	16.989	4.4545	0.1	-18.968
26920	16.712	4.3636	0.1	-17.933
26921	16.804	4.4545	0.1	-18.236
26922	16.528	4.3636	0.1	-17.217
26923	16.62	4.4545	0.1	-17.532
26924	16.343	4.3636	0.1	-16.524
26925	16.435	4.4545	0.1	-16.85
26926	16.159	4.3636	0.1	-15.848
26927	16.251	4.4545	0.1	-16.187
26928	15.974	4.3636	0.1	-15.186
26929	16.066	4.4545	0.1	-15.539
26930	15.79	4.3636	0.1	-14.533
26931	15.882	4.4545	0.1	-14.902
26932	15.605	4.3636	0.1	-13.886
26933	15.697	4.4545	0.1	-14.273
26934	15.421	4.3636	0.1	-13.242
26935	15.513	4.4545	0.1	-13.647
26936	15.236	4.3636	0.1	-12.596
26937	15.328	4.4545	0.1	-13.022
26938	15.052	4.3636	0.1	-11.943
26939	15.144	4.4545	0.1	-12.393
26940	14.867	4.3636	0.1	-11.282
26941	14.959	4.4545	0.1	-11.757
26942	14.683	4.3636	0.1	-10.607
26943	14.775	4.4545	0.1	-11.109
26944	14.498	4.3636	0.1	-9.9139
26945	14.59	4.4545	0.1	-10.447
26946	14.314	4.3636	0.1	-9.1993
26947	14.406	4.4545	0.1	-9.7664
26948	14.129	4.3636	0.1	-8.4585
26949	14.221	4.4545	0.1	-9.0625
26950	13.945	4.3636	0.1	-7.6872
26951	14.037	4.4545	0.1	-8.3316
26952	13.76	4.3636	0.1	-6.8805
26953	13.852	4.4545	0.1	-7.5691
26954	13.576	4.3636	0.1	-6.0336
26955	13.668	4.4545	0.1	-6.7706
26956	13.391	4.3636	0.1	-5.1414
26957	13.483	4.4545	0.1	-5.9312
26958	13.207	4.3636	0.1	-4.1985
26959	13.299	4.4545	0.1	-5.046
26960	13.022	4.3636	0.1	-3.1994
26961	13.114	4.4545	0.1	-4.1096
26962	12.838	4.3636	0.1	-2.1389
26963	12.93	4.4545	0.1	-3.1168
26964	12.653	4.3636	0.1	-1.0151
26965	12.745	4.4545	0.1	-2.0625
26966	12.469	4.3636	0.1	-6.3154e-002
26967	12.561	4.4545	0.1	-0.94607
26968	12.284	4.3636	0.1	-1.449e-002
26969	12.376	4.4545	0.1	-5.6144e-002
26970	12.1	4.3636	0.1	-9.3666e-003
26971	12.192	4.4545	0.1	-1.4592e-002
26972	11.915	4.3636	0.1	-7.4352e-003
26973	12.007	4.4545	0.1	-9.4281e-003
26974	11.731	4.3636	0.1	-6.4115e-003
26975	11.823	4.4545	0.1	-7.4371e-003
26976	11.546	4.3636	0.1	-5.7744e-003
26977	11.638	4.4545	0.1	-6.385e-003
26978	11.362	4.3636	0.1	-5.3372e-003
26979	11.454	4.4545	0.1	-5.7374e-003
26980	11.177	4.3636	0.1	-5.0283e-003
26981	11.269	4.4545	0.1	-5.3007e-003
26982	10.993	4.3636	0.1	-4.8043e-003
26983	11.085	4.4545	0.1	-5.0113e-003
26984	10.808	4.3636	0.1	-4.6181e-003
26985	10.9	4.4545	0.1	-4.8017e-003
26986	10.624	4.3636	0.1	-4.4799e-003
26987	10.716	4.4545	0.1	-4.6248e-003
26988	10.439	4.3636	0.1	-4.4048e-003
26989	10.531	4.4545	0.1	-4.536e-003
26990	10.255	4.3636	0.1	-4.3667e-003
26991	10.347	4.4545	0.1	-4.505e-003
26992	10.07	4.3636	0.1	-4.3645e-003
26993	10.162	4.4545	0.1	-4.5063e-003
26994	9.8855	4.3636	0.1	-4.4079e-003
26995	9.9778	4.4545	0.1	-4.5621e-003
26996	9.701	4.3636	0.1	-4.5013e-003
26997	9.7933	4.4545	0.1	-4.6688e-003
26998	9.5165	4.3636	0.1	-4.658e-003
26999	9.6088	4.4545	0.1	-4.8395e-003
27000	9.332	4.3636	0.1	-4.8904e-003
27001	9.4243	4.4545	0.1	-5.0872e-003
27002	9.1475	4.3636	0.1	-5.2157e-003
27003	9.2398	4.4545	0.1	-5.4259e-003
27004	8.963	4.3636	0.1	-5.6581e-003
27005	9.0553	4.4545	0.1	-5.8785e-003
27006	8.7785	4.3636	0.1	-6.2489e-003
27007	8.8708	4.4545	0.1	-6.4723e-003
27008	8.594	4.3636	0.1	-7.0276e-003
27009	8.6863	4.4545	0.1	-7.2453e-003
27010	8.4095	4.3636	0.1	-8.0454e-003
27011	8.5018	4.4545	0.1	-8.243e-003
27012	8.225	4.3636	0.1	-9.3738e-003
27013	8.3173	4.4545	0.1	-9.5281e-003
27014	8.0405	4.3636	0.1	-1.1107e-002
27015	8.1327	4.4545	0.1	-1.1187e-002
27016	7.856	4.3636	0.1	-1.3361e-002
27017	7.9482	4.4545	0.1	-1.333e-002
27018	7.6715	4.3636	0.1	-1.6293e-002
27019	7.7637	4.4545	0.1	-1.6093e-002
27020	7.487	4.3636	0.1	-2.0117e-002
27021	7.5792	4.4545	0.1	-1.967e-002
27022	7.3025	4.3636	0.1	-2.5117e-002
27023	7.3947	4.4545	0.1	-2.432e-002
27024	7.118	4.3636	0.1	-3.1679e-002
27025	7.2102	4.4545	0.1	-3.039e-002
27026	6.9335	4.3636	0.1	-4.0324e-002
27027	7.0257	4.4545	0.1	-3.8356e-002
27028	6.749	4.3636	0.1	-5.177e-002
27029	6.8412	4.4545	0.1	-4.8873e-002
27030	6.5645	4.3636	0.1	-6.7008e-002
27031	6.6567	4.4545	0.1	-6.2835e-002
27032	6.38	4.3636	0.1	-8.7414e-002
27033	6.4722	4.4545	0.1	-8.1585e-002
27034	6.1955	4.3636	0.1	-0.11494
27035	6.2877	4.4545	0.1	-0.10688
27036	6.011	4.3636	0.1	-0.15238
27037	6.1032	4.4545	0.1	-0.1414
27038	5.8265	4.3636	0.1	-0.20382
27039	5.9187	4.4545	0.1	-0.18906
27040	5.642	4.3636	0.1	-0.27539
27041	5.7342	4.4545	0.1	-0.25579
27042	5.4575	4.3636	0.1	-0.37661
27043	5.5497	4.4545	0.1	-0.35091
27044	5.273	4.3636	0.1	-0.52313
27045	5.3652	4.4545	0.1	-0.48983
27046	5.0885	4.3636	0.1	-0.74256
27047	5.1807	4.4545	0.1	-0.69984
27048	4.9039	4.3636	0.1	-1.0895
27049	4.9962	4.4545	0.1	-1.0344
27050	4.7194	4.3636	0.1	-1.6879
27051	4.8117	4.4545	0.1	-1.6162
27052	4.5349	4.3636	0.1	-2.9052
27053	4.6272	4.4545	0.1	-2.7969
27054	4.3504	4.3636	0.1	-6.3566
27055	4.4427	4.4545	0.1	-6.1311
27056	4.1659	4.3636	0.1	-28.711
27057	4.2582	4.4545	0.1	-25.495
27058	3.9814	4.3636	0.1	-142.73
27059	4.0737	4.4545	0.1	-113.58
27060	3.7969	4.3636	0.1	-366.86
27061	3.8892	4.4545	0.1	-280.9
27062	3.6124	4.3636	0.1	-756.83
27063	3.7047	4.4545	0.1	-563.87
27064	3.4279	4.3636	0.1	-1460.5
27065	3.5202	4.4545	0.1	-1037.1
27066	3.2434	4.3636	0.1	-2830.4
27067	3.3357	4.4545	0.1	-1849.2
27068	3.1512	4.4545	0.1	-3405.8
27069	3.0589	4.3636	0.1	-3155.4
27070	23.723	4.5455	0.1	-137.51
27071	23.815	4.6364	0.1	-137.84
27072	23.908	4.5455	0.1	-147.2
27073	23.539	4.5455	0.1	-127.59
27074	23.631	4.6364	0.1	-127.65
27075	23.354	4.5455	0.1	-118.39
27076	23.446	4.6364	0.1	-118.17
27077	23.17	4.5455	0.1	-109.96
27078	23.262	4.6364	0.1	-109.55
27079	22.985	4.5455	0.1	-102.25
27080	23.077	4.6364	0.1	-101.69
27081	22.801	4.5455	0.1	-95.21
27082	22.893	4.6364	0.1	-94.578
27083	22.616	4.5455	0.1	-88.796
27084	22.708	4.6364	0.1	-88.129
27085	22.432	4.5455	0.1	-82.946
27086	22.524	4.6364	0.1	-82.28
27087	22.247	4.5455	0.1	-77.605
27088	22.339	4.6364	0.1	-76.964
27089	22.063	4.5455	0.1	-72.719
27090	22.155	4.6364	0.1	-72.12
27091	21.878	4.5455	0.1	-68.24
27092	21.97	4.6364	0.1	-67.693
27093	21.694	4.5455	0.1	-64.126
27094	21.786	4.6364	0.1	-63.637
27095	21.509	4.5455	0.1	-60.34
27096	21.601	4.6364	0.1	-59.911
27097	21.325	4.5455	0.1	-56.85
27098	21.417	4.6364	0.1	-56.48
27099	21.14	4.5455	0.1	-53.626
27100	21.232	4.6364	0.1	-53.315
27101	20.956	4.5455	0.1	-50.646
27102	21.048	4.6364	0.1	-50.389
27103	20.771	4.5455	0.1	-47.886
27104	20.863	4.6364	0.1	-47.681
27105	20.587	4.5455	0.1	-45.327
27106	20.679	4.6364	0.1	-45.17
27107	20.402	4.5455	0.1	-42.953
27108	20.494	4.6364	0.1	-42.84
27109	20.218	4.5455	0.1	-40.749
27110	20.31	4.6364	0.1	-40.676
27111	20.033	4.5455	0.1	-38.699
27112	20.125	4.6364	0.1	-38.663
27113	19.849	4.5455	0.1	-36.793
27114	19.941	4.6364	0.1	-36.789
27115	19.664	4.5455	0.1	-35.018
27116	19.756	4.6364	0.1	-35.044
27117	19.48	4.5455	0.1	-33.363
27118	19.572	4.6364	0.1	-33.416
27119	19.295	4.5455	0.1	-31.82
27120	19.387	4.6364	0.1	-31.898
27121	19.111	4.5455	0.1	-30.379
27122	19.203	4.6364	0.1	-30.479
27123	18.926	4.5455	0.1	-29.033
27124	19.018	4.6364	0.1	-29.153
27125	18.742	4.5455	0.1	-27.773
27126	18.834	4.6364	0.1	-27.911
27127	18.557	4.5455	0.1	-26.592
27128	18.649	4.6364	0.1	-26.747
27129	18.373	4.5455	0.1	-25.484
27130	18.465	4.6364	0.1	-25.655
27131	18.188	4.5455	0.1	-24.443
27132	18.28	4.6364	0.1	-24.628
27133	18.004	4.5455	0.1	-23.462
27134	18.096	4.6364	0.1	-23.66
27135	17.819	4.5455	0.1	-22.537
27136	17.911	4.6364	0.1	-22.748
27137	17.635	4.5455	0.1	-21.661
27138	17.727	4.6364	0.1	-21.885
27139	17.45	4.5455	0.1	-20.831
27140	17.542	4.6364	0.1	-21.066
27141	17.266	4.5455	0.1	-20.04
27142	17.358	4.6364	0.1	-20.288
27143	17.081	4.5455	0.1	-19.286
27144	17.173	4.6364	0.1	-19.546
27145	16.897	4.5455	0.1	-18.563
27146	16.989	4.6364	0.1	-18.836
27147	16.712	4.5455	0.1	-17.868
27148	16.804	4.6364	0.1	-18.154
27149	16.528	4.5455	0.1	-17.197
27150	16.62	4.6364	0.1	-17.496
27151	16.343	4.5455	0.1	-16.545
27152	16.435	4.6364	0.1	-16.858
27153	16.159	4.5455	0.1	-15.909
27154	16.251	4.6364	0.1	-16.238
27155	15.974	4.5455	0.1	-15.286
27156	16.066	4.6364	0.1	-15.631
27157	15.79	4.5455	0.1	-14.672
27158	15.882	4.6364	0.1	-15.035
27159	15.605	4.5455	0.1	-14.064
27160	15.697	4.6364	0.1	-14.445
27161	15.421	4.5455	0.1	-13.457
27162	15.513	4.6364	0.1	-13.859
27163	15.236	4.5455	0.1	-12.848
27164	15.328	4.6364	0.1	-13.272
27165	15.052	4.5455	0.1	-12.235
27166	15.144	4.6364	0.1	-12.683
27167	14.867	4.5455	0.1	-11.613
27168	14.959	4.6364	0.1	-12.088
27169	14.683	4.5455	0.1	-10.978
27170	14.775	4.6364	0.1	-11.482
27171	14.498	4.5455	0.1	-10.327
27172	14.59	4.6364	0.1	-10.863
27173	14.314	4.5455	0.1	-9.6566
27174	14.406	4.6364	0.1	-10.227
27175	14.129	4.5455	0.1	-8.9621
27176	14.221	4.6364	0.1	-9.5699
27177	13.945	4.5455	0.1	-8.2396
27178	14.037	4.6364	0.1	-8.8886
27179	13.76	4.5455	0.1	-7.4849
27180	13.852	4.6364	0.1	-8.1788
27181	13.576	4.5455	0.1	-6.6934
27182	13.668	4.6364	0.1	-7.4363
27183	13.391	4.5455	0.1	-5.8605
27184	13.483	4.6364	0.1	-6.6567
27185	13.207	4.5455	0.1	-4.9813
27186	13.299	4.6364	0.1	-5.8357
27187	13.022	4.5455	0.1	-4.0507
27188	13.114	4.6364	0.1	-4.9683
27189	12.838	4.5455	0.1	-3.0634
27190	12.93	4.6364	0.1	-4.0496
27191	12.653	4.5455	0.1	-2.0147
27192	12.745	4.6364	0.1	-3.0746
27193	12.469	4.5455	0.1	-0.90477
27194	12.561	4.6364	0.1	-2.0387
27195	12.284	4.5455	0.1	-5.3536e-002
27196	12.376	4.6364	0.1	-0.94188
27197	12.1	4.5455	0.1	-1.471e-002
27198	12.192	4.6364	0.1	-6.2241e-002
27199	11.915	4.5455	0.1	-9.4486e-003
27200	12.007	4.6364	0.1	-1.5406e-002
27201	11.731	4.5455	0.1	-7.4072e-003
27202	11.823	4.6364	0.1	-9.6219e-003
27203	11.546	4.5455	0.1	-6.3353e-003
27204	11.638	4.6364	0.1	-7.4391e-003
27205	11.362	4.5455	0.1	-5.6848e-003
27206	11.454	4.6364	0.1	-6.3172e-003
27207	11.177	4.5455	0.1	-5.267e-003
27208	11.269	4.6364	0.1	-5.6519e-003
27209	10.993	4.5455	0.1	-4.9929e-003
27210	11.085	4.6364	0.1	-5.2489e-003
27211	10.808	4.5455	0.1	-4.7944e-003
27212	10.9	4.6364	0.1	-4.9901e-003
27213	10.624	4.5455	0.1	-4.6693e-003
27214	10.716	4.6364	0.1	-4.8033e-003
27215	10.439	4.5455	0.1	-4.6274e-003
27216	10.531	4.6364	0.1	-4.7325e-003
27217	10.255	4.5455	0.1	-4.6392e-003
27218	10.347	4.6364	0.1	-4.7405e-003
27219	10.07	4.5455	0.1	-4.7019e-003
27220	10.162	4.6364	0.1	-4.7979e-003
27221	9.8855	4.5455	0.1	-4.8251e-003
27222	9.9778	4.6364	0.1	-4.9255e-003
27223	9.701	4.5455	0.1	-5.0136e-003
27224	9.7933	4.6364	0.1	-5.1191e-003
27225	9.5165	4.5455	0.1	-5.2803e-003
27226	9.6088	4.6364	0.1	-5.3918e-003
27227	9.332	4.5455	0.1	-5.6398e-003
27228	9.4243	4.6364	0.1	-5.7569e-003
27229	9.1475	4.5455	0.1	-6.112e-003
27230	9.2398	4.6364	0.1	-6.2301e-003
27231	8.963	4.5455	0.1	-6.7232e-003
27232	9.0553	4.6364	0.1	-6.8359e-003
27233	8.7785	4.5455	0.1	-7.5075e-003
27234	8.8708	4.6364	0.1	-7.6039e-003
27235	8.594	4.5455	0.1	-8.5091e-003
27236	8.6863	4.6364	0.1	-8.575e-003
27237	8.4095	4.5455	0.1	-9.7854e-003
27238	8.5018	4.6364	0.1	-9.7987e-003
27239	8.225	4.5455	0.1	-1.1415e-002
27240	8.3173	4.6364	0.1	-1.1343e-002
27241	8.0405	4.5455	0.1	-1.3501e-002
27242	8.1327	4.6364	0.1	-1.3301e-002
27243	7.856	4.5455	0.1	-1.6173e-002
27244	7.9482	4.6364	0.1	-1.5792e-002
27245	7.6715	4.5455	0.1	-1.9608e-002
27246	7.7637	4.6364	0.1	-1.8966e-002
27247	7.487	4.5455	0.1	-2.4047e-002
27248	7.5792	4.6364	0.1	-2.3037e-002
27249	7.3025	4.5455	0.1	-2.9814e-002
27250	7.3947	4.6364	0.1	-2.8294e-002
27251	7.118	4.5455	0.1	-3.7356e-002
27252	7.2102	4.6364	0.1	-3.5132e-002
27253	6.9335	4.5455	0.1	-4.7291e-002
27254	7.0257	4.6364	0.1	-4.4102e-002
27255	6.749	4.5455	0.1	-6.0488e-002
27256	6.8412	4.6364	0.1	-5.5982e-002
27257	6.5645	4.5455	0.1	-7.8185e-002
27258	6.6567	4.6364	0.1	-7.1897e-002
27259	6.38	4.5455	0.1	-0.10216
27260	6.4722	4.6364	0.1	-9.3475e-002
27261	6.1955	4.5455	0.1	-0.13503
27262	6.2877	4.6364	0.1	-0.12314
27263	6.011	4.5455	0.1	-0.18074
27264	6.1032	4.6364	0.1	-0.16462
27265	5.8265	4.5455	0.1	-0.2454
27266	5.9187	4.6364	0.1	-0.22377
27267	5.642	4.5455	0.1	-0.33876
27268	5.7342	4.6364	0.1	-0.31015
27269	5.4575	4.5455	0.1	-0.47733
27270	5.5497	4.6364	0.1	-0.44024
27271	5.273	4.5455	0.1	-0.69107
27272	5.3652	4.6364	0.1	-0.64458
27273	5.0885	4.5455	0.1	-1.0403
27274	5.1807	4.6364	0.1	-0.98614
27275	4.9039	4.5455	0.1	-1.6679
27276	4.9962	4.6364	0.1	-1.6173
27277	4.7194	4.5455	0.1	-3.0086
27278	4.8117	4.6364	0.1	-3.0173
27279	4.5349	4.5455	0.1	-7.1467
27280	4.6272	4.6364	0.1	-7.5429
27281	4.3504	4.5455	0.1	-30.838
27282	4.4427	4.6364	0.1	-30.488
27283	4.1659	4.5455	0.1	-108.24
27284	4.2582	4.6364	0.1	-91.744
27285	3.9814	4.5455	0.1	-243.87
27286	4.0737	4.6364	0.1	-193.55
27287	3.7969	4.5455	0.1	-464.81
27288	3.8892	4.6364	0.1	-354.39
27289	3.6124	4.5455	0.1	-821.56
27290	3.7047	4.6364	0.1	-608.32
27291	3.4279	4.5455	0.1	-1384.1
27292	3.5202	4.6364	0.1	-1005.1
27293	3.2434	4.5455	0.1	-2304.2
27294	3.3357	4.6364	0.1	-1610.7
27295	3.1512	4.6364	0.1	-2613.8
27296	3.0589	4.5455	0.1	-2453.3
27297	23.723	4.7273	0.1	-128.
27298	23.815	4.8182	0.1	-127.55
27299	23.908	4.7273	0.1	-137.53
27300	23.539	4.7273	0.1	-118.24
27301	23.631	4.8182	0.1	-117.48
27302	23.354	4.7273	0.1	-109.34
27303	23.446	4.8182	0.1	-108.29
27304	23.17	4.7273	0.1	-101.31
27305	23.262	4.8182	0.1	-100.08
27306	22.985	4.7273	0.1	-94.058
27307	23.077	4.8182	0.1	-92.745
27308	22.801	4.7273	0.1	-87.534
27309	22.893	4.8182	0.1	-86.201
27310	22.616	4.7273	0.1	-81.655
27311	22.708	4.8182	0.1	-80.35
27312	22.432	4.7273	0.1	-76.342
27313	22.524	4.8182	0.1	-75.1
27314	22.247	4.7273	0.1	-71.525
27315	22.339	4.8182	0.1	-70.367
27316	22.063	4.7273	0.1	-67.142
27317	22.155	4.8182	0.1	-66.079
27318	21.878	4.7273	0.1	-63.139
27319	21.97	4.8182	0.1	-62.176
27320	21.694	4.7273	0.1	-59.471
27321	21.786	4.8182	0.1	-58.609
27322	21.509	4.7273	0.1	-56.1
27323	21.601	4.8182	0.1	-55.336
27324	21.325	4.7273	0.1	-52.994
27325	21.417	4.8182	0.1	-52.324
27326	21.14	4.7273	0.1	-50.125
27327	21.232	4.8182	0.1	-49.544
27328	20.956	4.7273	0.1	-47.471
27329	21.048	4.8182	0.1	-46.972
27330	20.771	4.7273	0.1	-45.012
27331	20.863	4.8182	0.1	-44.588
27332	20.587	4.7273	0.1	-42.729
27333	20.679	4.8182	0.1	-42.374
27334	20.402	4.7273	0.1	-40.608
27335	20.494	4.8182	0.1	-40.316
27336	20.218	4.7273	0.1	-38.634
27337	20.31	4.8182	0.1	-38.4
27338	20.033	4.7273	0.1	-36.796
27339	20.125	4.8182	0.1	-36.615
27340	19.849	4.7273	0.1	-35.083
27341	19.941	4.8182	0.1	-34.949
27342	19.664	4.7273	0.1	-33.485
27343	19.756	4.8182	0.1	-33.394
27344	19.48	4.7273	0.1	-31.993
27345	19.572	4.8182	0.1	-31.94
27346	19.295	4.7273	0.1	-30.598
27347	19.387	4.8182	0.1	-30.58
27348	19.111	4.7273	0.1	-29.293
27349	19.203	4.8182	0.1	-29.307
27350	18.926	4.7273	0.1	-28.07
27351	19.018	4.8182	0.1	-28.114
27352	18.742	4.7273	0.1	-26.924
27353	18.834	4.8182	0.1	-26.994
27354	18.557	4.7273	0.1	-25.848
27355	18.649	4.8182	0.1	-25.941
27356	18.373	4.7273	0.1	-24.836
27357	18.465	4.8182	0.1	-24.951
27358	18.188	4.7273	0.1	-23.882
27359	18.28	4.8182	0.1	-24.018
27360	18.004	4.7273	0.1	-22.982
27361	18.096	4.8182	0.1	-23.137
27362	17.819	4.7273	0.1	-22.132
27363	17.911	4.8182	0.1	-22.305
27364	17.635	4.7273	0.1	-21.325
27365	17.727	4.8182	0.1	-21.515
27366	17.45	4.7273	0.1	-20.559
27367	17.542	4.8182	0.1	-20.765
27368	17.266	4.7273	0.1	-19.828
27369	17.358	4.8182	0.1	-20.05
27370	17.081	4.7273	0.1	-19.13
27371	17.173	4.8182	0.1	-19.367
27372	16.897	4.7273	0.1	-18.459
27373	16.989	4.8182	0.1	-18.713
27374	16.712	4.7273	0.1	-17.814
27375	16.804	4.8182	0.1	-18.083
27376	16.528	4.7273	0.1	-17.19
27377	16.62	4.8182	0.1	-17.474
27378	16.343	4.7273	0.1	-16.583
27379	16.435	4.8182	0.1	-16.884
27380	16.159	4.7273	0.1	-15.991
27381	16.251	4.8182	0.1	-16.309
27382	15.974	4.7273	0.1	-15.41
27383	16.066	4.8182	0.1	-15.747
27384	15.79	4.7273	0.1	-14.838
27385	15.882	4.8182	0.1	-15.193
27386	15.605	4.7273	0.1	-14.27
27387	15.697	4.8182	0.1	-14.646
27388	15.421	4.7273	0.1	-13.704
27389	15.513	4.8182	0.1	-14.102
27390	15.236	4.7273	0.1	-13.137
27391	15.328	4.8182	0.1	-13.558
27392	15.052	4.7273	0.1	-12.565
27393	15.144	4.8182	0.1	-13.011
27394	14.867	4.7273	0.1	-11.985
27395	14.959	4.8182	0.1	-12.459
27396	14.683	4.7273	0.1	-11.395
27397	14.775	4.8182	0.1	-11.898
27398	14.498	4.7273	0.1	-10.79
27399	14.59	4.8182	0.1	-11.326
27400	14.314	4.7273	0.1	-10.167
27401	14.406	4.8182	0.1	-10.738
27402	14.129	4.7273	0.1	-9.523
27403	14.221	4.8182	0.1	-10.132
27404	13.945	4.7273	0.1	-8.8539
27405	14.037	4.8182	0.1	-9.5042
27406	13.76	4.7273	0.1	-8.1559
27407	13.852	4.8182	0.1	-8.8512
27408	13.576	4.7273	0.1	-7.4249
27409	13.668	4.8182	0.1	-8.1693
27410	13.391	4.7273	0.1	-6.6567
27411	13.483	4.8182	0.1	-7.4546
27412	13.207	4.7273	0.1	-5.8471
27413	13.299	4.8182	0.1	-6.703
27414	13.022	4.7273	0.1	-4.9912
27415	13.114	4.8182	0.1	-5.9104
27416	12.838	4.7273	0.1	-4.0843
27417	12.93	4.8182	0.1	-5.0721
27418	12.653	4.7273	0.1	-3.1216
27419	12.745	4.8182	0.1	-4.1837
27420	12.469	4.7273	0.1	-2.0985
27421	12.561	4.8182	0.1	-3.2404
27422	12.284	4.7273	0.1	-1.0144
27423	12.376	4.8182	0.1	-2.2377
27424	12.1	4.7273	0.1	-7.9978e-002
27425	12.192	4.8182	0.1	-1.1738
27426	11.915	4.7273	0.1	-1.6265e-002
27427	12.007	4.8182	0.1	-0.14774
27428	11.731	4.7273	0.1	-9.7824e-003
27429	11.823	4.8182	0.1	-1.8292e-002
27430	11.546	4.7273	0.1	-7.4435e-003
27431	11.638	4.8182	0.1	-1.0187e-002
27432	11.362	4.7273	0.1	-6.2757e-003
27433	11.454	4.8182	0.1	-7.5375e-003
27434	11.177	4.7273	0.1	-5.6153e-003
27435	11.269	4.8182	0.1	-6.2793e-003
27436	10.993	4.7273	0.1	-5.2254e-003
27437	11.085	4.8182	0.1	-5.609e-003
27438	10.808	4.7273	0.1	-4.9794e-003
27439	10.9	4.8182	0.1	-5.2281e-003
27440	10.624	4.7273	0.1	-4.8498e-003
27441	10.716	4.8182	0.1	-4.9956e-003
27442	10.439	4.7273	0.1	-4.8326e-003
27443	10.531	4.8182	0.1	-4.9269e-003
27444	10.255	4.7273	0.1	-4.8907e-003
27445	10.347	4.8182	0.1	-4.9671e-003
27446	10.07	4.7273	0.1	-5.0178e-003
27447	10.162	4.8182	0.1	-5.0804e-003
27448	9.8855	4.7273	0.1	-5.2211e-003
27449	9.9778	4.8182	0.1	-5.2825e-003
27450	9.701	4.7273	0.1	-5.5048e-003
27451	9.7933	4.8182	0.1	-5.5663e-003
27452	9.5165	4.7273	0.1	-5.8822e-003
27453	9.6088	4.8182	0.1	-5.9444e-003
27454	9.332	4.7273	0.1	-6.3679e-003
27455	9.4243	4.8182	0.1	-6.4298e-003
27456	9.1475	4.7273	0.1	-6.9824e-003
27457	9.2398	4.8182	0.1	-7.0372e-003
27458	8.963	4.7273	0.1	-7.7534e-003
27459	9.0553	4.8182	0.1	-7.792e-003
27460	8.7785	4.7273	0.1	-8.7177e-003
27461	8.8708	4.8182	0.1	-8.7247e-003
27462	8.594	4.7273	0.1	-9.9217e-003
27463	8.6863	4.8182	0.1	-9.8773e-003
27464	8.4095	4.7273	0.1	-1.1426e-002
27465	8.5018	4.8182	0.1	-1.1301e-002
27466	8.225	4.7273	0.1	-1.3313e-002
27467	8.3173	4.8182	0.1	-1.3065e-002
27468	8.0405	4.7273	0.1	-1.5694e-002
27469	8.1327	4.8182	0.1	-1.5267e-002
27470	7.856	4.7273	0.1	-1.8708e-002
27471	7.9482	4.8182	0.1	-1.803e-002
27472	7.6715	4.7273	0.1	-2.2545e-002
27473	7.7637	4.8182	0.1	-2.1514e-002
27474	7.487	4.7273	0.1	-2.7469e-002
27475	7.5792	4.8182	0.1	-2.5946e-002
27476	7.3025	4.7273	0.1	-3.3843e-002
27477	7.3947	4.8182	0.1	-3.1637e-002
27478	7.118	4.7273	0.1	-4.2175e-002
27479	7.2102	4.8182	0.1	-3.9027e-002
27480	6.9335	4.7273	0.1	-5.3152e-002
27481	7.0257	4.8182	0.1	-4.8745e-002
27482	6.749	4.7273	0.1	-6.7938e-002
27483	6.8412	4.8182	0.1	-6.1708e-002
27484	6.5645	4.7273	0.1	-8.7982e-002
27485	6.6567	4.8182	0.1	-7.9299e-002
27486	6.38	4.7273	0.1	-0.11568
27487	6.4722	4.8182	0.1	-0.10364
27488	6.1955	4.7273	0.1	-0.15472
27489	6.2877	4.8182	0.1	-0.13809
27490	6.011	4.7273	0.1	-0.21107
27491	6.1032	4.8182	0.1	-0.18825
27492	5.8265	4.7273	0.1	-0.29481
27493	5.9187	4.8182	0.1	-0.26381
27494	5.642	4.7273	0.1	-0.42394
27495	5.7342	4.8182	0.1	-0.38277
27496	5.4575	4.7273	0.1	-0.63349
27497	5.5497	4.8182	0.1	-0.58169
27498	5.273	4.7273	0.1	-1.0001
27499	5.3652	4.8182	0.1	-0.94556
27500	5.0885	4.7273	0.1	-1.7257
27501	5.1807	4.8182	0.1	-1.7181
27502	4.9039	4.7273	0.1	-3.5317
27503	4.9962	4.8182	0.1	-3.8864
27504	4.7194	4.7273	0.1	-10.458
27505	4.8117	4.8182	0.1	-13.024
27506	4.5349	4.7273	0.1	-37.859
27507	4.6272	4.8182	0.1	-39.9
27508	4.3504	4.7273	0.1	-90.739
27509	4.4427	4.8182	0.1	-83.212
27510	4.1659	4.7273	0.1	-171.83
27511	4.2582	4.8182	0.1	-145.59
27512	3.9814	4.7273	0.1	-294.68
27513	4.0737	4.8182	0.1	-236.14
27514	3.7969	4.7273	0.1	-481.79
27515	3.8892	4.8182	0.1	-370.16
27516	3.6124	4.7273	0.1	-764.37
27517	3.7047	4.8182	0.1	-570.76
27518	3.4279	4.7273	0.1	-1183.8
27519	3.5202	4.8182	0.1	-867.96
27520	3.2434	4.7273	0.1	-1838.1
27521	3.3357	4.8182	0.1	-1302.3
27522	3.1512	4.8182	0.1	-2016.9
27523	3.0589	4.7273	0.1	-1852.6
27524	23.723	4.9091	0.1	-117.05
27525	23.815	5.	0.1	-115.69
27526	23.908	4.9091	0.1	-126.36
27527	23.539	4.9091	0.1	-107.54
27528	23.631	5.	0.1	-105.8
27529	23.354	4.9091	0.1	-99.055
27530	23.446	5.	0.1	-97.048
27531	23.17	4.9091	0.1	-91.56
27532	23.262	5.	0.1	-89.442
27533	22.985	4.9091	0.1	-84.932
27534	23.077	5.	0.1	-82.805
27535	22.801	4.9091	0.1	-79.066
27536	22.893	5.	0.1	-77.005
27537	22.616	4.9091	0.1	-73.849
27538	22.708	5.	0.1	-71.901
27539	22.432	4.9091	0.1	-69.18
27540	22.524	5.	0.1	-67.373
27541	22.247	4.9091	0.1	-64.978
27542	22.339	5.	0.1	-63.321
27543	22.063	4.9091	0.1	-61.171
27544	22.155	5.	0.1	-59.669
27545	21.878	4.9091	0.1	-57.703
27546	21.97	5.	0.1	-56.353
27547	21.694	4.9091	0.1	-54.531
27548	21.786	5.	0.1	-53.325
27549	21.509	4.9091	0.1	-51.615
27550	21.601	5.	0.1	-50.545
27551	21.325	4.9091	0.1	-48.928
27552	21.417	5.	0.1	-47.984
27553	21.14	4.9091	0.1	-46.442
27554	21.232	5.	0.1	-45.616
27555	20.956	4.9091	0.1	-44.139
27556	21.048	5.	0.1	-43.42
27557	20.771	4.9091	0.1	-42.
27558	20.863	5.	0.1	-41.378
27559	20.587	4.9091	0.1	-40.01
27560	20.679	5.	0.1	-39.478
27561	20.402	4.9091	0.1	-38.156
27562	20.494	5.	0.1	-37.705
27563	20.218	4.9091	0.1	-36.427
27564	20.31	5.	0.1	-36.05
27565	20.033	4.9091	0.1	-34.813
27566	20.125	5.	0.1	-34.502
27567	19.849	4.9091	0.1	-33.304
27568	19.941	5.	0.1	-33.053
27569	19.664	4.9091	0.1	-31.893
27570	19.756	5.	0.1	-31.696
27571	19.48	4.9091	0.1	-30.571
27572	19.572	5.	0.1	-30.424
27573	19.295	4.9091	0.1	-29.332
27574	19.387	5.	0.1	-29.23
27575	19.111	4.9091	0.1	-28.169
27576	19.203	5.	0.1	-28.108
27577	18.926	4.9091	0.1	-27.077
27578	19.018	5.	0.1	-27.053
27579	18.742	4.9091	0.1	-26.05
27580	18.834	5.	0.1	-26.059
27581	18.557	4.9091	0.1	-25.084
27582	18.649	5.	0.1	-25.123
27583	18.373	4.9091	0.1	-24.172
27584	18.465	5.	0.1	-24.24
27585	18.188	4.9091	0.1	-23.311
27586	18.28	5.	0.1	-23.404
27587	18.004	4.9091	0.1	-22.497
27588	18.096	5.	0.1	-22.614
27589	17.819	4.9091	0.1	-21.724
27590	17.911	5.	0.1	-21.864
27591	17.635	4.9091	0.1	-20.991
27592	17.727	5.	0.1	-21.151
27593	17.45	4.9091	0.1	-20.292
27594	17.542	5.	0.1	-20.472
27595	17.266	4.9091	0.1	-19.624
27596	17.358	5.	0.1	-19.824
27597	17.081	4.9091	0.1	-18.984
27598	17.173	5.	0.1	-19.202
27599	16.897	4.9091	0.1	-18.369
27600	16.989	5.	0.1	-18.606
27601	16.712	4.9091	0.1	-17.776
27602	16.804	5.	0.1	-18.03
27603	16.528	4.9091	0.1	-17.202
27604	16.62	5.	0.1	-17.474
27605	16.343	4.9091	0.1	-16.643
27606	16.435	5.	0.1	-16.933
27607	16.159	4.9091	0.1	-16.097
27608	16.251	5.	0.1	-16.406
27609	15.974	4.9091	0.1	-15.561
27610	16.066	5.	0.1	-15.89
27611	15.79	4.9091	0.1	-15.032
27612	15.882	5.	0.1	-15.381
27613	15.605	4.9091	0.1	-14.508
27614	15.697	5.	0.1	-14.878
27615	15.421	4.9091	0.1	-13.985
27616	15.513	5.	0.1	-14.379
27617	15.236	4.9091	0.1	-13.462
27618	15.328	5.	0.1	-13.879
27619	15.052	4.9091	0.1	-12.934
27620	15.144	5.	0.1	-13.378
27621	14.867	4.9091	0.1	-12.4
27622	14.959	5.	0.1	-12.872
27623	14.683	4.9091	0.1	-11.857
27624	14.775	5.	0.1	-12.358
27625	14.498	4.9091	0.1	-11.301
27626	14.59	5.	0.1	-11.835
27627	14.314	4.9091	0.1	-10.73
27628	14.406	5.	0.1	-11.299
27629	14.129	4.9091	0.1	-10.14
27630	14.221	5.	0.1	-10.747
27631	13.945	4.9091	0.1	-9.5277
27632	14.037	5.	0.1	-10.176
27633	13.76	4.9091	0.1	-8.8905
27634	13.852	5.	0.1	-9.5838
27635	13.576	4.9091	0.1	-8.2245
27636	13.668	5.	0.1	-8.9665
27637	13.391	4.9091	0.1	-7.5259
27638	13.483	5.	0.1	-8.3209
27639	13.207	4.9091	0.1	-6.7909
27640	13.299	5.	0.1	-7.6434
27641	13.022	4.9091	0.1	-6.0154
27642	13.114	5.	0.1	-6.9305
27643	12.838	4.9091	0.1	-5.1952
27644	12.93	5.	0.1	-6.1782
27645	12.653	4.9091	0.1	-4.3258
27646	12.745	5.	0.1	-5.3824
27647	12.469	4.9091	0.1	-3.4027
27648	12.561	5.	0.1	-4.539
27649	12.284	4.9091	0.1	-2.4213
27650	12.376	5.	0.1	-3.6435
27651	12.1	4.9091	0.1	-1.3791
27652	12.192	5.	0.1	-2.6917
27653	11.915	4.9091	0.1	-0.30897
27654	12.007	5.	0.1	-1.6801
27655	11.731	4.9091	0.1	-2.165e-002
27656	11.823	5.	0.1	-0.61561
27657	11.546	4.9091	0.1	-1.0688e-002
27658	11.638	5.	0.1	-3.146e-002
27659	11.362	4.9091	0.1	-7.6212e-003
27660	11.454	5.	0.1	-1.176e-002
27661	11.177	4.9091	0.1	-6.274e-003
27662	11.269	5.	0.1	-7.8256e-003
27663	10.993	4.9091	0.1	-5.5903e-003
27664	11.085	5.	0.1	-6.2899e-003
27665	10.808	4.9091	0.1	-5.2182e-003
27666	10.9	5.	0.1	-5.562e-003
27667	10.624	4.9091	0.1	-5.0487e-003
27668	10.716	5.	0.1	-5.1881e-003
27669	10.439	4.9091	0.1	-5.0423e-003
27670	10.531	5.	0.1	-5.0776e-003
27671	10.255	4.9091	0.1	-5.1442e-003
27672	10.347	5.	0.1	-5.1319e-003
27673	10.07	4.9091	0.1	-5.3397e-003
27674	10.162	5.	0.1	-5.2954e-003
27675	9.8855	4.9091	0.1	-5.6301e-003
27676	9.9778	5.	0.1	-5.5716e-003
27677	9.701	4.9091	0.1	-6.0167e-003
27678	9.7933	5.	0.1	-5.9486e-003
27679	9.5165	4.9091	0.1	-6.5116e-003
27680	9.6088	5.	0.1	-6.4345e-003
27681	9.332	4.9091	0.1	-7.1281e-003
27682	9.4243	5.	0.1	-7.0409e-003
27683	9.1475	4.9091	0.1	-7.8861e-003
27684	9.2398	5.	0.1	-7.781e-003
27685	8.963	4.9091	0.1	-8.8135e-003
27686	9.0553	5.	0.1	-8.6786e-003
27687	8.7785	4.9091	0.1	-9.9465e-003
27688	8.8708	5.	0.1	-9.7632e-003
27689	8.594	4.9091	0.1	-1.1332e-002
27690	8.6863	5.	0.1	-1.1076e-002
27691	8.4095	4.9091	0.1	-1.303e-002
27692	8.5018	5.	0.1	-1.2666e-002
27693	8.225	4.9091	0.1	-1.5126e-002
27694	8.3173	5.	0.1	-1.4602e-002
27695	8.0405	4.9091	0.1	-1.773e-002
27696	8.1327	5.	0.1	-1.6981e-002
27697	7.856	4.9091	0.1	-2.0987e-002
27698	7.9482	5.	0.1	-1.9924e-002
27699	7.6715	4.9091	0.1	-2.5092e-002
27700	7.7637	5.	0.1	-2.3593e-002
27701	7.487	4.9091	0.1	-3.0327e-002
27702	7.5792	5.	0.1	-2.8219e-002
27703	7.3025	4.9091	0.1	-3.7082e-002
27704	7.3947	5.	0.1	-3.4129e-002
27705	7.118	4.9091	0.1	-4.5923e-002
27706	7.2102	5.	0.1	-4.1796e-002
27707	6.9335	4.9091	0.1	-5.7689e-002
27708	7.0257	5.	0.1	-5.1923e-002
27709	6.749	4.9091	0.1	-7.3655e-002
27710	6.8412	5.	0.1	-6.5584e-002
27711	6.5645	4.9091	0.1	-9.5822e-002
27712	6.6567	5.	0.1	-8.4498e-002
27713	6.38	4.9091	0.1	-0.12745
27714	6.4722	5.	0.1	-0.11151
27715	6.1955	4.9091	0.1	-0.17411
27716	6.2877	5.	0.1	-0.15157
27717	6.011	4.9091	0.1	-0.24592
27718	6.1032	5.	0.1	-0.21402
27719	5.8265	4.9091	0.1	-0.36271
27720	5.9187	5.	0.1	-0.318
27721	5.642	4.9091	0.1	-0.56809
27722	5.7342	5.	0.1	-0.50846
27723	5.4575	4.9091	0.1	-0.97575
27724	5.5497	5.	0.1	-0.91541
27725	5.273	4.9091	0.1	-1.9773
27726	5.3652	5.	0.1	-2.0751
27727	5.0885	4.9091	0.1	-5.631
27728	5.1807	5.	0.1	-7.3611
27729	4.9039	4.9091	0.1	-20.133
27730	4.9962	5.	0.1	-23.938
27731	4.7194	4.9091	0.1	-47.276
27732	4.8117	5.	0.1	-48.793
27733	4.5349	4.9091	0.1	-84.717
27734	4.6272	5.	0.1	-80.767
27735	4.3504	4.9091	0.1	-135.12
27736	4.4427	5.	0.1	-121.57
27737	4.1659	4.9091	0.1	-204.27
27738	4.2582	5.	0.1	-174.62
27739	3.9814	4.9091	0.1	-301.7
27740	4.0737	5.	0.1	-245.69
27741	3.7969	4.9091	0.1	-442.13
27742	3.8892	5.	0.1	-344.31
27743	3.6124	4.9091	0.1	-646.14
27744	3.7047	5.	0.1	-485.57
27745	3.4279	4.9091	0.1	-942.09
27746	3.5202	5.	0.1	-690.9
27747	3.2434	4.9091	0.1	-1416.
27748	3.3357	5.	0.1	-993.86
27749	3.1512	5.	0.1	-1526.3
27750	3.0589	4.9091	0.1	-1400.3
27751	23.723	5.0909	0.1	-104.47
27752	23.815	5.1818	0.1	-101.99
27753	23.908	5.0909	0.1	-113.49
27754	23.539	5.0909	0.1	-95.346
27755	23.631	5.1818	0.1	-92.455
27756	23.354	5.0909	0.1	-87.478
27757	23.446	5.1818	0.1	-84.375
27758	23.17	5.0909	0.1	-80.74
27759	23.262	5.1818	0.1	-77.642
27760	22.985	5.0909	0.1	-74.938
27761	23.077	5.1818	0.1	-71.96
27762	22.801	5.0909	0.1	-69.906
27763	22.893	5.1818	0.1	-67.118
27764	22.616	5.0909	0.1	-65.493
27765	22.708	5.1818	0.1	-62.926
27766	22.432	5.0909	0.1	-61.583
27767	22.524	5.1818	0.1	-59.245
27768	22.247	5.0909	0.1	-58.081
27769	22.339	5.1818	0.1	-55.97
27770	22.063	5.0909	0.1	-54.918
27771	22.155	5.1818	0.1	-53.022
27772	21.878	5.0909	0.1	-52.04
27773	21.97	5.1818	0.1	-50.345
27774	21.694	5.0909	0.1	-49.403
27775	21.786	5.1818	0.1	-47.895
27776	21.509	5.0909	0.1	-46.976
27777	21.601	5.1818	0.1	-45.639
27778	21.325	5.0909	0.1	-44.732
27779	21.417	5.1818	0.1	-43.551
27780	21.14	5.0909	0.1	-42.65
27781	21.232	5.1818	0.1	-41.612
27782	20.956	5.0909	0.1	-40.714
27783	21.048	5.1818	0.1	-39.806
27784	20.771	5.0909	0.1	-38.91
27785	20.863	5.1818	0.1	-38.119
27786	20.587	5.0909	0.1	-37.225
27787	20.679	5.1818	0.1	-36.541
27788	20.402	5.0909	0.1	-35.649
27789	20.494	5.1818	0.1	-35.061
27790	20.218	5.0909	0.1	-34.173
27791	20.31	5.1818	0.1	-33.673
27792	20.033	5.0909	0.1	-32.79
27793	20.125	5.1818	0.1	-32.369
27794	19.849	5.0909	0.1	-31.492
27795	19.941	5.1818	0.1	-31.142
27796	19.664	5.0909	0.1	-30.273
27797	19.756	5.1818	0.1	-29.988
27798	19.48	5.0909	0.1	-29.127
27799	19.572	5.1818	0.1	-28.9
27800	19.295	5.0909	0.1	-28.049
27801	19.387	5.1818	0.1	-27.875
27802	19.111	5.0909	0.1	-27.033
27803	19.203	5.1818	0.1	-26.908
27804	18.926	5.0909	0.1	-26.076
27805	19.018	5.1818	0.1	-25.994
27806	18.742	5.0909	0.1	-25.172
27807	18.834	5.1818	0.1	-25.13
27808	18.557	5.0909	0.1	-24.318
27809	18.649	5.1818	0.1	-24.313
27810	18.373	5.0909	0.1	-23.511
27811	18.465	5.1818	0.1	-23.538
27812	18.188	5.0909	0.1	-22.745
27813	18.28	5.1818	0.1	-22.803
27814	18.004	5.0909	0.1	-22.018
27815	18.096	5.1818	0.1	-22.104
27816	17.819	5.0909	0.1	-21.327
27817	17.911	5.1818	0.1	-21.439
27818	17.635	5.0909	0.1	-20.669
27819	17.727	5.1818	0.1	-20.805
27820	17.45	5.0909	0.1	-20.039
27821	17.542	5.1818	0.1	-20.199
27822	17.266	5.0909	0.1	-19.437
27823	17.358	5.1818	0.1	-19.618
27824	17.081	5.0909	0.1	-18.858
27825	17.173	5.1818	0.1	-19.06
27826	16.897	5.0909	0.1	-18.3
27827	16.989	5.1818	0.1	-18.523
27828	16.712	5.0909	0.1	-17.761
27829	16.804	5.1818	0.1	-18.004
27830	16.528	5.0909	0.1	-17.238
27831	16.62	5.1818	0.1	-17.501
27832	16.343	5.0909	0.1	-16.729
27833	16.435	5.1818	0.1	-17.011
27834	16.159	5.0909	0.1	-16.231
27835	16.251	5.1818	0.1	-16.533
27836	15.974	5.0909	0.1	-15.741
27837	16.066	5.1818	0.1	-16.064
27838	15.79	5.0909	0.1	-15.258
27839	15.882	5.1818	0.1	-15.602
27840	15.605	5.0909	0.1	-14.78
27841	15.697	5.1818	0.1	-15.146
27842	15.421	5.0909	0.1	-14.303
27843	15.513	5.1818	0.1	-14.692
27844	15.236	5.0909	0.1	-13.825
27845	15.328	5.1818	0.1	-14.239
27846	15.052	5.0909	0.1	-13.344
27847	15.144	5.1818	0.1	-13.784
27848	14.867	5.0909	0.1	-12.858
27849	14.959	5.1818	0.1	-13.326
27850	14.683	5.0909	0.1	-12.364
27851	14.775	5.1818	0.1	-12.863
27852	14.498	5.0909	0.1	-11.86
27853	14.59	5.1818	0.1	-12.391
27854	14.314	5.0909	0.1	-11.343
27855	14.406	5.1818	0.1	-11.908
27856	14.129	5.0909	0.1	-10.81
27857	14.221	5.1818	0.1	-11.413
27858	13.945	5.0909	0.1	-10.259
27859	14.037	5.1818	0.1	-10.902
27860	13.76	5.0909	0.1	-9.6857
27861	13.852	5.1818	0.1	-10.374
27862	13.576	5.0909	0.1	-9.0884
27863	13.668	5.1818	0.1	-9.8244
27864	13.391	5.0909	0.1	-8.4636
27865	13.483	5.1818	0.1	-9.2515
27866	13.207	5.0909	0.1	-7.8078
27867	13.299	5.1818	0.1	-8.6522
27868	13.022	5.0909	0.1	-7.1176
27869	13.114	5.1818	0.1	-8.0233
27870	12.838	5.0909	0.1	-6.3893
27871	12.93	5.1818	0.1	-7.3615
27872	12.653	5.0909	0.1	-5.6191
27873	12.745	5.1818	0.1	-6.6634
27874	12.469	5.0909	0.1	-4.8031
27875	12.561	5.1818	0.1	-5.9256
27876	12.284	5.0909	0.1	-3.937
27877	12.376	5.1818	0.1	-5.1442
27878	12.1	5.0909	0.1	-3.0168
27879	12.192	5.1818	0.1	-4.3154
27880	11.915	5.0909	0.1	-2.0385
27881	12.007	5.1818	0.1	-3.4352
27882	11.731	5.0909	0.1	-1.0017
27883	11.823	5.1818	0.1	-2.4998
27884	11.546	5.0909	0.1	-7.8539e-002
27885	11.638	5.1818	0.1	-1.5062
27886	11.362	5.0909	0.1	-1.3681e-002
27887	11.454	5.1818	0.1	-0.46426
27888	11.177	5.0909	0.1	-8.1067e-003
27889	11.269	5.1818	0.1	-2.0232e-002
27890	10.993	5.0909	0.1	-6.2893e-003
27891	11.085	5.1818	0.1	-8.9375e-003
27892	10.808	5.0909	0.1	-5.5055e-003
27893	10.9	5.1818	0.1	-6.505e-003
27894	10.624	5.0909	0.1	-5.1819e-003
27895	10.716	5.1818	0.1	-5.626e-003
27896	10.439	5.0909	0.1	-5.1376e-003
27897	10.531	5.1818	0.1	-5.3687e-003
27898	10.255	5.0909	0.1	-5.264e-003
27899	10.347	5.1818	0.1	-5.4225e-003
27900	10.07	5.0909	0.1	-5.5207e-003
27901	10.162	5.1818	0.1	-5.657e-003
27902	9.8855	5.0909	0.1	-5.8969e-003
27903	9.9778	5.1818	0.1	-6.0445e-003
27904	9.701	5.0909	0.1	-6.387e-003
27905	9.7933	5.1818	0.1	-6.5588e-003
27906	9.5165	5.0909	0.1	-6.9986e-003
27907	9.6088	5.1818	0.1	-7.1995e-003
27908	9.332	5.0909	0.1	-7.7434e-003
27909	9.4243	5.1818	0.1	-7.9726e-003
27910	9.1475	5.0909	0.1	-8.6384e-003
27911	9.2398	5.1818	0.1	-8.8886e-003
27912	8.963	5.0909	0.1	-9.7092e-003
27913	9.0553	5.1818	0.1	-9.9667e-003
27914	8.7785	5.0909	0.1	-1.099e-002
27915	8.8708	5.1818	0.1	-1.1233e-002
27916	8.594	5.0909	0.1	-1.2526e-002
27917	8.6863	5.1818	0.1	-1.2725e-002
27918	8.4095	5.0909	0.1	-1.4374e-002
27919	8.5018	5.1818	0.1	-1.4486e-002
27920	8.225	5.0909	0.1	-1.6615e-002
27921	8.3173	5.1818	0.1	-1.6578e-002
27922	8.0405	5.0909	0.1	-1.9356e-002
27923	8.1327	5.1818	0.1	-1.9089e-002
27924	7.856	5.0909	0.1	-2.274e-002
27925	7.9482	5.1818	0.1	-2.2133e-002
27926	7.6715	5.0909	0.1	-2.6961e-002
27927	7.7637	5.1818	0.1	-2.5859e-002
27928	7.487	5.0909	0.1	-3.2302e-002
27929	7.5792	5.1818	0.1	-3.049e-002
27930	7.3025	5.0909	0.1	-3.9176e-002
27931	7.3947	5.1818	0.1	-3.6349e-002
27932	7.118	5.0909	0.1	-4.8197e-002
27933	7.2102	5.1818	0.1	-4.3923e-002
27934	6.9335	5.0909	0.1	-6.0323e-002
27935	7.0257	5.1818	0.1	-5.3969e-002
27936	6.749	5.0909	0.1	-7.7105e-002
27937	6.8412	5.1818	0.1	-6.773e-002
27938	6.5645	5.0909	0.1	-0.10119
27939	6.6567	5.1818	0.1	-8.7355e-002
27940	6.38	5.0909	0.1	-0.13734
27941	6.4722	5.1818	0.1	-0.11681
27942	6.1955	5.0909	0.1	-0.19499
27943	6.2877	5.1818	0.1	-0.16411
27944	6.011	5.0909	0.1	-0.29488
27945	6.1032	5.1818	0.1	-0.24781
27946	5.8265	5.0909	0.1	-0.49142
27947	5.9187	5.1818	0.1	-0.42016
27948	5.642	5.0909	0.1	-0.97488
27949	5.7342	5.1818	0.1	-0.8913
27950	5.4575	5.0909	0.1	-2.8532
27951	5.5497	5.1818	0.1	-3.2593
27952	5.273	5.0909	0.1	-12.22
27953	5.3652	5.1818	0.1	-14.021
27954	5.0885	5.0909	0.1	-30.281
27955	5.1807	5.1818	0.1	-31.036
27956	4.9039	5.0909	0.1	-53.469
27957	4.9962	5.1818	0.1	-52.03
27958	4.7194	5.0909	0.1	-81.763
27959	4.8117	5.1818	0.1	-77.046
27960	4.5349	5.0909	0.1	-116.09
27961	4.6272	5.1818	0.1	-106.49
27962	4.3504	5.0909	0.1	-158.12
27963	4.4427	5.1818	0.1	-141.06
27964	4.1659	5.0909	0.1	-210.76
27965	4.2582	5.1818	0.1	-182.03
27966	3.9814	5.0909	0.1	-279.08
27967	4.0737	5.1818	0.1	-231.82
27968	3.7969	5.0909	0.1	-371.96
27969	3.8892	5.1818	0.1	-295.22
27970	3.6124	5.0909	0.1	-504.34
27971	3.7047	5.1818	0.1	-381.74
27972	3.4279	5.0909	0.1	-702.92
27973	3.5202	5.1818	0.1	-508.88
27974	3.2434	5.0909	0.1	-1049.4
27975	3.3357	5.1818	0.1	-712.44
27976	3.1512	5.1818	0.1	-1115.9
27977	3.0589	5.0909	0.1	-1033.9
27978	23.723	5.2727	0.1	-90.017
27979	23.815	5.3636	0.1	-86.113
27980	23.908	5.2727	0.1	-98.599
27981	23.539	5.2727	0.1	-81.533
27982	23.631	5.3636	0.1	-77.224
27983	23.354	5.2727	0.1	-74.606
27984	23.446	5.3636	0.1	-70.26
27985	23.17	5.2727	0.1	-68.941
27986	23.262	5.3636	0.1	-64.819
27987	22.985	5.2727	0.1	-64.227
27988	23.077	5.3636	0.1	-60.423
27989	22.801	5.2727	0.1	-60.228
27990	22.893	5.3636	0.1	-56.775
27991	22.616	5.2727	0.1	-56.768
27992	22.708	5.3636	0.1	-53.659
27993	22.432	5.2727	0.1	-53.72
27994	22.524	5.3636	0.1	-50.935
27995	22.247	5.2727	0.1	-50.995
27996	22.339	5.3636	0.1	-48.508
27997	22.063	5.2727	0.1	-48.529
27998	22.155	5.3636	0.1	-46.314
27999	21.878	5.2727	0.1	-46.276
28000	21.97	5.3636	0.1	-44.307
28001	21.694	5.2727	0.1	-44.203
28002	21.786	5.3636	0.1	-42.456
28003	21.509	5.2727	0.1	-42.283
28004	21.601	5.3636	0.1	-40.737
28005	21.325	5.2727	0.1	-40.498
28006	21.417	5.3636	0.1	-39.133
28007	21.14	5.2727	0.1	-38.831
28008	21.232	5.3636	0.1	-37.629
28009	20.956	5.2727	0.1	-37.271
28010	21.048	5.3636	0.1	-36.217
28011	20.771	5.2727	0.1	-35.808
28012	20.863	5.3636	0.1	-34.887
28013	20.587	5.2727	0.1	-34.433
28014	20.679	5.3636	0.1	-33.632
28015	20.402	5.2727	0.1	-33.139
28016	20.494	5.3636	0.1	-32.447
28017	20.218	5.2727	0.1	-31.92
28018	20.31	5.3636	0.1	-31.327
28019	20.033	5.2727	0.1	-30.771
28020	20.125	5.3636	0.1	-30.266
28021	19.849	5.2727	0.1	-29.686
28022	19.941	5.3636	0.1	-29.262
28023	19.664	5.2727	0.1	-28.662
28024	19.756	5.3636	0.1	-28.31
28025	19.48	5.2727	0.1	-27.694
28026	19.572	5.3636	0.1	-27.408
28027	19.295	5.2727	0.1	-26.778
28028	19.387	5.3636	0.1	-26.552
28029	19.111	5.2727	0.1	-25.911
28030	19.203	5.3636	0.1	-25.74
28031	18.926	5.2727	0.1	-25.09
28032	19.018	5.3636	0.1	-24.968
28033	18.742	5.2727	0.1	-24.311
28034	18.834	5.3636	0.1	-24.234
28035	18.557	5.2727	0.1	-23.572
28036	18.649	5.3636	0.1	-23.535
28037	18.373	5.2727	0.1	-22.869
28038	18.465	5.3636	0.1	-22.869
28039	18.188	5.2727	0.1	-22.2
28040	18.28	5.3636	0.1	-22.235
28041	18.004	5.2727	0.1	-21.563
28042	18.096	5.3636	0.1	-21.629
28043	17.819	5.2727	0.1	-20.954
28044	17.911	5.3636	0.1	-21.049
28045	17.635	5.2727	0.1	-20.371
28046	17.727	5.3636	0.1	-20.494
28047	17.45	5.2727	0.1	-19.813
28048	17.542	5.3636	0.1	-19.961
28049	17.266	5.2727	0.1	-19.277
28050	17.358	5.3636	0.1	-19.448
28051	17.081	5.2727	0.1	-18.76
28052	17.173	5.3636	0.1	-18.954
28053	16.897	5.2727	0.1	-18.26
28054	16.989	5.3636	0.1	-18.477
28055	16.712	5.2727	0.1	-17.776
28056	16.804	5.3636	0.1	-18.014
28057	16.528	5.2727	0.1	-17.306
28058	16.62	5.3636	0.1	-17.565
28059	16.343	5.2727	0.1	-16.847
28060	16.435	5.3636	0.1	-17.127
28061	16.159	5.2727	0.1	-16.398
28062	16.251	5.3636	0.1	-16.698
28063	15.974	5.2727	0.1	-15.956
28064	16.066	5.3636	0.1	-16.278
28065	15.79	5.2727	0.1	-15.52
28066	15.882	5.3636	0.1	-15.864
28067	15.605	5.2727	0.1	-15.088
28068	15.697	5.3636	0.1	-15.454
28069	15.421	5.2727	0.1	-14.658
28070	15.513	5.3636	0.1	-15.047
28071	15.236	5.2727	0.1	-14.228
28072	15.328	5.3636	0.1	-14.641
28073	15.052	5.2727	0.1	-13.796
28074	15.144	5.3636	0.1	-14.235
28075	14.867	5.2727	0.1	-13.359
28076	14.959	5.3636	0.1	-13.827
28077	14.683	5.2727	0.1	-12.917
28078	14.775	5.3636	0.1	-13.414
28079	14.498	5.2727	0.1	-12.466
28080	14.59	5.3636	0.1	-12.995
28081	14.314	5.2727	0.1	-12.006
28082	14.406	5.3636	0.1	-12.568
28083	14.129	5.2727	0.1	-11.532
28084	14.221	5.3636	0.1	-12.132
28085	13.945	5.2727	0.1	-11.044
28086	14.037	5.3636	0.1	-11.683
28087	13.76	5.2727	0.1	-10.538
28088	13.852	5.3636	0.1	-11.221
28089	13.576	5.2727	0.1	-10.013
28090	13.668	5.3636	0.1	-10.742
28091	13.391	5.2727	0.1	-9.4654
28092	13.483	5.3636	0.1	-10.245
28093	13.207	5.2727	0.1	-8.8926
28094	13.299	5.3636	0.1	-9.7268
28095	13.022	5.2727	0.1	-8.2917
28096	13.114	5.3636	0.1	-9.1853
28097	12.838	5.2727	0.1	-7.6598
28098	12.93	5.3636	0.1	-8.6179
28099	12.653	5.2727	0.1	-6.9937
28100	12.745	5.3636	0.1	-8.0217
28101	12.469	5.2727	0.1	-6.2901
28102	12.561	5.3636	0.1	-7.3939
28103	12.284	5.2727	0.1	-5.5457
28104	12.376	5.3636	0.1	-6.7315
28105	12.1	5.2727	0.1	-4.7568
28106	12.192	5.3636	0.1	-6.0314
28107	11.915	5.2727	0.1	-3.9198
28108	12.007	5.3636	0.1	-5.2904
28109	11.731	5.2727	0.1	-3.031
28110	11.823	5.3636	0.1	-4.5052
28111	11.546	5.2727	0.1	-2.087
28112	11.638	5.3636	0.1	-3.6725
28113	11.362	5.2727	0.1	-1.0859
28114	11.454	5.3636	0.1	-2.7888
28115	11.177	5.2727	0.1	-0.10407
28116	11.269	5.3636	0.1	-1.851
28117	10.993	5.2727	0.1	-1.0778e-002
28118	11.085	5.3636	0.1	-0.85789
28119	10.808	5.2727	0.1	-6.7694e-003
28120	10.9	5.3636	0.1	-2.7202e-002
28121	10.624	5.2727	0.1	-5.7757e-003
28122	10.716	5.3636	0.1	-6.7277e-003
28123	10.439	5.2727	0.1	-5.6032e-003
28124	10.531	5.3636	0.1	-5.1859e-003
28125	10.255	5.2727	0.1	-5.7854e-003
28126	10.347	5.3636	0.1	-5.0189e-003
28127	10.07	5.2727	0.1	-6.1782e-003
28128	10.162	5.3636	0.1	-5.2739e-003
28129	9.8855	5.2727	0.1	-6.7323e-003
28130	9.9778	5.3636	0.1	-5.7622e-003
28131	9.701	5.2727	0.1	-7.4251e-003
28132	9.7933	5.3636	0.1	-6.4087e-003
28133	9.5165	5.2727	0.1	-8.2546e-003
28134	9.6088	5.3636	0.1	-7.1954e-003
28135	9.332	5.2727	0.1	-9.2258e-003
28136	9.4243	5.3636	0.1	-8.1197e-003
28137	9.1475	5.2727	0.1	-1.0352e-002
28138	9.2398	5.3636	0.1	-9.1875e-003
28139	8.963	5.2727	0.1	-1.1653e-002
28140	9.0553	5.3636	0.1	-1.0414e-002
28141	8.7785	5.2727	0.1	-1.3158e-002
28142	8.8708	5.3636	0.1	-1.1822e-002
28143	8.594	5.2727	0.1	-1.4903e-002
28144	8.6863	5.3636	0.1	-1.3442e-002
28145	8.4095	5.2727	0.1	-1.6939e-002
28146	8.5018	5.3636	0.1	-1.5314e-002
28147	8.225	5.2727	0.1	-1.9334e-002
28148	8.3173	5.3636	0.1	-1.749e-002
28149	8.0405	5.2727	0.1	-2.2182e-002
28150	8.1327	5.3636	0.1	-2.0047e-002
28151	7.856	5.2727	0.1	-2.5606e-002
28152	7.9482	5.3636	0.1	-2.3086e-002
28153	7.6715	5.2727	0.1	-2.9786e-002
28154	7.7637	5.3636	0.1	-2.6742e-002
28155	7.487	5.2727	0.1	-3.4985e-002
28156	7.5792	5.3636	0.1	-3.1217e-002
28157	7.3025	5.2727	0.1	-4.1608e-002
28158	7.3947	5.3636	0.1	-3.6821e-002
28159	7.118	5.2727	0.1	-5.0258e-002
28160	7.2102	5.3636	0.1	-4.4035e-002
28161	6.9335	5.2727	0.1	-6.2094e-002
28162	7.0257	5.3636	0.1	-5.3664e-002
28163	6.749	5.2727	0.1	-7.8903e-002
28164	6.8412	5.3636	0.1	-6.7129e-002
28165	6.5645	5.2727	0.1	-0.10432
28166	6.6567	5.3636	0.1	-8.718e-002
28167	6.38	5.2727	0.1	-0.14603
28168	6.4722	5.3636	0.1	-0.11976
28169	6.1955	5.2727	0.1	-0.22321
28170	6.2877	5.3636	0.1	-0.18008
28171	6.011	5.2727	0.1	-0.39788
28172	6.1032	5.3636	0.1	-0.32022
28173	5.8265	5.2727	0.1	-1.0021
28174	5.9187	5.3636	0.1	-0.86124
28175	5.642	5.2727	0.1	-5.3579
28176	5.7342	5.3636	0.1	-5.4231
28177	5.4575	5.2727	0.1	-17.545
28178	5.5497	5.3636	0.1	-16.525
28179	5.273	5.2727	0.1	-33.575
28180	5.3652	5.3636	0.1	-30.731
28181	5.0885	5.2727	0.1	-52.807
28182	5.1807	5.3636	0.1	-47.744
28183	4.9039	5.2727	0.1	-75.271
28184	4.9962	5.3636	0.1	-67.59
28185	4.7194	5.2727	0.1	-101.01
28186	4.8117	5.3636	0.1	-90.221
28187	4.5349	5.2727	0.1	-130.04
28188	4.6272	5.3636	0.1	-115.45
28189	4.3504	5.2727	0.1	-162.47
28190	4.4427	5.3636	0.1	-142.95
28191	4.1659	5.2727	0.1	-198.74
28192	4.2582	5.3636	0.1	-172.34
28193	3.9814	5.2727	0.1	-240.45
28194	4.0737	5.3636	0.1	-203.59
28195	3.7969	5.2727	0.1	-292.08
28196	3.8892	5.3636	0.1	-237.92
28197	3.6124	5.2727	0.1	-364.42
28198	3.7047	5.3636	0.1	-280.26
28199	3.4279	5.2727	0.1	-483.35
28200	3.5202	5.3636	0.1	-344.04
28201	3.2434	5.2727	0.1	-729.08
28202	3.3357	5.3636	0.1	-465.68
28203	3.1512	5.3636	0.1	-764.81
28204	3.0589	5.2727	0.1	-726.74
28205	23.723	5.4545	0.1	-73.385
28206	23.815	5.5455	0.1	-67.465
28207	23.908	5.4545	0.1	-81.206
28208	23.539	5.4545	0.1	-66.04
28209	23.631	5.5455	0.1	-59.978
28210	23.354	5.4545	0.1	-60.588
28211	23.446	5.5455	0.1	-54.946
28212	23.17	5.4545	0.1	-56.429
28213	23.262	5.5455	0.1	-51.385
28214	22.985	5.4545	0.1	-53.101
28215	23.077	5.5455	0.1	-48.639
28216	22.801	5.4545	0.1	-50.331
28217	22.893	5.5455	0.1	-46.397
28218	22.616	5.4545	0.1	-47.944
28219	22.708	5.5455	0.1	-44.476
28220	22.432	5.4545	0.1	-45.833
28221	22.524	5.5455	0.1	-42.774
28222	22.247	5.4545	0.1	-43.929
28223	22.339	5.5455	0.1	-41.229
28224	22.063	5.4545	0.1	-42.187
28225	22.155	5.5455	0.1	-39.804
28226	21.878	5.4545	0.1	-40.575
28227	21.97	5.5455	0.1	-38.472
28228	21.694	5.4545	0.1	-39.073
28229	21.786	5.5455	0.1	-37.219
28230	21.509	5.4545	0.1	-37.664
28231	21.601	5.5455	0.1	-36.032
28232	21.325	5.4545	0.1	-36.337
28233	21.417	5.5455	0.1	-34.904
28234	21.14	5.4545	0.1	-35.084
28235	21.232	5.5455	0.1	-33.829
28236	20.956	5.4545	0.1	-33.898
28237	21.048	5.5455	0.1	-32.803
28238	20.771	5.4545	0.1	-32.773
28239	20.863	5.5455	0.1	-31.823
28240	20.587	5.4545	0.1	-31.705
28241	20.679	5.5455	0.1	-30.885
28242	20.402	5.4545	0.1	-30.691
28243	20.494	5.5455	0.1	-29.988
28244	20.218	5.4545	0.1	-29.727
28245	20.31	5.5455	0.1	-29.13
28246	20.033	5.4545	0.1	-28.809
28247	20.125	5.5455	0.1	-28.308
28248	19.849	5.4545	0.1	-27.936
28249	19.941	5.5455	0.1	-27.522
28250	19.664	5.4545	0.1	-27.105
28251	19.756	5.5455	0.1	-26.769
28252	19.48	5.4545	0.1	-26.313
28253	19.572	5.5455	0.1	-26.048
28254	19.295	5.4545	0.1	-25.559
28255	19.387	5.5455	0.1	-25.357
28256	19.111	5.4545	0.1	-24.84
28257	19.203	5.5455	0.1	-24.696
28258	18.926	5.4545	0.1	-24.154
28259	19.018	5.5455	0.1	-24.063
28260	18.742	5.4545	0.1	-23.499
28261	18.834	5.5455	0.1	-23.456
28262	18.557	5.4545	0.1	-22.873
28263	18.649	5.5455	0.1	-22.874
28264	18.373	5.4545	0.1	-22.275
28265	18.465	5.5455	0.1	-22.315
28266	18.188	5.4545	0.1	-21.702
28267	18.28	5.5455	0.1	-21.779
28268	18.004	5.4545	0.1	-21.153
28269	18.096	5.5455	0.1	-21.263
28270	17.819	5.4545	0.1	-20.626
28271	17.911	5.5455	0.1	-20.767
28272	17.635	5.4545	0.1	-20.119
28273	17.727	5.5455	0.1	-20.288
28274	17.45	5.4545	0.1	-19.631
28275	17.542	5.5455	0.1	-19.827
28276	17.266	5.4545	0.1	-19.161
28277	17.358	5.5455	0.1	-19.381
28278	17.081	5.4545	0.1	-18.706
28279	17.173	5.5455	0.1	-18.95
28280	16.897	5.4545	0.1	-18.264
28281	16.989	5.5455	0.1	-18.531
28282	16.712	5.4545	0.1	-17.836
28283	16.804	5.5455	0.1	-18.124
28284	16.528	5.4545	0.1	-17.418
28285	16.62	5.5455	0.1	-17.727
28286	16.343	5.4545	0.1	-17.01
28287	16.435	5.5455	0.1	-17.34
28288	16.159	5.4545	0.1	-16.61
28289	16.251	5.5455	0.1	-16.96
28290	15.974	5.4545	0.1	-16.216
28291	16.066	5.5455	0.1	-16.588
28292	15.79	5.4545	0.1	-15.828
28293	15.882	5.5455	0.1	-16.22
28294	15.605	5.4545	0.1	-15.443
28295	15.697	5.5455	0.1	-15.857
28296	15.421	5.4545	0.1	-15.06
28297	15.513	5.5455	0.1	-15.497
28298	15.236	5.4545	0.1	-14.678
28299	15.328	5.5455	0.1	-15.138
28300	15.052	5.4545	0.1	-14.295
28301	15.144	5.5455	0.1	-14.78
28302	14.867	5.4545	0.1	-13.91
28303	14.959	5.5455	0.1	-14.421
28304	14.683	5.4545	0.1	-13.52
28305	14.775	5.5455	0.1	-14.06
28306	14.498	5.4545	0.1	-13.125
28307	14.59	5.5455	0.1	-13.694
28308	14.314	5.4545	0.1	-12.722
28309	14.406	5.5455	0.1	-13.324
28310	14.129	5.4545	0.1	-12.31
28311	14.221	5.5455	0.1	-12.947
28312	13.945	5.4545	0.1	-11.887
28313	14.037	5.5455	0.1	-12.561
28314	13.76	5.4545	0.1	-11.451
28315	13.852	5.5455	0.1	-12.166
28316	13.576	5.4545	0.1	-11.
28317	13.668	5.5455	0.1	-11.76
28318	13.391	5.4545	0.1	-10.532
28319	13.483	5.5455	0.1	-11.34
28320	13.207	5.4545	0.1	-10.045
28321	13.299	5.5455	0.1	-10.905
28322	13.022	5.4545	0.1	-9.5364
28323	13.114	5.5455	0.1	-10.453
28324	12.838	5.4545	0.1	-9.0043
28325	12.93	5.5455	0.1	-9.9824
28326	12.653	5.4545	0.1	-8.4461
28327	12.745	5.5455	0.1	-9.4907
28328	12.469	5.4545	0.1	-7.8591
28329	12.561	5.5455	0.1	-8.9759
28330	12.284	5.4545	0.1	-7.2408
28331	12.376	5.5455	0.1	-8.4357
28332	12.1	5.4545	0.1	-6.5883
28333	12.192	5.5455	0.1	-7.8679
28334	11.915	5.4545	0.1	-5.8988
28335	12.007	5.5455	0.1	-7.2701
28336	11.731	5.4545	0.1	-5.1695
28337	11.823	5.5455	0.1	-6.6398
28338	11.546	5.4545	0.1	-4.3974
28339	11.638	5.5455	0.1	-5.9745
28340	11.362	5.4545	0.1	-3.5796
28341	11.454	5.5455	0.1	-5.2718
28342	11.177	5.4545	0.1	-2.7131
28343	11.269	5.5455	0.1	-4.5291
28344	10.993	5.4545	0.1	-1.7953
28345	11.085	5.5455	0.1	-3.7441
28346	10.808	5.4545	0.1	-0.8242
28347	10.9	5.5455	0.1	-2.9145
28348	10.624	5.4545	0.1	-1.1672e-002
28349	10.716	5.5455	0.1	-2.038
28350	10.439	5.4545	0.1	-4.5207e-003
28351	10.531	5.5455	0.1	-1.1131
28352	10.255	5.4545	0.1	-4.4611e-003
28353	10.347	5.5455	0.1	-0.1385
28354	10.07	5.4545	0.1	-4.9261e-003
28355	10.162	5.5455	0.1	-9.5068e-003
28356	9.8855	5.4545	0.1	-5.6007e-003
28357	9.9778	5.5455	0.1	-1.0918e-002
28358	9.701	5.4545	0.1	-6.4169e-003
28359	9.7933	5.5455	0.1	-1.2448e-002
28360	9.5165	5.4545	0.1	-7.3628e-003
28361	9.6088	5.5455	0.1	-1.41e-002
28362	9.332	5.4545	0.1	-8.4414e-003
28363	9.4243	5.5455	0.1	-1.5881e-002
28364	9.1475	5.4545	0.1	-9.664e-003
28365	9.2398	5.5455	0.1	-1.7796e-002
28366	8.963	5.4545	0.1	-1.105e-002
28367	9.0553	5.5455	0.1	-1.9856e-002
28368	8.7785	5.4545	0.1	-1.2625e-002
28369	8.8708	5.5455	0.1	-2.207e-002
28370	8.594	5.4545	0.1	-1.4423e-002
28371	8.6863	5.5455	0.1	-2.4453e-002
28372	8.4095	5.4545	0.1	-1.6488e-002
28373	8.5018	5.5455	0.1	-2.7016e-002
28374	8.225	5.4545	0.1	-1.8881e-002
28375	8.3173	5.5455	0.1	-2.978e-002
28376	8.0405	5.4545	0.1	-2.1689e-002
28377	8.1327	5.5455	0.1	-3.2779e-002
28378	7.856	5.4545	0.1	-2.5021e-002
28379	7.9482	5.5455	0.1	-3.6055e-002
28380	7.6715	5.4545	0.1	-2.9042e-002
28381	7.7637	5.5455	0.1	-3.9675e-002
28382	7.487	5.4545	0.1	-3.4001e-002
28383	7.5792	5.5455	0.1	-4.3757e-002
28384	7.3025	5.4545	0.1	-4.0296e-002
28385	7.3947	5.5455	0.1	-4.8506e-002
28386	7.118	5.4545	0.1	-4.8588e-002
28387	7.2102	5.5455	0.1	-5.4301e-002
28388	6.9335	5.4545	0.1	-6.0073e-002
28389	7.0257	5.5455	0.1	-6.187e-002
28390	6.749	5.4545	0.1	-7.7122e-002
28391	6.8412	5.5455	0.1	-7.2742e-002
28392	6.5645	5.4545	0.1	-0.1051
28393	6.6567	5.5455	0.1	-9.0514e-002
28394	6.38	5.4545	0.1	-0.15886
28395	6.4722	5.5455	0.1	-0.12544
28396	6.1955	5.4545	0.1	-0.29779
28397	6.2877	5.5455	0.1	-0.21967
28398	6.011	5.4545	0.1	-1.068
28399	6.1032	5.5455	0.1	-0.79792
28400	5.8265	5.4545	0.1	-7.0203
28401	5.9187	5.5455	0.1	-5.7322
28402	5.642	5.4545	0.1	-17.195
28403	5.7342	5.5455	0.1	-14.06
28404	5.4575	5.4545	0.1	-29.811
28405	5.5497	5.5455	0.1	-24.444
28406	5.273	5.4545	0.1	-44.858
28407	5.3652	5.5455	0.1	-36.942
28408	5.0885	5.4545	0.1	-62.354
28409	5.1807	5.5455	0.1	-51.623
28410	4.9039	5.4545	0.1	-82.182
28411	4.9962	5.5455	0.1	-68.447
28412	4.7194	5.4545	0.1	-104.01
28413	4.8117	5.5455	0.1	-87.195
28414	4.5349	5.4545	0.1	-127.24
28415	4.6272	5.5455	0.1	-107.38
28416	4.3504	5.4545	0.1	-150.96
28417	4.4427	5.5455	0.1	-128.2
28418	4.1659	5.4545	0.1	-174.09
28419	4.2582	5.5455	0.1	-148.46
28420	3.9814	5.4545	0.1	-195.84
28421	4.0737	5.5455	0.1	-166.77
28422	3.7969	5.4545	0.1	-217.11
28423	3.8892	5.5455	0.1	-182.07
28424	3.6124	5.4545	0.1	-243.85
28425	3.7047	5.5455	0.1	-195.35
28426	3.4279	5.4545	0.1	-297.31
28427	3.5202	5.5455	0.1	-213.79
28428	3.2434	5.4545	0.1	-453.42
28429	3.3357	5.5455	0.1	-266.42
28430	3.1512	5.5455	0.1	-465.75
28431	3.0589	5.4545	0.1	-463.64
28432	23.723	5.6364	0.1	-54.203
28433	23.815	5.7273	0.1	-45.52
28434	23.908	5.6364	0.1	-60.45
28435	23.539	5.6364	0.1	-49.088
28436	23.631	5.7273	0.1	-41.733
28437	23.354	5.6364	0.1	-45.97
28438	23.446	5.7273	0.1	-40.045
28439	23.17	5.6364	0.1	-43.816
28440	23.262	5.7273	0.1	-39.036
28441	22.985	5.6364	0.1	-42.137
28442	23.077	5.7273	0.1	-38.257
28443	22.801	5.6364	0.1	-40.723
28444	22.893	5.7273	0.1	-37.567
28445	22.616	5.6364	0.1	-39.467
28446	22.708	5.7273	0.1	-36.906
28447	22.432	5.6364	0.1	-38.315
28448	22.524	5.7273	0.1	-36.25
28449	22.247	5.6364	0.1	-37.234
28450	22.339	5.7273	0.1	-35.591
28451	22.063	5.6364	0.1	-36.207
28452	22.155	5.7273	0.1	-34.927
28453	21.878	5.6364	0.1	-35.224
28454	21.97	5.7273	0.1	-34.257
28455	21.694	5.6364	0.1	-34.277
28456	21.786	5.7273	0.1	-33.584
28457	21.509	5.6364	0.1	-33.364
28458	21.601	5.7273	0.1	-32.91
28459	21.325	5.6364	0.1	-32.482
28460	21.417	5.7273	0.1	-32.239
28461	21.14	5.6364	0.1	-31.629
28462	21.232	5.7273	0.1	-31.572
28463	20.956	5.6364	0.1	-30.804
28464	21.048	5.7273	0.1	-30.911
28465	20.771	5.6364	0.1	-30.007
28466	20.863	5.7273	0.1	-30.259
28467	20.587	5.6364	0.1	-29.236
28468	20.679	5.7273	0.1	-29.617
28469	20.402	5.6364	0.1	-28.492
28470	20.494	5.7273	0.1	-28.987
28471	20.218	5.6364	0.1	-27.773
28472	20.31	5.7273	0.1	-28.369
28473	20.033	5.6364	0.1	-27.08
28474	20.125	5.7273	0.1	-27.765
28475	19.849	5.6364	0.1	-26.411
28476	19.941	5.7273	0.1	-27.175
28477	19.664	5.6364	0.1	-25.766
28478	19.756	5.7273	0.1	-26.6
28479	19.48	5.6364	0.1	-25.145
28480	19.572	5.7273	0.1	-26.04
28481	19.295	5.6364	0.1	-24.546
28482	19.387	5.7273	0.1	-25.495
28483	19.111	5.6364	0.1	-23.969
28484	19.203	5.7273	0.1	-24.965
28485	18.926	5.6364	0.1	-23.414
28486	19.018	5.7273	0.1	-24.451
28487	18.742	5.6364	0.1	-22.878
28488	18.834	5.7273	0.1	-23.951
28489	18.557	5.6364	0.1	-22.362
28490	18.649	5.7273	0.1	-23.466
28491	18.373	5.6364	0.1	-21.864
28492	18.465	5.7273	0.1	-22.996
28493	18.188	5.6364	0.1	-21.384
28494	18.28	5.7273	0.1	-22.539
28495	18.004	5.6364	0.1	-20.92
28496	18.096	5.7273	0.1	-22.095
28497	17.819	5.6364	0.1	-20.471
28498	17.911	5.7273	0.1	-21.665
28499	17.635	5.6364	0.1	-20.038
28500	17.727	5.7273	0.1	-21.246
28501	17.45	5.6364	0.1	-19.618
28502	17.542	5.7273	0.1	-20.839
28503	17.266	5.6364	0.1	-19.21
28504	17.358	5.7273	0.1	-20.443
28505	17.081	5.6364	0.1	-18.814
28506	17.173	5.7273	0.1	-20.057
28507	16.897	5.6364	0.1	-18.429
28508	16.989	5.7273	0.1	-19.681
28509	16.712	5.6364	0.1	-18.053
28510	16.804	5.7273	0.1	-19.313
28511	16.528	5.6364	0.1	-17.686
28512	16.62	5.7273	0.1	-18.954
28513	16.343	5.6364	0.1	-17.327
28514	16.435	5.7273	0.1	-18.602
28515	16.159	5.6364	0.1	-16.974
28516	16.251	5.7273	0.1	-18.257
28517	15.974	5.6364	0.1	-16.627
28518	16.066	5.7273	0.1	-17.917
28519	15.79	5.6364	0.1	-16.284
28520	15.882	5.7273	0.1	-17.582
28521	15.605	5.6364	0.1	-15.945
28522	15.697	5.7273	0.1	-17.252
28523	15.421	5.6364	0.1	-15.609
28524	15.513	5.7273	0.1	-16.924
28525	15.236	5.6364	0.1	-15.274
28526	15.328	5.7273	0.1	-16.6
28527	15.052	5.6364	0.1	-14.939
28528	15.144	5.7273	0.1	-16.277
28529	14.867	5.6364	0.1	-14.603
28530	14.959	5.7273	0.1	-15.954
28531	14.683	5.6364	0.1	-14.266
28532	14.775	5.7273	0.1	-15.631
28533	14.498	5.6364	0.1	-13.925
28534	14.59	5.7273	0.1	-15.307
28535	14.314	5.6364	0.1	-13.58
28536	14.406	5.7273	0.1	-14.981
28537	14.129	5.6364	0.1	-13.229
28538	14.221	5.7273	0.1	-14.652
28539	13.945	5.6364	0.1	-12.871
28540	14.037	5.7273	0.1	-14.318
28541	13.76	5.6364	0.1	-12.505
28542	13.852	5.7273	0.1	-13.979
28543	13.576	5.6364	0.1	-12.129
28544	13.668	5.7273	0.1	-13.633
28545	13.391	5.6364	0.1	-11.742
28546	13.483	5.7273	0.1	-13.28
28547	13.207	5.6364	0.1	-11.342
28548	13.299	5.7273	0.1	-12.918
28549	13.022	5.6364	0.1	-10.927
28550	13.114	5.7273	0.1	-12.545
28551	12.838	5.6364	0.1	-10.497
28552	12.93	5.7273	0.1	-12.161
28553	12.653	5.6364	0.1	-10.048
28554	12.745	5.7273	0.1	-11.763
28555	12.469	5.6364	0.1	-9.5797
28556	12.561	5.7273	0.1	-11.352
28557	12.284	5.6364	0.1	-9.0897
28558	12.376	5.7273	0.1	-10.924
28559	12.1	5.6364	0.1	-8.5762
28560	12.192	5.7273	0.1	-10.479
28561	11.915	5.6364	0.1	-8.0371
28562	12.007	5.7273	0.1	-10.014
28563	11.731	5.6364	0.1	-7.4705
28564	11.823	5.7273	0.1	-9.529
28565	11.546	5.6364	0.1	-6.8743
28566	11.638	5.7273	0.1	-9.0215
28567	11.362	5.6364	0.1	-6.2465
28568	11.454	5.7273	0.1	-8.49
28569	11.177	5.6364	0.1	-5.5852
28570	11.269	5.7273	0.1	-7.9331
28571	10.993	5.6364	0.1	-4.8884
28572	11.085	5.7273	0.1	-7.3491
28573	10.808	5.6364	0.1	-4.1545
28574	10.9	5.7273	0.1	-6.7368
28575	10.624	5.6364	0.1	-3.382
28576	10.716	5.7273	0.1	-6.0948
28577	10.439	5.6364	0.1	-2.57
28578	10.531	5.7273	0.1	-5.4224
28579	10.255	5.6364	0.1	-1.718
28580	10.347	5.7273	0.1	-4.719
28581	10.07	5.6364	0.1	-0.8282
28582	10.162	5.7273	0.1	-3.9847
28583	9.8855	5.6364	0.1	-5.546e-002
28584	9.9778	5.7273	0.1	-3.2205
28585	9.701	5.6364	0.1	-2.7393e-002
28586	9.7933	5.7273	0.1	-2.4291
28587	9.5165	5.6364	0.1	-2.7318e-002
28588	9.6088	5.7273	0.1	-1.6181
28589	9.332	5.6364	0.1	-2.9036e-002
28590	9.4243	5.7273	0.1	-0.81697
28591	9.1475	5.6364	0.1	-3.1359e-002
28592	9.2398	5.7273	0.1	-0.2363
28593	8.963	5.6364	0.1	-3.4021e-002
28594	9.0553	5.7273	0.1	-0.10172
28595	8.7785	5.6364	0.1	-3.6922e-002
28596	8.8708	5.7273	0.1	-7.3008e-002
28597	8.594	5.6364	0.1	-4.0014e-002
28598	8.6863	5.7273	0.1	-6.2989e-002
28599	8.4095	5.6364	0.1	-4.3265e-002
28600	8.5018	5.7273	0.1	-5.9068e-002
28601	8.225	5.6364	0.1	-4.6655e-002
28602	8.3173	5.7273	0.1	-5.794e-002
28603	8.0405	5.6364	0.1	-5.017e-002
28604	8.1327	5.7273	0.1	-5.8398e-002
28605	7.856	5.6364	0.1	-5.3806e-002
28606	7.9482	5.7273	0.1	-5.9918e-002
28607	7.6715	5.6364	0.1	-5.7587e-002
28608	7.7637	5.7273	0.1	-6.2271e-002
28609	7.487	5.6364	0.1	-6.1599e-002
28610	7.5792	5.7273	0.1	-6.5412e-002
28611	7.3025	5.6364	0.1	-6.6054e-002
28612	7.3947	5.7273	0.1	-6.948e-002
28613	7.118	5.6364	0.1	-7.1454e-002
28614	7.2102	5.7273	0.1	-7.4904e-002
28615	6.9335	5.6364	0.1	-7.8997e-002
28616	7.0257	5.7273	0.1	-8.2748e-002
28617	6.749	5.6364	0.1	-9.1838e-002
28618	6.8412	5.7273	0.1	-9.5802e-002
28619	6.5645	5.6364	0.1	-0.12016
28620	6.6567	5.7273	0.1	-0.12315
28621	6.38	5.6364	0.1	-0.21599
28622	6.4722	5.7273	0.1	-0.21323
28623	6.1955	5.6364	0.1	-1.2207
28624	6.2877	5.7273	0.1	-1.0981
28625	6.011	5.6364	0.1	-6.084
28626	6.1032	5.7273	0.1	-4.5197
28627	5.8265	5.6364	0.1	-12.883
28628	5.9187	5.7273	0.1	-9.2876
28629	5.642	5.6364	0.1	-21.336
28630	5.7342	5.7273	0.1	-15.309
28631	5.4575	5.6364	0.1	-31.557
28632	5.5497	5.7273	0.1	-22.71
28633	5.273	5.6364	0.1	-43.634
28634	5.3652	5.7273	0.1	-31.614
28635	5.0885	5.6364	0.1	-57.563
28636	5.1807	5.7273	0.1	-42.102
28637	4.9039	5.6364	0.1	-73.182
28638	4.9962	5.7273	0.1	-54.175
28639	4.7194	5.6364	0.1	-90.097
28640	4.8117	5.7273	0.1	-67.697
28641	4.5349	5.6364	0.1	-107.58
28642	4.6272	5.7273	0.1	-82.326
28643	4.3504	5.6364	0.1	-124.5
28644	4.4427	5.7273	0.1	-97.429
28645	4.1659	5.6364	0.1	-139.27
28646	4.2582	5.7273	0.1	-112.
28647	3.9814	5.6364	0.1	-150.05
28648	4.0737	5.7273	0.1	-124.63
28649	3.7969	5.6364	0.1	-155.43
28650	3.8892	5.7273	0.1	-133.65
28651	3.6124	5.6364	0.1	-156.29
28652	3.7047	5.7273	0.1	-137.8
28653	3.4279	5.6364	0.1	-163.59
28654	3.5202	5.7273	0.1	-137.85
28655	3.2434	5.6364	0.1	-234.05
28656	3.3357	5.7273	0.1	-146.91
28657	3.1512	5.7273	0.1	-239.47
28658	3.0589	5.6364	0.1	-238.86
28659	23.723	5.8182	0.1	-33.699
28660	23.815	5.9091	0.1	-21.46
28661	23.908	5.8182	0.1	-34.931
28662	23.539	5.8182	0.1	-33.395
28663	23.631	5.9091	0.1	-22.146
28664	23.354	5.8182	0.1	-33.738
28665	23.446	5.9091	0.1	-22.582
28666	23.17	5.8182	0.1	-34.017
28667	23.262	5.9091	0.1	-22.88
28668	22.985	5.8182	0.1	-34.158
28669	23.077	5.9091	0.1	-23.009
28670	22.801	5.8182	0.1	-34.169
28671	22.893	5.9091	0.1	-23.024
28672	22.616	5.8182	0.1	-34.067
28673	22.708	5.9091	0.1	-22.95
28674	22.432	5.8182	0.1	-33.873
28675	22.524	5.9091	0.1	-22.809
28676	22.247	5.8182	0.1	-33.605
28677	22.339	5.9091	0.1	-22.616
28678	22.063	5.8182	0.1	-33.276
28679	22.155	5.9091	0.1	-22.383
28680	21.878	5.8182	0.1	-32.9
28681	21.97	5.9091	0.1	-22.118
28682	21.694	5.8182	0.1	-32.485
28683	21.786	5.9091	0.1	-21.829
28684	21.509	5.8182	0.1	-32.04
28685	21.601	5.9091	0.1	-21.522
28686	21.325	5.8182	0.1	-31.573
28687	21.417	5.9091	0.1	-21.2
28688	21.14	5.8182	0.1	-31.089
28689	21.232	5.9091	0.1	-20.868
28690	20.956	5.8182	0.1	-30.593
28691	21.048	5.9091	0.1	-20.53
28692	20.771	5.8182	0.1	-30.089
28693	20.863	5.9091	0.1	-20.186
28694	20.587	5.8182	0.1	-29.581
28695	20.679	5.9091	0.1	-19.841
28696	20.402	5.8182	0.1	-29.071
28697	20.494	5.9091	0.1	-19.496
28698	20.218	5.8182	0.1	-28.562
28699	20.31	5.9091	0.1	-19.151
28700	20.033	5.8182	0.1	-28.056
28701	20.125	5.9091	0.1	-18.81
28702	19.849	5.8182	0.1	-27.555
28703	19.941	5.9091	0.1	-18.472
28704	19.664	5.8182	0.1	-27.06
28705	19.756	5.9091	0.1	-18.138
28706	19.48	5.8182	0.1	-26.572
28707	19.572	5.9091	0.1	-17.809
28708	19.295	5.8182	0.1	-26.092
28709	19.387	5.9091	0.1	-17.487
28710	19.111	5.8182	0.1	-25.621
28711	19.203	5.9091	0.1	-17.17
28712	18.926	5.8182	0.1	-25.16
28713	19.018	5.9091	0.1	-16.86
28714	18.742	5.8182	0.1	-24.707
28715	18.834	5.9091	0.1	-16.556
28716	18.557	5.8182	0.1	-24.265
28717	18.649	5.9091	0.1	-16.259
28718	18.373	5.8182	0.1	-23.832
28719	18.465	5.9091	0.1	-15.969
28720	18.188	5.8182	0.1	-23.409
28721	18.28	5.9091	0.1	-15.685
28722	18.004	5.8182	0.1	-22.996
28723	18.096	5.9091	0.1	-15.409
28724	17.819	5.8182	0.1	-22.593
28725	17.911	5.9091	0.1	-15.139
28726	17.635	5.8182	0.1	-22.198
28727	17.727	5.9091	0.1	-14.875
28728	17.45	5.8182	0.1	-21.813
28729	17.542	5.9091	0.1	-14.617
28730	17.266	5.8182	0.1	-21.436
28731	17.358	5.9091	0.1	-14.366
28732	17.081	5.8182	0.1	-21.068
28733	17.173	5.9091	0.1	-14.12
28734	16.897	5.8182	0.1	-20.707
28735	16.989	5.9091	0.1	-13.88
28736	16.712	5.8182	0.1	-20.354
28737	16.804	5.9091	0.1	-13.645
28738	16.528	5.8182	0.1	-20.007
28739	16.62	5.9091	0.1	-13.415
28740	16.343	5.8182	0.1	-19.667
28741	16.435	5.9091	0.1	-13.19
28742	16.159	5.8182	0.1	-19.333
28743	16.251	5.9091	0.1	-12.968
28744	15.974	5.8182	0.1	-19.004
28745	16.066	5.9091	0.1	-12.751
28746	15.79	5.8182	0.1	-18.679
28747	15.882	5.9091	0.1	-12.537
28748	15.605	5.8182	0.1	-18.358
28749	15.697	5.9091	0.1	-12.326
28750	15.421	5.8182	0.1	-18.041
28751	15.513	5.9091	0.1	-12.118
28752	15.236	5.8182	0.1	-17.727
28753	15.328	5.9091	0.1	-11.913
28754	15.052	5.8182	0.1	-17.414
28755	15.144	5.9091	0.1	-11.709
28756	14.867	5.8182	0.1	-17.103
28757	14.959	5.9091	0.1	-11.507
28758	14.683	5.8182	0.1	-16.792
28759	14.775	5.9091	0.1	-11.306
28760	14.498	5.8182	0.1	-16.481
28761	14.59	5.9091	0.1	-11.105
28762	14.314	5.8182	0.1	-16.169
28763	14.406	5.9091	0.1	-10.905
28764	14.129	5.8182	0.1	-15.855
28765	14.221	5.9091	0.1	-10.704
28766	13.945	5.8182	0.1	-15.539
28767	14.037	5.9091	0.1	-10.502
28768	13.76	5.8182	0.1	-15.219
28769	13.852	5.9091	0.1	-10.299
28770	13.576	5.8182	0.1	-14.894
28771	13.668	5.9091	0.1	-10.094
28772	13.391	5.8182	0.1	-14.564
28773	13.483	5.9091	0.1	-9.8866
28774	13.207	5.8182	0.1	-14.228
28775	13.299	5.9091	0.1	-9.676
28776	13.022	5.8182	0.1	-13.884
28777	13.114	5.9091	0.1	-9.4618
28778	12.838	5.8182	0.1	-13.532
28779	12.93	5.9091	0.1	-9.2432
28780	12.653	5.8182	0.1	-13.17
28781	12.745	5.9091	0.1	-9.0197
28782	12.469	5.8182	0.1	-12.797
28783	12.561	5.9091	0.1	-8.7907
28784	12.284	5.8182	0.1	-12.412
28785	12.376	5.9091	0.1	-8.5553
28786	12.1	5.8182	0.1	-12.015
28787	12.192	5.9091	0.1	-8.3129
28788	11.915	5.8182	0.1	-11.603
28789	12.007	5.9091	0.1	-8.0629
28790	11.731	5.8182	0.1	-11.175
28791	11.823	5.9091	0.1	-7.8045
28792	11.546	5.8182	0.1	-10.731
28793	11.638	5.9091	0.1	-7.5369
28794	11.362	5.8182	0.1	-10.269
28795	11.454	5.9091	0.1	-7.2595
28796	11.177	5.8182	0.1	-9.7875
28797	11.269	5.9091	0.1	-6.9717
28798	10.993	5.8182	0.1	-9.2863
28799	11.085	5.9091	0.1	-6.6726
28800	10.808	5.8182	0.1	-8.7639
28801	10.9	5.9091	0.1	-6.3619
28802	10.624	5.8182	0.1	-8.2199
28803	10.716	5.9091	0.1	-6.0388
28804	10.439	5.8182	0.1	-7.6536
28805	10.531	5.9091	0.1	-5.7032
28806	10.255	5.8182	0.1	-7.0648
28807	10.347	5.9091	0.1	-5.3547
28808	10.07	5.8182	0.1	-6.4539
28809	10.162	5.9091	0.1	-4.9932
28810	9.8855	5.8182	0.1	-5.8216
28811	9.9778	5.9091	0.1	-4.6191
28812	9.701	5.8182	0.1	-5.1697
28813	9.7933	5.9091	0.1	-4.2328
28814	9.5165	5.8182	0.1	-4.5006
28815	9.6088	5.9091	0.1	-3.8354
28816	9.332	5.8182	0.1	-3.8187
28817	9.4243	5.9091	0.1	-3.4286
28818	9.1475	5.8182	0.1	-3.1303
28819	9.2398	5.9091	0.1	-3.0145
28820	8.963	5.8182	0.1	-2.4455
28821	9.0553	5.9091	0.1	-2.5965
28822	8.7785	5.8182	0.1	-1.782
28823	8.8708	5.9091	0.1	-2.1792
28824	8.594	5.8182	0.1	-1.175
28825	8.6863	5.9091	0.1	-1.7691
28826	8.4095	5.8182	0.1	-0.69589
28827	8.5018	5.9091	0.1	-1.3753
28828	8.225	5.8182	0.1	-0.41503
28829	8.3173	5.9091	0.1	-1.0117
28830	8.0405	5.8182	0.1	-0.28606
28831	8.1327	5.9091	0.1	-0.69953
28832	7.856	5.8182	0.1	-0.22665
28833	7.9482	5.9091	0.1	-0.4653
28834	7.6715	5.8182	0.1	-0.1977
28835	7.7637	5.9091	0.1	-0.31962
28836	7.487	5.8182	0.1	-0.18487
28837	7.5792	5.9091	0.1	-0.24011
28838	7.3025	5.8182	0.1	-0.1836
28839	7.3947	5.9091	0.1	-0.19742
28840	7.118	5.8182	0.1	-0.19523
28841	7.2102	5.9091	0.1	-0.1748
28842	6.9335	5.8182	0.1	-0.23107
28843	7.0257	5.9091	0.1	-0.16754
28844	6.749	5.8182	0.1	-0.34567
28845	6.8412	5.9091	0.1	-0.19497
28846	6.5645	5.8182	0.1	-0.87001
28847	6.6567	5.9091	0.1	-0.47822
28848	6.38	5.8182	0.1	-2.3732
28849	6.4722	5.9091	0.1	-1.2267
28850	6.1955	5.8182	0.1	-4.6929
28851	6.2877	5.9091	0.1	-2.3255
28852	6.011	5.8182	0.1	-7.7904
28853	6.1032	5.9091	0.1	-3.8049
28854	5.8265	5.8182	0.1	-11.756
28855	5.9187	5.9091	0.1	-5.7251
28856	5.642	5.8182	0.1	-16.708
28857	5.7342	5.9091	0.1	-8.154
28858	5.4575	5.8182	0.1	-22.768
28859	5.5497	5.9091	0.1	-11.162
28860	5.273	5.8182	0.1	-30.045
28861	5.3652	5.9091	0.1	-14.817
28862	5.0885	5.8182	0.1	-38.617
28863	5.1807	5.9091	0.1	-19.175
28864	4.9039	5.8182	0.1	-48.499
28865	4.9962	5.9091	0.1	-24.265
28866	4.7194	5.8182	0.1	-59.595
28867	4.8117	5.9091	0.1	-30.066
28868	4.5349	5.8182	0.1	-71.637
28869	4.6272	5.9091	0.1	-36.474
28870	4.3504	5.8182	0.1	-84.106
28871	4.4427	5.9091	0.1	-43.253
28872	4.1659	5.8182	0.1	-96.143
28873	4.2582	5.9091	0.1	-49.972
28874	3.9814	5.8182	0.1	-106.48
28875	4.0737	5.9091	0.1	-55.936
28876	3.7969	5.8182	0.1	-113.51
28877	3.8892	5.9091	0.1	-60.103
28878	3.6124	5.8182	0.1	-115.38
28879	3.7047	5.9091	0.1	-61.134
28880	3.4279	5.8182	0.1	-112.96
28881	3.5202	5.9091	0.1	-57.187
28882	3.2434	5.8182	0.1	-124.15
28883	3.3357	5.9091	0.1	-49.799
28884	3.0589	5.8182	0.1	-72.886
28885	3.1512	5.9091	0.1	-60.706
28886	0.175	0.27273	0.1	-454.34
28887	0.2625	0.18182	0.1	-166.52
28888	8.75e-002	0.18182	0.1	409.89
28889	0.175	9.0909e-002	0.1	-205.95
28890	0.175	0.45455	0.1	-677.16
28891	0.2625	0.36364	0.1	-237.15
28892	8.75e-002	0.36364	0.1	831.25
28893	0.175	0.63636	0.1	-784.47
28894	0.2625	0.54545	0.1	-279.42
28895	8.75e-002	0.54545	0.1	1026.7
28896	0.175	0.81818	0.1	-854.67
28897	0.2625	0.72727	0.1	-310.45
28898	8.75e-002	0.72727	0.1	1143.6
28899	0.175	1.	0.1	-902.35
28900	0.2625	0.90909	0.1	-330.49
28901	8.75e-002	0.90909	0.1	1223.6
28902	0.175	1.1818	0.1	-937.06
28903	0.2625	1.0909	0.1	-345.18
28904	8.75e-002	1.0909	0.1	1280.8
28905	0.175	1.3636	0.1	-962.62
28906	0.2625	1.2727	0.1	-355.92
28907	8.75e-002	1.2727	0.1	1323.2
28908	0.175	1.5455	0.1	-981.64
28909	0.2625	1.4545	0.1	-363.94
28910	8.75e-002	1.4545	0.1	1354.9
28911	0.175	1.7273	0.1	-995.76
28912	0.2625	1.6364	0.1	-369.89
28913	8.75e-002	1.6364	0.1	1378.7
28914	0.175	1.9091	0.1	-1006.2
28915	0.2625	1.8182	0.1	-374.3
28916	8.75e-002	1.8182	0.1	1396.4
28917	0.175	2.0909	0.1	-1013.7
28918	0.2625	2.	0.1	-377.54
28919	8.75e-002	2.	0.1	1409.6
28920	0.175	2.2727	0.1	-1019.2
28921	0.2625	2.1818	0.1	-379.87
28922	8.75e-002	2.1818	0.1	1419.2
28923	0.175	2.4545	0.1	-1023.
28924	0.2625	2.3636	0.1	-381.53
28925	8.75e-002	2.3636	0.1	1426.1
28926	0.175	2.6364	0.1	-1025.5
28927	0.2625	2.5455	0.1	-382.66
28928	8.75e-002	2.5455	0.1	1430.8
28929	0.175	2.8182	0.1	-1026.9
28930	0.2625	2.7273	0.1	-383.36
28931	8.75e-002	2.7273	0.1	1433.8
28932	0.175	3.	0.1	-1027.3
28933	0.2625	2.9091	0.1	-383.7
28934	8.75e-002	2.9091	0.1	1435.2
28935	0.175	3.1818	0.1	-1026.9
28936	0.2625	3.0909	0.1	-383.7
28937	8.75e-002	3.0909	0.1	1435.2
28938	0.175	3.3636	0.1	-1025.5
28939	0.2625	3.2727	0.1	-383.36
28940	8.75e-002	3.2727	0.1	1433.8
28941	0.175	3.5455	0.1	-1023.
28942	0.2625	3.4545	0.1	-382.66
28943	8.75e-002	3.4545	0.1	1430.8
28944	0.175	3.7273	0.1	-1019.2
28945	0.2625	3.6364	0.1	-381.53
28946	8.75e-002	3.6364	0.1	1426.1
28947	0.175	3.9091	0.1	-1013.7
28948	0.2625	3.8182	0.1	-379.87
28949	8.75e-002	3.8182	0.1	1419.2
28950	0.175	4.0909	0.1	-1006.2
28951	0.2625	4.	0.1	-377.54
28952	8.75e-002	4.	0.1	1409.6
28953	0.175	4.2727	0.1	-995.76
28954	0.2625	4.1818	0.1	-374.3
28955	8.75e-002	4.1818	0.1	1396.4
28956	0.175	4.4545	0.1	-981.64
28957	0.2625	4.3636	0.1	-369.89
28958	8.75e-002	4.3636	0.1	1378.7
28959	0.175	4.6364	0.1	-962.62
28960	0.2625	4.5455	0.1	-363.94
28961	8.75e-002	4.5455	0.1	1354.9
28962	0.175	4.8182	0.1	-937.06
28963	0.2625	4.7273	0.1	-355.92
28964	8.75e-002	4.7273	0.1	1323.2
28965	0.175	5.	0.1	-902.35
28966	0.2625	4.9091	0.1	-345.18
28967	8.75e-002	4.9091	0.1	1280.8
28968	0.175	5.1818	0.1	-854.67
28969	0.2625	5.0909	0.1	-330.49
28970	8.75e-002	5.0909	0.1	1223.6
28971	0.175	5.3636	0.1	-784.47
28972	0.2625	5.2727	0.1	-310.45
28973	8.75e-002	5.2727	0.1	1143.6
28974	0.175	5.5455	0.1	-677.16
28975	0.2625	5.4545	0.1	-279.42
28976	8.75e-002	5.4545	0.1	1026.7
28977	0.175	5.7273	0.1	-454.34
28978	0.2625	5.6364	0.1	-237.15
28979	8.75e-002	5.6364	0.1	831.24
28980	0.2625	5.8182	0.1	-166.52
28981	8.75e-002	5.8182	0.1	409.89
28982	0.175	5.9091	0.1	-205.95
28983	0.35	0.27273	0.1	89.79
28984	0.4375	0.18182	0.1	-114.97
28985	0.35	9.0909e-002	0.1	-131.04
28986	0.35	0.45455	0.1	161.2
28987	0.4375	0.36364	0.1	48.034
28988	0.35	0.63636	0.1	194.59
28989	0.4375	0.54545	0.1	66.507
28990	0.35	0.81818	0.1	213.67
28991	0.4375	0.72727	0.1	75.806
28992	0.35	1.	0.1	226.64
28993	0.4375	0.90909	0.1	81.81
28994	0.35	1.1818	0.1	235.92
28995	0.4375	1.0909	0.1	86.007
28996	0.35	1.3636	0.1	242.74
28997	0.4375	1.2727	0.1	89.056
28998	0.35	1.5455	0.1	247.79
28999	0.4375	1.4545	0.1	91.314
29000	0.35	1.7273	0.1	251.54
29001	0.4375	1.6364	0.1	92.993
29002	0.35	1.9091	0.1	254.31
29003	0.4375	1.8182	0.1	94.237
29004	0.35	2.0909	0.1	256.32
29005	0.4375	2.	0.1	95.15
29006	0.35	2.2727	0.1	257.76
29007	0.4375	2.1818	0.1	95.809
29008	0.35	2.4545	0.1	258.77
29009	0.4375	2.3636	0.1	96.274
29010	0.35	2.6364	0.1	259.43
29011	0.4375	2.5455	0.1	96.588
29012	0.35	2.8182	0.1	259.8
29013	0.4375	2.7273	0.1	96.782
29014	0.35	3.	0.1	259.92
29015	0.4375	2.9091	0.1	96.874
29016	0.35	3.1818	0.1	259.8
29017	0.4375	3.0909	0.1	96.874
29018	0.35	3.3636	0.1	259.43
29019	0.4375	3.2727	0.1	96.782
29020	0.35	3.5455	0.1	258.77
29021	0.4375	3.4545	0.1	96.588
29022	0.35	3.7273	0.1	257.76
29023	0.4375	3.6364	0.1	96.274
29024	0.35	3.9091	0.1	256.32
29025	0.4375	3.8182	0.1	95.809
29026	0.35	4.0909	0.1	254.31
29027	0.4375	4.	0.1	95.15
29028	0.35	4.2727	0.1	251.54
29029	0.4375	4.1818	0.1	94.237
29030	0.35	4.4545	0.1	247.79
29031	0.4375	4.3636	0.1	92.993
29032	0.35	4.6364	0.1	242.74
29033	0.4375	4.5455	0.1	91.314
29034	0.35	4.8182	0.1	235.92
29035	0.4375	4.7273	0.1	89.056
29036	0.35	5.	0.1	226.64
29037	0.4375	4.9091	0.1	86.007
29038	0.35	5.1818	0.1	213.67
29039	0.4375	5.0909	0.1	81.81
29040	0.35	5.3636	0.1	194.59
29041	0.4375	5.2727	0.1	75.806
29042	0.35	5.5455	0.1	161.2
29043	0.4375	5.4545	0.1	66.507
29044	0.35	5.7273	0.1	89.79
29045	0.4375	5.6364	0.1	48.034
29046	0.4375	5.8182	0.1	-114.97
29047	0.35	5.9091	0.1	-131.04
29048	0.525	0.27273	0.1	-37.428
29049	0.6125	0.18182	0.1	-129.63
29050	0.525	9.0909e-002	0.1	-123.88
29051	0.525	0.45455	0.1	-45.318
29052	0.6125	0.36364	0.1	-18.693
29053	0.525	0.63636	0.1	-52.002
29054	0.6125	0.54545	0.1	-19.951
29055	0.525	0.81818	0.1	-55.965
29056	0.6125	0.72727	0.1	-21.225
29057	0.525	1.	0.1	-58.791
29058	0.6125	0.90909	0.1	-22.183
29059	0.525	1.1818	0.1	-60.849
29060	0.6125	1.0909	0.1	-22.932
29061	0.525	1.3636	0.1	-62.363
29062	0.6125	1.2727	0.1	-23.487
29063	0.525	1.5455	0.1	-63.483
29064	0.6125	1.4545	0.1	-23.899
29065	0.525	1.7273	0.1	-64.311
29066	0.6125	1.6364	0.1	-24.201
29067	0.525	1.9091	0.1	-64.919
29068	0.6125	1.8182	0.1	-24.421
29069	0.525	2.0909	0.1	-65.363
29070	0.6125	2.	0.1	-24.581
29071	0.525	2.2727	0.1	-65.682
29072	0.6125	2.1818	0.1	-24.699
29073	0.525	2.4545	0.1	-65.908
29074	0.6125	2.3636	0.1	-24.786
29075	0.525	2.6364	0.1	-66.058
29076	0.6125	2.5455	0.1	-24.849
29077	0.525	2.8182	0.1	-66.145
29078	0.6125	2.7273	0.1	-24.891
29079	0.525	3.	0.1	-66.173
29080	0.6125	2.9091	0.1	-24.912
29081	0.525	3.1818	0.1	-66.145
29082	0.6125	3.0909	0.1	-24.912
29083	0.525	3.3636	0.1	-66.058
29084	0.6125	3.2727	0.1	-24.891
29085	0.525	3.5455	0.1	-65.908
29086	0.6125	3.4545	0.1	-24.849
29087	0.525	3.7273	0.1	-65.682
29088	0.6125	3.6364	0.1	-24.786
29089	0.525	3.9091	0.1	-65.363
29090	0.6125	3.8182	0.1	-24.699
29091	0.525	4.0909	0.1	-64.919
29092	0.6125	4.	0.1	-24.581
29093	0.525	4.2727	0.1	-64.311
29094	0.6125	4.1818	0.1	-24.421
29095	0.525	4.4545	0.1	-63.483
29096	0.6125	4.3636	0.1	-24.201
29097	0.525	4.6364	0.1	-62.363
29098	0.6125	4.5455	0.1	-23.899
29099	0.525	4.8182	0.1	-60.849
29100	0.6125	4.7273	0.1	-23.487
29101	0.525	5.	0.1	-58.791
29102	0.6125	4.9091	0.1	-22.932
29103	0.525	5.1818	0.1	-55.965
29104	0.6125	5.0909	0.1	-22.183
29105	0.525	5.3636	0.1	-52.002
29106	0.6125	5.2727	0.1	-21.225
29107	0.525	5.5455	0.1	-45.318
29108	0.6125	5.4545	0.1	-19.951
29109	0.525	5.7273	0.1	-37.428
29110	0.6125	5.6364	0.1	-18.693
29111	0.6125	5.8182	0.1	-129.63
29112	0.525	5.9091	0.1	-123.88
29113	0.7	0.27273	0.1	-8.3901
29114	0.7875	0.18182	0.1	-126.57
29115	0.7	9.0909e-002	0.1	-103.73
29116	0.7	0.45455	0.1	7.5939
29117	0.7875	0.36364	0.1	-1.5999
29118	0.7	0.63636	0.1	11.012
29119	0.7875	0.54545	0.1	2.4738
29120	0.7	0.81818	0.1	12.618
29121	0.7875	0.72727	0.1	3.6151
29122	0.7	1.	0.1	13.697
29123	0.7875	0.90909	0.1	4.3428
29124	0.7	1.1818	0.1	14.437
29125	0.7875	1.0909	0.1	4.7826
29126	0.7	1.3636	0.1	14.979
29127	0.7875	1.2727	0.1	5.0935
29128	0.7	1.5455	0.1	15.385
29129	0.7875	1.4545	0.1	5.3202
29130	0.7	1.7273	0.1	15.69
29131	0.7875	1.6364	0.1	5.4921
29132	0.7	1.9091	0.1	15.917
29133	0.7875	1.8182	0.1	5.6224
29134	0.7	2.0909	0.1	16.082
29135	0.7875	2.	0.1	5.7183
29136	0.7	2.2727	0.1	16.197
29137	0.7875	2.1818	0.1	5.7842
29138	0.7	2.4545	0.1	16.273
29139	0.7875	2.3636	0.1	5.8248
29140	0.7	2.6364	0.1	16.319
29141	0.7875	2.5455	0.1	5.846
29142	0.7	2.8182	0.1	16.342
29143	0.7875	2.7273	0.1	5.8547
29144	0.7	3.	0.1	16.35
29145	0.7875	2.9091	0.1	5.8571
29146	0.7	3.1818	0.1	16.342
29147	0.7875	3.0909	0.1	5.8571
29148	0.7	3.3636	0.1	16.319
29149	0.7875	3.2727	0.1	5.8547
29150	0.7	3.5455	0.1	16.273
29151	0.7875	3.4545	0.1	5.846
29152	0.7	3.7273	0.1	16.197
29153	0.7875	3.6364	0.1	5.8248
29154	0.7	3.9091	0.1	16.082
29155	0.7875	3.8182	0.1	5.7842
29156	0.7	4.0909	0.1	15.917
29157	0.7875	4.	0.1	5.7183
29158	0.7	4.2727	0.1	15.69
29159	0.7875	4.1818	0.1	5.6224
29160	0.7	4.4545	0.1	15.385
29161	0.7875	4.3636	0.1	5.4921
29162	0.7	4.6364	0.1	14.979
29163	0.7875	4.5455	0.1	5.3202
29164	0.7	4.8182	0.1	14.437
29165	0.7875	4.7273	0.1	5.0935
29166	0.7	5.	0.1	13.697
29167	0.7875	4.9091	0.1	4.7826
29168	0.7	5.1818	0.1	12.618
29169	0.7875	5.0909	0.1	4.3428
29170	0.7	5.3636	0.1	11.012
29171	0.7875	5.2727	0.1	3.6151
29172	0.7	5.5455	0.1	7.5939
29173	0.7875	5.4545	0.1	2.4738
29174	0.7	5.7273	0.1	-8.3901
29175	0.7875	5.6364	0.1	-1.5999
29176	0.7875	5.8182	0.1	-126.57
29177	0.7	5.9091	0.1	-103.73
29178	0.875	0.27273	0.1	-21.174
29179	0.9625	0.18182	0.1	-129.37
29180	0.875	9.0909e-002	0.1	-96.372
29181	0.875	0.45455	0.1	-5.5926
29182	0.9625	0.36364	0.1	-6.5805
29183	0.875	0.63636	0.1	-4.7314
29184	0.9625	0.54545	0.1	-3.2295
29185	0.875	0.81818	0.1	-4.5956
29186	0.9625	0.72727	0.1	-2.6451
29187	0.875	1.	0.1	-4.5461
29188	0.9625	0.90909	0.1	-2.3425
29189	0.875	1.1818	0.1	-4.5497
29190	0.9625	1.0909	0.1	-2.2075
29191	0.875	1.3636	0.1	-4.5607
29192	0.9625	1.2727	0.1	-2.1295
29193	0.875	1.5455	0.1	-4.5697
29194	0.9625	1.4545	0.1	-2.0812
29195	0.875	1.7273	0.1	-4.5735
29196	0.9625	1.6364	0.1	-2.0452
29197	0.875	1.9091	0.1	-4.575
29198	0.9625	1.8182	0.1	-2.0168
29199	0.875	2.0909	0.1	-4.5784
29200	0.9625	2.	0.1	-1.9971
29201	0.875	2.2727	0.1	-4.5871
29202	0.9625	2.1818	0.1	-1.989
29203	0.875	2.4545	0.1	-4.6012
29204	0.9625	2.3636	0.1	-1.9935
29205	0.875	2.6364	0.1	-4.6173
29206	0.9625	2.5455	0.1	-2.0075
29207	0.875	2.8182	0.1	-4.63
29208	0.9625	2.7273	0.1	-2.0237
29209	0.875	3.	0.1	-4.6349
29210	0.9625	2.9091	0.1	-2.0342
29211	0.875	3.1818	0.1	-4.63
29212	0.9625	3.0909	0.1	-2.0342
29213	0.875	3.3636	0.1	-4.6173
29214	0.9625	3.2727	0.1	-2.0237
29215	0.875	3.5455	0.1	-4.6012
29216	0.9625	3.4545	0.1	-2.0075
29217	0.875	3.7273	0.1	-4.5871
29218	0.9625	3.6364	0.1	-1.9935
29219	0.875	3.9091	0.1	-4.5784
29220	0.9625	3.8182	0.1	-1.989
29221	0.875	4.0909	0.1	-4.575
29222	0.9625	4.	0.1	-1.9971
29223	0.875	4.2727	0.1	-4.5735
29224	0.9625	4.1818	0.1	-2.0168
29225	0.875	4.4545	0.1	-4.5697
29226	0.9625	4.3636	0.1	-2.0452
29227	0.875	4.6364	0.1	-4.5607
29228	0.9625	4.5455	0.1	-2.0812
29229	0.875	4.8182	0.1	-4.5497
29230	0.9625	4.7273	0.1	-2.1295
29231	0.875	5.	0.1	-4.5461
29232	0.9625	4.9091	0.1	-2.2075
29233	0.875	5.1818	0.1	-4.5956
29234	0.9625	5.0909	0.1	-2.3425
29235	0.875	5.3636	0.1	-4.7314
29236	0.9625	5.2727	0.1	-2.6451
29237	0.875	5.5455	0.1	-5.5926
29238	0.9625	5.4545	0.1	-3.2295
29239	0.875	5.7273	0.1	-21.174
29240	0.9625	5.6364	0.1	-6.5805
29241	0.9625	5.8182	0.1	-129.37
29242	0.875	5.9091	0.1	-96.372
29243	1.05	0.27273	0.1	-31.07
29244	1.1375	0.18182	0.1	-134.67
29245	1.05	9.0909e-002	0.1	-92.331
29246	1.05	0.45455	0.1	-2.8092
29247	1.1375	0.36364	0.1	-7.657
29248	1.05	0.63636	0.1	-0.95654
29249	1.1375	0.54545	0.1	-2.3248
29250	1.05	0.81818	0.1	-0.3371
29251	1.1375	0.72727	0.1	-1.3229
29252	1.05	1.	0.1	1.5978e-002
29253	1.1375	0.90909	0.1	-0.81557
29254	1.05	1.1818	0.1	0.22042
29255	1.1375	1.0909	0.1	-0.54895
29256	1.05	1.3636	0.1	0.35327
29257	1.1375	1.2727	0.1	-0.38629
29258	1.05	1.5455	0.1	0.44526
29259	1.1375	1.4545	0.1	-0.2832
29260	1.05	1.7273	0.1	0.51337
29261	1.1375	1.6364	0.1	-0.21052
29262	1.05	1.9091	0.1	0.56312
29263	1.1375	1.8182	0.1	-0.15611
29264	1.05	2.0909	0.1	0.5945
29265	1.1375	2.	0.1	-0.11833
29266	1.05	2.2727	0.1	0.60667
29267	1.1375	2.1818	0.1	-0.10206
29268	1.05	2.4545	0.1	0.60184
29269	1.1375	2.3636	0.1	-0.10861
29270	1.05	2.6364	0.1	0.58722
29271	1.1375	2.5455	0.1	-0.13012
29272	1.05	2.8182	0.1	0.57292
29273	1.1375	2.7273	0.1	-0.15483
29274	1.05	3.	0.1	0.56713
29275	1.1375	2.9091	0.1	-0.17083
29276	1.05	3.1818	0.1	0.57292
29277	1.1375	3.0909	0.1	-0.17083
29278	1.05	3.3636	0.1	0.58722
29279	1.1375	3.2727	0.1	-0.15483
29280	1.05	3.5455	0.1	0.60184
29281	1.1375	3.4545	0.1	-0.13011
29282	1.05	3.7273	0.1	0.60667
29283	1.1375	3.6364	0.1	-0.10861
29284	1.05	3.9091	0.1	0.5945
29285	1.1375	3.8182	0.1	-0.10206
29286	1.05	4.0909	0.1	0.56312
29287	1.1375	4.	0.1	-0.11833
29288	1.05	4.2727	0.1	0.51337
29289	1.1375	4.1818	0.1	-0.15611
29290	1.05	4.4545	0.1	0.44526
29291	1.1375	4.3636	0.1	-0.21052
29292	1.05	4.6364	0.1	0.35327
29293	1.1375	4.5455	0.1	-0.2832
29294	1.05	4.8182	0.1	0.22042
29295	1.1375	4.7273	0.1	-0.38629
29296	1.05	5.	0.1	1.5978e-002
29297	1.1375	4.9091	0.1	-0.54895
29298	1.05	5.1818	0.1	-0.3371
29299	1.1375	5.0909	0.1	-0.81557
29300	1.05	5.3636	0.1	-0.95654
29301	1.1375	5.2727	0.1	-1.3229
29302	1.05	5.5455	0.1	-2.8092
29303	1.1375	5.4545	0.1	-2.3248
29304	1.05	5.7273	0.1	-31.07
29305	1.1375	5.6364	0.1	-7.657
29306	1.1375	5.8182	0.1	-134.67
29307	1.05	5.9091	0.1	-92.331
29308	1.225	0.27273	0.1	-50.277
29309	1.3125	0.18182	0.1	-143.02
29310	1.225	9.0909e-002	0.1	-92.23
29311	1.225	0.45455	0.1	-4.8492
29312	1.3125	0.36364	0.1	-13.537
29313	1.225	0.63636	0.1	-2.4718
29314	1.3125	0.54545	0.1	-3.7508
29315	1.225	0.81818	0.1	-1.751
29316	1.3125	0.72727	0.1	-2.2792
29317	1.225	1.	0.1	-1.3674
29318	1.3125	0.90909	0.1	-1.6109
29319	1.225	1.1818	0.1	-1.1531
29320	1.3125	1.0909	0.1	-1.2584
29321	1.225	1.3636	0.1	-1.0224
29322	1.3125	1.2727	0.1	-1.0484
29323	1.225	1.5455	0.1	-0.93793
29324	1.3125	1.4545	0.1	-0.92068
29325	1.225	1.7273	0.1	-0.87753
29326	1.3125	1.6364	0.1	-0.83603
29327	1.225	1.9091	0.1	-0.83388
29328	1.3125	1.8182	0.1	-0.7743
29329	1.225	2.0909	0.1	-0.81069
29330	1.3125	2.	0.1	-0.73409
29331	1.225	2.2727	0.1	-0.81348
29332	1.3125	2.1818	0.1	-0.71876
29333	1.225	2.4545	0.1	-0.83768
29334	1.3125	2.3636	0.1	-0.73052
29335	1.225	2.6364	0.1	-0.87044
29336	1.3125	2.5455	0.1	-0.76652
29337	1.225	2.8182	0.1	-0.89773
29338	1.3125	2.7273	0.1	-0.8059
29339	1.225	3.	0.1	-0.90825
29340	1.3125	2.9091	0.1	-0.83004
29341	1.225	3.1818	0.1	-0.89772
29342	1.3125	3.0909	0.1	-0.83004
29343	1.225	3.3636	0.1	-0.87044
29344	1.3125	3.2727	0.1	-0.8059
29345	1.225	3.5455	0.1	-0.83768
29346	1.3125	3.4545	0.1	-0.76652
29347	1.225	3.7273	0.1	-0.81348
29348	1.3125	3.6364	0.1	-0.73052
29349	1.225	3.9091	0.1	-0.81069
29350	1.3125	3.8182	0.1	-0.71876
29351	1.225	4.0909	0.1	-0.83388
29352	1.3125	4.	0.1	-0.73409
29353	1.225	4.2727	0.1	-0.87753
29354	1.3125	4.1818	0.1	-0.7743
29355	1.225	4.4545	0.1	-0.93793
29356	1.3125	4.3636	0.1	-0.83603
29357	1.225	4.6364	0.1	-1.0224
29358	1.3125	4.5455	0.1	-0.92068
29359	1.225	4.8182	0.1	-1.1531
29360	1.3125	4.7273	0.1	-1.0484
29361	1.225	5.	0.1	-1.3674
29362	1.3125	4.9091	0.1	-1.2584
29363	1.225	5.1818	0.1	-1.751
29364	1.3125	5.0909	0.1	-1.6109
29365	1.225	5.3636	0.1	-2.4718
29366	1.3125	5.2727	0.1	-2.2792
29367	1.225	5.5455	0.1	-4.8492
29368	1.3125	5.4545	0.1	-3.7508
29369	1.225	5.7273	0.1	-50.277
29370	1.3125	5.6364	0.1	-13.537
29371	1.3125	5.8182	0.1	-143.02
29372	1.225	5.9091	0.1	-92.23
29373	1.4	0.27273	0.1	-72.862
29374	1.4875	0.18182	0.1	-152.84
29375	1.4	9.0909e-002	0.1	-94.172
29376	1.4	0.45455	0.1	-7.5248
29377	1.4875	0.36364	0.1	-28.15
29378	1.4	0.63636	0.1	-3.279
29379	1.4875	0.54545	0.1	-6.0554
29380	1.4	0.81818	0.1	-2.1087
29381	1.4875	0.72727	0.1	-3.3543
29382	1.4	1.	0.1	-1.5114
29383	1.4875	0.90909	0.1	-2.2698
29384	1.4	1.1818	0.1	-1.1682
29385	1.4875	1.0909	0.1	-1.6913
29386	1.4	1.3636	0.1	-0.95698
29387	1.4875	1.2727	0.1	-1.3394
29388	1.4	1.5455	0.1	-0.82273
29389	1.4875	1.4545	0.1	-1.12
29390	1.4	1.7273	0.1	-0.73093
29391	1.4875	1.6364	0.1	-0.97303
29392	1.4	1.9091	0.1	-0.66858
29393	1.4875	1.8182	0.1	-0.8667
29394	1.4	2.0909	0.1	-0.63452
29395	1.4875	2.	0.1	-0.78274
29396	1.4	2.2727	0.1	-0.6288
29397	1.4875	2.1818	0.1	-0.7518
29398	1.4	2.4545	0.1	-0.65449
29399	1.4875	2.3636	0.1	-0.78802
29400	1.4	2.6364	0.1	-0.69946
29401	1.4875	2.5455	0.1	-0.83923
29402	1.4	2.8182	0.1	-0.73733
29403	1.4875	2.7273	0.1	-0.88456
29404	1.4	3.	0.1	-0.75151
29405	1.4875	2.9091	0.1	-0.91135
29406	1.4	3.1818	0.1	-0.73733
29407	1.4875	3.0909	0.1	-0.91135
29408	1.4	3.3636	0.1	-0.69946
29409	1.4875	3.2727	0.1	-0.88456
29410	1.4	3.5455	0.1	-0.65449
29411	1.4875	3.4545	0.1	-0.83923
29412	1.4	3.7273	0.1	-0.6288
29413	1.4875	3.6364	0.1	-0.78802
29414	1.4	3.9091	0.1	-0.63452
29415	1.4875	3.8182	0.1	-0.7518
29416	1.4	4.0909	0.1	-0.66857
29417	1.4875	4.	0.1	-0.78273
29418	1.4	4.2727	0.1	-0.73093
29419	1.4875	4.1818	0.1	-0.8667
29420	1.4	4.4545	0.1	-0.82273
29421	1.4875	4.3636	0.1	-0.97303
29422	1.4	4.6364	0.1	-0.95698
29423	1.4875	4.5455	0.1	-1.12
29424	1.4	4.8182	0.1	-1.1682
29425	1.4875	4.7273	0.1	-1.3394
29426	1.4	5.	0.1	-1.5114
29427	1.4875	4.9091	0.1	-1.6913
29428	1.4	5.1818	0.1	-2.1087
29429	1.4875	5.0909	0.1	-2.2698
29430	1.4	5.3636	0.1	-3.279
29431	1.4875	5.2727	0.1	-3.3543
29432	1.4	5.5455	0.1	-7.5248
29433	1.4875	5.4545	0.1	-6.0554
29434	1.4	5.7273	0.1	-72.862
29435	1.4875	5.6364	0.1	-28.15
29436	1.4875	5.8182	0.1	-152.84
29437	1.4	5.9091	0.1	-94.172
29438	1.575	0.27273	0.1	-95.271
29439	1.6625	0.18182	0.1	-162.4
29440	1.575	9.0909e-002	0.1	-96.931
29441	1.575	0.45455	0.1	-15.371
29442	1.6625	0.36364	0.1	-52.135
29443	1.575	0.63636	0.1	-5.7623
29444	1.6625	0.54545	0.1	-12.33
29445	1.575	0.81818	0.1	-3.5796
29446	1.6625	0.72727	0.1	-6.2525
29447	1.575	1.	0.1	-2.5442
29448	1.6625	0.90909	0.1	-4.1546
29449	1.575	1.1818	0.1	-1.9382
29450	1.6625	1.0909	0.1	-3.039
29451	1.575	1.3636	0.1	-1.5511
29452	1.6625	1.2727	0.1	-2.3274
29453	1.575	1.5455	0.1	-1.2936
29454	1.6625	1.4545	0.1	-1.8717
29455	1.575	1.7273	0.1	-1.1121
29456	1.6625	1.6364	0.1	-1.5871
29457	1.575	1.9091	0.1	-0.97131
29458	1.6625	1.8182	0.1	-1.3727
29459	1.575	2.0909	0.1	-0.8854
29460	1.6625	2.	0.1	-1.2709
29461	1.575	2.2727	0.1	-0.89795
29462	1.6625	2.1818	0.1	-1.2094
29463	1.575	2.4545	0.1	-0.96463
29464	1.6625	2.3636	0.1	-1.1259
29465	1.575	2.6364	0.1	-1.021
29466	1.6625	2.5455	0.1	-1.1465
29467	1.575	2.8182	0.1	-1.058
29468	1.6625	2.7273	0.1	-1.1825
29469	1.575	3.	0.1	-1.0715
29470	1.6625	2.9091	0.1	-1.1895
29471	1.575	3.1818	0.1	-1.058
29472	1.6625	3.0909	0.1	-1.1895
29473	1.575	3.3636	0.1	-1.021
29474	1.6625	3.2727	0.1	-1.1825
29475	1.575	3.5455	0.1	-0.96463
29476	1.6625	3.4545	0.1	-1.1465
29477	1.575	3.7273	0.1	-0.89795
29478	1.6625	3.6364	0.1	-1.1259
29479	1.575	3.9091	0.1	-0.8854
29480	1.6625	3.8182	0.1	-1.2094
29481	1.575	4.0909	0.1	-0.97131
29482	1.6625	4.	0.1	-1.2709
29483	1.575	4.2727	0.1	-1.1121
29484	1.6625	4.1818	0.1	-1.3727
29485	1.575	4.4545	0.1	-1.2936
29486	1.6625	4.3636	0.1	-1.5871
29487	1.575	4.6364	0.1	-1.5511
29488	1.6625	4.5455	0.1	-1.8717
29489	1.575	4.8182	0.1	-1.9382
29490	1.6625	4.7273	0.1	-2.3274
29491	1.575	5.	0.1	-2.5442
29492	1.6625	4.9091	0.1	-3.039
29493	1.575	5.1818	0.1	-3.5796
29494	1.6625	5.0909	0.1	-4.1546
29495	1.575	5.3636	0.1	-5.7623
29496	1.6625	5.2727	0.1	-6.2525
29497	1.575	5.5455	0.1	-15.371
29498	1.6625	5.4545	0.1	-12.33
29499	1.575	5.7273	0.1	-95.271
29500	1.6625	5.6364	0.1	-52.135
29501	1.6625	5.8182	0.1	-162.4
29502	1.575	5.9091	0.1	-96.931
29503	1.75	0.27273	0.1	-114.58
29504	1.8375	0.18182	0.1	-169.42
29505	1.75	9.0909e-002	0.1	-98.905
29506	1.75	0.45455	0.1	-35.426
29507	1.8375	0.36364	0.1	-75.735
29508	1.75	0.63636	0.1	-12.785
29509	1.8375	0.54545	0.1	-30.855
29510	1.75	0.81818	0.1	-7.5426
29511	1.8375	0.72727	0.1	-16.281
29512	1.75	1.	0.1	-5.2351
29513	1.8375	0.90909	0.1	-10.92
29514	1.75	1.1818	0.1	-3.8355
29515	1.8375	1.0909	0.1	-7.8724
29516	1.75	1.3636	0.1	-2.8949
29517	1.8375	1.2727	0.1	-5.7053
29518	1.75	1.5455	0.1	-2.2854
29519	1.8375	1.4545	0.1	-4.0768
29520	1.75	1.7273	0.1	-1.8813
29521	1.8375	1.6364	0.1	-2.8299
29522	1.75	1.9091	0.1	-1.6578
29523	1.8375	1.8182	0.1	-2.1889
29524	1.75	2.0909	0.1	-1.564
29525	1.8375	2.	0.1	-1.5684
29526	1.75	2.2727	0.1	-1.4113
29527	1.8375	2.1818	0.1	-1.2935
29528	1.75	2.4545	0.1	-1.2945
29529	1.8375	2.3636	0.1	-1.6134
29530	1.75	2.6364	0.1	-1.3045
29531	1.8375	2.5455	0.1	-1.5752
29532	1.75	2.8182	0.1	-1.3146
29533	1.8375	2.7273	0.1	-1.4613
29534	1.75	3.	0.1	-1.309
29535	1.8375	2.9091	0.1	-1.4115
29536	1.75	3.1818	0.1	-1.3146
29537	1.8375	3.0909	0.1	-1.4115
29538	1.75	3.3636	0.1	-1.3045
29539	1.8375	3.2727	0.1	-1.4613
29540	1.75	3.5455	0.1	-1.2945
29541	1.8375	3.4545	0.1	-1.5752
29542	1.75	3.7273	0.1	-1.4113
29543	1.8375	3.6364	0.1	-1.6134
29544	1.75	3.9091	0.1	-1.564
29545	1.8375	3.8182	0.1	-1.2935
29546	1.75	4.0909	0.1	-1.6578
29547	1.8375	4.	0.1	-1.5684
29548	1.75	4.2727	0.1	-1.8813
29549	1.8375	4.1818	0.1	-2.1889
29550	1.75	4.4545	0.1	-2.2854
29551	1.8375	4.3636	0.1	-2.8299
29552	1.75	4.6364	0.1	-2.8949
29553	1.8375	4.5455	0.1	-4.0768
29554	1.75	4.8182	0.1	-3.8355
29555	1.8375	4.7273	0.1	-5.7053
29556	1.75	5.	0.1	-5.2351
29557	1.8375	4.9091	0.1	-7.8724
29558	1.75	5.1818	0.1	-7.5426
29559	1.8375	5.0909	0.1	-10.92
29560	1.75	5.3636	0.1	-12.785
29561	1.8375	5.2727	0.1	-16.281
29562	1.75	5.5455	0.1	-35.426
29563	1.8375	5.4545	0.1	-30.855
29564	1.75	5.7273	0.1	-114.58
29565	1.8375	5.6364	0.1	-75.735
29566	1.8375	5.8182	0.1	-169.42
29567	1.75	5.9091	0.1	-98.905
29568	1.925	0.27273	0.1	-128.54
29569	2.0125	0.18182	0.1	-171.37
29570	1.925	9.0909e-002	0.1	-98.223
29571	1.925	0.45455	0.1	-66.308
29572	2.0125	0.36364	0.1	-94.
29573	1.925	0.63636	0.1	-40.444
29574	2.0125	0.54545	0.1	-70.487
29575	1.925	0.81818	0.1	-29.005
29576	2.0125	0.72727	0.1	-68.632
29577	1.925	1.	0.1	-21.604
29578	2.0125	0.90909	0.1	-75.023
29579	1.925	1.1818	0.1	-15.002
29580	2.0125	1.0909	0.1	-77.321
29581	1.925	1.3636	0.1	-9.5157
29582	2.0125	1.2727	0.1	-61.36
29583	1.925	1.5455	0.1	-5.645
29584	2.0125	1.4545	0.1	-29.898
29585	1.925	1.7273	0.1	-3.4149
29586	2.0125	1.6364	0.1	-12.673
29587	1.925	1.9091	0.1	-2.0909
29588	2.0125	1.8182	0.1	-6.0491
29589	1.925	2.0909	0.1	-1.2208
29590	2.0125	2.	0.1	-5.0296
29591	1.925	2.2727	0.1	-1.4382
29592	2.0125	2.1818	0.1	-4.4992
29593	1.925	2.4545	0.1	-1.8742
29594	2.0125	2.3636	0.1	-2.2438
29595	1.925	2.6364	0.1	-1.7319
29596	2.0125	2.5455	0.1	-2.1187
29597	1.925	2.8182	0.1	-1.5614
29598	2.0125	2.7273	0.1	-1.719
29599	1.925	3.	0.1	-1.5167
29600	2.0125	2.9091	0.1	-1.4785
29601	1.925	3.1818	0.1	-1.5614
29602	2.0125	3.0909	0.1	-1.4785
29603	1.925	3.3636	0.1	-1.7319
29604	2.0125	3.2727	0.1	-1.719
29605	1.925	3.5455	0.1	-1.8742
29606	2.0125	3.4545	0.1	-2.1187
29607	1.925	3.7273	0.1	-1.4382
29608	2.0125	3.6364	0.1	-2.2438
29609	1.925	3.9091	0.1	-1.2208
29610	2.0125	3.8182	0.1	-4.4992
29611	1.925	4.0909	0.1	-2.0909
29612	2.0125	4.	0.1	-5.0296
29613	1.925	4.2727	0.1	-3.4149
29614	2.0125	4.1818	0.1	-6.0491
29615	1.925	4.4545	0.1	-5.645
29616	2.0125	4.3636	0.1	-12.673
29617	1.925	4.6364	0.1	-9.5157
29618	2.0125	4.5455	0.1	-29.898
29619	1.925	4.8182	0.1	-15.002
29620	2.0125	4.7273	0.1	-61.36
29621	1.925	5.	0.1	-21.604
29622	2.0125	4.9091	0.1	-77.321
29623	1.925	5.1818	0.1	-29.005
29624	2.0125	5.0909	0.1	-75.023
29625	1.925	5.3636	0.1	-40.444
29626	2.0125	5.2727	0.1	-68.632
29627	1.925	5.5455	0.1	-66.308
29628	2.0125	5.4545	0.1	-70.487
29629	1.925	5.7273	0.1	-128.54
29630	2.0125	5.6364	0.1	-94.
29631	2.0125	5.8182	0.1	-171.37
29632	1.925	5.9091	0.1	-98.223
29633	2.1	0.27273	0.1	-135.97
29634	2.1875	0.18182	0.1	-165.82
29635	2.1	9.0909e-002	0.1	-92.75
29636	2.1	0.45455	0.1	-100.45
29637	2.1875	0.36364	0.1	-108.54
29638	2.1	0.63636	0.1	-112.33
29639	2.1875	0.54545	0.1	-128.88
29640	2.1	0.81818	0.1	-147.6
29641	2.1875	0.72727	0.1	-192.52
29642	2.1	1.	0.1	-190.13
29643	2.1875	0.90909	0.1	-282.02
29644	2.1	1.1818	0.1	-217.56
29645	2.1875	1.0909	0.1	-376.79
29646	2.1	1.3636	0.1	-200.69
29647	2.1875	1.2727	0.1	-449.82
29648	2.1	1.5455	0.1	-112.81
29649	2.1875	1.4545	0.1	-462.07
29650	2.1	1.7273	0.1	-23.674
29651	2.1875	1.6364	0.1	-351.56
29652	2.1	1.9091	0.1	-9.3052
29653	2.1875	1.8182	0.1	-96.376
29654	2.1	2.0909	0.1	-8.0119
29655	2.1875	2.	0.1	-3.1814
29656	2.1	2.2727	0.1	-5.1691
29657	2.1875	2.1818	0.1	-7.1266e-002
29658	2.1	2.4545	0.1	-2.4752
29659	2.1875	2.3636	0.1	-6.1113
29660	2.1	2.6364	0.1	-2.1241
29661	2.1875	2.5455	0.1	-2.2635
29662	2.1	2.8182	0.1	-1.6437
29663	2.1875	2.7273	0.1	-1.7392
29664	2.1	3.	0.1	-1.4413
29665	2.1875	2.9091	0.1	-1.1453
29666	2.1	3.1818	0.1	-1.6437
29667	2.1875	3.0909	0.1	-1.1453
29668	2.1	3.3636	0.1	-2.1241
29669	2.1875	3.2727	0.1	-1.7392
29670	2.1	3.5455	0.1	-2.4752
29671	2.1875	3.4545	0.1	-2.2636
29672	2.1	3.7273	0.1	-5.1691
29673	2.1875	3.6364	0.1	-6.1113
29674	2.1	3.9091	0.1	-8.0119
29675	2.1875	3.8182	0.1	-7.126e-002
29676	2.1	4.0909	0.1	-9.3051
29677	2.1875	4.	0.1	-3.1814
29678	2.1	4.2727	0.1	-23.674
29679	2.1875	4.1818	0.1	-96.375
29680	2.1	4.4545	0.1	-112.81
29681	2.1875	4.3636	0.1	-351.56
29682	2.1	4.6364	0.1	-200.69
29683	2.1875	4.5455	0.1	-462.07
29684	2.1	4.8182	0.1	-217.56
29685	2.1875	4.7273	0.1	-449.82
29686	2.1	5.	0.1	-190.13
29687	2.1875	4.9091	0.1	-376.79
29688	2.1	5.1818	0.1	-147.6
29689	2.1875	5.0909	0.1	-282.02
29690	2.1	5.3636	0.1	-112.33
29691	2.1875	5.2727	0.1	-192.52
29692	2.1	5.5455	0.1	-100.45
29693	2.1875	5.4545	0.1	-128.88
29694	2.1	5.7273	0.1	-135.97
29695	2.1875	5.6364	0.1	-108.54
29696	2.1875	5.8182	0.1	-165.82
29697	2.1	5.9091	0.1	-92.75
29698	2.275	0.27273	0.1	-138.88
29699	2.3625	0.18182	0.1	-154.7
29700	2.275	9.0909e-002	0.1	-80.013
29701	2.275	0.45455	0.1	-144.16
29702	2.3625	0.36364	0.1	-134.24
29703	2.275	0.63636	0.1	-225.31
29704	2.3625	0.54545	0.1	-226.2
29705	2.275	0.81818	0.1	-350.31
29706	2.3625	0.72727	0.1	-382.66
29707	2.275	1.	0.1	-495.93
29708	2.3625	0.90909	0.1	-576.42
29709	2.275	1.1818	0.1	-637.83
29710	2.3625	1.0909	0.1	-790.88
29711	2.275	1.3636	0.1	-739.69
29712	2.3625	1.2727	0.1	-1009.1
29713	2.275	1.5455	0.1	-734.03
29714	2.3625	1.4545	0.1	-1188.7
29715	2.275	1.7273	0.1	-535.44
29716	2.3625	1.6364	0.1	-1236.9
29717	2.275	1.9091	0.1	-164.4
29718	2.3625	1.8182	0.1	-1002.2
29719	2.275	2.0909	0.1	5.9002
29720	2.3625	2.	0.1	-335.91
29721	2.275	2.2727	0.1	-0.46781
29722	2.3625	2.1818	0.1	-24.721
29723	2.275	2.4545	0.1	-6.1037
29724	2.3625	2.3636	0.1	-4.3801
29725	2.275	2.6364	0.1	-1.9916
29726	2.3625	2.5455	0.1	-4.3211
29727	2.275	2.8182	0.1	-1.255
29728	2.3625	2.7273	0.1	-1.2041
29729	2.275	3.	0.1	-0.83289
29730	2.3625	2.9091	0.1	-0.16489
29731	2.275	3.1818	0.1	-1.255
29732	2.3625	3.0909	0.1	-0.16489
29733	2.275	3.3636	0.1	-1.9916
29734	2.3625	3.2727	0.1	-1.2041
29735	2.275	3.5455	0.1	-6.1038
29736	2.3625	3.4545	0.1	-4.3211
29737	2.275	3.7273	0.1	-0.46781
29738	2.3625	3.6364	0.1	-4.3801
29739	2.275	3.9091	0.1	5.9003
29740	2.3625	3.8182	0.1	-24.721
29741	2.275	4.0909	0.1	-164.4
29742	2.3625	4.	0.1	-335.91
29743	2.275	4.2727	0.1	-535.44
29744	2.3625	4.1818	0.1	-1002.2
29745	2.275	4.4545	0.1	-734.03
29746	2.3625	4.3636	0.1	-1236.9
29747	2.275	4.6364	0.1	-739.69
29748	2.3625	4.5455	0.1	-1188.7
29749	2.275	4.8182	0.1	-637.82
29750	2.3625	4.7273	0.1	-1009.1
29751	2.275	5.	0.1	-495.93
29752	2.3625	4.9091	0.1	-790.88
29753	2.275	5.1818	0.1	-350.31
29754	2.3625	5.0909	0.1	-576.42
29755	2.275	5.3636	0.1	-225.31
29756	2.3625	5.2727	0.1	-382.66
29757	2.275	5.5455	0.1	-144.16
29758	2.3625	5.4545	0.1	-226.2
29759	2.275	5.7273	0.1	-138.88
29760	2.3625	5.6364	0.1	-134.24
29761	2.3625	5.8182	0.1	-154.7
29762	2.275	5.9091	0.1	-80.013
29763	2.45	0.27273	0.1	-154.98
29764	2.5375	0.18182	0.1	-165.35
29765	2.45	9.0909e-002	0.1	-63.049
29766	2.45	0.45455	0.1	-233.55
29767	2.5375	0.36364	0.1	-243.96
29768	2.45	0.63636	0.1	-412.11
29769	2.5375	0.54545	0.1	-454.13
29770	2.45	0.81818	0.1	-642.59
29771	2.5375	0.72727	0.1	-724.07
29772	2.45	1.	0.1	-908.04
29773	2.5375	0.90909	0.1	-1038.2
29774	2.45	1.1818	0.1	-1201.1
29775	2.5375	1.0909	0.1	-1399.5
29776	2.45	1.3636	0.1	-1498.2
29777	2.5375	1.2727	0.1	-1820.6
29778	2.45	1.5455	0.1	-1722.7
29779	2.5375	1.4545	0.1	-2291.9
29780	2.45	1.7273	0.1	-1716.
29781	2.5375	1.6364	0.1	-2840.6
29782	2.45	1.9091	0.1	-1166.9
29783	2.5375	1.8182	0.1	-3035.1
29784	2.45	2.0909	0.1	-410.36
29785	2.5375	2.	0.1	-1819.5
29786	2.45	2.2727	0.1	-48.594
29787	2.5375	2.1818	0.1	-534.17
29788	2.45	2.4545	0.1	-11.017
29789	2.5375	2.3636	0.1	-275.93
29790	2.45	2.6364	0.1	-5.6444
29791	2.5375	2.5455	0.1	-133.96
29792	2.45	2.8182	0.1	-0.35114
29793	2.5375	2.7273	0.1	-53.91
29794	2.45	3.	0.1	0.60376
29795	2.5375	2.9091	0.1	-13.978
29796	2.45	3.1818	0.1	-0.35114
29797	2.5375	3.0909	0.1	-13.978
29798	2.45	3.3636	0.1	-5.6445
29799	2.5375	3.2727	0.1	-53.91
29800	2.45	3.5455	0.1	-11.017
29801	2.5375	3.4545	0.1	-133.96
29802	2.45	3.7273	0.1	-48.594
29803	2.5375	3.6364	0.1	-275.93
29804	2.45	3.9091	0.1	-410.36
29805	2.5375	3.8182	0.1	-534.17
29806	2.45	4.0909	0.1	-1166.9
29807	2.5375	4.	0.1	-1819.5
29808	2.45	4.2727	0.1	-1716.
29809	2.5375	4.1818	0.1	-3035.1
29810	2.45	4.4545	0.1	-1722.7
29811	2.5375	4.3636	0.1	-2840.6
29812	2.45	4.6364	0.1	-1498.2
29813	2.5375	4.5455	0.1	-2291.9
29814	2.45	4.8182	0.1	-1201.1
29815	2.5375	4.7273	0.1	-1820.6
29816	2.45	5.	0.1	-908.04
29817	2.5375	4.9091	0.1	-1399.5
29818	2.45	5.1818	0.1	-642.59
29819	2.5375	5.0909	0.1	-1038.2
29820	2.45	5.3636	0.1	-412.11
29821	2.5375	5.2727	0.1	-724.07
29822	2.45	5.5455	0.1	-233.55
29823	2.5375	5.4545	0.1	-454.13
29824	2.45	5.7273	0.1	-154.98
29825	2.5375	5.6364	0.1	-243.96
29826	2.5375	5.8182	0.1	-165.35
29827	2.45	5.9091	0.1	-63.049
29828	2.625	0.27273	0.1	-280.26
29829	2.7125	0.18182	0.1	-85.975
29830	2.625	9.0909e-002	0.1	-76.614
29831	2.625	0.45455	0.1	-506.46
29832	2.7125	0.36364	0.1	-245.37
29833	2.625	0.63636	0.1	-809.18
29834	2.7125	0.54545	0.1	-466.65
29835	2.625	0.81818	0.1	-1162.3
29836	2.7125	0.72727	0.1	-722.09
29837	2.625	1.	0.1	-1574.5
29838	2.7125	0.90909	0.1	-1019.3
29839	2.625	1.1818	0.1	-2070.7
29840	2.7125	1.0909	0.1	-1376.4
29841	2.625	1.3636	0.1	-2678.1
29842	2.7125	1.2727	0.1	-1822.5
29843	2.625	1.5455	0.1	-3503.1
29844	2.7125	1.4545	0.1	-2427.5
29845	2.625	1.7273	0.1	-4226.4
29846	2.7125	1.6364	0.1	-3131.8
29847	2.625	1.9091	0.1	-3603.1
29848	2.7125	1.8182	0.1	-4986.5
29849	2.625	2.0909	0.1	-1729.3
29850	2.7125	2.	0.1	-2951.2
29851	2.625	2.2727	0.1	-731.57
29852	2.7125	2.1818	0.1	-1079.7
29853	2.625	2.4545	0.1	-487.82
29854	2.7125	2.3636	0.1	-818.97
29855	2.625	2.6364	0.1	-320.59
29856	2.7125	2.5455	0.1	-557.62
29857	2.625	2.8182	0.1	-238.59
29858	2.7125	2.7273	0.1	-421.5
29859	2.625	3.	0.1	-211.29
29860	2.7125	2.9091	0.1	-355.34
29861	2.625	3.1818	0.1	-238.59
29862	2.7125	3.0909	0.1	-355.34
29863	2.625	3.3636	0.1	-320.6
29864	2.7125	3.2727	0.1	-421.5
29865	2.625	3.5455	0.1	-487.82
29866	2.7125	3.4545	0.1	-557.63
29867	2.625	3.7273	0.1	-731.57
29868	2.7125	3.6364	0.1	-818.97
29869	2.625	3.9091	0.1	-1729.3
29870	2.7125	3.8182	0.1	-1079.7
29871	2.625	4.0909	0.1	-3603.1
29872	2.7125	4.	0.1	-2951.2
29873	2.625	4.2727	0.1	-4226.4
29874	2.7125	4.1818	0.1	-4986.5
29875	2.625	4.4545	0.1	-3503.1
29876	2.7125	4.3636	0.1	-3131.8
29877	2.625	4.6364	0.1	-2678.1
29878	2.7125	4.5455	0.1	-2427.5
29879	2.625	4.8182	0.1	-2070.7
29880	2.7125	4.7273	0.1	-1822.5
29881	2.625	5.	0.1	-1574.5
29882	2.7125	4.9091	0.1	-1376.4
29883	2.625	5.1818	0.1	-1162.3
29884	2.7125	5.0909	0.1	-1019.3
29885	2.625	5.3636	0.1	-809.18
29886	2.7125	5.2727	0.1	-722.09
29887	2.625	5.5455	0.1	-506.46
29888	2.7125	5.4545	0.1	-466.65
29889	2.625	5.7273	0.1	-280.26
29890	2.7125	5.6364	0.1	-245.37
29891	2.7125	5.8182	0.1	-85.975
29892	2.625	5.9091	0.1	-76.614
29893	2.9667	3.7273	0.1	-1352.8
29894	2.8833	3.8182	0.1	-1330.9
29895	2.9667	3.9091	0.1	-2765.9
29896	2.9667	3.5455	0.1	-993.89
29897	2.8833	3.6364	0.1	-1066.5
29898	2.9667	3.3636	0.1	-747.11
29899	2.8833	3.4545	0.1	-780.94
29900	2.9667	3.1818	0.1	-619.1
29901	2.8833	3.2727	0.1	-615.31
29902	2.9667	3.	0.1	-578.77
29903	2.8833	3.0909	0.1	-537.17
29904	2.9667	2.8182	0.1	-619.1
29905	2.8833	2.9091	0.1	-537.17
29906	2.9667	2.6364	0.1	-747.11
29907	2.8833	2.7273	0.1	-615.3
29908	2.9667	2.4545	0.1	-993.89
29909	2.8833	2.5455	0.1	-780.94
29910	2.9667	2.2727	0.1	-1352.8
29911	2.8833	2.3636	0.1	-1066.5
29912	2.8833	2.1818	0.1	-1330.8
29913	2.9667	2.0909	0.1	-2765.9
29914	2.8	3.7273	0.1	-1278.7
29915	2.8	3.9091	0.1	-2707.5
29916	2.8	3.5455	0.1	-922.93
29917	2.8	3.3636	0.1	-667.62
29918	2.8	3.1818	0.1	-536.8
29919	2.8	3.	0.1	-495.38
29920	2.8	2.8182	0.1	-536.8
29921	2.8	2.6364	0.1	-667.62
29922	2.8	2.4545	0.1	-922.93
29923	2.8	2.2727	0.1	-1278.7
29924	2.8	2.0909	0.1	-2707.5
29925	2.9667	5.7273	0.1	-180.65
29926	2.9667	5.9091	0.1	-30.128
29927	2.9667	5.8182	5.e-002	-121.68
29928	2.9667	5.5455	0.1	-354.34
29929	2.9667	5.6364	5.e-002	-259.2
29930	2.9667	5.3636	0.1	-560.14
29931	2.9667	5.4545	5.e-002	-395.59
29932	2.9667	5.1818	0.1	-804.83
29933	2.9667	5.2727	5.e-002	-543.15
29934	2.9667	5.	0.1	-1101.5
29935	2.9667	5.0909	5.e-002	-709.67
29936	2.9667	4.8182	0.1	-1475.
29937	2.9667	4.9091	5.e-002	-906.54
29938	2.9667	4.6364	0.1	-1987.
29939	2.9667	4.7273	5.e-002	-1153.4
29940	2.9667	4.4545	0.1	-2611.4
29941	2.9667	4.5455	5.e-002	-1483.3
29942	2.9667	4.2727	0.1	-4627.6
29943	2.9667	4.3636	5.e-002	-2012.3
29944	2.9667	4.0909	0.1	-4547.3
29945	2.9667	4.1818	5.e-002	-3338.5
29946	2.8833	4.	0.1	-2876.1
29947	2.9667	4.	5.e-002	-2886.6
29948	2.8	4.0909	0.1	-4466.7
29949	2.8	4.	5.e-002	-3159.
29950	2.8	4.2727	0.1	-4598.2
29951	2.8	4.1818	5.e-002	-3692.8
29952	2.8	4.4545	0.1	-2545.6
29953	2.8	4.3636	5.e-002	-2275.1
29954	2.8	4.6364	0.1	-1936.2
29955	2.8	4.5455	5.e-002	-1717.2
29956	2.8	4.8182	0.1	-1429.2
29957	2.8	4.7273	5.e-002	-1354.1
29958	2.8	5.	0.1	-1069.1
29959	2.8	4.9091	5.e-002	-1079.8
29960	2.8	5.1818	0.1	-786.9
29961	2.8	5.0909	5.e-002	-856.5
29962	2.8	5.3636	0.1	-556.03
29963	2.8	5.2727	5.e-002	-663.83
29964	2.8	5.5455	0.1	-360.92
29965	2.8	5.4545	5.e-002	-489.12
29966	2.8	5.7273	0.1	-192.69
29967	2.8	5.6364	5.e-002	-323.64
29968	2.8	5.9091	0.1	-36.594
29969	2.8	5.8182	5.e-002	-150.53
29970	2.9667	0.27273	0.1	-180.65
29971	2.9667	9.0909e-002	0.1	-30.128
29972	2.9667	0.18182	5.e-002	-121.68
29973	2.9667	0.45455	0.1	-354.34
29974	2.9667	0.36364	5.e-002	-259.2
29975	2.9667	0.63636	0.1	-560.14
29976	2.9667	0.54545	5.e-002	-395.59
29977	2.9667	0.81818	0.1	-804.83
29978	2.9667	0.72727	5.e-002	-543.15
29979	2.9667	1.	0.1	-1101.5
29980	2.9667	0.90909	5.e-002	-709.67
29981	2.9667	1.1818	0.1	-1475.
29982	2.9667	1.0909	5.e-002	-906.54
29983	2.9667	1.3636	0.1	-1987.
29984	2.9667	1.2727	5.e-002	-1153.4
29985	2.9667	1.5455	0.1	-2611.4
29986	2.9667	1.4545	5.e-002	-1483.3
29987	2.9667	1.7273	0.1	-4627.6
29988	2.9667	1.6364	5.e-002	-2012.3
29989	2.9667	1.9091	0.1	-4547.3
29990	2.9667	1.8182	5.e-002	-3338.5
29991	2.8833	2.	0.1	-2876.1
29992	2.9667	2.	5.e-002	-2886.6
29993	2.8	1.9091	0.1	-4466.7
29994	2.8	2.	5.e-002	-3159.
29995	2.8	1.7273	0.1	-4598.2
29996	2.8	1.8182	5.e-002	-3692.8
29997	2.8	1.5455	0.1	-2545.6
29998	2.8	1.6364	5.e-002	-2275.1
29999	2.8	1.3636	0.1	-1936.2
30000	2.8	1.4545	5.e-002	-1717.2
30001	2.8	1.1818	0.1	-1429.2
30002	2.8	1.2727	5.e-002	-1354.1
30003	2.8	1.	0.1	-1069.1
30004	2.8	1.0909	5.e-002	-1079.8
30005	2.8	0.81818	0.1	-786.9
30006	2.8	0.90909	5.e-002	-856.5
30007	2.8	0.63636	0.1	-556.03
30008	2.8	0.72727	5.e-002	-663.83
30009	2.8	0.45455	0.1	-360.92
30010	2.8	0.54545	5.e-002	-489.12
30011	2.8	0.27273	0.1	-192.69
30012	2.8	0.36364	5.e-002	-323.64
30013	2.8	9.0909e-002	0.1	-36.594
30014	2.8	0.18182	5.e-002	-150.53
30015	3.0589	6.	0.1	-7.6721
30016	2.9667	6.	5.e-002	-37.635
30017	3.2434	6.	0.1	-23.391
30018	3.1512	6.	5.e-002	-26.174
30019	3.4279	6.	0.1	-27.404
30020	3.3357	6.	5.e-002	-69.184
30021	3.6124	6.	0.1	-28.252
30022	3.5202	6.	5.e-002	-89.398
30023	3.7969	6.	0.1	-26.573
30024	3.7047	6.	5.e-002	-98.5
30025	3.9814	6.	0.1	-23.615
30026	3.8892	6.	5.e-002	-99.791
30027	4.1659	6.	0.1	-20.281
30028	4.0737	6.	5.e-002	-96.332
30029	4.3504	6.	0.1	-17.011
30030	4.2582	6.	5.e-002	-90.231
30031	4.5349	6.	0.1	-14.041
30032	4.4427	6.	5.e-002	-83.024
30033	4.7194	6.	0.1	-11.459
30034	4.6272	6.	5.e-002	-75.734
30035	4.9039	6.	0.1	-9.2801
30036	4.8117	6.	5.e-002	-68.996
30037	5.0885	6.	0.1	-7.4782
30038	4.9962	6.	5.e-002	-63.16
30039	5.273	6.	0.1	-6.0113
30040	5.1807	6.	5.e-002	-58.373
30041	5.4575	6.	0.1	-4.8335
30042	5.3652	6.	5.e-002	-54.65
30043	5.642	6.	0.1	-3.9012
30044	5.5497	6.	5.e-002	-51.932
30045	5.8265	6.	0.1	-3.1758
30046	5.7342	6.	5.e-002	-50.112
30047	6.011	6.	0.1	-2.6237
30048	5.9187	6.	5.e-002	-49.067
30049	6.1955	6.	0.1	-2.217
30050	6.1032	6.	5.e-002	-48.671
30051	6.38	6.	0.1	-1.9316
30052	6.2877	6.	5.e-002	-48.802
30053	6.5645	6.	0.1	-1.7475
30054	6.4722	6.	5.e-002	-49.35
30055	6.749	6.	0.1	-1.6475
30056	6.6567	6.	5.e-002	-50.218
30057	6.9335	6.	0.1	-1.6174
30058	6.8412	6.	5.e-002	-51.323
30059	7.118	6.	0.1	-1.6444
30060	7.0257	6.	5.e-002	-52.595
30061	7.3025	6.	0.1	-1.7181
30062	7.2102	6.	5.e-002	-53.976
30063	7.487	6.	0.1	-1.8293
30064	7.3947	6.	5.e-002	-55.418
30065	7.6715	6.	0.1	-1.9701
30066	7.5792	6.	5.e-002	-56.885
30067	7.856	6.	0.1	-2.134
30068	7.7637	6.	5.e-002	-58.346
30069	8.0405	6.	0.1	-2.3151
30070	7.9482	6.	5.e-002	-59.777
30071	8.225	6.	0.1	-2.509
30072	8.1327	6.	5.e-002	-61.163
30073	8.4095	6.	0.1	-2.7115
30074	8.3173	6.	5.e-002	-62.489
30075	8.594	6.	0.1	-2.9196
30076	8.5018	6.	5.e-002	-63.748
30077	8.7785	6.	0.1	-3.1304
30078	8.6863	6.	5.e-002	-64.933
30079	8.963	6.	0.1	-3.342
30080	8.8708	6.	5.e-002	-66.04
30081	9.1475	6.	0.1	-3.5525
30082	9.0553	6.	5.e-002	-67.069
30083	9.332	6.	0.1	-3.7608
30084	9.2398	6.	5.e-002	-68.018
30085	9.5165	6.	0.1	-3.9657
30086	9.4243	6.	5.e-002	-68.89
30087	9.701	6.	0.1	-4.1665
30088	9.6088	6.	5.e-002	-69.686
30089	9.8855	6.	0.1	-4.3628
30090	9.7933	6.	5.e-002	-70.408
30091	10.07	6.	0.1	-4.5541
30092	9.9778	6.	5.e-002	-71.059
30093	10.255	6.	0.1	-4.7403
30094	10.162	6.	5.e-002	-71.643
30095	10.439	6.	0.1	-4.9214
30096	10.347	6.	5.e-002	-72.163
30097	10.624	6.	0.1	-5.0973
30098	10.531	6.	5.e-002	-72.623
30099	10.808	6.	0.1	-5.2683
30100	10.716	6.	5.e-002	-73.025
30101	10.993	6.	0.1	-5.4344
30102	10.9	6.	5.e-002	-73.373
30103	11.177	6.	0.1	-5.5958
30104	11.085	6.	5.e-002	-73.671
30105	11.362	6.	0.1	-5.7529
30106	11.269	6.	5.e-002	-73.921
30107	11.546	6.	0.1	-5.9059
30108	11.454	6.	5.e-002	-74.127
30109	11.731	6.	0.1	-6.0551
30110	11.638	6.	5.e-002	-74.291
30111	11.915	6.	0.1	-6.2008
30112	11.823	6.	5.e-002	-74.417
30113	12.1	6.	0.1	-6.3434
30114	12.007	6.	5.e-002	-74.506
30115	12.284	6.	0.1	-6.4831
30116	12.192	6.	5.e-002	-74.561
30117	12.469	6.	0.1	-6.6203
30118	12.376	6.	5.e-002	-74.585
30119	12.653	6.	0.1	-6.7553
30120	12.561	6.	5.e-002	-74.579
30121	12.838	6.	0.1	-6.8883
30122	12.745	6.	5.e-002	-74.545
30123	13.022	6.	0.1	-7.0198
30124	12.93	6.	5.e-002	-74.486
30125	13.207	6.	0.1	-7.15
30126	13.114	6.	5.e-002	-74.402
30127	13.391	6.	0.1	-7.2791
30128	13.299	6.	5.e-002	-74.295
30129	13.576	6.	0.1	-7.4076
30130	13.483	6.	5.e-002	-74.166
30131	13.76	6.	0.1	-7.5356
30132	13.668	6.	5.e-002	-74.017
30133	13.945	6.	0.1	-7.6634
30134	13.852	6.	5.e-002	-73.848
30135	14.129	6.	0.1	-7.7913
30136	14.037	6.	5.e-002	-73.661
30137	14.314	6.	0.1	-7.9196
30138	14.221	6.	5.e-002	-73.457
30139	14.498	6.	0.1	-8.0485
30140	14.406	6.	5.e-002	-73.235
30141	14.683	6.	0.1	-8.1782
30142	14.59	6.	5.e-002	-72.997
30143	14.867	6.	0.1	-8.3089
30144	14.775	6.	5.e-002	-72.744
30145	15.052	6.	0.1	-8.441
30146	14.959	6.	5.e-002	-72.475
30147	15.236	6.	0.1	-8.5745
30148	15.144	6.	5.e-002	-72.192
30149	15.421	6.	0.1	-8.7098
30150	15.328	6.	5.e-002	-71.893
30151	15.605	6.	0.1	-8.8469
30152	15.513	6.	5.e-002	-71.58
30153	15.79	6.	0.1	-8.9863
30154	15.697	6.	5.e-002	-71.252
30155	15.974	6.	0.1	-9.1279
30156	15.882	6.	5.e-002	-70.91
30157	16.159	6.	0.1	-9.272
30158	16.066	6.	5.e-002	-70.553
30159	16.343	6.	0.1	-9.4188
30160	16.251	6.	5.e-002	-70.181
30161	16.528	6.	0.1	-9.5684
30162	16.435	6.	5.e-002	-69.793
30163	16.712	6.	0.1	-9.7211
30164	16.62	6.	5.e-002	-69.39
30165	16.897	6.	0.1	-9.8768
30166	16.804	6.	5.e-002	-68.97
30167	17.081	6.	0.1	-10.036
30168	16.989	6.	5.e-002	-68.534
30169	17.266	6.	0.1	-10.198
30170	17.173	6.	5.e-002	-68.079
30171	17.45	6.	0.1	-10.364
30172	17.358	6.	5.e-002	-67.606
30173	17.635	6.	0.1	-10.534
30174	17.542	6.	5.e-002	-67.113
30175	17.819	6.	0.1	-10.707
30176	17.727	6.	5.e-002	-66.6
30177	18.004	6.	0.1	-10.884
30178	17.911	6.	5.e-002	-66.065
30179	18.188	6.	0.1	-11.064
30180	18.096	6.	5.e-002	-65.506
30181	18.373	6.	0.1	-11.249
30182	18.28	6.	5.e-002	-64.922
30183	18.557	6.	0.1	-11.437
30184	18.465	6.	5.e-002	-64.312
30185	18.742	6.	0.1	-11.628
30186	18.649	6.	5.e-002	-63.673
30187	18.926	6.	0.1	-11.823
30188	18.834	6.	5.e-002	-63.004
30189	19.111	6.	0.1	-12.021
30190	19.018	6.	5.e-002	-62.302
30191	19.295	6.	0.1	-12.223
30192	19.203	6.	5.e-002	-61.565
30193	19.48	6.	0.1	-12.427
30194	19.387	6.	5.e-002	-60.79
30195	19.664	6.	0.1	-12.633
30196	19.572	6.	5.e-002	-59.974
30197	19.849	6.	0.1	-12.841
30198	19.756	6.	5.e-002	-59.114
30199	20.033	6.	0.1	-13.051
30200	19.941	6.	5.e-002	-58.206
30201	20.218	6.	0.1	-13.261
30202	20.125	6.	5.e-002	-57.247
30203	20.402	6.	0.1	-13.471
30204	20.31	6.	5.e-002	-56.232
30205	20.587	6.	0.1	-13.679
30206	20.494	6.	5.e-002	-55.157
30207	20.771	6.	0.1	-13.886
30208	20.679	6.	5.e-002	-54.016
30209	20.956	6.	0.1	-14.088
30210	20.863	6.	5.e-002	-52.804
30211	21.14	6.	0.1	-14.285
30212	21.048	6.	5.e-002	-51.514
30213	21.325	6.	0.1	-14.475
30214	21.232	6.	5.e-002	-50.14
30215	21.509	6.	0.1	-14.655
30216	21.417	6.	5.e-002	-48.673
30217	21.694	6.	0.1	-14.823
30218	21.601	6.	5.e-002	-47.105
30219	21.878	6.	0.1	-14.975
30220	21.786	6.	5.e-002	-45.424
30221	22.063	6.	0.1	-15.106
30222	21.97	6.	5.e-002	-43.62
30223	22.247	6.	0.1	-15.212
30224	22.155	6.	5.e-002	-41.678
30225	22.432	6.	0.1	-15.286
30226	22.339	6.	5.e-002	-39.581
30227	22.616	6.	0.1	-15.319
30228	22.524	6.	5.e-002	-37.308
30229	22.801	6.	0.1	-15.297
30230	22.708	6.	5.e-002	-34.835
30231	22.985	6.	0.1	-15.203
30232	22.893	6.	5.e-002	-32.126
30233	23.17	6.	0.1	-15.007
30234	23.077	6.	5.e-002	-29.136
30235	23.354	6.	0.1	-14.647
30236	23.262	6.	5.e-002	-25.798
30237	23.539	6.	0.1	-14.068
30238	23.446	6.	5.e-002	-22.007
30239	23.723	6.	0.1	-12.555
30240	23.631	6.	5.e-002	-17.563
30241	23.908	6.	0.1	-8.6115
30242	23.815	6.	5.e-002	-11.836
30243	24.	5.9091	0.1	-20.336
30244	24.	6.	5.e-002	-4.5381
30245	24.	5.7273	0.1	-50.35
30246	24.	5.8182	5.e-002	-4.0397
30247	24.	5.5455	0.1	-74.703
30248	24.	5.6364	5.e-002	-4.6284
30249	24.	5.3636	0.1	-94.119
30250	24.	5.4545	5.e-002	-5.1398
30251	24.	5.1818	0.1	-110.45
30252	24.	5.2727	5.e-002	-5.417
30253	24.	5.	0.1	-124.46
30254	24.	5.0909	5.e-002	-5.5432
30255	24.	4.8182	0.1	-136.57
30256	24.	4.9091	5.e-002	-5.5649
30257	24.	4.6364	0.1	-147.07
30258	24.	4.7273	5.e-002	-5.5136
30259	24.	4.4545	0.1	-156.13
30260	24.	4.5455	5.e-002	-5.4124
30261	24.	4.2727	0.1	-163.89
30262	24.	4.3636	5.e-002	-5.2791
30263	24.	4.0909	0.1	-170.47
30264	24.	4.1818	5.e-002	-5.1285
30265	24.	3.9091	0.1	-175.92
30266	24.	4.	5.e-002	-4.9731
30267	24.	3.7273	0.1	-180.31
30268	24.	3.8182	5.e-002	-4.824
30269	24.	3.5455	0.1	-183.69
30270	24.	3.6364	5.e-002	-4.691
30271	24.	3.3636	0.1	-186.08
30272	24.	3.4545	5.e-002	-4.5827
30273	24.	3.1818	0.1	-187.51
30274	24.	3.2727	5.e-002	-4.5063
30275	24.	3.	0.1	-187.98
30276	24.	3.0909	5.e-002	-4.4667
30277	24.	2.8182	0.1	-187.51
30278	24.	2.9091	5.e-002	-4.4667
30279	24.	2.6364	0.1	-186.08
30280	24.	2.7273	5.e-002	-4.5063
30281	24.	2.4545	0.1	-183.69
30282	24.	2.5455	5.e-002	-4.5827
30283	24.	2.2727	0.1	-180.31
30284	24.	2.3636	5.e-002	-4.691
30285	24.	2.0909	0.1	-175.92
30286	24.	2.1818	5.e-002	-4.824
30287	24.	1.9091	0.1	-170.47
30288	24.	2.	5.e-002	-4.9731
30289	24.	1.7273	0.1	-163.89
30290	24.	1.8182	5.e-002	-5.1286
30291	24.	1.5455	0.1	-156.13
30292	24.	1.6364	5.e-002	-5.2792
30293	24.	1.3636	0.1	-147.07
30294	24.	1.4545	5.e-002	-5.4124
30295	24.	1.1818	0.1	-136.57
30296	24.	1.2727	5.e-002	-5.5136
30297	24.	1.	0.1	-124.46
30298	24.	1.0909	5.e-002	-5.5649
30299	24.	0.81818	0.1	-110.45
30300	24.	0.90909	5.e-002	-5.5432
30301	24.	0.63636	0.1	-94.119
30302	24.	0.72727	5.e-002	-5.4171
30303	24.	0.45455	0.1	-74.703
30304	24.	0.54545	5.e-002	-5.1398
30305	24.	0.27273	0.1	-50.35
30306	24.	0.36364	5.e-002	-4.6284
30307	24.	9.0909e-002	0.1	-20.336
30308	24.	0.18182	5.e-002	-4.0397
30309	2.3842e-015	0.27273	0.1	1677.9
30310	7.9472e-016	9.0909e-002	0.1	-71.437
30311	1.6109e-015	0.18182	5.e-002	-79.05
30312	3.9736e-015	0.45455	0.1	2513.1
30313	3.2219e-015	0.36364	5.e-002	-58.125
30314	5.563e-015	0.63636	0.1	2942.3
30315	4.8328e-015	0.54545	5.e-002	-55.247
30316	7.1525e-015	0.81818	0.1	3213.7
30317	6.4438e-015	0.72727	5.e-002	-50.288
30318	8.7419e-015	1.	0.1	3401.
30319	8.0547e-015	0.90909	5.e-002	-43.931
30320	1.0331e-014	1.1818	0.1	3536.9
30321	9.6657e-015	1.0909	5.e-002	-37.827
30322	1.1921e-014	1.3636	0.1	3637.6
30323	1.1277e-014	1.2727	5.e-002	-32.104
30324	1.351e-014	1.5455	0.1	3712.9
30325	1.2888e-014	1.4545	5.e-002	-26.688
30326	1.51e-014	1.7273	0.1	3769.2
30327	1.4498e-014	1.6364	5.e-002	-21.583
30328	1.6689e-014	1.9091	0.1	3810.9
30329	1.6109e-014	1.8182	5.e-002	-16.837
30330	1.8279e-014	2.0909	0.1	3841.6
30331	1.772e-014	2.	5.e-002	-12.537
30332	1.9868e-014	2.2727	0.1	3863.9
30333	1.9331e-014	2.1818	5.e-002	-8.7824
30334	2.1457e-014	2.4545	0.1	3879.5
30335	2.0942e-014	2.3636	5.e-002	-5.6709
30336	2.3047e-014	2.6364	0.1	3889.9
30337	2.2553e-014	2.5455	5.e-002	-3.2788
30338	2.4636e-014	2.8182	0.1	3895.8
30339	2.4164e-014	2.7273	5.e-002	-1.6567
30340	2.6226e-014	3.	0.1	3897.8
30341	2.5775e-014	2.9091	5.e-002	-0.83156
30342	2.7815e-014	3.1818	0.1	3895.8
30343	2.7386e-014	3.0909	5.e-002	-0.83165
30344	2.9405e-014	3.3636	0.1	3889.9
30345	2.8997e-014	3.2727	5.e-002	-1.6567
30346	3.0994e-014	3.5455	0.1	3879.5
30347	3.0608e-014	3.4545	5.e-002	-3.279
30348	3.2583e-014	3.7273	0.1	3863.9
30349	3.2219e-014	3.6364	5.e-002	-5.6712
30350	3.4173e-014	3.9091	0.1	3841.6
30351	3.383e-014	3.8182	5.e-002	-8.7828
30352	3.5762e-014	4.0909	0.1	3810.9
30353	3.5441e-014	4.	5.e-002	-12.537
30354	3.7352e-014	4.2727	0.1	3769.2
30355	3.7052e-014	4.1818	5.e-002	-16.838
30356	3.8941e-014	4.4545	0.1	3712.9
30357	3.8663e-014	4.3636	5.e-002	-21.583
30358	4.0531e-014	4.6364	0.1	3637.6
30359	4.0274e-014	4.5455	5.e-002	-26.689
30360	4.212e-014	4.8182	0.1	3536.9
30361	4.1885e-014	4.7273	5.e-002	-32.104
30362	4.371e-014	5.	0.1	3401.
30363	4.3495e-014	4.9091	5.e-002	-37.828
30364	4.5299e-014	5.1818	0.1	3213.7
30365	4.5106e-014	5.0909	5.e-002	-43.932
30366	4.6888e-014	5.3636	0.1	2942.3
30367	4.6717e-014	5.2727	5.e-002	-50.288
30368	4.8478e-014	5.5455	0.1	2513.1
30369	4.8328e-014	5.4545	5.e-002	-55.247
30370	5.0067e-014	5.7273	0.1	1677.9
30371	4.9939e-014	5.6364	5.e-002	-58.126
30372	5.1657e-014	5.9091	0.1	-71.439
30373	5.155e-014	5.8182	5.e-002	-79.05
30374	23.908	0.	0.1	-8.6115
30375	24.	0.	5.e-002	-4.5381
30376	23.723	0.	0.1	-12.555
30377	23.815	0.	5.e-002	-11.836
30378	23.539	0.	0.1	-14.068
30379	23.631	0.	5.e-002	-17.563
30380	23.354	0.	0.1	-14.647
30381	23.446	0.	5.e-002	-22.007
30382	23.17	0.	0.1	-15.007
30383	23.262	0.	5.e-002	-25.798
30384	22.985	0.	0.1	-15.203
30385	23.077	0.	5.e-002	-29.136
30386	22.801	0.	0.1	-15.297
30387	22.893	0.	5.e-002	-32.126
30388	22.616	0.	0.1	-15.319
30389	22.708	0.	5.e-002	-34.835
30390	22.432	0.	0.1	-15.286
30391	22.524	0.	5.e-002	-37.308
30392	22.247	0.	0.1	-15.212
30393	22.339	0.	5.e-002	-39.581
30394	22.063	0.	0.1	-15.106
30395	22.155	0.	5.e-002	-41.678
30396	21.878	0.	0.1	-14.975
30397	21.97	0.	5.e-002	-43.62
30398	21.694	0.	0.1	-14.823
30399	21.786	0.	5.e-002	-45.424
30400	21.509	0.	0.1	-14.655
30401	21.601	0.	5.e-002	-47.105
30402	21.325	0.	0.1	-14.475
30403	21.417	0.	5.e-002	-48.673
30404	21.14	0.	0.1	-14.285
30405	21.232	0.	5.e-002	-50.14
30406	20.956	0.	0.1	-14.088
30407	21.048	0.	5.e-002	-51.514
30408	20.771	0.	0.1	-13.886
30409	20.863	0.	5.e-002	-52.804
30410	20.587	0.	0.1	-13.679
30411	20.679	0.	5.e-002	-54.016
30412	20.402	0.	0.1	-13.471
30413	20.494	0.	5.e-002	-55.157
30414	20.218	0.	0.1	-13.261
30415	20.31	0.	5.e-002	-56.232
30416	20.033	0.	0.1	-13.051
30417	20.125	0.	5.e-002	-57.247
30418	19.849	0.	0.1	-12.841
30419	19.941	0.	5.e-002	-58.206
30420	19.664	0.	0.1	-12.633
30421	19.756	0.	5.e-002	-59.114
30422	19.48	0.	0.1	-12.427
30423	19.572	0.	5.e-002	-59.974
30424	19.295	0.	0.1	-12.223
30425	19.387	0.	5.e-002	-60.79
30426	19.111	0.	0.1	-12.021
30427	19.203	0.	5.e-002	-61.565
30428	18.926	0.	0.1	-11.823
30429	19.018	0.	5.e-002	-62.302
30430	18.742	0.	0.1	-11.628
30431	18.834	0.	5.e-002	-63.004
30432	18.557	0.	0.1	-11.437
30433	18.649	0.	5.e-002	-63.673
30434	18.373	0.	0.1	-11.249
30435	18.465	0.	5.e-002	-64.312
30436	18.188	0.	0.1	-11.064
30437	18.28	0.	5.e-002	-64.922
30438	18.004	0.	0.1	-10.884
30439	18.096	0.	5.e-002	-65.506
30440	17.819	0.	0.1	-10.707
30441	17.911	0.	5.e-002	-66.065
30442	17.635	0.	0.1	-10.534
30443	17.727	0.	5.e-002	-66.6
30444	17.45	0.	0.1	-10.364
30445	17.542	0.	5.e-002	-67.113
30446	17.266	0.	0.1	-10.198
30447	17.358	0.	5.e-002	-67.606
30448	17.081	0.	0.1	-10.036
30449	17.173	0.	5.e-002	-68.079
30450	16.897	0.	0.1	-9.8769
30451	16.989	0.	5.e-002	-68.534
30452	16.712	0.	0.1	-9.7211
30453	16.804	0.	5.e-002	-68.97
30454	16.528	0.	0.1	-9.5685
30455	16.62	0.	5.e-002	-69.39
30456	16.343	0.	0.1	-9.4188
30457	16.435	0.	5.e-002	-69.793
30458	16.159	0.	0.1	-9.2721
30459	16.251	0.	5.e-002	-70.181
30460	15.974	0.	0.1	-9.1279
30461	16.066	0.	5.e-002	-70.553
30462	15.79	0.	0.1	-8.9863
30463	15.882	0.	5.e-002	-70.91
30464	15.605	0.	0.1	-8.847
30465	15.697	0.	5.e-002	-71.252
30466	15.421	0.	0.1	-8.7098
30467	15.513	0.	5.e-002	-71.58
30468	15.236	0.	0.1	-8.5745
30469	15.328	0.	5.e-002	-71.893
30470	15.052	0.	0.1	-8.441
30471	15.144	0.	5.e-002	-72.192
30472	14.867	0.	0.1	-8.309
30473	14.959	0.	5.e-002	-72.475
30474	14.683	0.	0.1	-8.1782
30475	14.775	0.	5.e-002	-72.744
30476	14.498	0.	0.1	-8.0485
30477	14.59	0.	5.e-002	-72.998
30478	14.314	0.	0.1	-7.9197
30479	14.406	0.	5.e-002	-73.235
30480	14.129	0.	0.1	-7.7914
30481	14.221	0.	5.e-002	-73.457
30482	13.945	0.	0.1	-7.6635
30483	14.037	0.	5.e-002	-73.661
30484	13.76	0.	0.1	-7.5356
30485	13.852	0.	5.e-002	-73.848
30486	13.576	0.	0.1	-7.4076
30487	13.668	0.	5.e-002	-74.017
30488	13.391	0.	0.1	-7.2792
30489	13.483	0.	5.e-002	-74.166
30490	13.207	0.	0.1	-7.15
30491	13.299	0.	5.e-002	-74.295
30492	13.022	0.	0.1	-7.0198
30493	13.114	0.	5.e-002	-74.402
30494	12.838	0.	0.1	-6.8884
30495	12.93	0.	5.e-002	-74.486
30496	12.653	0.	0.1	-6.7553
30497	12.745	0.	5.e-002	-74.545
30498	12.469	0.	0.1	-6.6204
30499	12.561	0.	5.e-002	-74.579
30500	12.284	0.	0.1	-6.4832
30501	12.376	0.	5.e-002	-74.585
30502	12.1	0.	0.1	-6.3434
30503	12.192	0.	5.e-002	-74.561
30504	11.915	0.	0.1	-6.2009
30505	12.007	0.	5.e-002	-74.506
30506	11.731	0.	0.1	-6.0552
30507	11.823	0.	5.e-002	-74.417
30508	11.546	0.	0.1	-5.906
30509	11.638	0.	5.e-002	-74.291
30510	11.362	0.	0.1	-5.753
30511	11.454	0.	5.e-002	-74.127
30512	11.177	0.	0.1	-5.5959
30513	11.269	0.	5.e-002	-73.921
30514	10.993	0.	0.1	-5.4344
30515	11.085	0.	5.e-002	-73.671
30516	10.808	0.	0.1	-5.2683
30517	10.9	0.	5.e-002	-73.373
30518	10.624	0.	0.1	-5.0974
30519	10.716	0.	5.e-002	-73.025
30520	10.439	0.	0.1	-4.9215
30521	10.531	0.	5.e-002	-72.622
30522	10.255	0.	0.1	-4.7404
30523	10.347	0.	5.e-002	-72.163
30524	10.07	0.	0.1	-4.5541
30525	10.162	0.	5.e-002	-71.643
30526	9.8855	0.	0.1	-4.3628
30527	9.9778	0.	5.e-002	-71.059
30528	9.701	0.	0.1	-4.1666
30529	9.7933	0.	5.e-002	-70.408
30530	9.5165	0.	0.1	-3.9657
30531	9.6088	0.	5.e-002	-69.686
30532	9.332	0.	0.1	-3.7608
30533	9.4243	0.	5.e-002	-68.89
30534	9.1475	0.	0.1	-3.5526
30535	9.2398	0.	5.e-002	-68.018
30536	8.963	0.	0.1	-3.342
30537	9.0553	0.	5.e-002	-67.069
30538	8.7785	0.	0.1	-3.1305
30539	8.8708	0.	5.e-002	-66.04
30540	8.594	0.	0.1	-2.9196
30541	8.6863	0.	5.e-002	-64.933
30542	8.4095	0.	0.1	-2.7116
30543	8.5018	0.	5.e-002	-63.748
30544	8.225	0.	0.1	-2.509
30545	8.3173	0.	5.e-002	-62.489
30546	8.0405	0.	0.1	-2.3152
30547	8.1327	0.	5.e-002	-61.163
30548	7.856	0.	0.1	-2.134
30549	7.9482	0.	5.e-002	-59.777
30550	7.6715	0.	0.1	-1.9702
30551	7.7637	0.	5.e-002	-58.346
30552	7.487	0.	0.1	-1.8293
30553	7.5792	0.	5.e-002	-56.885
30554	7.3025	0.	0.1	-1.7182
30555	7.3947	0.	5.e-002	-55.418
30556	7.118	0.	0.1	-1.6445
30557	7.2102	0.	5.e-002	-53.976
30558	6.9335	0.	0.1	-1.6174
30559	7.0257	0.	5.e-002	-52.595
30560	6.749	0.	0.1	-1.6476
30561	6.8412	0.	5.e-002	-51.323
30562	6.5645	0.	0.1	-1.7475
30563	6.6567	0.	5.e-002	-50.218
30564	6.38	0.	0.1	-1.9316
30565	6.4722	0.	5.e-002	-49.349
30566	6.1955	0.	0.1	-2.217
30567	6.2877	0.	5.e-002	-48.802
30568	6.011	0.	0.1	-2.6238
30569	6.1032	0.	5.e-002	-48.671
30570	5.8265	0.	0.1	-3.1758
30571	5.9187	0.	5.e-002	-49.067
30572	5.642	0.	0.1	-3.9013
30573	5.7342	0.	5.e-002	-50.112
30574	5.4575	0.	0.1	-4.8335
30575	5.5497	0.	5.e-002	-51.932
30576	5.273	0.	0.1	-6.0113
30577	5.3652	0.	5.e-002	-54.65
30578	5.0885	0.	0.1	-7.4782
30579	5.1807	0.	5.e-002	-58.373
30580	4.9039	0.	0.1	-9.2801
30581	4.9962	0.	5.e-002	-63.16
30582	4.7194	0.	0.1	-11.459
30583	4.8117	0.	5.e-002	-68.997
30584	4.5349	0.	0.1	-14.041
30585	4.6272	0.	5.e-002	-75.734
30586	4.3504	0.	0.1	-17.011
30587	4.4427	0.	5.e-002	-83.024
30588	4.1659	0.	0.1	-20.281
30589	4.2582	0.	5.e-002	-90.232
30590	3.9814	0.	0.1	-23.615
30591	4.0737	0.	5.e-002	-96.332
30592	3.7969	0.	0.1	-26.573
30593	3.8892	0.	5.e-002	-99.791
30594	3.6124	0.	0.1	-28.252
30595	3.7047	0.	5.e-002	-98.5
30596	3.4279	0.	0.1	-27.404
30597	3.5202	0.	5.e-002	-89.399
30598	3.2434	0.	0.1	-23.391
30599	3.3357	0.	5.e-002	-69.184
30600	3.0589	0.	0.1	-7.6721
30601	3.1512	0.	5.e-002	-26.174
30602	2.9667	0.	5.e-002	-37.635
30603	2.7125	-6.464e-031	0.1	-14.933
30604	2.8	-6.6725e-031	5.e-002	-48.368
30605	2.5375	-6.047e-031	0.1	-43.489
30606	2.625	0.	5.e-002	-53.783
30607	2.3625	-5.6299e-031	0.1	-59.037
30608	2.45	0.	5.e-002	-131.23
30609	2.1875	-5.2129e-031	0.1	-69.19
30610	2.275	0.	5.e-002	-182.14
30611	2.0125	-4.7959e-031	0.1	-75.048
30612	2.1	0.	5.e-002	-221.45
30613	1.8375	-4.3788e-031	0.1	-78.574
30614	1.925	0.	5.e-002	-253.04
30615	1.6625	-3.9618e-031	0.1	-81.509
30616	1.75	0.	5.e-002	-280.58
30617	1.4875	-3.5448e-031	0.1	-85.085
30618	1.575	0.	5.e-002	-306.74
30619	1.3125	-3.1277e-031	0.1	-90.417
30620	1.4	0.	5.e-002	-333.74
30621	1.1375	-2.7107e-031	0.1	-98.611
30622	1.225	0.	5.e-002	-363.42
30623	0.9625	-2.2937e-031	0.1	-111.29
30624	1.05	0.	5.e-002	-397.54
30625	0.7875	-1.8766e-031	0.1	-130.48
30626	0.875	0.	5.e-002	-437.89
30627	0.6125	-1.4596e-031	0.1	-161.69
30628	0.7	0.	5.e-002	-487.25
30629	0.4375	-1.0426e-031	0.1	-215.13
30630	0.525	0.	5.e-002	-549.22
30631	0.2625	-6.2555e-032	0.1	-329.94
30632	0.35	0.	5.e-002	-635.53
30633	8.75e-002	-2.0852e-032	0.1	-857.85
30634	0.175	0.	5.e-002	-811.22
30635	0.	0.	5.e-002	-1078.3
30636	8.75e-002	6.	0.1	-857.85
30637	5.2451e-014	6.	5.e-002	-1078.3
30638	0.2625	6.	0.1	-329.94
30639	0.175	6.	5.e-002	-811.22
30640	0.4375	6.	0.1	-215.13
30641	0.35	6.	5.e-002	-635.53
30642	0.6125	6.	0.1	-161.69
30643	0.525	6.	5.e-002	-549.22
30644	0.7875	6.	0.1	-130.48
30645	0.7	6.	5.e-002	-487.25
30646	0.9625	6.	0.1	-111.29
30647	0.875	6.	5.e-002	-437.89
30648	1.1375	6.	0.1	-98.611
30649	1.05	6.	5.e-002	-397.54
30650	1.3125	6.	0.1	-90.417
30651	1.225	6.	5.e-002	-363.42
30652	1.4875	6.	0.1	-85.085
30653	1.4	6.	5.e-002	-333.74
30654	1.6625	6.	0.1	-81.509
30655	1.575	6.	5.e-002	-306.74
30656	1.8375	6.	0.1	-78.574
30657	1.75	6.	5.e-002	-280.58
30658	2.0125	6.	0.1	-75.048
30659	1.925	6.	5.e-002	-253.04
30660	2.1875	6.	0.1	-69.19
30661	2.1	6.	5.e-002	-221.45
30662	2.3625	6.	0.1	-59.037
30663	2.275	6.	5.e-002	-182.14
30664	2.5375	6.	0.1	-43.489
30665	2.45	6.	5.e-002	-131.23
30666	2.7125	6.	0.1	-14.933
30667	2.625	6.	5.e-002	-53.783
30668	2.8	6.	5.e-002	-48.368
30669	2.5375	6.	0.	-1239.2
30670	2.7125	6.	0.	-444.25
30671	2.3625	6.	0.	-1986.
30672	2.1875	6.	0.	-2646.9
30673	2.0125	6.	0.	-3232.5
30674	1.8375	6.	0.	-3742.9
30675	1.6625	6.	0.	-4177.8
30676	1.4875	6.	0.	-4537.7
30677	1.3125	6.	0.	-4822.8
30678	1.1375	6.	0.	-5030.9
30679	0.9625	6.	0.	-5155.2
30680	0.7875	6.	0.	-5179.7
30681	0.6125	6.	0.	-5066.
30682	0.4375	6.	0.	-4736.6
30683	0.2625	6.	0.	-3941.8
30684	8.75e-002	6.	0.	-1892.8
30685	2.8	5.9091	0.	-376.1
30686	5.1657e-014	5.9091	0.	-1466.
30687	0.2625	-6.2555e-032	0.	-3941.8
30688	8.75e-002	-2.0852e-032	0.	-1892.8
30689	0.4375	-1.0426e-031	0.	-4736.6
30690	0.6125	-1.4596e-031	0.	-5066.
30691	0.7875	-1.8766e-031	0.	-5179.7
30692	0.9625	-2.2937e-031	0.	-5155.2
30693	1.1375	-2.7107e-031	0.	-5030.9
30694	1.3125	-3.1277e-031	0.	-4822.8
30695	1.4875	-3.5448e-031	0.	-4537.7
30696	1.6625	-3.9618e-031	0.	-4177.8
30697	1.8375	-4.3788e-031	0.	-3742.9
30698	2.0125	-4.7959e-031	0.	-3232.5
30699	2.1875	-5.2129e-031	0.	-2646.9
30700	2.3625	-5.6299e-031	0.	-1986.
30701	2.5375	-6.047e-031	0.	-1239.2
30702	2.7125	-6.464e-031	0.	-444.25
30703	2.8	9.0909e-002	0.	-376.1
30704	7.9472e-016	9.0909e-002	0.	-1466.
30705	3.2434	0.	0.	-1013.3
30706	3.0589	0.	0.	-365.27
30707	3.4279	0.	0.	-1635.7
30708	3.6124	0.	0.	-2186.8
30709	3.7969	0.	0.	-2668.6
30710	3.9814	0.	0.	-3080.2
30711	4.1659	0.	0.	-3423.
30712	4.3504	0.	0.	-3701.7
30713	4.5349	0.	0.	-3922.6
30714	4.7194	0.	0.	-4093.
30715	4.9039	0.	0.	-4220.5
30716	5.0885	0.	0.	-4311.9
30717	5.273	0.	0.	-4373.6
30718	5.4575	0.	0.	-4411.1
30719	5.642	0.	0.	-4428.8
30720	5.8265	0.	0.	-4430.8
30721	6.011	0.	0.	-4420.2
30722	6.1955	0.	0.	-4399.6
30723	6.38	0.	0.	-4371.1
30724	6.5645	0.	0.	-4336.4
30725	6.749	0.	0.	-4296.9
30726	6.9335	0.	0.	-4253.6
30727	7.118	0.	0.	-4207.5
30728	7.3025	0.	0.	-4159.2
30729	7.487	0.	0.	-4109.2
30730	7.6715	0.	0.	-4058.
30731	7.856	0.	0.	-4005.8
30732	8.0405	0.	0.	-3953.1
30733	8.225	0.	0.	-3899.9
30734	8.4095	0.	0.	-3846.5
30735	8.594	0.	0.	-3792.9
30736	8.7785	0.	0.	-3739.3
30737	8.963	0.	0.	-3685.7
30738	9.1475	0.	0.	-3632.2
30739	9.332	0.	0.	-3578.8
30740	9.5165	0.	0.	-3525.5
30741	9.701	0.	0.	-3472.5
30742	9.8855	0.	0.	-3419.6
30743	10.07	0.	0.	-3367.
30744	10.255	0.	0.	-3314.5
30745	10.439	0.	0.	-3262.3
30746	10.624	0.	0.	-3210.3
30747	10.808	0.	0.	-3158.6
30748	10.993	0.	0.	-3107.1
30749	11.177	0.	0.	-3055.8
30750	11.362	0.	0.	-3004.7
30751	11.546	0.	0.	-2953.9
30752	11.731	0.	0.	-2903.3
30753	11.915	0.	0.	-2852.9
30754	12.1	0.	0.	-2802.8
30755	12.284	0.	0.	-2752.8
30756	12.469	0.	0.	-2703.2
30757	12.653	0.	0.	-2653.7
30758	12.838	0.	0.	-2604.4
30759	13.022	0.	0.	-2555.4
30760	13.207	0.	0.	-2506.6
30761	13.391	0.	0.	-2458.
30762	13.576	0.	0.	-2409.6
30763	13.76	0.	0.	-2361.4
30764	13.945	0.	0.	-2313.4
30765	14.129	0.	0.	-2265.7
30766	14.314	0.	0.	-2218.1
30767	14.498	0.	0.	-2170.8
30768	14.683	0.	0.	-2123.6
30769	14.867	0.	0.	-2076.7
30770	15.052	0.	0.	-2030.
30771	15.236	0.	0.	-1983.5
30772	15.421	0.	0.	-1937.2
30773	15.605	0.	0.	-1891.
30774	15.79	0.	0.	-1845.1
30775	15.974	0.	0.	-1799.4
30776	16.159	0.	0.	-1753.9
30777	16.343	0.	0.	-1708.6
30778	16.528	0.	0.	-1663.5
30779	16.712	0.	0.	-1618.5
30780	16.897	0.	0.	-1573.8
30781	17.081	0.	0.	-1529.3
30782	17.266	0.	0.	-1484.9
30783	17.45	0.	0.	-1440.8
30784	17.635	0.	0.	-1396.8
30785	17.819	0.	0.	-1353.
30786	18.004	0.	0.	-1309.4
30787	18.188	0.	0.	-1266.
30788	18.373	0.	0.	-1222.8
30789	18.557	0.	0.	-1179.7
30790	18.742	0.	0.	-1136.9
30791	18.926	0.	0.	-1094.2
30792	19.111	0.	0.	-1051.6
30793	19.295	0.	0.	-1009.3
30794	19.48	0.	0.	-967.12
30795	19.664	0.	0.	-925.11
30796	19.849	0.	0.	-883.27
30797	20.033	0.	0.	-841.59
30798	20.218	0.	0.	-800.06
30799	20.402	0.	0.	-758.7
30800	20.587	0.	0.	-717.49
30801	20.771	0.	0.	-676.44
30802	20.956	0.	0.	-635.54
30803	21.14	0.	0.	-594.79
30804	21.325	0.	0.	-554.2
30805	21.509	0.	0.	-513.76
30806	21.694	0.	0.	-473.49
30807	21.878	0.	0.	-433.38
30808	22.063	0.	0.	-393.45
30809	22.247	0.	0.	-353.72
30810	22.432	0.	0.	-314.2
30811	22.616	0.	0.	-274.93
30812	22.801	0.	0.	-235.96
30813	22.985	0.	0.	-197.35
30814	23.17	0.	0.	-159.21
30815	23.354	0.	0.	-121.71
30816	23.539	0.	0.	-85.157
30817	23.723	0.	0.	-50.216
30818	23.908	0.	0.	-18.625
30819	2.9667	9.0909e-002	0.	-275.1
30820	24.	9.0909e-002	0.	-5.8864
30821	5.0067e-014	5.7273	0.	-3568.8
30822	4.8478e-014	5.5455	0.	-5159.8
30823	4.6888e-014	5.3636	0.	-6000.3
30824	4.5299e-014	5.1818	0.	-6541.6
30825	4.371e-014	5.	0.	-6916.8
30826	4.212e-014	4.8182	0.	-7189.4
30827	4.0531e-014	4.6364	0.	-7391.6
30828	3.8941e-014	4.4545	0.	-7542.7
30829	3.7352e-014	4.2727	0.	-7655.7
30830	3.5762e-014	4.0909	0.	-7739.5
30831	3.4173e-014	3.9091	0.	-7801.1
30832	3.2583e-014	3.7273	0.	-7845.7
30833	3.0994e-014	3.5455	0.	-7877.
30834	2.9405e-014	3.3636	0.	-7897.8
30835	2.7815e-014	3.1818	0.	-7909.6
30836	2.6226e-014	3.	0.	-7913.5
30837	2.4636e-014	2.8182	0.	-7909.6
30838	2.3047e-014	2.6364	0.	-7897.8
30839	2.1457e-014	2.4545	0.	-7877.
30840	1.9868e-014	2.2727	0.	-7845.7
30841	1.8279e-014	2.0909	0.	-7801.1
30842	1.6689e-014	1.9091	0.	-7739.5
30843	1.51e-014	1.7273	0.	-7655.7
30844	1.351e-014	1.5455	0.	-7542.7
30845	1.1921e-014	1.3636	0.	-7391.6
30846	1.0331e-014	1.1818	0.	-7189.4
30847	8.7419e-015	1.	0.	-6916.8
30848	7.1525e-015	0.81818	0.	-6541.6
30849	5.563e-015	0.63636	0.	-6000.3
30850	3.9736e-015	0.45455	0.	-5159.8
30851	2.3842e-015	0.27273	0.	-3568.8
30852	24.	0.27273	0.	-6.9336
30853	24.	0.45455	0.	-7.1914
30854	24.	0.63636	0.	-7.2745
30855	24.	0.81818	0.	-7.2848
30856	24.	1.	0.	-7.2549
30857	24.	1.1818	0.	-7.2101
30858	24.	1.3636	0.	-7.1589
30859	24.	1.5455	0.	-7.1072
30860	24.	1.7273	0.	-7.0579
30861	24.	1.9091	0.	-7.013
30862	24.	2.0909	0.	-6.9738
30863	24.	2.2727	0.	-6.941
30864	24.	2.4545	0.	-6.915
30865	24.	2.6364	0.	-6.8963
30866	24.	2.8182	0.	-6.885
30867	24.	3.	0.	-6.8813
30868	24.	3.1818	0.	-6.885
30869	24.	3.3636	0.	-6.8963
30870	24.	3.5455	0.	-6.915
30871	24.	3.7273	0.	-6.941
30872	24.	3.9091	0.	-6.9738
30873	24.	4.0909	0.	-7.013
30874	24.	4.2727	0.	-7.0579
30875	24.	4.4545	0.	-7.1072
30876	24.	4.6364	0.	-7.1589
30877	24.	4.8182	0.	-7.2101
30878	24.	5.	0.	-7.2549
30879	24.	5.1818	0.	-7.2848
30880	24.	5.3636	0.	-7.2745
30881	24.	5.5455	0.	-7.1914
30882	24.	5.7273	0.	-6.9336
30883	24.	5.9091	0.	-5.8864
30884	23.908	6.	0.	-18.625
30885	23.723	6.	0.	-50.216
30886	23.539	6.	0.	-85.157
30887	23.354	6.	0.	-121.71
30888	23.17	6.	0.	-159.21
30889	22.985	6.	0.	-197.35
30890	22.801	6.	0.	-235.96
30891	22.616	6.	0.	-274.93
30892	22.432	6.	0.	-314.2
30893	22.247	6.	0.	-353.72
30894	22.063	6.	0.	-393.45
30895	21.878	6.	0.	-433.38
30896	21.694	6.	0.	-473.49
30897	21.509	6.	0.	-513.76
30898	21.325	6.	0.	-554.2
30899	21.14	6.	0.	-594.79
30900	20.956	6.	0.	-635.54
30901	20.771	6.	0.	-676.44
30902	20.587	6.	0.	-717.49
30903	20.402	6.	0.	-758.7
30904	20.218	6.	0.	-800.06
30905	20.033	6.	0.	-841.59
30906	19.849	6.	0.	-883.27
30907	19.664	6.	0.	-925.11
30908	19.48	6.	0.	-967.12
30909	19.295	6.	0.	-1009.3
30910	19.111	6.	0.	-1051.6
30911	18.926	6.	0.	-1094.2
30912	18.742	6.	0.	-1136.9
30913	18.557	6.	0.	-1179.7
30914	18.373	6.	0.	-1222.8
30915	18.188	6.	0.	-1266.
30916	18.004	6.	0.	-1309.4
30917	17.819	6.	0.	-1353.
30918	17.635	6.	0.	-1396.8
30919	17.45	6.	0.	-1440.8
30920	17.266	6.	0.	-1484.9
30921	17.081	6.	0.	-1529.3
30922	16.897	6.	0.	-1573.8
30923	16.712	6.	0.	-1618.5
30924	16.528	6.	0.	-1663.5
30925	16.343	6.	0.	-1708.6
30926	16.159	6.	0.	-1753.9
30927	15.974	6.	0.	-1799.4
30928	15.79	6.	0.	-1845.1
30929	15.605	6.	0.	-1891.
30930	15.421	6.	0.	-1937.2
30931	15.236	6.	0.	-1983.5
30932	15.052	6.	0.	-2030.
30933	14.867	6.	0.	-2076.7
30934	14.683	6.	0.	-2123.6
30935	14.498	6.	0.	-2170.8
30936	14.314	6.	0.	-2218.1
30937	14.129	6.	0.	-2265.7
30938	13.945	6.	0.	-2313.4
30939	13.76	6.	0.	-2361.4
30940	13.576	6.	0.	-2409.6
30941	13.391	6.	0.	-2458.
30942	13.207	6.	0.	-2506.6
30943	13.022	6.	0.	-2555.4
30944	12.838	6.	0.	-2604.4
30945	12.653	6.	0.	-2653.7
30946	12.469	6.	0.	-2703.2
30947	12.284	6.	0.	-2752.8
30948	12.1	6.	0.	-2802.8
30949	11.915	6.	0.	-2852.9
30950	11.731	6.	0.	-2903.3
30951	11.546	6.	0.	-2953.9
30952	11.362	6.	0.	-3004.7
30953	11.177	6.	0.	-3055.8
30954	10.993	6.	0.	-3107.1
30955	10.808	6.	0.	-3158.6
30956	10.624	6.	0.	-3210.3
30957	10.439	6.	0.	-3262.3
30958	10.255	6.	0.	-3314.5
30959	10.07	6.	0.	-3367.
30960	9.8855	6.	0.	-3419.6
30961	9.701	6.	0.	-3472.5
30962	9.5165	6.	0.	-3525.5
30963	9.332	6.	0.	-3578.8
30964	9.1475	6.	0.	-3632.2
30965	8.963	6.	0.	-3685.7
30966	8.7785	6.	0.	-3739.3
30967	8.594	6.	0.	-3792.9
30968	8.4095	6.	0.	-3846.5
30969	8.225	6.	0.	-3899.9
30970	8.0405	6.	0.	-3953.1
30971	7.856	6.	0.	-4005.8
30972	7.6715	6.	0.	-4058.
30973	7.487	6.	0.	-4109.2
30974	7.3025	6.	0.	-4159.2
30975	7.118	6.	0.	-4207.5
30976	6.9335	6.	0.	-4253.6
30977	6.749	6.	0.	-4296.9
30978	6.5645	6.	0.	-4336.4
30979	6.38	6.	0.	-4371.1
30980	6.1955	6.	0.	-4399.6
30981	6.011	6.	0.	-4420.2
30982	5.8265	6.	0.	-4430.8
30983	5.642	6.	0.	-4428.8
30984	5.4575	6.	0.	-4411.1
30985	5.273	6.	0.	-4373.6
30986	5.0885	6.	0.	-4311.9
30987	4.9039	6.	0.	-4220.5
30988	4.7194	6.	0.	-4093.
30989	4.5349	6.	0.	-3922.6
30990	4.3504	6.	0.	-3701.7
30991	4.1659	6.	0.	-3423.
30992	3.9814	6.	0.	-3080.2
30993	3.7969	6.	0.	-2668.6
30994	3.6124	6.	0.	-2186.8
30995	3.4279	6.	0.	-1635.7
30996	3.2434	6.	0.	-1013.3
30997	3.0589	6.	0.	-365.27
30998	2.9667	5.9091	0.	-275.1
30999	2.8	1.7273	0.	-6362.1
31000	2.8	1.9091	0.	-16171
31001	2.8	1.5455	0.	-4803.6
31002	2.8	1.3636	0.	-3994.1
31003	2.8	1.1818	0.	-3365.4
31004	2.8	1.	0.	-2850.7
31005	2.8	0.81818	0.	-2386.3
31006	2.8	0.63636	0.	-1940.3
31007	2.8	0.45455	0.	-1485.
31008	2.8	0.27273	0.	-978.33
31009	2.8833	2.	0.	-25134
31010	2.9667	0.27273	0.	-696.5
31011	2.9667	0.45455	0.	-1052.
31012	2.9667	0.63636	0.	-1384.7
31013	2.9667	0.81818	0.	-1730.9
31014	2.9667	1.	0.	-2117.3
31015	2.9667	1.1818	0.	-2577.
31016	2.9667	1.3636	0.	-3174.
31017	2.9667	1.5455	0.	-3989.3
31018	2.9667	1.7273	0.	-5599.7
31019	2.9667	1.9091	0.	-15449
31020	2.8	4.2727	0.	-6362.1
31021	2.8	4.0909	0.	-16171
31022	2.8	4.4545	0.	-4803.6
31023	2.8	4.6364	0.	-3994.1
31024	2.8	4.8182	0.	-3365.4
31025	2.8	5.	0.	-2850.7
31026	2.8	5.1818	0.	-2386.3
31027	2.8	5.3636	0.	-1940.3
31028	2.8	5.5455	0.	-1485.
31029	2.8	5.7273	0.	-978.33
31030	2.8833	4.	0.	-25134
31031	2.9667	5.7273	0.	-696.5
31032	2.9667	5.5455	0.	-1052.
31033	2.9667	5.3636	0.	-1384.7
31034	2.9667	5.1818	0.	-1730.9
31035	2.9667	5.	0.	-2117.3
31036	2.9667	4.8182	0.	-2577.
31037	2.9667	4.6364	0.	-3174.
31038	2.9667	4.4545	0.	-3989.3
31039	2.9667	4.2727	0.	-5599.7
31040	2.9667	4.0909	0.	-15449
