Node Number	X Location (in)	Y Location (in)	Z Location (in)	Middle Principal Stress (psi)
1	3.0641	3.335	0.	-347.15
2	4.1028	1.5197	0.	65.286
3	3.3764	3.9975	0.	-670.46
4	1.0801	0.90418	0.	-169.6
5	1.0722	3.066	0.	-224.42
6	3.6576	0.58324	0.	39.088
7	3.4185	5.3855	0.	-2.1971
8	1.7672	4.131	0.	-55.651
9	1.1034	4.7027	0.	-47.88
10	4.7759	0.88219	0.	-17.01
11	5.8589	1.1963	0.	-29.507
12	7.0459	1.2646	0.	-49.083
13	8.3522	1.2595	0.	-21.578
14	9.5509	1.2748	0.	-5.7267
15	10.754	1.3415	0.	-3.1609
16	11.924	1.3643	0.	-1.9263
17	13.018	1.2589	0.	-1.3879
18	14.155	1.2574	0.	-1.1267
19	15.286	1.2465	0.	-1.6906
20	16.419	1.2478	0.	-0.62449
21	17.404	1.1295	0.	-0.64969
22	18.46	1.0067	0.	-0.35674
23	19.552	1.1009	0.	-0.37034
24	20.611	1.1956	0.	-0.64421
25	21.73	1.1907	0.	-0.60711
26	22.867	1.1954	0.	-0.62095
27	22.857	2.3937	0.	-1.3217
28	22.859	3.6011	0.	-1.276
29	22.86	4.8094	0.	-0.63874
30	21.713	4.7977	0.	-0.72177
31	20.553	4.7887	0.	-0.57882
32	19.39	4.7743	0.	-0.52298
33	18.243	4.7798	0.	-0.5065
34	17.097	4.8139	0.	-0.22476
35	15.964	4.8256	0.	-0.42982
36	14.858	4.8277	0.	-0.13589
37	13.69	4.8233	0.	-0.44884
38	12.538	4.8186	0.	-0.94804
39	11.39	4.8119	0.	-2.18
40	10.204	4.7955	0.	-12.111
41	8.9947	4.7683	0.	-26.503
42	7.7603	4.731	0.	-50.999
43	6.4612	4.6904	0.	-54.576
44	5.1012	4.624	0.	-31.618
45	4.2634	5.1411	0.	13.434
46	5.2544	2.2843	0.	-242.13
47	7.095	2.3811	0.	-63.742
48	8.4732	2.4262	0.	-31.773
49	9.7607	2.4604	0.	-12.07
50	10.962	2.4856	0.	-4.9497
51	12.138	2.5025	0.	-0.27412
52	13.296	2.5131	0.	-0.57381
53	14.443	2.5199	0.	-0.72359
54	15.551	2.4521	0.	-0.99266
55	16.685	2.4342	0.	-0.29258
56	17.891	2.4176	0.	1.3946
57	18.541	1.7496	0.	-1.4458
58	19.373	2.3392	0.	-2.4473
59	20.556	2.3897	0.	-2.0274
60	21.706	2.3972	0.	-1.0862
61	21.703	3.5967	0.	-1.1328
62	20.524	3.582	0.	-1.661
63	19.311	3.5606	0.	-1.3282
64	18.07	3.5924	0.	-1.4341
65	16.919	3.6172	0.	-1.2833
66	15.783	3.6425	0.	-0.86751
67	14.655	3.6563	0.	-1.0699
68	13.513	3.6516	0.	-1.4297
69	12.361	3.645	0.	-1.5202
70	11.198	3.6361	0.	-5.0014
71	9.9592	3.6199	0.	-17.31
72	8.6922	3.5813	0.	-30.774
73	7.4005	3.5192	0.	-81.846
74	6.0068	3.4373	0.	-159.6
75	3.1793	5.0141	0.	7.2845
76	3.434	4.624	0.	28.003
77	1.0897	1.8704	0.	-267.87
78	1.7107	2.9502	0.	-94.538
79	2.1167	3.9164	0.	368.09
80	2.4837	3.7584	0.	44.484
81	3.4503	1.035	0.	-5.0075
82	4.3676	3.4648	0.	22.915
83	2.3426	3.907	0.	379.39
84	2.3734	3.406	0.	-120.76
85	2.3734	3.406	0.1	120.76
86	2.3426	3.907	0.1	-379.39
87	4.3676	3.4648	0.1	-22.915
88	3.4503	1.035	0.1	5.0075
89	2.4837	3.7584	0.1	-44.484
90	2.1167	3.9164	0.1	-368.09
91	1.7107	2.9502	0.1	94.538
92	1.0897	1.8704	0.1	267.87
93	3.434	4.624	0.1	-28.003
94	3.1793	5.0141	0.1	-7.2845
95	6.0068	3.4373	0.1	159.6
96	7.4005	3.5192	0.1	81.846
97	8.6922	3.5813	0.1	30.774
98	9.9592	3.6199	0.1	17.31
99	11.198	3.6361	0.1	5.0014
100	12.361	3.645	0.1	1.5202
101	13.513	3.6516	0.1	1.4297
102	14.655	3.6563	0.1	1.0699
103	15.783	3.6425	0.1	0.86751
104	16.919	3.6172	0.1	1.2833
105	18.07	3.5924	0.1	1.4341
106	19.311	3.5606	0.1	1.3282
107	20.524	3.582	0.1	1.661
108	21.703	3.5967	0.1	1.1328
109	21.706	2.3972	0.1	1.0862
110	20.556	2.3897	0.1	2.0274
111	19.373	2.3392	0.1	2.4473
112	18.541	1.7496	0.1	1.4458
113	17.891	2.4176	0.1	-1.3946
114	16.685	2.4342	0.1	0.29258
115	15.551	2.4521	0.1	0.99266
116	14.443	2.5199	0.1	0.72359
117	13.296	2.5131	0.1	0.57381
118	12.138	2.5025	0.1	0.27412
119	10.962	2.4856	0.1	4.9497
120	9.7607	2.4604	0.1	12.07
121	8.4732	2.4262	0.1	31.773
122	7.095	2.3811	0.1	63.742
123	5.2544	2.2843	0.1	242.13
124	4.2634	5.1411	0.1	-13.434
125	5.1012	4.624	0.1	31.618
126	6.4612	4.6904	0.1	54.576
127	7.7603	4.731	0.1	50.999
128	8.9947	4.7683	0.1	26.503
129	10.204	4.7955	0.1	12.111
130	11.39	4.8119	0.1	2.18
131	12.538	4.8186	0.1	0.94804
132	13.69	4.8233	0.1	0.44884
133	14.858	4.8277	0.1	0.13589
134	15.964	4.8256	0.1	0.42982
135	17.097	4.8139	0.1	0.22476
136	18.243	4.7798	0.1	0.5065
137	19.39	4.7743	0.1	0.52298
138	20.553	4.7887	0.1	0.57882
139	21.713	4.7977	0.1	0.72177
140	22.86	4.8094	0.1	0.63874
141	22.859	3.6011	0.1	1.276
142	22.857	2.3937	0.1	1.3217
143	22.867	1.1954	0.1	0.62095
144	21.73	1.1907	0.1	0.60711
145	20.611	1.1956	0.1	0.64421
146	19.552	1.1009	0.1	0.37034
147	18.46	1.0067	0.1	0.35673
148	17.404	1.1295	0.1	0.64969
149	16.419	1.2478	0.1	0.62449
150	15.286	1.2465	0.1	1.6906
151	14.155	1.2574	0.1	1.1267
152	13.018	1.2589	0.1	1.3879
153	11.924	1.3643	0.1	1.9263
154	10.754	1.3415	0.1	3.1609
155	9.5509	1.2748	0.1	5.7267
156	8.3522	1.2595	0.1	21.578
157	7.0459	1.2646	0.1	49.083
158	5.8589	1.1963	0.1	29.507
159	4.7759	0.88219	0.1	17.01
160	1.1034	4.7027	0.1	47.88
161	1.7672	4.131	0.1	55.651
162	3.4185	5.3855	0.1	2.1971
163	3.6576	0.58324	0.1	-39.088
164	1.0722	3.066	0.1	224.42
165	1.0801	0.90418	0.1	169.6
166	3.3764	3.9975	0.1	670.46
167	4.1028	1.5197	0.1	-65.286
168	3.0641	3.335	0.1	347.15
169	2.5667	4.	0.	-335.53
170	2.5667	4.5	0.	-35.062
171	2.5667	5.	0.	-38.014
172	2.5667	5.5	0.	-146.59
173	2.4	4.	0.	-666.68
174	2.4	5.5	0.	-302.32
175	2.4	5.	0.	139.82
176	2.4	4.5	0.	58.516
177	2.5667	2.	0.	-873.42
178	2.5667	1.5	0.	-55.
179	2.5667	1.	0.	-143.87
180	2.5667	0.5	0.	-181.84
181	2.4	2.	0.	-1659.8
182	2.4	0.5	0.	-252.11
183	2.4	1.	0.	-687.95
184	2.4	1.5	0.	-1036.1
185	2.5667	6.	0.	-139.73
186	3.6947	6.	0.	-62.268
187	4.8228	6.	0.	-49.954
188	5.9509	6.	0.	1.6146
189	7.0789	6.	0.	-5.7125
190	8.207	6.	0.	-16.478
191	9.3351	6.	0.	-8.522
192	10.463	6.	0.	-1.964
193	11.591	6.	0.	0.53454
194	12.719	6.	0.	0.8672
195	13.847	6.	0.	1.0672
196	14.975	6.	0.	0.77131
197	16.104	6.	0.	0.6487
198	17.232	6.	0.	1.0592
199	18.36	6.	0.	0.68759
200	19.488	6.	0.	0.57794
201	20.616	6.	0.	0.62075
202	21.744	6.	0.	0.21516
203	22.872	6.	0.	0.30462
204	24.	6.	0.	0.76263
205	24.	4.8	0.	-0.60355
206	24.	3.6	0.	-1.3348
207	24.	2.4	0.	-1.311
208	24.	1.2	0.	-0.59329
209	1.049e-014	1.2	0.	-895.44
210	2.0981e-014	2.4	0.	-1071.1
211	3.1471e-014	3.6	0.	-1120.5
212	4.1961e-014	4.8	0.	-943.32
213	24.	0.	0.	0.80504
214	2.5667	0.	0.	-175.62
215	22.872	0.	0.	0.36019
216	21.744	0.	0.	0.28484
217	20.616	0.	0.	1.0742
218	19.488	0.	0.	-0.38524
219	18.36	0.	0.	-0.3839
220	17.232	0.	0.	-1.1949
221	16.104	0.	0.	-2.5139
222	14.975	0.	0.	-1.4949
223	13.847	0.	0.	-2.1179
224	12.719	0.	0.	-3.351
225	11.591	0.	0.	-6.7834
226	10.463	0.	0.	-9.9674
227	9.3351	0.	0.	-14.611
228	8.207	0.	0.	-20.375
229	7.0789	0.	0.	-23.166
230	5.9509	0.	0.	1.6798
231	4.8228	0.	0.	8.3983
232	3.6947	0.	0.	6.4365
233	0.	0.	0.	-648.36
234	2.4	0.	0.	-244.13
235	1.2	-5.0044e-031	0.	-3.3344
236	3.937e-014	6.	0.	-508.11
237	2.4	6.	0.	-348.32
238	1.2	6.	0.	88.842
239	2.5667	5.5	0.1	146.59
240	2.5667	5.	0.1	38.014
241	2.5667	4.5	0.1	35.062
242	2.5667	4.	0.1	335.53
243	2.4	4.	0.1	666.68
244	2.4	4.5	0.1	-58.516
245	2.4	5.	0.1	-139.82
246	2.4	5.5	0.1	302.32
247	2.5667	0.5	0.1	181.84
248	2.5667	1.	0.1	143.87
249	2.5667	1.5	0.1	55.
250	2.5667	2.	0.1	873.42
251	2.4	2.	0.1	1659.8
252	2.4	1.5	0.1	1036.1
253	2.4	1.	0.1	687.95
254	2.4	0.5	0.1	252.11
255	2.5667	6.	0.1	139.73
256	3.6947	6.	0.1	62.268
257	4.8228	6.	0.1	49.954
258	5.9509	6.	0.1	-1.6146
259	7.0789	6.	0.1	5.7125
260	8.207	6.	0.1	16.478
261	9.3351	6.	0.1	8.522
262	10.463	6.	0.1	1.964
263	11.591	6.	0.1	-0.53454
264	12.719	6.	0.1	-0.8672
265	13.847	6.	0.1	-1.0672
266	14.975	6.	0.1	-0.77131
267	16.104	6.	0.1	-0.6487
268	17.232	6.	0.1	-1.0592
269	18.36	6.	0.1	-0.68759
270	19.488	6.	0.1	-0.57794
271	20.616	6.	0.1	-0.62075
272	21.744	6.	0.1	-0.21517
273	22.872	6.	0.1	-0.30462
274	24.	6.	0.1	-0.76262
275	24.	4.8	0.1	0.60355
276	24.	3.6	0.1	1.3348
277	24.	2.4	0.1	1.311
278	24.	1.2	0.1	0.59328
279	1.049e-014	1.2	0.1	895.44
280	2.0981e-014	2.4	0.1	1071.1
281	3.1471e-014	3.6	0.1	1120.5
282	4.1961e-014	4.8	0.1	943.32
283	24.	0.	0.1	-0.80503
284	22.872	0.	0.1	-0.36019
285	21.744	0.	0.1	-0.28484
286	20.616	0.	0.1	-1.0742
287	19.488	0.	0.1	0.38524
288	18.36	0.	0.1	0.3839
289	17.232	0.	0.1	1.1949
290	16.104	0.	0.1	2.5139
291	14.975	0.	0.1	1.4949
292	13.847	0.	0.1	2.1179
293	12.719	0.	0.1	3.351
294	11.591	0.	0.1	6.7835
295	10.463	0.	0.1	9.9674
296	9.3351	0.	0.1	14.611
297	8.207	0.	0.1	20.375
298	7.0789	0.	0.1	23.166
299	5.9509	0.	0.1	-1.6798
300	4.8228	0.	0.1	-8.3983
301	3.6947	0.	0.1	-6.4365
302	2.5667	0.	0.1	175.62
303	2.4	0.	0.1	244.13
304	1.2	-5.0044e-031	0.1	3.3344
305	0.	0.	0.1	648.36
306	3.937e-014	6.	0.1	508.11
307	1.2	6.	0.1	-88.842
308	2.4	6.	0.1	348.32
309	3.2202	3.6663	0.	-301.51
310	3.7159	3.3999	0.	-152.21
311	2.7188	3.3705	0.	-114.96
312	3.0641	3.335	5.e-002	-1.8515e-005
313	2.732	2.6675	0.	-672.44
314	4.4394	1.2009	0.	35.313
315	4.6786	1.902	0.	-55.05
316	3.7765	1.2774	0.	32.148
317	4.1028	1.5197	5.e-002	4.5941e-006
318	3.3347	1.5098	0.	5.1796
319	4.2388	4.3107	0.	-337.54
320	3.4052	4.3108	0.	-304.55
321	2.93	3.8779	0.	-212.78
322	3.3764	3.9975	5.e-002	2.5504e-005
323	2.9715	3.9988	0.	-289.4
324	1.0849	1.3873	0.	-219.29
325	1.0801	0.90418	5.e-002	-1.8785e-005
326	1.74	0.70209	0.	-218.44
327	0.54004	1.0521	0.	-534.7
328	1.14	0.45209	0.	-88.411
329	1.0878	3.8843	0.	-155.67
330	1.081	2.4682	0.	-252.06
331	1.3915	3.0081	0.	-88.939
332	1.0722	3.066	5.e-002	2.9189e-005
333	1.7361	2.283	0.	-678.08
334	0.5361	3.333	0.	-665.63
335	4.2168	0.73271	0.	19.004
336	3.5539	0.80914	0.	24.159
337	3.6576	0.58324	5.e-002	-4.4324e-007
338	3.1121	0.54162	0.	-80.15
339	3.6762	0.29162	0.	23.898
340	3.8409	5.2633	0.	6.8634
341	3.2989	5.1998	0.	2.6129
342	3.4185	5.3855	5.e-002	-2.7894e-006
343	2.9926	5.4427	0.	-38.259
344	3.5566	5.6927	0.	6.961
345	1.4353	4.4168	0.	-17.561
346	1.739	3.5406	0.	-57.17
347	1.9419	4.0237	0.	163.41
348	1.7672	4.131	5.e-002	5.8923e-005
349	2.0836	4.5655	0.	58.49
350	1.1034	4.7027	5.e-002	1.8995e-005
351	1.7517	5.1013	0.	-184.43
352	0.55171	4.7513	0.	-516.03
353	1.1517	5.3513	0.	19.491
354	5.3174	1.0393	0.	-21.399
355	4.7759	0.88219	5.e-002	-2.0764e-005
356	4.7994	0.4411	0.	8.1264
357	6.4524	1.2305	0.	-28.696
358	5.5566	1.7403	0.	-119.26
359	5.8589	1.1963	5.e-002	-7.0725e-006
360	5.9049	0.59816	0.	-13.829
361	7.6991	1.262	0.	-35.153
362	7.0704	1.8228	0.	-56.873
363	7.0459	1.2646	5.e-002	1.1554e-006
364	7.0624	0.63231	0.	-31.877
365	8.9515	1.2672	0.	-13.599
366	8.4127	1.8428	0.	-26.457
367	8.3522	1.2595	5.e-002	-7.4948e-006
368	8.2796	0.62973	0.	-20.999
369	10.152	1.3082	0.	-3.6788
370	9.6558	1.8676	0.	-8.9817
371	9.5509	1.2748	5.e-002	1.0759e-006
372	9.443	0.63742	0.	-10.329
373	11.339	1.3529	0.	-2.4462
374	10.858	1.9135	0.	-3.6789
375	10.754	1.3415	5.e-002	-1.0298e-006
376	10.608	0.67073	0.	-5.9145
377	12.471	1.3116	0.	-1.6439
378	12.031	1.9334	0.	-1.0749
379	11.924	1.3643	5.e-002	1.4232e-007
380	11.758	0.68213	0.	-2.8125
381	13.586	1.2582	0.	-1.2566
382	13.157	1.886	0.	-0.98121
383	13.018	1.2589	5.e-002	5.3168e-008
384	12.869	0.62946	0.	-2.1803
385	14.721	1.252	0.	-1.4091
386	14.299	1.8886	0.	-0.92585
387	14.155	1.2574	5.e-002	9.2195e-007
388	14.001	0.62869	0.	-1.5894
389	15.853	1.2472	0.	-1.157
390	15.419	1.8493	0.	-1.3423
391	15.286	1.2465	5.e-002	7.7965e-007
392	15.131	0.62327	0.	-1.5988
393	16.912	1.1886	0.	-0.63345
394	16.552	1.841	0.	-0.45808
395	16.419	1.2478	5.e-002	1.2108e-006
396	16.261	0.62389	0.	-1.5571
397	17.932	1.0681	0.	-0.49915
398	17.648	1.7736	0.	0.37528
399	17.404	1.1295	5.e-002	1.8787e-006
400	17.318	0.56474	0.	-0.92423
401	19.006	1.0538	0.	-0.36277
402	18.5	1.3782	0.	-0.91761
403	18.46	1.0067	5.e-002	1.9646e-006
404	18.41	0.50336	0.	-0.37255
405	20.081	1.1483	0.	-0.50591
406	19.462	1.72	0.	-1.3699
407	19.552	1.1009	5.e-002	2.4052e-006
408	19.52	0.55046	0.	-0.31326
409	21.171	1.1931	0.	-0.62568
410	20.584	1.7927	0.	-1.3292
411	20.611	1.1956	5.e-002	2.7965e-006
412	20.614	0.59782	0.	0.22319
413	22.298	1.193	0.	-0.61578
414	21.718	1.7939	0.	-0.84518
415	21.73	1.1907	5.e-002	2.8272e-006
416	21.737	0.59533	0.	-0.16269
417	22.862	1.7946	0.	-0.9682
418	22.867	1.1954	5.e-002	2.9398e-006
419	23.433	1.1977	0.	-0.61495
420	22.869	0.59769	0.	-0.12746
421	22.858	2.9974	0.	-1.2964
422	22.282	2.3954	0.	-1.2056
423	22.857	2.3937	5.e-002	2.6265e-006
424	23.429	2.3969	0.	-1.3259
425	22.859	4.2052	0.	-0.95437
426	22.281	3.5989	0.	-1.2056
427	22.859	3.6011	5.e-002	2.9137e-006
428	23.429	3.6006	0.	-1.3147
429	22.287	4.8035	0.	-0.68087
430	22.86	4.8094	5.e-002	3.2026e-006
431	22.866	5.4047	0.	-0.1652
432	23.43	4.8047	0.	-0.62892
433	21.133	4.7932	0.	-0.65042
434	21.708	4.1972	0.	-0.92445
435	21.713	4.7977	5.e-002	2.8145e-006
436	21.728	5.3988	0.	-0.25215
437	19.972	4.7815	0.	-0.55062
438	20.539	4.1854	0.	-1.1187
439	20.553	4.7887	5.e-002	2.665e-006
440	20.585	5.3944	0.	2.3841e-002
441	18.816	4.7771	0.	-0.51039
442	19.35	4.1674	0.	-0.92217
443	19.39	4.7743	5.e-002	2.4029e-006
444	19.439	5.3872	0.	3.3118e-002
445	17.67	4.7968	0.	-0.36561
446	18.157	4.1861	0.	-0.968
447	18.243	4.7798	5.e-002	2.0637e-006
448	18.301	5.3899	0.	9.085e-002
449	16.53	4.8198	0.	-0.32724
450	17.008	4.2156	0.	-0.75284
451	17.097	4.8139	5.e-002	1.5294e-006
452	17.164	5.407	0.	0.41497
453	15.411	4.8266	0.	-0.28239
454	15.873	4.234	0.	-0.64538
455	15.964	4.8256	5.e-002	1.3779e-006
456	16.034	5.4128	0.	0.1079
457	14.274	4.8255	0.	-0.29094
458	14.756	4.242	0.	-0.60498
459	14.858	4.8277	5.e-002	1.3428e-006
460	14.917	5.4138	0.	0.31738
461	13.114	4.8209	0.	-0.6719
462	13.602	4.2374	0.	-0.94379
463	13.69	4.8233	5.e-002	1.2598e-006
464	13.769	5.4116	0.	0.30854
465	11.964	4.8152	0.	-1.1836
466	12.449	4.2318	0.	-1.2438
467	12.538	4.8186	5.e-002	1.2316e-006
468	12.629	5.4093	0.	6.016e-003
469	10.797	4.8037	0.	-6.9702
470	11.294	4.224	0.	-3.5317
471	11.39	4.8119	5.e-002	2.1066e-006
472	11.491	5.406	0.	-0.21499
473	9.5994	4.7819	0.	-19.285
474	10.082	4.2077	0.	-14.771
475	10.204	4.7955	5.e-002	6.2632e-007
476	10.334	5.3977	0.	-3.3875
477	8.3775	4.7496	0.	-38.771
478	8.8434	4.1748	0.	-28.646
479	8.9947	4.7683	5.e-002	8.7175e-007
480	9.1649	5.3842	0.	-14.947
481	7.1107	4.7107	0.	-52.427
482	7.5804	4.1251	0.	-66.034
483	7.7603	4.731	5.e-002	1.1162e-006
484	7.9837	5.3655	0.	-33.369
485	5.7812	4.6572	0.	-35.498
486	6.234	4.0638	0.	-107.33
487	6.4612	4.6904	5.e-002	1.1155e-005
488	6.7701	5.3452	0.	-29.098
489	4.6823	4.8825	0.	-9.1399
490	4.7344	4.0444	0.	6.915
491	5.1012	4.624	5.e-002	7.5388e-006
492	5.526	5.312	0.	-14.942
493	3.8487	4.8826	0.	31.947
494	4.2634	5.1411	5.e-002	2.0731e-006
495	4.5431	5.5706	0.	-18.414
496	6.1747	2.3327	0.	-153.06
497	5.6306	2.8608	0.	-201.39
498	5.2544	2.2843	5.e-002	5.6607e-006
499	3.9105	2.1421	0.	-598.43
500	7.7841	2.4036	0.	-47.762
501	7.2477	2.9501	0.	-72.366
502	7.095	2.3811	5.e-002	2.6472e-007
503	9.117	2.4433	0.	-21.915
504	8.5827	3.0038	0.	-31.32
505	8.4732	2.4262	5.e-002	2.1274e-006
506	10.361	2.473	0.	-8.4538
507	9.8599	3.0401	0.	-14.79
508	9.7607	2.4604	5.e-002	-9.8854e-007
509	11.55	2.4941	0.	-1.973
510	11.08	3.0609	0.	-5.0404
511	10.962	2.4856	5.e-002	-3.5002e-007
512	12.717	2.5078	0.	-0.35324
513	12.249	3.0737	0.	-0.89216
514	12.138	2.5025	5.e-002	-1.8287e-008
515	13.87	2.5165	0.	-0.64598
516	13.404	3.0824	0.	-1.0017
517	13.296	2.5131	5.e-002	1.2289e-007
518	14.997	2.486	0.	-0.85823
519	14.549	3.0881	0.	-0.89513
520	14.443	2.5199	5.e-002	2.9091e-007
521	16.118	2.4431	0.	-0.64069
522	15.667	3.0473	0.	-0.93087
523	15.551	2.4521	5.e-002	6.8062e-007
524	17.288	2.4259	0.	0.56354
525	16.802	3.0257	0.	-0.78465
526	16.685	2.4342	5.e-002	6.7291e-007
527	18.216	2.0836	0.	-3.6564e-002
528	18.632	2.3784	0.	-0.49791
529	17.981	3.005	0.	9.9238e-003
530	17.891	2.4176	5.e-002	2.0426e-006
531	18.957	2.0444	0.	-1.912
532	18.541	1.7496	5.e-002	-1.5235e-007
533	19.964	2.3644	0.	-2.23
534	19.342	2.9499	0.	-1.8815
535	19.373	2.3392	5.e-002	9.4252e-007
536	21.131	2.3934	0.	-1.5563
537	20.54	2.9858	0.	-1.8437
538	20.556	2.3897	5.e-002	2.352e-006
539	21.705	2.9969	0.	-1.1055
540	21.706	2.3972	5.e-002	2.6256e-006
541	21.114	3.5893	0.	-1.3991
542	21.703	3.5967	5.e-002	2.3781e-006
543	19.918	3.5713	0.	-1.4955
544	20.524	3.582	5.e-002	3.0613e-006
545	18.691	3.5765	0.	-1.3751
546	19.311	3.5606	5.e-002	2.6054e-006
547	17.495	3.6048	0.	-1.3587
548	18.07	3.5924	5.e-002	1.9418e-006
549	16.351	3.6298	0.	-1.0757
550	16.919	3.6172	5.e-002	1.795e-006
551	15.219	3.6494	0.	-0.96485
552	15.783	3.6425	5.e-002	1.0178e-006
553	14.084	3.6539	0.	-1.2461
554	14.655	3.6563	5.e-002	-1.728e-007
555	12.937	3.6483	0.	-1.4645
556	13.513	3.6516	5.e-002	1.0701e-007
557	11.78	3.6405	0.	-1.7149
558	12.361	3.645	5.e-002	-2.1836e-007
559	10.579	3.628	0.	-11.157
560	11.198	3.6361	5.e-002	4.6088e-007
561	9.3257	3.6006	0.	-23.96
562	9.9592	3.6199	5.e-002	1.2791e-007
563	8.0463	3.5502	0.	-55.977
564	8.6922	3.5813	5.e-002	1.1403e-006
565	6.7037	3.4783	0.	-120.89
566	7.4005	3.5192	5.e-002	1.9384e-006
567	5.1872	3.4511	0.	-56.946
568	6.0068	3.4373	5.e-002	1.7033e-005
569	3.3066	4.8191	0.	22.289
570	3.1793	5.0141	5.e-002	1.1757e-005
571	2.873	5.0071	0.	-16.597
572	3.434	4.624	5.e-002	2.7032e-005
573	3.0003	4.562	0.	0.41188
574	1.0897	1.8704	5.e-002	-3.3807e-005
575	1.7449	1.4352	0.	-492.71
576	0.54485	2.1352	0.	-658.45
577	2.0421	3.1781	0.	-54.123
578	1.7107	2.9502	5.e-002	-2.0562e-005
579	2.0554	2.4751	0.	-799.01
580	2.2296	3.9117	0.	372.82
581	2.2451	3.6612	0.	205.62
582	2.1167	3.9164	5.e-002	6.454e-006
583	2.2583	4.2082	0.	179.43
584	2.4131	3.8327	0.	221.12
585	2.4286	3.5822	0.	121.75
586	2.4837	3.7584	5.e-002	1.166e-004
587	2.5252	3.8792	0.	-110.83
588	3.4503	1.035	5.e-002	-2.2051e-006
589	3.0085	1.0175	0.	-85.977
590	4.3676	3.4648	5.e-002	-1.3404e-005
591	3.4672	2.7324	0.	-467.24
592	2.3426	3.907	5.e-002	5.7226e-005
593	2.3713	3.9535	0.	-163.59
594	2.3734	3.406	5.e-002	-3.9407e-006
595	2.4286	3.5822	0.1	-121.75
596	2.2451	3.6612	0.1	-205.62
597	2.0421	3.1781	0.1	54.123
598	2.7188	3.3705	0.1	114.96
599	2.4131	3.8327	0.1	-221.12
600	2.2296	3.9117	0.1	-372.82
601	2.3713	3.9535	0.1	163.59
602	5.1872	3.4511	0.1	56.946
603	4.7344	4.0444	0.1	-6.915
604	3.7159	3.3999	0.1	152.21
605	3.4672	2.7324	0.1	467.24
606	3.5539	0.80914	0.1	-24.159
607	3.7765	1.2774	0.1	-32.148
608	3.0085	1.0175	0.1	85.977
609	2.93	3.8779	0.1	212.78
610	2.5252	3.8792	0.1	110.83
611	1.9419	4.0237	0.1	-163.41
612	2.2583	4.2082	0.1	-179.43
613	1.739	3.5406	0.1	57.17
614	1.3915	3.0081	0.1	88.939
615	2.0554	2.4751	0.1	799.01
616	1.081	2.4682	0.1	252.06
617	1.0849	1.3873	0.1	219.29
618	1.7449	1.4352	0.1	492.71
619	0.54485	2.1352	0.1	658.45
620	3.3066	4.8191	0.1	-22.289
621	3.8487	4.8826	0.1	-31.947
622	3.4052	4.3108	0.1	304.55
623	3.0003	4.562	0.1	-0.41188
624	3.2989	5.1998	0.1	-2.6129
625	2.873	5.0071	0.1	16.597
626	6.7037	3.4783	0.1	120.89
627	5.6306	2.8608	0.1	201.39
628	6.234	4.0638	0.1	107.33
629	8.0463	3.5502	0.1	55.977
630	7.2477	2.9501	0.1	72.366
631	7.5804	4.1251	0.1	66.034
632	9.3257	3.6006	0.1	23.96
633	8.5827	3.0038	0.1	31.32
634	8.8434	4.1748	0.1	28.646
635	10.579	3.628	0.1	11.157
636	9.8599	3.0401	0.1	14.79
637	10.082	4.2077	0.1	14.771
638	11.78	3.6405	0.1	1.7149
639	11.08	3.0609	0.1	5.0404
640	11.294	4.224	0.1	3.5317
641	12.937	3.6483	0.1	1.4645
642	12.249	3.0737	0.1	0.89216
643	12.449	4.2318	0.1	1.2438
644	14.084	3.6539	0.1	1.2461
645	13.404	3.0824	0.1	1.0017
646	13.602	4.2374	0.1	0.94379
647	15.219	3.6494	0.1	0.96485
648	14.549	3.0881	0.1	0.89513
649	14.756	4.242	0.1	0.60498
650	16.351	3.6298	0.1	1.0757
651	15.667	3.0473	0.1	0.93087
652	15.873	4.234	0.1	0.64538
653	17.495	3.6048	0.1	1.3587
654	16.802	3.0257	0.1	0.78465
655	17.008	4.2156	0.1	0.75284
656	18.691	3.5765	0.1	1.3751
657	17.981	3.005	0.1	-9.9245e-003
658	18.157	4.1861	0.1	0.968
659	19.918	3.5713	0.1	1.4955
660	19.342	2.9499	0.1	1.8815
661	19.35	4.1674	0.1	0.92217
662	21.114	3.5893	0.1	1.3991
663	20.54	2.9858	0.1	1.8437
664	20.539	4.1854	0.1	1.1187
665	21.705	2.9969	0.1	1.1055
666	21.708	4.1972	0.1	0.92445
667	22.281	3.5989	0.1	1.2056
668	21.131	2.3934	0.1	1.5563
669	22.282	2.3954	0.1	1.2056
670	21.718	1.7939	0.1	0.84518
671	19.964	2.3644	0.1	2.23
672	20.584	1.7927	0.1	1.3292
673	18.957	2.0444	0.1	1.912
674	18.632	2.3784	0.1	0.49791
675	19.462	1.72	0.1	1.3699
676	18.216	2.0836	0.1	3.6564e-002
677	18.5	1.3782	0.1	0.91761
678	17.288	2.4259	0.1	-0.56354
679	17.648	1.7736	0.1	-0.37528
680	16.118	2.4431	0.1	0.64069
681	16.552	1.841	0.1	0.45808
682	14.997	2.486	0.1	0.85823
683	15.419	1.8493	0.1	1.3423
684	13.87	2.5165	0.1	0.64598
685	14.299	1.8886	0.1	0.92585
686	12.717	2.5078	0.1	0.35324
687	13.157	1.886	0.1	0.98121
688	11.55	2.4941	0.1	1.973
689	12.031	1.9334	0.1	1.0749
690	10.361	2.473	0.1	8.4538
691	10.858	1.9135	0.1	3.6789
692	9.117	2.4433	0.1	21.915
693	9.6558	1.8676	0.1	8.9817
694	7.7841	2.4036	0.1	47.762
695	8.4127	1.8428	0.1	26.457
696	6.1747	2.3327	0.1	153.06
697	7.0704	1.8228	0.1	56.873
698	5.5566	1.7403	0.1	119.26
699	4.6786	1.902	0.1	55.05
700	3.9105	2.1421	0.1	598.43
701	4.6823	4.8825	0.1	9.1399
702	3.8409	5.2633	0.1	-6.8634
703	4.5431	5.5706	0.1	18.414
704	5.7812	4.6572	0.1	35.498
705	4.2388	4.3107	0.1	337.54
706	5.526	5.312	0.1	14.942
707	7.1107	4.7107	0.1	52.427
708	6.7701	5.3452	0.1	29.098
709	8.3775	4.7496	0.1	38.771
710	7.9837	5.3655	0.1	33.369
711	9.5994	4.7819	0.1	19.285
712	9.1649	5.3842	0.1	14.947
713	10.797	4.8037	0.1	6.9702
714	10.334	5.3977	0.1	3.3875
715	11.964	4.8152	0.1	1.1836
716	11.491	5.406	0.1	0.21499
717	13.114	4.8209	0.1	0.6719
718	12.629	5.4093	0.1	-6.0161e-003
719	14.274	4.8255	0.1	0.29094
720	13.769	5.4116	0.1	-0.30854
721	15.411	4.8266	0.1	0.28239
722	14.917	5.4138	0.1	-0.31738
723	16.53	4.8198	0.1	0.32724
724	16.034	5.4128	0.1	-0.1079
725	17.67	4.7968	0.1	0.36561
726	17.164	5.407	0.1	-0.41497
727	18.816	4.7771	0.1	0.51039
728	18.301	5.3899	0.1	-9.085e-002
729	19.972	4.7815	0.1	0.55062
730	19.439	5.3872	0.1	-3.3118e-002
731	21.133	4.7932	0.1	0.65042
732	20.585	5.3944	0.1	-2.3841e-002
733	22.287	4.8035	0.1	0.68087
734	21.728	5.3988	0.1	0.25215
735	22.859	4.2052	0.1	0.95437
736	22.866	5.4047	0.1	0.1652
737	23.43	4.8047	0.1	0.62892
738	22.858	2.9974	0.1	1.2964
739	23.429	3.6006	0.1	1.3147
740	22.862	1.7946	0.1	0.9682
741	23.429	2.3969	0.1	1.3259
742	22.298	1.193	0.1	0.61578
743	23.433	1.1977	0.1	0.61495
744	22.869	0.59769	0.1	0.12746
745	21.171	1.1931	0.1	0.62568
746	21.737	0.59533	0.1	0.16269
747	20.081	1.1483	0.1	0.50591
748	20.614	0.59782	0.1	-0.22319
749	19.006	1.0538	0.1	0.36277
750	19.52	0.55046	0.1	0.31326
751	17.932	1.0681	0.1	0.49915
752	18.41	0.50336	0.1	0.37255
753	16.912	1.1886	0.1	0.63345
754	17.318	0.56474	0.1	0.92423
755	15.853	1.2472	0.1	1.157
756	16.261	0.62389	0.1	1.5571
757	14.721	1.252	0.1	1.4091
758	15.131	0.62327	0.1	1.5988
759	13.586	1.2582	0.1	1.2566
760	14.001	0.62869	0.1	1.5894
761	12.471	1.3116	0.1	1.6439
762	12.869	0.62946	0.1	2.1803
763	11.339	1.3529	0.1	2.4462
764	11.758	0.68213	0.1	2.8125
765	10.152	1.3082	0.1	3.6788
766	10.608	0.67073	0.1	5.9145
767	8.9515	1.2672	0.1	13.599
768	9.443	0.63742	0.1	10.329
769	7.6991	1.262	0.1	35.153
770	8.2796	0.62973	0.1	20.999
771	6.4524	1.2305	0.1	28.696
772	7.0624	0.63231	0.1	31.877
773	5.3174	1.0393	0.1	21.399
774	5.9049	0.59816	0.1	13.829
775	4.2168	0.73271	0.1	-19.004
776	4.4394	1.2009	0.1	-35.313
777	4.7994	0.4411	0.1	-8.1264
778	1.4353	4.4168	0.1	17.561
779	1.0878	3.8843	0.1	155.67
780	1.7517	5.1013	0.1	184.43
781	0.55171	4.7513	0.1	516.03
782	1.1517	5.3513	0.1	-19.491
783	2.0836	4.5655	0.1	-58.49
784	2.9926	5.4427	0.1	38.259
785	3.5566	5.6927	0.1	-6.961
786	3.1121	0.54162	0.1	80.15
787	3.6762	0.29162	0.1	-23.898
788	1.7361	2.283	0.1	678.08
789	0.5361	3.333	0.1	665.63
790	1.74	0.70209	0.1	218.44
791	0.54004	1.0521	0.1	534.7
792	1.14	0.45209	0.1	88.411
793	3.2202	3.6663	0.1	301.51
794	2.9715	3.9988	0.1	289.4
795	3.3347	1.5098	0.1	-5.1796
796	2.732	2.6675	0.1	672.44
797	2.5667	4.25	0.	-188.61
798	2.4833	4.	0.	-731.67
799	2.5667	4.	5.e-002	1.8598e-004
800	2.5667	4.75	0.	-29.538
801	2.5667	4.5	5.e-002	-5.7515e-006
802	2.5667	5.25	0.	-57.626
803	2.5667	5.	5.e-002	4.285e-007
804	2.5667	5.75	0.	-153.13
805	2.5667	5.5	5.e-002	1.0758e-006
806	2.4	4.25	0.	-147.34
807	2.4	4.	5.e-002	1.0833e-004
808	2.4	5.25	0.	-52.374
809	2.4	5.75	0.	-342.78
810	2.4	5.5	5.e-002	-6.3124e-014
811	2.4	4.75	0.	95.703
812	2.4	5.	5.e-002	-1.9834e-005
813	2.4	4.5	5.e-002	-5.917e-005
814	2.5667	1.75	0.	-279.92
815	2.4833	2.	0.	-1303.5
816	2.5667	2.	5.e-002	-1.209e-004
817	2.5667	1.25	0.	-101.89
818	2.5667	1.5	5.e-002	-1.6325e-005
819	2.5667	0.75	0.	-147.93
820	2.5667	1.	5.e-002	-4.5433e-014
821	2.5667	0.25	0.	-181.5
822	2.5667	0.5	5.e-002	-1.2933e-014
823	2.4	1.75	0.	-1437.2
824	2.4	2.	5.e-002	-8.3104e-005
825	2.4	0.75	0.	-468.13
826	2.4	0.25	0.	-226.98
827	2.4	0.5	5.e-002	-1.7698e-014
828	2.4	1.25	0.	-860.54
829	2.4	1.	5.e-002	-1.509e-005
830	2.4	1.5	5.e-002	6.8698e-006
831	3.1307	6.	0.	-101.41
832	2.5667	6.	5.e-002	-5.8824e-015
833	4.2588	6.	0.	-27.949
834	3.6947	6.	5.e-002	2.3779e-007
835	5.3868	6.	0.	-22.65
836	4.8228	6.	5.e-002	-8.2786e-007
837	6.5149	6.	0.	12.957
838	5.9509	6.	5.e-002	1.4205e-005
839	7.643	6.	0.	-11.033
840	7.0789	6.	5.e-002	4.4087e-006
841	8.7711	6.	0.	-9.2353
842	8.207	6.	5.e-002	8.8653e-006
843	9.8991	6.	0.	-5.0866
844	9.3351	6.	5.e-002	3.7841e-006
845	11.027	6.	0.	-0.71153
846	10.463	6.	5.e-002	1.3159e-006
847	12.155	6.	0.	0.70521
848	11.591	6.	5.e-002	1.5209e-006
849	13.283	6.	0.	0.96755
850	12.719	6.	5.e-002	1.5287e-006
851	14.411	6.	0.	0.91961
852	13.847	6.	5.e-002	1.9802e-006
853	15.539	6.	0.	0.7107
854	14.975	6.	5.e-002	1.7074e-006
855	16.668	6.	0.	0.85441
856	16.104	6.	5.e-002	1.791e-006
857	17.796	6.	0.	0.87355
858	17.232	6.	5.e-002	2.2599e-006
859	18.924	6.	0.	0.63333
860	18.36	6.	5.e-002	2.3706e-006
861	20.052	6.	0.	0.59894
862	19.488	6.	5.e-002	2.4545e-006
863	21.18	6.	0.	0.41722
864	20.616	6.	5.e-002	2.8906e-006
865	22.308	6.	0.	0.25597
866	21.744	6.	5.e-002	3.0265e-006
867	23.436	6.	0.	0.33711
868	22.872	6.	5.e-002	4.0045e-006
869	24.	5.4	0.	-9.58e-002
870	24.	6.	5.e-002	7.5434e-006
871	24.	4.2	0.	-0.96725
872	24.	4.8	5.e-002	3.2476e-006
873	24.	3.	0.	-1.321
874	24.	3.6	5.e-002	2.649e-006
875	24.	1.8	0.	-0.95015
876	24.	2.4	5.e-002	2.8915e-006
877	24.	0.6	0.	-0.10103
878	24.	1.2	5.e-002	3.1555e-006
879	1.5735e-014	1.8	0.	-983.44
880	5.2451e-015	0.6	0.	-773.16
881	1.0632e-014	1.2	5.e-002	-1.4789e-005
882	2.6226e-014	3.	0.	-1096.3
883	2.1264e-014	2.4	5.e-002	-3.994e-006
884	3.6716e-014	4.2	0.	-1032.
885	3.1897e-014	3.6	5.e-002	4.8557e-006
886	4.7206e-014	5.4	0.	-723.43
887	4.2529e-014	4.8	5.e-002	-2.1422e-006
888	23.436	0.	0.	0.3571
889	24.	0.	5.e-002	7.6569e-006
890	3.1307	0.	0.	-65.904
891	2.5667	0.	5.e-002	-6.0237e-015
892	22.308	0.	0.	0.3178
893	22.872	0.	5.e-002	4.0231e-006
894	21.18	0.	0.	0.68072
895	21.744	0.	5.e-002	3.1564e-006
896	20.052	0.	0.	0.37613
897	20.616	0.	5.e-002	2.8547e-006
898	18.924	0.	0.	-0.33726
899	19.488	0.	5.e-002	2.4594e-006
900	17.796	0.	0.	-0.75193
901	18.36	0.	5.e-002	2.6249e-006
902	16.668	0.	0.	-1.8284
903	17.232	0.	5.e-002	2.3397e-006
904	15.539	0.	0.	-2.0045
905	16.104	0.	5.e-002	1.8857e-006
906	14.411	0.	0.	-1.7503
907	14.975	0.	5.e-002	1.4822e-006
908	13.283	0.	0.	-2.6855
909	13.847	0.	5.e-002	1.5685e-006
910	12.155	0.	0.	-5.0079
911	12.719	0.	5.e-002	9.2565e-007
912	11.027	0.	0.	-8.3929
913	11.591	0.	5.e-002	1.0583e-006
914	9.8991	0.	0.	-12.31
915	10.463	0.	5.e-002	7.9157e-007
916	8.7711	0.	0.	-17.508
917	9.3351	0.	5.e-002	2.3666e-007
918	7.643	0.	0.	-17.369
919	8.207	0.	5.e-002	1.3325e-006
920	6.5149	0.	0.	-10.658
921	7.0789	0.	5.e-002	-1.461e-005
922	5.3868	0.	0.	5.2675
923	5.9509	0.	5.e-002	-2.2392e-008
924	4.2588	0.	0.	21.467
925	4.8228	0.	5.e-002	2.0613e-007
926	3.6947	0.	5.e-002	-2.1048e-015
927	0.6	-2.5022e-031	0.	-332.49
928	0.	0.	5.e-002	-6.3894e-007
929	1.8	-7.5066e-031	0.	-63.431
930	2.4	-1.0009e-030	5.e-002	-7.317e-015
931	1.2	0.	5.e-002	-3.9367e-015
932	0.6	6.	0.	-217.61
933	5.2451e-014	6.	5.e-002	1.0967e-006
934	1.8	6.	0.	-144.64
935	2.4	6.	5.e-002	-1.5064e-005
936	1.2	6.	5.e-002	9.1891e-008
937	2.5667	5.25	0.1	57.626
938	2.5667	5.75	0.1	153.13
939	2.5667	4.75	0.1	29.538
940	2.5667	4.25	0.1	188.61
941	2.4833	4.	0.1	731.67
942	2.4	4.25	0.1	147.34
943	2.4	4.75	0.1	-95.703
944	2.4	5.25	0.1	52.374
945	2.4	5.75	0.1	342.78
946	2.5667	0.75	0.1	147.93
947	2.5667	0.25	0.1	181.5
948	2.5667	1.25	0.1	101.89
949	2.5667	1.75	0.1	279.92
950	2.4833	2.	0.1	1303.5
951	2.4	1.75	0.1	1437.2
952	2.4	1.25	0.1	860.54
953	2.4	0.75	0.1	468.13
954	2.4	0.25	0.1	226.98
955	3.1307	6.	0.1	101.41
956	4.2588	6.	0.1	27.949
957	5.3868	6.	0.1	22.65
958	6.5149	6.	0.1	-12.957
959	7.643	6.	0.1	11.033
960	8.7711	6.	0.1	9.2353
961	9.8991	6.	0.1	5.0866
962	11.027	6.	0.1	0.71154
963	12.155	6.	0.1	-0.70521
964	13.283	6.	0.1	-0.96755
965	14.411	6.	0.1	-0.91961
966	15.539	6.	0.1	-0.7107
967	16.668	6.	0.1	-0.85441
968	17.796	6.	0.1	-0.87355
969	18.924	6.	0.1	-0.63333
970	20.052	6.	0.1	-0.59894
971	21.18	6.	0.1	-0.41722
972	22.308	6.	0.1	-0.25597
973	23.436	6.	0.1	-0.33711
974	24.	5.4	0.1	9.58e-002
975	24.	4.2	0.1	0.96725
976	24.	3.	0.1	1.321
977	24.	1.8	0.1	0.95015
978	24.	0.6	0.1	0.10103
979	1.5735e-014	1.8	0.1	983.44
980	5.2451e-015	0.6	0.1	773.16
981	2.6226e-014	3.	0.1	1096.3
982	3.6716e-014	4.2	0.1	1032.
983	4.7206e-014	5.4	0.1	723.43
984	23.436	0.	0.1	-0.3571
985	22.308	0.	0.1	-0.3178
986	21.18	0.	0.1	-0.68073
987	20.052	0.	0.1	-0.37613
988	18.924	0.	0.1	0.33726
989	17.796	0.	0.1	0.75193
990	16.668	0.	0.1	1.8284
991	15.539	0.	0.1	2.0045
992	14.411	0.	0.1	1.7503
993	13.283	0.	0.1	2.6855
994	12.155	0.	0.1	5.0079
995	11.027	0.	0.1	8.3929
996	9.8991	0.	0.1	12.31
997	8.7711	0.	0.1	17.508
998	7.643	0.	0.1	17.369
999	6.5149	0.	0.1	10.658
1000	5.3868	0.	0.1	-5.2675
1001	4.2588	0.	0.1	-21.467
1002	3.1307	0.	0.1	65.904
1003	1.8	-7.5066e-031	0.1	63.431
1004	0.6	-2.5022e-031	0.1	332.49
1005	0.6	6.	0.1	217.61
1006	1.8	6.	0.1	144.64
