Node Number	X Location (in)	Y Location (in)	Z Location (in)	Equivalent (von-Mises) Stress (psi)
1	5.043	2.2139	0.	3356.8
2	5.4533	3.6915	0.	2560.1
3	5.7518	3.6496	0.	1835.7
4	5.7241	2.3853	0.	1933.7
5	4.7518	2.1891	0.	2298.6
6	5.4944	3.3907	0.	2285.3
7	6.1828	1.0276	0.	759.63
8	4.1702	4.9335	0.	1029.6
9	4.6927	3.4866	0.	2037.
10	6.0081	0.49199	0.	509.
11	6.2457	4.637	0.	886.08
12	4.2743	2.0192	0.	1499.6
13	6.1895	2.1905	0.	1200.8
14	6.2389	3.5836	0.	1264.7
15	4.1957	1.7276	0.	1327.4
16	6.1348	1.8209	0.	1098.
17	6.1392	2.6823	0.	1371.5
18	3.6919	1.8637	0.	1243.8
19	5.4929	3.0743	0.	2138.2
20	6.6028	3.1552	0.	1139.8
21	3.1448	1.9297	0.	1244.3
22	7.2765	1.7758	0.	817.18
23	7.3188	1.192	0.	772.73
24	7.2167	2.3324	0.	861.59
25	6.8204	4.5665	0.	831.65
26	3.6958	4.139	0.	1214.7
27	3.0673	3.3835	0.	1257.4
28	3.2803	1.1945	0.	1163.1
29	7.4398	4.4597	0.	787.13
30	2.5384	3.2969	0.	1264.2
31	3.12	4.7188	0.	1219.1
32	7.966	1.2517	0.	731.04
33	8.0473	4.2829	0.	731.15
34	2.5112	4.6934	0.	1271.8
35	1.9069	4.6824	0.	1327.
36	1.2682	1.3057	0.	1348.5
37	1.9102	1.2884	0.	1327.
38	8.6174	1.2841	0.	678.75
39	9.2758	1.2856	0.	626.67
40	9.943	1.275	0.	574.19
41	10.619	1.2693	0.	522.5
42	11.288	1.2693	0.	473.32
43	11.957	1.2693	0.	426.43
44	12.626	1.2693	0.	381.92
45	13.295	1.2693	0.	339.74
46	13.964	1.2693	0.	299.93
47	14.633	1.2693	0.	262.56
48	15.302	1.2693	0.	227.67
49	15.971	1.2693	0.	195.29
50	16.64	1.2693	0.	165.44
51	17.31	1.2693	0.	138.15
52	17.979	1.2693	0.	113.43
53	18.648	1.2693	0.	91.302
54	19.317	1.2693	0.	71.688
55	20.004	1.2796	0.	54.395
56	20.692	1.2979	0.	39.918
57	21.372	1.3164	0.	28.256
58	22.04	1.3209	0.	19.532
59	1.2773	3.9871	0.	1359.4
60	1.2861	3.3036	0.	1375.9
61	1.2809	2.64	0.	1376.8
62	1.2762	1.9687	0.	1359.4
63	22.707	2.0096	0.	15.592
64	22.691	2.6891	0.	16.729
65	22.674	3.3635	0.	16.814
66	22.676	4.0438	0.	15.645
67	21.998	4.7233	0.	19.824
68	21.324	4.7307	0.	28.873
69	20.655	4.7307	0.	40.555
70	19.986	4.7307	0.	54.838
71	19.317	4.7307	0.	71.759
72	18.648	4.7307	0.	91.314
73	17.979	4.7307	0.	113.42
74	17.31	4.7307	0.	138.15
75	16.64	4.7307	0.	165.44
76	15.971	4.7307	0.	195.29
77	15.302	4.7307	0.	227.68
78	14.633	4.7307	0.	262.58
79	13.964	4.7307	0.	299.97
80	13.295	4.7307	0.	339.75
81	12.626	4.7307	0.	382.
82	11.957	4.7307	0.	426.61
83	11.288	4.7307	0.	473.35
84	10.619	4.7307	0.	522.47
85	9.95	4.7307	0.	573.32
86	9.3012	4.7428	0.	624.51
87	8.6458	4.7818	0.	677.67
88	8.0212	4.8519	0.	725.95
89	1.9222	3.2812	0.	1309.8
90	8.6768	4.1481	0.	672.47
91	8.4928	2.7597	0.	674.4
92	5.0726	3.6619	0.	3053.
93	5.3905	2.2625	0.	2893.6
94	23.335	5.3416	0.	7.0457
95	22.672	5.3546	0.	11.388
96	21.998	5.3595	0.	18.362
97	21.324	5.3654	0.	27.811
98	20.655	5.3654	0.	39.776
99	19.986	5.3654	0.	54.299
100	19.317	5.3654	0.	71.314
101	18.648	5.3654	0.	90.972
102	17.979	5.3654	0.	113.21
103	17.31	5.3654	0.	138.04
104	16.64	5.3654	0.	165.45
105	15.971	5.3654	0.	195.44
106	15.302	5.3654	0.	228.01
107	14.633	5.3654	0.	263.14
108	13.964	5.3654	0.	300.83
109	13.295	5.3654	0.	341.06
110	12.626	5.3654	0.	383.81
111	11.957	5.3654	0.	429.06
112	11.288	5.3654	0.	476.7
113	10.619	5.3654	0.	526.63
114	9.95	5.3654	0.	578.19
115	9.2909	5.3768	0.	630.24
116	8.6438	5.3978	0.	679.38
117	7.9806	5.4307	0.	720.66
118	7.3366	5.4689	0.	733.87
119	6.6897	5.5057	0.	685.49
120	6.0043	5.5234	0.	505.19
121	5.6526	5.262	0.	545.56
122	5.7313	4.9939	0.	700.86
123	5.7607	4.6543	0.	959.48
124	5.7563	4.3134	0.	1308.3
125	5.7338	3.9852	0.	1567.2
126	23.34	0.66228	0.	7.0499
127	23.354	1.3239	0.	10.262
128	23.358	2.0039	0.	12.585
129	23.348	2.6741	0.	13.767
130	23.34	3.347	0.	13.75
131	23.334	4.0163	0.	12.607
132	23.335	4.6812	0.	10.272
133	6.6792	0.54262	0.	688.43
134	7.3209	0.58807	0.	733.8
135	7.9671	0.62044	0.	721.08
136	8.6119	0.63465	0.	680.88
137	9.281	0.63465	0.	630.75
138	9.95	0.63465	0.	578.5
139	10.619	0.63465	0.	526.74
140	11.288	0.63465	0.	476.72
141	11.957	0.63465	0.	428.99
142	12.626	0.63465	0.	383.73
143	13.295	0.63465	0.	341.02
144	13.964	0.63465	0.	300.81
145	14.633	0.63465	0.	263.13
146	15.302	0.63465	0.	228.
147	15.971	0.63465	0.	195.44
148	16.64	0.63465	0.	165.45
149	17.31	0.63465	0.	138.04
150	17.979	0.63465	0.	113.22
151	18.648	0.63465	0.	90.99
152	19.317	0.63465	0.	71.268
153	19.992	0.64046	0.	54.065
154	20.671	0.65063	0.	39.472
155	21.339	0.65928	0.	27.579
156	22.01	0.66488	0.	18.249
157	22.677	0.66244	0.	11.384
158	4.4499	0.35127	0.	613.44
159	4.5135	0.67352	0.	676.26
160	4.6337	0.97763	0.	879.51
161	4.6497	1.3376	0.	1221.9
162	4.6781	1.6585	0.	1648.3
163	4.6873	1.9336	0.	1844.8
164	0.63495	0.66277	0.	1399.8
165	1.2698	0.653	0.	1393.1
166	1.9081	0.64279	0.	1377.2
167	2.55	0.63465	0.	1297.2
168	3.1681	0.58022	0.	1181.
169	3.7947	0.45056	0.	971.41
170	0.63465	5.3333	0.	1399.
171	0.63465	4.6667	0.	1549.1
172	0.64051	3.9951	0.	1616.7
173	0.64213	3.3251	0.	1647.3
174	0.64064	2.6596	0.	1647.6
175	0.6378	1.9923	0.	1615.6
176	0.63427	1.3253	0.	1548.4
177	4.3927	5.4916	0.	696.48
178	3.7464	5.4252	0.	1006.5
179	3.1407	5.3767	0.	1180.8
180	2.55	5.3654	0.	1298.4
181	1.9044	5.3428	0.	1376.4
182	1.2718	5.3355	0.	1391.3
183	4.7146	5.2602	0.	715.85
184	4.65	4.9834	0.	928.34
185	4.6824	4.6626	0.	1183.9
186	4.6981	4.328	0.	1675.3
187	4.6544	3.901	0.	1867.5
188	5.6518	0.72845	0.	541.9
189	5.7118	1.0094	0.	711.12
190	5.6987	1.3664	0.	1015.4
191	5.705	1.7354	0.	1402.8
192	5.7506	2.0844	0.	1589.9
193	6.2231	5.0238	0.	743.36
194	22.669	4.7021	0.	13.688
195	22.699	1.3266	0.	13.6
196	3.9362	0.79697	0.	1039.2
197	1.2693	4.6667	0.	1347.
198	5.207	3.4315	0.	2428.7
199	5.0428	2.4503	0.	2656.8
200	5.3275	2.4433	0.	2692.3
201	7.4022	4.952	0.	761.66
202	6.7873	5.0329	0.	758.92
203	6.2494	4.2763	0.	1018.5
204	6.1938	3.9139	0.	1185.4
205	4.0976	1.0899	0.	989.6
206	6.7249	1.0924	0.	766.42
207	4.245	1.3685	0.	1137.6
208	2.569	1.2666	0.	1271.6
209	3.7452	1.4044	0.	1210.4
210	3.6824	4.8147	0.	1125.4
211	6.0658	1.4166	0.	935.87
212	4.2045	3.9008	0.	1521.7
213	4.4129	4.3208	0.	1324.2
214	5.8477	3.258	0.	1740.9
215	4.6803	3.0804	0.	2039.4
216	5.6426	2.6308	0.	2044.
217	4.7987	2.4693	0.	2326.3
218	22.005	4.0582	0.	21.404
219	22.038	2.0092	0.	21.161
220	1.9169	1.9318	0.	1312.4
221	1.8986	3.9851	0.	1312.3
222	6.6949	1.6661	0.	895.35
223	4.0755	3.4101	0.	1510.5
224	5.1084	2.6887	0.	2420.4
225	5.2988	2.5995	0.	2507.5
226	20.652	4.0869	0.	41.499
227	19.98	4.0693	0.	55.675
228	19.316	4.0783	0.	72.445
229	18.648	4.0961	0.	91.731
230	17.979	4.0961	0.	113.82
231	17.31	4.0961	0.	138.44
232	16.64	4.0961	0.	165.63
233	15.971	4.0961	0.	195.36
234	15.302	4.0961	0.	227.59
235	14.633	4.0961	0.	262.3
236	13.964	4.0961	0.	299.42
237	13.295	4.0961	0.	338.93
238	12.626	4.0961	0.	380.7
239	11.957	4.0961	0.	424.55
240	11.288	4.0961	0.	470.68
241	10.619	4.0961	0.	518.89
242	9.95	4.0961	0.	569.5
243	9.2939	4.097	0.	619.86
244	6.7973	4.185	0.	899.82
245	6.7096	3.8722	0.	990.7
246	7.9432	1.8925	0.	740.55
247	8.5896	1.9616	0.	678.7
248	9.2523	1.9934	0.	625.38
249	9.9392	1.9662	0.	569.83
250	10.611	1.9525	0.	519.05
251	11.279	1.9314	0.	470.97
252	11.951	1.9108	0.	424.82
253	12.626	1.9039	0.	380.65
254	13.295	1.9039	0.	338.89
255	13.964	1.9039	0.	299.4
256	14.633	1.9039	0.	262.29
257	15.302	1.9039	0.	227.58
258	15.971	1.9039	0.	195.34
259	16.64	1.9039	0.	165.62
260	17.31	1.9039	0.	138.43
261	17.979	1.9039	0.	113.82
262	18.648	1.9039	0.	91.738
263	19.323	1.9118	0.	72.193
264	20.008	1.9318	0.	55.092
265	20.695	1.9658	0.	40.764
266	6.7004	2.2181	0.	1016.9
267	4.758	2.7609	0.	2112.4
268	5.4829	2.7213	0.	2231.8
269	5.8004	2.8803	0.	1839.2
270	22.013	3.3825	0.	22.221
271	21.332	4.0842	0.	29.949
272	21.362	1.9977	0.	29.629
273	22.015	2.7023	0.	22.281
274	4.4705	2.2505	0.	1729.1
275	1.9298	2.6085	0.	1305.7
276	2.5803	1.9413	0.	1263.4
277	2.5067	4.0096	0.	1259.5
278	4.0841	2.9326	0.	1524.8
279	3.6186	3.4566	0.	1366.2
280	3.101	4.0636	0.	1258.3
281	3.8894	2.3049	0.	1343.9
282	6.6221	2.7051	0.	1101.1
283	20.655	3.4083	0.	42.051
284	19.981	3.3611	0.	56.083
285	19.316	3.3894	0.	72.727
286	18.648	3.3894	0.	92.098
287	17.979	3.3894	0.	114.04
288	17.31	3.3894	0.	138.6
289	16.64	3.3894	0.	165.73
290	15.971	3.3894	0.	195.39
291	15.302	3.3894	0.	227.53
292	14.633	3.3894	0.	262.12
293	13.964	3.3894	0.	299.09
294	13.295	3.3894	0.	338.38
295	12.626	3.3894	0.	379.8
296	11.959	3.3567	0.	423.18
297	11.294	3.344	0.	468.46
298	10.623	3.3644	0.	516.09
299	9.9514	3.3734	0.	565.48
300	9.2808	3.4006	0.	619.89
301	8.6601	3.4943	0.	673.24
302	7.3542	3.7008	0.	826.33
303	7.8268	2.5026	0.	779.92
304	9.2428	2.6965	0.	623.15
305	9.9362	2.673	0.	566.43
306	10.617	2.6466	0.	516.22
307	11.288	2.5926	0.	468.78
308	11.957	2.5386	0.	423.35
309	12.626	2.5386	0.	379.88
310	13.295	2.5386	0.	338.34
311	13.964	2.5386	0.	299.12
312	14.633	2.5386	0.	262.13
313	15.302	2.5386	0.	227.54
314	15.971	2.5386	0.	195.39
315	16.64	2.5386	0.	165.73
316	17.31	2.5386	0.	138.6
317	17.979	2.5386	0.	114.04
318	18.648	2.5386	0.	92.089
319	19.317	2.5386	0.	72.66
320	19.989	2.5973	0.	55.929
321	20.674	2.687	0.	41.775
322	4.6095	2.4623	0.	1994.5
323	4.4573	2.6546	0.	1941.1
324	6.8209	3.5687	0.	984.78
325	2.5794	2.6141	0.	1262.6
326	3.3336	2.6629	0.	1283.2
327	21.332	3.3897	0.	30.708
328	21.343	2.6934	0.	30.538
329	7.9355	3.2995	0.	775.25
330	7.1197	2.7892	0.	922.32
331	7.5753	2.9908	0.	795.61
332	7.1831	3.52	0.	914.26
333	6.96	3.1736	0.	965.88
334	5.0781	2.9932	0.	2367.
335	4.3712	2.4262	0.	1694.8
336	7.4292	4.0204	0.	811.91
337	4.25	4.5769	0.	1293.1
338	5.1214	3.2449	0.	2537.6
339	8.0569	3.7421	0.	731.29
340	6.2046	3.2066	0.	1364.8
341	6.2046	3.2066	0.1	1364.8
342	8.0569	3.7421	0.1	731.29
343	5.1214	3.2449	0.1	2537.6
344	4.25	4.5769	0.1	1293.1
345	7.4292	4.0204	0.1	811.91
346	4.3712	2.4262	0.1	1694.8
347	5.0781	2.9932	0.1	2367.
348	6.96	3.1736	0.1	965.88
349	7.1831	3.52	0.1	914.26
350	7.5753	2.9908	0.1	795.61
351	7.1197	2.7892	0.1	922.32
352	7.9355	3.2995	0.1	775.25
353	21.343	2.6934	0.1	30.538
354	21.332	3.3897	0.1	30.708
355	3.3336	2.6629	0.1	1283.2
356	2.5794	2.6141	0.1	1262.6
357	6.8209	3.5687	0.1	984.78
358	4.4573	2.6546	0.1	1941.1
359	4.6095	2.4623	0.1	1994.5
360	20.674	2.687	0.1	41.775
361	19.989	2.5973	0.1	55.929
362	19.317	2.5386	0.1	72.66
363	18.648	2.5386	0.1	92.089
364	17.979	2.5386	0.1	114.04
365	17.31	2.5386	0.1	138.6
366	16.64	2.5386	0.1	165.73
367	15.971	2.5386	0.1	195.39
368	15.302	2.5386	0.1	227.54
369	14.633	2.5386	0.1	262.13
370	13.964	2.5386	0.1	299.12
371	13.295	2.5386	0.1	338.34
372	12.626	2.5386	0.1	379.88
373	11.957	2.5386	0.1	423.35
374	11.288	2.5926	0.1	468.78
375	10.617	2.6466	0.1	516.22
376	9.9362	2.673	0.1	566.43
377	9.2428	2.6965	0.1	623.15
378	7.8268	2.5026	0.1	779.92
379	7.3542	3.7008	0.1	826.33
380	8.6601	3.4943	0.1	673.24
381	9.2808	3.4006	0.1	619.89
382	9.9514	3.3734	0.1	565.48
383	10.623	3.3644	0.1	516.09
384	11.294	3.344	0.1	468.46
385	11.959	3.3567	0.1	423.18
386	12.626	3.3894	0.1	379.8
387	13.295	3.3894	0.1	338.38
388	13.964	3.3894	0.1	299.09
389	14.633	3.3894	0.1	262.12
390	15.302	3.3894	0.1	227.53
391	15.971	3.3894	0.1	195.39
392	16.64	3.3894	0.1	165.73
393	17.31	3.3894	0.1	138.6
394	17.979	3.3894	0.1	114.04
395	18.648	3.3894	0.1	92.098
396	19.316	3.3894	0.1	72.727
397	19.981	3.3611	0.1	56.083
398	20.655	3.4083	0.1	42.051
399	6.6221	2.7051	0.1	1101.1
400	3.8894	2.3049	0.1	1343.9
401	3.101	4.0636	0.1	1258.3
402	3.6186	3.4566	0.1	1366.2
403	4.0841	2.9326	0.1	1524.8
404	2.5067	4.0096	0.1	1259.5
405	2.5803	1.9413	0.1	1263.4
406	1.9298	2.6085	0.1	1305.7
407	4.4705	2.2505	0.1	1729.1
408	22.015	2.7023	0.1	22.281
409	21.362	1.9977	0.1	29.629
410	21.332	4.0842	0.1	29.949
411	22.013	3.3825	0.1	22.221
412	5.8004	2.8803	0.1	1839.2
413	5.4829	2.7213	0.1	2231.8
414	4.758	2.7609	0.1	2112.4
415	6.7004	2.2181	0.1	1016.9
416	20.695	1.9658	0.1	40.764
417	20.008	1.9318	0.1	55.092
418	19.323	1.9118	0.1	72.193
419	18.648	1.9039	0.1	91.738
420	17.979	1.9039	0.1	113.82
421	17.31	1.9039	0.1	138.43
422	16.64	1.9039	0.1	165.62
423	15.971	1.9039	0.1	195.34
424	15.302	1.9039	0.1	227.58
425	14.633	1.9039	0.1	262.29
426	13.964	1.9039	0.1	299.4
427	13.295	1.9039	0.1	338.89
428	12.626	1.9039	0.1	380.65
429	11.951	1.9108	0.1	424.82
430	11.279	1.9314	0.1	470.97
431	10.611	1.9525	0.1	519.05
432	9.9392	1.9662	0.1	569.83
433	9.2523	1.9934	0.1	625.38
434	8.5896	1.9616	0.1	678.7
435	7.9432	1.8925	0.1	740.55
436	6.7096	3.8722	0.1	990.7
437	6.7973	4.185	0.1	899.82
438	9.2939	4.097	0.1	619.86
439	9.95	4.0961	0.1	569.5
440	10.619	4.0961	0.1	518.89
441	11.288	4.0961	0.1	470.68
442	11.957	4.0961	0.1	424.55
443	12.626	4.0961	0.1	380.7
444	13.295	4.0961	0.1	338.93
445	13.964	4.0961	0.1	299.42
446	14.633	4.0961	0.1	262.3
447	15.302	4.0961	0.1	227.59
448	15.971	4.0961	0.1	195.36
449	16.64	4.0961	0.1	165.63
450	17.31	4.0961	0.1	138.44
451	17.979	4.0961	0.1	113.82
452	18.648	4.0961	0.1	91.731
453	19.316	4.0783	0.1	72.445
454	19.98	4.0693	0.1	55.675
455	20.652	4.0869	0.1	41.499
456	5.2988	2.5995	0.1	2507.5
457	5.1084	2.6887	0.1	2420.4
458	4.0755	3.4101	0.1	1510.5
459	6.6949	1.6661	0.1	895.35
460	1.8986	3.9851	0.1	1312.3
461	1.9169	1.9318	0.1	1312.4
462	22.038	2.0092	0.1	21.161
463	22.005	4.0582	0.1	21.404
464	4.7987	2.4693	0.1	2326.3
465	5.6426	2.6308	0.1	2044.
466	4.6803	3.0804	0.1	2039.4
467	5.8477	3.258	0.1	1740.9
468	4.4129	4.3208	0.1	1324.2
469	4.2045	3.9008	0.1	1521.7
470	6.0658	1.4166	0.1	935.87
471	3.6824	4.8147	0.1	1125.4
472	3.7452	1.4044	0.1	1210.4
473	2.569	1.2666	0.1	1271.6
474	4.245	1.3685	0.1	1137.6
475	6.7249	1.0924	0.1	766.42
476	4.0976	1.0899	0.1	989.6
477	6.1938	3.9139	0.1	1185.4
478	6.2494	4.2763	0.1	1018.5
479	6.7873	5.0329	0.1	758.92
480	7.4022	4.952	0.1	761.66
481	5.3275	2.4433	0.1	2692.3
482	5.0428	2.4503	0.1	2656.8
483	5.207	3.4315	0.1	2428.7
484	1.2693	4.6667	0.1	1347.
485	3.9362	0.79697	0.1	1039.2
486	22.699	1.3266	0.1	13.6
487	22.669	4.7021	0.1	13.688
488	6.2231	5.0238	0.1	743.36
489	5.7506	2.0844	0.1	1589.9
490	5.705	1.7354	0.1	1402.8
491	5.6987	1.3664	0.1	1015.4
492	5.7118	1.0094	0.1	711.12
493	5.6518	0.72845	0.1	541.9
494	4.6544	3.901	0.1	1867.5
495	4.6981	4.328	0.1	1675.3
496	4.6824	4.6626	0.1	1183.9
497	4.65	4.9834	0.1	928.34
498	4.7146	5.2602	0.1	715.85
499	1.2718	5.3355	0.1	1391.3
500	1.9044	5.3428	0.1	1376.4
501	2.55	5.3654	0.1	1298.4
502	3.1407	5.3767	0.1	1180.8
503	3.7464	5.4252	0.1	1006.5
504	4.3927	5.4916	0.1	696.48
505	0.63427	1.3253	0.1	1548.4
506	0.6378	1.9923	0.1	1615.6
507	0.64064	2.6596	0.1	1647.6
508	0.64213	3.3251	0.1	1647.3
509	0.64051	3.9951	0.1	1616.7
510	0.63465	4.6667	0.1	1549.1
511	0.63465	5.3333	0.1	1399.
512	3.7947	0.45056	0.1	971.41
513	3.1681	0.58022	0.1	1181.
514	2.55	0.63465	0.1	1297.2
515	1.9081	0.64279	0.1	1377.2
516	1.2698	0.653	0.1	1393.1
517	0.63495	0.66277	0.1	1399.8
518	4.6873	1.9336	0.1	1844.8
519	4.6781	1.6585	0.1	1648.3
520	4.6497	1.3376	0.1	1221.9
521	4.6337	0.97763	0.1	879.51
522	4.5135	0.67352	0.1	676.26
523	4.4499	0.35127	0.1	613.44
524	22.677	0.66244	0.1	11.384
525	22.01	0.66488	0.1	18.249
526	21.339	0.65928	0.1	27.579
527	20.671	0.65063	0.1	39.472
528	19.992	0.64046	0.1	54.065
529	19.317	0.63465	0.1	71.268
530	18.648	0.63465	0.1	90.99
531	17.979	0.63465	0.1	113.22
532	17.31	0.63465	0.1	138.04
533	16.64	0.63465	0.1	165.45
534	15.971	0.63465	0.1	195.44
535	15.302	0.63465	0.1	228.
536	14.633	0.63465	0.1	263.13
537	13.964	0.63465	0.1	300.81
538	13.295	0.63465	0.1	341.02
539	12.626	0.63465	0.1	383.73
540	11.957	0.63465	0.1	428.99
541	11.288	0.63465	0.1	476.72
542	10.619	0.63465	0.1	526.74
543	9.95	0.63465	0.1	578.5
544	9.281	0.63465	0.1	630.75
545	8.6119	0.63465	0.1	680.88
546	7.9671	0.62044	0.1	721.08
547	7.3209	0.58807	0.1	733.8
548	6.6792	0.54262	0.1	688.43
549	23.335	4.6812	0.1	10.272
550	23.334	4.0163	0.1	12.607
551	23.34	3.347	0.1	13.75
552	23.348	2.6741	0.1	13.767
553	23.358	2.0039	0.1	12.585
554	23.354	1.3239	0.1	10.262
555	23.34	0.66228	0.1	7.0499
556	5.7338	3.9852	0.1	1567.2
557	5.7563	4.3134	0.1	1308.3
558	5.7607	4.6543	0.1	959.48
559	5.7313	4.9939	0.1	700.86
560	5.6526	5.262	0.1	545.56
561	6.0043	5.5234	0.1	505.19
562	6.6897	5.5057	0.1	685.49
563	7.3366	5.4689	0.1	733.87
564	7.9806	5.4307	0.1	720.66
565	8.6438	5.3978	0.1	679.38
566	9.2909	5.3768	0.1	630.24
567	9.95	5.3654	0.1	578.19
568	10.619	5.3654	0.1	526.63
569	11.288	5.3654	0.1	476.7
570	11.957	5.3654	0.1	429.06
571	12.626	5.3654	0.1	383.81
572	13.295	5.3654	0.1	341.06
573	13.964	5.3654	0.1	300.83
574	14.633	5.3654	0.1	263.14
575	15.302	5.3654	0.1	228.01
576	15.971	5.3654	0.1	195.44
577	16.64	5.3654	0.1	165.45
578	17.31	5.3654	0.1	138.04
579	17.979	5.3654	0.1	113.21
580	18.648	5.3654	0.1	90.972
581	19.317	5.3654	0.1	71.314
582	19.986	5.3654	0.1	54.299
583	20.655	5.3654	0.1	39.776
584	21.324	5.3654	0.1	27.811
585	21.998	5.3595	0.1	18.362
586	22.672	5.3546	0.1	11.388
587	23.335	5.3416	0.1	7.0457
588	5.3905	2.2625	0.1	2893.6
589	5.0726	3.6619	0.1	3053.
590	8.4928	2.7597	0.1	674.4
591	8.6768	4.1481	0.1	672.47
592	1.9222	3.2812	0.1	1309.8
593	8.0212	4.8519	0.1	725.95
594	8.6458	4.7818	0.1	677.67
595	9.3012	4.7428	0.1	624.51
596	9.95	4.7307	0.1	573.32
597	10.619	4.7307	0.1	522.47
598	11.288	4.7307	0.1	473.35
599	11.957	4.7307	0.1	426.61
600	12.626	4.7307	0.1	382.
601	13.295	4.7307	0.1	339.75
602	13.964	4.7307	0.1	299.97
603	14.633	4.7307	0.1	262.58
604	15.302	4.7307	0.1	227.68
605	15.971	4.7307	0.1	195.29
606	16.64	4.7307	0.1	165.44
607	17.31	4.7307	0.1	138.15
608	17.979	4.7307	0.1	113.42
609	18.648	4.7307	0.1	91.314
610	19.317	4.7307	0.1	71.759
611	19.986	4.7307	0.1	54.838
612	20.655	4.7307	0.1	40.555
613	21.324	4.7307	0.1	28.873
614	21.998	4.7233	0.1	19.824
615	22.676	4.0438	0.1	15.645
616	22.674	3.3635	0.1	16.814
617	22.691	2.6891	0.1	16.729
618	22.707	2.0096	0.1	15.592
619	1.2762	1.9687	0.1	1359.4
620	1.2809	2.64	0.1	1376.8
621	1.2861	3.3036	0.1	1375.9
622	1.2773	3.9871	0.1	1359.4
623	22.04	1.3209	0.1	19.532
624	21.372	1.3164	0.1	28.256
625	20.692	1.2979	0.1	39.918
626	20.004	1.2796	0.1	54.395
627	19.317	1.2693	0.1	71.688
628	18.648	1.2693	0.1	91.302
629	17.979	1.2693	0.1	113.43
630	17.31	1.2693	0.1	138.15
631	16.64	1.2693	0.1	165.44
632	15.971	1.2693	0.1	195.29
633	15.302	1.2693	0.1	227.67
634	14.633	1.2693	0.1	262.56
635	13.964	1.2693	0.1	299.93
636	13.295	1.2693	0.1	339.74
637	12.626	1.2693	0.1	381.92
638	11.957	1.2693	0.1	426.43
639	11.288	1.2693	0.1	473.32
640	10.619	1.2693	0.1	522.5
641	9.943	1.275	0.1	574.19
642	9.2758	1.2856	0.1	626.67
643	8.6174	1.2841	0.1	678.75
644	1.9102	1.2884	0.1	1327.
645	1.2682	1.3057	0.1	1348.5
646	1.9069	4.6824	0.1	1327.
647	2.5112	4.6934	0.1	1271.8
648	8.0473	4.2829	0.1	731.15
649	7.966	1.2517	0.1	731.04
650	3.12	4.7188	0.1	1219.1
651	2.5384	3.2969	0.1	1264.2
652	7.4398	4.4597	0.1	787.13
653	3.2803	1.1945	0.1	1163.1
654	3.0673	3.3835	0.1	1257.4
655	3.6958	4.139	0.1	1214.7
656	6.8204	4.5665	0.1	831.65
657	7.2167	2.3324	0.1	861.59
658	7.3188	1.192	0.1	772.73
659	7.2765	1.7758	0.1	817.18
660	3.1448	1.9297	0.1	1244.3
661	6.6028	3.1552	0.1	1139.8
662	5.4929	3.0743	0.1	2138.2
663	3.6919	1.8637	0.1	1243.8
664	6.1392	2.6823	0.1	1371.5
665	6.1348	1.8209	0.1	1098.
666	4.1957	1.7276	0.1	1327.4
667	6.2389	3.5836	0.1	1264.7
668	6.1895	2.1905	0.1	1200.8
669	4.2743	2.0192	0.1	1499.6
670	6.2457	4.637	0.1	886.08
671	6.0081	0.49199	0.1	509.
672	4.6927	3.4866	0.1	2037.
673	4.1702	4.9335	0.1	1029.6
674	6.1828	1.0276	0.1	759.63
675	5.4944	3.3907	0.1	2285.3
676	4.7518	2.1891	0.1	2298.6
677	5.7241	2.3853	0.1	1933.7
678	5.7518	3.6496	0.1	1835.7
679	5.4533	3.6915	0.1	2560.1
680	5.043	2.2139	0.1	3356.8
681	5.2667	5.6667	0.1	316.61
682	5.2667	5.3333	0.1	332.88
683	5.2667	5.	0.1	651.1
684	5.2667	4.6667	0.1	1085.
685	5.2667	4.3333	0.1	2000.6
686	5.2667	4.	0.1	4510.5
687	5.1	4.	0.1	4745.4
688	5.1	4.3333	0.1	2371.
689	5.1	4.6667	0.1	1196.7
690	5.1	5.	0.1	790.89
691	5.1	5.3333	0.1	429.26
692	5.1	5.6667	0.1	402.43
693	5.2667	0.33333	0.1	322.86
694	5.2667	0.66667	0.1	332.07
695	5.2667	1.	0.1	631.08
696	5.2667	1.3333	0.1	1024.5
697	5.2667	1.6667	0.1	2106.9
698	5.2667	2.	0.1	4625.7
699	5.1	2.	0.1	4918.
700	5.1	1.6667	0.1	2251.4
701	5.1	1.3333	0.1	1243.3
702	5.1	1.	0.1	790.39
703	5.1	0.66667	0.1	548.8
704	5.1	0.33333	0.1	334.13
705	5.2667	6.	0.1	174.35
706	5.9357	6.	0.1	408.4
707	6.6048	6.	0.1	624.22
708	7.2738	6.	0.1	712.83
709	7.9429	6.	0.1	715.51
710	8.6119	6.	0.1	682.6
711	9.281	6.	0.1	634.66
712	9.95	6.	0.1	582.65
713	10.619	6.	0.1	530.38
714	11.288	6.	0.1	479.63
715	11.957	6.	0.1	431.18
716	12.626	6.	0.1	385.26
717	13.295	6.	0.1	341.96
718	13.964	6.	0.1	301.3
719	14.633	6.	0.1	263.29
720	15.302	6.	0.1	227.91
721	15.971	6.	0.1	195.16
722	16.64	6.	0.1	165.03
723	17.31	6.	0.1	137.52
724	17.979	6.	0.1	112.62
725	18.648	6.	0.1	90.319
726	19.317	6.	0.1	70.635
727	19.986	6.	0.1	53.557
728	20.655	6.	0.1	39.022
729	21.324	6.	0.1	27.091
730	21.993	6.	0.1	17.593
731	22.662	6.	0.1	10.452
732	23.331	6.	0.1	5.2633
733	24.	6.	0.1	2.2518
734	24.	5.3333	0.1	5.2689
735	24.	4.6667	0.1	9.0266
736	24.	4.	0.1	11.337
737	24.	3.3333	0.1	12.517
738	24.	2.6667	0.1	12.514
739	24.	2.	0.1	11.35
740	24.	1.3333	0.1	9.024
741	24.	0.66667	0.1	5.2651
742	5.8279e-015	0.66667	0.1	901.22
743	1.1656e-014	1.3333	0.1	1004.8
744	1.7484e-014	2.	0.1	1060.5
745	2.3312e-014	2.6667	0.1	1081.5
746	2.914e-014	3.3333	0.1	1082.1
747	3.4968e-014	4.	0.1	1061.8
748	4.0796e-014	4.6667	0.1	1006.4
749	4.6624e-014	5.3333	0.1	902.72
750	24.	0.	0.1	2.2556
751	23.331	0.	0.1	5.2818
752	22.662	0.	0.1	10.515
753	21.993	0.	0.1	17.655
754	21.324	0.	0.1	27.103
755	20.655	0.	0.1	39.014
756	19.986	0.	0.1	53.503
757	19.317	0.	0.1	70.632
758	18.648	0.	0.1	90.322
759	17.979	0.	0.1	112.62
760	17.31	0.	0.1	137.52
761	16.64	0.	0.1	165.03
762	15.971	0.	0.1	195.16
763	15.302	0.	0.1	227.9
764	14.633	0.	0.1	263.27
765	13.964	0.	0.1	301.28
766	13.295	0.	0.1	341.92
767	12.626	0.	0.1	385.23
768	11.957	0.	0.1	431.18
769	11.288	0.	0.1	479.69
770	10.619	0.	0.1	530.44
771	9.95	0.	0.1	582.74
772	9.281	0.	0.1	634.75
773	8.6119	0.	0.1	681.93
774	7.9429	0.	0.1	714.81
775	7.2738	0.	0.1	711.46
776	6.6048	0.	0.1	623.53
777	5.9357	0.	0.1	409.07
778	5.2667	0.	0.1	177.32
779	5.1	0.	0.1	208.76
780	4.4625	1.9108e-030	0.1	535.38
781	3.825	1.6378e-030	0.1	920.59
782	3.1875	1.3648e-030	0.1	1160.2
783	2.55	1.0919e-030	0.1	1316.6
784	1.9125	8.189e-031	0.1	1442.
785	1.275	5.4593e-031	0.1	1512.7
786	0.6375	2.7297e-031	0.1	1428.1
787	0.	0.	0.1	635.38
788	3.937e-014	6.	0.1	636.6
789	0.6375	6.	0.1	1427.3
790	1.275	6.	0.1	1512.3
791	1.9125	6.	0.1	1442.1
792	2.55	6.	0.1	1324.3
793	3.1875	6.	0.1	1164.1
794	3.825	6.	0.1	912.23
795	4.4625	6.	0.1	556.83
796	5.1	6.	0.1	232.91
797	4.4625	6.	0.	556.83
798	3.825	6.	0.	912.23
799	3.1875	6.	0.	1164.1
800	2.55	6.	0.	1324.3
801	1.9125	6.	0.	1442.1
802	1.275	6.	0.	1512.3
803	0.6375	6.	0.	1427.3
804	5.1	6.	0.	232.91
805	3.937e-014	6.	0.	636.6
806	0.6375	2.7297e-031	0.	1428.1
807	1.275	5.4593e-031	0.	1512.7
808	1.9125	8.189e-031	0.	1442.
809	2.55	1.0919e-030	0.	1316.6
810	3.1875	1.3648e-030	0.	1160.2
811	3.825	1.6378e-030	0.	920.59
812	4.4625	1.9108e-030	0.	535.38
813	5.1	0.	0.	208.76
814	0.	0.	0.	635.38
815	5.9357	0.	0.	409.07
816	6.6048	0.	0.	623.53
817	7.2738	0.	0.	711.46
818	7.9429	0.	0.	714.81
819	8.6119	0.	0.	681.93
820	9.281	0.	0.	634.75
821	9.95	0.	0.	582.74
822	10.619	0.	0.	530.44
823	11.288	0.	0.	479.69
824	11.957	0.	0.	431.18
825	12.626	0.	0.	385.23
826	13.295	0.	0.	341.92
827	13.964	0.	0.	301.28
828	14.633	0.	0.	263.27
829	15.302	0.	0.	227.9
830	15.971	0.	0.	195.16
831	16.64	0.	0.	165.03
832	17.31	0.	0.	137.52
833	17.979	0.	0.	112.62
834	18.648	0.	0.	90.322
835	19.317	0.	0.	70.632
836	19.986	0.	0.	53.503
837	20.655	0.	0.	39.014
838	21.324	0.	0.	27.103
839	21.993	0.	0.	17.655
840	22.662	0.	0.	10.515
841	23.331	0.	0.	5.2818
842	5.2667	0.	0.	177.32
843	24.	0.	0.	2.2556
844	4.6624e-014	5.3333	0.	902.72
845	4.0796e-014	4.6667	0.	1006.4
846	3.4968e-014	4.	0.	1061.8
847	2.914e-014	3.3333	0.	1082.1
848	2.3312e-014	2.6667	0.	1081.5
849	1.7484e-014	2.	0.	1060.5
850	1.1656e-014	1.3333	0.	1004.8
851	5.8279e-015	0.66667	0.	901.22
852	24.	0.66667	0.	5.2651
853	24.	1.3333	0.	9.024
854	24.	2.	0.	11.35
855	24.	2.6667	0.	12.514
856	24.	3.3333	0.	12.517
857	24.	4.	0.	11.337
858	24.	4.6667	0.	9.0266
859	24.	5.3333	0.	5.2689
860	24.	6.	0.	2.2518
861	23.331	6.	0.	5.2633
862	22.662	6.	0.	10.452
863	21.993	6.	0.	17.593
864	21.324	6.	0.	27.091
865	20.655	6.	0.	39.022
866	19.986	6.	0.	53.557
867	19.317	6.	0.	70.635
868	18.648	6.	0.	90.319
869	17.979	6.	0.	112.62
870	17.31	6.	0.	137.52
871	16.64	6.	0.	165.03
872	15.971	6.	0.	195.16
873	15.302	6.	0.	227.91
874	14.633	6.	0.	263.29
875	13.964	6.	0.	301.3
876	13.295	6.	0.	341.96
877	12.626	6.	0.	385.26
878	11.957	6.	0.	431.18
879	11.288	6.	0.	479.63
880	10.619	6.	0.	530.38
881	9.95	6.	0.	582.65
882	9.281	6.	0.	634.66
883	8.6119	6.	0.	682.6
884	7.9429	6.	0.	715.51
885	7.2738	6.	0.	712.83
886	6.6048	6.	0.	624.22
887	5.9357	6.	0.	408.4
888	5.2667	6.	0.	174.35
889	5.1	1.6667	0.	2251.4
890	5.1	1.3333	0.	1243.3
891	5.1	1.	0.	790.39
892	5.1	0.66667	0.	548.8
893	5.1	0.33333	0.	334.13
894	5.1	2.	0.	4918.
895	5.2667	0.33333	0.	322.86
896	5.2667	0.66667	0.	332.07
897	5.2667	1.	0.	631.08
898	5.2667	1.3333	0.	1024.5
899	5.2667	1.6667	0.	2106.9
900	5.2667	2.	0.	4625.7
901	5.1	4.3333	0.	2371.
902	5.1	4.6667	0.	1196.7
903	5.1	5.	0.	790.89
904	5.1	5.3333	0.	429.26
905	5.1	5.6667	0.	402.43
906	5.1	4.	0.	4745.4
907	5.2667	5.6667	0.	316.61
908	5.2667	5.3333	0.	332.88
909	5.2667	5.	0.	651.1
910	5.2667	4.6667	0.	1085.
911	5.2667	4.3333	0.	2000.6
912	5.2667	4.	0.	4510.5
913	4.8974	2.2015	0.	2803.3
914	5.2168	2.2382	0.	3016.3
915	5.0429	2.3321	0.	3003.3
916	5.043	2.2139	5.e-002	181.26
917	5.0715	2.107	0.	4048.5
918	5.6026	3.6706	0.	2195.9
919	5.4739	3.5411	0.	2414.5
920	5.263	3.6767	0.	2737.7
921	5.4533	3.6915	5.e-002	133.11
922	5.36	3.8457	0.	3475.6
923	5.9953	3.6166	0.	1546.5
924	5.7428	3.8174	0.	1693.
925	5.7998	3.4538	0.	1775.2
926	5.7518	3.6496	5.e-002	92.825
927	5.9317	2.5338	0.	1645.
928	5.5573	2.3239	0.	2409.5
929	5.7373	2.2348	0.	1755.3
930	5.6833	2.508	0.	1982.4
931	5.7241	2.3853	5.e-002	74.203
932	4.7196	2.0614	0.	2064.2
933	4.7752	2.3292	0.	2296.9
934	4.6112	2.2198	0.	2009.7
935	4.7518	2.1891	5.e-002	114.35
936	5.4937	3.2325	0.	2206.5
937	5.3507	3.4111	0.	2350.5
938	5.6711	3.3243	0.	2012.
939	5.4944	3.3907	5.e-002	41.178
940	6.0954	0.75978	0.	633.13
941	5.9473	1.0185	0.	699.51
942	6.4539	1.06	0.	757.44
943	6.1243	1.2221	0.	847.31
944	6.1828	1.0276	5.e-002	23.323
945	4.2814	5.2125	0.	860.97
946	4.4101	4.9584	0.	935.52
947	3.9263	4.8741	0.	1073.9
948	4.2101	4.7552	0.	1161.
949	4.1702	4.9335	5.e-002	36.616
950	4.8827	3.5743	0.	2535.8
951	4.6736	3.6938	0.	1932.5
952	4.6865	3.2835	0.	2032.7
953	4.3841	3.4484	0.	1772.2
954	4.907	3.3658	0.	2271.1
955	4.6927	3.4866	5.e-002	60.008
956	6.3436	0.51731	0.	588.95
957	5.8299	0.61022	0.	505.17
958	6.0081	0.49199	5.e-002	36.43
959	5.9719	0.246	0.	456.96
960	5.6374	0.41266	0.	395.11
961	6.533	4.6017	0.	851.99
962	6.0032	4.6456	0.	890.72
963	6.2344	4.8304	0.	814.6
964	6.2475	4.4566	0.	951.63
965	6.2457	4.637	5.e-002	16.909
966	4.235	1.8734	0.	1411.9
967	4.4808	1.9764	0.	1655.4
968	4.3724	2.1349	0.	1613.8
969	4.0818	2.1621	0.	1419.
970	4.2743	2.0192	5.e-002	23.502
971	6.1622	2.0057	0.	1146.6
972	6.1644	2.4364	0.	1283.1
973	5.97	2.1374	0.	1387.5
974	6.445	2.2043	0.	1105.6
975	6.1895	2.1905	5.e-002	28.699
976	6.2164	3.7487	0.	1224.6
977	6.5299	3.5761	0.	1120.6
978	6.2217	3.3951	0.	1311.3
979	6.2389	3.5836	5.e-002	39.894
980	3.9438	1.7956	0.	1279.9
981	4.4369	1.693	0.	1460.1
982	4.2203	1.5481	0.	1230.2
983	4.1957	1.7276	5.e-002	36.928
984	5.9199	1.7781	0.	1233.6
985	6.1003	1.6188	0.	1015.2
986	6.4148	1.7435	0.	991.32
987	6.1348	1.8209	5.e-002	21.104
988	5.9698	2.7813	0.	1603.2
989	6.3807	2.6937	0.	1235.4
990	6.1719	2.9445	0.	1360.
991	6.1392	2.6823	5.e-002	10.239
992	3.4183	1.8967	0.	1242.2
993	3.7186	1.6341	0.	1226.
994	3.7906	2.0843	0.	1293.7
995	3.6919	1.8637	5.e-002	5.2446
996	5.4879	2.8978	0.	2181.4
997	5.6467	2.9773	0.	1986.4
998	5.3072	3.1596	0.	2337.7
999	5.4929	3.0743	5.e-002	25.514
1000	6.6125	2.9302	0.	1118.3
1001	6.7118	3.362	0.	1062.2
1002	6.7814	3.1644	0.	1052.4
1003	6.4037	3.1809	0.	1251.7
1004	6.6028	3.1552	5.e-002	30.059
1005	3.2125	1.5621	0.	1202.3
1006	2.8625	1.9355	0.	1253.3
1007	3.2392	2.2963	0.	1261.9
1008	3.1448	1.9297	5.e-002	8.2652
1009	7.2976	1.4839	0.	794.64
1010	7.2466	2.0541	0.	839.23
1011	6.9857	1.721	0.	854.33
1012	7.6098	1.8341	0.	778.6
1013	7.2765	1.7758	5.e-002	10.416
1014	7.6424	1.2218	0.	751.6
1015	7.3198	0.89001	0.	753.2
1016	7.0218	1.1422	0.	768.
1017	7.3188	1.192	5.e-002	4.0251
1018	6.9585	2.2752	0.	938.48
1019	7.5217	2.4175	0.	820.69
1020	7.1682	2.5608	0.	891.81
1021	7.2167	2.3324	5.e-002	16.103
1022	7.1301	4.5131	0.	808.31
1023	6.8039	4.7997	0.	795.14
1024	6.8088	4.3758	0.	865.59
1025	6.8204	4.5665	5.e-002	5.8728
1026	3.6891	4.4768	0.	1168.9
1027	3.9502	4.0199	0.	1366.8
1028	3.6572	3.7978	0.	1284.
1029	3.3984	4.1013	0.	1233.8
1030	3.9729	4.358	0.	1241.
1031	3.6958	4.139	5.e-002	31.589
1032	2.8029	3.3402	0.	1260.2
1033	3.343	3.42	0.	1311.3
1034	3.0842	3.7236	0.	1257.1
1035	3.2005	3.0232	0.	1269.3
1036	3.0673	3.3835	5.e-002	14.989
1037	3.2242	0.88734	0.	1171.6
1038	3.6082	0.99572	0.	1095.7
1039	2.9246	1.2306	0.	1216.7
1040	3.5128	1.2994	0.	1185.4
1041	3.2803	1.1945	5.e-002	24.276
1042	7.7435	4.3713	0.	758.93
1043	7.421	4.7059	0.	774.26
1044	7.4345	4.24	0.	799.34
1045	7.4398	4.4597	5.e-002	5.8838
1046	2.2303	3.289	0.	1286.5
1047	2.5225	3.6532	0.	1260.9
1048	2.5589	2.9555	0.	1262.9
1049	2.5384	3.2969	5.e-002	10.59
1050	2.8156	4.7061	0.	1245.1
1051	3.1304	5.0477	0.	1199.6
1052	3.4012	4.7667	0.	1169.5
1053	3.1105	4.3912	0.	1237.6
1054	3.12	4.7188	5.e-002	18.069
1055	8.2917	1.2679	0.	704.89
1056	7.9665	0.93607	0.	725.92
1057	7.9546	1.5721	0.	735.66
1058	7.966	1.2517	5.e-002	6.4623
1059	8.0342	4.5674	0.	728.4
1060	8.3621	4.2155	0.	701.8
1061	8.0521	4.0125	0.	731.15
1062	8.0473	4.2829	5.e-002	9.5526
1063	2.2091	4.6879	0.	1298.9
1064	2.5306	5.0294	0.	1284.3
1065	2.509	4.3515	0.	1264.6
1066	2.5112	4.6934	5.e-002	15.566
1067	1.9057	5.0126	0.	1350.
1068	1.5881	4.6746	0.	1336.8
1069	1.9028	4.3338	0.	1318.3
1070	1.9069	4.6824	5.e-002	14.929
1071	1.5892	1.297	0.	1337.4
1072	1.2722	1.6372	0.	1352.3
1073	1.269	0.97933	0.	1367.3
1074	0.95124	1.3155	0.	1443.1
1075	1.2682	1.3057	5.e-002	26.159
1076	1.9092	0.96558	0.	1350.6
1077	2.2396	1.2775	0.	1298.9
1078	1.9136	1.6101	0.	1318.4
1079	1.9102	1.2884	5.e-002	15.305
1080	8.9466	1.2848	0.	652.71
1081	8.6146	0.95936	0.	679.71
1082	8.6035	1.6228	0.	678.66
1083	8.6174	1.2841	5.e-002	6.826
1084	9.6094	1.2803	0.	600.42
1085	9.2784	0.96011	0.	628.61
1086	9.264	1.6395	0.	625.94
1087	9.2758	1.2856	5.e-002	6.0758
1088	10.281	1.2722	0.	548.33
1089	9.9465	0.95483	0.	576.25
1090	9.9411	1.6206	0.	571.94
1091	9.943	1.275	5.e-002	5.9861
1092	10.954	1.2693	0.	497.9
1093	10.619	0.95197	0.	524.53
1094	10.615	1.6109	0.	520.71
1095	10.619	1.2693	5.e-002	5.835
1096	11.623	1.2693	0.	449.86
1097	11.288	0.95197	0.	474.93
1098	11.284	1.6004	0.	472.08
1099	11.288	1.2693	5.e-002	5.529
1100	12.292	1.2693	0.	404.17
1101	11.957	0.95197	0.	427.62
1102	11.954	1.5901	0.	425.55
1103	11.957	1.2693	5.e-002	5.2588
1104	12.961	1.2693	0.	360.83
1105	12.626	0.95197	0.	382.73
1106	12.626	1.5866	0.	381.21
1107	12.626	1.2693	5.e-002	4.9081
1108	13.63	1.2693	0.	319.83
1109	13.295	0.95197	0.	340.28
1110	13.295	1.5866	0.	339.23
1111	13.295	1.2693	5.e-002	4.6166
1112	14.299	1.2693	0.	281.24
1113	13.964	0.95197	0.	300.27
1114	13.964	1.5866	0.	299.58
1115	13.964	1.2693	5.e-002	4.3308
1116	14.968	1.2693	0.	245.11
1117	14.633	0.95197	0.	262.74
1118	14.633	1.5866	0.	262.33
1119	14.633	1.2693	5.e-002	4.0457
1120	15.637	1.2693	0.	211.47
1121	15.302	0.95197	0.	227.72
1122	15.302	1.5866	0.	227.53
1123	15.302	1.2693	5.e-002	3.7589
1124	16.306	1.2693	0.	180.35
1125	15.971	0.95197	0.	195.25
1126	15.971	1.5866	0.	195.22
1127	15.971	1.2693	5.e-002	3.4725
1128	16.975	1.2693	0.	151.79
1129	16.64	0.95197	0.	165.33
1130	16.64	1.5866	0.	165.43
1131	16.64	1.2693	5.e-002	3.1872
1132	17.644	1.2693	0.	125.78
1133	17.31	0.95197	0.	137.97
1134	17.31	1.5866	0.	138.19
1135	17.31	1.2693	5.e-002	2.9026
1136	18.313	1.2693	0.	102.35
1137	17.979	0.95197	0.	113.2
1138	17.979	1.5866	0.	113.52
1139	17.979	1.2693	5.e-002	2.6143
1140	18.982	1.2693	0.	81.48
1141	18.648	0.95197	0.	91.016
1142	18.648	1.5866	0.	91.412
1143	18.648	1.2693	5.e-002	2.3326
1144	19.661	1.2744	0.	63.022
1145	19.317	0.95197	0.	71.34
1146	19.32	1.5905	0.	71.834
1147	19.317	1.2693	5.e-002	2.0576
1148	20.348	1.2887	0.	47.13
1149	19.998	0.96002	0.	54.084
1150	20.006	1.6057	0.	54.629
1151	20.004	1.2796	5.e-002	1.7752
1152	21.032	1.3071	0.	34.047
1153	20.682	0.97426	0.	39.534
1154	20.694	1.6318	0.	40.216
1155	20.692	1.2979	5.e-002	1.4523
1156	21.706	1.3186	0.	23.836
1157	21.355	0.98783	0.	27.739
1158	21.367	1.657	0.	28.822
1159	21.372	1.3164	5.e-002	1.1693
1160	22.025	0.99288	0.	18.687
1161	22.369	1.3237	0.	16.487
1162	22.039	1.6651	0.	20.236
1163	22.04	1.3209	5.e-002	0.89628
1164	1.2817	3.6453	0.	1367.1
1165	0.9589	3.9911	0.	1485.1
1166	1.2733	4.3269	0.	1351.6
1167	1.588	3.9861	0.	1335.7
1168	1.2773	3.9871	5.e-002	21.053
1169	1.2835	2.9718	0.	1375.9
1170	1.6042	3.2924	0.	1342.7
1171	0.96414	3.3144	0.	1509.5
1172	1.2861	3.3036	5.e-002	20.101
1173	1.2786	2.3043	0.	1367.5
1174	0.96078	2.6498	0.	1510.1
1175	1.6054	2.6242	0.	1341.1
1176	1.2809	2.64	5.e-002	20.367
1177	0.95699	1.9805	0.	1484.4
1178	1.5966	1.9502	0.	1335.6
1179	1.2762	1.9687	5.e-002	20.77
1180	22.699	2.3494	0.	16.112
1181	23.032	2.0068	0.	14.011
1182	22.703	1.6681	0.	14.512
1183	22.373	2.0094	0.	18.287
1184	22.707	2.0096	5.e-002	0.62295
1185	22.682	3.0263	0.	16.73
1186	23.02	2.6816	0.	15.17
1187	22.353	2.6957	0.	19.411
1188	22.691	2.6891	5.e-002	0.61871
1189	22.675	3.7036	0.	16.179
1190	23.007	3.3552	0.	15.203
1191	22.343	3.373	0.	19.427
1192	22.674	3.3635	5.e-002	0.61936
1193	23.005	4.03	0.	14.044
1194	22.672	4.373	0.	14.582
1195	22.34	4.051	0.	18.435
1196	22.676	4.0438	5.e-002	0.62543
1197	21.661	4.727	0.	24.294
1198	21.998	5.0414	0.	18.902
1199	22.333	4.7127	0.	16.675
1200	22.002	4.3908	0.	20.505
1201	21.998	4.7233	5.e-002	0.90439
1202	20.989	4.7307	0.	34.676
1203	21.324	5.048	0.	28.172
1204	21.328	4.4075	0.	29.294
1205	21.324	4.7307	5.e-002	1.2078
1206	20.32	4.7307	0.	47.67
1207	20.655	5.048	0.	40.012
1208	20.653	4.4088	0.	40.912
1209	20.655	4.7307	5.e-002	1.5188
1210	19.651	4.7307	0.	63.279
1211	19.986	5.048	0.	54.42
1212	19.983	4.4	0.	55.135
1213	19.986	4.7307	5.e-002	1.7267
1214	18.982	4.7307	0.	81.521
1215	19.317	5.048	0.	71.399
1216	19.316	4.4045	0.	71.992
1217	19.317	4.7307	5.e-002	2.0473
1218	18.313	4.7307	0.	102.35
1219	18.648	5.048	0.	91.013
1220	18.648	4.4134	0.	91.412
1221	18.648	4.7307	5.e-002	2.34
1222	17.644	4.7307	0.	125.77
1223	17.979	5.048	0.	113.19
1224	17.979	4.4134	0.	113.51
1225	17.979	4.7307	5.e-002	2.6228
1226	16.975	4.7307	0.	151.78
1227	17.31	5.048	0.	137.97
1228	17.31	4.4134	0.	138.19
1229	17.31	4.7307	5.e-002	2.9019
1230	16.306	4.7307	0.	180.36
1231	16.64	5.048	0.	165.32
1232	16.64	4.4134	0.	165.43
1233	16.64	4.7307	5.e-002	3.1878
1234	15.637	4.7307	0.	211.48
1235	15.971	5.048	0.	195.25
1236	15.971	4.4134	0.	195.22
1237	15.971	4.7307	5.e-002	3.4732
1238	14.968	4.7307	0.	245.12
1239	15.302	5.048	0.	227.73
1240	15.302	4.4134	0.	227.54
1241	15.302	4.7307	5.e-002	3.7597
1242	14.299	4.7307	0.	281.27
1243	14.633	5.048	0.	262.75
1244	14.633	4.4134	0.	262.35
1245	14.633	4.7307	5.e-002	4.0489
1246	13.63	4.7307	0.	319.85
1247	13.964	5.048	0.	300.3
1248	13.964	4.4134	0.	299.6
1249	13.964	4.7307	5.e-002	4.331
1250	12.961	4.7307	0.	360.87
1251	13.295	5.048	0.	340.3
1252	13.295	4.4134	0.	339.26
1253	13.295	4.7307	5.e-002	4.5922
1254	12.292	4.7307	0.	404.3
1255	12.626	5.048	0.	382.81
1256	12.626	4.4134	0.	381.28
1257	12.626	4.7307	5.e-002	4.9176
1258	11.623	4.7307	0.	449.97
1259	11.957	5.048	0.	427.74
1260	11.957	4.4134	0.	425.51
1261	11.957	4.7307	5.e-002	5.2166
1262	10.954	4.7307	0.	497.89
1263	11.288	5.048	0.	474.94
1264	11.288	4.4134	0.	471.95
1265	11.288	4.7307	5.e-002	5.5251
1266	10.285	4.7307	0.	547.88
1267	10.619	5.048	0.	524.46
1268	10.619	4.4134	0.	520.62
1269	10.619	4.7307	5.e-002	5.7809
1270	9.6256	4.7368	0.	598.9
1271	9.95	5.048	0.	575.67
1272	9.95	4.4134	0.	571.35
1273	9.95	4.7307	5.e-002	6.1349
1274	8.9735	4.7623	0.	651.09
1275	9.296	5.0598	0.	627.28
1276	9.2976	4.4199	0.	622.13
1277	9.3012	4.7428	5.e-002	6.1295
1278	8.3335	4.8169	0.	701.8
1279	8.6613	4.465	0.	674.98
1280	8.6448	5.0898	0.	678.43
1281	8.6458	4.7818	5.e-002	6.4947
1282	8.0009	5.1413	0.	723.2
1283	7.7117	4.9019	0.	743.63
1284	8.0212	4.8519	5.e-002	5.7375
1285	1.9104	3.6331	0.	1310.2
1286	1.926	2.9448	0.	1307.1
1287	1.9222	3.2812	5.e-002	13.799
1288	8.9854	4.1225	0.	646.15
1289	8.6685	3.8212	0.	672.84
1290	8.6768	4.1481	5.e-002	8.0552
1291	8.5412	2.3607	0.	676.35
1292	8.5764	3.127	0.	673.7
1293	8.1598	2.6312	0.	727.08
1294	8.8678	2.7281	0.	648.69
1295	8.2141	3.0296	0.	724.78
1296	8.4928	2.7597	5.e-002	4.3958
1297	5.1398	3.5467	0.	2730.7
1298	5.0726	3.6619	5.e-002	123.64
1299	5.0863	3.8309	0.	3830.7
1300	5.359	2.3529	0.	2781.8
1301	5.3905	2.2625	5.e-002	240.44
1302	5.3286	2.1313	0.	3698.7
1303	23.003	5.3481	0.	9.14
1304	23.335	5.0114	0.	8.5332
1305	23.335	5.3416	5.e-002	0.5349
1306	23.668	5.3375	0.	6.0296
1307	23.333	5.6708	0.	5.8875
1308	22.335	5.357	0.	14.813
1309	22.67	5.0284	0.	12.341
1310	22.672	5.3546	5.e-002	0.67558
1311	22.667	5.6773	0.	10.692
1312	21.661	5.3624	0.	23.035
1313	21.998	5.3595	5.e-002	0.92014
1314	21.995	5.6797	0.	17.797
1315	20.989	5.3654	0.	33.751
1316	21.324	5.3654	5.e-002	1.1752
1317	21.324	5.6827	0.	27.299
1318	20.32	5.3654	0.	47.005
1319	20.655	5.3654	5.e-002	1.4321
1320	20.655	5.6827	0.	39.264
1321	19.651	5.3654	0.	62.779
1322	19.986	5.3654	5.e-002	1.6882
1323	19.986	5.6827	0.	53.803
1324	18.982	5.3654	0.	81.121
1325	19.317	5.3654	5.e-002	1.9647
1326	19.317	5.6827	0.	70.856
1327	18.313	5.3654	0.	102.07
1328	18.648	5.3654	5.e-002	2.2229
1329	18.648	5.6827	0.	90.531
1330	17.644	5.3654	0.	125.61
1331	17.979	5.3654	5.e-002	2.4833
1332	17.979	5.6827	0.	112.81
1333	16.975	5.3654	0.	151.73
1334	17.31	5.3654	5.e-002	2.7563
1335	17.31	5.6827	0.	137.67
1336	16.306	5.3654	0.	180.43
1337	16.64	5.3654	5.e-002	3.0276
1338	16.64	5.6827	0.	165.13
1339	15.637	5.3654	0.	211.72
1340	15.971	5.3654	5.e-002	3.299
1341	15.971	5.6827	0.	195.2
1342	14.968	5.3654	0.	245.57
1343	15.302	5.3654	5.e-002	3.5722
1344	15.302	5.6827	0.	227.86
1345	14.299	5.3654	0.	281.98
1346	14.633	5.3654	5.e-002	3.8475
1347	14.633	5.6827	0.	263.12
1348	13.63	5.3654	0.	320.94
1349	13.964	5.3654	5.e-002	4.1311
1350	13.964	5.6827	0.	300.97
1351	12.961	5.3654	0.	362.42
1352	13.295	5.3654	5.e-002	4.4157
1353	13.295	5.6827	0.	341.42
1354	12.292	5.3654	0.	406.42
1355	12.626	5.3654	5.e-002	4.7001
1356	12.626	5.6827	0.	384.45
1357	11.623	5.3654	0.	452.87
1358	11.957	5.3654	5.e-002	4.986
1359	11.957	5.6827	0.	430.03
1360	10.954	5.3654	0.	501.65
1361	11.288	5.3654	5.e-002	5.2778
1362	11.288	5.6827	0.	478.08
1363	10.285	5.3654	0.	552.4
1364	10.619	5.3654	5.e-002	5.5252
1365	10.619	5.6827	0.	528.43
1366	9.6204	5.3711	0.	604.2
1367	9.95	5.3654	5.e-002	5.7246
1368	9.95	5.6827	0.	580.34
1369	8.9673	5.3873	0.	654.81
1370	9.2909	5.3768	5.e-002	5.6107
1371	9.2859	5.6884	0.	632.38
1372	8.3122	5.4143	0.	700.01
1373	8.6438	5.3978	5.e-002	5.0044
1374	8.6278	5.6989	0.	680.93
1375	7.6586	5.4498	0.	727.16
1376	7.9806	5.4307	5.e-002	3.2248
1377	7.9617	5.7154	0.	718.06
1378	7.0132	5.4873	0.	708.73
1379	7.3694	5.2105	0.	747.71
1380	7.3366	5.4689	5.e-002	3.0578
1381	7.3052	5.7344	0.	723.32
1382	6.347	5.5146	0.	586.08
1383	6.7385	5.2693	0.	722.14
1384	6.6897	5.5057	5.e-002	14.703
1385	6.6472	5.7529	0.	654.37
1386	5.8285	5.3927	0.	502.72
1387	6.1137	5.2736	0.	623.03
1388	6.0043	5.5234	5.e-002	35.377
1389	5.97	5.7617	0.	454.93
1390	5.6355	5.595	0.	389.72
1391	5.692	5.128	0.	621.53
1392	5.6526	5.262	5.e-002	33.43
1393	5.4596	5.2977	0.	414.04
1394	5.746	4.8241	0.	828.48
1395	5.9772	5.0088	0.	688.02
1396	5.7313	4.9939	5.e-002	48.977
1397	5.499	4.9969	0.	650.61
1398	5.7585	4.4838	0.	1125.7
1399	5.7607	4.6543	5.e-002	60.172
1400	5.5137	4.6605	0.	975.53
1401	5.745	4.1493	0.	1430.3
1402	6.0028	4.2949	0.	1144.5
1403	5.7563	4.3134	5.e-002	59.546
1404	5.5115	4.3234	0.	1533.7
1405	5.9638	3.9495	0.	1364.
1406	5.7338	3.9852	5.e-002	72.614
1407	5.5002	3.9926	0.	3030.6
1408	23.347	0.99307	0.	8.5262
1409	23.009	0.66236	0.	9.1444
1410	23.34	0.66228	5.e-002	0.53411
1411	23.335	0.33114	0.	5.8995
1412	23.67	0.66447	0.	6.0317
1413	23.356	1.6639	0.	11.381
1414	23.027	1.3252	0.	11.848
1415	23.354	1.3239	5.e-002	0.47954
1416	23.677	1.3286	0.	9.5981
1417	23.353	2.339	0.	13.152
1418	23.358	2.0039	5.e-002	0.40908
1419	23.679	2.0019	0.	11.944
1420	23.344	3.0106	0.	13.738
1421	23.348	2.6741	5.e-002	0.37165
1422	23.674	2.6704	0.	13.124
1423	23.337	3.6817	0.	13.153
1424	23.34	3.347	5.e-002	0.36018
1425	23.67	3.3402	0.	13.116
1426	23.335	4.3487	0.	11.398
1427	23.334	4.0163	5.e-002	0.40115
1428	23.667	4.0081	0.	11.947
1429	23.002	4.6916	0.	11.888
1430	23.335	4.6812	5.e-002	0.4729
1431	23.668	4.6739	0.	9.6011
1432	7.	0.56534	0.	710.18
1433	6.7021	0.81751	0.	727.38
1434	6.6792	0.54262	5.e-002	14.003
1435	6.642	0.27131	0.	655.52
1436	7.644	0.60425	0.	727.29
1437	7.3209	0.58807	5.e-002	3.2709
1438	7.2973	0.29404	0.	722.59
1439	8.2895	0.62754	0.	700.97
1440	7.9671	0.62044	5.e-002	2.7476
1441	7.955	0.31022	0.	717.9
1442	8.9464	0.63465	0.	655.81
1443	8.6119	0.63465	5.e-002	5.018
1444	8.6119	0.31732	0.	681.35
1445	9.6155	0.63465	0.	604.61
1446	9.281	0.63465	5.e-002	5.514
1447	9.281	0.31732	0.	632.67
1448	10.285	0.63465	0.	552.6
1449	9.95	0.63465	5.e-002	5.7795
1450	9.95	0.31732	0.	580.54
1451	10.954	0.63465	0.	501.71
1452	10.619	0.63465	5.e-002	5.5894
1453	10.619	0.31732	0.	528.51
1454	11.623	0.63465	0.	452.84
1455	11.288	0.63465	5.e-002	5.2825
1456	11.288	0.31732	0.	478.12
1457	12.292	0.63465	0.	406.35
1458	11.957	0.63465	5.e-002	4.9854
1459	11.957	0.31732	0.	430.
1460	12.961	0.63465	0.	362.37
1461	12.626	0.63465	5.e-002	4.6904
1462	12.626	0.31732	0.	384.39
1463	13.63	0.63465	0.	320.91
1464	13.295	0.63465	5.e-002	4.4077
1465	13.295	0.31732	0.	341.38
1466	14.299	0.63465	0.	281.96
1467	13.964	0.63465	5.e-002	4.127
1468	13.964	0.31732	0.	300.95
1469	14.968	0.63465	0.	245.56
1470	14.633	0.63465	5.e-002	3.848
1471	14.633	0.31732	0.	263.1
1472	15.637	0.63465	0.	211.71
1473	15.302	0.63465	5.e-002	3.5718
1474	15.302	0.31732	0.	227.85
1475	16.306	0.63465	0.	180.43
1476	15.971	0.63465	5.e-002	3.2983
1477	15.971	0.31732	0.	195.2
1478	16.975	0.63465	0.	151.73
1479	16.64	0.63465	5.e-002	3.0267
1480	16.64	0.31732	0.	165.14
1481	17.644	0.63465	0.	125.62
1482	17.31	0.63465	5.e-002	2.7568
1483	17.31	0.31732	0.	137.67
1484	18.313	0.63465	0.	102.09
1485	17.979	0.63465	5.e-002	2.4849
1486	17.979	0.31732	0.	112.81
1487	18.982	0.63465	0.	81.107
1488	18.648	0.63465	5.e-002	2.225
1489	18.648	0.31732	0.	90.542
1490	19.654	0.63756	0.	62.641
1491	19.317	0.63465	5.e-002	1.9672
1492	19.317	0.31732	0.	70.83
1493	20.332	0.64555	0.	46.736
1494	19.992	0.64046	5.e-002	1.6827
1495	19.989	0.32023	0.	53.656
1496	21.005	0.65495	0.	33.486
1497	20.671	0.65063	5.e-002	1.3993
1498	20.663	0.32531	0.	39.106
1499	21.674	0.66208	0.	22.863
1500	21.339	0.65928	5.e-002	1.1392
1501	21.331	0.32964	0.	27.182
1502	22.344	0.66366	0.	14.755
1503	22.01	0.66488	5.e-002	0.90244
1504	22.001	0.33244	0.	17.767
1505	22.688	0.99451	0.	12.286
1506	22.677	0.66244	5.e-002	0.67591
1507	22.67	0.33122	0.	10.716
1508	4.4817	0.51239	0.	641.66
1509	4.1223	0.40091	0.	784.76
1510	4.4499	0.35127	5.e-002	61.386
1511	4.4562	0.17563	0.	568.45
1512	4.7749	0.3423	0.	449.23
1513	4.5736	0.82557	0.	772.02
1514	4.2248	0.73524	0.	844.44
1515	4.5135	0.67352	5.e-002	60.748
1516	4.8067	0.67009	0.	571.98
1517	4.6417	1.1576	0.	1050.4
1518	4.3656	1.0338	0.	902.17
1519	4.6337	0.97763	5.e-002	61.195
1520	4.8668	0.98881	0.	798.08
1521	4.6639	1.4981	0.	1426.7
1522	4.4473	1.3531	0.	1147.1
1523	4.6497	1.3376	5.e-002	78.642
1524	4.8748	1.3355	0.	1183.8
1525	4.6827	1.796	0.	1735.3
1526	4.6781	1.6585	5.e-002	88.301
1527	4.889	1.6626	0.	1813.6
1528	4.6873	1.9336	5.e-002	130.1
1529	4.8937	1.9668	0.	3370.1
1530	0.95238	0.65789	0.	1391.
1531	0.63461	0.99402	0.	1468.6
1532	0.63495	0.66277	5.e-002	35.463
1533	0.63623	0.33138	0.	1401.3
1534	0.31748	0.66472	0.	1131.7
1535	1.589	0.6479	0.	1384.5
1536	1.2698	0.653	5.e-002	23.868
1537	1.2724	0.3265	0.	1451.5
1538	2.2291	0.63872	0.	1337.
1539	1.9081	0.64279	5.e-002	15.407
1540	1.9103	0.32139	0.	1408.9
1541	2.859	0.60743	0.	1238.6
1542	2.5595	0.95064	0.	1283.8
1543	2.55	0.63465	5.e-002	15.507
1544	2.55	0.31732	0.	1306.5
1545	3.4814	0.51539	0.	1075.8
1546	3.1681	0.58022	5.e-002	20.961
1547	3.1778	0.29011	0.	1169.8
1548	3.8654	0.62377	0.	1003.4
1549	3.7947	0.45056	5.e-002	35.972
1550	3.8098	0.22528	0.	944.62
1551	0.63465	5.	0.	1468.6
1552	0.95324	5.3344	0.	1389.9
1553	0.63465	5.3333	5.e-002	35.194
1554	0.63607	5.6667	0.	1400.4
1555	0.31732	5.3333	0.	1132.1
1556	0.63758	4.3309	0.	1582.2
1557	0.95197	4.6667	0.	1442.9
1558	0.63465	4.6667	5.e-002	15.266
1559	0.31732	4.6667	0.	1256.6
1560	0.64132	3.6601	0.	1631.9
1561	0.64051	3.9951	5.e-002	11.278
1562	0.32025	3.9976	0.	1316.6
1563	0.64139	2.9924	0.	1647.4
1564	0.64213	3.3251	5.e-002	9.9067
1565	0.32107	3.3292	0.	1341.
1566	0.63922	2.3259	0.	1631.4
1567	0.64064	2.6596	5.e-002	9.8713
1568	0.32032	2.6631	0.	1340.8
1569	0.63603	1.6588	0.	1581.3
1570	0.6378	1.9923	5.e-002	11.79
1571	0.3189	1.9961	0.	1315.4
1572	0.63427	1.3253	5.e-002	15.911
1573	0.31713	1.3293	0.	1255.4
1574	4.0695	5.4584	0.	839.83
1575	4.5536	5.3759	0.	680.23
1576	4.3927	5.4916	5.e-002	50.332
1577	4.4276	5.7458	0.	623.15
1578	4.7463	5.5791	0.	523.44
1579	3.4436	5.4009	0.	1092.8
1580	3.7144	5.1199	0.	1065.8
1581	3.7464	5.4252	5.e-002	29.602
1582	3.7857	5.7126	0.	957.83
1583	2.8454	5.371	0.	1239.5
1584	3.1407	5.3767	5.e-002	23.264
1585	3.1641	5.6884	0.	1171.9
1586	2.2272	5.3541	0.	1337.2
1587	2.55	5.3654	5.e-002	15.987
1588	2.55	5.6827	0.	1310.9
1589	1.5881	5.3391	0.	1383.2
1590	1.9044	5.3428	5.e-002	14.864
1591	1.9085	5.6714	0.	1408.6
1592	1.2706	5.0011	0.	1365.6
1593	1.2718	5.3355	5.e-002	24.432
1594	1.2734	5.6677	0.	1450.4
1595	4.6823	5.1218	0.	819.51
1596	4.7146	5.2602	5.e-002	43.046
1597	4.9073	5.2968	0.	538.31
1598	4.6662	4.823	0.	1054.8
1599	4.65	4.9834	5.e-002	81.942
1600	4.875	4.9917	0.	830.41
1601	4.6903	4.4953	0.	1421.
1602	4.4662	4.6198	0.	1196.3
1603	4.6824	4.6626	5.e-002	89.664
1604	4.8912	4.6647	0.	1141.6
1605	4.6762	4.1145	0.	1742.3
1606	4.5555	4.3244	0.	1482.
1607	4.6981	4.328	5.e-002	64.741
1608	4.899	4.3307	0.	1897.1
1609	4.4294	3.9009	0.	1683.3
1610	4.6544	3.901	5.e-002	104.96
1611	4.8772	3.9505	0.	3300.4
1612	5.6818	0.86895	0.	624.88
1613	5.6518	0.72845	5.e-002	37.922
1614	5.4592	0.69756	0.	409.02
1615	5.7053	1.1879	0.	862.17
1616	5.7118	1.0094	5.e-002	48.845
1617	5.4892	1.0047	0.	648.33
1618	5.7019	1.5509	0.	1195.3
1619	5.8823	1.3915	0.	943.12
1620	5.6987	1.3664	5.e-002	70.254
1621	5.4827	1.3499	0.	976.92
1622	5.7278	1.9099	0.	1483.3
1623	5.705	1.7354	5.e-002	80.237
1624	5.4858	1.701	0.	1636.2
1625	5.7506	2.0844	5.e-002	75.047
1626	5.5086	2.0422	0.	3095.2
1627	6.5052	5.0284	0.	745.04
1628	6.2231	5.0238	5.e-002	19.447
1629	22.669	4.7021	5.e-002	0.65542
1630	22.699	1.3266	5.e-002	0.6516
1631	4.0169	0.94344	0.	1013.1
1632	3.9362	0.79697	5.e-002	43.645
1633	1.2693	4.6667	5.e-002	26.614
1634	5.1642	3.3382	0.	2482.8
1635	5.207	3.4315	5.e-002	46.859
1636	5.1852	2.4468	0.	2649.
1637	4.9207	2.4598	0.	2487.4
1638	5.0756	2.5695	0.	2534.7
1639	5.0428	2.4503	5.e-002	18.667
1640	5.485	2.537	0.	2366.4
1641	5.3131	2.5214	0.	2596.3
1642	5.3275	2.4433	5.e-002	44.665
1643	7.0948	4.9925	0.	759.3
1644	7.4022	4.952	5.e-002	3.5315
1645	6.7873	5.0329	5.e-002	8.5028
1646	6.2216	4.0951	0.	1100.7
1647	6.5233	4.2307	0.	954.21
1648	6.2494	4.2763	5.e-002	23.725
1649	6.4517	3.893	0.	1086.3
1650	6.1938	3.9139	5.e-002	42.111
1651	4.1713	1.2292	0.	1062.9
1652	3.9214	1.2472	0.	1094.7
1653	4.0976	1.0899	5.e-002	36.363
1654	6.7099	1.3793	0.	830.65
1655	6.7249	1.0924	5.e-002	8.5735
1656	3.9951	1.3865	0.	1164.6
1657	4.245	1.3685	5.e-002	36.954
1658	2.5746	1.604	0.	1266.5
1659	2.569	1.2666	5.e-002	13.496
1660	3.7452	1.4044	5.e-002	40.411
1661	3.6824	4.8147	5.e-002	23.294
1662	6.3803	1.5414	0.	903.57
1663	6.0658	1.4166	5.e-002	20.807
1664	4.3087	4.1108	0.	1405.5
1665	4.14	3.6554	0.	1513.9
1666	4.2045	3.9008	5.e-002	61.933
1667	4.3315	4.4488	0.	1307.5
1668	4.4129	4.3208	5.e-002	75.833
1669	5.824	3.0691	0.	1782.5
1670	6.0262	3.2323	0.	1552.
1671	5.8477	3.258	5.e-002	38.848
1672	4.7192	2.9206	0.	2067.1
1673	4.3822	3.0065	0.	1773.
1674	4.8792	3.0368	0.	2201.
1675	4.6803	3.0804	5.e-002	45.108
1676	5.5627	2.676	0.	2135.3
1677	5.7215	2.7556	0.	1938.4
1678	5.6426	2.6308	5.e-002	37.456
1679	4.7784	2.6151	0.	2216.3
1680	4.7041	2.4658	0.	2159.2
1681	4.7987	2.4693	5.e-002	31.171
1682	22.009	3.7204	0.	21.735
1683	21.668	4.0712	0.	25.61
1684	22.005	4.0582	5.e-002	0.87387
1685	21.7	2.0035	0.	25.329
1686	22.026	2.3558	0.	21.645
1687	22.038	2.0092	5.e-002	0.88451
1688	1.9234	2.2701	0.	1308.3
1689	2.2486	1.9365	0.	1287.3
1690	1.9169	1.9318	5.e-002	14.118
1691	2.2027	3.9974	0.	1285.4
1692	1.8986	3.9851	5.e-002	13.999
1693	6.6976	1.9421	0.	955.12
1694	6.6949	1.6661	5.e-002	20.999
1695	4.0798	3.1714	0.	1506.4
1696	3.847	3.4334	0.	1434.5
1697	4.0755	3.4101	5.e-002	34.331
1698	5.2036	2.6441	0.	2462.4
1699	4.9332	2.7248	0.	2262.
1700	5.0932	2.8409	0.	2393.4
1701	5.1084	2.6887	5.e-002	22.252
1702	5.3908	2.6604	0.	2368.6
1703	5.2988	2.5995	5.e-002	46.822
1704	20.316	4.0781	0.	48.557
1705	20.992	4.0856	0.	35.683
1706	20.653	3.7476	0.	41.674
1707	20.652	4.0869	5.e-002	1.4839
1708	19.648	4.0738	0.	64.045
1709	19.981	3.7152	0.	55.774
1710	19.98	4.0693	5.e-002	1.7128
1711	18.982	4.0872	0.	82.077
1712	19.316	3.7338	0.	72.459
1713	19.316	4.0783	5.e-002	2.0268
1714	18.313	4.0961	0.	102.77
1715	18.648	3.7427	0.	91.799
1716	18.648	4.0961	5.e-002	2.3734
1717	17.644	4.0961	0.	126.12
1718	17.979	3.7427	0.	113.81
1719	17.979	4.0961	5.e-002	2.6195
1720	16.975	4.0961	0.	152.03
1721	17.31	3.7427	0.	138.4
1722	17.31	4.0961	5.e-002	2.9086
1723	16.306	4.0961	0.	180.49
1724	16.64	3.7427	0.	165.56
1725	16.64	4.0961	5.e-002	3.1977
1726	15.637	4.0961	0.	211.47
1727	15.971	3.7427	0.	195.26
1728	15.971	4.0961	5.e-002	3.4867
1729	14.968	4.0961	0.	244.94
1730	15.302	3.7427	0.	227.45
1731	15.302	4.0961	5.e-002	3.7735
1732	14.299	4.0961	0.	280.86
1733	14.633	3.7427	0.	262.11
1734	14.633	4.0961	5.e-002	4.062
1735	13.63	4.0961	0.	319.17
1736	13.964	3.7427	0.	299.15
1737	13.964	4.0961	5.e-002	4.3384
1738	12.961	4.0961	0.	359.81
1739	13.295	3.7427	0.	338.57
1740	13.295	4.0961	5.e-002	4.6875
1741	12.292	4.0961	0.	402.62
1742	12.626	3.7427	0.	380.16
1743	12.626	4.0961	5.e-002	5.0304
1744	11.623	4.0961	0.	447.61
1745	11.958	3.7264	0.	423.79
1746	11.957	4.0961	5.e-002	5.1498
1747	10.954	4.0961	0.	494.78
1748	11.291	3.72	0.	469.5
1749	11.288	4.0961	5.e-002	5.3822
1750	10.285	4.0961	0.	544.19
1751	10.621	3.7302	0.	517.44
1752	10.619	4.0961	5.e-002	5.9823
1753	9.622	4.0965	0.	594.67
1754	9.9507	3.7347	0.	567.45
1755	9.95	4.0961	5.e-002	6.2885
1756	9.2874	3.7488	0.	619.8
1757	9.2939	4.097	5.e-002	5.9206
1758	6.7534	4.0286	0.	945.21
1759	7.1132	4.1027	0.	854.52
1760	6.7973	4.185	5.e-002	9.2787
1761	7.0319	3.7865	0.	906.03
1762	6.7652	3.7204	0.	985.98
1763	6.7096	3.8722	5.e-002	14.926
1764	8.2664	1.927	0.	709.62
1765	7.885	2.1975	0.	760.15
1766	7.9432	1.8925	5.e-002	8.8409
1767	8.9209	1.9775	0.	652.04
1768	8.5896	1.9616	5.e-002	6.224
1769	9.5957	1.9798	0.	597.59
1770	9.2475	2.345	0.	624.22
1771	9.2523	1.9934	5.e-002	7.5115
1772	10.275	1.9593	0.	544.42
1773	9.9377	2.3196	0.	568.1
1774	9.9392	1.9662	5.e-002	6.4392
1775	10.945	1.9419	0.	495.
1776	10.614	2.2996	0.	517.6
1777	10.611	1.9525	5.e-002	5.7373
1778	11.615	1.9211	0.	447.89
1779	11.284	2.262	0.	469.83
1780	11.279	1.9314	5.e-002	5.4793
1781	12.289	1.9074	0.	402.73
1782	11.954	2.2247	0.	424.03
1783	11.951	1.9108	5.e-002	5.3736
1784	12.961	1.9039	0.	359.76
1785	12.626	2.2213	0.	380.2
1786	12.626	1.9039	5.e-002	4.9685
1787	13.63	1.9039	0.	319.14
1788	13.295	2.2213	0.	338.54
1789	13.295	1.9039	5.e-002	4.6481
1790	14.299	1.9039	0.	280.84
1791	13.964	2.2213	0.	299.18
1792	13.964	1.9039	5.e-002	4.3537
1793	14.968	1.9039	0.	244.93
1794	14.633	2.2213	0.	262.12
1795	14.633	1.9039	5.e-002	4.06
1796	15.637	1.9039	0.	211.46
1797	15.302	2.2213	0.	227.47
1798	15.302	1.9039	5.e-002	3.7758
1799	16.306	1.9039	0.	180.48
1800	15.971	2.2213	0.	195.28
1801	15.971	1.9039	5.e-002	3.4881
1802	16.975	1.9039	0.	152.02
1803	16.64	2.2213	0.	165.58
1804	16.64	1.9039	5.e-002	3.1992
1805	17.644	1.9039	0.	126.12
1806	17.31	2.2213	0.	138.42
1807	17.31	1.9039	5.e-002	2.9072
1808	18.313	1.9039	0.	102.77
1809	17.979	2.2213	0.	113.83
1810	17.979	1.9039	5.e-002	2.6254
1811	18.985	1.9078	0.	81.953
1812	18.648	2.2213	0.	91.819
1813	18.648	1.9039	5.e-002	2.3775
1814	19.666	1.9218	0.	63.626
1815	19.32	2.2252	0.	72.321
1816	19.323	1.9118	5.e-002	2.0828
1817	20.352	1.9488	0.	47.901
1818	19.999	2.2645	0.	55.415
1819	20.008	1.9318	5.e-002	1.7539
1820	21.029	1.9817	0.	35.153
1821	20.684	2.3264	0.	41.165
1822	20.695	1.9658	5.e-002	1.3544
1823	6.6613	2.4616	0.	1058.6
1824	6.7004	2.2181	5.e-002	20.213
1825	4.6077	2.7078	0.	2023.7
1826	4.758	2.7609	5.e-002	64.335
1827	5.2805	2.8572	0.	2295.3
1828	5.4829	2.7213	5.e-002	36.819
1829	5.8004	2.8803	5.e-002	36.047
1830	22.014	3.0424	0.	22.188
1831	21.673	3.3861	0.	26.392
1832	22.013	3.3825	5.e-002	0.89172
1833	21.332	3.7369	0.	30.235
1834	21.332	4.0842	5.e-002	1.1677
1835	21.352	2.3456	0.	29.986
1836	21.362	1.9977	5.e-002	1.1368
1837	21.679	2.6979	0.	26.339
1838	22.015	2.7023	5.e-002	0.91146
1839	4.54	2.3564	0.	1860.5
1840	4.4208	2.3384	0.	1706.4
1841	4.4705	2.2505	5.e-002	75.458
1842	2.2546	2.6113	0.	1283.8
1843	1.9298	2.6085	5.e-002	15.383
1844	2.5799	2.2777	0.	1262.1
1845	2.5803	1.9413	5.e-002	12.376
1846	2.8038	4.0366	0.	1258.6
1847	2.5067	4.0096	5.e-002	6.5916
1848	3.9867	2.6188	0.	1431.1
1849	4.2707	2.7936	0.	1729.2
1850	3.7089	2.7977	0.	1402.9
1851	4.0841	2.9326	5.e-002	15.653
1852	3.4761	3.0597	0.	1323.6
1853	3.6186	3.4566	5.e-002	7.5607
1854	3.101	4.0636	5.e-002	10.999
1855	3.6115	2.4839	0.	1307.4
1856	4.1303	2.3656	0.	1517.3
1857	3.8894	2.3049	5.e-002	19.438
1858	6.8709	2.7471	0.	1011.3
1859	6.6221	2.7051	5.e-002	30.15
1860	20.318	3.3847	0.	49.041
1861	20.664	3.0476	0.	41.804
1862	20.993	3.399	0.	36.333
1863	20.655	3.4083	5.e-002	1.5493
1864	19.649	3.3752	0.	64.386
1865	19.985	2.9792	0.	55.865
1866	19.981	3.3611	5.e-002	1.8018
1867	18.982	3.3894	0.	82.402
1868	19.316	2.964	0.	72.552
1869	19.316	3.3894	5.e-002	1.9443
1870	18.313	3.3894	0.	103.06
1871	18.648	2.964	0.	91.923
1872	18.648	3.3894	5.e-002	2.2576
1873	17.644	3.3894	0.	126.31
1874	17.979	2.964	0.	113.87
1875	17.979	3.3894	5.e-002	2.6147
1876	16.975	3.3894	0.	152.16
1877	17.31	2.964	0.	138.44
1878	17.31	3.3894	5.e-002	2.9082
1879	16.306	3.3894	0.	180.56
1880	16.64	2.964	0.	165.57
1881	16.64	3.3894	5.e-002	3.1936
1882	15.637	3.3894	0.	211.46
1883	15.971	2.964	0.	195.23
1884	15.971	3.3894	5.e-002	3.4805
1885	14.968	3.3894	0.	244.83
1886	15.302	2.964	0.	227.38
1887	15.302	3.3894	5.e-002	3.7663
1888	14.299	3.3894	0.	280.6
1889	14.633	2.964	0.	261.98
1890	14.633	3.3894	5.e-002	4.0513
1891	13.63	3.3894	0.	318.73
1892	13.964	2.964	0.	298.96
1893	13.964	3.3894	5.e-002	4.3319
1894	12.961	3.3894	0.	359.09
1895	13.295	2.964	0.	338.23
1896	13.295	3.3894	5.e-002	4.6252
1897	12.292	3.373	0.	401.49
1898	12.626	2.964	0.	379.73
1899	12.626	3.3894	5.e-002	4.8575
1900	11.626	3.3503	0.	445.81
1901	11.958	2.9476	0.	423.17
1902	11.959	3.3567	5.e-002	5.0693
1903	10.959	3.3542	0.	492.27
1904	11.291	2.9683	0.	468.56
1905	11.294	3.344	5.e-002	5.4025
1906	10.287	3.3689	0.	540.77
1907	10.62	3.0055	0.	516.12
1908	10.623	3.3644	5.e-002	6.0132
1909	9.6161	3.387	0.	592.66
1910	9.9438	3.0232	0.	565.94
1911	9.9514	3.3734	5.e-002	5.6885
1912	8.9704	3.4475	0.	646.54
1913	9.2618	3.0486	0.	621.52
1914	9.2808	3.4006	5.e-002	7.5757
1915	8.3585	3.6182	0.	702.23
1916	8.6601	3.4943	5.e-002	7.7826
1917	7.6448	3.5001	0.	800.73
1918	7.2687	3.6104	0.	870.01
1919	7.3917	3.8606	0.	818.93
1920	7.3542	3.7008	5.e-002	16.123
1921	7.7011	2.7467	0.	787.49
1922	7.8268	2.5026	5.e-002	11.513
1923	9.5895	2.6848	0.	594.75
1924	9.2428	2.6965	5.e-002	7.2896
1925	10.277	2.6598	0.	541.31
1926	9.9362	2.673	5.e-002	5.9653
1927	10.953	2.6196	0.	492.49
1928	10.617	2.6466	5.e-002	5.7883
1929	11.623	2.5656	0.	446.06
1930	11.288	2.5926	5.e-002	5.4859
1931	12.292	2.5386	0.	401.61
1932	11.957	2.5386	5.e-002	5.2195
1933	12.961	2.5386	0.	359.11
1934	12.626	2.5386	5.e-002	4.8047
1935	13.63	2.5386	0.	318.73
1936	13.295	2.5386	5.e-002	4.5546
1937	14.299	2.5386	0.	280.62
1938	13.964	2.5386	5.e-002	4.3419
1939	14.968	2.5386	0.	244.83
1940	14.633	2.5386	5.e-002	4.0528
1941	15.637	2.5386	0.	211.46
1942	15.302	2.5386	5.e-002	3.768
1943	16.306	2.5386	0.	180.56
1944	15.971	2.5386	5.e-002	3.4811
1945	16.975	2.5386	0.	152.16
1946	16.64	2.5386	5.e-002	3.1942
1947	17.644	2.5386	0.	126.32
1948	17.31	2.5386	5.e-002	2.9078
1949	18.313	2.5386	0.	103.06
1950	17.979	2.5386	5.e-002	2.6226
1951	18.982	2.5386	0.	82.364
1952	18.648	2.5386	5.e-002	2.2574
1953	19.653	2.5679	0.	64.277
1954	19.317	2.5386	5.e-002	1.9768
1955	20.332	2.6421	0.	48.823
1956	19.989	2.5973	5.e-002	1.7723
1957	21.008	2.6902	0.	36.11
1958	20.674	2.687	5.e-002	1.4502
1959	4.5334	2.5585	0.	1965.5
1960	4.6095	2.4623	5.e-002	45.151
1961	4.4142	2.5404	0.	1816.
1962	4.4573	2.6546	5.e-002	49.034
1963	7.002	3.5444	0.	949.44
1964	6.8209	3.5687	5.e-002	35.104
1965	2.9565	2.6385	0.	1272.5
1966	2.5794	2.6141	5.e-002	13.015
1967	3.3336	2.6629	5.e-002	3.3234
1968	21.338	3.0416	0.	30.538
1969	21.332	3.3897	5.e-002	1.1921
1970	21.343	2.6934	5.e-002	1.1771
1971	7.7554	3.1451	0.	785.2
1972	7.9962	3.5208	0.	753.23
1973	7.9355	3.2995	5.e-002	9.4063
1974	7.3475	2.89	0.	858.8
1975	7.0399	2.9814	0.	944.02
1976	7.1197	2.7892	5.e-002	28.248
1977	7.3792	3.2554	0.	854.6
1978	7.5753	2.9908	5.e-002	7.7136
1979	7.0716	3.3468	0.	939.61
1980	7.1831	3.52	5.e-002	19.475
1981	6.96	3.1736	5.e-002	20.157
1982	5.0997	3.1191	0.	2451.7
1983	5.0781	2.9932	5.e-002	35.846
1984	4.3712	2.4262	5.e-002	63.455
1985	7.743	3.8812	0.	771.47
1986	7.4292	4.0204	5.e-002	4.6171
1987	4.25	4.5769	5.e-002	47.645
1988	5.1214	3.2449	5.e-002	62.685
1989	8.0569	3.7421	5.e-002	9.2086
1990	6.2046	3.2066	5.e-002	37.241
1991	6.0262	3.2323	0.1	1552.
1992	6.4037	3.1809	0.1	1251.7
1993	6.1719	2.9445	0.1	1360.
1994	6.2217	3.3951	0.1	1311.3
1995	7.743	3.8812	0.1	771.47
1996	7.9962	3.5208	0.1	753.23
1997	8.3585	3.6182	0.1	702.23
1998	8.0521	4.0125	0.1	731.15
1999	5.0997	3.1191	0.1	2451.7
2000	5.1642	3.3382	0.1	2482.8
2001	5.3072	3.1596	0.1	2337.7
2002	4.907	3.3658	0.1	2271.1
2003	4.3315	4.4488	0.1	1307.5
2004	4.4662	4.6198	0.1	1196.3
2005	3.9729	4.358	0.1	1241.
2006	4.2101	4.7552	0.1	1161.
2007	7.3917	3.8606	0.1	818.93
2008	7.1132	4.1027	0.1	854.52
2009	7.4345	4.24	0.1	799.34
2010	4.4142	2.5404	0.1	1816.
2011	4.1303	2.3656	0.1	1517.3
2012	4.4208	2.3384	0.1	1706.4
2013	5.2805	2.8572	0.1	2295.3
2014	5.0932	2.8409	0.1	2393.4
2015	4.8792	3.0368	0.1	2201.
2016	7.0716	3.3468	0.1	939.61
2017	7.0399	2.9814	0.1	944.02
2018	6.7814	3.1644	0.1	1052.4
2019	7.3792	3.2554	0.1	854.6
2020	7.002	3.5444	0.1	949.44
2021	7.2687	3.6104	0.1	870.01
2022	7.3475	2.89	0.1	858.8
2023	7.7554	3.1451	0.1	785.2
2024	7.7011	2.7467	0.1	787.49
2025	6.8709	2.7471	0.1	1011.3
2026	7.1682	2.5608	0.1	891.81
2027	7.6448	3.5001	0.1	800.73
2028	8.2141	3.0296	0.1	724.78
2029	21.338	3.0416	0.1	30.538
2030	21.008	2.6902	0.1	36.11
2031	21.679	2.6979	0.1	26.339
2032	21.352	2.3456	0.1	29.986
2033	20.993	3.399	0.1	36.333
2034	21.332	3.7369	0.1	30.235
2035	21.673	3.3861	0.1	26.392
2036	2.9565	2.6385	0.1	1272.5
2037	3.6115	2.4839	0.1	1307.4
2038	3.4761	3.0597	0.1	1323.6
2039	3.7089	2.7977	0.1	1402.9
2040	3.2005	3.0232	0.1	1269.3
2041	3.2392	2.2963	0.1	1261.9
2042	2.5799	2.2777	0.1	1262.1
2043	2.2546	2.6113	0.1	1283.8
2044	2.5589	2.9555	0.1	1262.9
2045	6.7652	3.7204	0.1	985.98
2046	6.7118	3.362	0.1	1062.2
2047	6.5299	3.5761	0.1	1120.6
2048	4.5334	2.5585	0.1	1965.5
2049	4.2707	2.7936	0.1	1729.2
2050	4.6077	2.7078	0.1	2023.7
2051	4.54	2.3564	0.1	1860.5
2052	4.7041	2.4658	0.1	2159.2
2053	20.332	2.6421	0.1	48.823
2054	20.664	3.0476	0.1	41.804
2055	20.684	2.3264	0.1	41.165
2056	19.653	2.5679	0.1	64.277
2057	19.985	2.9792	0.1	55.865
2058	19.999	2.2645	0.1	55.415
2059	18.982	2.5386	0.1	82.364
2060	19.316	2.964	0.1	72.552
2061	19.32	2.2252	0.1	72.321
2062	18.313	2.5386	0.1	103.06
2063	18.648	2.964	0.1	91.923
2064	18.648	2.2213	0.1	91.819
2065	17.644	2.5386	0.1	126.32
2066	17.979	2.964	0.1	113.87
2067	17.979	2.2213	0.1	113.83
2068	16.975	2.5386	0.1	152.16
2069	17.31	2.964	0.1	138.44
2070	17.31	2.2213	0.1	138.42
2071	16.306	2.5386	0.1	180.56
2072	16.64	2.964	0.1	165.57
2073	16.64	2.2213	0.1	165.58
2074	15.637	2.5386	0.1	211.46
2075	15.971	2.964	0.1	195.23
2076	15.971	2.2213	0.1	195.28
2077	14.968	2.5386	0.1	244.83
2078	15.302	2.964	0.1	227.38
2079	15.302	2.2213	0.1	227.47
2080	14.299	2.5386	0.1	280.62
2081	14.633	2.964	0.1	261.98
2082	14.633	2.2213	0.1	262.12
2083	13.63	2.5386	0.1	318.73
2084	13.964	2.964	0.1	298.96
2085	13.964	2.2213	0.1	299.18
2086	12.961	2.5386	0.1	359.11
2087	13.295	2.964	0.1	338.23
2088	13.295	2.2213	0.1	338.54
2089	12.292	2.5386	0.1	401.61
2090	12.626	2.964	0.1	379.73
2091	12.626	2.2213	0.1	380.2
2092	11.623	2.5656	0.1	446.06
2093	11.958	2.9476	0.1	423.18
2094	11.954	2.2247	0.1	424.03
2095	10.953	2.6196	0.1	492.49
2096	11.291	2.9683	0.1	468.56
2097	11.284	2.262	0.1	469.83
2098	10.277	2.6598	0.1	541.31
2099	10.62	3.0055	0.1	516.12
2100	10.614	2.2996	0.1	517.6
2101	9.5895	2.6848	0.1	594.75
2102	9.9438	3.0232	0.1	565.94
2103	9.9377	2.3196	0.1	568.1
2104	9.2618	3.0486	0.1	621.52
2105	9.2475	2.345	0.1	624.22
2106	8.8678	2.7281	0.1	648.69
2107	7.885	2.1975	0.1	760.15
2108	8.1598	2.6312	0.1	727.08
2109	7.5217	2.4175	0.1	820.69
2110	7.0319	3.7865	0.1	906.03
2111	8.9704	3.4475	0.1	646.54
2112	8.5764	3.127	0.1	673.7
2113	8.6685	3.8212	0.1	672.84
2114	9.6161	3.387	0.1	592.66
2115	9.2874	3.7488	0.1	619.8
2116	10.287	3.3689	0.1	540.77
2117	9.9507	3.7347	0.1	567.45
2118	10.959	3.3542	0.1	492.27
2119	10.621	3.7302	0.1	517.44
2120	11.626	3.3503	0.1	445.81
2121	11.291	3.72	0.1	469.5
2122	12.292	3.373	0.1	401.49
2123	11.958	3.7264	0.1	423.79
2124	12.961	3.3894	0.1	359.09
2125	12.626	3.7427	0.1	380.16
2126	13.63	3.3894	0.1	318.73
2127	13.295	3.7427	0.1	338.57
2128	14.299	3.3894	0.1	280.6
2129	13.964	3.7427	0.1	299.15
2130	14.968	3.3894	0.1	244.83
2131	14.633	3.7427	0.1	262.11
2132	15.637	3.3894	0.1	211.46
2133	15.302	3.7427	0.1	227.45
2134	16.306	3.3894	0.1	180.56
2135	15.971	3.7427	0.1	195.26
2136	16.975	3.3894	0.1	152.16
2137	16.64	3.7427	0.1	165.56
2138	17.644	3.3894	0.1	126.31
2139	17.31	3.7427	0.1	138.4
2140	18.313	3.3894	0.1	103.06
2141	17.979	3.7427	0.1	113.81
2142	18.982	3.3894	0.1	82.402
2143	18.648	3.7427	0.1	91.799
2144	19.649	3.3752	0.1	64.386
2145	19.316	3.7338	0.1	72.459
2146	20.318	3.3847	0.1	49.041
2147	19.981	3.7152	0.1	55.774
2148	20.653	3.7476	0.1	41.674
2149	6.6613	2.4616	0.1	1058.6
2150	6.6125	2.9302	0.1	1118.3
2151	6.3807	2.6937	0.1	1235.4
2152	3.9867	2.6188	0.1	1431.1
2153	3.7906	2.0843	0.1	1293.7
2154	4.0818	2.1621	0.1	1419.
2155	2.8038	4.0366	0.1	1258.6
2156	3.1105	4.3912	0.1	1237.6
2157	3.0842	3.7236	0.1	1257.1
2158	3.3984	4.1013	0.1	1233.8
2159	3.847	3.4334	0.1	1434.5
2160	3.343	3.42	0.1	1311.3
2161	3.6572	3.7978	0.1	1284.
2162	4.0798	3.1714	0.1	1506.4
2163	4.3822	3.0065	0.1	1773.
2164	2.2027	3.9974	0.1	1285.4
2165	2.509	4.3515	0.1	1264.6
2166	2.5225	3.6532	0.1	1260.9
2167	2.2486	1.9365	0.1	1287.3
2168	2.5746	1.604	0.1	1266.5
2169	2.8625	1.9355	0.1	1253.3
2170	1.9234	2.2701	0.1	1308.3
2171	1.926	2.9448	0.1	1307.1
2172	1.6054	2.6242	0.1	1341.1
2173	4.3724	2.1349	0.1	1613.8
2174	4.6112	2.2198	0.1	2009.7
2175	22.014	3.0424	0.1	22.188
2176	22.026	2.3558	0.1	21.645
2177	22.353	2.6957	0.1	19.411
2178	21.029	1.9817	0.1	35.153
2179	21.7	2.0035	0.1	25.329
2180	21.367	1.657	0.1	28.822
2181	20.992	4.0856	0.1	35.683
2182	21.668	4.0712	0.1	25.61
2183	21.328	4.4075	0.1	29.294
2184	22.009	3.7204	0.1	21.735
2185	22.343	3.373	0.1	19.427
2186	5.7215	2.7556	0.1	1938.4
2187	5.824	3.0691	0.1	1782.5
2188	5.6467	2.9773	0.1	1986.4
2189	5.9698	2.7813	0.1	1603.2
2190	5.3908	2.6604	0.1	2368.6
2191	5.5627	2.676	0.1	2135.3
2192	5.4879	2.8978	0.1	2181.4
2193	4.9332	2.7248	0.1	2262.
2194	4.7784	2.6151	0.1	2216.3
2195	4.7192	2.9206	0.1	2067.1
2196	6.6976	1.9421	0.1	955.12
2197	6.9585	2.2752	0.1	938.48
2198	6.445	2.2043	0.1	1105.6
2199	20.352	1.9488	0.1	47.901
2200	20.694	1.6318	0.1	40.216
2201	19.666	1.9218	0.1	63.626
2202	20.006	1.6057	0.1	54.629
2203	18.985	1.9078	0.1	81.953
2204	19.32	1.5905	0.1	71.834
2205	18.313	1.9039	0.1	102.77
2206	18.648	1.5866	0.1	91.412
2207	17.644	1.9039	0.1	126.12
2208	17.979	1.5866	0.1	113.52
2209	16.975	1.9039	0.1	152.02
2210	17.31	1.5866	0.1	138.19
2211	16.306	1.9039	0.1	180.48
2212	16.64	1.5866	0.1	165.43
2213	15.637	1.9039	0.1	211.46
2214	15.971	1.5866	0.1	195.22
2215	14.968	1.9039	0.1	244.93
2216	15.302	1.5866	0.1	227.53
2217	14.299	1.9039	0.1	280.84
2218	14.633	1.5866	0.1	262.33
2219	13.63	1.9039	0.1	319.14
2220	13.964	1.5866	0.1	299.58
2221	12.961	1.9039	0.1	359.76
2222	13.295	1.5866	0.1	339.23
2223	12.289	1.9074	0.1	402.73
2224	12.626	1.5866	0.1	381.21
2225	11.615	1.9211	0.1	447.89
2226	11.954	1.5901	0.1	425.55
2227	10.945	1.9419	0.1	495.
2228	11.284	1.6004	0.1	472.08
2229	10.275	1.9593	0.1	544.42
2230	10.615	1.6109	0.1	520.71
2231	9.5957	1.9798	0.1	597.59
2232	9.9411	1.6206	0.1	571.94
2233	8.9209	1.9775	0.1	652.04
2234	9.264	1.6395	0.1	625.94
2235	8.2664	1.927	0.1	709.62
2236	8.5412	2.3607	0.1	676.35
2237	8.6035	1.6228	0.1	678.66
2238	7.9546	1.5721	0.1	735.66
2239	7.6098	1.8341	0.1	778.6
2240	6.7534	4.0286	0.1	945.21
2241	6.4517	3.893	0.1	1086.3
2242	6.5233	4.2307	0.1	954.21
2243	6.8088	4.3758	0.1	865.59
2244	9.622	4.0965	0.1	594.67
2245	8.9854	4.1225	0.1	646.15
2246	9.2976	4.4199	0.1	622.13
2247	10.285	4.0961	0.1	544.19
2248	9.95	4.4134	0.1	571.35
2249	10.954	4.0961	0.1	494.78
2250	10.619	4.4134	0.1	520.62
2251	11.623	4.0961	0.1	447.61
2252	11.288	4.4134	0.1	471.95
2253	12.292	4.0961	0.1	402.62
2254	11.957	4.4134	0.1	425.51
2255	12.961	4.0961	0.1	359.81
2256	12.626	4.4134	0.1	381.28
2257	13.63	4.0961	0.1	319.17
2258	13.295	4.4134	0.1	339.26
2259	14.299	4.0961	0.1	280.86
2260	13.964	4.4134	0.1	299.6
2261	14.968	4.0961	0.1	244.94
2262	14.633	4.4134	0.1	262.35
2263	15.637	4.0961	0.1	211.47
2264	15.302	4.4134	0.1	227.54
2265	16.306	4.0961	0.1	180.49
2266	15.971	4.4134	0.1	195.22
2267	16.975	4.0961	0.1	152.03
2268	16.64	4.4134	0.1	165.43
2269	17.644	4.0961	0.1	126.12
2270	17.31	4.4134	0.1	138.19
2271	18.313	4.0961	0.1	102.77
2272	17.979	4.4134	0.1	113.51
2273	18.982	4.0872	0.1	82.077
2274	18.648	4.4134	0.1	91.412
2275	19.648	4.0738	0.1	64.045
2276	19.316	4.4045	0.1	71.992
2277	20.316	4.0781	0.1	48.557
2278	19.983	4.4	0.1	55.135
2279	20.653	4.4088	0.1	40.912
2280	5.2036	2.6441	0.1	2462.4
2281	5.3131	2.5214	0.1	2596.3
2282	5.0756	2.5695	0.1	2534.7
2283	4.14	3.6554	0.1	1513.9
2284	4.3841	3.4484	0.1	1772.2
2285	6.3803	1.5414	0.1	903.57
2286	6.7099	1.3793	0.1	830.65
2287	6.9857	1.721	0.1	854.33
2288	6.4148	1.7435	0.1	991.32
2289	1.9104	3.6331	0.1	1310.2
2290	1.588	3.9861	0.1	1335.7
2291	1.9028	4.3338	0.1	1318.3
2292	1.5966	1.9502	0.1	1335.6
2293	1.9136	1.6101	0.1	1318.4
2294	22.373	2.0094	0.1	18.287
2295	22.039	1.6651	0.1	20.236
2296	22.002	4.3908	0.1	20.505
2297	22.34	4.051	0.1	18.435
2298	4.9207	2.4598	0.1	2487.4
2299	4.7752	2.3292	0.1	2296.9
2300	5.485	2.537	0.1	2366.4
2301	5.6833	2.508	0.1	1982.4
2302	4.6865	3.2835	0.1	2032.7
2303	5.6711	3.3243	0.1	2012.
2304	5.7998	3.4538	0.1	1775.2
2305	4.3087	4.1108	0.1	1405.5
2306	4.5555	4.3244	0.1	1482.
2307	4.4294	3.9009	0.1	1683.3
2308	3.9502	4.0199	0.1	1366.8
2309	5.8823	1.3915	0.1	943.12
2310	6.1003	1.6188	0.1	1015.2
2311	6.1243	1.2221	0.1	847.31
2312	3.7144	5.1199	0.1	1065.8
2313	3.4012	4.7667	0.1	1169.5
2314	3.6891	4.4768	0.1	1168.9
2315	3.9263	4.8741	0.1	1073.9
2316	3.9951	1.3865	0.1	1164.6
2317	3.9214	1.2472	0.1	1094.7
2318	3.5128	1.2994	0.1	1185.4
2319	3.7186	1.6341	0.1	1226.
2320	2.5595	0.95064	0.1	1283.8
2321	2.2396	1.2775	0.1	1298.9
2322	2.9246	1.2306	0.1	1216.7
2323	4.1713	1.2292	0.1	1062.9
2324	4.4473	1.3531	0.1	1147.1
2325	4.2203	1.5481	0.1	1230.2
2326	6.7021	0.81751	0.1	727.38
2327	7.0218	1.1422	0.1	768.
2328	6.4539	1.06	0.1	757.44
2329	4.0169	0.94344	0.1	1013.1
2330	4.3656	1.0338	0.1	902.17
2331	6.2216	4.0951	0.1	1100.7
2332	5.9638	3.9495	0.1	1364.
2333	6.2164	3.7487	0.1	1224.6
2334	6.0028	4.2949	0.1	1144.5
2335	6.2475	4.4566	0.1	951.63
2336	7.0948	4.9925	0.1	759.3
2337	6.5052	5.0284	0.1	745.04
2338	6.7385	5.2693	0.1	722.14
2339	6.8039	4.7997	0.1	795.14
2340	7.3694	5.2105	0.1	747.71
2341	7.7117	4.9019	0.1	743.63
2342	7.421	4.7059	0.1	774.26
2343	5.1852	2.4468	0.1	2649.
2344	5.359	2.3529	0.1	2781.8
2345	5.0429	2.3321	0.1	3003.3
2346	5.1398	3.5467	0.1	2730.7
2347	5.3507	3.4111	0.1	2350.5
2348	1.2706	5.0011	0.1	1365.6
2349	0.95197	4.6667	0.1	1442.9
2350	1.2733	4.3269	0.1	1351.6
2351	1.5881	4.6746	0.1	1336.8
2352	3.8654	0.62377	0.1	1003.4
2353	4.2248	0.73524	0.1	844.44
2354	3.6082	0.99572	0.1	1095.7
2355	22.688	0.99451	0.1	12.286
2356	23.027	1.3252	0.1	11.848
2357	22.703	1.6681	0.1	14.512
2358	22.369	1.3237	0.1	16.487
2359	23.002	4.6916	0.1	11.888
2360	22.67	5.0284	0.1	12.341
2361	22.333	4.7127	0.1	16.675
2362	22.672	4.373	0.1	14.582
2363	5.9772	5.0088	0.1	688.02
2364	6.1137	5.2736	0.1	623.03
2365	6.2344	4.8304	0.1	814.6
2366	5.7278	1.9099	0.1	1483.3
2367	5.97	2.1374	0.1	1387.5
2368	5.7373	2.2348	0.1	1755.3
2369	5.5086	2.0422	0.1	3095.2
2370	5.7019	1.5509	0.1	1195.3
2371	5.9199	1.7781	0.1	1233.6
2372	5.4858	1.701	0.1	1636.2
2373	5.7053	1.1879	0.1	862.17
2374	5.4827	1.3499	0.1	976.92
2375	5.6818	0.86895	0.1	624.88
2376	5.9473	1.0185	0.1	699.51
2377	5.4892	1.0047	0.1	648.33
2378	5.8299	0.61022	0.1	505.17
2379	5.4592	0.69756	0.1	409.02
2380	4.6762	4.1145	0.1	1742.3
2381	4.6736	3.6938	0.1	1932.5
2382	4.8772	3.9505	0.1	3300.4
2383	4.6903	4.4953	0.1	1421.
2384	4.899	4.3307	0.1	1897.1
2385	4.6662	4.823	0.1	1054.8
2386	4.8912	4.6647	0.1	1141.6
2387	4.6823	5.1218	0.1	819.51
2388	4.4101	4.9584	0.1	935.52
2389	4.875	4.9917	0.1	830.41
2390	4.5536	5.3759	0.1	680.23
2391	4.9073	5.2968	0.1	538.31
2392	1.5881	5.3391	0.1	1383.2
2393	0.95324	5.3344	0.1	1389.9
2394	1.2734	5.6677	0.1	1450.4
2395	2.2272	5.3541	0.1	1337.2
2396	1.9057	5.0126	0.1	1350.
2397	1.9085	5.6714	0.1	1408.6
2398	2.8454	5.371	0.1	1239.5
2399	2.5306	5.0294	0.1	1284.3
2400	2.55	5.6827	0.1	1310.9
2401	3.4436	5.4009	0.1	1092.8
2402	3.1304	5.0477	0.1	1199.6
2403	3.1641	5.6884	0.1	1171.9
2404	4.0695	5.4584	0.1	839.83
2405	3.7857	5.7126	0.1	957.83
2406	4.2814	5.2125	0.1	860.97
2407	4.7463	5.5791	0.1	523.44
2408	4.4276	5.7458	0.1	623.15
2409	0.63603	1.6588	0.1	1581.3
2410	0.63461	0.99402	0.1	1468.6
2411	0.95124	1.3155	0.1	1443.1
2412	0.31713	1.3293	0.1	1255.4
2413	0.63922	2.3259	0.1	1631.4
2414	0.95699	1.9805	0.1	1484.4
2415	0.3189	1.9961	0.1	1315.4
2416	0.64139	2.9924	0.1	1647.4
2417	0.96078	2.6498	0.1	1510.1
2418	0.32032	2.6631	0.1	1340.8
2419	0.64132	3.6601	0.1	1631.9
2420	0.96414	3.3144	0.1	1509.5
2421	0.32107	3.3292	0.1	1341.
2422	0.63758	4.3309	0.1	1582.2
2423	0.9589	3.9911	0.1	1485.1
2424	0.32025	3.9976	0.1	1316.6
2425	0.63465	5.	0.1	1468.6
2426	0.31732	4.6667	0.1	1256.6
2427	0.31732	5.3333	0.1	1132.1
2428	0.63607	5.6667	0.1	1400.4
2429	3.4814	0.51539	0.1	1075.8
2430	4.1223	0.40091	0.1	784.76
2431	3.8098	0.22528	0.1	944.62
2432	2.859	0.60743	0.1	1238.6
2433	3.2242	0.88734	0.1	1171.6
2434	3.1778	0.29011	0.1	1169.8
2435	2.2291	0.63872	0.1	1337.
2436	2.55	0.31732	0.1	1306.5
2437	1.589	0.6479	0.1	1384.5
2438	1.9092	0.96558	0.1	1350.6
2439	1.9103	0.32139	0.1	1408.9
2440	0.95238	0.65789	0.1	1391.
2441	1.269	0.97933	0.1	1367.3
2442	1.2724	0.3265	0.1	1451.5
2443	0.31748	0.66472	0.1	1131.7
2444	0.63623	0.33138	0.1	1401.3
2445	4.6827	1.796	0.1	1735.3
2446	4.4808	1.9764	0.1	1655.4
2447	4.7196	2.0614	0.1	2064.2
2448	4.8937	1.9668	0.1	3370.1
2449	4.6639	1.4981	0.1	1426.7
2450	4.4369	1.693	0.1	1460.1
2451	4.889	1.6626	0.1	1813.6
2452	4.6417	1.1576	0.1	1050.4
2453	4.8748	1.3355	0.1	1183.8
2454	4.5736	0.82557	0.1	772.02
2455	4.8668	0.98881	0.1	798.08
2456	4.4817	0.51239	0.1	641.66
2457	4.8067	0.67009	0.1	571.98
2458	4.7749	0.3423	0.1	449.23
2459	4.4562	0.17563	0.1	568.45
2460	22.344	0.66366	0.1	14.755
2461	23.009	0.66236	0.1	9.1444
2462	22.67	0.33122	0.1	10.716
2463	21.674	0.66208	0.1	22.863
2464	22.025	0.99288	0.1	18.687
2465	22.001	0.33244	0.1	17.767
2466	21.005	0.65495	0.1	33.486
2467	21.355	0.98783	0.1	27.739
2468	21.331	0.32964	0.1	27.182
2469	20.332	0.64555	0.1	46.736
2470	20.682	0.97426	0.1	39.534
2471	20.663	0.32531	0.1	39.106
2472	19.654	0.63756	0.1	62.641
2473	19.998	0.96002	0.1	54.084
2474	19.989	0.32023	0.1	53.656
2475	18.982	0.63465	0.1	81.107
2476	19.317	0.95197	0.1	71.34
2477	19.317	0.31732	0.1	70.83
2478	18.313	0.63465	0.1	102.09
2479	18.648	0.95197	0.1	91.016
2480	18.648	0.31732	0.1	90.542
2481	17.644	0.63465	0.1	125.62
2482	17.979	0.95197	0.1	113.2
2483	17.979	0.31732	0.1	112.81
2484	16.975	0.63465	0.1	151.73
2485	17.31	0.95197	0.1	137.97
2486	17.31	0.31732	0.1	137.67
2487	16.306	0.63465	0.1	180.43
2488	16.64	0.95197	0.1	165.33
2489	16.64	0.31732	0.1	165.14
2490	15.637	0.63465	0.1	211.71
2491	15.971	0.95197	0.1	195.25
2492	15.971	0.31732	0.1	195.2
2493	14.968	0.63465	0.1	245.56
2494	15.302	0.95197	0.1	227.72
2495	15.302	0.31732	0.1	227.85
2496	14.299	0.63465	0.1	281.96
2497	14.633	0.95197	0.1	262.74
2498	14.633	0.31732	0.1	263.1
2499	13.63	0.63465	0.1	320.91
2500	13.964	0.95197	0.1	300.27
2501	13.964	0.31732	0.1	300.95
2502	12.961	0.63465	0.1	362.37
2503	13.295	0.95197	0.1	340.28
2504	13.295	0.31732	0.1	341.38
2505	12.292	0.63465	0.1	406.35
2506	12.626	0.95197	0.1	382.73
2507	12.626	0.31732	0.1	384.39
2508	11.623	0.63465	0.1	452.84
2509	11.957	0.95197	0.1	427.62
2510	11.957	0.31732	0.1	430.
2511	10.954	0.63465	0.1	501.71
2512	11.288	0.95197	0.1	474.93
2513	11.288	0.31732	0.1	478.12
2514	10.285	0.63465	0.1	552.6
2515	10.619	0.95197	0.1	524.53
2516	10.619	0.31732	0.1	528.51
2517	9.6155	0.63465	0.1	604.61
2518	9.9465	0.95483	0.1	576.25
2519	9.95	0.31732	0.1	580.54
2520	8.9464	0.63465	0.1	655.81
2521	9.2784	0.96011	0.1	628.61
2522	9.281	0.31732	0.1	632.67
2523	8.2895	0.62754	0.1	700.97
2524	8.6146	0.95936	0.1	679.71
2525	8.6119	0.31732	0.1	681.35
2526	7.644	0.60425	0.1	727.29
2527	7.9665	0.93607	0.1	725.92
2528	7.955	0.31022	0.1	717.9
2529	7.	0.56534	0.1	710.18
2530	7.3198	0.89001	0.1	753.2
2531	7.2973	0.29404	0.1	722.59
2532	6.3436	0.51731	0.1	588.95
2533	6.642	0.27131	0.1	655.52
2534	23.335	4.3487	0.1	11.398
2535	23.335	5.0114	0.1	8.5332
2536	23.668	4.6739	0.1	9.6011
2537	23.337	3.6817	0.1	13.153
2538	23.005	4.03	0.1	14.044
2539	23.667	4.0081	0.1	11.947
2540	23.344	3.0106	0.1	13.738
2541	23.007	3.3552	0.1	15.203
2542	23.67	3.3402	0.1	13.116
2543	23.353	2.339	0.1	13.152
2544	23.02	2.6816	0.1	15.17
2545	23.674	2.6704	0.1	13.124
2546	23.356	1.6639	0.1	11.381
2547	23.032	2.0068	0.1	14.011
2548	23.679	2.0019	0.1	11.944
2549	23.347	0.99307	0.1	8.5262
2550	23.677	1.3286	0.1	9.5981
2551	23.67	0.66447	0.1	6.0317
2552	23.335	0.33114	0.1	5.8995
2553	5.745	4.1493	0.1	1430.3
2554	5.7428	3.8174	0.1	1693.
2555	5.5002	3.9926	0.1	3030.6
2556	5.7585	4.4838	0.1	1125.7
2557	5.5115	4.3234	0.1	1533.7
2558	5.746	4.8241	0.1	828.48
2559	6.0032	4.6456	0.1	890.72
2560	5.5137	4.6605	0.1	975.53
2561	5.692	5.128	0.1	621.53
2562	5.499	4.9969	0.1	650.61
2563	5.8285	5.3927	0.1	502.72
2564	5.4596	5.2977	0.1	414.04
2565	6.347	5.5146	0.1	586.08
2566	5.6355	5.595	0.1	389.72
2567	5.97	5.7617	0.1	454.93
2568	7.0132	5.4873	0.1	708.73
2569	6.6472	5.7529	0.1	654.37
2570	7.6586	5.4498	0.1	727.16
2571	7.3052	5.7344	0.1	723.32
2572	8.3122	5.4143	0.1	700.01
2573	8.0009	5.1413	0.1	723.2
2574	7.9617	5.7154	0.1	718.06
2575	8.9673	5.3873	0.1	654.81
2576	8.6448	5.0898	0.1	678.43
2577	8.6278	5.6989	0.1	680.93
2578	9.6204	5.3711	0.1	604.2
2579	9.296	5.0598	0.1	627.28
2580	9.2859	5.6884	0.1	632.38
2581	10.285	5.3654	0.1	552.4
2582	9.95	5.048	0.1	575.67
2583	9.95	5.6827	0.1	580.34
2584	10.954	5.3654	0.1	501.65
2585	10.619	5.048	0.1	524.46
2586	10.619	5.6827	0.1	528.43
2587	11.623	5.3654	0.1	452.87
2588	11.288	5.048	0.1	474.94
2589	11.288	5.6827	0.1	478.08
2590	12.292	5.3654	0.1	406.42
2591	11.957	5.048	0.1	427.74
2592	11.957	5.6827	0.1	430.03
2593	12.961	5.3654	0.1	362.42
2594	12.626	5.048	0.1	382.81
2595	12.626	5.6827	0.1	384.45
2596	13.63	5.3654	0.1	320.94
2597	13.295	5.048	0.1	340.3
2598	13.295	5.6827	0.1	341.42
2599	14.299	5.3654	0.1	281.98
2600	13.964	5.048	0.1	300.3
2601	13.964	5.6827	0.1	300.97
2602	14.968	5.3654	0.1	245.57
2603	14.633	5.048	0.1	262.75
2604	14.633	5.6827	0.1	263.12
2605	15.637	5.3654	0.1	211.72
2606	15.302	5.048	0.1	227.73
2607	15.302	5.6827	0.1	227.86
2608	16.306	5.3654	0.1	180.43
2609	15.971	5.048	0.1	195.25
2610	15.971	5.6827	0.1	195.2
2611	16.975	5.3654	0.1	151.73
2612	16.64	5.048	0.1	165.32
2613	16.64	5.6827	0.1	165.13
2614	17.644	5.3654	0.1	125.61
2615	17.31	5.048	0.1	137.97
2616	17.31	5.6827	0.1	137.67
2617	18.313	5.3654	0.1	102.07
2618	17.979	5.048	0.1	113.19
2619	17.979	5.6827	0.1	112.81
2620	18.982	5.3654	0.1	81.121
2621	18.648	5.048	0.1	91.013
2622	18.648	5.6827	0.1	90.531
2623	19.651	5.3654	0.1	62.779
2624	19.317	5.048	0.1	71.399
2625	19.317	5.6827	0.1	70.856
2626	20.32	5.3654	0.1	47.005
2627	19.986	5.048	0.1	54.42
2628	19.986	5.6827	0.1	53.803
2629	20.989	5.3654	0.1	33.751
2630	20.655	5.048	0.1	40.012
2631	20.655	5.6827	0.1	39.264
2632	21.661	5.3624	0.1	23.035
2633	21.324	5.048	0.1	28.172
2634	21.324	5.6827	0.1	27.299
2635	22.335	5.357	0.1	14.813
2636	21.998	5.0414	0.1	18.902
2637	21.995	5.6797	0.1	17.797
2638	23.003	5.3481	0.1	9.14
2639	22.667	5.6773	0.1	10.692
2640	23.333	5.6708	0.1	5.8875
2641	23.668	5.3375	0.1	6.0296
2642	5.5573	2.3239	0.1	2409.5
2643	5.2168	2.2382	0.1	3016.3
2644	5.3286	2.1313	0.1	3698.7
2645	4.8827	3.5743	0.1	2535.8
2646	5.263	3.6767	0.1	2737.7
2647	5.0863	3.8309	0.1	3830.7
2648	8.6613	4.465	0.1	674.98
2649	8.3621	4.2155	0.1	701.8
2650	1.6042	3.2924	0.1	1342.7
2651	2.2303	3.289	0.1	1286.5
2652	8.3335	4.8169	0.1	701.8
2653	8.0342	4.5674	0.1	728.4
2654	8.9735	4.7623	0.1	651.09
2655	9.6256	4.7368	0.1	598.9
2656	10.285	4.7307	0.1	547.88
2657	10.954	4.7307	0.1	497.89
2658	11.623	4.7307	0.1	449.97
2659	12.292	4.7307	0.1	404.3
2660	12.961	4.7307	0.1	360.87
2661	13.63	4.7307	0.1	319.85
2662	14.299	4.7307	0.1	281.27
2663	14.968	4.7307	0.1	245.12
2664	15.637	4.7307	0.1	211.48
2665	16.306	4.7307	0.1	180.36
2666	16.975	4.7307	0.1	151.78
2667	17.644	4.7307	0.1	125.77
2668	18.313	4.7307	0.1	102.35
2669	18.982	4.7307	0.1	81.521
2670	19.651	4.7307	0.1	63.279
2671	20.32	4.7307	0.1	47.67
2672	20.989	4.7307	0.1	34.676
2673	21.661	4.727	0.1	24.294
2674	22.675	3.7036	0.1	16.179
2675	22.682	3.0263	0.1	16.73
2676	22.699	2.3494	0.1	16.112
2677	1.2786	2.3043	0.1	1367.5
2678	1.2722	1.6372	0.1	1352.3
2679	1.2835	2.9718	0.1	1375.9
2680	1.2817	3.6453	0.1	1367.1
2681	21.706	1.3186	0.1	23.836
2682	21.032	1.3071	0.1	34.047
2683	20.348	1.2887	0.1	47.13
2684	19.661	1.2744	0.1	63.022
2685	18.982	1.2693	0.1	81.48
2686	18.313	1.2693	0.1	102.35
2687	17.644	1.2693	0.1	125.78
2688	16.975	1.2693	0.1	151.79
2689	16.306	1.2693	0.1	180.35
2690	15.637	1.2693	0.1	211.47
2691	14.968	1.2693	0.1	245.11
2692	14.299	1.2693	0.1	281.24
2693	13.63	1.2693	0.1	319.83
2694	12.961	1.2693	0.1	360.83
2695	12.292	1.2693	0.1	404.17
2696	11.623	1.2693	0.1	449.86
2697	10.954	1.2693	0.1	497.9
2698	10.281	1.2722	0.1	548.33
2699	9.6094	1.2803	0.1	600.42
2700	8.9466	1.2848	0.1	652.71
2701	8.2917	1.2679	0.1	704.89
2702	1.5892	1.297	0.1	1337.4
2703	2.2091	4.6879	0.1	1298.9
2704	2.8156	4.7061	0.1	1245.1
2705	7.7435	4.3713	0.1	758.93
2706	7.6424	1.2218	0.1	751.6
2707	2.8029	3.3402	0.1	1260.2
2708	7.1301	4.5131	0.1	808.31
2709	3.2125	1.5621	0.1	1202.3
2710	6.533	4.6017	0.1	851.99
2711	7.2466	2.0541	0.1	839.23
2712	7.2976	1.4839	0.1	794.64
2713	3.4183	1.8967	0.1	1242.2
2714	5.4937	3.2325	0.1	2206.5
2715	3.9438	1.7956	0.1	1279.9
2716	6.1644	2.4364	0.1	1283.1
2717	5.9317	2.5338	0.1	1645.
2718	6.1622	2.0057	0.1	1146.6
2719	4.235	1.8734	0.1	1411.9
2720	5.9953	3.6166	0.1	1546.5
2721	6.0954	0.75978	0.1	633.13
2722	5.6374	0.41266	0.1	395.11
2723	5.9719	0.246	0.1	456.96
2724	5.4739	3.5411	0.1	2414.5
2725	4.8974	2.2015	0.1	2803.3
2726	5.6026	3.6706	0.1	2195.9
2727	5.36	3.8457	0.1	3475.6
2728	5.0715	2.107	0.1	4048.5
2729	5.2667	5.5	0.1	318.09
2730	5.2667	5.8333	0.1	218.7
2731	5.2667	5.6667	5.e-002	68.357
2732	5.2667	5.1667	0.1	487.96
2733	5.2667	5.3333	5.e-002	70.755
2734	5.2667	4.8333	0.1	867.09
2735	5.2667	5.	5.e-002	119.1
2736	5.2667	4.5	0.1	1538.2
2737	5.2667	4.6667	5.e-002	228.2
2738	5.2667	4.1667	0.1	3036.6
2739	5.2667	4.3333	5.e-002	432.15
2740	5.1833	4.	0.1	3862.7
2741	5.2667	4.	5.e-002	202.77
2742	5.1	4.1667	0.1	3155.7
2743	5.1	4.	5.e-002	371.74
2744	5.1	4.5	0.1	1777.8
2745	5.1	4.3333	5.e-002	575.79
2746	5.1	4.8333	0.1	992.87
2747	5.1	4.6667	5.e-002	311.38
2748	5.1	5.1667	0.1	603.91
2749	5.1	5.	5.e-002	158.84
2750	5.1	5.5	0.1	407.91
2751	5.1	5.3333	5.e-002	100.21
2752	5.1	5.8333	0.1	273.12
2753	5.1	5.6667	5.e-002	93.917
2754	5.2667	0.5	0.1	320.3
2755	5.2667	0.16667	0.1	221.81
2756	5.2667	0.33333	5.e-002	71.238
2757	5.2667	0.83333	0.1	477.33
2758	5.2667	0.66667	5.e-002	69.568
2759	5.2667	1.1667	0.1	826.76
2760	5.2667	1.	5.e-002	116.16
2761	5.2667	1.5	0.1	1560.6
2762	5.2667	1.3333	5.e-002	246.24
2763	5.2667	1.8333	0.1	3137.9
2764	5.2667	1.6667	5.e-002	500.43
2765	5.1833	2.	0.1	3841.1
2766	5.2667	2.	5.e-002	201.06
2767	5.1	1.8333	0.1	3269.8
2768	5.1	2.	5.e-002	440.2
2769	5.1	1.5	0.1	1740.9
2770	5.1	1.6667	5.e-002	577.63
2771	5.1	1.1667	0.1	1015.6
2772	5.1	1.3333	5.e-002	300.54
2773	5.1	0.83333	0.1	667.11
2774	5.1	1.	5.e-002	166.39
2775	5.1	0.5	0.1	437.7
2776	5.1	0.66667	5.e-002	96.481
2777	5.1	0.16667	0.1	258.37
2778	5.1	0.33333	5.e-002	65.278
2779	5.6012	6.	0.1	283.08
2780	5.2667	6.	5.e-002	57.636
2781	6.2702	6.	0.1	511.46
2782	5.9357	6.	5.e-002	11.797
2783	6.9393	6.	0.1	668.38
2784	6.6048	6.	5.e-002	9.4565
2785	7.6083	6.	0.1	714.14
2786	7.2738	6.	5.e-002	9.2693
2787	8.2774	6.	0.1	699.05
2788	7.9429	6.	5.e-002	13.321
2789	8.9464	6.	0.1	658.62
2790	8.6119	6.	5.e-002	14.991
2791	9.6155	6.	0.1	608.64
2792	9.281	6.	5.e-002	15.964
2793	10.285	6.	0.1	556.5
2794	9.95	6.	5.e-002	16.352
2795	10.954	6.	0.1	504.99
2796	10.619	6.	5.e-002	16.787
2797	11.623	6.	0.1	455.39
2798	11.288	6.	5.e-002	16.719
2799	12.292	6.	0.1	408.2
2800	11.957	6.	5.e-002	16.404
2801	12.961	6.	0.1	363.6
2802	12.626	6.	5.e-002	15.913
2803	13.63	6.	0.1	321.61
2804	13.295	6.	5.e-002	15.3
2805	14.299	6.	0.1	282.28
2806	13.964	6.	5.e-002	14.574
2807	14.968	6.	0.1	245.58
2808	14.633	6.	5.e-002	13.775
2809	15.637	6.	0.1	211.52
2810	15.302	6.	5.e-002	12.917
2811	16.306	6.	0.1	180.08
2812	15.971	6.	5.e-002	12.015
2813	16.975	6.	0.1	151.25
2814	16.64	6.	5.e-002	11.08
2815	17.644	6.	0.1	125.04
2816	17.31	6.	5.e-002	10.122
2817	18.313	6.	0.1	101.44
2818	17.979	6.	5.e-002	9.1465
2819	18.982	6.	0.1	80.444
2820	18.648	6.	5.e-002	8.1519
2821	19.651	6.	0.1	62.055
2822	19.317	6.	5.e-002	7.147
2823	20.32	6.	0.1	46.238
2824	19.986	6.	5.e-002	6.1491
2825	20.989	6.	0.1	32.987
2826	20.655	6.	5.e-002	5.1276
2827	21.658	6.	0.1	22.254
2828	21.324	6.	5.e-002	4.1353
2829	22.327	6.	0.1	13.916
2830	21.993	6.	5.e-002	3.0703
2831	22.996	6.	0.1	7.7594
2832	22.662	6.	5.e-002	2.0086
2833	23.665	6.	0.1	3.5845
2834	23.331	6.	5.e-002	1.0384
2835	24.	5.6667	0.1	3.6504
2836	24.	6.	5.e-002	0.31876
2837	24.	5.	0.1	7.1345
2838	24.	5.3333	5.e-002	0.23794
2839	24.	4.3333	0.1	10.173
2840	24.	4.6667	5.e-002	0.18689
2841	24.	3.6667	0.1	11.92
2842	24.	4.	5.e-002	0.19756
2843	24.	3.	0.1	12.508
2844	24.	3.3333	5.e-002	0.22622
2845	24.	2.3333	0.1	11.925
2846	24.	2.6667	5.e-002	0.2184
2847	24.	1.6667	0.1	10.177
2848	24.	2.	5.e-002	0.20418
2849	24.	1.	0.1	7.1311
2850	24.	1.3333	5.e-002	0.20395
2851	24.	0.33333	0.1	3.6491
2852	24.	0.66667	5.e-002	0.23819
2853	8.7419e-015	1.	0.1	952.24
2854	2.914e-015	0.33333	0.1	697.55
2855	5.9068e-015	0.66667	5.e-002	56.166
2856	1.457e-014	1.6667	0.1	1032.6
2857	1.1814e-014	1.3333	5.e-002	18.546
2858	2.0398e-014	2.3333	0.1	1071.
2859	1.772e-014	2.	5.e-002	13.696
2860	2.6226e-014	3.	0.1	1081.8
2861	2.3627e-014	2.6667	5.e-002	9.575
2862	3.2054e-014	3.6667	0.1	1072.
2863	2.9534e-014	3.3333	5.e-002	9.3933
2864	3.7882e-014	4.3333	0.1	1034.1
2865	3.5441e-014	4.	5.e-002	13.945
2866	4.371e-014	5.	0.1	953.81
2867	4.1348e-014	4.6667	5.e-002	19.083
2868	4.9538e-014	5.6667	0.1	698.62
2869	4.7254e-014	5.3333	5.e-002	55.783
2870	23.665	0.	0.1	3.5974
2871	24.	0.	5.e-002	0.31346
2872	22.996	0.	0.1	7.8027
2873	23.331	0.	5.e-002	1.0362
2874	22.327	0.	0.1	13.978
2875	22.662	0.	5.e-002	1.9825
2876	21.658	0.	0.1	22.293
2877	21.993	0.	5.e-002	2.9895
2878	20.989	0.	0.1	32.988
2879	21.324	0.	5.e-002	4.0032
2880	20.32	0.	0.1	46.206
2881	20.655	0.	5.e-002	5.0255
2882	19.651	0.	0.1	62.026
2883	19.986	0.	5.e-002	6.0994
2884	18.982	0.	0.1	80.443
2885	19.317	0.	5.e-002	7.1753
2886	18.313	0.	0.1	101.45
2887	18.648	0.	5.e-002	8.1517
2888	17.644	0.	0.1	125.05
2889	17.979	0.	5.e-002	9.1464
2890	16.975	0.	0.1	151.26
2891	17.31	0.	5.e-002	10.122
2892	16.306	0.	0.1	180.08
2893	16.64	0.	5.e-002	11.08
2894	15.637	0.	0.1	211.51
2895	15.971	0.	5.e-002	12.015
2896	14.968	0.	0.1	245.57
2897	15.302	0.	5.e-002	12.917
2898	14.299	0.	0.1	282.26
2899	14.633	0.	5.e-002	13.775
2900	13.63	0.	0.1	321.58
2901	13.964	0.	5.e-002	14.574
2902	12.961	0.	0.1	363.56
2903	13.295	0.	5.e-002	15.299
2904	12.292	0.	0.1	408.19
2905	12.626	0.	5.e-002	15.928
2906	11.623	0.	0.1	455.42
2907	11.957	0.	5.e-002	16.4
2908	10.954	0.	0.1	505.05
2909	11.288	0.	5.e-002	16.684
2910	10.285	0.	0.1	556.57
2911	10.619	0.	5.e-002	16.717
2912	9.6155	0.	0.1	608.73
2913	9.95	0.	5.e-002	16.483
2914	8.9464	0.	0.1	658.33
2915	9.281	0.	5.e-002	15.753
2916	8.2774	0.	0.1	698.37
2917	8.6119	0.	5.e-002	14.187
2918	7.6083	0.	0.1	713.1
2919	7.9429	0.	5.e-002	12.345
2920	6.9393	0.	0.1	667.34
2921	7.2738	0.	5.e-002	8.5775
2922	6.2702	0.	0.1	511.61
2923	6.6048	0.	5.e-002	7.993
2924	5.6012	0.	0.1	284.26
2925	5.9357	0.	5.e-002	11.04
2926	5.2667	0.	5.e-002	60.587
2927	4.7813	2.0472e-030	0.1	367.31
2928	5.1	2.1837e-030	5.e-002	40.352
2929	4.1438	1.7743e-030	0.1	727.03
2930	4.4625	0.	5.e-002	11.562
2931	3.5062	1.5013e-030	0.1	1040.3
2932	3.825	0.	5.e-002	7.9771
2933	2.8688	1.2283e-030	0.1	1238.4
2934	3.1875	0.	5.e-002	16.015
2935	2.2313	9.5538e-031	0.1	1379.
2936	2.55	0.	5.e-002	9.8615
2937	1.5938	6.8242e-031	0.1	1475.2
2938	1.9125	0.	5.e-002	33.323
2939	0.95625	4.0945e-031	0.1	1463.4
2940	1.275	0.	5.e-002	78.447
2941	0.31875	1.3648e-031	0.1	981.13
2942	0.6375	0.	5.e-002	117.04
2943	0.	0.	5.e-002	433.14
2944	0.31875	6.	0.1	981.01
2945	5.2451e-014	6.	5.e-002	434.52
2946	0.95625	6.	0.1	1462.7
2947	0.6375	6.	5.e-002	116.73
2948	1.5938	6.	0.1	1475.2
2949	1.275	6.	5.e-002	77.07
2950	2.2313	6.	0.1	1382.9
2951	1.9125	6.	5.e-002	32.094
2952	2.8688	6.	0.1	1244.1
2953	2.55	6.	5.e-002	13.194
2954	3.5062	6.	0.1	1038.
2955	3.1875	6.	5.e-002	3.7601
2956	4.1438	6.	0.1	729.01
2957	3.825	6.	5.e-002	14.222
2958	4.7813	6.	0.1	379.73
2959	4.4625	6.	5.e-002	8.3888
2960	5.1	6.	5.e-002	91.067
2961	4.1438	6.	0.	729.01
2962	4.7813	6.	0.	379.73
2963	3.5062	6.	0.	1038.
2964	2.8688	6.	0.	1244.1
2965	2.2313	6.	0.	1382.9
2966	1.5938	6.	0.	1475.2
2967	0.95625	6.	0.	1462.7
2968	0.31875	6.	0.	981.01
2969	5.1	5.8333	0.	273.12
2970	4.9538e-014	5.6667	0.	698.62
2971	0.95625	4.0945e-031	0.	1463.4
2972	0.31875	1.3648e-031	0.	981.13
2973	1.5938	6.8242e-031	0.	1475.2
2974	2.2313	9.5538e-031	0.	1379.
2975	2.8688	1.2283e-030	0.	1238.4
2976	3.5062	1.5013e-030	0.	1040.3
2977	4.1438	1.7743e-030	0.	727.03
2978	4.7813	2.0472e-030	0.	367.31
2979	5.1	0.16667	0.	258.37
2980	2.914e-015	0.33333	0.	697.55
2981	6.2702	0.	0.	511.61
2982	5.6012	0.	0.	284.26
2983	6.9393	0.	0.	667.34
2984	7.6083	0.	0.	713.1
2985	8.2774	0.	0.	698.37
2986	8.9464	0.	0.	658.33
2987	9.6155	0.	0.	608.73
2988	10.285	0.	0.	556.57
2989	10.954	0.	0.	505.05
2990	11.623	0.	0.	455.42
2991	12.292	0.	0.	408.19
2992	12.961	0.	0.	363.56
2993	13.63	0.	0.	321.58
2994	14.299	0.	0.	282.26
2995	14.968	0.	0.	245.57
2996	15.637	0.	0.	211.51
2997	16.306	0.	0.	180.08
2998	16.975	0.	0.	151.26
2999	17.644	0.	0.	125.05
3000	18.313	0.	0.	101.45
3001	18.982	0.	0.	80.443
3002	19.651	0.	0.	62.026
3003	20.32	0.	0.	46.206
3004	20.989	0.	0.	32.988
3005	21.658	0.	0.	22.293
3006	22.327	0.	0.	13.978
3007	22.996	0.	0.	7.8027
3008	23.665	0.	0.	3.5974
3009	5.2667	0.16667	0.	221.81
3010	24.	0.33333	0.	3.6491
3011	4.371e-014	5.	0.	953.81
3012	3.7882e-014	4.3333	0.	1034.1
3013	3.2054e-014	3.6667	0.	1072.
3014	2.6226e-014	3.	0.	1081.8
3015	2.0398e-014	2.3333	0.	1071.
3016	1.457e-014	1.6667	0.	1032.6
3017	8.7419e-015	1.	0.	952.24
3018	24.	1.	0.	7.1311
3019	24.	1.6667	0.	10.177
3020	24.	2.3333	0.	11.925
3021	24.	3.	0.	12.508
3022	24.	3.6667	0.	11.92
3023	24.	4.3333	0.	10.173
3024	24.	5.	0.	7.1345
3025	24.	5.6667	0.	3.6504
3026	23.665	6.	0.	3.5845
3027	22.996	6.	0.	7.7594
3028	22.327	6.	0.	13.916
3029	21.658	6.	0.	22.254
3030	20.989	6.	0.	32.987
3031	20.32	6.	0.	46.238
3032	19.651	6.	0.	62.055
3033	18.982	6.	0.	80.444
3034	18.313	6.	0.	101.44
3035	17.644	6.	0.	125.04
3036	16.975	6.	0.	151.25
3037	16.306	6.	0.	180.08
3038	15.637	6.	0.	211.52
3039	14.968	6.	0.	245.58
3040	14.299	6.	0.	282.28
3041	13.63	6.	0.	321.61
3042	12.961	6.	0.	363.6
3043	12.292	6.	0.	408.2
3044	11.623	6.	0.	455.39
3045	10.954	6.	0.	504.99
3046	10.285	6.	0.	556.5
3047	9.6155	6.	0.	608.64
3048	8.9464	6.	0.	658.62
3049	8.2774	6.	0.	699.05
3050	7.6083	6.	0.	714.14
3051	6.9393	6.	0.	668.38
3052	6.2702	6.	0.	511.46
3053	5.6012	6.	0.	283.08
3054	5.2667	5.8333	0.	218.7
3055	5.1	1.5	0.	1740.9
3056	5.1	1.8333	0.	3269.8
3057	5.1	1.1667	0.	1015.6
3058	5.1	0.83333	0.	667.11
3059	5.1	0.5	0.	437.7
3060	5.1833	2.	0.	3841.1
3061	5.2667	0.5	0.	320.3
3062	5.2667	0.83333	0.	477.33
3063	5.2667	1.1667	0.	826.76
3064	5.2667	1.5	0.	1560.6
3065	5.2667	1.8333	0.	3137.9
3066	5.1	4.5	0.	1777.8
3067	5.1	4.1667	0.	3155.7
3068	5.1	4.8333	0.	992.87
3069	5.1	5.1667	0.	603.91
3070	5.1	5.5	0.	407.91
3071	5.1833	4.	0.	3862.7
3072	5.2667	5.5	0.	318.09
3073	5.2667	5.1667	0.	487.96
3074	5.2667	4.8333	0.	867.09
3075	5.2667	4.5	0.	1538.2
3076	5.2667	4.1667	0.	3036.6
